time,ASR_ext,ASR_strain,ASR_strain_xx,ASR_strain_yy,ASR_strain_zz,disp_x_101,disp_x_102,disp_x_103,disp_x_104,disp_x_105,disp_x_106,disp_x_p10_neg,disp_x_p10_pos,disp_x_p11_neg,disp_x_p11_pos,disp_x_p12_neg,disp_x_p12_pos,disp_x_p13_neg,disp_x_p13_pos,disp_x_p14_neg,disp_x_p14_pos,disp_x_p15_neg,disp_x_p15_pos,disp_x_p16_neg,disp_x_p16_pos,disp_x_p1_neg,disp_x_p1_pos,disp_x_p2_neg,disp_x_p2_pos,disp_x_p3_neg,disp_x_p3_pos,disp_x_p4_neg,disp_x_p4_pos,disp_x_p5_neg,disp_x_p5_pos,disp_x_p6_neg,disp_x_p6_pos,disp_x_p7_neg,disp_x_p7_pos,disp_x_p8_neg,disp_x_p8_pos,disp_x_p9_neg,disp_x_p9_pos,disp_y_101,disp_y_102,disp_y_103,disp_y_104,disp_y_105,disp_y_106,disp_y_p10_neg,disp_y_p10_pos,disp_y_p11_neg,disp_y_p11_pos,disp_y_p12_neg,disp_y_p12_pos,disp_y_p1_neg,disp_y_p1_pos,disp_y_p2_neg,disp_y_p2_pos,disp_y_p3_neg,disp_y_p3_pos,disp_y_p4_neg,disp_y_p4_pos,disp_y_p5_neg,disp_y_p5_pos,disp_y_p6_neg,disp_y_p6_pos,disp_y_p7_neg,disp_y_p7_pos,disp_y_p8_neg,disp_y_p8_pos,disp_y_p9_neg,disp_y_p9_pos,disp_z_101,disp_z_102,disp_z_103,disp_z_104,disp_z_105,disp_z_106,disp_z_p10_neg,disp_z_p10_pos,disp_z_p11_neg,disp_z_p11_pos,disp_z_p12_neg,disp_z_p12_pos,disp_z_p13_neg,disp_z_p13_pos,disp_z_p14_neg,disp_z_p14_pos,disp_z_p15_neg,disp_z_p15_pos,disp_z_p16_neg,disp_z_p16_pos,disp_z_p1_neg,disp_z_p1_pos,disp_z_p2_neg,disp_z_p2_pos,disp_z_p3_neg,disp_z_p3_pos,disp_z_p4_neg,disp_z_p4_pos,disp_z_p5_neg,disp_z_p5_pos,disp_z_p6_neg,disp_z_p6_pos,disp_z_p7_neg,disp_z_p7_pos,disp_z_p8_neg,disp_z_p8_pos,disp_z_p9_neg,disp_z_p9_pos,humidity,ndof,nelem,strain_xx,strain_yy,strain_zz,temp,thermal_strain_xx,thermal_strain_yy,thermal_strain_zz,vonmises,vstrain
14391759,0,0,0,0,0,0,0,0,0,0,0,0,0,0,0,0,0,0,0,0,0,0,0,0,0,0,0,0,0,0,0,0,0,0,0,0,0,0,0,0,0,0,0,0,0,0,0,0,0,0,0,0,0,0,0,0,0,0,0,0,0,0,0,0,0,0,0,0,0,0,0,0,0,0,0,0,0,0,0,0,0,0,0,0,0,0,0,0,0,0,0,0,0,0,0,0,0,0,0,0,0,0,0,0,0,0,0,0,0,0,0,0,0,0,0,0,0,0,0,0,0,0,0
14591759,0.019294429584112,0.00033922833172128,0.00011307611057376,0.00011307611057376,0.00011307611057376,-2.879188040291e-05,2.8791691661261e-05,-6.7567617949402e-11,-1.203633059703e-10,2.970353746822e-10,-4.9637723115235e-10,-2.5545636120737e-05,2.5544605333808e-05,-2.8201903943098e-05,2.8200944284941e-05,-2.820194701498e-05,2.8200952037277e-05,-2.5544844165642e-05,2.5545503016619e-05,-2.554476314134e-05,2.5545312898689e-05,-2.8201172801303e-05,2.8201781016078e-05,-2.8201130163788e-05,2.8201701458083e-05,-2.9975511052682e-05,2.9975601776601e-05,-2.9975496922753e-05,2.9975552253396e-05,-2.9975745734069e-05,2.9975317986295e-05,-2.9975768699714e-05,2.9975306155969e-05,-2.7716756433082e-05,2.7716355163638e-05,-2.7716792001102e-05,2.7716287798766e-05,-2.771653296274e-05,2.7716661290532e-05,-2.7716486944257e-05,2.7716510641252e-05,-2.5545549183276e-05,2.5544619635923e-05,-2.6047936480626e-10,5.3842206097659e-10,-9.9650018975332e-09,1.022918311684e-08,-3.0264429495261e-05,3.0264695582308e-05,-2.946675835894e-05,2.9486565035917e-05,-2.9176643012622e-05,2.9169434133321e-05,-2.917586516499e-05,2.9170232373212e-05,-3.0671773128573e-05,3.0665146773222e-05,-3.0665288764124e-05,3.0671920008955e-05,-3.0671519773025e-05,3.0665413569012e-05,-3.0665035068473e-05,3.0672186889369e-05,-2.9486055602733e-05,2.9466772493965e-05,-2.9466496064383e-05,2.9486835544506e-05,-2.9169994792621e-05,2.9176178447563e-05,-2.9169215652739e-05,2.9176978272432e-05,-2.9486315422753e-05,2.9466502030249e-05,-3.3446246470625e-09,-3.2867085756263e-09,-2.8892774111583e-05,2.8886102586652e-05,6.5156703961319e-09,-1.3463150700104e-08,-2.6974995785009e-05,2.6948349072533e-05,-2.7319378279502e-05,2.7292843724764e-05,-2.7319399145711e-05,2.7292825531769e-05,-2.695511188877e-05,2.6968229417738e-05,-2.6955163080659e-05,2.6968173052151e-05,-2.7299698868474e-05,2.7312511643763e-05,-2.7299719021051e-05,2.7312494385315e-05,-2.997951508635e-05,2.9979528416581e-05,-2.9986144658504e-05,2.9972900617983e-05,-2.9979495392483e-05,2.9979547640349e-05,-2.9986124766212e-05,2.9972919488539e-05,-2.8781052738631e-05,2.8767826989572e-05,-2.8781105880467e-05,2.8767765853863e-05,-2.8774416131298e-05,2.8774454216136e-05,-2.877436505282e-05,2.8774514857194e-05,-2.6974941363393e-05,2.6948410612321e-05,0.70642003697139,129487,2954,0.000119958517243,0.00012609428877887,0.00012036532864313,31.359813366206,1.0878506929646e-05,1.0878506929646e-05,1.0878506929646e-05,602917.43859402,0.00036648565605586
14791759,0.038373754500994,0.00067151828419392,0.00022285227142345,0.00022578074437368,0.00022288526839679,-5.3663020372565e-05,5.3663094266842e-05,2.0224133822844e-11,5.2331780521534e-11,-1.8323139971534e-10,2.6311777455576e-10,-4.6147758396517e-05,4.6148324218525e-05,-5.2202155165409e-05,5.2202662225706e-05,-5.2202122162791e-05,5.2202659197776e-05,-4.6148218123027e-05,4.6147833922331e-05,-4.6148254402432e-05,4.6147904093488e-05,-5.220257057102e-05,5.2202202659054e-05,-5.2202583668396e-05,5.2202228366889e-05,-5.7030087026552e-05,5.7030003969499e-05,-5.7030093726472e-05,5.7030029791905e-05,-5.7029956245641e-05,5.7030162196276e-05,-5.7029938201544e-05,5.7030168788073e-05,-5.0950541685043e-05,5.0950723907118e-05,-5.0950509108189e-05,5.0950762804091e-05,-5.0950660267636e-05,5.0950555037142e-05,-5.0950683454078e-05,5.0950632880216e-05,-4.6147831481269e-05,4.6148307634715e-05,1.7358762313078e-10,-2.7689436098876e-10,7.3365179688495e-09,-7.4361182962345e-09,-5.7165606049362e-05,5.7165505746124e-05,-5.5103498118102e-05,5.5089041730583e-05,-5.435737213442e-05,5.4362620210499e-05,-5.4357814798444e-05,5.4362163434608e-05,-5.8929111205796e-05,5.8934001881992e-05,-5.8933860679379e-05,5.8929062880505e-05,-5.8929256218379e-05,5.8933850446011e-05,-5.8934003065623e-05,5.8928914312944e-05,-5.5089289448321e-05,5.5103539481035e-05,-5.5103644786504e-05,5.5088897297826e-05,-5.4362246110571e-05,5.4357687471288e-05,-5.4362680582889e-05,5.4357238828283e-05,-5.5089134310668e-05,5.5103691572246e-05,1.5682758705538e-09,1.5403607477212e-09,-5.3850985676645e-05,5.3854115541872e-05,-5.7010020077933e-09,8.979494204284e-09,-4.8953621363751e-05,4.8971356975838e-05,-5.0055539001654e-05,5.0073229302058e-05,-5.0055535320218e-05,5.007323600925e-05,-4.8968202381167e-05,4.8956778792738e-05,-4.8968158879823e-05,4.8956819061382e-05,-5.0070017165858e-05,5.0058750585851e-05,-5.0070004858983e-05,5.0058766165804e-05,-5.7092836354098e-05,5.7091075024314e-05,-5.7087965417231e-05,5.7095946184042e-05,-5.7092847511e-05,5.7091065408138e-05,-5.7087973390458e-05,5.7095938859447e-05,-5.335090051427e-05,5.3358870591409e-05,-5.3350872484066e-05,5.3358888449862e-05,-5.335577320905e-05,5.3353987314689e-05,-5.335581022325e-05,5.3353961406713e-05,-4.8953637282721e-05,4.8971345196787e-05,0.70581019239712,129487,2954,0.0002235707027661,0.00023816082246015,0.00022435996911256,31.087118470124,8.6969477609945e-06,8.6969477609945e-06,8.6969477609945e-06,1224792.789377,0.00068632928725581
14991759,0.056232680194435,0.00097846819466725,0.00032349781702135,0.00033133028742513,0.00032364009022076,-7.5465812565755e-05,7.5465894727474e-05,-2.6238867453699e-11,1.0747944011548e-10,-2.3017919644458e-10,3.1937496750699e-10,-6.2762563855316e-05,6.2763226273498e-05,-7.2449554746773e-05,7.2450173060197e-05,-7.2449500154499e-05,7.2450146051623e-05,-6.2763171395329e-05,6.2762478309552e-05,-6.2763142433608e-05,6.276291500362e-05,-7.2450063710082e-05,7.2449533604754e-05,-7.2450068534428e-05,7.2449688616057e-05,-8.1527926917279e-05,8.1527774066656e-05,-8.1527930209084e-05,8.1527886569544e-05,-8.1527779244632e-05,8.1528002711434e-05,-8.1527730191643e-05,8.1528023205365e-05,-7.1252022509276e-05,7.1252183573826e-05,-7.1251917072556e-05,7.1252279296157e-05,-7.1252158127387e-05,7.1251893726663e-05,-7.125214332454e-05,7.1252202241441e-05,-6.276266399643e-05,6.2763266105973e-05,1.9090168983717e-10,-3.2594134761538e-10,2.0642053837162e-08,-2.0772669155293e-08,-8.2026911638208e-05,8.2026780163634e-05,-7.9373389701694e-05,7.9332818197335e-05,-7.8485737052061e-05,7.8499830721782e-05,-7.8486210955887e-05,7.8499343720979e-05,-8.4518110727353e-05,8.4531715132015e-05,-8.4531379096034e-05,8.4517847510093e-05,-8.4518264695712e-05,8.4531553280555e-05,-8.4531552631762e-05,8.4517666019675e-05,-7.9333400412106e-05,7.9373773376244e-05,-7.9373592083957e-05,7.9332614767445e-05,-7.8499351515219e-05,7.848601541634e-05,-7.8499887330835e-05,7.8485467523596e-05,-7.9333259292804e-05,7.9373915165511e-05,5.7613230480577e-09,5.664405963616e-09,-7.5884061971893e-05,7.5895553686996e-05,-1.4546447840899e-08,2.6544488399671e-08,-6.771431805913e-05,6.7766884913072e-05,-6.8820684545272e-05,6.887294244085e-05,-6.8820621522079e-05,6.8873005892427e-05,-6.7755113362907e-05,6.772609122488e-05,-6.7755120807213e-05,6.7726083509618e-05,-6.8861115143914e-05,6.8832508832429e-05,-6.8861114241814e-05,6.8832511751501e-05,-8.1597702237453e-05,8.1595456672864e-05,-8.1584068486305e-05,8.1609090499037e-05,-8.1597725388869e-05,8.1595435299904e-05,-8.1584111201037e-05,8.1609049126012e-05,-7.6158934390525e-05,7.6183900170974e-05,-7.6158806003593e-05,7.6184022254707e-05,-7.6172570494698e-05,7.6170256325689e-05,-7.6172639457299e-05,7.6170196945893e-05,-6.7714517326553e-05,6.7766692019807e-05,0.70496389240226,129487,2954,0.00031439108809079,0.00034171864207264,0.000316156669272,30.085194375774,6.8155500619623e-07,6.8155500619623e-07,6.8155500619623e-07,1357961.1106854,0.0009727447865835
15191759,0.072466092976979,0.0012387555971503,0.000408057179841,0.00042234433898908,0.00040835407832021,-9.3503729832958e-05,9.3503776728648e-05,-8.2274860175306e-11,1.2858684789242e-10,-2.3580416660193e-10,2.8822445710796e-10,-7.3581230056752e-05,7.3581962342507e-05,-8.8222092023736e-05,8.8222604023618e-05,-8.8222035866981e-05,8.8222663202938e-05,-7.3581902039972e-05,7.3581191525581e-05,-7.3581788709989e-05,7.3581566627264e-05,-8.8222610501848e-05,8.8222063399233e-05,-8.82225436982e-05,8.8222160711099e-05,-0.00010266267171712,0.00010266247003107,-0.00010266262812769,0.00010266257937778,-0.00010266252683901,0.00010266267615995,-0.00010266244150315,0.00010266272255416,-8.754144282536e-05,8.7541468788294e-05,-8.7541150430255e-05,8.7541560739763e-05,-8.7541558603612e-05,8.7541208203184e-05,-8.7541379169755e-05,8.754147098597e-05,-7.3581433494756e-05,7.3581836181106e-05,1.8387316968875e-10,-3.2083968761098e-10,1.5951713466734e-08,-1.6084453322935e-08,-0.00010387486567629,0.00010387473215888,-0.00010063540762792,0.00010060399700211,-9.9693112623672e-05,9.9704127011376e-05,-9.9693590150178e-05,9.9703638087862e-05,-0.00010681434695045,0.00010682485394615,-0.00010682457265022,0.00010681412520962,-0.00010681450125097,0.00010682469267446,-0.00010682473684925,0.00010681395366852,-0.00010060448123438,0.00010063565728861,-0.00010063559152726,0.00010060381373689,-9.9703679811453e-05,9.9693394020196e-05,-9.9704190626719e-05,9.9692874573196e-05,-0.00010060432820722,0.00010063581137453,4.3647235015194e-09,4.1743137712102e-09,-9.4224391717736e-05,9.423295225491e-05,-1.1435541006818e-08,2.037356202962e-08,-8.1811215946784e-05,8.1851615116881e-05,-8.2797046640809e-05,8.2837115402914e-05,-8.2796970369341e-05,8.2837189544021e-05,-8.1842832540328e-05,8.1820000809846e-05,-8.184267773234e-05,8.1820155809314e-05,-8.2828326459303e-05,8.2805831072148e-05,-8.2828274422936e-05,8.280588598797e-05,-0.00010276691182694,0.0001027648809553,-0.00010275637651303,0.0001027754159779,-0.00010276696987195,0.00010276482434329,-0.00010275644517152,0.00010277534866082,-9.5632275685783e-05,9.5651190083475e-05,-9.5632073874576e-05,9.5651386789575e-05,-9.5642715551447e-05,9.5640743739536e-05,-9.5642892577001e-05,9.5640573867902e-05,-8.1811442245641e-05,8.1851396582849e-05,0.66036287138598,129487,2954,0.00038952262562221,0.00043271525332131,0.00039254115567884,28.683116510444,-1.0535067916444e-05,-1.0535067916444e-05,-1.0535067916444e-05,1408031.6507747,0.0012155283947708
15391759,0.087186083989714,0.001501941267744,0.00049332673350304,0.00051491960545871,0.00049369492878226,-0.00011122698082673,0.00011122701486985,-1.3140551267752e-10,1.6490714457309e-10,-2.1651798700942e-10,2.5537433951128e-10,-8.5993985957742e-05,8.5994735920971e-05,-0.00010588755799418,0.00010588797690569,-0.00010588748146634,0.00010588807186229,-8.5994694524303e-05,8.5993937702107e-05,-8.5994478391525e-05,8.5994379482642e-05,-0.00010588802762232,0.00010588748996901,-0.00010588793398803,0.00010588761863699,-0.00012236456953339,0.00012236434282466,-0.00012236448988394,0.00012236447405876,-0.00012236443610003,0.00012236452800828,-0.00012236432450533,0.00012236460420302,-0.00010447045691535,0.00010447036997575,-0.0001044700944081,0.0001044705579466,-0.00010447056607933,0.00010447013587291,-0.00010447029520877,0.00010447047651844,-8.5994263139874e-05,8.5994517788116e-05,1.5656559080073e-10,-2.9628169338404e-10,1.1546009251512e-08,-1.1681303767155e-08,-0.00012543243965325,0.0001254323035083,-0.00012220547760075,0.00012218270824029,-0.00012051084143743,0.00012051887008501,-0.00012051126753866,0.00012051843403202,-0.00012833624718464,0.00012834385583623,-0.00012834366336927,0.00012833607541361,-0.00012833638509666,0.00012834371191959,-0.00012834381129129,0.00012833592116429,-0.00012218310345173,0.00012220563416856,-0.0001222056451691,0.00012218254189353,-0.00012051849533929,0.00012051108538678,-0.00012051895504282,0.00012051061867218,-0.00012218296809644,0.00012220577076956,3.813316207528e-09,3.5377542173349e-09,-0.00011213295273262,0.00011214032576701,-7.6850567965842e-09,1.5353072022823e-08,-9.7805670297504e-05,9.7836265508691e-05,-9.797277540667e-05,9.8002931666712e-05,-9.7972670550463e-05,9.8003034016582e-05,-9.7828719050275e-05,9.7813218499542e-05,-9.7828480272459e-05,9.7813459239238e-05,-9.7995412011667e-05,9.7980290210711e-05,-9.7995331516702e-05,9.7980373834607e-05,-0.00012258181611047,0.00012258155864756,-0.00012257418898837,0.00012258918529743,-0.00012258190216069,0.00012258147391667,-0.00012257428633244,0.00012258908942219,-0.00011532490432899,0.00011533963800116,-0.00011532461940326,0.00011533991731898,-0.00011533233829277,0.00011533219807761,-0.00011533259844337,0.00011533194431251,-9.7805978817219e-05,9.7835965273904e-05,0.73442855747954,129487,2954,0.0004633388982792,0.00052249495333856,0.00046712593724305,27.270311434306,-2.1837508525548e-05,-2.1837508525548e-05,-2.1837508525548e-05,1200679.4612262,0.0014540300401112
15591759,0.10069766410713,0.0017484455179128,0.00057307248455778,0.00060203006641485,0.00057334296694012,-0.00012714320615146,0.00012714325491284,-1.6861174647909e-10,2.1656409203476e-10,-2.7321274857484e-10,3.2825192854435e-10,-9.7483536176641e-05,9.7484501274614e-05,-0.00012181054685925,0.00012181108431407,-0.0001218104478331,0.00012181120659864,-9.7484469659398e-05,9.7483495908521e-05,-9.7484125543786e-05,9.7484016543131e-05,-0.000121811152468,0.00012181046883715,-0.00012181101754361,0.00012181062468363,-0.00014008041337964,0.00014008012664961,-0.0001400802937259,0.00014008028091675,-0.00014008023137987,0.00014008035274482,-0.00014008009211752,0.00014008045680155,-0.00011968659109172,0.00011968647966291,-0.0001196861569372,0.00011968675962012,-0.00011968676010444,0.00011968620891422,-0.00011968638327866,0.000119686628155,-9.7483878609743e-05,9.7484205832564e-05,2.0660280940393e-10,-3.7495014384666e-10,7.4459163198308e-09,-7.6085317324239e-09,-0.00014495539746292,0.00014495523372324,-0.00014197690108213,0.00014196217436171,-0.00013950910386367,0.00013951450694723,-0.0001395096495887,0.00013951394842631,-0.0001477943693882,0.00014779929898826,-0.00014779912967084,0.00014779425005165,-0.00014779454704746,0.00014779911380215,-0.00014779932031944,0.00014779405137144,-0.00014196253830367,0.00014197698296246,-0.00014197711680658,0.00014196195964454,-0.00013951404352025,0.0001395094557548,-0.0001395146338956,0.00013950885558604,-0.00014196236596157,0.00014197715721336,3.3775600859847e-09,3.0202888863948e-09,-0.00012818193656725,0.00012818834987835,-4.1253471325798e-09,1.0778146323129e-08,-0.00011224684459453,0.0001122685344912,-0.00011153737838587,0.00011155850663432,-0.00011153724222042,0.00011155864081747,-0.00011226195513114,0.0001122534274235,-0.00011226165221174,0.0001122537320321,-0.00011155201025888,0.00011154387044677,-0.00011155190631096,0.00011154397702282,-0.00014043676536374,0.00014043828764581,-0.00014043183890196,0.00014044321343957,-0.00014043687704108,0.00014043817754106,-0.00014043196539312,0.00014044308880957,-0.00013300160320363,0.00013301259883148,-0.00013300123282384,0.00013301296199628,-0.00013300624401219,0.00013300795109724,-0.00013300657996031,0.00013300762246321,-0.00011224724884512,0.00011226813969871,0.74589761273302,129487,2954,0.00052962470496981,0.00060379404038809,0.00053396168275345,26.02522684691,-3.1798185224718e-05,-3.1798185224718e-05,-3.1798185224718e-05,1238266.4195169,0.0016687882800918
15791759,0.11388535394463,0.0020018574067033,0.00065488957217286,0.00069192193444367,0.0006550459000868,-0.00014465932637147,0.00014465948462825,-1.5168284246534e-10,3.0788039286239e-10,-6.6623465826425e-10,8.4001778052239e-10,-0.00011171307315636,0.00011171516403338,-0.0001401605872544,0.00014016209279583,-0.00014016045634947,0.00014016226244638,-0.00011171498766168,0.00011171320012879,-0.00011171457472302,0.00011171370937363,-0.0001401620771919,0.00014016060814804,-0.00014016191413834,0.00014016075589155,-0.00015915265141731,0.00015915215380965,-0.00015915250005657,0.00015915231653813,-0.00015915217389778,0.00015915267049776,-0.00015915200528105,0.0001591528047397,-0.00013677466483566,0.00013677487414841,-0.00013677413036673,0.00013677522896779,-0.00013677512840829,0.0001367743250067,-0.00013677466250976,0.00013677477139216,-0.00011171351992683,0.00011171474010216,5.8702752887922e-10,-9.0719413998421e-10,3.111407160647e-09,-3.4183126159365e-09,-0.00016624032359056,0.00016624001459415,-0.00016381822946988,0.00016381200951319,-0.00016016090002084,0.00016016423840045,-0.00016016235192198,0.00016016275682495,-0.00016890944657058,0.00016891172396273,-0.00016891143529431,0.00016890952007451,-0.0001689099247344,0.00016891122931607,-0.00016891191613352,0.00016890902214603,-0.00016381246848299,0.00016381808803652,-0.00016381873129294,0.0001638115059117,-0.00016016303772685,0.00016016201303946,-0.00016016450272824,0.00016016052127006,-0.00016381197902245,0.00016381858210595,2.6890418613615e-09,2.2352497001707e-09,-0.00014578658074658,0.00014579150824492,-6.5666259752421e-10,5.751359205472e-09,-0.00012894892977812,0.000128960763873,-0.0001272610219193,0.00012727224084384,-0.00012726086901168,0.0001272723920161,-0.00012895574087288,0.00012895396021462,-0.00012895529465475,0.00012895440509446,-0.00012726731154312,0.00012726595095137,-0.00012726715921562,0.00012726610377567,-0.00015964579766564,0.00015964871022013,-0.0001596436999894,0.00015965080675542,-0.00015964594718819,0.00015964856391663,-0.00015964385405851,0.00015965065574814,-0.00015259202314713,0.00015259863466121,-0.00015259157166731,0.00015259907498129,-0.00015259372904269,0.00015259691862998,-0.00015259417668465,0.00015259648177774,-0.00012894938248815,0.00012896032262514,0.78512882121947,129487,2954,0.0006025690214253,0.00069242291273717,0.00060727019751179,25.604052016128,-3.5167583870979e-05,-3.5167583870979e-05,-3.5167583870979e-05,1280148.3524812,0.0019040909054921
15991759,0.12677103196517,0.0022474578942418,0.0007338271957596,0.0007797436694512,0.00073388702903097,-0.00016162270409045,0.00016162293225814,-1.6225355231315e-10,3.8758093507289e-10,-8.8258884434752e-10,1.1330792503831e-09,-0.0001250394662773,0.0001250422043715,-0.00015793847456439,0.00015794053214917,-0.00015793832630963,0.00015794073317959,-0.00012504198728627,0.00012503965551142,-0.00012504142934543,0.00012504023827607,-0.00015794047998826,0.00015793854835138,-0.0001579402642659,0.00015793871485761,-0.00017773475619141,0.00017773412656547,-0.00017773456373852,0.00017773431234849,-0.00017773410508418,0.00017773481002184,-0.00017773391035127,0.0001777349736889,-0.00015323635533979,0.00015323672143942,-0.00015323573640925,0.00015323715478092,-0.00015323700452762,0.0001532360041094,-0.00015323642149496,0.00015323652431756,-0.00012503997083333,0.00012504170149451,7.8816138994217e-10,-1.217150923827e-09,-2.5564342213658e-10,-1.5478458077554e-10,-0.00018722964170843,0.00018722922832927,-0.00018535500373011,0.0001853553618135,-0.00018043851045026,0.0001804400360192,-0.00018044045202313,0.00018043805402528,-0.00018971501448255,0.00018971516573405,-0.00018971484022486,0.00018971518067932,-0.0001897156559332,0.00018971450253264,-0.00018971548870994,0.00018971450977074,-0.00018535586680318,0.00018535471738111,-0.0001853556820672,0.00018535467964798,-0.00018043844945977,0.00018044002802352,-0.00018044041956077,0.00018043802009781,-0.0001853552158396,0.00018535537497306,2.0584821610624e-09,1.5241317205703e-09,-0.00016284481674315,0.00016284839370631,1.9284834271367e-09,1.7549585088656e-09,-0.00014503153624605,0.00014503559228078,-0.00014222467013249,0.00014222798904314,-0.00014222448351251,0.0001422281738355,-0.00014503191801236,0.00014503522184403,-0.00014503141429374,0.00014503572150502,-0.00014222447788048,0.00014222818406322,-0.0001422243042585,0.00014222835623284,-0.00017837292632588,0.00017837671389887,-0.00017837301411164,0.00017837662488004,-0.00017837310144675,0.00017837654330868,-0.00017837319785976,0.0001783764449346,-0.00017175338187842,0.00017175636996398,-0.0001717528437103,0.00017175689512645,-0.00017175280701694,0.00017175693278263,-0.00017175332786838,0.00017175642555439,-0.00014503209053755,0.00014503505145473,0.77894718099843,129487,2954,0.00067320680883251,0.00077981310999476,0.00067829863308444,25.204027435722,-3.8367780514226e-05,-3.8367780514226e-05,-3.8367780514226e-05,1350833.319112,0.0021336113470984
16191759,0.13935294934919,0.0024849722806238,0.00080984964691001,0.0008653066986961,0.00080981593501774,-0.0001779707106082,0.00017797097228844,-1.8819665016637e-10,4.4670351549953e-10,-9.550189972443e-10,1.2432330167428e-09,-0.00013741533782494,0.000137418377438,-0.00017507147101306,0.00017507371562415,-0.00017507129923496,0.00017507395174435,-0.00013741813547751,0.00013741557144494,-0.00013741746319455,0.00013741620731664,-0.00017507366326747,0.0001750715613515,-0.00017507340519085,0.00017507174030981,-0.00019576163589328,0.00019576095011899,-0.00019576140866172,0.00019576115746252,-0.00019576092092092,0.0001957616898427,-0.00019576070021078,0.00019576188467984,-0.0001689772375849,0.00016897761343618,-0.00016897653565625,0.00016897813200279,-0.00016897795483499,0.00016897684362794,-0.00016897727417544,0.0001689774310691,-0.00013741591636621,0.00013741778186462,8.4471216167477e-10,-1.3424820189984e-09,-2.7248892043214e-09,2.2485043617425e-09,-0.00020778470910647,0.00020778422934228,-0.00020642009220095,0.00020642522323334,-0.00020018268767814,0.00020018270769974,-0.00020018480569068,0.00020018054363474,-0.00021009875529863,0.00021009729220418,-0.0002100969932336,0.0002100989363012,-0.00021009945557768,0.00021009656775579,-0.00021009770006714,0.00021009820470052,-0.00020642575786184,0.00020641970287185,-0.00020642082996223,0.00020642448067182,-0.00020018101834569,0.00020018432270674,-0.00020018316321877,0.00020018213420564,-0.00020642504618137,0.00020642042212977,1.5204414194738e-09,9.0027535561027e-10,-0.00017928631976835,0.00017928872882057,3.7380725871028e-09,-1.2715271976655e-09,-0.00016041340057923,0.00016041156732281,-0.00015644014794756,0.0001564374800673,-0.00015643993368146,0.00015643769276368,-0.00016040907882754,0.00016041590179522,-0.00016040848892619,0.00016041648590374,-0.00015643519806149,0.00015644243440564,-0.00015643499426093,0.00015644263520098,-0.00019654522942912,0.00019654949601415,-0.00019654692466301,0.00019654779965506,-0.00019654543383618,0.00019654929698701,-0.00019654713693409,0.00019654759147682,-0.00019031055701363,0.00019031068560193,-0.00019030993522645,0.00019031129387465,-0.00019030827910735,0.00019031295071824,-0.00019030888559097,0.00019031235950431,-0.00016041403711859,0.00016041094457311,0.7719852438254,129487,2954,0.00074127781690332,0.00086538774862226,0.0007467547607058,24.804850087545,-4.1561199299636e-05,-4.1561199299636e-05,-4.1561199299636e-05,1435371.7461599,0.0023562136370004
16391759,0.15167005998908,0.0027184126754127,0.00088429303211389,0.00094995508436554,0.00088416455893324,-0.00019399823534328,0.00019399842022741,-2.6878923830195e-10,4.5147937570689e-10,-6.2209195802506e-10,8.2873271790198e-10,-0.00014935007648828,0.00014935238072399,-0.00019201922098744,0.00019202062089289,-0.00019201902064405,0.00019202088497596,-0.00014935222318277,0.00014935023289303,-0.00014935145747951,0.00014935094822732,-0.00019202068128961,0.00019201920725512,-0.00019202039076343,0.00019201941114748,-0.00021346918059359,0.00021346863679572,-0.00021346892629167,0.00021346887419301,-0.00021346870908713,0.00021346912756559,-0.00021346846262691,0.00021346935331446,-0.00018439579702647,0.00018439576601183,-0.00018439501876597,0.00018439637482049,-0.00018439626767158,0.00018439524579292,-0.00018439550817058,0.00018439592209104,-0.00014935073291837,0.00014935170070294,5.0162834674724e-10,-9.393074851283e-10,-1.8256737072523e-09,1.4049716915792e-09,-0.00022818954970489,0.00022818912603967,-0.00022737689977374,0.00022738012888249,-0.0002197035124964,0.00021970343374243,-0.00021970489989171,0.00021970201113186,-0.00023030507060448,0.00023030399036883,-0.00023030387233896,0.00023030505190839,-0.00023030552832846,0.00023030351511498,-0.00023030433668978,0.0002303045693545,-0.00022738062543225,0.00022737658395753,-0.00022737739089676,0.00022737963480727,-0.00021970241948276,0.00021970446691716,-0.00021970383412697,0.00021970301930714,-0.00022738016108713,0.00022737705387031,1.5421555804666e-09,8.3647065191414e-10,-0.00019540006800851,0.00019540243856502,2.8541110568296e-09,-4.1728795377916e-10,-0.00017553300270552,0.00017553292472188,-0.00017036670759819,0.00017036568880557,-0.00017036646446702,0.00017036593029831,-0.00017553047141307,0.00017553546610972,-0.00017552980018714,0.00017553613257783,-0.00017036346598897,0.00017036893309948,-0.00017036323422869,0.00017036916215394,-0.0002143996545566,0.00021440333089868,-0.00021440077207815,0.00021440221281996,-0.00021439988697225,0.00021440310298644,-0.00021440101260111,0.00021440197565737,-0.00020862513892622,0.00020862571581838,-0.00020862443469533,0.00020862640976921,-0.00020862335501338,0.00020862748949739,-0.00020862404386403,0.00020862681371342,-0.0001755337230034,0.00017553221586563,0.77561769763353,129487,2954,0.00080801021061742,0.00095032981570158,0.00081384421714357,24.447567877346,-4.4419456981229e-05,-4.4419456981229e-05,-4.4419456981229e-05,1521464.5381431,0.0025755188562722
16591759,0.16381832673398,0.0029567685533719,0.00096006116005102,0.0010368816275489,0.00095982576577192,-0.00021031876454583,0.00021031889393717,-3.4283867688508e-10,4.7082770675734e-10,-3.9252745487922e-10,5.3988851096041e-10,-0.00016174084587649,0.00016174264860705,-0.00020974933281995,0.00020975014082183,-0.00020974910654689,0.00020975042566596,-0.00016174257246157,0.00016174092141157,-0.00016174169022206,0.00016174175285511,-0.00020975029106993,0.00020974923073241,-0.00020974996202907,0.00020974947409095,-0.00023135632800484,0.00023135586701107,-0.00023135604318327,0.00023135614129479,-0.00023135602409031,0.0002313561881026,-0.00023135575167577,0.00023135644497016,-0.00020027074147522,0.00020027039984097,-0.00020026988905736,0.00020027110229796,-0.00020027104783668,0.00020027004509666,-0.00020027019876221,0.00020027082984842,-0.00016174156650072,0.00016174189863631,2.6157014530352e-10,-6.5122018295903e-10,-8.8372642372761e-10,5.0741018342308e-10,-0.00024913555854983,0.00024913517968506,-0.00024911779792682,0.00024911910044495,-0.00023973050055281,0.00023973055105557,-0.00023973136408231,0.00023972966019393,-0.00025090479684845,0.00025090418972145,-0.00025090418987644,0.00025090463641977,-0.00025090507996828,0.00025090389356522,-0.00025090448492705,0.00025090432775482,-0.00024911957176236,0.0002491175606222,-0.00024911812166065,0.00024911877517576,-0.00023973000687885,0.00023973097723917,-0.00023973091239033,0.00023973004637833,-0.00024911929004363,0.00024911784617447,1.6994356553595e-09,9.1623302568885e-10,-0.00021179516929211,0.00021179778309851,2.0628628155765e-09,6.3757666110668e-10,-0.0001913660706361,0.0001913681601011,-0.00018484924731642,0.00018485027055937,-0.00018484897067656,0.00018485054600075,-0.00019136543663337,0.00019136880172333,-0.00019136471361767,0.00019136952124185,-0.00018484781391451,0.00018485170575913,-0.00018484756477783,0.00018485195280065,-0.00023243321075214,0.00023243653509479,-0.00023243371222404,0.0002324360334048,-0.00023243346610041,0.00023243628351015,-0.00023243398093804,0.00023243576756567,-0.00022751597008984,0.00022751731157435,-0.00022751518343532,0.00022751809029692,-0.00022751472521939,0.00022751854809387,-0.00022751548135461,0.00022751780312414,-0.00019136688828157,0.00019136735152914,0.80315412531101,129487,2954,0.00087595869622762,0.0010375170958274,0.00088210134809841,24.193056297612,-4.6455549619105e-05,-4.6455549619105e-05,-4.6455549619105e-05,1601309.3099602,0.0027995130286245
16791759,0.1757978718892,0.0031927163974171,0.0010347760048668,0.0011236277199752,0.0010343126725751,-0.00022639115921103,0.00022639124230412,-4.0541728121417e-10,4.8773000043328e-10,-2.0786025909265e-10,3.0538747165178e-10,-0.00017345427556444,0.0001734557085609,-0.00022740365882948,0.00022740397364824,-0.00022740339737537,0.00022740428685311,-0.00017345566330308,0.00017345431572259,-0.0001734547217753,0.00017345521568713,-0.00022740419801519,0.00022740348056808,-0.00022740385100712,0.00022740374873677,-0.00024903820327285,0.00024903781074391,-0.0002490378976401,0.00024903811325183,-0.00024903803972752,0.00024903799090928,-0.00024903774051909,0.00024903827846868,-0.0002158622651917,0.0002158616547964,-0.00021586133741031,0.00021586244988273,-0.00021586242520255,0.00021586144527521,-0.00021586151530988,0.00021586231209693,-0.00017345508530908,0.0001734548633648,7.9202167108309e-11,-4.2082292891125e-10,-1.3046189977263e-11,-3.1853398400544e-10,-0.00027009635807478,0.00027009602435286,-0.00027092325084442,0.00027092279179014,-0.00025965163924106,0.00025965189903497,-0.00025965210631962,0.00025965141082779,-0.00027145747039386,0.00027145733201632,-0.0002714574123145,0.0002714572064856,-0.00027145762080208,0.00027145717202148,-0.00027145757072179,0.00027145703792114,-0.00027092325397878,0.00027092308010045,-0.00027092343084817,0.00027092261134186,-0.00025965171018847,0.00025965175172438,-0.00025965220530697,0.00025965123746955,-0.00027092310232168,0.0002709232339702,1.9329259467149e-09,1.0582383521137e-09,-0.00022792817732977,0.00022793117328197,1.4322847059869e-09,1.6752823980264e-09,-0.00020691468642566,0.00020691888613181,-0.00019899777467906,0.00019900081740992,-0.00019899747322936,0.00019900111786485,-0.00020691579351046,0.00020691778497562,-0.00020691496460406,0.00020691861142877,-0.00019899798930988,0.00019900060406007,-0.00019899770491868,0.00019900088696528,-0.00025024542852586,0.00025024860720155,-0.00025024537794343,0.00025024865777478,-0.00025024571591803,0.00025024832287595,-0.00025024567471388,0.00025024836347471,-0.00024628798765352,0.00024629017395067,-0.00024628711853953,0.00024629103677421,-0.00024628720954402,0.00024629094524837,-0.00024628806082139,0.00024629010315158,-0.00020691557492935,0.00020691800503281,0.80668160449862,129487,2954,0.00094287039172637,0.0011247581139483,0.00094926335570735,23.941186363669,-4.847050909065e-05,-4.847050909065e-05,-4.847050909065e-05,1683223.4404286,0.0030214728218215
16991759,0.1876041749298,0.0034205525749386,0.0011066453372568,0.0012080959800947,0.0011058112575871,-0.00024192993422435,0.00024192998104554,-4.6653239474823e-10,5.130721564206e-10,-6.8672404700763e-11,1.2682540561503e-10,-0.00018410956396665,0.00018411072606564,-0.0002443740385285,0.00024437397424906,-0.0002443737464437,0.00024437431244981,-0.00018411071918831,0.00018410956033838,-0.00018410969507263,0.00018411055515884,-0.00024437426442263,0.00024437379168844,-0.00024437389141266,0.00024437409371676,-0.00026631985914993,0.00026631950695807,-0.0002663195274338,0.00026631984164836,-0.00026631980033752,0.00026631958243571,-0.00026631947394397,0.00026631989969602,-0.00023075031133026,0.0002307494762395,-0.00023074930561543,0.00023075036063026,-0.00023075036589702,0.00023074937055238,-0.00023074937832634,0.00023075033118755,-0.00018411045252107,0.00018410979809262,-5.8228773048012e-11,-2.3941393635351e-10,7.0722675421547e-10,-9.9769904929507e-10,-0.0002907068589268,0.00029070656675526,-0.00029228028274087,0.00029227838801173,-0.0002791015151632,0.0002791019667934,-0.00027910167017637,0.00027910179609835,-0.00029169701639417,0.00029169727528536,-0.00029169741066957,0.00029169667910708,-0.00029169706249581,0.00029169722218612,-0.00029169746534092,0.00029169661688678,-0.00029227883334961,0.00029228017871654,-0.00029228035772174,0.00029227831342172,-0.00027910204501508,0.00027910135284053,-0.00027910222957479,0.00027910115427512,-0.00029227878816757,0.00029228022491352,2.167173584603e-09,1.2080186548575e-09,-0.00024350950384509,0.0002435128892866,9.4487326940624e-10,2.5755504011002e-09,-0.00022158645791408,0.0002215925135593,-0.00021231471099525,0.00021231949865317,-0.00021231438034512,0.00021231982860309,-0.00022158902376655,0.00022158995163029,-0.0002215881158062,0.00022159085801705,-0.00021231629052695,0.00021231791970461,-0.00021231597974225,0.00021231822962128,-0.00026763872930713,0.00026764185864627,-0.00026763821768533,0.0002676423704555,-0.00026763904428544,0.00026764154617306,-0.00026763854275448,0.00026764204752379,-0.00026448552206104,0.00026448846929048,-0.00026448457004962,0.00026448941641832,-0.0002644851246545,0.00026448886099655,-0.00026448605701487,0.00026448793651556,-0.00022158743085887,0.00022159154611941,0.791340326768,129487,2954,0.0010075571079019,0.0012105334033059,0.0010141247298042,23.689422162848,-5.0484622697213e-05,-5.0484622697213e-05,-5.0484622697213e-05,1767709.7645936,0.0032374717294307
17191759,0.19896241232138,0.0036343336466752,0.0011738330619284,0.0012879503859856,0.0011725501987612,-0.00025595457940758,0.00025595457786255,-5.4607457080406e-10,5.4489485943902e-10,1.1124877517628e-10,-1.0589092025948e-10,-0.00019304354919847,0.00019304429718063,-0.00025956949647012,0.00025956895890105,-0.00025956918716444,0.00025956931038653,-0.00019304440255042,0.00019304342881704,-0.00019304321077634,0.00019304460376606,-0.00025956933760886,0.00025956916055497,-0.00025956890894338,0.00025956952521884,-0.00028216607203402,0.00028216576439612,-0.00028216569856431,0.00028216614630774,-0.00028216614203836,0.00028216571073913,-0.00028216578660465,0.00028216605849996,-0.00024396752174823,0.00024396641478155,-0.00024396643241347,0.00024396739038972,-0.00024396745974188,0.00024396642371869,-0.00024396634842534,0.00024396752210037,-0.00019304448065473,0.00019304332322431,-2.4779615600121e-10,1.3669678137849e-11,1.4943520413283e-09,-1.7251751038863e-09,-0.00030977530485252,0.0003097750728502,-0.00031194615293087,0.00031194270725977,-0.00029694251856896,0.00029694307716621,-0.00029694222037523,0.00029694336780626,-0.00031048671848763,0.00031048738405776,-0.0003104875974057,0.00031048628621383,-0.00031048661326237,0.00031048748624803,-0.00031048751543048,0.00031048636471643,-0.00031194309608676,0.00031194615400787,-0.0003119461027072,0.00031194275913945,-0.00029694352505902,0.00029694197822562,-0.00029694329918502,0.00029694219822295,-0.00031194321920799,0.00031194603075308,2.4079283840841e-09,1.3892135376105e-09,-0.00025755714536527,0.00025756095748368,3.9371796106523e-10,3.5774365665075e-09,-0.00023441333979996,0.00023442148931584,-0.00022390702663242,0.00022391374685862,-0.0002239066541815,0.0002239141185037,-0.00023441750291222,0.00023441732746999,-0.00023441660169624,0.00023441822975364,-0.00022391011197546,0.00022391066046947,-0.00022390980410948,0.00022391096895392,-0.00028358700289691,0.00028359004927121,-0.00028358596833794,0.00028359108407946,-0.00028358732996117,0.00028358972386498,-0.00028358632049283,0.00028359073380272,-0.00028099720913126,0.00028100101430751,-0.00028099617810517,0.00028100204220408,-0.00028099727260507,0.00028100094685695,-0.00028099824065486,0.00028099998473319,-0.00023441443364329,0.00023442039942916,0.77293680821047,129487,2954,0.0010659379049343,0.0012898841854371,0.0010725986185083,23.131988396173,-5.4944092830619e-05,-5.4944092830619e-05,-5.4944092830619e-05,1846041.8834377,0.0034343341856051
17391759,0.20951461421203,0.0038252285547956,0.0012336555075345,0.0013597105033291,0.001231862543932,-0.00026762677368574,0.00026762669826732,-5.7868305502695e-10,5.0454102054095e-10,3.7143024242135e-10,-4.4670805041246e-10,-0.00019962675398015,0.00019962707138553,-0.00027199138428852,0.00027199009517259,-0.00027199099371839,0.00027199052652465,-0.00019962700088058,0.00019962680292046,-0.00019962607204138,0.00019962773162341,-0.00027199055263804,0.00027199097421314,-0.00027199021354287,0.00027199125775097,-0.00029569679738009,0.0002956966462759,-0.00029569645719186,0.00029569699998648,-0.00029569709289762,0.00029569636469913,-0.00029569671093229,0.00029569673950143,-0.00025466745984829,0.00025466600312227,-0.00025466629477674,0.00025466705810709,-0.00025466711024669,0.00025466629527447,-0.00025466609966095,0.00025466730783399,-0.00019962792316575,0.00019962585571788,-4.5499153677675e-10,3.1894478971112e-10,2.5611050057133e-09,-2.699184770111e-09,-0.00032621217584253,0.00032621203754647,-0.00032872612220102,0.00032872051101298,-0.0003121380119517,0.00031213892704917,-0.0003121373006467,0.00031213964027294,-0.00032680237047562,0.0003268036616673,-0.00032680394120433,0.00032680185156942,-0.00032680212689327,0.00032680390694711,-0.00032680366363872,0.00032680213030873,-0.00032872092193555,0.00032872615764857,-0.0003287258165871,0.00032872082071919,-0.00031213977879699,0.00031213705877737,-0.00031213896645412,0.00031213787526205,-0.00032872112827989,0.00032872594865664,2.7185670352351e-09,1.5210132192318e-09,-0.00026923401780209,0.00026923827703317,-2.7490261736962e-10,4.7180926861652e-09,-0.00024451688003509,0.00024452719447107,-0.00023299549640624,0.0002330044894401,-0.00023299514889978,0.00023300483579824,-0.00024452300720524,0.00024452106813603,-0.00024452167831283,0.00024452239770963,-0.00023300044569174,0.00023299953808724,-0.00023299999414483,0.00023299999072388,-0.00029721437448164,0.00029721734761349,-0.00029721276764996,0.00029721895471881,-0.00029721478842769,0.0002972169337813,-0.00029721314964047,0.0002972185735849,-0.00029481255056187,0.00029481730937896,-0.00029481143174533,0.00029481842893962,-0.00029481304346891,0.00029481681559964,-0.00029481427078443,0.00029481559018425,-0.00024451789677674,0.00024452618500606,0.74411373283456,129487,2954,0.0011145243921043,0.0013582786198122,0.0011212020380895,22.132150582251,-6.2942795341995e-05,-6.2942795341995e-05,-6.2942795341995e-05,1914460.2955476,0.003600504431078
17591759,0.21929925453798,0.0039957253994197,0.0012869940906345,0.0014240897689875,0.0012846415397977,-0.00027789342923174,0.0002778933188077,-6.725400487161e-10,5.6384392692566e-10,4.7602220934826e-10,-5.9040309381134e-10,-0.00020500594921159,0.00020500594478019,-0.00028269627676726,0.00028269471366061,-0.00028269589333831,0.00028269513444868,-0.00020500609896918,0.00020500576975718,-0.00020500484223226,0.00020500705004813,-0.00028269525896076,0.00028269577757004,-0.00028269481354049,0.00028269617393316,-0.00030781556887885,0.00030781539497473,-0.00030781516033241,0.00030781582226522,-0.00030781592490728,0.00030781505326097,-0.000307815515434,0.00030781545617434,-0.00026384774848634,0.00026384609320499,-0.0002638465028134,0.00026384723283085,-0.00026384738347863,0.00026384639867807,-0.00026384616023122,0.00026384763380109,-0.00020500708553208,0.00020500477232733,-5.7574898366817e-10,5.0631529870194e-10,3.2053296434384e-09,-3.2801874436723e-09,-0.0003409378035667,0.00034093772914447,-0.00034358971168732,0.00034358292506895,-0.0003256309490659,0.000325631962683,-0.00032562986771242,0.00032563305572318,-0.00034154838859952,0.0003415500303766,-0.00034155034106908,0.00034154782667454,-0.00034154802527139,0.00034155039882249,-0.00034154998604034,0.00034154818638741,-0.00034358322576433,0.00034358989831243,-0.00034358937177997,0.00034358326978412,-0.00032563304848062,0.00032562975460307,-0.0003256320072089,0.00032563080681674,-0.00034358360146193,0.00034358951856711,2.9036848494982e-09,1.6885352829117e-09,-0.00027949076791858,0.00027949538330471,-7.7321990279692e-10,5.5923633884314e-09,-0.00025298305504946,0.00025299531807191,-0.00024063876108589,0.00024064940434953,-0.00024063834328862,0.00024064982193327,-0.00025299056188709,0.00025298780642276,-0.0002529894190774,0.00025298895143458,-0.00024064499277224,0.00024064316854191,-0.00024064459971829,0.00024064356391534,-0.00030942251193662,0.00030942536522867,-0.00030942042810498,0.00030942744986057,-0.00030942291125144,0.00030942496591398,-0.00030942083922438,0.00030942703919806,-0.00030692291742649,0.00030692840179019,-0.00030692171521296,0.00030692960629402,-0.00030692385368846,0.00030692746495573,-0.00030692503027263,0.0003069262908993,-0.00025298428729175,0.00025299408347448,0.71798589191823,129487,2954,0.0011572589588949,0.0014195481296151,0.0011638925656662,21.120909155784,-7.1032726753726e-05,-7.1032726753726e-05,-7.1032726753726e-05,1980155.6620469,0.0037477423086624
17791759,0.2283744312785,0.0041488806502275,0.0013348496414972,0.0014821251392785,0.0013319058694517,-0.00028698496105177,0.00028698484617683,-7.0900510468956e-10,5.9592031913154e-10,4.634031931079e-10,-5.8358146522947e-10,-0.00020949827479154,0.00020949840907745,-0.00029200414536468,0.00029200255481618,-0.00029200372293387,0.00029200301840629,-0.00020949850753363,0.00020949814768499,-0.00020949724490295,0.00020949943828857,-0.00029200313060416,0.00029200361924524,-0.00029200268016721,0.00029200402117781,-0.00031872070079812,0.00031872049921126,-0.00031872027592717,0.00031872094438678,-0.00031872105643814,0.00031872015783245,-0.00031872061792196,0.00031872059062006,-0.00027181086651957,0.00027180912501464,-0.00027180953264806,0.00027181035220584,-0.00027181048588881,0.00027180944495144,-0.00027180921769052,0.00027181072735671,-0.00020949953416773,0.00020949710904896,-5.472906588409e-10,5.0424509181482e-10,3.5034329719026e-09,-3.5526876302801e-09,-0.00035418538434462,0.00035418533562386,-0.00035682524731524,0.00035681791658042,-0.00033768376252613,0.00033768504747205,-0.00033768273481585,0.00033768608837215,-0.00035493568186579,0.0003549375551645,-0.00035493782778531,0.0003549351524824,-0.00035493533497425,0.00035493790728776,-0.00035493747634102,0.00035493550859683,-0.00035681822578971,0.00035682545456028,-0.00035682489822632,0.00035681827079808,-0.00033768607275637,0.00033768262247305,-0.00033768504117177,0.00033768366684151,-0.00035681857174649,0.00035682510454226,3.0474595426109e-09,1.7298908302983e-09,-0.00028855576766167,0.00028856057011775,-9.3947694552493e-10,5.9570035098745e-09,-0.0002601644958989,0.00026017751359391,-0.00024714566984858,0.00024715701824868,-0.00024714523749983,0.00024715745042486,-0.00026017262760133,0.00026016937786957,-0.00026017132334385,0.00026017068512923,-0.00024715244176529,0.00024715024230363,-0.00024715199496154,0.00024715069181195,-0.00032041267081015,0.00032041557115523,-0.00032041041784808,0.0003204178247589,-0.00032041311057304,0.00032041513108985,-0.00032041085636311,0.00032041738665867,-0.00031759272963824,0.0003175984938464,-0.00031759144629933,0.00031759977950772,-0.00031759374255018,0.00031759748063487,-0.00031759503958126,0.00031759618557289,-0.00026016576718985,0.00026017624120823,0.69669206946588,129487,2954,0.001195101193202,0.0014746642290701,0.0012016211527836,20.125719501672,-7.8994243986625e-05,-7.8994243986625e-05,-7.8994243986625e-05,2043148.9865913,0.003878932532453
17991759,0.23679916593424,0.0042892989083244,0.0013786912995466,0.001535453601676,0.0013751540071019,-0.00029517523614802,0.00029517514499906,-7.4213773550308e-10,6.5251986545867e-10,3.516914392003e-10,-4.4705133933698e-10,-0.00021350541677897,0.00021350589050822,-0.00030035657314688,0.00030035522639565,-0.00030035612725469,0.00030035571667604,-0.00021350598110861,0.00021350529491552,-0.00021350461475435,0.00021350669239136,-0.00030035580842676,0.0003003560422608,-0.00030035532335989,0.00030035647844606,-0.00032862700657689,0.00032862671510958,-0.00032862655056961,0.00032862719205283,-0.00032862727898677,0.00032862645773077,-0.00032862681279637,0.00032862691901849,-0.00027892913706638,0.00027892741919087,-0.00027892771892869,0.00027892872655027,-0.00027892884429126,0.00027892765050511,-0.00027892748122191,0.00027892902535496,-0.00021350674597492,0.00021350451937142,-4.2744654371327e-10,3.789454131101e-10,3.4391097326172e-09,-3.4928523312515e-09,-0.00036625506804961,0.00036625501491116,-0.00036883469818723,0.00036882757116121,-0.00034862720222276,0.00034862867709635,-0.00034862640808735,0.00034862948171083,-0.0003672051977502,0.0003672071068364,-0.00036720730351479,0.00036720474562819,-0.00036720492891842,0.00036720737877874,-0.00036720703360186,0.00036720501809879,-0.00036882788611811,0.00036883491370419,-0.00036883443593348,0.00036882783813742,-0.00034862946361501,0.00034862629700445,-0.00034862867909981,0.00034862709181195,-0.00036882815700066,0.00036883463948815,3.1128103232188e-09,1.7140062240658e-09,-0.00029670575511608,0.00029671060745164,-8.5428082999271e-10,5.9257775318177e-09,-0.00026652151345395,0.0002665345685943,-0.00025291852254162,0.00025292977867962,-0.00025291805777174,0.00025293024297875,-0.00026652961135609,0.00026652646699535,-0.00026652824548166,0.00026652783564461,-0.0002529251732825,0.00025292312464596,-0.00025292470450121,0.00025292359604977,-0.00033039477353792,0.00033039778624817,-0.00033039255781764,0.00033040000247403,-0.00033039523866921,0.00033039732105185,-0.00033039302550447,0.00033039953532262,-0.00032720258000996,0.00032720826913062,-0.00032720121082633,0.0003272096395357,-0.00032720347479823,0.00032720737343687,-0.00032720484542717,0.00032720600489984,-0.00026652288208306,0.00026653319883789,0.68920300511104,129487,2954,0.0012291913597367,0.0015248767009678,0.0012355400747385,19.154148987853,-8.6766808097174e-05,-8.6766808097174e-05,-8.6766808097174e-05,2099904.0238841,0.0039976247759452
18191759,0.24461351010274,0.0044216521793357,0.0014200108008835,0.0015857485248592,0.0014158928535931,-0.00030269245365474,0.00030269239831557,-7.6716079149236e-10,7.1291000912535e-10,2.1459580670129e-10,-2.7174554224992e-10,-0.0002173277811838,0.00021732868481363,-0.00030816991027426,0.00030816887976473,-0.00030816943713822,0.00030816940032056,-0.00021732873645548,0.00021732769609535,-0.00021732728794739,0.00021732917570429,-0.00030816945326689,0.00030816938875055,-0.00030816893884157,0.0003081698518379,-0.00033769344395724,0.00033769305585199,-0.00033769295908617,0.0003376935607841,-0.00033769361313342,0.00033769290197985,-0.00033769311856094,0.00033769339195422,-0.0002855418038405,0.00028554014044548,-0.00028554029974599,0.00028554153026047,-0.00028554161430757,0.0002855402689904,-0.00028554016571741,0.00028554172433002,-0.00021732919403571,0.00021732722766051,-2.7885700485256e-10,2.1419710359463e-10,3.1760317488587e-09,-3.243885080111e-09,-0.00037740561099436,0.00037740554361515,-0.00037999778592125,0.00037999125119368,-0.0003587454024426,0.00035874700366423,-0.00035874491558045,0.00035874749592594,-0.00037853472275563,0.00037853655381047,-0.00037853666329296,0.00037853436210518,-0.00037853455606393,0.00037853672068543,-0.00037853649511224,0.00037853452980669,-0.0003799915829833,0.00037999798991695,-0.00037999762713946,0.00037999141336321,-0.00035874749468636,0.00035874479087304,-0.00035874701643704,0.00035874527435548,-0.00037999174990369,0.00037999782102613,3.1447282651182e-09,1.6604047691343e-09,-0.00030416203114141,0.00030416686147183,-6.1039552123104e-10,5.6603713355816e-09,-0.00027245753511244,0.00027247015115859,-0.00025830011531711,0.00025831082218602,-0.00025829962261324,0.00025831131493316,-0.00027246521592382,0.00027246246756,-0.00027246376417252,0.00027246392056193,-0.00025830626448854,0.00025830467065497,-0.00025830576624416,0.00025830517053777,-0.00033951716020105,0.00033952034822529,-0.00033951511435884,0.00033952239455627,-0.00033951765424372,0.00033951985467286,-0.00033951561062373,0.0003395218990773,-0.0003360908607587,0.00033609627471454,-0.00033608940732398,0.00033609772824336,-0.00033609150164129,0.00033609563180591,-0.00033609295682322,0.00033609417994349,-0.00027245898602097,0.0002724686991793,0.70094114912392,129487,2954,0.0012604796103629,0.0015712627901081,0.0012665707726893,18.183188646613,-9.4534490827098e-05,-9.4534490827098e-05,-9.4534490827098e-05,2144024.352169,0.0041067748534892
18391759,0.25203554707254,0.004547715283744,0.0014593505510272,0.0016337160930018,0.001454648639715,-0.00031027022489938,0.00031027023510765,-7.6267951978184e-10,7.7315753564889e-10,-1.6857571233359e-11,3.0445916398153e-11,-0.00022132929033226,0.00022133102270694,-0.00031609745774172,0.00031609694922565,-0.00031609691439599,0.00031609754406524,-0.00022133083457403,0.0002213294488972,-0.00022132950404322,0.00022133080832713,-0.00031609747490638,0.00031609698874202,-0.00031609699185172,0.00031609741325934,-0.00034675825966174,0.00034675775843246,-0.00034675777157592,0.00034675826283971,-0.00034675826969574,0.0003467577622829,-0.00034675773896729,0.00034675828886461,-0.00029235945410076,0.00029235792422962,-0.00029235784152059,0.00029235942081963,-0.00029235939042832,0.00029235793172718,-0.00029235793664411,0.0002923593837148,-0.00022133093175964,0.00022132933770752,-6.335418035269e-11,-3.7532886817027e-11,2.4680984538379e-09,-2.5694940700655e-09,-0.00038852130651908,0.00038852120559231,-0.00039115742203598,0.00039115231067792,-0.00036887664929977,0.00036887827128313,-0.00036887667132254,0.00036887824475571,-0.00038979811563258,0.00038979963061355,-0.00038979962412902,0.00038979788267337,-0.00038979811789999,0.00038979962213195,-0.00038979959059979,0.00038979791074147,-0.000391152722265,0.0003911575312576,-0.00039115736350221,0.00039115236973161,-0.0003688783384397,0.00036887646514416,-0.00036887826175774,0.00036887653670193,-0.00039115268163827,0.00039115757231555,3.0985839902978e-09,1.4991201087553e-09,-0.00031167409579493,0.00031167871691858,1.3670110420598e-11,4.8177758714564e-09,-0.00027854137741985,0.00027855226902583,-0.00026385256323129,0.00026386162745033,-0.00026385208624417,0.00026386210567063,-0.00027854772406794,0.00027854592667033,-0.00027854598736072,0.00027854767154837,-0.0002638573238197,0.00026385686902474,-0.00026385673420555,0.00026385746102564,-0.00034862854078846,0.00034863206366434,-0.00034862699901547,0.00034863360474529,-0.00034862909095466,0.00034863151482646,-0.00034862751584347,0.00034863308857668,-0.00034501249050761,0.00034501714812849,-0.00034501097598661,0.00034501866058381,-0.00034501252970422,0.00034501710669968,-0.00034501415200809,0.00034501548965149,-0.00027854277120604,0.00027855088578066,0.70344890527428,129487,2954,0.0012920192694698,0.0016175015612131,0.0012978322383599,17.511727043482,-9.9906183652147e-05,-9.9906183652147e-05,-9.9906183652147e-05,2184356.3525291,0.0042162729354243
18591759,0.25933023463221,0.0046689752446537,0.001497148552227,0.0016799899936385,0.0014918366987882,-0.00031831818947637,0.00031831827115287,-7.8029065584725e-10,8.6124108166878e-10,-2.5498859368526e-10,3.4623958234637e-10,-0.00022567461706275,0.00022567695393319,-0.00032439964716588,0.00032439975850444,-0.00032439910275223,0.00032440035741504,-0.00022567680857171,0.00022567473230993,-0.00022567525305326,0.00022567630476097,-0.00032440024193142,0.00032439921926702,-0.00032439968859724,0.00032439970793585,-0.00035634104163669,0.00035634038260133,-0.00035634050731166,0.0003563409290074,-0.00035634085940665,0.00035634058060873,-0.00035634030316965,0.00035634113094202,-0.00029969122479584,0.00029968988239857,-0.00029968954164784,0.00029969144094141,-0.00029969138354386,0.00029968966959116,-0.00029968978023147,0.00029969125389959,-0.00022567624499886,0.00022567528019411,2.1380200278234e-10,-3.6061760805241e-10,1.3437547703833e-09,-1.4876464982221e-09,-0.00040012245548417,0.00040012231151047,-0.00040274566531592,0.00040274291187932,-0.00037948647696456,0.00037948787290449,-0.00037948704260343,0.00037948729067736,-0.00040156767220849,0.00040156860505008,-0.00040156845705526,0.00040156760490154,-0.0004015678576825,0.00040156840852028,-0.00040156862768702,0.00040156742233875,-0.00040274331051135,0.00040274575187113,-0.00040274584169357,0.00040274273316844,-0.00037948739634193,0.00037948684335166,-0.00037948794652842,0.00037948627536457,-0.00040274310821301,0.00040274595680951,2.9409376950486e-09,1.2762480418182e-09,-0.00031965183178611,0.00031965606868279,8.774709213142e-10,3.5508760283255e-09,-0.00028497615854296,0.00028498474582977,-0.00026979807889096,0.00026980459119947,-0.00026979754388099,0.00026980512698607,-0.00028498046768553,0.00028498044018683,-0.0002849787870146,0.00028498212190087,-0.00026980070498021,0.00026980196627941,-0.00026980012755253,0.00026980254253695,-0.00035824786891629,0.000358251730412,-0.00035824702447853,0.00035825257521437,-0.0003582484305487,0.00035825117150702,-0.0003582475759308,0.0003582520256061,-0.00035433107577424,0.00035433454182556,-0.00035432945868196,0.00035433615411599,-0.00035433033771171,0.00035433527381645,-0.00035433198706838,0.00035433363220929,-0.00028497773789939,0.00028498317416378,0.68932006381385,129487,2954,0.0013255150060608,0.001665757243521,0.0013310300481808,17.2637498657,-0.0001018900010744,-0.0001018900010744,-0.0001018900010744,2230845.8702529,0.0043317184553403
18791759,0.26650445300848,0.0047954511994953,0.0015366028360501,0.0017281983252327,0.0015306500382125,-0.00032659611743894,0.00032659624016624,-8.0381232462201e-10,9.2517360752253e-10,-3.6730633832291e-10,5.0354755883537e-10,-0.00023070978443582,0.00023071250599342,-0.00033332074727372,0.00033332114369946,-0.00033332017959764,0.00033332176880821,-0.00023071233164646,0.00023070993299564,-0.00023071067246809,0.00023071159603681,-0.00033332161379308,0.00033332033589178,-0.00033332102379952,0.00033332085523155,-0.00036598071552166,0.00036597997657014,-0.00036598014746934,0.00036598055111155,-0.00036598044188102,0.00036598026461631,-0.00036597985817706,0.00036598084215621,-0.00030760161022482,0.00030760031390914,-0.00030759984417788,0.0003076019576372,-0.00030760186457874,0.00030760001314084,-0.00030760016749248,0.00030760167784669,-0.00023071148546709,0.00023071075589571,3.3750993860085e-10,-5.1173782235087e-10,5.0892074876899e-10,-6.7868999298659e-10,-0.0004119355171023,0.00041193534704144,-0.00041476864658236,0.00041476757456552,-0.00039035288618686,0.00039035397954353,-0.00039035371664413,0.00039035312430587,-0.00041345362593644,0.0004134540805801,-0.00041345387607107,0.00041345363098676,-0.00041345389886719,0.00041345379312691,-0.00041345413630225,0.00041345335546834,-0.00041476798252636,0.00041476869817655,-0.00041476891674385,0.00041476730058974,-0.00039035326295806,0.00039035349835032,-0.0003903540799291,0.00039035265503983,-0.00041476769407466,0.00041476899099848,2.8497869134586e-09,1.1016333223453e-09,-0.00032783703302626,0.00032784100141532,1.5511084273861e-09,2.5953624155075e-09,-0.00029202583982107,0.00029203264044888,-0.00027628274150792,0.00027628734217704,-0.0002762821751337,0.0002762879094416,-0.00029202862357424,0.00029202986275782,-0.00029202687373216,0.00029203160933719,-0.00027628376204828,0.00027628632505949,-0.00027628315923786,0.0002762869248786,-0.00036790790039055,0.00036791206347759,-0.00036790759647739,0.00036791236784891,-0.00036790848933659,0.00036791147812522,-0.00036790817721668,0.00036791178927634,-0.00036400486961604,0.00036400744165102,-0.00036400316593652,0.00036400913917388,-0.00036400350553612,0.00036400879838072,-0.00036400523359041,0.00036400707949546,-0.00029202751487977,0.00029203097288735,0.73043485862716,129487,2954,0.0013599671338071,0.0017148918423957,0.0013650902262339,17.02665461375,-0.00010378676309,-0.00010378676309,-0.00010378676309,2264863.5044201,0.0044498855450943
18991759,0.27356037851034,0.0049220325774848,0.0015760662022708,0.0017765414747838,0.0015694249004302,-0.00033482659717573,0.00033482673734872,-8.3810379823956e-10,9.7657344140318e-10,-3.9907113476841e-10,5.5489665972912e-10,-0.00023553309774157,0.0002355360045051,-0.00034234284353069,0.00034234331280987,-0.00034234224790625,0.00034234396645469,-0.00023553581371277,0.00023553326591507,-0.00023553406589596,0.00023553500843204,-0.00034234379289267,0.00034234242348097,-0.00034234317223824,0.00034234296984772,-0.00037555683763453,0.00037555605943454,-0.00037555623876908,0.00037555666069177,-0.00037555653593965,0.00037555637448536,-0.00037555592347983,0.00037555697997645,-0.00031563631657829,0.00031563497982427,-0.00031563446492643,0.00031563670764683,-0.0003156366001211,0.00031563465460417,-0.00031563481450893,0.00031563639657528,-0.00023553488152394,0.00023553416942147,3.7292889912371e-10,-5.6094025339744e-10,-1.2045520746286e-10,-6.256088249916e-11,-0.00042376852492058,0.00042376834145824,-0.00042693128638305,0.00042693145202726,-0.00040122805248899,0.00040122880222774,-0.00040122896440895,0.00040122786140228,-0.00042526718831257,0.00042526724620203,-0.00042526703238985,0.00042526721300331,-0.00042526748835231,0.00042526693034967,-0.00042526731981128,0.00042526690900878,-0.00042693186506117,0.00042693131737879,-0.00042693158437347,0.0004269311492858,-0.00040122801847904,0.00040122873592093,-0.00040122891580188,0.00040122780807461,-0.00042693154945043,0.00042693163826624,2.80011692485e-09,9.6669833374822e-10,-0.00033594737390411,0.00033595115596053,2.0731968544871e-09,1.8780935880264e-09,-0.00029909795833342,0.00029910342948313,-0.000282715795299,0.00028271895662227,-0.00028271520056734,0.00028271955245746,-0.00029909960368187,0.0002991017916865,-0.00029909777052019,0.00029910361927038,-0.00028271559712971,0.00028271915933653,-0.0002827149653936,0.00028271978690731,-0.00037749005650054,0.000377494474259,-0.0003774901648017,0.00037749436651469,-0.00037749067415538,0.0003774938606581,-0.00037749077406923,0.00037749375957013,-0.00037371046058876,0.00037371235193768,-0.00037370867295538,0.0003737141329697,-0.00037370859919884,0.00037371420521959,-0.00037371041117251,0.00037371240350014,-0.00029909971780002,0.00029910167762449,0.74318761780907,129487,2954,0.0013942216874587,0.0017641066638575,0.00139883797196,16.789993295942,-0.00010568005363246,-0.00010568005363246,-0.00010568005363246,2292833.7979664,0.0045676345190552
19191759,0.28072690872329,0.0050580487459809,0.0016184801349308,0.0018285155542205,0.0016110530568296,-0.00034431974102443,0.00034431990144951,-8.7174340338153e-10,1.0301197304979e-09,-4.400416493532e-10,6.1857566936438e-10,-0.00024166997841646,0.00024167308786885,-0.00035306510550946,0.00035306567370167,-0.00035306448290374,0.00035306635303495,-0.00024167288533116,0.00024167016076835,-0.00024167103967177,0.00024167199197072,-0.00035306616068454,0.00035306467865526,-0.0003530655074308,0.00035306525592504,-0.00038631212369159,0.00038631130047402,-0.00038631149315239,0.0003863119299399,-0.00038631178573873,0.00038631165038137,-0.00038631114486972,0.00038631228383664,-0.0003251292865939,0.00032512792058621,-0.00032512735137868,0.00032512973180115,-0.00032512960988656,0.00032512756139978,-0.00032512773107372,0.00032512938473781,-0.00024167183712005,0.00024167117313455,4.2256278484257e-10,-6.1765816088628e-10,-9.5725562173314e-10,7.6766868355749e-10,-0.00043704970220069,0.0004370495120752,-0.00044078861267272,0.00044079044666517,-0.0004135405081222,0.00041354079881023,-0.00041354151982467,0.00041353975375775,-0.00043838137995743,0.00043838091420437,-0.00043838067691084,0.00043838143823318,-0.00043838171346537,0.00043838056338231,-0.00043838099975425,0.00043838109741729,-0.00044079085625899,0.00044078863288037,-0.00044078894821355,0.00044079010532367,-0.00041353991950718,0.00041354129124858,-0.00041354092145126,0.00041354025414991,-0.00044079050872664,0.00044078898652072,2.7474105701474e-09,8.3015176432682e-10,-0.00034528138071503,0.00034528497132543,2.8026168011496e-09,9.4889985807319e-10,-0.00030775189139775,0.00030775562196374,-0.00029058154487149,0.00029058284871961,-0.00029058091982748,0.00029058347555457,-0.00030775198513463,0.00030775553718966,-0.00030775007705522,0.00030775743704265,-0.00029057971380076,0.00029058468585879,-0.00029057905632501,0.00029058533790835,-0.00038823260014351,0.00038823740647613,-0.00038823325922385,0.0003882367481553,-0.00038823324520873,0.0003882367660087,-0.00038823389734207,0.00038823611243418,-0.00038490973740799,0.00038491079887513,-0.00038490786458436,0.00038491266459273,-0.00038490723964291,0.00038491328765359,-0.00038490913154272,0.00038491140739011,-0.00030775374083039,0.00030775377939975,0.78534703227657,129487,2954,0.0014337300891645,0.0018193416591138,0.0014376759330489,16.952920272598,-0.00010437663781922,-0.00010437663781922,-0.00010437663781922,2319730.4606515,0.0047018370134649
19391759,0.28820988588191,0.0051971098071248,0.0016617413808958,0.0018819592636919,0.001653409162537,-0.00035471172239749,0.0003547119056818,-9.304455936655e-10,1.111357046408e-09,-5.0684570493222e-10,7.1122744961462e-10,-0.0002479418995992,0.00024794519381524,-0.00036459267123361,0.0003645934226871,-0.00036459204941961,0.00036459410091515,-0.00024794510762774,0.00024794197010477,-0.00024794297633204,0.00024794407077211,-0.00036459393189028,0.00036459222291905,-0.00036459318167458,0.00036459289362804,-0.0003981555346812,0.00039815461783548,-0.00039815483948915,0.00039815530856221,-0.00039815512724091,0.00039815503619103,-0.00039815445623887,0.00039815569967505,-0.00033545721279988,0.0003354558327005,-0.00033545518750422,0.00033545773264154,-0.00033545764038216,0.00033545537602407,-0.00033545557018671,0.00033545737658202,-0.00024794375660592,0.00024794327714145,4.7181359933385e-10,-6.7714868692537e-10,-1.969059663373e-09,1.7699081942402e-09,-0.00045158404642298,0.00045158384650844,-0.00045587016606181,0.00045587405020785,-0.00042702462136101,0.00042702429196064,-0.00042702568971391,0.00042702318485546,-0.0004526938485415,0.00045269272737109,-0.00045269247079561,0.00045269394034789,-0.00045269420096928,0.00045269235600495,-0.00045269284553435,0.00045269354618621,-0.00045587441179173,0.00045587021485612,-0.00045587058572098,0.00045587362618057,-0.0004270233168077,0.00042702550262788,-0.0004270244724611,0.00042702430928619,-0.00045587407764536,0.00045587055603689,2.6391460804356e-09,6.9067838491672e-10,-0.00035547778747913,0.00035548112812287,3.6167427780533e-09,-1.2637518264109e-10,-0.00031699372667145,0.00031699550485628,-0.00029901076580633,0.00029900989706109,-0.00029901008149272,0.00029901058035404,-0.00031699198792201,0.00031699725484003,-0.00031699018959496,0.00031699904558066,-0.0002990070279839,0.00029901364042,-0.00029900640838211,0.0002990142540748,-0.00040003831542228,0.0004000434958533,-0.0004000395865041,0.0004000422261061,-0.00040003895482437,0.00040004286138308,-0.00040004025143935,0.00040004156327491,-0.00039708662013208,0.00039708672459951,-0.00039708466719244,0.00039708866831964,-0.00039708346020833,0.00039708987499045,-0.00039708533482376,0.00039708801249473,-0.0003169957464324,0.0003169934997724,0.76951387877839,129487,2954,0.0014769784269127,0.0018797845853507,0.0014801003669095,17.466396740102,-0.00010026882607918,-0.00010026882607918,-0.00010026882607918,2356649.4625671,0.0048486534344639
19591759,0.29602142786324,0.0053388247107199,0.0017057265955604,0.0019367266449406,0.0016963714702189,-0.00036539582745068,0.00036539600941406,-9.6282389082487e-10,1.1423631932136e-09,-4.885226641003e-10,6.9227256827618e-10,-0.00025420152729661,0.00025420488890872,-0.00037623787921178,0.00037623855766279,-0.00037623722382898,0.00037623927371806,-0.00025420475999111,0.00025420164191054,-0.00025420260766189,0.00025420375345487,-0.00037623909109326,0.00037623741109434,-0.00037623833171341,0.00037623808624151,-0.00041039998261565,0.00041039906000784,-0.00041039926822724,0.00041039976503507,-0.00041039959159635,0.00041039945922671,-0.00041039889304626,0.00041040015058008,-0.0003460463218916,0.00034604484574534,-0.00034604421373033,0.00034604682544995,-0.00034604672092653,0.00034604442437979,-0.00034604459882254,0.00034604645939753,-0.00025420348544326,0.00025420286101141,4.6241601813306e-10,-6.7340968860876e-10,-2.6676532358704e-09,2.4630272145181e-09,-0.00046658671348722,0.00046658650805676,-0.00047131462849192,0.00047131985060565,-0.00044091420543176,0.00044091341767233,-0.00044091528240451,0.00044091230089038,-0.00046752499687892,0.00046752341006596,-0.00046752316869237,0.00046752508284848,-0.00046752535029156,0.00046752303791952,-0.00046752353245547,0.00046752469959987,-0.00047132023136984,0.00047131464630119,-0.00047131502337938,0.00047131944951344,-0.00044091246238948,0.00044091506958757,-0.00044091358214331,0.0004409139103399,-0.00047131988141419,0.00047131500379999,2.5923365401077e-09,5.360320009065e-10,-0.00036590859584454,0.00036591173291857,4.2285779813747e-09,-9.5015411997694e-10,-0.00032624009733023,0.00032624030294717,-0.00030748253471263,0.00030748002819619,-0.00030748183231655,0.00030748073104304,-0.00032623704621383,0.0003262433650978,-0.00032623508879714,0.00032624531593712,-0.00030747740390534,0.00030748516550376,-0.00030747673112022,0.00030748583227547,-0.00041222374065108,0.00041222923734729,-0.00041222549560327,0.00041222748326698,-0.00041222442164526,0.00041222856121046,-0.00041222618937287,0.00041222679213725,-0.00040947028904536,0.00040946962704344,-0.00040946825094367,0.00040947165654827,-0.00040946654256823,0.00040947336333431,-0.0004094685440739,0.00040947137463229,-0.00032624216877726,0.00032623824389685,0.75193871860292,129487,2954,0.0015214417298582,0.0019421705364385,0.0015234980716256,17.988936473407,-9.6088508212741e-05,-9.6088508212741e-05,-9.6088508212741e-05,2400546.179682,0.004999644076051
19791759,0.30416853913838,0.0054827313062975,0.0017503174698848,0.0019926121703967,0.0017398016660161,-0.000376335865228,0.00037633603686833,-1.0042863743142e-09,1.17357981131e-09,-4.3989837470073e-10,6.3324256546989e-10,-0.00026043598198039,0.0002604393307997,-0.00038793737521371,0.00038793790256401,-0.00038793668592198,0.00038793865479148,-0.00026043918023641,0.00026043611923004,-0.00026043698502438,0.00026043826557758,-0.00038793847172109,0.00038793687402039,-0.0003879376976352,0.00038793756121986,-0.00042300467090242,0.00042300375275089,-0.00042300393400924,0.00042300447693948,-0.00042300431846399,0.00042300411175292,-0.0004230035911886,0.00042300483114032,-0.0003569461621961,0.00035694455723226,-0.00035694396936249,0.00035694661779645,-0.00035694651653268,0.00035694418504375,-0.00035694432824637,0.00035694627344594,-0.00026043804041278,0.00026043719625938,4.1413617192422e-10,-6.2483792097049e-10,-3.1902396881395e-09,2.9859170775329e-09,-0.00048200308952771,0.0004820028844155,-0.00048705522775099,0.00048706143188397,-0.00045515635823672,0.00045515514031509,-0.00045515735230085,0.00045515410642453,-0.00048283324332342,0.00048283128237924,-0.00048283107669127,0.00048283330129008,-0.00048283356876497,0.00048283093905636,-0.00048283140488559,0.00048283295430368,-0.00048706182092069,0.00048705523037617,-0.00048705557817088,0.00048706107526132,-0.00045515428018219,0.00045515712763669,-0.00045515529271337,0.00045515607656894,-0.00048706149115207,0.00048705556752411,2.5548355858648e-09,3.9994046067618e-10,-0.00037652791451394,0.00037653087688671,4.6715351465579e-09,-1.5738666748652e-09,-0.00033542333150773,0.00033542236868427,-0.00031594381943788,0.00031594006547166,-0.00031594309601378,0.00031594078942218,-0.0003354193252677,0.00033542638621041,-0.0003354172349321,0.00033542846839719,-0.00031593765136633,0.00031594624037791,-0.00031593693451688,0.00031594695077032,-0.00042474437399918,0.00042475008695346,-0.00042474648749654,0.00042474797438029,-0.00042474509110118,0.00042474937453042,-0.00042474720966042,0.00042474725472676,-0.00042196575767425,0.00042196448264826,-0.00042196363603812,0.00042196659604299,-0.00042196155820951,0.00042196867217545,-0.00042196366837323,0.00042196657470753,-0.00033542546298208,0.00033542024864158,0.73294776739512,129487,2954,0.001566969775167,0.0020062717312325,0.0015676777847576,18.511838018522,-9.1905295851825e-05,-9.1905295851825e-05,-9.1905295851825e-05,2448916.2734115,0.0051542387421361
19991759,0.31242521838559,0.0056316731712126,0.0017964567678353,0.0020505788876165,0.0017846375157607,-0.00038692241307967,0.00038692253795301,-1.0835087744183e-09,1.2066352985537e-09,-2.5920695894945e-10,4.0218916025752e-10,-0.00026648993686138,0.0002664928436313,-0.00039943707243735,0.00039943713941483,-0.00039943637580731,0.00039943789591337,-0.00026649283637115,0.00026648992640019,-0.00026649043434824,0.00026649228176011,-0.00039943779382352,0.00039943648259968,-0.00039943695342509,0.00039943724144827,-0.00043518279862932,0.000435181923324,-0.00043518201513348,0.00043518269612942,-0.00043518257304339,0.00043518215740863,-0.00043518181833276,0.00043518290327867,-0.00036779412583437,0.00036779226008916,-0.0003677918580514,0.00036779440197726,-0.0003677943766314,0.00036779199268388,-0.00036779204772122,0.00036779422484717,-0.00026649200628207,0.00026649069409531,2.1949934632064e-10,-4.1640827927209e-10,-3.0333044693512e-09,2.8412514720414e-09,-0.00049711158953682,0.00049711139667394,-0.0005025817013542,0.00050258751940842,-0.0004690698863565,0.00046906835011942,-0.00046907045436376,0.00046906774862903,-0.00049780546514798,0.00049780347096743,-0.00049780338326564,0.00049780539838295,-0.00049780564952295,0.00049780327402453,-0.00049780359080799,0.00049780517664094,-0.00050258787647918,0.00050258175851845,-0.00050258194993819,0.00050258726635672,-0.00046906787171907,0.00046907026762098,-0.00046906852325463,0.00046906958464868,-0.00050258771152856,0.00050258192920877,2.6403815857873e-09,4.2658948667334e-10,-0.00038673640371847,0.000386739480735,4.550423504145e-09,-1.3289849881709e-09,-0.00034432433022361,0.00034432400405337,-0.0003241014092835,0.00032409808775807,-0.00032410063326129,0.0003240988623182,-0.00034432074593677,0.00034432759780802,-0.00034431869563486,0.00034432964004896,-0.00032409556937703,0.00032410393240073,-0.0003240948652283,0.00032410463031373,-0.00043679803723216,0.00043680374950489,-0.00043680002007664,0.00043680176813852,-0.00043679876300025,0.00043680302754255,-0.00043680077278431,0.00043680101852556,-0.0004340025766131,0.00043400144596539,-0.00043400036701873,0.00043400364902549,-0.00043399844112414,0.00043400557258154,-0.00043400057597099,0.00043400344858796,-0.00034432661574817,0.00034432173019954,0.74869675603017,129487,2954,0.0016110272834883,0.0020690875385656,0.0016101466896614,18.67442987712,-9.0604560983042e-05,-9.0604560983042e-05,-9.0604560983042e-05,2489046.3150147,0.0053043662013116
20191759,0.32066619786362,0.0057836804820953,0.0018435323837748,0.00210987284292,0.0018302752554006,-0.00039728195013701,0.00039728202293509,-1.1192669152155e-09,1.1911869082929e-09,-6.0874386123407e-11,1.4724819499225e-10,-0.00027224780567347,0.00027225041735478,-0.00041090262867452,0.00041090212546775,-0.00041090186310239,0.00041090294961701,-0.00027225027187118,0.00027224792703461,-0.00027224804737611,0.00027225012015761,-0.00041090284079671,0.00041090197495047,-0.00041090205850128,0.00041090268294232,-0.00044710240463181,0.0004471016417673,-0.0004471016356838,0.00044710240257088,-0.0004471023496906,0.00044710170442794,-0.00044710156686358,0.00044710247927671,-0.00037859880172717,0.00037859665029366,-0.0003785964572341,0.00037859888521715,-0.00037859883695879,0.00037859659892644,-0.00037859656203134,0.00037859879425855,-0.000272250080886,0.00027224805876978,7.7431966124233e-13,-1.8073406534175e-10,-2.5802521024224e-09,2.4031982168412e-09,-0.0005120983047613,0.00051209812699684,-0.00051813113606675,0.00051813587978782,-0.00048284063341896,0.0004828390292675,-0.00048284082787628,0.00048283881185755,-0.00051256376711564,0.00051256195039181,-0.00051256198969758,0.00051256355754877,-0.00051256382496887,0.00051256188407006,-0.0005125620284182,0.0005125635089854,-0.00051813630783003,0.00051813116292009,-0.00051813116815114,0.00051813584342868,-0.00048283897889953,0.00048284058033984,-0.00048283911879538,0.00048284041778224,-0.00051813622690728,0.0005181312473657,2.8337006886244e-09,4.6900987776687e-10,-0.00039668686774414,0.00039669018420697,4.33022743973e-09,-8.5377804968135e-10,-0.00035307785083116,0.00035307841166095,-0.00033205434551209,0.00033205197573989,-0.00033205358395413,0.00033205273829163,-0.0003530751030718,0.00035308116684471,-0.00035307271035408,0.00035308355194976,-0.00033204925579338,0.00033205707113341,-0.0003320484387709,0.00033205788368704,-0.00044855719875683,0.00044856298602568,-0.00044855897232555,0.00044856121283518,-0.00044855799524525,0.00044856219218979,-0.00044855975255791,0.00044856043507388,-0.00044579697958964,0.00044579623117355,-0.00044579468879055,0.00044579851812823,-0.00044579292850966,0.00044580027558421,-0.00044579527677166,0.00044579793743489,-0.00035308008793146,0.00035307617961288,0.76566000539993,129487,2954,0.0016541403203992,0.0021313924342837,0.0016515405963238,18.643339572858,-9.0853283417135e-05,-9.0853283417135e-05,-9.0853283417135e-05,2521914.7063629,0.0054519714081878
20391759,0.32888636289436,0.0059364253096761,0.001890798312946,0.0021696486863299,0.0018759783104002,-0.00040763058487487,0.0004076306198904,-1.1852595567665e-09,1.2200165629491e-09,8.7147438470281e-11,-4.2147647462419e-11,-0.00027781745351354,0.00027781977363239,-0.00042242652162197,0.00042242561626535,-0.00042242572315786,0.00042242646708519,-0.00027781967638534,0.0002778175202221,-0.00027781735273278,0.00027781982504645,-0.00042242639947987,0.00042242579282959,-0.00042242559019404,0.00042242653929381,-0.00045904838785913,0.00045904766846983,-0.00045904758997761,0.00045904846331568,-0.00045904844486519,0.00045904762107431,-0.00045904763222165,0.0004590484254713,-0.00038938823411754,0.00038938584813404,-0.00038938581075423,0.00038938817756744,-0.00038938816318441,0.00038938590153198,-0.00038938579817712,0.00038938820530546,-0.00027781980806578,0.0002778173340917,-1.6106622832405e-10,-1.615062605799e-12,-2.3123142124616e-09,2.1508936530871e-09,-0.00052720850951457,0.00052720834754051,-0.00053387690761565,0.00053388104999633,-0.00049671946405783,0.00049671769962774,-0.00049671931575618,0.0004967178326964,-0.0005273784963822,0.0005273767528077,-0.00052737688289044,0.00052737818404284,-0.00052737844169595,0.00052737680185983,-0.00052737681240029,0.00052737824802502,-0.00053388147406067,0.00053387697523997,-0.00053387683383516,0.00053388112187705,-0.00049671796477728,0.00049671908815273,-0.00049671778400002,0.00049671925415365,-0.00053388151252566,0.00053387693826305,2.9965303723114e-09,5.5556635293038e-10,-0.00040661255301275,0.00040661612319832,4.1914908600152e-09,-4.4581636748364e-10,-0.0003617798960506,0.00036178135469112,-0.00033994070540103,0.00033993911078706,-0.00033993991370589,0.00033993990315983,-0.00036177777214414,0.00036178348410705,-0.00036177532301502,0.00036178592919905,-0.00033993614874256,0.00033994367241101,-0.00033993531196234,0.00033994450583495,-0.00046031383044031,0.00046031970864377,-0.00046031542051367,0.00046031811884295,-0.00046031465050975,0.000460318890376,-0.00046031622862878,0.00046031731256922,-0.00045765620991539,0.00045765580912348,-0.00045765383906147,0.00045765817749736,-0.00045765226746837,0.00045765974643309,-0.00045765468179199,0.00045765734007581,-0.00036178222462704,0.00036177903186293,0.77157339219041,129487,2954,0.0016972076515837,0.0021942064298729,0.0016928297645511,18.60719073868,-9.1142474090561e-05,-9.1142474090561e-05,-9.1142474090561e-05,2553435.1205016,0.0055999589666394
20591759,0.3370834404929,0.0060758500681714,0.0019338676255721,0.0022245792848608,0.0019174031577385,-0.00041729138315415,0.0004172913875881,-1.251179457275e-09,1.2558449921578e-09,1.9284484385475e-10,-1.8162854499027e-10,-0.00028215333101813,0.00028215542953882,-0.00043254241402136,0.00043254121572191,-0.0004325415974802,0.00043254208557806,-0.00028215540896176,0.00028215331742004,-0.00028215294376289,0.0002821557735546,-0.00043254206585172,0.00043254161849912,-0.00043254120895316,0.00043254241544516,-0.00047055611146882,0.00047055540476497,-0.00047055527573221,0.0004705562393043,-0.0004705562443267,0.00047055528169121,-0.00047055540393252,0.0004705561142127,-0.00039908395002371,0.00039908137009976,-0.00039908144631773,0.00039908378557591,-0.00039908381299752,0.00039908148769816,-0.00039908133728924,0.00039908391221838,-0.00028215573916811,0.00028215293753036,-2.7615508193857e-10,1.2960128273669e-10,-2.1439049776746e-09,1.9973203931742e-09,-0.00054162414257218,0.0005416239955372,-0.00054853371737598,0.0005485374926165,-0.0005098704297794,0.00050986852926233,-0.00050987002524616,0.00050986892531131,-0.00054166883941617,0.0005416671322257,-0.00054166732695094,0.00054166845842739,-0.00054166869940475,0.00054166726919309,-0.00054166718153373,0.00054166859997219,-0.00054853789579704,0.00054853382789804,-0.0005485335795328,0.00054853762989266,-0.00050986901913336,0.00050986982475423,-0.00050986861610412,0.00050987021865139,-0.00054853803264494,0.00054853369112285,3.0992413184522e-09,5.8897643946083e-10,-0.00041581894215771,0.00041582265055471,4.0860956454652e-09,-1.9330906768773e-10,-0.00036900121198311,0.00036900328662544,-0.00034659627342298,0.00034659513715565,-0.00034659544169147,0.00034659596934964,-0.00036899951128506,0.00036900499076896,-0.000368997047233,0.00036900745323985,-0.00034659205099291,0.00034659936355692,-0.00034659120797439,0.00034660020445356,-0.0004716108860148,0.00047161679816711,-0.00047161235202911,0.00047161533218445,-0.00047161172385687,0.00047161596143939,-0.00047161318946109,0.00047161449646896,-0.00046856382715466,0.0004685635952965,-0.00046856137054725,0.00046856605084661,-0.00046855993803346,0.00046856748073117,-0.00046856240126748,0.0004685650238585,-0.00036900365904129,0.00036900084411433,0.70761958195387,129487,2954,0.0017374129852519,0.002254128445597,0.0017311249558756,18.570839584313,-9.1433283325498e-05,-9.1433283325498e-05,-9.1433283325498e-05,2593499.3338358,0.0057391732162809
20791759,0.34484815916391,0.0062152974923418,0.0019769963539112,0.0022794691322025,0.0019588320062282,-0.00042561485403419,0.00042561479823363,-1.3410773270597e-09,1.2863678871014e-09,4.0285077221485e-10,-4.5853033563947e-10,-0.00028628440168542,0.00028628590690224,-0.00044172057316869,0.00044171884638541,-0.00044171977256108,0.00044171970128986,-0.00028628610718492,0.0002862841521147,-0.0002862833679947,0.00028628690326101,-0.00044171980658732,0.00044171967775455,-0.00044171885949128,0.00044172057437009,-0.00048037625436371,0.00048037559257008,-0.00048037536191844,0.00048037648739463,-0.00048037652889879,0.00048037532488638,-0.00048037566995518,0.00048037618241279,-0.00040755346247431,0.00040755059984327,-0.00040755090140575,0.00040755308919038,-0.00040755321475341,0.00040755082007637,-0.000407550581602,0.0004075534269595,-0.00028628675318614,0.00028628346010993,-4.8006871587732e-10,3.5462474857133e-10,-1.4209804058622e-09,1.2936614683096e-09,-0.00055428492740415,0.00055428480128215,-0.00056160916772766,0.00056161147227615,-0.00052131226172626,0.00052131037845047,-0.00052131138600472,0.00052131125584649,-0.00055423039059696,0.00055422901601447,-0.00055422931936423,0.00055422988095793,-0.00055423009173319,0.00055422931400586,-0.00055422905377694,0.00055423014749095,-0.0005616118282176,0.00056160937747596,-0.00056160894220108,0.00056161170280579,-0.0005213112699496,0.00052131124798291,-0.00052131049958615,0.0005213120158955,-0.00056161216173597,0.00056160904029656,3.3338405586064e-09,7.7290112034065e-10,-0.00042367357922446,0.00042367770996031,3.5454497262277e-09,7.9459383764854e-10,-0.00037545790135179,0.0003754621439597,-0.00035245128711434,0.00035245202683072,-0.00035245038302965,0.00035245292984186,-0.0003754577650113,0.00037546228806979,-0.00037545542181087,0.00037546462793188,-0.00035244851755898,0.00035245480673837,-0.00035244771453089,0.00035245561003105,-0.0004811974704514,0.00048120328905245,-0.00048119841094741,0.00048120234819067,-0.00048119830631347,0.00048120245301442,-0.00048119928332435,0.0004812014764569,-0.00047810345830718,0.00047810404420173,-0.0004781008991014,0.00047810660390833,-0.00047810002725587,0.00047810747315165,-0.00047810248188796,0.00047810501481642,-0.00037546057230227,0.00037545948288268,0.74689073206212,129487,2954,0.0017720526101407,0.0023067524731566,0.0017637970605641,17.86600705262,-9.7071943579038e-05,-9.7071943579038e-05,-9.7071943579038e-05,2619902.7974228,0.0058598092111117
20991759,0.35208761456408,0.0063407193623584,0.00201577280409,0.0023289904952727,0.0019959560629957,-0.00043262696668043,0.0004326268785624,-1.3823988980229e-09,1.2959111332824e-09,5.1997268651488e-10,-6.1156667046978e-10,-0.00028887157157454,0.00028887296124492,-0.00044930537224932,0.00044930328481726,-0.00044930451269888,0.00044930419770031,-0.00028887305916804,0.00028887142083346,-0.00028887041122867,0.00028887409343938,-0.00044930429266808,0.00044930441862031,-0.00044930337095185,0.00044930529413002,-0.00048891697078538,0.00048891636225094,-0.00048891607703656,0.00048891726373325,-0.00048891734949534,0.00048891599359059,-0.00048891645803359,0.00048891688161634,-0.0004145389971602,0.00041453591581405,-0.00041453633754823,0.00041453849909052,-0.00041453861004007,0.00041453627243644,-0.00041453597778593,0.00041453888753851,-0.00028887411231201,0.00028887033038487,-6.2062902650338e-10,5.2002356715169e-10,-8.1958233530754e-10,7.1531615727359e-10,-0.0005654472249394,0.00056544712136334,-0.00057308872387339,0.00057308974969098,-0.00053129519511146,0.0005312934781195,-0.00053129407369819,0.00053129460952564,-0.00056529454806701,0.00056529349828875,-0.00056529387370367,0.00056529395146894,-0.00056529416634746,0.00056529388483318,-0.00056529349425664,0.00056529433538669,-0.00057309015298602,0.00057308893567493,-0.00057308835225196,0.00057309012561036,-0.00053129463702534,0.00053129390002018,-0.00053129352180405,0.00053129502434932,-0.00057309054073876,0.00057308854414406,3.551707744759e-09,8.7045205844337e-10,-0.00043023393199663,0.00043023838230946,3.1857209798741e-09,1.4931440305005e-09,-0.00038037026001759,0.00038037585102843,-0.00035686011179034,0.00035686223397976,-0.00035685921299325,0.00035686313412105,-0.00038037128436798,0.00038037482549637,-0.00038036868460682,0.00038037742236071,-0.00035685842572801,0.00035686392476066,-0.00035685753763243,0.00035686481284099,-0.00048950390789586,0.00048950974441342,-0.00048950451383801,0.00048950913873213,-0.00048950479831407,0.0004895088537725,-0.00048950541046435,0.00048950824241661,-0.00048621742125875,0.00048621860012402,-0.00048621479059408,0.00048622123454974,-0.00048621422980223,0.00048622179201362,-0.0004862168498214,0.0004862191737011,-0.00038037290176369,0.0003803732059104,0.72120224497791,129487,2954,0.00180123661601,0.002353145152981,0.0017910850104248,16.958565752291,-0.00010433147398167,-0.00010433147398167,-0.00010433147398167,2640338.1836715,0.0059632877251901
21191759,0.35883139523081,0.0064579582877385,0.0020520425275924,0.0023753036540999,0.0020306121060462,-0.00043906204643947,0.00043906195199119,-1.4295405698919e-09,1.3369504061563e-09,5.4089019771986e-10,-6.403008054705e-10,-0.00029141471141675,0.0002914161363358,-0.00045632203966984,0.00045631986253141,-0.00045632114596165,0.00045632080736894,-0.00029141623344887,0.00029141455740751,-0.00029141350881657,0.00029141731421494,-0.0004563209053631,0.00045632104743491,-0.00045631996160659,0.00045632195150944,-0.00049673205678105,0.00049673143088577,-0.0004967311370513,0.00049673236198507,-0.00049673245398772,0.00049673104524793,-0.00049673153177276,0.00049673196370568,-0.00042090684709582,0.00042090365619854,-0.00042090410166886,0.00042090632751172,-0.000420906441184,0.00042090402845965,-0.0004209037271312,0.00042090673395693,-0.00029141734240822,0.00029141341198998,-6.4280779492046e-10,5.5591729551998e-10,-6.3566117944319e-10,5.4445495318667e-10,-0.00057569280949693,0.00057569271897743,-0.00058362470583522,0.00058362537569941,-0.0005404325958405,0.00054043095090349,-0.00054043141837158,0.00054043214125995,-0.00057548114907738,0.00057548021133006,-0.00057548058929532,0.00057548054272519,-0.00057548074960129,0.00057548061645903,-0.00057548019043232,0.00057548094679612,-0.00058362578393377,0.00058362494375942,-0.00058362431301479,0.00058362577336954,-0.00054043214979514,0.0005404312542747,-0.00054043098034503,0.00054043243638818,-0.00058362618788094,0.00058362453512698,3.6957423131313e-09,9.315166788637e-10,-0.00043621907471526,0.00043622373269283,3.1173679504571e-09,1.7816497388161e-09,-0.00038486592639767,0.0003848721558195,-0.00036092359245668,0.00036092626083159,-0.0003609226689689,0.00036092718567565,-0.00038486738930734,0.00038487069063199,-0.00038486469797435,0.00038487338328247,-0.0003609222599893,0.00036092759748131,-0.000360921342178,0.0003609285161257,-0.00049707564811519,0.00049708159853561,-0.00049707613709051,0.00049708110985824,-0.00049707656695191,0.00049708067927643,-0.00049707706045133,0.00049708018670701,-0.00049367447012367,0.00049367589446677,-0.00049367176207937,0.00049367860644735,-0.00049367131772229,0.00049367904774233,-0.00049367402199797,0.00049367634444635,-0.00038486863735305,0.00038486944217394,0.72387546938526,129487,2954,0.0018280190247498,0.002395725475787,0.001815979419663,16.045726210508,-0.00011163419031594,-0.00011163419031594,-0.00011163419031594,2658623.7633345,0.0060581166699004
21391759,0.36520495836852,0.0065692062541204,0.0020864769026677,0.0024192716250611,0.0020634577263916,-0.00044541491121234,0.00044541485016497,-1.4427876972674e-09,1.3832297091128e-09,4.2889677432148e-10,-4.9258250166329e-10,-0.00029402504691365,0.00029402692021178,-0.0004632825384576,0.00046328059865296,-0.00046328159102276,0.00046328159624193,-0.00029402688542519,0.00029402502559948,-0.0002940242006745,0.00029402774351397,-0.00046328162538511,0.0004632815598599,-0.0004632806958816,0.00046328245148071,-0.00050439488913051,0.00050439420119764,-0.0005043939605973,0.00050439514102784,-0.00050439521188425,0.00050439389114066,-0.00050439425815135,0.00050439483978633,-0.0004272150022172,0.00042721183926721,-0.00042721216768624,0.0004272146017362,-0.00042721465091638,0.00042721215871407,-0.00042721191078766,0.00042721489065038,-0.00029402783583557,0.00029402403943176,-5.2670635476917e-10,4.4101271737524e-10,-1.0281451267398e-09,9.3877882059849e-10,-0.00058569245787998,0.00058569236903285,-0.00059393707411505,0.00059393856135348,-0.00054936360246879,0.00054936195782566,-0.00054936268215123,0.00054936288601254,-0.00058539866112656,0.0005853975538128,-0.00058539785683053,0.00058539813498498,-0.00058539834791931,0.00058539787065343,-0.00058539752170162,0.00058539847289081,-0.00059393900235115,0.0005939372821137,-0.00059393672436198,0.00059393891435555,-0.00054936292728969,0.00054936249023127,-0.00054936195115188,0.00054936347429418,-0.0005939392974337,0.0005939369833411,3.7428197394335e-09,8.670168410358e-10,-0.00044212629551146,0.00044213093647962,3.5363354100167e-09,1.3453395412858e-09,-0.00038936901061453,0.00038937438845065,-0.00036501192033827,0.00036501372800308,-0.00036501099204678,0.00036501465688643,-0.00038936974064573,0.00038937365683296,-0.00038936684111687,0.00038937655933539,-0.00036500977846082,0.00036501587378258,-0.00036500879055597,0.00036501686243699,-0.00050448251921052,0.00050448878435387,-0.0005044833037106,0.00050448800063172,-0.00050448348654844,0.00050448781723689,-0.00050448425356837,0.00050448705141409,-0.00050103928529639,0.00050104033008312,-0.00050103649911958,0.00050104311903718,-0.00050103574001647,0.00050104387596985,-0.00050103858610683,0.00050104103210285,-0.00038937173057768,0.00038937166758714,0.72692810581802,129487,2954,0.0018544588677737,0.0024372818314739,0.0018405486185952,15.323533487049,-0.00011741173210361,-0.00011741173210361,-0.00011741173210361,2676126.3850828,0.0061512521635747
21591759,0.37125402078494,0.006675705542675,0.0021194525282998,0.0024613875825566,0.0020948654318186,-0.00045151983632668,0.00045151981651163,-1.4734377480323e-09,1.4544980722441e-09,2.9596063259112e-10,-3.1498606358315e-10,-0.00029655692653794,0.00029655919467866,-0.00047003657348533,0.00047003496526001,-0.00047003560812878,0.0004700359812833,-0.00029655917137393,0.00029655689413525,-0.00029655633089469,0.00029655976315471,-0.00047003598149616,0.00047003560524836,-0.00047003500233053,0.00047003654566171,-0.00051173879519102,0.00051173800613459,-0.00051173782707915,0.0005117389836481,-0.00051173900964981,0.00051173780381176,-0.00051173802755994,0.00051173878031716,-0.00043329076562946,0.00043328766506219,-0.00043328785309867,0.00043329051065686,-0.00043329053790481,0.00043328786437764,-0.00043328767700258,0.00043329071355487,-0.00029655975986871,0.00029655626721717,-3.6484645080166e-10,2.7257325145295e-10,-1.6910030401355e-09,1.5963951752232e-09,-0.00059529311234928,0.00059529301813556,-0.00060388376867344,0.00060388667532984,-0.00055793174078992,0.00055792995652446,-0.00055793112110991,0.00055793057712935,-0.00059489674804517,0.00059489530405078,-0.00059489550962294,0.00059489633105903,-0.00059489653558784,0.00059489551579404,-0.00059489528680372,0.0005948965524644,-0.00060388709505799,0.00060388398331284,-0.00060388354664682,0.00060388689889755,-0.00055793060831628,0.0005579309512009,-0.00055792997513089,0.00055793158446322,-0.0006038872997404,0.00060388377653028,3.7223883796637e-09,7.7743700815475e-10,-0.00044778512276874,0.00044778965301931,4.11054205142e-09,6.5373054380783e-10,-0.00039371275229363,0.00039371689250762,-0.00036896289254348,0.00036896329971592,-0.00036896192399502,0.00036896426986639,-0.00039371230592609,0.00039371733864645,-0.00039370939200526,0.00039372025434716,-0.00036895948754488,0.0003689667095712,-0.00036895849365852,0.00036896770269434,-0.000511562872956,0.00051156946603248,-0.00051156407185486,0.00051156826782789,-0.00051156385815283,0.00051156848164862,-0.00051156505122927,0.00051156728921975,-0.0005081563914937,0.00050815681753003,-0.00050815351823311,0.00050815969147754,-0.00050815235607866,0.00050816085091705,-0.00050815525207476,0.00050815795873404,-0.00039371559597552,0.00039371405023167,0.73328393072444,129487,2954,0.0018798666832352,0.0024771782992981,0.0018640839921986,14.65829331873,-0.00012273365345016,-0.00012273365345016,-0.00012273365345016,2691528.662925,0.0062406469580042
21791759,0.37699460183553,0.0067753389125512,0.0021503022328612,0.00250085195497,0.00212418472472,-0.00045716931167302,0.00045716932959548,-1.5005636756627e-09,1.5187310308683e-09,1.7678424587734e-10,-1.5477822611673e-10,-0.00029869328671944,0.00029869593427542,-0.00047623449738588,0.00047623318316276,-0.00047623351197478,0.00047623422191939,-0.00029869589842118,0.00029869326855225,-0.0002986929409195,0.00029869625054346,-0.00047623419121036,0.00047623354051251,-0.00047623317074347,0.0004762345186269,-0.00051860558832692,0.00051860471016583,-0.00051860458482074,0.00051860571928066,-0.00051860570648133,0.00051860460280781,-0.00051860469700797,0.00051860560635333,-0.00043888959540662,0.00043888654260525,-0.00043888660141478,0.00043888946988035,-0.00043888947121884,0.00043888664414443,-0.00043888650740148,0.00043888958488634,-0.00029869618367233,0.00029869294240295,-2.2651715812248e-10,1.2614656893023e-10,-2.367621354734e-09,2.2660631237976e-09,-0.00060428756217195,0.00060428746099324,-0.00061318286850525,0.00061318719217406,-0.00056593253415246,0.00056593056933325,-0.00056593218284631,0.00056593091402324,-0.00060379747803,0.00060379567546317,-0.0006037958006775,0.0006037971546829,-0.00060379735471375,0.00060379579441008,-0.00060379567278513,0.00060379727768019,-0.00061318759949314,0.00061318307508399,-0.00061318274899873,0.00061318731139165,-0.00056593095103936,0.000565932020125,-0.00056593060194185,0.00056593236098741,-0.00061318771987378,0.00061318295435439,3.6832258173178e-09,6.5861296148421e-10,-0.00045299103894121,0.000452995409434,4.6913869606575e-09,-9.5737105947865e-11,-0.00039755729434874,0.00039756006592374,-0.00037247117881351,0.00037247007616192,-0.00037247017466839,0.00037247108240555,-0.00039755561416064,0.00039756174810298,-0.00039755265075121,0.00039756470885628,-0.00037246645630326,0.00037247480546264,-0.00037246544408519,0.00037247581529395,-0.0005181634086125,0.00051817030926336,-0.00051816504644442,0.00051816867240037,-0.00051816441791501,0.00051816930160611,-0.00051816605569831,0.00051816766396262,-0.00051477526696034,0.00051477500366139,-0.0005147723050369,0.00051477796473752,-0.00051477071127295,0.00051477955595555,-0.00051477367617393,0.00051477659593567,-0.00039756024559681,0.00039755711528382,0.72318902506696,129487,2954,0.0019033794472736,0.0025145538916333,0.0018857351816378,13.994571468574,-0.00012804342825141,-0.00012804342825141,-0.00012804342825141,2705912.9136746,0.0063237100134781
21991759,0.38278565730939,0.0068743054625694,0.0021809519869732,0.0025401042987877,0.0021532491768085,-0.00046424163520054,0.00046424172784863,-1.5121368796534e-09,1.6038792346492e-09,-7.0327846547269e-11,1.7408752553971e-10,-0.00030219445157481,0.0003021977857128,-0.00048382967872617,0.00048382899766153,-0.00048382868244737,0.00048383005297178,-0.00030219773387591,0.00030219445963066,-0.00030219461370717,0.00030219758210333,-0.00048382996090303,0.00048382877275213,-0.00048382888388996,0.00048382979586199,-0.00052695075926889,0.00052694972469641,-0.00052694971343296,0.00052695076856703,-0.00052695067896808,0.00052694981280272,-0.00052694964300687,0.00052695084180046,-0.00044586007148598,0.00044585720471745,-0.0004458570041856,0.0004458602129482,-0.00044586015898962,0.00044585710175921,-0.00044585708082649,0.00044586015277667,-0.0003021973865543,0.00030219475286462,5.7661215754145e-11,-1.8048161989937e-10,-3.8088241327284e-09,3.687322992049e-09,-0.00061478318280621,0.00061478306145513,-0.00062394432750818,0.00062395165406045,-0.00057541266781235,0.00057541029868514,-0.00057541287368014,0.00057541007117197,-0.00061421337338019,0.0006142107973577,-0.00061421076269483,0.00061421324004074,-0.0006142134350738,0.00061421072359594,-0.0006142108323586,0.0006142131583185,-0.00062395203387658,0.00062394450376212,-0.00062394442100532,0.0006239515566137,-0.0005754101252384,0.00057541272206947,-0.00057541036813877,0.00057541245658127,-0.00062395197817507,0.00062394456313329,3.4922276289093e-09,3.9320337211093e-10,-0.00045962098448385,0.00045962489500881,5.8600412871288e-09,-1.7506565848416e-09,-0.0004027396501066,0.00040273929029834,-0.00037733594082223,0.00037733153846682,-0.00037733489446083,0.00037733258884086,-0.00040273525604223,0.00040274368994722,-0.00040273227523704,0.0004027466622023,-0.00037732842282384,0.00037733906624219,-0.00037732740266932,0.00037734008128152,-0.00052622946911879,0.00052623687208924,-0.00052623203812422,0.00052623430413938,-0.00052623049779374,0.00052623584651041,-0.00052623307823718,0.00052623326446583,-0.00052282501327099,0.00052282326911827,-0.00052282195854833,0.00052282632058289,-0.00052281944073232,0.00052282883644404,-0.0005228224620399,0.0005228258243109,-0.00040274272959941,0.00040273620955263,0.71247115293598,129487,2954,0.0019328098910211,0.002558166473058,0.0019133073407887,14.10875210756,-0.00012712998313952,-0.00012712998313952,-0.00012712998313952,2732712.1966119,0.0064249720321405
22191759,0.38873101595576,0.0069742229763366,0.0022118884647335,0.0025798182260382,0.0021825162855649,-0.00047183735627927,0.000471837505391,-1.5269684118543e-09,1.6742024111185e-09,-2.4712907900863e-10,4.1290994435522e-10,-0.00030611371999202,0.00030611759973961,-0.00049190127469612,0.00049190103870179,-0.00049190025556312,0.00049190212152303,-0.00030611750043302,0.00030611378222834,-0.00030611427964604,0.00030611698524586,-0.00049190197266442,0.0004919004043666,-0.00049190085923849,0.00049190145433119,-0.00053588380248936,0.00053588265601186,-0.00053588272320559,0.00053588372528246,-0.00053588358285588,0.00053588288156591,-0.00053588251852308,0.00053588393760015,-0.00045323870304918,0.00045323594616662,-0.00045323555233729,0.00045323903655796,-0.00045323893223938,0.00045323570698996,-0.0004532357623727,0.00045323883462966,-0.00030611672912516,0.00030611449021381,2.5872843982523e-10,-4.0099013734273e-10,-5.0706313416196e-09,4.9316787175269e-09,-0.00062589633583555,0.00062589619689875,-0.00063527957884215,0.0006352894875301,-0.00058545461298772,0.00058545181097639,-0.00058545522785281,0.00058545116197717,-0.00062528531941958,0.00062528203936448,-0.00062528189779274,0.00062528532262131,-0.00062528551726027,0.00062528182477819,-0.00062528210457301,0.00062528509858035,-0.00063528985372286,0.00063527970983514,-0.00063527981240458,0.00063528924740108,-0.00058545124828159,0.00058545507080139,-0.00058545189984586,0.00058545438414636,-0.00063528966090571,0.0006352799089205,3.3103746851786e-09,1.2532302453013e-10,-0.00046676222947293,0.00046676568637375,6.8632755565841e-09,-3.2337285119681e-09,-0.00040830459137759,0.00040830139820944,-0.0003826108277055,0.00038260347555345,-0.0003826097505763,0.0003826045564311,-0.00040829782649212,0.00040830817251986,-0.00040829476336391,0.00040831121987488,-0.00038260086142459,0.00038261345326678,-0.00038259981310238,0.00038261449305992,-0.00053486936240079,0.0005348771714577,-0.00053487275660294,0.00053487377921651,-0.0005348704197593,0.00053487611854301,-0.0005348738261065,0.00053487271068221,-0.00053136724017361,0.00053136413573433,-0.00053136409830075,0.00053136727198394,-0.00053136075184314,0.00053137061538901,-0.00053136385687718,0.00053136752168482,-0.00040830776134455,0.00040829822861241,0.70115780517036,129487,2954,0.0019644167391424,0.0026043431501096,0.0019430050994441,14.45148621167,-0.00012438811030664,-0.00012438811030664,-0.00012438811030664,2765564.7268754,0.0065331558965115
22391759,0.39483473612225,0.007080863253731,0.0022449149309345,0.0026221974161981,0.0022137509065983,-0.00047983731008253,0.00047983748427556,-1.554214331319e-09,1.7260492323219e-09,-3.0868151313872e-10,5.024774144099e-10,-0.0003105344788665,0.00031053865042264,-0.00050066200121739,0.00050066190314632,-0.0005006609448136,0.00050066302552636,-0.00031053848930901,0.00031053460705156,-0.0003105352228205,0.00031053784347519,-0.0005006628375495,0.0005006611335987,-0.00050066170710354,0.00050066219519809,-0.00054517456896048,0.00054517337435948,-0.00054517346456366,0.00054517446363066,-0.00054517430276617,0.00054517364505874,-0.00054517320721064,0.00054517473106456,-0.00046104680899868,0.00046104403586124,-0.00046104356869414,0.00046104721837116,-0.00046104707851937,0.00046104376302611,-0.00046104383894035,0.0004610469493582,-0.00031053760132823,0.0003105354241918,3.2403147886222e-10,-4.7758959578186e-10,-5.8792863447349e-09,5.7298872523188e-09,-0.00063751125286654,0.00063751110338931,-0.00064724611139716,0.00064725761998635,-0.00059594234693305,0.00059593915485948,-0.0005959431124066,0.00059593834926245,-0.00063682178301436,0.00063681801359817,-0.00063681784398982,0.00063682183155006,-0.00063682203107632,0.00063681774675136,-0.0006368180927646,0.00063682156342828,-0.00064725799238005,0.00064724620102551,-0.00064724637782439,0.00064725734527083,-0.00059593846767577,0.00059594293826681,-0.00059593924236589,0.0005959421225152,-0.000647257739798,0.00064724646135904,3.2148813465155e-09,-6.2296946935372e-11,-0.00047428077477429,0.00047428394643653,7.5211613173904e-09,-4.1927526810888e-09,-0.0004144519029133,0.0004144468683933,-0.00038840543757014,0.00038839617979969,-0.00038840434250696,0.00038839727882909,-0.00041444363334756,0.00041445514954249,-0.00041444043648459,0.00041445832722694,-0.00038839389378098,0.00038840773641515,-0.00038839280158382,0.00038840881850209,-0.00054384734284293,0.00054385544211998,-0.00054385127846638,0.00054385150873759,-0.00054384843534228,0.00054385435469745,-0.00054385237417186,0.00054385041397145,-0.00054041484631789,0.0005404108441447,-0.00054041162692552,0.00054041405682121,-0.00054040772685417,0.00054041795360289,-0.00054041093617607,0.00054041475725876,-0.00041445512160448,0.00041444365064174,0.72867975332083,129487,2954,0.0019977044943272,0.0026526023903585,0.0019742713812388,14.800318533987,-0.0001215974517281,-0.0001215974517281,-0.0001215974517281,2796074.3158324,0.0066467179247321
22591759,0.40109829325775,0.007191402928447,0.0022791303180091,0.0026662062024178,0.00224606640802,-0.00048805355034958,0.00048805373256091,-1.5924611129061e-09,1.7721474376343e-09,-3.1683621622402e-10,5.2007366069489e-10,-0.00031481266413204,0.00031481695984261,-0.00050975341098339,0.00050975331650841,-0.00050975232394251,0.00050975447029735,-0.00031481678475487,0.00031481280939938,-0.0003148134382527,0.00031481611666089,-0.00050975427047455,0.00050975252523526,-0.00050975311362278,0.00050975361060279,-0.00055475519308104,0.00055475397070356,-0.00055475406014566,0.00055475508543898,-0.00055475491927202,0.00055475424834828,-0.0005547537939001,0.00055475536302872,-0.00046909369303279,0.00046909085146637,-0.00046909037008112,0.00046909412083957,-0.00046909397150537,0.00046909057458496,-0.00046909064842414,0.00046909383865661,-0.00031481587436251,0.00031481364260016,3.3295629286233e-10,-4.9309304323938e-10,-6.471134386757e-09,6.3154678750709e-09,-0.00064955778661022,0.00064955763078966,-0.00065974268226548,0.00065975534590819,-0.00060680360585728,0.00060680004224642,-0.00060680439600912,0.00060679920952351,-0.00064871821587674,0.00064871406016847,-0.00064871389394816,0.00064871827157021,-0.0006487184727812,0.0006487137840127,-0.0006487141498913,0.00064871799578198,-0.0006597557174071,0.00065974275351004,-0.00065974295384036,0.00065975506516531,-0.00060679933990433,0.00060680421768887,-0.00060680013596375,0.00060680337805384,-0.00065975545435919,0.00065974302490527,3.1634333200115e-09,-2.0061312417147e-10,-0.00048198280166282,0.00048198578247834,8.0086110268091e-09,-4.8806646956614e-09,-0.00042076422064571,0.00042075790678077,-0.0003943034144997,0.00039429277716993,-0.00039430229318828,0.00039429390247091,-0.00042075487839232,0.00042076726193454,-0.00042075158656203,0.00042077053349618,-0.00039429071764383,0.00039430548770057,-0.00039428959357689,0.00039430660076014,-0.00055309494184005,0.00055310327238909,-0.00055309926872686,0.00055309894781388,-0.00055309606427579,0.00055310215510627,-0.00055310039238148,0.00055309782512141,-0.00054978534404765,0.00054978067777417,-0.00054978204251272,0.00054978397239771,-0.00054977774579743,0.00054978826555444,-0.00054978104344838,0.00054978498158644,-0.00042076751541333,0.00042075461380223,0.73620698792714,129487,2954,0.0020318926101168,0.0027026520843082,0.0020063000317895,15.14939569276,-0.00011880483445792,-0.00011880483445792,-0.00011880483445792,2823787.375297,0.0067637694834482
22791759,0.40742012976986,0.0073039690632051,0.0023139516662233,0.0027111128810602,0.0022789045159216,-0.00049599488618529,0.00049599503565052,-1.6513342295052e-09,1.7986579041769e-09,-1.8691681771658e-10,3.5501969336265e-10,-0.00031876003392134,0.00031876408612823,-0.00051864687511594,0.00051864642784867,-0.00051864575920144,0.00051864760897398,-0.00031876394605802,0.00031876014268251,-0.00031876051462418,0.00031876353623399,-0.00051864744379896,0.00051864592569601,-0.00051864625968637,0.00051864704124167,-0.00056406660143131,0.00056406541600001,-0.00056406544042414,0.00056406655985774,-0.00056406642528158,0.00056406559609082,-0.0005640652716051,0.00056406673909649,-0.00047687501608333,0.00047687196199021,-0.00047687161145295,0.00047687531570245,-0.00047687519712251,0.00047687178177161,-0.00047687179197492,0.00047687513244865,-0.00031876332459273,0.00031876068632652,1.8883598852841e-10,-3.4242542509052e-10,-6.4100483822308e-09,6.2598555888264e-09,-0.00066139330705176,0.0006613931567345,-0.00067208593232048,0.00067209839001345,-0.00061741760134885,0.00061741379012017,-0.00061741810320823,0.00061741325126782,-0.00066038388082774,0.00066037967032977,-0.00066037959315858,0.00066038384215007,-0.00066038404204416,0.00066037949312741,-0.00066037975379995,0.0006603836649637,-0.00067209876363593,0.00067208601772961,-0.00067208610710636,0.00067209820719525,-0.00061741337085611,0.00061741792746413,-0.00061741388051794,0.00061741737970972,-0.00067209859858448,0.00067208618990559,3.2358099503154e-09,-2.1395430732991e-10,-0.00048937305654118,0.00048937609762975,7.9852638302228e-09,-4.7913472275061e-09,-0.00042676701533352,0.00042676096247369,-0.00039989060477006,0.00039988011555477,-0.00039988945416505,0.0003998812698883,-0.00042675787141344,0.00042677011863101,-0.00042675449766294,0.00042677347280958,-0.00039987801882365,0.00039989271469595,-0.00039987686709455,0.00039989385579618,-0.00056205894590632,0.00056206732652189,-0.00056206323612186,0.00056206303840018,-0.00056206009646641,0.00056206618053071,-0.00056206438845847,0.00056206188687147,-0.00055889735093516,0.00055889269459415,-0.00055889396536775,0.00055889607456738,-0.00055888970548627,0.00055890033062075,-0.00055889308592856,0.00055889696308849,-0.00042677039519895,0.00042675758402802,0.74292714076186,129487,2954,0.0020649373500937,0.0027518220607057,0.0020370319355079,15.287489158095,-0.00011770008673524,-0.00011770008673524,-0.00011770008673524,2847646.5273336,0.0068774919045298
22991759,0.41378627458299,0.0074113939575089,0.0023471564904092,0.0027541474737739,0.0023100899933258,-0.00050363210739981,0.00050363221761408,-1.7124776685562e-09,1.8211702861008e-09,-4.3784919415473e-11,1.6929895594487e-10,-0.00032212187894463,0.00032212565447761,-0.00052691605549656,0.00052691521250071,-0.00052691490929703,0.00052691642411138,-0.00032212554642515,0.0003221219526537,-0.00032212204217138,0.0003221254235401,-0.00052691629771878,0.00052691503631462,-0.00052691508972833,0.00052691617850266,-0.00057319056517113,0.00057318942316648,-0.00057318937812141,0.00057319059508565,-0.00057319049891222,0.00057318949370144,-0.00057318931682167,0.00057319066566438,-0.00048418894396759,0.0004841856583995,-0.00048418545673066,0.00048418909859223,-0.0004841890124624,0.00048418558879892,-0.00048418553173353,0.0004841890225127,-0.00032212525728448,0.00032212216474852,2.9473005502266e-11,-1.7213372780042e-10,-6.1680390672875e-09,6.0274093212679e-09,-0.00067296225459413,0.00067296211394847,-0.00068399108560824,0.00068400297515327,-0.00062774213595638,0.00062773817004431,-0.00062774231955084,0.00062773795721846,-0.00067185348988112,0.00067184933713336,-0.00067184935556837,0.00067185334839072,-0.00067185354522416,0.00067184926979217,-0.00067184940848336,0.00067185328278554,-0.00068400335368229,0.00068399119002163,-0.00068399114915428,0.00068400290530709,-0.00062773806286136,0.00062774214518047,-0.00062773824938181,0.00062774192821882,-0.0006840032948455,0.00068399125416443,3.3271064830925e-09,-2.1010354061892e-10,-0.0004964417566817,0.00049644489469465,7.8064627872881e-09,-4.5072327805405e-09,-0.00043206740468049,0.00043206198869091,-0.00040489579117567,0.00040488583567272,-0.0004048946137498,0.00040488701657288,-0.00043205880461918,0.00043207059921889,-0.00043205533921896,0.00043207404675958,-0.00040488366297954,0.00040489797623919,-0.00040488248015765,0.00040489914932866,-0.00057083764926423,0.00057084600057201,-0.00057084178740678,0.00057084186443642,-0.00057083882944011,0.00057084482425851,-0.00057084296803541,0.00057084068441953,-0.000567604241229,0.00056759974879309,-0.00056760077297898,0.00056760321310378,-0.00056759666396433,0.00056760731788229,-0.00056760013152489,0.00056760386179054,-0.00043207086208837,0.00043205853145426,0.70494323151632,129487,2954,0.0020967169157042,0.0027998818647438,0.0020664261322504,15.399283965507,-0.00011680572827594,-0.00011680572827594,-0.00011680572827594,2874721.892102,0.006987490001087
23191759,0.42019475760427,0.007520661283088,0.0023809419000251,0.0027979464797979,0.0023417729032651,-0.0005114093715036,0.00051140944840063,-1.7726873030021e-09,1.848657226673e-09,7.5695024686602e-11,1.3451140856292e-11,-0.00032598217942109,0.00032598572624663,-0.0005354294231107,0.00053542824655427,-0.00053542825005348,0.00053542948497026,-0.00032598565873633,0.00032598220890956,-0.00032598206347797,0.00032598577654077,-0.00053542939607985,0.00053542833843147,-0.00053542815869342,0.00053542951428938,-0.00058237002614004,0.00058236891271414,-0.00058236881040162,0.00058237011598748,-0.0005823700504028,0.00058236889312189,-0.00058236884031038,0.00058237009379126,-0.00049155785667224,0.00049155436416279,-0.00049155428966814,0.00049155789127307,-0.00049155783627836,0.00049155438322046,-0.00049155427128312,0.0004915579097095,-0.00032598563409779,0.0003259821570574,-1.0278786687181e-10,-2.8187755537829e-11,-5.9126516432127e-09,5.7824983594532e-09,-0.00068458348062623,0.00068458335051188,-0.00069592553445795,0.00069593685460701,-0.00063809029324467,0.00063808622882121,-0.00063809020551566,0.00063808629436315,-0.00068343838661974,0.00068343431703435,-0.00068343441199738,0.00068343816016625,-0.00068343835158309,0.00068343434322521,-0.00068343437623697,0.0006834381864907,-0.00069593723386023,0.00069592566571508,-0.00069592550959609,0.0006959368747435,-0.00063808637945112,0.00063809003816019,-0.0006380863003972,0.00063809009378824,-0.00069593726869817,0.0006959256345704,3.4355745549306e-09,-1.8504564783174e-10,-0.00050363166622208,0.00050363493983342,7.6288273552117e-09,-4.1836184695187e-09,-0.00043759265586838,0.00043758796596447,-0.00041017545942966,0.00041016611205924,-0.00041017425170165,0.00041016732336358,-0.00043758463437612,0.00043759599608539,-0.0004375810962171,0.00043759951851003,-0.00041016382192927,0.00041017776144915,-0.00041016261446651,0.00041017896016755,-0.00057966704092519,0.00057967538488296,-0.00057967101253191,0.00057967141504012,-0.00057966824777745,0.0005796741812005,-0.00057967222172496,0.00057967020623274,-0.00057642135262982,0.00057641707324811,-0.00057641780071609,0.00057642062298547,-0.00057641386019852,0.00057642455918409,-0.00057641740587651,0.00057642102361473,-0.00043759620166786,0.00043758441879336,0.71242657763761,129487,2954,0.0021290772775536,0.0028481565678845,0.0020963235548474,15.510332688578,-0.00011591733849137,-0.00011591733849137,-0.00011591733849137,2903539.9936001,0.007098807725105
23391759,0.42665010131772,0.0076311072734761,0.0024150932773524,0.0028422665860884,0.0023737474100353,-0.00051926753423776,0.00051926759036307,-1.8265392486121e-09,1.8821500688059e-09,1.5060366472024e-10,-8.4293371615947e-11,-0.00032975706264634,0.00032976049487745,-0.00054409364563468,0.00054409225065531,-0.00054409244640245,0.00054409351520589,-0.00032976045288706,0.00032975705923313,-0.00032975676914776,0.00032976072464192,-0.0005440934509936,0.00054409250877463,-0.00054409218368977,0.00054409371882243,-0.00059165149352899,0.00059165038692664,-0.00059165024895317,0.0005916516215478,-0.0005916515743,0.00059165031149719,-0.00059165033640591,0.0005916515406403,-0.00049895015341931,0.00049894650031231,-0.00049894650778431,0.00049895011521189,-0.00049895007817671,0.00049894657431931,-0.00049894642955994,0.00049895019321936,-0.00032976059198694,0.00032975684527833,-1.8362868776228e-10,6.236569490686e-11,-5.73897429451e-09,5.6177013617413e-09,-0.0006963680815497,0.00069636796039175,-0.00070806278053412,0.00070807372364277,-0.00064855897922369,0.00064855486510253,-0.00064855872258539,0.00064855510431758,-0.00069515866574848,0.00069515465909768,-0.00069515479839147,0.00069515838801693,-0.00069515857421178,0.0006951547438997,-0.0006951547078875,0.00069515847110386,-0.00070807410364647,0.00070806293555399,-0.00070806270176501,0.00070807379877905,-0.00064855517246264,0.00064855856174557,-0.00064855492941856,0.00064855878593041,-0.00070807419758612,0.00070806284404642,3.5417189144404e-09,-1.626650558045e-10,-0.0005108826028129,0.00051088600688585,7.5293922974359e-09,-3.9440515116763e-09,-0.00044315554820232,0.0004431514200204,-0.00041548720099882,0.00041547829564838,-0.00041548596242055,0.00041547953780169,-0.00044314794541601,0.00044315902993272,-0.00044314433389534,0.00044316262680086,-0.00041547589399625,0.00041548961416228,-0.00041547466197842,0.00041549083796143,-0.00058858480053249,0.00058859318602603,-0.00058858865907909,0.00058858932927283,-0.00058858603424453,0.0005885919551097,-0.00058858989710655,0.00058858809157468,-0.00058538552020481,0.00058538139359247,-0.00058538188359704,0.00058538502910905,-0.00058537805730727,0.00058538885070419,-0.00058538168139252,0.0005853852357744,-0.00044315918324683,0.0004431477824764,0.71512157286866,129487,2954,0.0021617742406292,0.0028971073122111,0.0021264739407045,15.633828173904,-0.00011492937460877,-0.00011492937460877,-0.00011492937460877,2930729.0178698,0.0072114126439928
23591759,0.43334322912608,0.0077456721246209,0.0024505171492492,0.0028883023908819,0.0024068525844898,-0.0005281178871545,0.00052811795763025,-1.888521581462e-09,1.9583967018177e-09,1.0434180216486e-10,-2.2602054919796e-11,-0.00033429188181709,0.00033429531954162,-0.00055384752551838,0.00055384628902098,-0.00055384636312029,0.00055384751692114,-0.00033429551113016,0.0003342916406886,-0.00033429143870643,0.0003342956875538,-0.00055384752015011,0.00055384635771212,-0.00055384612501858,0.00055384769713689,-0.0006019979896182,0.00060199678794023,-0.00060199667241168,0.00060199809634649,-0.00060199800817828,0.00060199677708666,-0.00060199675194127,0.00060199802485235,-0.0005072826736354,0.00050727901536456,-0.00050727897691664,0.00050728268849617,-0.00050728271581505,0.00050727897215357,-0.00050727885162936,0.00050728280944803,-0.00033429529135349,0.00033429178062577,-9.7552870054724e-11,-2.5427014714801e-11,-6.1726819086724e-09,6.050409975452e-09,-0.00070935946909524,0.00070935934679725,-0.00072145227096657,0.00072146420338879,-0.00066015116465547,0.00066014685205434,-0.00066015099464311,0.00066014699954608,-0.00070806640407159,0.0007080621415969,-0.00070806222940174,0.00070806618578665,-0.00070806634174075,0.00070806219687077,-0.00070806222206622,0.0007080661840412,-0.00072146450067325,0.00072145250597655,-0.00072145233225048,0.00072146413892743,-0.00066014698976676,0.00066015091570676,-0.00066014699795966,0.00066015088422367,-0.00072146461989514,0.00072145238900657,3.5373813707067e-09,-1.9993274510732e-10,-0.00051909015469648,0.00051909351751892,7.8522068704113e-09,-4.3089268319857e-09,-0.0004495893165554,0.00044958475328189,-0.00042166318031562,0.00042165346513626,-0.00042166184701713,0.00042165479981361,-0.00044958107078206,0.00044959300628737,-0.00044957767455266,0.0004495963828054,-0.00042165111354914,0.0004216655432561,-0.00042164995212639,0.00042166669380661,-0.00059854935869586,0.00059855791529759,-0.00059855341970724,0.00059855385756036,-0.00059855057649681,0.00059855670072644,-0.00059855469680073,0.00059855258173749,-0.00059543019884287,0.00059542568339915,-0.00059542644809172,0.00059542943333711,-0.00059542246889977,0.00059543340572208,-0.00059542604234461,0.00059542984123326,-0.00044959323419975,0.00044958083349146,0.71571043295271,129487,2954,0.002198597596259,0.0029510681449676,0.0021606004562519,16.14643138682,-0.00011082854890544,-0.00011082854890544,-0.00011082854890544,2963312.5293151,0.0073372393185585
23791759,0.44028266085567,0.0078705380147944,0.0024891214244151,0.0029384792612665,0.0024429373291128,-0.00053758916092931,0.00053758925221043,-1.9079236819912e-09,1.9983242473527e-09,4.7292365162472e-11,5.7275892054931e-11,-0.00033942307391162,0.00033942683041631,-0.00056465251214882,0.00056465138492292,-0.00056465130604725,0.00056465266398867,-0.00033942690039885,0.00033942295386814,-0.00033942286704799,0.00033942696086602,-0.0005646526165637,0.0005646513487796,-0.00056465122605562,0.00056465267962313,-0.00061292572249374,0.00061292448391976,-0.00061292439211768,0.00061292580242333,-0.00061292570331448,0.00061292450702654,-0.00061292441727794,0.00061292578648018,-0.0005163268316836,0.00051632314052042,-0.0005163230400746,0.00051632691924621,-0.00051632688155733,0.00051632309680364,-0.0005163230018079,0.00051632694965504,-0.00033942663916552,0.00033942312867984,-4.7889553867296e-11,-7.7912769980123e-11,-6.5439356926536e-09,6.4192580093536e-09,-0.00072317672094117,0.00072317659617156,-0.00073589700338713,0.00073590965818383,-0.00067246466220093,0.00067246025001179,-0.00067246463650696,0.00067246025004656,-0.00072172075269402,0.00072171628784266,-0.00072171634392215,0.00072172056762433,-0.00072172073432864,0.00072171629599644,-0.00072171635999893,0.00072172054062149,-0.00073590999730316,0.00073589720000617,-0.00073589706009561,0.00073590959709163,-0.00067246028840643,0.00067246451147958,-0.00067246035034617,0.00067246442390837,-0.00073591004581785,0.00073589715570003,3.5822933644261e-09,-2.6693580184596e-10,-0.00052785332997314,0.0005278566711482,8.2572598385932e-09,-4.7355570729012e-09,-0.00045682743453315,0.00045682202851204,-0.00042854501654816,0.00042853445912303,-0.00042854368061004,0.00042853580109113,-0.00045681847326693,0.00045683099831768,-0.00045681486399448,0.00045683458138476,-0.00042853216724713,0.00042854732412633,-0.00042853093587098,0.00042854854324373,-0.00060906115450452,0.00060907001326938,-0.00060906550307874,0.00060906566768293,-0.00060906242049325,0.00060906875160237,-0.0006090668044235,0.00060906436608866,-0.00060625602074401,0.0006062511255473,-0.00060625219362906,0.0006062549523691,-0.00060624790153956,0.00060625923754994,-0.00060625162126136,0.00060625553027404,-0.00045683135248096,0.00045681810026796,0.75201415357572,129487,2954,0.0022380033890208,0.0030084556579483,0.0021970360913165,16.668937343646,-0.00010664850125083,-0.00010664850125083,-0.00010664850125083,2992798.2234409,0.0074714606736621
23991759,0.44747210160971,0.00800311333986,0.0025300644945503,0.0029918754218406,0.0024811734234691,-0.00054749956642337,0.0005474996738128,-1.9386066258836e-09,2.0448412428419e-09,1.0689172864871e-11,1.1164282650593e-10,-0.00034450497167139,0.00034450896014014,-0.00057614521340198,0.00057614414885917,-0.00057614396256705,0.0005761454716921,-0.00034450896194311,0.00034450491650164,-0.00034450490277163,0.0003445089479036,-0.00057614538699634,0.00057614404051975,-0.00057614399232923,0.00057614538040671,-0.00062437064709153,0.00062436937406722,-0.00062436929692876,0.00062437071293191,-0.00062437060414147,0.00062436942143831,-0.00062436928597571,0.00062437073294087,-0.00052590487894457,0.00052590113888183,-0.00052590099719467,0.00052590501640285,-0.00052590494040305,0.00052590108421652,-0.00052590100711457,0.00052590499781629,-0.00034450865736612,0.00034450512917675,-6.5362693435171e-12,-1.2145907241312e-10,-6.9288654812245e-09,6.8022851299615e-09,-0.00073777222740164,0.00073777210071503,-0.00075133417875948,0.00075134759793251,-0.00068545682355344,0.00068545225446913,-0.00068545689778507,0.00068545215069052,-0.00073603039189269,0.00073602570385625,-0.00073602573404894,0.00073603023391555,-0.00073603040694116,0.00073602567733327,-0.00073602577230616,0.00073603018340532,-0.00075134796239268,0.00075133435833103,-0.00075133424399624,0.00075134752720472,-0.00068545220951021,0.00068545675361962,-0.00068545233613121,0.00068545659881732,-0.00075134796331162,0.00075133436235887,3.6338875761628e-09,-3.0950439886777e-10,-0.00053697950708066,0.00053698285825926,8.6608031296851e-09,-5.126861616691e-09,-0.00046443931008839,0.00046443315877681,-0.00043569814070965,0.00043568680353708,-0.00043569679216973,0.00043568815786332,-0.00046442966086522,0.00046444281753925,-0.00046442589409776,0.00046444655818341,-0.0004356845290343,0.00043570043126978,-0.0004356832480725,0.00043570169940447,-0.00062004361925649,0.00062005278797656,-0.00062004823822397,0.0006200481721737,-0.0006200449224278,0.0006200514894918,-0.00062004956433039,0.00062004684594286,-0.00061772949700876,0.00061772426707764,-0.00061772559835957,0.00061772816498172,-0.00061772101573027,0.00061773274041174,-0.00061772484853111,0.0006177289209481,-0.00046444325610896,0.00046442920399033,0.77068673111407,129487,2954,0.0022792372414166,0.0030690710484667,0.0022349798478666,17.191837442703,-0.00010246530045837,-0.00010246530045837,-0.00010246530045837,3019080.2071461,0.0076123137421764
24191759,0.45488750861038,0.0081328071428226,0.0025700713409388,0.0030443773147318,0.002518358487152,-0.00055722475102795,0.00055722486063858,-1.9735903413904e-09,2.0819844712153e-09,1.6715660715686e-11,1.0823913492755e-10,-0.00034885742121372,0.00034886151764196,-0.00058707686422227,0.00058707575241209,-0.00058707557354258,0.0005870771166498,-0.00034886147220121,0.00034885741119846,-0.00034885738656094,0.00034886146962891,-0.00058707701179246,0.00058707566986209,-0.00058707561112497,0.00058707701831066,-0.00063582877434409,0.00063582748753769,-0.00063582740498218,0.00063582884533807,-0.00063582873961624,0.00063582752650794,-0.00063582739218004,0.00063582886726424,-0.00053512102977633,0.00053511720286695,-0.00053511705863532,0.00053512116224139,-0.00053512106820901,0.00053511716193929,-0.00053511708489615,0.0005351211369016,-0.00034886121949973,0.0003488575701032,-1.0776298342953e-11,-1.1659405530811e-10,-7.2203674395251e-09,7.094354128307e-09,-0.00075240064693187,0.00075240052084924,-0.00076664712718237,0.00076666110243213,-0.00069843201467356,0.00069842725811504,-0.00069843209453659,0.00069842714774197,-0.00075042331158688,0.00075041843348565,-0.00075041846696848,0.00075042315252466,-0.00075042332893344,0.00075041840448395,-0.00075041849713667,0.00075042310998186,-0.00076666148541229,0.00076664729386266,-0.00076664717303634,0.00076666105076656,-0.00069842722057502,0.00069843193564197,-0.00069842732294815,0.00069843180421664,-0.00076666147326503,0.00076664731121974,3.6764193528535e-09,-3.6605207419864e-10,-0.00054587530311802,0.00054587864086963,8.9666811192159e-09,-5.4453702042369e-09,-0.00047127977548123,0.0004712730440933,-0.00044219443827598,0.00044218245928666,-0.00044219307267186,0.00044218383059938,-0.00047126960970308,0.00047128322010943,-0.00047126569763003,0.00047128710547722,-0.00044218022879304,0.00044219668525687,-0.00044217889886213,0.00044219800185621,-0.00063102746037044,0.00063103686006925,-0.00063103229203452,0.00063103203159282,-0.00063102880180233,0.00063103552342236,-0.00063103364570063,0.00063103067771668,-0.00062896691992194,0.00062896138576709,-0.00062896294076142,0.00062896536424081,-0.000628958132646,0.00062897016494728,-0.00062896207891454,0.00062896623226686,-0.0004712837702775,0.00047126904108006,0.73179327372835,129487,2954,0.0023197018097239,0.0031298185900261,0.0022719645705365,17.664808661449,-9.8681530708407e-05,-9.8681530708407e-05,-9.8681530708407e-05,3048932.3391486,0.0077515806218893
24391759,0.46237708466439,0.0082645884835037,0.0026107226419363,0.0030978056732746,0.0025560601682929,-0.00056661596004043,0.00056661604786692,-2.0337361190076e-09,2.1206636650704e-09,1.0788976662992e-10,-6.6174367242034e-12,-0.00035332652955179,0.00035333044821949,-0.0005977411995892,0.0005977398438172,-0.00059773988985298,0.00059774122503605,-0.00035333047254316,0.00035332644767872,-0.00035332624573116,0.0003533306549823,-0.00059774115735871,0.00059773994764631,-0.00059773971211125,0.00059774134650368,-0.00064687016780639,0.00064686888968415,-0.00064686876135837,0.00064687028670404,-0.00064687019608684,0.00064686886617787,-0.00064686882158301,0.00064687023436069,-0.00054391267845892,0.00054390868447139,-0.00054390862478483,0.00054391271619268,-0.00054391266037964,0.0005439086856941,-0.00054390857050871,0.00054391278593271,-0.00035333037769469,0.00035332645385746,-1.099520273131e-10,-8.5217781397921e-12,-7.1855228377685e-09,7.0674767913618e-09,-0.00076658838476261,0.00076658826669464,-0.00078148713696053,0.00078150100862079,-0.00071094043162956,0.00071093547920088,-0.0007109402907648,0.0007109355935485,-0.00076446825611151,0.00076446333239055,-0.00076446342361806,0.00076446803410294,-0.00076446820094242,0.00076446337818239,-0.00076446339217928,0.00076446805553792,-0.00078150137884384,0.0007814873396779,-0.00078148713089821,0.00078150100978799,-0.00071093563474274,0.00071094015427321,-0.00071093555371813,0.00071094021036587,-0.00078150145154814,0.00078148727128876,3.7731813504806e-09,-3.4163038380128e-10,-0.000554405231962,0.00055440869272745,8.9861210354869e-09,-5.3329076771252e-09,-0.00047784611937416,0.0004778397228384,-0.00044845416553677,0.00044844237019329,-0.00044845275985648,0.00044844378164501,-0.00047783611963144,0.00047784973187244,-0.00047783218097393,0.00047785364460175,-0.00044844003183933,0.00044845652002442,-0.00044843869417392,0.0004484578445951,-0.00064157733969384,0.00064158684713655,-0.00064158213513096,0.00064158205480971,-0.0006415786997312,0.00064158549148973,-0.00064158351846021,0.00064158067111078,-0.00063980563152031,0.00063980017148813,-0.00063980156735731,0.00063980423558954,-0.00063979681246916,0.00063980898348414,-0.00063980081387777,0.00063980499431525,-0.00047785022902357,0.00047783560449708,0.7363889977253,129487,2954,0.0023587755963993,0.0031887320809031,0.0023074274038293,17.85881435794,-9.7129485136481e-05,-9.7129485136481e-05,-9.7129485136481e-05,3078304.2554115,0.0078860820074645
24591759,0.46993437561661,0.008401216434201,0.0026528629961886,0.0031532390278152,0.0025951144101972,-0.00057624472165843,0.0005762447936273,-2.0807787799013e-09,2.1521675168553e-09,1.7953881138902e-10,-9.5687238879358e-11,-0.00035799191980764,0.00035799576615505,-0.00060888869969756,0.00060888713452462,-0.00060888735453416,0.00060888854881951,-0.00035799577914203,0.00035799184622307,-0.00035799150666329,0.00035799610902386,-0.00060888848967308,0.00060888740267857,-0.0006088870289386,0.0006088888228518,-0.00065812496587979,0.00065812370244084,-0.00065812353730157,0.0006581251234738,-0.00065812505074161,0.00065812362253284,-0.00065812364700591,0.00065812502077244,-0.00055301609641608,0.00055301194727831,-0.00055301195441705,0.0005530160633147,-0.00055301601006794,0.00055301200620863,-0.00055301186151703,0.00055301618259014,-0.00035799587238695,0.00035799167006029,-1.8709987630074e-10,7.7617179719762e-11,-7.2462252341019e-09,7.1363936659251e-09,-0.00078113667823191,0.00078113656839475,-0.00079683010476843,0.00079684404966732,-0.0007237867246966,0.00072378158640252,-0.00072378643623087,0.00072378185218587,-0.00077880529274875,0.000778800283355,-0.00077880041774204,0.00077880502248655,-0.00077880518792381,0.00077880038064161,-0.00077880033016794,0.0007788051018283,-0.00079684443430501,0.00079683031821,-0.0007968300346369,0.00079684411548829,-0.00072378189213688,0.00072378629300988,-0.00072378164066669,0.00072378652291784,-0.00079684455076491,0.00079683020504892,3.8792250887996e-09,-3.2823768192442e-10,-0.00056314929801185,0.000563152880273,9.1275180142923e-09,-5.3438665291413e-09,-0.00048480631397945,0.00048479995621703,-0.00045501741790769,0.00045500558268868,-0.00045501599060083,0.00045500701605111,-0.00048479625734692,0.00048481002095351,-0.00048479220117285,0.00048481405231161,-0.0004550031444459,0.00045501987225896,-0.00045500176709382,0.00045502123690749,-0.00065232216733865,0.00065233187791669,-0.00065232701705997,0.00065232703125824,-0.0006523235612493,0.00065233048809916,-0.00065232842791982,0.00065232561992359,-0.00065098325746672,0.00065097779097479,-0.00065097911270739,0.00065098193604766,-0.00065097430320737,0.00065098673894774,-0.00065097840484439,0.00065098264846207,-0.00048481048534194,0.00048479577487409,0.75660586772463,129487,2954,0.0023988369248911,0.0032491388440776,0.0023437794231031,18.045705431799,-9.5634356545605e-05,-9.5634356545605e-05,-9.5634356545605e-05,3104153.058729,0.00802399741804
24791759,0.47755659864511,0.0085261405719459,0.00269138893269,0.0032041984632169,0.0026305531760391,-0.00058525888622081,0.00058525894449895,-2.1310592742932e-09,2.1890097526076e-09,2.2963972810511e-10,-1.6088632115097e-10,-0.00036142240543289,0.00036142620193616,-0.00061867813804229,0.00061867641700468,-0.00061867676642156,0.00061867786005561,-0.00036142623547805,0.00036142231040759,-0.00036142187178783,0.00036142666609564,-0.00061867781671595,0.00061867679842741,-0.00061867632568421,0.00061867824849491,-0.00066903683125746,0.00066903556286539,-0.00066903537274021,0.00066903701352986,-0.00066903695315763,0.00066903544529635,-0.00066903552141245,0.00066903687192588,-0.00056114392435454,0.00056113964076232,-0.00056113970051967,0.0005611438407503,-0.00056114379993996,0.00056113973346879,-0.00056113956906015,0.00056114400314985,-0.00036142643604046,0.00036142202700751,-2.4117714370381e-10,1.3987677608477e-10,-7.3658512259776e-09,7.2635783164625e-09,-0.00079516365794824,0.00079516355575342,-0.00081127758530627,0.00081129174345839,-0.00073613821071744,0.00073613288203182,-0.00073613780710113,0.00073613326583105,-0.00079274748659403,0.00079274236563779,-0.00079274253211953,0.00079274718677948,-0.00079274734355146,0.00079274250249007,-0.00079274240731687,0.00079274730466295,-0.00081129212264633,0.00081127781177305,-0.00081127747862896,0.00081129184657646,-0.00073613329380853,0.00073613767179405,-0.0007361329313558,0.00073613801570155,-0.00081129227904185,0.00081127765790283,3.9257982868439e-09,-3.6573480164845e-10,-0.00057129076374121,0.00057129435590898,9.2572998522116e-09,-5.4620603324753e-09,-0.00049035760772281,0.00049035110209427,-0.00046037240983463,0.00046036031390721,-0.00046037095292452,0.00046036177685474,-0.00049034738965838,0.00049036132705392,-0.00049034325550745,0.00049036543785636,-0.000460357889965,0.00046037484953462,-0.00046035648661121,0.00046037624078227,-0.0006627446375997,0.00066275446558342,-0.0006627495686524,0.00066274953752158,-0.00066274605876288,0.00066275304821506,-0.00066275100812201,0.000662748097471,-0.00066138674474635,0.0006613811204927,-0.00066138251698576,0.0006613853494889,-0.00066137762819587,0.00066139023185629,-0.00066138181015827,0.00066138605969461,-0.00049036186446343,0.00049034683461716,0.68706804082048,129487,2954,0.0024363429560007,0.0033073770294597,0.0023776254414034,18.232313195186,-9.4141494438513e-05,-9.4141494438513e-05,-9.4141494438513e-05,3134768.3385676,0.0081546473821068
24991759,0.48530827188269,0.0086553774176009,0.0027312726663981,0.0032569025951619,0.0026672021560408,-0.00059481560839126,0.00059481567011051,-2.1744728535675e-09,2.2358738010607e-09,2.2167538979254e-10,-1.4928001309807e-10,-0.00036615481275835,0.00036615868513658,-0.00062919281764413,0.00062919110013908,-0.00062919142780639,0.00062919256344353,-0.00036615874997727,0.00036615468526175,-0.00036615426198113,0.00036615916516407,-0.00062919252688561,0.00062919145214344,-0.00062919099429173,0.00062919294261906,-0.00068035985655377,0.00068035855166953,-0.00068035836441221,0.0006803600353188,-0.00068035996858265,0.00068035844376818,-0.00068035850977841,0.00068035989707905,-0.00056967125129138,0.0005696668995675,-0.0005696669492972,0.00056967117691908,-0.00056967114267883,0.000569666974255,-0.00056966681454068,0.00056967134491384,-0.00036615889533598,0.00036615445600245,-2.2252743760865e-10,1.2486617207857e-10,-7.7059126306734e-09,7.6073422690038e-09,-0.00080959341005032,0.00080959331146898,-0.0008260547589574,0.00082606961392878,-0.00074886618637617,0.00074886065799837,-0.00074886580547783,0.00074886101874405,-0.00080722893649936,0.00080722360278163,-0.00080722375853281,0.00080722865480685,-0.0008072288007928,0.00080722373188028,-0.00080722364788902,0.00080722875803224,-0.00082606997699598,0.00082605499821545,-0.00082605467412777,0.0008260696951565,-0.00074886103298781,0.00074886568515469,-0.00074886071419939,0.00074886598514079,-0.00082607013269403,0.00082605484517819,3.9410958004492e-09,-4.3140262438713e-10,-0.00057998711346652,0.00057999065524375,9.5579421508583e-09,-5.8152623156471e-09,-0.00049674024907438,0.00049673315930161,-0.00046658443254196,0.0004665716055308,-0.00046658293842533,0.00046657310647795,-0.00049672946705215,0.00049674394760587,-0.00049672528677777,0.00049674810385887,-0.0004665692586385,0.00046658679536413,-0.0004665678387929,0.00046658820247899,-0.00067358856823468,0.00067359858568566,-0.0006735937130224,0.0006735934439324,-0.00067359001290863,0.00067359714484501,-0.00067359518300667,0.00067359197333023,-0.00067233951711487,0.00067233353701768,-0.0006723351999248,0.00067233785551581,-0.00067233010489731,0.00067234294381885,-0.00067233435599111,0.00067233870275674,-0.00049674461697946,0.00049672877950113,0.69911855028958,129487,2954,0.0024761001103809,0.003367284784148,0.0024137770122209,18.541873537351,-9.1665011701188e-05,-9.1665011701188e-05,-9.1665011701188e-05,3171103.2130134,0.0082915907835938
25191759,0.49337228225434,0.008793680035172,0.0027739497995828,0.0033133065632851,0.0027064236723041,-0.00060548649594826,0.00060548659234043,-2.1879952122335e-09,2.2836370841164e-09,1.1408077735174e-10,-3.8859632717836e-12,-0.00037163636553368,0.00037164073645725,-0.00064114251377414,0.00064114101521989,-0.0006411410576591,0.00064114254704713,-0.00037164061247609,0.00037163642417595,-0.00037163621911732,0.0003716408139899,-0.00064114242624909,0.0006411411656967,-0.0006411409193852,0.00064114262909851,-0.00069286220463878,0.00069286084578207,-0.00069286070635829,0.00069286233190108,-0.00069286224907186,0.00069286080470623,-0.00069286075268888,0.00069286229447197,-0.00057931765859668,0.00057931331578804,-0.00057931324708712,0.00057931770164403,-0.00057931758476164,0.00057931335495442,-0.00057931324573048,0.00057931773655241,-0.00037164065833029,0.00037163629635445,-1.2134162936122e-10,1.9279062346703e-11,-8.4098094050072e-09,8.307655612309e-09,-0.00082550731195299,0.00082550720980579,-0.00084249756849858,0.00084251381804615,-0.00076298113380817,0.0007629753904022,-0.00076298100380472,0.00076297549489706,-0.00082308361303789,0.00082307789851597,-0.0008230779962702,0.00082308340354127,-0.00082308356071506,0.00082307794165106,-0.0008230779366672,0.00082308345294155,-0.00084251422415237,0.00084249774491384,-0.0008424975015604,0.00084251387928707,-0.00076297556897301,0.00076298083511918,-0.00076297540017898,0.00076298097886307,-0.00084251426269445,0.0008424977102224,3.9034497135186e-09,-5.7913400680583e-10,-0.00058977173888405,0.00058977509397024,1.0223851579727e-08,-6.6780800567162e-09,-0.00050433601846745,0.00050432717831634,-0.00047388210448293,0.00047386759133728,-0.00047388062240999,0.00047386908045401,-0.00050432383396085,0.00050433937024174,-0.00050431939084343,0.00050434378872784,-0.00047386547397809,0.00047388423897298,-0.00047386396876928,0.0004738857308036,-0.00068562253566728,0.00068563292742217,-0.00068562820275201,0.00068562726394645,-0.00068562403327927,0.00068563143467382,-0.00068562969333152,0.00068562577291762,-0.00068468171786246,0.00068467498500767,-0.00068467734010529,0.00068467936237985,-0.00068467168878424,0.0006846850068909,-0.00068467609653183,0.00068468061043027,-0.00050434034067493,0.00050432284532317,0.71926998228649,129487,2954,0.0025204899931278,0.003433350420632,0.0024544509957924,19.18072309269,-8.6554215258483e-05,-8.6554215258483e-05,-8.6554215258483e-05,3207261.199363,0.0084439944797001
25391759,0.50175658826629,0.0089453278924711,0.0028206987211365,0.0033751876810647,0.0027494414902699,-0.0006169079016586,0.00061690802118954,-2.2286623671298e-09,2.3469971376867e-09,5.8215477983579e-11,7.7617160760782e-11,-0.00037764230010194,0.0003776468179406,-0.00065439995471989,0.00065439861409395,-0.00065439849391254,0.00065440014595072,-0.00037764678427289,0.00037764226855549,-0.00037764217053723,0.00037764687049655,-0.00065440003210304,0.00065439859529759,-0.00065439846081166,0.00065440012680763,-0.00070612404364874,0.0007061226165986,-0.00070612249993736,0.00070612414792219,-0.00070612403203866,0.00070612263248232,-0.0007061225118544,0.00070612414416351,-0.00058989139872101,0.00058988706261099,-0.00058988692910192,0.00058989151023787,-0.0005898914124418,0.00058988701678358,-0.00058988692893103,0.00058989154203963,-0.00037764657643528,0.00037764238617864,-3.9836183252535e-11,-6.7261870622494e-11,-9.0744693113092e-09,8.9679726608264e-09,-0.00084256758616308,0.00084256747958658,-0.00086044442372597,0.00086046206748558,-0.00077811900885631,0.00077811294078195,-0.00077811899848591,0.00077811291934837,-0.00083992845842113,0.00083992234570999,-0.00083992239746095,0.00083992830375697,-0.0008399284476122,0.00083992234470853,-0.00083992240360624,0.00083992828513362,-0.0008604624336909,0.00086044462977272,-0.00086044445136366,0.00086046203282128,-0.00077811295967009,0.00077811887279108,-0.00077811299638038,0.00077811880457948,-0.00086046245599071,0.00086044461275287,3.8945716498624e-09,-6.5527894676621e-10,-0.00060022606118958,0.00060022933061201,1.0799204010616e-08,-7.3429268553235e-09,-0.0005128752660797,0.00051286530692975,-0.00048196617692875,0.00048195029816829,-0.0004819646367843,0.00048195184435,-0.00051286193889474,0.00051287864375576,-0.00051285754083776,0.00051288301730241,-0.00048194829041957,0.00048196820211014,-0.00048194679779675,0.00048196968070495,-0.00069836796211188,0.00069837869146339,-0.00069837402843918,0.00069837262832911,-0.00069836947059896,0.00069837718770658,-0.0006983755539894,0.00069837110270771,-0.00069805303022915,0.00069804569800648,-0.00069804855134886,0.00069805017500586,-0.00069804252172886,0.00069805619884783,-0.0006980469598632,0.00069805177204316,-0.00051287976777708,0.00051286079869542,0.75830138042301,129487,2954,0.0025680016340751,0.0035041695176662,0.002497907501966,19.82799411281,-8.1376047097519e-05,-8.1376047097519e-05,-8.1376047097519e-05,3238006.8443425,0.0086071689016609
25591759,0.5104637686754,0.009107843422983,0.0028706964665751,0.003441701255862,0.0027954457005459,-0.00062893176298814,0.00062893189957691,-2.2631844300339e-09,2.3982409535027e-09,2.50240225627e-11,1.2982893232994e-10,-0.00038371676653255,0.00038372147443547,-0.00066864704196125,0.00066864577819141,-0.00066864555465492,0.00066864733568115,-0.00038372141947892,0.00038371675449737,-0.00038371672577595,0.00038372143899665,-0.00066864720554027,0.00066864567147228,-0.00066864560359495,0.0006686472356999,-0.00072008088888491,0.00072007942158113,-0.00072007931649605,0.00072008098103593,-0.00072008084925478,0.00072007946540742,-0.00072007929998286,0.00072008100612639,-0.00060124059053846,0.00060123621397408,-0.00060123603860769,0.00060124075136662,-0.0006012406328352,0.00060123614282821,-0.00060123606779638,0.00060124075048107,-0.00038372112899461,0.00038371695542346,1.6800018682726e-12,-1.1222211965451e-10,-9.6605013367419e-09,9.5509674201484e-09,-0.00086070050918183,0.00086070039952452,-0.00087978239959906,0.00087980121783043,-0.00079418797102881,0.00079418160032541,-0.00079418804745085,0.00079418148838004,-0.00085768496358932,0.00085767849105714,-0.00085767851916461,0.0008576848364845,-0.00085768498106912,0.00085767846050126,-0.00085767855314316,0.00085768478883813,-0.00087980158960413,0.00087978260306258,-0.00087978245378488,0.00087980115533091,-0.00079418153775114,0.00079418791716115,-0.00079418165351521,0.00079418776531504,-0.00087980158300235,0.00087978261584275,3.9217229919443e-09,-7.1379207038486e-10,-0.00061118414058428,0.00061118737902939,1.1367461799224e-08,-7.9421475935854e-09,-0.00052197465348184,0.00052196359871636,-0.00049046875063026,0.00049045166567201,-0.0004904671819936,0.00049045324133809,-0.00052196026360358,0.00052197799966114,-0.00052195578116879,0.00052198245288508,-0.00049044971610447,0.00049047071947395,-0.00049044819440756,0.00049047222496631,-0.00071172778438169,0.00071173889917463,-0.000711734239312,0.00071173244784443,-0.00071172932176513,0.00071173736712824,-0.00071173579322961,0.00071173089363699,-0.00071226789840486,0.00071226006024756,-0.00071226333484464,0.00071226462193987,-0.00071225691621616,0.00071227103398264,-0.00071226143858679,0.00071226652463195,-0.00052197923859569,0.00052195900496147,0.78252854707489,129487,2954,0.002618020965022,0.0035794342478829,0.0025434564136603,20.475592040354,-7.6195263677171e-05,-7.6195263677171e-05,-7.6195263677171e-05,3265206.246717,0.0087794943308511
25791759,0.51930953203102,0.0092679068826213,0.0029198518741288,0.003507545795453,0.0028405092130395,-0.00064028812049326,0.00064028823770293,-2.2988240616794e-09,2.4147119514133e-09,1.1346149034406e-10,2.0514624865822e-11,-0.00038862815099828,0.00038863278707046,-0.00068190998146789,0.00068190845262934,-0.00068190844372385,0.00068191005980711,-0.00038863265810214,0.00038862820789905,-0.00038862800644815,0.00038863285472373,-0.00068190991652787,0.00068190857227737,-0.0006819083325945,0.00068191012346078,-0.00073352998867905,0.00073352856168637,-0.00073352841085877,0.00073353012779271,-0.00073353002606217,0.00073352852886024,-0.00073352844785431,0.00073353009831283,-0.00061181633288771,0.00061181178769123,-0.00061181169740423,0.00061181641074328,-0.00061181627499893,0.00061181181396606,-0.00061181169629342,0.00061181644311768,-0.00038863265326869,0.00038862812168102,-8.9544339768651e-11,-1.4110230324502e-11,-9.7381875449962e-09,9.6346824230361e-09,-0.00087837998544158,0.00087837988187113,-0.00089857661553521,0.00089859550522403,-0.0008097749987027,0.00080976842733069,-0.00080977492408786,0.00080976846954163,-0.00087499715357808,0.00087499058196992,-0.00087499066336482,0.00087499696745031,-0.00087499712120687,0.00087499060346033,-0.0008749906251837,0.00087499699425618,-0.00089859591654109,0.00089857680415493,-0.00089857657409128,0.00089859553920282,-0.00080976854271109,0.00080977476257462,-0.00080976843964912,0.00080977483277902,-0.00089859593934958,0.0008985767867913,4.0266039053014e-09,-7.2821686495626e-10,-0.00062141117209629,0.00062141450255873,1.1554637205298e-08,-8.0296527679138e-09,-0.00052985991246943,0.00052984870652356,-0.00049788146104976,0.00049786419984652,-0.0004978798858084,0.00049786578221681,-0.00052984537375792,0.00052986325587137,-0.00052984067986269,0.00052986792020418,-0.00049786219005168,0.00049788349019187,-0.00049786059571308,0.00049788506812688,-0.00072455935649764,0.00072457070314793,-0.00072456591463634,0.00072456414856015,-0.00072456094474767,0.00072456911988245,-0.00072456749679305,0.00072456256585176,-0.00072574905861902,0.00072574113584733,-0.00072574441340118,0.00072574578039584,-0.00072573786919267,0.00072575231766425,-0.00072574254254995,0.00072574765680167,-0.00052986451745076,0.00052984409199839,0.75921599517854,129487,2954,0.0026652669213714,0.0036528097000806,0.0025859659386257,20.820650959178,-7.3434792326578e-05,-7.3434792326578e-05,-7.3434792326578e-05,3289877.2225427,0.0089440807088126
25991759,0.52800445292648,0.0094217715605868,0.0029670899750889,0.0035710235041514,0.0028836580813465,-0.00065045926645302,0.00065045933411891,-2.3688200233508e-09,2.4359312178704e-09,3.0006179105355e-10,-2.2042025847417e-10,-0.00039277280020859,0.00039277704583781,-0.00069371441978209,0.00069371238655627,-0.0006937128494927,0.00069371402197545,-0.0003927769693889,0.00039277279701305,-0.00039277223082648,0.00039277754375988,-0.00069371393098002,0.0006937129250493,-0.00069371232192535,0.00069371451002846,-0.0007457427553813,0.00074574139095301,-0.00074574114941306,0.00074574298997516,-0.0007457429338831,0.00074574121822397,-0.00074574132742664,0.00074574281675505,-0.00062104256826443,0.00062103775067282,-0.00062103785211399,0.00062104245913551,-0.00062104237190328,0.00062103790889457,-0.00062103770701526,0.00062104264260612,-0.00039277738421006,0.00039277229508571,-2.9812243429221e-10,2.1346373444341e-10,-9.3193096986181e-09,9.2328108047617e-09,-0.00089462630773742,0.00089462622129922,-0.00091575407989954,0.00091577204149414,-0.00082397892119942,0.00082397220193178,-0.00082397841695865,0.00082397268496876,-0.0008910128328359,0.00089100640447154,-0.00089100660492723,0.00089101251249211,-0.00089101265905581,0.00089100657268685,-0.00089100642638358,0.00089101268499323,-0.00091577245765142,0.00091575431390519,-0.0009157538978038,0.00091577221818822,-0.00082397272446403,0.00082397826865543,-0.00082397220250725,0.00082397876764728,-0.00091577262733731,0.00091575414653181,4.2032414938429e-09,-6.3144680670409e-10,-0.00063043688601107,0.00063044049340477,1.1290887632464e-08,-7.4697400922588e-09,-0.00053642652358536,0.00053641650730508,-0.00050409001592623,0.00050407383074186,-0.00050408841294526,0.00050407544094477,-0.0005364128862304,0.00053643015239914,-0.00053640811727125,0.00053643489442603,-0.00050407155297698,0.00050409231224556,-0.00050406993392597,0.00050409391623237,-0.00073616761141708,0.00073617898111621,-0.00073617389523006,0.00073617270071358,-0.00073616922565436,0.00073617737096181,-0.00073617550514833,0.00073617108989877,-0.00073784209090762,0.00073783463346856,-0.00073783736741689,0.00073783935872818,-0.00073783109956063,0.00073784561940423,-0.00073783584815967,0.00073784088126002,-0.0005364312102169,0.00053641180849188,0.74286074121851,129487,2954,0.0027075832416422,0.0037202310484028,0.0026234821411246,20.694862447754,-7.4441100417971e-05,-7.4441100417971e-05,-7.4441100417971e-05,3311361.7869015,0.0090926731665712
26191759,0.53654195890529,0.0095761174674546,0.0030144748144235,0.0036347326245752,0.0029269100284559,-0.00066060910623185,0.00066060914117681,-2.4349628361009e-09,2.4699846977365e-09,4.2508608783828e-10,-3.8169883858308e-10,-0.00039733404082196,0.00039733801749992,-0.00070568479765834,0.00070568243131478,-0.00070568321068309,0.00070568408173005,-0.00039733802077629,0.00039733395004654,-0.00039733314154787,0.00039733885173634,-0.00070568404324527,0.00070568323254042,-0.00070568238621701,0.00070568487186442,-0.00075780971964878,0.00075780837929084,-0.00075780807687823,0.00075781001933991,-0.00075780998734662,0.00075780811810193,-0.00075780835454886,0.00075780974433508,-0.00063026614474864,0.00063026112142293,-0.00063026135640551,0.00063026591525314,-0.00063026587166765,0.00063026135491395,-0.00063026109772577,0.00063026621437371,-0.0003973386713887,0.00039733321701542,-4.3227201397493e-10,3.649071686931e-10,-9.1487707488924e-09,9.0780879788202e-09,-0.00091071430933832,0.00091071423882447,-0.00093284292437826,0.00093286050844681,-0.00083803581184651,0.00083802891673521,-0.00083803501239602,0.00083802970366094,-0.00090687504705541,0.00090686864296728,-0.0009068689166131,0.00090687464278876,-0.00090687477501958,0.00090686891274112,-0.00090686865112632,0.00090687490561279,-0.0009328609121488,0.00093284321452411,-0.00093284266674472,0.00093286076231985,-0.00083802969988514,0.00083803489042424,-0.00083802891842344,0.00083803565590214,-0.0009328611941022,0.00093284293262263,4.3587223563916e-09,-5.4693727793792e-10,-0.00063943133424156,0.00063943518523281,1.123589874373e-08,-7.1541676297809e-09,-0.00054321861987322,0.00054320934877258,-0.00051049345067809,0.00051047784787615,-0.00051049180663412,0.00051047949952191,-0.00054320542380369,0.00054322254963644,-0.00054320064120582,0.00054322730888869,-0.00051047533401264,0.0005104959822733,-0.00051047370953592,0.00051049759332968,-0.00074763331985026,0.00074764482164824,-0.00074763947476678,0.0007476386699054,-0.00074763495190964,0.00074764319292443,-0.00074764111469003,0.00074763702897752,-0.00074995507736003,0.00074994789230673,-0.00074995026643973,0.00074995270649427,-0.00074994414157,0.00074995882428722,-0.00074994894011147,0.00074995403431361,-0.00054322342877553,0.00054320452574455,0.75895315795629,129487,2954,0.0027498090071957,0.0037869902390112,0.0026608671488318,20.556975525438,-7.5544195796497e-05,-7.5544195796497e-05,-7.5544195796497e-05,3331578.9502191,0.0092403939956092
26391759,0.54492282913629,0.0097326879238778,0.0030625084208922,0.0036994214771786,0.002970758025807,-0.0006708016156283,0.00067080163277585,-2.4845103035186e-09,2.5021120112103e-09,5.0556374050711e-10,-4.8222622321695e-10,-0.00040199264442802,0.00040199652424749,-0.00071797558230982,0.0007179729855341,-0.00071797396219771,0.00071797466831868,-0.00040199652106276,0.00040199255091387,-0.0004019915888166,0.00040199751919124,-0.00071797464315452,0.00071797396907039,-0.00071797296740424,0.00071797563347028,-0.00076985260591677,0.0007698512836542,-0.00076985094013455,0.0007698529500169,-0.00076985293645753,0.00076985096026383,-0.00076985127425039,0.00076985261684667,-0.00063966239926187,0.00063965721001007,-0.00063965753004014,0.00063966209988536,-0.00063966205754146,0.0006396575120864,-0.00063965721983743,0.00063966245112293,-0.00040199737243674,0.00040199162025024,-5.1667370575236e-10,4.6424106663644e-10,-9.1506383925578e-09,9.0937738238931e-09,-0.00092689604679923,0.00092689599022639,-0.00095024264995728,0.00095026020014742,-0.00085217280517567,0.00085216574660631,-0.0008521718362823,0.00085216670787373,-0.0009227183349697,0.00092271188140197,-0.0009227121980569,0.00092271787976008,-0.00092271800554933,0.00092271221031425,-0.0009227118702506,0.00092271820673252,-0.00095026061629148,0.00095024296606731,-0.00095024232467807,0.00095026052278365,-0.00085216669265772,0.00085217171344214,-0.00085216572320186,0.00085217267116027,-0.00095026095177227,0.00095024262917344,4.5056824073409e-09,-4.8954220629957e-10,-0.00064843900240707,0.00064844306098086,1.1369258698433e-08,-7.065423194164e-09,-0.00055020194468864,0.00055019291580339,-0.00051704453640988,0.00051702908866792,-0.00051704286948935,0.00051703076354721,-0.00055018879695441,0.00055020606605591,-0.00055018391070751,0.0005502109311226,-0.00051702638290254,0.00051704725953398,-0.00051702472238939,0.00051704890762191,-0.00075906646299165,0.00075907821396261,-0.00075907263563971,0.00075907204442565,-0.00075906812712132,0.0007590765528151,-0.00075907430306714,0.00075907037592644,-0.0007622468150698,0.0007622397346002,-0.00076224192309373,0.00076224463094913,-0.00076223577742184,0.00076225076941696,-0.00076224066958706,0.00076224588468792,-0.00055020682128387,0.00055018802332175,0.78422388610388,129487,2954,0.0027922127769365,0.0038541327776063,0.0026983059980707,20.418605881129,-7.6651152950966e-05,-7.6651152950966e-05,-7.6651152950966e-05,3347406.649971,0.00938875611373
26591759,0.55331304132013,0.0098890197321645,0.0031104333818822,0.0037641710642856,0.0030144152859967,-0.00068148970707221,0.00068148974801485,-2.5158535954437e-09,2.556973488818e-09,4.4341678503924e-10,-3.9437856834369e-10,-0.00040684583592741,0.00040684996949043,-0.00073074948788918,0.00073074703631416,-0.0007307478406769,0.00073074874751081,-0.00040684994439311,0.00040684575932354,-0.00040684492095427,0.00040685081862714,-0.0007307486973572,0.0007307478709518,-0.00073074699269968,0.00073074956618022,-0.00078248220851567,0.00078248083093742,-0.00078248051320513,0.00078248252585477,-0.00078248248875099,0.00078248055727672,-0.00078248079846651,0.0007824822421342,-0.00064954825579871,0.00064954305640479,-0.00064954330934456,0.00064954803447637,-0.00064954796639865,0.00064954330845295,-0.00064954304581419,0.00064954833689647,-0.00040685063876071,0.00040684498107812,-4.4013835016376e-10,3.8981683005092e-10,-9.8588557751499e-09,9.8045471924605e-09,-0.00094376932801528,0.00094376927396445,-0.00096840171852466,0.00096842071810199,-0.00086695524822413,0.00086694786844144,-0.00086695442381758,0.00086694868036956,-0.00093918339666604,0.00093917652855688,-0.00093917679830693,0.00093918299864688,-0.00093918311491432,0.00093917680701761,-0.00093917651948811,0.00093918327434187,-0.00096842112770597,0.00096840203716808,-0.00096840144515072,0.00096842098883763,-0.00086694866329235,0.00086695430776891,-0.00086694784251088,0.00086695511340772,-0.00096842141581385,0.00096840174924718,4.5216685829374e-09,-5.5862404012124e-10,-0.00065791106187781,0.00065791506785528,1.204885254591e-08,-7.8001228443954e-09,-0.00055746507926896,0.00055745468617662,-0.00052389637829986,0.00052387945788647,-0.00052389468245049,0.00052388116218636,-0.00055745062322082,0.00055746914556657,-0.00055744565564377,0.00055747408985547,-0.00052387683229592,0.00052389902204889,-0.00052387514477394,0.00052390069628655,-0.00077106221521568,0.00077107441031816,-0.00077106885692035,0.00077106777193295,-0.00077106390764527,0.00077107272134504,-0.00077107055326573,0.00077106607452503,-0.00077513528874964,0.00077512759885709,-0.00077513031200977,0.00077513257914632,-0.00077512369616817,0.00077513918767505,-0.00077512867114375,0.00077513422097477,-0.00055747004012987,0.0005574497102645,0.78230622699958,129487,2954,0.0028366787026888,0.0039241388904634,0.0027376727259179,20.571118076384,-7.5431055388928e-05,-7.5431055388928e-05,-7.5431055388928e-05,3363439.1870536,0.0095440601062541
26791759,0.5618687267437,0.010044797348546,0.0031581814804405,0.0038288520310337,0.0030577638370719,-0.00069273271170603,0.00069273279636951,-2.548060876651e-09,2.6321441023486e-09,3.0896248601107e-10,-2.121978769564e-10,-0.00041215692160696,0.00041216145901988,-0.00074391166493927,0.00074390955676374,-0.00074391000430409,0.00074391128501836,-0.00041216144725423,0.00041215683170106,-0.00041215625847727,0.00041216204882662,-0.00074391120873054,0.00074391006142744,-0.0007439094465248,0.00074391181047859,-0.00079577312973649,0.00079577164760973,-0.00079577138957475,0.00079577338284065,-0.00079577329759034,0.00079577148456018,-0.00079577157820355,0.0007957731984806,-0.00065982492028966,0.00065981978317087,-0.00065981989128471,0.00065982484877635,-0.00065982475869176,0.00065981991249392,-0.00065981970993206,0.00065982506367896,-0.00041216176521866,0.00041215642045717,-2.8736291302497e-10,2.2992725107148e-10,-1.0984169836975e-08,1.0923939097424e-08,-0.00096133572372185,0.00096133566389274,-0.00098716127964821,0.00098718260117313,-0.00088236924149777,0.00088236140071178,-0.00088236870093983,0.0008823619200658,-0.00095639556997509,0.00095638805468637,-0.00095638823800016,0.00095639528059166,-0.00095639538234794,0.00095638823471615,-0.00095638806674544,0.00095639544418976,-0.00098718297869386,0.00098716159462516,-0.00098716112810402,0.0009871827465772,-0.00088236189843956,0.00088236860692273,-0.00088236139963742,0.00088236907959912,-0.00098718318397008,0.00098716139088449,4.4359540921401e-09,-7.0830712077719e-10,-0.00066789839860904,0.00066790216692841,1.3008843110684e-08,-9.0119271657155e-09,-0.00056497131183197,0.00056495865020669,-0.00053105039172898,0.00053103104597208,-0.00053104865469658,0.0005310327918036,-0.00056495477979887,0.00056497518848708,-0.0005649498016712,0.00056498013979134,-0.00053102868946092,0.00053105276926018,-0.00053102699940734,0.00053105444412962,-0.00078370612321773,0.00078371881890864,-0.00078371347878161,0.0007837114671171,-0.00078370783066997,0.00078371711599606,-0.0007837152033063,0.00078370974167797,-0.00078857427653584,0.00078856554648146,-0.00078856921647897,0.00078857060860212,-0.00078856189685169,0.00078857792041388,-0.00078856691520521,0.00078857291200633,-0.00056497639152506,0.00056495355453276,0.76472632571752,129487,2954,0.0028834512441408,0.0039970149085537,0.0027791788775416,21.003366509773,-7.1973067921816e-05,-7.1973067921816e-05,-7.1973067921816e-05,3384290.4974025,0.0097067767318233
26991759,0.57058910202638,0.010199523312415,0.00320562179086,0.0038932243233769,0.0031006771981776,-0.00070402007102003,0.00070402018713758,-2.5708641499679e-09,2.6857386340871e-09,2.1713954150665e-10,-8.5529662509873e-11,-0.00041761467881807,0.000417619560576,-0.00075692331897201,0.00075692142828735,-0.00075692162941299,0.00075692319127024,-0.00041761949732659,0.00041761464087535,-0.00041761424629528,0.00041761990924121,-0.00075692307434033,0.00075692172657748,-0.00075692128882907,0.00075692349138505,-0.00080916694794552,0.0008091654007936,-0.00080916518222297,0.00080916715665325,-0.00080916704567619,0.00080916530640977,-0.00080916529668042,0.00080916704863704,-0.00066990842802472,0.00066990330844657,-0.0006699033142108,0.00066990846000983,-0.00066990833087911,0.0006699033784171,-0.00066990321305317,0.00066990858976304,-0.00041761961302155,0.00041761442317511,-1.7910342666032e-10,1.1556792196461e-10,-1.1933688241045e-08,1.1868326295337e-08,-0.00097896577650059,0.00097896571139776,-0.0010058206291941,0.0010058438716325,-0.00089780257586225,0.00089779433400353,-0.00089780226148677,0.00089779461950617,-0.00097379261796747,0.00097378455097016,-0.00097378467625415,0.00097379240671344,-0.00097379250501231,0.00097378465352354,-0.0009737845743638,0.00097379249814605,-0.0010058442464959,0.0010058209140163,-0.001005820541991,0.0010058439507736,-0.00089779462137799,0.00089780215906725,-0.00089779432810911,0.00089780241983494,-0.0010058443704234,0.0010058207941532,4.3581106971583e-09,-8.811753341984e-10,-0.00067790658034311,0.00067791009564504,1.3832559610652e-08,-1.0103555125694e-08,-0.00057231068359423,0.00057229593900805,-0.00053809377355301,0.00053807225595798,-0.00053809201235434,0.00053807402589052,-0.00057229235413021,0.00057231427701198,-0.00057228726066318,0.0005723193388599,-0.00053807019361198,0.00053809585758473,-0.00053806846339506,0.00053809757013313,-0.00079647461321942,0.00079648772967066,-0.00079648260755095,0.0007964797394356,-0.00079647635507128,0.00079648599319436,-0.00079648436081359,0.00079647798542439,-0.00080201434973097,0.00080200464665694,-0.00080200920377733,0.00080200979284717,-0.00080200123721223,0.00080201775146276,-0.0008020063586333,0.00080201264271357,-0.00057231583289396,0.00057229077523274,0.74557636164068,129487,2954,0.0029304066422482,0.0040701489170559,0.0028207703870777,21.442841110226,-6.8457271118193e-05,-6.8457271118193e-05,-6.8457271118193e-05,3407521.0217271,0.0098700525385109
27191759,0.57946875385376,0.010352656056819,0.003252602017716,0.0039570297906443,0.0031430242484585,-0.00071529724114686,0.00071529737871397,-2.600953051949e-09,2.7367865806515e-09,1.5701142311468e-10,-1.4541467238746e-12,-0.0004231407215722,0.00042314585788673,-0.00076974058777187,0.00076973883140079,-0.00076973886951644,0.00076974062811196,-0.00042314576316457,0.00042314071609898,-0.00042314043612845,0.00042314604771846,-0.00076974048376422,0.00076973899512465,-0.00076973867202833,0.00076974077847503,-0.00082261096418191,0.00082260936420138,-0.00082260917022343,0.00082261114336594,-0.00082261101477506,0.00082260931521585,-0.00082260923664669,0.00082261108569509,-0.00067969717468886,0.00067969204003245,-0.00067969197122496,0.0006796972699336,-0.00067969712054554,0.00067969206558073,-0.00067969192320234,0.00067969734794086,-0.000423145738963,0.00042314062600267,-1.0897003433437e-10,4.0064746475967e-11,-1.2731365887923e-08,1.2661312177339e-08,-0.00099658487233779,0.00099658480247254,-0.001024277768456,0.001024302612697,-0.00091318222266776,0.00091317359765609,-0.00091318205307904,0.00091317373239809,-0.00099131011491115,0.00099130156951709,-0.00099130166041712,0.00099130995619461,-0.00099131005053658,0.00099130162167592,-0.00099130160462333,0.00099130999975609,-0.0010243029809913,0.0010242780289787,-0.0010242777245606,0.0010243026471022,-0.00091317375023568,0.00091318194823751,-0.00091317359363542,0.00091318206724691,-0.0010243030532673,0.0010242779624793,4.2790563048113e-09,-1.0504496046768e-09,-0.00068790263356948,0.00068790589818384,1.4499330566628e-08,-1.1035189143627e-08,-0.00057949002602217,0.00057947351569247,-0.00054500868439761,0.00054498530780954,-0.00054500689765934,0.00054498710339159,-0.00057947020907148,0.00057949334353079,-0.00057946500761014,0.00057949850890547,-0.00054498353565244,0.00054501047982246,-0.00054498177020432,0.00054501222535194,-0.00080933761212131,0.00080935104289723,-0.0008093461381696,0.0008093425212522,-0.00080933938558453,0.00080934927543766,-0.00080934791986827,0.00080934073877906,-0.00081542890367682,0.00081541834170711,-0.00081542367463309,0.00081542357031611,-0.00081541517037662,0.00081543206603301,-0.00081542038631257,0.00081542686457313,-0.00057949524645594,0.00057946828059782,0.725098277443,129487,2954,0.0029773177522114,0.0041432315769404,0.0028623104151832,21.88260439004,-6.4939164879678e-05,-6.4939164879678e-05,-6.4939164879678e-05,3431955.25613,0.010033207783818
27391759,0.58843715186359,0.010510671685616,0.0033010878736162,0.004022849432707,0.0031867343792933,-0.00072666034739469,0.00072666048202307,-2.6482972242788e-09,2.7810308221968e-09,1.8277840689219e-10,-3.0017706597316e-11,-0.0004291399989908,0.00042914514084371,-0.00078289801513817,0.00078289618072681,-0.00078289627614366,0.00078289800061117,-0.00042914507611115,0.00042913996119183,-0.00042913962898002,0.00042914540806929,-0.00078289786778911,0.00078289639100614,-0.00078289601550862,0.00078289821160105,-0.000836048916222,0.00083604729783243,-0.00083604708812124,0.00083604910953891,-0.00083604898160459,0.00083604723322017,-0.00083604717568732,0.00083604903141769,-0.00068951068004545,0.00068950544393825,-0.00068950539375945,0.00068951075303369,-0.0006895106159608,0.00068950547719709,-0.00068950532050244,0.00068951085865441,-0.00042914507301453,0.00042913984248478,-1.3380276625557e-10,6.6249956300487e-11,-1.3091133035166e-08,1.3022211599933e-08,-0.0010142893350386,0.0010142892663582,-0.0010428760774437,0.0010429016240237,-0.00092862874178207,0.00092861982103951,-0.00092862851357361,0.00092862001391143,-0.0010089439280667,0.0010089351271054,-0.0010089352359857,0.0010089437566303,-0.0010089438446145,0.0010089351990105,-0.0010089351669514,0.0010089438142369,-0.0010429019820496,0.0010428763466858,-0.0010428760248054,0.0010429016670564,-0.00092862002324174,0.00092862841914033,-0.00092861982453507,0.0009286285798245,-0.0010429020800773,0.0010428762548338,4.2833145940911e-09,-1.1259464646157e-09,-0.00069799785586645,0.00069800104885778,1.4809910291377e-08,-1.1419375758343e-08,-0.00058704134846454,0.00058702418067845,-0.00055226549017926,0.0005522413232779,-0.00055226366853774,0.00055224315380388,-0.00058702092730657,0.00058704461423275,-0.00058701566837355,0.00058704983281116,-0.00055223964885102,0.00055226718875167,-0.00055223786462788,0.00055226895151898,-0.00082224420767959,0.0008222578218355,-0.00082225296190269,0.00082224907216886,-0.0008222460050645,0.00082225603067387,-0.00082225477289155,0.00082224726027904,-0.00082907393508975,0.00082906298495303,-0.0008290686207557,0.00082906829947331,-0.00082905989206249,0.00082907701874548,-0.00082906517887462,0.00082907174742517,-0.00058704666893197,0.00058701884450903,0.74093825034356,129487,2954,0.0030245838562397,0.0042166619525932,0.0029042616144627,22.214376909906,-6.2284984720755e-05,-6.2284984720755e-05,-6.2284984720755e-05,3451952.163498,0.010197513335855
27591759,0.59744952233176,0.010671536409358,0.0033504306933052,0.0040898781601704,0.0032312275558826,-0.00073801507972963,0.0007380152010646,-2.6998939538136e-09,2.8194913891793e-09,2.4316491712576e-10,-1.0474352862769e-10,-0.00043504918156639,0.0004350542497686,-0.00079623129704915,0.00079622929124603,-0.00079622953506819,0.0007962311371264,-0.00043505421085849,0.00043504911228828,-0.00043504866095468,0.0004350546621911,-0.00079623102399085,0.00079622963089591,-0.00079622913459152,0.00079623148533886,-0.00084949314625199,0.00084949152782524,-0.00084949128656239,0.00084949337121769,-0.00084949325461106,0.000849491419544,-0.00084949142030938,0.00084949324698269,-0.00069933283930264,0.00069932746150128,-0.00069932746989848,0.00069933285624944,-0.00069933273606378,0.00069932753679331,-0.00069932734671763,0.00069933300882425,-0.00043505432267593,0.00043504887271069,-1.983867876257e-10,1.3664224962895e-10,-1.3232958693695e-08,1.3169155244376e-08,-0.0010321325138871,0.0010321324504377,-0.0010617714716439,0.0010617972683911,-0.00094419906074602,0.00094418991498592,-0.00094419869811006,0.000944190244791,-0.0010266518851185,0.0010266429478938,-0.0010266430946061,0.0010266516732874,-0.0010266517565361,0.0010266430664561,-0.0010266429837097,0.0010266517743659,-0.0010617976255345,0.001061771758565,-0.0010617713784543,0.0010617973523734,-0.00094419024333174,0.00094419860948731,-0.00094418991555347,0.00094419890154936,-0.0010617977723878,0.001061771617387,4.3429260084592e-09,-1.1476382763318e-09,-0.00070808208275387,0.00070808531475811,1.4965847697089e-08,-1.1531100931524e-08,-0.00059466982159767,0.00059465251958104,-0.00055951114395299,0.00055948672727912,-0.00055950929079427,0.0005594885898085,-0.00059464921767331,0.00059467313508648,-0.00059464388934455,0.00059467842175652,-0.00055948503445259,0.00055951286108636,-0.00055948322767191,0.00055951464582387,-0.00083517050708967,0.00083518427289543,-0.00083517934959699,0.00083517543498948,-0.00083517232986658,0.00083518245626274,-0.00083518118895945,0.00083517359449001,-0.00084289799494913,0.00084288690868114,-0.00084289259790915,0.00084289230692745,-0.00084288378161217,0.00084290111317466,-0.00084288914464143,0.00084289576579776,-0.00059467523090373,0.00059464709268233,0.75071314989643,129487,2954,0.0030718168001666,0.004290660393634,0.0029461661750627,22.482070388744,-6.0143436890048e-05,-6.0143436890048e-05,-6.0143436890048e-05,3466738.3781013,0.01036233891784
27791759,0.6064982590443,0.01083533528751,0.0034006459243632,0.0041581657429115,0.0032765236202348,-0.00074949830678592,0.00074949840718114,-2.7482614368378e-09,2.8472768347354e-09,2.889812679971e-10,-1.7348817679058e-10,-0.00044113612283661,0.00044114116011362,-0.00080987494082756,0.0008098727638955,-0.00080987314657834,0.00080987464859893,-0.0004411411161069,0.00044113606489856,-0.00044113551080659,0.00044114164868602,-0.00080987454866799,0.00080987323092186,-0.00080987263947332,0.00080987509583113,-0.00086305982641588,0.00086305820345763,-0.00086305794172291,0.0008630600656502,-0.00086305997475261,0.00086305805201904,-0.00086305811088919,0.00086305990878148,-0.00070937141428581,0.00070936589197275,-0.0007093659597741,0.00070937137430265,-0.00070937126902942,0.00070936602409415,-0.0007093658031603,0.00070937154596009,-0.00044114136337302,0.00044113567366256,-2.5397375393792e-10,1.9912192410896e-10,-1.3108337457347e-08,1.3050836739749e-08,-0.0010502068476114,0.0010502067904736,-0.0010810331345483,0.0010810586573578,-0.00095997149074375,0.00095996233414473,-0.00095997102627288,0.00095996277009284,-0.0010445482399807,0.0010445393628287,-0.0010445395533278,0.0010445480071864,-0.0010445480776473,0.0010445395175721,-0.0010445394015058,0.0010445481516569,-0.0010810589922127,0.0010810333886932,-0.001081032991145,0.0010810587926013,-0.00095996277824604,0.0009599709354181,-0.00095996232403406,0.00095997135872248,-0.0010810591662323,0.0010810332191732,4.188549047187e-09,-1.3972440609067e-09,-0.00071829176404458,0.00071829458814272,1.4637475502414e-08,-1.1636401098581e-08,-0.00060250499278116,0.00060248752349844,-0.00056694368176521,0.0005669190222246,-0.00056694180762993,0.00056692090574423,-0.00060248467693325,0.00060250784943107,-0.00060247922093103,0.00060251326485264,-0.00056691778848664,0.00056694493976189,-0.00056691593973297,0.000566946766725,-0.00084822124401397,0.00084823456543564,-0.00084823001147188,0.00084822580253232,-0.00084822310184643,0.00084823271339396,-0.000848231878586,0.0008482239342105,-0.00085696112515082,0.00085694963070793,-0.00085695564747881,0.00085695511078532,-0.00085694689075946,0.00085696385712228,-0.00085695235883713,0.00085695840413719,-0.00060251045841322,0.00060248203867313,0.7613459429922,129487,2954,0.0031195849963641,0.0043656099620892,0.0029885895361807,22.748090558181,-5.8015275534548e-05,-5.8015275534548e-05,-5.8015275534548e-05,3477814.9105562,0.010529217511229
27991759,0.61557646087397,0.011002167338743,0.0034517532179718,0.0042277616336238,0.0033226524871472,-0.00076112279870936,0.00076112288949609,-2.7977034906817e-09,2.887371813479e-09,3.3048532701776e-10,-2.2553009091642e-10,-0.000447347904389,0.00044735291141898,-0.0008238437535937,0.00082384144835799,-0.00082384193310065,0.00082384335860425,-0.00044735289087399,0.00044734781856871,-0.00044734717989797,0.00044735350371309,-0.00082384327300269,0.00082384200342512,-0.0008238413308107,0.00082384390232908,-0.00087676377521173,0.0008767621425875,-0.0008767618598202,0.00087676403670214,-0.00087676395306617,0.00087676196175595,-0.00087676206113039,0.00087676384703082,-0.00071964271347761,0.00071963706841327,-0.00071963717604472,0.00071964263259134,-0.00071964254247463,0.00071963722609105,-0.00071963698314075,0.00071964284108873,-0.00044735320953014,0.00044734734633724,-2.9701674560701e-10,2.4914756534525e-10,-1.2913046670965e-08,1.2861993768949e-08,-0.0010685295787927,0.0010685295281288,-0.001100695209164,0.0011007203397059,-0.00097595877344993,0.00097594965346383,-0.00097595821354953,0.00097595018722038,-0.0010626464497014,0.001062637672205,-0.0010626378829228,0.0010626461885487,-0.0010626462557285,0.0010626378597394,-0.0010626377026432,0.0010626463627535,-0.0011007206764529,0.0011006954870708,-0.001100695039689,0.0011007205017961,-0.00097595018067956,0.00097595813114318,-0.00097594964088506,0.00097595864254717,-0.0011007208856982,0.0011006952817324,4.2813308618692e-09,-1.3862820276753e-09,-0.0007286273648345,0.00072863029352324,1.4502678352131e-08,-1.1388148451e-08,-0.00061064964931988,0.00061063275548682,-0.00057454451658427,0.00057452031437158,-0.00057454261126146,0.00057452222928576,-0.00061062979348435,0.00061065262009859,-0.00061062426591528,0.00061065810803124,-0.00057451899460789,0.0005745458606143,-0.00057451712318913,0.00057454771056654,-0.00086139677920463,0.00086141010280396,-0.00086140541901701,0.00086140146753859,-0.00086139866293381,0.00086140822469783,-0.00086140731468897,0.00086139957058234,-0.00087127442103373,0.0008712630715729,-0.00087126886065546,0.000871268635174,-0.00087126023257263,0.00087127725260918,-0.00087126577711806,0.00087127172266868,-0.00061065520275433,0.00061062718164072,0.77288939428397,129487,2954,0.0031679414193715,0.0044415818140772,0.0030315358155819,23.014043652893,-5.5887650776853e-05,-5.5887650776853e-05,-5.5887650776853e-05,3486587.9369155,0.010698279728838
28191759,0.62464414623006,0.011171522894435,0.0035035903165207,0.0042984622553934,0.0033694703225205,-0.00077276193689616,0.00077276201985226,-2.8338876797649e-09,2.915898762162e-09,3.6639033746787e-10,-2.701512485795e-10,-0.00045366683758935,0.00045367187969211,-0.0008379872983696,0.00083798486293057,-0.00083798543574903,0.00083798681596832,-0.00045367180328169,0.00045366679848622,-0.00045366609118817,0.00045367248991169,-0.00083798671755363,0.00083798551813534,-0.00083798477614208,0.00083798741883683,-0.00089046046329541,0.00089045883553312,-0.0008904585349316,0.00089046074510863,-0.00089046067539318,0.00089045862075385,-0.00089045875501429,0.00089046053580973,-0.00072999807204781,0.00072999230764727,-0.00072999245376948,0.00072999796110729,-0.00072999785320787,0.00072999251402757,-0.00072999225539811,0.00072999817440367,-0.00045367225774897,0.00045366618449473,-3.3185184349221e-10,2.9081453736698e-10,-1.2614826182955e-08,1.2570049612142e-08,-0.0010869404486083,0.0010869404043447,-0.0011206056664271,0.001120630181662,-0.00099200887652212,0.00099199990650407,-0.00099200826489366,0.00099200049398907,-0.0010807856105629,0.0010807770159459,-0.0010807772393388,0.0010807853243931,-0.0010807853992219,0.0010807772217164,-0.001080777026946,0.0010807855316428,-0.0011206305519169,0.0011206059468538,-0.001120605449765,0.0011206303911202,-0.00099200049919758,0.00099200816201181,-0.00099199986187737,0.00099200877227591,-0.0011206307646449,0.0011206057373072,4.4060836023836e-09,-1.3681603992162e-09,-0.00073894183526262,0.00073894490945766,1.4331262126254e-08,-1.1059180426438e-08,-0.00061890904357861,0.00061889283479949,-0.00058217590727411,0.00058215233837863,-0.00058217398794135,0.00058215426760138,-0.00061888978752374,0.00061891209853931,-0.00061888409227129,0.00061891775494009,-0.0005821508971531,0.00058217737308586,-0.00058214896907892,0.00058217927987598,-0.00087454636113804,0.0008745597030929,-0.00087455484294441,0.0008745512258596,-0.00087454828778657,0.00087455778196539,-0.0008745567665797,0.00087454930084018,-0.00088570674641257,0.00088569562068845,-0.00088570110448419,0.00088570126665558,-0.00088569261884599,0.00088570974129109,-0.00088569829004573,0.0008857040843145,-0.00061891463608544,0.00061888722025177,0.78542227563485,129487,2954,0.0032163599693313,0.0045179108566688,0.0030743932584712,23.224103591086,-5.4207171271315e-05,-5.4207171271315e-05,-5.4207171271315e-05,3492774.8615911,0.010867704133195
28391759,0.63368371214112,0.011343302417042,0.0035561275339971,0.0043702300841066,0.0034169447989383,-0.00078447538135042,0.00078447546162581,-2.8946875427826e-09,2.974110280296e-09,3.8710063092968e-10,-2.9393077205785e-10,-0.00046010775878266,0.00046011277373054,-0.00085235749530766,0.00085235500544586,-0.00085235562397584,0.00085235696507576,-0.00046011279336334,0.0004601076176372,-0.00046010687096805,0.0004601135221915,-0.00085235690100108,0.00085235567124491,-0.00085235489034574,0.00085235764491017,-0.00090421170274467,0.00090421003637108,-0.00090420972578426,0.0009042119987021,-0.00090421191854931,0.00090420981886061,-0.00090420997134951,0.00090421176263627,-0.00074050791949868,0.0007405020572544,-0.0007405022256756,0.00074050779644419,-0.00074050772182729,0.00074050224205171,-0.00074050197694814,0.00074050806083408,-0.00046011319330706,0.00046010705472843,-3.5448384249723e-10,3.1997871475226e-10,-1.2438168676426e-08,1.2399470084553e-08,-0.0011055067387325,0.0011055067005693,-0.0011408338878349,0.0011408580888826,-0.0010082017747085,0.0010081928386964,-0.0010082010777472,0.0010081935134424,-0.0010990221969463,0.0010990136950444,-0.0010990139249254,0.001099021895235,-0.0010990219577753,0.0010990139293681,-0.0010990137071011,0.0010990221085632,-0.0011408584348853,0.0011408342238968,-0.0011408336878607,0.0011408582816555,-0.0010081934725168,0.0010082010121533,-0.0010081928197889,0.0010082016384231,-0.0011408586986426,0.0011408339628141,4.5185479155511e-09,-1.3080372351839e-09,-0.00074930247885502,0.00074930572909173,1.41955305832e-08,-1.0734668861764e-08,-0.00062733463034557,0.00062731919989578,-0.00058989219685544,0.00058986921629153,-0.0005898902278661,0.00058987119544669,-0.0006273158848282,0.00062733795156876,-0.00062731022611068,0.00062734357160147,-0.0005898676044743,0.00058989383294523,-0.00058986569124635,0.00058989572485497,-0.0008877312283403,0.00088774459543962,-0.00088773954636029,0.00088773628216441,-0.00088773316154284,0.00088774266787151,-0.00088774149891841,0.0008877343282107,-0.00090032126359982,0.00090031037650602,-0.00090031553819475,0.00090031610631837,-0.00090030723747828,0.00090032439576374,-0.00090031292676772,0.00090031872102386,-0.00062734036521352,0.00062731344164159,0.79903791340672,129487,2954,0.0032650888105441,0.0045948758836639,0.0031174413462392,23.415007501705,-5.2679939986356e-05,-5.2679939986356e-05,-5.2679939986356e-05,3496775.1565613,0.011038306141581
28591759,0.64268872831921,0.011516338117913,0.0036090133326773,0.0044425903885,0.0034647343967359,-0.00079623386262553,0.00079623394309001,-2.9324801805817e-09,3.012109062121e-09,3.9874262456888e-10,-3.054307512855e-10,-0.00046651843164281,0.00046652352783506,-0.00086684102900745,0.00086683848361606,-0.00086683912564059,0.00086684047715194,-0.00046652351612991,0.00046651831774197,-0.00046651755227891,0.00046652427258497,-0.00086684040502776,0.00086683918019849,-0.00086683837662269,0.00086684117223156,-0.00091801445667098,0.00091801277595462,-0.00091801245848586,0.00091801476151487,-0.00091801468371326,0.00091801254718346,-0.00091801270804276,0.00091801452109132,-0.00075111862538773,0.00075111266775588,-0.00075111285062851,0.00075111850121332,-0.0007511184086443,0.00075111287588732,-0.00075111260510987,0.00075111875830211,-0.00046652396993194,0.000466517705022,-3.624182143135e-10,3.3296330648631e-10,-1.2335861994001e-08,1.2301989851772e-08,-0.0011242022901258,0.0011242022567922,-0.001161304953941,0.0011613289504911,-0.0010245324270271,0.0010245235577897,-0.0010245317230524,0.0010245242391317,-0.0011173405260715,0.0011173320927257,-0.0011173323208585,0.0011173402183024,-0.0011173402834876,0.0011173323304334,-0.0011173320927721,0.001117340442122,-0.001161329315986,0.0011613052979089,-0.0011613047363101,0.0011613291609321,-0.0010245242042022,0.0010245316457628,-0.0010245235171535,0.0010245323066079,-0.0011613295759741,0.0011613050404189,4.637167362426e-09,-1.2850122498314e-09,-0.00075969314227566,0.00075969653710841,1.4193036789296e-08,-1.0577142220669e-08,-0.00063593558943725,0.00063592053721699,-0.00059762077483849,0.00059759808252514,-0.00059761878335629,0.00059760008432523,-0.00063591709751906,0.00063593903535304,-0.00063591132644621,0.00063594476820048,-0.00059759634842724,0.00059762253372089,-0.00059759439452888,0.00059762446619726,-0.00090094763205711,0.00090096112399606,-0.00090095590201415,0.000900952858828,-0.00090094960055917,0.00090095916117991,-0.00090095788255502,0.00090095087683092,-0.00091505987162761,0.00091504909173618,-0.00091505406107696,0.00091505490668166,-0.00091504580426867,0.00091506315224896,-0.0009150515965668,0.00091505737420491,-0.0006359413931424,0.00063591471086107,0.80787521787896,129487,2954,0.0033140058712716,0.0046723684200444,0.0031606131782725,23.605401956382,-5.1156784348941e-05,-5.1156784348941e-05,-5.1156784348941e-05,3498983.579598,0.011209785985951
28791759,0.65165303272602,0.011684444719316,0.0036603990595574,0.0045129807759322,0.0035110648838264,-0.00080770268452826,0.00080770276631961,-2.9734390676246e-09,3.0543684246412e-09,4.0299747467437e-10,-3.0828327949566e-10,-0.00047218432078129,0.00047218949811386,-0.00088074574887555,0.00088074316780237,-0.00088074381518422,0.00088074519127687,-0.0004721894803447,0.00047218421397056,-0.00047218344135021,0.0004721902463335,-0.00088074511605393,0.00088074387468417,-0.00088074306135104,0.00088074589016523,-0.00093163327057057,0.00093163156630538,-0.00093163124554882,0.00093163357938514,-0.00093163350050855,0.00093163133438262,-0.00093163149672589,0.00093163333735283,-0.00076133643888922,0.00076133039595763,-0.00076133058310011,0.00076133631687371,-0.00076133621701434,0.00076133060880222,-0.00076133033808218,0.00076133657413589,-0.00047218994792406,0.00047218359056672,-3.6369583228315e-10,3.3851562255804e-10,-1.2329099108397e-08,1.2299370990777e-08,-0.0011426316610486,0.001142631631866,-0.0011813407134349,0.0011813647051866,-0.0010406600583213,0.0010406511926023,-0.001040659349343,0.0010406518783731,-0.0011354298344215,0.001135421407202,-0.0011354216314053,0.0011354295265875,-0.0011354295901231,0.001135421646518,-0.0011354214006786,0.0011354297530793,-0.0011813650780098,0.0011813410690337,-0.0011813404915361,0.0011813649199108,-0.0010406518399192,0.0010406592734224,-0.0010406511445408,0.001040659942724,-0.0011813653383804,0.0011813408113196,4.7285854170496e-09,-1.2817177994084e-09,-0.00076984631577113,0.000769849807289,1.4246008610804e-08,-1.0527176951132e-08,-0.00064423826665602,0.00064422338859098,-0.00060491609142661,0.00060489347135325,-0.00060491407314901,0.00060489550022312,-0.00064421986329884,0.00064424179797407,-0.00064421399543168,0.0006442476270854,-0.00060489166197217,0.00060491792617666,-0.00060488967656204,0.00060491988961399,-0.0009140110632731,0.00091402467983492,-0.00091401933557461,0.00091401641244319,-0.00091401306189495,0.00091402268707313,-0.00091402134446475,0.00091401440203256,-0.0009294723706201,0.0009294615988901,-0.00092946647685128,0.00092946749711392,-0.00092945821604915,0.00092947574645949,-0.00092946409742284,0.00092946987956474,-0.0006442441458906,0.00064421748624143,0.78846824328809,129487,2954,0.0033617187371261,0.0047487501372791,0.0032027981024753,23.795775903986,-4.9633792768109e-05,-4.9633792768109e-05,-4.9633792768109e-05,3500274.0643857,0.011377957462241
28991759,0.66063318980701,0.011845649935331,0.0037097230971759,0.0045805347674396,0.0035553920707155,-0.00081904664298913,0.00081904673537744,-3.022018993703e-09,3.1133485653237e-09,3.6904377137787e-10,-2.6266101151875e-10,-0.00047763870253816,0.00047764401370847,-0.0008940715270369,0.00089406902114932,-0.00089406958057044,0.00089407106101693,-0.00047764404781812,0.00047763854684914,-0.00047763784009371,0.00047764474427059,-0.00089407099634623,0.00089406963094951,-0.0008940688811996,0.00089407170028766,-0.00094521347105446,0.00094521170745965,-0.00094521140230866,0.0009452137633548,-0.00094521366681797,0.00094521150875166,-0.00094521163498587,0.00094521354083305,-0.00077118204750563,0.00077117595740088,-0.00077117611185852,0.00077118196633535,-0.00077118187563245,0.00077117612434903,-0.0007711758698779,0.00077118221663657,-0.00047764437491025,0.00047763806379377,-3.266348953958e-10,3.0228371895459e-10,-1.2625849434319e-08,1.2597226881248e-08,-0.0011608121651083,0.0011608121370141,-0.0012007411457865,0.0012007657693726,-0.0010566329223315,0.0010566239141761,-0.0010566322634101,0.0010566245474429,-0.0011534373104997,0.0011534287075713,-0.0011534289098711,0.0011534370314274,-0.0011534370825945,0.0011534289293955,-0.0011534287102463,0.0011534372259084,-0.0012007661176606,0.0012007415210821,-0.0012007409690789,0.0012007659387572,-0.0010566244886912,0.0010566322113579,-0.0010566238857726,0.0010566327863686,-0.0012007663750703,0.0012007412671951,4.7434463252208e-09,-1.3305914599766e-09,-0.00077996403574282,0.00077996749415108,1.4484533797067e-08,-1.0800946518785e-08,-0.00065229208612941,0.00065227679058207,-0.00061201003366245,0.00061198683198765,-0.00061200797330949,0.00061198890306851,-0.00065227324301078,0.00065229564033747,-0.00065226737190983,0.00065230147156413,-0.00061198507659684,0.00061201181524428,-0.00061198309092101,0.00061201377810681,-0.00092710319591302,0.00092711696274002,-0.00092711163103511,0.00092710853269846,-0.00092710520870849,0.00092711495615624,-0.00092711366833931,0.00092710649384352,-0.00094363292720473,0.00094362186667925,-0.00094362695006921,0.00094362784800167,-0.00094361853861128,0.00094363624766601,-0.00094362446183869,0.00094363033965441,-0.00065229808714462,0.00065227076743482,0.75490318782279,129487,2954,0.0034089078078967,0.0048240948903204,0.0032448350893606,24.096347076121,-4.722922339103e-05,-4.722922339103e-05,-4.722922339103e-05,3505540.7725624,0.0115444307548
29191759,0.66963101573467,0.012003418802197,0.0037580226767082,0.0046466449322423,0.0035987511932466,-0.00083027247904505,0.00083027257605384,-3.0558593261393e-09,3.1516758415106e-09,3.3598221838562e-10,-2.2441208077674e-10,-0.00048307006196272,0.00048307555532394,-0.00090703121312469,0.00090702874775193,-0.00090702923607112,0.00090703082634329,-0.0004830755514093,0.00048306995150868,-0.00048306930535504,0.00048307617772302,-0.00090703074632125,0.00090702930247747,-0.0009070286128583,0.00090703138040601,-0.00095866883621329,0.00095866703297196,-0.00095866674542892,0.00095866910763947,-0.00095866901179584,0.00095866685279622,-0.00095866695104214,0.0009586689139859,-0.00078074945454138,0.00078074330525857,-0.0007807434331366,0.00078074940258049,-0.00078074929305782,0.00078074346790068,-0.00078074322762451,0.00078074961023356,-0.00048307584439861,0.00048306950001685,-2.8886688924129e-10,2.6448123208138e-10,-1.2873550246406e-08,1.2845115379189e-08,-0.0011787095635027,0.001178709535627,-0.0012195615241066,0.001219586650788,-0.0010724261894668,0.001072417112883,-0.0010724256197936,0.0010724176550182,-0.0011713242980916,0.0011713155643959,-0.0011713157467592,0.0011713240495936,-0.0011713240991358,0.0011713157568312,-0.0011713155677958,0.0011713242229796,-0.0012195870024109,0.0012195618771672,-0.0012195613593349,0.0012195868076379,-0.0010724176147922,0.0010724255552225,-0.0010724170700872,0.0010724260710318,-0.0012195872217629,0.0012195616615502,4.7206596108981e-09,-1.4525075098706e-09,-0.00079008110622882,0.00079008441864752,1.4675973045428e-08,-1.1148283551171e-08,-0.00066053650853362,0.00066052058619641,-0.0006191200038206,0.00061909609513291,-0.00061911792253347,0.00061909818703265,-0.00066051722529614,0.00066053987621054,-0.00066051122498097,0.00066054583657818,-0.00061909452495618,0.00061912160036751,-0.0006190924941267,0.00061912360798529,-0.00094014927738057,0.00094016311653404,-0.00094015789558956,0.00094015450345637,-0.00094015132722942,0.00094016107307388,-0.00094015996118517,0.00094015243638729,-0.00095759919122926,0.00095758772175752,-0.00095759312897354,0.00095759378782418,-0.00095758452433457,0.00095760238074007,-0.00095759055746866,0.00095759636310473,-0.00066054257059704,0.00066051450243196,0.73755731291287,129487,2954,0.0034555987970501,0.0048982615083771,0.0032868690807246,24.414685530406,-4.4682515756748e-05,-4.4682515756748e-05,-4.4682515756748e-05,3515211.4224606,0.011709233058846
29391759,0.67863807539133,0.012153704100117,0.0038040550044333,0.0047096607445387,0.0036399883511454,-0.00084110476315442,0.00084110486585627,-3.0946833261957e-09,3.1960075028705e-09,3.1227828028936e-10,-1.9431379217056e-10,-0.00048782018102851,0.00048782582110806,-0.00091907643267182,0.00091907399612734,-0.00091907442849839,0.00091907610852331,-0.0004878258059245,0.00048782008394882,-0.00048781948229713,0.00048782638207696,-0.00091907601993246,0.00091907450502207,-0.00091907385676808,0.00091907660247324,-0.00097180352841429,0.00097180168563031,-0.00097180140913723,0.00097180378596903,-0.00097180368633055,0.00097180152190955,-0.00097180159671094,0.00097180361166838,-0.00078972082082725,0.0007897146104048,-0.0007897147137095,0.00078972079134473,-0.00078972067508157,0.00078971475860075,-0.00078971452849714,0.0007897209773905,-0.00048782605045793,0.00048781967755069,-2.6176414425566e-10,2.3743905512779e-10,-1.3066560557427e-08,1.3038415905079e-08,-0.0011961059845842,0.0011961059570006,-0.0012374792149899,0.00123750473722,-0.001087864225492,0.0010878550801573,-0.0010878637104671,0.0010878555654361,-0.0011888485864551,0.0011888397461882,-0.0011888399142926,0.001188848360184,-0.0011888484057088,0.0011888399198049,-0.0011888397523738,0.001188848515939,-0.0012375050879298,0.0012374795620508,-0.0012374790652412,0.0012375048787428,-0.0010878555292742,0.001087863645877,-0.0010878550350693,0.0010878641097957,-0.001237505286846,0.0012374793676113,4.7209814071116e-09,-1.5403147187882e-09,-0.00079990568432228,0.00079990890888523,1.4825872084299e-08,-1.1390612502033e-08,-0.00066829745866186,0.00066828113219627,-0.00062580193598831,0.00062577752313797,-0.00062579982785441,0.00062577964187172,-0.0006682778764278,0.00066830072181917,-0.00066827177549293,0.00066830678092591,-0.00062577607097615,0.00062580341506169,-0.00062577400817691,0.00062580545363961,-0.00095299986678494,0.0009530137786025,-0.0009530086160289,0.00095300503465229,-0.00095300194680293,0.00095301170527454,-0.00095301070993092,0.00095300293923829,-0.00097100518205843,0.00097099341114474,-0.00097099903704087,0.00097099956015083,-0.00097099029741574,0.00097100828752894,-0.0009709964199543,0.00097100218129704,-0.00066830359465239,0.00066827497396532,0.70228482445845,129487,2954,0.0035006499719621,0.0049703476792198,0.0033276876631144,24.733518417904,-4.2131852656769e-05,-4.2131852656769e-05,-4.2131852656769e-05,3527334.6048812,0.011869070190504
29591759,0.68764539634771,0.012297691078808,0.0038481678687045,0.0047700536180088,0.0036794695920951,-0.00085159562664474,0.00085159573061425,-3.1368066008292e-09,3.2393622997347e-09,2.9842640210179e-10,-1.7893716644533e-10,-0.00049233455250719,0.00049234030718158,-0.00093032186190164,0.00093031942692461,-0.00093031983405433,0.0009303215730917,-0.00049234029529397,0.00049233446347619,-0.0004923338793549,0.00049234083404679,-0.00093032148589368,0.00093031991573066,-0.00093031928287793,0.00093032202959197,-0.00098461348372009,0.00098461160381621,-0.00098461133231597,0.00098461372896381,-0.00098461363028755,0.0009846114480712,-0.00098461151172797,0.0009846135662214,-0.00079812146773106,0.00079811518404302,-0.00079811527362005,0.00079812144647515,-0.00079812133391417,0.00079811532553446,-0.00079811509595348,0.00079812161980683,-0.00049234050809069,0.0004923340805995,-2.4674426404387e-10,2.2318857191145e-10,-1.2956252130273e-08,1.2929010006296e-08,-0.0012130043029721,0.0012130042763026,-0.0012544733883979,0.0012544987085494,-0.001102998908299,0.0011029898741713,-0.0011029984221164,0.0011029903298474,-0.0012060382377712,0.0012060294893281,-0.0012060296588213,0.0012060380342391,-0.001206038066851,0.0012060296530505,-0.0012060295064609,0.0012060381803199,-0.0012544990337312,0.0012544737101293,-0.0012544732477011,0.0012544988410581,-0.0011029903000504,0.0011029983648934,-0.001102989834068,0.0011029988000138,-0.0012544992221358,0.0012544735264377,4.5975102714524e-09,-1.7495575900916e-09,-0.00080951695070734,0.00080951983894634,1.4530418978145e-08,-1.1453500765737e-08,-0.00067572403186471,0.00067570765491408,-0.00063228671293403,0.000632262137198,-0.00063228457626603,0.00063226428432554,-0.00067570474947938,0.00067572694469628,-0.00067569856310362,0.00067573308879861,-0.000632261066422,0.00063228781071583,-0.00063225897490829,0.0006322898777552,-0.0009656545875514,0.00096566812074031,-0.00096566325669486,0.00096565945697162,-0.00096565669656649,0.00096566601859708,-0.00096566537878582,0.00096565733333938,-0.00098395041852369,0.00098393831225431,-0.00098394418991222,0.00098394454495866,-0.00098393552704583,0.00098395319539748,-0.00098394173364897,0.00098394700525859,-0.00067573025002334,0.00067570141405938,0.67337837467442,129487,2954,0.0035442752232363,0.0050403663685521,0.0033676195708003,25.052247930008,-3.9582016559933e-05,-3.9582016559933e-05,-3.9582016559933e-05,3544773.4071132,0.012024501262121
29791759,0.6966069206835,0.012448564261495,0.0038943511846986,0.0048331537143602,0.0037210593624362,-0.00086225851079455,0.00086225861062781,-3.1814299654984e-09,3.2799106600102e-09,3.0926647629791e-10,-1.942607923779e-10,-0.00049774594839803,0.00049775176579527,-0.00094220946054345,0.00094220696427878,-0.00094220740216531,0.00094220914228769,-0.00049775174937845,0.00049774586530005,-0.00049774525901404,0.00049775230867568,-0.00094220905829049,0.00094220748424947,-0.00094220682584509,0.00094220961950562,-0.00099739750550578,0.00099739560262367,-0.00099739532665956,0.00099739775527035,-0.00099739766152827,0.00099739543713112,-0.0009973955137068,0.00099739758490826,-0.00080684845081906,0.00080684206804999,-0.00080684216797522,0.0008068484146919,-0.00080684830378743,0.00080684221948363,-0.00080684198633645,0.00080684859545444,-0.00049775199723857,0.00049774544690407,-2.6041154412079e-10,2.4008226898236e-10,-1.2584944860485e-08,1.2560726223524e-08,-0.001230030187256,0.0012300301636648,-0.0012717865787956,0.0012718111654661,-0.0011183504297581,0.0011183416190376,-0.0011183499166439,0.0011183421022703,-0.0012233188275223,0.0012233103174036,-0.0012233104906821,0.0012233186140865,-0.0012233186478897,0.0012233104903973,-0.00122331032775,0.0012233187713351,-0.0012718115009619,0.0012717869104285,-0.0012717864249118,0.0012718113113677,-0.0011183420714251,0.0011183498586579,-0.0011183415725623,0.0011183503272024,-0.0012718116963147,0.0012717867196172,4.6695945985021e-09,-1.7635652820559e-09,-0.00081940018173937,0.00081940312865236,1.4199756757325e-08,-1.1057966319499e-08,-0.00068399722075173,0.00068398169656505,-0.00063949851591646,0.00063947469179272,-0.00063949635336878,0.00063947686459674,-0.00068397873846876,0.00068400018601102,-0.00068397245880842,0.00068400642370601,-0.00063947358418387,0.00063949965046375,-0.00063947146118912,0.00063950174902226,-0.00097829667315284,0.0009783100544637,-0.00097830510354087,0.00097830162950892,-0.0009782988118267,0.00097830792272653,-0.00097830725328091,0.00097829947817018,-0.00099728379781608,0.00099727190982234,-0.00099727748761445,0.00099727822431252,-0.00099726906468509,0.00099728663482421,-0.00099727535782095,0.00099728035790853,-0.00068400351352057,0.00068397538088773,0.70917941693747,129487,2954,0.0035886094080376,0.0051109092589106,0.0034086809067782,25.304844322633,-3.7561245418935e-05,-3.7561245418935e-05,-3.7561245418935e-05,3559934.7839075,0.012182343711498
29991759,0.70551411473531,0.012606471978907,0.003942604219675,0.0048990946991599,0.0037647730600718,-0.00087313982516406,0.00087313992241751,-3.2254535071829e-09,3.321406127161e-09,3.2187891155549e-10,-2.0965670077876e-10,-0.00050338050700178,0.00050338637235113,-0.00095494972937601,0.00095494717518658,-0.00095494764176216,0.00095494937906462,-0.0005033863634494,0.00050338041543027,-0.00050337978538544,0.00050338694912188,-0.00095494929960639,0.00095494772122103,-0.00095494703761441,0.00095494988560877,-0.0010103693888728,0.0010103674637611,-0.001010367182075,0.0010103696461653,-0.0010103695540174,0.0010103672895147,-0.0010103673783691,0.0010103694659708,-0.0008160718604682,0.00081606538314246,-0.00081606549509463,0.0008160718124267,-0.00081607170323616,0.00081606554076337,-0.00081606530469516,0.00081607200605385,-0.00050338663469138,0.00050337997553721,-2.7123426633229e-10,2.5434315154278e-10,-1.2212791815358e-08,1.2191829039462e-08,-0.0012475304403533,0.0012475304200267,-0.0012901250694654,0.0012901489300525,-0.0011340895150638,0.0011340809263053,-0.001134088975487,0.0011340814364034,-0.0012408689341143,0.0012408606610678,-0.0012408608323426,0.0012408687087027,-0.0012408687461134,0.0012408608429578,-0.0012408606619542,0.0012408688740024,-0.0012901492763045,0.001290125421068,-0.0012901249086765,0.0012901490829483,-0.0011340813983327,0.0011340889206566,-0.0011340808766656,0.0011340894124659,-0.0012901494812832,0.0012901252205394,4.7728980919895e-09,-1.7460180048889e-09,-0.00082951544090505,0.00082951851067226,1.3895759693786e-08,-1.0620795140006e-08,-0.0006927794079119,0.00069276483192424,-0.00064702404713533,0.00064700105348533,-0.00064702185498638,0.00064700325599623,-0.0006927617436638,0.00069278250291058,-0.00069275538375768,0.00069278882035568,-0.00064699984049687,0.00064702528711294,-0.0006469976901558,0.00064702741272319,-0.00099105418554875,0.00099106747145721,-0.00099106237009299,0.00099105929240704,-0.00099105635269826,0.00099106531129907,-0.00099106454849299,0.00099105711237393,-0.0010112105458717,0.0010111989394984,-0.0010112041500769,0.0010112053397482,-0.0010111959770966,0.0010112135003379,-0.0010112023520796,0.0010112071412604,-0.00069278578739561,0.00069275842871156,0.746573078962,129487,2954,0.003633856937272,0.0051834092570353,0.0034507044184819,25.555749739187,-3.5554002086507e-05,-3.5554002086507e-05,-3.5554002086507e-05,3566204.9428882,0.012344089158926
30191759,0.71435944805389,0.012753441387481,0.0039874363645316,0.0049606752823935,0.0038053297405556,-0.00088337417556744,0.00088337426997299,-3.269570938161e-09,3.3627147365054e-09,3.3113342815989e-10,-2.2201013730152e-10,-0.00050762815407826,0.000507634079918,-0.00096643556411111,0.00096643295703936,-0.00096643344875478,0.00096643519030753,-0.00050763407374571,0.00050762806156954,-0.00050762741265097,0.00050763467711281,-0.00096643511442869,0.00096643352621276,-0.0009664328218433,0.00096643571643858,-0.0010229170571887,0.0010229151077987,-0.001022914822408,0.0010229173193173,-0.001022917229403,0.0010229149264233,-0.0010229150257491,0.0010229171319495,-0.00082448779293729,0.00082448122115506,-0.00082448134314498,0.0008244877349734,-0.00082448762617098,0.00082448138503776,-0.00082448114790438,0.0008244879368519,-0.00050763436793313,0.00050762759957371,-2.8026790628726e-10,2.6669838656942e-10,-1.1872831217539e-08,1.1855048387262e-08,-0.0012644719459726,0.0012644719288623,-0.0013076545465354,0.0013076777413767,-0.0011493331439602,0.0011493247632993,-0.0011493325834967,0.0011493252948534,-0.0012578728415898,0.0012578647884532,-0.0012578649596593,0.0012578726084894,-0.0012578726468095,0.0012578649774547,-0.0012578647822957,0.0012578727810863,-0.0013076780971707,0.0013076549133383,-0.0013076543784107,0.0013076779017243,-0.0011493252517515,0.001149332530095,-0.0011493247091832,0.0011493330433221,-0.0013076783088616,0.0013076547060681,4.8688189922601e-09,-1.7359368336559e-09,-0.00083899169080542,0.00083899486809744,1.3617634500996e-08,-1.0226859168715e-08,-0.00070019942408575,0.00070018570805681,-0.00065348898476491,0.0006534667381323,-0.00065348676411267,0.00065346896912908,-0.00070018250914008,0.00070020262967799,-0.00070017606547475,0.00070020903048238,-0.00065346543707167,0.00065349031286427,-0.00065346325810093,0.00065349246685164,-0.0010034724443068,0.001003485640187,-0.0010034804060398,0.0010034776840049,-0.0010034746401512,0.0010034834513911,-0.0010034826128955,0.0010034754754492,-0.0010243222473305,0.0010243108869942,-0.0010243157669417,0.0010243173718028,-0.0010243078204688,0.0010243253059774,-0.0010243142786254,0.0010243188635,-0.00070020588724007,0.00070017922077492,0.70019171610924,129487,2954,0.0036764225704473,0.0052535869524659,0.0034900730866467,25.806587469853,-3.3547300241179e-05,-3.3547300241179e-05,-3.3547300241179e-05,3573037.4469299,0.012498111219552
30391759,0.7231447689998,0.012894188273296,0.0040303565431545,0.0050197046088406,0.0038441271213014,-0.00089332664310524,0.00089332673648866,-3.3132621599683e-09,3.4054192577793e-09,3.2926297109519e-10,-2.2123228888779e-10,-0.0005119880305799,0.00051199403477436,-0.00097729758297571,0.00097729495073452,-0.00097729543983498,0.00097729720927943,-0.00051199403360262,0.00051198792569082,-0.00051198728789541,0.00051199464057182,-0.0009772971378005,0.00097729551517883,-0.00097729481312716,0.00097729773512157,-0.0010351501908412,0.0010351482097229,-0.0010351479265237,0.0010351504511595,-0.0010351503615293,0.0010351480303999,-0.0010351481294951,0.0010351502635669,-0.00083243490905002,0.00083242825449494,-0.00083242837576149,0.00083243485006627,-0.00083243474354316,0.00083242841375818,-0.00083242818088852,0.0008324350550056,-0.00051199432099683,0.00051198747771417,-2.7604455073434e-10,2.6519881724788e-10,-1.1650996682196e-08,1.1636005771187e-08,-0.0012808677652513,0.0012808677508455,-0.001324269935888,0.0013242926930182,-0.0011641232794066,0.001164115047304,-0.0011641227214415,0.0011641155765769,-0.001274536946972,0.0012745290404821,-0.0012745292050228,0.0012745367162698,-0.0012745367534078,0.0012745292284491,-0.0012745290303973,0.0012745368862267,-0.0013242930406538,0.0013242703045634,-0.0013242697716536,0.0013242928493884,-0.0011641155281891,0.0011641226743913,-0.0011641149943544,0.0011641231792723,-0.0013242932525215,0.0013242700970785,4.9380143195521e-09,-1.7515749517603e-09,-0.00084827586076428,0.00084827909226855,1.3422899458393e-08,-9.9753748872402e-09,-0.00070736794719816,0.00070735482142034,-0.00065983911091607,0.0006598173346302,-0.00065983685957551,0.00065981959651753,-0.00070735155783538,0.00070737121754554,-0.00070734504043552,0.00070737769181844,-0.00065981600851557,0.00065984046472052,-0.00065981380374914,0.00065984264393753,-0.0010156660961266,0.0010156792251643,-0.0010156739092704,0.0010156714176256,-0.0010156683194963,0.0010156770089009,-0.0010156761451375,0.0010156691800189,-0.001036933543544,0.0010369223008995,-0.0010369269772887,0.0010369288716111,-0.0010369191836704,0.0010369366529257,-0.0010369257217894,0.0010369301303755,-0.00070737450230828,0.00070734824178538,0.67548311513459,129487,2954,0.0037178082773453,0.0053215011875608,0.0035286430809712,26.074947680002,-3.1400418559985e-05,-3.1400418559985e-05,-3.1400418559985e-05,3587340.3416916,0.012647861637784
30591759,0.73192897953093,0.013039764662228,0.0040747245943451,0.0050806353332821,0.0038844047346011,-0.00090370678491462,0.00090370688833273,-3.3501355321738e-09,3.4521891147569e-09,2.8737842463933e-10,-1.6829320511105e-10,-0.00051713090309606,0.00051713713780305,-0.00098900502415962,0.00098900245610193,-0.0009890028410612,0.00098900475448178,-0.00051713708265608,0.00051713085018059,-0.00051713030081114,0.00051713761037739,-0.00098900466057746,0.00098900293994353,-0.00098900231889774,0.00098900517386478,-0.0010477166000583,0.0010477145733922,-0.0010477143108439,0.001047716837759,-0.0010477167432716,0.0010477144212805,-0.0010477144785732,0.001047716685902,-0.00084088880519404,0.00084088209688426,-0.0008408821753482,0.00084088878579199,-0.00084088865699368,0.0008408822364412,-0.000840882026027,0.00084088894744939,-0.00051713732171003,0.0005171304591108,-2.3845810559209e-10,2.271232981862e-10,-1.1665876356691e-08,1.1650848595543e-08,-0.001297697280133,0.001297697265544,-0.0013414983298667,0.0013415211275078,-0.0011792714164462,0.0011792632612236,-0.0011792709445393,0.0011792637029504,-0.001291634625699,0.0012916267381097,-0.0012916268781812,0.0012916344203806,-0.0012916344610916,0.0012916268965037,-0.0012916267242567,0.0012916345690056,-0.0013415214838742,0.0013414986824779,-0.0013414981777419,0.0013415212702141,-0.0011792636694809,0.0011792708868349,-0.0011792631963917,0.0011792713287982,-0.0013415216581011,0.0013414985133296,4.9772402203896e-09,-1.8000124481347e-09,-0.0008580888473491,0.00085809206884627,1.3459083436519e-08,-1.0022640794468e-08,-0.00071555589805889,0.00071554272636037,-0.00066693685761093,0.0006669149710378,-0.00066693459020169,0.00066691725016736,-0.00071553951262341,0.00071555911934573,-0.00071553287171525,0.00071556571848834,-0.00066691368544709,0.00066693817183059,-0.00066691143866668,0.00066694039254394,-0.0010281980468105,0.0010282112294041,-0.0010282058925698,0.001028203389301,-0.0010282003036894,0.0010282089800208,-0.0010282081535021,0.0010282011268048,-0.0010501690241488,0.0010501576720299,-0.0010501623839508,0.0010501643164667,-0.0010501545517768,0.0010501721360342,-0.0010501611879856,0.0010501655159383,-0.00071556249962783,0.00071553610392171,0.69870694648318,129487,2954,0.0037609654156126,0.0053912080872474,0.0035694076560105,26.468469925282,-2.825224059774e-05,-2.825224059774e-05,-2.825224059774e-05,3601201.8106876,0.012803463949632
30791759,0.74070287216102,0.013190128113682,0.0041204840806074,0.0051435097098439,0.0039261343232307,-0.00091426110087228,0.00091426121099258,-3.3900728774683e-09,3.4986825360178e-09,2.6490502489215e-10,-1.3823555496927e-10,-0.0005224089429934,0.00052241528988241,-0.0010013197988878,0.0010013172686086,-0.0010013175931483,0.0010013195870724,-0.00052241525605992,0.00052240886632922,-0.00052240836053622,0.00052241573867509,-0.0010013194934043,0.001001317692458,-0.0010013171164695,0.0010013199634703,-0.0010604425805099,0.0010604405110291,-0.0010604402588345,0.0010604428064988,-0.0010604427031813,0.0010604403789887,-0.0010604404123874,0.0010604426693077,-0.00084966174951803,0.0008496549898068,-0.00084965504506573,0.00084966175406439,-0.00084966162748635,0.00084965510183477,-0.00084965490377807,0.00084966190957835,-0.00052241541168152,0.00052240855235057,-2.0568899381302e-10,1.9351951322936e-10,-1.1739719597419e-08,1.1724086731492e-08,-0.0013148743987879,0.0013148743835859,-0.00135940964008,0.0013594326131606,-0.0011946531158375,0.0011946449647072,-0.0011946526979893,0.0011946453499337,-0.0013089465513151,0.0013089386352607,-0.0013089387562214,0.0013089463689395,-0.0013089464051215,0.0013089387743413,-0.0013089386263625,0.0013089464927257,-0.0013594329627628,0.0013594100008733,-0.0013594095179437,0.0013594327260235,-0.0011946453083551,0.0011946526508765,-0.0011946449097281,0.0011946530164998,-0.0013594331236832,0.0013594098454457,5.0237225131962e-09,-1.838390034314e-09,-0.00086808535741634,0.00086808858734679,1.3522403255569e-08,-1.0076180102659e-08,-0.00072411635483846,0.00072410319747777,-0.00067426800777069,0.00067424597937067,-0.00067426570340215,0.00067424829429853,-0.00072409994492698,0.00072411961572482,-0.00072409324792727,0.00072412627077543,-0.00067424471040767,0.00067426930559685,-0.00067424244369577,0.00067427154573683,-0.0010408546658504,0.0010408679205346,-0.0010408625476027,0.001040860044478,-0.0010408569482985,0.0010408656456801,-0.0010408648395497,0.0010408577509143,-0.0010638382551945,0.0010638267782851,-0.0010638315231576,0.0010638335138274,-0.0010638236600194,0.0010638413648392,-0.0010638303704365,0.0010638346703195,-0.00072412306830217,0.00072409646421163,0.72242073362491,129487,2954,0.003804850026845,0.0054623474969765,0.0036109328165045,26.865202195803,-2.5078382433577e-05,-2.5078382433577e-05,-2.5078382433577e-05,3608378.5947838,0.01296204765823
30991759,0.74945535599331,0.013345266057478,0.0041676188771527,0.0052083665878497,0.0039692805924758,-0.00092500374227387,0.00092500385809473,-3.4300165542311e-09,3.5441562977079e-09,2.5110206003384e-10,-1.1796801698159e-10,-0.00052794005953179,0.00052794653406069,-0.0010142506446164,0.0010142481256391,-0.0010142484090147,0.0010142504716004,-0.00052794648930279,0.00052793999205807,-0.00052793951784434,0.00052794694700863,-0.0010142503711913,0.0010142485150369,-0.0010142479673819,0.0010142508152787,-0.0010733250718515,0.0010733229681531,-0.0010733227219319,0.00107332529189,-0.0010733251834859,0.0010733228472746,-0.0010733228638193,0.0010733251663288,-0.00085877835731388,0.00085877153038268,-0.00085877157015767,0.0008587783808921,-0.00085877824521402,0.00085877163032085,-0.00085877144246206,0.00085877852515017,-0.00052794661777394,0.00052793971021188,-1.8865622044667e-10,1.7632880346727e-10,-1.1833303893718e-08,1.1817666263937e-08,-0.0013323665835616,0.0013323665683293,-0.0013779575493261,0.0013779807173363,-0.0012102462556487,0.0012102380767593,-0.0012102458718735,0.0012102384261184,-0.0013264733498273,0.001326465383949,-0.0013264654930151,0.0013264731781912,-0.0013264732150929,0.0013264655111566,-0.0013264653740466,0.001326473290722,-0.0013779810692576,0.0013779579115938,-0.0013779574377438,0.0013779808192103,-0.0012102383866685,0.001210245823962,-0.0012102380192938,0.0012102461565422,-0.0013779812187554,0.0013779577679088,5.0797210666553e-09,-1.868275851628e-09,-0.00087825512827753,0.00087825838551061,1.3632441201926e-08,-1.0156461263183e-08,-0.00073305990595322,0.00073304667699623,-0.00068186201237728,0.00068183979854442,-0.00068185968052896,0.00068184214132398,-0.00073304339577719,0.0007330631961646,-0.0007330366148894,0.00073306993327277,-0.00068183852824159,0.00068186331246261,-0.00068183623169958,0.0006818655812459,-0.0010536405888788,0.0010536539626988,-0.0010536485345938,0.0010536460228546,-0.0010536429003268,0.0010536516591739,-0.0010536508548987,0.001053643700925,-0.0010779009451728,0.0010778893464748,-0.0010778941298545,0.0010778961654696,-0.0010778862034387,0.0010779040793499,-0.0010778929987092,0.0010778973004663,-0.00073306670387087,0.00073303985867075,0.74698825202508,129487,2954,0.0038495214007282,0.0055347834033914,0.00365317565777,27.262063144919,-2.1903494840651e-05,-2.1903494840651e-05,-2.1903494840651e-05,3610711.3568881,0.013123492953093
31191759,0.75824298964268,0.01350814627008,0.0042170137941828,0.0052764711554563,0.0040146613204411,-0.00093633815462109,0.00093633828053329,-3.4605263848385e-09,3.5845398787378e-09,2.2356201551036e-10,-7.9060342260813e-11,-0.00053401964046256,0.00053402632182861,-0.0010283049279422,0.0010283024413237,-0.0010283026465823,0.0010283048299131,-0.00053402620528952,0.00053401964393092,-0.00053401922661079,0.00053402660862498,-0.0010283046974934,0.0010283027841466,-0.0010283022927207,0.0010283050892077,-0.0010867828668339,0.0010867807340727,-0.0010867804997846,0.0010867830740912,-0.0010867829634137,0.0010867806282433,-0.0010867806127508,0.0010867829776271,-0.0008686905108776,0.00086868362552711,-0.00086868363538775,0.00086869056861381,-0.00086869039989816,0.00086868372396249,-0.00086868355110172,0.00086869067003775,-0.00053402632936109,0.00053401936787666,-1.5784205615118e-10,1.4393878221018e-10,-1.2126785377913e-08,1.2109887326402e-08,-0.0013506936631734,0.0013506936465843,-0.0013977463152939,0.001397770057926,-0.0012265392235966,0.001226530930813,-0.0012265389214306,0.0012265311959118,-0.0013446968202299,0.0013446886877522,-0.0013446887781519,0.0013446966691008,-0.0013446967130072,0.0013446887866429,-0.001344688672944,0.0013446967671565,-0.0013977704303028,0.0013977466546497,-0.0013977462037322,0.0013977701590025,-0.0012265311803437,0.0012265388531475,-0.0012265308530591,0.0012265391429375,-0.001397770538744,0.0013977465525303,5.1149893575568e-09,-1.9335165680983e-09,-0.0008889933294947,0.00088899655712901,1.3949546724467e-08,-1.0504321037159e-08,-0.00074282719872032,0.00074281332556966,-0.0006901112246603,0.00069008831417929,-0.00069010888044934,0.00069009066955206,-0.00074281013480535,0.00074283039954483,-0.00074280319546899,0.00074283729405818,-0.00069008710704855,0.00069011246268334,-0.00069008475583953,0.00069011478495471,-0.0010669516219427,0.0010669652280608,-0.001066959796054,0.0010669570599734,-0.0010669539741089,0.0010669628841752,-0.0010669621427473,0.0010669547116984,-0.0010928478540432,0.0010928359245438,-0.0010928409609397,0.0010928428210399,-0.0010928327919694,0.0010928509772392,-0.0010928397065923,0.001092844079692,-0.00074283403509264,0.00074280646951706,0.78082574702053,129487,2954,0.0038966559700964,0.0056106681867997,0.0036977765470593,27.788307087081,-1.7693543303354e-05,-1.7693543303354e-05,-1.7693543303354e-05,3609589.2201857,0.013293342529361
31391759,0.7670728387057,0.013665654084696,0.0042646774623819,0.0053425536335174,0.0040584229887962,-0.00094742495868606,0.00094742508931557,-3.5049945361905e-09,3.6335695001518e-09,2.113071877987e-10,-6.1295520552157e-11,-0.0005390217570455,0.00053902852864526,-0.0010416629132768,0.0010416604417338,-0.0010416606112352,0.0010416628494447,-0.00053902844434361,0.0005390217305826,-0.00053902133663156,0.00053902882079672,-0.0010416627228633,0.0010416607432886,-0.0010416602764465,0.0010416630909531,-0.0011002102269872,0.0011002080534571,-0.0011002078240815,0.0011002104280693,-0.0011002103090316,0.001100207961739,-0.001100207931728,0.0011002103374326,-0.00087826720304952,0.00087826025528041,-0.00087826025125178,0.00087826727597048,-0.00087826711535152,0.0008782603279039,-0.00087826016359174,0.00087826738340981,-0.00053902850172396,0.00053902151962272,-1.4041294970136e-10,1.2536417999712e-10,-1.2483622997092e-08,1.2465781266233e-08,-0.0013690306608903,0.0013690306432877,-0.0014173798872273,0.0014174043509997,-0.0012428914438749,0.0012428829324223,-0.0012428911611282,0.0012428831764211,-0.0013628664742158,0.0013628581137303,-0.0013628581958403,0.0013628663366219,-0.0013628663745378,0.0013628582046409,-0.001362858106632,0.0013628664183458,-0.0014174047076061,0.0014173802330753,-0.0014173797994338,0.0014174044280445,-0.0012428831485339,0.0012428911086187,-0.0012428828706631,0.0012428913468364,-0.0014174048164054,0.0014173801310627,5.1253948187506e-09,-2.0009388524746e-09,-0.00089945790518035,0.00089946107558008,1.4257582814948e-08,-1.0872867283059e-08,-0.0007517119791334,0.00075169749593337,-0.00069774230641765,0.00069771863237252,-0.00069773992369808,0.00069772102631055,-0.00075169432937802,0.00075171515673978,-0.00075168734805671,0.00075172209208285,-0.00069771751004823,0.00069774346058658,-0.00069771514539912,0.00069774579528539,-0.0010802731468088,0.0010802869433881,-0.0010802815415017,0.0010802785547922,-0.0010802755209998,0.0010802845776859,-0.0010802839187203,0.0010802761759916,-0.0011075041898908,0.0011074918881739,-0.0011074972080157,0.0011074988733769,-0.0011074888265112,0.0011075072419485,-0.0011074958042926,0.0011075002814921,-0.00075171892779262,0.00075169052811952,0.7516598204519,129487,2954,0.0039427685822338,0.0056865856384982,0.0037412407880309,28.355758888967,-1.3153928888268e-05,-1.3153928888268e-05,-1.3153928888268e-05,3608075.9975464,0.01346107062106
31591759,0.77592939877836,0.013816906021393,0.0043104257712071,0.0054061309822187,0.0041003492679668,-0.00095825786770172,0.00095825799880832,-3.5484036365723e-09,3.677379307307e-09,2.1327506456376e-10,-6.2504636938011e-11,-0.0005439419081803,0.00054394876144182,-0.0010542687779755,0.0010542662756656,-0.0010542664484909,0.0010542687127131,-0.00054394867928285,0.00054394188215073,-0.00054394148347307,0.00054394905754636,-0.0010542685865703,0.0010542665814637,-0.0010542661083304,0.0010542689563349,-0.0011134135885136,0.001113411387346,-0.0011134111555704,0.0011134137898531,-0.0011134136711991,0.0011134112941274,-0.0011134112645852,0.0011134136986744,-0.00088736818723553,0.00088736115378206,-0.00088736115065128,0.00088736826047845,-0.00088736809922061,0.00088736122750129,-0.00088736106185275,0.00088736836853368,-0.00054394873809925,0.00054394166925667,-1.4283737035756e-10,1.2833523379229e-10,-1.2785023823328e-08,1.2767725692009e-08,-0.0013869360346093,0.001386936017536,-0.0014361452302652,0.0014361702851368,-0.0012589329892301,0.0012589242745522,-0.0012589327014825,0.0012589245233051,-0.0013807887656923,0.0013807802065415,-0.0013807802926812,0.0013807886299257,-0.001380788664694,0.0013807802989432,-0.0013807802017061,0.001380788713537,-0.0014361706350674,0.0014361455717482,-0.0014361451411509,0.0014361703632082,-0.0012589244971773,0.0012589326506675,-0.0012589242128665,0.0012589328943903,-0.0014361707462165,0.0014361454672079,5.1305423597909e-09,-2.0799732133564e-09,-0.00090971040558091,0.00090971350155535,1.4514179837945e-08,-1.1208338789958e-08,-0.00076009285920492,0.00076007780705274,-0.00070511541010004,0.00070509104699096,-0.00070511299951599,0.00070509346893365,-0.00076007471112397,0.0007600959664462,-0.00076006765205691,0.00076010297911957,-0.00070509002998587,0.0007051164594083,-0.00070508763691662,0.00070511882187903,-0.0010934377533734,0.0010934517021597,-0.0010934463451895,0.0010934431165166,-0.001093440155766,0.0010934493084227,-0.0010934487505627,0.0010934407095333,-0.0011216463745061,0.001121633718893,-0.0011216393094393,0.0011216407874025,-0.0011216307319904,0.0011216493516867,-0.0011216377915053,0.0011216423097881,-0.00076009989413807,0.00076007075320085,0.71981430623328,129487,2954,0.0039878191295304,0.0057607117023787,0.0037838238261733,28.924315256691,-8.6054779464699e-06,-8.6054779464699e-06,-8.6054779464699e-06,3613537.5862545,0.013625042750897
31791759,0.78467654047375,0.013958363176193,0.0043532076042882,0.0054656772339325,0.0041394783379725,-0.00096818765345601,0.00096818776760526,-3.5940995564903e-09,3.706375297867e-09,2.8839484202966e-10,-1.5623696771494e-10,-0.00054811792203962,0.00054812473355804,-0.0010653730905371,0.0010653703564201,-0.0010653707141908,0.0010653728418101,-0.00054812460005993,0.0005481179480687,-0.00054811740225437,0.00054812512880843,-0.0010653727117536,0.0010653708528736,-0.0010653702296833,0.0010653732278244,-0.0011256985029251,0.0011256963237684,-0.0011256960521233,0.0011256987430124,-0.0011256986488839,0.001125696166651,-0.0011256962094391,0.0011256986035271,-0.00089530698639626,0.00089529978508468,-0.00089529985075395,0.00089530698354758,-0.00089530681675897,0.00089529993359041,-0.00089529973163522,0.00089530712919787,-0.00054812489665342,0.0005481175012702,-2.3055146204639e-10,2.2456740510522e-10,-1.2674533845309e-08,1.2664821208876e-08,-0.0014036055996624,0.0014036055903041,-0.0014531400074836,0.0014531647738576,-0.0012738831481172,0.0012738743547334,-0.0012738827036941,0.0012738747641717,-0.0013976709609603,0.0013976624273704,-0.0013976625654869,0.0013976707711733,-0.0013976708080816,0.0013976625737439,-0.0013976624070804,0.0013976709241976,-0.001453165141553,0.0014531403366299,-0.0014531398350296,0.0014531649360211,-0.0012738747512206,0.0012738826366733,-0.0012738742647623,0.0012738830862941,-0.001453165290711,0.001453140193055,5.1841852008477e-09,-2.1230710229942e-09,-0.00091912749501674,0.0009191306020276,1.44589077538e-08,-1.1140675622338e-08,-0.00076732816421113,0.00076731327202039,-0.00071163057346049,0.00071160633468155,-0.00071162815373783,0.00071160876569181,-0.00076731023057366,0.00076733121590189,-0.00076730301069634,0.0007673383905493,-0.00071160533644759,0.00071163160342564,-0.00071160288851434,0.00071163402128683,-0.0011057714340824,0.0011057853927385,-0.0011057799928622,0.0011057768401228,-0.0011057738762294,0.0011057829590402,-0.001105782422835,0.0011057744085085,-0.0011345433768866,0.0011345307013817,-0.0011345362402115,0.0011345378423059,-0.0011345276824532,0.0011345463869967,-0.0011345348587988,0.0011345392270773,-0.00076733522628521,0.00076730619095346,0.68196835054973,129487,2954,0.0040291090431895,0.0058297186420724,0.0038229381359116,29.261977014874,-5.9041838810083e-06,-5.9041838810083e-06,-5.9041838810083e-06,3624585.2260973,0.013776524328623
31991759,0.79314405722415,0.014109001917498,0.0043987683313879,0.0055288043576978,0.0041814292284122,-0.00097793660811927,0.00097793669138594,-3.6565752873849e-09,3.7385120630668e-09,4.3092168881467e-10,-3.3289596819786e-10,-0.00055328925113349,0.00055329574304162,-0.0010772645122521,0.0010772614183157,-0.0010772621202151,0.0010772639126885,-0.00055329570242454,0.00055328917721058,-0.00055328835389878,0.00055329652050531,-0.0010772638353341,0.0010772622069445,-0.0010772613067866,0.0010772646362833,-0.0011374155588618,0.0011374134168739,-0.001137413071748,0.0011374158766231,-0.0011374158038901,0.0011374131616737,-0.0011374133406232,0.0011374156230753,-0.00090332868234074,0.00090332127479378,-0.00090332147820242,0.00090332854406606,-0.00090332842535014,0.00090332150317258,-0.00090332123334073,0.00090332882367835,-0.00055329625168145,0.00055328848044073,-3.7477938939397e-10,3.8531274808504e-10,-1.2315336429161e-08,1.2320546760224e-08,-0.0014197728013543,0.0014197728069882,-0.0014701286571599,0.0014701526664424,-0.001288173441727,0.0012881645683844,-0.0012881726763949,0.0012881653057536,-0.0014140312879253,0.0014140228913306,-0.0014140231079263,0.0014140310041929,-0.001414031028951,0.001414023147221,-0.0014140228571479,0.0014140312530508,-0.0014701530202731,0.001470129042348,-0.0014701284042565,0.0014701529108088,-0.0012881652463221,0.0012881726414688,-0.0012881644862165,0.0012881733711877,-0.0014701532900423,0.0014701287762455,5.3363934578429e-09,-2.0475597839651e-09,-0.00092843159502981,0.00092843493341249,1.4198382002294e-08,-1.0631888394556e-08,-0.00077557691554087,0.00077556316551487,-0.00071863160518099,0.00071860832493228,-0.00071862913915019,0.00071861080196337,-0.00077555982363546,0.0007755802658155,-0.0007755525890513,0.00077558745691145,-0.00071860710457733,0.00071863285651698,-0.00071860465260331,0.00071863527962358,-0.0011174469285481,0.0011174608779,-0.0011174552258748,0.0011174525865558,-0.0011174493891328,0.0011174584250208,-0.0011174576884982,0.0011174501221183,-0.0011475022311749,0.0011474899425614,-0.0011474949993993,0.0011474971797498,-0.001147486720469,0.0011475054458882,-0.0011474939497309,0.001147498231087,-0.00077558411284003,0.00077555594739842,0.74979062666169,129487,2954,0.0040696380063058,0.0058966421031865,0.0038615821184586,29.279617074729,-5.763063402171e-06,-5.763063402171e-06,-5.763063402171e-06,3631618.6909254,0.013924658680618
32191759,0.8013324576692,0.014257508751,0.0044436009756894,0.0055910781727119,0.0042228296025988,-0.00098735612781013,0.00098735619341265,-3.7072793785715e-09,3.7719660698787e-09,5.1884742180271e-10,-4.4059081778236e-10,-0.00055745379031297,0.00055746017128497,-0.0010890115682561,0.0010890082297502,-0.0010890091427156,0.0010890107561993,-0.00055746012502176,0.00055745370986765,-0.00055745272604712,0.00055746113154795,-0.0010890106920732,0.0010890092139001,-0.0010890081446082,0.0010890116704902,-0.0011488877423435,0.0011488856219933,-0.001148885230906,0.0011488881093517,-0.0011488880545597,0.001148885300334,-0.0011488855613489,0.001148887792235,-0.00091122037395414,0.00091121279567919,-0.00091121308661679,0.00091122015946597,-0.00091122004579851,0.00091121309512345,-0.00091121278353306,0.00091122049803705,-0.00055746089196746,0.00055745280945541,-4.6793625547154e-10,4.923770487412e-10,-1.2125349381753e-08,1.2143297483303e-08,-0.0014358287474984,0.0014358287659747,-0.0014873827025072,0.0014874062903543,-0.0013023095502501,0.0013023006206019,-0.0013023085971473,0.0013023015507158,-0.0014300044851116,0.0014299961577306,-0.001429996422447,0.0014300041424808,-0.0014300041631286,0.0014299964786443,-0.0014299961043828,0.0014300044607029,-0.0014874066515427,0.001487383109875,-0.001487382378085,0.001487406607125,-0.0013023014790925,0.0013023085619941,-0.0013023005163324,0.001302309498835,-0.0014874069820847,0.0014873827817653,5.4634228944014e-09,-2.007684728878e-09,-0.00093738580901368,0.00093738931726402,1.4115593528653e-08,-1.0366737152634e-08,-0.00078336743273899,0.00078335427889461,-0.00072509704004793,0.00072507426223149,-0.00072509455087901,0.00072507676291676,-0.00078335077168722,0.00078337094681539,-0.00078334344076219,0.0007833782352604,-0.00072507288929376,0.00072509844400183,-0.00072507040304495,0.00072510090191467,-0.0011288514043127,0.0011288654354782,-0.0011288595890553,0.0011288572567297,-0.001128853895855,0.0011288629513454,-0.0011288620785626,0.0011288547651862,-0.00116034553475,0.0011603334462874,-0.0011603382233014,0.0011603407642136,-0.0011603300556467,0.0011603489188529,-0.0011603373750965,0.0011603416130329,-0.00078337470161494,0.0007833469873403,0.76436055115556,129487,2954,0.0041088127661637,0.0059630948725012,0.0038987720840078,29.288953135954,-5.6883749123699e-06,-5.6883749123699e-06,-5.6883749123699e-06,3628079.1044712,0.014069491308738
32391759,0.80924677560942,0.014404234500856,0.0044878425887518,0.0056526382675942,0.0042637536445104,-0.0009965884854376,0.00099658854209046,-3.7548117614457e-09,3.8107403237489e-09,5.7551747551265e-10,-5.0744870781972e-10,-0.00056151196341277,0.00056151829324423,-0.0011006852888095,0.0011006817913622,-0.0011006828346124,0.001100684344153,-0.00056151825827064,0.00056151186661446,-0.0005615107758386,0.0005615193828765,-0.0011006842903882,0.0011006828941498,-0.0011006817164539,0.0011006853838903,-0.0011601134432447,0.0011601113258439,-0.0011601109035687,0.0011601138436038,-0.0011601137959714,0.0011601109640087,-0.001160111274746,0.0011601134843802,-0.00091904600406,0.00091903829322631,-0.00091903863458888,0.00091904574004525,-0.0009190456363649,0.00091903863123398,-0.00091903828891483,0.00091904612278686,-0.00056151914507349,0.00056151085135185,-5.2350605851397e-10,5.5946246484985e-10,-1.20781512208e-08,1.2106783779625e-08,-0.0014516258825012,0.0014516259117286,-0.0015045257720256,0.0015045492483641,-0.0013162209572446,0.0013162119417844,-0.0013162198824672,0.0013162129961378,-0.0014456392941015,0.0014456309633441,-0.0014456312549261,0.0014456389182499,-0.0014456389313292,0.0014456313259477,-0.0014456308973176,0.001445639277058,-0.0015045496067759,0.00150452620084,-0.0015045254084867,0.0015045496047927,-0.0013162129076615,0.001316219856544,-0.0013162118271081,0.0013162209137742,-0.0015045499794127,0.0015045258300884,5.5670564511145e-09,-1.9890126210518e-09,-0.00094613823638638,0.00094614186935895,1.4142179993079e-08,-1.0260108900363e-08,-0.00079094680871821,0.00079093395183945,-0.00073146339233911,0.00073144079753948,-0.00073146087371714,0.00073144332789546,-0.00079093031323505,0.00079095045315789,-0.00079092290358541,0.00079095782089,-0.00073143931996333,0.00073146490092371,-0.00073143680724088,0.00073146738555022,-0.001139989867417,0.0011400040216276,-0.001139998025585,0.001139995869459,-0.0011399923867547,0.0011400015095523,-0.0011400005438238,0.001139993349083,-0.001173011208616,0.001172999184778,-0.0011730038129222,0.0011730065873451,-0.0011729956735844,0.0011730147136084,-0.0011730030746199,0.0011730073257837,-0.0007909541637463,0.00079092657314941,0.78118420755598,129487,2954,0.0041472130894561,0.0060284693287292,0.0039351224422519,29.297954844367,-5.6163612450616e-06,-5.6163612450616e-06,-5.6163612450616e-06,3622726.1064657,0.014211613090217
32591759,0.81687630693653,0.014537334872705,0.0045279472057944,0.0057086371101731,0.0043007505567372,-0.0010049691494086,0.0010049692044718,-3.7963256691067e-09,3.8507057092897e-09,5.9022918787405e-10,-5.2417996110318e-10,-0.00056431307075338,0.00056431945763055,-0.0011107960966213,0.0011107925355983,-0.0011107936120399,0.0011107951193786,-0.0005643194127623,0.0005643129806859,-0.00056431186345575,0.00056432056926326,-0.0011107950635088,0.0011107936730231,-0.0011107924672222,0.0011107961871194,-0.001170599443021,0.0011705973085724,-0.0011705968774353,0.0011705998523361,-0.0011705998072669,0.0011705969350098,-0.0011705972575833,0.0011705994838242,-0.00092591169994245,0.00092590389367603,-0.00092590424642159,0.00092591142307065,-0.00092591131793638,0.00092590424505873,-0.00092590389426505,0.0009259118136676,-0.00056432034110656,0.00056431192510726,-5.34229535125e-10,5.7760686280095e-10,-1.2190103576674e-08,1.2225807726937e-08,-0.0014664184985079,0.0014664185348689,-0.0015202731918884,0.0015202968863273,-0.0013293253010522,0.0013293161911362,-0.0013293242014984,0.0013293172709242,-0.0014602891145188,0.00146028070669,-0.0014602810005211,0.0014602887356946,-0.0014602887434164,0.0014602810776855,-0.001460280632008,0.0014602891054977,-0.001520297242836,0.0015202736258545,-0.001520272815239,0.0015202972559528,-0.0013293171774543,0.0013293241783206,-0.0013293160651641,0.0013293252678652,-0.0015202976215029,0.0015202732489734,5.6309515991321e-09,-2.0148024987439e-09,-0.00095403590112555,0.00095403957301999,1.4287481156729e-08,-1.0364382810793e-08,-0.00079701975888536,0.00079700677557152,-0.00073675791826599,0.00073673509419522,-0.00073675537352182,0.00073673765080857,-0.00079700310567549,0.00079702343428989,-0.00079699560040991,0.00079703089735307,-0.00073673360487538,0.00073675943885629,-0.00073673105882197,0.00073676195675252,-0.0011504492372289,0.0011504635437153,-0.0011504574801051,0.0011504553069536,-0.0011504517877811,0.0011504610004972,-0.0011504600269112,0.0011504527579158,-0.0011844987211915,0.0011844865686045,-0.0011844912412927,0.0011844940555728,-0.0011844830159079,0.0011845022677339,-0.0011844905080812,0.0011844947886514,-0.00079702719254282,0.00079699931742088,0.73524667553473,129487,2954,0.0041820783021985,0.0060896809654747,0.0039679239089331,29.270833130757,-5.833334953945e-06,-5.833334953945e-06,-5.833334953945e-06,3618190.1140249,0.014342350964902
32791759,0.82421505576286,0.014656176905287,0.004563779307611,0.0057587274526345,0.0043336701450417,-0.0010125956562217,0.0010125957145125,-3.842637070237e-09,3.9001965457316e-09,5.7822852510371e-10,-5.0872882106608e-10,-0.00056688064211854,0.0005668871123833,-0.0011194276508324,0.0011194241013967,-0.0011194251486003,0.0011194267048759,-0.00056688710515938,0.00056688051534052,-0.00056687942181855,0.00056688823766598,-0.0011194266587152,0.001119425199783,-0.0011194240156605,0.0011194277571727,-0.0011802518720793,0.0011802496950216,-0.0011802492694453,0.001180252274733,-0.0011802522224044,0.0011802493352001,-0.0011802496450951,0.00118025191096,-0.00093179997264237,0.0009317920985667,-0.0009317924377329,0.00093179970653202,-0.00093179961280557,0.00093179242629153,-0.00093179208149536,0.00093180010304648,-0.00056688796617497,0.00056687952742889,-5.1746278657295e-10,5.6620334953074e-10,-1.2401570822612e-08,1.244255429186e-08,-0.0014798781979823,0.0014798782395396,-0.0015340409201186,0.0015340650596745,-0.0013412982387676,0.0013412890061392,-0.0013412971525786,0.0013412900722375,-0.0014738679029459,0.0014738593644136,-0.0014738596461714,0.0014738675403281,-0.0014738675364968,0.0014738597306497,-0.0014738592910188,0.0014738678963644,-0.0015340653946476,0.0015340413695633,-0.0015340405660638,0.0015340654063599,-0.0013412899595477,0.0013412971496803,-0.0013412888892117,0.001341298197209,-0.001534065777207,0.0015340409888825,5.6605600909366e-09,-2.060532524712e-09,-0.00096124164273885,0.000961245298555,1.4466867321619e-08,-1.0561550579541e-08,-0.00080212692184141,0.00080211366620997,-0.00074144325768572,0.00074142000892056,-0.00074144067434667,0.00074142260411312,-0.00080210997344485,0.00080213061999643,-0.00080210243391305,0.00080213811641567,-0.0007414185602932,0.00074144473731981,-0.00074141600235454,0.00074144726631556,-0.0011601586375628,0.0011601730744183,-0.0011601670014924,0.0011601647168018,-0.0011601612088324,0.0011601705107264,-0.0011601695780952,0.001160162138101,-0.0011946730053343,0.0011946606250971,-0.0011946654379189,0.0011946681991184,-0.0011946571015409,0.0011946765220764,-0.0011946646541655,0.0011946689836132,-0.00080213446927876,0.00080210609327016,0.68273835800204,129487,2954,0.0042137972930812,0.0061453769705835,0.0039978520343933,29.21264488511,-6.2988409191228e-06,-6.2988409191228e-06,-6.2988409191228e-06,3622951.036812,0.014461404659915
32991759,0.8312715438568,0.014775694841439,0.0045998300663246,0.005808959270092,0.0043669055050219,-0.0010202493594641,0.0010202494258601,-3.8790367087383e-09,3.9445223195214e-09,5.4925180064628e-10,-4.7092104189131e-10,-0.00057049620457306,0.00057050285003919,-0.001128456631037,0.0011284531229799,-0.0011284540964366,0.0011284557602717,-0.00057050281143178,0.00057049610611071,-0.00057049507566747,0.00057050389182949,-0.0011284556989903,0.0011284541625206,-0.001128453035987,0.0011284567408675,-0.0011896365841568,0.0011896343681728,-0.0011896339563182,0.0011896369721782,-0.0011896369143301,0.001189634027749,-0.0011896343077398,0.0011896366330526,-0.00093782216431374,0.00093781423329839,-0.00093781454353528,0.00093782192955163,-0.00093782181938808,0.00093781454671858,-0.0009378142173514,0.00093782229573807,-0.00057050363106786,0.00057049516665127,-4.8328517308735e-10,5.3441590607855e-10,-1.2684302339241e-08,1.2727882536102e-08,-0.0014929020352494,0.0014929020794401,-0.0015474388784313,0.0015474635923192,-0.0013527810808105,0.001352771736261,-0.0013527800667161,0.0013527727282518,-0.0014871252646814,0.0014871165659715,-0.0014871168236606,0.0014871249270259,-0.0014871249218883,0.0014871169074139,-0.0014871164875664,0.001487125263102,-0.0015474639357805,0.0015474393290624,-0.0015474385395557,0.0015474639233472,-0.0013527726220367,0.0013527800587561,-0.0013527716073054,0.0013527810486603,-0.0015474642905322,0.0015474389768533,5.7165737747717e-09,-2.0949442410973e-09,-0.00096856902224329,0.00096857270076907,1.4777589095915e-08,-1.0847187502662e-08,-0.00080814896961068,0.00080813522532118,-0.00074668234834335,0.00074665851802409,-0.00074667974195226,0.00074666113653713,-0.00080813152559438,0.00080815267580371,-0.00080812388220206,0.00080816027523611,-0.00074665707172892,0.00074668382711924,-0.00074665447665466,0.00074668639256932,-0.001169572751852,0.0011695874413835,-0.0011695813169492,0.0011695788826625,-0.0011695753556709,0.0011695848453914,-0.0011695839211564,0.0011695762762172,-0.0012048109483199,0.0012047983094197,-0.001204803298724,0.0012048059655588,-0.0012047947581063,0.0012048144927368,-0.0012048024058178,0.0012048068589961,-0.00080815658807985,0.00080812758207124,0.71399333666313,129487,2954,0.004245613684329,0.0061992703408442,0.0040282832834444,29.153645390973,-6.7708368722173e-06,-6.7708368722173e-06,-6.7708368722173e-06,3632104.0155582,0.014579246451494
33191759,0.83805465435627,0.014897767424559,0.0046366214846437,0.0058601637635911,0.0044009821763247,-0.0010278721595446,0.0010278722363821,-3.9167489742427e-09,3.9924229256613e-09,5.170016050735e-10,-4.2714158702948e-10,-0.00057401934981105,0.0005740261637806,-0.0011379663713069,0.0011379629209203,-0.0011379638075213,0.0011379655860603,-0.00057402611444218,0.00057401925940271,-0.00057401829650194,0.00057402713327258,-0.0011379655126782,0.0011379638844109,-0.0011379628234409,0.001137966493118,-0.0011989205540072,0.0011989182941977,-0.001198917897115,0.0011989209265987,-0.001198920858703,0.0011989179789814,-0.0011989182235754,0.0011989206126976,-0.00094406299377274,0.00094405501427697,-0.00094405529016672,0.00094406279531395,-0.00094406267392104,0.00094405530186194,-0.00094405498950805,0.00094406313698953,-0.00057402685897821,0.00057401839809051,-4.4454040833096e-10,4.9656328206053e-10,-1.3021032377075e-08,1.3065757777186e-08,-0.0015059634991881,0.0015059635444943,-0.0015613389568794,0.0015613643591147,-0.0013642191525949,0.0013642096586488,-0.0013642182117972,0.0013642105746708,-0.0015002098158865,0.0015002009217596,-0.0015002011553454,0.0015002095068941,-0.0015002094976056,0.0015002012375529,-0.0015002008442937,0.0015002098168867,-0.001561364702325,0.0015613394095254,-0.0015613386429406,0.0015613646644736,-0.0013642104677851,0.001364218206998,-0.0013642095280136,0.0013642191193601,-0.0015613650319952,0.001561339083125,5.7506594239785e-09,-2.1464005053607e-09,-0.00097588508579478,0.00097588874783181,1.510732497918e-08,-1.1193706126837e-08,-0.00081454484574434,0.00081453050495057,-0.00075198566182394,0.00075196112317813,-0.00075198302680534,0.00075196377039122,-0.00081452682287901,0.00081454853538625,-0.00081451909503088,0.00081455621786113,-0.00075195971933224,0.00075198709910016,-0.00075195709579568,0.00075198969190167,-0.0011788353628027,0.0011788502886924,-0.001178844152773,0.0011788415052418,-0.0011788379952194,0.0011788476644761,-0.0011788467855067,0.0011788388703065,-0.0012152166422997,0.0012152036771356,-0.0012152089086405,0.0012152114167925,-0.0012152001434712,0.001215220168474,-0.0012152078748863,0.0012152124516482,-0.00081455254828947,0.00081452277842018,0.75848139754138,129487,2954,0.0042773080247583,0.0062533133549767,0.0040586664402619,29.094613185033,-7.2430945197347e-06,-7.2430945197347e-06,-7.2430945197347e-06,3633139.323645,0.014697079036691
33391759,0.844663014564,0.015018728550969,0.0046730304399712,0.0059109331080945,0.0044347650029031,-0.0010357348594986,0.0010357349597448,-3.9365408293504e-09,4.0351152830715e-09,4.282364566702e-10,-3.1247189443341e-10,-0.00057740734145917,0.00057741452075182,-0.0011478366630423,0.0011478333896788,-0.0011478340506393,0.0011478361034052,-0.00057741436444601,0.00057740735745043,-0.00057740657497068,0.00057741520890455,-0.0011478359750368,0.0011478341807107,-0.0011478332960211,0.0011478367821728,-0.0012085218412056,0.0012085195253347,-0.0012085191715791,0.0012085221678549,-0.0012085220877628,0.0012085192674019,-0.0012085194214334,0.0012085219314758,-0.00095067434308345,0.00095066636378631,-0.00095066654771326,0.00095067423328253,-0.00095067406209144,0.00095066661254151,-0.00095066634319902,0.00095067447838165,-0.00057741499158434,0.00057740661423957,-3.4310142633988e-10,3.8854837084928e-10,-1.365887515721e-08,1.3698018148595e-08,-0.0015194430851984,0.0015194431249125,-0.0015758627460997,0.0015758894295215,-0.0013761014257385,0.0013760917389317,-0.001376100718047,0.0013760924185891,-0.0015135377004687,0.0015135284608352,-0.001513528634718,0.0015135374593235,-0.001513537459885,0.001513528696539,-0.0015135283818229,0.0015135377081348,-0.0015758897999218,0.0015758631581466,-0.0015758624704885,0.0015758896917768,-0.001376092350325,0.0013761006836395,-0.0013760915839512,0.0013761014139524,-0.0015758900313238,0.0015758629295101,5.7517006061564e-09,-2.2540626505215e-09,-0.00098342799995794,0.00098343155475202,1.5730843807608e-08,-1.1930949484757e-08,-0.00082102666567855,0.00082101090315961,-0.00075745694960456,0.00075743095380451,-0.00075745430667746,0.00075743361013786,-0.00082100741536839,0.00082103016366682,-0.00082099949380788,0.00082103803808412,-0.00075742969822782,0.00075745824115045,-0.00075742700847722,0.00075746089849076,-0.0011884044010768,0.0011884197196619,-0.0011884136535358,0.0011884104738644,-0.0011884070796548,0.0011884170501467,-0.0011884163123868,0.0011884078128256,-0.0012260455972998,0.0012260319961482,-0.0012260377856324,0.0012260398126797,-0.0012260285380095,0.0012260490464903,-0.0012260364055426,0.0012260411953125,-0.00082103439357938,0.00082100314905069,0.77139461514879,129487,2954,0.0043100091748182,0.006309079086493,0.0040899896711235,29.271035798682,-5.8317136105447e-06,-5.8317136105447e-06,-5.8317136105447e-06,3629264.1414273,0.014818651104654
33591759,0.85114212722162,0.015139495694455,0.0047093472680325,0.0059616482613893,0.004468500165033,-0.0010437639751489,0.0010437640959245,-3.9655776566776e-09,4.0841475424784e-09,3.5068825709682e-10,-2.1170228816983e-10,-0.00058094338159379,0.00058095085670984,-0.0011579506229481,0.0011579475140933,-0.0011579479754041,0.0011579502599765,-0.00058095066402093,0.0005809434335739,-0.00058094280401307,0.00058095135242696,-0.0011579501021049,0.0011579481340618,-0.0011579474042253,0.0011579507582913,-0.0012182800529549,0.0012182776735891,-0.001218277357852,0.0012182803386785,-0.001218280241699,0.0012182774733585,-0.0012182775479058,0.0012182801633385,-0.00095754548975826,0.00095753751126036,-0.00095753760880447,0.00095754545233287,-0.00095754526486614,0.00095753770052576,-0.00095753746757786,0.00095754563768006,-0.00058095112872513,0.00058094285547596,-2.481966762325e-10,2.8655318184258e-10,-1.437192036011e-08,1.4404953565204e-08,-0.0015331213507512,0.0015331213841164,-0.0015906759947812,0.00159070412298,-0.0013882057695887,0.0013881957987482,-0.0013882052521154,0.0013881962773048,-0.0015269967823158,0.0015269871346197,-0.0015269872547288,0.0015269966049044,-0.0015269966067933,0.0015269873020347,-0.0015269870647593,0.0015269967893467,-0.0015907044952795,0.0015906763841256,-0.0015906757807075,0.0015907043278581,-0.0013881962226885,0.0013882052145948,-0.0013881956482106,0.0013882057515417,-0.0015907046579435,0.0015906762296838,5.7273260457089e-09,-2.3715721442901e-09,-0.00099111506743531,0.0009911184785852,1.6395952249575e-08,-1.2749399120336e-08,-0.00082756973761935,0.00082755243615015,-0.00076312279691193,0.00076309516699747,-0.00076312012875004,0.00076309784745561,-0.00082754911647056,0.0008275730703525,-0.0008275410878563,0.00082758104645131,-0.00076309409092807,0.00076312391013325,-0.00076309136605527,0.00076312659949983,-0.0011981180159189,0.0011981337199661,-0.0011981277629911,0.0011981239799348,-0.0011981207280184,0.0011981310173737,-0.0011981304519708,0.0011981212886704,-0.0012370570094178,0.0012370426899452,-0.0012370491120818,0.0012370505915105,-0.0012370393647262,0.0012370603247409,-0.0012370473292305,0.001237052378173,-0.00082757753681215,0.00082754461685764,0.78538310764459,129487,2954,0.0043434044838785,0.0063656619528953,0.0041219093540475,29.571366748586,-3.4290660113143e-06,-3.4290660113143e-06,-3.4290660113143e-06,3624971.6471209,0.014942376867406
33791759,0.85748843464432,0.015257540181606,0.0047448173827625,0.0060112740389806,0.0045014487598625,-0.0010516089402088,0.0010516090738855,-4.013832061421e-09,4.1449249543731e-09,3.0656106385817e-10,-1.5300807932585e-10,-0.00058413795471278,0.00058414558098435,-0.0011677720278161,0.0011677690218453,-0.0011677693666126,0.0011677717793476,-0.00058414544520507,0.00058413795566651,-0.00058413741426502,0.00058414604331856,-0.0011677716300234,0.0011677695164589,-0.0011677688744497,0.0011677722001603,-0.0012278754719114,0.0012278730264865,-0.00122787273153,0.0012278757348734,-0.001227875618098,0.001227872868511,-0.0012278728959715,0.0012278755859499,-0.00096426508036807,0.00096425706915516,-0.00096425711366583,0.00096426508484342,-0.00096426491549447,0.00096425719570415,-0.00096425698260146,0.00096426526269115,-0.0005841457425457,0.00058413754700685,-2.080937767309e-10,2.4275132802533e-10,-1.5019222313656e-08,1.5049026925381e-08,-0.0015466202526217,0.0015466202826865,-0.0016052904147366,0.0016053198545757,-0.001400186782378,0.0014001764358002,-0.0014001863221042,0.001400176856531,-0.0015402299167527,0.0015402198601467,-0.0015402199606988,0.0015402297693061,-0.0015402297611053,0.0015402200071693,-0.0015402198059875,0.0015402299170217,-0.0016053201974038,0.0016052908142188,-0.0016052902498537,0.0016053200070221,-0.0014001767834702,0.0014001863095751,-0.0014001763136314,0.0014001867356426,-0.0016053203545476,0.0016052906642539,5.7064887925668e-09,-2.4545008447318e-09,-0.00099859923261478,0.00099860253814084,1.6926444245872e-08,-1.3392565364336e-08,-0.00083373190898944,0.00083371348085628,-0.00076855347766269,0.00076852453712526,-0.00076855076467947,0.00076852726328254,-0.00083371020019937,0.00083373520350475,-0.00083370217563204,0.00083374317405574,-0.0007685235930883,0.00076855446037524,-0.00076852087007395,0.00076855714633866,-0.0012076689749745,0.001207684978732,-0.0012076791040607,0.0012076748569872,-0.0012076717001249,0.0012076822638402,-0.0012076818221184,0.0012076721367596,-0.0012478318489293,0.001247816952702,-0.0012478238669526,0.0012478249384753,-0.0012478137526082,0.0012478350379515,-0.0012478217547112,0.001247827055789,-0.00083373984147535,0.00083370552685753,0.7836769134574,129487,2954,0.0043760376339304,0.0064214980328013,0.0041529861043258,29.874967234555,-1.0002621235557e-06,-1.0002621235557e-06,-1.0002621235557e-06,3620055.5165383,0.015063731282042
33991759,0.86369744399808,0.015369064139092,0.0047783211765379,0.0060582292652922,0.0045325136972619,-0.0010591065761998,0.0010591067150074,-4.0523234109779e-09,4.188317008761e-09,2.9279505751786e-10,-1.3316101581649e-10,-0.00058692066838356,0.00058692842342302,-0.0011768976113615,0.0011768946147434,-0.0011768949217431,0.0011768974031849,-0.00058692827404229,0.00058692068525621,-0.00058692017355193,0.00058692884546037,-0.0011768972454359,0.0011768950802067,-0.0011768944636995,0.0011768977870043,-0.0012371438618566,0.0012371413840652,-0.0012371410940221,0.0012371441170426,-0.0012371439977557,0.0012371412354726,-0.0012371412466254,0.0012371439810633,-0.00097055208899705,0.00097054400961666,-0.00097054403618947,0.00097055210734788,-0.00097055193396798,0.00097054413122788,-0.00097054391734836,0.00097055226810581,-0.0005869285498653,0.00058692030332896,-1.9049760031143e-10,2.2320165787198e-10,-1.5541992783907e-08,1.5570068877995e-08,-0.0015596289203787,0.0015596289486811,-0.0016191605736159,0.0016191910472267,-0.0014117734542337,0.0014117628044015,-0.0014117730347734,0.0014117631823573,-0.0015530239257493,0.0015530135387626,-0.0015530136325627,0.0015530237928663,-0.0015530237838161,0.0015530136715789,-0.0015530134885459,0.0015530239294035,-0.0016191913856646,0.0016191609616618,-0.0016191604188855,0.0016191911887588,-0.0014117631190947,0.001411773018113,-0.0014117626795159,0.0014117734113957,-0.0016191915286219,0.0016191608259174,5.6972376680206e-09,-2.5530488319893e-09,-0.0010057374485828,0.0010057406447315,1.739615305476e-08,-1.3978688682884e-08,-0.00083926954388926,0.00083925004977383,-0.00077359932026433,0.00077356919995031,-0.00077359658102767,0.00077357195219529,-0.00083924688390416,0.0008392727247314,-0.00083923877121633,0.00083928078223024,-0.00077356839978913,0.00077360015982406,-0.00077356564286001,0.00077360287864574,-0.001216920294969,0.001216936574914,-0.0012169307773868,0.0012169260999362,-0.0012169230513884,0.0012169338290172,-0.0012169335240437,0.0012169233511777,-0.0012580456959982,0.0012580302575081,-0.001258037628427,0.0012580383284532,-0.0012580271602703,0.0012580487816277,-0.0012580352527715,0.0012580407097046,-0.00083927755991081,0.00083924201320229,0.75679008219494,129487,2954,0.004407226079813,0.0064753034546082,0.0041826263696581,30.178699810341,1.4295984827297e-06,1.4295984827297e-06,1.4295984827297e-06,3617313.6481418,0.015180115271902
34191759,0.86985609804619,0.015477450650223,0.0048108881726492,0.0061038838366674,0.0045626786409067,-0.0010669778058414,0.0010669779558771,-4.0858882980054e-09,4.2327801880737e-09,2.5879758141153e-10,-8.6301259144008e-11,-0.00059036832998451,0.00059037628416473,-0.0011862481642207,0.0011862452234479,-0.001186245438705,0.0011862480487895,-0.00059037609401466,0.00059036839059648,-0.00059036794575603,0.00059037659513345,-0.0011862478680519,0.001186245620406,-0.0011862450695407,0.0011862483413142,-0.0012467317152385,0.0012467291988835,-0.0012467289231732,0.0012467319525949,-0.0012467318274056,0.0012467290730894,-0.0012467290461121,0.0012467318476049,-0.00097714135513991,0.00097713322670827,-0.00097713321062854,0.00097714140638243,-0.00097714121777784,0.00097713333234752,-0.00097713312818079,0.0009771415291169,-0.00059037631997142,0.00059036805856906,-1.5144737134265e-10,1.8030171664162e-10,-1.6116279939858e-08,1.6140985121572e-08,-0.0015728086338525,0.0015728086586628,-0.0016329638672171,0.0016329954777016,-0.0014235467846874,0.0014235358431796,-0.0014235464545516,0.0014235361283411,-0.0015661109388757,0.0015661002020613,-0.0015661002775304,0.0015661108348515,-0.001566110827048,0.0015661003036925,-0.0015661001565433,0.001566110947238,-0.0016329958193374,0.0016329642313855,-0.001632963729099,0.0016329956018518,-0.0014235360833031,0.0014235464285148,-0.0014235357127213,0.0014235467495513,-0.0016329959252186,0.0016329641334559,5.6661878106753e-09,-2.6772006367075e-09,-0.0010132897045016,0.0010132927436745,1.7899093172924e-08,-1.4648819632844e-08,-0.00084529279125327,0.00084527204010854,-0.00077916258519277,0.00077913112570068,-0.00077915982568253,0.00077913389848171,-0.00084526906761743,0.00084529578014686,-0.00084526083226011,0.00084530395793529,-0.00077913052014209,0.0007791632312575,-0.00077912772119694,0.00077916599041057,-0.0012265196667411,0.0012265362176004,-0.001226530543004,0.0012265253489639,-0.0012265224580573,0.0012265334372748,-0.0012265333171042,0.0012265225728032,-0.001268449467503,0.0012684334055759,-0.0012684413189607,0.0012684415567902,-0.0012684304494659,0.0012684524110557,-0.0012684386441482,0.0012684442383727,-0.00084530086785196,0.00084526394362141,0.7415368526691,129487,2954,0.0044399565631279,0.0065298168864,0.0042139830784554,30.744049694375,5.9523975549969e-06,5.9523975549969e-06,5.9523975549969e-06,3620900.6221044,0.015300539203697
34391759,0.87597930446758,0.015584339895738,0.0048429984201441,0.0061489144181194,0.0045924270574746,-0.0010749374659166,0.0010749376211108,-4.1215147934345e-09,4.2732615035149e-09,2.4554769642172e-10,-6.6863346429487e-11,-0.00059403035602715,0.00059403849870738,-0.0011956323206095,0.0011956293687649,-0.001195629545085,0.001195632242491,-0.00059403823175021,0.00059403048988953,-0.0005940300736144,0.00059403870975603,-0.0011956320322172,0.0011956297553854,-0.0011956292330135,0.0011956324806247,-0.0012563679268757,0.001256365387412,-0.0012563651170824,0.0012563681573267,-0.001256368036601,0.0012563652653556,-0.0012563652210798,0.0012563680716384,-0.00098381146212088,0.00098380325298797,-0.00098380321669399,0.00098381152341453,-0.00098381131335176,0.00098380336803032,-0.00098380316743015,0.00098381161530745,-0.00059403849644889,0.00059403012556838,-1.4034873557482e-10,1.684141160423e-10,-1.6568311238347e-08,1.6592644996791e-08,-0.0015859639651788,0.0015859639891027,-0.0016466399847761,0.0016466724655348,-0.0014352737649094,0.0014352625655321,-0.0014352734766943,0.0014352628040088,-0.0015792317498021,0.0015792207278553,-0.0015792207983609,0.0015792316529027,-0.0015792316536357,0.001579220814333,-0.0015792206769152,0.0015792317664857,-0.0016466728305759,0.0016466403250241,-0.0016466398319485,0.001646672605009,-0.001435262784023,0.001435273429775,-0.0014352624142051,0.0014352737489228,-0.0016466729061951,0.0016466402606942,5.6839444259582e-09,-2.7544944003148e-09,-0.001020963155431,0.0010209661348044,1.8397565622205e-08,-1.5210041445424e-08,-0.00085157685336011,0.0008515550186572,-0.00078488590256955,0.00078485333284777,-0.00078488313567919,0.00078485611436301,-0.00085155217800643,0.0008515797119971,-0.00085154378415513,0.00085158804310559,-0.00078485281801806,0.00078488645870453,-0.00078484996461206,0.00078488926991082,-0.0012361834831026,0.0012362003679566,-0.0012361947203082,0.0012361891382989,-0.0012361863144829,0.0012361975476478,-0.0012361975190772,0.0012361863384857,-0.0012788340548231,0.0012788175133359,-0.0012788258363278,0.0012788257353995,-0.0012788145922165,0.0012788369632419,-0.001278822902706,0.0012788286754748,-0.00085158494850793,0.00085154690745191,0.73560164712939,129487,2954,0.0044730483405428,0.0065842284719926,0.0042458418272885,31.386608104084,1.1092864832672e-05,1.1092864832672e-05,1.1092864832672e-05,3627323.9897763,0.01542175004411
34591759,0.88205395077498,0.01569423144002,0.0048759912397553,0.0061951619841038,0.0046230782161611,-0.0010830439282037,0.0010830441116094,-4.1573340146525e-09,4.3373604264104e-09,2.8399045393363e-10,-7.7456542049926e-11,-0.00059803254945944,0.00059804068060575,-0.0012054397153747,0.0012054367365087,-0.0012054369315336,0.0012054396153922,-0.00059804047153222,0.00059803263082814,-0.00059803213894095,0.00059804102306719,-0.0012054394031422,0.001205437144661,-0.0012054365463161,0.0012054399296245,-0.0012660655665534,0.0012660630285055,-0.0012660627132699,0.0012660658411424,-0.0012660656821843,0.0012660628991122,-0.0012660628434169,0.0012660657290988,-0.00099072071064898,0.00099071244626384,-0.0009907123984623,0.00099072078594413,-0.00099072057620642,0.0009907125482988,-0.00099071230299916,0.00099072092287114,-0.00059804070093778,0.00059803229865945,-1.6104277388616e-10,1.8992295699874e-10,-1.6943924777111e-08,1.6968687034053e-08,-0.0015992326336905,0.0015992326584075,-0.0016605881071988,0.001660621336052,-0.0014470394978366,0.0014470279750146,-0.0014470391394478,0.0014470282871299,-0.0015924449803721,0.001592433686892,-0.001592433771514,0.0015924448728211,-0.0015924448612295,0.0015924337964661,-0.0015924336462908,0.0015924449900383,-0.0016606216724417,0.0016605884718504,-0.0016605879655258,0.001660621463896,-0.0014470282354729,0.0014470391233786,-0.0014470278532061,0.0014470394537549,-0.0016606217879305,0.0016605883649287,5.7057013760483e-09,-2.803917333206e-09,-0.0010288038531026,0.0010288068045769,1.8685976091742e-08,-1.552741415745e-08,-0.0008583518700925,0.00085832957416931,-0.00079089824795716,0.00079086500197693,-0.00079089542839349,0.00079086783543314,-0.00085832668200476,0.00085835478031263,-0.00085831829369559,0.00085836310873234,-0.00079086453964364,0.00079089875259419,-0.00079086169028379,0.00079090156041747,-0.0012458856658756,0.0012459027379903,-0.001245897094577,0.0012458913169405,-0.0012458885113363,0.001245899903712,-0.0012458999262705,0.0012458884832949,-0.0012894508585045,0.0012894339884923,-0.0012894425430709,0.0012894423066712,-0.001289431122723,0.0012894537113144,-0.0012894394757047,0.0012894453809417,-0.00085836012042054,0.0008583213063434,0.76226247176648,129487,2954,0.004506747054004,0.0066391059475634,0.0042783934559587,32.031249749278,1.6249997994223e-05,1.6249997994223e-05,1.6249997994223e-05,3633168.0391346,0.015544766214754
34791759,0.88814460397526,0.015808690965149,0.0049103168356169,0.0062433193312826,0.0046550547982495,-0.0010917535778363,0.0010917537742413,-4.1611482884232e-09,4.3539598092224e-09,2.8220940134356e-10,-6.1895486076564e-11,-0.00060233838324154,0.00060234681938043,-0.0012161660356361,0.0012161629955004,-0.0012161631596271,0.00121616596628,-0.00060234634564357,0.00060233872494985,-0.00060233824318976,0.00060234689996588,-0.0012161656551638,0.0012161634702434,-0.0012161628771574,0.0012161661799814,-0.0012764089398157,0.001276406431472,-0.0012764061083673,0.0012764092203928,-0.0012764090789169,0.0012764062784123,-0.001276406203456,0.0012764091435586,-0.00099835530343612,0.00099834695117516,-0.00099834688538367,0.0009983553978666,-0.00099835509121567,0.00099834713625546,-0.0009983468794973,0.00099835543991764,-0.00060234681169485,0.00060233816766869,-1.4268504587862e-10,1.6991959354364e-10,-1.7327498327997e-08,1.7350856428305e-08,-0.001613360844293,0.0016133608674864,-0.0016756862637903,0.0016757201733505,-0.0014595984412455,0.0014595867901987,-0.0014595982054336,0.0014595869754288,-0.0016063652201085,0.0016063537162129,-0.0016063537897078,0.0016063651239144,-0.0016063651426065,0.0016063537829931,-0.0016063536479235,0.0016063652577016,-0.0016757205966233,0.0016756865449681,-0.0016756860521617,0.0016757203734253,-0.0014595870141902,0.0014595981025802,-0.00145958658303,0.0014595984823897,-0.0016757206168822,0.001675686535617,5.7486453354193e-09,-2.9118988197766e-09,-0.0010372424345536,0.0010372453209332,1.9184397181416e-08,-1.6093974572808e-08,-0.00086582404380412,0.00086580053667215,-0.00079747327893622,0.00079743895453943,-0.0007974704955999,0.00079744175159221,-0.00086579795281048,0.00086582664736955,-0.00086578918136695,0.00086583535588961,-0.0007974386072912,0.00079747366985197,-0.00079743562226886,0.00079747661154826,-0.0012561985590743,0.0012562160015095,-0.001256210372038,0.0012562041963267,-0.0012562014845732,0.0012562130873107,-0.0012562132248907,0.0012562013412894,-0.0013009578357634,0.0013009404836495,-0.001300949457268,0.0013009488649513,-0.0013009375969795,0.0013009607092751,-0.0013009461831564,0.0013009521461812,-0.00086583219738974,0.00086579236823871,0.79180217491444,129487,2954,0.0045429569827518,0.0066975327491654,0.0043134248493601,32.909253813194,2.3274030505555e-05,2.3274030505555e-05,2.3274030505555e-05,3635208.1868149,0.015676471537742
34991759,0.89428221379695,0.015918638336015,0.004943260329898,0.006289692623041,0.0046856853830757,-0.0011004653910773,0.001100465609096,-4.2046753036439e-09,4.4188464382598e-09,2.4811836683068e-10,-5.8362853525475e-12,-0.0006059996108272,0.00060600818980911,-0.0012265264434188,0.0012265234936066,-0.0012265235479541,0.0012265264857656,-0.00060600772949676,0.00060599994346816,-0.00060599953814591,0.00060600822133472,-0.0012265261559518,0.0012265238712451,-0.0012265233448994,0.0012265266153251,-0.0012869524190217,0.0012869498622759,-0.0012869495476891,0.0012869526905675,-0.0012869525250643,0.0012869497437034,-0.0012869496140365,0.0012869526416554,-0.0010058837142169,0.0010058753207594,-0.0010058752002772,0.0010058838541583,-0.001005883542646,0.001005875458346,-0.0010058752094649,0.001005883883358,-0.00060600807555269,0.00060599948790385,-1.4339663643413e-10,1.7038490085088e-10,-1.7844984476297e-08,1.7868436875254e-08,-0.0016277101389597,0.0016277101622734,-0.0016908240053915,0.0016908589392095,-0.0014724588671502,0.0014724468488153,-0.0014724586280908,0.0014724470695962,-0.0016204486200428,0.0016204367692223,-0.0016204368497141,0.0016204485275071,-0.0016204485429985,0.001620436844327,-0.0016204367066376,0.0016204486576581,-0.0016908593450668,0.0016908242914521,-0.0016908237839464,0.001690859109748,-0.0014724470889409,0.0014724585471799,-0.0014724466592335,0.0014724588952344,-0.0016908593594057,0.0016908242669577,5.750742456089e-09,-2.9729859841939e-09,-0.0010456597628329,0.0010456625902462,1.9604659874422e-08,-1.657621219178e-08,-0.00087268881609749,0.00087266448236357,-0.00080377974341841,0.0008037444300628,-0.00080377692562111,0.00080374727770439,-0.00087266194295488,0.00087269137634078,-0.00087265307949312,0.00087270017985113,-0.00080374417570077,0.0008037800448039,-0.00080374117181896,0.0008037830046437,-0.0012667469432196,0.0012667646436298,-0.00126675905289,0.0012667525409276,-0.0012667498862894,0.0012667617141734,-0.0012667619295272,0.0012667496657023,-0.0013124450681779,0.0013124272886264,-0.0013124366207606,0.0013124357398931,-0.0013124244669156,0.0013124478712036,-0.0013124331081453,0.0013124392612407,-0.00087269706725087,0.00087265618137009,0.75494740923145,129487,2954,0.0045791836211547,0.0067568681471289,0.0043483677795041,33.939724345913,3.1517794767302e-05,3.1517794767302e-05,3.1517794767302e-05,3635840.5805623,0.01580904897565
35191759,0.90044315121042,0.016026157107293,0.0049754755784205,0.0063350792987101,0.0047156022301623,-0.0011091497428897,0.0011091499654238,-4.2581211931146e-09,4.4769138378847e-09,2.6589746407382e-10,-1.8098676421388e-11,-0.00061001253336515,0.00061002112793681,-0.0012366653148647,0.0012366623332649,-0.0012366624097382,0.0012366653307143,-0.00061002076209492,0.00061001276862152,-0.00061001232402625,0.00061002128611921,-0.001236665033562,0.0012366627056481,-0.0012366621451324,0.0012366655278331,-0.0012974027394283,0.0012974001483144,-0.0012973998190985,0.0012974030252596,-0.001297402842876,0.0012974000311404,-0.0012973999102767,0.0012974029520607,-0.0010132611178596,0.0010132526483102,-0.0010132525366822,0.0010132612559713,-0.0010132609793549,0.0010132527585432,-0.0010132524938715,0.0010132613353948,-0.00061002103443083,0.00061001240461881,-1.4274338893451e-10,1.7013250291441e-10,-1.8238366152051e-08,1.8261981389181e-08,-0.0016418046911633,0.001641804714668,-0.0017054236980251,0.0017054594316382,-0.0014850656379304,0.0014850533240112,-0.0014850653491721,0.0014850535692949,-0.0016344491241473,0.0016344370036371,-0.0016344370829751,0.0016344490322072,-0.001634449031875,0.0016344370874859,-0.0016344369549759,0.001634449151309,-0.0017054598045411,0.0017054240147602,-0.0017054235220165,0.0017054595835991,-0.0014850535527721,0.0014850653054012,-0.0014850531723324,0.0014850656244046,-0.0017054598632345,0.0017054239615222,5.7619424430988e-09,-3.0221288140171e-09,-0.0010540705130631,0.0010540733025918,1.9932146183072e-08,-1.6943704680269e-08,-0.00087955592088649,0.00087953101383961,-0.00081019101528524,0.0008101549275375,-0.00081018814024278,0.00081015781833126,-0.00087952840305893,0.00087955855309543,-0.00087951962412694,0.0008795672714222,-0.00081015472216588,0.0008101912646604,-0.00081015174197503,0.00081019420143874,-0.0012772366242715,0.0012772545267656,-0.0012772489515729,0.00127724220684,-0.0012772395751422,0.0012772515879663,-0.0012772518630598,0.0012772392945518,-0.0013236504306752,0.0013236322838925,-0.0013236418846518,0.0013236408308706,-0.0013236295395371,0.0013236531601226,-0.0013236381990942,0.0013236445243386,-0.00087956433527443,0.00087952257983141,0.73556804767683,129487,2954,0.0046152848660455,0.0068151502486529,0.0043832818108635,34.974211744174,3.979369395339e-05,3.979369395339e-05,3.979369395339e-05,3642688.4638696,0.015940415974491
35391759,0.90654510450971,0.016129637810651,0.0050064721850787,0.0063787977988174,0.004744367826755,-0.0011173389734191,0.0011173391767053,-4.3122213158929e-09,4.511852052311e-09,3.4598483687132e-10,-1.1892183081382e-10,-0.00061368520186587,0.00061369363582329,-0.0012460770685462,0.0012460738748235,-0.0012460741500636,0.0012460768877477,-0.00061369333245487,0.00061368537097167,-0.00061368477289993,0.00061369402015073,-0.0012460766262394,0.0012460744118045,-0.0012460736911883,0.0012460772759372,-0.0013073157434298,0.0013073131589809,-0.0013073127884856,0.0013073160697123,-0.0013073159019194,0.0013073129861509,-0.0013073129437621,0.0013073159323124,-0.0010200575535831,0.0010200489325641,-0.0010200488996211,0.0010200576124397,-0.0010200573702778,0.0010200490893772,-0.0010200487812833,0.0010200577657604,-0.00061369374378983,0.00061368487138131,-2.1810924661811e-10,2.528530014629e-10,-1.8292583654449e-08,1.8322714519766e-08,-0.0016552077659244,0.0016552077960866,-0.001719121335775,0.0017191571533111,-0.0014969989710948,0.0014969864607724,-0.0014969985157875,0.0014969868751708,-0.0016478520361147,0.0016478398288321,-0.0016478399526359,0.0016478518967804,-0.0016478518880059,0.0016478399700568,-0.0016478397767355,0.0016478520652254,-0.0017191575092995,0.0017191216805971,-0.0017191211234211,0.0017191573424376,-0.0014969868385199,0.0014969984889652,-0.0014969863146056,0.0014969989529644,-0.0017191576361159,0.0017191215575084,5.8221314401163e-09,-3.0440258094172e-09,-0.0010620197883936,0.0010620226178743,1.9998073546367e-08,-1.6966271725273e-08,-0.00088598239585928,0.00088595758183494,-0.00081615281160934,0.00081611663794912,-0.00081614989575848,0.00081611957013882,-0.00088595487617712,0.00088598512222554,-0.00088594607151496,0.00088599386607869,-0.00081611641378311,0.00081615307934831,-0.00081611341935088,0.00081615603055991,-0.0012872219383655,0.0012872399314694,-0.0012872342911579,0.0012872275860513,-0.0012872249118765,0.0012872369698926,-0.0012872372346028,0.0012872246415941,-0.0013341466990358,0.0013341284666877,-0.0013341380567374,0.0013341371103268,-0.0013341257002555,0.0013341494509879,-0.0013341344240512,0.0013341407503161,-0.00088599094241955,0.00088594901319904,0.71497033840428,129487,2954,0.0046493228902567,0.0068705720749707,0.0044162801689961,35.839454776145,4.6715638209161e-05,4.6715638209161e-05,4.6715638209161e-05,3651277.816526,0.016064850560833
35591759,0.9124959792439,0.0162256894669,0.0050352344932759,0.0064194325649107,0.0047710224087136,-0.0011247436634536,0.0011247438306826,-4.3711027782812e-09,4.5350829674901e-09,4.5960345937098e-10,-2.7093501959172e-10,-0.00061679268780911,0.00061680094760051,-0.0012543440650632,0.001254340533003,-0.0012543411066455,0.001254343584471,-0.00061680064000113,0.00061679285437052,-0.00061679203652273,0.00061680155724041,-0.0012543433502728,0.001254341342797,-0.0012543403990373,0.0012543442241163,-0.0013164003592684,0.001316397804017,-0.0013163973816616,0.0013164007383597,-0.0013164006098397,0.0013163975389603,-0.001316397620069,0.0013164005166148,-0.0010259635244188,0.0010259546870575,-0.0010259547772067,0.0010259634600769,-0.0010259632395911,0.00102595494359,-0.0010259545853065,0.0010259636897088,-0.00061680135292869,0.00061679206163076,-3.4757858252172e-10,3.9678881409468e-10,-1.8042532381315e-08,1.808570885095e-08,-0.0016675240097636,0.00166752405295,-0.0017314294140711,0.0017314646657395,-0.0015079120713119,0.001507899479817,-0.0015079113616144,0.0015079001518162,-0.0016602858143727,0.0016602736942697,-0.0016602738919122,0.0016602855936916,-0.0016602855811553,0.0016602739227803,-0.0016602736230268,0.0016602858582849,-0.0017314650308631,0.0017314297722033,-0.0017314291022966,0.0017314649586375,-0.0015079001109079,0.001507911330088,-0.0015078993078648,0.0015079120808817,-0.001731465238487,0.001731429568516,5.9158904122411e-09,-3.0393372960378e-09,-0.0010692172507704,0.0010692201810352,1.9841740207104e-08,-1.6701204389089e-08,-0.00089157079716424,0.0008915465528963,-0.00082138110665694,0.00082134543933033,-0.0008213781744207,0.00082134838709396,-0.00089154377750126,0.00089157359113352,-0.00089153485894764,0.00089158244998506,-0.000821345134224,0.00082138145536025,-0.00082134209812385,0.00082138444837335,-0.0012964190353524,0.0012964370196058,-0.0012964312521613,0.0012964248101988,-0.0012964220425945,0.0012964340238462,-0.0012964342212087,0.0012964218397817,-0.0013435559788086,0.0013435379106554,-0.0013435472611017,0.0013435466307949,-0.0013435350358174,0.0013435588404465,-0.0013435438576241,0.0013435500406252,-0.00089157939404366,0.00089153793827042,0.68077348663777,129487,2954,0.0046800954617166,0.0069214995098384,0.0044461586813936,36.485479930355,5.1883839442839e-05,5.1883839442839e-05,5.1883839442839e-05,3662221.505791,0.016178244927557
35791759,0.91828067188735,0.016324476782135,0.0050648071773514,0.0064611153231479,0.0047985542816354,-0.0011322723842101,0.0011322725260349,-4.4278593959643e-09,4.5666585685978e-09,5.4328712189253e-10,-3.8180624390486e-10,-0.00062073450784594,0.00062074260012661,-0.0012631486194119,0.001263144849846,-0.0012631456404297,0.0012631479200342,-0.00062074234074555,0.00062073460579828,-0.00062073364193851,0.00062074344398813,-0.0012631477200691,0.0012631458386674,-0.0012631447356155,0.0012631487643474,-0.0013253885749279,0.0013253860261676,-0.0013253855650157,0.0013253889938664,-0.0013253888864901,0.0013253857001147,-0.0013253858703716,0.0013253887039198,-0.0010321307192441,0.0010321217150955,-0.0010321218898965,0.0010321305595364,-0.001032130368982,0.0010321220171377,-0.0010321216334576,0.0010321308739809,-0.00062074322191155,0.00062073365886914,-4.3501033176238e-10,4.9677533607507e-10,-1.7900583759218e-08,1.7955205546678e-08,-0.0016796900236372,0.0016796900783711,-0.0017437717844619,0.0017438067373055,-0.0015185766664416,0.0015185639787688,-0.0015185757630069,0.0015185648488423,-0.0016726193973684,0.0016726073171843,-0.0016726075652844,0.0016726191257564,-0.0016726190998082,0.0016726076122364,-0.0016726072385762,0.0016726194500493,-0.0017438071081616,0.0017437721902475,-0.0017437714193564,0.0017438070834694,-0.0015185647789186,0.0015185757476575,-0.0015185638024079,0.0015185766745329,-0.0017438073874057,0.0017437719139302,6.0273222215611e-09,-3.0107985265026e-09,-0.0010766001757555,0.0010766032522597,1.9771839585204e-08,-1.6470154091385e-08,-0.00089799569561262,0.00089797202792715,-0.00082709590810664,0.00082706065992307,-0.00082709293818454,0.0008270636456722,-0.00089796907228704,0.00089799866959719,-0.00089796010047316,0.00089800758205,-0.00082706021233606,0.00082709639966237,-0.0008270571584654,0.00082709941003923,-0.0013054824935061,0.0013055005389041,-0.0013054946055184,0.0013054884342552,-0.0013054855248662,0.0013054975188243,-0.0013054976054664,0.0013054854329061,-0.0013531266913347,0.0013531087678376,-0.0013531178839281,0.0013531175791174,-0.0013531057662288,0.0013531296801981,-0.0013531146597631,0.001353120808825,-0.00089800440421127,0.00089796329778748,0.72027366285727,129487,2954,0.0047113713803889,0.0069718063320988,0.0044768044947727,37.125774449744,5.7006195597952e-05,5.7006195597952e-05,5.7006195597952e-05,3675274.37589,0.0162923069023
35991759,0.92388690021095,0.016426164001896,0.0050952099957294,0.0065039609446956,0.0048269930614712,-0.0011397911448988,0.0011397912713838,-4.4785155385421e-09,4.602136168105e-09,6.03116543733e-10,-4.5802003515527e-10,-0.0006243311888676,0.00062433921923043,-0.0012723742654964,0.0012723703171288,-0.001272371256521,0.0012723734153233,-0.00062433896428026,0.00062433126553007,-0.00062433020144672,0.00062434020370887,-0.0012723732293045,0.0012723714373654,-0.001272370221969,0.0012723743966741,-0.0013343718996218,0.0013343693523402,-0.0013343688628496,0.0013343723500068,-0.0013343722569519,0.0013343689814289,-0.0013343692118658,0.0013343720144142,-0.0010385307046915,0.0010385215549548,-0.001038521792516,0.0010385304873414,-0.0010385303059765,0.0010385219005316,-0.0010385214946091,0.0010385308487698,-0.0006243399913341,0.00062433019133454,-4.9759148395114e-10,5.6993014531939e-10,-1.7849645302089e-08,1.7913979652218e-08,-0.0016920385827168,0.0016920386472451,-0.0017567340005509,0.0017567688287169,-0.0015293754092869,0.0015293626271568,-0.0015293743736427,0.0015293636315023,-0.0016849094676604,0.0016848973828885,-0.0016848976622487,0.0016849091567582,-0.0016849091258222,0.0016848977232385,-0.0016848972910371,0.0016849095267471,-0.0017567692056196,0.001756734431437,-0.001756733590344,0.0017567692206346,-0.0015293635468481,0.0015293743623029,-0.0015293624368042,0.0015293754250325,-0.0017567695297485,0.0017567341097204,6.143162574409e-09,-2.9801021165436e-09,-0.0010839799454952,0.0010839831734555,1.9812420981654e-08,-1.6347255280712e-08,-0.00090459384825971,0.00090457050680798,-0.00083279270347813,0.00083275767211268,-0.00083278970573965,0.00083276068584667,-0.00090456739834928,0.00090459697441924,-0.0009045583432882,0.00090460597011848,-0.00083275708664612,0.00083279333326831,-0.00083275400428775,0.00083279637192148,-0.0013144972012805,0.0013145153928273,-0.0013145092858325,0.0013145033156705,-0.0013145002611299,0.0013145123441601,-0.0013145123139286,0.0013145002860267,-0.0013630478268824,0.0013630299935917,-0.0013630389367783,0.0013630388882116,-0.0013630268477536,0.0013630509603226,-0.0013630358248733,0.0013630420051756,-0.00090460263888336,0.00090456169380914,0.7649978319225,129487,2954,0.0047426181870455,0.007022859926165,0.0045074364620922,37.765836481492,6.212669185194e-05,6.212669185194e-05,6.212669185194e-05,3679503.069278,0.016407096794742
36191759,0.92915380253571,0.016519007186843,0.0051229325779559,0.0065431573422601,0.0048529172666272,-0.0011457023249098,0.0011457024128982,-4.5474136896333e-09,4.6329448682292e-09,7.3085880958858e-10,-6.2683757960105e-10,-0.00062589619483458,0.00062590393807572,-0.001279653942813,0.0012796496473424,-0.0012796509180273,0.0012796527601063,-0.00062590376889268,0.00062589617385928,-0.00062589486929273,0.00062590527336466,-0.0012796526309581,0.0012796510396076,-0.0012796495772865,0.0012796540542696,-0.0013418110321127,0.0013418085056367,-0.0013418079577034,0.0013418115445811,-0.001341811481815,0.0013418080430537,-0.0013418084098566,0.0013418111035242,-0.0010433674661946,0.001043358100141,-0.0010433584759195,0.001043367114476,-0.0010433669841232,0.0010433585238867,-0.0010433580646166,0.0010433675952378,-0.00062590504151268,0.00062589486461497,-6.4226841303791e-10,7.3275459335751e-10,-1.755694217138e-08,1.7637716580454e-08,-0.001702703670641,0.0017027037517753,-0.0017679468324452,0.001767981035104,-0.0015386832752113,0.0015386703757974,-0.0015386819211763,0.0015386717042992,-0.001695411132429,0.0016953991425666,-0.0016953995009066,0.0016954107296387,-0.0016954106839736,0.0016953995922165,-0.0016953990353247,0.001695411196595,-0.0017679813954658,0.0017679473154933,-0.0017679463383194,0.0017679815118189,-0.0015386715765884,0.0015386819374212,-0.0015386701839993,0.0015386832877592,-0.0017679818389753,0.0017679468726839,6.2802325408539e-09,-2.9147997048845e-09,-0.0010897039025895,0.0010897073374087,1.9617227385419e-08,-1.5930005843028e-08,-0.00090910094825956,0.00090907855176738,-0.00083670672099085,0.00083667247142531,-0.00083670368138004,0.00083667552713777,-0.00090907517931409,0.00090910433653615,-0.00090906610659358,0.00090911335114591,-0.00083667168733658,0.00083670754913465,-0.00083666859957184,0.00083671059389602,-0.0013219808517324,0.0013219990573639,-0.0013219927265098,0.0013219871900135,-0.0013219839291633,0.001321995990792,-0.0013219957845692,0.0013219841302936,-0.001371249924095,0.0013712324080053,-0.0013712409462986,0.0013712413915595,-0.0013712290808346,0.0013712532398142,-0.0013712381096293,0.0013712442320078,-0.00090910986059474,0.00090906961489781,0.7436084902927,129487,2954,0.0047672044750627,0.0070669441652862,0.0045312002138588,37.870108898874,6.2960871190991e-05,6.2960871190991e-05,6.2960871190991e-05,3675211.5740384,0.016501066967675
36391759,0.93398711855254,0.016603125353536,0.0051480508322063,0.0065786811026493,0.0048763934186807,-0.0011503359901612,0.0011503360341508,-4.6185103821781e-09,4.6605213915353e-09,8.6738739635162e-10,-8.1050369546257e-10,-0.00062688394208616,0.00062689132163257,-0.0012854301611191,0.0012854255049525,-0.0012854271367106,0.0012854286176155,-0.0006268912845369,0.00062688377923833,-0.00062688221794387,0.00062689307309287,-0.0012854285652725,0.0012854271791307,-0.0012854254516907,0.001285430260739,-0.0013477688983037,0.0013477663908933,-0.0013477657820404,0.0013477694755385,-0.0013477694438384,0.0013477658329946,-0.0013477663493209,0.0013477689169319,-0.0010469558062678,0.0010469462232301,-0.0010469467532017,0.0010469553086844,-0.0010469552470413,0.001046946723059,-0.001046946205473,0.0010469559271654,-0.00062689278840377,0.00062688224855471,-7.9704249398716e-10,9.0791240570805e-10,-1.7238488101698e-08,1.7337761197002e-08,-0.0017115190367875,0.0017115191366949,-0.0017771382527549,0.0017771717937248,-0.0015462775763297,0.0015462645455853,-0.0015462758719864,0.0015462662344874,-0.0017041825733703,0.001704170686229,-0.0017041711291725,0.0017041820735593,-0.0017041820071122,0.0017041712574888,-0.00170417056573,0.0017041826407876,-0.0017771721234078,0.001777138806545,-0.0017771376789913,0.0017771723463681,-0.0015462660487667,0.0015462759292474,-0.0015462643618899,0.0015462775766726,-0.0017771727060259,0.0017771382197997,6.4251119336967e-09,-2.8427164274939e-09,-0.0010941349143644,0.0010941385707315,1.9386622766953e-08,-1.5461599384076e-08,-0.00091238075617802,0.00091235945266058,-0.00083956062491918,0.00083952724250418,-0.00083955752910499,0.00083953035563545,-0.00091235575763242,0.00091238446536212,-0.00091234670382228,0.00091239346331803,-0.00083952624484898,0.00083956166584807,-0.00083952316386678,0.00083956470529863,-0.0013279878928866,0.0013280060941096,-0.00132799952507,0.0013279944692206,-0.0013279909835909,0.0013280030139917,-0.0013280026174147,0.0013279913753944,-0.0013777729415289,0.0013777557715301,-0.0013777638616829,0.0013777648584958,-0.0013777522619323,0.0013777764405449,-0.0013777613298839,0.0013777673925632,-0.00091238983598568,0.00091235034070851,0.73413358445168,129487,2954,0.004786478621178,0.0071033805593106,0.0045495987966581,37.543288169511,6.0346305356088e-05,6.0346305356088e-05,6.0346305356088e-05,3671965.4351549,0.01657641428795
36591759,0.93842326139688,0.016675799834999,0.0051697551204347,0.0066094228795947,0.0048966218349701,-0.0011542988578427,0.0011542988827245,-4.660659434377e-09,4.6838251739443e-09,9.2064274243735e-10,-8.839893192625e-10,-0.00062747434103289,0.00062748176517605,-0.0012901219982287,0.0012901171372578,-0.0012901189147498,0.0012901203110036,-0.00062748162434099,0.00062747427028859,-0.00062747261435063,0.00062748353052037,-0.0012901202403689,0.0012901189735144,-0.0012901171435356,0.001290122042787,-0.0013529860077579,0.0013529835148339,-0.0013529828832419,0.0013529866084603,-0.0013529866085017,0.0013529829015632,-0.001352983478793,0.0013529860206153,-0.0010498500950798,0.0010498403453431,-0.0010498409396767,0.0010498495393737,-0.0010498494523248,0.0010498409283229,-0.0010498403908596,0.0010498501602003,-0.00062748337635315,0.0006274725079028,-8.4602586775518e-10,9.6843514564753e-10,-1.7223656631024e-08,1.7333634510423e-08,-0.0017192351443776,0.0017192352550611,-0.0017849363861868,0.0017849698497574,-0.0015529385822021,0.0015529255038056,-0.001552936810334,0.0015529272583899,-0.0017119339941062,0.0017119221020084,-0.0017119225679773,0.0017119334657275,-0.0017119334045082,0.0017119226966099,-0.0017119219558215,0.0017119340833057,-0.0017849702176679,0.0017849369277736,-0.0017849357423694,0.0017849704769637,-0.0015529270989972,0.00155293683304,-0.0015529252662456,0.0015529386331779,-0.0017849708026902,0.0017849363408469,6.5242854198971e-09,-2.8494942773911e-09,-0.0010979227029743,0.0010979264554894,1.9484666394037e-08,-1.5455597448578e-08,-0.00091493609729165,0.00091491479113176,-0.0008418470829756,0.00084181372008894,-0.00084184399246089,0.00084181682646338,-0.00091491110933691,0.00091493979269393,-0.00091490185073394,0.00091494899471874,-0.00084181264798486,0.00084184819832503,-0.0008418094930139,0.00084185131142093,-0.0013332805357272,0.0013332989071326,-0.0013332922113327,0.0013332872388947,-0.0013332836749079,0.0013332957781765,-0.0013332953256363,0.0013332841226915,-0.0013832876696857,0.0013832704960207,-0.0013832785243351,0.0013832796490036,-0.0013832668577488,0.001383291298356,-0.0013832760672529,0.0013832821076367,-0.00091494516645953,0.00091490569483082,0.69114506586116,129487,2954,0.0048029618082709,0.0071352732774588,0.0045653277197592,37.205095731281,5.7640765850249e-05,5.7640765850249e-05,5.7640765850249e-05,3671151.4017264,0.016641596815372
36791759,0.94249814070517,0.016740661138844,0.0051891325101342,0.0066368641806685,0.0049146644480412,-0.0011578623944505,0.001157862418062,-4.7048265288379e-09,4.7266996377618e-09,9.1504192465614e-10,-8.796821104036e-10,-0.00062843730181393,0.0006284448062969,-0.001294228463711,0.0012942235843795,-0.0012942253535212,0.0012942267852188,-0.00062844467518825,0.00062843721213785,-0.00062843557388505,0.00062844657664218,-0.0012942267169458,0.0012942254078798,-0.0012942235911243,0.0012942285105263,-0.0013576074918184,0.0013576049637832,-0.0013576043367796,0.0013576080877687,-0.0013576080877436,0.0013576043551926,-0.001357604929995,0.0013576075018589,-0.0010523419818404,0.0010523321526016,-0.0010523327443521,0.001052341427838,-0.0010523413433919,0.0010523327256392,-0.001052332198364,0.0010523420517967,-0.00062844640609251,0.00062843547405411,-8.3765798759406e-10,9.6631362250273e-10,-1.7454126590649e-08,1.7570139161368e-08,-0.0017259808178651,0.0017259809346339,-0.0017915341492086,0.0017915680803381,-0.0015587064663487,0.0015586932413866,-0.0015587046985273,0.0015586949914972,-0.0017188819555438,0.0017188699169006,-0.0017188703747834,0.0017188814377006,-0.0017188813674337,0.0017188705097688,-0.001718869767502,0.0017188820502247,-0.001791568442211,0.0017915346973052,-0.0017915335091012,0.0017915687042818,-0.0015586948191421,0.0015587047322925,-0.0015586930024788,0.0015587065166238,-0.0017915690245859,0.001791534113496,6.574051099928e-09,-2.8840595233069e-09,-0.0011013709821847,0.0011013747523447,1.9727060905595e-08,-1.5679190364615e-08,-0.00091746279966567,0.00091744114065989,-0.0008440435879206,0.00084400975475404,-0.00084404046574905,0.00084401289310138,-0.00091743744232441,0.00091746651146044,-0.00091742810228521,0.00091747579408406,-0.00084400868862278,0.00084404469794374,-0.00084400550957539,0.00084404783429811,-0.0013379876961597,0.0013380062647388,-0.0013379995249221,0.0013379944434656,-0.0013379908621763,0.0013380031090722,-0.0013380026684165,0.0013379912979784,-0.0013880492390832,0.0013880318414869,-0.0013880400093663,0.0013880410789401,-0.0013880281905299,0.0013880528803346,-0.0013880374801917,0.0013880436097159,-0.00091747195403975,0.00091743195867598,0.67162364288965,129487,2954,0.0048177709374011,0.0071631587953715,0.0045796459782557,36.86644082028,5.4931526562238e-05,5.4931526562238e-05,5.4931526562238e-05,3677207.6537559,0.016699569762736
36991759,0.94633361479328,0.016805293937757,0.0052084419842434,0.0066641330677984,0.004932718885715,-0.0011621868756481,0.0011621869555695,-4.7211385171943e-09,4.798617912399e-09,7.3950327780013e-10,-6.4399441770671e-10,-0.0006305713414303,0.00063057939395689,-0.0012993930635176,0.0012993886192261,-0.001299389925269,0.0012993918489187,-0.00063057920368491,0.00063057130209231,-0.00063057002046557,0.00063058076541189,-0.0012993917209153,0.0012993900363425,-0.0012993885662385,0.0012993931708667,-0.0013628607225139,0.0013628580837005,-0.0013628575358724,0.0013628612358249,-0.0013628611814836,0.001362857611535,-0.0013628579942713,0.0013628607867583,-0.0010557227961655,0.001055713073508,-0.0010557134718721,0.0010557224324546,-0.0010557222956718,0.0010557135085083,-0.0010557130613916,0.0010557229206837,-0.00063058052982136,0.00063056997802259,-6.3991013758161e-10,7.5541330194363e-10,-1.8386260807824e-08,1.8491016893833e-08,-0.0017332889176967,0.0017332890230346,-0.0017988368017776,0.0017988726752991,-0.0015649939597608,0.0015649805091287,-0.0015649925888816,0.0015649818537369,-0.001726383828413,0.0017263713055557,-0.0017263716493197,0.0017263834442085,-0.0017263833732138,0.0017263717616532,-0.0017263711758364,0.0017263839192318,-0.0017988730314058,0.0017988373232036,-0.0017988362969037,0.0017988731619852,-0.001564981699054,0.0015649926189266,-0.0015649802821657,0.0015649939953989,-0.001798873480311,0.0017988368754929,6.523669520286e-09,-3.0177169402675e-09,-0.0011056535157926,0.0011056571014621,2.0552660159112e-08,-1.6701932650555e-08,-0.00092132351497422,0.00092129993002778,-0.00084728899971373,0.00084725312557497,-0.00084728584875574,0.00084725629279799,-0.00092129642218458,0.00092132703879769,-0.00092128700458994,0.00092133639631091,-0.00084725227948168,0.00084728989180504,-0.00084724907285167,0.00084729305311804,-0.0013432995602399,0.0013433185890113,-0.0013433120029197,0.0013433061541142,-0.0013433027540457,0.001343315406435,-0.0013433151746926,0.0013433029804656,-0.0013936577269866,0.0013936394494138,-0.0013936484138884,0.0013936487684533,-0.0013936359801731,0.0013936611846883,-0.0013936453513839,0.0013936518346052,-0.00092133275522653,0.00092129066524115,0.71099418087797,129487,2954,0.0048357312016996,0.0071933714823392,0.0045974221644266,36.972968722232,5.5783749777855e-05,5.5783749777855e-05,5.5783749777855e-05,3686711.403397,0.016766628528329
37191759,0.94998271329502,0.01687050932693,0.0052279081112942,0.0066916065169036,0.0049509946987323,-0.0011667922802837,0.0011667924280322,-4.7293868136557e-09,4.8738311208195e-09,5.4189192913236e-10,-3.7400882431656e-10,-0.00063256047851809,0.00063256913034639,-0.0013051081253088,0.0013051041883135,-0.0013051049631105,0.0013051074417092,-0.00063256888082726,0.00063256049594867,-0.00063255960898523,0.0006325700538219,-0.0013051072451399,0.0013051051405277,-0.0013051040597453,0.0013051083073177,-0.0013684555161789,0.0013684527598107,-0.0013684522977255,0.0013684559386178,-0.0013684558184434,0.0013684524433961,-0.0013684526040348,0.001368455644664,-0.0010595596695829,0.0010595500908992,-0.0010595502651597,0.0010595595256544,-0.001059559329448,0.0010595503672915,-0.001059550005118,0.0010595598610819,-0.00063256973621498,0.00063255964568987,-4.1393431988478e-10,5.1029848456246e-10,-1.9500299588821e-08,1.9588260033514e-08,-0.0017410787141804,0.0017410788025329,-0.0018069408282945,0.0018069790149157,-0.0015717717379178,0.0015717579965316,-0.001571770822541,0.0015717588757848,-0.0017341512982858,0.0017341381857743,-0.0017341384004116,0.0017341510629202,-0.0017341509953144,0.0017341384850973,-0.0017341380817105,0.0017341513785123,-0.0018069793666534,0.0018069413196569,-0.0018069404819585,0.001806979340098,-0.0015717587440891,0.0015717708477612,-0.0015717577898182,0.0015717717510345,-0.0018069796640781,0.0018069410255725,6.4526182352363e-09,-3.1768553099054e-09,-0.0011102170171299,0.001110220371069,2.1530237932076e-08,-1.792664007637e-08,-0.00092541244464344,0.00092538655223279,-0.00085076271658645,0.00085072440004156,-0.00085075953246192,0.00085072760056158,-0.00092538327440731,0.00092541574205585,-0.00092537377901909,0.00092542517345721,-0.00085072382444863,0.00085076334041385,-0.00085072059105267,0.00085076652566828,-0.0013489261246905,0.0013489456856506,-0.0013489392983045,0.0013489325200622,-0.0013489293469911,0.0013489424755798,-0.0013489425007444,0.0013489293159826,-0.001399867607453,0.0013998482777674,-0.0013998582033787,0.0013998576855858,-0.0013998450389701,0.0013998708324885,-0.0013998544938756,0.0013998614011597,-0.00092542178416698,0.0009253771892783,0.75399384099319,129487,2954,0.0048548708371231,0.0072255693904455,0.0046163634579462,37.297111297181,5.8376890377452e-05,5.8376890377452e-05,5.8376890377452e-05,3688576.3480945,0.016838095771385
37391759,0.95345008653917,0.016929843177074,0.005245602068437,0.0067166574828325,0.0049675836258045,-0.0011709649912791,0.0011709651876359,-4.7486049758187e-09,4.9410299367947e-09,4.070447787673e-10,-1.8712490443321e-10,-0.00063354863007568,0.00063355773934479,-0.0013101520452204,0.0013101484457242,-0.0013101488534439,0.001310151729721,-0.00063355743577194,0.00063354870163783,-0.00063354808267404,0.00063355834110503,-0.0013101514797479,0.0013101490824771,-0.0013101482669044,0.0013101522768729,-0.0013737582738348,0.0013737554301515,-0.0013737550249324,0.0013737586352255,-0.0013737584695958,0.0013737552195059,-0.0013737552253164,0.0013737584494722,-0.0010629773216191,0.0010629678115469,-0.0010629678290391,0.0010629773304079,-0.0010629770884357,0.0010629679832436,-0.0010629676762162,0.0010629775560509,-0.00063355797871179,0.00063354816620869,-2.5985498615266e-10,3.4177991994629e-10,-2.0438875097249e-08,2.0514072458344e-08,-0.0017485615812812,0.0017485616567141,-0.0018146882921171,0.0018147284012467,-0.0015783903273324,0.0015783762736387,-0.0015783897273986,0.0015783768294208,-0.0017414858203626,0.0017414721882951,-0.001741472316937,0.0017414856868859,-0.0017414856228813,0.001741472378721,-0.0017414721029162,0.0017414858946023,-0.0018147287517406,0.0018146887542557,-0.0018146880511063,0.0018147286199011,-0.001578376719832,0.0015783897446068,-0.0015783760783568,0.0015783903279521,-0.0018147289416223,0.0018146885695008,6.3976711638022e-09,-3.3168780246679e-09,-0.0011143307227815,0.001114333879901,2.2356130047235e-08,-1.896261913734e-08,-0.00092861943877698,0.00092859158967948,-0.00085363438670381,0.0008535940053737,-0.00085363117581714,0.0008535972325532,-0.00092858852061829,0.00092862252979053,-0.0009285789383469,0.00092863204542091,-0.00085359366318894,0.00085363477854911,-0.00085359039947969,0.00085363799220564,-0.0013542801219032,0.0013543001377739,-0.0013542939152371,0.001354286352614,-0.0013542833734306,0.001354296899155,-0.0013542971456408,0.0013542831207201,-0.0014056947096514,0.0014056744837593,-0.0014056852228527,0.0014056839726466,-0.0014056714358702,0.0014056977421007,-0.0014056809763696,0.001405688227068,-0.00092862885821934,0.00092858214953528,0.72209467371607,129487,2954,0.0048722275585878,0.0072564922810067,0.004633440041614,37.627054586405,6.1016436691244e-05,6.1016436691244e-05,6.1016436691244e-05,3684491.9541966,0.016904566885383
37591759,0.95673952388103,0.016983894386995,0.0052617202074478,0.0067395084279665,0.0049826657515809,-0.001174910120066,0.0011749103492899,-4.7755621334431e-09,5.0003771227937e-09,3.2388362354821e-10,-6.8889921754296e-11,-0.00063490656274749,0.00063491598984216,-0.0013147634859343,0.0013147600898423,-0.0013147602652037,0.0013147634034143,-0.00063491565181152,0.00063490666871457,-0.0006349062155524,0.00063491639240994,-0.0013147631178648,0.0013147605291293,-0.0013147598765053,0.001314763751291,-0.0013787084421446,0.0013787055352515,-0.0013787051626294,0.001378708766994,-0.0013787085709455,0.0013787053907533,-0.0013787052970233,0.001378708649043,-0.0010661128168468,0.0010661033209139,-0.001066103234601,0.0010661129205648,-0.001066112650128,0.0010661034259396,-0.001066103149414,0.0010661130784007,-0.00063491599757147,0.00063490633204119,-1.6366848948117e-10,2.3543689193221e-10,-2.1203814887687e-08,2.1269956927416e-08,-0.0017554241762332,0.0017554242425111,-0.0018215651904861,0.0018216068502219,-0.0015844514059002,0.0015844370384823,-0.0015844510032782,0.0015844373914871,-0.0017483624081638,0.0017483483333953,-0.0017483484108031,0.0017483623393995,-0.0017483622767763,0.0017483484555358,-0.001748348262625,0.0017483624791466,-0.0018216071984675,0.001821565631396,-0.0018215650157663,0.0018216070016464,-0.0015844372976155,0.0015844510162673,-0.0015844368526746,0.0015844513978002,-0.0018216073210921,0.0018215655148701,6.357027118891e-09,-3.4427061475507e-09,-0.0011182282855344,0.0011182312745542,2.3025880345102e-08,-1.981141196225e-08,-0.0009316880487561,0.00093165861481416,-0.00085648783265627,0.00085644575378813,-0.00085648459410576,0.0008564490086336,-0.00093165572144541,0.00093169096584662,-0.00093164605445318,0.00093170056479686,-0.0008564456142326,0.00085648802310616,-0.00085644232099956,0.00085649126469103,-0.0013593028148901,0.0013593231990711,-0.0013593171133161,0.0013593089089338,-0.0013593060952129,0.0013593199321477,-0.0013593203719891,0.0013593056488643,-0.0014109647816873,0.0014109438025214,-0.0014109552115171,0.0014109533736912,-0.0014109409179835,0.0014109676496492,-0.0014109505430148,0.0014109580514261,-0.00093169755094707,0.0009316490935712,0.69345403933698,129487,2954,0.0048886272916251,0.0072848542655481,0.0046496184797368,37.957234185715,6.3657873485719e-05,6.3657873485719e-05,6.3657873485719e-05,3686663.0891757,0.016966549556123
37791759,0.9597827654798,0.017032174651254,0.0052761149006538,0.0067599389942487,0.0049961207563512,-0.0011777509277091,0.0011777511288102,-4.8301572658052e-09,5.0270669007628e-09,4.3422787728347e-10,-2.0930815507366e-10,-0.00063571402924745,0.00063572325419114,-0.001318061108009,0.0013180574101974,-0.0013180578614012,0.0013180607495927,-0.00063572294642459,0.0006357141006056,-0.0006357134340571,0.00063572391024565,-0.0013180604942381,0.0013180580948598,-0.0013180572261447,0.001318061346146,-0.0013823868198953,0.0013823839406787,-0.001382383512826,0.0013823871999205,-0.001382387031266,0.0013823837133491,-0.0013823837302239,0.0013823869982376,-0.0010681370156839,0.0010681273304988,-0.0010681273520513,0.0010681370057252,-0.0010681367651307,0.0010681275156319,-0.0010681271843237,0.0010681372501533,-0.00063572353815096,0.0006357135208315,-2.8173552529074e-10,3.6387569942804e-10,-2.1198265178668e-08,2.1273538807992e-08,-0.0017607192162398,0.001760719291805,-0.0018267059429705,0.0018267475307653,-0.0015890038402284,0.0015889892387841,-0.0015890031953953,0.0015889898378703,-0.0017538053965102,0.0017537912508317,-0.001753791401017,0.0017538052558612,-0.0017538051843411,0.0017537914559401,-0.001753791172686,0.0017538054777458,-0.0018267478752777,0.001826706400207,-0.0018267056876637,0.0018267477634638,-0.0015889897305878,0.0015890032168409,-0.0015889890454257,0.001589003841563,-0.0018267480797944,0.0018267062001404,6.4132567056452e-09,-3.4765662843967e-09,-0.0011210294337605,0.0011210324462155,2.3041590388127e-08,-1.9800649919693e-08,-0.00093382618797141,0.00093379687044983,-0.00085838497584909,0.00085834288718704,-0.00085838170597709,0.00085834617340352,-0.00093379394853436,0.00093382913321169,-0.00093378419625647,0.00093383881757578,-0.00085834274798267,0.00085838516553235,-0.00085833942616138,0.00085838843603879,-0.0013630589162824,0.0013630793529661,-0.0013630732156316,0.0013630650618279,-0.0013630622260401,0.0013630760563504,-0.0013630765046229,0.0013630617714047,-0.0014147814260322,0.0014147603795971,-0.0014147717671282,0.0014147700403855,-0.0014147574741319,0.0014147843155293,-0.0014147671860128,0.0014147746299108,-0.00093383578239904,0.00093378725426343,0.66961883992716,129487,2954,0.0049004323631787,0.0073067392309599,0.0046612485674997,37.836163000385,6.2689304003084e-05,6.2689304003084e-05,6.2689304003084e-05,3691044.0662417,0.01701264749927
37991759,0.96258104035317,0.017077907441399,0.0052897506331098,0.0067792585450303,0.0050088982632594,-0.0011802297361266,0.0011802298960415,-4.893044457527e-09,5.0492371474476e-09,5.7619937341643e-10,-3.953410679841e-10,-0.00063668353409679,0.00063669248099619,-0.0013210593442904,0.0013210552506328,-0.0013210560669999,0.0013210586197289,-0.00063669220514648,0.00063668356648584,-0.00063668262639363,0.00063669345837602,-0.0013210584053878,0.0013210562592248,-0.0013210551130702,0.0013210595385951,-0.0013855364732885,0.0013855336343359,-0.0013855331393857,0.0013855369222042,-0.0013855367938955,0.0013855332978354,-0.0013855334637851,0.0013855366118657,-0.0010698721524955,0.0010698622326153,-0.0010698624025289,0.0010698719924871,-0.0010698717887451,0.0010698625264413,-0.0010698621302919,0.0010698723462715,-0.00063669313035263,0.00063668265771749,-4.3701741568264e-10,5.347197380467e-10,-2.0950266621412e-08,2.1039369771401e-08,-0.0017653054836566,0.0017653055732712,-0.0018311678068554,0.0018312088262708,-0.001592856744444,0.001592841996889,-0.0015928557832435,0.001592842918752,-0.0017585926720288,0.0017585785903024,-0.001758578829387,0.0017585924325865,-0.0017585923545297,0.0017585789041522,-0.0017585784942645,0.0017585927645148,-0.0018312091691535,0.001831168286261,-0.0018311674415748,0.0018312091698101,-0.0015928427934198,0.001592855811904,-0.0015928417873292,0.0015928567631406,-0.0018312094791365,0.001831167978921,6.5060905833692e-09,-3.4700528385104e-09,-0.0011234975518236,0.0011235006658751,2.2858708811681e-08,-1.9507931747819e-08,-0.000935999879611,0.00093597121854503,-0.00086011955324793,0.00086007801446247,-0.00086011625690921,0.00086008132768561,-0.00093596819891522,0.00093600292205562,-0.00093595835293018,0.00093601269973119,-0.00086007779367086,0.00086011982382043,-0.0008600744413816,0.00086012312542654,-0.0013662651865387,0.0013662855925438,-0.0013662793282583,0.0013662714589665,-0.0013662685254472,0.0013662822663052,-0.0013662826452184,0.0013662681404385,-0.0014180989593062,0.0014180780885994,-0.001418089218843,0.0014180878325292,-0.0014180750833759,0.00141810194975,-0.0014180848811141,0.0014180921771331,-0.00093600955093437,0.00093596152042925,0.68978257900689,129487,2954,0.0049107257820301,0.0073256969726364,0.0046714961137117,37.594020590279,6.075216472223e-05,6.075216472223e-05,6.075216472223e-05,3697168.4112875,0.017052823225415
38191759,0.96515533833424,0.017120360427116,0.0053024028714536,0.0067971845793146,0.0050207729763473,-0.0011824282243014,0.0011824283508863,-4.9551383072202e-09,5.078437566086e-09,6.8740140968232e-10,-5.4206415825323e-10,-0.00063717019363483,0.00063717893519709,-0.0013237806748943,0.0013237762650906,-0.0013237773698519,0.0013237796611763,-0.00063717869973337,0.00063717017653497,-0.00063716902364298,0.00063718017914754,-0.0013237794844378,0.0013237775234066,-0.0013237761612201,0.0013237808392169,-0.0013884206978757,0.0013884178800549,-0.0013884173333735,0.0013884212002366,-0.0013884211027576,0.0013884174592603,-0.0013884177435799,0.00138842080264,-0.0010714174997483,0.0010714073753165,-0.0010714076641375,0.0010714172219023,-0.0010714170516985,0.0010714077496913,-0.0010714073051278,0.0010714176670235,-0.00063717987031245,0.0006371690301108,-5.6200969316612e-10,6.7365188612523e-10,-2.0711626403707e-08,2.0813285100545e-08,-0.0017695960217413,0.0017695961239584,-0.0018354347879861,0.0018354752806386,-0.0015964779408603,0.001596463096075,-0.0015964767183759,0.001596464283648,-0.0017629740053474,0.0017629600003618,-0.0017629603099569,0.0017629736869039,-0.0017629736007462,0.0017629604036335,-0.0017629598901463,0.0017629741062153,-0.0018354756193839,0.0018354352939192,-0.0018354343390562,0.0018354757099604,-0.001596464136693,0.0015964767580237,-0.0015964628768861,0.0015964779689954,-0.0018354760198083,0.0018354348954099,6.5989986915168e-09,-3.4571840281658e-09,-0.001125686216803,0.0011256894394998,2.2683795252626e-08,-1.9215681109691e-08,-0.00093779407513792,0.00093776607478417,-0.00086154434447516,0.00086150335199678,-0.000861541018374,0.00086150669468792,-0.00093776293272614,0.0009377972374554,-0.00093775302449669,0.00093780707971207,-0.00086150303911746,0.00086154470714177,-0.00086149966414283,0.00086154803195689,-0.0013691939211901,0.0013692143018824,-0.0013692079061491,0.0013692003250324,-0.0013691972855853,0.001369210949704,-0.0013692112509124,0.0013691969784472,-0.0014212154686949,0.0014211947777965,-0.0014212056471916,0.0014212046039061,-0.0014211916719549,0.0014212185609168,-0.0014212015442945,0.001421208712581,-0.00093780383387403,0.00093775629168409,0.69607506589889,129487,2954,0.0049198626310119,0.0073434294949761,0.0046805843437291,37.348570520398,5.8788564163182e-05,5.8788564163182e-05,5.8788564163182e-05,3698493.3692409,0.01708940002826
38391759,0.96753703027651,0.017161494878818,0.0053146607341463,0.0068145256517987,0.0050323084928727,-0.0011846667739735,0.0011846668899875,-5.0016995221894e-09,5.1145721029948e-09,7.2563893516981e-10,-5.9162034143409e-10,-0.00063777969800893,0.00063778842335217,-0.0013266578738246,0.0013266533387569,-0.0013266545405579,0.0013266567623303,-0.00063778819291161,0.00063777966820932,-0.00063777844720077,0.00063778975586532,-0.0013266565951982,0.0013266546825541,-0.0013266532479132,0.0013266580280142,-0.0013912976400836,0.001391294813514,-0.0013912942487915,0.0013912981617834,-0.0013912980743516,0.0013912943636472,-0.0013912946873128,0.0013912977349279,-0.0010730919986193,0.0010730817527783,-0.0010730820821166,0.0010730916819323,-0.0010730915195514,0.0010730821559183,-0.001073081695635,0.0010730921569238,-0.00063778945558644,0.00063777843546696,-6.0206335801004e-10,7.1980051904412e-10,-2.0652905041339e-08,2.0760153239628e-08,-0.0017738468680659,0.0017738469759152,-0.0018397702516556,0.0018398106120684,-0.0016000924783644,0.0016000775911732,-0.0016000911725651,0.001600078864265,-0.0017672656350584,0.0017672516440062,-0.0017672519741345,0.0017672652912531,-0.001767265202668,0.0017672520760446,-0.0017672515260501,0.0017672657396802,-0.0018398109524175,0.0018397707698123,-0.0018397697734691,0.0018398110703687,-0.0016000787090588,0.0016000912142069,-0.001600077364046,0.0016000925117057,-0.0018398113809139,0.0018397703425171,6.6780789382725e-09,-3.4667364923886e-09,-0.0011279272219159,0.0011279305164384,2.2674383399666e-08,-1.9128426166689e-08,-0.00093974921126941,0.00093972146858227,-0.00086309985974575,0.0008630590105871,-0.00086309650480469,0.00086306238237615,-0.00093971825494725,0.00093975244462465,-0.00093970825785167,0.00093976237591461,-0.00086305864879028,0.00086310027152819,-0.00086305524365152,0.0008631036264732,-0.0013721058659493,0.0013721263126742,-0.0013721198187093,0.0013721123680419,-0.0013721092599646,0.0013721229307484,-0.0013721231927058,0.0013721089921456,-0.0014244272526041,0.0014244065772305,-0.0014244173451887,0.001424416489746,-0.0014244034025331,0.0014244304140714,-0.0014244133619787,0.0014244204782456,-0.00093975905489991,0.00093971159864486,0.72889799658288,129487,2954,0.0049291675513972,0.0073609964228986,0.0046898889245212,37.197777399496,5.7582219195965e-05,5.7582219195965e-05,5.7582219195965e-05,3698181.8256146,0.017126200107873
38591759,0.96975837313563,0.01720049733931,0.0053262787438049,0.0068309651606791,0.0050432534348265,-0.0011869520450189,0.001186952172361,-5.0418600026084e-09,5.1659359896722e-09,6.9736589109778e-10,-5.5112552569938e-10,-0.00063805852597773,0.00063806744142224,-0.0013296033028736,0.001329598810691,-0.0013295999327828,0.001329602270546,-0.00063806718173461,0.0006380585197308,-0.00063805735730246,0.00063806869105946,-0.0013296020854633,0.0013296000910273,-0.0013295987140525,0.0013296034649549,-0.0013942926924823,0.0013942898255476,-0.0013942892727559,0.0013942932026544,-0.0013942931057358,0.0013942893968733,-0.0013942896868624,0.0013942928002174,-0.0010748946921865,0.001074884385544,-0.001074884681411,0.0010748944099678,-0.0010748942302089,0.0010748847700934,-0.0010748843239077,0.0010748948579148,-0.00063806839141906,0.00063805734412531,-5.5583657060372e-10,6.7086672621731e-10,-2.0854238200367e-08,2.0959179408103e-08,-0.0017782683605579,0.0017782684660317,-0.0018443923826095,0.0018444331594902,-0.0016039457464069,0.0016039308216066,-0.001603944536779,0.0016039319930197,-0.0017715857723585,0.0017715716796564,-0.0017715719800702,0.001771585457245,-0.0017715853723075,0.0017715720776627,-0.0017715715617521,0.0017715858755546,-0.0018444335087657,0.0018443928939233,-0.0018443919324354,0.0018444335934919,-0.0016039318454222,0.0016039445703453,-0.001603930589787,0.0016039457798388,-0.0018444339021686,0.0018443925046249,6.7251915962337e-09,-3.4993982004929e-09,-0.0011301998667826,0.0011302031770765,2.2854688057306e-08,-1.9291158760673e-08,-0.00094153823690076,0.0009415102334112,-0.00086461226281418,0.00086457107443954,-0.00086460888717618,0.00086457446575016,-0.00094150701974563,0.00094154147061334,-0.00094149693590051,0.00094155148699858,-0.00086457071930001,0.00086461266877115,-0.00086456728313848,0.00086461605353868,-0.0013751297791644,0.0013751503825455,-0.0013751438476851,0.0013751363223259,-0.0013751332017615,0.0013751469720279,-0.0013751472467526,0.0013751329209889,-0.0014278365556365,0.0014278157075223,-0.0014278265751239,0.0014278256929788,-0.0014278125135857,0.0014278397364185,-0.0014278225563743,0.0014278297173732,-0.00094154814145895,0.00094150030718429,0.74096371059826,129487,2954,0.0049386769662637,0.0073792642873523,0.0046993249871091,37.193778539424,5.7550228315396e-05,5.7550228315396e-05,5.7550228315396e-05,3692731.1491668,0.017164058607391
38791759,0.97183022726156,0.017236973024894,0.0053371431873193,0.006846342238257,0.0050534875993178,-0.0011890603714872,0.0011890605157278,-5.0727558641434e-09,5.213496409734e-09,6.4656982102991e-10,-4.8228965858787e-10,-0.00063812602878993,0.00063813512510809,-0.0013323301801079,0.0013323258072859,-0.0013323267942295,0.0013323292836417,-0.00063813487403641,0.00063812600997723,-0.00063812495366121,0.00063813628705214,-0.0013323290885934,0.0013323269596061,-0.0013323256842347,0.001332330369984,-0.0013971099995788,0.0013971070799786,-0.0013971065500445,0.0013971104863832,-0.0013971103700213,0.0013971066943803,-0.0013971069276997,0.0013971101206753,-0.0010765550727833,0.001076544755613,-0.0010765449953039,0.0010765548478752,-0.0010765546611241,0.001076545090799,-0.0010765446678842,0.0010765552645283,-0.00063813594018924,0.00063812498113215,-5.161278594423e-10,6.284232996878e-10,-2.1066600255882e-08,2.1169258796557e-08,-0.0017824684100927,0.0017824685132393,-0.0018488035965389,0.0018488448231567,-0.0016076401137871,0.0016076251178291,-0.0016076389751601,0.0016076262186038,-0.001775644026033,0.001775629815952,-0.0017756300919642,0.0017756437361089,-0.0017756436497588,0.0017756301899271,-0.0017756297034136,0.0017756441235066,-0.0018488451645545,0.001848804113759,-0.0018488031810734,0.0018488452193157,-0.0016076260639438,0.001607639016717,-0.0016076248967055,0.0016076401335649,-0.0018488455389159,0.0018488037424773,6.7615761335934e-09,-3.5558638553295e-09,-0.001132276986704,0.0011322802776709,2.3098694192542e-08,-1.955524850214e-08,-0.00094301681691841,0.00094298841414061,-0.00086594593491038,0.00086590418535127,-0.00086594251865762,0.00086590761865468,-0.00094298519491906,0.00094302005674738,-0.00094297504347236,0.00094303013965178,-0.00086590388083891,0.00086594629101206,-0.00086590042252423,0.00086594969736008,-0.0013779718255105,0.0013779926052644,-0.0013779860598104,0.0013779783793625,-0.0013779752759052,0.0013779891674628,-0.0013779894929306,0.0013779749442844,-0.0014310471560114,0.0014310260188578,-0.001431037075044,0.0014310361040696,-0.0014310228536228,0.0014310503070661,-0.0014310329785437,0.0014310402071528,-0.00094302684039363,0.00094297836533513,0.74287813618279,129487,2954,0.0049474547986094,0.0073966150491999,0.0047079498904984,37.193615795345,5.7548926362762e-05,5.7548926362762e-05,5.7548926362762e-05,3685797.8406183,0.017199416977298
38880000,0.97271608920661,0.017252588243334,0.0053417950915781,0.0068529247413366,0.0050578684104197,-0.0011899304283397,0.0011899305793723,-5.0914545966746e-09,5.2388486026242e-09,6.3274349017953e-10,-4.6123151025279e-10,-0.00063806441391971,0.00063807361486879,-0.0013334759513889,0.00133347159833,-0.0013334725434378,0.0013334750959027,-0.00063807333606542,0.00063806442200494,-0.00063806339355038,0.00063807472197383,-0.0013334748863389,0.0013334727227193,-0.0013334714754416,0.0013334761416921,-0.001398314837915,0.0013983119012722,-0.0013983113761954,0.0013983153199345,-0.001398315199413,0.0013983115246817,-0.0013983117398979,0.0013983149682135,-0.00107720772185,0.0010771973718786,-0.0010771975924925,0.0010772075132724,-0.0010772073124254,0.001077197701581,-0.0010771972849762,0.0010772079131353,-0.00063807438822885,0.00063806340707844,-4.8804245104989e-10,5.9792270235717e-10,-2.1209403420314e-08,2.1309920273269e-08,-0.0017842902496035,0.0017842903506134,-0.0018506853436185,0.0018507268587309,-0.0016092622556698,0.0016092472269969,-0.0016092611818803,0.0016092482613277,-0.0017773957805544,0.0017773814956603,-0.0017773817548206,0.0017773955086314,-0.0017773954260483,0.0017773818471475,-0.0017773813828717,0.0017773958787251,-0.0018507272071522,0.0018506858507786,-0.0018506849410275,0.0018507272416055,-0.001609248117274,0.0016092612140715,-0.0016092469992598,0.0016092622799019,-0.0018507275555873,0.0018506855054238,6.7735949101486e-09,-3.5753660979538e-09,-0.0011331253395676,0.0011331286233679,2.3207717834702e-08,-1.9671773387569e-08,-0.00094353309782332,0.00094350447841112,-0.00086649921695852,0.00086645723643935,-0.00086649579763806,0.00086646067243192,-0.00094350128744001,0.00094353630988216,-0.00094349108539049,0.00094354644362412,-0.00086645694930341,0.00086649955576399,-0.00086645347291915,0.0008665029799285,-0.0013791850663502,0.0013792059263498,-0.0013791993779086,0.0013791916231178,-0.0013791885297174,0.0013792024755431,-0.0013792028190192,0.0013791881800679,-0.0014324140163291,0.0014323927728132,-0.0014324039115888,0.0014324028817171,-0.0014323896078326,0.001432417166956,-0.0014323997707493,0.0014324070291906,-0.00094354313344248,0.00094349441889817,0.74369371220855,129487,2954,0.0049510790028735,0.0074041401619241,0.0047114732777426,37.193609123668,5.7548872989347e-05,5.7548872989347e-05,5.7548872989347e-05,3682071.1577468,0.017214345851731
