time,ASR_ext,ASR_strain,ASR_strain_xx,ASR_strain_yy,ASR_strain_zz,disp_x_101,disp_x_102,disp_x_103,disp_x_104,disp_x_105,disp_x_106,disp_x_p10_neg,disp_x_p10_pos,disp_x_p11_neg,disp_x_p11_pos,disp_x_p12_neg,disp_x_p12_pos,disp_x_p13_neg,disp_x_p13_pos,disp_x_p14_neg,disp_x_p14_pos,disp_x_p15_neg,disp_x_p15_pos,disp_x_p16_neg,disp_x_p16_pos,disp_x_p1_neg,disp_x_p1_pos,disp_x_p2_neg,disp_x_p2_pos,disp_x_p3_neg,disp_x_p3_pos,disp_x_p4_neg,disp_x_p4_pos,disp_x_p5_neg,disp_x_p5_pos,disp_x_p6_neg,disp_x_p6_pos,disp_x_p7_neg,disp_x_p7_pos,disp_x_p8_neg,disp_x_p8_pos,disp_x_p9_neg,disp_x_p9_pos,disp_y_101,disp_y_102,disp_y_103,disp_y_104,disp_y_105,disp_y_106,disp_y_p10_neg,disp_y_p10_pos,disp_y_p11_neg,disp_y_p11_pos,disp_y_p12_neg,disp_y_p12_pos,disp_y_p1_neg,disp_y_p1_pos,disp_y_p2_neg,disp_y_p2_pos,disp_y_p3_neg,disp_y_p3_pos,disp_y_p4_neg,disp_y_p4_pos,disp_y_p5_neg,disp_y_p5_pos,disp_y_p6_neg,disp_y_p6_pos,disp_y_p7_neg,disp_y_p7_pos,disp_y_p8_neg,disp_y_p8_pos,disp_y_p9_neg,disp_y_p9_pos,disp_z_101,disp_z_102,disp_z_103,disp_z_104,disp_z_105,disp_z_106,disp_z_p10_neg,disp_z_p10_pos,disp_z_p11_neg,disp_z_p11_pos,disp_z_p12_neg,disp_z_p12_pos,disp_z_p13_neg,disp_z_p13_pos,disp_z_p14_neg,disp_z_p14_pos,disp_z_p15_neg,disp_z_p15_pos,disp_z_p16_neg,disp_z_p16_pos,disp_z_p1_neg,disp_z_p1_pos,disp_z_p2_neg,disp_z_p2_pos,disp_z_p3_neg,disp_z_p3_pos,disp_z_p4_neg,disp_z_p4_pos,disp_z_p5_neg,disp_z_p5_pos,disp_z_p6_neg,disp_z_p6_pos,disp_z_p7_neg,disp_z_p7_pos,disp_z_p8_neg,disp_z_p8_pos,disp_z_p9_neg,disp_z_p9_pos,humidity,ndof,nelem,strain_xx,strain_yy,strain_zz,temp,thermal_strain_xx,thermal_strain_yy,thermal_strain_zz,vonmises,vstrain
14391759,0,0,0,0,0,0,0,0,0,0,0,0,0,0,0,0,0,0,0,0,0,0,0,0,0,0,0,0,0,0,0,0,0,0,0,0,0,0,0,0,0,0,0,0,0,0,0,0,0,0,0,0,0,0,0,0,0,0,0,0,0,0,0,0,0,0,0,0,0,0,0,0,0,0,0,0,0,0,0,0,0,0,0,0,0,0,0,0,0,0,0,0,0,0,0,0,0,0,0,0,0,0,0,0,0,0,0,0,0,0,0,0,0,0,0,0,0,0,0,0,0,0,0
14591759,0.019286572860501,0.00033907140812387,0.00011302380270796,0.00011302380270796,0.00011302380270796,-2.8996525672191e-05,2.8996533564614e-05,8.1608423357104e-12,1.6506697946782e-12,-7.84877018226e-12,1.4132637961655e-11,-2.4644915176243e-05,2.4644938975148e-05,-2.7888304831952e-05,2.7888332374641e-05,-2.7888309303603e-05,2.7888332251087e-05,-2.4644934265749e-05,2.4644927634429e-05,-2.464492637221e-05,2.4644905886859e-05,-2.7888331995971e-05,2.7888315841338e-05,-2.7888326283735e-05,2.7888305361996e-05,-3.0327824897773e-05,3.0327827686244e-05,-3.0327823417298e-05,3.0327822011601e-05,-3.032781565638e-05,3.0327832622389e-05,-3.0327818577685e-05,3.0327831383699e-05,-2.8276623604965e-05,2.827664964922e-05,-2.8276631180998e-05,2.8276644407318e-05,-2.8276635342424e-05,2.8276646687919e-05,-2.8276633202081e-05,2.8276631717353e-05,-2.4644902157288e-05,2.4644939950774e-05,8.0083318684218e-12,-1.6571530813609e-11,-1.1963725275982e-09,1.1876790959808e-09,-3.0325711099851e-05,3.0325702757512e-05,-2.9380816472275e-05,2.9383154325995e-05,-2.9526250986005e-05,2.9525476738882e-05,-2.9526279821779e-05,2.9525456798542e-05,-3.0552062536696e-05,3.0551279858949e-05,-3.0551297011837e-05,3.0552079486153e-05,-3.0552070527907e-05,3.05512719763e-05,-3.055130500841e-05,3.0552071559569e-05,-2.9383134306548e-05,2.9380778364591e-05,-2.9380822493743e-05,2.9383144008375e-05,-2.9525467156629e-05,2.9526274034154e-05,-2.952549656338e-05,2.9526254445033e-05,-2.9383128304367e-05,2.9380788616873e-05,-3.9551604421308e-10,-3.8896612966728e-10,-2.8338769810078e-05,2.8337981670363e-05,7.695620716982e-10,-1.5890338269625e-09,-2.6397423268813e-05,2.6394276942628e-05,-2.6663250958584e-05,2.6660120875089e-05,-2.6663251022738e-05,2.6660116637477e-05,-2.6395073881733e-05,2.6396623110339e-05,-2.6395081920571e-05,2.6396617478879e-05,-2.6660927851691e-05,2.6662442293221e-05,-2.6660927854387e-05,2.6662438048025e-05,-2.9662294683248e-05,2.9662295819988e-05,-2.9663077150033e-05,2.9661513266539e-05,-2.966229233497e-05,2.9662297693343e-05,-2.9663074807586e-05,2.9661515180901e-05,-2.8300563449055e-05,2.8298998585151e-05,-2.8300574780436e-05,2.8298996986891e-05,-2.8299785428788e-05,2.8299786979052e-05,-2.8299774294934e-05,2.8299788708934e-05,-2.6397414776686e-05,2.63942819844e-05,0.70642003821167,128566,2924,0.00012081152313792,0.00012634902668639,0.00011806952145397,31.354185327706,1.0833482621648e-05,1.0833482621648e-05,1.0833482621648e-05,632443.80518344,0.00036529717215141
14791759,0.038362326125374,0.00066397463514339,0.00022106240739484,0.00022345163792935,0.0002194605898192,-5.3714282238315e-05,5.3715758216181e-05,7.9829367614032e-10,6.638610404669e-10,-1.3781931531434e-09,2.9196103634498e-09,-4.3661277857726e-05,4.366691303125e-05,-5.0908627363255e-05,5.0914449585409e-05,-5.0908691599274e-05,5.0914417105105e-05,-4.3665412449852e-05,4.3662741398002e-05,-4.3665496498202e-05,4.3662589358876e-05,-5.0912827612176e-05,5.0910163484875e-05,-5.0912864014021e-05,5.0910118973423e-05,-5.7539743205891e-05,5.7539842306534e-05,-5.7539779047567e-05,5.7539790941057e-05,-5.753836495306e-05,5.7541273535201e-05,-5.7538412100667e-05,5.7541228518781e-05,-5.1821355574938e-05,5.1824369947671e-05,-5.1821466381015e-05,5.1824209279268e-05,-5.1822790490264e-05,5.1822934394931e-05,-5.1822874734512e-05,5.1822762723235e-05,-4.3661127978605e-05,4.3667050854196e-05,1.3872544850152e-09,-2.9124587181905e-09,-2.8655340006349e-09,1.4080281972694e-09,-5.674122120017e-05,5.6739755227447e-05,-5.4310175863941e-05,5.4314354282617e-05,-5.4775590324653e-05,5.4776901353432e-05,-5.477976022126e-05,5.4772593381253e-05,-5.8106000204585e-05,5.810455160839e-05,-5.81046333557e-05,5.8105989762511e-05,-5.8107370349241e-05,5.8103115883459e-05,-5.8106006012778e-05,5.8104551500639e-05,-5.4315711304588e-05,5.4308641761169e-05,-5.4311607520171e-05,5.4312913541817e-05,-5.4774171861042e-05,5.4778324809729e-05,-5.4778348010677e-05,5.4774008707912e-05,-5.4314288129882e-05,5.4310075254618e-05,-8.4620827738962e-10,-7.1651284781167e-10,-5.2076897446767e-05,5.2075316657772e-05,1.2854850635045e-09,-2.9425337258425e-09,-4.7188840095902e-05,4.7182923439372e-05,-4.8027069992741e-05,4.8021292029579e-05,-4.8027112229242e-05,4.8021255542882e-05,-4.7184536043399e-05,4.7187269404642e-05,-4.7184662444256e-05,4.7187120956399e-05,-4.8022916188652e-05,4.8025469781454e-05,-4.8022965081247e-05,4.8025425602705e-05,-5.585222421782e-05,5.5852020741985e-05,-5.585362213806e-05,5.5850617139351e-05,-5.5852183004018e-05,5.5852068597075e-05,-5.5853583784599e-05,5.5850662902081e-05,-5.1890254211557e-05,5.1887419947062e-05,-5.1890352573863e-05,5.1887271242401e-05,-5.1888943994567e-05,5.1888688251642e-05,-5.1888836778213e-05,5.1888842607827e-05,-4.7188736972683e-05,4.7183049184697e-05,0.7058101939406,128566,2924,0.00022378724737988,0.00023639012345825,0.00021695986169161,31.086726076568,8.6938086125456e-06,8.6938086125456e-06,8.6938086125456e-06,1267623.2103581,0.00067736899096988
14991759,0.056222723631361,0.00095890822604664,0.00031912187948773,0.00032501383587467,0.00031477251068424,-7.5069164446706e-05,7.5071897086909e-05,1.48951588411e-09,1.2323210599256e-09,-2.463906276542e-09,5.310835420333e-09,-5.838785834117e-05,5.8398114839398e-05,-6.9425958329317e-05,6.943653457432e-05,-6.942604958478e-05,6.943645463115e-05,-5.8395305863684e-05,5.8390615116854e-05,-5.839552274307e-05,5.8390326333489e-05,-6.9433567650047e-05,6.9428810043161e-05,-6.943364259032e-05,6.9428713258185e-05,-8.1811506266338e-05,8.1811757154225e-05,-8.1811586909196e-05,8.1811665705804e-05,-8.1809023703691e-05,8.1814338482749e-05,-8.1809114541588e-05,8.1814257664351e-05,-7.2715367544744e-05,7.2720911411781e-05,-7.2715622444023e-05,7.2720663888875e-05,-7.2717954957539e-05,7.2718320388126e-05,-7.2718186649436e-05,7.2718047543961e-05,-5.8387602830555e-05,5.8398357796841e-05,2.7176235357826e-09,-5.0635968004281e-09,-3.8476680435442e-09,1.5931508931132e-09,-8.0640708924823e-05,8.0638448138211e-05,-7.7615990531043e-05,7.7621675143081e-05,-7.8751087134299e-05,7.8754648715865e-05,-7.8758655622626e-05,7.8746851990322e-05,-8.2167918093441e-05,8.216643699579e-05,-8.2166191661179e-05,8.2168267289342e-05,-8.2170386020623e-05,8.2163836191499e-05,-8.2168659881714e-05,8.2165666219601e-05,-7.7623798913575e-05,7.7613627448539e-05,-7.7618557166688e-05,7.7619061064876e-05,-7.8749298732693e-05,7.8756474869098e-05,-7.8756866466554e-05,7.8748678195658e-05,-7.7621231933942e-05,7.7616241769201e-05,-1.1909445961767e-09,-9.3292565739942e-10,-7.2231150598873e-05,7.2229017955748e-05,1.5759174178704e-09,-3.8030508269938e-09,-6.3920596220755e-05,6.391283437789e-05,-6.4663250960481e-05,6.4655831651151e-05,-6.4663335692437e-05,6.4655744063143e-05,-6.3915030048181e-05,6.3918439761301e-05,-6.3915256705922e-05,6.3918165626909e-05,-6.4657970869647e-05,6.4661135823188e-05,-6.4658048897988e-05,6.4661041659043e-05,-7.8893658911287e-05,7.8893252711123e-05,-7.8895438902053e-05,7.8891470299347e-05,-7.8893575976635e-05,7.8893341628156e-05,-7.8895354516816e-05,7.8891558183181e-05,-7.2775758468218e-05,7.2772105326205e-05,-7.277600762617e-05,7.2771849064337e-05,-7.2774202864813e-05,7.2773645320982e-05,-7.277396776643e-05,7.2773914529001e-05,-6.3920346644577e-05,6.3913093924875e-05,0.70496389386464,128566,2924,0.00031274468112586,0.00033594041603654,0.00030091291630302,30.085445097677,6.8356078142002e-07,6.8356078142002e-07,6.8356078142002e-07,1415739.52428,0.00095005472993393
15191759,0.072459548974873,0.0012077281084882,0.00040167021559688,0.00041202480324803,0.00039403308964329,-9.2574887339783e-05,9.25774311598e-05,1.4640411710637e-09,1.0807008161426e-09,-2.4657864305164e-09,5.1144155258627e-09,-6.6957097206291e-05,6.6966822512125e-05,-8.2593640726149e-05,8.2603872416167e-05,-8.2593773116144e-05,8.2603747145302e-05,-6.6964201181856e-05,6.6959679088887e-05,-6.6964545692899e-05,6.6959278356491e-05,-8.2601071924788e-05,8.2596347409277e-05,-8.2601194163593e-05,8.2596216480968e-05,-0.00010284225984515,0.00010284243160735,-0.00010284238522235,0.00010284230163107,-0.00010283984717866,0.00010284494486805,-0.00010283998216029,0.00010284482355081,-8.9799074293816e-05,8.9804501868422e-05,-8.9799466709653e-05,8.9804141871213e-05,-8.9801605811584e-05,8.9801975188898e-05,-8.9801970874225e-05,8.9801591292707e-05,-6.6956714094744e-05,6.6967194112228e-05,2.779062692796e-09,-4.8132857138004e-09,-3.5907820481027e-09,1.6225436408688e-09,-0.00010134080864782,0.00010133884282987,-9.7951453495933e-05,9.7957142112835e-05,-0.00010021162435157,0.00010021538229143,-0.00010021901858354,0.00010020778136969,-0.00010256328376738,0.00010256209990134,-0.00010256163873338,0.0001025638549805,-0.00010256566964661,0.00010255956757529,-0.00010256402569002,0.00010256132162638,-9.7958975218791e-05,9.7949372162428e-05,-9.7953960624763e-05,9.7954586718304e-05,-0.00010020990867602,0.00010021713791103,-0.00010021730435929,0.00010020953457316,-9.7956470686906e-05,9.7951925317498e-05,-1.2559181463875e-09,-8.7283110209564e-10,-8.847338195059e-05,8.8471250082566e-05,1.4638603690888e-09,-3.6915807622086e-09,-7.5432136892524e-05,7.5424475211378e-05,-7.576748304712e-05,7.5760323251584e-05,-7.5767605641984e-05,7.5760192633085e-05,-7.5426656033459e-05,7.5429954973209e-05,-7.5427021137125e-05,7.5429566113086e-05,-7.576240550933e-05,7.5765386252916e-05,-7.5762533154688e-05,7.5765256578782e-05,-9.8619009959862e-05,9.8618490214734e-05,-9.8620716274238e-05,9.8616786565872e-05,-9.8618880438416e-05,9.8618616701236e-05,-9.8620585831284e-05,9.8616911153768e-05,-9.0080829850792e-05,9.0077372342054e-05,-9.0081232309483e-05,9.0077026468096e-05,-9.0079488598385e-05,9.0078730568752e-05,-9.0079117408228e-05,9.0079111124908e-05,-7.5431762982428e-05,7.5424846787829e-05,0.66036287264637,128566,2924,0.00038565976277508,0.00042215779480968,0.00036856640311309,28.683516288843,-1.0531869689253e-05,-1.0531869689253e-05,-1.0531869689253e-05,1525954.6054386,0.0011770879355135
15391759,0.087177526105947,0.0014597324966331,0.00048517288461326,0.00050060526467244,0.00047395434734739,-0.00010995849210184,0.00010996099131254,1.5049465408372e-09,9.9587466569418e-10,-2.3186188355398e-09,4.9152198639071e-09,-7.7022860787419e-05,7.7032067806257e-05,-9.7617432992291e-05,9.762730984825e-05,-9.7617606347088e-05,9.7627142040833e-05,-7.7029496734577e-05,7.7025394967808e-05,-7.7029967052539e-05,7.7024873039157e-05,-9.7624514428155e-05,9.7620129246834e-05,-9.7624679615126e-05,9.7619956920284e-05,-0.00012278925516175,0.00012278953888124,-0.00012278942308711,0.0001227893676326,-0.00012278695645891,0.00012279193897419,-0.00012278713350826,0.00012279177596715,-0.00010745336125783,0.00010745875478874,-0.00010745387362837,0.0001074582686362,-0.00010745577653482,0.00010745634309924,-0.00010745626282622,0.00010745583406334,-7.7022354459215e-05,7.7032561932839e-05,2.5828072535334e-09,-4.6612458697045e-09,-3.4419889275127e-09,1.4300940507702e-09,-0.00012185984225117,0.00012185783237875,-0.00011853006518759,0.00011853525840868,-0.00012162412549587,0.00012162759967321,-0.00012163118025306,0.0001216203586975,-0.00012231576904445,0.0001223145359874,-0.00012231423185789,0.00012231617633077,-0.00012231803892565,0.00012231212174364,-0.00012231650280286,0.00012231376107077,-0.00011853714366292,0.00011852794702226,-0.00011853245967891,0.00011853281951177,-0.00012162252130331,0.00012162924052935,-0.00012162957785161,0.00012162199706319,-0.00011853475171239,0.00011853038351955,-1.3235300245566e-09,-8.1497926206544e-10,-0.00010445447554435,0.0001044523334544,1.2902473475023e-09,-3.5244119300904e-09,-8.8943966563237e-05,8.8936510793393e-05,-8.8312640488692e-05,8.8305852145117e-05,-8.8312803739389e-05,8.8305678042173e-05,-8.8938696573239e-05,8.8941775552168e-05,-8.8939188654187e-05,8.8941268581315e-05,-8.8307898601156e-05,8.8310575747711e-05,-8.8308068868465e-05,8.8310405341691e-05,-0.00011717340765619,0.00011717272202299,-0.0001171750009666,0.00011717113126782,-0.00011717323584614,0.00011717288983349,-0.00011717482815462,0.0001171712971823,-0.00010798964855341,0.00010798641547578,-0.00010799016962812,0.00010798594244562,-0.00010798854186264,0.00010798753700455,-0.00010798804613905,0.00010798803860081,-8.8943469904293e-05,8.8937006035216e-05,0.73442855863259,128566,2924,0.00045806216946969,0.00050761375157765,0.00043512850134259,27.270724003415,-2.1834207972676e-05,-2.1834207972676e-05,-2.1834207972676e-05,1341071.7974136,0.0014018015022039
15591759,0.10068521076455,0.001697234525362,0.00056399158443115,0.00058436148444979,0.00054888145648102,-0.00012590650453424,0.00012590893191359,1.5326538255034e-09,8.9713182232137e-10,-1.9783663400751e-09,4.4965859431581e-09,-8.6985416401949e-05,8.6993668624495e-05,-0.00011164957918445,0.00011165867515511,-0.00011164979635923,0.00011165846329942,-8.6991180944378e-05,8.6987874538148e-05,-8.6991771542457e-05,8.6987238147774e-05,-0.00011165591510677,0.0001116522413278,-0.00011165612186385,0.00011165203109284,-0.00014097287441141,0.00014097337926208,-0.00014097308462225,0.00014097316737706,-0.00014097082389017,0.00014097552900603,-0.00014097104379507,0.00014097532327259,-0.00012369076779815,0.0001236959628028,-0.00012369140505862,0.00012369534961381,-0.00012369293100809,0.00012369380224716,-0.00012369353992967,0.00012369317165703,-8.6984780688691e-05,8.699429357728e-05,2.2047883432295e-09,-4.2812338329878e-09,-3.2405716699437e-09,1.2290045008223e-09,-0.00014056699432917,0.00014056498439862,-0.00013728242878709,0.00013728697696495,-0.00014108333583312,0.00014108619453774,-0.00014108964841399,0.00014107970952607,-0.00014037729867823,0.00014037594532008,-0.00014037589206812,0.00014037745206341,-0.00014037931814134,0.00014037378546281,-0.00014037791388984,0.00014037528982395,-0.00013728886253059,0.00013728031726128,-0.00013728457444999,0.00013728478958679,-0.0001410818626801,0.0001410877032767,-0.00014108817994944,0.00014108121168339,-0.00013728672457354,0.00013728249846856,-1.3876670328073e-09,-7.5430675440185e-10,-0.00011894152646734,0.00011893938103197,1.0887334476248e-09,-3.3237580813793e-09,-0.00010143230389115,0.00010142512586961,-0.00010000682164045,0.00010000046747231,-0.00010000702465124,0.0001000002539569,-0.0001014273091927,0.00010143011732985,-0.00010142793138153,0.00010142948560324,-0.00010000247699656,0.00010000479725223,-0.00010000268993253,0.00010000458412529,-0.00013394670614539,0.00013394584102434,-0.00013394816559678,0.00013394438468519,-0.00013394649161599,0.00013394605052513,-0.00013394795147312,0.00013394459114497,-0.00012428766964833,0.00012428468794644,-0.00012428830924498,0.00012428409226523,-0.00012428681936702,0.00012428555280146,-0.00012428619668632,0.00012428617622535,-0.00010143169028823,0.00010142573755003,0.74589761380075,128566,2924,0.00052448097563227,0.00058551740975552,0.00049546427342838,26.025594148997,-3.179524680802e-05,-3.179524680802e-05,-3.179524680802e-05,1376978.6078438,0.0016067711248915
15791759,0.11387074194111,0.0019418392500649,0.00064515727041657,0.00067090613416679,0.00062577584548155,-0.00014363395530238,0.00014363609629869,1.4507786948795e-09,6.9251907979321e-10,-1.1192734728424e-09,3.3375914575779e-09,-9.9643673213441e-05,9.9649540454046e-05,-0.0001284691101206,0.00012847595652127,-0.00012846935931066,0.00012847571199439,-9.964735767567e-05,9.9645885471321e-05,-9.9648078791285e-05,9.9645111968317e-05,-0.00012847347402866,0.00012847154127993,-0.00012847372543959,0.0001284712886183,-0.00016060999734358,0.00016061092731863,-0.00016061025177568,0.0001606106726267,-0.00016060860777051,0.00016061240433502,-0.00016060886639448,0.00016061216038582,-0.00014197285285611,0.00014197720428267,-0.00014197360008379,0.00014197647239477,-0.00014197433907007,0.00014197572309997,-0.00014197507383409,0.00014197495967771,-9.964294976768e-05,9.9650272734469e-05,1.3298151133479e-09,-3.1236142191709e-09,-2.9091838770471e-09,1.1683922381691e-09,-0.00016106365710565,0.00016106191089566,-0.00015795667684167,0.00015796043356608,-0.00016215038621964,0.00016215166232781,-0.00016215471905005,0.00016214718333572,-0.00016018985301206,0.00016018821607656,-0.0001601885762551,0.00016018958939803,-0.00016019121798696,0.00016018673045782,-0.00016018993805387,0.00016018810697776,-0.00015796204772773,0.00015795483598408,-0.00015795814296638,0.00015795893521171,-0.00016214905689251,0.00016215303373302,-0.00016215336674302,0.00016214856315796,-0.00015796058106873,0.00015795634618227,-1.4631280817262e-09,-7.0074822173451e-10,-0.00013502747417654,0.00013502530489845,8.8151128217566e-10,-3.1410094907077e-09,-0.00011661042919851,0.00011660346217945,-0.00011415133173246,0.00011414538465848,-0.00011415158803833,0.00011414512283364,-0.00011660572905486,0.0001166082311823,-0.0001166064346554,0.00011660749532706,-0.00011414740332704,0.00011414934206841,-0.00011414764439781,0.00011414909623301,-0.00015199952577006,0.00015199846656109,-0.00015200086135327,0.00015199714058177,-0.00015199927045457,0.00015199871536908,-0.00015200060011061,0.00015199739168262,-0.00014248303109148,0.00014248029725904,-0.00014248380732461,0.00014247956478731,-0.00014248243680913,0.00014248090147465,-0.00014248169801411,0.00014248164623235,-0.00011660966260887,0.00011660422930528,0.78512882226308,128566,2924,0.00059830523504976,0.00067086702035461,0.0005624550719112,25.604194305571,-3.5166445555431e-05,-3.5166445555431e-05,-3.5166445555431e-05,1421726.2922733,0.0018333268360405
15991759,0.1267565380613,0.0021791217426114,0.00072379835118143,0.00075552670357952,0.00069979668785045,-0.00016090338707457,0.00016090528997801,1.396553097563e-09,5.1110665937144e-10,-5.0060496770745e-10,2.4687181364658e-09,-0.00011109037551099,0.00011109439627729,-0.0001448935729827,0.000144898752922,-0.00014489386863662,0.0001448984620442,-0.00011109245710004,0.00011109233848878,-0.00011109330304006,0.00011109144827838,-0.0001448964768879,0.0001448958058361,-0.00014489677113702,0.00014489551046287,-0.0001798667160838,0.00017986794023464,-0.00017986701233421,0.00017986764500935,-0.00017986580727631,0.00017986892206768,-0.0001798661094918,0.00017986863462823,-0.00015978164260331,0.00015978539323812,-0.00015978252103199,0.00015978453826557,-0.00015978263998476,0.00015978440682373,-0.00015978349832827,0.00015978352757404,-0.00011108951367183,0.00011109525811179,7.2885187395791e-10,-2.2452641249795e-09,-2.5641989937603e-09,1.0842898569539e-09,-0.00018127956936641,0.00018127808999211,-0.00017812793991782,0.00017813103689201,-0.00018279957306757,0.00018279979840925,-0.00018280245131953,0.00018279679118366,-0.00017972057773736,0.00017971886327953,-0.00017971943760793,0.00017972009544362,-0.00017972146519103,0.00017971787101052,-0.00017972032436719,0.00017971910387413,-0.00017813239614188,0.00017812635860342,-0.00017812891270682,0.00017813002957733,-0.00018279837792774,0.00018280103056826,-0.0001828012497266,0.00018279802484964,-0.00017813142497296,0.00017812736857902,-1.5296608505438e-09,-6.43016192248e-10,-0.00015056013980124,0.00015055796304551,6.6373834133706e-10,-2.9293752592228e-09,-0.00013121238613786,0.00013120572291281,-0.00012776977048599,0.00012776427907769,-0.00012777006740552,0.00012776398136801,-0.00013120796036205,0.00013121016903547,-0.00013120880600619,0.00013120929712006,-0.00012776625319147,0.00012776780970911,-0.00012776653735694,0.00012776751060623,-0.00016955076554289,0.00016954951406325,-0.00016955195670537,0.00016954833192999,-0.00016955046730039,0.00016954980581051,-0.00016955165454764,0.00016954862241123,-0.00016015739411989,0.00016015490881344,-0.0001601582922182,0.00016015406582882,-0.00016015706903855,0.00016015525554022,-0.00016015620006762,0.0001601561202397,-0.00013121150171828,0.00013120658890884,0.77894718201593,128566,2924,0.00067021745536257,0.00075504040893702,0.00062713780427469,25.204145553646,-3.8366835570834e-05,-3.8366835570834e-05,-3.8366835570834e-05,1502412.3531682,0.002054526829859
16191759,0.1393390492973,0.0024084492496177,0.00079979027121424,0.00083796990916678,0.0007706890692367,-0.0001776187330697,0.00017762049830324,1.3904598218407e-09,3.7922449054771e-10,-1.114134203156e-10,1.9367981632559e-09,-0.00012135635168049,0.00012135919948094,-0.00016083876092995,0.00016084293524227,-0.00016083909859602,0.00016084260232065,-0.00012135740704173,0.00012135818193671,-0.00012135837646461,0.00012135716934259,-0.00016084076681289,0.00016084090713949,-0.00016084110290985,0.00016084056952435,-0.00019864243348861,0.00019864386473064,-0.0001986427722223,0.00019864352819535,-0.00019864182141116,0.00019864453900317,-0.00019864216572937,0.00019864420971884,-0.00017694135087917,0.00017694478130381,-0.00017694235287734,0.00017694380342852,-0.00017694204345514,0.00017694410245377,-0.00017694302564925,0.00017694310109831,-0.00012135536723568,0.00012136018590715,3.9553898515845e-10,-1.6605949213547e-09,-2.2194967703972e-09,9.798485114991e-10,-0.00020107129797177,0.00020107005982323,-0.00019776315243207,0.00019776574034402,-0.00020288880003075,0.00020288851844487,-0.00020289077526265,0.00020288641807421,-0.00019885279920691,0.00019885117117431,-0.00019885180335533,0.00019885225393357,-0.00019885339375284,0.00019885048265499,-0.00019885239733163,0.00019885156598819,-0.00019776686149047,0.00019776181176767,-0.00019776381759076,0.00019776504030458,-0.00020288775387573,0.00020288960143075,-0.00020288972336733,0.0002028875023434,-0.00019776619806733,0.0001977625139242,-1.581819034176e-09,-5.6938930226779e-10,-0.0001654465907288,0.00016544443561146,4.5150276442322e-10,-2.6937361946313e-09,-0.00014504893584632,0.00014504261335198,-0.00014062164585152,0.00014061665958719,-0.00014062198711707,0.00014061632225524,-0.0001450448278404,0.00014504674209537,-0.00014504579181564,0.0001450457415525,-0.00014061857380393,0.00014061975318783,-0.00014061889572834,0.00014061940769158,-0.00018651836365537,0.00018651694288388,-0.00018651940638682,0.00018651591033719,-0.00018651802390474,0.00018651727707723,-0.00018651906190516,0.00018651624233713,-0.00017721050576551,0.00017720831433831,-0.00017721152788287,0.0001772073493137,-0.00017721045415366,0.00017720838946866,-0.00017720946222049,0.00017720937755859,-0.0001450479243532,0.00014504359793459,0.77198524481582,128566,2924,0.00073981820852178,0.00083744068929243,0.00068912601660676,24.804966352079,-4.1560269183371e-05,-4.1560269183371e-05,-4.1560269183371e-05,1595404.8492338,0.0022689816837488
16391759,0.15165504323116,0.002633308266502,0.00087426294470778,0.00091941096884971,0.00083963435294452,-0.00019404768282195,0.00019404943224288,1.4450527722584e-09,3.0760991150041e-10,1.2895468670666e-10,1.6815152133204e-09,-0.00013100133458852,0.00013100355221953,-0.00017657262255415,0.00017657633888051,-0.00017657300359959,0.00017657596252494,-0.00013100178367713,0.00013100315044149,-0.00013100287432469,0.00013100201890231,-0.00017657414863691,0.0001765748055272,-0.0001765745257491,0.00017657442712473,-0.00021715495682976,0.00021715657543597,-0.00021715533763511,0.00021715619778839,-0.00021715450288093,0.00021715708381803,-0.00021715488975329,0.00021715671204341,-0.00019383062352943,0.00019383399681023,-0.00019383175093517,0.00019383289459716,-0.00019383115352951,0.0001938334826963,-0.00019383225897328,0.00019383236014679,-0.00013100022302716,0.00013100466655247,2.5046154021158e-10,-1.3177867320861e-09,-1.9052947693026e-09,8.5575978284664e-10,-0.0002207056012584,0.00022070455399756,-0.0002172783498601,0.00021728053367793,-0.00022281852324258,0.0002228181016493,-0.00022282001288326,0.00022281647916566,-0.00021777663120116,0.00021777517690807,-0.00021777577629842,0.00021777611419113,-0.00021777706927967,0.00021777464881495,-0.00021777621480533,0.00021777558567355,-0.00021728146492326,0.00021727720063063,-0.00021727885082476,0.00021727999576557,-0.000222817620868,0.00022281904009809,-0.00022281910797393,0.00022281741611503,-0.00021728096847105,0.00021727773766041,-1.626736523529e-09,-4.8893165342305e-10,-0.00017994956655805,0.000179947447163,2.5192298804949e-10,-2.4563157422944e-09,-0.00015853368081631,0.00015852770675019,-0.0001530228848327,0.0001530184059525,-0.00015302326889173,0.00015301803044299,-0.00015852988134886,0.00015853152912133,-0.00015853096652653,0.00015853039601667,-0.00015302024615453,0.00015302107465136,-0.00015302060675097,0.00015302068159441,-0.00020313031495693,0.00020312874217422,-0.00020313121230212,0.00020312785582717,-0.00020312993383317,0.00020312911949915,-0.00020313082630117,0.00020312822897186,-0.00019399408069841,0.00019399219139588,-0.00019399522367603,0.00019399110455365,-0.00019399429716941,0.00019399199764935,-0.00019399318265749,0.00019399311145103,-0.00015853254710059,0.00015852880661743,0.77561769860033,128566,2924,0.00080822258529363,0.00091917874489401,0.00074951418192355,24.447672742895,-4.4418618056843e-05,-4.4418618056843e-05,-4.4418618056843e-05,1688017.3057652,0.0024800153929798
16591759,0.163800283696,0.0028623367870589,0.00094993955481496,0.0010029933448768,0.0009094038873671,-0.00021081288573291,0.00021081468826125,1.5335892378684e-09,2.6997681390836e-10,3.6119670337247e-10,1.5064627980221e-09,-0.00014092961631356,0.00014093136239412,-0.00019301933800871,0.00019302275485562,-0.00019301976165722,0.00019302233503265,-0.00014092955712644,0.00014093149159434,-0.00014093076383105,0.00014093024194149,-0.00019302047543783,0.00019302163264403,-0.000193020891606,0.00019302121449869,-0.00023590588318873,0.00023590772858065,-0.00023590630605964,0.00023590730963777,-0.00023590555940379,0.00023590810083336,-0.00023590598889017,0.00023590768664105,-0.00021127973470356,0.00021128314778941,-0.00021128098608086,0.00021128191922414,-0.00021128013093329,0.00021128276809233,-0.00021128135844321,0.00021128152216121,-0.00014092838114921,0.0001409326081151,1.3555757235333e-10,-1.0336270827257e-09,-1.6149827942224e-09,7.2965124564059e-10,-0.00024086560751327,0.00024086472214071,-0.00023749344465489,0.00023749525227352,-0.00024334837955943,0.00024334787274809,-0.0002433494698134,0.00024334663754548,-0.00023707508604182,0.0002370737966829,-0.00023707436493008,0.00023707459559725,-0.00023707539761111,0.00023707339864108,-0.00023707467773644,0.00023707419636716,-0.0002374960148765,0.00023749246181814,-0.0002374938108534,0.0002374948469383,-0.00024334761637373,0.0002433486742933,-0.00024334870295806,0.00024334743504247,-0.00023749565726527,0.00023749286446825,-1.6759495465251e-09,-4.1267708261191e-10,-0.00019466675110894,0.00019466465808594,5.7930180503909e-11,-2.2346487057733e-09,-0.00017263920169363,0.00017263354580136,-0.00016585499076136,0.00016585098740407,-0.00016585541778199,0.00016585057367367,-0.00017263570340539,0.00017263709646033,-0.00017263690272098,0.00017263582934047,-0.00016585277199959,0.00016585325933011,-0.00016585316931104,0.00016585281917719,-0.00021987614314943,0.00021987441596651,-0.00021987690296135,0.00021987366944891,-0.00021987572080131,0.00021987483634631,-0.00021987647516382,0.00021987408383577,-0.00021130636902645,0.00021130476812462,-0.00021130763233924,0.00021130355694349,-0.00021130684538074,0.00021130431019588,-0.00021130561043099,0.00021130555168316,-0.00017263794691896,0.00017263476505257,0.80315412626437,128566,2924,0.00087802298152422,0.0010030983424114,0.00081079097956547,24.193132702875,-4.6454938377003e-05,-4.6454938377003e-05,-4.6454938377003e-05,1773535.6271343,0.0026955710793929
16791759,0.1757746810731,0.0030884737345817,0.0010244943592345,0.0010862537385306,0.00097772563681664,-0.00022734190205034,0.00022734377994221,1.6334285629926e-09,2.4448595979822e-10,5.2835899140726e-10,1.4186363003554e-09,-0.00015004655283385,0.00015004800927109,-0.00020908093827557,0.00020908422449631,-0.00020908140265475,0.00020908376427131,-0.00015004612270478,0.00015004851039865,-0.00015004745899676,0.00015004713432392,-0.00020908182589419,0.00020908335808725,-0.00020908228619084,0.00020908289588214,-0.00025450280667398,0.00025450485133205,-0.00025450327212428,0.00025450439035528,-0.00025450256402355,0.00025450513685117,-0.00025450303471002,0.00025450468131835,-0.00022855261526673,0.00022855613848984,-0.00022855398818095,0.00022855478973453,-0.00022855292602533,0.0002285558464259,-0.00022855427862111,0.00022855447755221,-0.0001500451981057,0.0001500493733964,7.3831650920215e-11,-8.4333573411339e-10,-1.3545171352695e-09,5.9308020760088e-10,-0.00026102041999848,0.000261019659787,-0.00025779110545767,0.00025779255802849,-0.0002639844940702,0.00026398399920728,-0.00026398533158978,0.00026398300497144,-0.000256259243147,0.0002562581287606,-0.00025625865002401,0.00025625879528917,-0.00025625947676654,0.00025625781138765,-0.00025625888410909,0.00025625847746095,-0.00025779319968334,0.00025779024317295,-0.00025779138228243,0.00025779223823207,-0.0002639838626912,0.00026398466674582,-0.00026398469610896,0.00026398367155368,-0.00025779292746139,0.00025779056266552,-1.722818538077e-09,-3.3332382632653e-10,-0.00020905177848526,0.0002090497180771,-1.2270437524934e-10,-2.0196379446319e-09,-0.00018631582723615,0.00018631046696079,-0.00017812721743467,0.00017812368047155,-0.00017812768978746,0.00017812322541011,-0.00018631259022165,0.00018631374825232,-0.00018631390658136,0.00018631235640279,-0.00017812539138898,0.00017812556388866,-0.00017812582584463,0.00017812507776283,-0.00023639551162601,0.00023639364389159,-0.00023639614028524,0.00023639302841452,-0.00023639504840473,0.00023639410668007,-0.00023639566978099,0.00023639348508683,-0.00022842641792156,0.00022842510520306,-0.00022842780544166,0.00022842376919237,-0.00022842714932086,0.00022842439190886,-0.00022842579315352,0.00022842575653365,-0.00018631444176442,0.00018631180956594,0.80668160544003,128566,2924,0.00094683620709202,0.0010869892216541,0.00087068174877565,23.941259713771,-4.8469922289828e-05,-4.8469922289828e-05,-4.8469922289828e-05,1860053.7429443,0.0029087646650591
16991759,0.18757524491017,0.0033064650636579,0.0010963379559367,0.0011670681207932,0.0010430589869281,-0.00024334958205139,0.00024335151992195,1.7259110572453e-09,2.111301248402e-10,6.4562207105655e-10,1.3644404540087e-09,-0.00015812016795719,0.00015812139575849,-0.00022423955001154,0.00022424277306396,-0.00022424005612286,0.00022424227046158,-0.00015811945092602,0.00015812218963756,-0.00015812091121698,0.00015812069118611,-0.00022424027288548,0.0002242420798269,-0.00022424077512744,0.00022424157574976,-0.00027273940896283,0.00027274161006494,-0.00027273991664707,0.00027274110749646,-0.00027273922018446,0.00027274183759638,-0.00027273973283255,0.00027274134003446,-0.00024520335189717,0.00024520700003028,-0.00024520484831821,0.0002452055280611,-0.00024520360610889,0.0002452067655036,-0.00024520508244255,0.00024520527420687,-0.00015811869092413,0.00015812288421127,4.6544495906423e-11,-7.0398152245066e-10,-1.114005582203e-09,4.6115244643284e-10,-0.00028078089912596,0.00028078024768075,-0.0002776542765618,0.000277655414778,-0.00028427235624146,0.0002842719327322,-0.000284273025693,0.00028427109822325,-0.00027503711168668,0.00027503617358746,-0.0002750366386623,0.0002750367160598,-0.00027503729269595,0.00027503590995027,-0.0002750368202146,0.00027503645186823,-0.00027765594818862,0.00027765352268841,-0.00027765449517693,0.00027765515049663,-0.00028427184811553,0.00028427247660937,-0.00028427251394872,0.00028427164088027,-0.00027765573434856,0.00027765378631433,-1.7632883336411e-09,-2.4805536465241e-10,-0.00022285048903194,0.00022284847338762,-2.8482811307901e-10,-1.8106836877873e-09,-0.00019899680473187,0.00019899173375303,-0.00018944884827309,0.00018944576414579,-0.00018944936377159,0.00018944526866008,-0.00019899381183984,0.00019899477427142,-0.00019899524751792,0.00019899325484086,-0.00018944739166356,0.0001894472859937,-0.00018944786443921,0.00018944675406179,-0.00025249898399193,0.0002524969955677,-0.00025249948942378,0.00025249650363535,-0.00025249847918371,0.00025249750070779,-0.00025249897672923,0.00025249700185164,-0.00024491822523244,0.00024491720363826,-0.0002449197352947,0.00024491574424656,-0.00024491920324569,0.00024491624325515,-0.00024491772481438,0.00024491773204132,-0.00019899529451054,0.00019899319697104,0.79134032769534,128566,2924,0.0010134753976683,0.0011692318783794,0.00092812869293187,23.689495248169,-5.0484038014645e-05,-5.0484038014645e-05,-5.0484038014645e-05,1948095.3930685,0.0031157190987124
17191759,0.19892800932349,0.0035107009178368,0.001163676884582,0.0012432059473941,0.0011038180858607,-0.00025784394754071,0.00025784604010549,1.8649749153259e-09,2.2610180320467e-10,5.3114021287667e-10,1.6406268074404e-09,-0.00016460999413398,0.00016461166158321,-0.00023756275430357,0.00023756655963973,-0.0002375632975719,0.000237566020363,-0.00016460953435156,0.00016461218226084,-0.00016461113724753,0.00016461054675861,-0.00023756385134345,0.00023756548239198,-0.00023756440319229,0.00023756492994711,-0.00028954772032098,0.00028954998753872,-0.0002895482713801,0.00028954944220122,-0.0002895474037742,0.00028955034188364,-0.0002895479559696,0.00028954980451523,-0.00026018133759885,0.00026018538475566,-0.00026018295105946,0.00026018379821,-0.00026018171702579,0.00026018502624964,-0.00026018332047622,0.00026018341076457,-0.00016460840753576,0.00016461325472311,2.5193361807149e-10,-8.8516789199321e-10,-9.3419606326035e-10,3.0436705092787e-10,-0.00029897022467452,0.00029896960001077,-0.0002958511485041,0.00029585209674166,-0.00030296490701074,0.00030296500364744,-0.0003029659530374,0.00030296377540515,-0.00029231530482683,0.0002923146366922,-0.00029231494179708,0.00029231506558816,-0.00029231561285871,0.00029231424095936,-0.00029231524715338,0.00029231467242847,-0.00029585261647904,0.00029585040803211,-0.00029585148553304,0.00029585170732599,-0.00030296451164895,0.00030296542995057,-0.00030296555032281,0.00030296421089089,-0.00029585227061224,0.00029585080510869,-1.8005262012728e-09,-1.5793774714149e-10,-0.00023514821384794,0.00023514625159666,-4.2378046049061e-10,-1.6159267951789e-09,-0.00020982208478468,0.00020981725852763,-0.00019904671999009,0.00019904406758326,-0.00019904728415644,0.00019904352562619,-0.00020981928112941,0.00020982008067902,-0.00020982082962055,0.00020981844777931,-0.00019904559097292,0.00019904525046591,-0.00019904609995237,0.00019904467543075,-0.00026718558421369,0.00026718349734261,-0.00026718597944033,0.00026718311362892,-0.00026718503918398,0.00026718404408854,-0.00026718542261711,0.00026718365581959,-0.00025974335777852,0.00025974262802497,-0.00025974499664074,0.00025974104001265,-0.00025974457143012,0.00025974143318007,-0.00025974297393485,0.00025974304131756,-0.00020982043342109,0.00020981885623458,0.77293680911254,128566,2924,0.0010738121398676,0.0012449292724988,0.00097932470853837,23.132142902574,-5.4942856779405e-05,-5.4942856779405e-05,-5.4942856779405e-05,2028196.7951423,0.0033035553658758
17391759,0.20947523470778,0.0036928052383813,0.0012237987089814,0.0013113842099225,0.0011576223194774,-0.00026995577156223,0.00026995811574254,2.0565605937833e-09,2.8587646227325e-10,1.9885529032797e-10,2.2355710582946e-09,-0.0001690041542116,0.00016900682364956,-0.00024813713583535,0.00024814217453576,-0.00024813774020695,0.00024814157610043,-0.00016900445858505,0.00016900653832959,-0.00016900615903275,0.00016900481662059,-0.00024813914372327,0.00024814015325768,-0.0002481397305824,0.00024813956868464,-0.00030399980791167,0.00030400205589078,-0.00030400039766767,0.00030400147220714,-0.00030399918204129,0.00030400272199609,-0.00030399978290774,0.00030400213518393,-0.00027253913970956,0.00027254388868866,-0.00027254089913343,0.00027254216088403,-0.00027253984367065,0.00027254320864813,-0.00027254156177928,0.000272541483707,-0.00016900238583218,0.00016900858343149,6.9185058905706e-10,-1.4070682433693e-09,-8.2910317384951e-10,1.192838630481e-10,-0.00031453577139475,0.00031453507440475,-0.00031126229847582,0.00031126320742572,-0.00031897020839401,0.00031897124772895,-0.0003189721713213,0.00031896907523975,-0.00030713252278102,0.00030713219700614,-0.0003071322475699,0.00030713253487629,-0.00030713313540964,0.00030713148484655,-0.00030713286812919,0.0003071318146223,-0.00031126380002972,0.00031126148455483,-0.00031126296570781,0.00031126247946699,-0.00031896988567335,0.0003189715906099,-0.00031897188444412,0.00031896939674114,-0.00031126314974689,0.0003112621863329,-1.8292684516345e-09,-6.7051289653943e-11,-0.00024518674371619,0.0002451848448501,-5.3795071713088e-10,-1.4357752088935e-09,-0.0002180066158243,0.00021800207249113,-0.00020622583849715,0.00020622356764466,-0.00020622642859376,0.000206223001626,-0.00021800395251726,0.0002180046896826,-0.0002180056727619,0.00021800289263574,-0.00020622496727611,0.00020622445985041,-0.00020622553220729,0.00020622382331976,-0.00027962138225489,0.00027961921601686,-0.00027962167211616,0.00027961893283324,-0.00027962079271937,0.00027961980901328,-0.00027962108093657,0.00027961950955256,-0.0002719614524897,0.00027196098115897,-0.00027196319241135,0.00027195929433004,-0.00027196288105173,0.00027195957423226,-0.00027196115102219,0.00027196131365195,-0.00021800488952924,0.00021800373363022,0.74411373367882,128566,2924,0.0011242294633521,0.0013097026887,0.0010211145561338,22.132429180515,-6.2940566555877e-05,-6.2940566555877e-05,-6.2940566555877e-05,2096263.9322798,0.0034610731568425
17591759,0.21925540244115,0.0038551863587593,0.0012775078887656,0.0013723117140582,0.0012053667559355,-0.00028063482978712,0.0002806373596401,2.209564008623e-09,3.1644916659592e-10,-1.7059244881191e-11,2.6467182487949e-09,-0.0001724430821603,0.00017244646731622,-0.00025707462881096,0.00025708051187388,-0.00025707526260876,0.00025707987932301,-0.00017244391032413,0.00017244569197591,-0.0001724457439886,0.00017244383062172,-0.00025707725768309,0.0002570778884824,-0.00025707788830004,0.00025707725969131,-0.0003169897002978,0.00031699196943643,-0.00031699033454029,0.00031699134224687,-0.00031698887491277,0.00031699284166917,-0.00031698951384083,0.00031699221709648,-0.00028327188915144,0.00028327713963135,-0.00028327375895658,0.00028327529901434,-0.00028327278993165,0.00028327625762475,-0.00028327463844934,0.00028327440133328,-0.00017244122731458,0.00017244833084293,9.7977030523384e-10,-1.7331762274354e-09,-7.3444775096359e-10,-7.2568178974298e-12,-0.00032839727062167,0.00032839653407314,-0.00032482723045679,0.00032482809439278,-0.00033320215773508,0.00033320385579865,-0.00033320473137559,0.00033320105835628,-0.00032040212005201,0.00032040202488327,-0.00032040191931918,0.00032040228542721,-0.00032040293284261,0.00032040110390013,-0.00032040273424606,0.0003204013622479,-0.00032482871697703,0.00032482638188012,-0.00032482809149166,0.00032482716985074,-0.00033320192536095,0.00033320411865233,-0.00033320450333923,0.00033320131823624,-0.00032482786023855,0.00032482730085127,-1.8632510540588e-09,2.8430281464306e-11,-0.00025392446304925,0.00025392262509901,-6.1441734554653e-10,-1.2964423214207e-09,-0.00022468429375807,0.00022467987324247,-0.00021209563273902,0.00021209368583163,-0.00021209627330624,0.00021209306818222,-0.00022468175509163,0.00022468243980357,-0.00022468355978624,0.00022468053729861,-0.00021209500341274,0.00021209437612099,-0.00021209559646887,0.00021209370524524,-0.00029069942354538,0.00029069720556684,-0.00029069964632676,0.00029069699274162,-0.00029069879438639,0.00029069783842195,-0.00029069900858545,0.00029069761551673,-0.00028256821878022,0.00028256801931217,-0.00028257009306266,0.00028256619251831,-0.00028256984471979,0.00028256640824701,-0.00028256799977457,0.00028256827086199,-0.00022468241915197,0.00022468169643134,0.71798589268148,128566,2924,0.0011686811226351,0.0013673814810239,0.0010574883419945,21.121200172303,-7.1030398621575e-05,-7.1030398621575e-05,-7.1030398621575e-05,2160482.5672054,0.0036000734127468
17791759,0.22832662672041,0.0040007807422487,0.001325749309014,0.0014270147891662,0.0012480166440685,-0.00029010894834446,0.00029011156853877,2.3177181937634e-09,2.9870528868126e-10,-8.4669730022868e-11,2.8081656472686e-09,-0.00017521554950619,0.00017521913019946,-0.00026474199776843,0.00026474824228145,-0.00026474267283984,0.00026474756716807,-0.00017521648054432,0.00017521825240541,-0.00017521843793613,0.00017521626856176,-0.00026474485177042,0.00026474539200824,-0.00026474552465983,0.00026474472211629,-0.00032870565132654,0.00032870797646379,-0.00032870632772833,0.00032870730762784,-0.00032870475250655,0.00032870892464131,-0.0003287054334146,0.0003287082579867,-0.00029265887589627,0.0002926644159008,-0.00029266087032492,0.00029266245259965,-0.00029265985324577,0.0002926634575909,-0.00029266182578989,0.00029266147934356,-0.00017521357198191,0.00017522111768512,1.093191607438e-09,-1.8503081289156e-09,-6.7535161530997e-10,-6.9397722461921e-11,-0.00034078673951267,0.00034078600016947,-0.00033681731257459,0.00033681813211063,-0.00034588398888018,0.00034588595148397,-0.00034588678675353,0.00034588292276462,-0.0003323488335579,0.00033234884972272,-0.00033234867182985,0.00033234906986633,-0.00033234971811771,0.00033234785205285,-0.00033234955877925,0.00033234806972834,-0.00033681875571461,0.00033681646072048,-0.00033681824902429,0.00033681712914198,-0.00034588379610673,0.00034588617534322,-0.00034588659918503,0.00034588314216628,-0.00033681782433491,0.00033681745757662,-1.9027922177191e-09,1.1463023031173e-10,-0.00026159243792834,0.00026159064694676,-6.5034701493748e-10,-1.2123138771428e-09,-0.00023022150506067,0.00023021712802876,-0.00021698867059405,0.00021698693113282,-0.00021698935217215,0.00021698627143548,-0.00023021896355752,0.00023021970027004,-0.00023022089118071,0.00023021767282583,-0.00021698816065158,0.00021698750422287,-0.00021698879425485,0.00021698678982859,-0.00030061240585693,0.00030061015260976,-0.00030061258864783,0.00030060997999675,-0.00030061173464801,0.00030061082749615,-0.00030061190885315,0.00030061064421677,-0.00029184994848855,0.00029184995837511,-0.00029185194665885,0.00029184800952147,-0.00029185173811973,0.00029184818469041,-0.00029184976956908,0.00029185017024175,-0.00023021950910627,0.00023021907436599,0.69669207013202,128566,2924,0.0012081158788598,0.0014189321946407,0.0010894082927227,20.126006519695,-7.8991947842437e-05,-7.8991947842437e-05,-7.8991947842437e-05,2221212.8176383,0.0037234364461101
17991759,0.23674824011064,0.004134042019633,0.0013699461835025,0.00147712202018,0.0012869738159505,-0.00029866330624212,0.00029866595538583,2.3951836534195e-09,2.5062329510096e-10,-5.8106688395262e-11,2.8110564797203e-09,-0.0001776961960033,0.00017769966047519,-0.00027164932240742,0.00027165561534879,-0.00027165003850569,0.00027165489821062,-0.00017769698070066,0.00017769893091754,-0.00017769906214956,0.00017769682364626,-0.00027165215394318,0.00027165278913806,-0.00027165286919728,0.00027165207761852,-0.00033935794331381,0.00033936034728111,-0.00033935866177222,0.00033935963657435,-0.00033935705276014,0.00033936128710368,-0.00033935777537278,0.00033936057861921,-0.00030108399464133,0.00030108967867706,-0.00030108611257441,0.00030108759349111,-0.00030108496416763,0.00030108872874211,-0.00030108706071907,0.0003010866278867,-0.00017769409728403,0.00017770177047141,1.0989702643304e-09,-1.8211488934602e-09,-6.3642346478825e-10,-7.4902676554058e-11,-0.00035201180354675,0.00035201109802958,-0.00034762251208122,0.00034762331342411,-0.00035731736155494,0.00035731935192333,-0.0003573201370263,0.00035731634383445,-0.00034323794896903,0.00034323800422947,-0.00034323780181229,0.00034323820950545,-0.00034323882342884,0.00034323701454575,-0.0003432386784374,0.00034323721755717,-0.0003476239021052,0.00034762169190521,-0.00034762343942949,0.00034762231800518,-0.00035731718405481,0.00035731956140994,-0.00035731996389286,0.00035731654944365,-0.00034762297931259,0.00034762268196331,-1.9520660896577e-09,1.9141164338804e-10,-0.00026845466124159,0.00026845289792129,-6.5805454235695e-10,-1.1767662811512e-09,-0.00023505017313315,0.0002350457418684,-0.00022131519297193,0.0002213135658043,-0.00022131591650364,0.00022131286363436,-0.00023504755152956,0.00023504839513994,-0.00023504960085146,0.0002350462443936,-0.00022131472677735,0.0002213140964497,-0.00022131540095334,0.00022131333933076,-0.00030955777350392,0.00030955549154406,-0.00030955794212792,0.00030955533352043,-0.00030955706033595,0.00030955620833019,-0.00030955721995734,0.00030955603957203,-0.00030017773129936,0.00030017790682331,-0.00030017985474503,0.00030017583579977,-0.00030017965992819,0.00030017599632492,-0.00030017756746836,0.00030017810433613,-0.0002350480530576,0.00023504781240034,0.68920300567681,128566,2924,0.0012437211821382,0.0014656355828286,0.001117973507087,19.154429291151,-8.6764565670793e-05,-8.6764565670793e-05,-8.6764565670793e-05,2274728.2652545,0.0038347369244722
18191759,0.24456045453324,0.0042595298397405,0.0014115553794358,0.0015243238407271,0.0013236506195776,-0.00030653037347307,0.00030653304013618,2.4670414717162e-09,1.9659463291891e-10,1.2141388508033e-11,2.7585356186672e-09,-0.00018013662028818,0.00018013985798006,-0.00027822854552294,0.0002782347782749,-0.00027822930338137,0.00027823401871685,-0.00018013716195024,0.00018013937481344,-0.00018013936555322,0.00018013714437649,-0.00027823125862563,0.0002782320747374,-0.00027823201533006,0.00027823132115218,-0.00034910429366891,0.00034910679759137,-0.00034910505402517,0.00034910604492266,-0.00034910344297542,0.00034910769605335,-0.00034910420757674,0.00034910694550546,-0.00030889693090651,0.00030890271544204,-0.00030889917258944,0.00030890050709437,-0.0003088978602958,0.00030890180622669,-0.00030890008008522,0.00030889958239146,-0.00018013439855165,0.00018014209256875,1.0641333579123e-09,-1.7345334973541e-09,-6.1135179843103e-10,-5.0589169903232e-11,-0.00036235114706498,0.00036235049133699,-0.00035760361236578,0.00035760442172968,-0.00036780397625248,0.00036780589945504,-0.00036780663203959,0.00036780300950831,-0.0003532768615055,0.00035327692529544,-0.00035327671468539,0.00035327713057516,-0.00035327769478099,0.00035327597613699,-0.00035327755021289,0.00035327617908961,-0.00035760495851364,0.00035760283937866,-0.00035760449833541,0.00035760346651412,-0.00036780379958339,0.00036780610960618,-0.00036780645992742,0.00036780321547621,-0.00035760407730038,0.00035760378898051,-2.0121728491814e-09,2.5699644858196e-10,-0.00027472333154613,0.00027472157362445,-6.5626999770191e-10,-1.1740270553584e-09,-0.00023959876564586,0.00023959421739103,-0.00022542785307568,0.00022542627286348,-0.00022542861854827,0.00022542552924233,-0.00023959602200729,0.0002395969932708,-0.0002395981938322,0.00023959471799862,-0.00022542738875477,0.00022542680371166,-0.00022542810374633,0.00022542600333743,-0.00031769830999891,0.00031769599150601,-0.00031769847834628,0.00031769583415723,-0.00031769755481758,0.00031769675020166,-0.00031769771399879,0.00031769658174875,-0.0003078875511611,0.00030788785559907,-0.00030788979902478,0.00030788566314936,-0.00030788960420986,0.00030788582262499,-0.00030788738816669,0.00030788805346337,-0.00023959652282504,0.00023959640982245,0.70094114960159,128566,2924,0.0012764649827292,0.0015086517242714,0.0011440674269151,18.18346824407,-9.4532254047442e-05,-9.4532254047442e-05,-9.4532254047442e-05,2315161.8937858,0.0039369934290038
18391759,0.25198088677579,0.0043789716165668,0.0014511585939915,0.0015692971269201,0.0013585158956552,-0.00031445225176162,0.00031445483587963,2.4881883956922e-09,9.3138268270719e-11,2.4903451240188e-10,2.4352869941466e-09,-0.00018283507881724,0.00018283756215704,-0.00028502792076551,0.00028503355687186,-0.00028502871636756,0.00028503275668203,-0.00018283496174611,0.00018283776805431,-0.00018283728583916,0.00018283541256727,-0.00028503009409657,0.00028503141809048,-0.00028503088937703,0.00028503062353293,-0.00035881338017786,0.00035881602939786,-0.00035881418276134,0.00035881523470603,-0.00035881271347491,0.00035881674140444,-0.00035881351944091,0.00035881595006293,-0.0003168124772683,0.00031681811473945,-0.00031681483977219,0.00031681578509214,-0.00031681321892346,0.00031681739294998,-0.0003168155634454,0.00031681504389875,-0.0001828327452087,0.00018283991760072,8.4731265434179e-10,-1.3888496367293e-09,-5.6184039048526e-10,2.5732230398025e-11,-0.00037267612219408,0.00037267558722619,-0.00036760908103717,0.00036760985986341,-0.00037824557137227,0.00037824706549267,-0.00037824768187886,0.00037824473028834,-0.00036329980228608,0.00036329978652588,-0.00036329964798274,0.00036330000012546,-0.00036330045347668,0.00036329902442999,-0.00036330029992656,0.00036329923709624,-0.00036761026441944,0.00036760843612141,-0.00036760977905986,0.00036760909473803,-0.00037824539362342,0.00037824728534915,-0.0003782474969145,0.00037824494894718,-0.00036760957114356,0.0003676092010289,-2.0801125818261e-09,3.1628274557518e-10,-0.00028109267258394,0.00028109090561458,-6.4724279845506e-10,-1.1933372512848e-09,-0.00024440299928644,0.00024439828342522,-0.00022978575081917,0.00022978417543552,-0.00022978655991294,0.00022978338819054,-0.00024440012572598,0.00024440123468438,-0.00024440240886337,0.00024439883790751,-0.00022978527525311,0.00022978474640022,-0.0002297860267368,0.00022978390635499,-0.0003258599935011,0.00032585763367404,-0.00032586017347819,0.00032585746851912,-0.00032585919625572,0.00032585843366745,-0.00032585936546812,0.00032585825854544,-0.00031569482905825,0.00031569524339012,-0.00031569720547305,0.00031569292467688,-0.00031569699841818,0.00031569309383624,-0.00031569465926887,0.00031569544851504,-0.00024440062725332,0.00024440060871063,0.70344890569003,128566,2924,0.0013094357186966,0.0015516062937163,0.0011705796663721,17.511927262246,-9.9904581902028e-05,-9.9904581902028e-05,-9.9904581902028e-05,2353391.9365318,0.0040398462494285
18591759,0.25927418925855,0.0044937486594055,0.0014892423889573,0.0016125922128336,0.0013919140576146,-0.00032283928101145,0.00032284166773372,2.4559309591421e-09,-7.0938838440709e-11,6.1938018784572e-10,1.8585376211941e-09,-0.00018590549044686,0.00018590667198448,-0.00029220422540547,0.00029220877673673,-0.00029220507003363,0.00029220792221649,-0.00018590431926827,0.00018590796130199,-0.00018590673945056,0.000185905508922,-0.00029220549415222,0.00029220758036971,-0.00029220631913588,0.00029220675308788,-0.00036902960495373,0.00036903241154126,-0.00036903044798948,0.0003690315757583,-0.00036902924420505,0.00036903281174487,-0.00036903009602933,0.00036903197275826,-0.00032518773457785,0.00032519300222178,-0.00032519023097671,0.00032519052966703,-0.00032518816986112,0.00032519258306701,-0.00032519063248606,0.00032519010786701,-0.00018590299678554,0.00018590918911581,4.8152067490332e-10,-8.1846986646917e-10,-4.8561869671157e-10,1.4793276971131e-10,-0.00038348243265154,0.00038348209034328,-0.00037806246265555,0.00037806319128376,-0.000389156696475,0.00038915745268915,-0.0003891578910701,0.00038915605828082,-0.00037382188286109,0.00037382172494417,-0.00037382170953737,0.00037382195365342,-0.00037382222798555,0.00037382127801493,-0.00037382206198902,0.00037382150155415,-0.00037806338199872,0.00037806203415113,-0.00037806285995272,0.00037806273207162,-0.00038915650394836,0.00038915770202948,-0.00038915769687289,0.00038915628680685,-0.00037806300962957,0.0003780624771564,-2.1465823670083e-09,3.698927155388e-10,-0.0002879310408397,0.00028792926072316,-6.3627500815575e-10,-1.2192824924857e-09,-0.00024956644824423,0.00024956160236537,-0.00023453139303811,0.00023452979799239,-0.00023453223235191,0.00023452897931225,-0.00024956344950124,0.00024956473059067,-0.00024956587143227,0.00024956218463096,-0.00023453089225354,0.00023453043167286,-0.00023453168725254,0.00023452954360071,-0.00033453599629486,0.00033453359395386,-0.00033453618732383,0.00033453342100889,-0.00033453515557733,0.00033453443593644,-0.00033453534142415,0.00033453424774914,-0.00032393706670218,0.00032393756598646,-0.00032393955352057,0.00032393513676879,-0.00032393934099805,0.00032393530841404,-0.00032393687473068,0.00032393778859673,-0.00024956399040106,0.00024956401576058,0.68932006420037,128566,2924,0.0013443409493914,0.0015965615093943,0.0011990433109229,17.263831356302,-0.00010188934914959,-0.00010188934914959,-0.00010188934914959,2399842.031316,0.0041486212449861
18791759,0.2664473334069,0.0046134575539699,0.0015288780383915,0.0016577850439136,0.0014267944716647,-0.00033147466204524,0.00033147697101382,2.4787926368144e-09,-1.6997389935523e-10,8.5528766549744e-10,1.5398385945394e-09,-0.00018963783598238,0.00018963829150618,-0.00030015058584107,0.00030015454623332,-0.0003001514694466,0.00030015365813491,-0.00018963598159017,0.0001896402370452,-0.00018963854657378,0.00018963764183848,-0.00030015129348773,0.00030015389440758,-0.00030015217023394,0.00030015301700223,-0.000379291823029,0.00037929477738666,-0.00037929270853555,0.0003792938988094,-0.00037929164184499,0.00037929498935673,-0.0003792925332724,0.00037929411195911,-0.0003340443647473,0.0003340494849069,-0.00033404697793207,0.0003340469040726,-0.00033404461401709,0.00033404926034273,-0.00033404720256651,0.00033404666531193,-0.00018963523793351,0.00018964090358594,2.7361563659777e-10,-4.6612928229098e-10,-4.28771001252e-10,2.2473946356954e-10,-0.00039450784856885,0.00039450764969444,-0.00038886946742749,0.00038887014423972,-0.00040024963682867,0.00040024997656897,-0.00040025028378559,0.00040024913120911,-0.00038450621040225,0.00038450601396799,-0.00038450603339624,0.00038450625078147,-0.0003845063768565,0.0003845057521487,-0.00038450620280159,0.00038450598614755,-0.00038887021525437,0.00038886915431892,-0.00038886967095565,0.00038886987892111,-0.00040024943491339,0.00040025022098181,-0.00040025008131677,0.00040024936994829,-0.00038887002043186,0.00038886941357103,-2.2257465077759e-09,4.2014388190659e-10,-0.00029499545634321,0.00029499364719056,-6.3939893310802e-10,-1.2467373718999e-09,-0.00025542691590408,0.00025542186280106,-0.00023992645587746,0.00023992485500399,-0.00023992734699396,0.00023992398996304,-0.00025542372351444,0.00025542510749675,-0.00025542626300987,0.00025542245532682,-0.00023992591480404,0.00023992548752507,-0.0002399267517253,0.00023992455849649,-0.00034325230267179,0.00034324983853912,-0.00034325250241178,0.00034324965507597,-0.00034325142058531,0.00034325072203068,-0.00034325161117403,0.000343250525565,-0.0003326035412144,0.00033260413305476,-0.0003326061626918,0.00033260157868482,-0.00033260593676935,0.00033260176412989,-0.0003326033469578,0.0003326043626993,-0.00025542430216377,0.00025542441239926,0.7304348589987,128566,2924,0.0013802788123595,0.0016424259324585,0.0012284469385044,17.026723690761,-0.00010378621047391,-0.00010378621047391,-0.00010378621047391,2433641.3652614,0.0042603007133932
18991759,0.27350186751722,0.0047331810862631,0.0015684617261661,0.0017031232087197,0.0014615961513773,-0.00034005103656714,0.0003400533699474,2.5535671527543e-09,-2.2084094942382e-10,9.4586645862014e-10,1.4752582400278e-09,-0.00019310252594844,0.00019310273450386,-0.00030815308582063,0.00030815696145858,-0.00030815401118941,0.00030815603211653,-0.00019310040164039,0.0001931049559716,-0.00019310308895382,0.00019310223537777,-0.00030815364323787,0.00030815646637344,-0.00030815456195187,0.00030815554572853,-0.00038948552204123,0.00038948859333526,-0.00038948644963471,0.00038948767243678,-0.00038948539076362,0.00038948875243546,-0.00038948632393648,0.00038948783328782,-0.00034293169415939,0.00034293690987646,-0.00034293443028153,0.0003429342059362,-0.00034293189260498,0.00034293673699552,-0.00034293460400798,0.00034293401830008,-0.00019309980778032,0.0001931054691168,2.4506545410977e-10,-3.4272029593904e-10,-3.7151089427367e-10,2.5886499992547e-10,-0.00040556572104062,0.00040556561363431,-0.00039980698013971,0.00039980767236383,-0.00041139542969065,0.00041139572060736,-0.0004113959235688,0.00041139502272084,-0.00039512728509393,0.00039512713746254,-0.00039512711562927,0.00039512736720932,-0.0003951274030013,0.00039512692515738,-0.00039512723642873,0.00039512715211498,-0.00039980765002114,0.00039980675385602,-0.00039980713103432,0.0003998074585195,-0.00041139523549507,0.00041139595773461,-0.00041139573010337,0.00041139525399164,-0.00039980750728812,0.00039980696175768,-2.3013349793821e-09,4.705174715758e-10,-0.00030198153682673,0.00030197970203419,-6.6502262512559e-10,-1.2485809954838e-09,-0.0002612905915686,0.00026128540986409,-0.00024525170798195,0.00024525014498376,-0.00024525264267434,0.00024524923895961,-0.00026128729818027,0.00026128875515442,-0.00026128995613355,0.00026128597797771,-0.0002452511920947,0.00024525075564503,-0.00024525206868747,0.00024524978250776,-0.00035190519324327,0.00035190265440333,-0.00035190538551045,0.00035190247920234,-0.00035190426961545,0.00035190358005941,-0.00035190445181254,0.00035190339164689,-0.00034132574488751,0.00034132644328983,-0.00034132849000493,0.00034132376499661,-0.00034132827083958,0.00034132394262754,-0.00034132555898116,0.00034132666488006,-0.0002612878510325,0.00026128808175594,0.74318761816761,128566,2924,0.0014159707174504,0.0016884232243019,0.0012575240796721,16.790061487969,-0.00010567950809625,-0.00010567950809625,-0.00010567950809625,2461894.5503476,0.0043715510259626
19191759,0.28066655331712,0.0048617797388969,0.0016108474183935,0.0017519809986905,0.0014989513218129,-0.00034990480902784,0.00034990714235346,2.6166182725197e-09,-2.847947875162e-10,1.1835609697748e-09,1.2383014965481e-09,-0.00019775907109402,0.00019775868291839,-0.0003178187950233,0.00031782224962145,-0.00031781976428224,0.00031782127549043,-0.00019775636728067,0.00019776150213993,-0.00019775916764028,0.00019775866496203,-0.00031781889656042,0.00031782222801815,-0.00031781985172887,0.00031782126764958,-0.00040088021840217,0.00040088348701229,-0.0004008811874293,0.00040088252441157,-0.00040088024075779,0.00040088348845605,-0.00040088121717792,0.00040088252626502,-0.00035329603376073,0.00035330121815808,-0.00035329889714562,0.00035329838694766,-0.00035329607792641,0.0003533012008273,-0.0003532989119236,0.00035329835931405,-0.00019775622365395,0.00019776155057991,7.6720316570521e-11,-4.3282309828674e-11,-2.7151878871385e-10,2.8653171184406e-10,-0.00041806558289159,0.00041806560032798,-0.00041235427826088,0.0004123548754587,-0.0004240231604915,0.00042402314385974,-0.00042402319040452,0.00042402290712455,-0.00040704893374078,0.00040704877724763,-0.00040704878675582,0.00040704898411832,-0.00040704890141645,0.00040704871986127,-0.00040704875883906,0.00040704892242168,-0.00041235471745571,0.00041235418235267,-0.00041235427473735,0.00041235481610732,-0.00042402299161154,0.00042402336061054,-0.00042402302308424,0.00042402311271053,-0.00041235473633975,0.00041235423203575,-2.3783940861109e-09,5.183754643512e-10,-0.00031014538012006,0.00031014351575467,-7.1762944195957e-10,-1.2271269910797e-09,-0.00026871435386261,0.00026870909936469,-0.00025197103721033,0.00025196955437841,-0.00025197201207813,0.00025196861082244,-0.00026871102179866,0.0002687125065227,-0.00026871380166306,0.00026870959498793,-0.00025197060208444,0.00025197010473801,-0.00025197151801785,0.00025196908565865,-0.00036168623397863,0.00036168359907252,-0.0003616864017876,0.00036168345061183,-0.00036168526831443,0.00036168456744478,-0.00036168542685194,0.00036168440355487,-0.00035152007477112,0.00035152088911328,-0.00035152293957352,0.0003515180897851,-0.00035152274662536,0.00035151823918056,-0.0003515199111253,0.00035152108837885,-0.000268711496786,0.00026871188532086,0.78534703263777,128566,2924,0.0014569768874824,0.0017404161256886,0.0012915018485452,16.952882529905,-0.00010437693976076,-0.00010437693976076,-0.00010437693976076,2490684.6899414,0.0044990958417999
19391759,0.28814714454044,0.0049931277008313,0.0016541036949873,0.0018021611679222,0.0015368628379218,-0.0003606525972617,0.00036065486521589,2.6433650659529e-09,-3.7741234737068e-10,1.4810513608976e-09,8.7310621902786e-10,-0.00020245257925599,0.00020245140355895,-0.00032804998418966,0.00032805274304412,-0.00032805097410233,0.00032805174504461,-0.00020244912705927,0.00020245500716171,-0.0002024520834807,0.00020245200700688,-0.00032804943322223,0.00032805340507296,-0.00032805043928145,0.00032805239016631,-0.00041339626223542,0.00041339972978162,-0.00041339727722928,0.0004133987218113,-0.00041339650644848,0.00041339950522755,-0.00041339751769417,0.00041339850946684,-0.00036453960059171,0.00036454459989908,-0.00036454256499166,0.00036454166849696,-0.00036453940752328,0.00036454481879889,-0.00036454237707135,0.00036454184272023,-0.00020244967007356,0.00020245434546477,-1.8214629179111e-10,3.9021990503505e-10,-1.329869280024e-10,3.1792155236186e-10,-0.0004317828357246,0.00043178301784441,-0.00042612235269516,0.00042612277244553,-0.00043796374598162,0.00043796327780437,-0.0004379631160157,0.00043796370802635,-0.00042007888962014,0.00042007870460639,-0.00042007878352056,0.00042007887052089,-0.00042007864115362,0.000420078871081,-0.00042007852761029,0.00042007904414737,-0.00042612245355508,0.00042612241424867,-0.00042612210138645,0.00042612296208594,-0.00043796363617431,0.00043796344450881,-0.00043796296501518,0.00043796389688483,-0.00042612269028984,0.0004261222507165,-2.4516972007396e-09,5.7774757947549e-10,-0.00031908386737184,0.00031908198861111,-7.7881049445947e-10,-1.1809320165264e-09,-0.00027654799814045,0.00027654265576041,-0.00025906530093375,0.00025906396761779,-0.00025906633674977,0.00025906296408861,-0.00027654466558396,0.00027654611195613,-0.00027654751663902,0.00027654311459784,-0.00025906500446638,0.00025906441167931,-0.0002590659425441,0.00025906336491586,-0.00037249504625507,0.00037249232271002,-0.00037249518590937,0.00037249220658737,-0.00037249404209799,0.00037249332929483,-0.00037249416042331,0.00037249320904525,-0.00036259238829638,0.00036259337285206,-0.00036259540041413,0.00036259042512656,-0.00036259522646821,0.00036259055519885,-0.00036259227811899,0.00036259351930787,-0.00027654496314736,0.00027654562254803,0.76951387915599,128566,2924,0.0015017020770634,0.001797469878462,0.0013287026621819,17.466257467502,-0.00010026994025998,-0.00010026994025998,-0.00010026994025998,2531602.1861943,0.004638716883846
19591759,0.29595618587165,0.0051268880896375,0.0016981696066415,0.0018534782864414,0.0015752401965545,-0.00037168890580317,0.00037169115097739,2.696886882104e-09,-4.5321151293467e-10,1.6472997610789e-09,6.8277687542925e-10,-0.000207136699858,0.00020713499986073,-0.00033830424485496,0.0003383066813397,-0.00033830528801345,0.0003383056327432,-0.00020713275672682,0.00020713907485563,-0.0002071358241346,0.00020713596785464,-0.0003383033463277,0.00033830768418668,-0.00033830439197068,0.0003383066314802,-0.00042634257449621,0.00042634617619152,-0.00042634362919995,0.00042634512815245,-0.00042634292978709,0.00042634583430611,-0.00042634398674643,0.00042634479210781,-0.00037597623990804,0.00037598123467408,-0.00037597933998407,0.00037597816707166,-0.00037597593989267,0.00037598156349956,-0.00037597902426767,0.00037597847146788,-0.0002071336367923,0.00020713808779353,-2.8714978766815e-10,6.2000292642442e-10,-6.7596544971951e-12,3.0893860056429e-10,-0.00044590650023361,0.00044590680580128,-0.0004402187253754,0.00044021901987537,-0.0004523252902117,0.00045232464653093,-0.00045232431689325,0.00045232541641861,-0.00043354400455337,0.00043354387856069,-0.0004335439381526,0.00043354400271229,-0.00043354364545315,0.00043354415897549,-0.00043354357788541,0.00043354428428997,-0.00044021857957781,0.00044021890638342,-0.00044021836950915,0.00044021931241549,-0.00045232520921679,0.00045232477681661,-0.0004523242244744,0.0004523255491724,-0.0004402189353194,0.00044021861960007,-2.5141085371695e-09,6.3754162079938e-10,-0.00032821310671718,0.00032821122538615,-8.4800512275262e-10,-1.1150747947621e-09,-0.00028430349453421,0.0002842981880272,-0.00026610661787933,0.00026610544725175,-0.00026610768782172,0.00026610441237686,-0.00028430015160409,0.00028430160864771,-0.00028430315245277,0.00028429846577721,-0.00026610643454712,0.00026610575606021,-0.00026610742299371,0.00026610465617412,-0.00038364227120456,0.00038363945695093,-0.00038364236192741,0.00038363938783203,-0.00038364122317488,0.00038364050795295,-0.0003836412986237,0.0003836404276956,-0.00037383618528308,0.00037383732157648,-0.00037383930814159,0.00037383426514689,-0.00037383918767842,0.00037383434219907,-0.00037383611060638,0.00037383743222948,-0.00028430036101671,0.00028430124285,0.75193871900646,128566,2924,0.0015476264296324,0.0018562104247902,0.001366696283204,17.988786711571,-9.6089706307435e-05,-9.6089706307435e-05,-9.6089706307435e-05,2581167.0468123,0.0047820548438481
19791759,0.30410075083184,0.0052625958658767,0.0017429256698058,0.0019057104259244,0.0016139597701465,-0.0003829698734385,0.00038297213105674,2.7663151547724e-09,-5.1042283696211e-10,1.7112240942491e-09,6.3240042286589e-10,-0.00021182085451201,0.00021181892413963,-0.00034855757809286,0.00034855996153576,-0.00034855866608433,0.00034855886814556,-0.00021181667524875,0.0002118232361001,-0.00021181986021561,0.00021182001230318,-0.00034855657235247,0.00034856107622329,-0.00034855765821379,0.00034855998361805,-0.00043967123901218,0.00043967493137166,-0.00043967233535323,0.00043967384198367,-0.00043967162944336,0.00043967455123678,-0.00043967272936013,0.00043967346612681,-0.00038757050705871,0.00038757560243976,-0.00038757373382278,0.00038757240906686,-0.00038757017198355,0.00038757596692838,-0.00038757337861879,0.0003875727537051,-0.00021181765977184,0.00021182214305566,-2.8660783388623e-10,7.2827522138307e-10,1.2003475338833e-10,2.8710806683975e-10,-0.0004603622031315,0.00046036261466073,-0.0004545522636058,0.0004545524809692,-0.00046700914154853,0.00046700854743765,-0.00046700805832827,0.00046700942272327,-0.00044739318716641,0.0004473931797782,-0.0004473931677487,0.00044739325521929,-0.00044739279310208,0.00044739349587695,-0.00044739277374246,0.0004473935712627,-0.00045455193345941,0.00045455254935241,-0.00045455187200819,0.00045455280778862,-0.00046700910750631,0.00046700862996048,-0.00046700801730386,0.00046700950447361,-0.00045455232905599,0.00045455222378331,-2.5725237839801e-09,7.0425520104493e-10,-0.00033749227592102,0.00033749040295796,-9.1794210715176e-10,-1.0367185931539e-09,-0.0002919431063355,0.00029193783885063,-0.00027306983707586,0.00027306885986801,-0.00027307094763827,0.00027306778653189,-0.00029193978520344,0.00029194123422781,-0.00029194291291127,0.00029193795948167,-0.00027306979837806,0.00027306902536786,-0.00027307082840399,0.0002730678790685,-0.00039507331728626,0.0003950704199693,-0.00039507335822352,0.00039507040096761,-0.00039507222718686,0.00039507151369994,-0.00039507225356067,0.00039507148169811,-0.00038521107333107,0.00038521238720737,-0.00038521431630612,0.00038520921087598,-0.00038521424733323,0.00038520923598679,-0.0003852110453345,0.0003852124509736,-0.00029193985533536,0.00029194100673027,0.73294776783328,128566,2924,0.0015945672646224,0.0019163281890106,0.0014053127635961,18.511687511545,-9.1906499907639e-05,-9.1906499907639e-05,-9.1906499907639e-05,2637253.6182031,0.0049284459401752
19991759,0.31235492035949,0.0054028977408066,0.001789147426357,0.0019598634316743,0.0016538868827754,-0.00039388776442676,0.00039389022906551,2.9326190571111e-09,-4.7152610692169e-10,1.5029475825124e-09,1.0585805531643e-09,-0.00021633029107114,0.00021632906866575,-0.00035863431562636,0.00035863758710987,-0.00035863545050285,0.00035863644869267,-0.00021632661027232,0.00021633286977209,-0.00021632991416551,0.00021632952810662,-0.00035863393348497,0.00035863806906435,-0.00035863506172716,0.00035863693547654,-0.00045256616113188,0.000452569889915,-0.00045256729903126,0.00045256875903189,-0.00045256634271639,0.00045256972026989,-0.00045256748600961,0.00045256859158224,-0.00039890173046322,0.00039890736778738,-0.000398905084163,0.00039890404694138,-0.0003989016093321,0.00039890751738546,-0.00039890493677582,0.00039890418294636,-0.00021632696103884,0.00021633242080826,2.9892638506295e-11,4.0025846829031e-10,1.9785872869871e-10,1.9835884589106e-10,-0.0004744532920544,0.00047445369564401,-0.00046857061818913,0.00046857087264298,-0.00048130742968541,0.00048130751178162,-0.00048130696514078,0.00048130774177113,-0.00046087757881939,0.00046087783248539,-0.00046087761164944,0.00046087785390204,-0.0004608773923642,0.00046087793251322,-0.00046087742731018,0.00046087795182187,-0.00046857033273492,0.00046857088786037,-0.00046857043841915,0.00046857098042708,-0.00048130744470875,0.0004813075406252,-0.00048130698380992,0.00048130776503053,-0.00046857051955602,0.00046857077389847,-2.6300033386716e-09,7.7095274172993e-10,-0.0003463508569691,0.00034634899304675,-9.9794025269991e-10,-9.4813867643338e-10,-0.00029933433561721,0.00029932913028163,-0.00027975959404039,0.00027975882937668,-0.00027976074479303,0.0002797577186807,-0.00029933104990929,0.00029933247270293,-0.00029933430475456,0.00029932906242209,-0.00027975971381292,0.00027975882763988,-0.00027976078634981,0.00027975763208442,-0.0004060178853216,0.0004060148989738,-0.00040601786864573,0.00040601493631571,-0.00040601675384898,0.00040601603626377,-0.00040601672370581,0.00040601605761742,-0.00039627265526719,0.00039627415271144,-0.00039627601381513,0.00039627085576569,-0.00039627600410881,0.00039627082269711,-0.00039627268022064,0.00039627416350153,-0.00029933097091417,0.00029933240888756,0.74869675647789,128566,2924,0.0016399964826211,0.0019749256636744,0.0014421780915752,18.674374790741,-9.0605001674073e-05,-9.0605001674073e-05,-9.0605001674073e-05,2684514.039334,0.0050700506109854
20191759,0.32059343371266,0.0055459626799504,0.0018362143872745,0.0020152558517389,0.001694492440937,-0.00040458263809584,0.00040458537372402,3.131883718889e-09,-4.0234667305591e-10,1.2662305787603e-09,1.5804148279266e-09,-0.00022051212665939,0.00022051178231655,-0.00036865667915253,0.00036866103393952,-0.00036865786693058,0.00036865984401096,-0.00022050906588663,0.00022051494859608,-0.00022051247406612,0.0002205115059746,-0.0003686570488715,0.00036866075475305,-0.00036865821305235,0.00036865958560275,-0.00046519280872297,0.00046519659536492,-0.0004651939869452,0.00046519542386026,-0.00046519274000013,0.0004651966798425,-0.00046519392926175,0.00046519550455818,-0.00041014845216901,0.00041015474381231,-0.00041015194125301,0.00041015128712215,-0.00041014859165768,0.00041015463207328,-0.00041015203833187,0.00041015117869352,-0.00022050864121725,0.00022051528439434,3.9041682123999e-10,-2.042225664349e-11,2.5832862488489e-10,8.179570272684e-11,-0.00048840337475155,0.00048840372297593,-0.00048255216820739,0.00048255245723069,-0.0004954668170085,0.00049546766109488,-0.00049546709852739,0.0004954671122115,-0.00047413634948558,0.00047413686262682,-0.00047413643573556,0.00047413682807728,-0.00047413641321654,0.00047413670224738,-0.00047413650748178,0.00047413665981054,-0.00048255196235522,0.00048255238353831,-0.00048255225110135,0.00048255229428533,-0.00049546688127003,0.00049546763867469,-0.0004954671852543,0.00049546706829526,-0.00048255190256665,0.00048255252289503,-2.6869301684096e-09,8.3562953310147e-10,-0.00035493535729414,0.00035493350110855,-1.0847141723714e-09,-8.5369100513645e-10,-0.00030653974249045,0.00030653463068693,-0.00028624759692616,0.00028624705012951,-0.00028624878092929,0.00028624590850071,-0.00030653651090145,0.00030653790947889,-0.00030653990577272,0.00030653434889735,-0.00028624788711451,0.00028624687917024,-0.00028624900517978,0.00028624562939254,-0.00041667108993066,0.00041666800806982,-0.00041667100984619,0.00041666810807194,-0.00041666991642457,0.00041666919011923,-0.0004166698275228,0.00041666926724198,-0.00040723547844056,0.00040723715456444,-0.00040723894436007,0.00040723374453286,-0.00040723900353774,0.0004072336428232,-0.00040723555520185,0.00040723711378805,-0.00030653628277831,0.0003065380017464,0.76566000584544,128566,2924,0.0016844970462068,0.0020329332793654,0.0014779021523346,18.643343608306,-9.085325113355e-05,-9.085325113355e-05,-9.085325113355e-05,2722624.4386257,0.0052090013476907
20391759,0.32881118784855,0.0056896328104303,0.0018834452544899,0.0020710658692601,0.0017351216866803,-0.00041528573327994,0.00041528870180198,3.3084126954837e-09,-3.4832607269376e-10,1.1285804785528e-09,1.9631697708199e-09,-0.00022451375510801,0.00022451406701574,-0.00037871359303574,0.00037871873968904,-0.00037871481470102,0.00037871751443383,-0.0002245111001166,0.00022451683856838,-0.00022451464376215,0.00022451325794888,-0.00037871447245075,0.00037871795302488,-0.00037871568076069,0.00037871673768526,-0.00047784298452986,0.0004778468725541,-0.00047784420611232,0.00047784565816269,-0.00047784274948671,0.00047784712770223,-0.00047784397784095,0.00047784591383249,-0.000421387903461,0.00042139470909401,-0.00042139150519252,0.00042139113918459,-0.00042138820740809,0.00042139443484641,-0.00042139178118629,0.00042139085308126,-0.0002245101700108,0.00022451767283652,6.2660648713135e-10,-2.9817215342774e-10,3.3054773152311e-10,-2.7525454469201e-11,-0.00050245273535168,0.00050245304354432,-0.00049669395949425,0.00049669419905439,-0.00050973758784257,0.00050973896916796,-0.00050973837335998,0.00050973789250193,-0.00048743411252881,0.00048743481581245,-0.00048743425923184,0.00048743471901778,-0.00048743434592334,0.00048743447916143,-0.00048743449626998,0.00048743437869798,-0.0004966937416438,0.00049669413010106,-0.00049669420259255,0.00049669386944691,-0.00050973772256472,0.00050973887970921,-0.00050973851169945,0.0005097377957919,-0.00049669351011872,0.00049669444996122,-2.7476851968505e-09,9.042698270139e-10,-0.00036347577269912,0.00036347392447668,-1.1694573318647e-09,-7.6072028815892e-10,-0.00031367851648596,0.0003136734394563,-0.00029264837192548,0.00029264805658541,-0.00029264960508166,0.00029264686663736,-0.00031367534789496,0.00031367668547639,-0.00031367883914871,0.00031367300995224,-0.00029264885220343,0.00029264771322972,-0.00029265000117739,0.00029264642260108,-0.00042732256841728,0.0004273193947375,-0.00042732243190164,0.00042731955245419,-0.00042732135490692,0.00042732061850981,-0.00042732120434176,0.00042732075668631,-0.00041819164939584,0.00041819352550626,-0.00041819524701166,0.0004181899800103,-0.00041819535816737,0.00041818982328116,-0.0004181917956879,0.00041819342226719,-0.00031367491435527,0.00031367695991591,0.77157339263328,128566,2924,0.0017290307803416,0.0020913502221752,0.0015134419650309,18.607200758633,-9.1142393930933e-05,-9.1142393930933e-05,-9.1142393930933e-05,2758365.2918824,0.0053482311794043
20591759,0.33700594166928,0.0058207197443524,0.0019267625681268,0.0021220831087944,0.0017718740674312,-0.00042528148516256,0.00042528458453844,3.4360272122125e-09,-3.4587276119956e-10,1.0544871556265e-09,2.1745107188667e-09,-0.00022741602690013,0.00022741663743272,-0.00038733992093378,0.00038734552597492,-0.00038734118152942,0.00038734425996918,-0.00022741353384463,0.00022741924861798,-0.00022741720376204,0.00022741554258027,-0.00038734108131006,0.00038734445920731,-0.00038734233286495,0.00038734320109402,-0.0004900412438666,0.00049004520945209,-0.00049004250808882,0.00049004395309823,-0.00049004091751718,0.00049004555863845,-0.00049004218717561,0.0004900443036124,-0.00043156643855222,0.00043157358949085,-0.00043157016166147,0.00043156989858928,-0.00043156683580963,0.00043157322165704,-0.00043157053418333,0.00043156951617856,-0.00022741232419376,0.00022742036271094,7.6708209525677e-10,-4.4419783200232e-10,4.1064595372446e-10,-1.1193292205548e-10,-0.00051575805928216,0.00051575836246063,-0.0005098263040265,0.00050982647214871,-0.00052324029189333,0.00052324200797138,-0.00052324135581009,0.00052324063999493,-0.00050013942601283,0.00050014027187591,-0.00050013962582846,0.00050014011982604,-0.00050013975171579,0.0005001398382462,-0.0005001399544915,0.00050013968323896,-0.00050982601757934,0.00050982646794452,-0.00050982663782468,0.00050982604685388,-0.00052324048245631,0.00052324186390621,-0.00052324154732075,0.00052324049032431,-0.00050982569254898,0.00050982688656965,-2.7964646089283e-09,9.8210598206893e-10,-0.00037131911451446,0.00037131729558313,-1.2357494691248e-09,-6.6405864946087e-10,-0.00031933287486919,0.00031932785996884,-0.000297791259949,0.00029779117817464,-0.00029779253621775,0.00029778994445378,-0.00031932974872403,0.0003193310746384,-0.00031933335383922,0.00031932727503568,-0.00029779190580985,0.00029779067641635,-0.0002977930923466,0.00029778934205721,-0.00043752608492978,0.00043752284458637,-0.00043752589492967,0.00043752305623899,-0.00043752482997387,0.00043752411024983,-0.00043752462448457,0.000437524302946,-0.00042807399547363,0.00042807608046666,-0.00042807771818954,0.00042807240878743,-0.0004280778815951,0.00042807219883364,-0.00042807419864103,0.00042807592205275,-0.00031932914533634,0.0003193315104023,0.70761958239425,128566,2924,0.0017706208064619,0.0021466704919829,0.0015460808429903,18.570850027132,-9.1433199782948e-05,-9.1433199782948e-05,-9.1433199782948e-05,2803236.554093,0.0054784932132488
20791759,0.34476861281952,0.0059516994121702,0.0019699405036785,0.0021731155793052,0.0018086433291865,-0.00043393498823129,0.00043393839363759,3.6559657068749e-09,-2.618468392588e-10,7.7748423527265e-10,2.7724483312095e-09,-0.00023017909662842,0.0002301807052686,-0.00039519859672354,0.00039520544416913,-0.00039519992019125,0.00039520411884581,-0.00023017732441649,0.00023018257292058,-0.00023018108529563,0.00023017877799724,-0.00039520062608526,0.00039520349224533,-0.00039520191261702,0.00039520220204614,-0.00050051044988077,0.00050051447004791,-0.00050051175415356,0.00050051317341219,-0.00050050983383121,0.00050051511393159,-0.00050051115342579,0.00050051380811934,-0.00044049294240939,0.00044050083332662,-0.0004404968106263,0.00044049699246569,-0.00044049364472518,0.00044050015791424,-0.00044049745693822,0.00044049633320447,-0.00023017520746946,0.00023018461038619,1.1574965673038e-09,-9.5057000468003e-10,4.2532432257508e-10,-2.3959359331548e-10,-0.00052735117491259,0.0005273513695323,-0.00052134260552747,0.00052134282805759,-0.00053496034559562,0.00053496286298769,-0.00053496226111833,0.00053496060983235,-0.00051121581542535,0.00051121689435238,-0.00051121605497263,0.00051121670000597,-0.00051121642538896,0.00051121616457262,-0.00051121667863029,0.00051121595708405,-0.00052134247081222,0.00052134266104519,-0.00052134324647424,0.00052134208593148,-0.00053496056276335,0.00053496268558758,-0.00053496251698787,0.00053496039623332,-0.00052134186448961,0.00052134336330195,-2.8454836483934e-09,1.0485942101391e-09,-0.00037791724306325,0.00037791544119316,-1.3070508832096e-09,-5.7661876898561e-10,-0.00032438730879181,0.00032438240487654,-0.00030232617188533,0.00030232628545666,-0.00030232747274687,0.00030232502904446,-0.00032438421557048,0.0003243855633883,-0.00032438797787614,0.00032438159633391,-0.00030232695091193,0.00030232563454539,-0.00030232818940929,0.00030232424052294,-0.00044607295738408,0.00044606963850314,-0.00044607270844513,0.00044606990662108,-0.00044607165961636,0.00044607094890216,-0.00044607140475527,0.00044607118694168,-0.00043668531380353,0.00043668756644082,-0.00043668913044975,0.0004366837935675,-0.00043668936154395,0.00043668351697714,-0.00043668555528521,0.00043668737067738,-0.00032438351588399,0.00032438611820584,0.74689073246649,128566,2924,0.0018066259298066,0.0021948685008729,0.0015735377229159,17.866194641238,-9.7070442870097e-05,-9.7070442870097e-05,-9.7070442870097e-05,2830100.7311719,0.0055907800984125
20991759,0.35200629819863,0.006069451238715,0.0020088492460345,0.0022190423071071,0.0018415596855735,-0.00044125644597596,0.00044126009932741,3.8363938795283e-09,-1.9495792690445e-10,5.5886395653092e-10,3.2504383360753e-09,-0.00023155955864692,0.00023156206664342,-0.00040151822701584,0.00040152604055909,-0.0004015195766541,0.00040152470092949,-0.0002315583457576,0.00023156334164459,-0.0002315622888229,0.00023155936581601,-0.00040152090263196,0.00040152339941217,-0.00040152225508884,0.00040152204883231,-0.00050965434251615,0.00050965842325336,-0.00050965569196892,0.00050965708245139,-0.00050965350621569,0.000509659290589,-0.0005096548586968,0.00050965795385562,-0.00044798319055011,0.00044799164768005,-0.00044798715075434,0.0004479877207454,-0.00044798410624194,0.00044799076366244,-0.00044798805039231,0.00044798681140313,-0.00023155561711834,0.00023156601691606,1.4401315734396e-09,-1.3369556835981e-09,4.4515650109799e-10,-3.6108551693826e-10,-0.00053749296098942,0.00053749306269737,-0.00053138343076713,0.00053138360398577,-0.00054520798505164,0.00054521112047702,-0.00054521056393844,0.00054520817224818,-0.00052085048107103,0.00052085175054641,-0.00052085077398127,0.00052085150650804,-0.00052085131302801,0.00052085078984181,-0.00052085160574566,0.00052085054436019,-0.00053138337364045,0.00053138335114947,-0.00053138426946625,0.00053138265576447,-0.00054520825935312,0.00054521086818297,-0.00054521084843608,0.00054520792907277,-0.00053138252475468,0.00053138429607366,-2.9038343985719e-09,1.1280315835942e-09,-0.00038329794925563,0.00038329616863675,-1.359446193385e-09,-5.031169015105e-10,-0.00032793621577025,0.00032793124872461,-0.00030548515584899,0.00030548547948068,-0.0003054865236068,0.00030548415942907,-0.00032793307880077,0.00032793438884799,-0.00032793691698042,0.00032793035037144,-0.00030548605700088,0.00030548466216416,-0.00030548732256313,0.00030548323960712,-0.00045342500694992,0.00045342162848443,-0.00045342472091306,0.00045342193023892,-0.00045342367029936,0.00045342297915158,-0.00045342336497706,0.00045342326230438,-0.00044388249321465,0.00044388496169504,-0.00044388646316716,0.00044388103532327,-0.0004438867145823,0.00044388073450113,-0.00044388279345168,0.00044388470356283,-0.00032793222429282,0.00032793515809145,0.72120224531687,128566,2924,0.0018370898827513,0.0022370309632281,0.0015959293008517,16.958821513624,-0.00010432942789101,-0.00010432942789101,-0.00010432942789101,2849450.6385008,0.0056863438688174
21191759,0.35874856138025,0.0061794893804882,0.0020452277420777,0.0022619603598193,0.0018723012785912,-0.00044798862481215,0.00044799240583029,3.9637207163103e-09,-1.9634872357833e-10,5.5841477150322e-10,3.3849988931809e-09,-0.00023297604734963,0.00023297867909268,-0.00040740515321749,0.0004074132786714,-0.00040740654204012,0.00040741188754383,-0.00023297487023249,0.00023297995609079,-0.00023297891083412,0.00023297587974574,-0.00040740798513902,0.00040741051461903,-0.00040740936608202,0.00040740912889023,-0.00051802424582656,0.00051802845039675,-0.00051802563674942,0.00051802706818386,-0.00051802336731371,0.00051802936499303,-0.00051802476336191,0.00051802798364892,-0.00045486160423601,0.0004548703628234,-0.00045486569795529,0.00045486630231749,-0.00045486256679379,0.0004548694269048,-0.00045486663549722,0.00045486535226777,-0.00023297197103222,0.00023298277563691,1.5115242394426e-09,-1.4157468493467e-09,4.9614403664025e-10,-4.1419404659737e-10,-0.00054677819586439,0.00054677828411884,-0.00054055592018135,0.00054055605414582,-0.0005545574142637,0.00055456072794463,-0.00055456013595724,0.0005545576311637,-0.00052970472030343,0.00052970604748624,-0.00052970504365954,0.00052970576785965,-0.0005297055987354,0.00052970503711701,-0.00052970592596316,0.00052970475344455,-0.00054055580948109,0.00054055585184074,-0.00054055681161825,0.00054055505030267,-0.00055455772782203,0.00055456045460019,-0.00055456045871766,0.00055455735075967,-0.00054055492476109,0.00054055684683187,-2.9582614006151e-09,1.1970352254011e-09,-0.00038820502646129,0.00038820326059566,-1.4035449276052e-09,-4.4253333000612e-10,-0.00033119040805089,0.00033118545950821,-0.00030841618159318,0.00030841666005743,-0.00030841758318404,0.00030841530176138,-0.00033118729762779,0.00033118865985569,-0.00033119125480883,0.00033118447672845,-0.00030841720874367,0.00030841577325827,-0.00030841851241626,0.00030841430168218,-0.00046010541410156,0.00046010197250681,-0.00046010509375403,0.00046010231274614,-0.00046010403533752,0.00046010336569067,-0.00046010369773793,0.00046010368453492,-0.00045047273691703,0.00045047537284407,-0.00045047682290942,0.00045047132664026,-0.00045047711483491,0.00045047098720531,-0.00045047307066885,0.00045047508564531,-0.0003311863137124,0.00033118948220761,0.72387546965919,128566,2924,0.001865101276475,0.0022756307805117,0.0016163495283523,16.045988606437,-0.0001116320911485,-0.0001116320911485,-0.0001116320911485,2866080.1128389,0.0057738831699674
21391759,0.36512079752648,0.0062838833410104,0.0020797494581797,0.0023026863720278,0.0019014475108029,-0.00045463694498322,0.0004546406883002,4.007849554506e-09,-2.7745980819037e-10,8.1224436710978e-10,3.0907226228837e-09,-0.00023454253199838,0.00023454446408171,-0.00041332230664886,0.00041332989413466,-0.0004133237343737,0.00041332846082046,-0.00023454069832792,0.00023454641268764,-0.00023454486227932,0.00023454221228008,-0.00041332460788328,0.00041332767700609,-0.00041332602729166,0.00041332625017986,-0.00052621078439659,0.00052621517463961,-0.00052621221751053,0.00052621375081813,-0.00052621008624001,0.00052621590696539,-0.00052621152404917,0.00052621448438963,-0.00046168043918633,0.0004616891008342,-0.00046168465604179,0.00046168491934274,-0.00046168121944678,0.00046168834762805,-0.00046168541410387,0.00046168414993152,-0.00023453833712647,0.00023454868136814,1.2814086976674e-09,-1.0968593251123e-09,5.7450222729249e-10,-4.0678796284814e-10,-0.0005558608939282,0.00055586106521844,-0.00054956085410724,0.00054956082481706,-0.00056367560181464,0.00056367849053212,-0.00056367779046692,0.00056367593627913,-0.00053835604628614,0.00053835729557526,-0.00053835639263229,0.0005383569915195,-0.0005383567484452,0.00053835646778351,-0.00053835709768344,0.00053835616061127,-0.00054956049106232,0.00054956087567438,-0.00054956156116617,0.0005495600051276,-0.00056367594465361,0.00056367819460069,-0.0005636781340478,0.0005636756348159,-0.00054955979106909,0.00054956168969427,-3.0187057620677e-09,1.2633011698639e-09,-0.0003930909876862,0.0003930892281099,-1.4351141602415e-09,-4.039216813063e-10,-0.00033449892924858,0.00033449393212033,-0.00031143931385272,0.00031143991094758,-0.00031144075792521,0.00031143851040459,-0.00033449577644114,0.00033449720014536,-0.00033449985069586,0.00033449288914254,-0.00031144042073889,0.00031143896395055,-0.00031144176128915,0.00031143744950991,-0.00046667447329693,0.00046667097258464,-0.00046667413093853,0.00046667133728362,-0.0004666730522471,0.00046667240735079,-0.00046667269171292,0.000466672750733,-0.00045701515637875,0.0004570179455724,-0.00045701936990125,0.00045701377684239,-0.0004570196833495,0.00045701341290448,-0.00045701551436084,0.00045701763499136,-0.00033449470916509,0.00033449807947666,0.72692810604116,128566,2924,0.0018927628807847,0.0023133873127092,0.0016366812764826,15.323745776506,-0.00011741003378795,-0.00011741003378795,-0.00011741003378795,2882285.3868485,0.0058601407280313
21591759,0.37116870985553,0.0063838076355492,0.0021127904745728,0.0023416894660379,0.0019293276949385,-0.00046103358871076,0.00046103724214718,4.0263491395402e-09,-3.8443008646151e-10,1.1174514507723e-09,2.6898727525279e-09,-0.00023608882730231,0.00023608984795424,-0.00041911225081398,0.00041911909081305,-0.00041911372010263,0.00041911761622961,-0.00023608617394804,0.0002360926199961,-0.00023609046195984,0.00023608829441612,-0.00041911386132262,0.00041911757363865,-0.0004191153231273,0.00041911610426564,-0.0005340506193145,0.00053405519579366,-0.00053405209443682,0.00053405373004477,-0.0005340501516257,0.00053405569249189,-0.00053405163118674,0.00053405422830978,-0.00046827323973337,0.0004682817017138,-0.00046827757974864,0.00046827739828288,-0.00046827378715313,0.00046828118360782,-0.00046827810488213,0.00046827686333327,-0.00023608451108173,0.00023609418726653,9.8879174203219e-10,-6.8222625433858e-10,6.5665560976893e-10,-3.7424763396226e-10,-0.00056458597842954,0.00056458626614209,-0.00055824998773961,0.00055824978708681,-0.00057241178002511,0.00057241410905888,-0.00057241327837217,0.0005724122578361,-0.0005466493322209,0.00054665048124041,-0.00054664969452006,0.0005466501608498,-0.00054664980717999,0.00054664988949847,-0.00054665017206204,0.00054664956623373,-0.00055824933914637,0.00055825012268694,-0.00055825045861269,0.00055824920485574,-0.0005724121392877,0.000572413796268,-0.00057241363855626,0.00057241194025727,-0.00055824887408497,0.00055825069969474,-3.0821737705564e-09,1.3260312925688e-09,-0.00039777671271641,0.00039777495227723,-1.4606108327677e-09,-3.7985786392286e-10,-0.00033769515814185,0.00033769008331679,-0.00031437956797554,0.00031438025426743,-0.00031438105534619,0.0003143788121198,-0.00033769192718357,0.00033769342341799,-0.00033769612185815,0.0003376889875621,-0.00031438072280521,0.00031437925709132,-0.00031438210392429,0.00031437769937788,-0.00047296133987167,0.00047295778010234,-0.00047296098163347,0.00047295816172488,-0.00047295987636456,0.00047295925637572,-0.00047295949938521,0.00047295961655738,-0.00046333958528631,0.00046334251493788,-0.0004633439260238,0.0004633382258922,-0.00046334425458795,0.00046333784416062,-0.00046333996217905,0.0004633421890929,-0.00033769081033716,0.00033769435168775,0.73328393090499,128566,2924,0.001919377122085,0.0023496557316573,0.0016561794594669,14.658486396357,-0.00012273210882914,-0.00012273210882914,-0.00012273210882914,2896145.7379492,0.0059430162456599
21791759,0.37690831622058,0.0064772788808861,0.0021437365763467,0.0023781903628508,0.0019553519416886,-0.00046696773115179,0.00046697129440723,4.0452917288057e-09,-4.9207559811943e-10,1.3728059234861e-09,2.3386376998118e-09,-0.00023732645143263,0.00023732665192705,-0.00042441583066861,0.00042442202265617,-0.00042441734395298,0.00042442050501569,-0.00023732307207167,0.00023733014774713,-0.00023732748165747,0.00023732570121724,-0.00042441684787223,0.00042442110420177,-0.00042441835183127,0.00042441959315643,-0.0005413844185487,0.00054138914786214,-0.00054138593539977,0.0005413876402059,-0.00054138414766789,0.00054138944229993,-0.00054138566968168,0.0005413879354058,-0.00047434773929646,0.00047435603707638,-0.00047435220438885,0.00047435160859442,-0.00047434808838476,0.00047435572013677,-0.00047435252828417,0.00047435127703491,-0.00023732200647114,0.0002373311178561,7.4716569004222e-10,-3.1986781975767e-10,7.3279718013739e-10,-3.369708323312e-10,-0.00057273694023618,0.00057273734394923,-0.0005663618879036,0.0005663615595128,-0.00058055475876283,0.00058055662236757,-0.00058055566626035,0.00058055537378,-0.00055439511146479,0.00055439619065344,-0.00055439548559433,0.00055439585794896,-0.00055439539173696,0.00055439580126281,-0.00055439576924023,0.0005543954649268,-0.00056636099841048,0.00056636213465878,-0.00056636215870506,0.00056636117895776,-0.00058055512832804,0.0005805562973827,-0.00058055604145833,0.00058055504186777,-0.0005663607348421,0.00056636250706219,-3.1451542135318e-09,1.3880495621379e-09,-0.00040205845071088,0.00040205668912058,-1.4813463837106e-09,-3.6110065373457e-10,-0.00034043758327753,0.0003404324273882,-0.00031692170608048,0.00031692246959926,-0.00031692323528456,0.00031692098812083,-0.00034043426053861,0.00034043584296375,-0.00034043858105101,0.00034043127992278,-0.00031692289527111,0.00031692143136969,-0.00031692431869843,0.00031691982919369,-0.00047881030691729,0.00047880669130865,-0.00047880993549359,0.00047880708676136,-0.00047880880097172,0.00047880820935906,-0.00047880841113335,0.00047880858209286,-0.00046914523302694,0.00046914829620531,-0.0004691496987057,0.00046914388996074,-0.00046915004005831,0.000469143492661,-0.00046914562362988,0.00046914795991084,-0.00034043311246187,0.00034043680928506,0.72318902520039,128566,2924,0.0019440674204824,0.0023835361837065,0.0016739965724965,13.994762683941,-0.00012804189852847,-0.00012804189852847,-0.00012804189852847,2908780.1472315,0.006019869732225
21991759,0.38269845682853,0.0065701126503871,0.0021745162790234,0.0024144456881234,0.0019811506832403,-0.00047434549399591,0.00047434877957645,3.9686024633748e-09,-6.9043876829751e-10,1.904976531054e-09,1.5137503714652e-09,-0.00023989311222793,0.00023989158740497,-0.00043110675805561,0.00043111135716198,-0.00043110830182478,0.00043110980391885,-0.00023988828442905,0.00023989655749293,-0.00023989282870747,0.00023989197437946,-0.0004311064464579,0.00043111179485119,-0.00043110799178918,0.0004311102378622,-0.00055020946065518,0.00055021440535621,-0.00055021102060411,0.00055021285510271,-0.00055020963381505,0.00055021424628268,-0.00055021119440321,0.00055021270133476,-0.00048183279112269,0.00048184047704332,-0.00048183737260755,0.00048183593902314,-0.00048183268473929,0.0004818406198809,-0.00048183725542677,0.00048183605200563,-0.00023988857062306,0.00023989615267451,1.914141964571e-10,4.9248360275811e-10,8.6360375126291e-10,-2.1981206842161e-10,-0.00058238451133708,0.00058238515881414,-0.00057593379162888,0.00057593324177477,-0.00059018784110407,0.00059018862340676,-0.00059018742727895,0.00059018873210586,-0.00056363762697704,0.00056363850074892,-0.00056363800754519,0.0005636381605948,-0.00056363746969797,0.00056363856628072,-0.00056363784885056,0.0005636382274473,-0.00057593243872121,0.0005759342908952,-0.00057593360410992,0.00057593332750544,-0.00059018822904892,0.00059018829026728,-0.00059018779877604,0.0005901884048317,-0.00057593262407104,0.00057593421322442,-3.2144511249551e-09,1.4493428010365e-09,-0.00040773132503278,0.00040772955613037,-1.4901345980851e-09,-3.586119265507e-10,-0.00034448523018505,0.00034447993190147,-0.00032078479259337,0.0003207856117415,-0.00032078637177822,0.0003207840812709,-0.00034448180401818,0.00034448347729103,-0.00034448622952728,0.00034447880651305,-0.00032078601344894,0.0003207845688906,-0.00032078747005073,0.00032078293118022,-0.00048610216138922,0.0004860984936079,-0.00048610179022582,0.00048609889257855,-0.00048610061330387,0.00048610005177606,-0.00048610021892802,0.00048610043256656,-0.00047636304620479,0.00047636624021655,-0.00047636765480009,0.00047636170635342,-0.00047636799038697,0.00047636130741034,-0.00047636344850756,0.00047636589403668,-0.00034448060758212,0.00034448445779434,0.71247115307181,128566,2924,0.0019747607286664,0.0024236362885128,0.0016976001287825,14.108737084366,-0.00012713010332507,-0.00012713010332507,-0.00012713010332507,2936383.0523969,0.0061148488138963
22191759,0.38864296787035,0.0066637904663981,0.0022056193948165,0.0024510641909727,0.0020071068806089,-0.00048226099249949,0.00048226406751346,3.9302713401584e-09,-8.6013727174971e-10,2.2640286306265e-09,9.3232942368197e-10,-0.00024284863600044,0.00024284581025704,-0.00043825598572324,0.00043825949028682,-0.00043825758153918,0.00043825788634898,-0.00024284274624006,0.0002428518434109,-0.00024284739604154,0.00024284715356112,-0.00043825476113415,0.00043826085336077,-0.00043825634430414,0.00043825925930177,-0.00055963864789208,0.00055964373516864,-0.00055964024899228,0.00055964214363987,-0.00055963912271709,0.00055964326475685,-0.00055964072958072,0.00055964167360133,-0.00048983141832764,0.00048983872234058,-0.00048983613561104,0.00048983404703617,-0.00048983100967428,0.00048983916942089,-0.00048983569893537,0.00048983448062519,-0.0002428439402917,0.00024285052815953,-1.6693997915705e-10,1.064215279689e-09,9.6422956506631e-10,-1.1948970096577e-10,-0.00059261796917294,0.00059261882162786,-0.00058604030936221,0.00058603965546542,-0.00060038380448799,0.0006003838703639,-0.00060038247545482,0.0006003849176759,-0.00057349001469917,0.00057349078470195,-0.00057349039256349,0.00057349044765809,-0.00057348955535591,0.00057349116458847,-0.00057348993714329,0.00057349082346573,-0.00058603864682785,0.00058604101527076,-0.00058603982206331,0.00058604004602021,-0.00060038418209286,0.00060038354497905,-0.00060038285641778,0.00060038458153829,-0.00058603914599342,0.00058604061605284,-3.2781933485559e-09,1.5061009583885e-09,-0.00041388245646034,0.00041388068021927,-1.4967158388309e-09,-3.6079850229459e-10,-0.00034887770762146,0.00034887231134081,-0.00032503232900426,0.00032503317539959,-0.00032503394232189,0.00032503161401132,-0.00034887415506756,0.00034887595845774,-0.0003488787263857,0.00034887114861559,-0.00032503354028359,0.0003250321301311,-0.00032503504638089,0.00032503044470361,-0.0004939404260373,0.00049393670720636,-0.00049394005110803,0.00049393711050443,-0.00049393883416376,0.00049393830724383,-0.00049393844118189,0.00049393868723229,-0.00048404906328263,0.00048405236323995,-0.0004840537881763,0.0004840477255787,-0.00048405413153372,0.00048404731603904,-0.00048404946298374,0.00048405202612362,-0.00034887298505665,0.0003488769246146,0.70115780533347,128566,2924,0.0020076901737541,0.0024661695441554,0.0017231926626874,14.451393783282,-0.00012438884973374,-0.00012438884973374,-0.00012438884973374,2970679.2185091,0.0062165373922843
22391759,0.39474593911759,0.0067637326971249,0.0022387414971253,0.0024901793294844,0.0020348118705152,-0.00049059971769033,0.00049060280086876,3.9966978391171e-09,-9.1812276558268e-10,2.2988272345824e-09,9.0586056369923e-10,-0.00024624568366299,0.00024624269107743,-0.00044609061442337,0.00044609410812078,-0.00044609225176154,0.00044609246474715,-0.00024623961052558,0.00024624890446716,-0.00024624438852801,0.00024624408455366,-0.00044608932948925,0.00044609553396177,-0.00044609095708371,0.00044609389616564,-0.00056943757721068,0.00056944273412318,-0.00056943922011867,0.00056944110033472,-0.00056943807029382,0.00056944224164825,-0.00056943971813013,0.00056944060931256,-0.00049836382902216,0.00049837123955352,-0.0004983686658471,0.00049836644442728,-0.00049836339838277,0.00049837171048604,-0.00049836820986065,0.00049836689744012,-0.00024624087170423,0.00024624752418969,-1.5133962359015e-10,1.1410019382034e-09,1.0182339980327e-09,-8.6102624035704e-11,-0.0006033400729993,0.00060334101578909,-0.00059670756851465,0.00059670695538718,-0.0006110492694,0.00061104937557235,-0.00061104788095393,0.00061105048051867,-0.00058378556920844,0.00058378641826807,-0.00058378595419669,0.0005837860741887,-0.00058378509182574,0.00058378681739065,-0.00058378547933561,0.00058378647053802,-0.00059670586130313,0.0005967083545958,-0.00059670705753625,0.00059670736936718,-0.00061104965427336,0.00061104903974625,-0.00061104826745079,0.00061105013939102,-0.00059670637916845,0.00059670793464442,-3.348095019683e-09,1.5636112760025e-09,-0.00042038175431996,0.00042037996512045,-1.5137904532495e-09,-3.5827539953634e-10,-0.00035383567589559,0.00035383015424932,-0.00032978198444269,0.00032978287933909,-0.00032978364398647,0.00032978127527602,-0.00035383200848842,0.0003538338987129,-0.00035383669947302,0.0003538289690264,-0.00032978321241669,0.00032978180904814,-0.00032978475934535,0.00032978008116761,-0.00050209013603023,0.00050208635628955,-0.00050208975533789,0.00050208676562237,-0.00050208850240247,0.00050208799859579,-0.00050208810209991,0.00050208838503045,-0.0004922337365572,0.00049223715762436,-0.00049223859006427,0.0004922323965185,-0.00049223893752492,0.00049223198096232,-0.00049223414684133,0.00049223681479362,-0.0003538308203436,0.00035383489329382,0.72867975350602,128566,2924,0.0020423797296266,0.0025107311362426,0.0017502329832539,14.800218593974,-0.00012159825124821,-0.00012159825124821,-0.00012159825124821,3001589.2380388,0.0063235049127966
22591759,0.40100886747649,0.006867292014106,0.002273045730703,0.0025307898197907,0.0020634564636122,-0.00049917382028688,0.00049917702319707,4.1188126343145e-09,-9.2190552524991e-10,2.1921701163989e-09,1.1391463309204e-09,-0.00024951519357167,0.00024951253912786,-0.00045420676295332,0.00045421076003336,-0.00045420844194562,0.00045420907490153,-0.0002495093374074,0.00024951853766083,-0.00024951423768672,0.00024951359372254,-0.00045420581539243,0.00045421185089013,-0.00045420748463607,0.00045421017049139,-0.00057953711839699,0.00057954232300199,-0.00057953880330237,0.00057954064708591,-0.00057953749967227,0.00057954194271688,-0.00057953918949504,0.00057954026845837,-0.00050719980668687,0.0005072075679487,-0.00050720476808401,0.00050720265076813,-0.00050719948757242,0.00050720792891783,-0.00050720442243751,0.00050720299242867,-0.00024951025887074,0.00024951749581174,3.2803384879109e-11,9.8041192967677e-10,1.0512573143107e-09,-9.5288097131688e-11,-0.00061446788461459,0.00061446885125316,-0.00060787574789356,0.00060787523025748,-0.00062212026697951,0.0006221207523759,-0.00062211921166146,0.00062212150921398,-0.00059439604948935,0.00059439704939438,-0.00059439644784461,0.0005943966915872,-0.00059439568359325,0.00059439733206641,-0.00059439608444618,0.00059439697152891,-0.00060787410902291,0.00060787655422875,-0.00060787534806041,0.00060787552915283,-0.00062212066633831,0.00062212040287916,-0.00062211961276351,0.00062212115450066,-0.00060787451558248,0.00060787624953739,-3.4164879534767e-09,1.6213055844047e-09,-0.00042701844105806,0.00042701664091168,-1.5410338896531e-09,-3.429179328646e-10,-0.00035885551372765,0.00035884989829865,-0.00033456848067316,0.00033456944736023,-0.00033457018317235,0.00033456780216522,-0.00035885176657038,0.00035885372690789,-0.00035885657571557,0.00035884867048863,-0.00033456975343017,0.00033456833788767,-0.00033457133917176,0.00033456656512632,-0.00051049132349999,0.00051048747712115,-0.00051049092907495,0.00051048790081605,-0.00051048964871161,0.0005104891622297,-0.00051048923390323,0.0005104895624576,-0.00050070242258529,0.00050070597116595,-0.00050070739920472,0.00050070108575329,-0.00050070775990914,0.00050070065538376,-0.00050070284860006,0.00050070561494973,-0.00035885053399676,0.00035885476122792,0.73620698813238,128566,2924,0.0020780486521682,0.0025569765045585,0.0017778446884883,15.149295229439,-0.00011880563816449,-0.00011880563816449,-0.00011880563816449,3028921.0765727,0.0064337397914737
22791759,0.40733023846301,0.0069727265361037,0.0023079595360451,0.0025722158231458,0.0020925511769128,-0.00050747201680472,0.0005074754522441,4.295317592746e-09,-8.6829210325756e-10,1.9405491969511e-09,1.6363283700856e-09,-0.00025243859849374,0.00025243682066135,-0.00046208602507024,0.00046209104050695,-0.00046208774164934,0.00046208932032248,-0.0002524333597932,0.00025244219027524,-0.00025243839676325,0.00025243710860029,-0.00046208580526083,0.00046209139325796,-0.0004620875229776,0.00046208966568605,-0.00058936886572583,0.00058937409509268,-0.00058937059304585,0.0005893723762225,-0.00058936900391155,0.00058937396121758,-0.00058937073271118,0.00058937224744667,-0.00051577283616852,0.00051578118571838,-0.00051577791302722,0.00051577615374131,-0.00051577275880531,0.00051578130575182,-0.00051577781733923,0.0005157762436952,-0.00025243355736042,0.0002524418821038,3.7905583139866e-10,5.7815840262825e-10,1.0612368945296e-09,-1.5880669503506e-10,-0.00062537106244947,0.0006253719780929,-0.00061886395920217,0.00061886355522124,-0.00063298351069731,0.00063298470808332,-0.00063298318163644,0.00063298470692101,-0.00060475466045753,0.0006047558846787,-0.00060475508370863,0.00060475550117419,-0.00060475453786872,0.00060475591353247,-0.00060475496033264,0.00060475553064523,-0.00061886248939834,0.00061886469735021,-0.00061886379812334,0.0006188636077288,-0.00063298393632781,0.00063298432745236,-0.00063298360338541,0.00063298433183356,-0.0006188626450929,0.00061886464805083,-3.4834913542535e-09,1.683222304907e-09,-0.00043333862275826,0.00043333681690843,-1.5805853095999e-09,-3.1054688244065e-10,-0.00036356966026484,0.00036356396729181,-0.00033903078903613,0.00033903186677458,-0.00033903254058319,0.00033903017379768,-0.00036356585178909,0.00036356784630159,-0.00036357076850933,0.0003635626747893,-0.00033903213332198,0.00033903067753405,-0.00033903375507948,0.00033902886254855,-0.0005185984265357,0.00051859450996924,-0.00051859800955364,0.00051859495504102,-0.00051859671164135,0.00051859623757537,-0.00051859627019678,0.00051859666191622,-0.00050893604367489,0.00050893974323583,-0.00050894114872086,0.00050893472454252,-0.00050894152869338,0.00050893427554704,-0.00050893650039282,0.00050893935926995,-0.00036356454093031,0.000363568972824,0.74292714097439,128566,2924,0.0021125700673755,0.0026022858067098,0.0018041396491702,15.287444568303,-0.00011770044345357,-0.00011770044345357,-0.00011770044345357,3051243.8047574,0.006540564308255
22991759,0.41369607417075,0.0070733121562074,0.002341391205128,0.0026117789019796,0.0021201420490997,-0.0005154614434348,0.00051546505457201,4.4463177955067e-09,-8.4558878968115e-10,1.7599972658652e-09,2.0027259428325e-09,-0.00025481739687161,0.00025481620514206,-0.00046928808134842,0.00046929386703248,-0.00046928984263575,0.00046929209964237,-0.0002548125798106,0.00025482115951108,-0.00025481772859381,0.00025481596535949,-0.0004692884069229,0.00046929367664861,-0.00046929016147283,0.00046929191074851,-0.00059902055420391,0.00059902581778174,-0.00059902232325573,0.00059902405774484,-0.00059902051358443,0.00059902586707926,-0.00059902228669482,0.00059902410948797,-0.00052389620270083,0.0005239050319947,-0.00052390141319682,0.00052389987331396,-0.00052389630842303,0.00052390496889006,-0.00052390149108265,0.00052389978674326,-0.00025481221972813,0.00025482140462356,6.4125728535364e-10,2.8423122590174e-10,1.0904797032407e-09,-2.1498795155977e-10,-0.00063597979675876,0.00063598068235788,-0.00062944469660378,0.00062944437295422,-0.0006435772740533,0.00064357901532945,-0.00064357748010015,0.00064357845818463,-0.00061487034819314,0.00061487174962296,-0.00061487079754048,0.00061487133899859,-0.0006148704026967,0.00061487159258584,-0.00061487085387647,0.00061487117999048,-0.0006294433245974,0.00062944541193977,-0.00062944472020299,0.00062944423403167,-0.00064357772644717,0.00064357861249719,-0.00064357793405493,0.00064357805177662,-0.00062944330498674,0.00062944554735362,-3.5414792415744e-09,1.7490598839873e-09,-0.00043934378245228,0.00043934198480561,-1.6193400845592e-09,-2.6282322367265e-10,-0.00036759239604365,0.00036758668805212,-0.00034289683141626,0.00034289804028308,-0.00034289861912656,0.00034289630953584,-0.0003675885651934,0.00036759061662242,-0.0003675936081493,0.00036758530695791,-0.00034289826619274,0.00034289677860942,-0.00034289992763371,0.00034289491540333,-0.00052651333051484,0.00052650935085541,-0.00052651288391533,0.0005265098263914,-0.00052651157374788,0.00052651112181687,-0.00052651110481079,0.00052651157355533,-0.00051672643261513,0.00051673028643852,-0.00051673165384995,0.00051672514831894,-0.00051673206619045,0.00051672466541072,-0.00051672691549387,0.00051672987774036,-0.00036758717163935,0.0003675918075433,0.70494323173838,128566,2924,0.0021458068777622,0.0026463697015644,0.0018291240925322,15.399250903812,-0.0001168059927695,-0.0001168059927695,-0.0001168059927695,3076966.2541295,0.0066435562489574
23191759,0.4201043952152,0.00717559144137,0.0023753856000322,0.0026520302370342,0.0021481756043036,-0.00052359127313349,0.00052359501471363,4.5738254784109e-09,-8.4397940018513e-10,1.6932930085903e-09,2.2070141007195e-09,-0.00025766229430462,0.00025766138340336,-0.00047674249583096,0.0004767487281157,-0.00047674429899591,0.00047674691851648,-0.00025765762326287,0.00025766619103384,-0.00025766289584291,0.00025766087326799,-0.00047674308899813,0.00047674826966942,-0.00047674488521648,0.00047674646197542,-0.00060873526701993,0.00060874061164433,-0.00060873707819188,0.00060873880969187,-0.00060873513837983,0.00060874075082485,-0.00060873695350108,0.00060873895131632,-0.00053214641464811,0.00053215558679737,-0.00053215174709302,0.0005321503037125,-0.00053214661004828,0.00053215543295894,-0.0005321519155265,0.00053215012667588,-0.00025765699435781,0.00025766670559288,7.769594595689e-10,1.4552978222387e-10,1.1328110541646e-09,-2.5902904501695e-10,-0.00064663292041023,0.00064663380404609,-0.00064002403917528,0.00064002371995972,-0.00065419081568064,0.00065419285510788,-0.00065419128485828,0.0006541920177218,-0.00062509563633716,0.00062509715463794,-0.00062509611323437,0.00062509671520592,-0.00062509577937289,0.00062509690420933,-0.00062509625787997,0.00062509646300729,-0.00064002267022783,0.00064002475023743,-0.00064002415070831,0.00064002348771329,-0.0006541912971524,0.00065419242334173,-0.0006541917670128,0.00065419158316886,-0.00064002256263726,0.0006400249790307,-3.6010950916521e-09,1.8155286562649e-09,-0.00044549718445468,0.00044549539369825,-1.6588804493796e-09,-2.1616130448762e-10,-0.00037195265411988,0.0003719469152996,-0.0003470707615798,0.00034707210409195,-0.00034707259108313,0.00034707033105794,-0.00037194878822881,0.00037195088560242,-0.00037195395135427,0.00037194544920105,-0.00034707228367908,0.00034707075970629,-0.00034707398389853,0.00034706885155692,-0.00053448406491325,0.00053448002166592,-0.00053448358986883,0.00053448052571719,-0.00053448226650923,0.0005344818350551,-0.00053448176874371,0.00053448231496707,-0.00052466335742039,0.00052466737273434,-0.00052466870495435,0.00052466211430691,-0.00052466914545917,0.00052466159999247,-0.00052466387217654,0.00052466693713143,-0.00037194730895763,0.00037195215963319,0.7124265778679,128566,2924,0.0021796257747433,0.0026906359380504,0.0018547244409343,15.510300654644,-0.00011591759476285,-0.00011591759476285,-0.00011591759476285,3104235.720981,0.0067479477828844
23391759,0.42655971388573,0.0072789363668424,0.0024097370406002,0.0026927427554691,0.0021764565707731,-0.00053180791452514,0.00053181173905199,4.6777585592752e-09,-8.6579501492425e-10,1.7120182763551e-09,2.2754738974961e-09,-0.00026046191179118,0.0002604610143442,-0.00048431107041989,0.00048431748076171,-0.00048431291473484,0.00048431562921272,-0.00026045716964254,0.00026046589547725,-0.000260462565301,0.00026046045414632,-0.00048431171481565,0.00048431697447544,-0.00048431355243215,0.00048431512461183,-0.00061855460468243,0.00061856005670592,-0.00061855645798095,0.00061855821282897,-0.00061855446053668,0.00061856021200862,-0.0006185563175988,0.00061855837071795,-0.00054049565373401,0.00054050504742572,-0.00054050110912026,0.00054049964124188,-0.00054049586558861,0.00054050487642808,-0.00054050129497482,0.00054049944691944,-0.00026045648990204,0.00026046645934341,8.1594369600959e-10,1.3248414440621e-10,1.1866721054817e-09,-2.8735222176334e-10,-0.00065744446888255,0.00065744537768553,-0.00065079705929156,0.00065079670172493,-0.0006649600183195,0.00066496216393616,-0.00066496053506045,0.00066496126927215,-0.00063543673502482,0.00063543832217995,-0.00063543723814725,0.00063543785532278,-0.00063543689515324,0.00063543805300446,-0.00063543739970703,0.00063543758456528,-0.00065079562386578,0.00065079779412143,-0.00065079718496217,0.00065079645110541,-0.0006649605280376,0.00066496170498986,-0.00066496104436714,0.0006649608079798,-0.00065079550207243,0.0006507980418773,-3.6616577667849e-09,1.8812243396819e-09,-0.00045171080587396,0.00045170902029469,-1.6971588638905e-09,-1.7249645863468e-10,-0.00037634697751656,0.00037634120051823,-0.00035127058751718,0.00035127205799323,-0.00035127245907537,0.00035127024266687,-0.00037634307291411,0.00037634521815153,-0.00037634835415339,0.00037633965473611,-0.0003512721936846,0.00035127063588513,-0.00035127393230497,0.00035126868284042,-0.00054256272206464,0.0005425586148628,-0.00054256222031343,0.00054255914610527,-0.00054256088178078,0.00054256047038022,-0.00054256035678952,0.00054256097731757,-0.00053275565101504,0.00053275982473001,-0.00053276112650951,0.00053275444665262,-0.00053276159256182,0.0005327539012791,-0.00053275619800621,0.00053275936433002,-0.00037634150918478,0.00037634656994313,0.71512157310764,128566,2924,0.0022138050870053,0.0027355586678597,0.001880575056968,15.633792905881,-0.00011492965675295,-0.00011492965675295,-0.00011492965675295,3129088.699162,0.0068536264567968
23591759,0.43325291264157,0.0073861021157283,0.0024453636513483,0.0027350114819974,0.0022057269823826,-0.00054103735572341,0.00054104110090895,4.7001411021068e-09,-9.6658995795793e-10,1.9957683004131e-09,1.9080252080808e-09,-0.00026399273192984,0.00026399100191583,-0.00049289191700607,0.0004928976403342,-0.00049289379645911,0.00049289575060597,-0.00026398723155507,0.00026399665263418,-0.00026399275812885,0.00026399108021528,-0.00049289192293178,0.00049289778574086,-0.00049289380276068,0.00049289589113537,-0.00062946644736966,0.0006294720775395,-0.00062946834323198,0.00062947019137305,-0.00062946651687989,0.00062947201474973,-0.00062946841374295,0.00062947013382815,-0.00054987403856832,0.00054988325579053,-0.00054987961225736,0.00054987773413174,-0.00054987403176154,0.00054988330483324,-0.00054987958831524,0.00054987775141617,-0.00026398720186716,0.00026399655569096,5.5647101551598e-10,5.2755219240735e-10,1.2847196405204e-09,-2.5420003477519e-10,-0.0006694277411372,0.00066942877920487,-0.00066276219898641,0.00066276168982219,-0.00067690548450259,0.00067690714535602,-0.00067690536626592,0.00067690689606345,-0.00064690338223264,0.0006469049034926,-0.00064690390702771,0.00064690441323644,-0.00064690333373163,0.00064690485080397,-0.00064690385723525,0.00064690436190716,-0.00066276048382598,0.000662763065827,-0.00066276210295023,0.00066276166170924,-0.00067690602310025,0.00067690666285801,-0.0006769058928734,0.00067690641859581,-0.00066276057740658,0.00066276310034725,-3.7269212398056e-09,1.9449853906582e-09,-0.00045883293566917,0.00045883114915928,-1.7285079066059e-09,-1.4135370060637e-10,-0.00038158458870302,0.00038157873564513,-0.00035628740614979,0.00035628898561719,-0.00035628932421097,0.00035628712362569,-0.00038158062630156,0.00038158282501994,-0.00038158601917752,0.00038157714560304,-0.00035628908538877,0.00035628750519931,-0.00035629085963032,0.00035628551190882,-0.00055165205950947,0.00055164788916549,-0.00055165153924638,0.00055164844057954,-0.00055165017712272,0.00055164978578258,-0.00055164963068631,0.00055165031547003,-0.000541895766584,0.00054190009182906,-0.00054190138085804,0.00054189459144546,-0.00054190186057231,0.00054189402235814,-0.00054189634436006,0.00054189960963916,-0.0003815789812223,0.00038158424155704,0.715710433227,128566,2924,0.0022521949326552,0.0027853478884715,0.001910203963837,16.146292784055,-0.00011082965772756,-0.00011082965772756,-0.00011082965772756,3160082.0302322,0.0069722619495818
23791759,0.44019253668902,0.0075028809680801,0.0024840642715602,0.0027811749358236,0.0022376417606962,-0.00055090665512018,0.00055091036240093,4.7455674554217e-09,-1.049292882558e-09,2.2385179231964e-09,1.6241903165272e-09,-0.00026806392370504,0.00026806150043825,-0.00050246063778105,0.00050246584820817,-0.00050246256364735,0.00050246391384474,-0.00026805777818049,0.00026806779755589,-0.00026806342181479,0.00026806210705188,-0.00050246013173195,0.00050246651426949,-0.00050246205267556,0.00050246457912123,-0.00064098247003778,0.00064098827748937,-0.00064098440751341,0.00064098634946371,-0.00064098270939703,0.0006409880396522,-0.00064098464990596,0.00064098611512024,-0.00056005834127444,0.0005600674828405,-0.00056006403873156,0.0005600618276754,-0.00056005816687749,0.00056006769672302,-0.00056006384316727,0.00056006201974082,-0.00026805825915855,0.00026806718879814,3.5594580345298e-10,8.4841855530728e-10,1.3738930671569e-09,-2.3031723231959e-10,-0.00068221130959406,0.00068221246305275,-0.00067567620745537,0.00067567557384457,-0.00068963439114016,0.00068963567495285,-0.00068963375723049,0.00068963594611959,-0.00065907334598012,0.00065907483230678,-0.00065907389040063,0.00065907432189287,-0.00065907313030762,0.00065907495399043,-0.00065907367545782,0.00065907444275052,-0.00067567425226536,0.00067567718694304,-0.0006756759405275,0.00067567571742113,-0.00068963494606137,0.000689635173046,-0.00068963430941717,0.00068963544295583,-0.00067567452153222,0.00067567704297114,-3.793712474176e-09,2.0020567277324e-09,-0.00046646492688314,0.00046646312996934,-1.7681194617014e-09,-1.133024987278e-10,-0.00038757891097506,0.00038757300073196,-0.00036196576423592,0.00036196743614396,-0.00036196772230704,0.00036196553707715,-0.00038757488608745,0.00038757713853652,-0.0003875804095941,0.00038757132896467,-0.00036196750429567,0.0003619658893602,-0.00036196932232981,0.00036196385069507,-0.00056124907121323,0.00056124482595877,-0.000561248527883,0.00056124540115093,-0.00056124714601839,0.00056124676457939,-0.00056124657835666,0.00056124731575518,-0.00055180935833689,0.00055181381659558,-0.00055181509399438,0.00055180820120102,-0.00055181559843367,0.00055180760552265,-0.00055180995895697,0.00055181331681119,-0.0003875731870084,0.0003875786150901,0.75201415387194,128566,2924,0.0022932450983384,0.0028384589243056,0.0019419530429316,16.668787663169,-0.00010664969869465,-0.00010664969869465,-0.00010664969869465,3187033.1471792,0.0070990703512595
23991759,0.44738230307435,0.0076268434158053,0.0025250663198885,0.0028303352976851,0.0022714417982316,-0.00056122889620925,0.00056123261268963,4.8133335152298e-09,-1.1077929905301e-09,2.4159494155802e-09,1.4559264927539e-09,-0.00027208302822977,0.0002720801498858,-0.00051259885326409,0.00051260377595601,-0.00051260082224136,0.00051260179924989,-0.00027207642076912,0.00027208691189225,-0.00027208218597982,0.00027208109807192,-0.00051259801103197,0.00051260478512102,-0.00051259997309316,0.00051260280773226,-0.00065303808126965,0.00065304405315119,-0.00065304006051738,0.00065304208295798,-0.00065303843224837,0.00065304369965988,-0.00065304041499333,0.00065304173279593,-0.00057080266583451,0.00057081182653383,-0.00057080848691035,0.00057080604660228,-0.0005708023782157,0.00057081215472514,-0.00057080817711505,0.00057080635413137,-0.00027207723929492,0.00027208596362214,2.3248115300742e-10,1.0674268214021e-09,1.4600398659608e-09,-2.2562468032089e-10,-0.00069572768759703,0.00069572893295964,-0.00068947850819871,0.00068947777025185,-0.000703125167448,0.00070312623498849,-0.0007031241949791,0.0007031268438604,-0.00067182551561767,0.00067182700866569,-0.00067182608583119,0.00067182647177085,-0.00067182519164319,0.00067182724354528,-0.00067182576279171,0.000671826705584,-0.000689476356059,0.00068947957586079,-0.00068947812699657,0.0006894780277402,-0.00070312574930778,0.00070312570620208,-0.00070312477541709,0.00070312631339374,-0.00068947674053886,0.00068947931663377,-3.8628054037606e-09,2.0587425404738e-09,-0.00047439147626897,0.00047438966657662,-1.8163508094552e-09,-7.9212580040201e-11,-0.00039380124447959,0.00039379528018807,-0.00036784208824268,0.00036784386801894,-0.00036784408878915,0.00036784192849937,-0.00039379717351107,0.00039379945699637,-0.00039380282118596,0.0003937935226405,-0.00036784390861116,0.00036784224060169,-0.00036784576761123,0.00036784015808032,-0.00057127044272884,0.00057126611588347,-0.00057126987226179,0.00057126671881056,-0.00057126847534569,0.000571268096565,-0.00057126788048005,0.00057126867476861,-0.00056229450475685,0.00056229910091197,-0.00056230036341456,0.00056229336331733,-0.00056230089572894,0.00056229273950161,-0.00056229513283916,0.00056229857476286,-0.00039379539747684,0.00039380101342336,0.77068673142164,128566,2924,0.0023361793941859,0.0028946109738648,0.001974927189204,17.191687000715,-0.00010246650399428,-0.00010246650399428,-0.00010246650399428,3210025.5982683,0.0072320899231761
24191759,0.45479817724558,0.0077480867765434,0.0025653109415695,0.0028785104055503,0.0023042654294236,-0.00057137550334746,0.00057137925963081,4.8965154864233e-09,-1.15141560872e-09,2.4701429184029e-09,1.4434037488004e-09,-0.00027540251415182,0.00027539948340831,-0.00052208794837554,0.00052209289159785,-0.00052208996133424,0.0005220908713339,-0.00027539571765609,0.00027540643485701,-0.00027540160287066,0.00027540050059181,-0.00052208704432891,0.00052209396596096,-0.00052208904771577,0.00052209194758508,-0.00066513603423893,0.00066514210866824,-0.000665138055244,0.00066514009662352,-0.00066513640563454,0.0006651417327475,-0.00066513843113419,0.00066513972300325,-0.00058121907763123,0.00058122838090007,-0.00058122502407409,0.00058122247495238,-0.00058121876972267,0.00058122873006186,-0.00058122469079043,0.00058122280657233,-0.00027539659698063,0.00027540542589372,2.3450816352481e-10,1.1308552610892e-09,1.5388421448994e-09,-2.4206982266838e-10,-0.00070919759775262,0.00070919890677299,-0.00070311943954658,0.00070311864953399,-0.00071660521942992,0.0007166063219276,-0.00071660418260418,0.00071660699006268,-0.00068455786082497,0.0006845594285007,-0.00068455846086622,0.00068455886066913,-0.00068455751732866,0.0006845596835077,-0.00068455811930732,0.00068455911360112,-0.00070311717035478,0.00070312056784997,-0.00070311903761997,0.00070311892585748,-0.00071660583071003,0.0007166057627934,-0.00071660479648638,0.00071660642650714,-0.00070311757808988,0.00070312028636986,-3.9242918092214e-09,2.1224682331406e-09,-0.0004820497734241,0.00048204796569069,-1.8634387878211e-09,-3.0738088935718e-11,-0.00039918473829106,0.0003991787516369,-0.00037302784673883,0.00037302976159556,-0.00037302988831516,0.00037302778251329,-0.0003991806358956,0.00039918295421346,-0.00039918640911397,0.00039917689238535,-0.00037302975929569,0.00037302804103898,-0.00037303165970297,0.00037302591322545,-0.00058125730049257,0.00058125290214149,-0.00058125669812122,0.00058125353735538,-0.00058125529099014,0.00058125492521128,-0.00058125466483084,0.00058125553431735,-0.00057243030328585,0.00057243505524824,-0.00057243628414345,0.0005724291977271,-0.00057243684927559,0.00057242853965612,-0.00057243096351945,0.00057243449988123,-0.00039917877211379,0.00039918460197139,0.73179327406578,128566,2924,0.0023783838161482,0.0029505666318406,0.0020067856181952,17.664671370665,-9.8682629034676e-05,-9.8682629034676e-05,-9.8682629034676e-05,3236658.9380807,0.0073630731737291
24391759,0.46228839065534,0.0078712518958114,0.0026062069704584,0.0029275019998285,0.0023375429255245,-0.00058119422424429,0.00058119815186614,5.0330159791769e-09,-1.1178971603841e-09,2.3206210252383e-09,1.7733164787812e-09,-0.00027884820843696,0.00027884582187854,-0.00053132273094566,0.00053132833212425,-0.00053132475248121,0.00053132631122392,-0.00027884178138181,0.00027885239908772,-0.0002788478625034,0.00027884626188602,-0.00053132226045431,0.00053132895607327,-0.00053132433567316,0.00053132687059289,-0.00067682817311525,0.0006768343030526,-0.00067683023881794,0.00067683224627766,-0.00067682839762949,0.00067683407472839,-0.00067683044745102,0.00067683204103103,-0.00059125133510419,0.00059126103474898,-0.00059125734931049,0.00059125505849747,-0.00059125115632768,0.00059126125532058,-0.00059125720497406,0.00059125520071808,-0.00027884228520392,0.00027885177860207,4.4861939922059e-10,8.9990451956406e-10,1.5894592277293e-09,-3.1177376881949e-10,-0.0007221884238458,0.00072218972049359,-0.00071622209705533,0.00071622127845797,-0.00072958068616382,0.00072958227944449,-0.00072958010535022,0.00072958246823556,-0.00069691730525393,0.00069691906259007,-0.00069691795489719,0.00069691844685236,-0.00069691711603839,0.00069691915731774,-0.0006969177467635,0.00069691855930615,-0.00071621984819725,0.00071622316166323,-0.00071622180739696,0.00071622143550399,-0.00072958136080495,0.00072958164556499,-0.00072958072914094,0.00072958189326926,-0.00071622007675507,0.00071622305707982,-3.9960847715314e-09,2.1993531452105e-09,-0.00048937254051973,0.00048937073649859,-1.9130510918027e-09,1.9776563773375e-11,-0.00040442041083749,0.00040441428040123,-0.00037802418451195,0.00037802627624073,-0.00037802630762702,0.00037802421741737,-0.00040441624882905,0.00040441851549224,-0.00040442206982444,0.000404412401582,-0.00037802621166815,0.00037802441017067,-0.00037802813038448,0.00037802226207642,-0.00059080872059193,0.0005908042539921,-0.00059080809447525,0.00059080491102,-0.00059080667210565,0.00059080631715928,-0.00059080600126114,0.00059080696808012,-0.00058218251618447,0.00058218748591044,-0.00058218867260127,0.00058218145139725,-0.00058218923902235,0.0005821807895684,-0.00058218324183558,0.00058218686614814,-0.00040441420988098,0.00040442037032517,0.73638899807499,128566,2924,0.0024192234701888,0.0030045279915511,0.0020372478864251,17.858752048044,-9.7129983615651e-05,-9.7129983615651e-05,-9.7129983615651e-05,3261927.0221442,0.0074892819901308
24591759,0.46984647602968,0.0079989243985152,0.002648542508646,0.0029783600040064,0.0023720218858628,-0.00059127756622137,0.000591281651657,5.1809330350301e-09,-1.1098916781226e-09,2.2497201181388e-09,2.0108134290594e-09,-0.00028254584474322,0.00028254373821469,-0.00054103062607481,0.00054103675826622,-0.00054103270627964,0.00054103467186822,-0.00028253959723673,0.00028255014325306,-0.00028254575642119,0.00028254393054046,-0.00054103048317691,0.00054103706632126,-0.00054103258272569,0.00054103495209734,-0.00068874246132482,0.00068874868505844,-0.00068874456711645,0.00068874658823627,-0.00068874258025295,0.00068874856540482,-0.00068874468201102,0.00068874647925983,-0.00060163067767766,0.00060164079121537,-0.00060163685139997,0.00060163465771035,-0.00060163061888522,0.0006016408901594,-0.00060163678865143,0.00060163471823028,-0.0002825397317343,0.00028254988233447,6.1466703731452e-10,7.2888906246888e-10,1.6436657870208e-09,-3.6608318311593e-10,-0.00073552286713999,0.00073552415783539,-0.00072977339737683,0.00072977260574154,-0.0007428976155151,0.00074289955434243,-0.00074289733907556,0.00074289942166662,-0.00070955036837697,0.00070955225569767,-0.00070955104538855,0.00070955160869031,-0.00070955028260161,0.00070955224237855,-0.00070955095353305,0.00070955160148582,-0.00072977115231265,0.00072977448317298,-0.0007297732343613,0.00072977263173135,-0.00074289831003046,0.00074289890958165,-0.00074289802073214,0.00074289879225149,-0.00072977129435831,0.0007297744780422,-4.0517407689081e-09,2.2562122592936e-09,-0.00049689269173882,0.00049689088969512,-1.9718169154267e-09,8.2122356162324e-11,-0.00040999269000749,0.00040998662892267,-0.00038330688656475,0.00038330912250279,-0.00038330902857349,0.00038330704224847,-0.00040998855285903,0.00040999087232446,-0.00040999453338293,0.00040998458983926,-0.00038330903176686,0.00038330717099366,-0.00038331099880808,0.00038330496405948,-0.000600551328065,0.00060054677952117,-0.00060055065643455,0.0006005474835944,-0.00060054923671259,0.0006005488872167,-0.00060054853153883,0.00060054957259551,-0.0005923024726696,0.00059230757719178,-0.00059230872297894,0.00059230144832594,-0.00059230934622581,0.00059230072860279,-0.0005923032256698,0.0005923069354828,-0.00040998643256873,0.00040999278066993,0.75660586808103,128566,2924,0.0024611627376961,0.0030599131753974,0.0020685306304476,18.045651113174,-9.5634791094606e-05,-9.5634791094606e-05,-9.5634791094606e-05,3282978.3490474,0.007618875582703
24791759,0.47746966545962,0.0081156377376351,0.002687542453416,0.0030248438977793,0.0024032513864398,-0.0006007566587912,0.00060076083189709,5.2890056851318e-09,-1.1310113000282e-09,2.1953606328279e-09,2.1574214441087e-09,-0.00028513196402995,0.00028513000920575,-0.0005493539147415,0.00054936038623576,-0.00054935604253674,0.00054935825054288,-0.00028512578939795,0.00028513634404707,-0.00028513206558819,0.00028513001540736,-0.00054935397702216,0.00054936049015235,-0.00054935611437384,0.00054935833870499,-0.00070032713547488,0.0007003334203353,-0.00070032928304977,0.00070033128221821,-0.00070032718761004,0.00070033336875511,-0.00070032933391139,0.00070033123832071,-0.0006111327442234,0.00061114314222771,-0.00061113904961691,0.00061113687832063,-0.00061113275733484,0.00061114316800055,-0.00061113905032561,0.00061113687578294,-0.00028512571453276,0.00028513629223571,7.2737980078167e-10,6.3334895950639e-10,1.7038586425233e-09,-4.0902012245132e-10,-0.00074827003647467,0.00074827134429086,-0.0007425021994012,0.00074250139809876,-0.00075565974010846,0.00075566193409463,-0.00075565966171274,0.00075566159283329,-0.00072170578809568,0.00072170779305189,-0.00072170649718722,0.000721707112304,-0.00072170576774963,0.00072170771069025,-0.00072170647264586,0.00072170703413361,-0.00074249992011406,0.00074250330627752,-0.00074250210770542,0.00074250134834628,-0.00075566046597506,0.00075566125876429,-0.00075566038052421,0.00075566092696327,-0.00074250000093803,0.00074250336751754,-4.1032011672013e-09,2.3276491886503e-09,-0.00050380329087234,0.00050380150908723,-2.013976924262e-09,1.4533001665837e-10,-0.00041412400296162,0.00041411796571065,-0.00038737850575378,0.00038738090272068,-0.00038738068399231,0.00038737878575041,-0.00041411985244377,0.00041412222743011,-0.00041412596785661,0.0004141158040118,-0.00038738075328482,0.00038737885434421,-0.00038738276182528,0.00038737659879318,-0.00060997170290515,0.00060996709704684,-0.00060997099533542,0.0006099678377398,-0.00060996956925907,0.00060996924772826,-0.00060996883064667,0.00060996996608846,-0.0006014783451736,0.00060148362087761,-0.00060148471376672,0.00060147738081798,-0.00060148537645627,0.00060147661631238,-0.00060147913259917,0.00060148295267647,-0.00041411764500029,0.00041412422003266,0.68706804119644,128566,2924,0.0025005896696065,0.0031128565602474,0.0020972786431633,18.232259449459,-9.4141924404331e-05,-9.4141924404331e-05,-9.4141924404331e-05,3309351.715677,0.0077409438070802
24991759,0.48522247542361,0.0082363202726068,0.0027278525618712,0.0030729105139749,0.0024355571967607,-0.00061079272077147,0.00061079691825701,5.3648893393427e-09,-1.1826519172222e-09,2.2720078957478e-09,2.1056177914836e-09,-0.00028891119090254,0.00028890900477675,-0.00055843521451211,0.00055844162888654,-0.00055843738400487,0.00055843944777212,-0.00028890477123,0.00028891559720086,-0.00028891116631922,0.00028890915084765,-0.00055843516064845,0.00055844186314417,-0.00055843733533738,0.00055843967189695,-0.00071234543821831,0.00071235183101167,-0.00071234762821441,0.00071234965137668,-0.00071234553233819,0.00071235173745628,-0.00071234772233355,0.00071234956434955,-0.00062116810431952,0.00062117861235436,-0.00062117453731502,0.00062117222326554,-0.00062116807613639,0.00062117867748319,-0.00062117449593385,0.00062117226281817,-0.00028890481273648,0.00028891541742076,7.0024442121948e-10,7.3241902160164e-10,1.7797066337428e-09,-4.1372272858404e-10,-0.00076140722611071,0.0007614086016813,-0.00075552961402239,0.00075552876812113,-0.00076876422442144,0.000768766394799,-0.00076876402387247,0.00076876617710036,-0.00073438432918664,0.00073438638249129,-0.00073438506359548,0.00073438567479112,-0.00073438426837175,0.00073438634199629,-0.00073438499905994,0.0007343856378377,-0.00075552721596162,0.00075553080073948,-0.00075552948032062,0.00075552875814801,-0.00076876498037117,0.00076876569588469,-0.00076876476915895,0.00076876548529982,-0.00075552734429706,0.00075553081996462,-4.1595951395724e-09,2.3960004733486e-09,-0.00051128598567012,0.00051128421661611,-2.04803506063e-09,1.9439096525415e-10,-0.00041926316056485,0.00041925710414657,-0.00039231204277035,0.00039231457695634,-0.00039231426015826,0.00039231242041038,-0.00041925898181804,0.00041926141862099,-0.00041926522167648,0.00041925486390514,-0.00039231438162026,0.00039231245898229,-0.00039231642800411,0.00039231015807768,-0.00061980467199499,0.0006198000088246,-0.00061980393763924,0.00061980077868627,-0.00061980249625311,0.00061980220142228,-0.00061980173137159,0.00061980294773352,-0.00061118954114283,0.00061119497396308,-0.00061119602697188,0.00061118861006333,-0.00061119672114415,0.00061118781917517,-0.00061119034923059,0.00061119427735583,-0.00041925668771707,0.00041926347469179,0.69911855069148,128566,2924,0.0025423283485413,0.0031674163106407,0.0021284045963144,18.541787256607,-9.1665701947145e-05,-9.1665701947145e-05,-9.1665701947145e-05,3341358.7383242,0.0078693810475023
25191759,0.49328780024006,0.0083654213701083,0.0027708992048153,0.003124385757246,0.002470136408047,-0.00062199116933157,0.0006219952776217,5.3872937534694e-09,-1.2933109563483e-09,2.5541292688247e-09,1.7288988601501e-09,-0.00029351334162394,0.00029351025914042,-0.00056891397664334,0.00056891969987935,-0.00056891619521414,0.00056891746532861,-0.0002935061522797,0.00029351764486653,-0.00029351265166482,0.00029351109552395,-0.0005689132972626,0.00056892058843056,-0.0005689155023238,0.00056891836211909,-0.00072558649679512,0.00072559305983066,-0.00072558872916816,0.00072559083890532,-0.00072558680323589,0.00072559275009661,-0.00072558904133194,0.00072559053046142,-0.00063248011085667,0.0006324904502772,-0.00063248668468232,0.00063248392680334,-0.00063247987044141,0.00063249072641523,-0.00063248641733515,0.00063248418939826,-0.00029350680946392,0.00029351682658279,4.5255294687694e-10,1.1361937833834e-09,1.8847455751988e-09,-3.6627336118847e-10,-0.00077597574665145,0.00077597726902876,-0.00077013181042776,0.00077013085909929,-0.00078329004950006,0.00078329174755743,-0.00078328921066319,0.00078329218564412,-0.00074836313198813,0.00074836512750506,-0.00074836388215501,0.00074836440266359,-0.00074836286049797,0.00074836530660572,-0.00074836361167882,0.00074836458027369,-0.00077012914584008,0.00077013317157873,-0.00077013146674967,0.00077013105877041,-0.00078329082504782,0.00078329104248977,-0.00078328998084644,0.00078329147097533,-0.00077012950206935,0.00077013296760392,-4.2199755638014e-09,2.4550319835169e-09,-0.00051977711564908,0.00051977534675223,-2.0800241586185e-09,2.2924570532698e-10,-0.00042547249578843,0.00042546641789074,-0.00039825129941136,0.0003982539356697,-0.0003982535475953,0.00039825174889783,-0.00042546828411385,0.00042547080143995,-0.00042547466163915,0.00042546410192425,-0.00039825371479847,0.00039825177732025,-0.00039825580109887,0.00039824942741836,-0.00063076585637727,0.00063076112842688,-0.00063076509923791,0.00063076192537676,-0.0006307636376988,0.00063076336288104,-0.000630762855052,0.00063076413068692,-0.00062220264675903,0.00062220820431867,-0.00062220923743596,0.00062220172511269,-0.0006222099634455,0.00062220090901661,-0.00062220346090221,0.00062220748806628,-0.00042546593084968,0.00042547287861564,0.71926998273097,128566,2924,0.0025888987708168,0.0032279169285887,0.0021637237674406,19.180546923852,-8.655562460918e-05,-8.655562460918e-05,-8.655562460918e-05,3372687.0239016,0.0080129207663835
25391759,0.50167365044186,0.008506970470291,0.0028179219918421,0.0031809655576579,0.002508082920791,-0.000633983947361,0.00063398802975373,5.4344072615223e-09,-1.3655150160271e-09,2.774349978689e-09,1.4801897172496e-09,-0.00029868545446169,0.0002986817899864,-0.00058064366870172,0.00058064893644699,-0.00058064592354813,0.00058064667038698,-0.00029867767871966,0.00029868974916606,-0.00029868431954915,0.00029868305648396,-0.00058064251743987,0.00058065029280474,-0.00058064477368607,0.00058064801824228,-0.00073961844958597,0.00073962518347433,-0.00073962072355218,0.00073962291938092,-0.00073961890950225,0.00073962471358397,-0.00073962118446587,0.00073962245580471,-0.00064475518574104,0.00064476545195691,-0.00064476186732613,0.00064475881706098,-0.00064475478525775,0.00064476589806623,-0.00064476145067119,0.00064475923459928,-0.00029867882793424,0.00029868845174384,2.749268638495e-10,1.4311543364821e-09,1.971373550303e-09,-3.4615545589432e-10,-0.00079161989712546,0.00079162153480941,-0.00078604608252557,0.00078604500064917,-0.00079889084008935,0.00079889221576247,-0.00079888954020564,0.00079889311381228,-0.00076325646341171,0.0007632584495119,-0.00076325723652055,0.00076325770096273,-0.00076325604460707,0.0007632587829143,-0.00076325681419936,0.00076325803733477,-0.00078604318714371,0.00078604753066738,-0.00078604557485408,0.00078604536618412,-0.00079889163841803,0.00079889147541915,-0.00079889032629039,0.00079889238100458,-0.00078604369091492,0.00078604717235249,-4.2932919156629e-09,2.5141449736097e-09,-0.00052885650414318,0.00052885471938816,-2.1194282674562e-09,2.4900980169171e-10,-0.00043250374439526,0.00043249755101534,-0.00040492069922962,0.00040492342344182,-0.00040492300175727,0.00040492118668714,-0.00043249943338681,0.00043250198043512,-0.00043250591982262,0.00043249517699962,-0.00040492316434147,0.00040492118511642,-0.00040492529097015,0.00040491879551039,-0.00064235796820036,0.00064235316442913,-0.00064235719392812,0.00064235397756844,-0.00064235570781572,0.00064235544011425,-0.0006423549028791,0.00064235622901999,-0.00063427668105835,0.00063428238308577,-0.00063428340977961,0.00063427577154554,-0.00063428414903454,0.00063427494323298,-0.00063427752214557,0.0006342816422731,-0.00043249702020841,0.00043250415751559,0.75830138088922,128566,2924,0.0026387720545366,0.0032928788185297,0.0022014888873897,19.827808456488,-8.1377532348097e-05,-8.1377532348097e-05,-8.1377532348097e-05,3397309.0900478,0.0081667736370576
25591759,0.51038262145012,0.008658667377391,0.0028681932281004,0.0032418079747349,0.0025486661745557,-0.00064662148341594,0.00064662561831308,5.5237047484204e-09,-1.4028383757947e-09,2.8958293631507e-09,1.4136863228973e-09,-0.00030396962081434,0.00030396570099087,-0.00059323470203413,0.00059323988235786,-0.00059323699982069,0.00059323757439592,-0.00030396154015141,0.00030397397021161,-0.00030396830100391,0.00030396715433457,-0.00059323336985276,0.00059324142652995,-0.00059323566766366,0.00059323910946575,-0.0007543741197002,0.00075438100900719,-0.00075437643531583,0.00075437870260072,-0.00075437463998142,0.00075438047565798,-0.00075437695734595,0.00075437817521899,-0.00065785234415919,0.00065786272290703,-0.00065785915014578,0.00065785596226244,-0.00065785188160865,0.00065786323325244,-0.00065785866872746,0.00065785644494438,-0.00030396286860793,0.00030397249011907,2.2243114935166e-10,1.5621202337697e-09,2.0528371217056e-09,-3.5306353859243e-10,-0.00080826129036227,0.00080826300362743,-0.00080318077759799,0.0008031796209967,-0.00081552221191105,0.00081552351229758,-0.0008155207260267,0.00081552458946347,-0.00077895936579415,0.00077896139700839,-0.00077896016646386,0.0007789606202883,-0.00077895889049279,0.00077896179021259,-0.00077895968846278,0.00077896101567576,-0.00080317772934794,0.00080318229587613,-0.00080318020758311,0.00080318004672617,-0.00081552303827504,0.00081552274394434,-0.00081552154357833,0.0008155238260657,-0.00080317829652998,0.00080318187584975,-4.3641294934097e-09,2.5689079370891e-09,-0.00053833744586117,0.00053833564442521,-2.1734693243019e-09,2.8452642369248e-10,-0.00043985136030149,0.000439845114425,-0.00041191202407601,0.00041191485846262,-0.00041191436863412,0.00041191258153482,-0.00043984700995696,0.00043984957662581,-0.00043985361942171,0.00043984264930642,-0.00041191457711007,0.00041191253323441,-0.00041191674384483,0.0004119100989006,-0.0006545135838265,0.00065450869260769,-0.00065451277981419,0.00065450953564614,-0.00065451128119548,0.00065451101031189,-0.00065451044711437,0.00065451182868073,-0.00064718686100022,0.00064719270042813,-0.00064719371320261,0.00064718596732135,-0.00064719448198546,0.00064718510763112,-0.00064718773296079,0.00064719193067574,-0.00043984451284619,0.00043985184288693,0.78252854754336,128566,2924,0.002691327556227,0.0033619755096776,0.0022409238594321,20.475405537379,-7.6196755700966e-05,-7.6196755700966e-05,-7.6196755700966e-05,3416895.5169683,0.0083292083447653
25791759,0.51923045624345,0.0088080954476968,0.0029178397895895,0.0033018516400703,0.002588404018037,-0.00065861196958842,0.00065861626471015,5.6896631696075e-09,-1.4101401746636e-09,2.7903228769338e-09,1.6880137597354e-09,-0.0003081389502818,0.00030813521647464,-0.00060481295383975,0.00060481880206463,-0.00060481537926727,0.00060481637165134,-0.00030813106696789,0.00030814325622049,-0.0003081378071973,0.00030813646737172,-0.00060481205468882,0.00060481989636181,-0.00060481434781041,0.00060481758865003,-0.00076865106792893,0.00076865802528374,-0.00076865341807921,0.00076865568332272,-0.00076865144065427,0.00076865764022067,-0.00076865383924435,0.00076865525836909,-0.00067023198036353,0.00067024287658197,-0.0006702390227998,0.00067023587523684,-0.00067023171330221,0.00067024319886725,-0.00067023859704683,0.00067023630777116,-0.00030813183751913,0.00030814235611573,4.5323480037032e-10,1.3046796126981e-09,2.0887636641744e-09,-4.1770259235488e-10,-0.00082436692445666,0.00082436861589865,-0.00081974117598586,0.00081974011271253,-0.00083165080694005,0.00083165252511572,-0.00083164971507953,0.00083165317319251,-0.00079412585265694,0.00079412803966715,-0.00079412666252681,0.00079412725463009,-0.00079412551263601,0.00079412829102097,-0.00079412636615482,0.0007941274618023,-0.00081973817736497,0.00081974271089454,-0.00081974083569507,0.0008197403074591,-0.00083165158876369,0.00083165178352796,-0.00083165063723102,0.00083165230682511,-0.00081973865073954,0.00081974238881906,-4.4019804631672e-09,2.6096238248956e-09,-0.00054706719939566,0.00054706539873086,-2.2344059023627e-09,3.4327458509596e-10,-0.00044595300297471,0.0004459469841595,-0.00041779292294441,0.00041779583081287,-0.00041779523115486,0.00041779359391856,-0.00044594866282497,0.00044595138665846,-0.00044595554746303,0.00044594419015229,-0.00041779551211886,0.00041779344073201,-0.00041779777607632,0.0004177909084214,-0.00066612828168072,0.00066612330353467,-0.00066612741445842,0.00066612420834837,-0.00066612593051831,0.00066612567044328,-0.00066612507879946,0.00066612650392952,-0.0006593147626998,0.00065932065563951,-0.00065932162457013,0.00065931391691037,-0.00065932250131442,0.00065931294889442,-0.0006593156113286,0.00065931991815057,-0.00044594625959783,0.00044595360350209,0.7592159956589,128566,2924,0.0027411949105607,0.0034288415032079,0.0022772358764738,20.820544537175,-7.3435643702601e-05,-7.3435643702601e-05,-7.3435643702601e-05,3432505.5109317,0.0084835623792852
25991759,0.52792772848651,0.0089517764974802,0.0029657175275468,0.0033595856239792,0.0026264733459542,-0.00066941142948516,0.00066941602703077,5.8913489028791e-09,-1.3122524820801e-09,2.4436039554295e-09,2.3543197026345e-09,-0.00031159033480225,0.00031158790726536,-0.00061500203876624,0.00061500920594577,-0.0006150044675408,0.00061500677305626,-0.00031158335588517,0.00031159505185568,-0.00031159029318402,0.00031158805934663,-0.00061500210518792,0.00061500933088581,-0.00061500446580283,0.00061500695608112,-0.00078168721711212,0.00078169418610417,-0.00078168961502492,0.00078169179574126,-0.00078168727251696,0.00078169412545759,-0.00078168969399147,0.00078169171974459,-0.00068127118256192,0.00068128277214456,-0.00068127828546543,0.00068127570851665,-0.00068127120815674,0.00068128279656163,-0.000681278231289,0.00068127576185759,-0.00031158321640564,0.0003115950621543,8.8766718814143e-10,7.6911711702943e-10,2.1030382601541e-09,-5.2619741732422e-10,-0.00083900834268214,0.00083900993794542,-0.00083470130737954,0.00083470031925263,-0.00084633121122711,0.00084633387071952,-0.00084633110404608,0.00084633350617777,-0.00080799203177496,0.00080799449554443,-0.00080799289275564,0.000807993657495,-0.00080799201862405,0.00080799440744392,-0.00080799289928548,0.00080799354875242,-0.00083469850473476,0.00083470271005488,-0.00083470124908411,0.0008347002179813,-0.00084633207941816,0.00084633305100004,-0.00084633202295629,0.00084633264008016,-0.00083469862666187,0.00083470274587855,-4.4724524300565e-09,2.6870939130262e-09,-0.00055469180046521,0.00055469000653825,-2.2911916841314e-09,4.0557561624571e-10,-0.00045101717467864,0.00045101104595782,-0.00042257254429418,0.00042257565483563,-0.00042257493307793,0.000422573338105,-0.00045101282353699,0.00045101548228833,-0.00045101974630112,0.00045100823085237,-0.0004225752891153,0.00042257312177199,-0.00042257756329546,0.00042257056603322,-0.0006765589468385,0.00067655390111815,-0.00067655805188933,0.00067655483230287,-0.00067655656017304,0.00067655630559139,-0.00067655565632675,0.00067655718939075,-0.00067009837639857,0.00067010449566806,-0.00067010541384317,0.00067009757594569,-0.00067010629674845,0.00067009659795939,-0.00067009929936885,0.00067010368608418,-0.00045101020677371,0.00045101790048578,0.74286074169383,128566,2924,0.0027861096802775,0.0034896222879481,0.0023089528482166,20.694887487868,-7.4440900097052e-05,-7.4440900097052e-05,-7.4440900097052e-05,3443465.7845263,0.0086221727986345
26191759,0.53646780436044,0.0090959553183284,0.0030137372985764,0.0034175241268038,0.0026646938929482,-0.00068019549258033,0.00068020029875595,6.0523444731926e-09,-1.2665449216206e-09,2.3075805263666e-09,2.7103678772836e-09,-0.0003155552794982,0.00031555347657695,-0.00062538729106768,0.00062539518485482,-0.00062538974109697,0.00062539272656126,-0.00031554868346149,0.0003155602491346,-0.00031555576415751,0.000315553112252,-0.00062538783007675,0.0006253948395004,-0.00062539023927512,0.00062539241271029,-0.00079456618598379,0.00079457324198598,-0.0007945686273593,0.00079457080863633,-0.00079456608773285,0.00079457334029739,-0.00079456854394869,0.00079457090043998,-0.00069231014745019,0.00069232220777233,-0.00069231735059501,0.00069231504589977,-0.00069231032149937,0.00069232207893356,-0.00069231747687088,0.00069231491871814,-0.00031554808273323,0.00031556071198673,1.1006923059585e-09,5.0594311837326e-10,2.1447331533155e-09,-6.1132360604229e-10,-0.00085348858863894,0.00085349013586592,-0.00084952890272169,0.00084952789594377,-0.0008608644615573,0.00086086759769575,-0.00086086482693563,0.00086086674029393,-0.00082173326507715,0.00082173588142458,-0.00082173416941193,0.00082173499793593,-0.00082173341181661,0.00082173562800334,-0.00082173432938077,0.00082173473035391,-0.00084952613460004,0.00084953025230081,-0.00084952898436477,0.00084952764582725,-0.0008608653874407,0.0008608667285159,-0.0008608657754648,0.00086086584404065,-0.00084952608905682,0.00084953046587912,-4.5388743648125e-09,2.7576945793089e-09,-0.0005623578460316,0.00056235605725897,-2.3477919964705e-09,4.6906147256201e-10,-0.00045654601855077,0.00045653983418174,-0.00042763036297954,0.00042763365649717,-0.00042763280620073,0.0004276312814676,-0.00045654166710805,0.00045654430362818,-0.00045654867535668,0.00045653696178493,-0.00042763324961968,0.00042763100484316,-0.00042763555082827,0.00042762841200838,-0.0006868709825748,0.0006868658611786,-0.00068687005188628,0.0006868668273544,-0.00068686855470497,0.00068686830637549,-0.00068686760762808,0.00068686923480352,-0.0006809675727587,0.00068097388352843,-0.00068097475488852,0.00068096680996348,-0.00068097566461105,0.00068096580912036,-0.00068096854826291,0.00068097301728922,-0.00045653887921917,0.000456546876253,0.75895315842575,128566,2924,0.0028309572521393,0.0035497289383037,0.0023408418961898,20.557014346559,-7.5543885227528e-05,-7.5543885227528e-05,-7.5543885227528e-05,3452601.0068902,0.0087602265836413
26391759,0.54485141947716,0.0092422700917109,0.0030623893357521,0.0034763710515864,0.0027035097043723,-0.00069103568188667,0.00069104062255024,6.1820616016734e-09,-1.262792175257e-09,2.3155370917695e-09,2.8435030388458e-09,-0.00031973042698629,0.00031972876306118,-0.00063611155699416,0.00063611975633196,-0.00063611404866127,0.00063611725626834,-0.00031972383385651,0.00031973553196392,-0.00031973103597611,0.00031972827427494,-0.00063611222028457,0.00063611928794342,-0.00063611467103361,0.00063611681889473,-0.00080741326106971,0.00080742045059244,-0.0008074157443101,0.00080741797517529,-0.00080741312344133,0.00080742058991037,-0.00080741562191222,0.00080741810789507,-0.00070350308490828,0.00070351544290663,-0.00070351041157295,0.00070350815700666,-0.00070350330027146,0.00070351527323129,-0.0007035105786807,0.00070350798897297,-0.00031972310507138,0.00031973612337615,1.1575220024974e-09,4.350187591814e-10,2.1997901838611e-09,-6.790257076425e-10,-0.00086805464014802,0.00086805617427523,-0.0008645933489528,0.00086459225120991,-0.00087551118825954,0.00087551447741865,-0.00087551167162896,0.00087551348783754,-0.00083547444225783,0.00083547712879793,-0.00083547538491262,0.00083547620511573,-0.0008354746332054,0.00083547683135537,-0.00083547559013483,0.00083547589263116,-0.00086459050030042,0.00086459468370878,-0.00086459346993987,0.00086459195702635,-0.00087551215352527,0.00087551356934939,-0.00087551266219908,0.00087551254938026,-0.0008645904135721,0.00086459494265185,-4.60211040049e-09,2.8207167828767e-09,-0.0005700728182325,0.00057007102930145,-2.4091750557542e-09,5.3026145831577e-10,-0.00046240176351648,0.00046239557279934,-0.00043289378872479,0.00043289724378841,-0.0004328962727383,0.00043289482694638,-0.00046239741228231,0.00046240004967473,-0.00046240454028988,0.00046239258490512,-0.00043289679817464,0.00043289447446389,-0.00043289913858108,0.00043289183647252,-0.00069716464060624,0.00069715943667356,-0.00069716366855887,0.00069716044277789,-0.00069716216947834,0.00069716192333705,-0.00069716118311995,0.00069716289249242,-0.00069208181529698,0.00069208829180786,-0.00069208912217121,0.00069208109443573,-0.00069209007191416,0.00069208005289653,-0.0006920828338038,0.00069208738440135,-0.00046239450178395,0.0004624027447962,0.78422388657034,128566,2924,0.0028760373899044,0.0036101864697062,0.0023729345152038,20.418645675767,-7.6650834593863e-05,-7.6650834593863e-05,-7.6650834593863e-05,3456597.4498758,0.0088990924914917
26591759,0.5532445261441,0.0093884344285148,0.003111047305385,0.0035351716476501,0.0027422154754797,-0.00070238575108761,0.00070239062469707,6.2116258119188e-09,-1.3585070785339e-09,2.624533212606e-09,2.4625929733574e-09,-0.0003239863073763,0.00032398377412151,-0.00064729545284605,0.00064730294209549,-0.00064729798388077,0.00064730040062919,-0.00032397891435651,0.0003239913499257,-0.0003239862419693,0.00032398396792232,-0.00064729544163096,0.00064730316101742,-0.00064729793292786,0.00064730064905875,-0.00082086339154407,0.00082087078435824,-0.00082086591703442,0.00082086826670658,-0.00082086347954313,0.0008208706931096,-0.00082086601966941,0.0008208681698531,-0.00071524268689014,0.000715254871149,-0.00071525013756654,0.0007152474658917,-0.00071524267274948,0.00071525493414851,-0.00071525007643441,0.00071524752622597,-0.00032397886667341,0.00032399125349124,8.7001663738305e-10,8.3899849811297e-10,2.3145821494277e-09,-6.8221179760375e-10,-0.00088328373142578,0.00088328537604655,-0.00088037858023225,0.00088037724833491,-0.00089085605556847,0.00089085881856155,-0.00089085586397358,0.00089085851487049,-0.00084979077520525,0.00084979338326219,-0.00084979175579104,0.00084979242002038,-0.0008497907474178,0.00084979331576403,-0.00084979174168443,0.00084979233818386,-0.00088037538824333,0.00088038002960777,-0.00088037847030842,0.00088037718673036,-0.00089085706311877,0.00089085787176125,-0.00089085689280394,0.00089085753918855,-0.00088037552990942,0.00088038006013998,-4.6658132701982e-09,2.8840673738979e-09,-0.00057823284433652,0.00057823105539897,-2.467972984811e-09,5.8988137967766e-10,-0.00046866249569581,0.00046865629685635,-0.00043843322905074,0.00043843684460435,-0.00043843575539448,0.00043843438531561,-0.00046865814119788,0.00046866078653162,-0.00046866539093969,0.00046865319778091,-0.0004384363605041,0.00043843396313015,-0.00043843874020699,0.00043843128243974,-0.00070801443204074,0.00070800914704075,-0.00070801342120298,0.00070801019227996,-0.00070801191721488,0.00070801167445359,-0.00070801089286064,0.00070801268402639,-0.00070376934390362,0.00070377598548577,-0.00070377678133276,0.00070376866775356,-0.00070377776815558,0.00070376758463642,-0.00070377040550599,0.00070377503899631,-0.00046865510677908,0.00046866359201666,0.78230622746694,128566,2924,0.0029232363143563,0.0036733920350562,0.0024068777736126,20.571080816858,-7.5431353465133e-05,-7.5431353465133e-05,-7.5431353465133e-05,3462770.543541,0.009044757483719
26791759,0.56180324064756,0.0095341412452545,0.0031596907629691,0.0035937665381729,0.0027806839441125,-0.00071430435513446,0.00071430904134952,6.1963981409519e-09,-1.528493405833e-09,3.0651255744e-09,1.8224347640013e-09,-0.00032844500195519,0.00032844096287423,-0.00065882666926127,0.00065883297907967,-0.0006588292776765,0.00065883034866509,-0.00032843640821768,0.00032844976712825,-0.00032844378571007,0.00032844234407545,-0.00065882564575773,0.00065883424644483,-0.00065882814502647,0.00065883171846657,-0.00083501101024153,0.00083501861525461,-0.00083501357724516,0.00083501605791867,-0.0008350114397619,0.00083501817601648,-0.00083501404462604,0.00083501559097426,-0.00072748947259906,0.00072750129794981,-0.00072749711665414,0.00072749371412211,-0.0007274891315931,0.00072750168947329,-0.00072749666163536,0.00072749416725785,-0.00032843731607561,0.00032844868386615,4.5253048521019e-10,1.4505171030805e-09,2.4619089889291e-09,-6.4106758641352e-10,-0.00089914943483909,0.00089915126096486,-0.00089671322028611,0.00089671167158454,-0.00090686569732114,0.0009068676440419,-0.00090686447301424,0.00090686839874966,-0.00086476835385107,0.00086477081998788,-0.00086476935765249,0.00086476983248338,-0.00086476798528391,0.00086477110777765,-0.00086476902527658,0.00086477008352619,-0.00089670959157028,0.00089671490719476,-0.00089671280482433,0.0008967119225412,-0.0009068667147629,0.00090686669823141,-0.00090686556918761,0.00090686735818772,-0.00089671011170695,0.00089671456641804,-4.7125700981758e-09,2.9353534319712e-09,-0.0005868966216474,0.00058689483881813,-2.5201795620361e-09,6.5319474154387e-10,-0.00047536612312912,0.00047536004847613,-0.00044424904693163,0.00044425278789102,-0.00044425157115783,0.00044425033017931,-0.00047536180275718,0.00047536454785732,-0.00047536925077337,0.00047535676077968,-0.00044425227689798,0.00044424984789482,-0.00044425472071033,0.00044424709968546,-0.00071949106704885,0.00071948570452353,-0.00071949000795872,0.00071948680166539,-0.00071948850581344,0.00071948827347168,-0.00071948745800623,0.00071948931319571,-0.00071593878659126,0.00071594553145763,-0.0007159462949363,0.00071593816121624,-0.00071594735519936,0.00071593700283076,-0.00071593985794533,0.00071594458579285,-0.00047535872823598,0.00047536734079039,0.76472632619622,128566,2924,0.0029727964458673,0.0037392354348959,0.0024429152048223,21.00324868961,-7.1974010483123e-05,-7.1974010483123e-05,-7.1974010483123e-05,3475704.1127532,0.0091976042237974
26991759,0.57052678073308,0.0096788881973243,0.0032081516189664,0.0036519643312439,0.0028187722471141,-0.00072626856756903,0.00072627313253904,6.1869331842028e-09,-1.6377290826551e-09,3.321041817658e-09,1.4375412783948e-09,-0.00033283718106932,0.00033283237216026,-0.0006701550492286,0.00067016060645529,-0.00067015766714589,0.00067015797556068,-0.00033282784043149,0.00033284190785269,-0.00033283541248541,0.00033283428497411,-0.00067015335972149,0.00067016253358979,-0.00067015592957055,0.00067015994117417,-0.00084929364957065,0.00084930139053096,-0.00084929626034658,0.00084929878766164,-0.00084929429661015,0.00084930072548391,-0.00084929692366908,0.00084929811633215,-0.00073964285602118,0.00073965442465347,-0.00073965055561024,0.00073964676843018,-0.00073964227752073,0.00073965505303189,-0.00073964993199267,0.0007396473980639,-0.00033282948581313,0.00033284010533448,1.8242373166845e-10,1.8654346938388e-09,2.5801920457276e-09,-6.2615382340109e-10,-0.00091502686075483,0.0009150288291459,-0.0009129082340222,0.000912906453661,-0.00092290751965138,0.00092290899820852,-0.00092290565907572,0.00092291040529071,-0.0008798585083569,0.00087986094244395,-0.00087985955527989,0.00087985991062882,-0.00087985793146466,0.00087986144885958,-0.00087985899373895,0.00087986040063072,-0.00091290427283284,0.00091291001572017,-0.00091290756360197,0.00091290696382826,-0.0009229085996299,0.00092290798249168,-0.00092290675597157,0.00092290936096029,-0.00091290498164454,0.00091290946929918,-4.7852902965459e-09,3.014455208981e-09,-0.00059559980699973,0.00059559802920807,-2.567801341348e-09,7.016959214424e-10,-0.00048211193524421,0.00048210572622652,-0.00044995183262411,0.00044995574659161,-0.00044995443956596,0.00044995321132417,-0.00048210753274308,0.00048211024188342,-0.0004821150516284,0.00048210240578886,-0.00044995516869402,0.00044995266317933,-0.00044995764055329,0.00044994989789308,-0.00073107423021984,0.00073106880342518,-0.00073107314854987,0.00073106991886296,-0.00073107162688948,0.00073107140987594,-0.00073107053829125,0.00073107249171345,-0.00072805059664004,0.00072805756224192,-0.0007280582887866,0.00072805001819248,-0.00072805934779592,0.00072804885476965,-0.00072805173072978,0.00072805655293994,-0.0004821043058236,0.00048211323972551,0.74557636213847,128566,2924,0.0030225435386888,0.0038051230889943,0.0024791163731001,21.442714835179,-6.8458281318568e-05,-6.8458281318568e-05,-6.8458281318568e-05,3492323.2836445,0.0093508745301312
27191759,0.57940969612208,0.0098221293386458,0.0032562419071158,0.0037095495066736,0.0028563379248564,-0.00073822368645627,0.00073822816984913,6.2104579323908e-09,-1.7411919223996e-09,3.4501896054435e-09,1.2213579666613e-09,-0.00033714629572696,0.00033714092897971,-0.00068119762338641,0.00068120279667811,-0.00068120028332057,0.0006812001234546,-0.00033713648873462,0.00033715093173697,-0.00033714417648929,0.00033714319373731,-0.00068119559631601,0.00068120506750988,-0.00068119820891039,0.00068120243352736,-0.00086364982782453,0.00086365764444537,-0.00086365248032807,0.00086365499943006,-0.00086365058637546,0.00086365686322241,-0.00086365325623419,0.00086365421130473,-0.00075161421751786,0.00075162571910211,-0.00075162204214833,0.0007516179363516,-0.00075161352626141,0.00075162646074433,-0.00075162130469233,0.00075161868164363,-0.00033713846822164,0.0003371487933392,7.1857458833369e-11,2.0979483848522e-09,2.6828732232999e-09,-6.1231701631193e-10,-0.00093085808651873,0.00093086017286723,-0.00092888317292222,0.00092888130749013,-0.00093891604363485,0.00093891733026201,-0.00093891384665085,0.00093891908466524,-0.00089500792034466,0.0008950103866121,-0.00089500899466125,0.00089500932613659,-0.00089500723164798,0.00089501100937308,-0.00089500832316886,0.00089500993097262,-0.00092887901120038,0.00092888507133346,-0.00092888239110883,0.00092888193261786,-0.0009389171492228,0.00093891628843668,-0.00093891497579606,0.0009389180078211,-0.00092887983226893,0.00092888440882194,-4.8423573227967e-09,3.0826957726775e-09,-0.00060429794904179,0.00060429618218841,-2.6069961759722e-09,7.5164383986833e-10,-0.00048877642557475,0.00048877018845135,-0.00045550997942633,0.00045551403179397,-0.00045551262711447,0.00045551145633996,-0.00048877198308064,0.00048877473522983,-0.00048877962821587,0.00048876678732531,-0.00045551340084562,0.0004555108591078,-0.00045551591726116,0.00045550805418286,-0.00074272727463613,0.00074272178760478,-0.00074272616250799,0.0007427229319664,-0.00074272462754293,0.00074272443469479,-0.00074272351107418,0.00074272554639022,-0.00074003418743075,0.00074004131705994,-0.00074004200584443,0.00074003365429707,-0.00074004309421143,0.00074003246099403,-0.00074003535140394,0.00074004027784401,-0.00048876866836822,0.00048877782687646,0.72509827796714,128566,2924,0.0030722499399155,0.0038708151898596,0.0025152961985159,21.882477410157,-6.4940180718742e-05,-6.4940180718742e-05,-6.4940180718742e-05,3512268.0432724,0.0095039098227079
27391759,0.58838140206746,0.0099699032087602,0.0033057808862607,0.0037690016330808,0.0028951206894187,-0.00075026251665848,0.00075026705910778,6.3057804552356e-09,-1.7777172885895e-09,3.3809827222251e-09,1.3524178591657e-09,-0.0003417842029681,0.00034177894950702,-0.0006925264956397,0.00069253197769028,-0.00069252920604867,0.00069252925599285,-0.00034177445921194,0.00034178887852024,-0.00034178226134611,0.00034178102572663,-0.00069252466909116,0.00069253404386038,-0.00069252732298482,0.00069253137134739,-0.00087802765995256,0.0008780355115268,-0.00087803035403518,0.00087803282373457,-0.00087802835079151,0.0008780347965508,-0.00087803106612159,0.00087803209859954,-0.00076368150030872,0.00076369326012356,-0.00076368945725533,0.00076368534099511,-0.00076368088083626,0.00076369393081814,-0.00076368878115767,0.00076368602636996,-0.00034177623040603,0.00034178695864709,1.9481962174723e-10,2.0106667150414e-09,2.7355203673776e-09,-6.3162369144744e-10,-0.00094677977381824,0.00094678189657068,-0.00094492636710832,0.00094492453649556,-0.00095501037999194,0.00095501192663818,-0.00095500837960478,0.00095501347619831,-0.00091026095622216,0.00091026355141792,-0.00091026205146441,0.00091026246877476,-0.00091026033251915,0.00091026410572092,-0.00091026144857132,0.00091026300181176,-0.0009449222003407,0.00094492829701376,-0.00094492565991115,0.00094492508623284,-0.0009550115009413,0.00095501086513029,-0.00095500953834422,0.00095501236927858,-0.00094492295540326,0.00094492769889691,-4.900538736695e-09,3.1448165792236e-09,-0.00061307994368153,0.00061307817999823,-2.6448754427825e-09,7.9092757166424e-10,-0.00049580670467053,0.00049580044465427,-0.00046135980332506,0.00046136396678804,-0.00046136248686707,0.00046136135677581,-0.00049580220946874,0.00049580502105753,-0.00049580999217179,0.00049579694412254,-0.00046136329017675,0.00046136071742768,-0.00046136585319954,0.00046135786736497,-0.00075433733623644,0.00075433178309641,-0.00075433619534249,0.00075433295568996,-0.00075433464835366,0.00075433447361365,-0.00075433350574734,0.00075433560841462,-0.00075221661264872,0.0007522238867587,-0.00075222454562232,0.00075221611386273,-0.00075222566415006,0.00075221488769574,-0.00075221779904346,0.00075222282756149,-0.00049579884687094,0.00049580818430891,0.74093825088295,128566,2924,0.0031223019491957,0.0039368779328632,0.0025518237023909,22.214278524634,-6.2285771802931e-05,-6.2285771802931e-05,-6.2285771802931e-05,3530095.6780577,0.0096580414094326
27591759,0.59739703825478,0.010120310838399,0.0033561580359997,0.0038295709515488,0.0029345818508503,-0.00076232155131551,0.00076232622553041,6.427595810316e-09,-1.768982840465e-09,3.2402023638508e-09,1.6321630220547e-09,-0.00034639467452222,0.00034638989255509,-0.00070399122532946,0.00070399728720877,-0.00070399396287681,0.00070399453850341,-0.00034638523569728,0.0003463995267516,-0.00034639318675412,0.00034639152481353,-0.00070398980033389,0.00070399894727074,-0.00070399250445837,0.00070399622532963,-0.00089242458242882,0.00089243246703946,-0.00089242731783397,0.00089242973723926,-0.00089242514071075,0.00089243188676637,-0.00089242788980921,0.00089242915504562,-0.00077583823865897,0.00077585036211854,-0.00077584629453141,0.00077584234471191,-0.00077583774440183,0.00077585090956462,-0.0007758457658791,0.00077584288112357,-0.00034638662240768,0.00034639798410574,3.9533120996173e-10,1.8054168368137e-09,2.7709890554806e-09,-6.7007184976495e-10,-0.00096282583657113,0.00096282795694203,-0.00096116337974159,0.00096116159719597,-0.00097123537727191,0.00097123735691533,-0.00097123378217692,0.00097123848893828,-0.00092557017620603,0.00092557293157145,-0.00092557129875612,0.00092557182052025,-0.00092556968752633,0.00092557334579685,-0.00092557082282547,0.00092557222101289,-0.00096115927328473,0.00096116529439739,-0.00096116279335273,0.00096116202155326,-0.00097123653484371,0.00097123625945226,-0.00097123495232729,0.00097123736770607,-0.0009611598815724,0.00096116484230245,-4.9716260540151e-09,3.2128384595052e-09,-0.00062180887433345,0.0006218071072992,-2.6789755611006e-09,8.2075760975849e-10,-0.00050279108892308,0.00050278472248238,-0.00046720007883394,0.00046720435788598,-0.00046720281996483,0.00046720169223167,-0.00050278653074367,0.00050278937488007,-0.00050279440673004,0.0005027811953982,-0.00046720364187257,0.00046720103566831,-0.00046720623577195,0.00046719814820364,-0.0007659017608003,0.00076589614047522,-0.00076590060213855,0.00076589733104402,-0.00076589903105358,0.00076589887448397,-0.00076589786204673,0.00076590003367355,-0.00076447565992287,0.00076448309299602,-0.00076448372069838,0.00076447515223295,-0.00076448485617633,0.00076447393468573,-0.00076447685485048,0.00076448198867266,-0.00050278306946758,0.00050279262950044,0.75071315044492,128566,2924,0.0031724382851248,0.0040034512819364,0.0025881301168802,22.481991355635,-6.014406915492e-05,-6.014406915492e-05,-6.014406915492e-05,3543413.3977454,0.0098125744944765
27791759,0.60644895494922,0.010273446054053,0.0034074036866777,0.0038913015249637,0.002974740842412,-0.00077453066691627,0.00077453547482409,6.5609913006459e-09,-1.7703483132066e-09,3.1369192280944e-09,1.8762381939758e-09,-0.00035112277268976,0.000351118319775,-0.00071573519177334,0.00071574178738185,-0.00071573797995904,0.00071573898703131,-0.00035111354913728,0.00035112773089446,-0.00035112160337142,0.00035111962553668,-0.00071573411766471,0.00071574309838595,-0.00071573685762463,0.0007157403394546,-0.00090695969280738,0.00090696763732088,-0.00090696247038142,0.00090696486519086,-0.00090696013613541,0.00090696717434698,-0.00090696293298507,0.000906964395393,-0.00078822421124183,0.00078823672197838,-0.00078823240871786,0.00078822856583526,-0.0007882238406203,0.00078823714448878,-0.00078823198945239,0.00078822899355121,-0.00035111456660248,0.00035112656171292,5.7398236335044e-10,1.6183710544634e-09,2.8016400773482e-09,-7.0632643403581e-10,-0.00097910532808165,0.00097910744105993,-0.00097769223647637,0.0009776905101971,-0.00098769336533229,0.00098769571117097,-0.00098769211277148,0.00098769648248171,-0.00094106009533842,0.0009410629817357,-0.00094106123654328,0.00094106185115971,-0.00094105972233668,0.0009410632752785,-0.00094106088167021,0.00094106212606017,-0.00097768818339797,0.00097769415289624,-0.00097769177632587,0.0009776908061191,-0.00098769453706239,0.00098769459983748,-0.00098769331430943,0.00098769533227335,-0.00097768868236411,0.00097769381733663,-5.0325537789637e-09,3.269659275001e-09,-0.00063061350693466,0.00063061173576155,-2.7179892709212e-09,8.562998085211e-10,-0.0005098835162222,0.00050987712175104,-0.00047317433100533,0.00047317871176902,-0.000473177103464,0.00047317601381255,-0.00050987891204296,0.00050988181960238,-0.00050988693004273,0.00050987350487498,-0.00047317796468124,0.00047317532841531,-0.0004731806027418,0.00047317239255219,-0.00077756570431619,0.00077756001231181,-0.00077756451841251,0.0007775612310495,-0.00077756293337218,0.00077756278894341,-0.00077756174140671,0.0007775639702174,-0.00077690874659999,0.00077691630667726,-0.00077691691049112,0.00077690825327118,-0.00077691807988692,0.00077690700676056,-0.00077690995610841,0.00077691518310224,-0.00050987540173098,0.00050988513004512,0.76134594354642,128566,2924,0.0032231983283307,0.0040709871451206,0.0026247506032383,22.748013457699,-5.801589233841e-05,-5.801589233841e-05,-5.801589233841e-05,3554419.8245509,0.0099690506745899
27991759,0.61553022518302,0.010429406535548,0.0034595493816662,0.0039542400469469,0.0030156171069346,-0.00078690041818979,0.00078690532950894,6.6741970335973e-09,-1.7813856177304e-09,3.1099963259529e-09,2.0121251851921e-09,-0.00035590696244159,0.00035590266042203,-0.00072776373640981,0.00072777064105756,-0.00072776656423764,0.00072776780069302,-0.00035589777956061,0.00035591203311677,-0.00035590596162525,0.00035590380056168,-0.00072776282273262,0.00072777179410756,-0.00072776560492335,0.00072776899219747,-0.000921645698799,0.00092165373350952,-0.00092164851843544,0.00092165091904086,-0.00092164609014451,0.00092165332346483,-0.00092164892791974,0.00092165050366389,-0.00080084614569777,0.00080085893431983,-0.00080085446182376,0.00080085065756039,-0.00080084582855482,0.00080085929995022,-0.00080085410275107,0.00080085102652927,-0.00035589864006632,0.00035591101926654,6.6068469306555e-10,1.5410675734435e-09,2.8468475261152e-09,-7.4142524173251e-10,-0.00099563465776531,0.00099563678009638,-0.00099451623553859,0.00099451449426639,-0.0010044095202441,0.0010044120673844,-0.0010044084252969,0.0010044126678888,-0.0009567392335208,0.00095674221084057,-0.0009567404010804,0.00095674105284953,-0.00095673891609188,0.00095674244737178,-0.00095674010026752,0.00095674127220005,-0.00099451215774367,0.00099451816011082,-0.00099451582672568,0.00099451473618417,-0.001004410721872,0.001004410927041,-0.0010044096511937,0.0010044114938002,-0.00099451260223938,0.00099451788210856,-5.0996931876616e-09,3.3305577137425e-09,-0.00063950286386963,0.00063950108632526,-2.7613003826471e-09,8.9302350777517e-10,-0.00051709624669632,0.00051708979471721,-0.00047928844687525,0.00047929294388558,-0.00047929126359982,0.00047929020194099,-0.0005170915968017,0.0005170945403034,-0.00051709973505341,0.00051708610566439,-0.0004792921636624,0.00047928948337728,-0.00047929483992313,0.00047928650410634,-0.00078933692011605,0.00078933115269275,-0.00078933570872807,0.00078933239911107,-0.00078933410831266,0.00078933397252004,-0.00078933288731993,0.00078933518039774,-0.00078957961179065,0.00078958731979298,-0.00078958790230022,0.00078957913926104,-0.00078958909654903,0.00078957786593385,-0.0007895808511271,0.00078958616880054,-0.00051708800600944,0.00051709793424235,0.77288939484019,128566,2924,0.0032746260184736,0.0041395532527446,0.002661722900249,23.013966645633,-5.5888266834939e-05,-5.5888266834939e-05,-5.5888266834939e-05,3563491.3453751,0.010127621800559
28191759,0.6246008627062,0.010587724326663,0.0035124426753054,0.0040181958962907,0.0030570857550667,-0.00079929166048408,0.0007992966717451,6.7842104349399e-09,-1.7922429403702e-09,3.103301801966e-09,2.1242265730716e-09,-0.00036065035895671,0.00036064617396686,-0.00073993557768554,0.00073994273994753,-0.00073993844173403,0.00073993986526934,-0.00036064117127267,0.00036065554158337,-0.00036064948726984,0.00036064717384255,-0.00073993477379461,0.00073994377951363,-0.00073993760283875,0.00073994093154735,-0.00093633638645474,0.0009363445226733,-0.00093633924782504,0.00093634166579601,-0.00093633674128118,0.00093634414949344,-0.00093633961748278,0.00093634129087743,-0.00081358096133081,0.0008135940057311,-0.00081358938761941,0.00081358561242158,-0.0008135806816128,0.00081359432930537,-0.00081358908033139,0.00081358593371356,-0.00036064193269636,0.00036065463703639,7.2085839768253e-10,1.4865198297808e-09,2.8945239535742e-09,-7.8428506133561e-10,-0.0010122529601629,0.0010122550892485,-0.0010115012352428,0.0010114994430083,-0.0010212348180075,0.0010212375190997,-0.0010212338336954,0.0010212379948514,-0.00097244722832301,0.00097245028467798,-0.00097244842661361,0.00097244909546941,-0.00097244695188105,0.00097245047980096,-0.00097244816332009,0.00097244927673034,-0.0010114971047816,0.0010115031543775,-0.0010115008600626,0.0010114996493717,-0.0010212360530404,0.0010212363428114,-0.0010212350853264,0.0010212367953521,-0.0010114975046086,0.0010115029205096,-5.168444174776e-09,3.3931296446946e-09,-0.0006483490387777,0.00064834725435461,-2.8103084560485e-09,9.3334692112753e-10,-0.00052433554488791,0.00052432902843569,-0.00048540702778396,0.00048541165166491,-0.00048540989322178,0.00048540886048439,-0.00052433084766381,0.00052433380742674,-0.00052433910065659,0.00052432526410182,-0.00048541083320911,0.00048540809356595,-0.00048541354841613,0.00048540507591934,-0.00080108537647566,0.00080107953034187,-0.00080108413678237,0.00080108080553186,-0.00080108252312712,0.00080108239265848,-0.00080108126879206,0.00080108363139937,-0.00080234945601834,0.00080235732371455,-0.00080235788152769,0.00080234901046264,-0.00080235909937226,0.00080234771015852,-0.00080235073353348,0.00080235613833916,-0.00052432716321842,0.0005243373136545,0.78542227618802,128566,2924,0.003326143281831,0.0042084818815639,0.0026985155771681,23.224041457585,-5.4207668339319e-05,-5.4207668339319e-05,-5.4207668339319e-05,3569585.7322879,0.010286493315565
28391759,0.63364325634429,0.010748317225286,0.0035660663534314,0.0040831224256647,0.0030991284461902,-0.00081176129387507,0.00081176637838124,6.8854566260264e-09,-1.8207623621067e-09,3.1484874099297e-09,2.15601707907e-09,-0.00036534841233534,0.00036534415366796,-0.0007523175089688,0.00075232478090965,-0.00075232041868254,0.00075232185916228,-0.00036533908807357,0.00036535366016378,-0.00036534752042685,0.00036534517715037,-0.0007523166972616,0.00075232583266672,-0.00075231956464017,0.00075232294491158,-0.0009510929609667,0.00095110121593615,-0.00095109586414016,0.00095109831690264,-0.00095109331958817,0.00095110083870424,-0.00095109624028752,0.00095109793561934,-0.00082649514206402,0.00082650838917681,-0.00082650369780404,0.00082649986311187,-0.00082649486318456,0.0008265087056593,-0.00082650338841696,0.00082650018853845,-0.00036533984970406,0.00036535275396014,7.2865361601455e-10,1.4994076067739e-09,2.9561552164285e-09,-8.2496260531163e-10,-0.001029024931954,0.0010290270805856,-0.0010287015068118,0.0010286996391473,-0.001038233931239,0.001038236678846,-0.0010382329343235,0.0010382371590353,-0.0009882397203832,0.00098824282703222,-0.00098824095028821,0.00098824160496081,-0.00098823944338858,0.00098824302384486,-0.00098824068885051,0.00098824178577145,-0.0010286972760405,0.001028703450824,-0.0010287011339306,0.0010286998422092,-0.0010382351976259,0.0010382354735002,-0.0010382342241403,0.0010382359228405,-0.0010286976806811,0.0010287032148517,-5.2326742865149e-09,3.4515263292325e-09,-0.00065721946674455,0.0006572176765639,-2.8655521654301e-09,9.826721885695e-10,-0.00053170812586041,0.00053170159551054,-0.00049159571642571,0.00049160047465805,-0.00049159861803343,0.00049159764548989,-0.00053170341278912,0.00053170639544335,-0.00053171179885659,0.0005316977264625,-0.00049159962398221,0.00049159682017264,-0.00049160238261892,0.00049159375829173,-0.00081287382914842,0.00081286790002899,-0.00081287255328238,0.00081286921198746,-0.00081287093359424,0.00081287080440807,-0.00081286964484248,0.00081287207690962,-0.00081528695546857,0.00081529496907582,-0.000815295497301,0.00081528653856512,-0.00081529675399035,0.00081528519988554,-0.00081528826546988,0.00081529375228885,-0.00053169963694418,0.00053170999483677,0.7990379139527,128566,2924,0.003377986095654,0.0042780413629118,0.0027354092574072,23.414951663915,-5.2680386688676e-05,-5.2680386688676e-05,-5.2680386688676e-05,3573211.0282577,0.010446458552659
28591759,0.64265097415294,0.010910103519785,0.0036200992416179,0.0041485572892943,0.0031414469888725,-0.00082428808999328,0.00082429322508889,6.9734359751707e-09,-1.8584392129283e-09,3.2239200733371e-09,2.1335899521739e-09,-0.00036995630043854,0.00036995187663897,-0.00076480815381619,0.00076481542346866,-0.00076481110440904,0.00076481246006047,-0.00036994675806616,0.00036996160103599,-0.0003699553151178,0.00036995299453735,-0.00076480724701858,0.00076481657410732,-0.00076481015562405,0.0007648136439261,-0.00096591429922728,0.00096592267862571,-0.00096591724432744,0.00096591973724176,-0.00096591469036677,0.00096592226774256,-0.00096591765285144,0.00096591932290744,-0.00083953380233865,0.00083954719273832,-0.00083954247938043,0.00083953854277809,-0.00083953349245974,0.0008395475361939,-0.00083954214369904,0.00083953889716058,-0.00036994761647983,0.00036996059881259,6.9563179169097e-10,1.5617200280546e-09,3.0265845330965e-09,-8.670335234269e-10,-0.0010459240661122,0.0010459262428901,-0.0010460861974683,0.0010460842184281,-0.0010553853095465,0.0010553880309205,-0.0010553842164751,0.0010553886018957,-0.0010040893781996,0.0010040925194954,-0.0010040906447623,0.0010040912597579,-0.0010040890727803,0.0010040927470619,-0.0010040903543054,0.0010040914719059,-0.0010460818264978,0.001046088169837,-0.0010460857944848,0.0010460844515646,-0.0010553866152169,0.0010553867878492,-0.0010553855431476,0.0010553873298334,-0.0010460822609991,0.0010460879046241,-5.2983325929578e-09,3.5125395628109e-09,-0.00066608904746156,0.00066608725262325,-2.9249589456999e-09,1.0369273874358e-09,-0.00053903119082264,0.00053902464187628,-0.00049776332292659,0.00049776823002627,-0.00049776626619282,0.00049776535772144,-0.00053902646336131,0.00053902945297823,-0.00053903497645628,0.00053902066682687,-0.00049776734301726,0.00049776446398348,-0.00049777014338181,0.00049776136112829,-0.00082470579604281,0.00082469978219807,-0.00082470448246759,0.00082470113249984,-0.0008247028582176,0.00082470272837896,-0.0008247015308652,0.00082470403909,-0.00082833718595855,0.00082834535797262,-0.00082834585302271,0.00082833680375495,-0.00082834714722709,0.00082833542645902,-0.00082833853533284,0.00082834410308707,-0.00053902258011173,0.00053903316814483,0.8078752184152,128566,2924,0.0034300664145799,0.004348121973477,0.0027722994127722,23.605346721537,-5.1157226227708e-05,-5.1157226227708e-05,-5.1157226227708e-05,3574792.6104692,0.010607213027616
28791759,0.65161786193233,0.011067317132917,0.0036727698152033,0.0042121014245828,0.0031824458931308,-0.00083655850418252,0.00083656365974681,7.0467567682119e-09,-1.9108941887442e-09,3.3042586792243e-09,2.0737768449527e-09,-0.00037404870365537,0.0003740440389739,-0.0007767488549016,0.00077675604888527,-0.00077675184676193,0.00077675304389485,-0.00037403889832428,0.00037405402398859,-0.0003740475799347,0.00037404529417983,-0.00077674781168636,0.00077675733968052,-0.00077675076211056,0.00077675436745055,-0.00098056959376612,0.00098057808201063,-0.0009805725808209,0.00098057509836055,-0.00098057003088983,0.00098057762349289,-0.00098057303531573,0.00098057463679657,-0.00085223696625551,0.00085225045644962,-0.00085224576473744,0.00085224168214856,-0.000852236610533,0.00085225084428636,-0.00085224538586562,0.00085224208138121,-0.00037403989689113,0.00037405288279114,6.4752901513895e-10,1.6509595483191e-09,3.104340145363e-09,-9.0553826372175e-10,-0.001062543412234,0.0010625456288513,-0.0010631058082701,0.0010631037098147,-0.0010722954522377,0.0010722981180085,-0.0010722942228481,0.0010722988251296,-0.0010196884882343,0.0010196916627868,-0.0010196897927249,0.0010196903637101,-0.0010196881395107,0.0010196919362697,-0.0010196894586513,0.0010196906220824,-0.0010631012797133,0.0010631078219389,-0.0010631053618951,0.0010631039886152,-0.0010722967975098,0.0010722968355191,-0.0010722955880291,0.0010722975145284,-0.0010631017574872,0.0010631075113858,-5.3599856137126e-09,3.5774021704664e-09,-0.00067468563277361,0.0006746838412187,-2.98236698387e-09,1.0977172914875e-09,-0.00054577435963095,0.00054576780513176,-0.00050343699205963,0.00050344206046117,-0.00050343997740178,0.00050343914572347,-0.00054576962061877,0.00054577262080169,-0.00054577826183951,0.00054576371886455,-0.00050344112793919,0.00050343817753762,-0.00050344397125672,0.00050343503470957,-0.00083638617407355,0.00083638008188728,-0.0008363848211917,0.00083638147174238,-0.00083638319364194,0.00083638306950328,-0.00083638182659215,0.00083638441993841,-0.00084099360330557,0.00084100194068744,-0.00084100239124219,0.00084099325889687,-0.00084100372629803,0.0008409918466656,-0.00084099498736014,0.00084100064327318,-0.00054576562520044,0.00054577645669636,0.78846824382144,128566,2924,0.0034810808818937,0.004417036434744,0.0028080551094572,23.795720703058,-4.9634234375536e-05,-4.9634234375536e-05,-4.9634234375536e-05,3575936.7669579,0.010764592822638
28991759,0.66060049089282,0.011218109137864,0.0037235172195699,0.0042729780059256,0.0032216139123682,-0.00084872796467539,0.00084873307411218,7.0825578020149e-09,-1.9916226814707e-09,3.4250219407543e-09,1.9030794622876e-09,-0.00037795112927417,0.00037794603852723,-0.00078815755183092,0.00078816443944545,-0.00078816057181557,0.00078816140302339,-0.00037794092318761,0.00037795642893754,-0.00037794974518306,0.00037794756250976,-0.00078815621721839,0.00078816602983757,-0.00078815921337089,0.00078816301098469,-0.0009952148233337,0.00099522340441572,-0.00099521785253643,0.00099522037910938,-0.0009952153585328,0.00099522284510973,-0.00099521839919622,0.00099521982294226,-0.00086465894593927,0.00086467240620835,-0.00086466784935098,0.0008646635261162,-0.00086465848748833,0.00086467289235207,-0.00086466739060038,0.00086466400932375,-0.00037794223371747,0.00037795497092061,5.3632907216206e-10,1.8449112723447e-09,3.201184257783e-09,-9.2186681218992e-10,-0.0010788812105621,0.0010788835061574,-0.0010795682079895,0.0010795659728544,-0.0010889645803345,0.0010889670748106,-0.0010889630646751,0.001088968077682,-0.0010351955984691,0.001035198789131,-0.0010351969425136,0.0010351974489957,-0.001035195154228,0.0010351991619929,-0.0010351965067957,0.0010351978128092,-0.0010795634749978,0.0010795703022808,-0.0010795676544172,0.0010795663622393,-0.0010889659742477,0.0010889657473026,-0.0010889644577322,0.0010889667392562,-0.0010795640439461,0.0010795698992844,-5.4214141995268e-09,3.6518514682054e-09,-0.00068324030201138,0.00068323852421934,-3.0300056510764e-09,1.1613483980154e-09,-0.00055223628650262,0.00055222969965008,-0.00050888443059504,0.00050888967852259,-0.00050888746868034,0.00050888671050347,-0.00055223152510635,0.00055223454025883,-0.00055224028025615,0.00055222553773618,-0.00050888868818001,0.00050888568177265,-0.00050889156866537,0.00050888250440711,-0.00084808077331196,0.00084807461468374,-0.00084807938663702,0.00084807603926212,-0.00084807774967131,0.00084807764369604,-0.00084807634285032,0.00084807903491688,-0.00085329244061917,0.00085330096861779,-0.00085330137105327,0.00085329214595397,-0.00085330273528495,0.00085329070650685,-0.00085329386791151,0.00085329962421109,-0.00055222739381268,0.00055223850689123,0.75490318836376,128566,2924,0.0035316714082991,0.0044847781460962,0.0028436362593298,24.096262433418,-4.7229900532653e-05,-4.7229900532653e-05,-4.7229900532653e-05,3583083.2506544,0.010920208589518
29191759,0.66960068701441,0.011365660332148,0.0037732776014099,0.0043325314666696,0.0032598512640683,-0.00086079098911004,0.00086079606594174,7.1338574192733e-09,-2.0744822626085e-09,3.4857625685521e-09,1.8070889337912e-09,-0.00038194263447948,0.00038193719855038,-0.00079923321905512,0.00079923997055057,-0.00079923629186373,0.00079923688208528,-0.00038193213543917,0.00038194787289694,-0.00038194106786803,0.00038193889788477,-0.00079923173713061,0.00079924170825449,-0.00079923477214228,0.00079923865294367,-0.0010097614244942,0.0010097700672729,-0.0010097644952342,0.0010097669998846,-0.0010097620077019,0.0010097694571065,-0.0010097650955694,0.0010097663874779,-0.00087686123035314,0.00087687475009826,-0.00087687027086463,0.00087686572769623,-0.00087686073098791,0.00087687527630251,-0.00087686975684836,0.00087686626989601,-0.00038193358418874,0.00038194628519847,4.9737037120598e-10,1.9513722312708e-09,3.2789694944974e-09,-9.3617044745897e-10,-0.0010949223171566,0.0010949246787974,-0.0010954720113851,0.0010954697087096,-0.0011053645731753,0.0011053670129332,-0.0011053629064295,0.0011053681690448,-0.0010506004981351,0.0010506037347257,-0.0010506018691421,0.0010506023665026,-0.0010506000029969,0.0010506041597991,-0.0010506013878586,0.0010506027773712,-0.0010954671398134,0.0010954741741164,-0.0010954714196961,0.0010954701387822,-0.0011053659871299,0.0011053656628338,-0.0011053643387061,0.0011053667918967,-0.001095467760929,0.0010954737150678,-5.4744850971752e-09,3.7169054485182e-09,-0.00069178892386174,0.00069178715776983,-3.071601578438e-09,1.2136403867571e-09,-0.00055875409912208,0.00055874752071853,-0.00051434760919641,0.00051435299097071,-0.00051435067928445,0.00051434999099655,-0.00055874930485831,0.0005587523745893,-0.00055875820227611,0.00055874324109918,-0.0005143519473709,0.00051434890390889,-0.00051435487659856,0.00051434568188736,-0.00085969361362513,0.00085968739303533,-0.00085969219284056,0.00085968885177681,-0.00085969054747579,0.00085969046393171,-0.00085968911127123,0.00085969188356425,-0.00086533888612955,0.00086534756563737,-0.00086534792488519,0.00086533863483791,-0.00086534932742534,0.00086533715861799,-0.00086534033405447,0.00086534619527497,-0.00055874511164212,0.00055875642146705,0.73755731346685,128566,2924,0.0035818138127057,0.0045512845525428,0.0028791916021102,24.41459367049,-4.4683250636081e-05,-4.4683250636081e-05,-4.4683250636081e-05,3596156.4922191,0.011074120129562
29391759,0.67861000945413,0.011506145713111,0.0038208491258756,0.0043891919591982,0.003296104628037,-0.00087245400407507,0.00087245905327428,7.1832260567571e-09,-2.1502433032048e-09,3.4664822330826e-09,1.7962390022197e-09,-0.00038544711540601,0.00038544153895681,-0.00080943630418128,0.00080944307535292,-0.00080943941667665,0.00080943994536665,-0.00038543649785702,0.00038545232829935,-0.00038544555868572,0.00038544322788143,-0.00080943482973451,0.00080944480484268,-0.0008094379085663,0.00080944170847551,-0.0010240177807546,0.0010240264369399,-0.0010240208936691,0.0010240233272288,-0.0010240183621193,0.0010240258273271,-0.0010240214914806,0.0010240227164429,-0.0008885045209137,0.00088851814488456,-0.00088851367923441,0.00088850899828269,-0.00088850402681904,0.00088851866087339,-0.00088851317955874,0.0008885095326219,-0.00038543794766495,0.00038545074350367,5.3284816232499e-10,1.9772767680226e-09,3.3429639604516e-09,-9.4099157111813e-10,-0.001110444830522,0.0011104472523927,-0.0011105890770499,0.0011105867709459,-0.0011213067245735,0.0011213092590642,-0.0011213050713089,0.0011213104058034,-0.001065651918722,0.0010656552405825,-0.0010656533128186,0.0010656538484482,-0.0010656514250954,0.0010656556634862,-0.0010656528318825,0.0010656542582789,-0.001110584145374,0.001110591299647,-0.0011105884918129,0.0011105871975214,-0.0011213081625572,0.0011213078847194,-0.0011213065237614,0.0011213090085541,-0.001110584758597,0.0011105908457977,-5.5285247315849e-09,3.7899325252915e-09,-0.00070003187381786,0.00070003012673887,-3.0968140226072e-09,1.2582346564714e-09,-0.00056469967715531,0.00056469305860498,-0.0005193123590755,0.00051931787216441,-0.00051931547182684,0.00051931482789887,-0.00056469482073307,0.00056469796226274,-0.00056470384924839,0.00056468871870363,-0.00051931676475808,0.00051931371221381,-0.00051931973824092,0.00051931045237459,-0.00087105851877789,0.00087105225121772,-0.00087105707527587,0.00087105373411637,-0.00087105541091171,0.00087105536407391,-0.00087105394929803,0.00087105680721659,-0.00087674601132335,0.00087675485932245,-0.00087675517776427,0.00087674580541754,-0.0008767566020206,0.00087674430601381,-0.00087674748197178,0.00087675346320652,-0.00056469056476871,0.00056470208780217,0.7022848250349,128566,2924,0.0036302903877984,0.0046156363173742,0.0029134766885945,24.733425838777,-4.2132593289787e-05,-4.2132593289787e-05,-4.2132593289787e-05,3612769.9545054,0.011222909353683
29591759,0.68761948063905,0.01164062239532,0.0038665396765823,0.0044433806830898,0.0033307020356475,-0.00088377125529256,0.00088377631255,7.2504683082142e-09,-2.2087226326426e-09,3.3399715945428e-09,1.9304764579458e-09,-0.00038873015745843,0.00038872472270979,-0.00081888703741302,0.00081889411488304,-0.00081889019043729,0.0008188909424277,-0.00038871966885286,0.00038873537670496,-0.0003887288544825,0.00038872615293948,-0.00081888581759052,0.00081889558490528,-0.00081888893992224,0.00081889244825709,-0.0010380001545407,0.001038008776717,-0.001038003309315,0.0010380056246326,-0.0010380006525458,0.0010380082511636,-0.00103800382408,0.0010380050987017,-0.00089967628380403,0.00089969013602034,-0.00089968556090521,0.00089968086247966,-0.00089967588127933,0.00089969055141035,-0.00089968516146011,0.00089968130295952,-0.0003887208682403,0.0003887340495506,6.8159907873366e-10,1.8636924072998e-09,3.3695835443004e-09,-9.3292119060389e-10,-0.0011254690531415,0.0011254715106289,-0.0011249260701701,0.0011249238695936,-0.0011368451755855,0.0011368480098129,-0.0011368437816696,0.0011368488972617,-0.0010803796453796,0.0010803830934534,-0.0010803810458496,0.0010803816946366,-0.0010803792322799,0.0010803834304498,-0.0010803806451503,0.0010803820188377,-0.0011249212106578,0.0011249283260065,-0.0011249255750861,0.0011249242060197,-0.0011368466192619,0.0011368466296885,-0.0011368452385222,0.0011368474953007,-0.0011249217336037,0.0011249279624984,-5.5835986410303e-09,3.8613529714092e-09,-0.0007080493352899,0.00070804760453443,-3.0978262443311e-09,1.2759023825626e-09,-0.00057026613569249,0.00057025942619536,-0.00052400838436614,0.00052401397469766,-0.00052401153757725,0.00052401088628859,-0.00057026116941086,0.00057026443215117,-0.0005702703279638,0.00057025507456295,-0.00052401280541898,0.00052400979141469,-0.00052401582228581,0.00052400649189405,-0.00088217485960535,0.00088216855898921,-0.00088217341048727,0.00088217005052257,-0.00088217171093964,0.00088217171496262,-0.00088217023988071,0.00088217316371247,-0.00088757592759536,0.0008875849227699,-0.00088758522031946,0.00088757574692333,-0.00088758664963675,0.0008875742406737,-0.00088757740412874,0.00088758351945805,-0.00057025690223311,0.00057026858338162,0.67337837528192,128566,2924,0.0036773254730375,0.0046779183019193,0.0029468237008453,25.052155280605,-3.9582757755158e-05,-3.9582757755158e-05,-3.9582757755158e-05,3635054.3634337,0.011367221378231
29791759,0.69658303774112,0.011781430837846,0.0039141461203305,0.0045001501873609,0.0033671345301543,-0.00089527044407174,0.00089527539865467,7.2630680719619e-09,-2.3221163979821e-09,2.9770311955934e-09,2.1836978267951e-09,-0.00039267601115864,0.00039267094667181,-0.00082903425902085,0.00082904187291327,-0.00082903745432925,0.00082903865877184,-0.00039266598974913,0.00039268111911332,-0.0003926753020359,0.00039267177260099,-0.00082903363680656,0.00082904273505441,-0.00082903680403335,0.00082903955791288,-0.0010519934453524,0.0010520018058853,-0.0010519966426621,0.0010519986120658,-0.001051993742985,0.0010520014853476,-0.0010519969564095,0.0010519982907717,-0.00091120788408964,0.00091122195832773,-0.00091121728596761,0.00091121256271225,-0.0009112076824574,0.00091122217863658,-0.00091121708381661,0.00091121280454976,-0.00039266659940313,0.0003926803967804,9.6921753542253e-10,1.5406361955629e-09,3.2949361771968e-09,-8.9226714155719e-10,-0.001140665174339,0.0011406676004975,-0.0011394201613906,0.0011394182425742,-0.001152622252607,0.0011526256141082,-0.0011526214654945,0.0011526259082912,-0.0010952498901756,0.0010952534726015,-0.0010952512482807,0.0010952521105863,-0.001095249680986,0.0010952536085546,-0.0010952510513967,0.001095252233822,-0.0011394156272396,0.0011394223905085,-0.0011394198757604,0.0011394183758397,-0.0011526236540174,0.0011526242700072,-0.0011526228812856,0.0011526245434218,-0.0011394159400031,0.0011394222287523,-5.5918443812277e-09,3.9792471339172e-09,-0.00071630961070107,0.00071630799059941,-2.9807927869565e-09,1.2748210101906e-09,-0.00057668286023841,0.00057667602656836,-0.00052950244124345,0.0005295080742585,-0.00052950563619176,0.00052950494235568,-0.00057667764771491,0.00057668125389307,-0.0005766869402292,0.00057667178707686,-0.00052950674145496,0.00052950399647276,-0.00052950980484903,0.00052950065967285,-0.00089326826991663,0.0008932620751924,-0.00089326686075177,0.00089326352825407,-0.00089326507978896,0.00089326527348857,-0.00089326364586148,0.00089326668158352,-0.000898822000726,0.00089883118864214,-0.00089883141525835,0.00089882188710928,-0.00089883280660686,0.00089882042523144,-0.00089882343126293,0.00089882981993185,-0.00057667350631359,0.00057668531148946,0.70917941756114,128566,2924,0.0037251119842392,0.0047409066023178,0.0029811786427279,25.304769314946,-3.7561845480429e-05,-3.7561845480429e-05,-3.7561845480429e-05,3653218.4290098,0.011514043552291
29991759,0.70549213395761,0.011928767408299,0.0039637098747491,0.004559646841176,0.003405410692374,-0.00090703789435384,0.00090704299280292,7.3975248420763e-09,-2.3135310164949e-09,2.7684083740833e-09,2.5443398682224e-09,-0.00039693355541646,0.00039692907865459,-0.00084000387415736,0.00084001224160207,-0.00084000711086294,0.00084000898551671,-0.00039692397308051,0.00039693880957959,-0.00039693340905398,0.00039692934077044,-0.00084000381231742,0.00084001254047326,-0.00084000701958197,0.00084000932093974,-0.0010661563092111,0.0010661646672353,-0.0010661595481201,0.0010661614308349,-0.0010661564230672,0.0010661645349573,-0.0010661596786135,0.0010661612985305,-0.00092328277500498,0.00092329730353397,-0.00092329230099427,0.00092328778495241,-0.00092328276240897,0.00092329733384576,-0.00092329228755605,0.00092328783611218,-0.00039692402102507,0.00039693865116719,1.230642970702e-09,1.2287013079008e-09,3.1966623363364e-09,-8.3965087747735e-10,-0.0011563406608254,0.0011563430398057,-0.0011545991518144,0.0011545975303382,-0.0011689308602461,0.0011689346898884,-0.0011689306308165,0.0011689344090022,-0.0011104225904485,0.0011104262643099,-0.0011104239000995,0.0011104249523383,-0.0011104225655842,0.0011104262083025,-0.0011104238873887,0.0011104248837635,-0.0011545949568627,0.0011546013333396,-0.0011545990579345,0.0011545974685565,-0.0011689322143265,0.0011689333960919,-0.0011689319972497,0.0011689330950626,-0.0011545950783661,0.0011546013675273,-5.6721385883479e-09,4.0253882464041e-09,-0.00072476410360124,0.00072476244930403,-2.92424897226e-09,1.1823217671105e-09,-0.00058361375176572,0.00058360661138483,-0.00053547653782879,0.00053548203088053,-0.00053547977290967,0.00053547885577819,-0.00058360827067198,0.00058361211378251,-0.00058361769109983,0.00058360252779109,-0.00053548069268181,0.000535478101753,-0.00053548379800105,0.00053547472375349,-0.00090452991459219,0.00090452369187009,-0.00090452855639248,0.0009045251002331,-0.00090452668554454,0.00090452693532534,-0.00090452529568042,0.00090452829219723,-0.00091069314714646,0.00091070237423162,-0.0009107026829515,0.00091069294556474,-0.00091070402484819,0.00091069153633282,-0.00091069452393183,0.00091070105266237,-0.00058360428063838,0.00058361602521537,0.74657307959212,128566,2924,0.0037740156249642,0.0048058740524953,0.0030163414717716,25.555676605983,-3.5554587152133e-05,-3.5554587152133e-05,-3.5554587152133e-05,3660768.8041503,0.011664835839101
30191759,0.71433925313597,0.012065834616772,0.0040100222543195,0.0046150130210024,0.0034407993414503,-0.0009181654440798,0.0009181706319297,7.5047907680141e-09,-2.3321606193586e-09,2.5845953560331e-09,2.8230041038683e-09,-0.00040005120807043,0.00040004715487847,-0.00084964301730712,0.00084965197737959,-0.00084964629515019,0.00084964867889089,-0.00040004195593311,0.00040005655228869,-0.00040005151592145,0.00040004696031472,-0.00084964341023733,0.00084965181844368,-0.00084964665890794,0.00084964855743776,-0.0010798936282493,0.0010799019649428,-0.0010798969089018,0.0010798986860461,-0.0010798935933367,0.0010799019853922,-0.0010798968909397,0.0010798987070665,-0.00093457119808953,0.00093458609646034,-0.00093458084578476,0.00093457645256678,-0.00093457134201263,0.00093458596583585,-0.00093458099190925,0.00093457634579383,-0.00040004155147371,0.00040005685024816,1.4474455840016e-09,9.8080164488888e-10,3.1029246529583e-09,-7.7411395182073e-10,-0.0011714366134349,0.0011714389637072,-0.0011691011274291,0.0011690997937107,-0.0011847874178916,0.0011847916251382,-0.0011847876404098,0.0011847908767997,-0.0011250404451262,0.0011250441901285,-0.0011250417041801,0.0011250429309385,-0.0011250405681491,0.0011250439790882,-0.0011250418392019,0.0011250427074824,-0.0011690972455504,0.0011691032791712,-0.0011691011914521,0.001169099572947,-0.0011847887213305,0.001184790384667,-0.0011847889544973,0.0011847896170764,-0.001169097209375,0.0011691034726434,-5.7474561257167e-09,4.0763750984139e-09,-0.00073257025046453,0.00073256857150661,-2.8589464497808e-09,1.0904437475192e-09,-0.00058913347411613,0.00058912602837061,-0.00054028303636195,0.00054028839036097,-0.00054028631118292,0.00054028517133269,-0.00058912771469584,0.00058913181155064,-0.00058913726318377,0.00058912210792816,-0.00054028703646473,0.00054028461583787,-0.00054029018388556,0.00054028119664055,-0.00091546227414454,0.00091545603637589,-0.00091546096907001,0.00091545739581492,-0.00091545900518934,0.00091545932392648,-0.0009154576636521,0.00091546062747305,-0.00092174067837463,0.00092174995226748,-0.00092175033669872,0.00092174039838008,-0.00092175162570607,0.00092173904293649,-0.0009217420002639,0.00092174868160047,-0.00058912388667124,0.00058913557254739,0.70019171675633,128566,2924,0.0038202639983801,0.0048684336504243,0.0030488121756645,25.806514440719,-3.3547884474251e-05,-3.3547884474251e-05,-3.3547884474251e-05,3667738.8099179,0.011807809923863
30391759,0.72312626253995,0.012197042859978,0.0040544913891685,0.0046679559721393,0.0034745954986698,-0.00092900365667509,0.00092900886803485,7.579788721437e-09,-2.3832601754493e-09,2.4655497487358e-09,2.9667322409841e-09,-0.00040324022511329,0.00040323632750304,-0.00085864204401183,0.00085865133074531,-0.0008586453633486,0.00085864798971,-0.00040323110228147,0.0004032455910442,-0.00040324078626355,0.00040323587562015,-0.00085864269445323,0.00085865091078824,-0.00085864598530316,0.0008586476086608,-0.0010933532205913,0.0010933615369915,-0.0010933565431303,0.0010933582156193,-0.0010933531018897,0.0010933616435713,-0.0010933564415879,0.0010933583232418,-0.00094545624057033,0.00094547137567328,-0.00094546601208419,0.00094546160789516,-0.00094545647393355,0.00094547115121922,-0.0009454662492338,0.00094546140959842,-0.00040323044522566,0.00040324614566433,1.58073691469e-09,8.5037099804385e-10,3.0280240206506e-09,-6.9570497392589e-10,-0.0011859940981739,0.0011859964524388,-0.0011827346941333,0.0011827336072391,-0.0012002449193284,0.001200249340782,-0.0012002453996929,0.0012002483273561,-0.0011393338854908,0.0011393376704432,-0.0011393350957508,0.0011393364619869,-0.0011393340913053,0.0011393373723855,-0.0011393353134662,0.0011393361515878,-0.0011827310553587,0.0011827368497309,-0.0011827348515619,0.001182733295197,-0.0012002461733883,0.0012002481514238,-0.0012002466633077,0.0012002471197011,-0.001182730926116,0.0011827371342147,-5.8174701389744e-09,4.1324276624087e-09,-0.0007402197348473,0.00074021804156587,-2.7912996113388e-09,1.0070331903025e-09,-0.00059445621608597,0.00059444848251887,-0.00054498657111657,0.00054499180288561,-0.00054498988585619,0.00054498854011828,-0.00059445018274122,0.00059445453699047,-0.0005944598603476,0.00059444471664204,-0.000544990420075,0.00054498817413942,-0.00054499361126853,0.00054498471535551,-0.00092617667535978,0.00092617043105034,-0.0009261754212951,0.00092617174319646,-0.00092617336589353,0.00092617376197816,-0.00092617207117911,0.00092617501436899,-0.00093227070878228,0.00093228003911982,-0.00093228048579631,0.00093227035623849,-0.00093228172585957,0.00093226905764537,-0.00093227197509492,0.00093227881685881,-0.00059444651081375,0.00059445815458706,0.67548311580683,128566,2924,0.0038653039547442,0.0049287567924622,0.0030806310085228,26.074869924393,-3.1401040604857e-05,-3.1401040604857e-05,-3.1401040604857e-05,3683015.0389181,0.011946658218421
30591759,0.73191205899009,0.012332721881891,0.0041003272352792,0.0047227031366272,0.0035096915099843,-0.00094029495455631,0.00094029997452044,7.5481240242717e-09,-2.5396773129102e-09,2.3093436814004e-09,2.920959685569e-09,-0.00040711078585805,0.00040710666974874,-0.00086839141261957,0.00086840064552872,-0.00086839477009795,0.00086839726080537,-0.00040710164547176,0.00040711596048709,-0.00040711144883667,0.00040710612529589,-0.00086839217272097,0.00086840012252877,-0.00086839550008194,0.00086839677952897,-0.001107168477169,0.0011071766115223,-0.0011071718415446,0.0011071732483446,-0.0011071683238593,0.0011071767546743,-0.0011071717057615,0.0011071733934447,-0.00095693435641553,0.00095694947000584,-0.00095694425210455,0.00095693958115228,-0.00095693462982884,0.00095694920113221,-0.00095694453285922,0.00095693934111302,-0.00040710088526156,0.00040711660900607,1.6442762099022e-09,8.1021453832554e-10,2.9786668964768e-09,-6.2123716333698e-10,-0.0012010275239078,0.0012010298999718,-0.0011967039056176,0.0011967030117772,-0.0012163079698513,0.0012163124786123,-0.0012163085660946,0.0012163113738854,-0.0011540928168546,0.0011540966181387,-0.0011540939884608,0.0011540954502592,-0.0011540930663107,0.001154096288263,-0.0011540942495233,0.0011540951082848,-0.001196700443099,0.0011967061014836,-0.001196704109653,0.0011967026646976,-0.0012163091894892,0.0012163113320977,-0.0012163097880897,0.0012163102097037,-0.0011967002700645,0.0011967064240302,-5.8920628254187e-09,4.1855804705313e-09,-0.00074835991977326,0.00074835820562794,-2.7392144509863e-09,9.3544296158298e-10,-0.0006006939944065,0.00060068599414922,-0.00055057345416028,0.00055057858853192,-0.00055057680736087,0.00055057528221062,-0.00060068771985936,0.00060069230504993,-0.00060069753694084,0.00060068237056335,-0.00055057718224938,0.00055057508548774,-0.00055058042194991,0.00055057159196367,-0.00093722819826749,0.00093722193000877,-0.00093722698581772,0.00093722320490656,-0.00093722484618717,0.0009372253033386,-0.00093722358970333,0.00093722651523878,-0.00094342709368048,0.00094343648433653,-0.00094343699754059,0.00094342667817754,-0.0009434381985872,0.00094342542490842,-0.00094342831264242,0.00094343530027587,-0.00060068417115387,0.00060069579378371,0.69870694718251,128566,2924,0.0039122212157407,0.0049910469137899,0.0031144883481515,26.468358177766,-2.8253134577868e-05,-2.8253134577868e-05,-2.8253134577868e-05,3697794.5666097,0.012091476758319
30791759,0.74068745116362,0.012472852155562,0.0041474942989394,0.0047793126181467,0.0035460452384755,-0.00095178947713031,0.00095179451130677,7.6192550627967e-09,-2.5952693927721e-09,2.21465326451e-09,3.0309681340629e-09,-0.00041106559587277,0.00041106157044123,-0.00087861782620164,0.00087862731888008,-0.00087862122717917,0.00087862389275815,-0.00041105651870433,0.00041107077643268,-0.00041106645076697,0.0004110608151774,-0.00087861878407955,0.00087862659058125,-0.00087862215843185,0.00087862320706131,-0.0011211339380186,0.001121142063758,-0.001121137344808,0.0011211386583449,-0.0011211337214122,0.001121142273274,-0.0011211371454369,0.0011211388696762,-0.00096878197378035,0.0009687972994734,-0.00096879198918826,0.00096878728255699,-0.0009687823175072,0.0009687969540979,-0.00096879234554332,0.00096878697148724,-0.00041105557043975,0.00041107163240577,1.7439897833092e-09,7.0290091097731e-10,2.8655287235939e-09,-5.174778883469e-10,-0.0012164365264653,0.0012164388969988,-0.0012111082237085,0.0012111076036977,-0.0012328806418142,0.0012328852753,-0.0012328814393828,0.0012328839643838,-0.0011690999787743,0.0011691037715155,-0.0011691010741294,0.0011691026746875,-0.0011691002953384,0.0011691033740079,-0.00116910140225,0.001169102265137,-0.0012111050505127,0.0012111104111408,-0.0012111085031673,0.0012111071833885,-0.0012328817844571,0.001232884199099,-0.0012328825872314,0.0012328828718433,-0.00121110479993,0.0012111108045262,-5.9122310672538e-09,4.2907435151776e-09,-0.00075663727833266,0.0007566356493391,-2.585639203647e-09,8.703553732031e-10,-0.00060728009605725,0.00060727184567944,-0.00055648586111326,0.00055649091162555,-0.00055648925563507,0.00055648756112717,-0.00060727347140322,0.00060727847217542,-0.0006072834229851,0.00060726843216055,-0.0005564893656872,0.00055648760830709,-0.00055649265412343,0.00055648407984606,-0.00094843033940128,0.00094842418550861,-0.0009484292012608,0.00094842539083819,-0.00094842694786386,0.00094842760276524,-0.00094842575965757,0.00094842873962454,-0.0009550198259076,0.00095502935141414,-0.00095502985153817,0.00095501942086416,-0.00095503097989154,0.00095501824436817,-0.00095502096709579,0.0009550282361056,-0.00060727015349857,0.00060728177437713,0.72242073434404,128566,2924,0.0039599845968413,0.0050548863313212,0.0031489171564114,26.865086708497,-2.5079306332024e-05,-2.5079306332024e-05,-2.5079306332024e-05,3704780.988212,0.012239319207922
30991759,0.74944135485058,0.012617450549149,0.004195981787582,0.0048378310259147,0.0035836377356526,-0.00096348566137548,0.00096349073730127,7.7027771485926e-09,-2.6376501680244e-09,2.1358604246066e-09,3.1535412139512e-09,-0.0004150854319764,0.00041508152708599,-0.00088942937766531,0.00088943915057643,-0.00088943282041426,0.00088943568335742,-0.00041507643119373,0.0004150906559264,-0.00041508648582007,0.00041508057139477,-0.0008894305308483,0.00088943822512299,-0.0008894339479459,0.00088943479988729,-0.0011352247107586,0.0011352328549845,-0.0011352281587686,0.0011352294067132,-0.0011352244306838,0.0011352331299303,-0.0011352278969595,0.0011352296844816,-0.00098105954993767,0.00098107510762197,-0.00098106968664649,0.00098106496558462,-0.00098105996079978,0.00098107468911786,-0.00098107011504147,0.00098106458458876,-0.00041507528352477,0.00041509171229576,1.840252954359e-09,5.9382095247164e-10,2.7472273903243e-09,-4.109193344611e-10,-0.0012321904326479,0.001232192791029,-0.0012259839528827,0.0012259836149072,-0.0012497243972096,0.0012497291401776,-0.0012497253922879,0.0012497276316868,-0.0011843582744396,0.0011843620489341,-0.0011843592969147,0.0011843610268484,-0.0011843586584905,0.0011843615833301,-0.0011843596924086,0.0011843605493159,-0.0012259810691541,0.001225986123188,-0.0012259843045231,0.0012259831210084,-0.0012497254634864,0.0012497281387485,-0.001249726465088,0.0012497266133165,-0.0012259807460847,0.0012259865905312,-5.9942688020348e-09,4.3350432067789e-09,-0.00076503307095771,0.00076503140396512,-2.4945177825727e-09,7.3867571479668e-10,-0.00061418012052991,0.00061417148669718,-0.00056267172555359,0.00056267655829106,-0.00056267515949842,0.00056267316345087,-0.00061417315283818,0.00061417845695411,-0.00061418323090575,0.00061416829779598,-0.00056267500875522,0.00056267347185416,-0.00056267834136268,0.00056266990396402,-0.00095977373851566,0.000959767577855,-0.00095977267522059,0.00095976871300042,-0.00095977030683865,0.00095977103895524,-0.0009597691881974,0.0009597721008756,-0.00096692268073644,0.00096693221660005,-0.00096693282018604,0.00096692215306578,-0.0009669338802731,0.00096692105699561,-0.00096692374028693,0.00096693117026598,-0.00061417005810165,0.00061418154183478,0.74698825275417,128566,2924,0.0040085878155687,0.0051201486379193,0.0031838382403847,27.261947293842,-2.1904421649262e-05,-2.1904421649262e-05,-2.1904421649262e-05,3706254.938222,0.012389972590682
31191759,0.75823031606463,0.012769296772809,0.0042466625239975,0.0048994352436358,0.0036231990051754,-0.00097578883821857,0.00097579391028114,7.765508870858e-09,-2.7043764868459e-09,2.1787099902289e-09,3.1063732803992e-09,-0.00041938372089188,0.00041937959192795,-0.00090136533871244,0.00090137506082716,-0.00090136882491674,0.00090137154776203,-0.0004193745143459,0.0004193889404473,-0.00041938468446083,0.00041937873836817,-0.0009013664089014,0.00090137422691365,-0.00090136986194167,0.00090137076080654,-0.0011498741355939,0.0011498823497875,-0.0011498776253429,0.0011498788583794,-0.0011498738857057,0.0011498825934519,-0.0011498773968142,0.001149879104651,-0.00099420408573246,0.00099421972739331,-0.0009942143572643,0.00099420946128564,-0.00099420446251796,0.00099421935233091,-0.00099421473942181,0.00099420911978544,-0.00041937344018197,0.0004193899115976,1.8117798907798e-09,6.4926501069372e-10,2.6674906568738e-09,-3.0349297302741e-10,-0.0012487940108767,0.0012487963936922,-0.001241866098429,0.0012418659524572,-0.0012672110312312,0.0012672156504155,-0.0012672119425467,0.0012672142349751,-0.0012003324469297,0.0012003361545093,-0.0012003334086216,0.0012003351949367,-0.0012003328065322,0.0012003357178294,-0.0012003337812061,0.0012003347448324,-0.0012418633778064,0.0012418683050234,-0.0012418664294166,0.0012418654812998,-0.0012672120378631,0.0012672147154677,-0.0012672129559188,0.001267213276821,-0.0012418630827784,0.0012418687478868,-6.0762996929742e-09,4.376075537523e-09,-0.00077392155694246,0.00077391984933534,-2.4236648486915e-09,6.2656107867112e-10,-0.00062173999017909,0.00062173102286856,-0.00056949821439412,0.00056950286553868,-0.00056950168303977,0.00056949943118192,-0.00062173273128098,0.00062173830558187,-0.00062174293905389,0.00062172801828207,-0.0005695013195112,0.00056949996743517,-0.00056950469522851,0.00056949635843289,-0.00097163040331868,0.00097162422015697,-0.00097162940117911,0.00097162529940636,-0.0009716269313721,0.00097162772465133,-0.00097162587074899,0.00097162872423017,-0.00097960772210577,0.00097961726931934,-0.00097961796616704,0.00097960707452502,-0.00097961897611458,0.00097960605140974,-0.00097960870100835,0.00097961627737046,-0.00062172981964443,0.00062174119240591,0.78082574774305,128566,2924,0.0040597142484072,0.0051889257305586,0.0032208065849058,27.788156319133,-1.7694749446932e-05,-1.7694749446932e-05,-1.7694749446932e-05,3704611.6093955,0.012548835146114
31391759,0.76706140548863,0.012916137036283,0.0042957818276059,0.0049590756430051,0.003661279565672,-0.00098786697254146,0.00098787202209245,7.8179766089458e-09,-2.7788844875158e-09,2.2155491054074e-09,3.0454902391872e-09,-0.00042256723354076,0.00042256285823426,-0.00091258356436121,0.00091259320831715,-0.00091258709465324,0.00091258965289211,-0.00042255780091205,0.00042257242384726,-0.00042256809252646,0.00042256209778247,-0.00091258453654837,0.00091259247079434,-0.00091258803287948,0.00091258896311845,-0.0011645202735599,0.0011645285418922,-0.0011645238044851,0.0011645250072926,-0.0011645200564542,0.0011645287507461,-0.0011645236106379,0.0011645252193725,-0.0010070495772188,0.0010070652760802,-0.0010070599779817,0.0010070548884111,-0.0010070499164054,0.0010070649533918,-0.0010070603094811,0.0010070545901445,-0.00042255682484117,0.00042257330423091,1.7806166429132e-09,7.1114683007014e-10,2.6157323285258e-09,-2.2395063422656e-10,-0.001265371621749,0.0012653740349123,-0.0012576714769303,0.0012576714586641,-0.0012846772030239,0.0012846817117222,-0.0012846780181446,0.0012846803958944,-0.0012162180805111,0.0012162217465715,-0.0012162189998172,0.0012162208306771,-0.0012162184111261,0.0012162213423132,-0.0012162193439811,0.0012162204123521,-0.0012576688530645,0.0012576737086631,-0.0012576717826251,0.0012576710161868,-0.0012846781631462,0.0012846808194386,-0.0012846789898852,0.0012846794792005,-0.0012576685842003,0.00125767411916,-6.1524706615759e-09,4.4250435960016e-09,-0.00078251450051741,0.00078251276483296,-2.3748657059626e-09,5.4670406020502e-10,-0.00062834902377392,0.0006283397788911,-0.00057556022403901,0.00057556475765116,-0.00057556373381542,0.00057556128190034,-0.00062834150486811,0.00062834729983712,-0.00062835184104478,0.00062833689461171,-0.00057556319607886,0.00057556198103353,-0.00057556661773173,0.00057555833222452,-0.00098349080758199,0.00098348459763896,-0.00098348984874621,0.00098348563679342,-0.00098348729483237,0.0009834881449967,-0.0009834862743341,0.00098348910049731,-0.00099192312462439,0.00099193272222818,-0.00099193348525509,0.00099192240074053,-0.00099193445550842,0.00099192142626663,-0.00099192405192432,0.00099193177007509,-0.00062833873083779,0.0006283500670086,0.75165982119009,128566,2924,0.0041099103860255,0.0052575897574551,0.0032565485724454,28.355593995745,-1.3155248034038e-05,-1.3155248034038e-05,-1.3155248034038e-05,3701985.8490925,0.012705429851529
31591759,0.7759191358713,0.013057167492888,0.0043431472044846,0.0050163030701413,0.003697717218262,-0.00099968979256894,0.00099969482267946,7.8699501223524e-09,-2.8498257267655e-09,2.2046028613371e-09,3.0356357711756e-09,-0.00042555096562316,0.00042554645763077,-0.00092311156330549,0.00092312122543461,-0.00092311513205612,0.00092311763154309,-0.00042554141126486,0.00042555614224273,-0.00042555182983812,0.00042554568795713,-0.00092311253282867,0.00092312048975444,-0.00092311607385997,0.00092311693977727,-0.0011789808230363,0.0011789891160209,-0.0011789843952162,0.0011789855387138,-0.0011789806080081,0.0011789893217175,-0.0011789842029743,0.0011789857504153,-0.0010194526001083,0.0010194683935036,-0.0010194631204998,0.0010194578893299,-0.0010194529351802,0.0010194680798755,-0.0010194634492318,0.0010194575912267,-0.00042554044358639,0.000425557017272,1.7959634051978e-09,7.2722392792584e-10,2.5865240379955e-09,-1.6523313941748e-10,-0.0012814939075759,0.0012814963513738,-0.0012727659113236,0.001272766009547,-0.0013017009733392,0.0013017054826844,-0.0013017017891519,0.0013017041697796,-0.0012318392349005,0.0012318429032741,-0.0012318401270471,0.0012318420156492,-0.0012318395656706,0.001231842499727,-0.0012318404696897,0.00123184159958,-0.0012727633767184,0.0012727681693749,-0.0012727662195767,0.0012727655671066,-0.0013017019057477,0.0013017046169312,-0.0013017027288852,0.0013017032844876,-0.0012727631004417,0.0012727685833912,-6.2248406804435e-09,4.4818905135566e-09,-0.00079092417175976,0.00079092242000635,-2.3409118778685e-09,4.9520792272686e-10,-0.00063457406292645,0.00063456458426312,-0.00058125706332929,0.00058126154001573,-0.00058126061758711,0.00058125801823853,-0.0006345663286749,0.00063457231057656,-0.00063457678831789,0.00063456179190592,-0.00058125995053327,0.00058125884172842,-0.00058126341529478,0.00058125515486553,-0.00099520048427124,0.0009951942442487,-0.0009951995556959,0.0009951952573958,-0.00099519693095914,0.00099519783524728,-0.00099519593434388,0.00099519876199603,-0.0010037000683843,0.0010037097493118,-0.0010037105527074,0.0010036992937869,-0.001003711495082,0.0010036983573924,-0.0010037009607138,0.0010037088186505,-0.00063456363741484,0.00063457500483241,0.71981430700405,128566,2924,0.004159040993993,0.0053243627595107,0.003291528186347,28.924148783769,-8.6068097298486e-06,-8.6068097298486e-06,-8.6068097298486e-06,3707977.3296854,0.01285828321553
31791759,0.78466739392954,0.013189033193994,0.0043876583027256,0.0050697287804907,0.0037316461107775,-0.0010105885780228,0.0010105936888835,7.9740975161769e-09,-2.8737799558332e-09,1.9917639149502e-09,3.334239623827e-09,-0.00042796525128466,0.00042796120285225,-0.00093221745025828,0.00093222774589393,-0.000932221065402,0.00093222410978947,-0.0004279560641475,0.00042797049882629,-0.00042796660810755,0.00042795991901123,-0.00093221891652162,0.00093222649875535,-0.00093222250621853,0.00093222290786068,-0.001192533062365,0.0011925413112702,-0.0011925366757303,0.0011925376905535,-0.0011925326826565,0.0011925416844477,-0.0011925363208121,0.0011925380698813,-0.0010307261412848,0.0010307423113682,-0.0010307367846373,0.0010307316764735,-0.0010307266480991,0.001030741823773,-0.0010307372829285,0.0010307312089483,-0.00042795459912811,0.00042797189113689,2.0335855187113e-09,4.4760418270535e-10,2.5384787341583e-09,-1.6035953400866e-10,-0.0012963637433467,0.0012963661496939,-0.0012863332403797,0.0012863335211414,-0.0013175082264078,0.0013175131814301,-0.0013175095389545,0.0013175113557569,-0.0012464341701737,0.0012464379563508,-0.001246435045279,0.001246437086913,-0.0012464346632241,0.0012464373823631,-0.0012464355511279,0.0012464364993366,-0.0012863309239092,0.0012863354410071,-0.0012863337265723,0.0012863328997499,-0.0013175091316665,0.0013175123315936,-0.0013175104629155,0.001317510484884,-0.0012863304679556,0.0012863360267083,-6.2879297193784e-09,4.5425250806037e-09,-0.0007985785707848,0.00079857681502754,-2.3195644578061e-09,4.6550573158451e-10,-0.00063986293080716,0.0006398532752146,-0.00058603878023686,0.00058604323520911,-0.00058604237522047,0.00058603967063676,-0.00063985500722012,0.00063986115301192,-0.00063986559550201,0.00063985052040566,-0.00058604160303985,0.00058604057352796,-0.00058604511539901,0.00058603684713453,-0.0010061158711975,0.0010061096028411,-0.0010061149601461,0.0010061106026543,-0.0010061122790025,0.0010061132379588,-0.0010061112945784,0.0010061141451604,-0.0010142075495694,0.0010142173314449,-0.0010142181475557,0.0010142067493337,-0.0010142190765466,0.0010142058360909,-0.0010142084168823,0.0010142164144379,-0.00063985238809495,0.00063986381822285,0.68196835135395,128566,2924,0.0042043285060329,0.005385943797818,0.0033233683384905,29.261872564469,-5.9050194842458e-06,-5.9050194842458e-06,-5.9050194842458e-06,3719316.9818655,0.012998827049223
31991759,0.79313597665721,0.0133294556288,0.0044346577296172,0.0051266731503303,0.0037681247488526,-0.0010212827110769,0.0010212880289196,8.1377385006748e-09,-2.8325532728977e-09,1.6861046819241e-09,3.8598212253464e-09,-0.00043130146210619,0.00043129833415264,-0.00094219257715548,0.00094220394898459,-0.00094219623213995,0.00094220027304334,-0.00043129297840814,0.00043130692307304,-0.00043130364366623,0.00043129622146665,-0.00094219485763649,0.00094220187866517,-0.00094219848900462,0.00094219824723606,-0.0012054431984375,0.0012054514205204,-0.0012054468519942,0.0012054477575438,-0.001205442550667,0.0012054520672509,-0.0012054462301703,0.0012054484125326,-0.0010420810426853,0.0010420978100116,-0.0010420918042811,0.0010420870548672,-0.0010420818223842,0.0010420970460988,-0.0010420925771317,0.0010420863089918,-0.00043129069344858,0.00043130914035503,2.3933873972461e-09,-2.9696049629597e-11,2.4747099973083e-09,-2.0694583471151e-10,-0.001310788748731,0.0013107910436909,-0.0012995081585904,0.001299508628295,-0.0013326806231998,0.0013326862818793,-0.0013326827473461,0.0013326836183004,-0.0012606342220239,0.0012606381665111,-0.0012606350918942,0.0012606373025126,-0.0012606349843622,0.0012606373124774,-0.0012606358664075,0.0012606364353963,-0.0012995061369327,0.0012995102433175,-0.0012995089231067,0.0012995077222733,-0.0013326815229913,0.0013326854373765,-0.0013326836636785,0.0013326827539832,-0.0012995054011536,0.0012995111152501,-6.3565952764182e-09,4.6035234131999e-09,-0.0008061978568791,0.00080619609296563,-2.3151985872898e-09,4.5207680303678e-10,-0.00064628765381474,0.00064627784404452,-0.00059171827424271,0.00059172274546814,-0.00059172191032653,0.00059171913478421,-0.00064627959238836,0.00064628587334439,-0.00064629030718078,0.00064627511756607,-0.00059172108042742,0.00059172010138839,-0.00059172463497811,0.00059171633285433,-0.0010164634529679,0.0010164571388921,-0.001016462548643,0.001016458135982,-0.0010164598206144,0.0010164608195733,-0.0010164588372218,0.0010164617194986,-0.0010248250439231,0.0010248349375792,-0.0010248357582205,0.0010248242158173,-0.0010248366865206,0.0010248233206718,-0.0010248258948185,0.0010248340195452,-0.00064627699214633,0.00064628852344805,0.74979062746229,128566,2924,0.0042487591833762,0.0054456766952579,0.003355059422342,29.279604029715,-5.7631677622801e-06,-5.7631677622801e-06,-5.7631677622801e-06,3724950.1798813,0.013136488939028
32191759,0.80132535488596,0.013467868053104,0.0044808521193348,0.0051829108557334,0.0038041050780356,-0.0010316457183322,0.0010316511313701,8.2486874716422e-09,-2.849435514201e-09,1.5906043929512e-09,4.0564675806411e-09,-0.00043368433194916,0.00043368146838461,-0.00095198094407272,0.00095199274517572,-0.00095198463866022,0.00095198902528091,-0.0004336760184586,0.00043368989380397,-0.00043368680756119,0.00043367906928249,-0.0009519835119778,0.00095199038610965,-0.00095198718290485,0.00095198671283972,-0.0012180532700618,0.0012180615351321,-0.0012180569656101,0.0012180578287976,-0.0012180525307512,0.0012180622751955,-0.0012180562540711,0.001218058579076,-0.0010532713906513,0.0010532884712363,-0.0010532822807288,0.0010532775933526,-0.0010532722654569,0.0010532876131257,-0.001053283148161,0.0010532767518316,-0.00043367344047318,0.00043369240007806,2.5199643217021e-09,-1.9941359793382e-10,2.463634909174e-09,-2.3332931230261e-10,-0.0013251673944614,0.0013251696481769,-0.0013129020178012,0.0013129025411401,-0.001347807582879,0.0013478134960934,-0.0013478099945504,0.0013478105355364,-0.0012745245356331,0.0012745285395782,-0.0012745254102421,0.0012745276698309,-0.0012745253947902,0.0012745275861599,-0.001274526281537,0.0012745267035635,-0.001312900089745,0.0013129040743335,-0.0013129028836426,0.0013129015323921,-0.0013478084912268,0.0013478126488954,-0.0013478109147431,0.001347809667987,-0.0013128992548015,0.0013129050527124,-6.4185384981764e-09,4.6660413883554e-09,-0.00081345624397087,0.00081345448133537,-2.3222418557782e-09,4.6287987086801e-10,-0.00065215423660559,0.00065214432706062,-0.00059692947105277,0.00059693400646561,-0.00059693314396444,0.00059693035264052,-0.00065214608225686,0.00065215247204082,-0.00065215692023907,0.00065214159531181,-0.0005969323008726,0.00059693135146515,-0.00059693589468316,0.00059692754166075,-0.0010265836723557,0.0010265773112283,-0.001026582762084,0.0010265783160327,-0.0010265799988204,0.0010265810336315,-0.0010265790074461,0.001026581939477,-0.0010353416511463,0.001035351669118,-0.0010353524756698,0.0010353408137531,-0.0010353534163923,0.0010353399250006,-0.0010353424930918,0.0010353507370453,-0.00065214346152709,0.00065215513290834,0.76436055195111,128566,2924,0.0042918231591984,0.0055052115309988,0.0033852537429968,29.288949755398,-5.688401956813e-06,-5.688401956813e-06,-5.688401956813e-06,3716629.6315855,0.013271070616977
32391759,0.80924057746306,0.013604660701714,0.0045264007190464,0.00523855645495,0.0038397035277179,-0.0010418080508249,0.00104181350552,8.3319781980501e-09,-2.8913691770093e-09,1.5896332016204e-09,4.10157121955e-09,-0.00043588354667808,0.00043588065136848,-0.00096175681881302,0.00096176874907975,-0.00096176055438171,0.00096176498775263,-0.00043587515629705,0.00043588915092591,-0.00043588606913702,0.00043587820379345,-0.00096175942991869,0.00096176634550583,-0.00096176314277612,0.0009617626307842,-0.0012303710961403,0.0012303794316731,-0.001230374832725,0.0012303756825801,-0.0012303703444652,0.0012303801833982,-0.0012303741103417,0.0012303764462686,-0.0010643035323968,0.0010643207994116,-0.0010643145404867,0.0010643097943789,-0.0010643044252948,0.0010643199153318,-0.001064315433025,0.001064308932796,-0.00043587253343937,0.00043589170493492,2.5390566662676e-09,-2.3175906662548e-10,2.470422608638e-09,-2.5266408863847e-10,-0.0013393416875745,0.0013393439289659,-0.0013261586212644,0.0013261591272732,-0.001362678766186,0.0013626847208605,-0.0013626812207611,0.001362681713351,-0.0012881579367702,0.0012881619542318,-0.001288158819883,0.0012881610749578,-0.0012881588139854,0.0012881609846021,-0.0012881597090255,0.0012881600926607,-0.0013261566888877,0.0013261606665037,-0.0013261595088464,0.001326158098539,-0.0013626796833005,0.0013626838645064,-0.0013626821493116,0.0013626808367786,-0.0013261558317252,0.0013261616654755,-6.4809064220858e-09,4.7305151543842e-09,-0.00082054288033207,0.00082054111975419,-2.3354942179956e-09,4.7821964745057e-10,-0.00065787315552878,0.00065786315125985,-0.00060210665919896,0.00060211126658077,-0.00060211037206883,0.00060210756847045,-0.00065786490409082,0.00065787139100458,-0.00065787586933148,0.00065786039584322,-0.00060210951510117,0.00060210858132376,-0.00060211315266613,0.00060210473174123,-0.0010364832520128,0.0010364768402265,-0.0010364823329987,0.0010364778576994,-0.0010364795377227,0.0010364806061933,-0.0010364785331488,0.0010364815206903,-0.001045780224039,0.0010457903811112,-0.001045791176962,0.001045779405307,-0.0010457921259274,0.0010457785011483,-0.0010457810830679,0.0010457894417391,-0.00065786225960807,0.00065787408461911,0.78118420834519,128566,2924,0.0043340553037717,0.0055638943883067,0.0034147343224123,29.297952155337,-5.6163827573028e-06,-5.6163827573028e-06,-5.6163827573028e-06,3705279.7598314,0.013403239996364
32591759,0.81687095027469,0.013728795573403,0.0045679525138925,0.0052889945577343,0.0038718485017762,-0.0010511054513575,0.0010511108887125,8.3846474061448e-09,-2.9606943948627e-09,1.6373682843758e-09,4.0347522262655e-09,-0.00043703708656598,0.00043703394930805,-0.00097007022114021,0.00097008205613674,-0.00097007399355454,0.00097007825701363,-0.00043702846350082,0.00043704268285035,-0.00043703950467296,0.00043703160855395,-0.00097007271521975,0.00097007976973751,-0.00097007647257415,0.00097007601263861,-0.0012419342579335,0.0012419426590489,-0.0012419380355375,0.0012419388673997,-0.0012419335471383,0.0012419433676121,-0.0012419373535499,0.0012419395916545,-0.0010742596523501,0.0010742769769767,-0.0010742707782809,0.0010742658564101,-0.0010742605014751,0.0010742761414695,-0.001074271629636,0.0010742650339097,-0.00043702596252586,0.00043704511408567,2.4930919001067e-09,-1.5878388643773e-10,2.4975166816974e-09,-2.5448748128802e-10,-0.0013525219173321,0.0013525241842611,-0.0013383250050006,0.0013383254679653,-0.0013766245590024,0.0013766304329885,-0.0013766269002101,0.0013766275439069,-0.001300848750217,0.0013008527642077,-0.0013008496434473,0.0013008518738143,-0.0013008495906225,0.0013008518340765,-0.0013008504936526,0.0013008509331252,-0.0013383230082399,0.0013383270726632,-0.0013383258539229,0.0013383244799745,-0.0013766254873886,0.0013766295642773,-0.0013766278337014,0.0013766266607823,-0.0013383221831231,0.0013383280368581,-6.5416310384627e-09,4.7997688374008e-09,-0.00082686805835651,0.00082686630631872,-2.3471882304096e-09,4.9875189903526e-10,-0.0006623002607692,0.00066229016168561,-0.00060613452482238,0.00060613921803009,-0.00060613828268599,0.00060613547294381,-0.00066229191576135,0.00066229849686676,-0.00066230300026494,0.00066228738422569,-0.00060613741360366,0.00060613649596724,-0.00060614109341656,0.00060613260849072,-0.0010457583963966,0.0010457519390452,-0.0010457574684482,0.0010457529691464,-0.0010457546408915,0.0010457557483384,-0.0010457536214492,0.0010457566738435,-0.0010551117103109,0.0010551220153449,-0.0010551227881539,0.0010551109037883,-0.0010551237487287,0.0010551100000193,-0.0010551125739944,0.0010551210570886,-0.00066228923010754,0.00066230122955224,0.73524667632016,128566,2924,0.0043726970319892,0.00561845718582,0.0034410518587735,29.270840217691,-5.8332782584732e-06,-5.8332782584732e-06,-5.8332782584732e-06,3694089.5659905,0.01352440985516
32791759,0.82421048341638,0.013839661681465,0.0046053293028648,0.0053339216151855,0.003900410763415,-0.0010596002380873,0.0010596056326939,8.4286284122465e-09,-3.0461411283912e-09,1.6662839681686e-09,3.9594564563526e-09,-0.00043812899638567,0.00043812557613965,-0.00097703398502158,0.00097704571694721,-0.00097703780351428,0.00097704187240334,-0.00043812013884205,0.00043813453913152,-0.00043813130026481,0.00043812334639081,-0.00097703637694903,0.00097704352998649,-0.00097704017754816,0.00097703973377476,-0.0012526567993872,0.0012526652382601,-0.0012526606182773,0.0012526614035227,-0.0012526561239244,0.0012526659087476,-0.0012526599752411,0.001252662089439,-0.0010831104733918,0.0010831278379566,-0.0010831217335777,0.0010831165921779,-0.0010831112836291,0.0010831270562249,-0.0010831225289303,0.001083115818111,-0.0004381177374188,0.00043813687526478,2.4631922274624e-09,-8.9300719277266e-11,2.5247803819277e-09,-2.456883169788e-10,-0.001364402609874,0.0013644049154246,-0.0013489160037309,0.0013489164518168,-0.001389279615745,0.001389285430787,-0.0013892818567585,0.001389282649113,-0.0013125299826658,0.001312534007805,-0.0013125308816018,0.0013125331109051,-0.0013125307876473,0.0013125331141249,-0.0013125316982944,0.0013125322048074,-0.0013489139547112,0.0013489181092012,-0.0013489168250765,0.001348915495305,-0.0013892805446517,0.0013892845570819,-0.0013892827991548,0.0013892817557073,-0.0013489131609351,0.0013489190362701,-6.596292099163e-09,4.8675486801702e-09,-0.00083263914516475,0.0008326374060984,-2.3502603277724e-09,5.1468833809332e-10,-0.00066599345206147,0.00066598327224122,-0.00060947861381364,0.00060948337562452,-0.00060948241032091,0.00060947959249704,-0.00066598500028853,0.00066599170090007,-0.00066599621436765,0.00066598046467408,-0.00060948151476964,0.00060948063271924,-0.00060948524049394,0.00060947670416544,-0.0010543513440305,0.0010543448510693,-0.001054350409493,0.0010543458903038,-0.0010543475471626,0.0010543487025087,-0.001054346520183,0.0010543496327416,-0.0010632393215889,0.0010632497601098,-0.0010632505083927,0.0010632385227176,-0.0010632514827388,0.0010632376229041,-0.0010632401739536,0.0010632487902433,-0.00066598230609251,0.00066599445003182,0.68273835878306,128566,2924,0.004407996577417,0.0056676382718805,0.0034650637627037,29.212661157387,-6.2987107409004e-06,-6.2987107409004e-06,-6.2987107409004e-06,3695102.9927706,0.01363441293487
32991759,0.83126769160728,0.013951147924147,0.0046427509987049,0.0053790963604699,0.003929300564972,-0.0010680749219882,0.0010680802930755,8.4799312219662e-09,-3.1201367154504e-09,1.6943871017254e-09,3.9055989001933e-09,-0.00044032407243563,0.00044032042478378,-0.00098448146418937,0.00098449313098198,-0.0009844853229254,0.00098448924460168,-0.0004403150115848,0.00044032959323967,-0.00044032629679607,0.00044031827826446,-0.00098448377639121,0.00098449102587001,-0.00098448761838529,0.00098448718858709,-0.0012630633492551,0.0012630718381574,-0.0012630672089567,0.0012630679601772,-0.0012630627031455,0.001263072475331,-0.0012630665975657,0.0012630686157303,-0.0010919808817806,0.0010919983180561,-0.0010919922652354,0.0010919869504907,-0.0010919816634856,0.0010919975666836,-0.0010919930323186,0.0010919862049589,-0.00044031269215366,0.00044033184446341,2.4395812035865e-09,-2.8851831361063e-11,2.5446267179299e-09,-2.2968456082374e-10,-0.001375924814505,0.0013759271548988,-0.0013591472677454,0.0013591477211714,-0.0014014160688707,0.0014014218402892,-0.0014014182337645,0.0014014191424715,-0.0013239936336891,0.0013239976663591,-0.001323994533441,0.0013239967676889,-0.0013239944124482,0.0013239968007516,-0.0013239953234857,0.0013239958901017,-0.0013591451892913,0.0013591494108624,-0.0013591480609023,0.00135914679332,-0.0014014169997823,0.0014014209656989,-0.0014014191752306,0.0014014182490509,-0.001359144423727,0.0013591503115743,-6.6554224238218e-09,4.9351375547515e-09,-0.00083861509413581,0.00083861336388075,-2.347252403713e-09,5.216284147019e-10,-0.00067065669566401,0.0006706464054314,-0.00061356917961472,0.00061357399750156,-0.00061357301773893,0.00061357017227017,-0.00067064812741193,0.00067065495611334,-0.0006706594647049,0.00067064359728427,-0.00061357208687954,0.00061357125288221,-0.0006135758533608,0.00061356728241591,-0.0010627180906321,0.0010627115623936,-0.0010627171555415,0.0010627126047319,-0.0010627142521552,0.0010627154564072,-0.0010627132221012,0.0010627163878269,-0.0010714202585176,0.0010714308271921,-0.0010714315604545,0.00107141945576,-0.0010714325409911,0.0010714185674155,-0.0010714210974762,0.0010714298478819,-0.00067064542542075,0.00067065770605123,0.71399333743883,128566,2924,0.0044432018649788,0.0057153343775476,0.003489921639923,29.153662615366,-6.7706990770694e-06,-6.7706990770694e-06,-6.7706990770694e-06,3703458.1957775,0.013743676616662
33191759,0.83805145276738,0.014064999520276,0.0046807353574049,0.0054253062907018,0.0039589578721696,-0.0010765109841374,0.0010765163479539,8.5394496992322e-09,-3.1864483887331e-09,1.718932346532e-09,3.8729452467989e-09,-0.00044242554852287,0.00044242171615923,-0.00099242252718967,0.00099243416964047,-0.00099242642741709,0.00099243024143205,-0.00044241630939002,0.00044243106114677,-0.00044242771781033,0.00044241962309152,-0.00099242478129467,0.00099243212239164,-0.0009924286653337,0.00099242824366248,-0.0012733174822505,0.0012733260275838,-0.0012733213830672,0.001273322106656,-0.0012733168565299,0.0012733266416199,-0.001273320793721,0.0012733227407543,-0.0011010296494498,0.001101047181413,-0.0011010411563969,0.001101035690329,-0.0011010304109086,0.001101046452381,-0.0011010419016795,0.0011010349657767,-0.00044241404544095,0.0004424332588958,2.42182853833e-09,9.1322629568118e-12,2.5525547112057e-09,-2.1803332193756e-10,-0.0013875476808871,0.001387550040868,-0.0013696605070842,0.0013696609668521,-0.0014135899959228,0.0014135957278375,-0.0014135921052946,0.0014135930891028,-0.0013353839898955,0.0013353880227962,-0.0013353848879819,0.0013353871252454,-0.0013353847523318,0.0013353871762826,-0.0013353856616684,0.001335386266784,-0.0013696584132808,0.0013696626688435,-0.0013696612820354,0.0013696600573593,-0.0014135909246025,0.0014135948548929,-0.0014135930445561,0.0014135921971653,-0.0013696576656152,0.0013696635516395,-6.7185214976897e-09,4.9981538360371e-09,-0.00084458439098236,0.00084458266040054,-2.3459138576635e-09,5.1978265878517e-10,-0.00067562860775984,0.00067561819094506,-0.00061795578996832,0.00061796064530951,-0.00061795966959065,0.0006179567783054,-0.00067561991249486,0.00067562686675322,-0.00067563137303442,0.00067561538511283,-0.00061795869380987,0.00061795790402211,-0.00061796250272776,0.00061795389238858,-0.0010709778680912,0.0010709712981373,-0.0010709769345678,0.0010709723414542,-0.0010709739882922,0.0010709752348904,-0.0010709729574177,0.0010709761649695,-0.0010798610629817,0.0010798717519529,-0.0010798724821959,0.0010798602506018,-0.0010798734652806,0.0010798593717534,-0.0010798618912048,0.001079870768512,-0.00067561721311735,0.00067562961272261,0.75848139831114,128566,2924,0.0044782504001499,0.0057634430315834,0.0035147524613517,29.094630484185,-7.2429561265231e-06,-7.2429561265231e-06,-7.2429561265231e-06,3701443.0132174,0.013853182744232
33391759,0.84466038624102,0.014177818400987,0.0047182915940658,0.0054711638220333,0.0039883629848875,-0.0010852010920195,0.0010852063876091,8.5675150988682e-09,-3.2817847653164e-09,1.8580053122131e-09,3.6611873206229e-09,-0.00044434933718265,0.00044434497452768,-0.0010007212653165,0.0010007325276795,-0.0010007252037962,0.0010007285597172,-0.00044433963394873,0.00044435478592211,-0.00044435116848243,0.00044434322304599,-0.0010007231718777,0.0010007308313027,-0.0010007270980978,0.0010007269100552,-0.0012838424445482,0.0012838510835894,-0.001283846385981,0.0012838471196292,-0.0012838419352876,0.0012838515746025,-0.0012838459142129,0.001283847634227,-0.0011104389371373,0.0011104564008209,-0.0011104505649121,0.0011104447916182,-0.0011104395783208,0.0011104557980432,-0.0011104511901776,0.0011104441867805,-0.00044433771963132,0.00044435663339349,2.2776373420368e-09,2.1840215649345e-10,2.5813299399069e-09,-1.8422402772947e-10,-0.0013996349528903,0.0013996373749502,-0.0013807837608677,0.0013807841710903,-0.0014262447053868,0.0014262501500542,-0.0014262464719566,0.001426247864944,-0.0013470685999472,0.001347072577548,-0.0013470694966694,0.001347071680983,-0.0013470692515368,0.0013470718487429,-0.0013470701582659,0.0013470709415141,-0.001380781557588,0.0013807859862645,-0.0013807844185519,0.001380783381731,-0.0014262456342951,0.0014262492781477,-0.0014262474072102,0.0014262469774093,-0.0013807809242895,0.0013807867538613,-6.7848999266461e-09,5.0603677269013e-09,-0.00085074364476468,0.00085074190996291,-2.3468670506829e-09,5.1680364238491e-10,-0.00068060589623209,0.00068059534460287,-0.00062248804453766,0.00062249293849847,-0.00062249196772547,0.00062248902722477,-0.0006805970746883,0.00068060414711791,-0.00068060865441494,0.00068059254342917,-0.00062249094872432,0.00062249019852174,-0.00062249479925915,0.00062248614730574,-0.0010795564630488,0.0010795498470912,-0.0010795555313716,0.0010795508911027,-0.0010795525412792,0.001079553826364,-0.0010795515089934,0.0010795547563731,-0.0010887117912586,0.001088722599516,-0.0010887233291322,0.0010887109609957,-0.0010887243148003,0.0010887100972149,-0.0010887126051083,0.001088721606663,-0.00068059436810289,0.00068060689222255,0.77139461591579,128566,2924,0.0045143592708215,0.0058134700245406,0.0035403742148952,29.270989657169,-5.8320827426501e-06,-5.8320827426501e-06,-5.8320827426501e-06,3694037.486579,0.013966526084599
33591759,0.85114001049914,0.014290483374553,0.0047557303515018,0.0055170058670574,0.0040177471559935,-0.0010940561613029,0.0010940613877171,8.5946784626638e-09,-3.3770904351171e-09,2.0031977867415e-09,3.4418325377315e-09,-0.00044635107896139,0.00044634617564938,-0.0010092893288239,0.0010093001930741,-0.0010092933003002,0.0010092961845567,-0.00044634091121767,0.00044635647468002,-0.00044635257056334,0.00044634478762601,-0.001009290881052,0.0010092988665368,-0.0010092948437329,0.001009294903423,-0.0012945048430145,0.0012945135795571,-0.0012945088256691,0.001294509573185,-0.0012945044556316,0.0012945139433112,-0.0012945084761762,0.0012945099648017,-0.0011200590295634,0.0011200764171418,-0.0011200707798857,0.0011200646952805,-0.001120059543089,0.0011200759489504,-0.001120071280372,0.0011200642145582,-0.00044633935365245,0.00044635794920581,2.1294870537499e-09,4.4231217919595e-10,2.6176828684676e-09,-1.4378431372321e-10,-0.0014119510485141,0.0014119535407701,-0.0013921814577139,0.0013921818271038,-0.0014391115185652,0.0014391166731616,-0.0014391129330933,0.0014391147621743,-0.0013589244591554,0.0013589283783594,-0.0013589253554897,0.0013589274813205,-0.0013589249943163,0.0013589277728993,-0.0013589258987134,0.0013589268673678,-0.0013921791465722,0.0013921837767924,-0.0013921819867717,0.0013921811671212,-0.0014391124582069,0.0014391158057678,-0.0014391138614549,0.0014391138814776,-0.0013921786405181,0.0013921844279907,-6.8530261457521e-09,5.1221801825291e-09,-0.00085704191996423,0.00085704018035965,-2.3482337812758e-09,5.1778190029116e-10,-0.00068567433125197,0.00068566364853155,-0.00062720980935445,0.00062721475376131,-0.00062721377437113,0.0006272107988907,-0.00068566540483127,0.00068567259496273,-0.0006856771016169,0.00068566086783366,-0.00062721273268461,0.00062721202426431,-0.00062721661856208,0.00062720793274606,-0.001088290905911,0.0010882842411494,-0.0010882899733079,0.0010882852836353,-0.0010882869388108,0.0010882882601787,-0.0010882859079325,0.0010882891943438,-0.0010978095615661,0.0010978204873655,-0.0010978212168371,0.0010978087062429,-0.0010978222088116,0.0010978078616093,-0.0010978103560095,0.0010978194794705,-0.00068566267185802,0.00068567532524,0.78538310840336,128566,2924,0.0045511542888681,0.005864440339093,0.0035665736199238,29.571281910423,-3.4297447166188e-06,-3.4297447166188e-06,-3.4297447166188e-06,3686154.2690208,0.01408212074153
33791759,0.85748678207892,0.014400637817616,0.0047923431426897,0.0055618415606604,0.0040464531142659,-0.0011027252711055,0.0011027304779441,8.6506872792799e-09,-3.4522535200688e-09,2.0625736359383e-09,3.3619274728646e-09,-0.0004480441907751,0.00044803899176171,-0.0010176027083248,0.0010176134635072,-0.0010176067307359,0.0010176094093017,-0.00044803374707392,0.00044804954593679,-0.00044804552776286,0.00044803774072816,-0.0010176041213214,0.0010176122687408,-0.0010176081298532,0.0010176082656209,-0.0013049914472149,0.0013050002564629,-0.0013049954703135,0.0013049962060645,-0.001304991105222,0.0013050005693578,-0.0013049951715018,0.0013049965461155,-0.0011294827020016,0.0011295001511235,-0.0011294945826355,0.0011294882938972,-0.0011294831709849,0.0011294997328077,-0.0011294950255277,0.0011294878693024,-0.00044803232327222,0.00044805090331444,2.0770354369931e-09,5.206264680423e-10,2.6323516658165e-09,-1.384336696523e-10,-0.0014240946735113,0.0014240971919011,-0.0014034025833375,0.0014034029221096,-0.0014518293930164,0.0014518344400082,-0.0014518306687882,0.0014518326612091,-0.0013705802988746,0.0013705842080696,-0.0013705811965684,0.0013705833097712,-0.0013705807910271,0.0013705836481391,-0.0013705816997438,0.0013705827383034,-0.001403400209571,0.0014034049080486,-0.0014034030768868,0.0014034022987454,-0.0014518303223936,0.0014518335696989,-0.0014518316060707,0.001451831771397,-0.001403399742311,0.0014034055089724,-6.9154294979574e-09,5.1802165660353e-09,-0.00086315712966332,0.00086315538408245,-2.3558877837444e-09,5.1455947185546e-10,-0.00069041142706881,0.00069040062984192,-0.00063169933514653,0.00063170430582308,-0.0006317033386764,0.00063170031265559,-0.0006904023656744,0.00069040966859601,-0.00069041419659864,0.0006903978198465,-0.00063170224514542,0.00063170156070542,-0.00063170618160869,0.00063169742848961,-0.0010968862114178,0.0010968794987385,-0.0010968852759795,0.0010968805445404,-0.0010968822029941,0.0010968835595029,-0.0010968811708361,0.0010968844933229,-0.0011067217999749,0.0011067328341536,-0.001106733555508,0.0011067209256986,-0.001106734559631,0.0011067200931316,-0.0011067225722593,0.0011067318181741,-0.00069039965647214,0.00069041241480959,0.78367691420852,128566,2924,0.0045871787597948,0.0059146925845983,0.0035920131922934,29.874878397485,-1.0009728201193e-06,-1.0009728201193e-06,-1.0009728201193e-06,3676779.9696841,0.014195449397645
33991759,0.86369621346863,0.01450474529113,0.0048270619100765,0.005604174957057,0.0040735084239969,-0.00111103791908,0.0011110431320895,8.7160074745281e-09,-3.511299504931e-09,2.0592804587779e-09,3.3718094688882e-09,-0.00044943525094093,0.00044942995404792,-0.001025274665896,0.0010252854804774,-0.001025278728156,0.0010252813858171,-0.00044942469919817,0.00044944061529616,-0.00044943660518606,0.00044942868595088,-0.0010252760896216,0.0010252842734989,-0.0010252801413855,0.0010252802287583,-0.0013151465788105,0.001315155435388,-0.0013151506425999,0.0013151513417637,-0.0013151462350671,0.0013151557468953,-0.0013151503435021,0.0013151516835433,-0.0011384324143335,0.0011384499889163,-0.0011384444169188,0.0011384380119684,-0.0011384328830701,0.0011384495757566,-0.0011384448581616,0.0011384375865586,-0.00044942326485356,0.00044944198451403,2.0914731428135e-09,5.2189366191864e-10,2.6458555288121e-09,-1.3685009602939e-10,-0.0014357530589075,0.0014357555926791,-0.0014140614629265,0.0014140618090604,-0.0014640903088434,0.0014640953884533,-0.0014640915986581,0.0014640935948502,-0.0013818178121901,0.0013818217450982,-0.0013818187142218,0.0013818208424995,-0.0013818183082974,0.0013818211806505,-0.0013818192203065,0.0013818202674249,-0.0014140590801943,0.0014140637986895,-0.0014140619606914,0.0014140611810809,-0.001464091241928,0.0014640945133474,-0.0014640925375833,0.0014640927029887,-0.00141405860658,0.0014140644060832,-6.979502958236e-09,5.2436337318168e-09,-0.00086897408823535,0.00086897234158988,-2.3636160139363e-09,5.2060406654835e-10,-0.00069465068801005,0.00069463977643261,-0.00063573812267703,0.00063574314773079,-0.00063574216903093,0.00063573911060516,-0.0006946415154224,0.00069464892482736,-0.00069465346903925,0.00069463695669768,-0.00063574104640861,0.00063574038699272,-0.0006357450251959,0.00063573621444711,-0.0011052120942573,0.0011052053339389,-0.0011052111545883,0.001105206384853,-0.0011052080438712,0.0011052094369829,-0.0011052070057084,0.0011052103757581,-0.0011151209493041,0.0011151321090009,-0.001115132817759,0.0011151200615741,-0.0011151338324879,0.0011151192416962,-0.0011151217080705,0.0011151310775131,-0.00069463879152057,0.00069465168862251,0.75679008294999,128566,2924,0.0046217216144781,0.0059629338733965,0.0036162132672271,30.17861062688,1.428885015038e-06,1.428885015038e-06,1.428885015038e-06,3669860.3576727,0.014303991967604
34191759,0.86985522924188,0.014605947814752,0.0048608774992977,0.0056452929622645,0.0040997773531894,-0.0011197079310189,0.0011197130759669,8.7357448197569e-09,-3.5982782876271e-09,2.1565041149855e-09,3.2011900500472e-09,-0.00045156167555297,0.00045155597606628,-0.0010331929406038,0.0010332034374406,-0.0010331970167632,0.0010331993133052,-0.00045155078254958,0.00045156702755406,-0.00045156282270473,0.00045155496157814,-0.0010331941023498,0.0010332025156641,-0.0010331981879549,0.0010331984263014,-0.0013256318675201,0.001325640789382,-0.001325635971271,0.001325636656302,-0.0013256316186352,0.0013256410023192,-0.0013256357614196,0.0013256369104568,-0.0011476442880056,0.0011476617973234,-0.0011476563935109,0.0011476497379229,-0.0011476446521201,0.0011476614939101,-0.0011476567548089,0.0011476493926506,-0.00045154962792017,0.00045156808333755,1.9872308361679e-09,7.1142849011268e-10,2.696145168557e-09,-9.3094877074232e-11,-0.0014476055552967,0.0014476081676005,-0.0014248096077158,0.0014248099438721,-0.0014765043996822,0.0014765092911005,-0.0014765054362344,0.001476507788279,-0.0013933686292808,0.0013933725360889,-0.001393369537812,0.0013933716256159,-0.0013933690348876,0.0013933720659281,-0.0013933699450144,0.0013933711535432,-0.0014248071505247,0.0014248120753862,-0.001424809987457,0.0014248094309256,-0.0014765053673929,0.0014765084166079,-0.0014765063588244,0.001476506913834,-0.0014248067791406,0.0014248126079375,-7.0514082661055e-09,5.3178670443195e-09,-0.00087521197613828,0.00087521023576338,-2.370040422392e-09,5.4514422268787e-10,-0.00069936025201888,0.00069934921331316,-0.00064020129741016,0.00064020643897629,-0.00064020539436687,0.00064020234656871,-0.00069935101759012,0.00069935851973678,-0.00069936306881049,0.00069934643532874,-0.00064020429754543,0.00064020367138383,-0.0006402082981504,0.00064019946003841,-0.0011138896793759,0.0011138828666286,-0.0011138887338355,0.0011138839268222,-0.0011138855837791,0.0011138870146658,-0.0011138845310055,0.001113887969143,-0.0011237522735522,0.0011237635910929,-0.0011237642848026,0.0011237513750798,-0.001123765306131,0.0011237505727651,-0.0011237530301219,0.0011237625244017,-0.000699348190871,0.00069936129662515,0.74153685344147,128566,2924,0.0046577408068683,0.0060119783606237,0.0036421589374595,30.743889681069,5.951117448555e-06,5.951117448555e-06,5.951117448555e-06,3673490.0089545,0.014416628055858
34391759,0.87597874717797,0.014705742040625,0.0048942387133677,0.0056858378182542,0.0041256655090028,-0.0011284485710503,0.0011284536698753,8.7806253321881e-09,-3.688855304032e-09,2.205306625367e-09,3.1030289137143e-09,-0.00045397921767523,0.00045397318758958,-0.0010411494449749,0.0010411597958108,-0.001041153570708,0.0010411556259311,-0.00045396803736531,0.00045398448690012,-0.00045398019659444,0.00045397231189945,-0.0010411504579257,0.0010411590129059,-0.0010411545910515,0.0010411548839319,-0.0013361657785787,0.0013361747535284,-0.0013361699241895,0.0013361705747785,-0.0013361655792657,0.0013361749103177,-0.001336169769996,0.0013361707727446,-0.0011568796323301,0.0011568971822807,-0.0011568918733003,0.0011568849829349,-0.0011568799523499,0.0011568969269776,-0.0011568921792253,0.0011568846957891,-0.00045396702824522,0.00045398543001079,1.9456672123199e-09,7.9538221785451e-10,2.726468686312e-09,-8.8416818221013e-11,-0.0014594486817866,0.0014594513356166,-0.0014355332881242,0.0014355335882234,-0.0014888688191802,0.0014888736273343,-0.0014888697191729,0.0014888722500742,-0.0014049674831094,0.0014049714015778,-0.0014049683982571,0.0014049704840071,-0.0014049678451572,0.0014049709759518,-0.0014049687658648,0.0014049700536463,-0.0014355307460265,0.001435535768513,-0.0014355336325382,0.0014355331150557,-0.0014888697760264,0.0014888727410907,-0.0014888706572818,0.0014888713635926,-0.0014355304176565,0.0014355362533918,-7.1079769261554e-09,5.3775488899992e-09,-0.00088157798151976,0.00088157624241192,-2.3766704089423e-09,5.4873459311481e-10,-0.00070429278659281,0.00070428164143604,-0.00064479671962072,0.00064480190044915,-0.00064480085482462,0.00064479776641533,-0.00070428340781524,0.00070429102495167,-0.00070429559991044,0.0007042788214183,-0.00064479970814981,0.00064479910678606,-0.00064480376221421,0.00064479485560761,-0.0011226324566093,0.0011226256016355,-0.0011226315067975,0.001122626667565,-0.0011226283216501,0.0011226297901174,-0.001122627265461,0.001122630746164,-0.0011324023898964,0.0011324138209742,-0.001132414495069,0.0011324014800196,-0.0011324155335762,0.0011324006927995,-0.0011324031236131,0.0011324127430837,-0.00070428060756802,0.00070429383675141,0.73560164792545,128566,2924,0.0046940487972805,0.0060609828537006,0.0036686350575339,31.386421123285,1.1091368986279e-05,1.1091368986279e-05,1.1091368986279e-05,3681964.8253782,0.014530066252046
34591759,0.8820536621511,0.014808312191092,0.0049284058203484,0.0057275622821372,0.0041523440886065,-0.0011373224497354,0.0011373275714358,8.8574520523904e-09,-3.7429815127488e-09,2.1872618621515e-09,3.1458597262036e-09,-0.00045672535593634,0.00045671926143736,-0.0010495317620735,0.0010495422483568,-0.0010495359402867,0.0010495380305447,-0.00045671409786688,0.00045673063572284,-0.00045672638036499,0.00045671833949624,-0.0010495328350505,0.0010495413970297,-0.0010495370135222,0.0010495372291472,-0.0013467432431409,0.0013467522649097,-0.0013467474287917,0.0013467480427715,-0.0013467430232996,0.0013467524389287,-0.001346747259173,0.0013467482564927,-0.0011663139526325,0.0011663316577742,-0.0011663263292883,0.001166319327453,-0.0011663142866542,0.001166331405521,-0.0011663266240781,0.0011663190401934,-0.00045671301575188,0.00045673165266201,1.9782227837695e-09,7.6796863561475e-10,2.737322896488e-09,-9.8154178692511e-11,-0.0014714380499809,0.0014714407103375,-0.0014464732859031,0.0014464735909985,-0.0015012932641584,0.0015012981396073,-0.0015012942179242,0.0015012967028903,-0.0014166923449762,0.0014166963000841,-0.0014166932646091,0.0014166953780599,-0.0014166927255592,0.0014166958555702,-0.0014166936531792,0.0014166949254088,-0.0014464707343223,0.0014464757547592,-0.001446473656855,0.0014464730863801,-0.0015012942157211,0.0015012972499032,-0.0015012951661668,0.0015012958013272,-0.0014464703815212,0.001446476252401,-7.1689714447866e-09,5.4373827928939e-09,-0.0008881003243953,0.00088809858280808,-2.3892876371601e-09,5.5429784912623e-10,-0.00070964654041698,0.00070963530710453,-0.00064975032906543,0.00064975555283649,-0.00064975450178054,0.00064975138394201,-0.00070963705663201,0.00070964477769192,-0.00070964937663072,0.00070963244753503,-0.00064975332217795,0.00064975273579605,-0.00064975742228786,0.00064974844023177,-0.0011314136969327,0.0011314067928822,-0.0011314127383363,0.0011314078652525,-0.0011314095191946,0.0011314110228486,-0.0011314084586697,0.0011314119837103,-0.0011413067043265,0.0011413182392316,-0.0011413188799629,0.0011413057411378,-0.0011413199489192,0.0011413049962163,-0.0011413073778183,0.0011413171292403,-0.00070963426128332,0.00070964760418921,0.76226247256934,128566,2924,0.0047309078114849,0.0061105901483575,0.00369575942407,32.031059881306,1.6248479050446e-05,1.6248479050446e-05,1.6248479050446e-05,3690430.3824601,0.014645343432907
34791759,0.88814452513124,0.014915116102401,0.0049638503409225,0.005771091707637,0.0041801740538418,-0.0011468149445419,0.0011468200415362,8.9106683336107e-09,-3.8209331676733e-09,2.2651767702575e-09,3.0411581892637e-09,-0.00045970404538715,0.00045969761314985,-0.0010587862018393,0.0010587965255145,-0.0010587904212843,0.0010587922575852,-0.00045969249523896,0.0004597092953928,-0.00045970489079834,0.00045969688561222,-0.0010587871038759,0.0010587958552463,-0.0010587913146939,0.0010587916488045,-0.0013579542480263,0.0013579633521883,-0.0013579584759843,0.001357959086781,-0.0013579540889406,0.001357963461489,-0.0013579583715172,0.0013579592357903,-0.0011765169419279,0.0011765346968163,-0.0011765294547113,0.0011765222375357,-0.0011765172193812,0.0011765345004348,-0.0011765296893293,0.0011765220144019,-0.00045969157449627,0.00045971014199184,1.9159066926598e-09,8.7772157444369e-10,2.7762524426289e-09,-8.4560123158047e-11,-0.0014843039415783,0.001484306646648,-0.0014584170610358,0.0014584173461932,-0.0015145893045171,0.0015145940601049,-0.0015145900911659,0.0015145928037592,-0.0014291391618489,0.001429143105009,-0.0014291400882142,0.0014291421746177,-0.0014291394861908,0.0014291427198049,-0.0014291404227027,0.0014291417797789,-0.0014584144411948,0.0014584196114597,-0.0014584173741228,0.0014584168983368,-0.0015145902700293,0.0015145931714032,-0.001514591049166,0.001514591895583,-0.0014584141609047,0.0014584200558647,-7.2320707565237e-09,5.495577996541e-09,-0.0008951351908677,0.00089513344619905,-2.3978530523933e-09,5.6591473987882e-10,-0.00071554160001395,0.00071553028394905,-0.00065528462177446,0.0006552899101331,-0.00065528882573504,0.00065528570519148,-0.00071553203916645,0.00071553987580754,-0.00071554448613643,0.00071552740950525,-0.00065528764820346,0.00065528709518968,-0.0006552917858718,0.00065528275384725,-0.0011407875202762,0.0011407805624893,-0.0011407865541213,0.0011407816453096,-0.0011407833016686,0.001140784835039,-0.0011407822340889,0.0011407858015961,-0.001151021470991,0.00115103311783,-0.0011510337548799,0.0011510204971563,-0.0011510348386628,0.0011510197494217,-0.0011510221356437,0.0011510319983914,-0.00071552921966874,0.00071554268682731,0.79180217569479,128566,2924,0.0047703382245639,0.0061638208152367,0.0037250139846625,32.90900008655,2.3272000692397e-05,2.3272000692397e-05,2.3272000692397e-05,3695673.3914422,0.014769083394339
34991759,0.89428229357007,0.015017706980288,0.0049980350841893,0.0058128959362549,0.0042067759598433,-0.0011563328389826,0.0011563378845727,8.9557504420009e-09,-3.9168060639545e-09,2.358837408254e-09,2.8922360163809e-09,-0.00046207751527029,0.0004620706275863,-0.0010676333264197,0.0010676434105728,-0.0010676375987852,0.0010676390831742,-0.00046206560729108,0.00046208268354995,-0.00046207809799646,0.00046207018014795,-0.001067634012006,0.0010676429751561,-0.0010676382492555,0.001067638739411,-0.0013693872752659,0.0013693964571731,-0.0013693915453601,0.0013693921474713,-0.001369387194327,0.001369396483186,-0.0013693915300635,0.0013693922069691,-0.0011866863081846,0.0011867040833403,-0.0011866989750924,0.0011866914762662,-0.0011866865162287,0.0011867039569693,-0.0011866991157203,0.001186691346003,-0.00046206488226158,0.00046208332497704,1.8409158804012e-09,1.019073019607e-09,2.8275062773888e-09,-6.6604629862512e-11,-0.0014973693888514,0.001497372154207,-0.0014705659120578,0.0014705661777679,-0.001528207473496,0.0015282120820897,-0.0015282080480956,0.0015282110554073,-0.0014417167692952,0.0014417206997362,-0.0014417177006277,0.0014417197596435,-0.001441717019748,0.0014417203894628,-0.0014417179712546,0.0014417194331105,-0.0014705632031121,0.001470568568073,-0.001470566162995,0.0014705657980233,-0.0015282084466445,0.0015282112023251,-0.0015282090268504,0.0015282101339865,-0.0014705630197003,0.0014705689374822,-7.2908928514287e-09,5.5483516865947e-09,-0.00090209976951979,0.00090209802102814,-2.4033715285797e-09,5.7281640937946e-10,-0.00072080032453844,0.00072078894084189,-0.00066034338063831,0.00066034871241005,-0.0006603476039662,0.00066034448009162,-0.00072079067699875,0.00072079865279229,-0.0007208032767085,0.00072078603686297,-0.00066034642175351,0.00066034591184415,-0.00066035060606528,0.00066034152123769,-0.0011503780570494,0.0011503710480379,-0.0011503770825714,0.0011503721415609,-0.0011503737976016,0.0011503753624363,-0.0011503727289168,0.0011503763286161,-0.001160638181244,0.0011606499151958,-0.001160650545729,0.0011606371813953,-0.0011606516565957,0.001160636437248,-0.001160638811442,0.0011606487902814,-0.00072078787218546,0.00072080142351563,0.75494741003284,128566,2924,0.0048098787159941,0.0062178733586093,0.0037539791563372,33.939423332045,3.1515386656364e-05,3.1515386656364e-05,3.1515386656364e-05,3698829.4683851,0.014893496748189
35191759,0.90044335487367,0.01511803183343,0.0050315471031333,0.0058537558897453,0.0042327288405515,-0.0011658030156498,0.0011658080547564,9.0089097535057e-09,-3.9762832887897e-09,2.3661612546332e-09,2.8784911482184e-09,-0.0004648320334303,0.00046482503315814,-0.0010762769086382,0.0010762869964786,-0.0010762812146597,0.0010762826430119,-0.00046481997250579,0.00046483721717412,-0.00046483261978725,0.00046482456316033,-0.0010762775508701,0.0010762865858128,-0.0010762818488968,0.0010762823001092,-0.0013807520083118,0.0013807612361648,-0.0013807563180526,0.0013807568831022,-0.0013807519394212,0.0013807612446297,-0.001380756309875,0.0013807569356817,-0.0011966729863529,0.0011966908463448,-0.001196685746577,0.0011966781333198,-0.001196673176802,0.0011966907367964,-0.001196685890476,0.0011966780020264,-0.000464819309824,0.00046483781372718,1.8316288695247e-09,1.0505322141973e-09,2.8418161041158e-09,-6.7944366522712e-11,-0.0015101908386396,0.0015101936287941,-0.0014823725898284,0.0014823728249424,-0.001541519044773,0.0015415236458778,-0.0015415195802767,0.0015415226479694,-0.0014542093545786,0.0014542133141747,-0.0014542102954222,0.0014542123677287,-0.0014542095942382,0.0014542130161345,-0.0014542105460625,0.0014542120592289,-0.0014823698280936,0.0014823752110124,-0.0014823728203275,0.0014823724568964,-0.0015415200179286,0.0015415227422573,-0.0015415205514633,0.0015415217232502,-0.0014823696303664,0.0014823755682983,-7.3573090765115e-09,5.6205891891525e-09,-0.0009090838956377,0.0009090821502045,-2.42263567018e-09,5.8725087940896e-10,-0.00072612643017633,0.00072611491607576,-0.000665392649439,0.00066539805801552,-0.00066539693439662,0.00066539376998194,-0.00072611665601846,0.00072612469332391,-0.00072612935934279,0.00072611198093293,-0.00066539571115845,0.00066539519083446,-0.00066539993796662,0.00066539076555861,-0.0011599013871472,0.0011598943280412,-0.0011599004054274,0.0011598954305497,-0.0011598970867128,0.0011598986863453,-0.0011598960003574,0.0011598996667566,-0.0011700337461639,0.0011700456428526,-0.0011700462476299,0.0011700327543552,-0.0011700473624822,0.0011700320221626,-0.0011700343868492,0.0011700444914457,-0.00072611381100464,0.00072612755636873,0.73556804851699,128566,2924,0.0048492132323713,0.0062709153776488,0.0037830226548763,34.973905233834,3.9791241870674e-05,3.9791241870674e-05,3.9791241870674e-05,3710547.7109052,0.015016768031934
35391759,0.90654541248907,0.015214559698855,0.0050638664666717,0.0058930603213533,0.0042576329108304,-0.0011747487254254,0.0011747538565657,9.1170304364636e-09,-3.9932694810496e-09,2.1954876033608e-09,3.1481283263112e-09,-0.00046738413649385,0.00046737754585246,-0.0010842262218921,0.0010842368880597,-0.0010842305803034,0.0010842325000092,-0.00046737236108283,0.00046738939368888,-0.00046738514228999,0.00046737661146134,-0.0010842272763081,0.001084236030491,-0.0010842316364145,0.0010842317010024,-0.0013915829960121,0.00139159221574,-0.0013915873443161,0.0013915878178574,-0.0013915827858768,0.0013915923629377,-0.001391587197356,0.0013915880115458,-0.0012060101155524,0.0012060283324493,-0.0012060229847662,0.0012060154853152,-0.0012060104505978,0.0012060280740547,-0.0012060232726533,0.0012060152072681,-0.00046737128492461,0.00046739044577087,2.0242309627218e-09,7.9973113058645e-10,2.8208814420671e-09,-1.1584488331245e-10,-0.0015223269478715,0.0015223296875791,-0.0014934858049769,0.0014934860774003,-0.0015541027688068,0.001554107752112,-0.0015541037180334,0.0015541063016775,-0.0014661134645671,0.0014661175446028,-0.001466114414092,0.0014661165915652,-0.0014661138439943,0.0014661170999634,-0.0014661148044309,0.0014661161351746,-0.0014934831258559,0.001493488292186,-0.0014934861865214,0.0014934855522108,-0.0015541037256022,0.0015541068281173,-0.0015541047011402,0.0015541053618598,-0.0014934827602696,0.0014934887881643,-7.4159546546337e-09,5.6877548092081e-09,-0.00091565267805216,0.00091565093613225,-2.4412436227548e-09,5.9530786266887e-10,-0.00073103964667743,0.00073102802140964,-0.0006699461086655,0.00066995156533241,-0.00066995044277695,0.00066994722799993,-0.00073102973083343,0.00073103784661881,-0.00073104255926277,0.00073102502863988,-0.00066994915803281,0.00066994862733284,-0.00066995344002873,0.00066994416593437,-0.0011689237552593,0.0011689166521575,-0.0011689227647238,0.0011689177637575,-0.0011689194153973,0.0011689210539113,-0.0011689183164644,0.0011689220418341,-0.0011787797981417,0.0011787918355265,-0.0011787924007358,0.0011787787996496,-0.0011787935327165,0.00117877808689,-0.0011787804204205,0.0011787906574411,-0.00073102689478736,0.00073104079758567,0.71497033929256,128566,2924,0.0048863663404488,0.0063211205315622,0.003810339076114,35.839193564354,4.6713548514834e-05,4.6713548514834e-05,4.6713548514834e-05,3724708.0595139,0.015133205621728
35591759,0.91249637939157,0.015304120225856,0.0050939816396033,0.0059294945474706,0.0042806440387823,-0.0011828634414055,0.0011828687292933,9.2576988651544e-09,-3.9791096021977e-09,1.9137720516951e-09,3.5963345742121e-09,-0.00046951173955037,0.00046950591131739,-0.0010910648254551,0.0010910764160491,-0.0010910692217811,0.0010910719845459,-0.00046950057226931,0.0004695171637331,-0.00046951347417867,0.00046950426047167,-0.0010910666016453,0.0010910748376511,-0.0010910710006597,0.0010910704689634,-0.0014015879120195,0.0014015970925593,-0.0014015923015127,0.0014015926510585,-0.0014015874684016,0.0014015974763845,-0.0014015919239261,0.001401593084532,-0.0012143610667108,0.0012143797948524,-0.0012143740646994,0.0012143668283135,-0.0012143616369443,0.0012143793058035,-0.0012143745825715,0.0012143663120103,-0.00046949877005579,0.00046951893662128,2.3563418199631e-09,3.9009060352924e-10,2.7957360320068e-09,-1.607220931092e-10,-0.0015334014376854,0.0015334041032179,-0.0015035150009899,0.0015035154278402,-0.0015656086843456,0.0015656143278594,-0.0015656103558429,0.0015656121426872,-0.0014770713062352,0.0014770755552121,-0.0014770722630013,0.0014770745939151,-0.0014770719180357,0.0014770748651664,-0.0014770728857054,0.0014770738924408,-0.001503512548271,0.0015035174234382,-0.0015035156231733,0.0015035146553294,-0.001565609652677,0.001565613399973,-0.0015656113417509,0.0015656111977782,-0.0015035119447159,0.0015035181728061,-7.4741380382375e-09,5.7551622342038e-09,-0.00092154606435802,0.00092154433207348,-2.4456102099238e-09,6.1272121141166e-10,-0.00073523729190226,0.00073522557928935,-0.00067371423264623,0.00067371976631578,-0.00067371860435813,0.00067371538589392,-0.00073522729503256,0.00073523552687578,-0.00073524024296528,0.00073522258303709,-0.00067371731357193,0.0006737168170482,-0.00067372163203809,0.0006737123115965,-0.0011771814494944,0.0011771743050871,-0.0011771804517166,0.001177175426225,-0.001177177069868,0.0011771787507716,-0.0011771759606598,0.0011771797451201,-0.0011865051882294,0.0011865173679969,-0.001186517920144,0.0011865042148433,-0.0011865190575066,0.0011865034842279,-0.0011865058326599,0.0011865161892719,-0.00073522442672786,0.00073523848455427,0.68077348758298,128566,2924,0.0049200658317854,0.0063669326630733,0.0038348480802969,36.485282133859,5.1882257070874e-05,5.1882257070874e-05,5.1882257070874e-05,3740810.5673415,0.015238839055442
35791759,0.9182811389147,0.015396176520989,0.0051247542435598,0.005966997488665,0.0043044247887639,-0.0011910556106959,0.0011910610037762,9.3719534597844e-09,-3.9895614848999e-09,1.7543925334241e-09,3.8669568260057e-09,-0.00047239956509276,0.0004723941491299,-0.0010984909955784,0.0010985031595889,-0.0010984954278151,0.0010984986835499,-0.00047238871110275,0.00047240510428363,-0.00047240173199207,0.00047239208198361,-0.0010984931983772,0.0010985011559536,-0.0010984976323844,0.0010984967470183,-0.0014114801633977,0.001411489349609,-0.001411484594855,0.0014114848664766,-0.0014114795829291,0.0014114898740696,-0.0014114840817459,0.001411485442279,-0.0012228516241666,0.0012228707108612,-0.0012228647541281,0.001222857631104,-0.001222852331819,0.0012228700957006,-0.0012228654026842,0.0012228569794316,-0.00047238647696686,0.00047240729774734,2.5490764199945e-09,1.5212972201201e-10,2.7756305441569e-09,-1.7481423501571e-10,-0.0015444036320945,0.0015444062545394,-0.0015135132068502,0.0015135137557589,-0.0015768605737192,0.001576866598798,-0.0015768626737184,0.001576863983411,-0.0014880039207074,0.0014880082589553,-0.0014880048733272,0.0014880072990435,-0.0014880046701795,0.0014880074238452,-0.0014880056336736,0.0014880064528852,-0.0015135109214586,0.0015135156235503,-0.0015135139669376,0.0015135128419273,-0.0015768615475801,0.0015768656785108,-0.0015768636538043,0.0015768630439456,-0.0015135101851592,0.0015135165234031,-7.5265693878535e-09,5.830406716577e-09,-0.00092764967050582,0.00092764796340038,-2.425531382456e-09,6.2602298137801e-10,-0.00074024313635874,0.00074023132795939,-0.00067816852757863,0.00067817413524528,-0.00067817293725875,0.00067816971437456,-0.00074023303453216,0.00074024142923815,-0.00074024609919933,0.00074022835162384,-0.00067817162013771,0.00067817121215001,-0.00067817597207058,0.00067816665992839,-0.0011853284619939,0.0011853212999856,-0.0011853274665665,0.001185322419797,-0.0011853240403548,0.0011853257888921,-0.0011853229326688,0.0011853267806969,-0.0011944542009698,0.0011944665226238,-0.0011944670564938,0.0011944532433134,-0.0011944681921575,0.0011944525136028,-0.0011944548412365,0.0011944653457397,-0.00074023015346953,0.0007402443564283,0.72027366383243,128566,2924,0.0049540790227727,0.0064124455495291,0.0038602255119867,37.125583178877,5.7004665431019e-05,5.7004665431019e-05,5.7004665431019e-05,3760885.1074034,0.015345373290522
35991759,0.92388740910472,0.015490875011307,0.0051562127489827,0.0060056851630352,0.0043289770992893,-0.0011992506957516,0.0011992561481791,9.464146332179e-09,-4.0231844100073e-09,1.6861567753621e-09,3.9980903777598e-09,-0.00047494585840871,0.00047494057909641,-0.0011063382901975,0.0011063507537913,-0.0011063427640338,0.0011063462360934,-0.00047493507845809,0.0004749514566003,-0.00047494822334699,0.00047493831184951,-0.0011063406874626,0.0011063485533413,-0.0011063451627904,0.0011063441022776,-0.0014213122394241,0.0014213214622022,-0.0014213167124158,0.001421316936522,-0.0014213115960191,0.0014213220508203,-0.0014213161375212,0.001421317577722,-0.0012315467499665,0.0012315660876721,-0.0012315600021555,0.001231552883239,-0.0012315475254871,0.0012315654015091,-0.0012315607208328,0.0012315521628442,-0.00047493264729075,0.00047495385060669,2.6359891845163e-09,3.6914615460308e-11,2.7539379686149e-09,-1.7858031208228e-10,-0.0015556245203054,0.0015556271164264,-0.0015238891309765,0.0015238897405478,-0.0015883321126414,0.001588338301422,-0.0015883344064711,0.0015883354855506,-0.0014989625194847,0.0014989668922238,-0.0014989634657685,0.0014989659381255,-0.0014989633351423,0.0014989659894791,-0.0014989642923438,0.0014989650243408,-0.0015238869305915,0.0015238915224344,-0.001523889957785,0.001523888758829,-0.0015883330807314,0.0015883373872136,-0.0015883353805397,0.0015883345520754,-0.0015238861270152,0.0015238924907181,-7.5932292416019e-09,5.8899043539907e-09,-0.00093371245696322,0.00093371074300462,-2.4202923859587e-09,6.1380687843186e-10,-0.00074532537535477,0.00074531341964696,-0.000682801243635,0.00068280686891822,-0.00068280569412004,0.00068280240552969,-0.00074531513483003,0.00074532366181706,-0.00074532832092756,0.00074531045983153,-0.00068280431920283,0.00068280396373764,-0.0006828087121938,0.00068279936917792,-0.0011934472229748,0.0011934400170091,-0.0011934462333834,0.0011934411320197,-0.0011934427600971,0.0011934445488569,-0.0011934416566138,0.0011934455341306,-0.0012026986474453,0.0012027110824404,-0.0012027116326343,0.0012026976859079,-0.0012027127592822,0.0012026969527554,-0.0012026992928047,0.001202709916618,-0.00074531227091894,0.00074532657213303,0.76499783289767,128566,2924,0.0049881112865427,0.0064588575509633,0.00388543588814,37.765645450321,6.2125163602565e-05,6.2125163602565e-05,6.2125163602565e-05,3769072.9489167,0.015452682696827
36191759,0.92915437052834,0.015577321505316,0.005184985288442,0.0060410236794195,0.0043513125374541,-0.0012058275489341,0.0012058331403374,9.5910991471223e-09,-4.0126935978768e-09,1.5001690323364e-09,4.3316990430382e-09,-0.00047564794396299,0.0004756432305777,-0.0011123106983925,0.001112323851313,-0.0011123152039492,0.0011123193022631,-0.00047563756550344,0.00047565370342551,-0.00047565084600235,0.00047564042589697,-0.0011123135984872,0.0011123211436675,-0.0011123181194053,0.0011123166473049,-0.0014295322461876,0.0014295414773287,-0.0014295367598965,0.001429536909725,-0.0014295314381599,0.0014295422343899,-0.0014295360168434,0.0014295377255291,-0.0012385912826868,0.0012386110386313,-0.0012386046411501,0.001238597726006,-0.001238592223935,0.0012386101828518,-0.0012386055408435,0.0012385968231423,-0.00047563463905028,0.0004756565959191,2.8546014637671e-09,-2.5692303282477e-10,2.7114303129004e-09,-2.0680925341339e-10,-0.00156518548469,0.0015651880094657,-0.0015327153792722,0.0015327160951142,-0.0015982553691677,0.0015982619904928,-0.0015982581644286,0.001598258655964,-0.001508185687398,0.00150819015434,-0.0015081866311768,0.0015081892025022,-0.0015081866692583,0.0015081890782487,-0.0015081876192025,0.0015081881200919,-0.0015327133578425,0.0015327176865952,-0.0015327163665979,0.0015327149464874,-0.0015982563392146,0.0015982610735855,-0.0015982591259823,0.0015982577336546,-0.0015327123790528,0.0015327188354967,-7.6613797815712e-09,5.957049418336e-09,-0.00093822523967824,0.0009382235246939,-2.4223603035941e-09,6.1437893679411e-10,-0.00074847514305027,0.000748463036809,-0.0006856702652123,0.0006856759421722,-0.00068567476578636,0.00068567142537288,-0.00074846477703919,0.00074847341162068,-0.00074847807332823,0.0007484600961057,-0.0006856733496298,0.000685673026972,-0.00068567777965246,0.00068566839351421,-0.0012001079456978,0.0012001006939525,-0.0012001069580121,0.0012001018096474,-0.001200103442323,0.0012001052708399,-0.0012001023324284,0.0012001062579258,-0.0012092902367696,0.0012093028132812,-0.0012093033639297,0.001209289279894,-0.0012093044836216,0.0012092885476603,-0.0012092908978007,0.0012093016433317,-0.00074846189104182,0.00074847634477439,0.74360849126758,128566,2924,0.0050154369836625,0.0064983962584617,0.0039042133052533,37.87006474166,6.2960517933278e-05,6.2960517933278e-05,6.2960517933278e-05,3760726.0785099,0.0155396830964
36391759,0.93398775965627,0.015655664699609,0.0052110938170922,0.0060730261525972,0.0043715447299196,-0.001211056410961,0.0012110621473098,9.7306849388428e-09,-4.0091918921603e-09,1.301855637851e-09,4.6845587386226e-09,-0.00047585129396539,0.00047584712125482,-0.0011169319194423,0.0011169458219534,-0.0011169364808712,0.0011169412224912,-0.00047584132068736,0.00047585717422105,-0.00047585471686104,0.00047584378567044,-0.001116935363901,0.0011169425596772,-0.0011169399279022,0.0011169380260529,-0.0014362081387874,0.0014362173746972,-0.0014362126942536,0.0014362127635855,-0.0014362071505645,0.0014362183161437,-0.0014362117769524,0.001436213759042,-0.001244155852398,0.0012441760776377,-0.0012441693463155,0.0012441626184661,-0.0012441569846657,0.0012441750225782,-0.0012441704241001,0.0012441615355127,-0.0004758378317859,0.00047586064164323,3.0931522349107e-09,-5.8759378064864e-10,2.6761478455203e-09,-2.6301098737134e-10,-0.0015729794560841,0.0015729818938198,-0.0015397985847692,0.0015397993822303,-0.0016063309983959,0.0016063380884627,-0.0016063343318785,0.0016063341897762,-0.0015157739415923,0.0015157785166945,-0.0015157748890625,0.0015157775604188,-0.0015157751023882,0.0015157772529689,-0.0015157760614704,0.0015157762849473,-0.0015397967204421,0.0015398007855216,-0.0015397997696564,0.0015397980306709,-0.0016063319610308,0.0016063371688882,-0.0016063353083025,0.001606333250219,-0.001539795553875,0.0015398021175811,-7.7183694759207e-09,6.0153481596178e-09,-0.00094163008489695,0.0009416283699698,-2.4257450944218e-09,6.1364218944645e-10,-0.00075069247928562,0.00075068027957801,-0.00068759399674005,0.00068759969896457,-0.00068759852855478,0.00068759514794232,-0.00075068199474972,0.00075069075514145,-0.00075069542501462,0.00075067730848623,-0.000687597065113,0.00068759677626257,-0.00068760154318517,0.00068759209744548,-0.0012053805921585,0.0012053732984028,-0.0012053796013184,0.0012053744194922,-0.0012053760501515,0.0012053779187839,-0.0012053749383023,0.0012053789024501,-0.0012144388387866,0.0012144515272923,-0.001214452073128,0.0012144378900687,-0.0012144531998897,0.0012144371444294,-0.0012144395029403,0.0012144503675899,-0.00075067913822799,0.00075069368578316,0.73413358541102,128566,2924,0.0050371632229253,0.0065306248026877,0.0039183860101805,37.543374437943,6.0346995503544e-05,6.0346995503544e-05,6.0346995503544e-05,3751524.4991152,0.015608897945543
36591759,0.93842396230341,0.015723370243776,0.005233782800413,0.0061006232614855,0.0043889641818777,-0.0012155656549192,0.0012155714333167,9.8127728575691e-09,-4.0498615305396e-09,1.282496774398e-09,4.7479971728573e-09,-0.00047583261823893,0.00047582845821519,-0.0011205856317426,0.0011205996974352,-0.0011205902296091,0.0011205950573462,-0.00047582261191224,0.00047583854897089,-0.0004758361317916,0.00047582503511277,-0.0011205891551778,0.0011205963544125,-0.0011205937590728,0.0011205917784971,-0.0014421021971865,0.0014421114911861,-0.0014421067941263,0.0014421068379993,-0.0014421011854379,0.0014421124563695,-0.0014421058532441,0.001442107860091,-0.0012488598413887,0.0012488802552609,-0.0012488734557635,0.0012488666793839,-0.0012488609999713,0.0012488791742635,-0.0012488745648216,0.0012488655669788,-0.00047581904437464,0.00047584209333845,3.1317640661693e-09,-6.3102292474163e-10,2.6788302641625e-09,-2.6638619802568e-10,-0.0015797324669369,0.0015797349008445,-0.0015458330148101,0.0015458338357366,-0.0016133761980324,0.0016133833665456,-0.0016133796132067,0.0016133793848325,-0.0015224150168373,0.0015224196147336,-0.0015224159669885,0.0015224186554454,-0.0015224162024739,0.0015224183231409,-0.001522417162572,0.0015224173537574,-0.0015458311801585,0.0015458352258791,-0.0015458342243397,0.0015458324576506,-0.0016133771679677,0.0016133824451768,-0.0016133805887312,0.0016133784474238,-0.0015458299882845,0.0015458365918798,-7.7814846280738e-09,6.081179006413e-09,-0.00094451747296815,0.00094451576160516,-2.4282057231501e-09,6.2288129392242e-10,-0.00075233433194543,0.00075232202086133,-0.0006889531791047,0.00068895894689574,-0.00068895775235751,0.00068895435059291,-0.00075232374330321,0.00075233261976612,-0.00075233729172472,0.000752319049074,-0.00068895626758645,0.00068895601825592,-0.00068896078340251,0.00068895129704946,-0.001210003917955,0.0012099965793792,-0.0012100029244046,0.0012099977065662,-0.0012099993355262,0.0012100012441731,-0.001209998216124,0.00121000223138,-0.0012187102646404,0.0012187230874062,-0.0012187236287193,0.001218709323842,-0.0012187247566959,0.001218708571992,-0.0012187109371592,0.0012187219231434,-0.00075232086500166,0.00075233555845016,0.6911450667944,128566,2924,0.005055898689217,0.0065585484351526,0.0039304064279256,37.205195625653,5.7641565005225e-05,5.7641565005225e-05,5.7641565005225e-05,3745876.4364872,0.015668520119685
36791759,0.94249888731132,0.015783801322037,0.0052540857172102,0.0061252150449518,0.0044045005598755,-0.0012196100141825,0.0012196157284206,9.8442006466629e-09,-4.1445057826491e-09,1.3816134787448e-09,4.5794566706834e-09,-0.0004763016819751,0.00047629706646016,-0.0011237760462937,0.0011237898204326,-0.0011237806852249,0.0011237851373226,-0.00047629128894216,0.00047630754497399,-0.00047630493300431,0.00047629391126346,-0.001123779305935,0.0011237867430284,-0.0011237839518961,0.0011237821266732,-0.0014473707967079,0.0014473801595782,-0.0014473754355814,0.0014473754643281,-0.0014473698737019,0.0014473810332657,-0.0014473745842111,0.0014473763953159,-0.0012529739956748,0.001252994380105,-0.0012529877361205,0.0012529806816458,-0.0012529750648798,0.001252993392737,-0.0012529887526092,0.0012529796620142,-0.00047628798464523,0.00047631082717116,3.0249895608218e-09,-4.6911449222722e-10,2.7021993071954e-09,-2.3675276695372e-10,-0.0015856026942124,0.0015856051805912,-0.0015509687695979,0.0015509695591002,-0.001619430769596,0.0016194377220104,-0.0016194339246232,0.0016194340135549,-0.0015283394513578,0.001528344009652,-0.0015283403990711,0.0015283430520545,-0.0015283405495933,0.0015283428090168,-0.0015283415075232,0.0015283418410912,-0.0015509668535165,0.0015509710391769,-0.0015509698888645,0.0015509682729923,-0.0016194317363427,0.0016194368042376,-0.001619434896836,0.0016194330786302,-0.0015509657527024,0.001550972313796,-7.8409715316307e-09,6.1471911111709e-09,-0.00094719231978808,0.00094719061547489,-2.4206023534996e-09,6.2394068649069e-10,-0.0007540669762519,0.00075405454499727,-0.00069029619755341,0.00069030200972376,-0.00069030081186201,0.00069029737277129,-0.00075405626020329,0.00075406527377102,-0.00075406993130614,0.00075405157997646,-0.00069029928088494,0.00069029908923535,-0.00069030383816684,0.00069029432607014,-0.0012141003437737,0.0012140929710943,-0.0012140993526845,0.0012140940976576,-0.0012140957199056,0.0012140976784466,-0.0012140946017806,0.0012140986632742,-0.0012224071279244,0.0012224200760798,-0.0012224206136793,0.0012224061896415,-0.0012224217410738,0.0012224054414988,-0.0012224077939331,0.0012224189123349,-0.00075405338653705,0.00075406820248777,0.67162364379196,128566,2924,0.0050726940309654,0.0065828242013685,0.0039415374635422,36.866541636127,5.4932333089017e-05,5.4932333089017e-05,5.4932333089017e-05,3750183.2530952,0.015721560514876
36991759,0.94633437231609,0.015844003035537,0.0052741925253431,0.006149741214787,0.0044200692954067,-0.0012243890356322,0.0012243945175101,9.7928187005225e-09,-4.322057810336e-09,1.757531916224e-09,3.9538045503379e-09,-0.00047790958053429,0.00047790361869726,-0.0011280673334914,0.0011280799065209,-0.0011280720034068,0.0011280751782021,-0.00047789809489536,0.00047791522289326,-0.00047791185946304,0.000477901463846,-0.0011280696157665,0.0011280778312918,-0.0011280742918548,0.0011280731714095,-0.0014532429761734,0.001453252482998,-0.0014532476599425,0.0014532477466975,-0.0014532423794991,0.0014532530237431,-0.0014532471327448,0.0014532483455035,-0.0012579045373701,0.0012579245109367,-0.0012579184011801,0.0012579106907283,-0.0012579052869993,0.0012579238287105,-0.0012579191220449,0.0012579099890337,-0.00047789577391411,0.00047791749895372,2.6184974074663e-09,1.2344892648474e-10,2.7780895846819e-09,-1.2234934213511e-10,-0.0015921319680427,0.0015921346310642,-0.001556798652336,0.0015567993456419,-0.0016260395106904,0.0016260456389636,-0.0016260416999976,0.0016260429521127,-0.001534912674223,0.0015349170538963,-0.0015349136104168,0.0015349161064708,-0.0015349134513143,0.0015349161902562,-0.0015349143966064,0.0015349152344974,-0.0015567964755835,0.0015568011711775,-0.0015567994322163,0.0015567984074993,-0.0016260404843008,0.0016260447407112,-0.0016260426568055,0.0016260420375826,-0.0015567957215834,0.00155680211834,-7.9079948471534e-09,6.206463808166e-09,-0.00095068904308441,0.00095068733500945,-2.3972541773806e-09,6.0919087917817e-10,-0.00075697698715673,0.00075696439876426,-0.00069280133856475,0.0006928071762085,-0.00069280599051666,0.00069280249987986,-0.00075696613880446,0.00075697531656,-0.00075697992521102,0.00075696149825299,-0.00069280441570112,0.00069280432421612,-0.00069280900571422,0.0006927995208769,-0.0012188197900354,0.0012188123809532,-0.0012188188134486,0.0012188134972884,-0.0012188151244692,0.0012188171299701,-0.0012188140180368,0.0012188181031946,-0.0012269856243034,0.00122699869172,-0.0012269992942759,0.0012269847387747,-0.0012270003790868,0.0012269839334627,-0.0012269863549533,0.0012269975765014,-0.00075696326787791,0.00075697817308109,0.71099418178157,128566,2924,0.0050925318098291,0.0066098285715585,0.0039560767211309,36.972947775236,5.5783582201892e-05,5.5783582201892e-05,5.5783582201892e-05,3762656.2693454,0.015783923844713
37191759,0.94998345957031,0.015904719600571,0.0052943506161668,0.0061745386720333,0.0044358303123709,-0.0012294676819745,0.0012294729681302,9.7595999709349e-09,-4.4815218717301e-09,2.0811695155528e-09,3.4209979451552e-09,-0.00047938366642576,0.00047937652820366,-0.001132903774238,0.0011329153381684,-0.001132908490305,0.0011329105689569,-0.00047937120557761,0.00047938909949566,-0.00047938509337923,0.0004793752210904,-0.0011329052133791,0.0011329141125064,-0.0011329099342554,0.0011329094119483,-0.0014594064661736,0.0014594161045095,-0.001459411191336,0.0014594113261561,-0.0014594061458393,0.0014594163592316,-0.0014594109410453,0.0014594116378326,-0.0012633099013655,0.0012633295244052,-0.0012633238866946,0.0012633155760009,-0.0012633103685416,0.0012633291271267,-0.0012633243218387,0.0012633151622724,-0.00047936972937302,0.00047939053494156,2.2629861488559e-09,6.2571395186828e-10,2.8217361385449e-09,-3.2935799775101e-11,-0.0015991736605329,0.0015991764627882,-0.0015632540964395,0.0015632546758936,-0.0016332210611679,0.0016332264659921,-0.0016332224108739,0.0016332246438901,-0.001541817864569,0.0015418220901826,-0.0015418187855462,0.0015418211586581,-0.0015418183683458,0.0015418215149727,-0.0015418192993493,0.0015418205740787,-0.0015632516676623,0.001563256732308,-0.0015632545948147,0.0015632540259603,-0.0016332220130619,0.0016332255811807,-0.0016332233545387,0.0016332237412703,-0.0015632511938562,0.0015632573841105,-7.977428559584e-09,6.2624075277303e-09,-0.00095442100635587,0.00095441928371167,-2.3833980068435e-09,5.7569413398901e-10,-0.00076007736528474,0.00076006459106284,-0.00069564380045368,0.00069564960871846,-0.00069564849669649,0.00069564489235877,-0.00076006632878143,0.00076007565934945,-0.00076008024654694,0.00076006172062512,-0.00069564681569924,0.00069564678975017,-0.00069565145532941,0.00069564194816754,-0.0012238679865023,0.0012238605370805,-0.0012238670263807,0.0012238616395683,-0.001223863279007,0.0012238653284939,-0.0012238621880109,0.0012238662854212,-0.0012320835984841,0.001232096762476,-0.0012320974005899,0.0012320826988789,-0.0012320984658846,0.0012320818990131,-0.0012320843226345,0.0012320956694961,-0.00076006351783312,0.00076007847779745,0.75399384189905,128566,2924,0.0051136205500438,0.006638948519377,0.003971595801313,37.297020564522,5.8376164516174e-05,5.8376164516174e-05,5.8376164516174e-05,3766488.6634693,0.015850709479018
37391759,0.9534508133223,0.015959959392494,0.0053127523175449,0.0061970940720533,0.0044501130028962,-0.0012341309907687,0.0012341362073214,9.7879791852782e-09,-4.5780322888149e-09,2.1954375510663e-09,3.2324074859348e-09,-0.00047992490284264,0.00047991726986585,-0.0011370790179655,0.0011370902523039,-0.0011370837802575,0.0011370854439028,-0.0004799120122654,0.00047993025867067,-0.00047992602660868,0.00047991625640755,-0.0011370801549956,0.0011370893261405,-0.0011370849235386,0.001137084583941,-0.0014652421291607,0.0014652518405235,-0.001465246895265,0.0014652470199756,-0.0014652419058793,0.0014652519934083,-0.001465246742092,0.0014652472295862,-0.0012683195659526,0.0012683391459939,-0.0012683336676687,0.0012683250690516,-0.0012683199342032,0.0012683388441508,-0.0012683340048162,0.0012683247545689,-0.00047991083908891,0.00047993139920381,2.14093147766e-09,8.079710039228e-10,2.8296938395015e-09,9.1995715476394e-12,-0.0016059197415536,0.0016059226016312,-0.001569471331832,0.0015694718853881,-0.001640254558334,0.0016402597056808,-0.0016402556043885,0.0016402581910721,-0.0015483158512383,0.0015483200287583,-0.0015483167613161,0.001548319109481,-0.0015483162575985,0.0015483195569508,-0.0015483171776449,0.0015483186277667,-0.0015694688186391,0.0015694739908958,-0.0015694717311097,0.0015694713352708,-0.0016402554905311,0.001640258827571,-0.0016402565376407,0.0016402572959159,-0.0015694684380519,0.0015694745341036,-8.0447576967914e-09,6.3215556178777e-09,-0.00095770290976042,0.00095770117689066,-2.3769897026964e-09,5.5284704028292e-10,-0.00076230722342712,0.00076229428212295,-0.00069778897617309,0.00069779477570701,-0.00069779371800862,0.00069779001702956,-0.00076229601573609,0.00076230548201864,-0.00076231006104671,0.00076229142667701,-0.00069779194549796,0.0006977919679273,-0.00069779663450076,0.00069778708808561,-0.0012286727623344,0.0012286652711141,-0.0012286718129103,0.0012286663654962,-0.0012286680137703,0.0012286701059197,-0.0012286669309772,0.0012286710523374,-0.0012367592691722,0.001236772543902,-0.0012367732035811,0.0012367583656839,-0.0012367742547935,0.0012367575665943,-0.0012367599950345,0.001236771466608,-0.00076229324668306,0.00076230828908029,0.72209467463598,128566,2924,0.0051329945653727,0.0066668415120899,0.0039852502371851,37.626956634181,6.1015653073446e-05,6.1015653073446e-05,6.1015653073446e-05,3761063.2868218,0.015912622491
37591759,0.95674022625755,0.016010292728496,0.0053295828414133,0.0062176183001778,0.0044630915869054,-0.001238520321886,0.0012385255321215,9.8480147477918e-09,-4.6437655357093e-09,2.1806444981898e-09,3.2400092047664e-09,-0.0004808281717817,0.00048082043065561,-0.0011408877042233,0.0011408989948616,-0.0011408925091681,0.0011408941452084,-0.00048081518100387,0.00048083352058612,-0.00048082931721415,0.00048081939531902,-0.0011408888633111,0.0011408980472499,-0.0011408936736851,0.0011408932633734,-0.0014707129039802,0.0014707226429922,-0.0014707177121513,0.0014707177805879,-0.0014707126724253,0.0014707228041614,-0.0014707175504516,0.0014707179980805,-0.0012729202670189,0.0012729399810459,-0.0012729344887213,0.0012729257770026,-0.0012729206472311,0.0012729396593576,-0.0012729348434004,0.0012729254490694,-0.00048081398482942,0.00048083468373131,2.1617760920478e-09,8.060511554552e-10,2.8294248574246e-09,2.7228396073543e-11,-0.0016121045725506,0.0016121074509818,-0.001575083104299,0.0015750836989376,-0.0016466604026793,0.0016466655840582,-0.0016466614711451,0.0016466640497826,-0.0015543992637419,0.0015544034613838,-0.0015544001679314,0.0015544025483986,-0.0015543996774875,0.001554402982388,-0.0015544005917141,0.0015544020593815,-0.0015750806132719,0.0015750857782115,-0.0015750835088787,0.0015750831409846,-0.0016466613283981,0.0016466647110705,-0.0016466623988042,0.0016466631595936,-0.0015750802270583,0.0015750863285085,-8.1100958306864e-09,6.3821340592038e-09,-0.0009608419074628,0.00096084016942893,-2.3707194329887e-09,5.4086456943201e-10,-0.00076450812595731,0.0007644950394059,-0.00069984872343583,0.00069985454052869,-0.00069985350726049,0.00069984974049308,-0.00076449677594433,0.00076450637821953,-0.00076451094547664,0.00076449220073332,-0.00069985167354056,0.00069985174989106,-0.0006998564051595,0.00069984682854222,-0.0012331743555342,0.0012331668227856,-0.0012331734132986,0.0012331679132093,-0.0012331695665913,0.0012331717013411,-0.0012331684878936,0.001233172640445,-0.0012410258079803,0.0012410392018127,-0.0012410398847403,0.0012410249198957,-0.0012410409202364,0.0012410241026285,-0.0012410265553182,0.0012410381446132,-0.00076449402590681,0.00076450916768294,0.69345404028038,128566,2924,0.0051512241031107,0.0066924146537074,0.003998307111883,37.957135648521,6.3657085188172e-05,6.3657085188172e-05,6.3657085188172e-05,3764056.3105125,0.015970408887954
37791759,0.9597834576638,0.01605525000352,0.0053446622908234,0.0062359293713925,0.004474658341304,-0.0012417412700421,0.0012417466923993,1.0015694754533e-08,-4.6014533793755e-09,1.8064492941552e-09,3.8412212344457e-09,-0.00048129492268425,0.0004812882338337,-0.0011434859848654,0.0011434985101891,-0.0011434908439892,0.001143493621715,-0.00048128275335741,0.00048130046976643,-0.00048129701644569,0.00048128622607115,-0.001143488094493,0.0011434965878055,-0.0011434929579946,0.0011434917642578,-0.0014748881689073,0.0014748978344867,-0.0014748930168995,0.001474892930351,-0.00147488761808,0.0014748983226475,-0.0014748925368929,0.0014748934722215,-0.0012762221427983,0.0012762425195018,-0.0012762364764219,0.001276228177749,-0.0012762228509741,0.001276241854402,-0.0012762371574702,0.0012762275189387,-0.00048128059567959,0.00048130261650069,2.5783054234215e-09,2.3808944847196e-10,2.7636266731022e-09,-6.3570058096009e-11,-0.0016167648771945,0.0016167676139729,-0.0015791859673665,0.0015791866980149,-0.0016514480415565,0.0016514540467473,-0.001651450047799,0.0016514515283655,-0.0015590965581332,0.0015591009558053,-0.0015590974698289,0.0015591000367859,-0.0015590972828433,0.0015591001509792,-0.0015590982059017,0.0015590992193377,-0.0015791837432574,0.0015791884262696,-0.0015791867048078,0.0015791857981638,-0.0016514489553272,0.0016514531569696,-0.0016514509872978,0.0016514506183973,-0.0015791830162787,0.0015791892949868,-8.1678298629661e-09,6.4498182084774e-09,-0.00096302483483671,0.00096302310277308,-2.3899124467206e-09,5.5408233090778e-10,-0.00076595955213758,0.00076594637952755,-0.00070104892207885,0.00070105479213159,-0.00070105375070108,0.00070104994946366,-0.00076594808444614,0.00076595777641558,-0.00076596238558258,0.00076594347815033,-0.00070105186868828,0.00070105193770603,-0.00070105665396573,0.00070104697452025,-0.0012364663013202,0.0012364587231415,-0.0012364653475643,0.0012364598256577,-0.001236461472038,0.00123646364659,-0.0012364603803904,0.0012364645938764,-0.0012440151216933,0.0012440286663027,-0.0012440293252762,0.0012440142712046,-0.0012440303695931,0.0012440134292745,-0.0012440158977603,0.00124402761035,-0.00076594533699826,0.000765960629678,0.66961884086493,128566,2924,0.0051645997266393,0.0067116836649671,0.0040073901807422,37.836188161518,6.2689505292141e-05,6.2689505292141e-05,6.2689505292141e-05,3767876.0452424,0.016012819201458
37991759,0.96258172415531,0.016097826645626,0.0053588974174698,0.0062532792490387,0.0044856499791171,-0.0012445484525062,0.0012445540709456,1.0175142523439e-08,-4.5675712061144e-09,1.4813511997377e-09,4.3750464203644e-09,-0.00048193715430938,0.00048193141426673,-0.0011458621478028,0.001145875761739,-0.001145867040565,0.0011458708347636,-0.00048192572129716,0.00048194291683205,-0.000481940113847,0.0004819285385155,-0.0011458650985345,0.0011458729925214,-0.0011458700022002,0.0011458681236493,-0.0014784987362065,0.0014785083520626,-0.0014785036292821,0.0014785034058578,-0.0014784979078813,0.0014785091299185,-0.0014785028666981,0.001478504238351,-0.0012790874099612,0.0012791083913687,-0.0012791018640047,0.0012790939320374,-0.0012790884034482,0.00127910743334,-0.0012791028454044,0.0012790929757917,-0.00048192272831478,0.00048194590467889,2.9475094204928e-09,-2.5694931478658e-10,2.7300388477754e-09,-1.4047343751526e-10,-0.0016207820109394,0.0016207846287753,-0.0015826806012714,0.0015826814685725,-0.0016554936217586,0.0016555003741058,-0.001655496474904,0.0016554969873138,-0.0015632085604905,0.0015632131330185,-0.0015632094872617,0.0015632121970602,-0.0015632095614475,0.0015632120373829,-0.0015632104969653,0.0015632110922612,-0.0015826786362685,0.0015826829685554,-0.0015826816167028,0.0015826802852595,-0.0016554945620255,0.0016554994693858,-0.001655497424742,0.0016554960718718,-0.0015826776290339,0.0015826841402068,-8.225726192459e-09,6.5182305299691e-09,-0.00096495583828976,0.00096495411822631,-2.3970995512045e-09,5.7984236938827e-10,-0.00076748490931486,0.00076747164860445,-0.00070224202145713,0.00070224799454682,-0.00070224689058009,0.0007022431029038,-0.00076747336747183,0.00076748315621879,-0.00076748777801373,0.00076746874185777,-0.00070224502099278,0.00070224512043426,-0.00070224983775877,0.00070224011670868,-0.0012392514889041,0.0012392438690209,-0.0012392505255938,0.0012392449822483,-0.0012392466207006,0.0012392488349015,-0.0012392455148429,0.0012392497934705,-0.0012466220997825,0.0012466357959157,-0.0012466364393821,0.0012466212806003,-0.0012466374853861,0.0012466204160459,-0.0012466229065469,0.0012466347312598,-0.00076747056631463,0.00076748604359458,0.68978257992618,128566,2924,0.0051762527848988,0.0067282946739249,0.0040154229010903,37.594089260557,6.0752714084453e-05,6.0752714084453e-05,6.0752714084453e-05,3774133.980903,0.016049707968107
38191759,0.96515601047769,0.016137341362688,0.0053720900007782,0.006269388828297,0.0044958625336124,-0.001247070888101,0.0012470766196681,1.0293832003381e-08,-4.5749596932541e-09,1.325004861511e-09,4.6518285509192e-09,-0.00048220176708907,0.00048219644275076,-0.0011479939180126,0.0011480081204165,-0.0011479988511943,0.0011480031468977,-0.00048219064673406,0.00048220764319848,-0.00048220515424149,0.00048219315158918,-0.0011479972981583,0.0011480049204803,-0.0011480022363393,0.0011480000121255,-0.00148179796501,0.0014818075890709,-0.0014818029004156,0.0014818026024494,-0.0014817969948326,0.0014818085138562,-0.0014818019970674,0.0014818035801131,-0.0012817208894591,0.0012817422578629,-0.0012817354713764,0.001281727673804,-0.0012817220324216,0.0012817411447168,-0.0012817366027328,0.0012817265711055,-0.00048218721158614,0.00048221106574467,3.1315969021584e-09,-5.1098996948954e-10,2.713937954529e-09,-1.8405860125372e-10,-0.001624528496386,0.001624531048169,-0.001585982926726,0.0015859838641711,-0.0016593205167049,0.0016593276381617,-0.0016593237936935,0.0016593238183114,-0.0015669658960924,0.0015669705491314,-0.0015669668305528,0.0015669696041432,-0.0015669670342247,0.0015669693078689,-0.0015669679790338,0.0015669683522838,-0.0015859810943548,0.0015859852576102,-0.0015859840881648,0.0015859825300063,-0.001659321469807,0.0016593267299914,-0.0016593247536301,0.0016593228924369,-0.0015859799493007,0.00158598658054,-8.2844996149418e-09,6.5851639663015e-09,-0.00096663667784171,0.00096663496768671,-2.4047967832377e-09,6.0284590403302e-10,-0.0007686912300294,0.00076867790211014,-0.00070320776937092,0.00070321383070752,-0.0007032126736298,0.00070320890003221,-0.00076867961852415,0.00076868952196482,-0.00076869415258265,0.00076867497052054,-0.00070321080981557,0.00070321094333612,-0.00070321566429202,0.00070320589209712,-0.001241791854195,0.0012417841891628,-0.0012417908798771,0.0012417853146913,-0.0012417869444076,0.0012417891990248,-0.0012417858274826,0.0012417901664449,-0.0012490175886703,0.0012490314252064,-0.0012490320556874,0.0012490167956789,-0.0012490331108259,0.0012490159071992,-0.0012490184157865,0.0012490303588618,-0.00076867678126428,0.00076869241405298,0.69607506679905,128566,2924,0.0051867281729168,0.0067437850699695,0.0040224176672958,37.348643421015,5.8789147368117e-05,5.8789147368117e-05,5.8789147368117e-05,3774196.7063165,0.016083209597386
38391759,0.96753768498526,0.016175624284998,0.0053848137895643,0.0062850177382606,0.004505792757173,-0.0012496238016108,0.0012496295162533,1.034810692026e-08,-4.6464233845874e-09,1.3822466499313e-09,4.5760957719447e-09,-0.00048256094889765,0.00048255535621632,-0.0011503215006038,0.001150335592092,-0.0011503264704823,0.0011503305748056,-0.00048254958490448,0.00048256681459211,-0.00048256421368349,0.00048255220149605,-0.0011503247543093,0.0011503325283074,-0.0011503297278892,0.0011503275784589,-0.0014850503853374,0.0014850600758208,-0.0014850553647327,0.0014850550486435,-0.0014850494578471,0.0014850609601109,-0.0014850545018537,0.0014850559845408,-0.0012844426491652,0.0012844640784661,-0.001284457359892,0.001284449376966,-0.0012844437471919,0.0012844630147153,-0.0012844584464614,0.0012844483199725,-0.00048254627579046,0.0004825701016219,3.078230917982e-09,-4.3228538968396e-10,2.7337763500679e-09,-1.7334703301419e-10,-0.001628285555328,0.0016282881303684,-0.0015893387659961,0.0015893396862259,-0.0016631488212659,0.0016631558399165,-0.0016631519730716,0.001663152156597,-0.0015706922322316,0.001570696861476,-0.0015706931694743,0.0015706959118735,-0.0015706933276246,0.0015706956640948,-0.0015706942749936,0.0015706947046897,-0.001589336896035,0.0015893411545381,-0.0015893398805099,0.001589338399808,-0.0016631497865952,0.0016631549324275,-0.0016631529340629,0.0016631512308346,-0.0015893358023902,0.0015893424383801,-8.3470343461094e-09,6.6487681539064e-09,-0.0009683795385081,0.00096837783163805,-2.4044667372753e-09,6.1197819308922e-10,-0.00077004014139969,0.0007700267069165,-0.00070437259517974,0.00070437872157456,-0.0007043775380755,0.00070437374983717,-0.00077002843459985,0.00077003846050921,-0.00077004308607027,0.00077002378039382,-0.00070437566023394,0.00070437584179218,-0.00070438055019325,0.00070437074667065,-0.0012443423782477,0.0012443346694816,-0.0012443414014869,0.001244335798994,-0.0012443374270094,0.001244339721887,-0.0012443363063096,0.0012443406920497,-0.0012515285844531,0.0012515425482299,-0.0012515431808933,0.0012515278004563,-0.0012515442364828,0.0012515269017515,-0.001251529421822,0.001251541482736,-0.00077002557229819,0.00077004134142378,0.72889799747214,128566,2924,0.0051973305127355,0.0067593185647376,0.0040296695623902,37.197824624896,5.7582596999169e-05,5.7582596999169e-05,5.7582596999169e-05,3772634.2565149,0.016117145803608
38591759,0.96975900389209,0.016211922339701,0.0053968567400856,0.0062998486747128,0.0045152169249026,-0.0012522356719252,0.0012522412747558,1.0355513630726e-08,-4.7644110032643e-09,1.5944390317762e-09,4.244575810652e-09,-0.00048260117849839,0.00048259481009436,-0.0011527216892227,0.0011527351675015,-0.0011527267021251,0.0011527301091737,-0.00048258915256732,0.00048260692723255,-0.00048260390595819,0.00048259219071635,-0.0011527244058735,0.0011527326436831,-0.0011527294223193,0.0011527276512226,-0.0014883854288991,0.0014883952281819,-0.0014883904507477,0.0014883901598088,-0.0014883846762509,0.0014883959332234,-0.0014883897613714,0.0014883909151647,-0.001287309338644,0.001287330606403,-0.0012873241696932,0.0012873157793155,-0.0012873102599435,0.00128732971661,-0.0012873250831844,0.0012873149006672,-0.00048258638110868,0.00048260967855668,2.8474351891037e-09,-1.158789315076e-10,2.7665030475838e-09,-1.2673117174381e-10,-0.0016322322573531,0.0016322349142817,-0.0015929476435193,0.0015929484739639,-0.00166725585477,0.0016672624083115,-0.0016672584687861,0.0016672592762273,-0.0015744858555621,0.0015744903839569,-0.0015744867882677,0.001574489439025,-0.0015744867758871,0.0015744893700468,-0.0015744877186631,0.0015744884150813,-0.0015929456046999,0.0015929501092804,-0.001592948578582,0.0015929473705943,-0.0016672568139769,0.0016672615039105,-0.0016672594263839,0.0016672583534726,-0.0015929446887722,0.0015929512076276,-8.4119895526141e-09,6.7098195176416e-09,-0.00097013907605255,0.00097013736517147,-2.4033270144901e-09,6.0554254711199e-10,-0.0007712185344626,0.0007712049646558,-0.00070550663315821,0.00070551278785119,-0.00070551161866558,0.00070550777453633,-0.00077120669135523,0.00077121684117344,-0.00077122146548338,0.00077120203939326,-0.00070550968557681,0.00070550991049487,-0.00070551461933438,0.00070550477509224,-0.0012470250738887,0.00124701732133,-0.0012470241005774,0.0012470184498262,-0.0012470200812279,0.0012470224164189,-0.001247018962036,0.0012470233836593,-0.0012541866556669,0.0012542007404861,-0.0012542013874465,0.0012541858815657,-0.0012542024342423,0.0012541849715656,-0.0012541875057311,0.0012541996851994,-0.00077120383876937,0.00077121971817999,0.74096371148248,128566,2924,0.005208183651778,0.0067756338213797,0.0040369934858168,37.193783426526,5.7550267412206e-05,5.7550267412206e-05,5.7550267412206e-05,3764670.3455799,0.016152209125308
38791759,0.97183083261903,0.016245876162886,0.0054081196815387,0.0063137226498304,0.0045240338315174,-0.0012546630620295,0.0012546685705158,1.0371867962818e-08,-4.8738351795484e-09,1.7748457100348e-09,3.963458033813e-09,-0.00048243891989859,0.00048243187549945,-0.0011549340212129,0.0011549469858775,-0.0011549390786147,0.0011549418876471,-0.00048242631255906,0.00048244456854357,-0.00048244119116691,0.00048242970960876,-0.0011549362818952,0.0011549449216084,-0.001154941342855,0.0011549398869938,-0.0014915115871882,0.0014915214879277,-0.0014915166505597,0.0014915163771775,-0.001491510983884,0.0014915220381394,-0.0014915161107413,0.0014915169777789,-0.0012899999730269,0.0012900211241267,-0.0012900149228166,0.0012900061692828,-0.0012900007440825,0.0012900203793163,-0.0012900156898067,0.0012900054404991,-0.00048242399739877,0.00048244686699965,2.654634759848e-09,1.518308543775e-10,2.7949741530464e-09,-8.8443294353362e-11,-0.0016359838690786,0.0016359865970158,-0.0015963957940692,0.0015963965433059,-0.0016711932630253,0.0016711994276748,-0.0016711954213828,0.0016711967600977,-0.001578055185173,0.0015780596326184,-0.0015780561148086,0.0015780586909741,-0.0015780559579957,0.0015780587735709,-0.0015780568977728,0.0015780578216859,-0.0015963936050473,0.0015963983139063,-0.0015963965787008,0.0015963955936509,-0.0016711942154357,0.0016711985232321,-0.0016711963772653,0.0016711958383017,-0.0015963928369015,0.0015963992550236,-8.4774585248767e-09,6.769831774187e-09,-0.00097172977260175,0.00097172805539478,-2.4014483932153e-09,5.9419948545734e-10,-0.00077216361629456,0.00077214990096711,-0.00070646669895338,0.00070647287007876,-0.0007064717278664,0.00070646781447706,-0.00077215162534243,0.00077216190101385,-0.00077216652511786,0.00077214698083839,-0.00070646972846955,0.00070646999589049,-0.00070647470850719,0.00070646482150481,-0.0012495514413907,0.0012495436451932,-0.0012495504736872,0.0012495447714208,-0.0012495464081155,0.001249548783344,-0.0012495452915505,0.0012495497453742,-0.0012566772153663,0.0012566914175199,-0.0012566920798516,0.0012566764458938,-0.0012566931175153,0.0012566755293418,-0.0012566780744795,0.0012566903733776,-0.00077214879262956,0.00077216477482533,0.74287813706202,128566,2924,0.0052182731633257,0.0067911408734161,0.0040436170477529,37.193616152442,5.7548929219537e-05,5.7548929219537e-05,5.7548929219537e-05,3754352.6179991,0.016184965343975
38880000,0.97271668326582,0.016260416012337,0.0054129429442459,0.0063196618889595,0.0045278111791317,-0.001255687426702,0.0012556929172711,1.0390868218506e-08,-4.9101890283604e-09,1.8163126109259e-09,3.9026066758979e-09,-0.00048228668016047,0.00048227946161355,-0.0011558693170109,0.0011558821798135,-0.0011558743928741,0.00115587706328,-0.0004822739181107,0.00048229231184616,-0.00048228885032981,0.00048227739862704,-0.0011558714767767,0.0011558802169226,-0.0011558765564062,0.0011558751639815,-0.0014928510725132,0.0014928610088357,-0.0014928561540356,0.0014928558792641,-0.0014928505027666,0.001492861523459,-0.0014928556483718,0.0014928564448738,-0.0012911448969209,0.0012911660513493,-0.0012911599004,0.0012911510416334,-0.0012911456339352,0.0012911653400974,-0.0012911606337868,0.0012911503469047,-0.00048227170312683,0.00048229450774317,2.6122005630659e-09,2.1219195174035e-10,2.8019877229043e-09,-7.881610057517e-11,-0.0016376126665184,0.0016376154113653,-0.0015978665643653,0.0015978672979926,-0.0016729065243206,0.0016729126040404,-0.0016729085834024,0.0016729100392198,-0.0015796099719318,0.0015796144021402,-0.0015796109006956,0.0015796134614681,-0.0015796107122881,0.0015796135776136,-0.001579611651183,0.0015796126266752,-0.0015978643428964,0.001597869098724,-0.0015978673151117,0.0015978663822753,-0.0016729074752653,0.0016729117005468,-0.001672909538176,0.0016729091184551,-0.0015978636083182,0.0015978700056548,-8.5063322259816e-09,6.7965108558101e-09,-0.00097236748012727,0.00097236576049785,-2.4017597463066e-09,5.9174422037761e-10,-0.00077248773454696,0.00077247395974959,-0.00070683299395745,0.00070683917847275,-0.00070683804161802,0.00070683410466531,-0.00077247568577548,0.0007724860150513,-0.000772490640633,0.0007724710417483,-0.00070683601987198,0.00070683630473469,-0.00070684101970123,0.0007068311131811,-0.0012506347248902,0.0012506269083868,-0.0012506337582695,0.001250628034774,-0.0012506296735585,0.0012506320655349,-0.0012506285569794,0.0012506330266321,-0.0012577316186904,0.001257745871869,-0.0012577465366408,0.0012577308449692,-0.0012577475742633,0.0012577299308397,-0.0012577324749776,0.0012577448273727,-0.00077247285561521,0.00077248888719712,0.74369371308557,128566,2924,0.0052225321953148,0.0067978719944266,0.0040462742675334,37.193609174713,5.7548873397701e-05,5.7548873397701e-05,5.7548873397701e-05,3748491.2417273,0.016198840681823
