time,ASR_ext,ASR_strain,ASR_strain_xx,ASR_strain_yy,ASR_strain_zz,disp_x_101,disp_x_102,disp_x_103,disp_x_104,disp_x_105,disp_x_106,disp_x_p10_neg,disp_x_p10_pos,disp_x_p11_neg,disp_x_p11_pos,disp_x_p12_neg,disp_x_p12_pos,disp_x_p13_neg,disp_x_p13_pos,disp_x_p14_neg,disp_x_p14_pos,disp_x_p15_neg,disp_x_p15_pos,disp_x_p16_neg,disp_x_p16_pos,disp_x_p1_neg,disp_x_p1_pos,disp_x_p2_neg,disp_x_p2_pos,disp_x_p3_neg,disp_x_p3_pos,disp_x_p4_neg,disp_x_p4_pos,disp_x_p5_neg,disp_x_p5_pos,disp_x_p6_neg,disp_x_p6_pos,disp_x_p7_neg,disp_x_p7_pos,disp_x_p8_neg,disp_x_p8_pos,disp_x_p9_neg,disp_x_p9_pos,disp_y_101,disp_y_102,disp_y_103,disp_y_104,disp_y_105,disp_y_106,disp_y_p10_neg,disp_y_p10_pos,disp_y_p11_neg,disp_y_p11_pos,disp_y_p12_neg,disp_y_p12_pos,disp_y_p1_neg,disp_y_p1_pos,disp_y_p2_neg,disp_y_p2_pos,disp_y_p3_neg,disp_y_p3_pos,disp_y_p4_neg,disp_y_p4_pos,disp_y_p5_neg,disp_y_p5_pos,disp_y_p6_neg,disp_y_p6_pos,disp_y_p7_neg,disp_y_p7_pos,disp_y_p8_neg,disp_y_p8_pos,disp_y_p9_neg,disp_y_p9_pos,disp_z_101,disp_z_102,disp_z_103,disp_z_104,disp_z_105,disp_z_106,disp_z_p10_neg,disp_z_p10_pos,disp_z_p11_neg,disp_z_p11_pos,disp_z_p12_neg,disp_z_p12_pos,disp_z_p13_neg,disp_z_p13_pos,disp_z_p14_neg,disp_z_p14_pos,disp_z_p15_neg,disp_z_p15_pos,disp_z_p16_neg,disp_z_p16_pos,disp_z_p1_neg,disp_z_p1_pos,disp_z_p2_neg,disp_z_p2_pos,disp_z_p3_neg,disp_z_p3_pos,disp_z_p4_neg,disp_z_p4_pos,disp_z_p5_neg,disp_z_p5_pos,disp_z_p6_neg,disp_z_p6_pos,disp_z_p7_neg,disp_z_p7_pos,disp_z_p8_neg,disp_z_p8_pos,disp_z_p9_neg,disp_z_p9_pos,humidity,ndof,nelem,strain_xx,strain_yy,strain_zz,temp,thermal_strain_xx,thermal_strain_yy,thermal_strain_zz,vonmises,vstrain
14391759,0,0,0,0,0,0,0,0,0,0,0,0,0,0,0,0,0,0,0,0,0,0,0,0,0,0,0,0,0,0,0,0,0,0,0,0,0,0,0,0,0,0,0,0,0,0,0,0,0,0,0,0,0,0,0,0,0,0,0,0,0,0,0,0,0,0,0,0,0,0,0,0,0,0,0,0,0,0,0,0,0,0,0,0,0,0,0,0,0,0,0,0,0,0,0,0,0,0,0,0,0,0,0,0,0,0,0,0,0,0,0,0,0,0,0,0,0,0,0,0,0,0,0
14591759,0.019294429581605,0.00033922833167347,0.00011307611055782,0.00011307611055782,0.00011307611055782,-2.8791951537866e-05,2.8791625325359e-05,-1.3624357454258e-10,-1.8820234414132e-10,5.0972023317066e-10,-8.5583570436644e-10,-2.5545986375917e-05,2.5544243616897e-05,-2.8202263361873e-05,2.820059365645e-05,-2.8202298946281e-05,2.8200594614555e-05,-2.554461459964e-05,2.554570230897e-05,-2.5544572751434e-05,2.5545553538445e-05,-2.8200961457273e-05,2.8201989619743e-05,-2.8200937487627e-05,2.8201929401006e-05,-2.9975485312025e-05,2.9975627865425e-05,-2.9975480432833e-05,2.9975588120798e-05,-2.9975908328968e-05,2.9975159027409e-05,-2.9975929176345e-05,2.9975145565673e-05,-2.7716916532236e-05,2.7716188226125e-05,-2.7716954377233e-05,2.7716124891469e-05,-2.7716491713213e-05,2.7716674183219e-05,-2.7716472642895e-05,2.7716552188912e-05,-2.5545912108574e-05,2.5544268701686e-05,-4.4665157391995e-10,9.2108040410626e-10,-6.8296243772575e-09,7.2814395805227e-09,-3.026433754608e-05,3.0264792408176e-05,-2.9469710357806e-05,2.948354658747e-05,-2.9175820727516e-05,2.9170261991579e-05,-2.9174489206552e-05,2.9171629693493e-05,-3.0670796251005e-05,3.0666168163297e-05,-3.0666265211284e-05,3.0670901079177e-05,-3.0670362073087e-05,3.0666624867426e-05,-3.0665830680949e-05,3.0671357909825e-05,-2.9482926957755e-05,2.9469987177649e-05,-2.9469260625305e-05,2.9484008143168e-05,-2.9171174382716e-05,2.9174973701138e-05,-2.9169841550872e-05,2.9176342857746e-05,-2.9483374443305e-05,2.9469525965428e-05,-2.3438630585139e-09,-2.2870385737646e-09,-2.8891770548037e-05,2.8887111022951e-05,4.5503790566277e-09,-9.4033214953134e-09,-2.6970990058822e-05,2.6952362306583e-05,-2.7315373785367e-05,2.7296845532695e-05,-2.7315395083773e-05,2.7296828337859e-05,-2.6957082846498e-05,2.6966259522637e-05,-2.6957135868378e-05,2.6966206461578e-05,-2.7301626184419e-05,2.7310578704025e-05,-2.730164724712e-05,2.7310563044929e-05,-2.9979522973886e-05,2.9979526979604e-05,-2.9984153785128e-05,2.9974898425085e-05,-2.9979502996226e-05,2.9979545094511e-05,-2.9984133693897e-05,2.9974916487265e-05,-2.8779053637612e-05,2.8769833946666e-05,-2.8779107638128e-05,2.87697758352e-05,-2.8774434515817e-05,2.8774446849105e-05,-2.8774382380689e-05,2.8774504352854e-05,-2.6970934532014e-05,2.6952420808983e-05,0.7064200369714,129487,2954,0.00011995852723983,0.00012609429893687,0.00012036533879305,31.359813364457,1.0878506915655e-05,1.0878506915655e-05,1.0878506915655e-05,602917.52158229,0.0003664856863718
14791759,0.038373754618886,0.00066456187852,0.00022056410786654,0.00022339953118029,0.00022059823947317,-5.3135475974306e-05,5.3135893377866e-05,1.8901661581368e-10,2.237245102071e-10,-7.6324552515253e-10,1.2078925023143e-09,-4.5629095862914e-05,4.5631502820161e-05,-5.1635237219029e-05,5.1637618499713e-05,-5.1635211047685e-05,5.1637603006525e-05,-4.5631053088318e-05,4.5629458116373e-05,-4.5631088381238e-05,4.5629600896137e-05,-5.1637137841406e-05,5.1635611647397e-05,-5.1637162747469e-05,5.1635671848143e-05,-5.6549803716531e-05,5.6549556033793e-05,-5.6549814905086e-05,5.6549594772765e-05,-5.6549185499868e-05,5.6550230069777e-05,-5.654917103471e-05,5.6550234927509e-05,-5.0466671850463e-05,5.0467708476054e-05,-5.0466654144868e-05,5.0467746518237e-05,-5.0467298815452e-05,5.0467011132949e-05,-5.0467328636168e-05,5.0467121709115e-05,-4.5629138966596e-05,4.5631519917292e-05,6.9071597040454e-10,-1.2726465010083e-09,7.9421478911461e-09,-8.4975885302414e-09,-5.658696757937e-05,5.6586408503992e-05,-5.4571115626037e-05,5.4555087818954e-05,-5.388386880844e-05,5.3890678194369e-05,-5.3885776077463e-05,5.3888719334914e-05,-5.8352047409181e-05,5.8357531401209e-05,-5.8357339572141e-05,5.8352029502786e-05,-5.8352672736714e-05,5.835687887825e-05,-5.835796899049e-05,5.835137289915e-05,-5.4555807253428e-05,5.4570741538341e-05,-5.4571771035367e-05,5.4554425329521e-05,-5.3889276288603e-05,5.3885195669048e-05,-5.3891195953347e-05,5.388322476916e-05,-5.4555163702697e-05,5.4571391139364e-05,2.0372544230479e-09,2.0038114239137e-09,-5.3322694735262e-05,5.3326767656359e-05,-6.0395122717563e-09,1.0302380853741e-08,-4.8453262849945e-05,4.847365179014e-05,-4.9517787294978e-05,4.9538075755193e-05,-4.951776871954e-05,4.9538092349747e-05,-4.8469515937413e-05,4.8457416791443e-05,-4.8469497519059e-05,4.8457424213377e-05,-4.9533887354036e-05,4.9521984198422e-05,-4.9533880540427e-05,4.9521987880851e-05,-5.6594838610012e-05,5.659345347862e-05,-5.658941253275e-05,5.6598878106607e-05,-5.6594849922284e-05,5.6593447107234e-05,-5.6589427588718e-05,5.6598867044352e-05,-5.2878710235477e-05,5.2888155420757e-05,-5.2878662416309e-05,5.2888185187065e-05,-5.2884135612887e-05,5.2882715043906e-05,-5.2884170806393e-05,5.2882697350967e-05,-4.8453322953586e-05,4.8473604867941e-05,0.70581019239711,129487,2954,0.00022137382202108,0.00023574945824212,0.00022216123050424,31.087118475558,8.6969478044679e-06,8.6969478044679e-06,8.6969478044679e-06,1215489.169122,0.00067951762425569
14991759,0.056238094769584,0.00096005803228565,0.00031749400795359,0.00032492423050333,0.00031763979382873,-7.3974249165683e-05,7.3974804472299e-05,2.135929421065e-10,3.3850666274352e-10,-1.1341478200387e-09,1.7317850507032e-09,-6.1592307472401e-05,6.1595834720109e-05,-7.0960024161245e-05,7.0963408373917e-05,-7.0959950190856e-05,7.0963405398794e-05,-6.1595198388637e-05,6.15927832206e-05,-6.159525209012e-05,6.1593116879884e-05,-7.0962776553187e-05,7.0960485219399e-05,-7.0962805300209e-05,7.096060908176e-05,-8.0034269512493e-05,8.0033837540614e-05,-8.0034278034772e-05,8.0033933681711e-05,-8.0033395357102e-05,8.0034827668751e-05,-8.0033338439042e-05,8.0034850157958e-05,-6.9918780030143e-05,6.9920163150893e-05,-6.9918645344824e-05,6.9920261436182e-05,-6.9919660294076e-05,6.9919123436183e-05,-6.9919660900038e-05,6.9919380584084e-05,-6.1592480820132e-05,6.1595800536098e-05,9.8485606499512e-10,-1.8776215577352e-09,1.9155933014872e-08,-2.0014636589098e-08,-8.0314458514601e-05,8.0313597210367e-05,-7.7776017641727e-05,7.7737682981278e-05,-7.6998680034415e-05,7.701362579518e-05,-7.7001463484497e-05,7.7010762573815e-05,-8.2765363616751e-05,8.2778271891362e-05,-8.277789966046e-05,8.2765141985392e-05,-8.2766264864955e-05,8.2777320926988e-05,-8.2778805280033e-05,8.2764186608278e-05,-7.7739001816373e-05,7.7775640002541e-05,-7.7776969047443e-05,7.7736716969214e-05,-7.7011576175006e-05,7.7000527147536e-05,-7.7014371776877e-05,7.6997652345472e-05,-7.7738062137452e-05,7.7776593195992e-05,5.8542751933875e-09,5.7342773892886e-09,-7.4383587580437e-05,7.4395231493994e-05,-1.3355661992427e-08,2.5503107395509e-08,-6.6404503891814e-05,6.6454965918045e-05,-6.7459907343808e-05,6.7510135674734e-05,-6.7459858693528e-05,6.7510179799114e-05,-6.6443120853466e-05,6.6416361879742e-05,-6.6443013742038e-05,6.6416455327252e-05,-6.7498163536072e-05,6.7471881504251e-05,-6.7498128403715e-05,6.7471914509568e-05,-8.0053416637897e-05,8.0052074969067e-05,-8.0040532432504e-05,8.006495845913e-05,-8.0053457157554e-05,8.0052040045731e-05,-8.0040576565284e-05,8.0064918560719e-05,-7.4740264644145e-05,7.4764650530331e-05,-7.4740139141983e-05,7.476477143945e-05,-7.4753132877836e-05,7.4751771838901e-05,-7.4753253191442e-05,7.4751668917411e-05,-6.6404644214822e-05,6.6454835730553e-05,0.70496389240226,129487,2954,0.00030817920226487,0.0003345843954157,0.00030990703125582,30.085194371645,6.8155497315818e-07,6.8155497315818e-07,6.8155497315818e-07,1347453.2778908,0.00095312990935111
15191759,0.07247866406793,0.0012093276550495,0.0003985769593605,0.00041187001709241,0.00039888067859654,-9.0944178227146e-05,9.0944443114901e-05,2.7521457778798e-11,2.3962726937678e-10,-8.9164442988575e-10,1.1849246170777e-09,-7.1678449473766e-05,7.1680988786263e-05,-8.5458075454072e-05,8.5460347827884e-05,-8.5457996368899e-05,8.5460405592289e-05,-7.1680655728015e-05,7.1678673967297e-05,-7.1680578250812e-05,7.1679020915734e-05,-8.5460096069576e-05,8.5458255673342e-05,-8.5460040507615e-05,8.545834539542e-05,-0.00010018989071387,0.0001001894062934,-0.00010018984948126,0.00010018950855621,-0.00010018927703735,0.00010019012742584,-0.0001001891762557,0.00010019016668948,-8.5257362774952e-05,8.5258109331604e-05,-8.5257032187296e-05,8.5258189354608e-05,-8.5257969942292e-05,8.5257329933794e-05,-8.5257796680408e-05,8.5257577028226e-05,-7.1678708420226e-05,7.168084419159e-05,6.521942687363e-10,-1.4183176603672e-09,1.9032175331801e-08,-1.977546150629e-08,-0.00010083375700146,0.00010083301431287,-9.7841687802636e-05,9.7803538594994e-05,-9.719764366328e-05,9.7211846070211e-05,-9.7199665699045e-05,9.7209773178625e-05,-0.0001036700576733,0.00010368266472153,-0.00010368240858603,0.00010366965823238,-0.00010367069816168,0.00010368198084815,-0.00010368305089061,0.00010366897230936,-9.7804741657178e-05,9.7841416979055e-05,-9.7842375739308e-05,9.7802839265561e-05,-9.72104477182e-05,9.7198830796086e-05,-9.7212475416917e-05,9.7196753183622e-05,-9.7804058500619e-05,9.7842110602081e-05,5.7948314405454e-09,5.5853393250857e-09,-9.1656460917309e-05,9.1667850813066e-05,-1.3323859185303e-08,2.5203738176408e-08,-7.9509501467669e-05,7.9559431649461e-05,-8.0376237372093e-05,8.0425838977511e-05,-8.0376159652173e-05,8.0425905608285e-05,-7.9547788065254e-05,7.9521143645191e-05,-7.9547587833674e-05,7.9521346617679e-05,-8.0414141379638e-05,8.038791676158e-05,-8.041407722625e-05,8.0387988898041e-05,-0.00010015484520462,0.00010015338663301,-0.00010014208883961,0.00010016614299705,-0.00010015491432786,0.00010015331836512,-0.00010014216029956,0.00010016607320525,-9.3209676453352e-05,9.3233644704203e-05,-9.3209478695528e-05,9.3233860993715e-05,-9.3222348024853e-05,9.3220978584179e-05,-9.3222552696135e-05,9.3220777138739e-05,-7.9509716685279e-05,7.9559227486633e-05,0.66036287138601,129487,2954,0.00037886242572932,0.00042004826354445,0.00038185159772374,28.683116492019,-1.0535068063848e-05,-1.0535068063848e-05,-1.0535068063848e-05,1429031.556768,0.0011814704261876
15391759,0.087201903804608,0.0014619194400614,0.0004805163443638,0.0005004412405225,0.00048096185517507,-0.00010774468908129,0.0001077448520327,-6.7542674805148e-11,2.3310129510662e-10,-6.1592560586979e-10,8.0128951872876e-10,-8.3327060988585e-05,8.3328926212006e-05,-0.00010164056322263,0.00010164205006947,-0.00010164046343295,0.00010164214417126,-8.3328706079066e-05,8.3327181638592e-05,-8.3328530641469e-05,8.3327611259984e-05,-0.00010164194194902,0.00010164061715274,-0.00010164184983148,0.00010164073134445,-0.0001192044873321,0.00011920408874027,-0.00011920440998389,0.0001192042145394,-0.00011920408612142,0.00011920459072419,-0.00011920395149037,0.00011920465450369,-0.00010135544077534,0.00010135578171673,-0.00010135501487516,0.00010135593754553,-0.00010135582888205,0.00010135522027854,-0.0001013555598934,0.00010135554739531,-8.332740028393e-05,8.3328695581085e-05,3.5138604072303e-10,-1.0578005040112e-09,1.8298033345706e-08,-1.8984193238196e-08,-0.00012122449010396,0.00012122380473467,-0.00011851284120513,0.00011847603912054,-0.00011744858676815,0.00011746168708102,-0.00011744995951429,0.0001174602749775,-0.00012383484128193,0.00012384679150236,-0.00012384671375421,0.0001238342996816,-0.00012383526754229,0.00012384632852262,-0.0001238471424755,0.00012383383400109,-0.00011847715589075,0.00011851259958439,-0.00011851331235588,0.00011847555917272,-0.00011746088912492,0.00011744918245095,-0.00011746226998517,0.00011744776317377,-0.00011847669201919,0.00011851307145487,5.9205292436309e-09,5.6228964579511e-09,-0.00010867026879613,0.00010868181605213,-1.2490549513281e-08,2.4513631479981e-08,-9.4436397265079e-05,9.4485061901712e-05,-9.438335170862e-05,9.4431560054813e-05,-9.438324306237e-05,9.4431656715861e-05,-9.4473265100566e-05,9.4448190925311e-05,-9.4472984015071e-05,9.4448477888301e-05,-9.4419742437951e-05,9.4395148834339e-05,-9.4419650543651e-05,9.4395249805928e-05,-0.00011916511519267,0.00011916435056965,-0.00011915286501604,0.00011917660112485,-0.00011916521324693,0.00011916425316362,-0.00011915296609717,0.00011917650148614,-0.00011225335445439,0.00011227690479356,-0.00011225306720564,0.00011227720632364,-0.00011226543770939,0.00011226482596767,-0.00011226572674014,0.00011226453846839,-9.4436702708727e-05,9.4484767790409e-05,0.73442855747958,129487,2954,0.00044883632621824,0.00050496995202165,0.00045271363477314,27.270311407893,-2.1837508736855e-05,-2.1837508736855e-05,-2.1837508736855e-05,1201143.8048289,0.0014075232612162
15591759,0.10071797412762,0.0017004391762804,0.00055774790304258,0.00058447306999156,0.00055821820324622,-0.00012303501163713,0.0001230351196292,-1.4278084819824e-10,2.5375422387603e-10,-5.3906554354267e-10,6.659443467213e-10,-9.4513165824682e-05,9.4514822287244e-05,-0.00011647917914232,0.00011648037831506,-0.00011647906186569,0.00011648049621776,-9.4514706464427e-05,9.4513205899164e-05,-9.4514378586507e-05,9.4513744345052e-05,-0.00011648036976824,0.00011647915354381,-0.00011648021910565,0.00011647929583211,-0.00013642305352267,0.00013642263452407,-0.00013642293370313,0.00013642278953629,-0.0001364227141861,0.00013642306759582,-0.00013642255016721,0.00013642315798417,-0.00011605905578918,0.00011605918897712,-0.00011605853565224,0.00011605941544406,-0.0001160593872513,0.00011605869000501,-0.00011605899603869,0.00011605910569902,-9.4513562448911e-05,9.4514532110889e-05,2.5234970830691e-10,-9.4332198553587e-10,1.6787828621999e-08,-1.7460192222241e-08,-0.00013988378881111,0.00013988311753006,-0.00013760240067243,0.00013756853394512,-0.00013607103331153,0.00013608291959572,-0.0001360721860577,0.00013608173397043,-0.00014225051892987,0.00014226140093568,-0.00014226138712866,0.00014224992793748,-0.00014225087144454,0.00014226101372687,-0.00014226174995538,0.00014224953020063,-0.0001375696045747,0.00013760216332611,-0.00013760281317335,0.0001375681147923,-0.00013608232543556,0.00013607143818151,-0.00013608350984444,0.00013607022210375,-0.00013756922288629,0.00013760255117782,5.9790761586676e-09,5.6006604926609e-09,-0.00012412070915818,0.00012413228540175,-1.0978027095731e-08,2.3013686559094e-08,-0.00010813252897606,0.00010817835929791,-0.00010718233014162,0.00010722755254077,-0.00010718218271999,0.00010722768692372,-0.00010816650401634,0.00010814437995534,-0.00010816618318485,0.0001081447118849,-0.00010721574091397,0.00010719411990634,-0.00010721563409557,0.00010719423707338,-0.00013646540015222,0.00013646568892089,-0.00013645414810723,0.0001364769414281,-0.00013646552107071,0.00013646556829686,-0.00013645427996307,0.00013647681077182,-0.00012953720659487,0.00012955970042269,-0.00012953682757955,0.00012956009132822,-0.00012954820758013,0.00012954870394007,-0.00012954856282343,0.00012954834744752,-0.0001081329502979,0.00010817795209475,0.74589761273306,129487,2954,0.00051251638550972,0.00058267421810128,0.00051705988048083,26.025226843043,-3.1798185255654e-05,-3.1798185255654e-05,-3.1798185255654e-05,1217697.7970431,0.001613567353804
15791759,0.11391169649682,0.0019460842065591,0.00063710014133379,0.00067138047394483,0.00063760359128048,-0.00013999530972559,0.00013999550911857,-1.4439651907222e-10,3.4555129057542e-10,-8.4828016538058e-10,1.0744637617115e-09,-0.00010851397755991,0.0001085165090006,-0.0001339522249129,0.00013395420533828,-0.00013395208876616,0.00013395435119659,-0.00010851632636493,0.00010851409467071,-0.00010851586368556,0.00010851472420794,-0.00013395413524086,0.00013395226997416,-0.00013395393322251,0.00013395243874517,-0.00015499999861686,0.00015499939922544,-0.00015499983693322,0.00015499958007234,-0.00015499942037847,0.00015500007033957,-0.00015499922650984,0.0001550001883972,-0.0001327081264825,0.00013270850251135,-0.00013270750962522,0.00013270880088561,-0.0001327087068051,0.00013270776167489,-0.00013270819637762,0.00013270825548771,-0.00010851443369962,0.00010851613943059,5.4800918104679e-10,-1.3654567537316e-09,1.3772076390476e-08,-1.4565493753877e-08,-0.00016035551425116,0.00016035472092595,-0.0001587758679788,0.00015874792751463,-0.00015633536058198,0.00015634586098056,-0.00015633720588751,0.00015634396705763,-0.00016236750738669,0.00016237654921653,-0.00016237644111495,0.00016236705049977,-0.00016236808893882,0.00016237592528057,-0.00016237703795863,0.00016236641107439,-0.00015874908814956,0.00015877549374142,-0.00015877652353771,0.00015874726212196,-0.00015634468993492,0.00015633635227423,-0.0001563465800918,0.00015633441492948,-0.00015874847715928,0.00015877611411423,5.8297708072646e-09,5.3678587089467e-09,-0.0001412076482876,0.00014121883509365,-8.2440704831531e-09,1.9863762703194e-08,-0.00012438273729538,0.00012442247204498,-0.00012229280345728,0.00012233180075727,-0.00012229262254668,0.00012233197096952,-0.00012441099623321,0.00012439421211075,-0.00012441060979239,0.00012439460468091,-0.0001223204195095,0.00012230416917956,-0.00012232029033513,0.00012230430554003,-0.00015511589522755,0.00015511777856709,-0.0001551065985165,0.00015512707533767,-0.00015511604232457,0.00015511763365691,-0.00015510676099817,0.00015512691528441,-0.00014876541614268,0.00014878547815053,-0.0001487649469003,0.0001487859558346,-0.00014877437053588,0.00014877652467998,-0.00014877480264757,0.00014877609511019,-0.00012438325911576,0.00012442196335576,0.7851288212195,129487,2954,0.00058314730549829,0.00066791909582275,0.00058821618193131,25.604052003113,-3.5167583975095e-05,-3.5167583975095e-05,-3.5167583975095e-05,1241653.8591694,0.0018409928546315
15991759,0.12680506299885,0.0021843369378339,0.00071369111136859,0.00075636689885841,0.00071427892760685,-0.00015643119088183,0.00015643145579189,-1.5420560208794e-10,4.2019992383885e-10,-1.0075757707996e-09,1.3057122798935e-09,-0.0001215153354899,0.00012151842275178,-0.00015095864025871,0.00015096104220915,-0.00015095847410714,0.00015096122555158,-0.00012151816101843,0.00012151554096969,-0.00012151761233816,0.00012151621762605,-0.00015096093467541,0.00015095873220243,-0.00015096069906933,0.00015095891274895,-0.00017310904838348,0.0001731083581332,-0.00017310885279301,0.00017310855791756,-0.00017310834232305,0.0001731091537136,-0.00017310811789881,0.00017310930185601,-0.00014872616516593,0.00014872664679357,-0.00014872545784565,0.00014872703166869,-0.0001487268753465,0.00014872578744208,-0.00014872627446069,0.00014872634444119,-0.00012151588031312,0.00012151794468186,6.9476291258206e-10,-1.6100600853183e-09,1.0921758171436e-08,-1.1809154410784e-08,-0.00018055659601926,0.00018055570793621,-0.00017960675109566,0.00017958434393796,-0.00017619988064073,0.0001762088151719,-0.00017620211204839,0.00017620652343097,-0.00018220767551654,0.00018221490520593,-0.00018221478536283,0.00018220727468323,-0.0001822083843179,0.00018221414860971,-0.00018221550568972,0.00018220650634372,-0.00017958558285043,0.00017960625592133,-0.00017960752844499,0.00017958355443246,-0.00017620736116045,0.00017620116608857,-0.00017620962433336,0.00017619884427781,-0.00017958483747952,0.00017960701309762,5.6161394985103e-09,5.0617748763642e-09,-0.00015778415803756,0.0001577948203648,-5.7241618434485e-09,1.6790918879921e-08,-0.0001400975111972,0.00014013126763028,-0.00013679113273636,0.00013682406503339,-0.00013679092843613,0.00013682426046699,-0.00014012034824291,0.00014010843232801,-0.00014011984806132,0.00014010893454354,-0.00013681325189915,0.00013680193617568,-0.00013681308394736,0.00013680210800261,-0.00017327653114098,0.00017327978565899,-0.00017326909684114,0.00017328722016624,-0.00017327671154543,0.00017327960885842,-0.00017326928799195,0.00017328703180795,-0.00016759997454837,0.00016761756593787,-0.00016759942062794,0.00016761812659981,-0.00016760696953272,0.00016761056947491,-0.00016760750045325,0.00016761004411436,-0.00014009810234879,0.00014013068901567,0.77894718099846,129487,2954,0.00065158991067676,0.00075202980772846,0.00065724189497263,25.204027437887,-3.8367780496905e-05,-3.8367780496905e-05,-3.8367780496905e-05,1302927.425055,0.0020630059776183
16191759,0.13939538047261,0.002414676206985,0.00078741625399389,0.00083914193891559,0.0007881180140755,-0.00017226482335368,0.00017226512822659,-1.7817933933908e-10,4.8382696778589e-10,-1.05906123859e-09,1.4019704056635e-09,-0.00013352815450597,0.00013353152154152,-0.00016739407399925,0.00016739663513771,-0.0001673938803001,0.0001673968513554,-0.00013353121895823,0.00013352840788771,-0.00013353057140208,0.00013352915209666,-0.00016739651787128,0.00016739418525457,-0.0001673962444025,0.0001673943844973,-0.00019066718200553,0.00019066645342572,-0.00019066695095495,0.00019066667534732,-0.00019066642624548,0.00019066729425039,-0.00019066617253051,0.00019066747250607,-0.00016404570139827,0.00016404618469344,-0.0001640449076352,0.00016404665620071,-0.00016404646534679,0.00016404528199923,-0.00016404576885742,0.0001640459136832,-0.00013352877846076,0.00013353094584093,7.3356940434795e-10,-1.7223919048826e-09,8.306839067809e-09,-9.2655749443655e-09,-0.00020032912229393,0.00020032816231264,-0.00019984698407132,0.00019982961702492,-0.00019551961306795,0.00019552691225419,-0.0001955219902367,0.00019552446636096,-0.00020164251015493,0.00020164802027327,-0.0002016479456799,0.00020164210929034,-0.00020164326671472,0.00020164721273436,-0.00020164871296575,0.00020164129075333,-0.00019983090981736,0.00019984639870624,-0.00019984780875499,0.00019982877850422,-0.00019552538808057,0.00019552097922003,-0.00019552779436576,0.00019551850591844,-0.00019983011453058,0.00019984720749059,5.3647829374645e-09,4.7211489721856e-09,-0.00017376541899367,0.00017377548666214,-3.4657066709483e-09,1.3909784619084e-08,-0.00015512501374717,0.00015515318056535,-0.00015067793093911,0.00015070517012911,-0.00015067769897883,0.00015070539470547,-0.00015514287108273,0.00015513532707563,-0.00015514227734332,0.00015513591906764,-0.00015069499280707,0.0001506881035837,-0.00015069479234175,0.00015068830490348,-0.00019087915353372,0.00019088355609206,-0.00019087342913911,0.00019088928107881,-0.00019087936458996,0.00019088334967186,-0.00019087364957103,0.0001908890635695,-0.00018583497491321,0.00018585017330193,-0.00018583433533588,0.00018585081927737,-0.00018584016541456,0.00018584497991272,-0.00018584078665864,0.00018584436650527,-0.00015512568743082,0.00015515251820122,0.77198524382543,129487,2954,0.00071752061542291,0.00083434920134549,0.00072378443477946,24.804850079394,-4.1561199364844e-05,-4.1561199364844e-05,-4.1561199364844e-05,1382340.3987477,0.0022782667879291
16391759,0.15172108300537,0.0026408738685281,0.00085956620497225,0.00092097702365793,0.0008603306398979,-0.00018778594135343,0.00018778625235714,-2.2160655467481e-10,5.3345086484299e-10,-9.8080394309073e-10,1.3321098772849e-09,-0.00014503353934357,0.00014503684731438,-0.00018370910219477,0.00018371149930237,-0.00018370888324774,0.00018371174295319,-0.00014503655360828,0.00014503378686553,-0.00014503579019702,0.00014503462712153,-0.00018371140776929,0.00018370919378229,-0.00018371109350148,0.0001837094236765,-0.00020790509671358,0.00020790439045033,-0.00020790482845894,0.00020790464023502,-0.00020790438683305,0.00020790518070487,-0.00020790410440016,0.0002079053892738,-0.00017905118246879,0.00017905153618575,-0.00017905030622572,0.00017905209766996,-0.00017905190706903,0.000179050682663,-0.00017905110886653,0.00017905140475664,-0.00014503423133045,0.0001450361863908,6.4058010975045e-10,-1.6639188779692e-09,6.092381433863e-09,-7.0857964259816e-09,-0.00021994378226419,0.00021994278722308,-0.00021991458350182,0.00021990144766597,-0.00021459575521338,0.00021460140574678,-0.0002145979765304,0.00021459911211671,-0.00022090613784882,0.00022091011684561,-0.00022091014798164,0.00022090567131196,-0.00022090684236845,0.00022090936122776,-0.00022091086631197,0.00022090490155365,-0.00021990275926984,0.00021991395725959,-0.00021991536128102,0.00021990065525726,-0.00021460006950097,0.00021459694005214,-0.00021460232893249,0.00021459461002708,-0.0002199020198163,0.00021991471091772,5.1510500421445e-09,4.4236067916863e-09,-0.00018942487371461,0.00018943442983853,-1.5468950106656e-09,1.1457929587673e-08,-0.00016989688340121,0.00016992031714267,-0.00016429008959425,0.00016431247641465,-0.00016428982593636,0.0001643127343419,-0.00016991051480172,0.00016990668999909,-0.00016990985086424,0.00016990734884167,-0.00016430284554822,0.00016429971935711,-0.00016430262058942,0.00016429994270758,-0.00020815357662424,0.00020815895019948,-0.0002081493046308,0.00020816322322526,-0.00020815381435267,0.00020815871761838,-0.0002081495543528,0.00020816297620218,-0.00020383788729982,0.00020385102867405,-0.00020383716209253,0.00020385176147738,-0.00020384153558348,0.00020384737722078,-0.00020384223543269,0.00020384668677634,-0.00016989765116288,0.00016991955831437,0.77561769763356,129487,2954,0.00078214625797797,0.0009160046278835,0.00078898311318174,24.44756786596,-4.4419457072323e-05,-4.4419457072323e-05,-4.4419457072323e-05,1464954.1202021,0.0024902526949384
16591759,0.1638772877302,0.0028715816000779,0.000932950641888,0.001004955228793,0.00093367572939686,-0.00020360840083619,0.00020360870970347,-2.590431520529e-10,5.6879158971913e-10,-8.3515557459253e-10,1.1858918163779e-09,-0.0001569242375939,0.00015692737578782,-0.00020084811081753,0.00020085018045615,-0.00020084785067302,0.00020085046237247,-0.00015692703754232,0.00015692452674062,-0.00015692624400609,0.00015692539169434,-0.0002008501134312,0.00020084817802572,-0.0002008497912522,0.0002008484176022,-0.00022532276291526,0.00022532213184047,-0.00022532247333443,0.00022532239830313,-0.0002253221536362,0.00022532281760033,-0.0002253218427091,0.0002253230571961,-0.00019452065314601,0.00019452082061139,-0.00019451969916292,0.000194521478033,-0.00019452126935609,0.00019452008390251,-0.00019452041683103,0.00019452086280233,-0.00015692503670143,0.00015692659080631,4.9631974703712e-10,-1.5341995229424e-09,4.1004491907426e-09,-5.1096672343058e-09,-0.00024007443070368,0.00024007341953474,-0.00024069946073163,0.00024069009587783,-0.00023417387349486,0.0002341779341706,-0.00023417583885476,0.00023417589307692,-0.00024056530894118,0.00024056788283324,-0.00024056803794819,0.00024056475191175,-0.00024056592860035,0.00024056721314135,-0.00024056866101901,0.00024056407851576,-0.00024069143857348,0.00024069880250239,-0.00024070013041888,0.00024068941120247,-0.00023417688502368,0.0002341747740141,-0.00023417885660326,0.00023417272841672,-0.0002406907751397,0.00024069948024752,5.0383795740654e-09,4.2068076415245e-09,-0.00020536506506604,0.00020537429494408,2.7536374470162e-10,9.2979195841688e-09,-0.00018537705982647,0.0001853962953078,-0.00017841143109353,0.00017842955599266,-0.0001784111493404,0.00017842983404484,-0.0001853868742904,0.00018538648672123,-0.00018538605949697,0.00018538729155569,-0.00017842028597983,0.00017842070440135,-0.00017842000962433,0.00017842097652066,-0.00022559298369897,0.00022559939637349,-0.00022559004195389,0.00022560233959488,-0.0002255932614735,0.00022559912403228,-0.00022559032075418,0.00022560206314019,-0.00022243058692526,0.00022244198246253,-0.00022242977643144,0.00022244280200814,-0.00022243280289731,0.00022243976319138,-0.00022243362143995,0.00022243895529407,-0.00018537788147977,0.00018539548043636,0.80315412531103,129487,2954,0.00084802288514213,0.0009998012236868,0.00085534696462941,24.193056284638,-4.6455549722899e-05,-4.6455549722899e-05,-4.6455549722899e-05,1544139.2624781,0.0027068522838852
16791759,0.17586278289516,0.0030994264183948,0.0010051313019479,0.0010885733115782,0.0010057218048688,-0.00021917284875574,0.00021917312971774,-3.2130244335002e-10,6.0346972942136e-10,-6.5141003416472e-10,9.7349086255915e-10,-0.0001681017486352,0.00016810454236371,-0.00021775964483948,0.00021776127251427,-0.00021775935999677,0.00021776157772084,-0.00016810425232351,0.00016810198611282,-0.00016810334188317,0.0001681029671612,-0.00021776126622968,0.0002177596524782,-0.0002177609047823,0.00021775993430922,-0.00024254180096187,0.00024254123830031,-0.00024254147504832,0.00024254153852367,-0.00024254131833828,0.00024254179353428,-0.00024254097977478,0.00024254206387227,-0.00020971229237807,0.00020971221477626,-0.00020971126246612,0.00020971296855058,-0.00020971279057469,0.00020971160487235,-0.00020971183628865,0.00020971249026756,-0.00016810261301097,0.00016810367671423,2.995116309488e-10,-1.3275542492999e-09,2.3588958263223e-09,-3.3606366519527e-09,-0.00026018435720102,0.00026018335337074,-0.00026153361353546,0.00026152755498521,-0.00025374088522961,0.00025374338666481,-0.00025374244536468,0.00025374175307027,-0.00026013015085605,0.00026013144952212,-0.00026013174389178,0.00026012948122104,-0.00026013063678981,0.00026013091669275,-0.00026013223853748,0.00026012893950903,-0.00026152888357,0.00026153297302062,-0.00026153415699256,0.00026152699684773,-0.00025374272802643,0.00025374139704391,-0.00025374431077591,0.00025373974159133,-0.00026152836311504,0.0002615335072354,4.9510114016767e-09,4.0395441466606e-09,-0.0002210291917299,0.00022103817097243,1.8814032479149e-09,7.4332000721784e-09,-0.00020051574588595,0.000200531413953,-0.00019205566808709,0.00019207009575404,-0.00019205535207196,0.00019207040934375,-0.00020052222458139,0.0002005249404842,-0.00020052135617195,0.00020052579763732,-0.00019206110084529,0.0001920646692479,-0.0001920608054362,0.0001920649589277,-0.0002428144844911,0.00024282182591793,-0.00024281269505268,0.000242823617244,-0.00024281478630826,0.00024282152954958,-0.00024281300322438,0.00024282331102477,-0.00024090853797101,0.00024091843285669,-0.00024090764227701,0.00024091933939556,-0.00024090951663913,0.00024091745131304,-0.00024091040526548,0.00024091657390267,-0.00020051666963191,0.00020053049324848,0.80668160449864,129487,2954,0.00091282173817183,0.001083504459632,0.00092055763160257,23.941186363856,-4.8470509089154e-05,-4.8470509089154e-05,-4.8470509089154e-05,1626219.4866967,0.0029211678007993
16991759,0.18767433437018,0.0033190288159121,0.0010744051083967,0.0011698118466715,0.0010748118608439,-0.00023419468014471,0.00023419492164489,-3.8478936161825e-10,6.2789376515516e-10,-4.6643816895029e-10,7.4705188278366e-10,-0.00017823893839693,0.00017824137334913,-0.00023384474797667,0.00023384590020021,-0.00023384443460158,0.00023384623660341,-0.00017824112206883,0.00017823913571044,-0.00017824012291389,0.00017824019932246,-0.00023384596666303,0.00023384468907602,-0.00023384557545856,0.00023384499863172,-0.00025936224337281,0.00025936174880851,-0.00025936188677302,0.000259362076592,-0.00025936189521515,0.00025936216529394,-0.00025936152856178,0.00025936246663501,-0.00022421051761392,0.00022421017756443,-0.00022420940871541,0.000224211026017,-0.00022421088235798,0.00022420970927982,-0.00022420984325099,0.00022421068055193,-0.000178239881313,0.00017824041271102,1.0519520259774e-10,-1.1110475925418e-09,7.6579013212977e-10,-1.7481570045476e-09,-0.00027990782021986,0.00027990683577566,-0.00028191484386113,0.00028191181224124,-0.00027291154804977,0.00027291260109422,-0.00027291270597968,0.00027291137335335,-0.00027933710801282,0.0002793372372864,-0.00027933766176905,0.00027933633526406,-0.00027933746067337,0.00027933684146785,-0.00027933802277726,0.00027933593093387,-0.00028191312060658,0.00028191422057294,-0.00028191524992229,0.00028191139229372,-0.00027291232776442,0.00027291167695999,-0.00027291350681917,0.00027291042891267,-0.00028191273635566,0.00028191461783134,4.8321685430643e-09,3.8317377881639e-09,-0.0002361352784692,0.0002361439337675,3.312262883251e-09,5.6671359074984e-09,-0.00021471507914697,0.00021472735375895,-0.00020480641581573,0.00020481734410821,-0.00020480607118475,0.00020481768720167,-0.00021471849667845,0.0002147239409935,-0.0002147175389641,0.00021472488673755,-0.00020480870330354,0.00020481506480047,-0.0002048083771559,0.00020481538424722,-0.0002596262595284,0.00025963437206086,-0.00025962553402514,0.00025963509961019,-0.00025962659105357,0.00025963404563769,-0.00025962587148494,0.00025963476381675,-0.00025880728938344,0.00025881570346153,-0.00025880630786635,0.0002588166971936,-0.00025880711322606,0.0002588158776175,-0.00025880808939039,0.00025881491203006,-0.00021471608678291,0.00021472634686588,0.79134032676797,129487,2954,0.00097535827498966,0.0011655921250799,0.00098344123831701,23.689422158521,-5.0484622731829e-05,-5.0484622731829e-05,-5.0484622731829e-05,1709507.8359411,0.0031293056120602
17191759,0.1990376972774,0.0035247301117851,0.0011390673253183,0.001246430997561,0.0011392317889057,-0.00024770477037009,0.00024770493996093,-4.8099262696865e-10,6.5300847704662e-10,-2.0015559385459e-10,4.0368716259752e-10,-0.00018668564519979,0.00018668744397182,-0.00024810207875644,0.00024810254177617,-0.0002481017534633,0.00024810289302703,-0.00018668734480872,0.00018668568928776,-0.00018668614530526,0.00018668694972943,-0.00024810272760209,0.0002481019078556,-0.00024810226774076,0.00024810228383622,-0.00027475573212519,0.00027475531887663,-0.00027475532567496,0.00027475569605274,-0.0002747555743791,0.00027475554078984,-0.00027475517792066,0.00027475587477309,-0.00023705089189972,0.00023705018705586,-0.0002370496978505,0.00023705113366195,-0.00023705108386202,0.00023704989729412,-0.00023704990108078,0.00023705101656178,-0.00018668662148767,0.00018668643726317,-1.8914099015567e-10,-7.5516649398529e-10,-8.9501958989825e-11,-8.3621366232015e-10,-0.00029807668853527,0.00029807576094276,-0.00030062065475694,0.00030061922372421,-0.00029049462515793,0.0002904944828651,-0.00029049512068711,0.00029049392799187,-0.00029706943838847,0.00029706882085636,-0.00029706941137043,0.00029706851483755,-0.00029706957096241,0.00029706865173847,-0.00029706957055452,0.00029706831881084,-0.0003006204546442,0.00030062012087737,-0.00030062087216281,0.00030061899428393,-0.00029049479033153,0.00029049417203039,-0.0002904953611917,0.00029049354297004,-0.00030062031325904,0.00030062027370405,4.7716799376408e-09,3.7156866626135e-09,-0.00024970958197531,0.0002497180639726,4.0795978285003e-09,4.7236372455621e-09,-0.00022703299679582,0.00022704354506167,-0.00021581354975225,0.00021582257913469,-0.00021581315941914,0.00021582296779056,-0.00022703478417655,0.00022704175972313,-0.00022703385270712,0.00022704268131367,-0.00021581412417951,0.0002158220115259,-0.0002158138068206,0.00021582232254547,-0.00027500811720655,0.0002750166350638,-0.00027500795226965,0.00027501680206687,-0.00027500845757191,0.00027501629878258,-0.00027500831729125,0.00027501643836244,-0.00027501878886945,0.00027502637232291,-0.00027501772684084,0.00027502744862623,-0.00027501798695435,0.000275027174116,-0.00027501898955751,0.0002750261802951,-0.00022703413735559,0.00022704240466227,0.77293680821044,129487,2954,0.0010315988210748,0.0012412035418377,0.0010399455738756,23.131988376782,-5.4944092985744e-05,-5.4944092985744e-05,-5.4944092985744e-05,1785336.5675332,0.0033182722055516
17391759,0.20959484132813,0.003708066387605,0.001196542130639,0.0013151234563998,0.0011964008005662,-0.00025887668407842,0.00025887676375992,-5.5630454949111e-10,6.393129251606e-10,8.9278627966846e-11,1.7000327901652e-11,-0.00019282586302561,0.00019282702200269,-0.00025959644153286,0.00025959609992103,-0.00025959607525773,0.00025959649684282,-0.00019282695130785,0.00019282587825151,-0.00019282575635659,0.00019282713599706,-0.00025959640891812,0.00025959616279116,-0.00025959594974435,0.00025959653520538,-0.00028785149860783,0.00028785120626843,-0.0002878510795536,0.00028785159706643,-0.00028785156753873,0.00028785119472786,-0.00028785114287349,0.0002878515588991,-0.00024738842188984,0.00024738731970422,-0.00024738714645689,0.00024738835430269,-0.00024738836563933,0.00024738727964221,-0.00024738715073353,0.00024738843848391,-0.00019282695670404,0.00019282588490567,-4.4592772504498e-10,-3.6486236761872e-10,-7.111596777953e-11,-7.2837700423691e-10,-0.00031364286697342,0.00031364206658576,-0.00031651230213495,0.0003165108450038,-0.00030543441378238,0.00030543375960125,-0.00030543430094307,0.00030543382453546,-0.0003123437314708,0.00031234300602212,-0.00031234368409091,0.00031234272086384,-0.00031234366174244,0.00031234304620351,-0.00031234362626111,0.00031234274874448,-0.00031651198903166,0.00031651188534579,-0.00031651228168655,0.00031651085619031,-0.00030543457106864,0.00030543345112189,-0.00030543448703836,0.00030543349060299,-0.00031651203877099,0.00031651184495822,4.825506991798e-09,3.65414264866e-09,-0.00026092553998089,0.00026093401754655,4.1481508615169e-09,4.657450032286e-09,-0.00023662465819986,0.00023663511569684,-0.00022432261968232,0.00022433150640367,-0.00022432221413263,0.0002243319103662,-0.00023662642653247,0.00023663334671901,-0.00023662531110975,0.00023663445367319,-0.00022432308249645,0.0002243310488999,-0.00022432270384468,0.00022433142167534,-0.00028809492922788,0.00028810353118492,-0.00028809481803083,0.00028810364480612,-0.00028809531466808,0.00028810314865433,-0.00028809521287061,0.00028810325047262,-0.00028853348664008,0.00028854092491776,-0.00028853233624231,0.00028854209217104,-0.00028853252636397,0.00028854188761455,-0.00028853366401039,0.00028854075536517,-0.00023662583886446,0.00023663393190248,0.74411373283458,129487,2954,0.0010781043981273,0.0013059789306854,0.0010866313551087,22.132150515036,-6.294279587971e-05,-6.294279587971e-05,-6.294279587971e-05,1850042.3324562,0.0034767796775377
17591759,0.21938425428921,0.0038714730670717,0.0012476907361109,0.0013765990299026,0.0012471833010582,-0.00026866498517208,0.00026866500713145,-6.325154217204e-10,6.5838475514325e-10,2.4198480870667e-10,-1.9879618731735e-10,-0.00019781080072421,0.00019781160611831,-0.00026940435883807,0.00026940356808912,-0.0002694039708705,0.00026940399268812,-0.00019781161510895,0.00019781073520403,-0.00019781030733088,0.0001978121067414,-0.00026940397601376,0.00026940399264586,-0.00026940347520384,0.00026940440057373,-0.00029955073139162,0.00029955047010427,-0.00029955027817165,0.00029955089487316,-0.00029955091753863,0.00029955033790272,-0.00029955046433074,0.00029955073192025,-0.00025624880247668,0.00025624743543007,-0.0002562474422271,0.00025624855681243,-0.00025624863139,0.00025624751045544,-0.00025624731724773,0.00025624877212741,-0.00019781196307915,0.00019781039230957,-5.950664038541e-10,-1.3844446170864e-10,-2.9753607871233e-11,-6.9657573532473e-10,-0.00032752702497328,0.00032752629844768,-0.00033054033065495,0.000330538816956,-0.00031866370919516,0.00031866275840057,-0.00031866322353108,0.00031866320571874,-0.0003260720594283,0.00032607128617174,-0.00032607201455021,0.00032607099823229,-0.00032607186619512,0.00032607145466471,-0.00032607183764221,0.00032607114983152,-0.00033053989323289,0.00033054000571871,-0.00033054019281367,0.00033053894699177,-0.00031866386193476,0.00031866245023813,-0.00031866342017414,0.00031866285692911,-0.00033054007447811,0.00033053983226204,4.847075899004e-09,3.5941041967898e-09,-0.00027073400364601,0.00027074244409766,4.1208473896394e-09,4.6531748974068e-09,-0.00024458595290937,0.00024459650426165,-0.00023142141910048,0.00023143026376866,-0.00023142097896223,0.00023143070222971,-0.0002445878237743,0.00024459462975963,-0.00024458665220622,0.00024459579544436,-0.00023142189393801,0.00023142979255213,-0.000231421495931,0.00023143018545757,-0.00029978786522738,0.000299796445917,-0.0002997877454527,0.00029979656796255,-0.00029978827501694,0.00029979603820985,-0.00029978816984362,0.00029979614399857,-0.00030032027592431,0.00030032759356077,-0.00030031903943588,0.00030032884840115,-0.00030031924346911,0.00030032863009551,-0.00030032045239815,0.00030032742447348,-0.00024458723508328,0.000244595216788,0.7179858919183,129487,2954,0.0011188493012952,0.0013637510246235,0.0011274568770014,21.12090911949,-7.1032727044081e-05,-7.1032727044081e-05,-7.1032727044081e-05,1911505.9981525,0.0036166211617777
17791759,0.22846410849771,0.0040179281772303,0.0012934898982196,0.0014318657121874,0.0012925725668233,-0.0002772997122939,0.0002772997134164,-6.8665632434122e-10,6.9175776353987e-10,2.5931626662488e-10,-2.3947289567918e-10,-0.00020194430249334,0.00020194511189158,-0.00027788224056037,0.0002778813407182,-0.00027788182650048,0.00027788179828839,-0.00020194514086708,0.00020194421491355,-0.00020194374888995,0.00020194567044425,-0.00027788180532138,0.00027788182746271,-0.00027788127201701,0.00027788226049894,-0.00031004687259421,0.00031004658131894,-0.00031004638989056,0.00031004703480192,-0.00031004707722372,0.00031004642893835,-0.00031004659525767,0.00031004685313215,-0.00026390401129162,0.00026390251769526,-0.00026390256282328,0.00026390372375003,-0.00026390381945206,0.00026390261264058,-0.00026390241961102,0.0002639039588441,-0.00020194554720154,0.0002019438085128,-6.0380658906435e-10,-9.2738798919087e-11,2.21147660929e-11,-7.130131380263e-10,-0.00033995989417368,0.00033995920319656,-0.00034298710040377,0.00034298553401889,-0.00033040703567763,0.00033040609366506,-0.00033040649933481,0.00033040659559944,-0.000338471618939,0.00033847088598659,-0.0003384715968368,0.00033847057394507,-0.00033847140835306,0.00033847107317789,-0.00033847140219922,0.00033847074459109,-0.00034298658677417,0.00034298682154012,-0.00034298694364963,0.00034298568305087,-0.00033040721190663,0.00033040575757768,-0.00033040671766188,0.00033040622059064,-0.00034298678552064,0.00034298663024388,4.8563331371503e-09,3.5140110051296e-09,-0.00027936652667337,0.00027937489671412,4.0534942452207e-09,4.6543894790448e-09,-0.00025127225989904,0.00025128289863969,-0.00023742741031808,0.00023743622902925,-0.00023742694130296,0.0002374366969929,-0.00025127428504304,0.00025128086961244,-0.00025127302187573,0.00025128212507588,-0.00023742795136583,0.00023743569224786,-0.00023742752298279,0.00023743611551778,-0.00031027680389008,0.00031028532037707,-0.00031027666286957,0.00031028546333815,-0.00031027724349442,0.00031028488259079,-0.00031027711676053,0.00031028500996429,-0.00031066859363898,0.00031067577486429,-0.00031066727063951,0.00031067711638276,-0.00031066749622324,0.00031067687682197,-0.00031066879304144,0.00031067558236495,-0.00025127362572947,0.00025128152395894,0.69669206946599,129487,2954,0.0011547915573428,0.0014154810934832,0.0011633865100332,20.125719456095,-7.8994244351236e-05,-7.8994244351236e-05,-7.8994244351236e-05,1970280.7350591,0.0037406831065915
17991759,0.23689377076111,0.0041519490145471,0.0013353847611751,0.0014825307261879,0.001334033527184,-0.00028506063494333,0.00028506064945489,-7.2307647341449e-10,7.413192921089e-10,1.7604060747734e-10,-1.4245411004384e-10,-0.00020563743497933,0.00020563853410173,-0.0002854969893442,0.00028549624814554,-0.00028549654600851,0.00028549674167967,-0.00020563853438604,0.00020563737328123,-0.00020563707080026,0.0002056388987864,-0.00028549673104224,0.00028549656444642,-0.00028549616971636,0.00028549701862737,-0.00031955609449768,0.00031955572995489,-0.00031955558387233,0.00031955621026532,-0.00031955624129036,0.00031955563556504,-0.00031955572953132,0.00031955609016577,-0.00027073633335394,0.00027073482397222,-0.00027073479363996,0.00027073611547701,-0.0002707361963964,0.0002707348630176,-0.00027073471462342,0.00027073628744909,-0.00020563877403707,0.00020563712963661,-5.139482779976e-10,-1.7881608017936e-10,7.3355838014796e-11,-7.602606071559e-10,-0.00035123898975048,0.00035123830279748,-0.00035423447985133,0.00035423287279199,-0.00034099151317253,0.0003409907882705,-0.00034099115416081,0.00034099111162011,-0.00034978758698691,0.00034978694972536,-0.00034978759777815,0.0003497866022775,-0.00034978743470316,0.00034978707725224,-0.0003497874586044,0.00034978671611992,-0.0003542339361802,0.00035423421119724,-0.00035423437676483,0.00035423296721517,-0.00034099172637083,0.00034099041021847,-0.00034099140062248,0.00034099070329722,-0.00035423407253209,0.00035423408301433,4.8745337993237e-09,3.4413385743861e-09,-0.00028710345205535,0.00028711176732639,3.9813601985814e-09,4.6765663185062e-09,-0.00025715167955037,0.00025716243611863,-0.00024275483075384,0.00024276366739657,-0.00024275433589727,0.00024276416189063,-0.00025715388609767,0.00025716022691353,-0.00025715251998368,0.0002571615853834,-0.00024275546724402,0.00024276303593805,-0.00024275500407629,0.0002427634932469,-0.0003197758073258,0.00031978426752412,-0.00031977563781465,0.00031978443861162,-0.00031977627864422,0.00031978379821741,-0.00031977612067971,0.00031978395664393,-0.00031995791275247,0.00031996498440551,-0.0003199565050037,0.00031996641041506,-0.00031995675682041,0.00031996614438688,-0.00031995814717714,0.00031996475679413,-0.00025715312114705,0.00025716098836983,0.68920300511119,129487,2954,0.0011870959946258,0.0014624079375627,0.0011955875671954,19.15414893609,-8.6766808511279e-05,-8.6766808511279e-05,-8.6766808511279e-05,2023283.4291387,0.0038525438656808
18191759,0.24471345516226,0.0042781627747245,0.0013748493272455,0.0015302612959185,0.0013730521515605,-0.00029217665757673,0.00029217670522705,-7.5115945298403e-10,8.0210186354454e-10,6.442280911858e-11,4.5013818167577e-12,-0.00020920669243122,0.00020920816324583,-0.00029267291023795,0.00029267243031737,-0.00029267244033987,0.00029267295394192,-0.00020920813282985,0.00020920665738712,-0.00020920657842263,0.00020920827673401,-0.00029267290920732,0.00029267249158767,-0.00029267231667295,0.00029267297662195,-0.00032823997125829,0.00032823952334564,-0.00032823943077439,0.00032824003407113,-0.00032824003176349,0.00032823951515219,-0.00032823949133076,0.00032823999922978,-0.00027708134416845,0.00027707986787335,-0.00027707971781654,0.00027708124375371,-0.00027708129416208,0.00027707981857624,-0.00027707972423146,0.00027708133213286,-0.00020920811086658,0.00020920667373674,-3.823357242296e-10,-3.0904502183893e-10,1.2549495069334e-10,-8.0928075646223e-10,-0.00036162888618735,0.00036162820248109,-0.00036465035451703,0.00036464873789931,-0.00035071423265568,0.000350713803154,-0.00035071412880915,0.00035071386615415,-0.00036020958049321,0.0003602090662553,-0.00036020962205342,0.00036020868338126,-0.00036020951282592,0.00036020910618733,-0.00036020956838561,0.00036020870873873,-0.00036464981123115,0.00036465010439897,-0.00036465033927898,0.00036464874377498,-0.0003507144751817,0.00035071338803454,-0.00035071440765276,0.00035071341807921,-0.00036464986247963,0.00036465006235408,4.9323557073894e-09,3.4111912347894e-09,-0.00029417322363121,0.00029418156755514,3.9490766215854e-09,4.7463572764035e-09,-0.00026266530474645,0.00026267629326731,-0.00024775432105948,0.00024776326611453,-0.00024775379516267,0.00024776379101018,-0.00026266770241039,0.00026267389484104,-0.00026266625549021,0.00026267533330308,-0.00024775505624096,0.00024776253723624,-0.00024775456463122,0.00024776302160208,-0.00032844266692681,0.00032845114845662,-0.00032844246493811,0.00032845135224358,-0.00032844316736509,0.000328450650641,-0.00032844297760263,0.00032845084039493,-0.00032853913858606,0.00032854618233856,-0.00032853764282643,0.00032854769518452,-0.00032853792953586,0.000328547394695,-0.00032853940500942,0.00032854592282096,-0.00026266683846608,0.00026267475518223,0.70094114912411,129487,2954,0.0012167156293585,0.0015056330582585,0.001225011243732,18.183188601097,-9.453449119122e-05,-9.453449119122e-05,-9.453449119122e-05,2064537.878039,0.0039552163095811
18391759,0.25214095802345,0.0043982889363502,0.0014124027108585,0.0015757422117923,0.0014101440136993,-0.00029937435908502,0.00029937447246995,-7.6109426487941e-10,8.7695086851028e-10,-1.346136003675e-10,2.7440757371345e-10,-0.00021299878959423,0.00021300090191908,-0.00030001759953372,0.00030001761472236,-0.00030001709444167,0.0003000181765085,-0.00021300077570803,0.00021299884745517,-0.00021299916574366,0.00021300052224096,-0.00030001805305228,0.00030001722292089,-0.00030001743909991,0.00030001772633147,-0.00033693421057058,0.00033693364666302,-0.00033693364401243,0.00033693418244271,-0.00033693411949542,0.00033693379086829,-0.00033693354831146,0.00033693430630299,-0.00028362214400496,0.00028362079670322,-0.00028362042968018,0.00028362226738854,-0.00028362224234995,0.00028362060045534,-0.00028362059954923,0.00028362219068308,-0.00021300031505128,0.0002129993000014,-1.6691521005344e-10,-5.5095061154105e-10,-2.1533412678583e-10,-4.9232825078342e-10,-0.00037200134417789,0.00037200063641816,-0.00037508142721764,0.00037508057417254,-0.00036043922540537,0.00036043901305041,-0.00036043957587747,0.00036043861133395,-0.00037059360725201,0.00037059300600091,-0.00037059343620198,0.00037059283822399,-0.00037059369026767,0.000370592889795,-0.00037059352758603,0.00037059271310874,-0.00037508168710541,0.00037508115208024,-0.00037508155391784,0.00037508043573417,-0.00036043925778817,0.0003604388052501,-0.00036043962721973,0.00036043838790172,-0.0003750815792393,0.00037508127140713,4.940619604286e-09,3.3274211165579e-09,-0.00030131142262196,0.00030131969104191,4.2450877567955e-09,4.3767933970653e-09,-0.00026837713162366,0.00026838745659076,-0.00025295249741481,0.00025296069539325,-0.0002529519496371,0.00025296124266644,-0.00026837896689743,0.00026838562344604,-0.00026837740051786,0.00026838717880884,-0.00025295258693336,0.00025296061514098,-0.00025295205528331,0.00025296113765991,-0.00033710511886624,0.00033711377865634,-0.00033710514250767,0.00033711375704756,-0.00033710565338462,0.00033711324804809,-0.0003371056831386,0.00033711321748733,-0.00033717506842308,0.0003371817293587,-0.00033717349006934,0.00033718332269571,-0.000337173545406,0.00033718325376102,-0.00033717512066045,0.00033718168439288,-0.00026837872848173,0.00026838585597589,0.70344890527448,129487,2954,0.0012466746607488,0.0015487835461821,0.0012547185481688,17.511727024264,-9.9906183805888e-05,-9.9906183805888e-05,-9.9906183805888e-05,2102397.0507436,0.0040584497306925
18591759,0.25944116709412,0.0045136930997426,0.0014484457132804,0.0016195494597462,0.001445697926716,-0.00030704534788272,0.00030704554124391,-7.621305167888e-10,9.5706817270958e-10,-3.7930615172214e-10,6.0575712876347e-10,-0.00021715257413279,0.00021715546900827,-0.00030774759757281,0.00030774822276798,-0.00030774705212839,0.00030774882981854,-0.00021715521218447,0.00021715276448566,-0.00021715356867725,0.00021715446547376,-0.00030774860555663,0.00030774728112958,-0.00030774797687524,0.0003077477926276,-0.00034614712542722,0.00034614642778225,-0.00034614653477872,0.0003461469833349,-0.00034614684975037,0.00034614675686083,-0.00034614624645663,0.00034614730449143,-0.00029066931619784,0.0002906681448702,-0.00029066751048434,0.00029066971300647,-0.00029066959377061,0.00029066777352677,-0.00029066788514527,0.000290669427296,-0.00021715422655173,0.00021715373693292,8.918809239441e-11,-8.4861971501309e-10,-9.7019852752007e-10,2.2390909467203e-10,-0.0003828560430859,0.00038285529670464,-0.0003859528793398,0.00038595359666133,-0.00037063393626214,0.0003706337572236,-0.00037063484051267,0.00037063278823519,-0.00038148083525629,0.00038147989880837,-0.00038148019113979,0.00038148021682726,-0.00038148110200121,0.00038147959177519,-0.00038148045602585,0.00038147991134774,-0.00038595475877182,0.00038595254471544,-0.00038595317255047,0.00038595328940762,-0.00037063349804222,0.00037063402215704,-0.00037063439105326,0.00037063306772923,-0.00038595445339995,0.00038595286409192,4.8548670351299e-09,3.1460406397301e-09,-0.00030891775893591,0.00030892575829023,4.8473515722221e-09,3.4960722058866e-09,-0.00027444502408079,0.0002744536599746,-0.00025854442171415,0.00025855087130862,-0.00025854385688089,0.00025855143413432,-0.00027444549165288,0.00027445319932722,-0.00027444378311851,0.00027445489681357,-0.0002585430677474,0.00025855223752097,-0.00025854248827622,0.0002585528065057,-0.00034627307532059,0.0003462819963445,-0.00034627359812124,0.00034628147599951,-0.00034627364748266,0.00034628142960022,-0.00034627416569463,0.00034628090972036,-0.00034621132004429,0.00034621713978706,-0.00034620966171749,0.00034621881000123,-0.00034620920797223,0.00034621925132409,-0.00034621089253316,0.00034621757392635,-0.00027444666926719,0.00027445201682448,0.68932006381406,129487,2954,0.001278602794285,0.0015939380503629,0.0012863726199636,17.263749850772,-0.00010189000119382,-0.00010189000119382,-0.00010189000119382,2146527.3172589,0.0041676388518342
18791759,0.26662104534388,0.0046341480106254,0.0014860975672831,0.0016652316177104,0.0014828188256319,-0.00031495585697256,0.00031495609847849,-7.8588951276925e-10,1.028349680579e-09,-4.7287271475433e-10,7.5202668652741e-10,-0.00022201261810395,0.00022201584781464,-0.00031616062884023,0.00031616152479608,-0.00031616006576502,0.00031616214869376,-0.00022201558642172,0.00022201281126711,-0.00022201380355157,0.0002220146524113,-0.00031616188529386,0.00031616033063676,-0.00031616121186053,0.00031616088919866,-0.00035541215447073,0.00035541138846703,-0.00035541152760763,0.00035541197971657,-0.00035541179560063,0.00035541180163822,-0.00035541116533739,0.00035541237634704,-0.00029828140481941,0.00029828028219997,-0.00029827952692774,0.00029828193349283,-0.00029828177905166,0.00029827981782029,-0.00029827996339858,0.00029828158144081,-0.00022201431702068,0.00022201406763096,2.1034487558638e-10,-9.9408708693032e-10,-1.592029233188e-09,8.2276757770645e-10,-0.00039392247684117,0.00039392170706421,-0.00039721646949521,0.00039721846569879,-0.00038105631514407,0.00038105595341313,-0.0003810574616722,0.00038105473274553,-0.00039249159124007,0.00039249031235842,-0.00039249054582852,0.00039249104055521,-0.00039249193831094,0.00039248992100619,-0.0003924909000627,0.00039249064147009,-0.0003972196375339,0.00039721613031188,-0.00039721686530011,0.00039721805301169,-0.00038105545431107,0.0003810566404743,-0.00038105662156666,0.00038105540203671,-0.00039721925994039,0.00039721652445646,4.8554650979146e-09,3.0648999379585e-09,-0.00031674265020878,0.00031675056952183,5.4065375591505e-09,2.8556807106057e-09,-0.00028117307209699,0.0002811805795011,-0.00026471978262737,0.00026472493311987,-0.00026471917642046,0.0002647255394834,-0.00028117244313601,0.00028118121672243,-0.00028117070279155,0.00028118293941511,-0.00026471723497779,0.00026472749534867,-0.00026471664158032,0.00026472807490183,-0.00035547962056844,0.00035548888116596,-0.00035548053891198,0.0003554879654599,-0.00035548021569376,0.00035548829234585,-0.00035548113883489,0.00035548736705747,-0.00035564347086269,0.00035564871494082,-0.00035564171708911,0.00035565048067539,-0.00035564087872917,0.00035565130463739,-0.00035564262919905,0.00035564956420545,-0.00028117484690026,0.00028117880492861,0.73043485862737,129487,2954,0.0013115271096169,0.0016399711510744,0.0013189355095784,17.026654601861,-0.00010378676318511,-0.00010378676318511,-0.00010378676318511,2178913.5830523,0.0042796340602167
18991759,0.27368222832167,0.0047546578493105,0.0015237310696718,0.0017110421527069,0.0015198846269318,-0.00032281478404539,0.00032281505043935,-8.1801289522344e-10,1.0850307139682e-09,-4.9198404200464e-10,7.9887649731256e-10,-0.00022665126101769,0.00022665466498914,-0.00032464270111363,0.00032464366155106,-0.00032464210915524,0.00032464431261474,-0.00022665438141747,0.00022665147323135,-0.00022665250800598,0.00022665340890346,-0.00032464402261664,0.00032464239883956,-0.00032464332070655,0.00032464299137538,-0.00036461226581485,0.00036461147220981,-0.00036461160855174,0.0003646120935881,-0.00036461188523314,0.00036461190758036,-0.00036461122612096,0.00036461251136762,-0.00030598161269783,0.00030598044988374,-0.00030597965225671,0.00030598219102572,-0.00030598201148101,0.00030597996413071,-0.00030598010868287,0.0003059818161834,-0.00022665303970848,0.00022665280123267,2.3923728985472e-10,-1.0351083246604e-09,-2.1427017906811e-09,1.3615859310874e-09,-0.00040501035920333,0.00040500957736483,-0.00040859534209726,0.00040859841955295,-0.00039152665945927,0.00039152599079305,-0.00039152787111378,0.00039152469914471,-0.00040342735236718,0.0004034257253886,-0.0004034259515924,0.00040342681534716,-0.0004034277206953,0.0004034253108131,-0.00040342632789721,0.00040342639223695,-0.00040859960798653,0.00040859499884511,-0.00040859576123949,0.00040859798208898,-0.0003915254342618,0.00039152704027043,-0.00039152666759508,0.00039152572974525,-0.00040859920977745,0.00040859541501943,4.8927638010678e-09,3.014242371687e-09,-0.00032449644570304,0.00032450435294563,5.9461593494631e-09,2.3062943905174e-09,-0.00028793524075922,0.00028794175803477,-0.00027084263685859,0.00027084668011041,-0.00027084200052709,0.00027084731749252,-0.00028793363081837,0.00028794337803897,-0.00028793180751821,0.00028794518007657,-0.00027083901888724,0.00027085031539493,-0.0002708383963832,0.00027085092198555,-0.0003646050566179,0.00036461469334935,-0.00036460633814439,0.0003646134146965,-0.00036460568097906,0.00036461407580832,-0.0003646069677479,0.00036461278652523,-0.00036512820556846,0.00036513298570641,-0.0003651263640416,0.00036513483902994,-0.00036512516402395,0.00036513602379229,-0.00036512699987922,0.00036513419935513,-0.00028793710582795,0.00028793989227172,0.74318761780927,129487,2954,0.0013442365756009,0.0016860911455243,0.0013512017117871,16.789993284801,-0.00010568005372159,-0.00010568005372159,-0.00010568005372159,2205844.1355611,0.0043912150776167
19191759,0.28085362843427,0.0048841972267569,0.0015641636894498,0.0017603515552101,0.001559681982097,-0.00033192365329687,0.00033192394908353,-8.538963587215e-10,1.1499483862117e-09,-5.0344392094997e-10,8.4310694385277e-10,-0.00023258035983173,0.00023258390604956,-0.00033477615637004,0.00033477718512608,-0.00033477554380955,0.00033477785297964,-0.00023258363442207,0.00023258055640734,-0.00023258162006078,0.00023258263808166,-0.00033477754531465,0.00033477585038815,-0.00033477679939836,0.00033477649595056,-0.00037498004143734,0.00037497921918033,-0.00037497934544149,0.00037497987903024,-0.00037497963709843,0.00037497967754459,-0.0003749789495978,0.00037498031008694,-0.00031511970724747,0.00031511850726013,-0.0003151176670216,0.00031512033672862,-0.00031512014231296,0.00031511799069806,-0.00031511812529721,0.00031511995555015,-0.00023258218977314,0.00023258198447875,2.7233019960595e-10,-1.062027603578e-09,-3.1484494518098e-09,2.373349741346e-09,-0.00041752961872944,0.000417528842724,-0.00042160917115028,0.00042161426931536,-0.00040346967141171,0.00040346838095865,-0.00040347092388711,0.00040346704154199,-0.0004156410891311,0.0004156388192801,-0.00041563902628757,0.00041564058396889,-0.00041564147157009,0.0004156383886894,-0.00041563942681884,0.00041564013491145,-0.00042161544228034,0.0004216088543608,-0.0004216096239781,0.00042161379683208,-0.00040346775829609,0.00040347011668643,-0.00040346906184471,0.00040346872925927,-0.00042161504025502,0.00042160927592964,4.9086151257876e-09,2.9541001290795e-09,-0.00033347286814844,0.00033348073175749,6.9243607033167e-09,1.2858723675664e-09,-0.00029629493253194,0.00029629956085673,-0.00027837941327306,0.0002783814149889,-0.00027837873775776,0.00027838209332366,-0.00029629143591474,0.00029630306970776,-0.00029628958028677,0.00029630489928267,-0.00027837381786772,0.00027838703152961,-0.00027837318353685,0.00027838764719517,-0.00037487888080852,0.00037488915800054,-0.0003748808234045,0.00037488721879054,-0.00037487952596439,0.00037488852039654,-0.00037488148312086,0.00037488656016881,-0.00037612020138281,0.00037612417714783,-0.0003761182710034,0.00037612611972637,-0.00037611641786036,0.00037612795632963,-0.00037611831441184,0.00037612607318213,-0.00029629691487044,0.00029629757609208,0.78534703227677,129487,2954,0.0013821471082414,0.001738162430995,0.0013885541405217,16.9529202739,-0.0001043766378088,-0.0001043766378088,-0.0001043766378088,2233249.1943054,0.0045191192244854
19391759,0.28834109617744,0.0050164805410446,0.0016053293616562,0.0018110057400876,0.0016001454393008,-0.00034189997061261,0.0003419002861545,-8.7408581047702e-10,1.1895695315997e-09,-5.0755604365833e-10,8.6929075913901e-10,-0.00023863909435175,0.00023864282080332,-0.00034557799552007,0.00034557902962618,-0.00034557733631878,0.00034557974427088,-0.00023864245347427,0.00023863938692448,-0.00023864046448241,0.00023864144417334,-0.00034557938767567,0.00034557769222218,-0.0003455786520002,0.00034557833150676,-0.00038641848039913,0.00038641765662148,-0.00038641777183309,0.00038641832581433,-0.00038641807516159,0.00038641811486561,-0.00038641735766677,0.00038641877720548,-0.00032504852736159,0.00032504726958971,-0.00032504640214934,0.0003250491880265,-0.00032504894852596,0.00032504677369849,-0.00032504689538106,0.00032504876503156,-0.00023864105246916,0.00023864075999174,2.9274509854775e-10,-1.0858418264871e-09,-4.4464423601866e-09,3.6680457864544e-09,-0.00043125752683731,0.00043125674771636,-0.00043583006408415,0.00043583768908171,-0.00041664380278199,0.00041664171850227,-0.00041664512509494,0.00041664030577926,-0.00042899401583577,0.00042899091421973,-0.00042899111988011,0.0004289935326398,-0.00042899442229588,0.00042899045951825,-0.000428991525333,0.00042899307796616,-0.00043583888977387,0.00043582971191455,-0.0004358304999948,0.00043583722810537,-0.00041664105785105,0.00041664428961947,-0.00041664237242758,0.00041664288376511,-0.00043583844590549,0.00043583017602474,4.8563023855677e-09,2.7848042218209e-09,-0.0003432917487564,0.00034329939031934,8.1215820282954e-09,-1.4106292788909e-10,-0.00030517922965007,0.00030518108581318,-0.00028640377850696,0.00028640296582857,-0.00028640309242421,0.00028640365713543,-0.00030517326718051,0.00030518705757795,-0.00030517121072296,0.00030518909123723,-0.00028639563265223,0.00028641113731674,-0.00028639493030628,0.00028641182067479,-0.00038619945926723,0.00038621043533805,-0.00038620228503575,0.00038620761371052,-0.00038620015327203,0.00038620975022972,-0.00038620297408737,0.00038620692646325,-0.00038808310469202,0.00038808589754956,-0.00038808108830148,0.00038808792483961,-0.00038807832981275,0.00038809066573671,-0.00038808037047943,0.00038808864084323,-0.00030518123967458,0.00030517905799765,0.76951387877859,129487,2954,0.0014236669882901,0.0017952575092703,0.0014294102218309,17.466396768904,-0.00010026882584877,-0.00010026882584877,-0.00010026882584877,2270515.0539662,0.0046592340353761
19591759,0.29615710653531,0.0051511652844471,0.0016471493127242,0.0018628403790861,0.0016411755926368,-0.00035214492205771,0.00035214523277247,-9.2336838691343e-10,1.234060418169e-09,-4.46907821464e-10,8.0476920868397e-10,-0.00024466803501641,0.00024467172350525,-0.00035643715734021,0.0003564380359633,-0.00035643647093071,0.00035643878006992,-0.00024467136618672,0.00024466831659871,-0.00024466927251306,0.00024467047421763,-0.00035643842969566,0.00035643681905259,-0.00035643765934396,0.0003564374935476,-0.00039824462116229,0.00039824380137224,-0.00039824387862266,0.00039824450110709,-0.00039824425530139,0.00039824421827259,-0.00039824350827632,0.00039824490986232,-0.00033518685646571,0.00033518546473401,-0.00033518464458241,0.00033518747064996,-0.00033518724411774,0.00033518500962197,-0.0003351850886362,0.00033518709042351,-0.00024467007688446,0.00024466957531656,2.2944281755074e-10,-1.0177547825566e-09,-5.5635246033114e-09,4.7894014807488e-09,-0.00044540664451887,0.00044540586937631,-0.00045039520368971,0.00045040498904874,-0.00043021685265215,0.00043021389557893,-0.00043021804016383,0.00043021261561628,-0.00044280770201401,0.00044280382396705,-0.00044280407885804,0.00044280718880011,-0.00044280806400469,0.00044280341359343,-0.00044280444258452,0.00044280677601858,-0.00045040617933477,0.00045039485855186,-0.00045039560123866,0.00045040456879437,-0.00043021335908642,0.00043021721502406,-0.00043021454974204,0.00043021593366562,-0.00045040578366669,0.00045039527501966,4.7859726946613e-09,2.6314238026878e-09,-0.0003533330334495,0.00035334045030186,9.116467183814e-09,-1.3685765854652e-09,-0.00031403672325468,0.0003140362540476,-0.0002944267589865,0.00029442350289276,-0.00029442604162455,0.00029442422524112,-0.00031402865398771,0.00031404433650064,-0.00031402652856468,0.00031404643184502,-0.00029441642248738,0.00029443386578525,-0.00029441569593537,0.00029443457060659,-0.00039788660435599,0.00039789812122263,-0.00039789016806111,0.0003978945616903,-0.00039788732445915,0.0003978974093932,-0.00039789088608633,0.00039789384435442,-0.0004002608327591,0.00040026257396702,-0.00040025873102568,0.00040026468815254,-0.000400255234682,0.00040026816601492,-0.000400257351871,0.00040026606485449,-0.00031403882893582,0.00031403413931134,0.75193871860311,129487,2954,0.0014663040166559,0.0018541005220203,0.0014711898640871,17.988936500534,-9.6088507995725e-05,-9.6088507995725e-05,-9.6088507995725e-05,2314319.1603357,0.004803176130582
19791759,0.30430870063444,0.0052877830074006,0.0016895060109056,0.0019156441772425,0.0016826328192526,-0.00036262151193063,0.00036262180535912,-9.7896876427918e-10,1.2726390161855e-09,-3.5741424834299e-10,6.9754846832164e-10,-0.00025067255566068,0.00025067611103694,-0.00036731208724235,0.00036731272887984,-0.00036731137666073,0.00036731350108943,-0.00025067578581131,0.00025067280520089,-0.000250673582212,0.00025067506828987,-0.00036731317342733,0.00036731170235892,-0.00036731236535412,0.00036731241257359,-0.00041041430656613,0.00041041350189404,-0.00041041352895909,0.00041041423270339,-0.00041041400337542,0.00041041385416356,-0.0004104132267214,0.00041041457501341,-0.00034556330185342,0.00034556174041006,-0.00034556100324204,0.00034556383332516,-0.00034556363336714,0.0003455613491459,-0.00034556137325382,0.00034556352026832,-0.00025067467179452,0.00025067388244118,1.3454728573895e-10,-9.1440593430396e-10,-6.5171435962293e-09,5.750511311165e-09,-0.00045991166260473,0.00045991089491365,-0.00046522579952376,0.00046523740933696,-0.00044410449985256,0.00044410071512985,-0.00044410548775849,0.00044409963610724,-0.0004570323998161,0.00045702783336234,-0.00045702815551162,0.00045703183748367,-0.00045703269544408,0.00045702749073447,-0.00045702845623484,0.0004570314891456,-0.00046523858459461,0.00046522546517693,-0.00046522613641498,0.00046523704981109,-0.00044410036613318,0.00044410467576689,-0.00044410136775366,0.00044410358434884,-0.0004652382603936,0.00046522581015578,4.7077211716108e-09,2.4706014473915e-09,-0.00036354774576623,0.00036355492262355,9.9443912237551e-09,-2.4440315670133e-09,-0.00032280905226614,0.00032280656290213,-0.00030241133878874,0.00030240593586932,-0.00030241058855031,0.00030240669133777,-0.00032279918875127,0.00032281643981654,-0.00032279699892535,0.00032281859851637,-0.0003023991239801,0.00030241817810378,-0.00030239837494493,0.0003024189046552,-0.00040989078666328,0.00040990272238604,-0.00040989498215332,0.00040989853113968,-0.00040989153246641,0.00040990198445627,-0.00040989572947052,0.00040989778406359,-0.00041255929088533,0.00041256007137338,-0.00041255710298168,0.00041256227284678,-0.00041255297630366,0.00041256638039869,-0.00041255516861314,0.00041256420395393,-0.0003228112549396,0.00032280435078523,0.7329477673953,129487,2954,0.0015099045171599,0.0019144193036547,0.001513688987185,18.511838048411,-9.1905295612715e-05,-9.1905295612715e-05,-9.1905295612715e-05,2362254.5449872,0.0049503141957885
19991759,0.31256981142004,0.0054290809008731,0.0017332918782381,0.0019703809551997,0.0017254080674352,-0.00037272742334648,0.00037272766608649,-1.0728039802513e-09,1.3163895577026e-09,-1.4423053650317e-10,4.3043287945335e-10,-0.00025647243800863,0.0002564754198078,-0.00037795442567358,0.00037795455578602,-0.00037795372965447,0.00037795531342669,-0.0002564753255798,0.00025647244904926,-0.00025647280272586,0.00025647503494118,-0.00037795509540584,0.00037795393916171,-0.00037795418365802,0.00037795475796614,-0.00042214208608108,0.00042214132447532,-0.0004221412438541,0.00042214212164549,-0.0004221419217543,0.00042214153822551,-0.00042214111864,0.0004221422842164,-0.00035583553524562,0.00035583368761219,-0.00035583316280544,0.00035583585674486,-0.00035583576811421,0.00035583340035241,-0.00035583330965587,0.00035583576163631,-0.00025647450318676,0.0002564732348904,-7.3554687793013e-11,-6.8058522934577e-10,-6.8118731655021e-09,6.0693830312205e-09,-0.00047407120630865,0.00047407046194589,-0.00047978265157029,0.00047979480434322,-0.000457652657313,0.00045764819909866,-0.00045765315496883,0.00045764761747412,-0.00047088065786703,0.00047087574803367,-0.00047087619637348,0.00047087997317357,-0.0004708807903359,0.00047087557386914,-0.00047087637295987,0.00047087975322327,-0.00047979590899399,0.00047978241784228,-0.00047978290391859,0.00047979452915994,-0.00045764825375275,0.00045765242159796,-0.00045764888608879,0.00045765170762531,-0.00047979579065125,0.00047978255731289,4.7660756787331e-09,2.4898254966045e-09,-0.0003733398103409,0.00037334706747731,1.0237392444416e-08,-2.6476008236306e-09,-0.0003312878339889,0.0003312851662125,-0.00031008800189687,0.00031008212929547,-0.00031008718007888,0.00031008296073708,-0.0003312775236262,0.00033129548501362,-0.00033127547887461,0.00033129749208476,-0.00031007523799808,0.00031009491824143,-0.00031007453455285,0.00031009559624086,-0.00042142528656906,0.00042143745858798,-0.00042142962930135,0.0004214331197317,-0.00042142602527899,0.00042143672659802,-0.00042143040968203,0.00042143233953028,-0.00042445707716145,0.0004244576700084,-0.0004244547927557,0.00042445997172233,-0.00042445055758671,0.00042446418378021,-0.00042445272993385,0.00042446203030523,-0.00033129025393384,0.00033128273032592,0.74869675603035,129487,2954,0.0015519626355946,0.0019732969649949,0.0015544283753287,18.674429878165,-9.0604560974682e-05,-9.0604560974682e-05,-9.0604560974682e-05,2402367.7433936,0.0050927059636819
20191759,0.32081514203445,0.0055732171351133,0.001777931818308,0.0020263530546512,0.0017689322621541,-0.00038260554259858,0.00038260573892956,-1.1407184399303e-09,1.3385496171765e-09,6.1785585742767e-11,1.7483998680989e-10,-0.00026197511798816,0.00026197777174735,-0.00038851098448735,0.00038851055480686,-0.00038851022817938,0.00038851136712426,-0.00026197765186566,0.00026197515442488,-0.00026197510526397,0.00026197775976614,-0.00038851117175923,0.0003885104156902,-0.00038851026103295,0.00038851124706666,-0.00043360384502923,0.0004336031684065,-0.00043360298205378,0.0004336039901638,-0.00043360384339423,0.00043360322098571,-0.00043360300183433,0.00043360400550377,-0.0003661675761691,0.00036616541482763,-0.00036616509268056,0.00036616770637686,-0.00036616762937875,0.0003661653093294,-0.00036616511978349,0.00036616773662035,-0.00026197734688566,0.00026197541451758,-3.1699088996943e-10,-4.0646495514963e-10,-6.8497462414101e-09,6.1352415034217e-09,-0.00048809257995302,0.00048809186378052,-0.00049432050720314,0.0004943325843324,-0.00047109102671432,0.00047108608399962,-0.00047109104927509,0.00047108598083608,-0.00048448999512202,0.00048448491966048,-0.00048448550630243,0.00048448916756034,-0.00048448996902931,0.00048448490833759,-0.00048448550832535,0.00048448912664795,-0.00049433371816746,0.00049432029642732,-0.00049432056001219,0.00049433251886513,-0.00047108661213421,0.00047109030189844,-0.00047108670959482,0.00047109013586418,-0.00049433374550283,0.00049432028778144,4.9292670476209e-09,2.5664144935103e-09,-0.00038287032756323,0.00038287782874071,1.0413151592418e-08,-2.5609027242973e-09,-0.00033959508926353,0.00033959258225471,-0.0003175498240266,0.00031754413086157,-0.00031754899666845,0.0003175449544458,-0.00033958478144184,0.000339602900056,-0.0003395825816902,0.00033960508360744,-0.00031753700188531,0.00031755697474258,-0.0003175362429667,0.00031755771116919,-0.00043266800172153,0.00043268048039703,-0.00043267238590173,0.00043267610170644,-0.00043266877745329,0.00043267970980975,-0.00043267318459832,0.00043267530063158,-0.00043611912328232,0.00043611986681767,-0.00043611678211015,0.00043612222274937,-0.00043611248855954,0.00043612650000789,-0.00043611477456901,0.00043612422780637,-0.00033959751125251,0.00033959016765233,0.76566000540009,129487,2954,0.0015930733014178,0.0020315959212541,0.0015940782413325,18.643339562596,-9.0853283499233e-05,-9.0853283499233e-05,-9.0853283499233e-05,2434762.9405299,0.0052324882335887
20391759,0.32903959072838,0.0057179884030794,0.0018227295647716,0.0020827473278977,0.0018125115104101,-0.00039247180568364,0.00039247196673746,-1.1859420460125e-09,1.3489187194517e-09,2.3928968351148e-10,-4.1565100229425e-11,-0.00026731266960883,0.00026731496030651,-0.00039909295370088,0.00039909207581411,-0.00039909217507333,0.00039909291103252,-0.00026731485447809,0.00026731267938526,-0.00026731228369178,0.0002673153271451,-0.00039909274847201,0.00039909232934373,-0.00039909182939913,0.00039909317781308,-0.00044509034978106,0.00044508975199547,-0.00044508947034989,0.00044509059200286,-0.00044509047961523,0.00044508967173848,-0.00044508961715537,0.00044509047869279,-0.00037652156812566,0.00037651918244249,-0.00037651903295577,0.00037652154042432,-0.00037652148576583,0.00037651921132148,-0.00037651893209171,0.00037652169627839,-0.00026731495746481,0.00026731252905045,-4.8518126385426e-10,-2.1322112986584e-10,-6.9739894707323e-09,6.2827945583654e-09,-0.00050222047411948,0.00050221978145093,-0.00050903558859153,0.00050904783432642,-0.00048465260404163,0.00048464724107727,-0.00048465227814885,0.0004846474933074,-0.00049813587274986,0.00049813061300734,-0.00049813129434911,0.00049813494714508,-0.00049813573041198,0.0004981307218027,-0.00049813117741284,0.00049813502918164,-0.00050904897121455,0.00050903541912578,-0.00050903551543604,0.00050904789123609,-0.00048464809843616,0.00048465154565381,-0.00048464783701743,0.00048465174004786,-0.00050904911213638,0.00050903529615711,5.1010856028952e-09,2.6170539829314e-09,-0.00039238158200865,0.00039238931037476,1.0724656057862e-08,-2.6291004235441e-09,-0.0003478445320803,0.00034784199160274,-0.00032492729806808,0.00032492144240247,-0.00032492643834617,0.00032492230648798,-0.00034783397709052,0.00034785255557212,-0.0003478316257272,0.00034785488019504,-0.00032491411261061,0.00032493465524666,-0.00032491330805176,0.00032493543627181,-0.00044391316622997,0.00044392603379434,-0.00044391767908523,0.00044392152525095,-0.00044391398299276,0.00044392522192025,-0.00044391851595167,0.0004439206869228,-0.00044777089787884,0.00044777162177869,-0.00044776844615555,0.00044777409169435,-0.00044776401614065,0.00044777850120756,-0.00044776642669943,0.00044777610389438,-0.00034784704693788,0.00034783946577907,0.77157339219057,129487,2954,0.0016341341185069,0.0020903342215139,0.0016336464788735,18.607190736322,-9.1142474109422e-05,-9.1142474109422e-05,-9.1142474109422e-05,2466240.4336591,0.0053725996415633
20591759,0.33724086684016,0.0058499626828681,0.0018635309862264,0.0021344237597642,0.0018520079368775,-0.00040165409403068,0.0004016542193677,-1.2488199518048e-09,1.3764453477821e-09,3.5981753036555e-10,-2.0127049279519e-10,-0.00027144161923936,0.00027144369671572,-0.00040828657687098,0.0004082853509081,-0.00040828576600962,0.00040828622238156,-0.00027144361285949,0.00027144160316909,-0.00027144097004528,0.00027144432951317,-0.00040828609384172,0.00040828588676876,-0.00040828514865214,0.00040828676024666,-0.00045614838915038,0.00045614782081507,-0.0004561474805811,0.00045614868900755,-0.0004561486127907,0.00045614764578861,-0.00045614771861102,0.00045614848388429,-0.000385872609561,0.00038587000402162,-0.00038586998090431,0.00038587245313954,-0.00038587243194532,0.00038587013053313,-0.00038586979016707,0.00038587269737917,-0.00027144400628163,0.00027144116297222,-6.1717612156813e-10,-5.637387025446e-11,-7.1818527773716e-09,6.5138914779249e-09,-0.00051564808722361,0.00051564741801837,-0.00052273642083827,0.00052274901818138,-0.0004974562854709,0.00049745052132549,-0.00049745568276168,0.00049745105685731,-0.00051124412773377,0.00051123865423125,-0.00051123940880718,0.00051124313157144,-0.00051124389311652,0.0005112388584177,-0.00051123919697017,0.00051124331164542,-0.00052275014819449,0.00052273628191914,-0.00052273624736434,0.00052274917621104,-0.00049745163636142,0.00049745496460756,-0.00049745108975793,0.00049745545071057,-0.00052275038031345,0.00052273606660408,5.1549639307728e-09,2.584560784591e-09,-0.00040118360433461,0.00040119135536914,1.0956231771118e-08,-2.8318600771626e-09,-0.0003545999867694,0.00035459711876364,-0.00033107808016288,0.00033107180471018,-0.00033107719644219,0.00033107269319939,-0.00035458909124522,0.0003546080221898,-0.00035458664024463,0.00035461044577077,-0.00033106447087671,0.00033108544153059,-0.00033106363353072,0.00033108625529886,-0.00045471106028494,0.00045472412169935,-0.00045471571965634,0.0004547194663127,-0.0004547119066749,0.0004547232795172,-0.00045471658369108,0.00045471860059635,-0.00045840514119231,0.00045840566254011,-0.00045840261104482,0.00045840821223162,-0.00045839803088671,0.00045841277163591,-0.00045840052980583,0.00045841028480303,-0.00035460257094042,0.0003545945216124,0.70761958195478,129487,2954,0.0016723489111141,0.002146157138934,0.0016702624038154,18.570839578455,-9.1433283372358e-05,-9.1433283372358e-05,-9.1433283372358e-05,2503878.6127419,0.0055039716925469
20791759,0.34500959968959,0.0059819129826033,0.0019043543923103,0.0021860754342853,0.0018914831560077,-0.000409518346659,0.00040951842057086,-1.3291493539437e-09,1.4059465382175e-09,5.6483091847963e-10,-4.6249171909251e-10,-0.00027530849657512,0.00027531005111224,-0.00041656392385241,0.00041656218478681,-0.00041656311412502,0.00041656305398812,-0.00027531013754521,0.00027530830161505,-0.00027530726463887,0.00027531126911547,-0.00041656301586236,0.00041656313889805,-0.00041656200066051,0.00041656409257751,-0.00046554488908068,0.00046554437551878,-0.00046554393371028,0.000465545294379,-0.00046554525507542,0.00046554405977914,-0.00046554433590631,0.00046554492103295,-0.00039413384332371,0.00039413096343265,-0.0003941311506381,0.0003941334868158,-0.00039413354460149,0.00039413120432487,-0.00039413076919541,0.00039413392738817,-0.00027531087010869,0.0002753075261295,-8.0623322217995e-10,1.6614999067301e-10,-6.8161158772505e-09,6.1794135878331e-09,-0.00052737792087128,0.00052737728246984,-0.00053486974575938,0.0005348815908562,-0.00050859676308698,0.00050859081985835,-0.00050859572175019,0.00050859180272305,-0.00052266771372403,0.00052266235425945,-0.00052266321045364,0.00052266660639186,-0.00052266733299508,0.00052266270949163,-0.00052266287777137,0.00052266691210622,-0.00053488267587532,0.00053486970300112,-0.00053486947625842,0.00053488184678092,-0.0005085922994543,0.00050859506535644,-0.0005085913930056,0.00050859592112571,-0.0005348830815055,0.00053486931328647,5.3751834076233e-09,2.737886671311e-09,-0.00040864931239748,0.00040865744118148,1.0776639359455e-08,-2.2539603275702e-09,-0.00036058559999443,0.00036058405733954,-0.00033644389624088,0.00033643870292496,-0.00033644295338512,0.00033643965454362,-0.00036057552368071,0.0003605941410292,-0.00036057313448149,0.00036059649942544,-0.00033643099458416,0.00033645163179551,-0.00033643017241586,0.00033645242740448,-0.00046382333353685,0.00046383652442188,-0.00046382773096062,0.00046383213042743,-0.00046382418912465,0.0004638356717279,-0.00046382863005724,0.00046383122946131,-0.00046763790479884,0.00046763894323731,-0.00046763527343965,0.00046764159885174,-0.00046763098270099,0.00046764586596189,-0.00046763350997868,0.00046764335082339,-0.00036058836900006,0.00036058127714006,0.74689073206299,129487,2954,0.0017050793441954,0.0021949183028833,0.001701318843014,17.866006993399,-9.7071944052805e-05,-9.7071944052805e-05,-9.7071944052805e-05,2528442.2707574,0.0056171513699555
20991759,0.35225291912027,0.0061004944985653,0.0019410419142152,0.0022326140518162,0.0019268385325339,-0.00041610838086982,0.00041610843012241,-1.3844508994165e-09,1.4369860232031e-09,6.6283793737365e-10,-5.8832480818389e-10,-0.00027773123000873,0.00027773267998299,-0.00042329588988552,0.00042329385706657,-0.00042329503399127,0.00042329477414381,-0.00027773272703326,0.00027773106693534,-0.00027772984262307,0.00027773405996153,-0.0004232947456858,0.00042329505071308,-0.00042329372200562,0.00042329601735028,-0.00047369146354191,0.00047369097702681,-0.00047369048533514,0.00047369191989104,-0.000473691909146,0.00047369058085417,-0.00047369095478385,0.00047369147741887,-0.00040094072080806,0.00040093763845538,-0.00040093792616815,0.00040094027086802,-0.00040094032549605,0.00040093797088882,-0.00040093749466504,0.00040094076760763,-0.00027773374434026,0.00027773000791548,-9.2994198927821e-10,3.1685920450704e-10,-6.5574501132091e-09,5.9464171386853e-09,-0.0005376532960795,0.000537652683808,-0.00054547327418782,0.00054548454887701,-0.00051829352780024,0.00051828752659574,-0.00051829224185757,0.00051828876052819,-0.00053265271760648,0.00053264746382096,-0.00053264837941544,0.000532651543754,-0.00053265225517175,0.00053264790390158,-0.00053264795313848,0.00053265194633266,-0.0005454856482628,0.00054547325537446,-0.00054547289291885,0.00054548491807462,-0.00051828924730598,0.00051829158182367,-0.00051828805035947,0.00051829273397788,-0.00054548612519398,0.00054547279262218,5.5489228523629e-09,2.8212313178014e-09,-0.00041483600996524,0.00041484439888003,1.068274522947e-08,-1.8845698861873e-09,-0.00036504607302874,0.00036504527770618,-0.00034040064737134,0.00034039617643626,-0.00034039969428437,0.00034039713701983,-0.00036503654692376,0.00036505480870537,-0.00036503399530879,0.00036505733130353,-0.00034038822329814,0.00034040862928791,-0.00034038735139171,0.00034040947649607,-0.00047168960851998,0.00047170293634079,-0.00047169386036484,0.0004716986882084,-0.00047169050052153,0.00047170204718644,-0.00047169478235908,0.00047169776398851,-0.0004754983241655,0.00047549970279067,-0.00047549562484329,0.0004755024253981,-0.0004754914696718,0.00047550655932943,-0.00047549410436512,0.00047550393368244,-0.00036504885922669,0.00036504247193349,0.72120224497876,129487,2954,0.0017325085416191,0.0022376307232761,0.0017270541857554,16.958565676351,-0.00010433147458919,-0.00010433147458919,-0.00010433147458919,2546413.0914039,0.0057135783677416
21191759,0.35900038601424,0.0062113059044943,0.0019753534758304,0.0022761181242861,0.0019598343043779,-0.00042214790669579,0.0004221479550312,-1.4231249277309e-09,1.4746672436927e-09,6.878309296196e-10,-6.1514080947346e-10,-0.00028010797264819,0.00028010945839049,-0.00042952816626016,0.00042952604977567,-0.00042952727922139,0.00042952699783482,-0.00028010949086246,0.00028010782127515,-0.00028010654999687,0.00028011087736779,-0.00042952696533221,0.00042952730006051,-0.00042952592348561,0.00042952828811029,-0.00048113425055865,0.00048113375644198,-0.000481133248911,0.00048113472346382,-0.00048113471496161,0.00048113334147859,-0.00048113373249993,0.00048113426526032,-0.00040707419629319,0.00040707101748201,-0.00040707133606822,0.00040707374286418,-0.00040707378003422,0.00040707137162439,-0.00040707089110087,0.00040707425151599,-0.00028011057510726,0.00028010669647059,-9.4210771877059e-10,3.4738844366856e-10,-6.5887711164916e-09,5.9956397221015e-09,-0.00054707295311921,0.00054707235888842,-0.00055520329620245,0.00055521464775084,-0.00052715246602028,0.0005271464187324,-0.00052715114315006,0.00052714769024366,-0.0005418318713535,0.00054182659759851,-0.00054182750852016,0.00054183070104037,-0.00054183139694167,0.00054182705024201,-0.00054182706725362,0.00054183111914075,-0.00055521574795141,0.00055520330302611,-0.00055520289538182,0.00055521503677004,-0.00052714816033748,0.00052715049508896,-0.00052714691853145,0.00052715169335583,-0.0005552162336303,0.00055520283129339,5.6804209045994e-09,2.8523389169838e-09,-0.00042048381531666,0.00042049236879438,1.0825830769683e-08,-1.8535452599058e-09,-0.00036913228861609,0.00036913163520591,-0.00034404069278337,0.00034403626000756,-0.00034403971173892,0.00034403724870406,-0.00036912275509461,0.00036914117380415,-0.00036912008745206,0.00036914381343932,-0.00034402816461722,0.00034404881784576,-0.0003440272539247,0.0003440497035436,-0.00047885190464131,0.00047886546563876,-0.00047885619677305,0.00047886117728545,-0.00047885283146936,0.00047886454163932,-0.00047885715023123,0.00047886022154563,-0.00048268224986336,0.00048268365494909,-0.00048267945902056,0.00048268646972531,-0.00048267525967817,0.00048269064804996,-0.00048267799849583,0.00048268791756357,-0.00036913515527726,0.00036912874934182,0.72387546938609,129487,2954,0.0017576460260523,0.002276784367057,0.0017505472795841,16.045726153045,-0.00011163419077564,-0.00011163419077564,-0.00011163419077564,2562942.4311883,0.0058018742949981
21391759,0.36537747471741,0.0063164276670018,0.0020079206776051,0.0023174083259795,0.0019910986634172,-0.00042812484516882,0.00042812493337713,-1.4385064926656e-09,1.5293908859009e-09,5.9237803581645e-10,-4.7700594138416e-10,-0.00028259699548448,0.00028259892571406,-0.00043574551013993,0.00043574360719682,-0.00043574456226286,0.00043574461136545,-0.00028259881431233,0.00028259698757279,-0.00028259591030872,0.00028260001096776,-0.00043574450218828,0.00043574465856429,-0.00043574347428316,0.00043574563768027,-0.00048843940844948,0.00048843886436824,-0.00048843839543262,0.00048843984291378,-0.0004884398093217,0.0004884385178039,-0.0004884387893435,0.00048843947412227,-0.00041314345428659,0.00041314028852079,-0.00041314049261783,0.00041314311600989,-0.00041314308376752,0.0004131405986514,-0.00041314015830782,0.00041314351531666,-0.00028259977354416,0.00028259599240816,-8.4472535151447e-10,2.5998752997486e-10,-7.1060982059747e-09,6.5232471841439e-09,-0.00055628294806696,0.00055628236361225,-0.00056474435620643,0.0005647567670102,-0.00053581627229847,0.00053581010296097,-0.00053581516133905,0.00053581115385256,-0.00055079072201436,0.00055078518831739,-0.00055078603474515,0.00055078962652857,-0.00055079032094561,0.00055078556865427,-0.00055078564147919,0.00055078999573046,-0.00056475789608091,0.00056474433940581,-0.00056474398024709,0.00056475712952389,-0.00053581165173795,0.00053581449063036,-0.00053581055506933,0.00053581553745721,-0.00056475828690724,0.00056474396353924,5.7211635332856e-09,2.7863602209461e-09,-0.00042607627195446,0.00042608480095441,1.1359568526861e-08,-2.4123042872967e-09,-0.00037325248422902,0.00037325072943209,-0.00034773248202632,0.00034772695413164,-0.00034773149834972,0.00034772794065131,-0.00037324198095265,0.0003732612392357,-0.00037323910382366,0.00037326408954959,-0.00034771891288432,0.00034774055121057,-0.0003477179306352,0.00034774150719505,-0.00048587311565431,0.00048588706206696,-0.00048587778522045,0.00048588239817374,-0.00048587409032558,0.00048588609118106,-0.00048587876347106,0.00048588141989217,-0.00048981120583455,0.00048981214800779,-0.00048980834504121,0.0004898150329101,-0.00048980374888163,0.00048981960921054,-0.00048980662550744,0.00048981674115824,-0.00037325535087734,0.000373247847276,0.72692810581883,129487,2954,0.0017825225011039,0.0023150650457666,0.0017738092216902,15.323533435114,-0.00011741173251908,-0.00011741173251908,-0.00011741173251908,2579191.089843,0.0058888045695926
21591759,0.37142990891849,0.0064170460778911,0.002039102145757,0.0023569536359752,0.0020209902961589,-0.00043387020251205,0.00043387033289259,-1.4707214477193e-09,1.6030931549354e-09,4.9363098469167e-10,-3.3285402547918e-10,-0.00028500818982046,0.00028501039812589,-0.00044178428804364,0.00044178266999523,-0.00044178334355904,0.00044178367653397,-0.00028501035162383,0.00028500811671945,-0.00028500723473584,0.00028501135129899,-0.00044178355840868,0.00044178345127612,-0.0004417824588344,0.00044178449908515,-0.00049544210791728,0.00049544147783436,-0.00049544104500151,0.00049544250089887,-0.00049544241368678,0.00049544122047093,-0.00049544137172134,0.00049544220108561,-0.00041901231028105,0.00041900920170418,-0.00041900928808807,0.00041901210175733,-0.00041901205983036,0.0004190093956426,-0.00041900899358457,0.0004190124521213,-0.00028501095674247,0.0002850074678635,-7.0198499186977e-10,1.1432341858995e-10,-7.8432122377941e-09,7.2586784339299e-09,-0.00056512960801163,0.00056512902250578,-0.00057394490967106,0.00057395889585311,-0.0005441394298498,0.0005441330170838,-0.00054413856142031,0.00054413381979537,-0.00055937074740775,0.00055936481215283,-0.00055936557043514,0.0005593697540382,-0.00055937042544588,0.00055936510617429,-0.00055936528282025,0.00055937001267242,-0.00057395998317374,0.00057394492395992,-0.00057394466507995,0.00057395912528339,-0.00054413428624913,0.00054413793509334,-0.00054413350745155,0.00054413865475418,-0.00057396031574606,0.00057394460785092,5.7077908250701e-09,2.7021172467023e-09,-0.0004314333372836,0.00043144176778327,1.2022202391624e-08,-3.179118940003e-09,-0.00037723765755689,0.00037723457629394,-0.00035130748654138,0.00035130039131523,-0.00035130644473339,0.00035130144138978,-0.00037722581983513,0.0003772464258545,-0.00037722298001001,0.00037724923240524,-0.00035129247736497,0.00035131543619476,-0.00035129150826117,0.00035131637687846,-0.00049258749233818,0.00049260182563644,-0.00049259262401292,0.00049259669842909,-0.00049258847854935,0.00049260084383076,-0.00049259363755701,0.00049259568314183,-0.00049670567498818,0.00049670593579336,-0.00049670270695925,0.00049670892549137,-0.00049669767060987,0.00049671394066717,-0.00049670058040203,0.00049671103967841,-0.00037724070603375,0.00037723151244027,0.73328393072521,129487,2954,0.0018064352014911,0.0023518339502072,0.0017960913590976,14.658293273919,-0.00012273365380865,-0.00012273365380865,-0.00012273365380865,2593401.3330212,0.0059722660652035
21791759,0.37717370983357,0.0065111417416169,0.0020682671701816,0.0023939839758224,0.0020488905956129,-0.00043917986748651,0.00043918003788206,-1.49252325227e-09,1.664278210024e-09,4.0058986494578e-10,-1.9623072934474e-10,-0.00028703821744293,0.00028704082292756,-0.0004472996506052,0.00044729826002295,-0.00044729866538341,0.00044729930936366,-0.00028704068955309,0.00028703823304995,-0.00028703753581933,0.00028704150038146,-0.00044729913376216,0.00044729882909717,-0.00044729801872164,0.00044729988943084,-0.00050198549915929,0.00050198480883785,-0.00050198441131605,0.00050198585322474,-0.00050198573327895,0.00050198462262596,-0.0005019846579472,0.00050198563462146,-0.00042441678201732,0.00042441369041593,-0.00042441366589601,0.00042441669199987,-0.00042441659134801,0.00042441382601267,-0.00042441346392816,0.000424416950541,-0.00028704111355177,0.00028703776533775,-5.914910792359e-10,4.2808198047758e-12,-8.5740875220411e-09,7.9907660592732e-09,-0.00057340416907881,0.00057340358448251,-0.00058253920273163,0.00058255468236742,-0.00055190850881009,0.00055190184765816,-0.00055190787162167,0.00055190241215712,-0.00056739362924198,0.0005673872927081,-0.00056738798607779,0.00056739271725902,-0.00056739338383566,0.00056738750763906,-0.00056738776425294,0.00056739290696392,-0.00058255577613787,0.00058253919576137,-0.00058253901492621,0.00058255485277628,-0.0005519029000178,0.00055190723473492,-0.00055190231785931,0.00055190775128207,-0.00058255602164948,0.00058253896908878,5.6783198691375e-09,2.5789171079813e-09,-0.00043635250927683,0.0004363607864839,1.2674950959063e-08,-3.9938363221926e-09,-0.00038074450715142,0.00038073986784998,-0.00035445925885705,0.00035445054673984,-0.00035445820159975,0.00035445161284067,-0.00038073131506769,0.00038075307193741,-0.00038072833783426,0.00038075601122911,-0.00035444282085651,0.00035446702080144,-0.00035444180337018,0.00035446800709325,-0.00049883973779919,0.00049885444320858,-0.00049884536353234,0.00049884882257147,-0.00049884076116048,0.00049885342525969,-0.00049884640307229,0.00049884778139014,-0.00050309255675364,0.00050309210283486,-0.00050308951167844,0.00050309516820515,-0.00050308396935792,0.00050310068937396,-0.00050308698895234,0.0005030976828731,-0.00038074760131,0.0003807367563178,0.72318902506772,129487,2954,0.0018285351278038,0.0023862235483536,0.0018165515946479,13.994571416879,-0.00012804342866497,-0.00012804342866497,-0.00012804342866497,2606412.4661335,0.0060496843365692
21991759,0.38296794667647,0.0066045698041399,0.0020972372907612,0.0024307882027433,0.0020765443106354,-0.00044591381502521,0.00044591406328668,-1.4947334881459e-09,1.7433204510289e-09,1.8374763963574e-10,1.0550423693269e-10,-0.00029042763341561,0.00029043094333832,-0.00045421111358161,0.00045421027982048,-0.00045421009448726,0.00045421137013716,-0.00029043070118031,0.00029042776303133,-0.00029042749115496,0.00029043107146535,-0.00045421110097602,0.00045421035276669,-0.00045420996423463,0.00045421142428337,-0.00051000468910261,0.00051000387961788,-0.00051000357327822,0.00051000494342618,-0.00051000475312422,0.00051000385923035,-0.0005100036471063,0.00051000490167792,-0.00043117519023005,0.00043117225795785,-0.00043117198964758,0.00043117535295459,-0.00043117516679837,0.00043117223588472,-0.0004311719637395,0.00043117542463485,-0.00029043063653098,0.00029042777363992,-3.4494724557637e-10,-2.565995486114e-10,-1.0034237697044e-08,9.4387645909855e-09,-0.00058317462812461,0.00058317403128252,-0.00059260161886787,0.00059262009728383,-0.00056115202181356,0.00056114489436021,-0.00056115188741875,0.00056114494307867,-0.00057692272035432,0.00057691558655092,-0.00057691614090027,0.00057692198020742,-0.00057692264177652,0.00057691562693405,-0.0005769160797512,0.00057692200206357,-0.00059262118689882,0.00059260156480067,-0.0005926015875335,0.00059262010719423,-0.00056114546602968,0.00056115124228272,-0.00056114536726349,0.00056115126147772,-0.00059262125551582,0.0005926015186496,5.4948232850234e-09,2.3001118300705e-09,-0.00044269485173394,0.00044270266337665,1.3881827529852e-08,-5.6914187874856e-09,-0.00038559141495585,0.00038558349200297,-0.00035896617084274,0.00035895409725553,-0.00035896509364224,0.00035895518622858,-0.00038557545098191,0.00038559947178087,-0.00038557234403556,0.00038560253453042,-0.00035894688609971,0.00035897342218129,-0.00035894582518463,0.00035897444866888,-0.00050655211909838,0.00050656736344526,-0.00050655871276683,0.00050656077498208,-0.00050655317837665,0.0005065663111659,-0.00050655978029847,0.000506559705247,-0.00051087932323626,0.0005108773603099,-0.00051087619403094,0.00051088050667653,-0.00051086967205591,0.00051088700706798,-0.00051087279791038,0.00051088389806839,-0.00038559456956365,0.00038558031972185,0.7124711529367,129487,2954,0.0018565591517912,0.0024268293282969,0.0018429296538117,14.108752111121,-0.00012712998311104,-0.00012712998311104,-0.00012712998311104,2631882.4107793,0.0061452779626237
22191759,0.38891647815679,0.0066988260047715,0.0021264622362156,0.0024679853471215,0.0021043784214344,-0.00045316269008623,0.00045316298708752,-1.5179968430399e-09,1.8146409014881e-09,6.2172337207187e-11,2.8059442319474e-10,-0.00029423669211584,0.00029424040469494,-0.00046158310609308,0.00046158259610629,-0.00046158206786751,0.00046158370948961,-0.00029424014996073,0.00029423684131826,-0.00029423680522127,0.00029424026902251,-0.00046158339903436,0.00046158236861461,-0.00046158221671131,0.00046158347832848,-0.00051860171419244,0.00051860081910164,-0.00051860056005523,0.00051860191427006,-0.00051860167608841,0.00051860089983241,-0.00051860054087355,0.00051860196881026,-0.00043836694625572,0.00043836407814871,-0.00043836366538872,0.00043836725521139,-0.00043836703554078,0.00043836394889147,-0.00043836372365979,0.00043836723771171,-0.00029423975392425,0.00029423717616009,-1.9327598653658e-10,-4.1699101050866e-10,-1.1236747535297e-08,1.0633786878566e-08,-0.00059353636451506,0.00059353576004414,-0.00060322142188236,0.00060324235765424,-0.0005709431923827,0.00057093555868282,-0.00057094334830627,0.00057093530561926,-0.00058707647417714,0.00058706864471652,-0.00058706911972241,0.00058707584415254,-0.00058707649275405,0.00058706858406101,-0.00058706916208682,0.00058707575814295,-0.00060324341928086,0.00060322134583675,-0.00060322150348756,0.00060324225193612,-0.00057093583638398,0.0005709427178363,-0.00057093605169046,0.00057094241200814,-0.00060324339673734,0.00060322139350563,5.3250048084716e-09,2.0482282320666e-09,-0.00044954106845528,0.00044954845543949,1.484518246009e-08,-7.1028741409824e-09,-0.00039080924522562,0.00039079865621315,-0.00036387801182576,0.0003638631224731,-0.00036387689567475,0.00036386424889675,-0.00039079101914604,0.00039081690134572,-0.00039078786413177,0.00039082000774354,-0.0003638563786307,0.00036388479686468,-0.00036385529984511,0.00036388583839789,-0.00051482502014841,0.00051484065758068,-0.00051483239987211,0.00051483328389969,-0.00051482610385484,0.00051483958178099,-0.0005148334985462,0.00051483218341351,-0.0005191754041671,0.00051917213948584,-0.00051917218332851,0.00051917537689198,-0.00051916488078158,0.00051918265759389,-0.00051916807642178,0.00051917948066648,-0.00039081251496246,0.00039079537046791,0.70115780517104,129487,2954,0.0018867245468322,0.0024698908031199,0.0018714027237385,14.451486239502,-0.00012438811008398,-0.00012438811008398,-0.00012438811008398,2663191.9525541,0.0062476152449053
22391759,0.39502335844651,0.0067994128598098,0.0021576503247147,0.0025076898759255,0.0021340726591696,-0.00046079842960891,0.00046079874880454,-1.550873973747e-09,1.8694573962054e-09,4.3077134052536e-11,3.24440373584e-10,-0.00029855204251967,0.00029855593256922,-0.00046961565199531,0.00046961519846644,-0.00046961458439322,0.00046961634290373,-0.00029855565002397,0.0002985522199724,-0.00029855222224316,0.00029855572688705,-0.00046961600699596,0.00046961491028283,-0.00046961479611315,0.00046961604803108,-0.00052753754544882,0.0005275366221388,-0.00052753636034239,0.00052753774437935,-0.00052753748623969,0.00052753672249274,-0.00052753632106784,0.00052753782056364,-0.00044598774180002,0.00044598482873814,-0.00044598437751431,0.00044598809763931,-0.00044598785308943,0.00044598468294536,-0.00044598445584363,0.00044598805462156,-0.00029855519305197,0.0002985526114348,-1.6201598068477e-10,-4.4940860116616e-10,-1.2038522186381e-08,1.1434762668085e-08,-0.00060437220656225,0.00060437160116857,-0.00061442508963968,0.00061444761599322,-0.00058117809177482,0.00058116999075916,-0.000581178310337,0.00058116966973479,-0.00059766047471503,0.00059765214012188,-0.00059765260515808,0.00059765987453627,-0.00059766051384762,0.00059765205707249,-0.00059765266702363,0.00059765976720056,-0.00061444866857445,0.00061442500022077,-0.00061442518973348,0.00061444749012107,-0.00058117020932798,0.00058117768224668,-0.00058117048254851,0.00058117731297421,-0.00061444862466564,0.00061442507083978,5.2597581967549e-09,1.8940451151042e-09,-0.00045675869764587,0.00045676586421262,1.5529028927046e-08,-8.0181823945244e-09,-0.00039659790417046,0.00039658559520652,-0.0003692942975768,0.00036927758029013,-0.00036929315378992,0.00036927873520421,-0.00039657819023142,0.00039660533052193,-0.00039657494261637,0.00039660852511666,-0.00036927109360725,0.00036930082803755,-0.00036926998239764,0.00036930189960432,-0.00052341460749837,0.00052343058818853,-0.00052342251993456,0.00052342268220043,-0.00052341572175101,0.00052342948236599,-0.00052342364746384,0.0005234215524837,-0.00052797984035202,0.00052797573699277,-0.00052797653372025,0.00052797906009859,-0.00052796869552751,0.00052798687590873,-0.0005279719803783,0.00052798361117403,-0.00039660125673811,0.00039658222590521,0.72867975332147,129487,2954,0.001918498684503,0.002514920632767,0.0019014201596312,14.800318561895,-0.00012159745150484,-0.00012159745150484,-0.00012159745150484,2692733.2657591,0.0063551162511565
22591759,0.40129006376772,0.006903636487445,0.0021899455057043,0.0025489085171637,0.0021647824645771,-0.00046863502518514,0.00046863534738141,-1.5935498626161e-09,1.9151372923409e-09,8.3604715771557e-11,2.8778480726874e-10,-0.00030276729247717,0.00030277119485954,-0.00047793688369631,0.00047793632962541,-0.00047793578742982,0.00047793750286032,-0.00030277091086448,0.00030276747078964,-0.00030276739461789,0.00030277106672555,-0.00047793716343366,0.00047793611608557,-0.00047793592386565,0.00047793728533557,-0.00053674643607759,0.00053674551144839,-0.00053674522047482,0.00053674666261869,-0.00053674640205088,0.0005367455859362,-0.0005367452074341,0.00053674671300552,-0.00045384742979445,0.00045384440836703,-0.00045384398178522,0.00045384776529691,-0.00045384751619473,0.00045384428743846,-0.00045384403394765,0.00045384774860328,-0.00030277052615336,0.00030276778838901,-1.9781442383161e-10,-4.0922152114064e-10,-1.2598522315394e-08,1.1998896944508e-08,-0.00061560470129997,0.00061560409995037,-0.00062612299526911,0.0006261466037319,-0.00059178993882496,0.00059178139335884,-0.00059179008153949,0.00059178114654028,-0.00060856159605137,0.00060855287175629,-0.00060855336418669,0.0006085609810057,-0.00060856160999821,0.0006085528139043,-0.00060855340127143,0.00060856089846873,-0.00062614764942757,0.00062612290861772,-0.00062612307006383,0.00062614650239363,-0.0005917816830991,0.00059178946006757,-0.00059178188158292,0.00059178916383644,-0.00062614763212157,0.00062612295332561,5.2551415090342e-09,1.8011246149768e-09,-0.00046414744238518,0.00046415451233395,1.6040581732919e-08,-8.6302050785486e-09,-0.0004025287201325,0.00040251529392905,-0.00037478757327313,0.00037476962418484,-0.00037478639988929,0.00037477080929455,-0.0004025079888047,0.0004025360479811,-0.00040250465491305,0.00040253932581253,-0.000374763264449,0.00037479397866154,-0.00037476212356632,0.00037479507823099,-0.00053225333204499,0.00053226961872764,-0.00053226161866306,0.0005322613387931,-0.00053225447563147,0.00053226848364388,-0.00053226277552771,0.00053226017933069,-0.00053710438100269,0.00053709971997943,-0.00053710098755771,0.00053710313010398,-0.00053709277522427,0.00053711131962485,-0.00053709614624953,0.00053710796923534,-0.00040253216017118,0.00040251183616553,0.73620698792775,129487,2954,0.0019511090797798,0.0025615963178916,0.0019321487368478,15.149395721063,-0.00011880483423149,-0.00011880483423149,-0.00011880483423149,2719750.6763594,0.006465843028162
22791759,0.40761500197607,0.0070097384376202,0.0022228025866646,0.0025909533103982,0.0021959825405574,-0.00047618859322588,0.00047618888354453,-1.6542589384808e-09,1.9444316313087e-09,2.3253359716999e-10,1.0460558420944e-10,-0.00030662081924449,0.00030662444170045,-0.00048602895052319,0.00048602800885661,-0.00048602782553356,0.00048602920820385,-0.00030662419572579,0.00030662095524116,-0.00030662058916849,0.00030662465150333,-0.00048602890455895,0.00048602811752125,-0.00048602763679542,0.00048602932368304,-0.00054568038186478,0.00054567950502207,-0.00054567913642343,0.00054568068807531,-0.00054568045741456,0.00054567947065716,-0.00054567923361704,0.00054568062688235,-0.00046142671267631,0.00046142346436951,-0.00046142318139264,0.00046142690972759,-0.00046142668956545,0.00046142344914827,-0.00046142312317157,0.00046142700746792,-0.00030662413289554,0.00030662095379873,-3.5589678945767e-10,-2.3567805069733e-10,-1.2662960137216e-08,1.2077354306175e-08,-0.00062661169401589,0.00062661110675793,-0.00063764350014128,0.00063766715468806,-0.00060217152411587,0.000602162615379,-0.00060217134049431,0.00060216269932433,-0.00061920744304541,0.00061919857691062,-0.00061919916483055,0.00061920673264582,-0.00061920734872633,0.00061919863089541,-0.00061919909516908,0.00061920676035903,-0.00063766819632513,0.00063764344195043,-0.00063764346720634,0.00063766716208729,-0.00060216321469228,0.00060217073109736,-0.00060216309141525,0.00060217076105895,-0.00063766829167347,0.00063764337300677,5.3573242944423e-09,1.8166371712774e-09,-0.00047121930465784,0.00047122649511985,1.6179219474113e-08,-8.6395643651398e-09,-0.00040814173007495,0.00040812837724016,-0.00037995623482389,0.00037993824054148,-0.000379955030207,0.00037993945676784,-0.00040812094379281,0.00040814918653282,-0.00040811753139118,0.00040815254198652,-0.00037993178004995,0.00037996274224808,-0.00037993061236811,0.00037996386801026,-0.00054080392926895,0.00054082041119488,-0.00054081226599136,0.00054081208131603,-0.00054080510080401,0.00054081924768181,-0.00054081345235389,0.00054081089219699,-0.00054597745138071,0.00054597277119847,-0.00054597397143854,0.00054597626936773,-0.0005459657122805,0.00054598450528324,-0.00054596916491178,0.00054598107202171,-0.00040814526095862,0.00040812482711022,0.74292714076244,129487,2954,0.0019825422725298,0.0026073324070107,0.0019615592196751,15.2874891699,-0.0001177000866408,-0.0001177000866408,-0.0001177000866408,2742903.7026561,0.0065731245785407
22991759,0.4139841991766,0.0071108983457306,0.0022541208995363,0.0026311709573083,0.002225606488886,-0.0004834412871964,0.00048344153761602,-1.7175966743359e-09,1.9684961002365e-09,3.7916470641084e-10,-8.5142450809513e-11,-0.00030989586431128,0.0003098992026627,-0.00049350451018398,0.00049350316529278,-0.00049350335607975,0.00049350439590364,-0.00030989899225426,0.00030989596131481,-0.00030989530703749,0.00030989974284584,-0.00049350413273209,0.00049350360654868,-0.00049350283789071,0.00049350484165925,-0.00055443228142808,0.00055443144787732,-0.0005544310076889,0.00055443266040737,-0.00055443246856095,0.00055443130149473,-0.00055443121536104,0.00055443248737285,-0.00046854659835777,0.00046854311321286,-0.00046854298467298,0.00046854665040531,-0.00046854646154207,0.00046854321043406,-0.00046854281728572,0.0004685468589164,-0.00030989926610506,0.00030989562469672,-5.1579154529735e-10,-5.7684851396063e-11,-1.2620705754455e-08,1.2051742317898e-08,-0.00063734142862371,0.00063734085808444,-0.00064876332774666,0.00064878681940053,-0.00061224425319206,0.00061223505340146,-0.00061224374265827,0.00061223547188874,-0.00062964228910395,0.00062963335171352,-0.00062963403391218,0.00062964148317965,-0.00062964208552415,0.00062963351847942,-0.00062963385437913,0.00062964162439255,-0.0006487878568354,0.00064876329656913,-0.00064876318184236,0.00064878694113606,-0.0006122359656022,0.00061224314354705,-0.00061223551216745,0.00061224351113958,-0.00064878806282556,0.00064876311564739,5.4453888071613e-09,1.8154438175625e-09,-0.00047797268850598,0.00047797996801667,1.6196359965674e-08,-8.5600683114323e-09,-0.00041305399542425,0.00041304088815769,-0.00038453494631512,0.000384517082484,-0.0003845337138812,0.0003845183273969,-0.00041303336477982,0.0004130615401953,-0.00041302986127324,0.00041306498770569,-0.00038451055424486,0.00038454152170885,-0.00038450935537242,0.00038454267869289,-0.0005491661497517,0.00054918272723823,-0.00054917446743175,0.00054917441617027,-0.00054916735125538,0.00054918153316033,-0.00054917568267659,0.0005491731976177,-0.00055444274866817,0.00055443809064788,-0.00055443918354558,0.00055444167547492,-0.0005544309440537,0.00055444989150083,-0.00055443448519284,0.00055444636875014,-0.00041305760844257,0.00041303725432258,0.70494323151688,129487,2954,0.0020127238077341,0.0026519141395164,0.0019896445895115,15.399283977144,-0.00011680572818285,-0.00011680572818285,-0.00011680572818285,2768832.4081702,0.0066766632549735
23191759,0.42039566842311,0.0072137555202423,0.0022859738875588,0.0026720890076986,0.0022556926249849,-0.00049082960076324,0.0004908298188754,-1.777266931627e-09,1.996360907824e-09,5.0365601441919e-10,-2.4476179232761e-10,-0.00031364783250879,0.00031365094459251,-0.00050122809890906,0.00050122641023768,-0.00050122691510142,0.00050122767113061,-0.00031365076283142,0.00031364789580159,-0.00031364699900133,0.00031365176579442,-0.00050122744107759,0.00050122713159813,-0.00050122611994889,0.00050122839700057,-0.00056323253388056,0.00056323173372455,-0.00056323123199979,0.00056323297602858,-0.00056323281546224,0.00056323149314905,-0.00056323153274584,0.00056323270841551,-0.00047573901359717,0.00047573531641211,-0.00047573531849447,0.00047573894550443,-0.00047573878082259,0.00047573550794683,-0.00047573505893384,0.00047573924852253,-0.00031365132097927,0.00031364727766986,-6.4850727312149e-10,9.4180010096957e-11,-1.2588385898364e-08,1.2037207865415e-08,-0.00064811686985026,0.00064811631711709,-0.00065991212051781,0.00065993548774771,-0.00062233328185295,0.00062232383686253,-0.00062233249533682,0.00062232453742459,-0.00064018353181442,0.00064017453558363,-0.00064017529327912,0.0006401826488168,-0.00064018323644288,0.00064017479757981,-0.00064017502134773,0.00064018288579414,-0.00065993652189364,0.00065991211987719,-0.00065991187946902,0.00065993570589775,-0.00062232500788331,0.00062233190812526,-0.00062232427688393,0.00062233255949731,-0.0006599368213649,0.00065991184416356,5.5497954178757e-09,1.8307121326848e-09,-0.00048485202483896,0.00048485942644875,1.6242870370349e-08,-8.4751018607682e-09,-0.00041823110510697,0.00041821825039132,-0.00038938225495568,0.00038936453291627,-0.00038938099406866,0.00038936580667539,-0.00041821060430568,0.00041823877140562,-0.00041820701066356,0.00041824230943977,-0.00038935790197777,0.00038938893363476,-0.00038935667236339,0.00038939012115961,-0.00055757685971304,0.00055759357253096,-0.00055758516566309,0.00055758527314149,-0.00055757809082232,0.00055759234831129,-0.00055758641031093,0.00055758402500091,-0.00056297355395696,0.00056296893970779,-0.00056296990371283,0.00056297261139526,-0.00056296167452929,0.00056298081683139,-0.00056296530398088,0.0005629772052956,-0.00041823480094215,0.00041821453156057,0.71242657763814,129487,2954,0.0020434677491694,0.0026966838636559,0.0020182530804834,15.510332697396,-0.00011591733842083,-0.00011591733842083,-0.00011591733842083,2796645.2037331,0.0067814942175553
23391759,0.42685393675005,0.0073176724801171,0.0023181527801778,0.0027134782738334,0.0022860414261059,-0.00049829162682379,0.00049829182892922,-1.8295642633764e-09,2.0329063898479e-09,5.7977884890414e-10,-3.3844673671392e-10,-0.00031737412061978,0.00031737713144936,-0.00050909240731947,0.00050909050641857,-0.00050909119534585,0.00050909179579462,-0.00031737696776609,0.00031737416105673,-0.00031737311723569,0.00031737812602747,-0.00050909158325585,0.00050909139268206,-0.00050909023421327,0.00050909269174466,-0.00057212402819528,0.00057212323853753,-0.00057212269701737,0.00057212451167534,-0.00057212436565622,0.00057212294228063,-0.00057212305381469,0.00057212418682777,-0.00048296756669569,0.00048296371201704,-0.00048296379175388,0.00048296743310342,-0.00048296727827521,0.00048296395825412,-0.0004829634752225,0.00048296779395375,-0.00031737769064911,0.00031737338010677,-7.2426949594641e-10,1.8601986234589e-10,-1.2653474023584e-08,1.2117491373192e-08,-0.00065903630604987,0.00065903576853813,-0.00067125032252156,0.00067127379256513,-0.00063253476062638,0.00063252511666604,-0.00063253380979873,0.00063252598478646,-0.00065084241543992,0.00065083333240006,-0.00065083413030194,0.00065084149212851,-0.0006508420653614,0.00065083365099065,-0.00065083380446561,0.00065084178487058,-0.00067127482281851,0.0006712503508197,-0.00067125002689345,0.00067127406594565,-0.00063252643415113,0.00063253323526398,-0.00063252554117875,0.00063253405177037,-0.00067127517925561,0.00067125001743844,5.6481686585966e-09,1.8412560062477e-09,-0.00049178881292191,0.00049179632568366,1.6377017043628e-08,-8.4895026345661e-09,-0.00042344102405702,0.00042342823214597,-0.00039425647356366,0.0003942386962801,-0.00039425518256633,0.00039424000072446,-0.00042342046821582,0.00042344880797553,-0.00042341679157623,0.00042345242824985,-0.00039423197383884,0.00039426324491417,-0.00039423071582499,0.00039426446002423,-0.00056606858234441,0.00056608548040398,-0.00056607693770364,0.00056607713167017,-0.00056606984201544,0.00056608422742293,-0.00056607821215859,0.00056607585361103,-0.00057162812294735,0.00057162347989698,-0.00057162438595285,0.00057162723909017,-0.00057161610821726,0.00057163549264852,-0.00057161982223993,0.00057163179610457,-0.000423444808454,0.00042342442346853,0.71512157286916,129487,2954,0.0020745184297526,0.0027420496248693,0.0020470997630838,15.633828183202,-0.00011492937453439,-0.00011492937453439,-0.00011492937453439,2823105.4859125,0.0068874851920028
23591759,0.43354995761565,0.00742541620066,0.002351513289592,0.0027564510927371,0.0023174518183309,-0.00050672790196315,0.00050672813197433,-1.8539345899679e-09,2.0849262730365e-09,5.2260778504384e-10,-2.5111647538758e-10,-0.00032187456990422,0.00032187789567336,-0.0005180057655454,0.00051800398980979,-0.00051800450627971,0.00051800532717127,-0.00032187763179559,0.00032187470428306,-0.00032187377825355,0.00032187867763265,-0.00051800506153383,0.00051800475460849,-0.00051800371129465,0.00051800605861918,-0.00058206259160449,0.00058206176359999,-0.00058206124200848,0.00058206305416634,-0.00058206288948719,0.00058206150820227,-0.00058206154408989,0.00058206278519153,-0.00049114041741891,0.00049113654098667,-0.00049113655106056,0.00049114036522639,-0.00049114015429172,0.00049113676112683,-0.00049113630345092,0.00049114065372528,-0.00032187828034318,0.00032187400000298,-6.5999714577553e-10,1.2791318492456e-10,-1.3250690671893e-08,1.2721242371057e-08,-0.00067112207991102,0.00067112154889179,-0.00068380189770208,0.0006838265693015,-0.00064385524564109,0.00064384535436105,-0.00064385443600299,0.00064384607723132,-0.00066263831170671,0.00066262888980259,-0.00066262964766382,0.00066263744124056,-0.00066263800927196,0.00066262916033492,-0.00066262935343217,0.00066263770072167,-0.00068382761565776,0.00068380191030812,-0.00068380161862734,0.0006838268246321,-0.00064384654521292,0.00064385384770739,-0.00064384574792129,0.00064385456371767,-0.0006838279099634,0.00068380163954442,5.6562144987944e-09,1.7491313076216e-09,-0.00049966973543359,0.00049967716478263,1.6951451725017e-08,-9.1500087463813e-09,-0.00042951954965665,0.00042950548722512,-0.00039997798016489,0.00039995889497246,-0.00039997667813646,0.00039996020986936,-0.00042949787734934,0.00042952718045012,-0.00042949403152949,0.00042953096642639,-0.00039995228733269,0.00039998463764247,-0.00039995097219025,0.00039998590744381,-0.00057558845731233,0.00057560572182852,-0.00057559723119637,0.00057559695590965,-0.00057558975833141,0.00057560442853833,-0.00057559853199986,0.00057559565230038,-0.00058134558760274,0.00058134037328711,-0.00058134177383176,0.00058134420748617,-0.00058133306098356,0.00058135289435104,-0.00058133689592106,0.00058134907817186,-0.00042952336418323,0.00042950164937755,0.71571043295318,129487,2954,0.0021096213230646,0.0027922586887912,0.0020798709792558,16.146431439329,-0.00011082854848537,-0.00011082854848537,-0.00011082854848537,2854993.6104341,0.0070063976818357
23791759,0.44049223541925,0.0075428585793108,0.0023878579272896,0.0028033218839924,0.0023516787680287,-0.00051575574611435,0.00051575600537611,-1.8888694570994e-09,2.1486236278098e-09,4.9211559345642e-10,-1.8851018037868e-10,-0.00032695885210896,0.0003269623378035,-0.0005278856096697,0.00052788394299643,-0.00052788433620261,0.00052788529435449,-0.00032696210336534,0.00032695895497123,-0.00032695809379649,0.00032696308882096,-0.00052788501475529,0.00052788459627449,-0.0005278836163133,0.00052788595507018,-0.00059255686754891,0.00059255599807326,-0.00059255547851157,0.00059255732743721,-0.00059255712781604,0.0005925557791706,-0.00059255575580777,0.00059255708224666,-0.00050000490409554,0.00050000101138331,-0.00050000097117622,0.00050000491916577,-0.00050000469586396,0.00050000118283558,-0.00050000073120363,0.00050000519813002,-0.00032696259646144,0.00032695840362515,-6.0108386719752e-10,7.2878537857018e-11,-1.388267942207e-08,1.335740155561e-08,-0.00068399041756669,0.00068398989052692,-0.00069731653071322,0.00069734250718689,-0.00065592900371142,0.00065591878503206,-0.00065592828181965,0.0006559194132337,-0.00067511790886934,0.00067510810700734,-0.00067510882839077,0.00067511708505155,-0.00067511763598651,0.00067510834475394,-0.00067510857751702,0.00067511729900534,-0.00069734353377995,0.00069731657174674,-0.00069731630846218,0.00069734270391007,-0.00065591985710863,0.00065592772171455,-0.00065591919099922,0.00065592829973868,-0.00069734381142162,0.00069731631990538,5.6961381604774e-09,1.7111011153039e-09,-0.00050808996525405,0.00050809739791317,1.757544194346e-08,-9.7685462273167e-09,-0.00043638553342581,0.00043637039500952,-0.00040637973366892,0.00040635939005161,-0.00040637838648047,0.00040636075197891,-0.0004363627215023,0.00043639323102887,-0.00043635886004212,0.00043639702898451,-0.00040635280129128,0.00040638637628642,-0.00040635147940501,0.00040638765055647,-0.00058563466878946,0.00058565236796334,-0.00058564384990619,0.00058564319431615,-0.00058563598923629,0.00058565105557244,-0.0005856451832638,0.00058564185750664,-0.00059184467511314,0.00059183895211942,-0.0005918407650571,0.00059184288231015,-0.00059183165803803,0.00059185196407946,-0.00059183555006389,0.00059184809281815,-0.00043638948576457,0.00043636641895224,0.75201415357619,129487,2954,0.0021471848012699,0.0028457157759456,0.0021148838474999,16.668937380048,-0.00010664850095962,-0.00010664850095962,-0.00010664850095962,2884030.9858278,0.007133330146916
23991759,0.44768446787657,0.0076675303366022,0.0024263920363812,0.0028532002345306,0.0023879380656905,-0.00052519748917978,0.00052519777573309,-1.9181233749711e-09,2.204744815824e-09,4.7801111204453e-10,-1.4433092648045e-10,-0.0003320161246803,0.00033201979842578,-0.0005383676503518,0.0005383660377178,-0.00053836634289534,0.0005383674219731,-0.0003320195159388,0.00033201627032818,-0.00033201544407126,0.00033202047468993,-0.00053836710614654,0.00053836663566258,-0.00053836568887173,0.00053836802295752,-0.00060354731659871,0.00060354642775028,-0.00060354590116753,0.00060354778388427,-0.00060354755975251,0.00060354622611557,-0.00060354615719263,0.00060354755961746,-0.0005093924396333,0.00050938850249785,-0.00050938842384822,0.00050939250836834,-0.00050939224516157,0.00050938866266892,-0.00050938820911428,0.00050939275995162,-0.00033201996748059,0.00033201576134278,-5.704698360528e-10,4.7623766097224e-11,-1.4518549037102e-08,1.3998711665835e-08,-0.00069758139608807,0.00069758087429695,-0.00071173682998746,0.00071176407687971,-0.00066871063093517,0.00066870005495673,-0.0006687099685283,0.00066870061801607,-0.00068817840401727,0.00068816821017904,-0.00068816891268863,0.0006881776086371,-0.0006881781512344,0.00068816842647052,-0.00068816867775451,0.00068817780525543,-0.00071176511176306,0.00071173687848336,-0.00071173661873543,0.00071176426075856,-0.00066870106421355,0.00066870940775075,-0.00066870044322796,0.00066870993473427,-0.00071176536647628,0.00071173665136218,5.7610224603875e-09,1.6848158857996e-09,-0.0005168500354068,0.00051685750893328,1.8241057853542e-08,-1.0388664151838e-08,-0.00044356207597338,0.00044354579307803,-0.00041301507054215,0.00041299348727898,-0.00041301369938534,0.00041299487449291,-0.00044353809419218,0.00044356980170456,-0.00044353412600542,0.00044357370038523,-0.00041298688176351,0.00041302173330402,-0.00041298552201463,0.00041302304207358,-0.000596137971663,0.00059615617019746,-0.00059614758394789,0.00059614656592176,-0.00059613932491959,0.00059615482585025,-0.00059614894564254,0.00059614520063791,-0.00060295394454756,0.00060294774779853,-0.00060294994958001,0.00060295176155845,-0.00060294040800356,0.00060296127717896,-0.00060294439572697,0.00060295731260234,-0.00044356610123531,0.00044354174229968,0.77068673111454,129487,2954,0.0021864715200898,0.0029021709948418,0.0021513087072164,17.19183748394,-0.00010246530012848,-0.00010246530012848,-0.00010246530012848,2909893.2522807,0.0072664567429175
24191759,0.45510258565278,0.007789394126883,0.0024640410782335,0.0029021480459813,0.0024232050026682,-0.00053445189060467,0.0005344521808379,-1.9569241366344e-09,2.2471763875907e-09,5.1062647472641e-10,-1.7242345861111e-10,-0.00033635408884178,0.0003363578056062,-0.00054828167060174,0.00054827996939303,-0.00054828033091535,0.0005482813888716,-0.00033635749956025,0.00033635425497785,-0.00033635336674368,0.00033635852295344,-0.00054828106051156,0.00054828063350898,-0.00054827962467288,0.00054828204317429,-0.00061454933366862,0.00061454844336923,-0.00061454789279415,0.00061454982376827,-0.00061454959893904,0.00061454821900483,-0.00061454816688838,0.00061454958149659,-0.00051842235272398,0.00051841831322246,-0.00051841825625579,0.00051842241027852,-0.00051842213227174,0.00051841850070604,-0.00051841802733395,0.00051842267528184,-0.00033635802734703,0.00033635366842345,-5.9356663838781e-10,7.9590300122435e-11,-1.5073969687161e-08,1.4562665911023e-08,-0.0007111594546787,0.00071115894136423,-0.00072603910026199,0.0007260674281328,-0.00068144004854692,0.00068142906211886,-0.00068143933687412,0.00068142967179893,-0.00070126790595888,0.00070125733849947,-0.00070125805614791,0.00070126710617102,-0.00070126763731821,0.00070125757059613,-0.00070125780103488,0.00070126732310308,-0.00072606846442343,0.00072603915429109,-0.00072603886371876,0.000726067636941,-0.0006814301153632,0.00068143877867789,-0.00068142943312227,0.00068143936502456,-0.00072606873201561,0.00072603891546935,5.7896800727039e-09,1.6181217716119e-09,-0.00052537187012534,0.00052537930661002,1.8790978104084e-08,-1.0975341772093e-08,-0.00044993002721253,0.00044991266474272,-0.00041897515297999,0.00041895239355514,-0.00041897375676641,0.00041895380619478,-0.00044990502275058,0.00044993769793616,-0.00044990094166353,0.00044994170567171,-0.00041894585307184,0.0004189817523598,-0.00041894445428494,0.00041898309785941,-0.00060663493833567,0.00060665351053692,-0.00060664493155015,0.00060664352552351,-0.00060663632562148,0.000606652132389,-0.00060664632278596,0.0006066421304211,-0.0006137938191049,0.00061378712026212,-0.00061378973714112,0.00061379122077655,-0.00061377980994903,0.00061380112160155,-0.0006137838980069,0.00061379705771712,-0.00044993412688221,0.00044990853973126,0.73179327372879,129487,2954,0.0022249800457819,0.0029585686791012,0.0021867417972952,17.664808703043,-9.8681530375657e-05,-9.8681530375657e-05,-9.8681530375657e-05,2938501.9016478,0.0073977625189705
24391759,0.46259474731908,0.0079131746608708,0.0025022879997637,0.0029519305397772,0.0024589561213299,-0.00054336750675829,0.00054336777532634,-2.0109640891186e-09,2.2798859917465e-09,6.2786036051756e-10,-3.1297707816216e-10,-0.00034074564150356,0.00034074917830311,-0.00055789767712657,0.00055789566680185,-0.00055789630453946,0.0005578971193941,-0.00034074887927974,0.00034074579662927,-0.00034074468102399,0.00034075013850078,-0.00055789680854671,0.00055789658831991,-0.00055789535173106,0.0005578980253442,-0.00062512970649766,0.00062512885263013,-0.00062512823842815,0.00062513026090883,-0.00062513005842969,0.00062512854144596,-0.00062512859605913,0.00062512993405073,-0.00052701938241625,0.00052701514766902,-0.00052701519956877,0.00052701933605163,-0.00052701907266766,0.00052701542406747,-0.00052701488961292,0.00052701968333207,-0.00034074967561635,0.00034074494232118,-7.167779871598e-10,2.2067902436684e-10,-1.5295609133493e-08,1.4800856355292e-08,-0.00072428304934854,0.00072428255267636,-0.00073984109153889,0.00073986979414449,-0.00069371336460346,0.00069370198605551,-0.00069371239881368,0.00069370285368415,-0.0007139839655354,0.00071397318062901,-0.00071397397052353,0.00071398309748237,-0.00071398361316228,0.000713973499347,-0.00071397362860306,0.00071398340389314,-0.00073987083013559,0.00073984116975571,-0.00073984076237652,0.00073987009504062,-0.00069370327987552,0.00069371185013625,-0.00069370233513072,0.00069371270105387,-0.00073987118100821,0.00073984084630571,5.8820619890439e-09,1.6205908095007e-09,-0.00053353199848652,0.00053353953215637,1.9079978743548e-08,-1.1159357374101e-08,-0.00045606679790218,0.00045604915172266,-0.00042469949392535,0.00042467635055647,-0.00042469807193045,0.00042467778936903,-0.0004560414224949,0.00045607455499409,-0.00045603723919439,0.00045607866563252,-0.00042466973351324,0.00042470617124586,-0.0004246683002627,0.0004247075508177,-0.00061669699933495,0.00061671585449491,-0.00061670715249434,0.00061670570958001,-0.00061669841770306,0.00061671444500734,-0.00061670857229002,0.00061670428566343,-0.00062421646626101,0.00062420962281723,-0.00062421230027696,0.00062421380735252,-0.00062420221124632,0.00062422386991449,-0.00062420639075076,0.00062421971446202,-0.00045607097283394,0.00045604494848999,0.73638899772572,129487,2954,0.0022620774858356,0.0030130754160733,0.002220670401851,17.858814368254,-9.7129485053971e-05,-9.7129485053971e-05,-9.7129485053971e-05,2966493.4245107,0.0075242421336461
24591759,0.47015449328074,0.008041484128392,0.0025419227108851,0.0030035854706091,0.0024959759468978,-0.00055251445635881,0.00055251470966998,-2.0649903447566e-09,2.3189432782055e-09,7.3606717268254e-10,-4.3763494702336e-10,-0.00034535124570317,0.00034535461232007,-0.0005679639127731,0.00056796163229213,-0.00056796251424922,0.00056796310939377,-0.00034535434352258,0.0003453513656721,-0.00034535004041729,0.00034535582102195,-0.0005679628194292,0.00056796277525021,-0.00056796132978621,0.00056796425330148,-0.00063591167743733,0.00063591085262488,-0.00063591017717823,0.00063591229458293,-0.00063591210445889,0.00063591046641484,-0.00063591061328414,0.00063591188785221,-0.0005358674561025,0.00053586304442697,-0.00053586319410167,0.00053586732323253,-0.0005358670747067,0.0005358633915367,-0.00053586280115702,0.00053586775534142,-0.00034535535275627,0.00034535030021303,-8.2238422692491e-10,3.4500933723834e-10,-1.560817498985e-08,1.5130936838104e-08,-0.00073773620907705,0.00073773572987975,-0.00075408373155302,0.00075411301161981,-0.00070631713563035,0.00070630532831357,-0.00070631593850332,0.00070630642963828,-0.00072695888901017,0.00072694783535104,-0.00072694868584249,0.0007269579645555,-0.0007269584604492,0.00072694823264095,-0.00072694827148402,0.00072695834594369,-0.00075411403798595,0.00075408384735881,-0.00075408333215017,0.00075411338361875,-0.00070630682721867,0.0007063154103604,-0.00070630566391588,0.0007063164824587,-0.00075411447145759,0.00075408344094899,5.9856797144317e-09,1.6406294948951e-09,-0.00054189800422875,0.00054190566514536,1.9466548114229e-08,-1.1409501303604e-08,-0.00046256868304473,0.00046255064604198,-0.00043071542628239,0.00043069176228136,-0.00043071397093472,0.00043069323516935,-0.00046254276837794,0.00046257658839511,-0.00046253852309634,0.0004625807604267,-0.00043068503458493,0.00043072221544808,-0.00043068357924044,0.00043072361615753,-0.00062693928674973,0.00062695850398692,-0.00062694965100939,0.0006269481479341,-0.00062694073088094,0.0006269570683999,-0.00062695110079156,0.00062694669386856,-0.00063503799241708,0.00063503096375883,-0.00063503373953381,0.00063503523758952,-0.00063502344324403,0.00063504550708872,-0.00063502769753299,0.00063504127517981,-0.00046257295791073,0.00046254634268957,0.75660586772504,129487,2954,0.0023001366562574,0.0030689477069093,0.00225545415926,18.04570544859,-9.5634356411278e-05,-9.5634356411278e-05,-9.5634356411278e-05,2992005.3904006,0.0076539438307703
24791759,0.47777904259468,0.0081586505399638,0.0025781477762783,0.0030509352920961,0.0025295674715893,-0.0005610586748176,0.0005610589103346,-2.1181476588224e-09,2.3547571383152e-09,8.0241807172283e-10,-5.2336216423337e-10,-0.00034876123991054,0.00034876452132184,-0.00057672564107624,0.00057672316442938,-0.00057672421779344,0.00057672467274982,-0.00034876427431234,0.0003487613383581,-0.00034875988004364,0.00034876588335033,-0.00057672440348461,0.00057672445846999,-0.00057672287993804,0.00057672596525824,-0.00064636222269133,0.0006463614006175,-0.00064636069111763,0.00064636287149164,-0.00064636269897368,0.00064636096385734,-0.00064636117823708,0.00064636241420003,-0.00054376454635846,0.00054375998098238,-0.00054376020133975,0.00054376434920502,-0.00054376411631149,0.00054376037865439,-0.00054375975640208,0.00054376483219803,-0.00034876542926409,0.000348760124247,-8.8999758489794e-10,4.2920557505695e-10,-1.5956060455423e-08,1.5494538683759e-08,-0.00075064713937653,0.0007506466760354,-0.0007675022959155,0.00076753223865134,-0.00071835328192625,0.00071834110778313,-0.00071835193651052,0.00071834236060605,-0.0007395272743428,0.00073951595458599,-0.00073951684449126,0.00073952632046789,-0.00073952679626945,0.00073951640316185,-0.00073951638123182,0.00073952675252629,-0.00076753324892349,0.0007675024298182,-0.00076750184765949,0.00076753266022205,-0.00071834273975315,0.00071835142410535,-0.00071834142971401,0.00071835264597579,-0.00076753373398549,0.00076750197104909,5.9949259110476e-09,1.5622236227069e-09,-0.0005496668929299,0.00054967448543118,1.9785076245086e-08,-1.179860692126e-08,-0.00046765739849947,0.00046763868459374,-0.00043554922390048,0.00043552476553675,-0.00043554773811331,0.00043552626896531,-0.00046763087153796,0.00046766523800834,-0.00046762654670366,0.00046766949128825,-0.00043551813294603,0.00043555591802588,-0.00043551664973031,0.00043555734670252,-0.0006368506562046,0.00063687006770233,-0.00063686125579162,0.00063685947620509,-0.0006368521289242,0.00063686860309354,-0.00063686273519508,0.00063685799237611,-0.00064504780742611,0.00064504038295528,-0.00064504346792486,0.0006450447451357,-0.00064503293811168,0.00064505524850015,-0.00064503727548307,0.00064505093118679,-0.00046766176343648,0.00046763429029154,0.68706804082077,129487,2954,0.0023356898449033,0.0031225646784695,0.0022877543295737,18.232313210327,-9.4141494317385e-05,-9.4141494317385e-05,-9.4141494317385e-05,3020986.6257558,0.0077763650906135
24991759,0.48553288773034,0.008279785764345,0.0026156150546549,0.0030998936251979,0.0025642770844922,-0.00057012723758306,0.00057012747697435,-2.1614406646037e-09,2.4020586411103e-09,8.1061836597417e-10,-5.2735221781056e-10,-0.00035332410212527,0.00035332743763522,-0.00058619351418153,0.00058619100852123,-0.00058619207209645,0.00058619254110431,-0.00035332721339274,0.0003533241785667,-0.00035332270195876,0.00035332883751847,-0.00058619227579101,0.00058619230811557,-0.00058619071135817,0.00058619385149308,-0.00065720982394737,0.00065720897635555,-0.00065720825798204,0.00065721047892269,-0.00065721030081393,0.00065720853800051,-0.00065720875212249,0.00065721001510926,-0.00055204131549675,0.00055203666907915,-0.00055203689256742,0.00055204112103905,-0.00055204089052757,0.00055203706450652,-0.00055203643430955,0.00055204161505776,-0.00035332835274203,0.00035332297745841,-8.8155776570656e-10,4.3357686663464e-10,-1.6452382631828e-08,1.6003475907679e-08,-0.00076395024868155,0.00076394979783902,-0.00078122107379772,0.00078125202473921,-0.00073076191936619,0.0007307494234734,-0.00073076056975978,0.00073075067944824,-0.00075260606815721,0.00075259443163826,-0.00075259531503488,0.00075260513467076,-0.00075260558860152,0.00075259488162323,-0.00075259485571324,0.00075260556256737,-0.0007812530122546,0.00078122122786601,-0.00078122063545376,0.00078125243595452,-0.00073075103843887,0.00073076007978734,-0.00073074974071535,0.00073076128845992,-0.00078125350467463,0.00078122076209632,5.9893566647505e-09,1.4705888756222e-09,-0.0005579926811598,0.00055800017664475,2.0224615943458e-08,-1.2338695574048e-08,-0.00047365454826885,0.00047363488577535,-0.00044124147213743,0.00044121591534879,-0.00044123994970484,0.00044121745654518,-0.00047362714276688,0.00047366231698357,-0.00047362276096347,0.00047366662580469,-0.00044120940738212,0.00044124804232163,-0.00044120790339913,0.00044124949038998,-0.00064715734170057,0.00064717700691599,-0.00064716826426889,0.00064716609245168,-0.00064715884024553,0.00064717551642157,-0.00064716977516918,0.00064716457703993,-0.00065561127764392,0.00065560333401034,-0.00065560684598685,0.00065560778951292,-0.00065559599724768,0.00065561861141413,-0.0006556004102741,0.00065561421815885,-0.00047365902376066,0.00047363037913533,0.69911855028986,129487,2954,0.0023734189905569,0.0031778082446188,0.0023223687982328,18.541873564683,-9.1665011482533e-05,-9.1665011482533e-05,-9.1665011482533e-05,3056041.0798773,0.0079049650761083
25191759,0.49359892494957,0.0084093598374946,0.0026556738140959,0.0031522944517136,0.002601391571685,-0.00058027564525748,0.00058027592586659,-2.1770855086351e-09,2.4585162445751e-09,7.2295486588687e-10,-3.9484177632535e-10,-0.00035871673156969,0.0003587205346095,-0.00059704864605775,0.00059704633584981,-0.00059704713908664,0.00059704793583919,-0.00035872013200463,0.00035871698441013,-0.00035871568645582,0.00035872158031004,-0.00059704758387815,0.00059704746115582,-0.00059704603791035,0.00059704898662634,-0.0006692036052972,0.0006692027152335,-0.00066920202715304,0.00066920422589901,-0.00066920402311984,0.00066920233480121,-0.00066920243556979,0.00066920384945948,-0.00056138718450689,0.00056138253785294,-0.00056138265114227,0.00056138710753807,-0.00056138679188613,0.00056138290585366,-0.00056138230730881,0.00056138748204218,-0.00035872118572263,0.0003587158686709,-7.9666130666158e-10,3.5382948514181e-10,-1.7257962913432e-08,1.681466887432e-08,-0.00077866059633583,0.00077866015121294,-0.00079649102729955,0.00079652358102103,-0.00074453256627535,0.0007445197473441,-0.00074453141928304,0.00074452079424008,-0.00076697753264471,0.00076696544160138,-0.00076696627434031,0.00076697666955978,-0.00076697712086278,0.00076696582131439,-0.00076696585439035,0.00076697705553484,-0.0007965245988799,0.00079649113709607,-0.0007964905988768,0.00079652398011465,-0.00074452119695888,0.00074453089721572,-0.00074452001424445,0.00074453198387587,-0.00079652499497948,0.00079649076942976,5.9498500075488e-09,1.32647367775e-09,-0.00056738642943089,0.00056739374121415,2.0989948379217e-08,-1.3296815742745e-08,-0.00048083181939069,0.00048081023453564,-0.00044800446621861,0.0004479770340316,-0.00044800295252515,0.00044797856702438,-0.00048080281733757,0.00048083926392467,-0.00048079819712284,0.00048084381116173,-0.00044797074822975,0.00044801081659535,-0.00044796916562373,0.0004480123420071,-0.00065859055378363,0.00065861065709996,-0.0006586020617529,0.00065859915787021,-0.00065859210177104,0.00065860911822539,-0.00065860359329068,0.00065859762190675,-0.00066760786642141,0.00066759909866509,-0.00066760337395517,0.00066760361427431,-0.00066759190807698,0.00066761505325313,-0.00066759646578109,0.00066761051538737,-0.00048083626255356,0.00048080576190573,0.71926998228675,129487,2954,0.002415638858357,0.0032388921714983,0.0023614217550981,19.180723143844,-8.6554214849248e-05,-8.6554214849248e-05,-8.6554214849248e-05,3091587.0008685,0.0080484697445492
25391759,0.50198510048674,0.0085514356061195,0.0026995391968266,0.0032098177381108,0.0026420786711822,-0.0005911360192899,0.0005911363329317,-2.2115964558346e-09,2.5254400675983e-09,6.9489978127398e-10,-3.3017405949736e-10,-0.00036462312269369,0.00036462704556506,-0.0006091098289487,0.00060910764384656,-0.00060910831735718,0.00060910924386822,-0.00036462671233229,0.00036462330117312,-0.00036462206130129,0.00036462810341528,-0.00060910888688983,0.00060910864399822,-0.00060910727988996,0.00060911023813951,-0.00068191925107505,0.00068191831799347,-0.00068191762872608,0.00068191987321708,-0.00068191962774443,0.00068191797942881,-0.00068191801690212,0.00068191951598899,-0.00057159233600076,0.00057158768961159,-0.00057158774566356,0.00057159232602609,-0.00057159201344456,0.00057158799249466,-0.00057158739252886,0.00057159270686779,-0.0003646275647943,0.00036462238140745,-7.2752285217626e-10,2.8953368776811e-10,-1.8040207816505e-08,1.7602030086946e-08,-0.00079444302730778,0.00079444258718595,-0.00081311537644526,0.00081314955401553,-0.00075934270829387,0.00075932946628594,-0.00075934165144824,0.00075933041418368,-0.00078224289421538,0.00078223032804842,-0.00078223112056435,0.0007822420876112,-0.00078224251403697,0.00078223067370538,-0.00078223075397467,0.00078224241790378,-0.00081315053322812,0.00081311552607551,-0.0008131150253977,0.00081314987390506,-0.0007593307790875,0.00075934117696585,-0.00075932976136678,0.0007593420897553,-0.00081315092020919,0.0008131151693497,5.973109337301e-09,1.2744814841199e-09,-0.00057742341988906,0.00057743070356422,2.1722449861145e-08,-1.4058621042549e-08,-0.00048892302571132,0.00048890012769845,-0.00045551864394174,0.00045548965767063,-0.00045551707118517,0.00045549124916059,-0.00048889263674346,0.00048893054695034,-0.00048888804792447,0.00048893506010715,-0.00045548342275664,0.00045552494544448,-0.00045548184795833,0.00045552646083889,-0.0006707118806473,0.0006707324655139,-0.00067072387427113,0.00067072048044247,-0.00067071344275257,0.00067073091250537,-0.00067072544244608,0.00067071890813523,-0.00068068102968243,0.00068067161775283,-0.00068067643139425,0.00068067623969002,-0.00068066449702469,0.00068068814746999,-0.00068066909516298,0.00068068356895929,-0.00048892765039336,0.00048889547619714,0.75830138042329,129487,2954,0.0024608203411115,0.0033044230174292,0.0024031479145134,19.827994169345,-8.1376046645241e-05,-8.1376046645241e-05,-8.1376046645241e-05,3122318.2137979,0.008202158178687
25591759,0.51069398238098,0.008703669375565,0.0027464477918572,0.0032716400871093,0.0026855814965985,-0.00060257288183868,0.00060257322258442,-2.2408727840952e-09,2.5813836976029e-09,6.9430234742223e-10,-2.9930128243362e-10,-0.00037059159456531,0.00037059569051333,-0.00062201378203606,0.00062201162247853,-0.00062201223382444,0.00062201325741091,-0.00037059529788647,0.0003705918262463,-0.00037059059498757,0.00037059668759305,-0.00062201286175152,0.000622012595989,-0.00062201123864367,0.00062201421660788,-0.00069530084913261,0.00069529990626968,-0.0006952992015848,0.00069530148736533,-0.0006953012185569,0.00069529957505039,-0.00069529957632638,0.00069530114318229,-0.0005825883657953,0.00058258366314684,-0.00058258368993568,0.00058258840222832,-0.00058258804709655,0.00058258396880745,-0.00058258335577488,0.00058258875832442,-0.0003705961442012,0.00037059091120917,-7.1077652750028e-10,2.8013058851531e-10,-1.8775427089193e-08,1.8344482999637e-08,-0.00081122768596434,0.00081122725293192,-0.00083100775719696,0.00083104339180957,-0.00077514686004103,0.0007751331716616,-0.00077514583711546,0.00077513407929618,-0.00079831777752315,0.00079830474839366,-0.00079830553112428,0.00079831699303035,-0.00079831740926958,0.00079830508108662,-0.00079830517007311,0.00079831731684269,-0.00083104438117128,0.00083100791340149,-0.00083100740413006,0.00083104371198832,-0.00077513444931778,0.00077514536037102,-0.00077513344278691,0.00077514625518784,-0.00083104475204486,0.00083100757453827,6.0397717663978e-09,1.2496338425108e-09,-0.00058793179652933,0.00058793912441523,2.2494552365609e-08,-1.4782155369447e-08,-0.00049746695629772,0.00049744270266806,-0.00046339237194213,0.00046336194552202,-0.00046339077855025,0.00046336355945364,-0.00049743519158982,0.00049747450005741,-0.00049743048873084,0.00049747912123389,-0.0004633556907958,0.00046339869716407,-0.00046335407467773,0.0004634002502215,-0.00068343999532549,0.00068346115335619,-0.00068345249034557,0.0006834486674993,-0.00068344159145582,0.00068345956717486,-0.00068345408573966,0.00068344706765156,-0.00069456188850536,0.00069455192864564,-0.00069455720903152,0.0006945566328498,-0.00069454476376692,0.00069456904996773,-0.00069454946071892,0.00069456437475077,-0.00049747164693623,0.00049743798315406,0.78252854707548,129487,2954,0.0025084011444774,0.0033741096591137,0.0024468324310085,20.475592096712,-7.61952632263e-05,-7.61952632263e-05,-7.61952632263e-05,3150004.7193078,0.0083644549191879
25791759,0.51954126821517,0.0088535193711068,0.0027925756335973,0.0033327366581058,0.0027282070794037,-0.00061334680385407,0.00061334712578145,-2.2993498397496e-09,2.6212865538186e-09,8.1512814718875e-10,-4.3995209673603e-10,-0.00037541795233954,0.00037542183608317,-0.00063392245024073,0.00063391999234923,-0.00063392088029718,0.00063392164951857,-0.00037542149077657,0.00037541812945387,-0.00037541666330864,0.00037542312214189,-0.00063392128235271,0.00063392121116159,-0.00063391962025003,0.00063392287941736,-0.00070817927191597,0.00070817836023476,-0.00070817758876107,0.00070817997897179,-0.00070817972424453,0.0007081779463062,-0.00070817805326767,0.00070817954360374,-0.00059282891985571,0.00059282402815999,-0.00059282416943132,0.00059282886240396,-0.00059282852885613,0.00059282441109089,-0.00059282373537785,0.00059282931444678,-0.0003754225610352,0.00037541698732479,-8.3288265037439e-10,4.2040925767914e-10,-1.9128835579674e-08,1.8714715993949e-08,-0.00082751416460418,0.00082751374841604,-0.00084835757614422,0.00084839386122773,-0.00079043774869458,0.00079042356765019,-0.00079043645710741,0.00079042474582138,-0.00081390127806031,0.00081388794104028,-0.00081388879614613,0.00081390042673182,-0.00081390082142377,0.00081388836497975,-0.00081388835426879,0.0008139008342868,-0.00084839483671255,0.00084835777445828,-0.00084835714691643,0.00084839425790989,-0.00079042508197865,0.00079043600490825,-0.00079042383011524,0.00079043714703266,-0.00084839530618117,0.00084835733663225,6.1378754124576e-09,1.2693848980892e-09,-0.00059770671110945,0.00059771415992234,2.2911025643125e-08,-1.5068179209549e-08,-0.0005047494096896,0.00050472470205093,-0.00047015412812805,0.00047012310637255,-0.00047015249787419,0.00047012475747533,-0.0005047170375484,0.00050475710720328,-0.00050471228808879,0.00050476177398008,-0.00047011674575123,0.00047016056061598,-0.00047011511399115,0.00047016212801144,-0.00069564685339737,0.00069566838483144,-0.00069565957908029,0.00069565566836733,-0.00069564847163862,0.00069566677623358,-0.00069566120429447,0.00069565403847054,-0.00070769499696443,0.00070768482384416,-0.00070769023115683,0.00070768961677077,-0.00070767755841364,0.00070770226038178,-0.00070768232083061,0.00070769751917396,-0.00050475420760691,0.0005047198745367,0.75921599517912,129487,2954,0.0025532272059435,0.0034417221600049,0.0024874672252451,20.820650982965,-7.3434792136282e-05,-7.3434792136282e-05,-7.3434792136282e-05,3174658.0697711,0.0085188346079868
25991759,0.52823753123203,0.0089975021143999,0.0028369097282082,0.0033915611169394,0.0027690312692523,-0.00062295339957662,0.00062295366832488,-2.3711675214452e-09,2.6407371747773e-09,1.0268927621604e-09,-7.0947318215482e-10,-0.0003794102467666,0.00037941367618346,-0.00064442339098381,0.00064442037777839,-0.00064442179617327,0.00064442206088481,-0.00037941339350771,0.00037941034978952,-0.00037940847157671,0.00037941545436752,-0.00064442175419053,0.0006444220647452,-0.00064442006019553,0.00064442377207917,-0.00071984051883926,0.00071983968212057,-0.00071983880555854,0.00071984133503012,-0.00071984112938813,0.00071983911079958,-0.00071983942947735,0.00071984073739465,-0.0006017089981315,0.00060170380986557,-0.00060170417251022,0.00060170874126868,-0.00060170845156171,0.00060170434941675,-0.00060170357590605,0.0006017093559071,-0.00037941492727564,0.0003794087475353,-1.0583790924732e-09,6.752207852185e-10,-1.9014246291945e-08,1.8627066380055e-08,-0.00084238702479901,0.0008423866357252,-0.00086414395556859,0.00086417991125257,-0.00080432365581483,0.00080430909434588,-0.00080432189266576,0.00080431075304815,-0.00082820573158914,0.00082819233173535,-0.00082819331616929,0.00082820474681021,-0.00082820511828743,0.00082819291821738,-0.00082819272079394,0.00082820531380636,-0.00086418087812185,0.0008641442082961,-0.00086414337226609,0.00086418046467889,-0.00080431104765312,0.00080432146222516,-0.00080430933166995,0.00080432307814308,-0.00086418151097724,0.00086414360501565,6.3036644588484e-09,1.3497061113349e-09,-0.00060630338252534,0.00060631108174919,2.2942119550808e-08,-1.4831680377382e-08,-0.00051072867503035,0.00051070453142734,-0.00047572703725423,0.00047569645364038,-0.00047572537419514,0.00047569813783396,-0.00051069659659661,0.00051073664075952,-0.00051069177954606,0.00051074137771582,-0.00047568985412508,0.0004757337089187,-0.00047568819863872,0.00047573530050712,-0.00070664375126972,0.00070666548677659,-0.00070665640870919,0.00070665283828698,-0.00070664539588811,0.00070666385073611,-0.00070665806362917,0.00070665117839868,-0.0007194630767309,0.00071945311989057,-0.00071945822450745,0.00071945800331303,-0.00071944562160509,0.00071947057613025,-0.00071945046188779,0.00071946575470326,-0.00051073356900878,0.00051069960600591,0.74286074121905,129487,2954,0.002593197794831,0.0035034612651335,0.0025232040558414,20.694862436038,-7.4441100511696e-05,-7.4441100511696e-05,-7.4441100511696e-05,3195782.9945348,0.0086574762543401
26191759,0.53677620337971,0.0091419164172868,0.0028813718940757,0.0034506000952594,0.0028099444279517,-0.00063254217065063,0.00063254240661677,-2.4276101982189e-09,2.6649217003831e-09,1.1802863892522e-09,-8.987765541991e-10,-0.00038377388238007,0.00038377704024807,-0.00065508042494429,0.000655077005822,-0.00065507879686775,0.00065507872335025,-0.00038377676380736,0.00038377396728765,-0.00038377179153579,0.0003837791359999,-0.00065507844328137,0.0006550790365721,-0.00065507673369693,0.00065508076741852,-0.00073136237123135,0.00073136159125208,-0.00073136063499469,0.00073136327040451,-0.00073136309793955,0.00073136090430564,-0.00073136136854773,0.00073136256061618,-0.00061055462965768,0.00061054920888378,-0.00061054972877912,0.00061055424040681,-0.00061055396327423,0.00061054987284537,-0.00061054902577337,0.00061055495810431,-0.00038377865676372,0.00038377200482753,-1.2157129556566e-09,8.6040191138574e-10,-1.9113795965639e-08,1.8752540269444e-08,-0.0008571148268959,0.00085711446388176,-0.00087981515591636,0.00087985123633515,-0.00081809179137579,0.00081807685378264,-0.0008180897024511,0.00081807884442701,-0.00084236704698157,0.00084235349217258,-0.00084235456342204,0.00084236597509855,-0.00084236632558102,0.00084235419102653,-0.00084235385531585,0.00084236665907192,-0.00087985220553518,0.00087981544840024,-0.000879814452055,0.00087985191208091,-0.00081807911208031,0.00081808928294725,-0.00081807705438981,0.00081809124726771,-0.00087985294450693,0.00087981473728904,6.4602782936606e-09,1.4101963400029e-09,-0.00061488351237553,0.00061489143252478,2.3185568444255e-08,-1.4839107407697e-08,-0.00051696171489052,0.00051693762829092,-0.00048151109045394,0.00048148047322017,-0.00048150940324881,0.00048148218237637,-0.00051692949027861,0.00051696988149789,-0.00051692455741923,0.00051697473640686,-0.00048147366882251,0.00048151796771987,-0.00048147197401735,0.00048151959881234,-0.00071749775453512,0.00071751982414358,-0.00071751049929245,0.00071750708819619,-0.00071749943318874,0.00071751815345968,-0.00071751218351727,0.0007175053989018,-0.00073127738226685,0.00073126745960552,-0.00073127244525166,0.00073127243150397,-0.00073125974555185,0.00073128509968968,-0.00073126468669267,0.00073128017604231,-0.00051696667893676,0.0005169326305244,0.75895315795681,129487,2954,0.0026330922441708,0.0035645941118562,0.0025588711033995,20.556975517163,-7.5544195862694e-05,-7.5544195862694e-05,-7.5544195862694e-05,3216347.4193323,0.0087953769435244
26391759,0.54515807114973,0.0092884115248368,0.0029264407229577,0.0035105535113023,0.0028514172905768,-0.00064217749300051,0.00064217771465738,-2.479695106399e-09,2.7028861806237e-09,1.2934918589469e-09,-1.0278429415449e-09,-0.00038824815225749,0.00038825113989091,-0.00066602848828641,0.00066602478693854,-0.00066602683138465,0.00066602653295206,-0.00038825087709442,0.00038824821098991,-0.00038824581671948,0.00038825347846178,-0.00066602626780274,0.00066602705313858,-0.0006660245326488,0.00066602882044645,-0.00074286688727927,0.00074286614291437,-0.00074286512208175,0.00074286785427336,-0.00074286769392101,0.00074286537670128,-0.00074286593501815,0.00074286706250179,-0.00061955550710708,0.00061954990582307,-0.00061955053299615,0.00061955503746227,-0.00061955476517281,0.00061955065144817,-0.00061954974580168,0.00061955583465074,-0.0003882530007838,0.00038824601300809,-1.3238977307375e-09,9.9380910927345e-10,-1.9404485432084e-08,1.9066917704723e-08,-0.00087193377538571,0.00087193343612194,-0.00089573914154695,0.00089577575948234,-0.0008319787974634,0.00083196344372033,-0.00083197647034147,0.00083196567528717,-0.0008565084938124,0.00085649468743622,-0.00085649581611443,0.00085650736752013,-0.00085650769397399,0.00085649546744365,-0.00085649503086807,0.00085650813142541,-0.00089577672296423,0.00089573947864183,-0.00089573835895334,0.00089577651489151,-0.00083196590993601,0.00083197607116259,-0.00083196361823563,0.0008319782725897,-0.00089577754369333,0.00089573868499049,6.6067213112137e-09,1.4699508802449e-09,-0.00062348091427926,0.0006234890443234,2.3604533445394e-08,-1.5033977769564e-08,-0.00052337185300112,0.00052334747217624,-0.00048744765745416,0.00048741663257472,-0.00048744594051478,0.00048741837239857,-0.00052333911727317,0.00052338023522535,-0.00052333410297747,0.00052338517229978,-0.00048740963205806,0.00048745473222856,-0.0004874079097596,0.00048745639031481,-0.0007283235258567,0.00072834603350618,-0.00072833647542584,0.00072833309273072,-0.0007283252326675,0.00072834433441,-0.00072833818904056,0.0007283313740148,-0.0007432864368664,0.00074327641694694,-0.00074328141519519,0.00074328147594227,-0.00074326850605907,0.00074329435232587,-0.00074327353055429,0.00074328934498948,-0.00052337690419194,0.00052334238554676,0.78422388610437,129487,2954,0.0026731807785336,0.0036261007123249,0.0025946089740695,20.418605868639,-7.6651153050888e-05,-7.6651153050888e-05,-7.6651153050888e-05,3233359.595609,0.0089339400426431
26591759,0.55354909207979,0.0094346612535802,0.0029714258316648,0.0035705105791025,0.0028927248428129,-0.00065231625871843,0.00065231650440841,-2.4852485145991e-09,2.7320020055229e-09,1.282337959382e-09,-9.9050929937082e-10,-0.00039293671963505,0.00039293994932989,-0.00067744890295389,0.00067744521738257,-0.00067744718875786,0.00067744702260945,-0.00039293952494712,0.00039293693251993,-0.00039293456511267,0.00039294210513731,-0.00067744668351381,0.00067744748179337,-0.00067744498655471,0.00067744921689863,-0.00075496108233253,0.00075496034972913,-0.00075495932075047,0.00075496205589055,-0.00075496188852425,0.00075495958328888,-0.00075496010137343,0.0007549612959389,-0.00062907114164394,0.00062906549878234,-0.0006290660965709,0.00062907072208826,-0.00062907037325587,0.00062906628036542,-0.00062906536888297,0.00062907145160499,-0.00039294173014867,0.00039293464882154,-1.2791459063235e-09,9.6168764717236e-10,-2.0293172689313e-08,1.9968201134897e-08,-0.00088742183768616,0.0008874215109055,-0.00091241021321752,0.0009124485805685,-0.00084652815441035,0.00084651234343489,-0.00084652594698181,0.000846514449515,-0.00087124955064896,0.00087123521310223,-0.00087123631305696,0.00087124847118344,-0.00087124879149007,0.00087123595071251,-0.00087123553685169,0.00087124922460637,-0.00091244957943457,0.00091241051811238,-0.00091240940887825,0.00091244935694499,-0.00084651472089716,0.0008465255165299,-0.00084651245528815,0.00084652768655482,-0.00091245032929421,0.00091240979684278,6.6429649615245e-09,1.3640884553833e-09,-0.00063253028403682,0.00063253834552243,2.4536138088695e-08,-1.6037319547779e-08,-0.0005299773348485,0.00052995098276335,-0.00049366399768256,0.00049363100291793,-0.00049366228077135,0.0004936327438692,-0.00052994283548417,0.00052998551096057,-0.00052993754998964,0.00052999071645782,-0.00049362411688658,0.00049367096116869,-0.00049362229961222,0.00049367271186468,-0.00073972023645093,0.0007397433816118,-0.0007397338452725,0.00073972978182509,-0.00073972200687535,0.00073974161938284,-0.00073973559021719,0.00073972803165435,-0.00075587692845799,0.00075586608694644,-0.00075587181608019,0.00075587123900797,-0.00075585820497294,0.00075588481481373,-0.00075586341677722,0.00075587962223619,-0.00052998239072124,0.00052994589045789,0.78230622700005,129487,2954,0.0027153639674605,0.0036903797302566,0.0026322234792038,20.57111807709,-7.5431055383282e-05,-7.5431055383282e-05,-7.5431055383282e-05,3252061.9614006,0.0090793284787917
26791759,0.5621053428435,0.009580346614928,0.0030162637203793,0.003630335582283,0.0029337473122657,-0.00066300974043675,0.00066301003311087,-2.531756717776e-09,2.8248315263653e-09,1.1897664498781e-09,-8.4612078797308e-10,-0.0003980369656306,0.00039804049419089,-0.00068924806351051,0.00068924465825209,-0.00068924634665425,0.00068924646934678,-0.00039804014456671,0.00039803710228597,-0.00039803491692169,0.00039804253794405,-0.00068924611994713,0.00068924664587008,-0.0006892443327986,0.00068924847037468,-0.00076771438864841,0.00076771356240777,-0.00076771256517461,0.00076771532718816,-0.00076771510092303,0.00076771288966232,-0.00076771328225906,0.00076771463128058,-0.00063900305966021,0.00063899745327839,-0.00063899792049215,0.00063900275623686,-0.00063900241343578,0.00063899810253231,-0.00063899722593442,0.00063900346237541,-0.00039804198738035,0.00039803517920064,-1.1671413849701e-09,8.5679037915307e-10,-2.1618649207562e-08,2.1301540746993e-08,-0.00090357025126492,0.00090356993167175,-0.00092968055630379,0.00092972165632091,-0.00086170517251711,0.0008616886526918,-0.00086170312585941,0.0008616905888124,-0.00088669410675773,0.000886678962374,-0.0008866799998953,0.00088669312107077,-0.00088669340353314,0.00088667964090249,-0.00088667930850012,0.00088669378717007,-0.00092972258653353,0.00092968089731724,-0.00092967986831023,0.00092972231603077,-0.00086169081015031,0.00086170275855608,-0.00086168880372261,0.00086170466313323,-0.00092972331030239,0.00092968020696946,6.5353563491584e-09,1.2189670929803e-09,-0.00064208883794469,0.00064209664561117,2.5661642813313e-08,-1.7431779912795e-08,-0.00053677468458153,0.00053674574692385,-0.00050016981734024,0.00050013402506436,-0.0005001680467564,0.00050013582263778,-0.00053673774109502,0.00053678272268749,-0.00053673254038039,0.00053678783106959,-0.00050012741165076,0.00050017650929819,-0.0005001256247927,0.00050017822384628,-0.0007517552945694,0.00075177902389868,-0.00075176972473873,0.00075176460331757,-0.00075175706390066,0.00075177726399685,-0.00075177149842971,0.00075176282492033,-0.00076900373960625,0.00076899171760473,-0.00076899854632122,0.00076899695113787,-0.00076898413488655,0.0007690113242428,-0.0007689893405801,0.00076900614275243,-0.00053677990263177,0.00053674049316842,0.76472632571798,129487,2954,0.002759853078551,0.0037573945604225,0.0026719525313917,21.003366552537,-7.1973067579706e-05,-7.1973067579706e-05,-7.1973067579706e-05,3275923.7835072,0.0092319620865668
26991759,0.57082601731472,0.0097249703625835,0.0030608061253983,0.0036898229295886,0.0029743413075966,-0.00067374178187921,0.00067374210565228,-2.5240024613985e-09,2.8475621329462e-09,1.1331181520036e-09,-7.5484897736719e-10,-0.00040323369251818,0.00040323761577955,-0.00070088655052879,0.00070088325463217,-0.00070088476626658,0.0007008851399514,-0.00040323703385279,0.00040323406279622,-0.00040323199238486,0.00040323931150873,-0.00070088469080205,0.00070088516495611,-0.00070088296224197,0.00070088692778986,-0.00078056842707439,0.00078056759955848,-0.00078056661778453,0.00078056934343103,-0.00078056911218451,0.0007805669514768,-0.00078056726445426,0.00078056872051504,-0.00064875587103132,0.00064875026062188,-0.00064875065055714,0.00064875564967333,-0.00064875520831049,0.00064875093448229,-0.00064875007207981,0.00064875623412848,-0.00040323892822163,0.00040323208444944,-1.0775334431959e-09,7.7196059265585e-10,-2.2723203186373e-08,2.2411372472308e-08,-0.0009197570298238,0.00091975671553435,-0.0009468614375341,0.00094690470501144,-0.00087688885176458,0.00087687185010022,-0.00087688704508234,0.00087687354001476,-0.00090228546737113,0.00090226968565814,-0.00090227067426819,0.00090228455899228,-0.00090228484383731,0.00090227028192244,-0.00090227001583689,0.00090228518904281,-0.00094690568102247,0.00094686170014305,-0.00094686073816908,0.00094690537257153,-0.00087687383528879,0.00087688661972159,-0.00087687192506622,0.0008768884183565,-0.00094690628104365,0.00094686113488296,6.4599719953193e-09,9.8171557009409e-10,-0.00065166194800893,0.00065166944105378,2.6691498931261e-08,-1.8793749384504e-08,-0.00054337402546799,0.00054334236998251,-0.00050654370707862,0.00050650524920354,-0.00050654194946107,0.0005065070334579,-0.00054333488126424,0.00054338154968604,-0.00054332933209179,0.00054338700368074,-0.00050649901542538,0.00050655002289132,-0.00050649710508893,0.00050655185845479,-0.00076387901245091,0.00076390330272828,-0.00076389425992268,0.00076388806535794,-0.00076388085912057,0.0007639014663045,-0.00076389606439406,0.00076388625614131,-0.00078211908409278,0.0007821058530405,-0.00078211379837325,0.00078211117899968,-0.00078209851781088,0.00078212642064659,-0.00078210395020521,0.00078212101468901,-0.00054337921091349,0.00054333714804797,0.74557636164112,129487,2954,0.0028045009465954,0.0038245635576469,0.0027117410135223,21.442841130151,-6.8457270958791e-05,-6.8457270958791e-05,-6.8457270958791e-05,3302554.2251308,0.0093849961507069
27191759,0.57970568384061,0.0098679935920765,0.0031048866996703,0.0037487462939527,0.0030143605984535,-0.00068444375255765,0.00068444409771238,-2.57249500222e-09,2.9169583953204e-09,1.0938967387496e-09,-6.9200624202255e-10,-0.00040842761257479,0.00040843169404252,-0.00071230476604771,0.00071230157906175,-0.00071230296559895,0.00071230347889219,-0.00040843117347317,0.00040842792917231,-0.00040842593349357,0.00040843336580069,-0.00071230303145849,0.00071230336685839,-0.00071230123990888,0.0007123051885045,-0.00079346166857574,0.00079346078103952,-0.00079345980982022,0.00079346256929202,-0.00079346230989157,0.00079346017439898,-0.00079346043278381,0.0007934619723544,-0.00065819990149686,0.00065819426136816,-0.00065819457849341,0.00065819971357153,-0.00065819929340389,0.00065819485702899,-0.00065819401075946,0.00065820030915791,-0.00040843288514542,0.00040842613036018,-1.0278377615413e-09,7.2843715656106e-10,-2.370953701864e-08,2.3404001073244e-08,-0.00093590676195858,0.00093590645418605,-0.00096384766707648,0.00096389293704827,-0.00089196797576038,0.00089195038363936,-0.00089196622730143,0.00089195201168955,-0.00091796526710838,0.00091794886762455,-0.0009179498325325,0.00091796441049167,-0.00091796466584258,0.00091794943975794,-0.00091794921234716,0.00091796500034054,-0.00096389386414048,0.00096384794422909,-0.00096384702112244,0.00096389354712438,-0.00089195227829562,0.00089196584925879,-0.00089195048634257,0.00089196752026435,-0.00096389445871259,0.00096384738336676,6.3381522098007e-09,8.0084193917774e-10,-0.00066123214544348,0.00066123933369349,2.7478863629678e-08,-1.9902444060812e-08,-0.00054986428883899,0.00054983059400493,-0.00051278314610191,0.00051274246144628,-0.00051278134380919,0.00051274429120241,-0.00054982334347515,0.00054987157648097,-0.00054981780603801,0.00054987701489498,-0.00051273656185551,0.00051278913120454,-0.00051273465600726,0.00051279095878066,-0.00077604889102656,0.0007760735203303,-0.00077606475834211,0.0007760576637713,-0.00077605074977755,0.0007760716726674,-0.00077606659157067,0.00077605582513954,-0.00079521981974005,0.00079520560164746,-0.00079521444919102,0.00079521100651398,-0.0007951985803065,0.00079522684037806,-0.00079520404375551,0.00079522140170929,-0.00054986961118208,0.00054982523236725,0.7250982774434,129487,2954,0.0028490219191551,0.0038915739212313,0.0027515165020262,21.88260443163,-6.4939164546958e-05,-6.4939164546958e-05,-6.4939164546958e-05,3329424.4170261,0.0095377535270186
27391759,0.58867381861883,0.010015505577229,0.0031503250036659,0.0038095566082679,0.0030556239652956,-0.00069520026386236,0.00069520061313021,-2.6109735950195e-09,2.9594866070098e-09,1.1195065702839e-09,-7.126284122647e-10,-0.00041398929026432,0.00041399349841822,-0.00072402683661307,0.00072402355744183,-0.0007240249826788,0.00072402550741341,-0.00041399288835567,0.00041398969710657,-0.00041398765862094,0.00041399513714338,-0.00072402503179258,0.00072402541275879,-0.00072402323756085,0.00072402723975608,-0.00080633889334449,0.00080633800674925,-0.00080633701567553,0.00080633981185679,-0.00080633955843748,0.00080633737617405,-0.00080633764567902,0.00080633920864592,-0.00066770435576609,0.00066769859910046,-0.00066769891872501,0.00066770414379309,-0.00066770369872339,0.00066769922781379,-0.00066769836664919,0.00066770474066289,-0.00041399473792271,0.00041398777537283,-1.0642510877863e-09,7.7901304858316e-10,-2.4207068907808e-08,2.3914918102197e-08,-0.00095212375752673,0.00095212346312368,-0.00098094916513912,0.00098099538305409,-0.00090709134094751,0.0009070733700218,-0.00090708953355321,0.00090707505544555,-0.00093372905379149,0.00093371232135902,-0.00093371330872561,0.0009337281888175,-0.00093372843461971,0.00093371291291393,-0.0009337126511019,0.00093372881759188,-0.00098099632302208,0.00098094942876176,-0.0009809484638469,0.0009809960481701,-0.00090707533894175,0.00090708914495482,-0.00090707343297488,0.00090709092749092,-0.00098099692140752,0.00098094886523581,6.326353785558e-09,6.9303953602966e-10,-0.00067087062563961,0.00067087769484158,2.798620940512e-08,-2.0533188889233e-08,-0.00055676368315801,0.00055672876906672,-0.00051928343529196,0.00051924150507719,-0.00051928162623122,0.00051924333992181,-0.00055672171188163,0.00055677077950226,-0.00055671601324325,0.00055677637831855,-0.00051923575491967,0.0005192892707229,-0.0005192337903491,0.00051929115538852,-0.00078822693791396,0.00078825186705708,-0.00078824319109466,0.00078823562494018,-0.00078822883794154,0.00078824997810913,-0.00078824504855564,0.0007882337627593,-0.00080844148322746,0.00080842670976367,-0.00080843603997549,0.00080843218444044,-0.00080841978012918,0.00080844841223666,-0.00080842536077082,0.00080844285513289,-0.00055676902815038,0.00055672338792988,0.74093825034394,129487,2954,0.002893767347037,0.0039588581368469,0.0027915754788868,22.214376951343,-6.2284984389254e-05,-6.2284984389254e-05,-6.2284984389254e-05,3355000.9189051,0.0096913224419021
27591759,0.59768562607092,0.010165612242861,0.003196530826963,0.0038715007929428,0.0030975806229549,-0.000705934691886,0.00070593503174359,-2.6584045514628e-09,2.9976506224488e-09,1.1904554615205e-09,-7.9351401450037e-10,-0.00041947089744971,0.00041947504151879,-0.00073589918021905,0.00073589570779551,-0.00073589728935021,0.00073589769007892,-0.0004194744237415,0.00041947130810746,-0.00041946913187568,0.00041947681689451,-0.00073589721764484,0.00073589771749458,-0.0007358954044811,0.00073589956760342,-0.00081921281180879,0.00081921193973409,-0.00081921090851068,0.00081921377165254,-0.00081921352866708,0.00081921125652976,-0.00081921158642559,0.00081921311969109,-0.00067721535173151,0.00067720944869434,-0.00067720982985428,0.00067721508056584,-0.0006772146378587,0.00067721012764044,-0.00067720923021642,0.00067721572935916,-0.00041947643939458,0.00041946921930258,-1.1282824901415e-09,8.592914536624e-10,-2.449243970975e-08,2.4215743258372e-08,-0.00096845945064535,0.00096845917175344,-0.00099829563273951,0.00099834238892637,-0.00092230890606027,0.00092229061594673,-0.00092230696197395,0.00092229244225317,-0.00094954367839188,0.00094952672702492,-0.0009495277501491,0.00094954278404287,-0.0009495430148551,0.00094952736456135,-0.00094952704267213,0.00094954346382545,-0.00099834332796828,0.00099829591739567,-0.00099829487687708,0.00099834310577293,-0.00092229271240303,0.00092230658607926,-0.00092229066029671,0.00092230851352925,-0.00099834396853728,0.00099829531013161,6.387503793879e-09,6.6286327998916e-10,-0.00068047072378786,0.00068047782608068,2.8302218523813e-08,-2.0810533008972e-08,-0.00056369355007295,0.00056365818050821,-0.00052573660219371,0.00052569410343158,-0.00052573476900069,0.00052569596462154,-0.00056365109799925,0.0005637006721538,-0.00056364529629908,0.00056370637260319,-0.00052568834310281,0.00052574244946178,-0.00052568634174313,0.00052574436996749,-0.00080040870579369,0.00080043389460808,-0.00080042515760709,0.00080041745343698,-0.00080041063843537,0.00080043197274245,-0.00080042704365729,0.00080041556265449,-0.00082178800869015,0.00082177298427955,-0.00082178248059335,0.00082177854271816,-0.00082176601935587,0.00082179497254496,-0.00082177169354553,0.00082178932071057,-0.00056369897704544,0.00056365271451986,0.75071314989681,129487,2954,0.0029384221407696,0.0040266288787422,0.0028314746076146,22.482070419668,-6.0143436642659e-05,-6.0143436642659e-05,-6.0143436642659e-05,3376325.7541316,0.0098451534578283
27791759,0.60673349341158,0.010318415555548,0.0032435357864511,0.0039346228459352,0.0031402569231621,-0.00071679061425596,0.0007167909449507,-2.716963568878e-09,3.047287870462e-09,1.2642362989489e-09,-8.7685675574566e-10,-0.00042511902182462,0.0004251230157202,-0.00074805938236525,0.00074805574397885,-0.00074805748709485,0.00074805772628013,-0.00042512249891755,0.00042511932630083,-0.00042511701223164,0.00042512504424989,-0.00074805729807342,0.00074805787332294,-0.00074805541632753,0.00074805979501785,-0.00083220725260457,0.00083220637601026,-0.00083220530342011,0.00083220825646814,-0.00083220800956803,0.00083220565213391,-0.00083220604456268,0.00083220754042169,-0.00068691309315887,0.00068690705956306,-0.000686907510152,0.00068691276975635,-0.00068691236424707,0.00068690775485958,-0.0006869068208145,0.00068691350653078,-0.00042512457817457,0.0004251171828899,-1.1902972229281e-09,9.3851776690439e-10,-2.4777443645928e-08,2.4517094666087e-08,-0.00098502061503025,0.00098502035250164,-0.0010159906131348,0.0010160379466712,-0.00093773002670591,0.00093771138502212,-0.00093772790976852,0.00093771338535931,-0.0009655347612437,0.00096551758120788,-0.00096551863691373,0.00096553383876319,-0.00096553404130575,0.00096551827642223,-0.00096551789438661,0.00096553455531309,-0.0010160388494704,0.0010159909621994,-0.0010159898440587,0.0010160386776765,-0.00093771360292659,0.00093772758340002,-0.00093771144613368,0.00093772961594031,-0.0010160395715922,0.0010159902729724,6.472924052709e-09,6.7947116225475e-10,-0.00069015999150885,0.00069016719904013,2.8603915162203e-08,-2.0997245812583e-08,-0.0005707978218005,0.0005707622659966,-0.00053229824912486,0.00053225532990768,-0.00053229635945785,0.00053225724712622,-0.00057075496656059,0.00057080515978465,-0.00057074920872668,0.00057081081763318,-0.00053224947526346,0.00053230419191964,-0.00053224748442674,0.00053230610109091,-0.00081270428221296,0.00081272974578477,-0.00081272088516573,0.00081271315349594,-0.00081270622646434,0.00081272781184554,-0.00081272280586808,0.00081271122760912,-0.00083536360538204,0.00083534841063444,-0.00083535797532487,0.00083535407201934,-0.00083534138571999,0.00083537063124077,-0.00083534709148909,0.00083536494634015,-0.00057080342539061,0.00057075662474686,0.76134594299257,129487,2954,0.0029835827249508,0.0040953288402885,0.002871743627478,22.748090588154,-5.8015275294764e-05,-5.8015275294764e-05,-5.8015275294764e-05,3395606.7457,0.010000831123183
27991759,0.61581051666415,0.010474019945956,0.0032913706045417,0.0039989722804771,0.0031836770609376,-0.00072778488804395,0.00072778521352796,-2.7612002744182e-09,3.0864564109635e-09,1.3305862582973e-09,-9.4867815306304e-10,-0.000430961812064,0.00043096578370913,-0.00076051069680354,0.00076050688118421,-0.00076050876409859,0.00076050889863803,-0.00043096523078414,0.00043096214423647,-0.00043095971035965,0.00043096791744172,-0.00076050846717423,0.00076050915358255,-0.00076050656869493,0.00076051109715848,-0.00084533717125923,0.00084533631040921,-0.00084533519865961,0.00084533821649729,-0.00084533797676521,0.0008453355372433,-0.00084533598172286,0.00084533745782057,-0.0006968365168407,0.00069683033861029,-0.00069683084798542,0.00069683615079753,-0.00069683573021496,0.00069683109219187,-0.00069683012475167,0.00069683692077456,-0.0004309674887474,0.00043095983375165,-1.2509152521624e-09,1.0173464612713e-09,-2.5062934068745e-08,2.4819882757648e-08,-0.0010018201931174,0.0010018199478637,-0.0010340536605622,0.0010341015333043,-0.0009533786820694,0.00095335973876777,-0.00095337644058453,0.00095336186435803,-0.00098171256462457,0.00098169517111427,-0.00098169625708219,0.00098171161522513,-0.00098171180353371,0.00098169590902419,-0.00098169546625117,0.00098171238176045,-0.001034102444801,0.0010340540350971,-0.0010340528357275,0.0010341023203295,-0.0009533620741472,0.00095337611723216,-0.00095335976771928,0.00095337829986624,-0.0010341032047933,0.0010340533078855,6.5804289166489e-09,6.9345796038311e-10,-0.000699946221821,0.00069995355451859,2.8980270588788e-08,-2.1237355042271e-08,-0.00057806951376266,0.00057803355620837,-0.00053897053102527,0.00053892712322977,-0.00053896862066794,0.00053892906224407,-0.00057802614996452,0.00057807695775912,-0.00057802027963528,0.00057808272671541,-0.00053892116197817,0.00053897658245071,-0.00053891912918316,0.00053897853206332,-0.00082512142774507,0.00082514725160827,-0.00082513823985003,0.00082513045031669,-0.00082512340661836,0.000825145282947,-0.00082514018821719,0.00082512849657748,-0.00084917378306937,0.0008491584179666,-0.00084916806982894,0.00084916416306533,-0.00084915126700342,0.00084918093560711,-0.00084915707305113,0.00084917515005971,-0.00057807518575092,0.00057802784425736,0.77288939428434,129487,2954,0.0030293192043929,0.004165011212963,0.0029124149087614,23.014043679943,-5.5887650560453e-05,-5.5887650560453e-05,-5.5887650560453e-05,3412946.7603502,0.010158513584313
28191759,0.62487673349995,0.010631962048412,0.0033398944039357,0.0040643577514824,0.0032277098929936,-0.00073877625404173,0.00073877657359532,-2.7958934534036e-09,3.1151769350565e-09,1.4028163665847e-09,-1.0271472999727e-09,-0.00043679529058453,0.0004367992464587,-0.00077309860455912,0.00077309458702963,-0.00077309662158588,0.00077309664958919,-0.0004367986220892,0.00043679569051255,-0.0004367931196487,0.00043680145609022,-0.00077309619749239,0.00077309703176404,-0.00077309430858012,0.00077309897379087,-0.00085845950621835,0.00085845867702628,-0.00085845752273719,0.00085846059649801,-0.0008584603703647,0.00085845784523592,-0.00085845834596247,0.00085845979634103,-0.00070684147095095,0.00070683514778354,-0.00070683571755827,0.00070684105337588,-0.00070684060579211,0.00070683597638865,-0.00070683497271578,0.00070684184877377,-0.00043680110623492,0.00043679315812826,-1.3129490051327e-09,1.0983139547994e-09,-2.5374745707172e-08,2.5149601972923e-08,-0.0010187015152074,0.0010187012878482,-0.0010523063352846,0.0010523547822682,-0.00096911592144253,0.0009690966671937,-0.00096911356440962,0.00096909890798436,-0.00099791906497522,0.00099790144422322,-0.00099790256091041,0.00099791808818245,-0.00099791826702224,0.00099790222064448,-0.00099790171556118,0.00099791891116174,-0.0010523557182869,0.001052306718763,-0.0010523054370754,0.0010523556432489,-0.00096909912283287,0.0009691132323919,-0.00096909665063674,0.00096911558159161,-0.0010523565009207,0.001052305969441,6.7019075177742e-09,7.0147502022112e-10,-0.00070971844086388,0.00070972590639396,2.9421274533251e-08,-2.1535318085727e-08,-0.00058548248594099,0.00058544598030441,-0.00054566124326159,0.00054561724385445,-0.00054565932196619,0.00054561919466767,-0.00058543851486034,0.00058548999014013,-0.00058543245727669,0.00058549594264455,-0.00054561117536644,0.00054566740447115,-0.00054560907744433,0.00054566941616058,-0.00083752655975973,0.00083755280491196,-0.00083754362733185,0.00083753574854166,-0.00083752858566966,0.00083755078959492,-0.00083754560460989,0.00083753376579047,-0.00086310924072651,0.00086309367131178,-0.00086310344241606,0.00086309950216781,-0.00086308636805501,0.00086311654578296,-0.00086309231124857,0.0008631106238146,-0.00058548819205468,0.0005854402325224,0.78542227563522,129487,2954,0.0030750444091944,0.0042350259943619,0.0029530274180615,23.224103616635,-5.4207171066916e-05,-5.4207171066916e-05,-5.4207171066916e-05,3426287.6081506,0.010316485930678
28391759,0.6339145594114,0.010792163017304,0.0033890840283065,0.0041307336736222,0.0032723453153749,-0.00074981837992217,0.00074981869944886,-2.8505861206096e-09,3.1697398735933e-09,1.4621321713364e-09,-1.0863071932668e-09,-0.00044253980047959,0.00044254367988121,-0.00078587487450608,0.00078587072668214,-0.00078587287430013,0.00078587280045654,-0.00044254312178131,0.00044254013384374,-0.00044253744805838,0.00044254607215596,-0.00078587237084665,0.00078587326374292,-0.00078587042643887,0.00078587526655942,-0.00087164200266995,0.00087164116847051,-0.00087163997646031,0.00087164313308779,-0.00087164289775012,0.00087164030528512,-0.00087164084618545,0.00087164228538303,-0.0007170084585067,0.00071700201448818,-0.00071700262718494,0.00071700800504773,-0.00071700757831496,0.00071700285471319,-0.00071700181915248,0.0007170088676877,-0.00044254565520512,0.00044253755142416,-1.3644356240312e-09,1.1680893127762e-09,-2.5874617495491e-08,2.5667068565909e-08,-0.0010357327686832,0.0010357325587626,-0.0010708141159023,0.0010708635600793,-0.0009850230920448,0.00098500337154376,-0.00098502059097157,0.00098500575750661,-0.0010142053069075,0.0010141873252797,-0.0010141884677257,0.0010142043113006,-0.0010142044628088,0.0010141881490753,-0.0010141875910826,0.0010142051668235,-0.001070864468904,0.0010708145531286,-0.0010708131991005,0.0010708644388404,-0.00098500592815209,0.00098502030093065,-0.00098500336082294,0.00098502274376835,-0.0010708653149213,0.001070813740086,6.7913367058769e-09,7.232814695417e-10,-0.00071954383354463,0.00071955141403195,2.9959715615569e-08,-2.1950144958837e-08,-0.00059318168951651,0.00059314450513632,-0.000552424439642,0.00055237958440294,-0.00055242247443125,0.0005523815807641,-0.0005931368590834,0.00059318937507547,-0.0005931307958175,0.00059319533032812,-0.00055237341286309,0.00055243070772737,-0.00055237131359076,0.00055243271809265,-0.00084997769020506,0.00085000437741629,-0.00084999506730607,0.00084998701173645,-0.0008499797313789,0.00085000234729353,-0.00084999707504378,0.00084998499827574,-0.0008772246148461,0.00087720875123239,-0.00087721872673021,0.00087721467093099,-0.00087720135916813,0.00087723200740729,-0.0008772073450904,0.00087722604388047,-0.0005931875269845,0.00059313862453608,0.7990379134071,129487,2954,0.0031209812917646,0.0043056562682841,0.0029938601699324,23.415007512812,-5.2679939897504e-05,-5.2679939897504e-05,-5.2679939897504e-05,3436645.4610977,0.01047554159639
28591759,0.6429175698767,0.010953531488828,0.0034386142817392,0.0041976407673642,0.0033172764397247,-0.00076089088225185,0.00076089120449032,-2.8946156407732e-09,3.2161281502868e-09,1.5139822371172e-09,-1.13491101013e-09,-0.00044815041181384,0.00044815428302493,-0.00079874257862864,0.00079873830801213,-0.00079874054957723,0.00079874040757871,-0.00044815372230256,0.0004481507448904,-0.00044814796412574,0.0004481567777836,-0.00079873997699013,0.00079874093927174,-0.00079873800333929,0.00079874297894273,-0.0008848799904862,0.00088487916113745,-0.00088487793420117,0.00088488115732079,-0.00088488091750974,0.00088487826511428,-0.00088487883749293,0.00088488027545856,-0.00072727859313845,0.00072727203118395,-0.00072727268159258,0.00072727811611586,-0.00072727768178063,0.00072727290397736,-0.00072727183874189,0.00072727901260368,-0.00044815635458807,0.00044814806881634,-1.405450439395e-09,1.2265675024548e-09,-2.6457751290771e-08,2.6266857649764e-08,-0.0010528752273442,0.0010528750340385,-0.0010895009136505,0.001089551504356,-0.0010010739765849,0.0010010537824407,-0.0010010713765756,0.0010010562665755,-0.0010305421211354,0.0010305237390801,-0.0010305249024318,0.0010305411145032,-0.0010305412448961,0.0010305245959446,-0.0010305239944447,0.0010305420023716,-0.0010895524038163,0.0010895013805013,-0.0010894999655898,0.0010895524137288,-0.0010010564185401,0.0010010711037614,-0.0010010537532716,0.0010010736428651,-0.0010895532865441,0.0010895005312837,6.8675690716848e-09,7.1303209995438e-10,-0.00072942779165541,0.00072943544115646,3.0588201658226e-08,-2.2503590064999e-08,-0.00060115155765076,0.00060111337806925,-0.00055924011965268,0.00055919414991645,-0.00055923812436957,0.00055919617775732,-0.00060110565460725,0.00060115932296376,-0.00060109951348283,0.0006011653485943,-0.00055918792989345,0.000559246439682,-0.00055918580178029,0.000559248475201,-0.00086249121260079,0.00086251838682479,-0.00086250898262623,0.00086250062874195,-0.00086249328246809,0.00086251632875428,-0.00086251101983415,0.00086249858562918,-0.00089149105389233,0.00089147477184783,-0.00089148507729288,0.00089148078045818,-0.00089146731958303,0.00089149850573056,-0.0008914733880984,0.00089149246199126,-0.00060115748759423,0.00060110740261413,0.80787521787935,129487,2954,0.0031670455511955,0.0043767410223695,0.0030349351659824,23.605401976523,-5.1156784187819e-05,-5.1156784187819e-05,-5.1156784187819e-05,3442482.2996394,0.01063545572826
28791759,0.65187963654452,0.011110284388409,0.0034867580002766,0.0042626686798323,0.0033608577083004,-0.00077170489465793,0.00077170521702913,-2.938806571153e-09,3.2603862844811e-09,1.5567219046556e-09,-1.177371166972e-09,-0.00045322027205104,0.0004532241484697,-0.00081111062084202,0.00081110623771756,-0.00081110856240191,0.00081110836637227,-0.00045322358624655,0.00045322060750634,-0.00045321774617081,0.00045322672819494,-0.00081110793503431,0.00081110895223617,-0.000811105934222,0.0008111110233362,-0.00089795046918451,0.00089794963827411,-0.00089794838328771,0.00089795166411252,-0.0008979514235986,0.00089794871364202,-0.00089794931476594,0.00089795075394011,-0.00073715013216711,0.00073714345440063,-0.00073714413705092,0.00073714963089539,-0.00073714919118099,0.00073714435581559,-0.00073714326714986,0.00073715055582059,-0.00045322630635388,0.0004532178487099,-1.4391890314983e-09,1.2770642936433e-09,-2.7085058465203e-08,2.6910221674729e-08,-0.0010697418384556,0.001069741661218,-0.0011078218853135,0.0011078737104279,-0.0010168650188532,0.0010168443371576,-0.0010168623351623,0.0010168469041508,-0.001046650470957,0.0010466316627952,-0.0010466328437844,0.0010466494585789,-0.001046649567397,0.0010466325476208,-0.0010466319087987,0.0010466503742044,-0.0011078745974617,0.0011078223734375,-0.0011078209094976,0.0011078746473558,-0.0010168470394406,0.0010168620795892,-0.0010168442913472,0.0010168647008319,-0.0011078755093037,0.0011078214952528,6.9026364289159e-09,6.5969186174146e-10,-0.00073907456374679,0.00073908219688374,3.1216396706505e-08,-2.3147106388575e-08,-0.00060882404432378,0.00060878469296473,-0.00056561360177431,0.0005655663399628,-0.00056561157738169,0.00056556839773783,-0.00060877698404343,0.00060883179565147,-0.00060877075809576,0.00060883790365484,-0.00056556016063946,0.00056561988332152,-0.0005655580024039,0.00056562194698489,-0.00087484709754371,0.00087487470492796,-0.00087486529011118,0.00087485652448681,-0.00087484919688117,0.00087487261758185,-0.00087486735679264,0.00087485445179674,-0.00090546211950411,0.00090544530753399,-0.00090545605516046,0.00090545140404273,-0.00090543787587499,0.00090546955063764,-0.0009054440301069,0.00090546342167727,-0.00060883006299305,0.00060877862749085,0.78846824328842,129487,2954,0.0032120359192561,0.0044466755455561,0.0030750239035219,23.795775926205,-4.9633792590361e-05,-4.9633792590361e-05,-4.9633792590361e-05,3446768.6055671,0.010792152205974
28991759,0.66085732131371,0.011260563345518,0.003532969727728,0.0043250438199397,0.0034025497978503,-0.00078241796918376,0.00078241829920501,-2.9818822421179e-09,3.3109104228122e-09,1.55250863078e-09,-1.1646231793554e-09,-0.00045807620237083,0.00045808018025586,-0.00082299334579815,0.0008229889619152,-0.00082299126281611,0.00082299111842816,-0.00045807962834582,0.00045807653393517,-0.00045807367863497,0.00045808275742054,-0.00082299068385606,0.00082299165696849,-0.00082298864506886,0.00082299376196647,-0.00091099200708929,0.00091099114478234,-0.00091098988683078,0.00091099320220277,-0.00091099295300491,0.00091099022655991,-0.00091099081501195,0.00091099229663144,-0.00074664416885035,0.00074663741677407,-0.00074663808818799,0.00074664368229246,-0.00074664323794247,0.00074663830815764,-0.00074663721932777,0.0007466446064527,-0.0004580823158839,0.00045807380659253,-1.4245783090223e-09,1.2755634135089e-09,-2.7836374758094e-08,2.7674491971179e-08,-0.0010863653184258,0.0010863651541449,-0.0011256217178986,0.001125675052119,-0.0010324153466663,0.0010323941889661,-0.0010324126726461,0.001032396744064,-0.0010626992166442,0.0010626799300767,-0.0010626811021251,0.0010626982316866,-0.0010626983164079,0.0010626808110243,-0.0010626801740354,0.0010626991399474,-0.0011256759140178,0.0011256222178923,-0.0011256207522362,0.0011256759783371,-0.0010323968646781,0.0010324124393903,-0.0010323941369211,0.0010324150381375,-0.001125676826433,0.0011256213396858,6.8608146204699e-09,5.3460391514015e-10,-0.00074869340558851,0.00074870087225913,3.1876290367298e-08,-2.3981703974346e-08,-0.00061643182086731,0.00061639092193802,-0.00057179293299634,0.00057174399792208,-0.00057179087637262,0.00057174608862546,-0.00061638337193502,0.00061643941415012,-0.00061637707727739,0.00061644558821487,-0.00057173801472502,0.00057179902069483,-0.00057173583283731,0.00057180110589116,-0.00088721531222179,0.00088724327481244,-0.00088723399864061,0.00088722460073523,-0.00088721743774281,0.00088724116159963,-0.00088723609476361,0.00088722249851854,-0.00091918364815222,0.000919166086355,-0.00091917749629427,0.000919172270154,-0.0009191588261953,0.00091919090738456,-0.0009191650565302,0.00091918470296136,-0.0006164379344621,0.00061638476068621,0.7549031878231,129487,2954,0.0032566031299152,0.0045155974790895,0.003114995403441,24.09634710785,-4.7229223137197e-05,-4.7229223137197e-05,-4.7229223137197e-05,3454442.2682152,0.010947304860562
29191759,0.66985245757987,0.011407576014855,0.0035781859581702,0.004386097808841,0.003443292247844,-0.00079302292397119,0.00079302326003111,-3.0177308730403e-09,3.352609279382e-09,1.5413063461491e-09,-1.1465701372899e-09,-0.00046290357323526,0.00046290770169064,-0.00083457022650908,0.00083456584078093,-0.00083456810803835,0.00083456803747886,-0.00046290710675033,0.00046290395143365,-0.00046290111690131,0.0004629102105908,-0.00083456758563203,0.00083456852298826,-0.00083456552852078,0.0008345706370243,-0.00092390852173767,0.00092390763361207,-0.00092390637738465,0.00092390971052447,-0.00092390946058807,0.00092390671952266,-0.00092390729272174,0.00092390881992529,-0.00075581867035026,0.00075581184464094,-0.00075581249891462,0.00075581819774469,-0.00075581773608664,0.00075581273948439,-0.00075581165262957,0.00075581909887265,-0.00046290980261705,0.00046290121489533,-1.4028978459338e-09,1.2658242682463e-09,-2.8468348984656e-08,2.8318358090775e-08,-0.0011027265268388,0.00110272637461,-0.0011428907468695,0.0011429453420506,-0.0010476953109976,0.0010476737898432,-0.0010476926794245,0.0010476763001498,-0.001078653292927,0.0010786336173451,-0.0010786347763134,0.0010786523399561,-0.0010786524067341,0.0010786344834385,-0.0010786338544797,0.0010786532414987,-0.001142946194895,0.0011428912388242,-0.0011428897795626,0.001142946269792,-0.001047676426464,0.0010476924510678,-0.0010476737162775,0.001047695030216,-0.0011429470857992,0.0011428903828643,6.8082755533405e-09,3.8277226945962e-10,-0.00075831375061553,0.000758321012289,3.2428050675657e-08,-2.4749158920757e-08,-0.00062414411550647,0.00062410176292809,-0.00057800727890511,0.00057795681353459,-0.00057800520198394,0.00057795892561449,-0.00062409446258146,0.00062415146048568,-0.00062408803321016,0.00062415776648841,-0.00057795107339594,0.00057801312620993,-0.00057794884563367,0.00057801525516648,-0.00089952557336455,0.00089955380450434,-0.00089954470053652,0.0008995346897899,-0.00089952773619451,0.00089955165414396,-0.00089954682544187,0.00089953255852243,-0.00093269314311798,0.0009326748558587,-0.00093268690577532,0.00093268112499747,-0.00093266778514734,0.00093270021235249,-0.00093267412482119,0.00093269389889825,-0.00062415028826391,0.00062409554272315,0.73755731291316,129487,2954,0.0033007150143514,0.0045834289836699,0.0031549716128756,24.414685557563,-4.4682515539497e-05,-4.4682515539497e-05,-4.4682515539497e-05,3466367.6948642,0.011100922994488
29391759,0.6788566099712,0.011547476241889,0.0036212316462194,0.004444266266185,0.0034819783294849,-0.00080323644537941,0.00080323678150655,-3.0655175973358e-09,3.4004401155504e-09,1.5250310959351e-09,-1.1299242673098e-09,-0.00046724893718984,0.00046725316348886,-0.00084533552082462,0.00084533114475217,-0.00084533338220275,0.00084533336826324,-0.00046725260103461,0.00046724929273422,-0.00046724648214746,0.00046725566408973,-0.00084533292638564,0.00084533379190089,-0.00084533082092295,0.0008453359372526,-0.00093650994394279,0.00093650900980022,-0.00093650776267701,0.00093651111920614,-0.00093651086778039,0.00093650810862491,-0.00093650867090499,0.00093651023765115,-0.00076431096003298,0.00076430406138055,-0.00076430470367258,0.00076431049751241,-0.00076431004661838,0.00076430493576914,-0.00076430385829288,0.00076431139763089,-0.00046725523412841,0.00046724661249949,-1.380126992906e-09,1.2549999580098e-09,-2.8933492035032e-08,2.8795287540379e-08,-0.0011185975504894,0.0011185974101808,-0.0011593710602493,0.0011594266113887,-0.0010624790365557,0.0010624572425269,-0.0010624764282609,0.0010624597289763,-0.0010942865351273,0.001094266572586,-0.0010942677176863,0.0010942856136894,-0.0010942856569643,0.0010942674305293,-0.0010942668092022,0.0010942865015692,-0.0011594274326341,0.0011593715614453,-0.0011593701122581,0.0011594275192286,-0.0010624598386129,0.0010624762267806,-0.0010624571709592,0.0010624787623999,-0.0011594283212573,0.001159370707775,6.7294225284081e-09,2.2270936835961e-10,-0.00076763827434172,0.0007676452959933,3.2755656920805e-08,-2.5328243140124e-08,-0.0006312704294583,0.00063122704795022,-0.00058375869367243,0.00058370705068131,-0.00058375658092792,0.00058370919842568,-0.00063121996508217,0.00063127755592312,-0.00063121348289608,0.00063128391486039,-0.00058370158321087,0.00058376426838998,-0.00058369933655849,0.00058376641498758,-0.00091161947438238,0.00091164778984056,-0.00091163889823263,0.00091162837858159,-0.00091162166154212,0.00091164561518181,-0.00091164105312431,0.00091162621732693,-0.00094565052439293,0.00094563160910554,-0.0009456441990383,0.00094563796636566,-0.00094562478452182,0.00094565734750308,-0.00094563119512256,0.00094565096403009,-0.00063127670893654,0.00063122071998519,0.70228482445869,129487,2954,0.0033431962847037,0.0046492251325597,0.0031937177238425,24.733518451987,-4.2131852384108e-05,-4.2131852384108e-05,-4.2131852384108e-05,3481140.5388462,0.011249614898792
29591759,0.68786079703709,0.011681321810741,0.0036624118303146,0.0044999767219726,0.0035189332584541,-0.00081312097963597,0.00081312131271311,-3.1114128114008e-09,3.4433330475831e-09,1.5001236075182e-09,-1.1081883069903e-09,-0.00047144605943157,0.00047145041703332,-0.00085543339387606,0.00085542903195461,-0.00085543122969521,0.00085543128779692,-0.00047144985786031,0.00047144641657089,-0.00047144364977009,0.00047145286782884,-0.0008554308532167,0.00085543163964667,-0.00085542870643362,0.00085543380406885,-0.00094879187935453,0.00094879089687156,-0.00094878966620122,0.00094879303365605,-0.00094879278645869,0.00094879000996855,-0.00094879056017324,0.00094879216876534,-0.00077221805429103,0.00077221108112984,-0.00077221170653418,0.00077221759995258,-0.00077221715581401,0.00077221193954854,-0.00077221087711082,0.00077221848511361,-0.00047145244584862,0.000471443778032,-1.3510715690439e-09,1.2372137343667e-09,-2.9084071477316e-08,2.8957125941885e-08,-0.001133975039769,0.0011339749109371,-0.0011750339616629,0.0011750898466116,-0.0010767775394041,0.0010767557053406,-0.0010767749776493,0.0010767581454563,-0.001109620369545,0.0011096003340211,-0.0011096014586133,0.0011096194808661,-0.0011096195061005,0.0011096011767038,-0.001109600564954,0.0011096203533612,-0.0011750906474911,0.0011750344663758,-0.0011750330295175,0.0011750907385858,-0.0010767582490916,0.0010767747928928,-0.0010767556276403,0.0010767772821114,-0.0011750915210918,0.0011750336275755,6.6664076069119e-09,7.1643758251481e-11,-0.00077673387690381,0.00077674068293833,3.2796392064819e-08,-2.559417194491e-08,-0.00063801911971006,0.00063797530488484,-0.00058929979060798,0.00058924759138234,-0.00058929764835421,0.00058924976891682,-0.00063796843759306,0.00063802602928327,-0.00063796187165017,0.00063803247229819,-0.00058924237392179,0.00058930511602246,-0.0005892400978715,0.00058930729099215,-0.0009235158954231,0.00092354412466743,-0.0009235354188343,0.00092352461395159,-0.00092351811187949,0.00092354192078601,-0.00092353760318645,0.00092352242314662,-0.00095808873324618,0.00095806942013838,-0.00095808232083818,0.0009580758645019,-0.00095806280648243,0.00095809534519551,-0.00095806930282633,0.00095808887647606,-0.00063802548692439,0.0006379688889931,0.67337837467461,129487,2954,0.0033843042488262,0.0047129726043162,0.0032315115962462,25.052247964937,-3.9582016280505e-05,-3.9582016280505e-05,-3.9582016280505e-05,3501267.2749643,0.011393905087982
29791759,0.69681897927032,0.011821538529799,0.0037054683763507,0.0045582588448031,0.0035578113086452,-0.00082317596506716,0.00082317629665805,-3.1558914250068e-09,3.4862770147185e-09,1.4959907723029e-09,-1.1054323781379e-09,-0.00047647783708814,0.00047648226713254,-0.00086623290615516,0.00086622852559459,-0.00086623071846576,0.00086623080570698,-0.00047648172403735,0.00047647817633302,-0.00047647541634858,0.00047648472715269,-0.00086623037987405,0.00086623112428031,-0.00086622819194333,0.00086623331649039,-0.00096103935976105,0.00096103834211375,-0.00096103711544013,0.0009610405093883,-0.00096104026227357,0.00096103745904719,-0.00096103800868487,0.00096103964551229,-0.00078043920528774,0.0007804321519352,-0.00078043277107448,0.00078043874583419,-0.00078043831099717,0.0007804330006103,-0.00078043194135163,0.00078043963680197,-0.0004764842899893,0.00047647555688141,-1.3341977565567e-09,1.233793385834e-09,-2.8963777162077e-08,2.8849877780714e-08,-0.0011494764689862,0.0011494763531487,-0.0011908693626534,0.0011909250515438,-0.0010912147640205,0.0010911930361796,-0.0010912122169987,0.0010911954616527,-0.0011250489214942,0.0011250289809451,-0.0011250300867542,0.0011250480521049,-0.0011250480629356,0.0011250298189883,-0.0011250292009824,0.001125048916376,-0.0011909258409278,0.0011908698936002,-0.0011908684429571,0.001190925930569,-0.0010911955469885,0.0010912120528999,-0.0010911929516068,0.0010912145166542,-0.0011909267130051,0.0011908690562927,6.7214356190497e-09,3.7306354581182e-11,-0.00078607326436633,0.00078608009241396,3.2683746773828e-08,-2.5455477318803e-08,-0.00064561661054156,0.00064557317771215,-0.00059563681007004,0.00059558484859129,-0.00059563463342681,0.00059558706237803,-0.00064556627018759,0.00064562355868116,-0.00064555963330492,0.00064563006905338,-0.00059557963268236,0.00059564213414958,-0.00059557733125467,0.00059564433197702,-0.00093543934741907,0.0009354675427454,-0.00093545878555191,0.00093544811766194,-0.00093544159206521,0.0009354653112389,-0.00093546100158028,0.00093544589523578,-0.00097090968335537,0.00097089038641804,-0.00097090317806973,0.00097089692399548,-0.00097088375464062,0.00097091631260583,-0.00097089033419078,0.00097090976311753,-0.00064562308269931,0.00064556664992996,0.70917941693764,129487,2954,0.0034261152373416,0.0047772300979742,0.0032703175374311,25.304844352941,-3.7561245176475e-05,-3.7561245176475e-05,-3.7561245176475e-05,3519226.2125707,0.011540462987662
29991759,0.70572264757998,0.011968336330672,0.0037504416455499,0.0046192501659285,0.003598644519194,-0.0008334577609306,0.00083345810036991,-3.1971706007063e-09,3.5351837012116e-09,1.4914890072699e-09,-1.0921672763335e-09,-0.00048184697448237,0.00048185153268309,-0.00087780772300252,0.00087780333599713,-0.00087780550027042,0.00087780564628537,-0.00048185096965271,0.00048184733322473,-0.00048184458923225,0.00048185396643944,-0.00087780521177102,0.00087780592036183,-0.00087780299577639,0.00087780813844333,-0.00097345432888749,0.00097345328368493,-0.00097345205557922,0.0009734554803609,-0.00097345522589385,0.00097345240507795,-0.00097345294211592,0.00097345462331993,-0.00078918085540963,0.00078917372455198,-0.00078917432996877,0.00078918041080473,-0.00078917996217532,0.00078917456718595,-0.00078917351314556,0.00078918129472148,-0.00048185353152249,0.00048184472661415,-1.324008710928e-09,1.2351512436097e-09,-2.882450367514e-08,2.8722191503442e-08,-0.0011654260916783,0.0011654259873731,-0.0012074952554871,0.0012075506947375,-0.0011061115369193,0.0011060899209225,-0.0011061090007049,0.0011060923336,-0.0011407222409586,0.0011407024040475,-0.0011407034902207,0.0011407213818848,-0.0011407213861502,0.0011407032375206,-0.0011407026069427,0.0011407222433021,-0.001207551497039,0.0012074958166117,-0.0012074943350346,0.0012075515744037,-0.0011060924104304,0.0011061088431577,-0.0011060898187377,0.0011061113007069,-0.0012075523640038,0.0012074949847408,6.8504945682404e-09,7.9790923464118e-11,-0.00079565026636616,0.00079565726939062,3.2658867052669e-08,-2.5240840437901e-08,-0.00065381046087227,0.00065376752722351,-0.00060241661426638,0.00060236505280092,-0.00060241441176718,0.00060236729278168,-0.00065376044954175,0.00065381758027588,-0.00065375371860875,0.00065382418431107,-0.0006023596746004,0.00060242210450839,-0.0006023573408553,0.00060242433280391,-0.00094750658183066,0.00094753489767184,-0.00094752594256534,0.00094751555035107,-0.00094750885652782,0.00094753263679932,-0.00094752818656894,0.00094751329972564,-0.00098431055028965,0.00098429142039378,-0.00098430396336029,0.00098429804016096,-0.00098428461711143,0.00098431735066314,-0.00098429128442664,0.00098431071365263,-0.00065381700750874,0.00065376092764198,0.74657307896217,129487,2954,0.0034688737984453,0.0048433381531349,0.0033101094414139,25.555749767059,-3.5554001863525e-05,-3.5554001863525e-05,-3.5554001863525e-05,3528214.2714213,0.011690869606362
30191759,0.71456429638805,0.012104810508652,0.0037922115892941,0.0046761209321836,0.003636477987174,-0.00084310609889114,0.00084310643752352,-3.2420584900297e-09,3.5791945379608e-09,1.4827341627244e-09,-1.0840914889109e-09,-0.0004859061349548,0.00048591079383545,-0.00088816532183034,0.0008881609216517,-0.00088816307105369,0.00088816326232718,-0.00048591023436838,0.00048590649171274,-0.00048590376424335,0.0004859132124431,-0.00088816283054726,0.00088816349231053,-0.00088816057961421,0.00088816573514079,-0.00098546301445449,0.00098546193264752,-0.00098546071106323,0.00098546415902436,-0.00098546390504065,0.00098546105940955,-0.00098546159230483,0.00098546330765382,-0.00079711514404984,0.00079710793148113,-0.0007971085304764,0.00079711470264119,-0.00079711425445174,0.00079710876533153,-0.00079710772122987,0.00079711558452852,-0.00048591277765266,0.00048590390335179,-1.3102698845074e-09,1.2319545864933e-09,-2.8708502176435e-08,2.8616668265134e-08,-0.0011808235877808,0.0011808234940357,-0.0012234803834444,0.0012235356217717,-0.0011204605827557,0.0011204390693319,-0.0011204580622274,0.0011204414657985,-0.0011558747882079,0.0011558550412914,-0.0011558561098391,0.0011558739437301,-0.0011558739385445,0.001155855869343,-0.0011558552321766,0.0011558747992983,-0.0012235364225331,0.0012234809655682,-0.0012234794691194,0.001223536495231,-0.0011204415310837,0.0011204579158158,-0.0011204389568249,0.00112046035533,-0.0012235372846565,0.0012234801386291,6.9266029536226e-09,6.8058895560694e-11,-0.00080460059995213,0.00080460766873657,3.2586324313072e-08,-2.5095809869573e-08,-0.00066065920235145,0.00066061664272805,-0.00060805185700215,0.00060800055200689,-0.00060804962473956,0.00060800282196592,-0.00066060949608673,0.00066066639066433,-0.00066060268078095,0.00066067307803194,-0.00060799512901141,0.0006080573931977,-0.00060799276610515,0.00060805964925443,-0.00095921645901734,0.0009592447981725,-0.00095923574759814,0.00095922552326199,-0.00095921876284096,0.00095924250874832,-0.00095923802129343,0.00095922324291627,-0.00099691678830934,0.00099689770959258,-0.00099691011495159,0.00099690441627399,-0.00099689084323562,0.00099692365161378,-0.00099689759615082,0.0009969169294557,-0.00066066583664797,0.00066060995529795,0.70019171610936,129487,2954,0.0035090059911533,0.0049071514583039,0.0033472972973678,25.806587494238,-3.3547300046097e-05,-3.3547300046097e-05,-3.3547300046097e-05,3535983.2955731,0.011833689468814
30391759,0.72334577521246,0.012235389513584,0.0038321749410696,0.0047305785827953,0.0036726359897187,-0.00085248861871851,0.00085248895501547,-3.2877154152273e-09,3.6225669883887e-09,1.4611855407259e-09,-1.0649235613309e-09,-0.00048998220708442,0.00048998698247188,-0.00089794496387667,0.00089794057409065,-0.00089794268796798,0.00089794294462417,-0.00048998643427844,0.00048998255581444,-0.00048997986922535,0.00048998936917703,-0.00089794251951577,0.00089794310742324,-0.00089794022895474,0.00089794537404531,-0.00099716793045551,0.00099716680199099,-0.00099716559556133,0.00099716905777712,-0.00099716880590529,0.00099716594236227,-0.00099716646452145,0.00099716821992195,-0.00080458431504819,0.00080457702888524,-0.00080457761522555,0.00080458388373589,-0.00080458343908444,0.00080457784481763,-0.0008045768194017,0.00080458475690714,-0.00048998893162541,0.00048998001461644,-1.2837025589445e-09,1.2153971739359e-09,-2.8637829575582e-08,2.855613709479e-08,-0.0011956926993631,0.0011956926157978,-0.0012385982653241,0.0012386534007789,-0.0011343492642817,0.0011343278490487,-0.0011343467840085,0.0011343302050652,-0.0011707120532969,0.0011706923745525,-0.0011706934190998,0.0011707112330508,-0.0011707112166767,0.001170693189179,-0.0011706925558248,0.0011707120737173,-0.0012386541925655,0.0012385988640431,-0.0012385973677129,0.0012386542574726,-0.0011343302589563,0.0011343466511333,-0.0011343277297635,0.0011343490453028,-0.0012386550426325,0.0012385980489849,6.9642679909375e-09,1.7989826368006e-11,-0.00081338199262471,0.000813389049821,3.2511721619802e-08,-2.5030748437905e-08,-0.00066733574153855,0.0006672934043071,-0.00061364113496054,0.00061358992650312,-0.00061363887136147,0.00061359222792072,-0.0006672862627662,0.00066734292416093,-0.0006672793688136,0.00066734969034421,-0.00061358453955914,0.00061364663601947,-0.00061358214926017,0.00061364891849527,-0.00097068698814878,0.00097071529681646,-0.00097070622965703,0.00097069606915374,-0.00097068932049845,0.0009707129790898,-0.00097070853337855,0.00097069375871446,-0.0010090395089489,0.0010090203780266,-0.0010090327476026,0.0010090271733469,-0.001009013526654,0.0010090463573075,-0.0010090203631546,0.0010090395518218,-0.00066734246864831,0.00066728662312666,0.67548311513468,129487,2954,0.0035480252688254,0.0049687723663464,0.0033837826124176,26.074947709084,-3.1400418327327e-05,-3.1400418327327e-05,-3.1400418327327e-05,3550428.0042435,0.011972473459487
30591759,0.73212596499912,0.012370465851903,0.003873467711967,0.0047868373380622,0.0037101608018743,-0.00086230320016778,0.00086230354928869,-3.3254225022282e-09,3.6728696913374e-09,1.4120995486516e-09,-1.0015913168816e-09,-0.00049487015921576,0.00049487513945859,-0.00090849877336373,0.00090849448086472,-0.00090849647089242,0.00090849687951034,-0.00049487458294412,0.00049487051508636,-0.00049486792575014,0.00049487741919971,-0.00090849644396242,0.00090849690437052,-0.00090849411757159,0.00090849919747902,-0.0010091943198962,0.0010091931362616,-0.0010091919534653,0.0010091954205661,-0.0010091951565457,0.0010091923138677,-0.0010091927862483,0.0010091946200648,-0.00081254793032839,0.00081254060955769,-0.0008125411434067,0.00081254754683205,-0.00081254709180171,0.00081254138453821,-0.0008125403854409,0.00081254838603048,-0.00049487696287701,0.00049486809051828,-1.2223892965961e-09,1.160476078495e-09,-2.8765206581008e-08,2.8690399932005e-08,-0.0012109867945534,0.0012109867178544,-0.0012541197307277,0.0012541751702144,-0.0011487093878829,0.0011486880086039,-0.0011487070189596,0.0011486902499533,-0.0011859677855162,0.0011859480673475,-0.0011859490689667,0.001185967012852,-0.0011859669856791,0.0011859488435018,-0.0011859482437675,0.0011859678138111,-0.0012541759521674,0.0012541203374969,-0.0012541188733399,0.0012541759859502,-0.0011486902986236,0.001148706896755,-0.0011486878836249,0.001148709173215,-0.0012541767658105,0.0012541195596112,6.9973468408866e-09,-3.7733644141749e-11,-0.00082268994905538,0.00082269698373213,3.2627500980933e-08,-2.5169558013912e-08,-0.00067500279346707,0.0006749602805775,-0.00062014690405819,0.0006200953911048,-0.0006201446092616,0.00062009772396428,-0.00067495315470043,0.00067500996022544,-0.00067494617960639,0.00067501680587981,-0.00062009005493065,0.00062015235572206,-0.00062008763625226,0.0006201546649992,-0.0009824828544609,0.00098251126042502,-0.00098250217952323,0.00098249194966296,-0.00098248521583748,0.00098250891461425,-0.00098250451374803,0.00098248960863215,-0.0010218222076237,0.0010218028815501,-0.0010218153576725,0.0010218097662053,-0.0010217960547291,0.0010218290309162,-0.0010218029765655,0.001021822141,-0.0006750096142231,0.00067495340607629,0.69870694648324,129487,2954,0.003588834663681,0.0050321510075679,0.0034224539972399,26.468469975471,-2.8252240196231e-05,-2.8252240196231e-05,-2.8252240196231e-05,3564533.0961944,0.012117077423799
30791759,0.74089567637131,0.012510027823567,0.0039160492102603,0.0048449471721704,0.003749031441136,-0.00087227464176832,0.00087227500489597,-3.3632564164722e-09,3.7244561001727e-09,1.3803384549606e-09,-9.5413784696431e-10,-0.0004999047933799,0.00049990995965477,-0.00091956919946737,0.00091956496926478,-0.00091956686586259,0.00091956739908764,-0.00049990938407515,0.00049990516917952,-0.00049990264496989,0.00049991215634619,-0.00091956694675689,0.00091956731665021,-0.00091956459157256,0.00091956963747612,-0.0010213664416576,0.0010213652155205,-0.0010213640451494,0.0010213675285017,-0.001021367251725,0.0010213644184779,-0.0010213648512589,0.0010213667550747,-0.00082083389154096,0.00082082652220703,-0.00082082701759308,0.00082083355034744,-0.00082083307836203,0.00082082727209615,-0.00082082628748241,0.00082083436157043,-0.00049991169131249,0.00049990281979352,-1.180822752646e-09,1.1256408796938e-09,-2.8914827362901e-08,2.8846928958386e-08,-0.0012266195688631,0.0012266194990496,-0.0012702038763292,0.0012702596471228,-0.0011634246943762,0.0011634032983645,-0.0011634224002434,0.0011634054608492,-0.0012014280238099,0.0012014082392387,-0.0012014092096877,0.0012014272846162,-0.0012014272492087,0.0012014089888768,-0.0012014084089263,0.0012014280599515,-0.0012702604286743,0.0012702044939491,-0.0012702030423793,0.0012702604384784,-0.001163405505223,0.0011634222841046,-0.0011634031617399,0.0011634244848562,-0.001270261216109,0.0012702037432483,7.0607600530389e-09,-6.171597114518e-11,-0.00083216690937026,0.00083217398419814,3.2808770149563e-08,-2.5306287892879e-08,-0.000683073537883,0.00068303083929278,-0.00062692553057559,0.00062687372216657,-0.00062692320848922,0.00062687608286314,-0.00068302367735042,0.00068308074159762,-0.00068301661106544,0.00068308767709926,-0.0006268683696266,0.00062693100044129,-0.00062686591956311,0.00062693333919528,-0.00099439405146576,0.000994422632222,-0.00099441348344618,0.00099440321492817,-0.00099439644269294,0.00099442025721407,-0.00099441584634486,0.0009944008450762,-0.0010350458966889,0.0010350264169454,-0.001035038963252,0.0010350333856688,-0.0010350195506616,0.0010350527590335,-0.0010350265603856,0.0010350457825849,-0.00068308043916143,0.00068302388519902,0.72242073362496,129487,2954,0.003630299800649,0.0050969264807025,0.0034618265457319,26.865202244016,-2.5078382047872e-05,-2.5078382047872e-05,-2.5078382047872e-05,3572771.9018088,0.012264489386884
30991759,0.74964382605502,0.012654089094916,0.0039599107326685,0.0049049516180203,0.0037892267442276,-0.00088241798632381,0.00088241836382138,-3.4005889282102e-09,3.775779630877e-09,1.3647505296317e-09,-9.222643662508e-10,-0.00050509736657959,0.00050510267859534,-0.00093116278885316,0.00093115859295115,-0.0009311604267541,0.00093116105154248,-0.00050510209126624,0.00050509775344718,-0.00050509526441589,0.00050510483234531,-0.00093116058245061,0.00093116089138733,-0.0009311582002646,0.00093116324579305,-0.0010336907019004,0.0010336894436444,-0.0010336882749606,0.0010336917860057,-0.001033691495737,0.001033688662763,-0.0010336890651399,0.0010336910278129,-0.00082950436935474,0.00082949694447351,-0.00082949740963544,0.00082950405797766,-0.00082950357278872,0.00082949767624515,-0.00082949669499104,0.00082950485543031,-0.00050510434889467,0.00050509545667201,-1.1527523393103e-09,1.1047116163184e-09,-2.9103090703292e-08,2.9042433411977e-08,-0.0012425821990416,0.0012425821363342,-0.0012868582791212,0.0012869144508723,-0.0011784562429678,0.001178434773269,-0.0011784539940339,0.001178436886146,-0.0012170907382537,0.001217070851539,-0.0012170718004897,0.0012170900244051,-0.0012170899794389,0.0012170715845428,-0.0012170710161867,0.0012170907824542,-0.0012869152264849,0.0012868589076103,-0.0012868574617224,0.0012869152246403,-0.0011784369211652,0.0011784538852576,-0.0011784346249875,0.0011784560340888,-0.00128691599934,0.0012868581725655,7.1541599130755e-09,-5.6475738403488e-11,-0.0008417971771894,0.00084180435105084,3.305547646409e-08,-2.5449321197177e-08,-0.00069145283413529,0.00069140994889298,-0.00063394777839406,0.00063389566103834,-0.00063394542629588,0.00063389805218843,-0.00069140268515562,0.00069146014096985,-0.00069139553467984,0.00069146715811351,-0.00063389023536335,0.00063395332386482,-0.0006338877558523,0.00063395568969948,-0.0010064305060981,0.0010064593424721,-0.0010064500678338,0.0010064397958281,-0.0010064329265936,0.0010064569387854,-0.0010064524604627,0.0010064373961789,-0.0010486420584547,0.0010486224574694,-0.0010486350381621,0.0010486295135109,-0.0010486154947096,0.0010486490164489,-0.0010486225908628,0.0010486419553969,-0.00069145982530229,0.00069140290556386,0.74698825202451,129487,2954,0.0036724836266689,0.0051630617785233,0.0035018344356255,27.262063195392,-2.1903494436861e-05,-2.1903494436861e-05,-2.1903494436861e-05,3576658.9038472,0.012414670184731
31191759,0.75842693734472,0.01280543671935,0.0040058826352823,0.0049680352786134,0.0038315188054539,-0.00089313638566482,0.00089313678144441,-3.4137821272993e-09,3.8068152672008e-09,1.3546015876749e-09,-8.9115438149242e-10,-0.0005107126344172,0.00051071823993611,-0.00094377148498622,0.00094376727200517,-0.00094376904379366,0.00094376980819768,-0.00051071745055079,0.0005107132225938,-0.00051071075986326,0.00051072017271749,-0.00094376925312601,0.0009437695888516,-0.00094376692459036,0.00094377190345439,-0.0010465864291141,0.001046585181062,-0.0010465840076534,0.0010465875155953,-0.0010465872303663,0.0010465843927841,-0.0010465847624503,0.0010465867919243,-0.00083901650988733,0.00083900901113026,-0.00083900944313837,0.00083901622866556,-0.00083901566520666,0.00083900979147989,-0.00083900880514696,0.0008390169500102,-0.00051071985203935,0.00051071079208422,-1.1256001606877e-09,1.0840753505289e-09,-2.9548524259043e-08,2.9494547172947e-08,-0.0012593745711507,0.0012593745148227,-0.0013046126714647,0.0013046696840325,-0.0011942763800903,0.0011942547282174,-0.0011942742362405,0.0011942567262715,-0.0012334100113872,0.0012333898752246,-0.0012333908050328,0.0012334093234728,-0.0012334092893391,0.0012333905697775,-0.0012333900159935,0.0012334100861622,-0.0013046705178773,0.0013046132464675,-0.0013046118090833,0.0013046705065313,-0.0011942568172157,0.0011942740711743,-0.0011942545046631,0.0011942762334936,-0.0013046712148081,0.00130461259164,7.2377517292558e-09,-1.054830321246e-10,-0.00085197160098673,0.00085197880923977,3.3636178802312e-08,-2.5994111144174e-08,-0.00070054182335443,0.00070049781781562,-0.00064162686801284,0.00064157370047659,-0.00064162453564715,0.00064157607146501,-0.00070049070187526,0.00070054898620984,-0.00070048324455987,0.00070055630445355,-0.00064156828155025,0.0006416324098282,-0.00064156569505721,0.00064163487901501,-0.001018991820961,0.0010190211305029,-0.0010190117786484,0.0010190011883424,-0.0010189943073669,0.0010190186613595,-0.0010190141944723,0.0010189987651424,-0.0010631007511355,0.0010630807365913,-0.0010630936641774,0.0010630878606047,-0.0010630736800434,0.0010631078028195,-0.001063080969814,0.001063100549787,-0.00070054876025946,0.00070049083498122,0.78082574702005,129487,2954,0.0037170617712926,0.0052326275761208,0.0035441001265775,27.78830713306,-1.7693542935516e-05,-1.7693542935516e-05,-1.7693542935516e-05,3577340.9290416,0.012573057130251
31391759,0.76725206939769,0.012951733951182,0.0040502576067314,0.0050291821129979,0.003872294231453,-0.00090362103367039,0.00090362143401945,-3.463901591287e-09,3.8613677481306e-09,1.3634157181151e-09,-8.9437085705483e-10,-0.00051534302972246,0.00051534866377923,-0.00095571360131655,0.00095570936704327,-0.00095571114472271,0.00095571191871243,-0.00051534793662611,0.00051534356361404,-0.00051534108553403,0.00051535067387595,-0.00095571137585093,0.00095571167647968,-0.00095570899588924,0.00095571404491558,-0.0010594688881863,0.0010594676067383,-0.0010594664244978,0.0010594699817485,-0.0010594696860955,0.0010594668215912,-0.0010594671898944,0.0010594692469461,-0.00084823147382571,0.00084822390174073,-0.00084822433065964,0.00084823119164057,-0.00084823065085978,0.00084822465538966,-0.00084822366395781,0.00084823194671977,-0.00051535029073549,0.00051534118580231,-1.1314634048932e-09,1.0983584750864e-09,-3.0166187072868e-08,3.0120330963888e-08,-0.0012761439242874,0.0012761438761371,-0.0013223320047832,0.0013223902558853,-0.0012100849027038,0.00121006280011,-0.00121008271368,0.0012100648450791,-0.0012496631017928,0.0012496425553493,-0.0012496434908463,0.0012496624234519,-0.0012496623681223,0.0012496432625918,-0.0012496427016845,0.0012496631860396,-0.0013223910538881,0.0013223325987163,-0.0013223311525427,0.0013223910640808,-0.0012100649009459,0.0012100825837456,-0.0012100625919398,0.0012100847357364,-0.0013223917756033,0.001322331916894,7.2456853182431e-09,-1.6960446897195e-10,-0.00086187255214545,0.00086187970351151,3.418058157971e-08,-2.6599213514521e-08,-0.00070867490191262,0.00070862985927051,-0.00064857830207584,0.000648523896349,-0.00064857592438792,0.00064852631432635,-0.00070862273975781,0.00070868206719321,-0.00070861526729939,0.00070868940031247,-0.0006485185614871,0.00064858376144397,-0.00064851597094951,0.00064858623313421,-0.0010315610469566,0.0010315906986077,-0.0010315813792338,0.0010315703821959,-0.0010315635506458,0.0010315882128118,-0.0010315838268804,0.0010315679272546,-0.0010772668355592,0.001077246288193,-0.001077259658741,0.0010772535031856,-0.0010772393106574,0.0010772738080237,-0.0010772466500635,0.0010772665067037,-0.00070868197716052,0.0007086227334603,0.75165982045145,129487,2954,0.0037606756229696,0.0053020907121451,0.0035852291782551,28.355758966473,-1.3153928268214e-05,-1.3153928268214e-05,-1.3153928268214e-05,3576910.2435934,0.012729241977766
31591759,0.77610372420037,0.013092166931095,0.0040928669460222,0.0050879426306622,0.0039113573544103,-0.00091386656334995,0.00091386695641526,-3.5183376407149e-09,3.9085630149652e-09,1.385218795399e-09,-9.2363810251939e-10,-0.00051976139952295,0.0005197670192774,-0.00096697338273082,0.00096696907658767,-0.0009669709151249,0.00096697164662921,-0.00051976636106992,0.00051976187670609,-0.00051975935101416,0.00051976913609765,-0.0009669711307304,0.00096697142146797,-0.00096696869312027,0.00096697383826219,-0.0010721446950112,0.001072143382904,-0.0010721421889144,0.0010721457954554,-0.0010721455018286,0.0010721425860161,-0.0010721429785336,0.0010721450383417,-0.0008569700247392,0.00085696235128975,-0.00085696280666166,0.00085696972150003,-0.0008569692097232,0.00085696310298279,-0.00085696209827,0.00085697051251677,-0.00051976871189814,0.00051975950433246,-1.1498697874144e-09,1.1267676958512e-09,-3.0716432562952e-08,3.068025704556e-08,-0.0012924915397027,0.0012924915013297,-0.0013393410500126,0.0013394004001732,-0.0012255157279059,0.0012254932073686,-0.0012255134746579,0.0012254953172459,-0.0012656823414339,0.0012656614224926,-0.0012656623713621,0.0012656816654173,-0.0012656815872777,0.0012656621509469,-0.0012656615729158,0.0012656824380199,-0.0013394011609703,0.0013393416626309,-0.0013393402001099,0.0013394012057299,-0.0012254953453121,0.0012255133745634,-0.001225493008666,0.0012255155523183,-0.0013394019160663,0.0013393409467251,7.2145913155406e-09,-2.7600047898144e-10,-0.00087157007841969,0.0008715770911174,3.463807990195e-08,-2.7203172091552e-08,-0.00071635274362336,0.00071630665201836,-0.00065522250012268,0.00065516686073059,-0.00065522007809986,0.00065516932326606,-0.00071629961324113,0.00071635982852279,-0.00071629212735777,0.00071636717475805,-0.00065516169363763,0.00065522779289087,-0.00065515909673985,0.00065523026987647,-0.0010439804489848,0.0010440103353834,-0.00104400112702,0.0010439896732936,-0.0010439829714654,0.0010440078308493,-0.0010440036068182,0.0010439871860556,-0.001090941493242,0.001090920354131,-0.0010909342231399,0.0010909276650428,-0.001090913538513,0.0010909483048504,-0.0010909209311484,0.0010909409502661,-0.0007163599523245,0.00071629939295588,0.71981430623282,129487,2954,0.0038032894772041,0.0053698032271065,0.0036255124484806,28.924315326954,-8.605477384369e-06,-8.605477384369e-06,-8.605477384369e-06,3582640.9340108,0.01288180929605
31791759,0.78484585978148,0.013223388533146,0.0041327016660341,0.0051429000709009,0.0039477867962112,-0.00092323172476121,0.00092323208578356,-3.5818676715778e-09,3.9406030122241e-09,1.4549394553336e-09,-1.0282448197383e-09,-0.00052347370217833,0.00052347915251875,-0.0009767989551149,0.00097679443025874,-0.00097679647956877,0.00097679701889435,-0.00052347858805557,0.00052347409415793,-0.00052347142297639,0.0005234814968127,-0.00097679655688308,0.00097679693510503,-0.00097679406135496,0.00097679939444825,-0.0010839238106271,0.0010839224867002,-0.0010839212647201,0.0010839249350703,-0.001083924667801,0.0010839216370643,-0.0010839221186292,0.0010839241150564,-0.00086457195418904,0.00086456411668757,-0.00086456466184563,0.00086457156407991,-0.00086457110126007,0.00086456490957043,-0.00086456387612872,0.00086457242904548,-0.0005234810554542,0.00052347160395889,-1.2243420871455e-09,1.2173993782626e-09,-3.079482333305e-08,3.077373823148e-08,-0.0013076227630731,0.0013076227401574,-0.0013547836884005,0.0013548431868065,-0.0012398497208558,0.0012398269866837,-0.0012398472915797,0.0012398292779879,-0.0012807093627833,0.001280688345012,-0.0012806893363103,0.001280708651192,-0.0012807085497294,0.0012806891349734,-0.0012806884904429,0.0012807094738051,-0.0013548439095641,0.0013547843317697,-0.0013547828038954,0.0013548440288557,-0.0012398292700452,0.0012398472210766,-0.0012398267911321,0.0012398495461068,-0.0013548447378162,0.001354783540839,7.2268194202156e-09,-3.4502532793366e-10,-0.00088044496093799,0.00088045191604698,3.4654327645005e-08,-2.7279543084258e-08,-0.00072305850543252,0.00072301240480333,-0.00066097233568561,0.00066091649895273,-0.00066096986861738,0.00066091900641116,-0.00072300536531791,0.00072306558837001,-0.00072299786056212,0.00072307295518216,-0.00066091141625838,0.00066097754318735,-0.00066090881036025,0.0006609800292869,-0.0010555814656458,0.0010556113466117,-0.0010556021680288,0.0010555906600861,-0.0010555840089541,0.0010556088206491,-0.0010556046810173,0.0010555881394035,-0.0011033974273816,0.0011033760986114,-0.0011033900597717,0.0011033835107621,-0.0011033693632028,0.0011034041613457,-0.0011033768153273,0.0011033967457637,-0.00072306585116975,0.00072300500780045,0.68196835054924,129487,2954,0.0038422377402062,0.00543247382116,0.0036623797957126,29.261977058864,-5.9041835290879e-06,-5.9041835290879e-06,-5.9041835290879e-06,3592530.3729351,0.013022118854245
31991759,0.79330839371605,0.013363278612745,0.004175106791682,0.0052013018700798,0.0039868699509837,-0.00093243157044587,0.00093243190084064,-3.6408143690614e-09,3.9695552109602e-09,1.5626039866385e-09,-1.1695062073587e-09,-0.00052818021226393,0.00052818553211613,-0.00098728418665308,0.00098727933692691,-0.00098728166532289,0.00098728197426691,-0.00052818493909955,0.0005281806321873,-0.00052817775559867,0.00052818806930565,-0.00098728152347443,0.00098728210305853,-0.0009872790237552,0.00098728458015029,-0.0010951240756387,0.0010951227809741,-0.0010951215077921,0.0010951252537365,-0.0010951250213116,0.0010951218427696,-0.0010951224367402,0.0010951243567565,-0.00087234972160086,0.00087234166531788,-0.00087234232722539,0.00087234922505877,-0.00087234876575403,0.00087234256144204,-0.00087234148052313,0.00087235015122863,-0.000528187719779,0.00052817784383429,-1.3507882333761e-09,1.3671360783651e-09,-3.0454132562772e-08,3.0454695674423e-08,-0.0013222699829205,0.001322269981837,-0.001369854290345,0.0013699130535887,-0.0012537800068873,0.0012537572623484,-0.0012537773297613,0.0012537598081173,-0.0012952375073615,0.0012952166442653,-0.0012952176986275,0.0012952367213274,-0.001295236612135,0.0012952175205604,-0.001295216758565,0.0012952376424245,-0.0013699137977465,0.0013698549628153,-0.0013698532971316,0.0013699140059441,-0.0012537597850982,0.0012537772488251,-0.0012537570176471,0.0012537798688058,-0.0013699146989133,0.0013698540970716,7.4004122799553e-09,-2.6032572325726e-10,-0.00088921640819407,0.00088922362450609,3.4514644618247e-08,-2.6860000510422e-08,-0.00073090969599454,0.00073086445487523,-0.00066751473651351,0.00066745971904867,-0.00066751225907743,0.00066746223730501,-0.00073085720008696,0.00073091699174718,-0.00073084955412077,0.00073092450444819,-0.00066745438732878,0.00066752019266549,-0.00066745173358538,0.00066752272802922,-0.0010665662991998,0.0010665962858036,-0.0010665868234826,0.0010665757772656,-0.0010665688781195,0.0010665937237078,-0.0010665893597434,0.001066573233312,-0.0011159202719777,0.0011158993087202,-0.0011159128370115,0.0011159067919802,-0.001115892306428,0.0011159272751806,-0.0011158998634086,0.0011159197536925,-0.00073091706894617,0.00073085703101061,0.74979062666122,129487,2954,0.0038804897198747,0.005493135039902,0.0036988175603847,29.279617082789,-5.7630633376897e-06,-5.7630633376897e-06,-5.7630633376897e-06,3599362.4911479,0.013159263095242
32191759,0.80149185511777,0.01350120682797,0.0042168262468202,0.0052589406527608,0.0040254399283885,-0.00094131213221021,0.00094131245072794,-3.6899111583646e-09,4.0069415940965e-09,1.6243515877622e-09,-1.2441492378007e-09,-0.00053202180450643,0.00053202706147828,-0.00099755834180224,0.00099755331437875,-0.00099755579049091,0.00099755598413174,-0.00053202648011353,0.00053202221413131,-0.00053201921632695,0.00053202973416623,-0.00099755553998217,0.00099755621521639,-0.00099755302042726,0.0009975587249783,-0.0011060937827908,0.001106092492872,-0.0011060911880236,0.0011060949958863,-0.0011060947740547,0.0011060915094897,-0.0011060921605506,0.0011060940532917,-0.00087998105522937,0.00087997285724098,-0.00087997358466099,0.00087998051064748,-0.00087998005352251,0.00087997379872334,-0.00087997269301935,0.00087998148294856,-0.00053202939934491,0.00053201928962697,-1.4065011028421e-09,1.4399162869429e-09,-3.0370260636061e-08,3.0387038930937e-08,-0.0013368534691728,0.0013368534843359,-0.0013851560397454,0.0013852146248706,-0.0012676929983374,0.0012676701926542,-0.0012676901957117,0.00126767286519,-0.0013094207774132,0.0013093999389511,-0.0013094010159482,0.0013094199615694,-0.0013094198414432,0.0013094008578153,-0.0013094000340761,0.0013094209263044,-0.0013852153751048,0.0013851567463632,-0.0013851550016875,0.0013852156228579,-0.001267672814899,0.0012676901218256,-0.0012676699226006,0.0012676928675625,-0.0013852163163383,0.0013851558395987,7.559455090189e-09,-1.9157083072718e-10,-0.00089762079806038,0.00089762824601829,3.4567672740502e-08,-2.666492824079e-08,-0.00073806846786421,0.00073802370614676,-0.00067351146125543,0.00067345680304469,-0.00067350895497992,0.00067345935037787,-0.00073801621479876,0.00073807599957979,-0.00073800847570369,0.00073808360534351,-0.00067345125479486,0.0006735171349332,-0.00067344857002586,0.00067351970109282,-0.0010772898671432,0.0010773200623197,-0.0010773103456152,0.0010772995996142,-0.001077292476346,0.0010773174697795,-0.0010773129114769,0.0010772970260041,-0.0011284107533645,0.001128389967568,-0.0011284032331965,0.0011283975388828,-0.001128382744933,0.0011284179782028,-0.001128390392029,0.0011284103662129,-0.00073807592571717,0.00073801619583431,0.76436055115512,129487,2954,0.0039174287240932,0.0055535234675696,0.0037337304182046,29.288953134064,-5.6883749274848e-06,-5.6883749274848e-06,-5.6883749274848e-06,3595675.2447096,0.013293276277126
32391759,0.80940128507892,0.013637543439619,0.0042580128688609,0.0053159394532541,0.0040635911175044,-0.00095001957384956,0.00095001989243582,-3.7342060570682e-09,4.0512059842469e-09,1.661552950992e-09,-1.2812008680753e-09,-0.0005357616544751,0.00053576690812708,-0.0010077699946362,0.0010077648705162,-0.0010077674198815,0.0010077675654678,-0.00053576634505852,0.00053576204924345,-0.00053575898055652,0.00053576967353091,-0.0010077671231214,0.0010077678373124,-0.0010077645748943,0.0010077703873261,-0.0011168404424126,0.0011168391453619,-0.0011168378175341,0.0011168416813112,-0.0011168414561451,0.0011168381396488,-0.001116838815547,0.0011168407116212,-0.00088759320350117,0.00088758490074057,-0.00088758565936801,0.00088759264036931,-0.00088759218482401,0.00088758586073917,-0.00088758473576468,0.00088759364410214,-0.00053576932464764,0.00053575907090151,-1.4337610413785e-09,1.4815927230799e-09,-3.0463471179778e-08,3.0493978981727e-08,-0.0013512230173226,0.0013512230462246,-0.0014003505234817,0.0014004092987867,-0.0012814270252164,0.0012814040922681,-0.0012814241476849,0.0012814068385413,-0.0013233087808364,0.0013232878676694,-0.0013232889521818,0.0013233079545994,-0.001323307821073,0.0013232888111766,-0.0013232879501251,0.0013233089404117,-0.0014004100461244,0.001400351264668,-0.0014003494673337,0.001400410315094,-0.001281406759737,0.0012814240870849,-0.0012814038057138,0.0012814268931847,-0.0014004110155169,0.0014003503296837,7.7003782407893e-09,-1.3884442526209e-10,-0.00090582230017457,0.00090582994488414,3.4768319221353e-08,-2.6655194647071e-08,-0.0007450031298351,0.00074495849933457,-0.00067942353912099,0.00067936886940402,-0.00067942099812534,0.00067937145210614,-0.00074495078682489,0.00074501088289091,-0.00074494297804039,0.00074501855728255,-0.00067936314114643,0.00067942939417435,-0.00067936043241472,0.00067943198313488,-0.0010877633444131,0.0010877938244077,-0.001087783886791,0.0010877732979635,-0.0010877659811656,0.001087791204597,-0.0010877864839803,0.0010877706929726,-0.0011407426260157,0.0011407218731318,-0.0011407350141427,0.0011407295360554,-0.0011407144662016,0.0011407500345407,-0.0011407221945059,0.0011407423419323,-0.00074501069115641,0.00074495088550186,0.78118420755556,129487,2954,0.0039536513156924,0.0056130198622442,0.0037677997195087,29.297954844269,-5.616361245844e-06,-5.616361245844e-06,-5.616361245844e-06,3590101.3188583,0.013424821917727
32591759,0.81702599660679,0.013761170596083,0.00429538250626,0.0053677038932021,0.0040980841966208,-0.00095791507401284,0.00095791539441714,-3.7805597312747e-09,4.0993100240397e-09,1.6649601632275e-09,-1.2825745985205e-09,-0.00053835066495629,0.00053835598946002,-0.001016556637938,0.0010165514860665,-0.0010165540418654,0.0010165542110122,-0.00053835544609389,0.00053835104770622,-0.00053834796983991,0.00053835877755742,-0.0010165537701961,0.0010165544543469,-0.0010165511848557,0.0010165570408498,-0.00112688521299,0.0011268838854816,-0.001126882553798,0.0011268864542871,-0.0011268862254972,0.0011268828797658,-0.001126883555433,0.0011268854813511,-0.00089424594492175,0.00089423755631764,-0.00089423831878476,0.00089424538645371,-0.00089424493287009,0.00089423851307286,-0.00089423738593283,0.00089424639649056,-0.00053835841422151,0.00053834808238169,-1.4332717103272e-09,1.4917602143083e-09,-3.0738068693777e-08,3.0778823939144e-08,-0.0013646255324265,0.0013646255717145,-0.0014144148242078,0.0014144741599748,-0.0012942861713648,0.0012942630512879,-0.0012942832780033,0.0012942658124298,-0.0013362866344085,0.001336265544581,-0.0013362666249427,0.0013362858183564,-0.0013362856697374,0.0013362664932622,-0.0013362656217349,0.0013362868054154,-0.0014144748917697,0.001414415582009,-0.0014144137701021,0.0014144751737267,-0.0012942657125829,0.0012942832300677,-0.0012942627545666,0.001294286038012,-0.0014144758700929,0.0014144146376896,7.7497579708754e-09,-1.7173427967976e-10,-0.00091319486661233,0.00091320252851708,3.5050187682583e-08,-2.6918291114331e-08,-0.00075045139113768,0.0007504063478854,-0.00068417308508652,0.00068411786487039,-0.00068417051088497,0.00068412048117749,-0.00075039859949862,0.00075045917997887,-0.00075039072679757,0.00075046691867801,-0.00068411214431115,0.00068417893333533,-0.00068410941374702,0.00068418154331469,-0.0010975840858641,0.0010976147880394,-0.0010976048079445,0.0010975940820807,-0.0010975867480768,0.0010976121430499,-0.0010976074345742,0.0010975914476709,-0.0011519400101401,0.0011519190011139,-0.0011519323120123,0.0011519267511543,-0.0011519115875552,0.0011519474254755,-0.0011519193903471,0.0011519396585556,-0.00075045905107042,0.00075039863591797,0.73524667553433,129487,2954,0.003986503387913,0.0056685067959011,0.0037984268010388,29.270833127506,-5.8333349799504e-06,-5.8333349799504e-06,-5.8333349799504e-06,3584270.5340744,0.013545419493913
32791759,0.82436001003496,0.013871478700705,0.0043287906151373,0.0054139204515723,0.0041287676339958,-0.00096509682329506,0.00096509714349389,-3.8231328541656e-09,4.1415042184331e-09,1.6402822734731e-09,-1.2581627616383e-09,-0.00054063363149835,0.00054063909643958,-0.001023986675205,0.0010239815397985,-0.0010239840503931,0.0010239842991702,-0.00054063855025052,0.00054063402981913,-0.00054063099178418,0.0005406418240621,-0.0010239838572163,0.0010239844681557,-0.0010239812399978,0.0010239870723458,-0.001136128106912,0.0011361267356454,-0.001136125418109,0.0011361293289902,-0.0011361291030333,0.0011361257438682,-0.0011361264029996,0.0011361283747827,-0.00089996235392719,0.00089995389409941,-0.00089995463804422,0.00089996180768623,-0.00089996135620217,0.00089995484005737,-0.00089995372306974,0.00089996279684295,-0.00054064147814484,0.00054063110121517,-1.4029309483049e-09,1.4693640955384e-09,-3.1047432777799e-08,3.1096159368824e-08,-0.0013767622729547,0.0013767623203194,-0.0014267783509347,0.0014268383223979,-0.0013060038104924,0.0013059805508419,-0.0013060009725678,0.0013059832560402,-0.0013482901538263,0.0013482688864206,-0.0013482699473281,0.0013482893687438,-0.001348289207141,0.0013482698165506,-0.0013482689598271,0.0013482903397023,-0.0014268390403788,0.0014267791047555,-0.0014267773112684,0.0014268393220339,-0.0013059831553202,0.001306000931569,-0.0013059802451193,0.0013060036920801,-0.0014268399982176,0.0014267781812657,7.7308002990781e-09,-2.8257520855443e-10,-0.00091991269100804,0.00091992022086497,3.5298573418562e-08,-2.7307304607699e-08,-0.00075510146096908,0.00075505573692413,-0.00068827417458248,0.00068821816113195,-0.00068827157342095,0.00068822080412762,-0.00075504813177148,0.00075510910757222,-0.00075504016022956,0.00075511694478112,-0.00068821260744733,0.00068827985628601,-0.00068820984256727,0.00068828249991293,-0.0011066967102288,0.0011067275243604,-0.0011067176444936,0.0011067066062857,-0.0011066994042874,0.0011067248476475,-0.001106720300533,0.0011067039424375,-0.001161832451193,0.0011618110178467,-0.0011618246661736,0.0011618188529417,-0.0011618037264507,0.0011618397432488,-0.0011618116232509,0.0011618318824673,-0.0007551092006497,0.00075504794675764,0.68273835800165,129487,2954,0.0040163775111677,0.0057187524282597,0.0038263342193591,29.212644878401,-6.2988409727901e-06,-6.2988409727901e-06,-6.2988409727901e-06,3586829.1495955,0.013654942684361
32991759,0.83141185359859,0.013982459782766,0.0043623851818202,0.0054603192486875,0.0041597553522581,-0.00097233010249706,0.00097233043168532,-3.8629779305876e-09,4.1901150821546e-09,1.6046818140133e-09,-1.2127191611444e-09,-0.00054392684487007,0.00054393248250306,-0.0010317774577334,0.0010317723832079,-0.0010317748043288,0.0010317751708453,-0.00054393193425631,0.00054392725322315,-0.00054392428161698,0.00054393513222021,-0.001031774722284,0.0010317752329709,-0.00103177207066,0.0010317778632746,-0.0011451013141409,0.0011450998946503,-0.0011450985936262,0.0011451025160481,-0.0011451022819701,0.0011450989293103,-0.0011450995525571,0.0011451015893072,-0.00090591048285062,0.00090590197289629,-0.00090590267737387,0.00090590996746715,-0.00090590951342573,0.00090590289073033,-0.00090590178763744,0.00090591093121858,-0.00054393477850591,0.00054392440768092,-1.3583022490634e-09,1.4314562565748e-09,-3.1363874225407e-08,3.1419460323613e-08,-0.0013884916352315,0.001388491689501,-0.0014385796760154,0.0014386403096987,-0.0013173793502691,0.0013173559660776,-0.0013173765907831,0.0013173585910597,-0.0013600263346695,0.0013600048924204,-0.0013600059248001,0.0013600255892105,-0.0013600254142971,0.0013600057953398,-0.0013600049644304,0.0013600265321264,-0.0014386410127015,0.001438580430545,-0.0014385786643636,0.0014386412808677,-0.0013173584861287,0.0013173765625591,-0.0013173556575913,0.0013173792397631,-0.0014386419443429,0.0014385795337095,7.7280810077388e-09,-3.7350538983217e-10,-0.00092678445303284,0.00092679188826847,3.556516088077e-08,-2.7674780150301e-08,-0.0007607574791443,0.00076071112538927,-0.00069316573974317,0.00069310897329982,-0.00069316310806376,0.00069311164690202,-0.00076070361414845,0.000760765032181,-0.00076069555873298,0.00076077295197942,-0.00069310354657366,0.00069317129524259,-0.00069310075317202,0.00069317396620831,-0.0011155577643393,0.0011155887247382,-0.0011155789085838,0.0011155675968803,-0.001115560487437,0.0011155860193324,-0.0011155815944895,0.0011155649031304,-0.0011716383241373,0.0011716164993211,-0.0011716304514641,0.0011716244211442,-0.0011716093004775,0.0011716455226982,-0.0011716172830757,0.0011716375770424,-0.0007607653084315,0.00076070324556568,0.71399333666275,129487,2954,0.0040464506676133,0.0057673114256261,0.0038548790330551,29.153645379827,-6.7708369613825e-06,-6.7708369613825e-06,-6.7708369613825e-06,3594933.2300991,0.013763609456906
33191759,0.83819041482704,0.014095882216386,0.004396652757704,0.0055076859193219,0.0041915435393597,-0.00097954401397431,0.00097954435974556,-3.8991734324134e-09,4.2426085480593e-09,1.5744325756067e-09,-1.16410893183e-09,-0.00054725743030307,0.0005472632494298,-0.0010400201143336,0.0010400151065904,-0.0010400174300072,0.001040017920898,-0.00054726268690754,0.00054725785649366,-0.00054725494517076,0.00054726582166442,-0.0010400174558115,0.0010400178768541,-0.0010400147748226,0.0010400205379689,-0.0011539712875658,0.0011539698279835,-0.0011539685364409,0.0011539724784563,-0.001153972228312,0.0011539688886046,-0.0011539694696078,0.0011539715781063,-0.00091211872825506,0.00091211017443398,-0.00091211083688494,0.00091211825498651,-0.00091211778748499,0.00091211106647846,-0.00091210997096734,0.00091211919217176,-0.00054726545180136,0.00054725509133422,-1.3155684366844e-09,1.3939291904862e-09,-3.1683279776639e-08,3.1744257795479e-08,-0.0014002685589489,0.0014002686184997,-0.001450682713646,0.0014507440104954,-0.0013287873650646,0.0013287638497578,-0.0013287846816767,0.0013287663948963,-0.0013716245451296,0.001371602924636,-0.0013716039288819,0.0013716238352389,-0.0013716236506423,0.0013716038005194,-0.0013716029948646,0.0013716247506756,-0.0014507447077115,0.0014506834739658,-0.0014506817286046,0.0014507449542932,-0.0013287662869458,0.0013287846625613,-0.0013287635358148,0.0013287872585662,-0.001450745613547,0.0014506826037985,7.7693031851502e-09,-4.2023587333988e-10,-0.00093365164389972,0.00093365907313788,3.5884576177051e-08,-2.8000551961674e-08,-0.00076672635666914,0.00076667945414765,-0.00069827121042624,0.00069821377558422,-0.00069826854889384,0.00069821647933702,-0.00076667194659911,0.00076673390730457,-0.00076666380573631,0.000766741910525,-0.00069820838276126,0.00069827673339071,-0.00069820556030932,0.00069827943208429,-0.0011242751707629,0.0011243063722335,-0.0011242965311683,0.0011242850283977,-0.0011242779232018,0.0011243036380639,-0.0011242992466407,0.0011242823050433,-0.0011816733378093,0.0011816512073903,-0.0011816653777042,0.0011816592149086,-0.0011816440125272,0.0011816805310962,-0.0011816520812016,0.0011816725003517,-0.00076673427340448,0.00076667148710078,0.75848139754099,129487,2954,0.0040764488320295,0.0058160622038202,0.0038834044250655,29.094613177819,-7.2430945774508e-06,-7.2430945774508e-06,-7.2430945774508e-06,3595872.560506,0.013872385332156
33391759,0.84479425720331,0.014208295016106,0.0044305645321768,0.0055546623802582,0.0042230681036711,-0.00098699968345558,0.00098700005906033,-3.9263596150707e-09,4.2990684729974e-09,1.5113560465808e-09,-1.0680492587695e-09,-0.00055045856312057,0.00055046466022935,-0.0010486325657477,0.0010486277153972,-0.0010486298474602,0.0010486305590467,-0.00055046405533487,0.00055045903631023,-0.00055045625202537,0.00055046706044552,-0.0010486300566508,0.0010486303319514,-0.0010486273557736,0.0010486330155073,-0.001163170787197,0.0011631692772279,-0.0011631680083838,0.0011631719530351,-0.0011631716764645,0.0011631683886028,-0.0011631688874224,0.0011631711078638,-0.00091870287285092,0.00091869431385548,-0.00091869489625721,0.00091870248299023,-0.00091870198202786,0.00091869515953556,-0.00091869408624675,0.00091870336081341,-0.00055046667591298,0.00055045641122148,-1.2342543010989e-09,1.3127828423926e-09,-3.2297613317613e-08,3.2359404007567e-08,-0.001412490242469,0.001412490302626,-0.0014634517446351,0.0014635142953463,-0.0013406265977558,0.0013406028394249,-0.0013406240773699,0.0013406052182049,-0.001383488621146,0.0013834666546726,-0.0013834676119085,0.0013834879726263,-0.0013834877816514,0.0013834674744405,-0.001383466728373,0.0013834888347316,-0.0014635149903225,0.0014634524930563,-0.0014634508039016,0.0014635151873378,-0.0013406051206611,0.0013406240596156,-0.0013406025181231,0.0013406264954497,-0.0014635158356542,0.0014634516809536,7.7663569027159e-09,-5.1628446281258e-10,-0.0009407411886626,0.00094074851843191,3.644934647775e-08,-2.8670534958506e-08,-0.00077272151468027,0.00077267338037891,-0.00070348423352953,0.00070342545511007,-0.00070348154471484,0.0007034281866044,-0.00077266598978628,0.00077272894952696,-0.00077265773638718,0.00077273706453496,-0.00070342019716442,0.00070348962355221,-0.00070341733637022,0.00070349235930325,-0.0011332996659626,0.0011333312119918,-0.0011333214390906,0.0011333094559066,-0.0011333024511661,0.0011333284460596,-0.0011333241835967,0.0011333067039027,-0.0011921250788588,0.0011921023531539,-0.0011921170324426,0.0011921104448473,-0.0011920952494176,0.0011921321787721,-0.0011921034159648,0.0011921240527293,-0.00077272951095891,0.00077266532764972,0.77139461514844,129487,2954,0.0041074606180832,0.0058666486477742,0.0039128519035453,29.271035833039,-5.8317133356878e-06,-5.8317133356878e-06,-5.8317133356878e-06,3592238.1244144,0.013984999326395
33591759,0.85126885259739,0.014320565871571,0.0044644012559646,0.0056015964653431,0.0042545681502637,-0.00099462414395093,0.00099462454176796,-3.9547055166081e-09,4.3490956293786e-09,1.4723048988313e-09,-1.0038116230675e-09,-0.00055368527405231,0.00055369160981647,-0.0010575261506038,0.0010575213898023,-0.0010575233943521,0.0010575242691921,-0.00055369095116116,0.00055368580011354,-0.00055368309444107,0.00055369387563092,-0.0010575237319956,0.0010575239136889,-0.0010575210158544,0.0010575266154071,-0.0011725391568338,0.0011725376113456,-0.001172536354131,0.0011725403081587,-0.0011725400144196,0.0011725367528166,-0.0011725371960676,0.0011725395012723,-0.0009255659486198,0.00092555735976062,-0.00092555788746718,0.0009255656158814,-0.00092556508604711,0.00092555818175558,-0.00092555711825673,0.00092556644832692,-0.00055369349662996,0.00055368325079874,-1.1740032488007e-09,1.2529118472634e-09,-3.2972352009956e-08,3.3035113647043e-08,-0.001424925472794,0.0014249255336361,-0.0014765159954109,0.0014765799001588,-0.001352642004084,0.0013526179250173,-0.0013526396061455,0.0013526201712598,-0.0013954962278528,0.0013954738630942,-0.0013954747869896,0.0013954956269412,-0.0013954954303894,0.001395474638166,-0.001395473939486,0.0013954964516662,-0.0014765805977345,0.0014765167282397,-0.0014765150856629,0.0014765807636488,-0.0013526200878751,0.0013526395851734,-0.0013526175925267,0.0013526419105608,-0.0014765813949933,0.0014765159685076,7.7580906188187e-09,-6.2294170368356e-10,-0.00094798073324339,0.00094798794730185,3.7078693687639e-08,-2.9422423799458e-08,-0.00077881960517891,0.00077877005907857,-0.00070889216345091,0.00070883188664328,-0.00070888945281768,0.00070883464009852,-0.00077876281638196,0.00077882689615511,-0.00077875444158657,0.00077883512642926,-0.00070882678008384,0.00070889740494034,-0.00070882387662651,0.00070890017979751,-0.0011424804819263,0.0011425124106491,-0.0011425027183525,0.0011424901915676,-0.0011424833038482,0.0011425096085382,-0.0011425054925246,0.0011424874095637,-0.0012027538068049,0.0012027304217088,-0.0012027456742913,0.0012027385981265,-0.001202723418873,0.0012027608043508,-0.001202731693303,0.0012027525721892,-0.00077882766798301,0.0007787619458742,0.78538310764432,129487,2954,0.0041391763296421,0.0059181153239203,0.0039429205635855,29.571366790826,-3.4290656733916e-06,-3.4290656733916e-06,-3.4290656733916e-06,3588285.0553783,0.014099862560904
33791759,0.85761064987493,0.014430320361073,0.0044974662677517,0.0056475040676709,0.0042853500256502,-0.0010020762428732,0.0010020766533162,-4.0151797094425e-09,4.4219858938663e-09,1.4597700762027e-09,-9.7664741288605e-10,-0.00055655683676318,0.00055656323654681,-0.0010661851059649,0.0010661803964118,-0.0010661823460497,0.0010661832759915,-0.00055656268687564,0.00055655725822405,-0.00055655457692141,0.00055656558192886,-0.0010661827677955,0.0010661828379479,-0.0010661799639392,0.0010661856265739,-0.0011817599326321,0.0011817583265491,-0.0011817570702321,0.0011817610816599,-0.0011817607617204,0.0011817574956886,-0.0011817579136194,0.0011817602737716,-0.0009322715096692,0.00093226286065944,-0.00093226336287397,0.00093227120371208,-0.00093227070697396,0.00093226362626207,-0.00093226256206309,0.0009322720657565,-0.0005565650701272,0.00055655486905978,-1.1715532458819e-09,1.2554718091171e-09,-3.3581145776577e-08,3.3648872669567e-08,-0.0014371887168464,0.001437188782482,-0.0014894338762002,0.0014894990254145,-0.0013644775530675,0.0013644530269378,-0.001364475110311,0.0013644553168019,-0.0014072972181169,0.0014072744437434,-0.0014072753694991,0.0014072966291258,-0.0014072964068044,0.001407275233016,-0.0014072745369739,0.0014072974389538,-0.0014894996703173,0.0014894346497468,-0.0014894330080995,0.0014894998466794,-0.001364455187283,0.0013644751414219,-0.0013644527353549,0.0013644774229817,-0.0014895005095654,0.0014894338497493,7.7422510286485e-09,-6.8205624657264e-10,-0.00095503004719175,0.00095503718587037,3.7602916552211e-08,-3.0026452112867e-08,-0.00078459098195083,0.00078454041389948,-0.00071404820210356,0.00071398668215103,-0.00071404543543075,0.00071398949350234,-0.0007845331296067,0.0007845983164862,-0.00078452483028083,0.00078460646827855,-0.00071398166692035,0.00071405335397558,-0.00071397879151934,0.00071405609884009,-0.0011515134662694,0.0011515456962298,-0.0011515360635354,0.0011515231165175,-0.0011515162882495,0.0011515428947659,-0.00115153886731,0.0011515203053422,-0.001213167852672,0.0012131439324153,-0.0012131596341691,0.0012131521926432,-0.0012131370451017,0.0012131747325567,-0.0012131453208017,0.0012131665026811,-0.00078459920850072,0.00078453213719554,0.78367691345717,129487,2954,0.0041701785810058,0.0059688660732163,0.0039721990657226,29.874967275504,-1.0002617959649e-06,-1.0002617959649e-06,-1.0002617959649e-06,3583385.9841989,0.014212488721648
33991759,0.863815165491,0.014533999371909,0.0045287222488564,0.0056908950951066,0.0043143820279459,-0.0010092006909946,0.0010092010970182,-4.0465543169992e-09,4.4487872704262e-09,1.478964038605e-09,-1.0002086093724e-09,-0.00055904716481942,0.00055905365260372,-0.0010742259622503,0.001074221160694,-0.001074223156316,0.0010742240848153,-0.00055905303091989,0.00055904765937395,-0.00055904493734607,0.00055905595850187,-0.0010742235567835,0.0010742236720017,-0.0010742207583257,0.0010742264514581,-0.0011906694837579,0.0011906678769599,-0.0011906666090275,0.0011906706405408,-0.001190670335249,0.0011906670213248,-0.0011906674580645,0.0011906698285891,-0.00093855793374989,0.00093854917799465,-0.00093854970056064,0.00093855760933245,-0.00093855708913687,0.00093854999089147,-0.00093854891214694,0.00093855845303724,-0.0005590555297159,0.00055904514898459,-1.1778587677085e-09,1.2668100831818e-09,-3.4065133481614e-08,3.41377128246e-08,-0.0014489796625435,0.0014489797330876,-0.0015017491290661,0.0015018152064177,-0.0013758712695744,0.0013758464416317,-0.001375868839021,0.0013758487170153,-0.0014186956941711,0.0014186726107356,-0.0014186735428814,0.0014186951098447,-0.0014186948864374,0.001418673396264,-0.0014186726954502,0.0014186959348179,-0.0015018158656514,0.0015017498771798,-0.001501748230267,0.0015018160589151,-0.0013758486186625,0.0013758688486083,-0.0013758461165688,0.0013758711781489,-0.0015018166860149,0.0015017490954833,7.7454505027156e-09,-7.9724844710352e-10,-0.00096175470019453,0.00096176172608774,3.8057622379767e-08,-3.0600635403991e-08,-0.00078983026107466,0.0007897786028263,-0.00071877314152624,0.000718710481056,-0.00071877036227828,0.00071871330390802,-0.00078977150785745,0.00078983740504931,-0.00078976302229139,0.00078984574276842,-0.00071870562180864,0.00071877813826696,-0.00071870267854169,0.00071878095028206,-0.0011602677986246,0.0011603003095625,-0.0011602907483686,0.0011602773774584,-0.0011602706695282,0.0011602974590722,-0.0011602935814514,0.0011602745364428,-0.0012230413628177,0.0012230168990487,-0.0012230330549567,0.0012230252494226,-0.0012230100955761,0.0012230481595155,-0.0012230185136523,0.0012230397854789,-0.00078983852656176,0.00078977028617215,0.75679008219472,129487,2954,0.0041998178349005,0.0060176593925684,0.0040001292836746,30.178699855097,1.4295988407789e-06,1.4295988407789e-06,1.4295988407789e-06,3580090.1732797,0.014320392878736
34191759,0.86996928076799,0.014634755529277,0.0045591146777807,0.0057330620379993,0.0043425788134972,-0.0010167066578508,0.0010167070713379,-4.0970037986404e-09,4.5065448468542e-09,1.4581326660185e-09,-9.7055816879063e-10,-0.00056217900088551,0.00056218557252017,-0.0010825118992849,0.0010825071475998,-0.0010825090849389,0.0010825100802396,-0.00056218502746683,0.00056217942297454,-0.00056217673786997,0.00056218790714553,-0.0010825095728656,0.001082509583019,-0.0010825067064822,0.0010825124227028,-0.0011999022205848,0.0011999005580495,-0.0011998992982919,0.0011999033656032,-0.0011999030446297,0.0011998997280718,-0.0011999001409118,0.0011999025616316,-0.00094516725980308,0.00094515845106567,-0.00094515894840901,0.00094516695912301,-0.00094516646189377,0.00094515921890776,-0.00094515814785363,0.00094516781390896,-0.00056218739062852,0.00056217704467626,-1.1595230375289e-09,1.2524869348986e-09,-3.4676749672689e-08,3.4753546908792e-08,-0.0014609524855217,0.0014609525600452,-0.0015140503080408,0.0015141176300705,-0.0013874594668813,0.0013874342383187,-0.0013874570368878,0.0013874365100779,-0.001430409372191,0.0014303858914995,-0.0014303868172445,0.0014304088107883,-0.0014304085652408,0.0014303866758191,-0.001430385990493,0.0014304096148595,-0.0015141182456522,0.001514051075567,-0.0015140494478773,0.0015141184449852,-0.001387436382905,0.0013874570855839,-0.0013874339427987,0.0013874593530518,-0.001514119083024,0.0015140502780979,7.6898420618977e-09,-9.2130233363288e-10,-0.00096891320772542,0.0009689200526969,3.8540271701758e-08,-3.1275039079995e-08,-0.00079561603205251,0.00079556319530085,-0.00072402211217654,0.0007239580746026,-0.00072401928228574,0.00072396094838856,-0.00079555620744508,0.00079562306917954,-0.00079554773355425,0.00079563139276844,-0.00072395342487091,0.00072402690036477,-0.00072395048770505,0.00072402970459711,-0.0011693875605732,0.0011694202913891,-0.0011694108850228,0.0011693969848016,-0.0011693904446392,0.0011694174281117,-0.0011694137507413,0.0011693941111161,-0.0012331110280994,0.0012330859064854,-0.0012331026253591,0.001233094350971,-0.0012330793083499,0.0012331176184397,-0.0012330877657139,0.0012331092063742,-0.00079562444486874,0.00079555473313749,0.74153685266886,129487,2954,0.0042310329488556,0.0060672054488117,0.0040298585323701,30.744049772964,5.9523981837127e-06,5.9523981837127e-06,5.9523981837127e-06,3583474.6047898,0.0144324946982
34391759,0.87608789313929,0.014734104624744,0.0045890745333782,0.0057746439675499,0.0043703861238155,-0.0010243118466111,0.0010243122604286,-4.1444853915368e-09,4.554296253008e-09,1.4538246756541e-09,-9.6532543497059e-10,-0.00056561017210197,0.00056561680686111,-0.0010908364200804,0.0010908316615,-0.0010908335901309,0.0010908346129129,-0.0005656163001352,0.00056561055037058,-0.00056560787487897,0.00056561917090379,-0.0010908341202071,0.0010908340755895,-0.0010908312047145,0.0010908369590945,-0.0012091814010322,0.0012091796988444,-0.0012091784409833,0.0012091825415348,-0.0012091822164078,0.0012091788757138,-0.0012091792858615,0.0012091817371173,-0.00095185015472051,0.0009518412680439,-0.00095184176361227,0.00095184985894721,-0.00095184937425358,0.00095184202254597,-0.00095184095282649,0.00095185072136967,-0.00056561860765281,0.00056560822044803,-1.1522703904599e-09,1.250691329709e-09,-3.5105327520724e-08,3.51873160745e-08,-0.0014728952562737,0.0014728953359676,-0.0015262089871128,0.0015262771783996,-0.0013990237243549,0.0013989982153449,-0.0013990212909018,0.0013990004888242,-0.0014421690943096,0.0014421453353103,-0.0014421462592734,0.0014421685471119,-0.0014421682855426,0.001442146121496,-0.0014421454404253,0.0014421693433611,-0.0015262777655386,0.0015262097673906,-0.0015262081459805,0.0015262779757345,-0.0013990003486652,0.0013990213600474,-0.0013989979288498,0.00139902360707,-0.0015262786161251,0.0015262089573777,7.6605462791872e-09,-1.0319775998883e-09,-0.00097620375344855,0.00097621045863051,3.8886853670563e-08,-3.1769149104045e-08,-0.00080164204877775,0.00080158835956378,-0.00072947554834228,0.00072941049902067,-0.00072947267726361,0.00072941341272206,-0.00080158147172424,0.00080164898359214,-0.00080157296523514,0.00080165733944825,-0.00072940601933538,0.00072948016677343,-0.00072940306869272,0.00072948298373911,-0.0011785818528753,0.0011786147493435,-0.0011786054528767,0.0011785911677137,-0.0011785847595653,0.0011786118635927,-0.0011786083502267,0.0011785882623005,-0.0012431716917212,0.0012431460585078,-0.0012431631943859,0.0012431545966611,-0.0012431396118834,0.0012431781302954,-0.0012431481343687,0.0012431696521112,-0.00080165058404354,0.00080157977626492,0.73560164712913,129487,2954,0.0042626545698363,0.0061166258876949,0.0040601347998308,31.386608199359,1.1092865594872e-05,1.1092865594872e-05,1.1092865594872e-05,3589604.1236273,0.01454544805681
34591759,0.88215790333883,0.01483626764224,0.0046198408675599,0.005817382583479,0.0043990441912014,-0.0010320643625493,0.0010320647709903,-4.1829596469394e-09,4.587308518756e-09,1.4765419761562e-09,-9.9361500574362e-10,-0.00056939490617669,0.00056940163754075,-0.00109955993377,0.0010995550689452,-0.0010995570530065,0.0010995580703518,-0.00056940105166334,0.00056939536418588,-0.00056939264590876,0.00056940396878581,-0.0010995575572617,0.001099557561094,-0.0010995546447085,0.0010995604402136,-0.0012185154323662,0.0012185137266634,-0.0012185124569376,0.0012185165835952,-0.001218516273086,0.0012185128766073,-0.0012185133089686,0.001218515772069,-0.0009587898042511,0.00095878079218781,-0.00095878130248626,0.00095878947713332,-0.00095878897220673,0.00095878159396662,-0.00095878050865348,0.00095879032715887,-0.00056940349392766,0.00056939289642801,-1.1684607378265e-09,1.27364781586e-09,-3.5319811538149e-08,3.5408154776294e-08,-0.0014849513181226,0.0014849514042804,-0.0015385071608306,0.0015385757453284,-0.0014106586694629,0.0014106330143383,-0.0014106562271918,0.001410635297075,-0.0014540236765097,0.0014539997781495,-0.0014540007105864,0.001454023125131,-0.0014540228642792,0.0014540005683983,-0.0014539998703083,0.0014540239433835,-0.0015385763546619,0.0015385079234577,-0.0015385062797971,0.0015385765812411,-0.0014106351817419,0.0014106562748185,-0.0014106326925036,0.0014106585900258,-0.0015385771913514,0.0015385071262304,7.702416039683e-09,-1.0952517215433e-09,-0.00098366378003303,0.00098367046449127,3.9122279060479e-08,-3.2025340458663e-08,-0.00080812569769058,0.00080807152454404,-0.00073531589841315,0.0007352503401074,-0.00073531302041999,0.00073525326180933,-0.00080806474247267,0.00080813252811898,-0.00080805604434164,0.00080814107407559,-0.00073524591488286,0.0007353204635558,-0.00073524290081866,0.00073532334346827,-0.0011878200831898,0.0011878531672901,-0.0011878438568761,0.001187829411736,-0.0011878230341309,0.0011878502372893,-0.0011878467791247,0.0011878264812558,-0.0012534359817791,0.0012534100926284,-0.0012534274080187,0.001253418706903,-0.0012534036363439,0.001253442429344,-0.0012534122891503,0.0012534338217586,-0.00080813424866778,0.00080806292115108,0.76226247176625,129487,2954,0.004294885606464,0.0061665129265901,0.0040911134983861,32.031249849111,1.6249998792888e-05,1.6249998792888e-05,1.6249998792888e-05,3595610.0225922,0.014660216555829
34791759,0.88824382832409,0.014942702017266,0.0046518368528359,0.0058619151054414,0.0044289500589891,-0.0010403982790039,0.0010403986971442,-4.217672764551e-09,4.6314744352087e-09,1.4669147466438e-09,-9.7259141620573e-10,-0.00057348241312928,0.00057348929503202,-0.0011091647953271,0.0011091599346921,-0.0011091618751208,0.0011091629707585,-0.00057348866997891,0.0005734829071715,-0.00057348021007964,0.0005734915666244,-0.0011091624370995,0.0011091624049941,-0.001109159509799,0.0011091653027434,-0.0012284831414176,0.0012284814113033,-0.0012284801427767,0.0012284842915044,-0.0012284839745871,0.0012284805681713,-0.0012284809815488,0.0012284834932517,-0.00096643820122402,0.0009664291225712,-0.00096642961454657,0.00096643789540569,-0.00096643737048933,0.00096642992254219,-0.00096642884096009,0.00096643872675051,-0.00057349110625245,0.00057348044500097,-1.1444637925932e-09,1.2532027033412e-09,-3.5701905682112e-08,3.5794117695392e-08,-0.0014978455111541,0.0014978456008002,-0.0015518197035324,0.0015518890476091,-0.0014230852968843,0.0014230594392938,-0.0014230829027644,0.0014230616678754,-0.0014665650583758,0.0014665409291473,-0.0014665418461011,0.0014665645279978,-0.0014665642633656,0.0014665417009391,-0.001466541018009,0.0014665653338633,-0.0015518896672337,0.001551820462376,-0.0015518188273629,0.0015518898813192,-0.0014230615596291,0.0014230829486469,-0.0014230591057013,0.0014230852276469,-0.0015518904797963,0.0015518196917601,7.7409172647323e-09,-1.1546017437424e-09,-0.00099170808281281,0.00099171474787167,3.9511646801871e-08,-3.2433599418301e-08,-0.00081523909195538,0.00081518418080637,-0.0007417739218234,0.0007417075417873,-0.00074177102104067,0.00074171048537645,-0.00081517744863929,0.00081524587426073,-0.00081516862760893,0.00081525454061285,-0.00074170316504827,0.0007417784410575,-0.00074170010977796,0.0007417813603286,-0.0011976655839616,0.0011976989494996,-0.001197689626575,0.0011976749252892,-0.0011976685706591,0.0011976959838535,-0.0011976925784198,0.0011976719648485,-0.0012645692826908,0.0012645430208499,-0.0012645606231322,0.0012645517203151,-0.0012645365752982,0.0012645757189701,-0.0012645453340477,0.0012645670058672,-0.00081524770806719,0.00081517551699653,0.79180217491435,129487,2954,0.0043295378346142,0.0062198634882725,0.0041245162439231,32.909253910651,2.3274031285211e-05,2.3274031285211e-05,2.3274031285211e-05,3598939.4348532,0.014783430621181
34991759,0.8943765913161,0.015044893628193,0.0046825584825048,0.0059047385352386,0.0044575966104495,-0.001048730507024,0.0010487309454726,-4.2993600909122e-09,4.7332693085776e-09,1.4183655386417e-09,-9.024462121818e-10,-0.00057692331060044,0.00057693022181796,-0.0011184366118305,0.0011184319248429,-0.00111843372884,0.0011184349271963,-0.00057692983189977,0.00057692357464202,-0.00057692098207516,0.00057693263688312,-0.0011184344607122,0.0011184341897627,-0.0011184313859543,0.0011184372272439,-0.0012386533362979,0.0012386514933055,-0.0012386502441233,0.0012386544661044,-0.0012386540986087,0.0012386507206949,-0.0012386510729377,0.0012386536782776,-0.00097396250179681,0.00097395339224607,-0.00097395382664547,0.00097396225500117,-0.00097396180180489,0.0009739540632856,-0.0009739529985096,0.00097396313576606,-0.00057693189823365,0.0005769214644002,-1.1543703689247e-09,1.2686563892196e-09,-3.6161499543717e-08,3.6259154449456e-08,-0.0015109502113945,0.0015109503066793,-0.0015653317367592,0.0015654020758759,-0.0014357487642065,0.0014357224892992,-0.0014357462666372,0.0014357248472177,-0.001479264157119,0.0014792396912996,-0.0014792406195026,0.0014792636301689,-0.0014792633269125,0.0014792405061851,-0.0014792398104502,0.0014792644137945,-0.0015654025922904,0.0015653325842748,-0.0015653309239212,0.0015654028100963,-0.0014357246424562,0.0014357464137271,-0.001435722242215,0.0014357486162918,-0.0015654034884921,0.0015653317111633,7.7061183834907e-09,-1.1829543224656e-09,-0.00099972590510988,0.00099973250784322,3.9850156450222e-08,-3.2837535393084e-08,-0.0008217541396908,0.00082169871011029,-0.00074783091207341,0.00074776364284984,-0.00074782792216516,0.00074776668933893,-0.00082169179159452,0.0008217611088373,-0.00082168319111524,0.00082176955814157,-0.00074775933658428,0.00074783536309439,-0.00074775636495868,0.00074783819944911,-0.0012077428101297,0.0012077763263577,-0.0012077670694098,0.0012077520847038,-0.0012077457632028,0.0012077733966858,-0.0012077700491554,0.0012077491000302,-0.0012756933716314,0.001275666719235,-0.0012756846290225,0.0012756755008256,-0.0012756604221253,0.001275699653697,-0.001275669088082,0.0012756910409815,-0.00082176301216196,0.00082168975604657,0.75494740923134,129487,2954,0.0043641906929867,0.0062740800084761,0.0041578087312527,33.939724512071,3.1517796096569e-05,3.1517796096569e-05,3.1517796096569e-05,3600144.3744498,0.014907432161043
35191759,0.90053258268941,0.01514480645742,0.0047126053942708,0.0059466222830286,0.0044855787801206,-0.0010570444865219,0.0010570449145886,-4.3330740174455e-09,4.7565604786218e-09,1.4361141789917e-09,-9.3020937674206e-10,-0.00058070854271998,0.00058071556942542,-0.0011275134408836,0.0011275086473043,-0.0011275105071645,0.0011275117009572,-0.00058071509835941,0.00058070887945719,-0.00058070625008699,0.00058071793844358,-0.0011275112201616,0.0011275109890999,-0.0011275081470768,0.001127514018392,-0.0012487283815239,0.0012487265350518,-0.0012487252801013,0.001248729514575,-0.001248729168879,0.0012487257347534,-0.0012487261152522,0.0012487287221025,-0.00098137658217983,0.00098136735052436,-0.0009813678146683,0.0009813763110124,-0.00098137583080779,0.00098136807805148,-0.00098136700503716,0.0009813771710469,-0.00058071729390701,0.00058070665355644,-1.1431821448643e-09,1.2622985832256e-09,-3.6402588442411e-08,3.6504660717291e-08,-0.0015238020914959,0.0015238021913194,-0.001578358237783,0.0015784290380509,-0.0014481502951872,0.0014481239247363,-0.0014481478428447,0.0014481262156665,-0.0014918918764377,0.0014918672728642,-0.0014918681919608,0.001491891360825,-0.0014918910588816,0.0014918680699427,-0.0014918673802571,0.0014918921500784,-0.0015784295756655,0.0015783590630045,-0.0015783574170773,0.0015784298048557,-0.0014481260487407,0.0014481479576615,-0.0014481236372327,0.0014481501896625,-0.0015784304512429,0.001578358224668,7.7295674566376e-09,-1.2797680978087e-09,-0.0010077550877624,0.0010077616176075,4.0090479954673e-08,-3.3154599832189e-08,-0.00082839405849212,0.00082833801739494,-0.00075398821109602,0.00075392031544514,-0.0007539852116119,0.00075392335915627,-0.00082833124728382,0.00082840087917708,-0.0008283224900969,0.00082840948375001,-0.00075391611524962,0.00075399255255298,-0.00075391307815942,0.00075399545487156,-0.0012177735195487,0.0012178072016545,-0.0012177979763878,0.0012177827630051,-0.0012177765239018,0.0012178042194015,-0.0012178009849336,0.0012177797473083,-0.0012865256657263,0.0012864986637695,-0.001286516829782,0.0012865075350201,-0.0012864924123233,0.0012865319049626,-0.0012865012217549,0.0012865231414947,-0.00082840296228489,0.00082832906219502,0.73556804767663,129487,2954,0.0043987568292191,0.0063272502048584,0.0041911469948698,34.974211945797,3.9793695566374e-05,3.9793695566374e-05,3.9793695566374e-05,3607177.3523784,0.015030343703652
35391759,0.90662956130911,0.015240922292706,0.0047415076895513,0.0059869384073867,0.0045124761957679,-0.0010648768047176,0.0010648772059542,-4.3776049757023e-09,4.7746725723686e-09,1.4969407398115e-09,-1.0203107279135e-09,-0.00058421257307913,0.00058421952149707,-0.0011358965998421,0.0011358915931561,-0.0011358936306678,0.0011358946839355,-0.00058421903268936,0.00058421292533914,-0.00058421017660388,0.00058422199646126,-0.0011358942171951,0.0011358941017179,-0.0011358911362163,0.0011358971314779,-0.0012582661539546,0.0012582643143128,-0.0012582630360866,0.001258267310306,-0.001258266995732,0.0012582634587249,-0.0012582639152987,0.0012582664736073,-0.00098824463211375,0.00098823524322127,-0.00098823577899345,0.0009882442790032,-0.00098824380589123,0.0009882360348926,-0.0009882349426288,0.00098824517605417,-0.00058422142287149,0.00058421050034418,-1.1989048852199e-09,1.3289947312556e-09,-3.6267781170269e-08,3.6379969259705e-08,-0.0015359666138536,0.0015359667240339,-0.0015905241521848,0.0015905946547642,-0.0014598810514354,0.0014598546701471,-0.0014598784940727,0.0014598570700073,-0.0015039506336562,0.0015039260873036,-0.0015039270357498,0.0015039500858826,-0.0015039497805121,0.0015039269222375,-0.0015039261794079,0.001503950921678,-0.001590595204374,0.0015905249799075,-0.001590523275586,0.0015905954780615,-0.0014598569057151,0.0014598786033831,-0.0014598543600769,0.0014598809741854,-0.0015905961053703,0.001590524113553,7.8116707813492e-09,-1.3113442385947e-09,-0.001015338775955,0.0010153453580255,3.9998010027132e-08,-3.3005495584479e-08,-0.00083463107052309,0.00083457539307164,-0.00075970280204126,0.00075963517906442,-0.00075969978062388,0.00075963824630162,-0.00083456862036068,0.00083463789280944,-0.00083455969366969,0.00083464666874412,-0.0007596309592026,0.00075970716285469,-0.00075962786893587,0.00075971011862745,-0.0012273108446893,0.0012273445401147,-0.0012273352272296,0.0012273201757002,-0.0012273138913531,0.001227341515083,-0.0012273382673802,0.0012273171280639,-0.0012966561362929,0.0012966291673493,-0.0012966472072962,0.0012966381335163,-0.0012966228501179,0.0012966624423979,-0.0012966317865481,0.0012966535516161,-0.00083464003443601,0.00083456637093476,0.714970338404,129487,2954,0.0044313158346411,0.0063775753844537,0.0042226358556166,35.839454887103,4.6715639096822e-05,4.6715639096822e-05,4.6715639096822e-05,3616012.2811711,0.01514646623666
35591759,0.91257551526397,0.015330063495345,0.0047683185475794,0.0060243623478847,0.0045373825998812,-0.0010719399154624,0.0010719402809481,-4.4361495750285e-09,4.7981258555193e-09,1.5672262674604e-09,-1.1296791272252e-09,-0.00058716424151149,0.00058717111283383,-0.0011431781661576,0.0011431728987983,-0.0011431751530191,0.001143176035639,-0.00058717060761807,0.00058716460400072,-0.00058716171547159,0.00058717371475302,-0.0011431755926481,0.0011431756050661,-0.0011431724960937,0.001143178640945,-0.0012669775765876,0.0012669757390372,-0.0012669744370503,0.0012669787575803,-0.0012669784825991,0.0012669748185379,-0.0012669753699401,0.0012669778666765,-0.00099424828777169,0.00099423870781191,-0.00099423933752283,0.00099424784063117,-0.00099424738350037,0.0009942395734719,-0.0009942384611636,0.00099424878273974,-0.00058717322648859,0.00058716195620631,-1.2791048290049e-09,1.4240140807738e-09,-3.5803282216334e-08,3.5929245980816e-08,-0.0015470797498562,0.001547079873878,-0.001601429222717,0.0016014987628397,-0.0014706061846383,0.0014705799638166,-0.0014706034715141,0.0014705825240249,-0.0015150951385213,0.0015150708524696,-0.0015150718393102,0.0015150945408677,-0.0015150942336248,0.0015150717414944,-0.0015150709217863,0.0015150954412885,-0.00160149933126,0.0016014300601974,-0.0016014282736212,0.0016014996657438,-0.0014705823565373,0.0014706035752392,-0.0014705796287445,0.0014706061397173,-0.0016015002731409,0.0016014291532156,7.9224186011676e-09,-1.2950888604942e-09,-0.0010221937399544,0.0010222004515572,3.9636164519043e-08,-3.2504782587741e-08,-0.00084006900827277,0.00084001435134682,-0.00076466542975886,0.00076459878073524,-0.00076466239373578,0.00076460186120101,-0.00084000749492433,0.00084007590989836,-0.00083999843258184,0.00084008482478391,-0.00076459445155321,0.00076466989867667,-0.0007645913152489,0.00076467290153851,-0.0012360792035071,0.0012361127749365,-0.0012361033049503,0.0012360886913473,-0.0012360822865227,0.0012361097124874,-0.0012361063711492,0.001236085617216,-0.0013057210697751,0.0013056944395296,-0.0013057120655483,0.0013057034816836,-0.0013056879803951,0.001305727519235,-0.0013056970247537,0.0013057185185658,-0.00084007801073946,0.00084000529704623,0.68077348663737,129487,2954,0.004460673353497,0.0064235502295482,0.004251099778157,36.485480037527,5.1883840300219e-05,5.1883840300219e-05,5.1883840300219e-05,3626622.9404327,0.015251863336174
35791759,0.91835536097803,0.015421771984075,0.0047958515185348,0.0060628095158014,0.0045631109497387,-0.001079126977494,0.0010791273245945,-4.4890860675021e-09,4.8330805693532e-09,1.6009894183428e-09,-1.1837569988892e-09,-0.00059092515650665,0.00059093199334504,-0.0011509885248169,0.0011509831241364,-0.0011509854839621,0.001150986286843,-0.00059093151702687,0.00059092548677959,-0.00059092253299166,0.0005909346955736,-0.0011509858657892,0.0011509859135124,-0.0011509827399783,0.0011509889826578,-0.0012755785601756,0.0012755767029473,-0.0012755753910994,0.0012755797533404,-0.0012755794938107,0.0012755757548924,-0.0012755763534896,0.0012755788318993,-0.001000525090891,0.0010005153822856,-0.0010005160602989,0.0010005245982298,-0.001000524158936,0.001000516269974,-0.0010005151538315,0.0010005255768837,-0.0005909342132012,0.00059092276190016,-1.3157342337076e-09,1.4727259042272e-09,-3.5437076819658e-08,3.5574492704108e-08,-0.0015580732373841,0.0015580733729333,-0.0016121784806304,0.0016122472937644,-0.0014811465105935,0.0014811204489849,-0.0014811437106221,0.0014811231012434,-0.001526175414426,0.0015261513473584,-0.0015261523458237,0.0015261747951718,-0.0015261744813645,0.001526152266617,-0.0015261514022435,0.0015261757234825,-0.001612247863313,0.001612179343645,-0.0016121775048897,0.0016122482241415,-0.0014811229117955,0.0014811438256525,-0.0014811201063141,0.0014811464719992,-0.0016122488336137,0.0016121784071469,8.0521769591241e-09,-1.2539676608693e-09,-0.0010292488182317,0.0010292557031016,3.9367654710878e-08,-3.2051197745174e-08,-0.0008463125650668,0.00084625890271696,-0.00077032348371894,0.00077025769680032,-0.00077032041436666,0.00077026081039197,-0.00084625185579348,0.00084631965667228,-0.00084624271417277,0.00084632865303571,-0.00077025321410847,0.0007703281045011,-0.00077025005227624,0.00077033113430794,-0.0012447325075268,0.0012447660393298,-0.0012447563691892,0.0012447421952809,-0.0012447356185623,0.001244762948495,-0.0012447594661365,0.0012447390904375,-0.0013149217733556,0.0013148954634981,-0.001314912680248,0.001314904595121,-0.001314888839259,0.0013149283885463,-0.0013148979669664,0.0013149193033194,-0.0008463216630962,0.00084624974973254,0.72027366285681,129487,2954,0.0044905347971979,0.0064690308671353,0.0042803919597348,37.125774575906,5.7006196607252e-05,5.7006196607252e-05,5.7006196607252e-05,3640154.1756067,0.015358116667419
35991759,0.92395683271555,0.015516204566055,0.0048241267164253,0.0061023902236968,0.0045896876259327,-0.0010862999656567,0.0010863003106352,-4.5339230697624e-09,4.8758416910891e-09,1.6148846038544e-09,-1.1999866952302e-09,-0.00059444149760456,0.00059444838977946,-0.0011592024902441,0.0011591970278517,-0.0011591994177896,0.001159200217745,-0.00059444791134244,0.00059444182272489,-0.00059443884839945,0.00059445112406901,-0.0011591997986742,0.0011591998451077,-0.0011591966471194,0.0011592029461158,-0.0012841730574206,0.0012841711787115,-0.0012841698607132,0.0012841742599235,-0.0012841740011935,0.0012841702212185,-0.0012841708319044,0.0012841733278709,-0.0010069803971495,0.0010069705906641,-0.0010069712830452,0.0010069798948992,-0.0010069794541333,0.0010069714870557,-0.0010069703684133,0.0010069808850158,-0.00059445064031523,0.00059443907060691,-1.3255798118584e-09,1.4914728084339e-09,-3.5195417264015e-08,3.5341381892454e-08,-0.0015692537217648,0.0015692538657737,-0.0016233870884403,0.0016234554312278,-0.0014918424257608,0.0014918164989736,-0.0014918395976021,0.0014918191804457,-0.0015372291552559,0.0015372052433118,-0.0015372062375876,0.0015372285300895,-0.0015372282132982,0.001537206172038,-0.0015372052851553,0.0015372294679261,-0.0016234560086905,0.001623387974445,-0.0016233861026496,0.0016234563722039,-0.0014918189786278,0.0014918397174396,-0.0014918161450556,0.0014918423933123,-0.0016234569875971,0.0016233870293299,8.2029984572485e-09,-1.192141055012e-09,-0.0010362959534668,0.001036303054088,3.9250488135912e-08,-3.1704526951494e-08,-0.00085266523734252,0.00085261234684281,-0.00077606265300075,0.00077599752321706,-0.00077605955425552,0.00077600066633835,-0.00085260507752204,0.00085267255157325,-0.00085259584953378,0.00085268163413629,-0.00077599284284437,0.0007760674718222,-0.00077598965140561,0.00077607053104898,-0.0012533358325912,0.0012533694515843,-0.001253359541679,0.001253345760074,-0.0012533389732267,0.0012533663311115,-0.0012533626682592,0.0012533426255262,-0.0013244668241464,0.0013244407915864,-0.0013244576442599,0.0013244500099486,-0.0013244339572842,0.001324473649216,-0.0013244431724055,0.0013244644768345,-0.00085267442182492,0.00085260310734781,0.76499783192182,129487,2954,0.0045203490838791,0.0065152783755047,0.0043096509820052,37.765836591696,6.2126692733566e-05,6.2126692733566e-05,6.2126692733566e-05,3645675.6961084,0.015465079030973
36191759,0.92921921536181,0.015602387369461,0.0048499079586271,0.0061385711727077,0.0046139082381264,-0.0010918837136266,0.0010918840312578,-4.5829229234682e-09,4.8979732416619e-09,1.7024143137642e-09,-1.3176953658699e-09,-0.0005959692778256,0.00059597606606832,-0.0011655442400499,0.0011655385022462,-0.0011655411229069,0.0011655417344126,-0.00059597555643753,0.00059596962557249,-0.00059596648372612,0.00059597895050335,-0.0011655413254769,0.0011655415401555,-0.0011655381718706,0.0011655446484134,-0.0012912586441614,0.0012912567895241,-0.0012912554327582,0.001291259890075,-0.0012912596628862,0.0012912557582122,-0.0012912564637769,0.0012912588956551,-0.0010118302492876,0.0010118202596185,-0.0010118210574141,0.0010118296645924,-0.0010118292209245,0.0010118212451515,-0.0010118200930739,0.0010118307015491,-0.00059597854620057,0.00059596661892491,-1.4056462979705e-09,1.5857486727974e-09,-3.4688008478387e-08,3.4847025843957e-08,-0.0015788202757563,0.0015788204329191,-0.0016330833589519,0.0016331506518304,-0.0015010098854941,0.001500984149491,-0.0015010069063682,0.0015009869858008,-0.0015465585764011,0.001546534954952,-0.0015465359845188,0.0015465578980704,-0.0015465575848768,0.0015465359354776,-0.0015465349698066,0.0015465589010964,-0.001633151258251,0.0016330842601855,-0.0016330822979317,0.0016331516724388,-0.0015009867820755,0.0015010070126498,-0.0015009837605438,0.0015010098837695,-0.0016331522753484,0.001633083276593,8.4063642428869e-09,-1.0941038158942e-09,-0.0010416951730764,0.0010417025791199,3.8926101116676e-08,-3.1055311049447e-08,-0.00085692514712631,0.00085687358046936,-0.00077987215867428,0.00077980829618823,-0.00077986904483907,0.00077981145400121,-0.00085686605195733,0.00085693271956473,-0.00085685666892675,0.00085694195704491,-0.00077980332843298,0.00077987726439779,-0.00077980008327237,0.00077988037763122,-0.0012604247299853,0.0012604583665197,-0.0012604481234901,0.0012604349904587,-0.0012604279120544,0.001260455203829,-0.001260451278528,0.0012604318269964,-0.0013323326925857,0.0013323071945099,-0.0013323234302396,0.0013323164975492,-0.001332300046339,0.0013323398333462,-0.0013323093834008,0.0013323305375062,-0.0008569343765542,0.00085686429652924,0.74360849029204,129487,2954,0.0045435769101353,0.0065548416340662,0.0043320734661452,37.870108924647,6.2960871397174e-05,6.2960871397174e-05,6.2960871397174e-05,3641098.0597416,0.015551636014492
36391759,0.93404834304273,0.015680472391246,0.0048732734040504,0.0061713517045253,0.0046358472826707,-0.0010962216624869,0.0010962219572619,-4.654476653492e-09,4.9472495130851e-09,1.7714415133248e-09,-1.4125730086583e-09,-0.00059682000821833,0.0005968265731537,-0.001170481826743,0.0011704759121531,-0.0011704787185017,0.0011704791334668,-0.0005968262303022,0.00059682018036082,-0.00059681691356024,0.00059682977358307,-0.0011704787986133,0.0011704790621245,-0.0011704755585338,0.0011704822588025,-0.0012968982954913,0.0012968964156407,-0.0012968950291617,0.0012968995758932,-0.0012968993520639,0.0012968953477644,-0.0012968961296296,0.0012968985095439,-0.0010154417870633,0.00101543165416,-0.0010154325333926,0.0010154411323001,-0.0010154407539716,0.001015432640691,-0.0010154314663249,0.0010154422761288,-0.00059682924097544,0.00059681715967254,-1.5137501305314e-09,1.7111629581683e-09,-3.4218421134782e-08,3.4393368894101e-08,-0.0015866358684864,0.0015866360418382,-0.0016408933736539,0.0016409597478601,-0.0015084765544978,0.0015084508577445,-0.0015084732998481,0.0015084539829859,-0.0015542599054919,0.0015542365093966,-0.0015542375920781,0.0015542591588786,-0.0015542588229001,0.0015542375858811,-0.0015542365189071,0.0015542602234539,-0.0016409603116902,0.001640894358981,-0.0016408922803091,0.0016409607961298,-0.0015084537024362,0.001508473465666,-0.0015084505031535,0.0015084765185518,-0.0016409614503791,0.0016408932481601,8.5728283139061e-09,-9.8323072670416e-10,-0.0010458397482909,0.0010458474365141,3.8609741930321e-08,-3.0439113543101e-08,-0.00086009021835694,0.00086004007152589,-0.0007826379283058,0.00078257521147996,-0.00078263474584856,0.00078257844012334,-0.0008600321103472,0.00086009822040869,-0.000860022809613,0.00086010738176088,-0.00078256996526679,0.00078264331120818,-0.00078256675103635,0.00078264639642633,-0.0012660784906421,0.001266112094855,-0.0012661015584871,0.0012660890440467,-0.0012660816738505,0.0012661089308165,-0.0012661047490204,0.001266085845814,-0.001338567692216,0.0013385426749619,-0.0013385583276339,0.0013385520812635,-0.001338535303744,0.0013385750568624,-0.0013385446456113,0.0013385657552394,-0.00086009964757084,0.0008600305785892,0.73413358445106,129487,2954,0.0045616235477577,0.0065871613564858,0.0043492891492014,37.543288115445,6.0346304923563e-05,6.0346304923563e-05,6.0346304923563e-05,3636957.6700575,0.015620289862252
36591759,0.93848060832637,0.01574789629967,0.0048934739629525,0.0061996751454085,0.0046547471913094,-0.0010999262754779,0.0010999265619839,-4.6932569331635e-09,4.9779485011491e-09,1.7789561001123e-09,-1.429266376658e-09,-0.00059733133633492,0.00059733804532302,-0.0011744381796792,0.0011744321769509,-0.0011744350176005,0.0011744354539392,-0.00059733760548979,0.00059733159981699,-0.00059732831844836,0.00059734116825867,-0.0011744350985165,0.0011744353841562,-0.0011744318627552,0.0011744385709706,-0.0013018247192181,0.0013018228273668,-0.0013018214408969,0.0013018259993326,-0.001301825794601,0.0013018217400243,-0.0013018225380881,0.0013018249362879,-0.0010183674903296,0.001018357236583,-0.0010183581359329,0.0010183668211875,-0.0010183664135631,0.0010183582680992,-0.0010183570943905,0.001018367939061,-0.00059734074404625,0.00059732845716117,-1.5025781002557e-09,1.7066025891021e-09,-3.4153369221749e-08,3.4334793730385e-08,-0.0015934351622481,0.0015934353420926,-0.0016475392181925,0.0016476054524499,-0.0015150071321884,0.001514981536541,-0.0015150039290425,0.0015149846088796,-0.001561041419032,0.0015610180863178,-0.0015610191559009,0.0015610406821161,-0.0015610403521087,0.0015610191464372,-0.001561018076829,0.0015610417531339,-0.0016476060393092,0.001647540182991,-0.0016475381041515,0.001647606525891,-0.0015149843573828,0.0015150040636621,-0.0015149811399959,0.001515007139636,-0.0016476071460472,0.0016475391059552,8.6530902072692e-09,-1.0100378518017e-09,-0.0010493741035067,0.0010493818465871,3.8583274828953e-08,-3.0355223835469e-08,-0.00086255278382617,0.00086250280912503,-0.00078478545066876,0.00078472289898209,-0.00078478226658728,0.0007847261275439,-0.00086249488471977,0.0008625607488675,-0.00086248539434912,0.00086257009923222,-0.00078471762948563,0.00078479085635564,-0.000784714346813,0.00078479400988609,-0.0012710565048871,0.0012710901743212,-0.001271079548035,0.0012710671482508,-0.0012710597351962,0.0012710869628687,-0.0012710827626301,0.0012710639254512,-0.0013438290480917,0.0013438040464252,-0.0013438196099649,0.0013438135261517,-0.0013437965915658,0.0013438364971969,-0.00134380606934,0.0013438270578187,-0.00086256222301337,0.00086249331099193,0.69114506586061,129487,2954,0.0045770347802341,0.006615277660196,0.0043639710101387,37.205095671466,5.7640765371726e-05,5.7640765371726e-05,5.7640765371726e-05,3634939.2011695,0.015679428081899
36791759,0.94255189764253,0.015808049686033,0.0049115090158289,0.0062249393786908,0.0046716012915135,-0.0011032632442646,0.0011032635455361,-4.730451264961e-09,5.0297415560539e-09,1.7086423050622e-09,-1.3429345296543e-09,-0.00059820431542247,0.00059821127246156,-0.0011778886400598,0.001177882778636,-0.0011778854505525,0.0011778860855697,-0.0005982108260134,0.00059820458624513,-0.00059820144316865,0.0005982142484859,-0.0011778857169867,0.0011778858333051,-0.0011778824458509,0.0011778890456602,-0.0013061722555828,0.0013061702958056,-0.0013061689448839,0.001306173496317,-0.001306173277541,0.0013061692604199,-0.0013061699917229,0.001306172485402,-0.0010209131655023,0.0010209028930329,-0.001020903722963,0.0010209125598946,-0.0010209121438956,0.0010209038711603,-0.0010209027308735,0.001020913626715,-0.00059821380119514,0.00059820160568253,-1.4242876161528e-09,1.6281187594718e-09,-3.4410178984829e-08,3.4591969980091e-08,-0.0015993501880684,0.0015993503682573,-0.0016531031935782,0.0016531699823891,-0.0015206754685081,0.0015206498551801,-0.0015206724145515,0.001520652775721,-0.0015671175473455,0.001567094097542,-0.0015670951198685,0.0015671168667131,-0.0015671165299304,0.0015670951062409,-0.0015670940920193,0.0015671178846768,-0.0016531705547898,0.0016531041439254,-0.0016531021312958,0.0016531710038219,-0.0015206525254507,0.0015206725576975,-0.0015206494648626,0.0015206754749881,-0.0016531716093939,0.0016531031195992,8.6362232751012e-09,-1.1142212900618e-09,-0.0010526075165629,0.0010526151369963,3.8772724614922e-08,-3.0676969961581e-08,-0.00086501706815046,0.00086496654546614,-0.00078689517714618,0.00078683196031726,-0.00078689196198974,0.00078683521981239,-0.00086495874812509,0.00086502490611108,-0.00086494917414656,0.00086503434054764,-0.00078682685001044,0.00078690042346166,-0.00078682354059245,0.00078690360371732,-0.0012754923424306,0.0012755260896807,-0.0012755155542867,0.0012755028949428,-0.0012754956011893,0.0012755228500012,-0.0012755187987294,0.0012754996422893,-0.0013483626596522,0.0013483372828639,-0.0013483531344145,0.0013483468487139,-0.0013483299470486,0.0013483699888874,-0.0013483395091898,0.0013483604658118,-0.00086502659403364,0.00086495696165082,0.67162364288918,129487,2954,0.0045909043053867,0.0066397404325571,0.0043774015000482,36.86644075407,5.4931526032562e-05,5.4931526032562e-05,5.4931526032562e-05,3639794.9525774,0.0157320172239
36991759,0.94638396718242,0.015868023754626,0.0049294647444014,0.0062500889045042,0.0046884701057199,-0.0011073702787699,0.0011073706369429,-4.7477980601459e-09,5.1030233380075e-09,1.5307878088362e-09,-1.102332401443e-09,-0.00060025937273275,0.00060026689194149,-0.0011824125329915,0.0011824071152505,-0.0011824093139852,0.0011824104522793,-0.0006002663891571,0.00060025970303226,-0.00060025691551544,0.00060026945752636,-0.0011824100243666,0.0011824097591979,-0.0011824067178607,0.0011824129972493,-0.0013111503423116,0.0013111482688235,-0.0013111469967344,0.0013111514956339,-0.0013111512243739,0.0013111473710558,-0.0013111479075458,0.0013111506247155,-0.0010243583459978,0.0010243481792146,-0.0010243488099164,0.0010243579295986,-0.0010243574663357,0.0010243490201087,-0.00102434795444,0.0010243588550161,-0.000600268951931,0.00060025714249151,-1.2216705359508e-09,1.4121196931906e-09,-3.5280299979524e-08,3.5450729945593e-08,-0.0016058716933552,0.0016058718619273,-0.0016592671497027,0.0016593357656395,-0.0015269021293663,0.0015268763446343,-0.0015268994808292,0.0015268788471851,-0.0015738059050269,0.0015737820159389,-0.0015737829254738,0.0015738053640122,-0.0015738050220504,0.0015737828840754,-0.0015737820324963,0.0015738062411395,-0.0016593363159151,0.0016592680553232,-0.0016592662252783,0.0016593366464508,-0.001526878623346,0.0015268996268837,-0.0015268759696826,0.0015269021252809,-0.0016593372334202,0.0016592671718313,8.4994764123299e-09,-1.3368287214326e-09,-0.001056693718005,0.0010567009746917,3.9436066730996e-08,-3.1729262170122e-08,-0.00086876894803232,0.00086871644162609,-0.00079020818075046,0.00079014285828525,-0.00079020493655729,0.00079014614651542,-0.0008687090209653,0.00086877641322044,-0.0008686993642133,0.0008687859268891,-0.00079013816125411,0.00079021301543847,-0.00079013482258327,0.00079021622242816,-0.0012805548713092,0.0012805888617905,-0.0012805786526531,0.0012805650980158,-0.0012805581591852,0.0012805855943178,-0.0012805819260362,0.0012805618165917,-0.0013537369367592,0.0013537105490563,-0.0013537273257089,0.0013537201981841,-0.0013537035660997,0.0013537439101777,-0.0013537132134661,0.0013537343053496,-0.00086877856017735,0.00086870677599953,0.71099418087751,129487,2954,0.0046079641927503,0.0066667139008421,0.0043943671667802,36.972968736898,5.5783749895181e-05,5.5783749895181e-05,5.5783749895181e-05,3649199.7887672,0.015793987706983
37191759,0.95002980228711,0.015928564351951,0.0049475480824054,0.0062754687675141,0.0047055475020317,-0.001111763749638,0.0011117641615462,-4.7623737920732e-09,5.1703495553113e-09,1.3786819225666e-09,-8.9065321280278e-10,-0.00060228739183919,0.00060229540076081,-0.0011874970156078,0.0011874919890417,-0.0011874937703749,0.0011874953512383,-0.00060229484990503,0.00060228777835839,-0.00060228528980095,0.00060229760881104,-0.0011874948671139,0.0011874942734934,-0.0011874915298522,0.0011874975371954,-0.0013164758002552,0.0013164736306899,-0.0013164724233769,0.0013164768820035,-0.0013164765605511,0.0013164728527535,-0.0013164732158995,0.0013164761326433,-0.0010282480709849,0.0010282379976822,-0.0010282384487619,0.0010282478209696,-0.0010282473162517,0.0010282387193762,-0.0010282377105626,0.001028248623036,-0.00060229704689497,0.00060228557885866,-1.0468610008209e-09,1.2238451826345e-09,-3.6180681736508e-08,3.6339483310318e-08,-0.0016128748343776,0.0016128749910432,-0.0016661419733969,0.001666212456136,-0.0015335975571301,0.0015335715248308,-0.0015335952591837,0.0015335736649978,-0.0015807797623076,0.0015807553952926,-0.0015807562105442,0.001580779342307,-0.0015807789957853,0.0015807561417381,-0.0015807554346975,0.0015807800966861,-0.0016662129885005,0.001666142840666,-0.0016661411686199,0.00166621321312,-0.0015335734665331,0.0015335954082452,-0.0015335711651196,0.0015335975411344,-0.001666213787619,0.0016661420775496,8.381667628425e-09,-1.5492644075432e-09,-0.0010610590318684,0.0010610659535459,4.0155582984313e-08,-3.2806833529976e-08,-0.00087274078516844,0.00087268625581068,-0.00079380395433629,0.00079373647610756,-0.00079380067719589,0.00079373979729598,-0.00087267917982944,0.00087274791007503,-0.00087266942945958,0.00087275751334696,-0.0007937321646965,0.00079380840546566,-0.00079372879420472,0.00079381164178066,-0.0012859274960037,0.001285961787543,-0.0012859518738463,0.0012859374276885,-0.0012859308154796,0.0012859584897821,-0.0012859551791837,0.0012859341146033,-0.0013596918458095,0.0013596644404224,-0.0013596821395476,0.0013596741821393,-0.001359657780952,0.0013596984927037,-0.0013596675213626,0.0013596887985562,-0.00087275049563386,0.0008726764917986,0.75399384099277,129487,2954,0.0046262255389378,0.0066956742782293,0.0044124907774716,37.297111348381,5.8376890787052e-05,5.8376890787052e-05,5.8376890787052e-05,3651621.0031338,0.015860379474567
37391759,0.95349405219098,0.01598361731824,0.0049639894420701,0.0062985815516191,0.0047210463245507,-0.001115735878307,0.0011157363139158,-4.7964806232506e-09,5.2276247106976e-09,1.3084486156165e-09,-7.9376295088083e-10,-0.00060336026289228,0.00060336856237307,-0.0011919431321714,0.0011919382631438,-0.0011919398539984,0.0011919416587802,-0.00060336798146206,0.00060336068586138,-0.00060335833166555,0.00060337059334176,-0.0011919411469871,0.0011919403869574,-0.0011919377792687,0.0011919436759509,-0.0013215310058163,0.0013215287742073,-0.0013215275969295,0.0013215320525621,-0.001321531710815,0.0013215280497888,-0.0013215283343764,0.0013215313605376,-0.0010317104516624,0.0010317003640772,-0.0010317007292998,0.0010317102726839,-0.0010317097500039,0.0010317010335598,-0.0010317000493377,0.0010317110154495,-0.00060337001854932,0.00060335864238837,-9.6257147838148e-10,1.1329326658391e-09,-3.6792043252863e-08,3.6944925866963e-08,-0.0016196014160331,0.0016196015667892,-0.001672840393072,0.0016729121200518,-0.0015401034132427,0.0015400771483378,-0.001540101286977,0.0015400791089621,-0.0015873471777406,0.0015873224651728,-0.0015873232374437,0.0015873468184552,-0.0015873464682932,0.0015873231515264,-0.0015873225170604,0.0015873475147319,-0.0016729126442415,0.0016728412345629,-0.0016728396440092,0.0016729128214735,-0.0015400789282298,0.001540101435646,-0.0015400767935529,0.0015401033956674,-0.001672913383301,0.0016728405333833,8.3154639571958e-09,-1.7005255204215e-09,-0.0010649690182419,0.0010649757189759,4.0636344470953e-08,-3.3523308391778e-08,-0.00087581971986993,0.00087576385357712,-0.0007966531563896,0.00079658424197539,-0.00079664985409066,0.0007965875881752,-0.00087575701432906,0.00087582660985504,-0.00087574717368457,0.00087583630033364,-0.00079658019074306,0.00079665734805321,-0.00079657678856116,0.00079666061422065,-0.0012910302909151,0.0012910647946375,-0.0012910550675494,0.0012910400361869,-0.0012910336400573,0.0012910614677705,-0.0012910584003844,0.0012910366955617,-0.0013652728679096,0.0013652447698398,-0.0013652630805534,0.0013652545916947,-0.0013652383200698,0.0013652793039059,-0.0013652481472504,0.0013652695247016,-0.00087582950495705,0.00087575401835329,0.72209467371564,129487,2954,0.0046427501831251,0.0067234852568834,0.0044287262910773,37.627054638347,6.1016437106775e-05,6.1016437106775e-05,6.1016437106775e-05,3647676.1013771,0.015921930082391
37591759,0.95678050630717,0.016033753270693,0.0049789746801292,0.0063196398315454,0.0047351387590189,-0.0011194959384953,0.0011194963771529,-4.8388588130083e-09,5.2728804579744e-09,1.2909201697749e-09,-7.723965660504e-10,-0.00060470912253124,0.00060471755045463,-0.001196005369562,0.0011960005129971,-0.0011960020616936,0.0011960039381323,-0.00060471696501351,0.00060470954946932,-0.00060470723510716,0.0006047195461947,-0.0011960034231762,0.0011960026001073,-0.001196000024381,0.0011960059152646,-0.0013262494724199,0.0013262472015389,-0.001326246032801,0.0013262505073958,-0.0013262501641323,0.0013262464893556,-0.0013262467578314,0.0013262498290271,-0.0010349134326992,0.0010349032743064,-0.0010349036170986,0.0010349132630403,-0.0010349127428296,0.0010349039305578,-0.0010349029517896,0.0010349139925446,-0.00060471896948643,0.00060470754863668,-9.4318748793144e-10,1.1127793433255e-09,-3.7141943693057e-08,3.7294160016864e-08,-0.0016257719993334,0.0016257721495366,-0.0016788085804967,0.0016788810010867,-0.0015460723171909,0.0015460458609001,-0.0015460702289912,0.0015460477813747,-0.0015935106970951,0.0015934857690016,-0.0015934865346972,0.0015935103562378,-0.0015935100003817,0.0015934864418894,-0.0015934858268863,0.0015935110392566,-0.0016788815124394,0.0016788094071118,-0.0016788078443132,0.0016788816899374,-0.001546047607076,0.0015460703822239,-0.0015460455099721,0.0015460723026544,-0.001678882237626,0.0016788087197389,8.2788119123465e-09,-1.8259689582694e-09,-0.001068680366516,0.0010686869035695,4.0896060549636e-08,-3.3957645006541e-08,-0.00087881001439743,0.000878753380359,-0.00079944768809915,0.00079937788933749,-0.00079944435672876,0.00079938126453269,-0.00087874671333702,0.0008788167334099,-0.00087873678398777,0.00087882651155172,-0.00079937404023079,0.00079945167796987,-0.00079937060780595,0.00079945497375858,-0.0012958284317866,0.0012958630368698,-0.0012958534393351,0.0012958380475135,-0.0012958318106783,0.0012958596803684,-0.0012958568016399,0.0012958346774187,-0.0013703269492486,0.001370298375149,-0.0013703170751328,0.0013703082832624,-0.0013702920837297,0.001370333226393,-0.001370301998571,0.00137032336029,-0.00087881988467816,0.00087874346055411,0.69345403933652,129487,2954,0.0046583830837586,0.0067489992761974,0.0044441362654432,37.957234244984,6.3657873959871e-05,6.3657873959871e-05,6.3657873959871e-05,3649646.8973239,0.015979403332163
37791759,0.95982097082941,0.016078515730128,0.0049923591151969,0.0063384485579553,0.0047477080569756,-0.001122174436891,0.0011221748243959,-4.9100897440699e-09,5.29376415733e-09,1.4229670450688e-09,-9.6062167713775e-10,-0.00060547853397467,0.00060548668142559,-0.0011988161574082,0.0011988108997595,-0.0011988128186167,0.0011988143545499,-0.00060548614880393,0.00060547890449114,-0.00060547632988356,0.00060548899801078,-0.0011988138966544,0.0011988133032996,-0.0011988104651563,0.0011988166481748,-0.0013297119799273,0.0013297097341555,-0.001329708510904,0.0013297130723335,-0.0013297127776582,0.0013297089164798,-0.0013297093410637,0.0013297122869646,-0.0010370170072973,0.0010370066027483,-0.0010370070985989,0.0010370166786165,-0.0010370162088044,0.0010370073626789,-0.0010370063294805,0.0010370175175477,-0.00060548847143807,0.00060547659072324,-1.0959086957563e-09,1.2820499888705e-09,-3.6593800366959e-08,3.6760782135104e-08,-0.0016304353907349,0.0016304355559739,-0.0016831369280606,0.0016832081954876,-0.0015505498857415,0.0015505234853439,-0.0015505474847533,0.0015505257290488,-0.0015983065465235,0.0015982818819089,-0.0015982827320109,0.0015983061082249,-0.0015983057461319,0.0015982826632287,-0.0015982819209647,0.0015983068994704,-0.0016832087085233,0.001683137785821,-0.0016831360876358,0.0016832089929212,-0.0015505255317899,0.0015505476469851,-0.0015505231233652,0.0015505498902153,-0.0016832095392701,0.0016831369898187,8.4133419778689e-09,-1.7757536097991e-09,-0.0010713204488951,0.0010713271725403,4.0452948306462e-08,-3.3315789772528e-08,-0.00088091592154413,0.00088086063490354,-0.00080130550398742,0.00080123694164627,-0.00080130214421628,0.00080124034490618,-0.0008808537733769,0.0008809228315806,-0.00088084376553622,0.0008809326915744,-0.0008012329227867,0.00080130966144288,-0.00080122946410504,0.00080131298573235,-0.0012993891884098,0.0012994236453404,-0.0012994138360917,0.0012993990153996,-0.0012993925947039,0.0012994202602659,-0.0012994172266155,0.0012993956169256,-0.0013739510865755,0.0013739229764437,-0.0013739411303887,0.0013739329683646,-0.0013739165024749,0.0013739575483403,-0.0013739264981036,0.0013739475989403,-0.00088092587325992,0.00088085063261316,0.66961883992673,129487,2954,0.0046695153847882,0.006768281959715,0.0044551016435444,37.836162980843,6.2689303846742e-05,6.2689303846742e-05,6.2689303846742e-05,3653333.0737286,0.016021456539026
37991759,0.96261667841329,0.016120927608835,0.0050050301250348,0.0063562523785184,0.004759645105282,-0.0011245073586927,0.0011245077013152,-4.9706096642573e-09,5.3102856813882e-09,1.5369733943119e-09,-1.1243685354013e-09,-0.00060638732174818,0.00060639522754214,-0.0012013780882612,0.0012013724793606,-0.0012013747191938,0.0012013759608832,-0.00060639472677319,0.00060638765152956,-0.00060638485878666,0.00060639781541125,-0.0012013755493977,0.0012013751591904,-0.0012013720965455,0.0012013785267983,-0.0013326522408235,0.0013326500184149,-0.0013326487492353,0.0013326533836548,-0.0013326531319991,0.0013326491086267,-0.0013326496686039,0.0013326525063064,-0.0010388389090891,0.0010388282896609,-0.0010388289214411,0.0010388384447672,-0.001038838012135,0.0010388291427822,-0.0010388280662435,0.0010388393754424,-0.00060639734005633,0.00060638505308897,-1.2260635177041e-09,1.4280286687779e-09,-3.5905275229988e-08,3.6086565465961e-08,-0.0016344414111192,0.0016344415909506,-0.0016867626160189,0.0016868324652813,-0.0015543403249017,0.0015543141199087,-0.0015543376603668,0.0015543166396785,-0.0016025102623877,0.0016024859689634,-0.0016024868858027,0.001602509738299,-0.0016025093747133,0.001602486842516,-0.0016024859850204,0.0016025106237067,-0.0016868329885344,0.0016867635067056,-0.0016867616813685,0.0016868333578444,-0.0015543164215301,0.001554337825641,-0.0015543137419206,0.0015543403501912,-0.0016868339056567,0.001686762620362,8.5938700285521e-09,-1.6946175462663e-09,-0.0010736487367011,0.0010736557256184,3.9928521607345e-08,-3.2508741132788e-08,-0.0008830335739198,0.00088297996717321,-0.000803101957248,0.00080303495518801,-0.00080309856773093,0.00080303838900465,-0.00088297284285463,0.00088304074453889,-0.00088296272299707,0.00088305071976055,-0.00080303068974035,0.00080310635957565,-0.0008030271953334,0.00080310972204698,-0.0013024247815776,0.0013024590905142,-0.001302448988801,0.0013024349006581,-0.0013024282213671,0.0013024556709346,-0.0013024524110355,0.0013024314703551,-0.0013770875724197,0.0013770600728272,-0.0013770775233222,0.0013770701597212,-0.0013770533370581,0.0013770942980197,-0.001377063431889,0.0013770842469556,-0.00088304361136767,0.00088296987074873,0.68978257900649,129487,2954,0.0046792045710119,0.006784848230397,0.0044647720823048,37.594020547416,6.0752164379326e-05,6.0752164379326e-05,6.0752164379326e-05,3658897.9456457,0.016057965464037
38191759,0.96518860307948,0.016160296887104,0.0050167817821053,0.006372777865454,0.0047707372395448,-0.0011265723193548,0.0011265726396396,-5.0301482977753e-09,5.3479928508277e-09,1.5925191098696e-09,-1.2046377823779e-09,-0.000606897560512,0.00060690539844944,-0.0012036975340265,0.0012036917368853,-0.0012036941338196,0.0012036952465363,-0.00060690492579465,0.00060689785294156,-0.0006068949562859,0.00060690813247903,-0.0012036948629006,0.0012036945470772,-0.0012036913756654,0.0012036979511295,-0.0013353385722922,0.0013353363396586,-0.0013353350492756,0.0013353397402079,-0.0013353395077278,0.0013353353864821,-0.0013353360137257,0.0013353388161392,-0.0010404584923588,0.0010404477136396,-0.0010404484127174,0.0010404579617954,-0.0010404575500234,0.001040448605949,-0.0010404475130325,0.001040458944248,-0.00060690766672873,0.00060689513592111,-1.2910169438333e-09,1.5030743934693e-09,-3.5391463229827e-08,3.5582062528061e-08,-0.0016381742292086,0.0016381744183282,-0.0016902195574858,0.0016902883687794,-0.0015578819719072,0.0015578559705281,-0.0015578791687241,0.0015578586345145,-0.0016063473772195,0.0016063233793063,-0.0016063243247089,0.0016063468082715,-0.0016063464437788,0.0016063243009167,-0.0016063233803792,0.001606347739902,-0.001690288897045,0.0016902204764801,-0.0016902185804413,0.00169028930647,-0.0015578583975984,0.0015578793400859,-0.0015578555864575,0.0015578820035107,-0.0016902898629504,0.0016902195404204,8.7461061446962e-09,-1.6214543942622e-09,-0.0010757079184622,0.0010757151362062,3.9538419910912e-08,-3.1874851387876e-08,-0.00088479252637381,0.00088474025027084,-0.00080459569035531,0.00080452991063393,-0.00080459227179875,0.00080453337311793,-0.00088473287985413,0.00088479994019935,-0.00088472269807223,0.00088480997967189,-0.00080452542967547,0.00080460030736821,-0.00080452191301372,0.00080460369330327,-0.0013051895403236,0.0013052237591088,-0.0013052134072037,0.0013051999094581,-0.0013051930053443,0.001305220313765,-0.0013052168568966,0.0013051964515099,-0.0013800234180409,0.0013799964039846,-0.0013800132889222,0.0013800065716354,-0.0013799894486577,0.0013800303641402,-0.0013799996171442,0.0013800202378777,-0.00088480264874382,0.00088473007089754,0.69607506589851,129487,2954,0.0046877877036664,0.0068002820341237,0.0044733257554967,37.348570475847,5.8788563806776e-05,5.8788563806776e-05,5.8788563806776e-05,3659987.5745124,0.016091067683675
38391759,0.96756808934829,0.016198462808093,0.0050281607235298,0.0063887867458899,0.0047815153386738,-0.0011286848837382,0.0011286852135661,-5.0671113134629e-09,5.3944107957472e-09,1.5648453666364e-09,-1.1666088829288e-09,-0.00060751118544914,0.0006075191836629,-0.0012061932184783,0.0012061874668963,-0.0012061897880911,0.0012061910046959,-0.00060751869317309,0.0006075114902727,-0.00060750865452758,0.00060752185064553,-0.0012061906092973,0.0012061902130001,-0.0012061870970223,0.0012061936437887,-0.0013380335664558,0.0013380312941076,-0.0013380300168761,0.0013380347226746,-0.0013380344808769,0.0013380303624435,-0.0013380309586152,0.0013380338207776,-0.0010422028190673,0.0010421919876032,-0.0010421926571824,0.00104220232091,-0.0010422018961713,0.0010421928596614,-0.0010421917816588,0.0010422032801817,-0.00060752137714739,0.00060750883516803,-1.2575901501753e-09,1.4698883224428e-09,-3.5273794669992e-08,3.5464938770288e-08,-0.0016419047485843,0.0016419049381685,-0.0016937305008819,0.0016937991014546,-0.0015614249445461,0.0015613990875298,-0.0015614222081344,0.0015614016840323,-0.0016101314473035,0.0016101075491536,-0.001610108469359,0.0016101308979341,-0.0016101305360979,0.0016101084479206,-0.0016101075459937,0.0016101318078147,-0.0016937996354428,0.0016937314242637,-0.0016937295438994,0.001693800017646,-0.0015614014480601,0.0015614223774661,-0.0015613986994899,0.0015614249766112,-0.0016938005780129,0.0016937305117596,8.8342056977418e-09,-1.6264017002062e-09,-0.0010778231419203,0.0010778304445898,3.947619816278e-08,-3.1722183516649e-08,-0.00088670100656368,0.00088664911712088,-0.00080625412899258,0.00080618862220155,-0.00080625068137782,0.00080619211410181,-0.00088664166597933,0.0008867085014199,-0.00088663138601082,0.00088671863840195,-0.00080618408284483,0.00080625880497018,-0.00080618053297089,0.00080626222372172,-0.0013079465021109,0.0013079807640393,-0.0013079702986906,0.0013079569847788,-0.001307949998759,0.0013079772872831,-0.0013079737786914,0.0013079534965363,-0.0013830640851118,0.0013830371354244,-0.00138305386648,0.0013830473922897,-0.0013830300960118,0.0013830711147996,-0.0013830403575132,0.0013830608960182,-0.000886711214109,0.0008866388503356,0.72889799658251,129487,2954,0.0046965701896418,0.0068157051754468,0.0044821111191734,37.197777371161,5.7582218969287e-05,5.7582218969287e-05,5.7582218969287e-05,3659733.7781875,0.016124597664353
38591759,0.96978736625871,0.016234657274282,0.0050389439508043,0.0064039698947197,0.0047917434287585,-0.0011308491268533,0.0011308494796386,-5.1058648120113e-09,5.4556455926691e-09,1.5021289935786e-09,-1.0781564674129e-09,-0.00060785434105045,0.00060786262982843,-0.0012087690390564,0.0012087634232154,-0.0012087655704277,0.0012087669989439,-0.00060786210283884,0.00060785467969179,-0.00060785196804359,0.00060786513449488,-0.0012087665754348,0.0012087660244592,-0.0012087630311158,0.0012087694852546,-0.001340860142904,0.0013408578107287,-0.0013408565613902,0.00134086127115,-0.0013408610081597,0.0013408569277453,-0.0013408574523453,0.0013408604208683,-0.0010440681302281,0.0010440572693725,-0.0010440578680616,0.0010440677056771,-0.0010440672548632,0.0010440580957892,-0.0010440570455102,0.0010440686102386,-0.00060786464665311,0.00060785216693277,-1.1506726360644e-09,1.3550669290105e-09,-3.5589582094256e-08,3.5773875923e-08,-0.0016458193717871,0.0016458195543062,-0.0016975617760425,0.0016976310516295,-0.0015651965778999,0.0015651707277393,-0.001565194057597,0.0015651730960243,-0.001613963885644,0.0016139398497868,-0.0016139407070574,0.0016139634050909,-0.0016139630463068,0.0016139406722239,-0.0016139398541122,0.0016139642417399,-0.0016976315881994,0.001697562680499,-0.0016975608917057,0.0016976319001179,-0.0015651728758901,0.0015651942205435,-0.0015651703409199,0.0015651966029378,-0.0016976324560538,0.0016975618481626,8.8546294791475e-09,-1.682268776873e-09,-0.0010799699823728,0.0010799772496933,3.9676996258044e-08,-3.1960989863029e-08,-0.00088844897408255,0.00088839667194836,-0.0008078404295847,0.00080777443393394,-0.00080783696158496,0.00080777794532724,-0.00088838927047496,0.00088845642207791,-0.00088837891077416,0.00088846663245294,-0.00080776995622095,0.00080784504574175,-0.00080776637761694,0.00080784848996935,-0.0013108169101688,0.0013108513106557,-0.0013108408545426,0.0013108273838984,-0.0013108204339402,0.0013108478069422,-0.0013108443589318,0.0013108238706109,-0.0013862994798675,0.0013862722772997,-0.0013862891900186,0.0013862826055571,-0.0013862652691671,0.0013863064777522,-0.0013862756096151,0.0013862961812974,-0.00088845924221387,0.00088838635109868,0.7409637105979,129487,2954,0.0047055771796778,0.006831885761378,0.0044910278040329,37.193778537836,5.755022830269e-05,5.755022830269e-05,5.755022830269e-05,3654457.7205656,0.016159262755596
38791759,0.97185728561925,0.016268513141104,0.0050490306147489,0.0064181717924287,0.0048013107339264,-0.0011328453322754,0.0011328457156999,-5.1251967016118e-09,5.5052451927589e-09,1.4213696410155e-09,-9.6368064177671e-10,-0.00060799275732867,0.00060800131740229,-0.0012111491950003,0.0012111437881355,-0.0012111457103057,0.0012111473809905,-0.00060800077475082,0.00060799311017112,-0.00060799056512614,0.0006080036471592,-0.0012111469287184,0.0012111461909507,-0.0012111433576794,0.0012111496797305,-0.00134352368179,0.0013435212898007,-0.0013435200736688,0.0013435247738768,-0.0013435244804882,0.0013435204731968,-0.0013435209023829,0.0013435239869046,-0.0010457935172347,0.0010457826904655,-0.0010457831905357,0.0010457931863591,-0.0010457927156068,0.0010457834470268,-0.0010457824272276,0.001045794027977,-0.00060800310970856,0.0006079908079054,-1.1025706537087e-09,1.3038837223502e-09,-3.5854155564659e-08,3.6035801021191e-08,-0.0016495368117324,0.0016495369915814,-0.0017012284685232,0.0017012982979212,-0.00156880767359,0.0015687817415928,-0.0015688052444707,0.0015687840184277,-0.0016175619518519,0.0016175377737892,-0.0016175386037546,0.0016175615040266,-0.0016175611430019,0.0016175385650697,-0.0016175377843267,0.0016175623051749,-0.001701298825588,0.0017012293692599,-0.0017012276197061,0.0017012991053176,-0.0015687837989691,0.0015688054143654,-0.0015687813633984,0.0015688076903801,-0.001701299664547,0.0017012285641377,8.8531757659104e-09,-1.7911784571468e-09,-0.0010819286290372,0.0010819357852554,4.0014047018154e-08,-3.2416456233852e-08,-0.000889917310562,0.00088986423462652,-0.00080922816208736,0.00080916122609832,-0.00080922465229634,0.00080916478045233,-0.00088985693335316,0.00088992465836693,-0.00088984647981516,0.00088993496445667,-0.00080915690174866,0.00080923262496707,-0.0008091532918567,0.00080923610106701,-0.0013135150849795,0.0013135496743412,-0.0013135392915065,0.0013135254855498,-0.0013135186428775,0.0013135461375842,-0.0013135428337416,0.0013135219354469,-0.001389348380992,0.0013893206950936,-0.0013893379794219,0.0013893311326696,-0.0013893137986975,0.0013893552647433,-0.0013893242403502,0.001389344870052,-0.00088992770189167,0.00088985378682245,0.74287813618244,129487,2954,0.0047138893292186,0.0068472491633501,0.0044991636228278,37.19361579071,5.7548926325682e-05,5.7548926325682e-05,5.7548926325682e-05,3647613.0621143,0.016191599608373
38880000,0.9727423188518,0.016283010102738,0.0050533510072064,0.0064242513486754,0.0048054077468564,-0.0011336718248551,0.0011336722090209,-5.1499248524485e-09,5.5305181073358e-09,1.4220398884222e-09,-9.6335830362392e-10,-0.000607938415259,0.00060794703348758,-0.001212152237571,0.0012121468113247,-0.0012121487319713,0.00121215042322,-0.00060794648094271,0.00060793877852058,-0.00060793622877892,0.00060794935189894,-0.0012121499670998,0.0012121492175667,-0.0012121463830532,0.0012121527197335,-0.0013446603471115,0.0013446579404525,-0.0013446567233733,0.0013446614401052,-0.0013446611471388,0.0013446571223248,-0.0013446575511601,0.0013446606540595,-0.0010465034694629,0.0010464925885698,-0.0010464930827295,0.001046503130727,-0.0010465026597497,0.0010464933473748,-0.0010464923245819,0.0010465039721506,-0.00060794882319318,0.00060793646332504,-1.0813910454223e-09,1.2810042855587e-09,-3.6058406132032e-08,3.6238473566684e-08,-0.0016511399156726,0.0016511400940108,-0.0017027428873352,0.0017028131232641,-0.00157039096714,0.0015703649418865,-0.0015703885845155,0.0015703671696204,-0.0016191183100188,0.0016190940096655,-0.0016190948290076,0.0016191178782072,-0.0016191175166141,0.0016190947844604,-0.0016190940227177,0.0016191186652821,-0.0017028136496736,0.0017027437774022,-0.0017027420501022,0.0017028139193152,-0.0015703669576203,0.0015703887511986,-0.001570364561088,0.0015703909858119,-0.0017028144708177,0.0017027429896592,8.853001326107e-09,-1.8190582347402e-09,-0.0010827249848031,0.001082732112281,4.0137562473577e-08,-3.2571142222625e-08,-0.00089049229664889,0.00089043893525496,-0.00080981900311667,0.00080975175974872,-0.00080981548779957,0.0008097553193689,-0.00089043167509082,0.00089049960411093,-0.00089042118356047,0.00089050994669737,-0.00080974747522678,0.00080982342648325,-0.00080974385215384,0.00080982691502382,-0.0013146732878716,0.001314707950944,-0.001314697586873,0.0013146836696872,-0.0013146768561088,0.0013147044037172,-0.0013147011369178,0.001314680111423,-0.0013906435429693,0.0013906157157752,-0.0013906331177861,0.0013906261770044,-0.0013906088417509,0.0013906504043955,-0.0013906193137104,0.0013906399792503,-0.00089050270602281,0.0008904284703048,0.74369371220821,129487,2954,0.0047173323818769,0.0068538727384469,0.0045024728848103,37.193609124224,5.7548872993791e-05,5.7548872993791e-05,5.7548872993791e-05,3643941.2766412,0.016205197331722
