time,ASR_ext,ASR_strain,ASR_strain_xx,ASR_strain_yy,ASR_strain_zz,disp_x_101,disp_x_102,disp_x_103,disp_x_104,disp_x_105,disp_x_106,disp_x_p1_neg,disp_x_p1_pos,disp_x_p2_neg,disp_x_p2_pos,disp_x_p3_neg,disp_x_p3_pos,disp_x_p4_neg,disp_x_p4_pos,disp_x_p5_neg,disp_x_p5_pos,disp_x_p6_neg,disp_x_p6_pos,disp_y_101,disp_y_102,disp_y_103,disp_y_104,disp_y_105,disp_y_106,disp_y_p1_neg,disp_y_p1_pos,disp_y_p2_neg,disp_y_p2_pos,disp_y_p3_neg,disp_y_p3_pos,disp_y_p4_neg,disp_y_p4_pos,disp_y_p5_neg,disp_y_p5_pos,disp_y_p6_neg,disp_y_p6_pos,disp_y_p7_neg,disp_y_p7_pos,disp_y_p8_neg,disp_y_p8_pos,disp_z_101,disp_z_102,disp_z_103,disp_z_104,disp_z_105,disp_z_106,disp_z_p1_neg,disp_z_p1_pos,disp_z_p2_neg,disp_z_p2_pos,disp_z_p3_neg,disp_z_p3_pos,disp_z_p4_neg,disp_z_p4_pos,disp_z_p5_neg,disp_z_p5_pos,disp_z_p6_neg,disp_z_p6_pos,humidity,ndof,nelem,strain_xx,strain_yy,strain_zz,temp,thermal_strain_xx,thermal_strain_yy,thermal_strain_zz,vonmises,vstrain
2419200,0,0,0,0,0,0,0,0,0,0,0,0,0,0,0,0,0,0,0,0,0,0,0,0,0,0,0,0,0,0,0,0,0,0,0,0,0,0,0,0,0,0,0,0,0,0,0,0,0,0,0,0,0,0,0,0,0,0,0,0,0,0,0,0,0,0,0,0,0,0,0,0,0,0,0
2619200,0.019573309222914,0.00040151581914675,0.00013383860638225,0.00013383860638225,0.00013383860638225,-3.354505127952e-05,3.3544739464434e-05,-1.8092394416608e-10,-1.2808984346343e-10,5.4915780980072e-10,-8.847928978038e-10,-3.3323407908843e-05,3.332355238492e-05,-3.3323383609323e-05,3.3323563605061e-05,-3.3323860575548e-05,3.3323071106347e-05,-3.3323843497033e-05,3.3323088996235e-05,-3.4649521382218e-05,3.4648686752835e-05,-3.4649468227566e-05,3.4648736184482e-05,-5.490699184092e-10,9.6510099043556e-10,-1.4336359198872e-09,1.8235882877992e-09,-3.4747174970553e-05,3.4747567721004e-05,-3.4372425747753e-05,3.4371251444114e-05,-3.4371382592418e-05,3.4372343665613e-05,-3.4371945100304e-05,3.4371756687543e-05,-3.4370902207818e-05,3.4372848623403e-05,-3.555684774509e-05,3.5554543257833e-05,-3.5553695693006e-05,3.5557782735446e-05,-3.5308846590434e-05,3.5308840344399e-05,-3.5307373507923e-05,3.5310358473597e-05,-3.9943091475165e-10,-4.4881277456127e-10,-3.4747798485461e-05,3.4746944204929e-05,1.1870564207329e-09,-2.091732548727e-09,-3.4371725274273e-05,3.4371988845671e-05,-3.4372813852917e-05,3.4370903054367e-05,-3.4371739904068e-05,3.4371970849246e-05,-3.4372829128589e-05,3.4370885161129e-05,-3.5309843798647e-05,3.5307854549206e-05,-3.5309798627622e-05,3.5307906972723e-05,0.8199296707335,131329,3014,0.00013976060383792,0.00014477017406403,0.0001447701740616,31.551827822255,1.2414622578041e-05,1.2414622578041e-05,1.2414622578041e-05,515048.73507861,0.00042939333873185
2819200,0.041162542912702,0.00083620741430185,0.00027698361223667,0.00027961190103416,0.00027961190103103,-6.8499804696694e-05,6.8504740808627e-05,2.3473652850945e-09,2.5483889290557e-09,-8.35141749284e-09,1.3650209054557e-08,-6.9140880379696e-05,6.9138479357201e-05,-6.914081791541e-05,6.9138550552088e-05,-6.9133885363049e-05,6.9145812937919e-05,-6.9133816474508e-05,6.9145877928027e-05,-7.0551774772218e-05,7.0563754946578e-05,-7.0551577182615e-05,7.0563951039667e-05,7.8817951502415e-09,-1.408228229418e-08,-1.5700896352819e-09,-4.2544784268724e-09,-7.1597188532596e-05,7.1591323852053e-05,-7.173444187767e-05,7.1736705478946e-05,-7.1735301810438e-05,7.173580499453e-05,-7.174141725636e-05,7.1729376907574e-05,-7.174227706877e-05,7.17284765669e-05,-7.2918884083977e-05,7.2908421935106e-05,-7.2921479528073e-05,7.290575448353e-05,-7.2333124130899e-05,7.2347815841231e-05,-7.2354499802463e-05,7.2325792790147e-05,6.7694447821895e-10,4.7786477536796e-10,-7.1593677618447e-05,7.1594834765165e-05,-7.1359040173136e-10,1.9103735659154e-09,-7.1735301737193e-05,7.1735641228332e-05,-7.1734413444904e-05,7.1736493175804e-05,-7.1735394903608e-05,7.1735601323769e-05,-7.1734504611955e-05,7.1736451544051e-05,-7.2339416392575e-05,7.2341249391802e-05,-7.2339153234743e-05,7.234137601079e-05,0.82138490785955,131329,3014,0.00028538551072533,0.00029826475313919,0.00029826475313597,32.739716152467,2.1917729219737e-05,2.1917729219737e-05,2.1917729219737e-05,651611.08196833,0.00088230451258072
3019200,0.062599916523672,0.0012614700943078,0.00041401733497724,0.00042372637966489,0.0004237263796657,-9.9373777460307e-05,9.9379442737638e-05,2.6295385533985e-09,2.9871129406251e-09,-1.2112752880299e-08,1.8310189005736e-08,-0.00010090030730487,0.0001008958076022,-0.00010090020155891,0.00010089593810565,-0.00010089066952676,0.00010090594593026,-0.00010089054715088,0.00010090606361998,-0.00010281828130414,0.00010283361587144,-0.00010281792828012,0.00010283396828296,1.1198144012848e-08,-1.9098642694024e-08,-3.8775965670682e-10,-6.9662526572643e-09,-0.00010527585155969,0.00010526844754523,-0.00010607608654752,0.00010608083056884,-0.00010607819082227,0.00010607862338217,-0.00010608568122005,0.00010607072949234,-0.00010608778358333,0.00010606852424436,-0.00010740009788405,0.00010738917072222,-0.00010740645755944,0.00010738262608256,-0.00010612263847638,0.00010614264363026,-0.0001061521295406,0.0001061122137349,1.1556493245299e-09,8.1407583381782e-10,-0.00010527116034172,0.00010527313876645,-2.1960071662881e-09,4.278560507123e-09,-0.00010607834182932,0.00010607825620259,-0.00010607616983393,0.00010608037525936,-0.00010607849888615,0.00010607818343533,-0.00010607632249272,0.00010608030194869,-0.00010613054702374,0.00010613434066091,-0.00010613012409604,0.00010613458141771,0.820133251011,131329,3014,0.00041398397830044,0.00043853739081475,0.00043853739081951,32.491742091926,1.9933936735405e-05,1.9933936735405e-05,1.9933936735405e-05,872823.05658532,0.0012918937025317
3219200,0.083796540967047,0.0016695616888536,0.0005437141659235,0.00056292376146284,0.00056292376146729,-0.0001284402698063,0.00012844516569802,2.1740576417042e-09,2.6789714728193e-09,-1.2840683539267e-08,1.831700321961e-08,-0.00013121496529656,0.00013120941456753,-0.00013121481517645,0.00013120959940242,-0.00013120514157086,0.00013121979404627,-0.00013120497027164,0.00013121996075297,-0.00013327438234107,0.00013328905290482,-0.00013327388523753,0.0001332895485985,1.1705936409768e-08,-1.9354018948256e-08,8.3674252508861e-10,-7.890826540246e-09,-0.0001376749242679,0.00013766782293924,-0.00013951739711888,0.00013952339208517,-0.00013952018364672,0.00013952046430571,-0.00013952720174176,0.00013951305017734,-0.00013952998671392,0.00013951012401841,-0.00014051756904755,0.00014050880355937,-0.00014052600491077,0.0001405001112093,-0.00013838767472132,0.00013840800357863,-0.00013841790746517,0.00013837676206167,1.3917636982876e-09,8.9849197538543e-10,-0.000137670222681,0.0001376725245302,-3.0740952267142e-09,5.5228091758567e-09,-0.00013952043088248,0.00013952000305255,-0.00013951755095841,0.00013952282014461,-0.00013952064377438,0.00013951988557302,-0.00013951776172495,0.00013952270372069,-0.00013839529107998,0.0001383999632924,-0.00013839471808591,0.00013840035240755,0.80675914072168,131329,3014,0.00053503611835042,0.00057346552966101,0.00057346552966737,32.203774468059,1.7630195744473e-05,1.7630195744473e-05,1.7630195744473e-05,1050424.8497138,0.0016833845494875
3419200,0.10472842180321,0.0020571627327892,0.00066533123021734,0.00069591575128237,0.00069591575128946,-0.00015560342896789,0.00015560746777267,1.6748765445462e-09,2.3294933714515e-09,-1.2697596146007e-08,1.732457327895e-08,-0.00016003711447982,0.00016003104081518,-0.00016003691811989,0.00016003127919345,-0.00016002768899784,0.00016004103765725,-0.00016002746813543,0.00016004125461472,-0.00016166897984266,0.00016168227783588,-0.00016166833525081,0.00016168291927161,1.1411007142411e-08,-1.8494293008026e-08,1.799533745507e-09,-8.2675367607374e-09,-0.00016856241365869,0.00016855590366974,-0.00017191507366434,0.00017192171728006,-0.00017191828251568,0.00017191834050852,-0.00017192448987742,0.00017191177276391,-0.00017192769717391,0.00017190839761608,-0.00017190026336742,0.00017189378478067,-0.00017190999000086,0.00017188375031185,-0.00016878381848279,0.00016880314333604,-0.00016881293104434,0.00016877302919581,1.5312808752218e-09,8.8868479529688e-10,-0.00016855794229825,0.00016856037503624,-3.6510060447825e-09,6.262951334088e-09,-0.00017191856088404,0.00017191786733167,-0.00017191524130415,0.00017192111581276,-0.00017191882455242,0.00017191770109009,-0.0001719155063348,0.00017192095411818,-0.00016879072315146,0.00016879581776434,-0.00016879000651537,0.00016879635566563,0.78589837072023,131329,3014,0.00064814868323453,0.00070208215111466,0.00070208215112532,31.914288594663,1.5314308757305e-05,1.5314308757305e-05,1.5314308757305e-05,1208307.1661774,0.0020544234634356
3619200,0.12591783001985,0.0024364908937006,0.00078323440102034,0.00082662824633594,0.00082662824634437,-0.00018255640406987,0.00018255952814016,1.1432520681179e-09,1.956157695784e-09,-1.1735544998869e-08,1.5418160647982e-08,-0.00018881541376284,0.0001888093261369,-0.00018881516607919,0.00018880961820623,-0.00018880692136224,0.00018881835769011,-0.00018880664802281,0.00018881862815195,-0.00018983317083095,0.00018984445635667,-0.0001898323687083,0.00018984525168162,1.0566809236597e-08,-1.6418092360948e-08,2.4727574980606e-09,-7.7423110503639e-09,-0.00019957456781115,0.00019956926648552,-0.00020483109033145,0.00020483802098103,-0.00020483433944563,0.00020483459450592,-0.00020483955755772,0.00020482905960867,-0.00020484280463934,0.00020482563523518,-0.00020332170020994,0.00020331753226384,-0.00020333156082489,0.00020330734572975,-0.00019895392882207,0.00019897154138276,-0.00019898019335896,0.00019894434181892,1.5405646851667e-09,7.5729770672195e-10,-0.00019957076227174,0.00019957307203124,-3.7781472244016e-09,6.2801471637746e-09,-0.00020483479149388,0.00020483397012762,-0.00020483142585286,0.00020483726385334,-0.00020483510144251,0.00020483375588338,-0.0002048317378659,0.00020483705581349,-0.00019896009489113,0.00019896497925116,-0.0001989592505296,0.00019896566347868,0.77011575683085,131329,3014,0.00076037411932865,0.00083120233946661,0.00083120233947815,31.993878934828,1.5951031478626e-05,1.5951031478626e-05,1.5951031478626e-05,1395060.5635829,0.0024257202721249
3819200,0.14771022675441,0.0028215909754348,0.00090215294625101,0.00095971901458652,0.00095971901459727,-0.00021018549481581,0.0002101879283635,7.184138157893e-10,1.6987799493872e-09,-1.1070570481612e-08,1.4033834814847e-08,-0.00021832809580921,0.00021832193916805,-0.00021832779229599,0.00021832228697843,-0.00021832025459443,0.00021833027996041,-0.00021831992577202,0.0002183306071224,-0.00021893068297825,0.00021894044320291,-0.00021892971418715,0.00021894140105306,1.0037962041026e-08,-1.4816863686381e-08,2.7533005745502e-09,-6.9821884605342e-09,-0.00023158912858696,0.000231584877217,-0.00023898375098114,0.000238990870925,-0.0002389868416624,0.00023898760545782,-0.00023899153847498,0.00023898262644658,-0.00023899462687655,0.00023897936345014,-0.00023586599649238,0.00023586310186211,-0.00023587538581484,0.00023585338912539,-0.00023003754811242,0.00023005428326377,-0.00023006174654802,0.00023002921771109,1.4846650731261e-09,5.6985450293904e-10,-0.00023158597082525,0.0002315880349862,-3.6647109750732e-09,5.9233289310583e-09,-0.00023898758135462,0.00023898671255931,-0.00023898437348092,0.0002389898491515,-0.00023898793237973,0.00023898645177054,-0.00023898472749896,0.00023898959611329,-0.00023004355179256,0.00023004790858143,-0.0002300425880516,0.00023004872967322,0.77140161299972,131329,3014,0.00087540328612057,0.00096447779992169,0.00096447779993591,32.325330950688,1.8602647605508e-05,1.8602647605508e-05,1.8602647605508e-05,1585348.1915431,0.0028083006068707
4019200,0.17009531893348,0.0032133528469763,0.00102222172139,0.0010955655627867,0.0010955655627997,-0.00023806819224772,0.0002380702654479,4.6982860977171e-10,1.5918665602899e-09,-1.0789048906168e-08,1.3374502893323e-08,-0.00024823018582757,0.00024822392958037,-0.00024822983381196,0.00024822432425231,-0.00024822263348863,0.00024823194981326,-0.00024822225770298,0.0002482323250572,-0.00024851527967734,0.00024852423460368,-0.00024851417036767,0.00024852532916904,9.937121446601e-09,-1.4004424930246e-08,2.8210297988738e-09,-6.3579297943584e-09,-0.00026422645336571,0.00026422290139909,-0.00027400513615101,0.00027401247209457,-0.00027400804746784,0.00027400939456751,-0.00027401263552537,0.00027400453726459,-0.00027401554483732,0.0002740014621318,-0.00026917290046843,0.00026917045137956,-0.00026918174919819,0.00026916129194099,-0.00026170474579261,0.00026172147579781,-0.00026172806607956,0.00026169732734783,1.4211626995506e-09,3.4895758217363e-10,-0.00026422378894705,0.0002642255658261,-3.5305613866261e-09,5.4990587840215e-09,-0.00027400910842906,0.00027400818868426,-0.00027400608655646,0.00027401114034078,-0.00027400950868115,0.00027400787357,-0.00027400649049897,0.00027401083332262,-0.00026171106438183,0.00026171479747675,-0.00026170995416374,0.00026171578009898,0.77299485400518,131329,3014,0.00099147713484154,0.0011003262607911,0.0011003262608072,32.662845642248,2.1302765137983e-05,2.1302765137983e-05,2.1302765137983e-05,1765191.0042011,0.0031972381171901
4219200,0.19304708414385,0.0036120345441307,0.001143429606591,0.0012343024687623,0.0012343024687774,-0.00026619335989733,0.00026619526261043,3.1133961412674e-10,1.5827970827532e-09,-1.0653562118784e-08,1.3058469800255e-08,-0.00027855948232813,0.00027855315495949,-0.00027855907942184,0.00027855359836733,-0.00027855206720798,0.00027856101749291,-0.00027855164208494,0.00027856144302589,-0.00027854773189165,0.00027855622304739,-0.00027854647431198,0.00027855746215831,9.9190645011723e-09,-1.356956286426e-08,2.7677978263887e-09,-5.8998478863492e-09,-0.00029750600266471,0.00029750286148376,-0.0003099223006737,0.00030992973195792,-0.00030992504976902,0.00030992682753255,-0.00030992965843464,0.00030992195207156,-0.00030993240553379,0.00030991904996496,-0.00030328084073562,0.00030327844269521,-0.00030328919508905,0.00030326979344567,-0.0002940063707985,0.00029402324077123,-0.0002940292582807,0.0002939995476536,1.3629611702659e-09,1.4112471773675e-10,-0.00029750367817316,0.00029750518598449,-3.4132626980867e-09,5.1079702980063e-09,-0.00030992635285311,0.00030992538245132,-0.00030992349985204,0.00030992816573342,-0.00030992680051826,0.0003099250153727,-0.00030992395187331,0.00030992780733139,-0.0002940130518084,0.00029401620397495,-0.00029401180093948,0.0002940173389002,0.77488673344589,131329,3014,0.0011085490577792,0.0012388277282167,0.0012388277282346,33.000584909581,2.4004679276649e-05,2.4004679276649e-05,2.4004679276649e-05,1935396.6017449,0.0035926540666161
4419200,0.21693457342277,0.004023851041631,0.0012675918222033,0.0013781296097054,0.0013781296097223,-0.0002954563038205,0.00029545802627576,2.2049682887029e-10,1.4959544937788e-09,-1.0277029307647e-08,1.2487050971194e-08,-0.00031032047784812,0.000310314280945,-0.00031032006976561,0.00031031472689231,-0.00031031336259049,0.00031032182382626,-0.00031031293820708,0.00031032224886797,-0.00030993846962667,0.00030994646927812,-0.00030993721267456,0.00030994770311501,9.8478779218894e-09,-1.3208610740793e-08,2.7076292605006e-09,-5.5616654652169e-09,-0.0003324339802528,0.00033243112251419,-0.0003477937703756,0.00034780120975648,-0.00034779639163405,0.00034779844300396,-0.00034780098761718,0.00034779357959017,-0.00034780361130311,0.00034779081058774,-0.00033922065098141,0.00033921828765348,-0.00033922862771236,0.00033921002927109,-0.00032793490762226,0.00032795177776216,-0.00032795738502245,0.00032792851093134,1.389803633056e-09,-1.2719453332373e-10,-0.00033243191961483,0.00033243318316225,-3.272317498601e-09,4.7165545275629e-09,-0.00034779781853618,0.00034779687682909,-0.00034779513993774,0.00034779948615376,-0.00034779835885919,0.00034779641077742,-0.00034779568882528,0.00034779902399341,-0.0003279419441041,0.00032794438218073,-0.00032794040753176,0.00032794582322733,0.77612068302112,131329,3014,0.0012303447759489,0.0013841680490985,0.0013841680491184,33.594764103859,2.875811283087e-05,2.875811283087e-05,2.875811283087e-05,2103599.4218629,0.004006702079739
4619200,0.24189487345018,0.0044505584228049,0.0013951921953643,0.0015276831137117,0.0015276831137288,-0.00032569754014831,0.00032569915162252,6.4422269987991e-11,1.5428984827163e-09,-1.0100820588379e-08,1.2187184164139e-08,-0.0003434549893322,0.00034344878114577,-0.00034345451589763,0.00034344929070883,-0.00034344802938397,0.00034345615591907,-0.00034344753904842,0.00034345664717971,-0.00034250127309701,0.00034250880597046,-0.00034249981317313,0.00034251023687658,9.6787583246198e-09,-1.2812902783646e-08,2.6298011986914e-09,-5.2683697352844e-09,-0.0003688682718198,0.00036886563434988,-0.0003875025340193,0.00038750989525885,-0.00038750504170163,0.00038750725263366,-0.00038750958173864,0.00038750245236262,-0.00038751208936373,0.00038749980824017,-0.0003768541450332,0.00037685181816372,-0.0003768617624428,0.00037684393214682,-0.00036335532639882,0.00036337198474386,-0.00036337725751214,0.00036334928952359,1.3492213662722e-09,-2.6342775480115e-10,-0.00036886641097063,0.00036886749520776,-3.1905693285471e-09,4.4501334922412e-09,-0.00038750656418466,0.00038750559625725,-0.0003875040038214,0.00038750808800926,-0.00038750713702044,0.00038750509268353,-0.00038750458352627,0.00038750758987079,-0.00036336245082801,0.00036336450621248,-0.0003633608287625,0.00036336604489895,0.7769364679065,131329,3014,0.0013561998760713,0.0015357529717685,0.0015357529717855,34.292647107057,3.434117685646e-05,3.434117685646e-05,3.434117685646e-05,2267333.6498693,0.0044375442455861
4819200,0.26789690555112,0.0048912333138455,0.0015260152359164,0.0016826090389553,0.0016826090389738,-0.00035668788634888,0.00035668947700442,-3.1354887203248e-11,1.6191168404449e-09,-9.9924487623729e-09,1.2049440346516e-08,-0.00037776985032578,0.00037776364827368,-0.00037776931906432,0.00037776421392438,-0.00037776296685797,0.00037777093473659,-0.00037776241924933,0.00037777148389918,-0.00037600929263277,0.00037601655284899,-0.00037600766182508,0.00037601815240383,9.6157825294822e-09,-1.2584800341173e-08,2.573658024301e-09,-5.0560004949491e-09,-0.00040652389801471,0.00040652142040282,-0.00042877565096665,0.00042878299255301,-0.00042877807535795,0.00042878044041954,-0.0004287826118325,0.00042877564634426,-0.00042878503571037,0.00042877309404657,-0.00041588576412456,0.00041588342363732,-0.00041589312351534,0.00041587580792908,-0.0003999976623977,0.00040001428476168,-0.00040001931599323,0.00039999188616109,1.3547881978711e-09,-3.8458232861208e-10,-0.00040652217587544,0.0004065231425521,-3.1245382204948e-09,4.2624059586076e-09,-0.00042877967140061,0.00042877871464394,-0.00042877719602693,0.00042878112123098,-0.00042878028471309,0.00042877816472792,-0.00042877781610793,0.00042878057843502,-0.00040000493250848,0.00040000666485965,-0.00040000319097296,0.00040000833082451,0.77792179610447,131329,3014,0.001485160183623,0.0016923940313785,0.0016923940313982,34.993063084588,3.9944504676706e-05,3.9944504676706e-05,3.9944504676706e-05,2427227.633044,0.0048818550112091
5019200,0.29489244819889,0.005343400216442,0.0016594302757124,0.0018419849703556,0.001841984970374,-0.00038827975195335,0.00038828136057895,-9.7159649339406e-11,1.7034816333642e-09,-9.8915977730661e-09,1.1959928748063e-08,-0.00041312986708138,0.00041312369724754,-0.00041312928481386,0.00041312431244645,-0.00041312304139033,0.00041313091542725,-0.00041312244381296,0.00041313151503041,-0.00041025065310413,0.0004102577197718,-0.00041024887387791,0.00041025946568335,9.5756935101305e-09,-1.2427291824416e-08,2.5174896734505e-09,-4.8895903415385e-09,-0.00044517600979017,0.00044517364538874,-0.00047143905702734,0.0004714463748771,-0.00047144141126629,0.0004714438984999,-0.00047144595680111,0.00047143909556976,-0.0004714483107718,0.00047143661933975,-0.00045601146084059,0.00045600907678319,-0.00045601860719214,0.00045600168431774,-0.00043761908650007,0.00043763570167873,-0.00043764055136166,0.00043761350505063,1.3916655132944e-09,-4.9657252277088e-10,-0.00044517438264498,0.00044517527254316,-3.056225232042e-09,4.113959727891e-09,-0.00047144304710979,0.00047144213561191,-0.00047144064405888,0.00047144447026883,-0.00047144370712399,0.00047144153338314,-0.00047144131113145,0.00047144387552306,-0.00043762649969091,0.00043762793952735,-0.00043762461746213,0.00043762975554274,0.77677326252696,131329,3014,0.0016166114145664,0.0018531534200265,0.0018531534200446,35.693573212506,4.5548585700045e-05,4.5548585700045e-05,4.5548585700045e-05,2580938.8693301,0.0053371491875135
5219200,0.32218595763411,0.0057970869030189,0.0017927139982879,0.0020021864523559,0.0020021864523752,-0.00041916485055238,0.00041916655256806,-1.0884882561074e-10,1.8079767596393e-09,-1.0042068609977e-08,1.2203679262225e-08,-0.00044808976061012,0.00044808351441423,-0.00044808913823612,0.00044808416873728,-0.00044808280112766,0.00044809086050578,-0.00044808216561342,0.00044809149813334,-0.00044389087537193,0.00044389805326396,-0.00044388898409802,0.00044389990976386,9.8300730175275e-09,-1.2649363159409e-08,2.528060867241e-09,-4.8698998406678e-09,-0.00048324301216904,0.0004832406799035,-0.0005138051431218,0.00051381264782719,-0.00051380749521831,0.00051381017655633,-0.00051381219867116,0.00051380521117243,-0.00051381455216111,0.00051380273845075,-0.00049566845927483,0.00049566593974939,-0.0004956756018959,0.00049565855616099,-0.00047472594982273,0.00047474306938964,-0.00047474788518098,0.0004747204019712,1.4676880716222e-09,-6.0335211127186e-10,-0.00048324141700642,0.00048324227507576,-3.0473849797013e-09,4.0717136690526e-09,-0.00051380920529041,0.00051380833899989,-0.00051380681886955,0.00051381065790342,-0.00051380992330801,0.00051380767472889,-0.00051380754511997,0.00051380999902854,-0.00047473372750744,0.00047473493782168,-0.00047473166768372,0.00047473693929604,0.77855552793999,131329,3014,0.0017451115979865,0.0020114520812947,0.0020114520813137,36.022984035715,4.8183872285723e-05,4.8183872285723e-05,4.8183872285723e-05,2728701.6793362,0.0057847339944881
5419200,0.34957403819324,0.0062425895218197,0.0019231402773549,0.0021597246222222,0.0021597246222426,-0.00044923055694957,0.00044923236092129,-1.4323352302007e-10,1.9430349938647e-09,-1.0144908490965e-08,1.2410691430866e-08,-0.00048257418474495,0.000482567883803,-0.00048257350666556,0.00048256859345903,-0.00048256712250895,0.00048257532801729,-0.00048256643067114,0.00048257602225522,-0.0004765308862992,0.00047653810052331,-0.00047652882758163,0.00047654012320632,9.9757009092534e-09,-1.2766449239213e-08,2.5301447421299e-09,-4.8454075762264e-09,-0.00052054068451603,0.00052053838013548,-0.00055572648071416,0.00055573409371526,-0.00055572882717117,0.00055573162992332,-0.00055573362109272,0.00055572656903926,-0.00055573596769471,0.00055572410423106,-0.0005344112582223,0.00053440865586207,-0.0005344183792086,0.00053440129547075,-0.00051099550172683,0.00051101291253113,-0.0005110176912766,0.00051098998560221,1.5291509191508e-09,-6.7132467015391e-10,-0.00052053910689026,0.00052053995777105,-3.0526996194383e-09,4.0695892715104e-09,-0.00055573057897617,0.00055572974879716,-0.00055572819321322,0.00055573206822837,-0.00055573134004106,0.0005557290396175,-0.00055572896058335,0.0005557313641998,-0.00051100348759885,0.00051100456664662,-0.00051100130457792,0.00051100669674036,0.76958003770124,131329,3014,0.0018701938911792,0.0021665251925579,0.0021665251925771,36.275826483996,5.0206611871968e-05,5.0206611871968e-05,5.0206611871968e-05,2853421.178035,0.00622258939938
5619200,0.37697823828044,0.0066640050606655,0.0020459350932234,0.0023090349837105,0.0023090349837315,-0.00047746955640311,0.00047747142614698,-1.8532162363984e-10,2.0498531492316e-09,-1.0170532506772e-08,1.2504171633831e-08,-0.00051558188497398,0.00051557555959751,-0.00051558115684947,0.00051557631900099,-0.00051557477920679,0.00051558304044221,-0.00051557403774148,0.00051558378456505,-0.00050661787952009,0.000506625051305,-0.0005066156747945,0.00050662721986129,1.0036573285408e-08,-1.282504692235e-08,2.518214214776e-09,-4.8325083041714e-09,-0.00055606129857401,0.00055605899634747,-0.00059633163296967,0.00059633927909778,-0.00059633397085751,0.0005963368240123,-0.00059633881004687,0.0005963317132231,-0.00059634114834607,0.00059632925744035,-0.0005707662207086,0.00057076355425761,-0.00057077331796046,0.00057075621876583,-0.00054497080874847,0.00054498834732633,-0.00054499311341448,0.00054496530021666,1.6068844087843e-09,-7.434473126361e-10,-0.00055605971945772,0.00055606057547387,-3.038740311687e-09,4.0605400609355e-09,-0.0005963357156419,0.00059633494788424,-0.0005963333381158,0.00059633726007157,-0.00059633652616264,0.00059633418845071,-0.00059633415442139,0.00059633650532024,-0.00054497893137787,0.00054497986151997,-0.00054497660196201,0.00054498213812251,0.73637049090039,131329,3014,0.0019876707582986,0.0023141850940248,0.0023141850940447,36.526736861675,5.2213894893397e-05,5.2213894893397e-05,5.2213894893397e-05,2959290.7240476,0.0066380540549798
5819200,0.40431901309565,0.0070654077372181,0.0021625235393757,0.0024514420989107,0.0024514420989317,-0.0005041672753382,0.00050416917367794,-2.4618588951359e-10,2.1384685952229e-09,-1.0147815890087e-08,1.2511094657808e-08,-0.00054704327288912,0.00054703693188176,-0.00054704249468188,0.00054703774071254,-0.00054703616971498,0.00054704440505775,-0.00054703537858878,0.00054704519897364,-0.00053476796855874,0.00053477501620929,-0.00053476561718564,0.00053477733078561,1.0022275180487e-08,-1.2822766335099e-08,2.4924913743995e-09,-4.8204132674815e-09,-0.00059020557800498,0.00059020326272567,-0.00063579743535955,0.0006358050500893,-0.00063579976034134,0.000635802607631,-0.00063580460516534,0.00063579748861641,-0.00063580693063686,0.00063579504552892,-0.00060534866526668,0.00060534595365774,-0.00060535572569794,0.00060533865552156,-0.00057706318884532,0.00057708071126738,-0.0005770854750205,0.00057705767798238,1.6867598716438e-09,-8.1293103919124e-10,-0.00059020398731449,0.00059020485342603,-3.0156217787953e-09,4.0469354416061e-09,-0.00063580146501237,0.00063580076952499,-0.00063579910051357,0.00063580306984259,-0.00063580232562159,0.00063579996080403,-0.0006357999666181,0.00063580226550428,-0.00057707137673425,0.00057707215858287,-0.00057706889998839,0.0005770745803962,0.71317584292709,131329,3014,0.0020987331115399,0.0024560994073603,0.0024560994073797,36.777574837344,5.4220598698752e-05,5.4220598698752e-05,5.4220598698752e-05,3082011.560452,0.0070356589894683
6019200,0.43111285951609,0.0074480613102828,0.0022731721799962,0.0025874445651329,0.0025874445651537,-0.00052898793540164,0.00052898985057666,-2.8686325361275e-10,2.1955539479222e-09,-1.0188044072718e-08,1.2569195960338e-08,-0.00057663576062313,0.00057662937223793,-0.0005766349509953,0.00057663021149062,-0.00057662862483527,0.00057663687481764,-0.00057662779886759,0.00057663770362241,-0.00056086719312601,0.00056087418902762,-0.00056086473972012,0.00056087660379497,1.0090007910699e-08,-1.2910396416044e-08,2.4890108705413e-09,-4.8373310305789e-09,-0.00062256198886229,0.00062255965328911,-0.00067342986841649,0.00067343751992141,-0.00067343219884464,0.00067343507122388,-0.00067343709064618,0.00067342990419879,-0.0006734394176103,0.00067342745881865,-0.00063787574120454,0.000637872965187,-0.00063788280881346,0.00063786565924919,-0.0006073210479617,0.00060733869381285,-0.00060734347883871,0.00060731551074959,1.7923730458808e-09,-9.08363764287e-10,-0.00062256038305667,0.00062256125910438,-2.9863313630385e-09,4.0267195247032e-09,-0.00067343386776487,0.00067343326750474,-0.00067343152225159,0.00067343554984169,-0.00067343479743917,0.00067343239069215,-0.00067343245318429,0.00067343468107484,-0.00060732939504762,0.00060732997889027,-0.00060732672727871,0.00060733259275098,0.70261523632258,131329,3014,0.0022019874518997,0.0025905599365171,0.002590559936536,36.775494347778,5.4203954782223e-05,5.4203954782223e-05,5.4203954782223e-05,3183275.4753099,0.0074105388483528
6219200,0.4572909487873,0.0078225599597208,0.0023811051717012,0.0027207273939995,0.0027207273940202,-0.00055303682498888,0.00055303874201523,-3.6671436748074e-10,2.276819937655e-09,-1.0200210108848e-08,1.2583376593247e-08,-0.00060556123794831,0.00060555478973434,-0.00060556037342354,0.00060555568070756,-0.00060555409242293,0.000605562298719,-0.00060555321623372,0.00060556317974077,-0.00058641571127865,0.00058642256252005,-0.00058641310190773,0.00058642513077419,1.0086287683298e-08,-1.2925690517604e-08,2.4603182403234e-09,-4.8289467964459e-09,-0.00065440213449641,0.00065439977865979,-0.00071059811491019,0.00071060573848796,-0.00071060043118803,0.00071060330141068,-0.00071060534147672,0.00071059811775875,-0.00071060765675587,0.00071059568396853,-0.00067003045669897,0.00067002762357833,-0.00067003748788075,0.00067002035016295,-0.00063719394477945,0.00063721159793052,-0.0006372163869814,0.00063718839898157,1.8665925404968e-09,-9.7154821792766e-10,-0.00065440051311711,0.00065440140004865,-2.9684943693876e-09,4.0190671098909e-09,-0.00071060206602849,0.00071060153278139,-0.00071059972972202,0.00071060380603844,-0.00071060304241415,0.00071060060935787,-0.00071060070944336,0.00071060289024238,-0.00063720236171466,0.00063720281096715,-0.00063719955669376,0.00063720556248708,0.70745492183551,131329,3014,0.0023020292862231,0.0027228554983983,0.002722855498417,36.758761351104,5.4070090808834e-05,5.4070090808834e-05,5.4070090808834e-05,3237803.8403122,0.0077779605779528
6419200,0.48281425917077,0.0081844523692678,0.0024845356089549,0.0028499583801464,0.0028499583801665,-0.00057599552484775,0.00057599742318931,-4.5219448162193e-10,2.3437131330255e-09,-1.0191958478841e-08,1.2555823089106e-08,-0.00063355956135127,0.0006335530561027,-0.0006335586450947,0.0006335539968624,-0.00063355242678815,0.00063356055168694,-0.00063355150082553,0.00063356148335272,-0.00061079929609146,0.00061080596870437,-0.00061079653853055,0.0006108086849782,1.0058060360609e-08,-1.2913100903595e-08,2.4354650411369e-09,-4.8214259430825e-09,-0.00068540571361686,0.00068540334052992,-0.00074706724991641,0.00074707483389508,-0.00074706955512464,0.00074707240700004,-0.00074707446521965,0.00074706722615143,-0.00074707677119266,0.0007470648032167,-0.0007013190567804,0.00070131618920164,-0.00070132605682395,0.00070130894655708,-0.00066613048320794,0.00066614809164401,-0.00066615288705391,0.00066612493344336,1.9379567506339e-09,-1.0463643070828e-09,-0.00068540408536105,0.00068540496879463,-2.9561393180024e-09,4.0030682880999e-09,-0.00074707115417551,0.00074707067569353,-0.00074706882742651,0.00074707293962636,-0.00074707217928141,0.00074706970313515,-0.00074706985735888,0.00074707197509581,-0.00066613895780677,0.00066613924972982,-0.00066613600681634,0.00066614214444012,0.70210893141398,131329,3014,0.0023975359444701,0.0028516558610166,0.0028516558610339,36.741600728803,5.3932805830427e-05,5.3932805830427e-05,5.3932805830427e-05,3283588.6046793,0.0081338990140471
6619200,0.5080588753168,0.008565342177078,0.0025934411287273,0.0029859505241652,0.0029859505241855,-0.00060028126362753,0.00060028314430468,-5.3445620355338e-10,2.4084901672492e-09,-1.0026745244404e-08,1.2371233346343e-08,-0.00066273500918385,0.0006627285545814,-0.00066273404398236,0.00066272954349549,-0.00066272799019664,0.00066273593270871,-0.00066272701503984,0.00066273691347774,-0.00063740320180386,0.00063740959486956,-0.0006374002992165,0.00063741245588615,9.8807400078812e-09,-1.2738960650987e-08,2.4151577308814e-09,-4.8065059990689e-09,-0.00071803204123192,0.00071802966312072,-0.00078500469157323,0.00078501214337882,-0.00078500698634382,0.00078500972745558,-0.00078501179173368,0.00078500465256523,-0.00078501408713209,0.00078500224149464,-0.00073513377560008,0.00073513098432996,-0.00073514074010484,0.00073512377711046,-0.00069704618222031,0.00069706345181871,-0.00069706824069147,0.00069704064154575,2.0115254512488e-09,-1.1244468526852e-09,-0.00071803041275506,0.00071803129160638,-2.9400471354017e-09,3.9821829998958e-09,-0.00078500850064111,0.00078500808097551,-0.00078500618710543,0.00078501033290081,-0.00078500957669116,0.00078500705748716,-0.00078500726773026,0.00078500931821796,-0.00069705457101818,0.00069705469801219,-0.00069705147058022,0.00069705773939838,0.74070666486445,131329,3014,0.0024985562642987,0.0029871792410666,0.0029871792410838,37.009001923255,5.6072015386041e-05,5.6072015386041e-05,5.6072015386041e-05,3302607.9878232,0.0085090877650569
6819200,0.53412187883844,0.008991629074467,0.0027152700745832,0.0031381794999317,0.0031381794999521,-0.00062850819339387,0.00062851003449492,-6.5592029784985e-10,2.4908856691526e-09,-9.5688997147409e-09,1.1869074468775e-08,-0.00069544344887091,0.00069543720408238,-0.00069544241320032,0.00069543826301847,-0.00069543674331387,0.0006954442652215,-0.00069543570316039,0.00069544531031843,-0.000669274545482,0.00066928038735321,-0.00066927145150495,0.00066928343994632,9.409878936443e-09,-1.2236623099507e-08,2.383831971207e-09,-4.7484654178994e-09,-0.00075517290996795,0.00075517055895585,-0.00082708915725517,0.0008270962805597,-0.00082709142118013,0.00082709389694925,-0.00082709593358089,0.00082708911773097,-0.00082709820359499,0.00082708673313319,-0.00077469616608689,0.00077469364669306,-0.000774703051766,0.00077468651947381,-0.00073294027783877,0.00073295665708253,-0.00073296139124427,0.0007329347997391,2.0573899653841e-09,-1.1738930574023e-09,-0.00075517129687214,0.00075517217205894,-2.9304063303187e-09,3.9685903644062e-09,-0.00082709278619185,0.00082709240029181,-0.00082709047834667,0.00082709464820354,-0.00082709389147308,0.00082709134740087,-0.00082709159376511,0.00082709359837932,-0.00073294828077746,0.00073294829443585,-0.00073294507708827,0.00073295143612919,0.79221450866631,131329,3014,0.0026159568357615,0.0031414320418137,0.0031414320418278,38.074188961263,6.4593511690108e-05,6.4593511690108e-05,6.4593511690108e-05,3380030.4539226,0.0089387398657357
7019200,0.56090395653469,0.009394892760816,0.0028279651960241,0.0032834637823854,0.0032834637824065,-0.00065548736109807,0.00065548916671464,-7.3981943399471e-10,2.5397045731804e-09,-9.164080393958e-09,1.1423529324344e-08,-0.00072753210277579,0.00072752606082316,-0.00072753102181477,0.00072752716370301,-0.00072752567691047,0.00072753283714082,-0.00072752459049673,0.00072753392892126,-0.00069884765464151,0.0006988530430072,-0.00069884442602952,0.00069885623102218,9.0128724956106e-09,-1.1785890518219e-08,2.3869254149191e-09,-4.7031296485405e-09,-0.00079165627251605,0.00079165397011685,-0.00086914042334689,0.00086914730000477,-0.00086914267387426,0.00086914492978036,-0.00086914692140372,0.00086914041904544,-0.00086914917747939,0.00086913805042262,-0.00081244774402976,0.00081244551006251,-0.00081245458564636,0.00081243842978681,-0.00076743943833886,0.00076745504572876,-0.00076745972201966,0.00076743403179475,2.1372368741747e-09,-1.2607201911283e-09,-0.00079165468723384,0.00079165555540733,-2.9055889572812e-09,3.9362398735885e-09,-0.00086914389676655,0.00086914357740589,-0.00086914160844337,0.00086914580686032,-0.0008691450567085,0.00086914246890582,-0.0008691427771528,0.00086914470318729,-0.00076744715208785,0.0007674469795137,-0.00076744378778333,0.00076745028054743,0.7333580722845,131329,3014,0.0027281698510257,0.0032929274191669,0.0032929274191832,39.158391391564,7.3267131132515e-05,7.3267131132515e-05,7.3267131132515e-05,3399206.3374192,0.0093577747911586
7219200,0.58825156026735,0.0097897201517611,0.002937185456585,0.0034262673475774,0.0034262673475986,-0.00068194483493077,0.00068194660760997,-8.3121142662031e-10,2.5984617343365e-09,-8.8249818173338e-09,1.1045949754523e-08,-0.00075917183087368,0.00075916594435696,-0.00075917069918762,0.00075916709685845,-0.00075916563930753,0.00075917248126425,-0.0007591645031869,0.00075917362309975,-0.00072745832454552,0.00072746329495097,-0.00072745494933424,0.00072746662966033,8.6877115175002e-09,-1.1391939202612e-08,2.3968289380134e-09,-4.649628699378e-09,-0.00082789220021082,0.00082788996158171,-0.00091121565072176,0.00091122233842363,-0.00091121788735237,0.00091121998259,-0.00091122191370101,0.00091121569735535,-0.00091122415626044,0.00091121334332525,-0.00084949035956928,0.00084948838560141,-0.00084949715816957,0.00084948134863078,-0.00080121945945014,0.00080123443989631,-0.00080123903901052,0.00080121413788356,2.2082614700397e-09,-1.3388222771337e-09,-0.00082789065037295,0.00082789151142848,-2.8872571636432e-09,3.910330080762e-09,-0.00091121900251629,0.000911218740299,-0.00091121672927429,0.0009112209556098,-0.00091122021123708,0.0009112175816543,-0.00091121794718184,0.00091121980203205,-0.00080122694536605,0.0008012266055091,-0.00080122343537946,0.00080123005210193,0.70718848358354,131329,3014,0.0028382102791161,0.0034433697312778,0.0034433697312955,40.243300034945,8.1946400279562e-05,8.1946400279562e-05,8.1946400279562e-05,3438018.8161063,0.0097726642715325
7419200,0.61516779401039,0.010163345046135,0.0030397000248658,0.0035618225106242,0.0035618225106448,-0.00070597629472329,0.00070597804988898,-9.2108329230238e-10,2.6711022484834e-09,-8.8190533610911e-09,1.1019689792923e-08,-0.00078827208589185,0.00078826613629439,-0.00078827089785013,0.00078826734388556,-0.00078826589965441,0.00078827266357379,-0.00078826471128038,0.00078827385836631,-0.00075318373393229,0.00075318852158806,-0.00075318020365962,0.00075319201155307,8.6943167370216e-09,-1.1345742284313e-08,2.4114643649019e-09,-4.6139951513e-09,-0.00086152575266145,0.00086152356432913,-0.00095075448386255,0.0009507612022225,-0.00095075671227573,0.0009507588544613,-0.00095076073650231,0.00095075457502647,-0.00095076297452831,0.00095075222680209,-0.00088348124579987,0.00088347931834115,-0.00088348802777038,0.00088347229856436,-0.00083207305009783,0.00083208805429879,-0.0008320925966206,0.00083206779107651,2.2738330691959e-09,-1.4101335335356e-09,-0.00086152423078864,0.00086152508621058,-2.8878290505254e-09,3.9047869070433e-09,-0.00095075783202819,0.00095075761013605,-0.00095075555924679,0.000950759825524,-0.00095075908403962,0.00095075640642173,-0.00095075682395267,0.0009507586244297,-0.00083208062194726,0.00083208013690347,-0.00083207697444364,0.00083208372169853,0.68501444020969,131329,3014,0.0029381619906267,0.0035829840978773,0.0035829840978944,40.771090590348,8.6168724722782e-05,8.6168724722782e-05,8.6168724722782e-05,3486521.0993311,0.010155657216685
7619200,0.64091156659172,0.01051157064074,0.0031348693186078,0.0036883506610561,0.0036883506610762,-0.00072747671872485,0.00072747846767231,-9.9206186310283e-10,2.7354319751661e-09,-9.0598769748303e-09,1.1253289945481e-08,-0.00081493655359433,0.00081493039470364,-0.00081493532188761,0.00081493164598977,-0.00081493020712783,0.00081493707824085,-0.00081492897092457,0.00081493832099681,-0.00077610844790802,0.00077611324932428,-0.00077610477959596,0.00077611687859799,8.9442931446909e-09,-1.1572726814118e-08,2.4316614970313e-09,-4.6119266605417e-09,-0.00089223403187553,0.00089223186572371,-0.00098722505562839,0.00098723196423752,-0.00098722729237287,0.00098722960888538,-0.00098723147235525,0.00098722517627168,-0.00098723371467284,0.00098722282410372,-0.00091423405477388,0.00091423200169743,-0.00091424084873169,0.00091422497043692,-0.00085997355195051,0.00085998903667533,-0.00085999356394432,0.00085996831352846,2.3534746674644e-09,-1.4946862173326e-09,-0.00089223252339041,0.00089223337421848,-2.8915667764581e-09,3.9035714958203e-09,-0.00098722847446212,0.0009872283028588,-0.00098722620263491,0.00098723051787499,-0.00098722978282709,0.00098722704331017,-0.00098722751986141,0.00098722926480036,-0.00085998144497946,0.00085998080089366,-0.00085997764176259,0.0008599845402196,0.67223241210087,131329,3014,0.0030275881913677,0.00371043631336,0.0037104363133792,40.851782205879,8.6814257647031e-05,8.6814257647031e-05,8.6814257647031e-05,3526611.6510394,0.010503579889208
7819200,0.66544848070312,0.0108391610075,0.0032242711107556,0.0038074449483615,0.0038074449483825,-0.00074750219953837,0.00074750394848608,-1.0680385805368e-09,2.8111166085819e-09,-9.3177862636433e-09,1.1511651505184e-08,-0.00084029479553159,0.00084028841296326,-0.00084029351331055,0.000840289714935,-0.00084028827339654,0.00084029526893725,-0.00084028698712873,0.00084029656196665,-0.00079744035722344,0.00079744518394416,-0.00079743654193189,0.00079744896116836,9.2010452483479e-09,-1.1829470155939e-08,2.4385003895122e-09,-4.6183075063252e-09,-0.00092132504950436,0.00092132288365131,-0.0010221506539121,0.0010221577399045,-0.0010221528969202,0.0010221553799561,-0.001022157244048,0.0010221507807948,-0.0010221594918532,0.0010221484235602,-0.00094330399553265,0.00094330178407441,-0.00094331080293093,0.00094329474008557,-0.00088628837941673,0.00088630436511806,-0.00088630889666601,0.00088628313852934,2.4253869902688e-09,-1.5704001213543e-09,-0.00092132354297169,0.00092132439019378,-2.9009903844263e-09,3.9091834611875e-09,-0.0010221541412925,0.0010221540109899,-0.0010221518649874,0.0010221562310175,-0.0010221554995413,0.0010221527026008,-0.0010221532316588,0.001022154928969,-0.00088629659514283,0.00088629580780509,-0.00088629264652819,0.00088629969081251,0.66655083722417,131329,3014,0.0031108795309137,0.0038311615093306,0.00383116150935,40.921651888205,8.7373215105643e-05,8.7373215105643e-05,8.7373215105643e-05,3540607.3328272,0.010831823366799
8019200,0.68877093983214,0.011147276758315,0.0033079741321198,0.0039196513130865,0.0039196513131084,-0.00076619803177034,0.00076619978504975,-1.1412938187867e-09,2.8883180958942e-09,-9.5619333247946e-09,1.1761361324367e-08,-0.00086427509314109,0.0008642684991955,-0.00086427376095071,0.00086426985165172,-0.0008642684039185,0.00086427552030877,-0.00086426706772065,0.0008642768633253,-0.0008173802297016,0.00081738507912966,-0.00081737626842917,0.00081738900348923,9.4383762846198e-09,-1.2083322020707e-08,2.438581095635e-09,-4.6333668571037e-09,-0.00094883831025134,0.00094883612878746,-0.0010553666400428,0.0010553738801367,-0.0010553688892955,0.001055371515241,-0.0010553733947381,0.0010553667572923,-0.0010553756486097,0.0010553643946285,-0.0009707451633209,0.00097074278761259,-0.00097075198648365,0.0009707357289311,-0.00091115380089664,0.00091117024926931,-0.00091117480166818,0.00091114854028701,2.4982852188073e-09,-1.6463275865576e-09,-0.00094883679726374,0.00094883764178497,-2.9105107628646e-09,3.9156460358044e-09,-0.00105537018382,0.0010553700953329,-0.0010553679020619,0.0010553723208256,-0.001055371592132,0.0010553687378462,-0.0010553693187514,0.0010553709693303,-0.00091116232016441,0.00091116138907886,-0.0009111582244536,0.00091116541730914,0.66097249367626,131329,3014,0.0031886411173246,0.0039453255177965,0.0039453255178161,40.991117665713,8.7928941325704e-05,8.7928941325704e-05,8.7928941325704e-05,3548043.4790733,0.011141314754771
8219200,0.71102284123661,0.01143847581737,0.0033867008802418,0.0040258874685526,0.0040258874685752,-0.00078399470404493,0.00078399646104368,-1.2149953042275e-09,2.9653720766245e-09,-9.7177013200716e-09,1.1921740080436e-08,-0.00088719751156377,0.00088719076487668,-0.00088719612919377,0.00088719216796798,-0.00088719071508818,0.00088719789206846,-0.00088718932885257,0.00088719928497173,-0.00083637170132504,0.00083637651321424,-0.00083636759354834,0.0008363805845615,9.5840346085446e-09,-1.2251372514832e-08,2.4349588951032e-09,-4.6506847825606e-09,-0.00097516603292926,0.00097516383026383,-0.001087203515656,0.0010872108440064,-0.0010872057702311,0.0010872084748089,-0.0010872103751808,0.0010872036167148,-0.0010872126346139,0.0010872012490766,-0.00099694775419752,0.00099694526650343,-0.00099695459186298,0.0009969381940054,-0.00093495860945811,0.00093497534103879,-0.00093497991977268,0.00093495332323169,2.5715232022902e-09,-1.7215029081208e-09,-0.00097516451027329,0.00097516535293042,-2.9189316077018e-09,3.922075049873e-09,-0.0010872070823451,0.0010872070365235,-0.0010872047952403,0.00108720926732,-0.001087208540373,0.0010872056302072,-0.0010872062619742,0.0010872078664121,-0.00093496734230287,0.00093496626822118,-0.00093496309922754,0.00093497044143956,0.65549139767016,131329,3014,0.00326266227734,0.0040545578922916,0.0040545578923127,41.181563064526,8.9452504516205e-05,8.9452504516205e-05,8.9452504516205e-05,3555077.8969525,0.011437142718071
8419200,0.73225534013849,0.011715667008835,0.0034614229024631,0.0041271220531745,0.004127122053197,-0.00080094133851775,0.00080094309472372,-1.2900628517301e-09,3.0392249408819e-09,-9.8069607925502e-09,1.2010740764996e-08,-0.00090904056806265,0.00090903371129896,-0.00090903913664232,0.00090903516389343,-0.00090903371120225,0.00090904089790138,-0.0009090322749327,0.00090904234071237,-0.00085451214893148,0.00085451687292799,-0.00085450789499522,0.0008545210912458,9.6614558706597e-09,-1.2350651486974e-08,2.4311791293528e-09,-4.6677490031704e-09,-0.0010003474751254,0.0010003452512764,-0.0011176507348356,0.0011176581061335,-0.001117652994849,0.0011176557322722,-0.0011176576540732,0.0011176508196767,-0.0011176599182631,0.001117648447876,-0.001022024491628,0.001022021935833,-0.001022031341839,0.0010220148516796,-0.00095777611018222,0.00095779298901986,-0.0009577975941754,0.00095777079885268,2.6459778380169e-09,-1.7973328004226e-09,-0.0010003459424996,0.0010003467839123,-2.9260852742652e-09,3.9277788146122e-09,-0.0011176543006493,0.0011176542997135,-0.0011176520092642,0.0011176565346241,-0.0011176558095537,0.001117652843557,-0.0011176535262669,0.001117655084451,-0.00095778498903425,0.00095778377177561,-0.00095778059825644,0.00095778808990114,0.65380935257066,131329,3014,0.0033331470947683,0.004159023266028,0.0041590232660479,41.430900690931,9.1447205527447e-05,9.1447205527447e-05,9.1447205527447e-05,3561997.7473574,0.011719834563062
8619200,0.75245262245199,0.011979013022533,0.0035322426934679,0.0042233851645212,0.004223385164544,-0.00081697053196187,0.00081697228627708,-1.3661517107971e-09,3.1132394619067e-09,-9.8605735014834e-09,1.2063152318595e-08,-0.00092969073714693,0.00092968379270748,-0.00092968925588672,0.00092968529549736,-0.00092968384396498,0.00092969101493941,-0.00092968235774738,0.00092969250760172,-0.00087172876047503,0.00087173337160559,-0.00087172436025249,0.00087173773665629,9.7029534039766e-09,-1.2413533300472e-08,2.4266476663934e-09,-4.6840408344072e-09,-0.0010242544115943,0.0010242521666245,-0.0011465524566441,0.0011465598457962,-0.0011465547210511,0.0011465574681479,-0.0011465594109048,0.0011465525247286,-0.0011465616796091,0.0011465501489274,-0.0010458539527143,0.0010458513527743,-0.0010458608149531,0.0010458442572753,-0.00097946703490188,0.00097948399129553,-0.00097948862159648,0.00097946169848888,2.7201000314288e-09,-1.8722859246855e-09,-0.0010242528687897,0.0010242537094407,-2.932668174368e-09,3.9334506192542e-09,-0.0011465560090569,0.0011465560529301,-0.0011465537132408,0.0011465582921255,-0.0011465575679898,0.0011465545475655,-0.0011465552804288,0.0011465567925664,-0.0009794760242515,0.0009794746641276,-0.00097947148638914,0.0009794791277078,0.65260875574054,131329,3014,0.003399816345355,0.0042581902901722,0.0042581902901955,41.681679530313,9.3453436242501e-05,9.3453436242501e-05,9.3453436242501e-05,3568256.59561,0.011988020425841
8819200,0.77160550953697,0.012218606930986,0.0035960612745352,0.004311272828214,0.0043112728282365,-0.0008316394084661,0.00083164115912877,-1.4428961624244e-09,3.1862924848341e-09,-9.8796923852676e-09,1.2078874366062e-08,-0.00094884363597376,0.00094883662626034,-0.00094884210501002,0.00094883817904025,-0.00094883673045039,0.00094884386021324,-0.00094883519428434,0.00094884540276812,-0.00088724218731279,0.00088724666013372,-0.00088723764072708,0.00088725117199963,9.7107209962445e-09,-1.2439157744042e-08,2.4229594021712e-09,-4.698002101173e-09,-0.001046394002182,0.001046391739324,-0.0011735554355272,0.0011735628216613,-0.0011735577038147,0.0011735604406367,-0.0011735624013994,0.0011735554895307,-0.0011735646739712,0.0011735531103368,-0.0010676078951605,0.0010676052762844,-0.0010676147678527,0.0010675981711586,-0.0009993839507053,0.00099940091885467,-0.00099940557057706,0.00099937859341648,2.7944637464919e-09,-1.9472198335354e-09,-0.0010463924506801,0.001046393290837,-2.9382707908295e-09,3.9383981827125e-09,-0.0011735589636623,0.001173559053313,-0.0011735566640749,0.0011735612961267,-0.0011735605727061,0.0011735574985333,-0.0011735582813915,0.0011735597471666,-0.00099939301790354,0.00099939151455278,-0.00099938833306667,0.00099939612379534,0.62941992884246,131329,3014,0.0034608307781752,0.004350015817303,0.004350015817325,41.932512300481,9.5460098403851e-05,9.5460098403851e-05,9.5460098403851e-05,3587498.1244953,0.012235690480136
9019200,0.78931220548403,0.012440268878113,0.0036550854633392,0.0043925917073754,0.004392591707398,-0.00084434970172676,0.00084435145367921,-1.5213483449994e-09,3.2658928112164e-09,-1.0010197705773e-08,1.2211963866975e-08,-0.00096570690651763,0.00096569975433063,-0.00096570531994868,0.00096570136289895,-0.00096569990966048,0.00096570707952472,-0.00096569832417624,0.00096570867140482,-0.00090080501027824,0.00090080942690277,-0.00090080031849091,0.00090081408390435,9.8247874582367e-09,-1.2579783180658e-08,2.4134510814361e-09,-4.7136592731287e-09,-0.001066028925531,0.0010660266371762,-0.0011976961697568,0.0011977036146279,-0.0011976984372734,0.0011977012347801,-0.0011977032176032,0.0011976962006729,-0.0011977054958758,0.0011976938162092,-0.0010869326714579,0.0010869299585304,-0.0010869395608006,0.0010869228377985,-0.0010169978846281,0.001017015084836,-0.0010170197641049,0.0010169924989983,2.8647856136189e-09,-2.0177680103959e-09,-0.0010660273613731,0.0010660282013438,-2.9449078108673e-09,3.9447073881176e-09,-0.0011976997075639,0.0011976998366343,-0.0011976974001774,0.0011977020869568,-0.0011977013608508,0.0011976982383393,-0.0011976990682745,0.0011977004881008,-0.0010170071397602,0.0010170054927948,-0.0010170023068779,0.0010170102491132,0.62977530296705,131329,3014,0.0035137026650398,0.0044314459124249,0.0044314459124443,41.749993694308,9.3999949554463e-05,9.3999949554463e-05,9.3999949554463e-05,3593704.3682488,0.012454125444323
9219200,0.80556608339288,0.012641343761761,0.0037084868456408,0.004466428458048,0.0044664284580724,-0.00085559491180633,0.0008555966652122,-1.5967881795701e-09,3.3426126452723e-09,-1.0115455642009e-08,1.2319897166775e-08,-0.00098081938122462,0.00098081210838134,-0.00098081774396182,0.00098081376776583,-0.0009808123132122,0.00098081950472857,-0.00098081067674074,0.0009808211476168,-0.00091272714273797,0.00091273148151584,-0.00091272230102143,0.00091273628894651,9.9149335614278e-09,-1.2696973914129e-08,2.4032469225132e-09,-4.7291561909567e-09,-0.0010836333661813,0.0010836310518023,-0.0012194884205185,0.0012194959104878,-0.001219490690013,0.0012194935289252,-0.0012194955376056,0.0012194884272352,-0.0012194978178982,0.0012194860411384,-0.0011042125253054,0.0011042097218926,-0.0011042194199987,0.0011042025970932,-0.0010326344995404,0.0010326518751318,-0.0010326565825431,0.0010326290854421,2.9380837692635e-09,-2.09122796348e-09,-0.0010836317890637,0.0010836326289342,-2.9489635343942e-09,3.9485400759287e-09,-0.0012194919578503,0.0012194921329276,-0.001219489647497,0.0012194943858933,-0.0012194936602412,0.0012194904861162,-0.0012194913647774,0.0012194927386355,-0.0010326439128479,0.001032642124778,-0.0010326389358902,0.0010326470241603,0.62300580460576,131329,3014,0.003560483178695,0.0045044491903797,0.0045044491904085,41.452108853019,9.1616870824153e-05,9.1616870824153e-05,9.1616870824153e-05,3598273.753322,0.012649370508514
9419200,0.82047621341483,0.012823626150366,0.0037567901668861,0.0045334179917279,0.0045334179917519,-0.00086569699966622,0.00086569875261583,-1.6696082083212e-09,3.4148514667788e-09,-1.016246485541e-08,1.2367230790912e-08,-0.00099448296266034,0.00099447561013219,-0.00099448127790079,0.00099447731709292,-0.00099447586398226,0.00099448303698541,-0.00099447417786161,0.00099448472960761,-0.00092340385283125,0.00092340807680852,-0.00092339886551612,0.00092341302996422,9.9524275848037e-09,-1.2757603784491e-08,2.3949906618681e-09,-4.7431080722939e-09,-0.0010995627697427,0.001099560432946,-0.0012392796764257,0.0012392871796405,-0.0012392819489234,0.0012392847952731,-0.0012392868273992,0.0012392796626644,-0.0012392891087686,0.0012392772758782,-0.0011198008349021,0.0011197979782689,-0.0011198077317596,0.0011197908518229,-0.0010466949401337,0.0010467123843115,-0.0010467171162186,0.0010466895013084,3.0148916213364e-09,-2.1682601384058e-09,-0.0010995611814961,0.0010995620212033,-2.9503054055186e-09,3.9496168552691e-09,-0.0012392831949392,0.0012392834209555,-0.0012392808844077,0.0012392856737697,-0.0012392849496271,0.0012392817223912,-0.0012392826520935,0.0012392839769085,-0.0010467044612767,0.0010467025264481,-0.0010466993364592,0.0010467075726583,0.61620824271963,131329,3014,0.0036025091334726,0.0045705017561505,0.0045705017561716,41.151336237419,8.9210689899353e-05,8.9210689899353e-05,8.9210689899353e-05,3603665.9011209,0.012825755867722
9619200,0.83414870564973,0.012988770460985,0.0038004611752904,0.0045941546428351,0.0045941546428598,-0.00087476840675916,0.00087477015750042,-1.7454584660891e-09,3.488394222951e-09,-1.0171775862465e-08,1.2374725947646e-08,-0.0010068512021832,0.001006843791905,-0.001006849467624,0.0010068455487376,-0.0010068440976948,0.0010068512243694,-0.0010068423617774,0.0010068529668548,-0.00093295250032815,0.00093295658133598,-0.00093294736682778,0.00093296168090465,9.9511998036265e-09,-1.2774630781789e-08,2.3871820951939e-09,-4.7531328047616e-09,-0.001113975767052,0.001113973412252,-0.0012572570753526,0.0012572645668149,-0.0012572593487292,0.0012572621817301,-0.0012572642319641,0.0012572570445624,-0.0012572665143307,0.001257254657096,-0.0011338649449094,0.0011338620669592,-0.0011338718438868,0.001133854938795,-0.0010593457042303,0.0010593631448656,-0.0010593678957308,0.0010593402465232,3.0894596765393e-09,-2.2430447757571e-09,-0.0011139741698874,0.001113975009428,-2.9515537245303e-09,3.9506007172128e-09,-0.0012572605636721,0.001257260838463,-0.0012572582521472,0.0012572630920008,-0.0012572623683116,0.0012572590904206,-0.0012572600699449,0.0012572613457399,-0.001059355296569,0.0010593532161872,-0.0010593500251321,0.001059358408,0.60938040800754,131329,3014,0.0036402482678917,0.0046302625693198,0.0046302625693422,40.850455138505,8.6803641108041e-05,8.6803641108041e-05,8.6803641108041e-05,3608545.5428102,0.012985080346412
9819200,0.84644810916394,0.013138284725664,0.0038400733186909,0.0046491057034743,0.0046491057034992,-0.00088220223493782,0.00088220398536547,-1.8074561866601e-09,3.5502347449714e-09,-1.0224729823111e-08,1.2428395931741e-08,-0.001017239638962,0.0010172321623243,-0.0010172378744516,0.0010172339491816,-0.0010172325104187,0.0010172396192778,-0.0010172307210288,0.0010172414152902,-0.00094082549572138,0.00094082945628966,-0.00094082020531283,0.00094083471051248,1.0022631273931e-08,-1.2868484056337e-08,2.3794701308434e-09,-4.7667157367334e-09,-0.0011261750734356,0.0011261726971239,-0.0012726467217164,0.0012726542600852,-0.0012726490089896,0.0012726518613623,-0.0012726539447932,0.0012726466713661,-0.0012726562174434,0.0012726442939839,-0.0011458002156097,0.0011457972303333,-0.0011458070823142,0.0011457901331543,-0.0010699756454183,0.0010699931897079,-0.0010699979615897,0.0010699701627501,3.1765558478699e-09,-2.330690795996e-09,-0.001126173465782,0.0011261743047916,-2.946668936669e-09,3.945167897417e-09,-0.0012726501971823,0.0012726505445617,-0.0012726479007422,0.0012726527829582,-0.0012726520716605,0.0012726487271835,-0.0012726497646375,0.0012726509909522,-0.0010699853601055,0.0010699831381158,-0.0010699799527149,0.0010699884670198,0.61213711395856,131329,3014,0.0036711797680416,0.0046808416021661,0.0046808416021943,40.184077144764,8.1472617158115e-05,8.1472617158115e-05,8.1472617158115e-05,3605284.947705,0.013118924898654
10019200,0.85750378588061,0.013273790064573,0.0038760730668141,0.0046988584988669,0.0046988584988922,-0.00088871021940844,0.00088871196843296,-1.8913123574704e-09,3.6325100075186e-09,-1.0252373267652e-08,1.2455059881029e-08,-0.0010263800756648,0.0010263725177366,-0.0010263782484146,0.0010263743672698,-0.0010263729217846,0.0010263799998898,-0.001026371085815,0.0010263818425716,-0.00094778405084815,0.0009477878899512,-0.00094777862367646,0.00094779328322397,1.0021504929852e-08,-1.2883526721435e-08,2.3665802890824e-09,-4.7695983133624e-09,-0.0011369352468641,0.0011369328545323,-0.0012862511572733,0.0012862586744646,-0.001286253433839,0.001286256286723,-0.0012862583786425,0.001286251088108,-0.0012862606560652,0.0012862487059918,-0.001156385256551,0.001156382265766,-0.0011563921390898,0.0011563751538937,-0.0010793703789058,0.0010793879467195,-0.0010793927326336,0.0010793648833886,3.2424227936799e-09,-2.396974105557e-09,-0.0011369336313124,0.0011369344700983,-2.9471583804227e-09,3.9450821095084e-09,-0.001286254603927,0.0012862549879765,-0.0012862522996149,0.0012862572340575,-0.0012862565155931,0.0012862531339394,-0.0012862542163223,0.0012862553898273,-0.0010793801810601,0.0010793778075922,-0.0010793746211116,0.0010793832876817,0.61574677292686,131329,3014,0.003698260612459,0.004725451273147,0.0047254512731756,39.479895319266,7.5839162554129e-05,7.5839162554129e-05,7.5839162554129e-05,3598773.9208703,0.01323678569723
10219200,0.86745511797128,0.013396927416207,0.0039088888709528,0.0047440192726145,0.00474401927264,-0.00089447277527854,0.00089447452052692,-1.9683189970587e-09,3.7056944112559e-09,-1.0224986370391e-08,1.2423796581572e-08,-0.001034462963326,0.0010344553715392,-0.0010344610863541,0.0010344572709367,-0.0010344558291523,0.0010344628337973,-0.0010344539430261,0.0010344647266255,-0.00095401692273005,0.00095402059235479,-0.00095401134934172,0.00095402613210509,9.9853473696945e-09,-1.2857802057776e-08,2.3579553410673e-09,-4.7714107802865e-09,-0.0011464836336593,0.0011464812308831,-0.0012983455012158,0.001298352986063,-0.0012983477760718,0.0012983506003007,-0.0012983527032069,0.0012983454198018,-0.001298354978207,0.001298343040203,-0.0011658436770445,0.0011658406901984,-0.0011658505537999,0.0011658335842908,-0.0010877336413572,0.0010877511406444,-0.0010877559353575,0.0010877281376775,3.3163250593106e-09,-2.471283839328e-09,-0.0011464820130814,0.0011464828514778,-2.9443103855447e-09,3.9417548409483e-09,-0.0012983489060268,0.0012983493416743,-0.0012983466040749,0.0012983515853708,-0.0012983508678435,0.0012983474379676,-0.0012983485702712,0.0012983496920317,-0.0010877434833349,0.0010877409619105,-0.0010877377772946,0.0010877465872519,0.62007023226522,131329,3014,0.0037222408408022,0.0047650347493647,0.0047650347493984,38.77469726599,7.0197578127918e-05,7.0197578127918e-05,7.0197578127918e-05,3590904.4156701,0.013341328865017
10419200,0.87644014432756,0.013509288729143,0.0039389347395696,0.0047851769947739,0.0047851769947992,-0.00089964858957003,0.00089965032815804,-2.047418537975e-09,3.7780983520123e-09,-1.0143566685295e-08,1.2334987874999e-08,-0.0010416811088827,0.0010416735157318,-0.0010416791803758,0.0010416754667094,-0.0010416740300327,0.0010416809221247,-0.0010416720945252,0.0010416828643203,-0.00095968389113303,0.0009596873524285,-0.00095967817276537,0.00095969303713428,9.8940702347098e-09,-1.2768741377907e-08,2.3520797978786e-09,-4.768571547018e-09,-0.0011550473531884,0.0011550449475325,-0.0013091837246904,0.0013091911431422,-0.001309185995742,0.0013091887613248,-0.0013091908663492,0.0013091836380514,-0.0013091931396984,0.0013091812602656,-0.0011743938190034,0.0011743908836132,-0.001174400690356,0.0011743837825945,-0.0010952696565852,0.0010952869817791,-0.0010952917772842,0.0010952641536379,3.3895909572053e-09,-2.5448702457844e-09,-0.0011550457313697,0.0011550465693675,-2.9407766031463e-09,3.9378707366344e-09,-0.0013091870715513,0.0013091875570711,-0.0013091847709644,0.0013091897993392,-0.0013091890814242,0.0013091856055409,-0.0013091867874047,0.0013091878561051,-0.0010952794866733,0.0010952768155122,-0.0010952736330146,0.0010952825875691,0.62506143106366,131329,3014,0.0037437803298981,0.0048005342853005,0.0048005342853334,38.099654719904,6.4797237759235e-05,6.4797237759235e-05,6.4797237759235e-05,3581370.488777,0.013435129323228
10619200,0.88482905717452,0.013612134752127,0.0039663684387911,0.0048228831566556,0.00482288315668,-0.00090539879112298,0.00090540051267147,-2.1330792154824e-09,3.8469175143988e-09,-9.8523949870373e-09,1.2024061300916e-08,-0.0010493698540886,0.0010493623893502,-0.001049367870151,0.0010493643958048,-0.0010493629709148,0.0010493695985188,-0.001049360987963,0.0010493715881937,-0.00096588424726915,0.00096588735197039,-0.00096587838990889,0.00096589317612679,9.5885454164585e-09,-1.2441066249437e-08,2.3576949370813e-09,-4.7549996347701e-09,-0.001164003877504,0.001164001491153,-0.0013202826897392,0.0013202899102533,-0.0013202849543594,0.0013202875350888,-0.0013202896181046,0.0013202826204759,-0.0013202918929739,0.0013202802413984,-0.0011833109520713,0.001183308252007,-0.0011833178287156,0.0011833011464469,-0.0011032495066237,0.0011032662441551,-0.0011032710184978,0.0011032440283949,3.4612541402972e-09,-2.6171532478236e-09,-0.0011640022656125,0.0011640031030569,-2.9384341862938e-09,3.934821572696e-09,-0.0013202859154869,0.0013202864463418,-0.00132028361269,0.0013202886908199,-0.0013202879694582,0.0013202844507668,-0.0013202856812703,0.0013202866956906,-0.0011032591216567,0.0011032562950093,-0.0011032531146941,0.0011032622199614,0.61395112853299,131329,3014,0.0037677030120546,0.0048376609952932,0.0048376609953182,38.029469267482,6.4235754139858e-05,6.4235754139858e-05,6.4235754139858e-05,3580491.7172411,0.013534652225911
10819200,0.8926635556853,0.013706431761068,0.0039914495660184,0.0048574910975124,0.0048574910975369,-0.00091070370930934,0.00091070541210362,-2.2146626720168e-09,3.9099901370147e-09,-9.5617131427563e-09,1.1711688340578e-08,-0.0010564905640579,0.0010564832360989,-0.0010564885351641,0.0010564852875255,-0.0010564838834129,0.0010564902409825,-0.0010564818486552,0.0010564922824816,-0.00097156529956927,0.00097156803290695,-0.00097155928973714,0.00097157400940634,9.314405146399e-09,-1.214002703011e-08,2.3662912278804e-09,-4.7396080032444e-09,-0.0011722875597288,0.0011722851975842,-0.0013305760099974,0.0013305830641127,-0.0013305782759436,0.0013305806877588,-0.0013305827513839,0.0013305759633822,-0.0013305850206401,0.0013305735901244,-0.0011915055796625,0.0011915030775439,-0.0011915124385451,0.0011914959898106,-0.0011105857861991,0.0011106019752993,-0.0011106067238652,0.0011105803372764,3.5378250305208e-09,-2.6943571237099e-09,-0.0011722859602582,0.0011722867970685,-2.9343802428743e-09,3.9300462414027e-09,-0.001330579124667,0.0013305797123787,-0.0013305768282548,0.0013305819505079,-0.0013305812332085,0.0013305776621564,-0.0013305789445116,0.0013305799077863,-0.0011105951999661,0.001110592229308,-0.0011105890526996,0.0011105982947194,0.60386754246424,131329,3014,0.0037897731105635,0.0048719973004837,0.0048719973005112,37.973658944369,6.3789271554953e-05,6.3789271554953e-05,6.3789271554953e-05,3582719.7483954,0.01362664878433
11019200,0.89997693491896,0.013792710502808,0.0040143267409138,0.0048891918809349,0.0048891918809594,-0.00091556291913527,0.00091556460402208,-2.2981211312416e-09,3.9757745294643e-09,-9.3150750337048e-09,1.1444407703671e-08,-0.0010630503412264,0.0010630431167509,-0.0010630482625504,0.0010630452179868,-0.0010630438303064,0.0010630499501348,-0.0010630417458136,0.0010630520413901,-0.00097673772128727,0.00097674011958311,-0.0009767315651964,0.00097674624251289,9.0722952298901e-09,-1.1868835661685e-08,2.3751571714565e-09,-4.7221765676468e-09,-0.0011799114554963,0.0011799091198241,-0.0013401000828519,0.0013401069896562,-0.0013401023460438,0.0013401046162107,-0.001340106654694,0.0013401000605933,-0.001340108921272,0.0013400976901863,-0.0011989982281142,0.0011989959149538,-0.0011990050786538,0.0011989888359057,-0.0011172896535584,0.0011173053675974,-0.0011173100875358,0.0011172842368651,3.6120342235398e-09,-2.7692997256767e-09,-0.0011799098696156,0.0011799107057186,-2.9305769857082e-09,3.9254132642311e-09,-0.0013401030985699,0.0013401037379911,-0.0013401008049362,0.0013401059734079,-0.0013401052567061,0.0013401016381107,-0.0013401029709042,0.0013401038810112,-0.0011172989052623,0.0011172957853576,-0.0011172926124846,0.0011173019966575,0.59320720175554,131329,3014,0.0038099888948316,0.0049035977176563,0.0049035977176842,37.918382184065,6.3347057472522e-05,6.3347057472522e-05,6.3347057472522e-05,3586975.0473479,0.01371122577037
11219200,0.90679169703375,0.013873078443473,0.0040356569251452,0.0049187107591514,0.004918710759176,-0.00092002621998156,0.00092002788973533,-2.3802447963318e-09,4.0429859996412e-09,-9.1417180291717e-09,1.1253754691637e-08,-0.0010690867177088,0.0010690795495723,-0.0010690845893458,0.0010690817005198,-0.0010690803268158,0.0010690862614023,-0.0010690781924441,0.0010690884025443,-0.00098150421862881,0.00098150633458641,-0.000981497916226,0.00098151260403915,8.9038124943109e-09,-1.1674588543212e-08,2.3823563494508e-09,-4.7057493780872e-09,-0.0011869363282126,0.0011869340162495,-0.001348897729943,0.001348904536918,-0.0013488999903077,0.0013489021664678,-0.0013489041825516,0.0013488977289869,-0.0013489064461131,0.0013488953617737,-0.0012059109300803,0.0012059087521641,-0.0012059177715464,0.0012059016826777,-0.0011234523591252,0.0011234677436934,-0.0011234724373686,0.001123446971732,3.6861281655501e-09,-2.8442193155817e-09,-0.0011869347545795,0.0011869355898962,-2.9265581702156e-09,3.9204534913075e-09,-0.0013489006702631,0.0013489013616728,-0.0013488983797209,0.0013489035940447,-0.0013489028781383,0.0013488992120123,-0.0013489005952598,0.0013489014520874,-0.0011234615216018,0.0011234582521875,-0.0011234550832955,0.0011234646092664,0.59263236705714,131329,3014,0.0038285571411933,0.0049327145125517,0.004932714512579,37.837580918846,6.2700647350772e-05,6.2700647350772e-05,6.2700647350772e-05,3590572.7728154,0.013789102112661
11419200,0.91309783966326,0.013948038488707,0.0040556000456227,0.0049462192215299,0.0049462192215547,-0.000923933730655,0.00092393539099116,-2.4596991005279e-09,4.1131055743598e-09,-9.0854889946654e-09,1.118696312122e-08,-0.0010744375971202,0.0010744304092056,-0.0010744354174178,0.0010744326115061,-0.0010744312448175,0.0010744370813342,-0.0010744290620579,0.001074439270857,-0.00098571755770936,0.00098571948168774,-0.00098571111366234,0.00098572589331656,8.8425453215106e-09,-1.1596808167066e-08,2.3852522374402e-09,-4.6932430251138e-09,-0.0011931925887374,0.0011931902922036,-0.0013567909117607,0.0013567976836732,-0.001356793167592,0.0013567953179128,-0.0013567973179185,0.001356790923514,-0.0013567995798621,0.0013567885580605,-0.0012120962988795,0.0012120941778555,-0.0012121031359382,0.0012120871133203,-0.0011289282723297,0.0011289435436216,-0.0011289482193825,0.0011289229053991,3.7600578454609e-09,-2.9189905509012e-09,-0.0011931910232259,0.001193191857728,-2.9218970595799e-09,3.914803031484e-09,-0.0013567938095576,0.0013567945516646,-0.001356791520941,0.0013567967820791,-0.0013567960655519,0.0013567923539102,-0.0013567937875757,0.0013567945891587,-0.0011289374558836,0.0011289340323454,-0.0011289308672917,0.0011289405392417,0.5962623855922,131329,3014,0.0038448149019549,0.0049586447217694,0.0049586447217955,37.630512613732,6.1044100909857e-05,6.1044100909857e-05,6.1044100909857e-05,3590550.717747,0.013858179025817
11619200,0.9189335722785,0.014017799856265,0.0040741969857769,0.0049718014352317,0.0049718014352568,-0.00092752724119611,0.00092752889505925,-2.5374390396556e-09,4.1844794727892e-09,-9.0748869766086e-09,1.1169316451814e-08,-0.0010793520899667,0.0010793448559612,-0.0010793498617515,0.0010793471067948,-0.0010793457471808,0.0010793515177127,-0.0010793435135006,0.001079353758185,-0.00098962203322711,0.00098962379214485,-0.00098961543952041,0.00098963035328511,8.8393445783698e-09,-1.1583270926374e-08,2.3851152664812e-09,-4.6832680334325e-09,-0.0011989486533745,0.0011989463666899,-0.001364052744467,0.001364059518681,-0.0013640549982735,0.0013640571551167,-0.0013640591470322,0.0013640527630722,-0.0013640614045339,0.0013640504021837,-0.001217817668084,0.0012178155485519,-0.0012178244913766,0.0012178084978886,-0.0011339802258875,0.0011339954904992,-0.0011340001531631,0.0011339748731381,3.8341889900994e-09,-2.9939923595298e-09,-0.0011989470932167,0.0011989479268604,-2.9177482160007e-09,3.9097080530145e-09,-0.001364055617102,0.0013640564123686,-0.001364053332761,0.0013640586385258,-0.0013640579240202,0.0013640541637415,-0.0013640556478942,0.0013640563970932,-0.0011339894796917,0.0011339859096142,-0.0011339827486207,0.0011339925589667,0.59873359520236,131329,3014,0.0038597668653667,0.0049825009823795,0.004982500982405,37.420438016237,5.9363504129895e-05,5.9363504129895e-05,5.9363504129895e-05,3588601.0034221,0.013921730009403
11819200,0.92433532602802,0.01408286205944,0.0040915813709324,0.0049956403442412,0.0049956403442666,-0.00093084335419183,0.00093084500401369,-2.6141022977045e-09,4.2571259981641e-09,-9.099447581446e-09,1.1189613060914e-08,-0.0010838710595033,0.0010838637563654,-0.0010838687814216,0.0010838660570732,-0.0010838647009825,0.0010838704332576,-0.001083862417608,0.0010838727234429,-0.00099325149877975,0.00099325312274886,-0.00099324475911396,0.00099325982993894,8.8644978973603e-09,-1.1602580668669e-08,2.3833117296446e-09,-4.6757679379596e-09,-0.001204254720707,0.0012042524397287,-0.0013707356829933,0.0013707424748269,-0.0013707379337322,0.0013707401144658,-0.0013707421009952,0.0013707357045399,-0.0013707443555853,0.001370733346662,-0.0012231222079517,0.0012231200702566,-0.0012231290223982,0.0012231130285891,-0.0011386531856559,0.001138668502809,-0.0011386731569681,0.001138647842396,3.9082126109051e-09,-3.0688784689282e-09,-0.0012042531638272,0.0012042539966222,-2.9136328382227e-09,3.9046490250055e-09,-0.0013707385387681,0.0013707393857694,-0.0013707362573668,0.001370741608957,-0.0013707408952727,0.0013707370876519,-0.0013707386222772,0.001370739317876,-0.0011386625409593,0.0011386588210225,-0.001138655663785,0.0011386656161727,0.60218092659478,131329,3014,0.0038735651341677,0.0050044914723436,0.0050044914723712,37.210251822128,5.7682014577024e-05,5.7682014577024e-05,5.7682014577024e-05,3585316.5625109,0.013980330386255
12019200,0.92934420660753,0.014145239314028,0.0041083673503587,0.005018435981822,0.0050184359818476,-0.00093403081422028,0.00093403246257733,-2.6894482738778e-09,4.3309829085333e-09,-9.1613339045966e-09,1.1250234472295e-08,-0.0010881374559774,0.0010881300604268,-0.0010881351279845,0.0010881324110726,-0.0010881310560037,0.001088136778426,-0.0010881287230703,0.001088139118198,-0.00099680371881368,0.00099680523670958,-0.00099679683364468,0.00099681208941138,8.9247912743669e-09,-1.1662324385937e-08,2.3797403449709e-09,-4.6713898093477e-09,-0.001209284674083,0.0012092823939148,-0.0013770042306295,0.0013770110608141,-0.0013770064786618,0.0013770087032892,-0.0013770106890187,0.0013770042506028,-0.0013770129412287,0.0013770018952093,-0.0012282341860313,0.0012282320016733,-0.001228240993203,0.001228224967203,-0.0011431435734717,0.0011431590124515,-0.0011431636634278,0.0011431382339188,3.9823274521593e-09,-3.1437659692841e-09,-0.0012092831179937,0.0012092839500185,-2.9100508966779e-09,3.9002417724087e-09,-0.001377007080032,0.0013770079783741,-0.0013770048010761,0.0013770101990555,-0.0013770094860934,0.0013770056308363,-0.0013770072158932,0.0013770078582255,-0.0011431530648143,0.0011431491950345,-0.0011431460409066,0.001143156136369,0.61929850684136,131329,3014,0.0038868277133849,0.0050253370467149,0.0050253370467441,37.027897021065,5.6223176168524e-05,5.6223176168524e-05,5.6223176168524e-05,3579206.9055969,0.014036067811582
12219200,0.93400678757064,0.014205365178925,0.0041246567056022,0.0050403542366485,0.0050403542366741,-0.00093718729410515,0.00093718894239512,-2.763800290063e-09,4.4052241974541e-09,-9.2383231472752e-09,1.132758725325e-08,-0.0010922957288349,0.0010922882313754,-0.0010922933506067,0.0010922906322828,-0.0010922892764753,0.0010922950015861,-0.0010922868946989,0.0010922973902109,-0.0010003792012535,0.001000380627197,-0.00100037217281,0.0010003876232338,8.9942131135595e-09,-1.1734166180954e-08,2.375935466438e-09,-4.6695566182671e-09,-0.0012141678172412,0.0012141655350539,-0.001383012198831,0.0013830190717447,-0.0013830144443287,0.0013830167168556,-0.0013830187040018,0.0013830122150034,-0.0013830209551246,0.0013830098607671,-0.0012332864178285,0.0012332841808457,-0.0012332932216705,0.001233277149817,-0.0011475825466159,0.0011475981260519,-0.0011476027773187,0.001147577206924,4.0567891952865e-09,-3.2189336360811e-09,-0.001214166260494,0.0012141670918172,-2.9071657127007e-09,3.8965835815169e-09,-0.0013830150443677,0.0013830159933171,-0.0013830127668019,0.0013830182125472,-0.0013830174996097,0.0013830135967017,-0.0013830152322626,0.0013830158211758,-0.0011475921840548,0.0011475881627888,-0.0011475850112445,0.0011475952524798,0.63789981401504,131329,3014,0.0038999617501696,0.0050455733784538,0.0050455733784864,36.914255965851,5.5314047726807e-05,5.5314047726807e-05,5.5314047726807e-05,3569886.0453069,0.014090442182256
12419200,0.93834747176676,0.014259393923645,0.0041392038273166,0.0050600950481512,0.0050600950481767,-0.00094002299963639,0.0009400246489767,-2.8382003573391e-09,4.4806132591935e-09,-9.3222706180611e-09,1.141315311136e-08,-0.0010961317217014,0.0010961241190935,-0.0010961292940821,0.0010961265694171,-0.0010961252130426,0.0010961309455343,-0.0010961227808174,0.0010961333846317,-0.0010035526641481,0.0010035539994577,-0.0010035454874558,0.0010035611438438,9.0811609098083e-09,-1.1826623417203e-08,2.3707130071198e-09,-4.66916120292e-09,-0.0012186115684954,0.0012186092814092,-0.0013885496530399,0.0013885565796555,-0.0013885518973011,0.0013885542261295,-0.0013885562186912,0.001388549662566,-0.001388558467508,0.0013885473107311,-0.0012378388927718,0.0012378365838496,-0.0012378456895113,0.0012378295600839,-0.0011516051028552,0.0011516208538726,-0.0011516255082604,0.0011515997598795,4.1306721338605e-09,-3.2934541841766e-09,-0.0012186100096081,0.0012186108403116,-2.9051948572913e-09,3.8939084061534e-09,-0.0013885524999985,0.0013885534998832,-0.0013885502244362,0.0013885557169952,-0.0013885550053184,0.0013885510533558,-0.0013885527389574,0.0013885532768029,-0.0011516148990967,0.0011516107319636,-0.0011516075823408,0.0011516179650992,0.61826606764537,131329,3014,0.0039117641341106,0.0050639877055327,0.0050639877055632,36.802254100902,5.4418032807215e-05,5.4418032807215e-05,5.4418032807215e-05,3561706.6959252,0.014139774253163
12619200,0.94238865977721,0.014306830022148,0.00415184650101,0.0050774917605565,0.005077491760582,-0.00094252962762402,0.00094253127862227,-2.9120656385407e-09,4.5560776255148e-09,-9.4111455851389e-09,1.1504361443067e-08,-0.0010995831500895,0.0010995754392091,-0.0010995806727754,0.0010995779392425,-0.0010995765813439,0.0010995823257604,-0.0010995740992578,0.001099584814732,-0.0010062758562505,0.00100627710685,-0.0010062685332201,0.0010062843977656,9.1680814885466e-09,-1.1920555047152e-08,2.3653529367923e-09,-4.6700476987064e-09,-0.001222595578213,0.0012225932847692,-0.001393573055935,0.0013935800351981,-0.0013935752988834,0.0013935776830862,-0.001393579682037,0.0013935730576699,-0.0013935819293663,0.00139357070741,-0.0012418163475917,0.0012418139673943,-0.0012418231398087,0.0012418069484165,-0.0011551412067935,0.0011551571301638,-0.0011551617894362,0.001155135858596,4.2047873292804e-09,-3.3681796780699e-09,-0.0012225940164365,0.00122259484656,-2.903388053635e-09,3.8914311708901e-09,-0.0013935759039333,0.0013935769543832,-0.0013935736298338,0.0013935791699638,-0.0013935784590485,0.0013935744582488,-0.0013935761939769,0.001393576680327,-0.0011551511629728,0.0011551468483072,-0.0011551437005275,0.0011551542267414,0.58731202472662,131329,3014,0.0039221967364141,0.0050804967332951,0.0050804967333241,36.690313075256,5.3522504602051e-05,5.3522504602051e-05,5.3522504602051e-05,3559480.9180985,0.014183853407873
12819200,0.94611718214071,0.0143509893395,0.0041636531110969,0.0050936681141887,0.0050936681142142,-0.00094454652491453,0.00094454817723692,-2.9853279861028e-09,4.6305092965901e-09,-9.542520907066e-09,1.1638111959698e-08,-0.001102401473118,0.0011023936247864,-0.0011023989456185,0.0011023961749946,-0.0011023948151744,0.0011024006007275,-0.0011023922847209,0.0011024031380562,-0.0010084811385375,0.0010084823369806,-0.0010084736739648,0.0010084897699513,9.2867979989533e-09,-1.2051064248083e-08,2.358320800775e-09,-4.6736170166402e-09,-0.0012259347540683,0.0012259324498419,-0.0013978260957932,0.0013978331455784,-0.001397828336755,0.0013978307955623,-0.0013978328043281,0.0013978260856937,-0.0013978350514678,0.0013978237356956,-0.0012451395175493,0.0012451370430881,-0.001245146309572,0.0012451300248852,-0.0011580543351905,0.0011580704963935,-0.0011580751654217,0.0011580489769099,4.2796472298913e-09,-3.4436777810076e-09,-0.0012259331871947,0.0012259340167288,-2.901183497718e-09,3.8884807847871e-09,-0.0013978289538308,0.0013978300546132,-0.0013978266804486,0.0013978322693554,-0.0013978315583753,0.0013978275095403,-0.0013978292958645,0.0013978297289919,-0.0011580644865436,0.0011580600196155,-0.0011580568735662,0.001158067547529,0.59134553807177,131329,3014,0.0039305909330404,0.0050943339044165,0.0050943339044433,36.406822868004,5.1254582944032e-05,5.1254582944032e-05,5.1254582944032e-05,3558259.0747948,0.014220444238713
13019200,0.94951414791637,0.014391381772014,0.0041744729605521,0.0051084544057181,0.0051084544057438,-0.00094589602574729,0.00094589768247707,-3.0634772888129e-09,4.7131139848971e-09,-9.6799065943216e-09,1.178136274322e-08,-0.0011044662318939,0.0011044582446437,-0.0011044636559103,0.0011044608433648,-0.0011044594844705,0.0011044653104183,-0.0011044568957144,0.0011044679060661,-0.0010099946569959,0.0010099957812466,-0.0010099870193711,0.0010100033859142,9.4713642181725e-09,-1.2253997023391e-08,2.3436462695746e-09,-4.6755232245762e-09,-0.0012284486597677,0.0012284463388188,-0.001401162311524,0.001401169473747,-0.001401164553371,0.001401167122937,-0.001401169152818,0.0014011622803794,-0.0014011713910476,0.0014011599394953,-0.0012476446399137,0.0012476419916278,-0.0012476514036754,0.0012476350016533,-0.0011601914976341,0.0011602080121228,-0.0011602126922536,0.0011601861249333,4.3478508941985e-09,-3.5124693019445e-09,-0.0012284470848307,0.0012284479137693,-2.9015876044022e-09,3.8883521004242e-09,-0.0014011652004352,0.0014011663515344,-0.0014011629320088,0.0014011685613408,-0.0014011678559369,0.0014011637558454,-0.0014011655883462,0.0014011659800293,-0.0011602018852501,0.00116019729764,-0.001160194153897,0.0011602049455414,0.59302696888738,131329,3014,0.0039362120928615,0.0051047507147435,0.0051047507147707,35.87405767015,4.6992461361198e-05,4.6992461361198e-05,4.6992461361198e-05,3553175.6544331,0.014247284616392
13219200,0.95261261287749,0.01442840359039,0.004184413020349,0.0051219952850072,0.0051219952850332,-0.00094704118561304,0.00094704284628418,-3.1379935192167e-09,4.791390889709e-09,-9.8033181625065e-09,1.1909816649394e-08,-0.001106255797148,0.0011062476833542,-0.0011062531745944,0.001106250328661,-0.0011062489704307,0.0011062548287134,-0.0011062463263689,0.0011062574796988,-0.0010112980136263,0.0010112990628038,-0.0010112902138186,0.0010113068307328,9.599426963604e-09,-1.2397495302896e-08,2.3335773739748e-09,-4.6795706336182e-09,-0.0012306401987652,0.0012306378635691,-0.0014040953612165,0.0014041026020425,-0.0014040976054755,0.0014041002488357,-0.0014041022970418,0.001404095313719,-0.0014041045289225,0.0014040929793016,-0.0012498408912103,0.0012498381187341,-0.0012498476359944,0.0012498311485193,-0.0011620506027233,0.0011620673581101,-0.0011620720512583,0.0011620452171148,4.4200557715067e-09,-3.5851998961336e-09,-0.0012306386169452,0.0012306394454036,-2.8998743566819e-09,3.8860271003925e-09,-0.0014040982624365,0.0014040994671014,-0.0014040959998168,0.0014041016712948,-0.0014041009710325,0.001404096818946,-0.0014040987000916,0.0014040990459842,-0.0011620611755917,0.0011620564579557,-0.0011620533153223,0.001162064234354,0.5951240379779,131329,3014,0.0039409833073316,0.0051138315592386,0.005113831559268,35.33532673741,4.2682613899277e-05,4.2682613899277e-05,4.2682613899277e-05,3547211.5697975,0.01427055283103
13419200,0.95544295833907,0.014461651144756,0.0041933231427589,0.0051341640009854,0.0051341640010116,-0.00094797927480689,0.00094798093924989,-3.2058434445657e-09,4.8628746293122e-09,-9.9157404910521e-09,1.2027028792232e-08,-0.0011077912923512,0.0011077830549751,-0.0011077886180619,0.0011077857520151,-0.0011077843852723,0.001107790281031,-0.0011077816995377,0.0011077929737182,-0.0010123636729341,0.001012364681267,-0.0010123557527797,0.0010123725697603,9.6689186519522e-09,-1.2478601224614e-08,2.3284398675375e-09,-4.6852361541415e-09,-0.0012325192934443,0.0012325169473871,-0.0014066608089633,0.0014066680850794,-0.0014066630481278,0.0014066657370336,-0.0014066677906695,0.0014066607507687,-0.0014066700278179,0.0014066584110741,-0.0012517098244839,0.0012517070079717,-0.0012517165862702,0.0012517000205622,-0.0011636248914813,0.0011636417991193,-0.001163646503507,0.0011636194944112,4.4989901035876e-09,-3.6646977240001e-09,-0.0012325177064762,0.0012325185343694,-2.8959802126453e-09,3.881500862313e-09,-0.0014066637030309,0.0014066649571617,-0.0014066614378225,0.0014066671637901,-0.0014066664590972,0.0014066622617364,-0.0014066641960978,0.0014066644809396,-0.0011636356276123,0.001163630735937,-0.0011636275956726,0.001163638682548,0.58608287707342,131329,3014,0.0039448935269681,0.0051216175200544,0.0051216175200829,34.796374456617,3.8370995652938e-05,3.8370995652938e-05,3.8370995652938e-05,3541440.8757541,0.014290321083028
13619200,0.958045978606,0.014491818537599,0.004201399683063,0.0051452094272547,0.0051452094272809,-0.00094892932044986,0.00094893098504134,-3.2737497718681e-09,4.9308054038972e-09,-9.9476959447467e-09,1.2059361576811e-08,-0.001109281126473,0.0011092728165627,-0.0011092784000322,0.0011092755657589,-0.0011092741922427,0.0011092800697722,-0.0011092714675956,0.0011092828013828,-0.0010134212904745,0.0010134222076038,-0.0010134132580833,0.0010134302089356,9.6521618578906e-09,-1.2465264832488e-08,2.3294933822012e-09,-4.6897628681939e-09,-0.0012343287009446,0.0012343263514122,-0.0014090993638783,0.0014091066230252,-0.0014091015982815,0.0014091042798065,-0.0014091063304617,0.0014090993041473,-0.0014091085758645,0.0014090969561668,-0.001253496115136,0.0012534933312825,-0.0012535029033306,0.0012534863171946,-0.0011651452783856,0.0011651621716737,-0.001165166882013,0.0011651398763688,4.5797648541509e-09,-3.7458912482995e-09,-0.0012343271124486,0.0012343279399223,-2.8926452339972e-09,3.8776521490062e-09,-0.0014091022250502,0.0014091035280912,-0.0014090999555056,0.0014091057389423,-0.0014091050283234,0.0014091007856006,-0.0014091027741716,0.0014091029960826,-0.0011651560983152,0.0011651510255423,-0.0011651478865043,0.0011651591500812,0.57889843257143,131329,3014,0.0039488513947989,0.0051291149965543,0.0051291149965828,34.355703564387,3.4845628515099e-05,3.4845628515099e-05,3.4845628515099e-05,3538001.3447566,0.014309551886751
13819200,0.96045427117711,0.014519724278468,0.0042088810990247,0.0051554215897086,0.0051554215897349,-0.00094991407197697,0.00094991573235714,-3.3499235797812e-09,5.0027877403274e-09,-9.8873254455534e-09,1.1994237883589e-08,-0.0011107520689294,0.0011107437448885,-0.0011107492909867,0.0011107465456285,-0.0011107451738933,0.0011107509585077,-0.0011107424020463,0.0011107537373438,-0.0010145098873129,0.0010145106200827,-0.0010145017161326,0.0010145187601277,9.5911037898558e-09,-1.2401377816292e-08,2.3317020778286e-09,-4.6897132192743e-09,-0.0012361058403788,0.0012361034931365,-0.0014114548400625,0.0014114620588794,-0.0014114570732627,0.0014114597169427,-0.0014114617635491,0.0014114547835785,-0.0014114640117051,0.0014114524328787,-0.0012552525299046,0.0012552497981863,-0.0012552593264864,0.0012552427755258,-0.0011666525295632,0.0011666693083567,-0.0011666740172874,0.0011666471296204,4.6544893647802e-09,-3.8208525798117e-09,-0.0012361042531465,0.0012361050803826,-2.8936657407038e-09,3.8784249731323e-09,-0.0014114576576877,0.0014114590077214,-0.0014114553855435,0.0014114612211461,-0.001411460508827,0.0014114562174317,-0.0014114582560883,0.0014114584265412,-0.0011666633685732,0.0011666581434651,-0.0011666550039582,0.0011666664206789,0.57842147848438,131329,3014,0.0039529516895234,0.005136479032134,0.0051364790321617,34.003484835365,3.2027878682919e-05,3.2027878682919e-05,3.2027878682919e-05,3536031.6483042,0.01432865602757
14019200,0.96268469532642,0.014545575837879,0.0042158199975846,0.0051648779201339,0.0051648779201603,-0.00095078701682925,0.00095078867117808,-3.4305071313913e-09,5.0774594320408e-09,-9.7914340607635e-09,1.1891486791447e-08,-0.0011120719489221,0.0011120636343668,-0.0011120691210966,0.0011120664850001,-0.0011120651206465,0.0011120707807153,-0.0011120622955604,0.0011120736128013,-0.0010154805002411,0.0010154810038724,-0.001015472171457,0.0010154893010961,9.5169843217095e-09,-1.2321567970534e-08,2.3339806011427e-09,-4.68705073164e-09,-0.0012377035214891,0.0012377011792429,-0.0014135884297187,0.0014135956033154,-0.0014135906646643,0.0014135932596973,-0.0014135953033457,0.0014135883783984,-0.0014135975498066,0.0014135860294433,-0.0012568340074375,0.001256831325968,-0.001256840797889,0.001256824309448,-0.0011680032632901,0.0011680198904885,-0.0011680245941348,0.0011679978689249,4.72569680603e-09,-3.8921452729277e-09,-0.0012377019368027,0.0012377027639444,-2.896773322034e-09,3.8814865507502e-09,-0.0014135912012009,0.001413592598592,-0.0014135889288115,0.0014135948122588,-0.0014135941017216,0.0014135897589042,-0.0014135918453223,0.0014135919717069,-0.001168014092846,0.0011680087351478,-0.0011680055944951,0.0011680171469618,0.57820996856382,131329,3014,0.0039565868082912,0.0051430994038427,0.0051430994038732,33.653390703264,2.9227125626115e-05,2.9227125626115e-05,2.9227125626115e-05,3533763.7158704,0.014345779598203
14219200,0.964752266871,0.014568610381992,0.0042219628857311,0.0051733237481172,0.0051733237481435,-0.00095151131919948,0.00095151296732232,-3.5097256709958e-09,5.1505450355023e-09,-9.6941057221363e-09,1.1787009237312e-08,-0.0011132228852585,0.0011132145839353,-0.0011132200100113,0.00111321748204,-0.0011132161267,0.001113221659989,-0.0011132132477261,0.0011132245459909,-0.0010162668857608,0.0010162671569033,-0.0010162583977652,0.0010162756133881,9.4290295403774e-09,-1.2225842542024e-08,2.3383655717966e-09,-4.6845973708452e-09,-0.0012390884532177,0.0012390861178854,-0.00141548130937,0.0014154884321678,-0.0014154835482726,0.0014154860846801,-0.0014154881250033,0.0014154812658919,-0.0014154903689921,0.0014154789194451,-0.0012581758744368,0.0012581732525134,-0.0012581826562743,0.0012581662446291,-0.0011691487768807,0.0011691652195411,-0.0011691699171484,0.0011691433895314,4.7983675326362e-09,-3.9648823098023e-09,-0.0012390868720086,0.0012390876991101,-2.8990974509452e-09,3.8837778142537e-09,-0.001415484030502,0.0014154854781685,-0.0014154817597973,0.0014154876901033,-0.0014154869828201,0.0014154825866488,-0.001415484721746,0.0014154848041686,-0.0011691595798964,0.0011691540911844,-0.0011691509492187,0.0011691626354952,0.55856305872468,131329,3014,0.003959603911762,0.0051488381032003,0.0051488381032318,33.303375343427,2.6427002747419e-05,2.6427002747419e-05,2.6427002747419e-05,3532206.4305011,0.014360487730664
14419200,0.96663872552123,0.014589878944435,0.0042276561475927,0.0051811113984079,0.0051811113984342,-0.00095159393715558,0.00095159558118169,-3.5951241315138e-09,5.2320222625466e-09,-9.6433949809617e-09,1.1731843549174e-08,-0.0011136400620188,0.001113631741535,-0.0011136371375677,0.0011136346888607,-0.0011136333435768,0.0011136387772324,-0.0011136304031986,0.0011136417246233,-0.0010163851666903,0.0010163852168752,-0.0010163764960087,0.0010163938550276,9.4293526874689e-09,-1.2225445850098e-08,2.3334740444757e-09,-4.6790276265845e-09,-0.0012397149826438,0.0012397126479336,-0.0014165383341397,0.0014165454591504,-0.0014165405758248,0.0014165431088791,-0.0014165451547478,0.0014165382879259,-0.0014165473895213,0.0014165359508897,-0.0012587478367631,0.0012587451861241,-0.0012587545890937,0.0012587382085501,-0.0011695476728711,0.0011695641011837,-0.0011695687937866,0.0011695422892163,4.863623963097e-09,-4.0303060973858e-09,-0.0012397134018179,0.001239714228777,-2.9032522599305e-09,3.8878457670394e-09,-0.0014165410326626,0.0014165425277404,-0.0014165387655749,0.0014165447363047,-0.0014165440350384,0.0014165395863367,-0.0014165417652345,0.0014165418123287,-0.0011695585223079,0.0011695529257808,-0.0011695497833859,0.0011695615805162,0.56383118258812,131329,3014,0.00395995368871,0.0051514342491938,0.0051514342492293,32.647698089703,2.1181584717622e-05,2.1181584717622e-05,2.1181584717622e-05,3528808.9192501,0.014366112804634
14619200,0.96834682449113,0.014609255487107,0.0042328569451516,0.0051881992709644,0.0051881992709907,-0.00095126677025442,0.00095126841467773,-3.6572301640113e-09,5.2944208046081e-09,-9.6843971208744e-09,1.1773459981467e-08,-0.001113612153133,0.0011136037562808,-0.0011136091779196,0.0011136067543798,-0.0011136053998528,0.0011136108267907,-0.0011136024262193,0.0011136138074231,-0.0010160849695841,0.001016084952444,-0.0010160762052169,0.0010160936856507,9.4007362008201e-09,-1.219606725805e-08,2.3379678141697e-09,-4.6830077953264e-09,-0.0012398441176437,0.00123984178342,-0.0014170529338939,0.0014170600351275,-0.0014170551693222,0.0014170576912605,-0.0014170597281117,0.0014170528909561,-0.0014170619742431,0.0014170505424359,-0.0012588327023936,0.001258830108554,-0.0012588394916726,0.0012588230938344,-0.0011694789809221,0.0011694953764634,-0.0011695000719455,0.0011694735957284,4.9499081961141e-09,-4.1172153534854e-09,-0.0012398425373411,0.0012398433637392,-2.8955699037388e-09,3.8793390777364e-09,-0.0014170555942244,0.0014170571422556,-0.0014170533231876,0.0014170593544131,-0.0014170586450438,0.0014170541524586,-0.001417056389348,0.0014170563646165,-0.0011694899158476,0.0011694841172642,-0.0011694809785306,0.001169492967496,0.56645233623361,131329,3014,0.0039586013843165,0.005151969056874,0.0051519690569078,31.823311958717,1.4586495669738e-05,1.4586495669738e-05,1.4586495669738e-05,3521797.8932903,0.014365829159723
14819200,0.96989617786183,0.014626960330902,0.0042376234844825,0.0051946684231962,0.0051946684232229,-0.00095083769746315,0.00095083934022894,-3.7326612486728e-09,5.3681914713178e-09,-9.6809808447687e-09,1.1768289567302e-08,-0.001113446744502,0.001113438296692,-0.001113443717107,0.0011134413469095,-0.0011134399916308,0.0011134453666651,-0.0011134369706202,0.0011134483946852,-0.0010156816673286,0.0010156815067996,-0.0010156727638324,0.0010156903789051,9.3977002993971e-09,-1.2192972847902e-08,2.33645636168e-09,-4.6814690439754e-09,-0.0012398120959562,0.001239809761746,-0.0014173594110847,0.0014173665070107,-0.0014173616430656,0.0014173641665857,-0.0014173662009834,0.0014173593670039,-0.0014173684485843,0.0014173570170936,-0.0012587679567039,0.0012587653691731,-0.0012587747503503,0.0012587583499162,-0.0011692762783606,0.0011692926765343,-0.0011692973712359,0.0011692708944455,5.0240099219455e-09,-4.1915855091752e-09,-0.0012398105158078,0.0012398113419113,-2.8941164059951e-09,3.8775878302358e-09,-0.0014173620448538,0.0014173636406367,-0.0014173597724735,0.0014173658543513,-0.0014173651426658,0.0014173606038206,-0.0014173628903265,0.0014173628124642,-0.0011692872913128,0.0011692813388947,-0.0011692782014727,0.0011692903418201,0.56961685259543,131329,3014,0.0039568254082995,0.0051518359966889,0.0051518359967235,30.994842590061,7.9587407204874e-06,7.9587407204874e-06,7.9587407204874e-06,3513721.2011628,0.014363760586281
15019200,0.97128267971186,0.014642745983467,0.0042418768601896,0.0052004345616253,0.0052004345616523,-0.00094980739536803,0.00094980903532586,-3.8409690571789e-09,5.473854903196e-09,-9.6418258260159e-09,1.1726191604572e-08,-0.0011126335657451,0.001112625074112,-0.0011126304730928,0.0011126281897304,-0.0011126268418037,0.0011126321147816,-0.0011126237456985,0.0011126352182227,-0.0010146518747796,0.0010146514613067,-0.0010146427455703,0.0010146605577805,9.5263746144069e-09,-1.2329755430523e-08,2.3130512272455e-09,-4.6650979239754e-09,-0.0012390997343037,0.0012390973929585,-0.0014169308702669,0.0014169380365583,-0.0014169330944954,0.0014169357042247,-0.0014169377504147,0.0014169308059324,-0.0014169399806992,0.0014169284740136,-0.0012580164154721,0.0012580136793444,-0.0012580231558908,0.0012580067151087,-0.001168414401447,0.0011684310532686,-0.0011684357414975,0.0011684090216059,5.0656568943062e-09,-4.233397364087e-09,-0.0012390981505098,0.0012390989767358,-2.9056622936291e-09,3.8891109110371e-09,-0.0014169335254592,0.0014169351484087,-0.0014169312508391,0.0014169373649651,-0.0014169366576363,0.0014169320783167,-0.0014169343924859,0.0014169342987104,-0.0011684255710541,0.0011684195580092,-0.00116841641699,0.0011684286294922,0.56737759881701,131329,3014,0.0039525524301549,0.0051488832535145,0.0051488832534799,29.891811077191,-8.6551138247114e-07,-8.6551138247114e-07,-8.6551138247114e-07,3501628.3864526,0.014353438250247
15219200,0.97250506227468,0.014656011666577,0.0042454255361945,0.0052052930651768,0.0052052930652053,-0.00094810035558195,0.00094810198848634,-4.0224841244888e-09,5.6483321621237e-09,-9.4871332554148e-09,1.1563296702605e-08,-0.001111091816328,0.0011110833271343,-0.0011110886337364,0.0011110865332772,-0.0011110852162361,0.0011110902429532,-0.001111081979183,0.0011110934882172,-0.0010128989291821,0.0010128979813286,-0.0010128893719818,0.0010129075041867,9.8567145116104e-09,-1.2682211480487e-08,2.2503721310373e-09,-4.6215567904151e-09,-0.0012376260907927,0.0012376237302334,-0.0014156908885085,0.0014156982475948,-0.0014156931043226,0.001415695924048,-0.001415698014402,0.0014156907712761,-0.0014157001853434,0.0014156885002507,-0.0012564736111724,0.0012564704493372,-0.0012564801736639,0.0012564636691355,-0.0011667973521535,0.0011668146196951,-0.0011668192961499,0.0011667919844305,5.0366322014024e-09,-4.2032778716286e-09,-0.0012376244964813,0.0012376253244295,-2.9449477183099e-09,3.9294893148282e-09,-0.0014156936463805,0.0014156952553894,-0.001415691373026,0.0014156974728973,-0.001415696789836,0.0014156921782976,-0.001415694471718,0.0014156944485224,-0.0011668087497147,0.0011668028992565,-0.0011667997366102,0.0011668118381913,0.54391180535195,131329,3014,0.0039454682411626,0.0051427754805568,0.0051427754803188,28.486061849423,-1.2111505204616e-05,-1.2111505204616e-05,-1.2111505204616e-05,3486475.0609271,0.014333863051372
15419200,0.97358504284112,0.014669535374751,0.0042491438754906,0.0052101957496133,0.0052101957496473,-0.00094638996381121,0.0009463916107195,-3.9704399504026e-09,5.6099938127752e-09,-9.8327448133954e-09,1.1925561158057e-08,-0.0011094410114295,0.0011094323121593,-0.0011094378295008,0.0011094355171833,-0.0011094341641338,0.0011094394770959,-0.0011094309762136,0.0011094426720325,-0.0010111852543985,0.001011184714424,-0.0010111758649511,0.0010111940731995,9.6285752511557e-09,-1.2440452605672e-08,2.3049543732399e-09,-4.6642407930509e-09,-0.0012360887034916,0.0012360863548206,-0.0014142923833651,0.0014142996162057,-0.001414294605261,0.0014142972855609,-0.00141429934035,0.0014142923076929,-0.0014143015655272,0.0014142899814761,-0.0012549155168585,0.0012549126874256,-0.0012549222451663,0.0012549057374476,-0.0011651459103507,0.0011651627593808,-0.0011651674537919,0.0011651405274644,5.2297488893495e-09,-4.3985890884756e-09,-0.0012360871166352,0.0012360879416803,-2.8865778232348e-09,3.8686309740087e-09,-0.0014142950109092,0.0014142967544068,-0.0014142927510617,0.0014142989575352,-0.0014142982535159,0.0014142935754797,-0.0014142959982981,0.0014142957843816,-0.0011651573438996,0.0011651509989393,-0.0011651478714842,0.0011651603904565,0.61487580354414,131329,3014,0.0039383671545028,0.0051364042627778,0.005136404262783,27.073090224964,-2.3415278200288e-05,-2.3415278200288e-05,-2.3415278200288e-05,3471511.1100309,0.014313734284603
15619200,0.97455857081512,0.014682004262801,0.0042525862090679,0.0052147090268502,0.0052147090268831,-0.00094513488777513,0.00094513653366527,-4.0227639597047e-09,5.6613520465811e-09,-9.8362639780638e-09,1.1928045985059e-08,-0.0011083697632581,0.001108361023215,-0.0011083665415968,0.0011083642676981,-0.0011083629114328,0.0011083681924028,-0.0011083596924862,0.0011083714185511,-0.0010099753144752,0.0010099746843593,-0.0010099658352988,0.0010099841315203,9.5343745989382e-09,-1.2339734962799e-08,2.3167623768071e-09,-4.6703622879526e-09,-0.0012350253705818,0.001235023027681,-0.001413424935394,0.0014134321109184,-0.0014134271583697,0.0014134297791369,-0.0014134318238698,0.0014134248712944,-0.0014134340592356,0.0014134225348377,-0.0012539026815909,0.0012538999545135,-0.001253909439361,0.0012538929717037,-0.0011640524149961,0.0011640690866697,-0.001164073781046,0.001164047032201,5.3263158210607e-09,-4.4955543957814e-09,-0.001235023786909,0.0012350246113549,-2.8767239289116e-09,3.8583019593177e-09,-0.0014134275016963,0.0014134293105292,-0.001413425243704,0.0014134315117983,-0.0014134308038743,0.0014134260718936,-0.0014134285597296,0.0014134282699399,-0.0011640638652488,0.0011640573108528,-0.0011640541886485,0.0011640669034935,0.62694797111965,131329,3014,0.0039331629475121,0.0051319960492138,0.005131996049215,25.964208274694,-3.2286333802451e-05,-3.2286333802451e-05,-3.2286333802451e-05,3451370.2687258,0.014299516894993
15819200,0.97547426562161,0.014694644397051,0.0042561173919554,0.0052192635025319,0.0052192635025637,-0.00094512261166711,0.0009451242497944,-4.0724283002579e-09,5.7034665963929e-09,-9.6831521842887e-09,1.1765748616368e-08,-0.0011085698136278,0.00110856114228,-0.0011085665628909,0.0011085644157015,-0.0011085630683277,0.0011085682041432,-0.0011085598170559,0.0011085714628185,-0.001010070819069,0.0010100699822162,-0.0010100612448094,0.0010100795240703,9.2629653895597e-09,-1.2049307766139e-08,2.3438459528062e-09,-4.6811346338726e-09,-0.0012352469176147,0.0012352445911137,-0.0014138511242392,0.001413858144072,-0.0014138533615804,0.0014138557984241,-0.001413857829531,0.0014138510897791,-0.0014138600754812,0.0014138487422483,-0.0012542261178203,0.001254223627123,-0.0012542329071629,0.0012542166111673,-0.0011642807904105,0.0011642969100499,-0.0011643016003172,0.0011642754126735,5.4292287888461e-09,-4.5988962033484e-09,-0.0012352453422891,0.0012352461664226,-2.874884329316e-09,3.8559595806111e-09,-0.001413853577819,0.0014138554577235,-0.001413851322368,0.0014138576557108,-0.0014138569495306,0.0014138521487196,-0.0014138547057304,0.0014138543478721,-0.0011642920659686,0.0011642853126619,-0.00116428218958,0.0011642950994631,0.66919700015052,131329,3014,0.00393312018425,0.0051329128549266,0.0051329128548912,25.548078950723,-3.5615368394215e-05,-3.5615368394215e-05,-3.5615368394215e-05,3438779.9968081,0.014301338270861
16019200,0.97633706233506,0.01470651962256,0.0042594325736908,0.0052235435244191,0.0052235435244503,-0.00094507362800207,0.00094507525114601,-4.2035197506217e-09,5.8196732360951e-09,-9.3851585860827e-09,1.1449965478355e-08,-0.0011088042001774,0.0011087956375621,-0.0011088008708439,0.0011087989895482,-0.0011087976589271,0.0011088024939013,-0.0011087943234315,0.0011088058368633,-0.0010101303848044,0.0010101290767598,-0.0010101205591943,0.001010138871379,9.1680754238165e-09,-1.1947789934796e-08,2.3366528225468e-09,-4.6684784896789e-09,-0.0012354378524082,0.0012354355314784,-0.0014142839145064,0.0014142908690175,-0.0014142861486235,0.0014142885267055,-0.0014142905554734,0.0014142838794568,-0.0014142927924656,0.0014142815408398,-0.0012545330448165,0.0012545305952908,-0.0012545398057806,0.0012545236094575,-0.0011645162885778,0.0011645322207911,-0.0011645368992143,0.0011645109246107,5.4552891647195e-09,-4.623350197178e-09,-0.0012354362790677,0.0012354371048046,-2.9014271948908e-09,3.8843825262214e-09,-0.0014142863336027,0.0014142882177484,-0.0014142840630138,0.0014142904306777,-0.0014142897255774,0.0014142848879081,-0.00141428746101,0.0014142871076742,-0.0011645274793601,0.0011645207064881,-0.0011645175659112,0.0011645305351795,0.66742792825298,131329,3014,0.0039329284420855,0.0051337017612503,0.0051337017612197,25.14831467687,-3.8813482585043e-05,-3.8813482585043e-05,-3.8813482585043e-05,3423567.0068902,0.014302751323349
16219200,0.97715064071707,0.01471766324802,0.004262542259364,0.0052275604943127,0.0052275604943431,-0.0009449820581519,0.00094498367412305,-4.2716998662072e-09,5.8807949293987e-09,-9.2369987570873e-09,1.1293197364278e-08,-0.0011089820294639,0.0011089735174553,-0.0011089786569402,0.0011089769128004,-0.0011089755883762,0.0011089802731244,-0.0011089722103766,0.0011089836584339,-0.0010101328047168,0.0010101312642811,-0.0010101228545786,0.0010101411832433,8.9855604288082e-09,-1.1752543620069e-08,2.3540609711791e-09,-4.6750306202426e-09,-0.0012355700970805,0.0012355677871252,-0.001414642448763,0.0014146492951365,-0.0014146446904689,0.0014146469451402,-0.0014146489632504,0.0014146424329357,-0.0014146512087082,0.0014146400858704,-0.0012547651581301,0.0012547628707101,-0.0012547719441436,0.0012547558597828,-0.0011646930862972,0.0011647086498281,-0.0011647133255937,0.0011646877267145,5.5395948697087e-09,-4.7074993454205e-09,-0.001235568529145,0.0012355693550446,-2.9062992351416e-09,3.8894565652424e-09,-0.001414644787458,0.0014146467246086,-0.0014146425133325,0.0014146489413281,-0.0014146482355361,0.0014146433386912,-0.0014146459681598,0.0014146455613355,-0.0011647041750915,0.001164697238509,-0.0011646940943263,0.0011647072340323,0.66425605288221,131329,3014,0.0039325593232222,0.0051342474442045,0.0051342474441702,24.749151417969,-4.2006788656251e-05,-4.2006788656251e-05,-4.2006788656251e-05,3410235.4608801,0.014303490260502
16419200,0.97792116574772,0.014727060734281,0.004265118803259,0.0052309709654958,0.0052309709655258,-0.00094491559106577,0.00094491720256616,-4.3317035157839e-09,5.9362699711154e-09,-9.1404893083259e-09,1.1191098795525e-08,-0.0011091883184048,0.0011091798308591,-0.0011091849079357,0.0011091832642352,-0.0011091819443873,0.0011091865190731,-0.0011091785269759,0.0011091899438786,-0.0010101172826543,0.001010115557517,-0.0010101072173599,0.0010101255915697,8.824438306187e-09,-1.1580397870423e-08,2.3725922719053e-09,-4.6841792824209e-09,-0.0012357148605532,0.0012357125601647,-0.0014150163466262,0.0014150231019667,-0.001415018598252,0.0014150207422493,-0.0014150227522002,0.0014150163501027,-0.0014150250059411,0.0014150139946131,-0.0012549611379171,0.001254958996761,-0.0012549679486475,0.0012549519598727,-0.0011648625473329,0.0011648777823869,-0.0011648824588278,0.0011648571894684,5.6308505222641e-09,-4.7985686263165e-09,-0.0012357132973099,0.0012357141233936,-2.9090924106649e-09,3.8923850129273e-09,-0.0014150186103818,0.0014150206069359,-0.0014150163349192,0.0014150228249278,-0.0014150221197609,0.001415017159819,-0.001415019849882,0.0014150193855052,-0.0011648735601622,0.0011648664494156,-0.001164863301187,0.0011648766200246,0.59981698284869,131329,3014,0.0039322937707536,0.0051348450621387,0.0051348450621083,24.411703944149,-4.4706368446804e-05,-4.4706368446804e-05,-4.4706368446804e-05,3400256.5636709,0.014304439216506
16619200,0.97865498296148,0.014737780749834,0.0042681423337702,0.0052348192080172,0.005234819208047,-0.00094508784506157,0.00094508944933956,-4.4293087908627e-09,6.0268059471565e-09,-9.0183630537286e-09,1.1060618584342e-08,-0.0011094942411535,0.0011094857668357,-0.0011094907678093,0.0011094892630387,-0.0011094879496844,0.0011094923717855,-0.0011094844702581,0.0011094958585425,-0.001010368916951,0.0010103669169995,-0.0010103586681556,0.0010103771344256,8.7763847376377e-09,-1.1528351492088e-08,2.3759336434473e-09,-4.6841312138547e-09,-0.0012360682393721,0.0012360659423707,-0.0014155010144105,0.0014155077400557,-0.0014155032667818,0.0014155053794943,-0.0014155073858482,0.001415501022228,-0.0014155096412857,0.001415498665034,-0.0012553771968388,0.001255375095839,-0.0012553840117385,0.0012553680553638,-0.0011652170876868,0.0011652322281294,-0.001165236901691,0.0011652117327286,5.6861290386022e-09,-4.8531024882268e-09,-0.001236066677466,0.0012360675042661,-2.9229675724059e-09,3.9071921364622e-09,-0.0014155032496446,0.0014155052737695,-0.001415500964277,0.0014155075016334,-0.0014155067951024,0.0014155017900819,-0.0014155045161483,0.0014155040246562,-0.0011652281016729,0.0011652208928183,-0.0011652177360137,0.0011652311731733,0.70235632431699,131329,3014,0.0039330136165914,0.0051363087750929,0.0051363087750701,24.157888600828,-4.6736891193378e-05,-4.6736891193378e-05,-4.6736891193378e-05,3396560.8468106,0.014308140097085
16819200,0.97935423617669,0.014748041643994,0.0042710353554755,0.0052385031442443,0.0052385031442739,-0.00094518605595056,0.00094518765845854,-4.5075985612816e-09,6.1033672766133e-09,-8.9740470331408e-09,1.1014135324079e-08,-0.0011098804709285,0.0011098719732545,-0.0011098769460179,0.0011098755210483,-0.0011098742092016,0.0011098785482621,-0.0011098706783367,0.0011098820864371,-0.0010105744386212,0.0010105722556235,-0.0010105640389215,0.0010105826241069,8.7414304607331e-09,-1.1491351837714e-08,2.3826539589771e-09,-4.689201795407e-09,-0.0012363783228345,0.0012363760275027,-0.001416033296959,0.0014160400037229,-0.0014160355532249,0.0014160376392425,-0.0014160396440369,0.0014160333104233,-0.0014160419035242,0.0014160309491721,-0.0012558130666072,0.0012558110031445,-0.0012558198934199,0.0012558039507984,-0.0011656130339108,0.0011656281008767,-0.0011656327767867,0.0011656076770929,5.7578321947082e-09,-4.924481973456e-09,-0.0012363767615955,0.0012363775887302,-2.9303290171953e-09,3.9149539222568e-09,-0.0014160355012099,0.0014160375685063,-0.0014160332107866,0.0014160398014534,-0.0014160390944805,0.001416034036977,-0.0014160368105988,0.0014160362764694,-0.001165624078897,0.001165616734639,-0.001165613572674,0.0011656271558682,0.70571572242025,131329,3014,0.0039334339458429,0.005137590963816,0.0051375909637911,23.906053759439,-4.8751569924487e-05,-4.8751569924487e-05,-4.8751569924487e-05,3383502.3655789,0.014311174818926
17019200,0.9800208503737,0.014757619465395,0.0042737283672789,0.0052419455490436,0.0052419455490729,-0.00094524018849438,0.00094524179099125,-4.577252446168e-09,6.173022799332e-09,-8.9687757839386e-09,1.1008790250632e-08,-0.0011102238855464,0.0011102153449248,-0.0011102203142733,0.0011102189391182,-0.0011102176272645,0.0011102219164383,-0.0011102140499304,0.0011102255010801,-0.0010107217183994,0.0010107193952598,-0.0010107111822603,0.0010107299003192,8.7198615257155e-09,-1.1468477540328e-08,2.3905775651287e-09,-4.6960817765338e-09,-0.0012366358467856,0.0012366335524864,-0.0014165087152069,0.0014165154128679,-0.0014165109764188,0.0014165130434216,-0.0014165150473736,0.0014165087346021,-0.0014165173117473,0.0014165063684915,-0.0012561799823638,0.00125617794941,-0.0012561868235122,0.0012561708826658,-0.0011659556073273,0.0011659706261962,-0.0011659753059016,0.0011659502467306,5.8370915886234e-09,-5.003660451549e-09,-0.0012366342860073,0.0012366351132528,-2.9345387407382e-09,3.9192898459738e-09,-0.0014165108898059,0.0014165130073322,-0.001416508596575,0.0014165152431358,-0.0014165145360652,0.0014165094228688,-0.0014165122492607,0.0014165116652659,-0.0011659667045432,0.0011659592079723,-0.0011659560427866,0.0011659697841111,0.69245976463667,131329,3014,0.0039336714393478,0.005138655124921,0.0051386551248954,23.65429161715,-5.0765667062803e-05,-5.0765667062803e-05,-5.0765667062803e-05,3371810.5197243,0.014313581384127
17219200,0.98064131188035,0.014766280137587,0.0042761547122188,0.0052450627126696,0.0052450627126988,-0.00094451652360592,0.00094451812991766,-4.6608758273546e-09,6.2603545332604e-09,-9.0581383652378e-09,1.1102738480608e-08,-0.0011097356078625,0.0011097269492694,-0.0011097319760465,0.0011097306039172,-0.0011097292850507,0.0011097335856285,-0.0011097256541999,0.0011097372236906,-0.001010043349925,0.0010100409342545,-0.0010100326570883,0.0010100515972221,8.8670155970289e-09,-1.1625445619322e-08,2.3831092424863e-09,-4.6971155513963e-09,-0.001236062580064,0.0012360602770912,-0.0014161160932472,0.0014161228777786,-0.001416118348792,0.0014161205138224,-0.0014161225226217,0.0014161161013285,-0.0014161247885041,0.0014161137338076,-0.0012556736194767,0.001255671480035,-0.0012556804644966,0.0012556644103962,-0.0011654466768758,0.0011654619986628,-0.0011654666836368,0.0011654413091422,5.900604321353e-09,-5.0672223991869e-09,-0.0012360610149436,0.0012360618421988,-2.9359499668321e-09,3.9207307838953e-09,-0.0014161182920544,0.0014161204475905,-0.0014161159944535,0.0014161226878331,-0.0014161219771608,0.0014161168243552,-0.0014161196927827,0.0014161190638995,-0.001165457991306,0.0011654503609645,-0.001165447195867,0.0011654610723651,0.67475987696423,131329,3014,0.0039306773971443,0.0051362763847967,0.0051362763847692,22.994389338437,-5.6044885292503e-05,-5.6044885292503e-05,-5.6044885292503e-05,3357522.4615409,0.01430572387799
17419200,0.98120756614086,0.014773826836659,0.0042782565259716,0.0052477851553293,0.0052477851553581,-0.00094312801508413,0.00094312963721456,-4.685719863004e-09,6.3011128975027e-09,-9.3726117476741e-09,1.1436176598831e-08,-0.0011085183097423,0.0011085094416791,-0.0011085146684015,0.0011085131059906,-0.0011085117847149,0.0011085162816321,-0.0011085081195826,0.0011085199541343,-0.0010086536226936,0.0010086513396564,-0.0010086428296422,0.0010086621010975,8.9641017299963e-09,-1.1728508289873e-08,2.3825861342316e-09,-4.7015176714723e-09,-0.0012347693222822,0.0012347670143622,-0.0014149587743398,0.0014149656346538,-0.0014149610436983,0.0014149632576469,-0.0014149652834126,0.0014149587795791,-0.0014149675377089,0.0014149564232,-0.0012544048830353,0.0012544026422464,-0.0012544116970157,0.0012543956019974,-0.0011641934589436,0.0011642089340621,-0.0011642136266566,0.001164188083341,6.0162650189981e-09,-5.1840577054779e-09,-0.0012347677552272,0.0012347685813853,-2.9215803364026e-09,3.9049323918194e-09,-0.0014149609618119,0.0014149632161217,-0.0014149586860776,0.0014149654337687,-0.0014149647369679,0.001414959503064,-0.0014149624506729,0.0014149617458845,-0.0011642049547976,0.0011641971204945,-0.0011641939631835,0.0011642080212808,0.6474779860457,131329,3014,0.0039249202371052,0.00513091415312,0.0051309141530533,21.991156919418,-6.4070744644657e-05,-6.4070744644657e-05,-6.4070744644657e-05,3341320.8338765,0.014289009469957
17619200,0.9817247684707,0.014780440196888,0.0042800892910213,0.0052501754529189,0.0052501754529483,-0.0009416946458581,0.00094169627696787,-4.7443211682449e-09,6.3683897100364e-09,-9.5881425901784e-09,1.1662481686308e-08,-0.0011071950040133,0.0011071859622741,-0.0011071913264377,0.0011071896627228,-0.0011071883392763,0.0011071929427397,-0.0011071846255726,0.0011071966637095,-0.0010071946178073,0.0010071923480414,-0.0010071836819758,0.0010072032529115,9.1377054773366e-09,-1.1913852798115e-08,2.3723711546888e-09,-4.7012604020315e-09,-0.0012333995332444,0.0012333972151396,-0.0014136834850298,0.0014136904588233,-0.0014136857569758,0.0014136880790797,-0.0014136901205275,0.0014136834759653,-0.0014136923654471,0.0014136811290585,-0.0012530283560222,0.0012530259546417,-0.0012530351390571,0.0012530189449444,-0.0011628363744707,0.0011628521781353,-0.0011628568759045,0.0011628309908964,6.1022612743421e-09,-5.2704110800887e-09,-0.0012333979613179,0.001233398787042,-2.912497813191e-09,3.8954030489049e-09,-0.0014136856947832,0.0014136880176899,-0.0014136834311476,0.0014136902228059,-0.0014136895325064,0.0014136842415946,-0.0014136872464605,0.0014136864841602,-0.0011628481106084,0.0011628401207672,-0.0011628369696269,0.0011628511704713,0.62390234202106,131329,3014,0.0039189736526897,0.0051252354919766,0.0051252354919258,20.979756364698,-7.2161949082414e-05,-7.2161949082414e-05,-7.2161949082414e-05,3327936.2036593,0.014271459329196
17819200,0.9821983765491,0.01478627411262,0.0042816988897642,0.0052522876114132,0.0052522876114426,-0.00094027757212101,0.00094027920523788,-4.859197551615e-09,6.4851287171516e-09,-9.6512019886394e-09,1.1728169817051e-08,-0.0011058388001341,0.0011058296238428,-0.0011058350307279,0.0011058334161053,-0.0011058320755866,0.0011058366642303,-0.0011058283006226,0.0011058404464364,-0.0010057335370251,0.0010057311314282,-0.0010057224198206,0.0010057422173969,9.3844127066818e-09,-1.217757255119e-08,2.3499711475028e-09,-4.6934827163515e-09,-0.001232020775265,0.0012320184424666,-0.0014123670357357,0.0014123741382325,-0.0014123692824218,0.0014123717837442,-0.0014123738235569,0.0014123670016529,-0.0014123760740096,0.001412364649293,-0.0012516182032613,0.0012516156333669,-0.0012516250034681,0.0012516086073535,-0.0011614467292578,0.0011614630759265,-0.0011614677783987,0.0011614413391555,6.1356160821992e-09,-5.3036197514689e-09,-0.0012320191959765,0.0012320200217384,-2.9131691175949e-09,3.8962179483926e-09,-0.0014123693060698,0.0014123716360138,-0.0014123670266547,0.0014123738568185,-0.0014123731512186,0.0014123678524811,-0.0014123708798724,0.0014123700797098,-0.0011614587909134,0.0011614506909515,-0.0011614475405543,0.001161461852823,0.6034162902218,131329,3014,0.0039130920056953,0.0051195203454551,0.0051195203454197,19.990059824744,-8.0079521402049e-05,-8.0079521402049e-05,-8.0079521402049e-05,3317253.7417701,0.014253899836467
18019200,0.98263304281227,0.014791625749835,0.0042831776631076,0.0052542240433489,0.0052542240433782,-0.00093888299741619,0.00093888463639657,-4.9182570736224e-09,6.5499839213697e-09,-9.782373161803e-09,1.1866449134036e-08,-0.0011044602196269,0.001104450926162,-0.001104456417198,0.0011044547514522,-0.0011044534137616,0.0011044580484269,-0.0011044495892516,0.0011044618801611,-0.0010042872455668,0.0010042847904056,-0.0010042759832487,0.0010042960212794,9.4663650852956e-09,-1.2265248823399e-08,2.3431040192475e-09,-4.6914758082437e-09,-0.0012306423299027,0.0012306399921952,-0.001411020831702,0.0014110279911042,-0.0014110230837768,0.0014110256313247,-0.0014110276840195,0.0014110207897553,-0.0014110299232465,0.0014110184486019,-0.0012501953562615,0.0012501926913951,-0.0012502021226254,0.001250185698723,-0.0011600403794793,0.0011600568645133,-0.0011600615689523,0.0011600349867119,6.2225492322746e-09,-5.3911294609309e-09,-0.001230640748456,0.0012306415736253,-2.9045956881249e-09,3.8869905436364e-09,-0.0014110230945221,0.0014110254962677,-0.0014110208292404,0.0014110277027722,-0.0014110270061269,0.001411021646313,-0.0014110247325154,0.0014110238759568,-0.001160052587156,0.0011600443334159,-0.0011600411893694,0.0011600556423169,0.60265704039868,131329,3014,0.0039073015259697,0.005113807103444,0.0051138071034085,19.018673744004,-8.7850610047965e-05,-8.7850610047965e-05,-8.7850610047965e-05,3308575.3120826,0.01423643574811
18219200,0.98303238941549,0.01479664683742,0.0042845715062994,0.0052560376655458,0.005256037665575,-0.00093747602305894,0.0009374776639799,-5.0077698054229e-09,6.641400955495e-09,-9.8320735796953e-09,1.1918615870378e-08,-0.0011030552507604,0.0011030458531819,-0.0011030513769546,0.0011030497498895,-0.0011030483990195,0.0011030530214081,-0.0011030445258978,0.0011030569018333,-0.0010028312290991,0.0010028286667881,-0.0010028198233706,0.0010028400410888,9.574874949827e-09,-1.2381262145631e-08,2.3308096732555e-09,-4.6856683095507e-09,-0.0012292371516311,0.0012292348074314,-0.0014096360511904,0.0014096432610026,-0.0014096382859775,0.0014096409185816,-0.0014096429659638,0.0014096359967027,-0.001409645210681,0.0014096336502074,-0.0012487500206747,0.0012487472914183,-0.0012487568042699,0.0012487402817419,-0.0011586082477661,0.0011586249873069,-0.0011586296923386,0.0011586028537105,6.2809954493122e-09,-5.4498466741015e-09,-0.0012292355670702,0.0012292363919744,-2.9011025302503e-09,3.883232243597e-09,-0.0014096383240165,0.0014096407559588,-0.0014096360498196,0.0014096429713404,-0.0014096422637324,0.0014096368780987,-0.0014096400037939,0.0014096390937343,-0.0011586206578742,0.0011586122531191,-0.0011586091119608,0.001158623710653,0.61338751887508,131329,3014,0.0039014590630847,0.0051079831812075,0.0051079831811695,18.047722261981,-9.5618221904152e-05,-9.5618221904152e-05,-9.5618221904152e-05,3299641.2667264,0.014218694698908
18419200,0.98340894068404,0.014801419553663,0.0042858994131371,0.0052577600702483,0.0052577600702774,-0.00093677059187617,0.00093677222675486,-5.0955382418338e-09,6.7229662773186e-09,-9.73968167094e-09,1.1819084304705e-08,-0.0011023832621189,0.0011023738817873,-0.0011023793483467,0.0011023778182082,-0.00110237648976,0.0011023809701536,-0.0011023725437266,0.0011023849231445,-0.0010021066271178,0.0010021037779271,-0.0010020950050304,0.0010021153696531,9.5476235438633e-09,-1.235245177121e-08,2.3256837466202e-09,-4.679177878218e-09,-0.0012285595013702,0.0012285571585435,-0.0014089971938247,0.0014090043983455,-0.0014089994411375,0.001409002042619,-0.0014090041050089,0.001408997136102,-0.0014090063299718,0.0014089948096418,-0.0012480557774195,0.0012480530016331,-0.0012480624958478,0.0012480460585211,-0.0011579182894853,0.0011579349272936,-0.0011579396262836,0.0011579129015802,6.3459328592837e-09,-5.5140586368819e-09,-0.0012285579172895,0.0012285587426272,-2.904897818748e-09,3.8878155075226e-09,-0.0014089994351682,0.0014090019243252,-0.0014089971751267,0.0014090041259995,-0.0014090034341275,0.0014089979866826,-0.0014090011548291,0.0014090002206502,-0.0011579306814884,0.0011579222044951,-0.0011579190624911,0.0011579337401073,0.61738403796178,131329,3014,0.0038985306043512,0.0051051744365722,0.005105174436577,17.475283317766,-0.00010019773345787,-0.00010019773345787,-0.00010019773345787,3294403.9772843,0.014210026695002
18619200,0.98377162513873,0.014805970858734,0.0042871646637079,0.0052594030974987,0.0052594030975269,-0.00093664266358526,0.00093664429390955,-5.1523679473724e-09,6.7755559808569e-09,-9.6324272116959e-09,1.1706466213463e-08,-0.0011023149821801,0.0011023056346483,-0.0011023110313067,0.0011023096083974,-0.0011023082834602,0.001102312649029,-0.0011023043011566,0.0011023166385551,-0.0010019776536335,0.0010019746233042,-0.0010019659274304,0.0010019863179322,9.3398406776073e-09,-1.2129886851588e-08,2.342627214542e-09,-4.6833917193773e-09,-0.0012284832097134,0.0012284808796919,-0.0014089768758016,0.0014089839572734,-0.0014089791297463,0.0014089815956076,-0.0014089836457768,0.0014089768388537,-0.0014089858775881,0.0014089745052892,-0.0012479734222256,0.0012479708299857,-0.0012479801664777,0.0012479638599392,-0.0011578348140212,0.0011578510380886,-0.0011578557324518,0.0011578294328562,6.4402474755075e-09,-5.6090551112166e-09,-0.0012284816322441,0.001228482457142,-2.9027500134502e-09,3.8848498404452e-09,-0.001408979024234,0.0014089815770535,-0.0014089767651302,0.0014089837776882,-0.0014089830859065,0.0014089775772176,-0.0014089808088012,0.0014089798100846,-0.00115784709864,0.0011578384306391,-0.0011578352885935,0.001157850152655,0.61178640781126,131329,3014,0.0038980007045181,0.0051048580610737,0.0051048580610334,17.230568186869,-0.00010215545450504,-0.00010215545450504,-0.00010215545450504,3292980.1027224,0.014208847818977
18819200,0.98412122990707,0.014810666790477,0.0042884839707338,0.0052610914098577,0.0052610914098859,-0.00093653615707089,0.00093653778097878,-5.2145651688488e-09,6.8313758509805e-09,-9.5109515714287e-09,1.1577293672066e-08,-0.0011022560645927,0.0011022467553591,-0.0011022520739004,0.0011022507688994,-0.0011022494498648,0.0011022536852134,-0.0011022454278986,0.0011022577143469,-0.0010018765283903,0.0010018732924873,-0.0010018646868976,0.0010018851025589,9.1481183171125e-09,-1.1924920290551e-08,2.3570285434649e-09,-4.6864799604952e-09,-0.0012284246701107,0.0012284223515564,-0.0014089659989736,0.0014089729662074,-0.0014089682586033,0.0014089705988661,-0.0014089726381538,0.001408965979488,-0.0014089748757266,0.0014089636400089,-0.0012479144081509,0.0012479119766427,-0.0012479211690887,0.0012479049890311,-0.0011577694479761,0.0011577852884941,-0.0011577899772555,0.0011577640741895,6.5305613264225e-09,-5.6993405743518e-09,-0.0012284230983743,0.0012284239232781,-2.902328413771e-09,3.8844850565891e-09,-0.0014089680606354,0.0014089706733462,-0.0014089658015601,0.0014089728737882,-0.0014089721818312,0.0014089666134955,-0.0014089699052316,0.001408968846321,-0.0011577816297423,0.0011577727845864,-0.0011577696420566,0.0011577846831845,0.64922937592279,131329,3014,0.0038975593253829,0.0051046153910636,0.0051046153910322,16.993629913265,-0.00010405096069388,-0.00010405096069388,-0.00010405096069388,3291900.2144766,0.014207907971919
19019200,0.984458329574,0.014815494191152,0.004289851856796,0.0052628211671639,0.005262821167192,-0.00093641492090791,0.00093641653620966,-5.3067279836616e-09,6.9150688512462e-09,-9.3346818000551e-09,1.1390789906481e-08,-0.0011022345127409,0.001102225249894,-0.0011022304568418,0.0011022293286715,-0.0011022280107363,0.0011022320662201,-0.0011022239373403,0.0011022361468237,-0.0010017830731198,0.0010017795568162,-0.0010017710801103,0.0010017915185806,9.0327556587735e-09,-1.1801342093828e-08,2.3611217364643e-09,-4.6836045243408e-09,-0.0012283630685076,0.0012283607569882,-0.0014089811242527,0.0014089880116117,-0.0014089833774886,0.0014089856507148,-0.0014089876765586,0.0014089811124063,-0.0014089899215177,0.0014089787655696,-0.0012478875272914,0.0012478852049479,-0.0012478943108443,0.0012478781950668,-0.001157736081645,0.001157751715958,-0.0011577563982761,0.0011577307154387,6.592060944122e-09,-5.7605550941726e-09,-0.0012283615001189,0.0012283623253604,-2.9095841282609e-09,3.892103618612e-09,-0.0014089831312512,0.0014089857737937,-0.0014089808604114,0.0014089879860464,-0.0014089872867263,0.0014089816795562,-0.0014089850121329,0.001408983910376,-0.0011577482282125,0.0011577392473499,-0.0011577361002973,0.001157751287436,0.68719101702702,131329,3014,0.0038970598598811,0.0051043592205429,0.0051043592205082,16.756976317673,-0.00010594418945861,-0.00010594418945861,-0.00010594418945861,3286863.7802055,0.014206883973026
19219200,0.9847939225507,0.01482045366732,0.0042912623735545,0.0052645956468688,0.0052645956468969,-0.00093717893340658,0.00093718053701575,-5.4041351082055e-09,7.0009041568601e-09,-9.0862933806508e-09,1.1128366980351e-08,-0.0011031810138388,0.0011031718445867,-0.0011031768934076,0.0011031759879107,-0.0011031746770809,0.0011031784945947,-0.0011031705465354,0.0011031826323799,-0.0010026216696158,0.0010026178039307,-0.0010026095078969,0.0010026299335516,8.8648663471372e-09,-1.1622613078406e-08,2.3704362051696e-09,-4.6836877264838e-09,-0.0012292421885324,0.0012292398864094,-0.0014099874225547,0.0014099942030722,-0.0014099896751962,0.0014099918427004,-0.0014099938559172,0.0014099874235475,-0.0014099961077856,0.0014099850698211,-0.0012488459743511,0.0012488437971533,-0.0012488527785162,0.0012488367667324,-0.0011586818074219,0.001158697117498,-0.001158701794706,0.0011586764490222,6.6506175853156e-09,-5.818120667525e-09,-0.0012292406244132,0.0012292414505223,-2.9226768107002e-09,3.9062166275575e-09,-0.0014099893629113,0.001409992032239,-0.0014099870794591,0.0014099942574139,-0.0014099935534302,0.001409987902921,-0.0014099912734273,0.0014099901389555,-0.0011586938493805,0.0011586847537961,-0.0011586815977473,0.0011586969202292,0.70677988561817,131329,3014,0.0039002397210629,0.0051080011729889,0.0051080011729751,17.02253061793,-0.00010381975505656,-0.00010381975505656,-0.00010381975505656,3284875.041992,0.014217501386334
19419200,0.98513317901539,0.014825353691667,0.0042926511942737,0.0052663512486826,0.0052663512487106,-0.00093837477320921,0.00093837636123636,-5.5205898564164e-09,7.1004981599199e-09,-8.8878087766604e-09,1.0911041681255e-08,-0.0011046090133004,0.0011045999040675,-0.0011046048297206,0.0011046041096737,-0.0011046028233735,0.0011046064058151,-0.0011045986105484,0.0011046106242714,-0.0010039051649406,0.0010039008927231,-0.0010038927559508,0.0010039132733403,8.6713045105908e-09,-1.141589870205e-08,2.3766067275197e-09,-4.6783329269955e-09,-0.0012305859599374,0.0012305836684702,-0.0014114907651605,0.0014114974310459,-0.0014114930267771,0.0014114950572292,-0.0014114970699819,0.0014114907712295,-0.0014114993155052,0.0014114884261295,-0.0012502790917639,0.0012502770164147,-0.0012502858549591,0.0012502700309063,-0.0011601059529376,0.0011601208414566,-0.0011601254970134,0.0011601006082325,6.6935220794363e-09,-5.8584520707224e-09,-0.0012305844004156,0.0012305852281367,-2.9419251062662e-09,3.9290204871799e-09,-0.001411492634375,0.0014114953287178,-0.0014114903486691,0.0014114975581711,-0.0014114968602347,0.0014114911610562,-0.0014114945559307,0.0014114934163828,-0.0011601177863221,0.0011601086631338,-0.0011601055022527,0.0011601208853404,0.6926475868765,131329,3014,0.0039052145056906,0.0051135683975535,0.0051135683978521,17.539199216695,-9.9686406266442e-05,-9.9686406266442e-05,-9.9686406266442e-05,3285405.8543728,0.014233845941614
19619200,0.9854759681694,0.014830173315011,0.0042940120250426,0.0052680806449718,0.0052680806449967,-0.00093957690377579,0.00093957849376614,-5.5527568402078e-09,7.1359662609232e-09,-8.7828533140659e-09,1.0808292199387e-08,-0.0011060267172624,0.0011060176488771,-0.0011060225032501,0.001106021885755,-0.0011060205884552,0.001106024089659,-0.0011060163622479,0.0011060283228027,-0.0010051829557209,0.0010051785874719,-0.0010051705136174,0.0010051909984624,8.5196005064682e-09,-1.125440210362e-08,2.4021399419102e-09,-4.6959822341462e-09,-0.0012319365341871,0.0012319342515777,-0.0014129918392471,0.0014129984164805,-0.0014129941073779,0.0014129960400331,-0.0014129980361407,0.0014129918740958,-0.0014130003020008,0.001412989506607,-0.001251700345853,0.0012516984649394,-0.0012517071891465,0.0012516913962727,-0.0011615219458894,0.0011615365557506,-0.0011615412273222,0.0011615165958533,6.8084382631199e-09,-5.9750644482355e-09,-0.0012319349794181,0.0012319358063682,-2.939690267892e-09,3.9244341218785e-09,-0.0014129936304368,0.0014129963952185,-0.0014129913366064,0.0014129986312442,-0.0014129979269316,0.0014129921595364,-0.0014129956342777,0.0014129944079461,-0.001161533783919,0.0011615243955171,-0.0011615212285194,0.001161536868471,0.6763895449461,131329,3014,0.0039102144137946,0.0051191639642603,0.005119163964305,18.061887165282,-9.5504902677742e-05,-9.5504902677742e-05,-9.5504902677742e-05,3288065.7484863,0.01425027267239
19819200,0.98582201697191,0.014834887414362,0.0042953371310311,0.0052697751416527,0.005269775141678,-0.00094077783625461,0.00094077942228969,-5.6443757922234e-09,7.2237278656311e-09,-8.6939257240369e-09,1.0714582006139e-08,-0.0011074196311693,0.0011074105639949,-0.0011074153612681,0.0011074148567211,-0.0011074135671637,0.0011074169395379,-0.0011074092769245,0.001107421236837,-0.0010064500588973,0.0010064454377499,-0.001006437428258,0.0010064580371684,8.4467324549319e-09,-1.1176989077145e-08,2.4075712479144e-09,-4.6976660110313e-09,-0.0012332827326135,0.0012332804538424,-0.0014144759077037,0.0014144824453998,-0.0014144781823053,0.0014144800624224,-0.0014144820591212,0.0014144759488613,-0.0014144843230974,0.0014144735832804,-0.0012530998973066,0.0012530980650347,-0.0012531067352676,0.0012530910014694,-0.0011629156414018,0.001162930093481,-0.0011629347637172,0.0011629102935459,6.8687035685856e-09,-6.0346381907692e-09,-0.0012332811794057,0.0012332820070619,-2.9512694867724e-09,3.9368036899673e-09,-0.0014144776609599,0.0014144804621928,-0.0014144753633482,0.0014144827021636,-0.0014144820013107,0.0014144761826648,-0.0014144796964096,0.0014144784433418,-0.0011629274485509,0.0011629179643616,-0.0011629147885366,0.0011629305419613,0.65786895496815,131329,3014,0.0039152080491155,0.0051247416296132,0.005124741629637,18.584795833899,-9.1321633328809e-05,-9.1321633328809e-05,-9.1321633328809e-05,3292482.0339534,0.014266655897862
20019200,0.98616173381133,0.014839695381422,0.0042966959368805,0.0052714997222582,0.0052714997222836,-0.00094120455464908,0.00094120614261589,-5.7349789260069e-09,7.3161584136766e-09,-8.7427530247199e-09,1.0765713184029e-08,-0.0011079795531097,0.0011079703914824,-0.0011079752206633,0.0011079747467193,-0.0011079734536917,0.0011079768025643,-0.0011079691043237,0.0011079811589277,-0.0010069157679998,0.0010069110073892,-0.0010069029634479,0.0010069237816092,8.5851017665629e-09,-1.1324775750025e-08,2.400216319028e-09,-4.6984334439776e-09,-0.0012338131295997,0.001233810842593,-0.0014151066978013,0.0014151133182092,-0.0014151089684502,0.0014151109389389,-0.0014151129416972,0.001415106728098,-0.00141511520544,0.0014151043629383,-0.0012536614349075,0.0012536594965527,-0.0012536682709791,0.0012536524358299,-0.0011634735936046,0.0011634883249198,-0.0011634930007025,0.001163468238999,6.9268794337058e-09,-6.092680464794e-09,-0.0012338115722109,0.001233812399998,-2.9538518834702e-09,3.9395675210047e-09,-0.0014151084743224,0.0014151113112632,-0.00141510617335,0.0014151135547513,-0.0014151128520054,0.0014151069944942,-0.0014151105468497,0.001415109254769,-0.0011634855975307,0.0011634759964529,-0.0011634728199263,0.001163488693776,0.68048384622728,131329,3014,0.0039169849305544,0.0051269385485774,0.0051269385486104,18.671676527283,-9.0626587781735e-05,-9.0626587781735e-05,-9.0626587781735e-05,3292894.3991241,0.014272916759104
20219200,0.98649270849482,0.014844523121518,0.0042980657147257,0.0052732287033833,0.0052732287034085,-0.00094140289512165,0.00094140449548877,-5.7612196367536e-09,7.3548085892344e-09,-8.9853229519928e-09,1.1023039595177e-08,-0.0011083252133876,0.0011083158749406,-0.0011083208580377,0.0011083202531327,-0.0011083189474782,0.0011083224536694,-0.0011083145773181,0.001108326830854,-0.00100715774207,0.0010071531009301,-0.0010071448782009,0.0010071659341455,8.6633491603488e-09,-1.1407936562049e-08,2.4035706936668e-09,-4.7058792448416e-09,-0.0012341099426457,0.0012341076514472,-0.0014155105889417,0.0014155172614869,-0.0014155128621261,0.0014155148800068,-0.001415516885735,0.001415510618906,-0.0014155191538572,0.0014155082491284,-0.0012540050215573,0.0012540030411269,-0.0012540118726633,0.0012539959647077,-0.001163815658231,0.0011638305428082,-0.0011638352264966,0.0011638102947822,7.0436206692235e-09,-6.2104675744786e-09,-0.0012341083836282,0.001234109210473,-2.9418113491826e-09,3.9263412326176e-09,-0.0014155123492503,0.0014155152707269,-0.0014155100553624,0.0014155175068476,-0.0014155168041332,0.0014155108770354,-0.0014155145086863,0.0014155131283479,-0.0011638278620633,0.0011638180172927,-0.0011638148482849,0.001163830946702,0.69908660476122,131329,3014,0.0039178148259962,0.0051281670356267,0.0051281670356434,18.638370031345,-9.0893039749237e-05,-9.0893039749237e-05,-9.0893039749237e-05,3289648.1024967,0.014276253513902
20419200,0.98681511921069,0.014849232143289,0.0042994019428054,0.005274915100229,0.0052749151002544,-0.00094157849550572,0.00094158010355148,-5.8330095259747e-09,7.4341105830541e-09,-9.152500849911e-09,1.1199417616274e-08,-0.0011086692227956,0.0011086597262058,-0.0011086648158461,0.0011086641559667,-0.0011086628420925,0.0011086664203146,-0.0011086584224364,0.0011086708470323,-0.0010073814510572,0.0010073767868049,-0.0010073684412613,0.0010073897656518,8.8437282946487e-09,-1.1600683632839e-08,2.3934310370752e-09,-4.7062715667471e-09,-0.0012343873484655,0.0012343850465906,-0.0014159066103004,0.0014159133932097,-0.0014159088792364,0.0014159110160288,-0.0014159130307526,0.0014159066260482,-0.001415915296633,0.001415904258528,-0.0012543384568398,0.0012543363341981,-0.001254345300789,0.0012543292648168,-0.0011641510860793,0.0011641663341504,-0.001164171024997,0.0011641457138081,7.117798699018e-09,-6.2848329251976e-09,-0.0012343857842248,0.001234386610841,-2.9372068377002e-09,3.9214686669123e-09,-0.0014159084001823,0.0014159113725442,-0.0014159061082991,0.0014159136064305,-0.0014159129030603,0.0014159069308293,-0.0014159106116926,0.001415909177919,-0.0011641635462176,0.0011641535509118,-0.00116415038515,0.0011641666277342,0.6999840168983,131329,3014,0.0039185515351643,0.005129314724407,0.0051293147244268,18.602122531945,-9.1183019744438e-05,-9.1183019744438e-05,-9.1183019744438e-05,3285102.2373529,0.014279332652353
20619200,0.98712919878939,0.014853309671666,0.0043005399160999,0.0052763848777704,0.0052763848777958,-0.00094172150887782,0.00094172312343346,-5.9206758815924e-09,7.528169892342e-09,-9.2988828796287e-09,1.1353683069187e-08,-0.0011089849918878,0.0011089753409923,-0.0011089805245577,0.0011089798310985,-0.001108978511345,0.0011089821355068,-0.0011089740310292,0.001108986622855,-0.0010075551715846,0.0010075504353774,-0.0010075419835791,0.0010075635923652,9.0399507634662e-09,-1.18100936474e-08,2.3795506890556e-09,-4.7036633609007e-09,-0.0012346297109379,0.0012346273976852,-0.0014162716194811,0.0014162785208746,-0.0014162738831156,0.0014162761490424,-0.0014162781746245,0.0014162716181527,-0.0014162804348689,0.0014162692562439,-0.0012546168471197,0.0012546145611793,-0.0012546236746534,0.0012546075083997,-0.0011644413725202,0.0011644570121037,-0.0011644617086304,0.0011644359927255,7.1767491578278e-09,-6.3438473820524e-09,-0.0012346281410606,0.0012346289675727,-2.934927276251e-09,3.9190672251276e-09,-0.0014162734479651,0.0014162764612236,-0.001416271157717,0.0014162786933152,-0.0014162779903321,0.0014162719800882,-0.0014162757002994,0.0014162742256795,-0.0011644540864118,0.0011644439744586,-0.0011644408102225,0.0011644571661986,0.63099125608786,131329,3014,0.0039191527674101,0.0051303171750702,0.0051303171750909,18.565766787059,-9.147386570353e-05,-9.147386570353e-05,-9.147386570353e-05,3281304.3379844,0.014281979642541
20819200,0.98742052852909,0.014857405976074,0.0043016975554472,0.0052778542103008,0.0052778542103263,-0.00094048145060172,0.00094048308333633,-5.9563800131792e-09,7.5819880629692e-09,-9.6772581731997e-09,1.1753929894981e-08,-0.0011077581307348,0.0011077482072506,-0.0011077536316201,0.0011077527292085,-0.0011077513908458,0.0011077552627853,-0.001107746882257,0.0011077597784577,-0.0010062823778649,0.0010062778374252,-0.0010062691091702,0.0010062910760083,9.2711425153864e-09,-1.2056284895996e-08,2.363950210674e-09,-4.7008299248676e-09,-0.0012333950789965,0.0012333927527302,-0.0014150564774984,0.0014150635175322,-0.0014150587333379,0.0014150611540127,-0.0014150631902348,0.0014150564570732,-0.0014150654458177,0.0014150540995668,-0.0012533561625935,0.0012533536943686,-0.0012533629794398,0.0012533466522555,-0.0011631950093891,0.0011632111167354,-0.0011632158196059,0.0011631896211477,7.28113100074e-09,-6.4498946972032e-09,-0.0012333935033374,0.0012333943283973,-2.9146472807322e-09,3.8969605740883e-09,-0.001415058334686,0.0014150614290124,-0.0014150560563325,0.001415063648534,-0.0014150629454992,0.0014150568796409,-0.0014150606716247,0.0014150591099193,-0.0011632080726779,0.0011631977324039,-0.0011631945821245,0.00116321113495,0.67642718884432,131329,3014,0.0039140047621717,0.0051251996561458,0.0051251996561619,17.742023242849,-9.8063814057206e-05,-9.8063814057206e-05,-9.8063814057206e-05,3273184.0420164,0.014266375202065
21019200,0.98768950811948,0.014861059162564,0.0043027253317849,0.0052791669153766,0.0052791669154024,-0.00093904673215787,0.00093904837128337,-6.0665282675492e-09,7.698264882998e-09,-9.8452221936612e-09,1.1929802727098e-08,-0.0011063793657354,0.0011063692603047,-0.0011063747937491,0.0011063738550562,-0.0011063725132768,0.0011063764289055,-0.0011063679270107,0.001106381022242,-0.0010048205449157,0.0010048158955384,-0.0010048070458463,0.0010048293640296,9.6181251589482e-09,-1.2426607641656e-08,2.3308474025321e-09,-4.68762374707e-09,-0.001231961721236,0.0012319593749222,-0.0014136668645342,0.0014136741099728,-0.0014136691074426,0.0014136717591547,-0.0014136738164711,0.0014136668080186,-0.0014136760545596,0.0014136644683491,-0.001251920746963,0.0012519179649704,-0.0012519275095828,0.0012519109774401,-0.0011617815122392,0.0011617983118418,-0.0011618030189508,0.0011617761163631,7.3177394030843e-09,-6.4867468443954e-09,-0.0012319601357392,0.0012319609604266,-2.9065563357873e-09,3.8885350008073e-09,-0.0014136688077482,0.0014136719344453,-0.0014136665375303,0.0014136741459581,-0.0014136734458439,0.0014136673580116,-0.0014136711746567,0.0014136695845091,-0.0011617949540659,0.001161784544304,-0.001161781401215,0.0011617980117561,0.65601666310204,131329,3014,0.003908050981341,0.0051192578463606,0.0051192578463753,16.83131819434,-0.00010534945444528,-0.00010534945444528,-0.00010534945444528,3259981.3990171,0.014248283958772
21219200,0.98793802420158,0.014864458456848,0.0043036836082798,0.0052803874242713,0.005280387424297,-0.00093760776660033,0.00093760941359215,-6.1417690166724e-09,7.7812185450559e-09,-1.0026005652233e-08,1.2120165783255e-08,-0.0011049560519999,0.0011049457775091,-0.0011049514276232,0.0011049504246468,-0.0011049490756356,0.0011049530707354,-0.0011049444369074,0.0011049577165328,-0.0010033452288763,0.0010033405562751,-0.001003331575151,0.0010033541792385,9.8155279646231e-09,-1.2636941638254e-08,2.3103461371842e-09,-4.6780269205311e-09,-0.0012305079425837,0.0012305055852349,-0.0014122294419543,0.0014122368017045,-0.0014122316749494,0.0014122344608056,-0.0014122365284125,0.0014122293641642,-0.0014122387566123,0.0014122270345425,-0.0012504505306873,0.0012504475719357,-0.0012504572638042,0.0012504406143339,-0.0011603316496923,0.0011603488471005,-0.0011603535553106,0.0011603262511551,7.3883216559038e-09,-6.5580555739627e-09,-0.0012305063519568,0.0012305071758709,-2.8931836430492e-09,3.8742613361521e-09,-0.0014122314140081,0.0014122345968124,-0.0014122291530894,0.0014122367990107,-0.0014122360998248,0.0014122299729096,-0.0014122338377226,0.0014122321899761,-0.0011603453644147,0.0011603348055019,-0.0011603316725464,0.0011603484123268,0.65967103328873,131329,3014,0.0039020775240347,0.0051132319233585,0.0051132319233766,15.918340382261,-0.00011265327694191,-0.00011265327694191,-0.00011265327694191,3248672.5640683,0.014230001105104
21419200,0.9881711314926,0.014867671065875,0.0043045909100215,0.0052815400779137,0.0052815400779395,-0.00093656567310057,0.00093656732237999,-6.2012253243525e-09,7.8429246421828e-09,-1.0090059554489e-08,1.2187102090397e-08,-0.0011039394584758,0.0011039290993946,-0.0011039347905484,0.001103933789992,-0.0011039324360197,0.0011039364390735,-0.0011039277596757,0.0011039411224057,-0.0010022812266705,0.0010022764901256,-0.0010022674632417,0.0010022902226244,9.8359546550673e-09,-1.2658090698595e-08,2.3032968117532e-09,-4.6714032364401e-09,-0.0012294625126207,0.0012294601548313,-0.0014112058112802,0.0014112131771715,-0.0014112080367385,0.0014112108437865,-0.0014112129088012,0.0014112057285057,-0.0014112151353851,0.0014112034004743,-0.0012493980266003,0.0012493950492724,-0.0012494047552603,0.0012493880958613,-0.0011592941658416,0.0011593114166851,-0.0011593161209413,0.0011592887711293,7.4774687754028e-09,-6.6478064840163e-09,-0.0012294609221071,0.0012294617453559,-2.8819182829923e-09,3.8622319321127e-09,-0.001411207754514,0.0014112110009527,-0.0014112054984545,0.0014112131984405,-0.0014112124969404,0.0014112063205688,-0.0014112102455882,0.0014112085269812,-0.0011593080038522,0.0011592972525285,-0.0011592941273772,0.0011593110431376,0.66373455373237,131329,3014,0.0038977521031675,0.0051088984642385,0.0051088984642609,15.22997107043,-0.00011816023143656,-0.00011816023143656,-0.00011816023143656,3239920.0195623,0.014216823564562
21619200,0.98839025985436,0.014870720470512,0.0043054537367726,0.0052826333668568,0.0052826333668826,-0.0009355591809311,0.00093556083149928,-6.2327032074894e-09,7.8758347838006e-09,-1.0121961444673e-08,1.2220769393237e-08,-0.0011029623015451,0.0011029518897437,-0.0011029576014136,0.0011029566125272,-0.0011029552474488,0.0011029592617582,-0.0011029505597852,0.0011029639562772,-0.0010012533668383,0.001001248621859,-0.0010012395714403,0.0010012623858568,9.7529938645411e-09,-1.256802431665e-08,2.3058085847569e-09,-4.6676693049502e-09,-0.0012284509160111,0.0012284485645026,-0.0014102177602918,0.0014102250644511,-0.0014102199747589,0.0014102227422367,-0.0014102247904156,0.0014102176837235,-0.0014102270264636,0.0014102153453578,-0.0012483808539353,0.0012483779715349,-0.0012483876139831,0.0012483709866365,-0.0011582929312305,0.0011583100507584,-0.0011583147491914,0.0011582875435342,7.5947282023843e-09,-6.7662364723556e-09,-0.0012284493292316,0.0012284501513451,-2.8690917480106e-09,3.8482100965584e-09,-0.0014102196348927,0.0014102229567175,-0.0014102173773097,0.0014102251560465,-0.0014102244448066,0.0014102182080337,-0.001410222213477,0.0014102203958899,-0.0011583068416164,0.0011582958185668,-0.0011582927016401,0.0011583098701775,0.66920856768471,131329,3014,0.003893574610055,0.0051047052168314,0.0051047052169627,14.565657639438,-0.00012347473888449,-0.00012347473888449,-0.00012347473888449,3231294.6373346,0.01420408087147
21819200,0.9885963750497,0.014873544662737,0.0043062515122287,0.0052836465752414,0.0052836465752671,-0.00093454156377479,0.00093454320767489,-6.3449663191931e-09,7.9814059077047e-09,-1.00084405281e-08,1.2099355073802e-08,-0.0011019778450659,0.0011019674415903,-0.0011019730812253,0.001101972228143,-0.0011019708776474,0.0011019747258055,-0.0011019661085733,0.0011019795019265,-0.0010002131525623,0.0010002080821732,-0.0010001991165321,0.0010002220871122,9.7211553896253e-09,-1.2534101536533e-08,2.2966230325098e-09,-4.6567650868151e-09,-0.0012274250485721,0.0012274226988524,-0.0014092168894683,0.0014092241758771,-0.0014092191064368,0.0014092218512969,-0.0014092239070771,0.0014092168079879,-0.0014092261279487,0.0014092144855442,-0.0012473498844736,0.0012473469785395,-0.0012473565965646,0.0012473400412644,-0.0011572799356559,0.0011572969722696,-0.0011573016614984,0.0011572745569711,7.636108028612e-09,-6.8072380814316e-09,-0.0012274234624673,0.0012274242849683,-2.8687066740685e-09,3.8481376875939e-09,-0.0014092187370132,0.0014092220958818,-0.0014092164883938,0.0014092242857044,-0.0014092235834416,0.0014092173112177,-0.0014092213428271,0.001409219507278,-0.0011572938294833,0.001157282752945,-0.0011572796373679,0.0011572968586418,0.65988856281962,131329,3014,0.0038893510996701,0.0051004527419846,0.0051004527420068,13.901975015312,-0.0001287841998775,-0.0001287841998775,-0.0001287841998775,3222386.4158384,0.014191171770707
22019200,0.98880217172286,0.0148763173077,0.004307033446455,0.0052846419306097,0.0052846419306354,-0.00093517199188785,0.00093517361969817,-6.438286507296e-09,8.0587875986001e-09,-9.6804220139583e-09,1.1752091119507e-08,-0.0011026773092883,0.001102667057187,-0.0011026724882215,0.0011026719012547,-0.001102670564542,0.0011026741169008,-0.0011026657396941,0.0011026789489836,-0.0010008732970884,0.0010008678212898,-0.0010008590964141,0.0010008819903332,9.4507221215614e-09,-1.2245316318529e-08,2.3109757508723e-09,-4.6553455908691e-09,-0.0012281158751788,0.001228113541361,-0.0014099575428975,0.0014099646617755,-0.0014099597635887,0.0014099623337674,-0.0014099643738519,0.0014099574822062,-0.0014099666000575,0.00140995515474,-0.0012480590925302,0.0012480564035211,-0.0012480658194429,0.0012480494514293,-0.0011579850366051,0.0011580015370825,-0.0011580062158892,0.0011579796715521,7.7013847870989e-09,-6.8716749756935e-09,-0.0012281142966299,0.0012281151199051,-2.8786353290784e-09,3.8588738439941e-09,-0.0014099592889507,0.0014099626844912,-0.0014099570325116,0.0014099648817455,-0.0014099641781596,0.0014099578571252,-0.0014099619312818,0.0014099600589968,-0.0011579987238444,0.0011579875254979,-0.0011579844023001,0.0011580017612714,0.6498238018315,131329,3014,0.0038919708409605,0.0051033155800101,0.0051033155799984,14.153532353039,-0.00012677174117569,-0.00012677174117569,-0.00012677174117569,3225802.1490311,0.014199636607009
22219200,0.98900883871955,0.01487907791884,0.0043078110883079,0.0052856334152534,0.0052856334152792,-0.00093597698065272,0.00093597859440071,-6.5214174157921e-09,8.1281440162797e-09,-9.3833054709294e-09,1.143810753349e-08,-0.0011035532492635,0.0011035431355678,-0.0011035483769559,0.0011035480308525,-0.001103546706549,0.001103549991644,-0.0011035418314915,0.0011035548741046,-0.0010017055699367,0.0010016997290036,-0.0010016912218051,0.0010017140456839,9.1452498994979e-09,-1.1919176735825e-08,2.3302224897813e-09,-4.6570697225134e-09,-0.0012289900016694,0.0012289876856623,-0.0014108863823148,0.0014108933147568,-0.0014108886096091,0.0014108909802958,-0.0014108930034426,0.0014108863471212,-0.001410895237079,0.0014108840122624,-0.0012489428317792,0.0012489403929509,-0.0012489495801781,0.0012489334187609,-0.0011588628518307,0.0011588787441796,-0.0011588834123025,0.0011588575005489,7.7756535968848e-09,-6.9452324862679e-09,-0.0012289884316373,0.001228989255666,-2.8890024699282e-09,3.8701107625669e-09,-0.0014108880144789,0.001410891452502,-0.0014108857502437,0.00141089365728,-0.0014108929526597,0.0014108865762704,-0.0014108906990514,0.0014108887849659,-0.0011588763048922,0.0011588649677569,-0.001158861836959,0.0011588793498375,0.64497436631849,131329,3014,0.0038953149244142,0.0051069382825094,0.0051069382824484,14.500025263549,-0.00012399979789161,-0.00012399979789161,-0.00012399979789161,3231558.2320581,0.014210377280361
22419200,0.98921631316003,0.014881977980881,0.0043086331170475,0.0052866724319037,0.0052866724319299,-0.00093679224584561,0.00093679384730971,-6.600682335362e-09,8.1952489461231e-09,-9.1323524504308e-09,1.1172436855458e-08,-0.0011044332251893,0.00110442322314,-0.0011044283042383,0.0011044281669072,-0.0011044268547778,0.0011044299066068,-0.0011044219304004,0.0011044348380362,-0.0010025525652034,0.0010025463959079,-0.0010025380726711,0.0010025608571676,8.8760747891074e-09,-1.1630846064787e-08,2.3497916709011e-09,-4.6603167578164e-09,-0.001229875710993,0.001229873411494,-0.001411823866429,0.0014118306376546,-0.0014118261012811,0.0014118282950012,-0.0014118303027069,0.0014118238551362,-0.0014118325434423,0.0014118215128115,-0.001249840738709,0.0012498385236347,-0.0012498475090392,0.0012498315281081,-0.0011597496183194,0.0011597649715004,-0.0011597696309737,0.0011597442780072,7.8527822230699e-09,-7.0220451436351e-09,-0.0012298741490798,0.0012298749734207,-2.8989822242006e-09,3.8805642983362e-09,-0.0014118253952738,0.0014118288783297,-0.0014118231252201,0.0014118310903749,-0.001411830384717,0.0014118239501608,-0.0014118281243044,0.0014118261662682,-0.001159762873646,0.0011597513941069,-0.00115974825685,0.0011597659266595,0.67139355308807,131329,3014,0.0038987014476224,0.0051106090380406,0.0051106090380684,14.849016417933,-0.00012120786865654,-0.00012120786865654,-0.00012120786865654,3237409.760424,0.014221258426869
22619200,0.98942435174855,0.014884920918738,0.0043094682901527,0.0052877263142795,0.0052877263143056,-0.00093757390831706,0.00093757550088607,-6.6768358264546e-09,8.2626877526491e-09,-8.9346000623364e-09,1.0963937302241e-08,-0.001105319713409,0.0011053097922095,-0.0011053147466646,0.0011053147817865,-0.0011053134799692,0.0011053163377883,-0.0011053085055726,0.0011053213192751,-0.0010033766553787,0.0010033701951302,-0.0010033620161097,0.0010033848034994,8.6763502094606e-09,-1.1417826728999e-08,2.3665010647816e-09,-4.66574846253e-09,-0.0012307385008799,0.0012307362127349,-0.0014127636315399,0.0014127702860117,-0.0014127658758749,0.0014127679339069,-0.0014127699332152,0.0014127636391811,-0.0014127721791925,0.0014127612916323,-0.0012507347530289,0.0012507327022244,-0.0012507415386678,0.0012507256915932,-0.0011606346567961,0.0011606496026249,-0.0011606542581036,0.0011606293223168,7.9314004641013e-09,-7.1001844668265e-09,-0.0012307369443659,0.0012307377692557,-2.9081891841108e-09,3.8903399203741e-09,-0.0014127650780383,0.0014127686096438,-0.0014127628037459,0.0014127708258952,-0.0014127701217227,0.0014127636271116,-0.0014127678528911,0.001412765851729,-0.0011606477790086,0.0011606361590012,-0.0011606330152372,0.0011606508389355,0.67880269053708,131329,3014,0.0039019506401751,0.0051141842121097,0.0051141842121235,15.187187166699,-0.0001185025026664,-0.0001185025026664,-0.0001185025026664,3240628.7583376,0.01423180811662
22819200,0.98962993043222,0.014887819219364,0.0043102901994852,0.0052887645099263,0.0052887645099525,-0.0009379468342071,0.00093794842879589,-6.7352126352302e-09,8.3234430202645e-09,-8.9343059700266e-09,1.0965973200193e-08,-0.0011057963893534,0.0011057864307586,-0.0011057913841768,0.0011057914599238,-0.0011057901560759,0.0011057929758647,-0.0011057851415327,0.00110579799805,-0.0010037804579991,0.0010037738854456,-0.0010037657024033,0.0010037886100369,8.523291144998e-09,-1.1253538897012e-08,2.3811900606605e-09,-4.6710491867507e-09,-0.0012311786824615,0.0012311764037212,-0.0014132793092105,0.0014132858746679,-0.0014132815613451,0.0014132835163041,-0.0014132855073506,0.001413279334045,-0.0014132877592468,0.0014132769808172,-0.0012512026134502,0.001251200699993,-0.0012512094219581,0.0012511936672283,-0.0011611003978805,0.0011611150352891,-0.0011611196901829,0.0011610950665696,8.0218097292192e-09,-7.1911702502145e-09,-0.0012311771307188,0.0012311779554598,-2.9119249378096e-09,3.8936005356175e-09,-0.0014132806827438,0.0014132842730032,-0.001413278405896,0.0014132864904617,-0.0014132857877052,0.0014132792295268,-0.0014132835160775,0.001413281457761,-0.0011611134584674,0.0011611016627542,-0.0011610985138997,0.0011611165178335,0.67691804205749,131329,3014,0.003903503127565,0.0051160076424606,0.0051160076424511,15.303584311083,-0.00011757132551133,-0.00011757132551133,-0.00011757132551133,3240518.4719056,0.0142370836857
23019200,0.98983297868951,0.014890469968482,0.004311033867987,0.0052897180502343,0.0052897180502607,-0.00093829664660671,0.00093829823695538,-6.8275269742964e-09,8.4112434255812e-09,-8.8650724071526e-09,1.0891541227362e-08,-0.0011062461073581,0.0011062361313982,-0.0011062410404539,0.0011062412212381,-0.00110623992093,0.001106242629646,-0.0011062348470929,0.0011062477106445,-0.0010041550768575,0.0010041482758908,-0.001004140145556,0.0010041631760837,8.5910069394834e-09,-1.1327690730107e-08,2.3808352893841e-09,-4.6762115949932e-09,-0.0012315940152812,0.0012315917310714,-0.0014137681783166,0.0014137747869864,-0.0014137704305122,0.0014137724271545,-0.0014137744224519,0.001413768198409,-0.0014137766769718,0.0014137658422151,-0.0012516378987517,0.0012516359360917,-0.0012516447100983,0.0012516288993987,-0.0011615359385969,0.0011615507105176,-0.0011615553707629,0.0011615306004152,8.0826308745867e-09,-7.2508036577489e-09,-0.0012315924604024,0.0012315932859512,-2.9197157291298e-09,3.9025966770268e-09,-0.0014137695558128,0.0014137731800508,-0.0014137672730069,0.0014137754045677,-0.0014137746993847,0.0014137680974081,-0.0014137724231639,0.0014137703298303,-0.0011615491185939,0.0011615372104864,-0.0011615340576437,0.0011615521867714,0.63260004280289,131329,3014,0.0039049594255613,0.0051177280709422,0.0051177280709434,15.414798284881,-0.00011668161372096,-0.00011668161372096,-0.00011668161372096,3240692.209378,0.014242052571937
23219200,0.99003349452377,0.014893213380137,0.0043118091265993,0.0052907021267556,0.005290702126782,-0.00093867090256074,0.00093867249457555,-6.9004039671307e-09,8.4857411430506e-09,-8.9017389184276e-09,1.0930152004477e-08,-0.0011066497763014,0.001106639727561,-0.0011066446603505,0.0011066448664072,-0.0011066435645641,0.0011066462512831,-0.0011066384416083,0.0011066513813368,-0.0010045438515547,0.0010045369328255,-0.0010045287760978,0.0010045519770915,8.614549577738e-09,-1.1352706666457e-08,2.3853061658322e-09,-4.6819247313538e-09,-0.0012320181760243,0.001232015890563,-0.0014142224501556,0.0014142290765148,-0.00141422470577,0.0014142267131956,-0.0014142287097717,0.0014142224723769,-0.0014142309676222,0.0014142201127955,-0.0012520580123532,0.0012520560422388,-0.001252064833657,0.0012520489957237,-0.0011619457076549,0.0011619605212258,-0.0011619651860838,0.0011619403647598,8.1593854338464e-09,-7.3272238096952e-09,-0.0012320166203795,0.0012320174462113,-2.9239461239236e-09,3.9071700995178e-09,-0.0014142238121476,0.0014142274849771,-0.0014142215265036,0.0014142297123894,-0.0014142290069813,0.0014142223511053,-0.0014142267277975,0.0014142245865033,-0.0011619589820421,0.0011619469269702,-0.0011619437708281,0.0011619620533244,0.65900011270357,131329,3014,0.0039065136647294,0.0051194860134759,0.0051194860134827,15.525823070651,-0.00011579341543479,-0.00011579341543479,-0.00011579341543479,3244454.0797253,0.014247194289097
23419200,0.99023233234812,0.014895902920832,0.0043125678510179,0.0052916675348937,0.0052916675349201,-0.00093915192134905,0.00093915351617551,-6.9775088710112e-09,8.5656167831399e-09,-8.9574728477061e-09,1.0989207966387e-08,-0.0011072030080086,0.0011071928711845,-0.0011071978395821,0.0011071980625536,-0.0011071967578527,0.0011071994334898,-0.0011071915827796,0.0011072046157029,-0.001005052327687,0.0010050452968099,-0.0010050370990738,0.0010050604942631,8.6946126625641e-09,-1.1438438467163e-08,2.3862390960805e-09,-4.6877628572034e-09,-0.0012325635906959,0.0012325613002979,-0.0014148258027791,0.001414832481432,-0.0014148280604736,0.0014148301160529,-0.0014148321171366,0.0014148258222129,-0.0014148343774348,0.0014148234602177,-0.0012526188699405,0.0012526168467076,-0.00125262569832,0.0012526097929479,-0.0011624966825887,0.0011625116523749,-0.001162516324443,0.0011624913318388,8.231259461556e-09,-7.3989055915718e-09,-0.0012325620324793,0.0012325628585187,-2.9284729248682e-09,3.9119430462076e-09,-0.0014148271684393,0.001414830886066,-0.0014148248794859,0.0014148331167458,-0.0014148324110095,0.001414825704566,-0.0014148301288234,0.0014148279428014,-0.0011625101037512,0.0011624979109451,-0.0011624947514406,0.0011625131784111,0.65256369690541,131329,3014,0.0039085132521448,0.0051217460133926,0.0051217460134009,15.704522059308,-0.00011436382352554,-0.00011436382352554,-0.00011436382352554,3246565.247594,0.014253807932821
23619200,0.99043369821687,0.01489869368802,0.0043133578622266,0.0052926679128833,0.0052926679129096,-0.00094024285281781,0.00094024444463731,-7.088835133835e-09,8.6737886387993e-09,-8.8893644167543e-09,1.0917344565206e-08,-0.0011083767879874,0.0011083666200443,-0.0011083715451814,0.0011083718858998,-0.0011083705821569,0.0011083731376805,-0.0011083653355998,0.0011083783916413,-0.0010061919934118,0.0010061847031109,-0.0010061765542021,0.0010062001108183,8.8366303444551e-09,-1.1590932381233e-08,2.3797856540485e-09,-4.6904355704264e-09,-0.0012337457475878,0.0012337434482103,-0.0014160734419277,0.0014160802067334,-0.0014160756969629,0.0014160778440898,-0.0014160798522194,0.0014160734514747,-0.0014160821127079,0.0014160710894977,-0.0012538266190372,0.0012538244898931,-0.0012538334484148,0.0012538174346553,-0.0011636847551087,0.0011637000114196,-0.0011637046927948,0.0011636793953044,8.2723354574184e-09,-7.4390406337091e-09,-0.0012337441843792,0.0012337450113996,-2.9429150644355e-09,3.9272889870761e-09,-0.0014160748420085,0.001416078576494,-0.0014160725419397,0.0014160808188169,-0.0014160801109233,0.0014160733696931,-0.0014160778197684,0.0014160756161477,-0.0011636983556233,0.0011636860899276,-0.0011636829194799,0.0011637014415178,0.66669035312785,131329,3014,0.0039130452755904,0.0051266451037657,0.0051266451037253,16.219270889902,-0.00011024583288079,-0.00011024583288079,-0.00011024583288079,3253330.1661236,0.014268343860568
23819200,0.9906375588998,0.014901681407093,0.004314209504823,0.0052937359511217,0.0052937359511481,-0.00094134779210273,0.00094134939666381,-7.0902719279125e-09,8.6879466430467e-09,-9.1447210035211e-09,1.1187794944279e-08,-0.001109589950909,0.0011095796186166,-0.001109584705694,0.0011095848867983,-0.0011095835745733,0.0011095863081127,-0.0011095783193823,0.0011095915704096,-0.0010073555422753,0.0010073484150817,-0.0010073400793162,0.0010073638464894,8.7047023534115e-09,-1.144915612622e-08,2.4052779596943e-09,-4.7072812639349e-09,-0.0012349509167267,0.0012349486259353,-0.0014173606674431,0.0014173673664607,-0.0014173629395558,0.0014173649865142,-0.0014173669896507,0.0014173606996088,-0.0014173692610604,0.0014173583264565,-0.0012550710000131,0.0012550690029315,-0.0012550778610621,0.0012550619152529,-0.0011649089445279,0.0011649239138803,-0.0011649285998806,0.0011649035801708,8.4143628692255e-09,-7.5818151513986e-09,-0.0012349493582435,0.0012349501844215,-2.9323538368678e-09,3.9160327592696e-09,-0.0014173619824312,0.001417365821373,-0.0014173596926635,0.001417368053216,-0.0014173673491939,0.0014173605162578,-0.0014173650628041,0.0014173627589847,-0.0011649225418054,0.0011649099974504,-0.0011649068334003,0.0011649256178127,0.70079155790251,131329,3014,0.0039176368649053,0.0051316392213716,0.0051316392213773,16.7418895203,-0.0001060648838376,-0.0001060648838376,-0.0001060648838376,3258851.4533217,0.014283134117885
24019200,0.99084377310449,0.014904739989979,0.0043150820797967,0.0052948289550781,0.0052948289551044,-0.00094243433957382,0.00094243594592657,-7.1759547175974e-09,8.7754190135611e-09,-9.1855281193623e-09,1.1230857393133e-08,-0.0011108375884997,0.0011108271719582,-0.0011108322848269,0.0011108324985664,-0.0011108311841437,0.0011108338894626,-0.001110825871692,0.0011108392090568,-0.0010085136138326,0.0010085063481381,-0.0010084979816738,0.0010085219488067,8.8100085740326e-09,-1.1562048935669e-08,2.4031062759082e-09,-4.7116754478142e-09,-0.0012361524689029,0.0012361501714174,-0.0014186766823511,0.0014186834495299,-0.0014186789545505,0.0014186810696001,-0.0014186830784415,0.0014186767082162,-0.0014186853511074,0.0014186743337192,-0.0012563346334561,0.001256332560185,-0.0012563414981728,0.001256325469366,-0.001166157524898,0.0011661727072162,-0.0011661773999789,0.0011661521524769,8.478445158732e-09,-7.645522310718e-09,-0.0012361509068709,0.0012361517334521,-2.9387339283722e-09,3.9228772884387e-09,-0.0014186780128493,0.0014186818889624,-0.0014186757177423,0.0014186841257005,-0.0014186834206675,0.0014186765424065,-0.0014186811304096,0.0014186787889664,-0.001166171288512,0.0011661586235143,-0.001166155455251,0.0011661743698489,0.70866201511671,131329,3014,0.0039221549406686,0.0051366175093254,0.0051366175093306,17.264795479729,-0.00010188163616217,-0.00010188163616217,-0.00010188163616217,3261565.152062,0.014297819837792
24219200,0.99105095136739,0.014907672674307,0.0043159133459569,0.005295879664162,0.0052958796641884,-0.00094333358643834,0.00094333519506635,-7.2661212821884e-09,8.8678167885195e-09,-9.2402530417888e-09,1.1288406801039e-08,-0.0011119071934381,0.0011118966788323,-0.0011119018271761,0.0011119020680234,-0.0011119007497387,0.0011119034358941,-0.0011118953782955,0.0011119088144534,-0.0010094774253501,0.0010094700256647,-0.0010094616203001,0.0010094857999246,8.9601751910089e-09,-1.1722476040018e-08,2.3956694531936e-09,-4.7130789835335e-09,-0.0012371641714684,0.0012371618649771,-0.0014198084101185,0.0014198152676483,-0.00141981067855,0.001419812891469,-0.0014198149071107,0.0014198084245976,-0.0014198171796147,0.001419806050296,-0.0012574038215406,0.0012574016348572,-0.0012574106858763,0.0012573945452337,-0.0011672187033124,0.0011672341885598,-0.0011672388874932,0.001167213322855,8.5375736833962e-09,-7.7045970216144e-09,-0.0012371626048638,0.001237163431582,-2.9428694318589e-09,3.9271116852572e-09,-0.0014198097680639,0.0014198136793355,-0.0014198074683623,0.0014198159205756,-0.0014198152135448,0.0014198082950896,-0.001419812922182,0.0014198105424731,-0.0011672326767661,0.0011672198932632,-0.0011672167230458,0.0011672357614468,0.68010064248866,131329,3014,0.0039258959789632,0.005140808671252,0.0051408086712521,17.692604323059,-9.8459165415524e-05,-9.8459165415524e-05,-9.8459165415524e-05,3262903.9027721,0.014310120945016
24419200,0.99125591981051,0.014910570593876,0.0043167347251488,0.0052969179343506,0.0052969179343769,-0.00094381833067214,0.00094381994433627,-7.3499892511089e-09,8.956590577453e-09,-9.3547023910868e-09,1.1408951229577e-08,-0.0011125042655978,0.0011124936185866,-0.0011124988406497,0.00111249906645,-0.001112497742255,0.0011125004556847,-0.0011124923145995,0.0011125058904471,-0.0010100029579091,0.0010099954756837,-0.001009986987589,0.0010100114151277,9.1347544483038e-09,-1.1908968695063e-08,2.3841999499577e-09,-4.7117808372257e-09,-0.0012377329776096,0.0012377306608763,-0.0014204601178962,0.0014204670793278,-0.0014204623809214,0.001420464708519,-0.0014204667325269,0.0014204601176858,-0.0014204690020756,0.0014204577464092,-0.0012580026378827,0.0012580003114277,-0.001258009493108,0.0012579932307917,-0.0011678113455147,0.0011678271815628,-0.0011678318864635,0.0011678059577067,8.6014740789888e-09,-7.7685399414373e-09,-0.0012377314059386,0.001237732232552,-2.9406793992041e-09,3.9248719854726e-09,-0.0014204615060524,0.0014204654603548,-0.0014204592066785,0.0014204677012553,-0.0014204669932863,0.0014204600345329,-0.0014204647044397,0.0014204622789669,-0.0011678255590062,0.0011678126450273,-0.0011678094766025,0.0011678286426029,0.67934590537848,131329,3014,0.0039279134356145,0.0051431647783503,0.0051431647783594,17.884938758242,-9.6920489934062e-05,-9.6920489934062e-05,-9.6920489934062e-05,3263801.9578475,0.014316949033182
24619200,0.99145857007391,0.014913579054712,0.0043175929307817,0.0052979930619521,0.0052979930619783,-0.00094429890291094,0.00094430052547327,-7.4012768872186e-09,9.0167136326761e-09,-9.5407060796253e-09,1.1605609561624e-08,-0.0011130863051561,0.0011130755062143,-0.0011130808469526,0.0011130809873382,-0.0011130796587645,0.0011130824672014,-0.0011130741901051,0.0011130879429786,-0.0010105274220793,0.0010105199560296,-0.0010105113315988,0.0010105360155393,9.2010397610394e-09,-1.1979140362599e-08,2.3806171506731e-09,-4.7113328220239e-09,-0.0012382952751703,0.0012382929551993,-0.0014210979610439,0.0014211049668446,-0.0014211002266498,0.0014211025935294,-0.001421104624472,0.0014210979562846,-0.0014211068887648,0.0014210955902604,-0.001258598648422,0.0012585962587777,-0.001258605488573,0.0012585891931759,-0.0011683975266641,0.0011684134824823,-0.0011684181893478,0.0011683921362714,8.695642127102e-09,-7.8633291286927e-09,-0.0012382937021797,0.0012382945281926,-2.9321456128466e-09,3.9156067414607e-09,-0.0014210993350684,0.0014211033618042,-0.0014210970454866,0.0014211055928486,-0.0014211048894626,0.0014210978690379,-0.0014211026027658,0.0014211001115747,-0.0011684118908216,0.0011683987961423,-0.0011683956333323,0.0011684149668034,0.70944459191334,131329,3014,0.003929913158842,0.0051454940452983,0.0051454940453035,18.071744139143,-9.5426046886854e-05,-9.5426046886854e-05,-9.5426046886854e-05,3264559.4499513,0.014323704497054
24819200,0.99165886595352,0.014916323627176,0.0043183673041991,0.0052989781614755,0.0052989781615017,-0.00094475106743698,0.00094475269395955,-7.4792924037805e-09,9.0986235943536e-09,-9.6365173885086e-09,1.1706290997669e-08,-0.0011136849351618,0.0011136740207536,-0.0011136794229075,0.0011136795558964,-0.0011136782230129,0.0011136810478714,-0.0011136727016661,0.0011136865763073,-0.0010110242366456,0.0010110166854754,-0.0010110079911836,0.001011032899741,9.3225224427363e-09,-1.210848204234e-08,2.3705467806358e-09,-4.7079079869498e-09,-0.0012388383452423,0.0012388360185638,-0.0014217453923419,0.0014217524707852,-0.0014217476527045,0.0014217501027483,-0.001421752139166,0.0014217453762759,-0.0014217543997109,0.0014217430139736,-0.0012591849032553,0.0012591824119494,-0.0012591917323709,0.0012591753575235,-0.0011689833486405,0.0011689995521895,-0.0011690042610939,0.0011689779549859,8.765940469477e-09,-7.9338292745499e-09,-0.0012388367690208,0.0012388375947869,-2.9272741664306e-09,3.9104707035101e-09,-0.001421746778119,0.0014217508537633,-0.001421744491032,0.0014217530821805,-0.00142175237837,0.0014217453151214,-0.0014217500957503,0.0014217475535612,-0.0011689979079392,0.0011689846702076,-0.0011689815108581,0.00116900098034,0.66112228252407,131329,3014,0.0039317970864588,0.0051477430429226,0.0051477430429253,18.258347508515,-9.393321993188e-05,-9.393321993188e-05,-9.393321993188e-05,3263243.9441407,0.014330181367452
25019200,0.9918590594135,0.014919032478537,0.0043191306841392,0.0052999508971856,0.0052999508972118,-0.0009455562988958,0.00094555792738219,-7.5320800484777e-09,9.1528619434975e-09,-9.7644174075743e-09,1.1836798580752e-08,-0.001114575814772,0.0011145647786855,-0.0011145702656977,0.0011145703497803,-0.0011145690159239,0.0011145718925625,-0.0011145634590043,0.0011145774553262,-0.0010118701176943,0.0010118625424205,-0.0010118537645683,0.0010118788666049,9.2651400348366e-09,-1.2047551086099e-08,2.3712603215711e-09,-4.7052779687254e-09,-0.0012397330857591,0.0012397307621696,-0.0014227074448681,0.0014227144852651,-0.0014227097036767,0.0014227121165846,-0.0014227141487674,0.0014227074283107,-0.0014227164104242,0.0014227050650381,-0.0012600973821433,0.0012600949181022,-0.0012601041995962,0.0012600878773917,-0.0011698837858937,0.0011698998696458,-0.0011699045698813,0.0011698783987821,8.8632610862225e-09,-8.0300433830985e-09,-0.0012397315110878,0.0012397323369569,-2.9195965628585e-09,3.9043424566945e-09,-0.0014227087771342,0.0014227129209309,-0.0014227064944977,0.0014227151444264,-0.0014227144392255,0.0014227073166739,-0.0014227121621574,0.001422709548112,-0.0011698983714277,0.0011698849445167,-0.0011698817941893,0.0011699014461715,0.65362538147619,131329,3014,0.0039351434453204,0.0051514504708519,0.0051514504710897,18.629935870715,-9.0960513034277e-05,-9.0960513034277e-05,-9.0960513034277e-05,3268317.3563815,0.014341097775061
25219200,0.99206237637653,0.014921883456106,0.0043199382244106,0.0053009726158353,0.0053009726158602,-0.00094685829122621,0.00094685992582707,-7.5692955415993e-09,9.1964471367939e-09,-9.8304807829718e-09,1.1909814499636e-08,-0.0011159661773086,0.0011159550790203,-0.0011159606036378,0.001115960675466,-0.0011159593368695,0.0011159622352654,-0.0011159537505402,0.0011159678283283,-0.0010132291392443,0.0010132215373306,-0.0010132127036461,0.0010132379423781,9.0933160642887e-09,-1.1863575428826e-08,2.3809240738648e-09,-4.7045349575459e-09,-0.0012411448975981,0.0012411425849498,-0.0014241909704468,0.0014241979119568,-0.0014241932349297,0.0014241955396935,-0.0014241975644175,0.0014241909709163,-0.0014241998254652,0.0014241886077117,-0.0012615340971607,0.0012615317759719,-0.0012615409249288,0.0012615247219377,-0.0011712974789667,0.0011713132224527,-0.0011713179207406,0.0011712920997842,8.9727536167126e-09,-8.1405905572523e-09,-0.0012411433286641,0.0012411441539375,-2.914455666027e-09,3.8975754841561e-09,-0.0014241922148746,0.0014241964371424,-0.0014241899375951,0.0014241986545532,-0.0014241979531771,0.0014241907588168,-0.0014241956783661,0.0014241929911693,-0.0011713120119189,0.0011712983681519,-0.0011712952140165,0.0011713150745825,0.67454674238677,131329,3014,0.0039405519310359,0.0051573010952335,0.0051573010953456,19.270965719582,-8.5832274243344e-05,-8.5832274243344e-05,-8.5832274243344e-05,3277218.5036344,0.014358454053074
25419200,0.99226869583259,0.014925033668627,0.0043208398827219,0.00530209689294,0.0053020968929651,-0.00094817452298583,0.00094817615056972,-7.6651064366129e-09,9.2854876111097e-09,-9.6876555940656e-09,1.1758893738162e-08,-0.0011174035173517,0.0011173924469302,-0.0011173978815585,0.001117398105578,-0.001117396772795,0.0011173995067153,-0.001117391125873,0.0011174051605625,-0.0010146172564626,0.0010146093731732,-0.0010146006415553,0.0010146259564648,9.1058287810415e-09,-1.1876591849952e-08,2.3768234243432e-09,-4.7010001005493e-09,-0.0012425813862049,0.0012425790729258,-0.0014257200969855,0.0014257270436988,-0.0014257223582014,0.0014257246749958,-0.0014257266995915,0.0014257200943884,-0.0014257289587853,0.0014257177330582,-0.0012630172777568,0.001263014943797,-0.0012630241018185,0.0012630078937251,-0.001172755654737,0.001172771431974,-0.0011727761274811,0.0011727502764197,9.0305980612516e-09,-8.1988679115662e-09,-0.0012425798170149,0.0012425806421481,-2.916496922521e-09,3.8992651729491e-09,-0.0014257213258808,0.001425725584657,-0.0014257190464752,0.0014257278041725,-0.0014257271018666,0.0014257198686121,-0.0014257248265698,0.0014257221016198,-0.0011727702624659,0.0011727565029227,-0.0011727533494904,0.0011727733260039,0.72789190605648,131329,3014,0.0039460213176394,0.0051632534856253,0.0051632534856925,19.918345647027,-8.0653234823782e-05,-8.0653234823782e-05,-8.0653234823782e-05,3284180.3147418,0.014376080238607
25619200,0.99247780065079,0.01492824590417,0.0043217591216203,0.0053032433912622,0.0053032433912873,-0.00094946076374994,0.00094946238251086,-7.7770678480039e-09,9.3886965245894e-09,-9.512408969465e-09,1.1573232769271e-08,-0.0011188914683245,0.001118880435339,-0.0011188857595393,0.0011188861669815,-0.001118884840897,0.0011188873770855,-0.0011188791240569,0.0011188931009033,-0.0010159947999842,0.001015986581151,-0.0010159779793788,0.0010160033704711,9.1486963401139e-09,-1.1918579253747e-08,2.3716261092012e-09,-4.6946124801019e-09,-0.0012440108094923,0.0012440084973521,-0.0014272932641403,0.0014273002333846,-0.0014272955200982,0.0014272978700395,-0.0014272998918856,0.0014272932587751,-0.001427302148813,0.0014272908997761,-0.0012645289863149,0.0012645266181287,-0.0012645358038425,0.001264519575025,-0.0011742487552119,0.0011742646244032,-0.0011742693147085,0.001174243381692,9.0737957682972e-09,-8.2412409460991e-09,-0.0012440092404047,0.0012440100664632,-2.9194582907003e-09,3.9030855140932e-09,-0.0014272944913491,0.0014272987762194,-0.0014272922081486,0.001427300999372,-0.0014273002946367,0.0014272930327864,-0.0014272980183538,0.0014272952662243,-0.0011742634509274,0.0011742496058565,-0.0011742464509865,0.0011742665189654,0.7324347444492,131329,3014,0.003951370643814,0.0051691753540904,0.0051691753541387,20.565949247205,-7.5472406022358e-05,-7.5472406022358e-05,-7.5472406022358e-05,3286995.1375005,0.014393526073016
25819200,0.99268426567586,0.01493132614714,0.0043226369779657,0.0053043445845746,0.0053043445845998,-0.00094999645822683,0.0009499980778184,-7.8542451018212e-09,9.4667030579257e-09,-9.5300162540745e-09,1.1591832473651e-08,-0.0011196141432809,0.0011196030472387,-0.0011196083833369,0.0011196088300224,-0.0011196075035929,0.001119610001322,-0.001119601734783,0.0011196157770976,-0.0010165944642426,0.0010165861053746,-0.0010165774912766,0.0010166030472596,9.1711045447452e-09,-1.1942258749358e-08,2.3647710402099e-09,-4.6888582266853e-09,-0.0012446604639223,0.0012446581506582,-0.0014280757032713,0.0014280826809528,-0.0014280779554694,0.0014280803212882,-0.0014280823446726,0.001428075692525,-0.0014280845970709,0.0014280733381767,-0.0012652434793457,0.0012652410819618,-0.0012652502836067,0.0012652340523547,-0.0011749596973979,0.0011749756109832,-0.0011749802981656,0.0011749543268645,9.1460428867856e-09,-8.3139746903684e-09,-0.0012446588945004,0.0012446597201018,-2.9142166988273e-09,3.8972878690308e-09,-0.0014280769082461,0.0014280812457412,-0.0014280746293936,0.0014280834649311,-0.0014280827610529,0.0014280754531889,-0.0014280804878855,0.001428077683171,-0.0011749744881927,0.0011749604971644,-0.0011749573467888,0.0011749775521733,0.71386318709455,131329,3014,0.0039536037560861,0.0051718653364446,0.005171865336489,20.805054391251,-7.355956486999e-05,-7.355956486999e-05,-7.355956486999e-05,3284857.0717836,0.014401253510103
26019200,0.99288351824681,0.014934172420082,0.0043234436569372,0.0053053643815597,0.005305364381585,-0.00094986684271941,0.00094986846744593,-7.9303042341786e-09,9.5478742899061e-09,-9.6386311418466e-09,1.1706632942664e-08,-0.001119616258643,0.0011196050451513,-0.0011196104507265,0.0011196108758755,-0.0011196095491663,0.0011196120694406,-0.0011196037235032,0.0011196179020679,-0.0010164937807387,0.0010164853347318,-0.001016476641187,0.0010165024437089,9.2312366907697e-09,-1.2005595416775e-08,2.3490903254605e-09,-4.6758145825673e-09,-0.0012446037521665,0.001244601436178,-0.0014281136573309,0.001428120668029,-0.0014281159044405,0.0014281183135196,-0.0014281203439149,0.0014281136342144,-0.0014281225823519,0.0014281112938794,-0.0012652201290642,0.0012652176471665,-0.0012652268926531,0.0012652106586832,-0.001174944603441,0.0011749606324549,-0.0011749653123877,0.001174939239455,9.2172907740939e-09,-8.3858111295204e-09,-0.0012446021816449,0.0012446030067205,-2.9053823827096e-09,3.8878130309218e-09,-0.0014281148498178,0.0014281192451499,-0.0014281125815029,0.0014281214537948,-0.001428120754917,0.0014281134004861,-0.0014281184834094,0.001428115628784,-0.001174959519182,0.0011749453941828,-0.001174942250058,0.0011749625759402,0.68688291278285,131329,3014,0.0039530721551079,0.0051716283740215,0.0051716283740645,20.675733521179,-7.4594131830566e-05,-7.4594131830566e-05,-7.4594131830566e-05,3279819.1263861,0.014400236194585
26219200,0.99307574673394,0.014937092912366,0.0043242784977827,0.0053064072072792,0.0053064072073045,-0.00094974145949479,0.00094974308647962,-8.005560669558e-09,9.6253211076943e-09,-9.6951110636591e-09,1.1765871344236e-08,-0.0011195671555673,0.0011195558543144,-0.0011195612957462,0.0011195617369243,-0.001119560407143,0.0011195629178488,-0.0011195545315258,0.0011195688003979,-0.0010163923447001,0.0010163837929326,-0.0010163750586621,0.0010164010484435,9.3134448222689e-09,-1.2093120197611e-08,2.3360716504483e-09,-4.6672769429771e-09,-0.001244536445025,0.0012445341244734,-0.0014281048375659,0.0014281118927692,-0.0014281070764672,0.0014281095464256,-0.0014281115800473,0.001428104802598,-0.0014281138124754,0.0014281024684009,-0.0012651738999208,0.0012651713385234,-0.0012651806453974,0.0012651643682432,-0.0011748972873967,0.0011749134890342,-0.0011749181663185,0.0011748919250695,9.2907803905071e-09,-8.4599732847998e-09,-0.0012445348725407,0.0012445356969751,-2.8944551585876e-09,3.8760712213025e-09,-0.0014281060245489,0.0014281104751067,-0.0014281037628383,0.0014281126772809,-0.0014281119779143,0.0014281045823357,-0.0014281097150001,0.0014281068019202,-0.0011749123670189,0.0011748980858612,-0.0011748949502682,0.0011749154155956,0.72524660750048,131329,3014,0.0039525553829888,0.0051713482429624,0.0051713482429984,20.537675444022,-7.5698596447821e-05,-7.5698596447821e-05,-7.5698596447821e-05,3276749.5251122,0.014399144437531
26419200,0.99326123523298,0.01493999638477,0.00432511133135,0.0053074425266975,0.0053074425267229,-0.00094959887785715,0.00094960050608616,-8.0800426790366e-09,9.7010123711723e-09,-9.730114757085e-09,1.1802455337679e-08,-0.00111954789305,0.0011195365164034,-0.0011195419805902,0.0011195424516647,-0.0011195411181393,0.0011195436064388,-0.00111953519506,0.0011195495365239,-0.0010162839042135,0.0010162752378438,-0.0010162664786085,0.0010162926325238,9.384797126676e-09,-1.2168874391693e-08,2.3252786560542e-09,-4.6601554533894e-09,-0.0012444603428252,0.0012444580186024,-0.0014281158154228,0.0014281229073237,-0.0014281180458369,0.0014281205695478,-0.0014281226039642,0.0014281157707904,-0.0014281248330124,0.0014281134400527,-0.0012651418660884,0.0012651392419807,-0.0012651486015445,0.0012651322816001,-0.0011748699923941,0.0011748863479951,-0.0011748910231689,0.0011748646317129,9.3656374519694e-09,-8.5353183551184e-09,-0.0012444587687826,0.0012444595926642,-2.8835816792355e-09,3.8645820632296e-09,-0.0014281169935444,0.0014281214984575,-0.0014281147366684,0.0014281236956843,-0.0014281229944427,0.0014281155581916,-0.0014281207414481,0.0014281177677012,-0.0011748852302202,0.0011748707864526,-0.0011748676587228,0.0011748882709507,0.74502755105037,131329,3014,0.0039519696879975,0.005171031052601,0.0051710310526405,20.399297433996,-7.6805620528033e-05,-7.6805620528033e-05,-7.6805620528033e-05,3270871.3922858,0.014397909608832
26619200,0.99344433551445,0.01494283419047,0.0043259243063766,0.0053084549420342,0.0053084549420596,-0.00095010433228835,0.00095010595746965,-8.1553329311476e-09,9.7732767268105e-09,-9.6713973323032e-09,1.1740117896751e-08,-0.0011202233547579,0.0011202119647051,-0.0011202173916235,0.0011202179506262,-0.0011202166184519,0.0011202190158767,-0.0011202106476536,0.0011202249936749,-0.0010168500521309,0.0010168412021353,-0.0010168324862489,0.0010168587368177,9.3357207333907e-09,-1.2119405394929e-08,2.3217090153718e-09,-4.656679267805e-09,-0.0012450668622673,0.0012450645380098,-0.0014288382941295,0.0014288453491241,-0.0014288405207676,0.0014288430151203,-0.0014288450483005,0.0014288382472045,-0.0014288472764218,0.0014288359174063,-0.001265813198485,0.0012658106044617,-0.0012658199311249,0.0012658036467208,-0.0011755427910963,0.0011755590559132,-0.0011755637290532,0.0011755374330778,9.4417423971332e-09,-8.6124379455208e-09,-0.0012450652887344,0.0012450661115626,-2.8790383287083e-09,3.8589672598168e-09,-0.001428839427862,0.0014288439847248,-0.0014288371730157,0.001428846180062,-0.0014288454784277,0.0014288379948347,-0.001428843230212,0.001428840199518,-0.0011755580630203,0.0011755434606443,-0.001175540337243,0.0011755610994106,0.73848439662971,131329,3014,0.0039540765099835,0.0051735424508656,0.0051735424509067,20.629898770093,-7.4960809839258e-05,-7.4960809839258e-05,-7.4960809839258e-05,3268661.4280831,0.014405146173726
26819200,0.99362725637562,0.014945594706011,0.0043267125299662,0.0053094410880095,0.0053094410880349,-0.00095097252799898,0.00095097414792064,-8.2345042262542e-09,9.8472236452535e-09,-9.5633029332187e-09,1.1625668904001e-08,-0.0011212648667541,0.0011212534948315,-0.0011212588527252,0.0011212595316689,-0.0011212582044758,0.0011212604714976,-0.0011212521824338,0.0011212665005675,-0.0010177858848276,0.0010177768049937,-0.0010177681683906,0.0010177944898813,9.2365974970902e-09,-1.201022618858e-08,2.3259584327586e-09,-4.6519001130673e-09,-0.0012460563569589,0.0012460540418847,-0.0014299491523149,0.0014299561470454,-0.0014299513789789,0.001429953813052,-0.0014299558375736,0.0014299491146624,-0.0014299580652906,0.001429946785264,-0.0012668653129051,0.0012668627962921,-0.0012668720443171,0.0012668558393048,-0.0011765894400847,0.001176605508875,-0.0011766101732595,0.0011765840923094,9.5157756718204e-09,-8.6863460875602e-09,-0.0012460547879727,0.0012460556108905,-2.8791564990394e-09,3.8592260869686e-09,-0.0014299502313733,0.0014299548375934,-0.0014299479766316,0.0014299570329185,-0.0014299563314008,0.0014299487982403,-0.0014299540828644,0.0014299510033062,-0.0011766046863989,0.0011765899400379,-0.0011765868161618,0.0011766077230299,0.72121904800646,131329,3014,0.0039576892238749,0.0051776410923634,0.005177641092404,21.064606350513,-7.1483149195898e-05,-7.1483149195898e-05,-7.1483149195898e-05,3270135.6022447,0.014417130416166
27019200,0.99380989639353,0.014948269144703,0.0043274731987432,0.0053103979729671,0.0053103979729925,-0.00095184791995933,0.00095184953518032,-8.3133566241911e-09,9.9214708852278e-09,-9.4650269174836e-09,1.1521763067812e-08,-0.0011222916072168,0.0011222802472198,-0.0011222855423847,0.0011222863348416,-0.0011222850123038,0.0011222871561199,-0.0011222789389509,0.0011222932364828,-0.0010187185230471,0.0010187092206716,-0.0010187006561698,0.0010187270563252,9.1411839012467e-09,-1.1905090459971e-08,2.3312809188142e-09,-4.6484730332711e-09,-0.0012470635951159,0.0012470612888095,-0.0014310604521855,0.0014310673895696,-0.0014310626797256,0.0014310650546909,-0.0014310670711147,0.0014310604240002,-0.0014310692992165,0.0014310580942235,-0.0012679189921608,0.0012679165524401,-0.0012679257249069,0.0012679095945348,-0.0011776404079413,0.0011776562872979,-0.0011776609434332,0.00117763506923,9.5897884311932e-09,-8.7602857275196e-09,-0.0012470620304533,0.0012470628534885,-2.8807828150625e-09,3.8609297876864e-09,-0.0014310614783763,0.0014310661332237,-0.0014310592228222,0.0014310683294608,-0.0014310676279502,0.0014310600442849,-0.0014310653780564,0.0014310622507165,-0.0011776556312303,0.0011776407417571,-0.0011776376170625,0.0011776586692204,0.70228505395335,131329,3014,0.0039613303899195,0.0051818136028728,0.0051818136029066,21.504197052402,-6.7966423580783e-05,-6.7966423580783e-05,-6.7966423580783e-05,3272878.5416884,0.01442929244906
27219200,0.99399209732966,0.01495084939247,0.0043282037424627,0.0053113228249912,0.0053113228250166,-0.00095272869767923,0.00095273030864896,-8.3911983631206e-09,9.9951270133483e-09,-9.3747723042589e-09,1.142637943751e-08,-0.0011232949456365,0.001123283592685,-0.001123288830143,0.0011232897309682,-0.0011232884121796,0.0011232904397242,-0.0011232822884716,0.0011232965704399,-0.0010196480016754,0.0010196384854823,-0.0010196299869781,0.0010196564689134,9.0585559949559e-09,-1.1813951856939e-08,2.3370620626413e-09,-4.6466391938797e-09,-0.0012480717125813,0.0012480694139939,-0.0014321558478678,0.0014321627362425,-0.0014321580765579,0.0014321604002038,-0.0014321624090733,0.001432155828853,-0.0014321646386432,0.0014321534975985,-0.0012689584917399,0.0012689561218902,-0.0012689652287907,0.0012689491595519,-0.0011786736074682,0.0011786893231194,-0.0011786939730039,0.0011786682759247,9.6646565968457e-09,-8.8349695303925e-09,-0.0012480701516883,0.0012480709749025,-2.8825257916098e-09,3.8628848186674e-09,-0.0014321568253409,0.0014321615288241,-0.0014321545684351,0.0014321637264979,-0.0014321630245997,0.001432155390168,-0.0014321607736417,0.0014321575976887,-0.0011786888219069,0.0011786737868452,-0.0011786706608462,0.0011786918614047,0.68191772191115,131329,3014,0.003964992258908,0.0051859901835911,0.0051859901836232,21.943966898672,-6.4448264810623e-05,-6.4448264810623e-05,-6.4448264810623e-05,3277106.1959347,0.014441482763991
27419200,0.99417226818571,0.014953486656848,0.0043289537750582,0.0053122664408824,0.0053122664409079,-0.00095338902907892,0.0009533906385501,-8.467838552286e-09,1.0070328528082e-08,-9.3422575241513e-09,1.1392052420971e-08,-0.0011240362134649,0.0011240248306875,-0.0011240300473454,0.0011240310195905,-0.0011240297022043,0.001124031655385,-0.0011240235278606,0.0011240378367326,-0.0010203454046988,0.0010203357162197,-0.0010203272415256,0.0010203538484551,9.0263692932972e-09,-1.1778095660362e-08,2.3397719309734e-09,-4.6460101868511e-09,-0.001248837727311,0.0012488354320331,-0.0014329844126663,0.001432991282289,-0.0014329866420586,0.0014329889455532,-0.0014329909513266,0.0014329843976475,-0.0014329931815847,0.0014329820657178,-0.0012697414590204,0.0012697391173593,-0.0012697481983387,0.0012697321532147,-0.0011794456001322,0.0011794612516856,-0.0011794658988223,0.0011794402716305,9.7392228264279e-09,-8.9095239930989e-09,-0.0012488361680434,0.0012488369913141,-2.8839419261126e-09,3.8643030873991e-09,-0.0014329853563764,0.0014329901087314,-0.0014329830985494,0.0014329923073703,-0.0014329916053479,0.001432983920365,-0.0014329893534295,0.0014329861288474,-0.001179460855143,0.0011794456749163,-0.0011794425481868,0.0011794638956981,0.70214877996273,131329,3014,0.0039677368639748,0.005189163927246,0.0051891639272736,22.252217579888,-6.1982259360897e-05,-6.1982259360897e-05,-6.1982259360897e-05,3281153.1258216,0.014450706661827
27619200,0.99434988071021,0.014956128969477,0.0043297066266464,0.0053132111714025,0.005313211171428,-0.00095396730073928,0.00095396890994237,-8.5436318156185e-09,1.0145882680219e-08,-9.3350806112246e-09,1.1384557171152e-08,-0.0011247177817249,0.001124706353036,-0.0011247115650039,0.0011247125925453,-0.0011247112752968,0.0011247131728636,-0.0011247050505736,0.0011247194045686,-0.0010209665719363,0.0010209567301456,-0.0010209482606642,0.0010209750102701,9.0269853181209e-09,-1.1778335852145e-08,2.3413296171004e-09,-4.6471921950211e-09,-0.0012495222892391,0.0012495199943315,-0.0014337458362454,0.0014337527072931,-0.0014337480664013,0.0014337503697579,-0.0014337523750466,0.0014337458224478,-0.0014337546063386,0.0014337434895086,-0.0012704561731561,0.0012704538350094,-0.0012704629156691,0.0012704468680518,-0.0011801510956201,0.0011801667477948,-0.0011801713952855,0.0011801457664899,9.814049127477e-09,-8.9842495488139e-09,-0.0012495207301073,0.0012495215534765,-2.8852274115184e-09,3.8657123006428e-09,-0.0014337467561794,0.0014337515574709,-0.001433744497357,0.0014337537571768,-0.0014337530548954,0.001433745319376,-0.001433750802146,0.0014337475286097,-0.0011801664238535,0.0011801510976498,-0.0011801479701534,0.0011801694654801,0.71252806720301,131329,3014,0.0039701420718049,0.0051919997921852,0.0051919997922121,22.519212731329,-5.9846298149364e-05,-5.9846298149364e-05,-5.9846298149364e-05,3282970.4941716,0.014458901979927
27819200,0.99452486559679,0.014958778216219,0.0043304629852156,0.0053141576154891,0.0053141576155145,-0.00095453871130056,0.00095454032122192,-8.6191082155134e-09,1.0222035277839e-08,-9.3457147150071e-09,1.1395980329829e-08,-0.0011254052524842,0.0011253937667197,-0.0011253989852423,0.0011254000567763,-0.0011253987388091,0.0011254005938257,-0.0011253924634865,0.0011254068761512,-0.001021586328977,0.0010215763466236,-0.0010215678691281,0.0010215947752665,9.0387993996125e-09,-1.179112141704e-08,2.3427075308921e-09,-4.649433176893e-09,-0.0012502021263473,0.0012501998306143,-0.0014345099256158,0.0014345168052977,-0.0014345121570188,0.0014345144665299,-0.0014345164726353,0.0014345099122659,-0.0014345187050764,0.0014345075781763,-0.0012711743106987,0.0012711719669685,-0.0012711810566011,0.0012711649964394,-0.0011808600931951,0.0011808757673349,-0.0011808804171518,0.0011808547619725,9.8888112564864e-09,-9.0587928302149e-09,-0.0012502005666995,0.0012502013902754,-2.8870127857411e-09,3.8677340010871e-09,-0.0014345108255045,0.0014345156754894,-0.0014345085654548,0.0014345178764392,-0.0014345171740687,0.0014345093876425,-0.0014345149199855,0.0014345115981937,-0.0011808755048206,0.0011808600340252,-0.0011808569047191,0.0011808785478505,0.72383356026394,131329,3014,0.0039725196334552,0.0051948158478599,0.0051948158478874,22.785201789482,-5.7718385684143e-05,-5.7718385684143e-05,-5.7718385684143e-05,3283954.5667857,0.014467029715113
28019200,0.99469716686317,0.014961436127439,0.0043312233988853,0.005315106364264,0.0053151063642894,-0.00095510377726159,0.00095510538808486,-8.6943009142221e-09,1.0298112069657e-08,-9.3610158684203e-09,1.1412324807105e-08,-0.0011261006643259,0.0011260891184227,-0.0011260943465568,0.0011260954590001,-0.0011260941400929,0.0011260959561513,-0.001126087814417,0.0011261022888225,-0.001022204359471,0.0010221942406798,-0.0010221857517829,0.0010222128171268,9.0583922759832e-09,-1.1812382206016e-08,2.3440164945076e-09,-4.6522095459491e-09,-0.0012508786432311,0.0012508763460187,-0.0014352787863777,0.0014352856794733,-0.0014352810190398,0.0014352833394281,-0.0014352853468643,0.0014352787728843,-0.0014352875807474,0.0014352764373486,-0.0012718969921417,0.0012718946376454,-0.0012719037423407,0.0012718876628666,-0.0011815751414629,0.0011815908531178,-0.001181595505781,0.001181569807247,9.9637490624232e-09,-9.133522457982e-09,-0.0012508770827405,0.0012508779065206,-2.889004735359e-09,3.8699446687292e-09,-0.0014352796686419,0.0014352845672202,-0.0014352774071098,0.0014352867696744,-0.0014352860670298,0.0014352782295979,-0.0014352838116081,0.001435280441449,-0.001181590644469,0.001181575028391,-0.0011815718974631,0.0011815936890956,0.73612509322909,131329,3014,0.0039748717324453,0.0051976178882091,0.0051976178882324,23.0511537791,-5.5590769767197e-05,-5.5590769767197e-05,-5.5590769767197e-05,3284140.5741045,0.01447510382378
28219200,0.9948660651132,0.014964094032067,0.0043319854262319,0.005316054302905,0.0053160543029304,-0.00095554328153006,0.00095554489453492,-8.7702084122414e-09,1.0376210675651e-08,-9.4020032903121e-09,1.145591509804e-08,-0.0011266815474792,0.001126669924639,-0.0011266751788982,0.0011266763160163,-0.0011266749956154,0.0011266767901493,-0.0011266686181001,0.0011266831746858,-0.0010226966183063,0.0010226863777895,-0.0010226778585158,0.0010227051065845,9.095982936401e-09,-1.1853481980924e-08,2.3434774634866e-09,-4.6548181782419e-09,-0.0012514246368572,0.001251422336449,-0.0014359232644779,0.0014359301819124,-0.0014359254983467,0.001435927840686,-0.0014359298517608,0.0014359232484288,-0.0014359320857871,0.0014359209127363,-0.0012724938522849,0.0012724914688992,-0.0012725006032699,0.0012724844935023,-0.0011821684769605,0.0011821842611453,-0.0011821889174846,0.0011821631386169,1.0037317635777e-08,-9.2070179417454e-09,-0.0012514230747079,0.0012514238986083,-2.8909412590525e-09,3.8719809302287e-09,-0.0014359241347197,0.0014359290815834,-0.0014359218723724,0.0014359312848539,-0.0014359305826261,0.0014359226945589,-0.0014359283253244,0.0014359249082541,-0.0011821840867975,0.0011821683296235,-0.0011821651973501,0.0011821871327859,0.74948916800131,131329,3014,0.0039767033170524,0.0051998787431837,0.0051998787432043,23.25096679135,-5.3992265669197e-05,-5.3992265669197e-05,-5.3992265669197e-05,3282773.5963161,0.014481552334941
28419200,0.99503146804205,0.014966752892023,0.0043327494298243,0.0053170017310868,0.0053170017311122,-0.0009559577770479,0.00095595939253962,-8.8491337358034e-09,1.0457597235848e-08,-9.4520920425175e-09,1.1508981541808e-08,-0.0011272512666381,0.0011272395598631,-0.0011272448460853,0.0011272460032144,-0.0011272446819828,0.0011272464583575,-0.0011272382495126,0.0011272528978697,-0.0010231672811247,0.0010231569162267,-0.001023148360016,0.0010231758061338,9.1308730583126e-09,-1.189186932965e-08,2.3418865105325e-09,-4.6563600753768e-09,-0.0012519474252548,0.0012519451216841,-0.0014365518324745,0.0014365587726692,-0.0014365540677955,0.0014365564299767,-0.0014365584455425,0.0014365518131888,-0.0014365606780802,0.0014365494790143,-0.0012730744321884,0.0012730720168912,-0.0012730811787905,0.0012730650456766,-0.0011827486876256,0.001182764536362,-0.0011827691958621,0.0011827433457155,1.0107781845556e-08,-9.2772246014507e-09,-0.0012519458613997,0.0012519466855482,-2.8939646846595e-09,3.8752839581469e-09,-0.0014365526908054,0.0014365576841203,-0.0014365504278348,0.0014365598880408,-0.0014365591870771,0.0014365512487955,-0.0014365569261565,0.0014365534660683,-0.0011827643952211,0.0011827485068831,-0.0011827453721608,0.0011827674434936,0.76402416355142,131329,3014,0.0039784319383848,0.0052020431585914,0.0052020431586097,23.441584969992,-5.2467320240063e-05,-5.2467320240063e-05,-5.2467320240063e-05,3280547.707516,0.014487701250844
28619200,0.9951933807612,0.014969373834217,0.0043335029148771,0.0053179354596571,0.0053179354596825,-0.00095636006313753,0.000956361679254,-8.9113478670279e-09,1.0520383595591e-08,-9.4682004279173e-09,1.1525851350035e-08,-0.001127825102259,0.0011278133396295,-0.0011278186358916,0.0011278198287944,-0.0011278185026721,0.0011278202530888,-0.0011278120329431,0.0011278267298522,-0.0010236279203989,0.0010236174568112,-0.0010236088893277,0.0010236364568452,9.195145217859e-09,-1.1961302117365e-08,2.3456440760958e-09,-4.6646497262337e-09,-0.0012524617828508,0.0012524594746972,-0.0014371809275002,0.0014371879078657,-0.0014371831625525,0.0014371855653679,-0.0014371875810353,0.0014371809075614,-0.0014371898219564,0.00143717856503,-0.0012736522645127,0.0012736498239236,-0.0012736590352192,0.0012736428288469,-0.0011833303138994,0.0011833462978416,-0.0011833509659172,0.0011833249628644,1.019566778623e-08,-9.3651730799203e-09,-0.0012524602167316,0.001252461040825,-2.8912791013493e-09,3.8724984500364e-09,-0.00143718177766,0.0014371868273214,-0.0014371795122633,0.0014371890336436,-0.0014371883284508,0.0014371803375166,-0.0014371860736497,0.0014371825485295,-0.0011833461821719,0.0011833301071892,-0.0011833269744977,0.0011833492286093,0.76896079235075,131329,3014,0.0039801107966686,0.0052041723341765,0.005204172334194,23.631967339641,-5.0944261282869e-05,-5.0944261282869e-05,-5.0944261282869e-05,3277633.2393565,0.014493728730136
28819200,0.99535183363854,0.014971866891847,0.0043342170709018,0.0053188249104599,0.0053188249104853,-0.0009567553117972,0.00095675693107604,-9.0030742098511e-09,1.061521256216e-08,-9.5311264985103e-09,1.1592506212157e-08,-0.0011283953641478,0.0011283835034508,-0.0011283888402158,0.0011283900502035,-0.0011283887259829,0.0011283904557558,-0.0011283821888986,0.0011283969998998,-0.0010240781420061,0.0010240675279829,-0.0010240589139241,0.0010240867246932,9.2010241306935e-09,-1.1968532835379e-08,2.3408561254164e-09,-4.6611702109426e-09,-0.0012529700449297,0.0012529677355285,-0.0014378056175654,0.0014378126024613,-0.0014378078547804,0.0014378102578525,-0.0014378122796653,0.0014378055936059,-0.0014378145127329,0.0014378032589133,-0.001274220965996,0.0012742184977129,-0.0012742277141927,0.0012742115245121,-0.0011839066594998,0.0011839226430234,-0.0011839273095986,0.0011839013099656,1.0253246847994e-08,-9.4221971315806e-09,-0.0012529684779315,0.0012529693025374,-2.8984204977728e-09,3.8802939325368e-09,-0.0014378064508964,0.0014378115386513,-0.0014378041854536,0.0014378137451228,-0.0014378130444952,0.0014378050061899,-0.0014378107796206,0.0014378072272902,-0.0011839225735999,0.001183906406714,-0.0011839032680293,0.001183925625499,0.74978434636729,131329,3014,0.003981760593885,0.005206276157868,0.0052062761578902,23.824563792478,-4.9403489660176e-05,-4.9403489660176e-05,-4.9403489660176e-05,3274850.8696271,0.014499675282987
29019200,0.99550797013202,0.014974181960188,0.0043348753010615,0.0053196533295504,0.0053196533295758,-0.0009573714816055,0.00095737310584499,-9.2297361491315e-09,1.0846391050463e-08,-9.7070503808035e-09,1.1774534224062e-08,-0.0011291626669779,0.0011291505674971,-0.0011291560202563,0.0011291572362052,-0.0011291559400245,0.0011291576091008,-0.0011291492174671,0.0011291643374873,-0.0010247458305358,0.0010247347962998,-0.0010247260590801,0.0010247545383427,9.0256716068327e-09,-1.178253741418e-08,2.3013350148763e-09,-4.6125411895907e-09,-0.0012537079016937,0.0012537056011118,-0.0014386456250654,0.0014386524985709,-0.0014386478633865,0.00143865015004,-0.0014386521941212,0.0014386455770157,-0.001438654368367,0.001438643302296,-0.0012750056524814,0.0012750031251877,-0.0012750122125577,0.0012749963402453,-0.0011846942528311,0.0011847098229751,-0.0011847144447545,0.0011846889444037,1.0177053229127e-08,-9.3420176220096e-09,-0.0012537063376125,0.0012537071652932,-2.9462718604759e-09,3.9331739914109e-09,-0.0014386464282416,0.0014386514631537,-0.0014386441615339,0.0014386536721882,-0.0014386529985723,0.0014386449516027,-0.001438650668767,0.0014386472351917,-0.0011847098096556,0.0011846939287057,-0.0011846907584366,0.0011847129048588,0.71130253494712,131329,3014,0.0039843260770295,0.0052093318910067,0.0052093318912132,24.140418368476,-4.6876653052188e-05,-4.6876653052188e-05,-4.6876653052188e-05,3275231.0783271,0.014508481164127
29219200,0.99566174248895,0.014976403710064,0.0043355049552092,0.0053204493774149,0.0053204493774394,-0.00095800979662716,0.00095801141440759,-9.1862000996867e-09,1.0796733810252e-08,-9.5513739320827e-09,1.1611326771732e-08,-0.0011298947636366,0.0011298827757231,-0.0011298881253082,0.0011298894366485,-0.001129888120054,0.0011298897332964,-0.0011298814566992,0.0011298964036981,-0.0010254217841824,0.0010254108111246,-0.0010254021856955,0.0010254303796084,9.1671829596555e-09,-1.1932534009365e-08,2.3394537417463e-09,-4.6579504059437e-09,-0.001254456615527,0.0012544543080686,-0.0014394621111479,0.0014394690834873,-0.0014394643521869,0.0014394667343222,-0.0014394687593686,0.0014394620877918,-0.0014394709869912,0.0014394597591363,-0.001275774733787,0.0012757722687433,-0.0012757814608458,0.0012757653154185,-0.0011854570656608,0.001185472974174,-0.0011854776374458,0.0011854517183479,1.0371614725407e-08,-9.5394358873112e-09,-0.0012544550490664,0.00125445587457,-2.9127403993684e-09,3.8959609811546e-09,-0.0014394628987714,0.0014394680653168,-0.001439460628804,0.0014394702758438,-0.0014394695792934,0.0014394614453138,-0.0014394673004077,0.0014394636808391,-0.0011854730470527,0.0011854566687346,-0.0011854535211137,0.0011854761095377,0.69516967230046,131329,3014,0.0039869802532788,0.0052124334447805,0.0052124334448664,24.459162583826,-4.4326699329391e-05,-4.4326699329391e-05,-4.4326699329391e-05,3278552.742582,0.014517467806629
29419200,0.99581307855829,0.014978431940172,0.004336073674065,0.0053211791330411,0.0053211791330657,-0.0009586509849085,0.00095865260259303,-9.2679467187072e-09,1.0878403811731e-08,-9.5540262521738e-09,1.161391474823e-08,-0.0011306038928136,0.0011305918493921,-0.0011305972012024,0.0011305985637168,-0.0011305972486811,0.0011305988076125,-0.0011305905291261,0.0011306055342637,-0.0010260917447252,0.0010260806061334,-0.0010260719802026,0.0010261003398259,9.149440377134e-09,-1.1913392119637e-08,2.3401801876228e-09,-4.6574181868983e-09,-0.0012552027168643,0.0012552004106066,-0.0014402624754015,0.0014402694363869,-0.0014402647182811,0.0014402670853404,-0.0014402691113806,0.0014402624530316,-0.0014402713366466,0.0014402601268642,-0.0012765269738823,0.0012765245167276,-0.0012765336953286,0.001276517569496,-0.0011861982526897,0.0011862141165893,-0.001186218778433,0.0011861929078613,1.0440828039164e-08,-9.6083558980286e-09,-0.0012552011507921,0.0012552019767136,-2.9182835706754e-09,3.901840367808e-09,-0.0014402632360007,0.0014402684452967,-0.0014402609639822,0.0014402706578101,-0.0014402699629915,0.0014402617788238,-0.0014402676778734,0.0014402640207229,-0.0011862142723178,0.0011861977737596,-0.0011861946206986,0.0011862173392331,0.65089857827111,131329,3014,0.0039896447158898,0.0052155246840355,0.005215524684108,24.778012661105,-4.1775898711159e-05,-4.1775898711159e-05,-4.1775898711159e-05,3283048.8899618,0.01452644320375
29619200,0.99596182770154,0.014980394380027,0.0043366228924939,0.0053218857437543,0.005321885743779,-0.00095929859170749,0.00095930020752889,-9.3281548870066e-09,1.0936753170169e-08,-9.5258674112306e-09,1.1583624182056e-08,-0.001131250492306,0.0011312384243031,-0.0011312437583994,0.0011312451808994,-0.0011312438648571,0.00113124536573,-0.0011312371085891,0.0011312521290441,-0.0010267556364215,0.0010267443690883,-0.0010267357643631,0.0010267642103948,9.1628249222983e-09,-1.1927317884321e-08,2.3473876210693e-09,-4.6649997510957e-09,-0.0012559399331517,0.001255937626451,-0.0014410131807634,0.0014410201527212,-0.0014410154257329,0.0014410177995907,-0.001441019823238,0.0014410131629005,-0.0014410220562871,0.0014410108288817,-0.0012772439688543,0.0012772415252247,-0.0012772507134117,0.0012772345554592,-0.0011868903677585,0.0011869062617833,-0.0011869109290875,0.0011868850176651,1.0532033725834e-08,-9.6996561691622e-09,-0.0012559383668869,0.0012559391927446,-2.9157063387022e-09,3.8990905111966e-09,-0.0014410139168795,0.0014410191860812,-0.0014410116438453,0.0014410213997014,-0.0014410207020446,0.0014410124615458,-0.0014410184215157,0.0014410146986861,-0.0011869064971818,0.0011868898095208,-0.0011868866584159,0.0011869095621316,0.64191386503759,131329,3014,0.0039923320334964,0.0052185801552202,0.00521858015528,25.087632453845,-3.9298940369238e-05,-3.9298940369238e-05,-3.9298940369238e-05,3290591.8624833,0.014535366829067
29819200,0.99610743991611,0.014982440405254,0.0043372008242297,0.0053226197905,0.0053226197905247,-0.00095985669487571,0.00095985830947392,-9.3908313073438e-09,1.0998245626734e-08,-9.5078299305574e-09,1.156424744559e-08,-0.0011317869681921,0.001131774867341,-0.0011317801906452,0.0011317816676121,-0.0011317803507258,0.0011317817986983,-0.0011317735547757,0.00113178860172,-0.0010273299633487,0.0010273185669375,-0.0010273099752461,0.001027338523703,9.1891070964567e-09,-1.195544635725e-08,2.3518691903277e-09,-4.6710725988709e-09,-0.0012565765237371,0.0012565742154265,-0.0014416519311794,0.0014416589207543,-0.0014416541776158,0.0014416565661863,-0.0014416585894524,0.0014416519151297,-0.0014416608278767,0.0014416495757718,-0.0012778591898439,0.0012778567433088,-0.0012778659508706,0.0012778497567408,-0.0011874734685898,0.0011874894166539,-0.0011874940886676,0.0011874681131284,1.0620431883802e-08,-9.7881383276224e-09,-0.0012565749566806,0.0012565757825096,-2.912923518039e-09,3.8962579170834e-09,-0.0014416526467828,0.0014416579746116,-0.0014416503735625,0.0014416601884197,-0.0014416594887892,0.0014416511933293,-0.0014416572119362,0.0014416534267139,-0.0011874897156864,0.0011874728469939,-0.0011874696980539,0.0011874927786144,0.6783770396285,131329,3014,0.0039946468510143,0.0052212189073853,0.0052212189074406,25.33986844358,-3.7281052451356e-05,-3.7281052451356e-05,-3.7281052451356e-05,3297659.3319906,0.014543066724598
30019200,0.99624988638799,0.0149844757866,0.0043377768655308,0.0053233494605223,0.0053233494605471,-0.00096039463005434,0.00096039624463332,-9.4648848250303e-09,1.1072234439603e-08,-9.5130775970683e-09,1.1569477735103e-08,-0.0011323606590745,0.0011323485035835,-0.0011323538304664,0.0011323553549043,-0.0011323540364759,0.0011323554401013,-0.0011323471926476,0.0011323622909387,-0.0010279004453756,0.0010278889119375,-0.0010278803169571,0.0010279090094684,9.1887328976853e-09,-1.1955252296087e-08,2.3531131036754e-09,-4.6724806676907e-09,-0.0012572032005246,0.001257200892057,-0.0014423169917459,0.0014423239803393,-0.0014423192374062,0.001442321626498,-0.0014423236482879,0.0014423169764207,-0.0014423258891796,0.0014423146345406,-0.0012784932080762,0.0012784907683956,-0.001278499976479,0.0012784837747776,-0.0011880792892745,0.0011880952400272,-0.0011880999135547,0.0011880739331593,1.0697012549727e-08,-9.8645356457367e-09,-0.0012572016333167,0.0012572024592924,-2.9131182979709e-09,3.8965678822318e-09,-0.001442317682242,0.0014423230593026,-0.0014423154071925,0.0014423252748946,-0.0014423245735746,0.001442316228626,-0.0014423222981764,0.0014423184605844,-0.001188095614476,0.0011880785923204,-0.0011880754424665,0.0011880986778614,0.68873090587323,131329,3014,0.0039968811778129,0.0052238157669845,0.0052238157670416,25.590755010765,-3.5273959913878e-05,-3.5273959913878e-05,-3.5273959913878e-05,3301255.3791608,0.014550602651219
30219200,0.99638915317361,0.014986371613208,0.0043383096714517,0.0053240309708656,0.0053240309708903,-0.00096092117326451,0.00096092278765154,-9.5406731723953e-09,1.1147821366151e-08,-9.5140482042404e-09,1.1570258431429e-08,-0.0011329416567037,0.0011329294499924,-0.0011329347776197,0.0011329363517858,-0.0011329350335538,0.001132936387059,-0.0011329281392207,0.0011329432884069,-0.0010284604159383,0.0010284487345872,-0.00102844013932,0.0010284689801853,9.1899470547005e-09,-1.1956608065173e-08,2.3535314218175e-09,-4.6730246329209e-09,-0.0012578205036166,0.0012578181950548,-0.0014429848538914,0.0014429918436368,-0.0014429870998454,0.0014429894894811,-0.0014429915113514,0.0014429848388301,-0.0014429937525559,0.0014429824966476,-0.0012791235419124,0.0012791211022522,-0.0012791303113023,0.0012791141075656,-0.0011886857256413,0.0011887016783385,-0.0011887063524865,0.0011886803692347,1.077185671776e-08,-9.9392964023175e-09,-0.001257818936332,0.0012578197623674,-2.9136513172758e-09,3.8971898002326e-09,-0.0014429855202021,0.0014429909467775,-0.0014429832447458,0.0014429931627737,-0.001442992461421,0.0014429840662394,-0.0014429901856426,0.0014429862986123,-0.0011887021249277,0.0011886849569681,-0.0011886818064035,0.001188705188607,0.66008313176326,131329,3014,0.0039990692614416,0.0052263735056989,0.0052263735057571,25.841592072764,-3.3267263417889e-05,-3.3267263417889e-05,-3.3267263417889e-05,3303910.5510343,0.014558013193595
30419200,0.99652552334034,0.014988116784525,0.0043387957543576,0.0053246605150711,0.0053246605150959,-0.00096152167939612,0.00096152329334249,-9.6159107342336e-09,1.1222577759512e-08,-9.5134638661798e-09,1.1569164397116e-08,-0.0011335557250935,0.0011335434676581,-0.0011335487951761,0.0011335504202261,-0.001133549101752,0.0011335504048978,-0.0011335421581262,0.0011335573554392,-0.001029086630645,0.0010290748032913,-0.0010290662094017,0.0010290951941041,9.1718820849144e-09,-1.1937275031328e-08,2.3551105043528e-09,-4.6735063001781e-09,-0.0012585083542031,0.0012585060467932,-0.0014436985686708,0.0014437055471732,-0.0014437008145153,0.0014437031930154,-0.0014437052129506,0.0014436985554175,-0.0014437074556182,0.0014436962116914,-0.0012798084794883,0.0012798060564782,-0.0012798152524879,0.0012797990582515,-0.0011893364694531,0.001189352387588,-0.0011893570616437,0.0011893311140797,1.0847448179139e-08,-1.0014684860958e-08,-0.001258506787444,0.0012585076135895,-2.9133882995167e-09,3.897124496757e-09,-0.001443699204538,0.0014437046807707,-0.0014436969284118,0.0014437068973714,-0.0014437061951908,0.0014436977505496,-0.0014437039203493,0.0014436999820182,-0.0011893529258761,0.0011893356086076,-0.0011893324575901,0.0011893559898657,0.62526527956924,131329,3014,0.0040015620354498,0.0052292242587698,0.0052292242588469,26.12955119157,-3.0963590467439e-05,-3.0963590467439e-05,-3.0963590467439e-05,3309272.0017511,0.014566325959552
30619200,0.99665978692513,0.014989955272971,0.0043393131377034,0.0053253210676216,0.0053253210676463,-0.00096233538891418,0.00096233700029672,-9.6914808776176e-09,1.1295648690127e-08,-9.4654657433718e-09,1.151819570938e-08,-0.0011343314799539,0.0011343192041148,-0.0011343245012373,0.0011343262055585,-0.0011343248900754,0.0011343261076584,-0.0011343178962176,0.0011343331085388,-0.0010299266914412,0.0010299146814936,-0.0010299061227037,0.0010299352192691,9.1550520554007e-09,-1.1918064340451e-08,2.356817206763e-09,-4.6730048075674e-09,-0.0012594154906473,0.0012594131854516,-0.0014445985595236,0.0014446055292423,-0.0014446008065,0.0014446031740678,-0.0014446051926435,0.00144459854901,-0.0014446074349998,0.0014445962057034,-0.001280699081983,0.0012806966733419,-0.00128070585467,0.0012806896752943,-0.0011901781481295,0.0011901940311821,-0.0011901987033506,0.0011901727943904,1.0923600606735e-08,-1.0090902153454e-08,-0.0012594139249869,0.0012594147511435,-2.9146234206081e-09,3.8983244949508e-09,-0.0014445991656467,0.0014446046927103,-0.0014445968894037,0.0014446069094721,-0.0014446062079398,0.0014445977110602,-0.0014446039315072,0.0014445999441068,-0.0011901946608754,0.0011901771966637,-0.0011901740451728,0.0011901977254002,0.66318230798194,131329,3014,0.0040049372020764,0.0052329845161901,0.0052329845162557,26.523814380077,-2.7809484959382e-05,-2.7809484959382e-05,-2.7809484959382e-05,3318321.7271499,0.01457737775402
30819200,0.99679186426155,0.014991853613516,0.0043398505889965,0.0053260015122475,0.0053260015122722,-0.00096313649377334,0.00096313810384003,-9.7662517270077e-09,1.1369123488611e-08,-9.4410280504266e-09,1.1492200928738e-08,-0.0011351601842948,0.0011351478736703,-0.0011351531552448,0.0011351549254474,-0.0011351536102833,0.0011351547612268,-0.0011351465678857,0.0011351618106552,-0.0010307722029425,0.0010307600324326,-0.0010307514917861,0.0010307807126279,9.1249010739814e-09,-1.18849939248e-08,2.3592347478058e-09,-4.6728037322694e-09,-0.0012603236856967,0.0012603213831393,-0.0014455402362735,0.0014455471874986,-0.0014455424830777,0.0014455448324943,-0.0014455468476749,0.0014455402292017,-0.0014455490916533,0.0014455378842854,-0.001281622298227,0.0012816199183166,-0.001281629075933,0.0012816129152583,-0.0011910578631577,0.001191073688591,-0.0011910783589548,0.0011910525116375,1.0999984410674e-08,-1.0167279162483e-08,-0.0012603221213468,0.0012603229475192,-2.9144577194937e-09,3.8981519284579e-09,-0.0014455408081141,0.0014455463853403,-0.0014455385310734,0.001445548602898,-0.0014455479004568,0.0014455393536569,-0.0014455456250377,0.0014455415857381,-0.0011910744234774,0.0011910568069087,-0.0011910536554352,0.0011910774878208,0.69236328728379,131329,3014,0.0040082637144329,0.005236748201337,0.0052367482013995,26.920585955064,-2.4635312359485e-05,-2.4635312359485e-05,-2.4635312359485e-05,3323537.3279028,0.014588390107301
31019200,0.99692165921007,0.014993778952503,0.0043403975847576,0.0053266906838604,0.0053266906838852,-0.00096392108787382,0.00096392269665509,-9.8415922729351e-09,1.1443189186572e-08,-9.4149351004895e-09,1.1464567442981e-08,-0.0011360207297013,0.0011360083858446,-0.0011360136508352,0.0011360154874645,-0.0011360141734736,0.0011360152554781,-0.0011360070812635,0.0011360223547511,-0.0010316130448182,0.0010316007089679,-0.0010315921874814,0.0010316215353708,9.1047185933641e-09,-1.1862590136797e-08,2.3606057975209e-09,-4.672179144991e-09,-0.0012612264481833,0.001261224147648,-0.0014465054219485,0.0014465123612622,-0.001446507668991,0.001446510006045,-0.0014465120192736,0.0014465054171896,-0.00144651426352,0.0014465030720369,-0.0012825623096581,0.0012825599466175,-0.00128256908812,0.001282552942699,-0.0011919616140505,0.0011919773994637,-0.0011919820681435,0.0011919562645115,1.1075772957151e-08,-1.024307970577e-08,-0.0012612248848403,0.0012612257110223,-2.9145348376378e-09,3.8982336375794e-09,-0.0014465059626218,0.0014465115903522,-0.0014465036855055,0.0014465138079782,-0.0014465131055131,0.0014465045081347,-0.0014465108300402,0.0014465067402595,-0.0011919782286356,0.0011919604636797,-0.0011919573121114,0.0011919812930154,0.71215832671942,131329,3014,0.0040115243762144,0.0052404886568129,0.0052404886568781,27.31744970691,-2.1460402344716e-05,-2.1460402344716e-05,-2.1460402344716e-05,3326081.245209,0.014599290611436
31219200,0.99705019568265,0.014995785693014,0.0043409709846434,0.0053274073541728,0.0053274073541976,-0.00096496558815689,0.0009649671956133,-9.9170033633546e-09,1.1517064787253e-08,-9.376883962455e-09,1.1424599813112e-08,-0.0011371798974945,0.0011371675295791,-0.0011371727694535,0.0011371746804925,-0.0011371733678962,0.0011371743724603,-0.0011371662253589,0.0011371815221994,-0.0010327326013058,0.0010327200909255,-0.0010327115965385,0.0010327410647454,9.049276562253e-09,-1.1802262271316e-08,2.365195992829e-09,-4.6724283614507e-09,-0.0012624190345812,0.001262416738592,-0.0014477823918157,0.001447789299578,-0.0014477846410937,0.001447786942277,-0.0014477889517419,0.0014477823938123,-0.0014477911968921,0.0014477800477381,-0.001283814884304,0.0012838125679708,-0.001283821666298,0.0012838055599096,-0.0011931787253917,0.0011931943989761,-0.0011931990667839,0.0011931733795474,1.1151872839881e-08,-1.0318867342921e-08,-0.0012624174733709,0.0012624182998299,-2.9145756933603e-09,3.8984926679015e-09,-0.0014477828912438,0.0014477885701127,-0.0014477806145923,0.001447790787302,-0.0014477900854777,0.0014477814369719,-0.0014477878093425,0.0014477836700246,-0.0011931953583152,0.0011931774470678,-0.0011931742930507,0.001193198422387,0.74546030219328,131329,3014,0.0040158661203674,0.0052454296096052,0.0052454296096629,27.866985584173,-1.7064115326613e-05,-1.7064115326613e-05,-1.7064115326613e-05,3328758.3371942,0.014613725649696
31419200,0.99717742776583,0.014997672808401,0.004341506213271,0.0053280832975524,0.0053280832975773,-0.0009660134094596,0.00096601501413782,-9.9925928008844e-09,1.1590063368608e-08,-9.3225476201283e-09,1.1367135858273e-08,-0.0011383977569154,0.001138385372029,-0.0011383905776186,0.0011383925741062,-0.0011383912627205,0.0011383921792768,-0.0011383840724017,0.0011383993766437,-0.0010338658327074,0.0010338531410686,-0.0010338446871345,0.0010338742555198,9.0339105458948e-09,-1.1784402996982e-08,2.3660015431974e-09,-4.6709090453785e-09,-0.0012636307678163,0.0012636284740225,-0.0014491121882459,0.0014491190848641,-0.0014491144355112,0.0014491167293668,-0.001449118735019,0.0014491121917125,-0.0014491209816854,0.0014491098441732,-0.0012851021469653,0.0012850998476194,-0.001285108932793,0.0012850928365203,-0.0011944407575827,0.0011944564051103,-0.0011944610689228,0.0011944354142385,1.1228175342774e-08,-1.0395213530539e-08,-0.0012636292077129,0.0012636300341546,-2.9168124743811e-09,3.900762378681e-09,-0.0014491126582507,0.0014491183848033,-0.0014491103784232,0.0014491206051635,-0.0014491199013544,0.0014491112023297,-0.0014491176253473,0.0014491134350555,-0.0011944574532111,0.0011944393891322,-0.0011944362353549,0.0011944605194356,0.71242630738796,131329,3014,0.0040202245273146,0.0052504490381148,0.0052504490381744,28.435087235071,-1.2519302119433e-05,-1.2519302119433e-05,-1.2519302119433e-05,3329357.5921267,0.014628338919142
31619200,0.99730316963869,0.014999444170326,0.004342004971704,0.0053287195992987,0.0053287195993235,-0.00096706994011946,0.00096707154373525,-1.0067801450429e-08,1.1664259201535e-08,-9.298056530579e-09,1.1341371168396e-08,-0.0011395732813802,0.0011395608621113,-0.0011395660521201,0.001139568114148,-0.0011395668035636,0.0011395676528848,-0.0011395595635857,0.0011395748998957,-0.0010349894447333,0.001034976589386,-0.0010349681533848,0.0010349978494734,9.0107367543519e-09,-1.1758793167859e-08,2.3680190913233e-09,-4.6707614592797e-09,-0.0012648428455295,0.001264840553953,-0.0014504098792679,0.0014504167617176,-0.0014504121270981,0.0014504144057162,-0.0014504164091649,0.0014504098856726,-0.0014504186564757,0.0014504075373923,-0.0012863641003411,0.0012863618218492,-0.0012863708883271,0.001286354808532,-0.0011956761557812,0.0011956917563645,-0.001195696418907,0.0011956708145899,1.1304161822381e-08,-1.0471134551262e-08,-0.0012648412865046,0.0012648421130079,-2.9170633620696e-09,3.9010992247436e-09,-0.001450410317173,0.0014504160938077,-0.001450408037121,0.0014504183145072,-0.0014504176105497,0.0014504088611384,-0.0014504153343913,0.001450411093964,-0.0011956929025518,0.0011956746902628,-0.0011956715356746,0.0011956959686101,0.68057767561154,131329,3014,0.0040246164491205,0.0052554704540628,0.0052554704541254,29.003673115984,-7.970615072131e-06,-7.970615072131e-06,-7.970615072131e-06,3332922.8616943,0.014642988147477
31819200,0.99742511138617,0.015001097704166,0.0043424679197417,0.0053293148921997,0.0053293148922245,-0.00096759392906046,0.00096759553788272,-1.0137503468787e-08,1.173919849028e-08,-9.3996799539061e-09,1.1449232759092e-08,-0.0011401499695595,0.0011401374368358,-0.0011401426912526,0.0011401447380197,-0.0011401434215107,0.0011401442983182,-0.0011401361343303,0.0011401515927028,-0.0010355468460315,0.0010355339273338,-0.0010355254158524,0.0010355553260987,9.0342841626171e-09,-1.1785759016307e-08,2.3667803706314e-09,-4.6726457931224e-09,-0.0012654700175755,0.0012654677227494,-0.0014510822243087,0.0014510891195585,-0.0014510844715527,0.0014510867645816,-0.0014510887704996,0.0014510822279862,-0.0014510910186868,0.0014510798787025,-0.0012870042724098,0.0012870019798109,-0.0012870110658423,0.0012869949615585,-0.0011962928432771,0.0011963084943231,-0.0011963131600843,0.0011962874973323,1.1381983459101e-08,-1.0549743413933e-08,-0.0012654684572227,0.00126546928312,-2.9107106649636e-09,3.8938383272649e-09,-0.0014510826410662,0.0014510884728526,-0.0014510803645742,0.001451090690039,-0.001451089985897,0.001451081189341,-0.0014510877151696,0.0014510834170611,-0.0011963096973932,0.0011962913221477,-0.0011962881729032,0.0011963127576922,0.65805653836727,131329,3014,0.0040267941270837,0.0052580687932051,0.0052580687932428,29.265869845231,-5.8730412381481e-06,-5.8730412381481e-06,-5.8730412381481e-06,3335708.871774,0.01465047109252
32019200,0.99754164755053,0.015002841488016,0.0043429629516818,0.0053299392681548,0.0053299392681798,-0.00096769890839454,0.00096770052049904,-1.0211622285272e-08,1.1816480677862e-08,-9.4791695135252e-09,1.1532763926096e-08,-0.0011402484601138,0.0011402358258049,-0.0011402411313958,0.0011402431773894,-0.0011402418579685,0.0011402427416634,-0.0011402345201885,0.0011402500866194,-0.0010356670147709,0.0010356540050269,-0.0010356454357067,0.0010356755526293,9.1891040873289e-09,-1.1954455886597e-08,2.3519110825562e-09,-4.6701188029126e-09,-0.0012656332960601,0.0012656309887834,-0.0014512543246129,0.0014512613100272,-0.0014512565661852,0.0014512589606868,-0.0014512609785888,0.0014512543097394,-0.0014512632209237,0.0014512519663827,-0.0012871626813864,0.0012871602504226,-0.0012871694569379,0.0012871532501207,-0.0011964239255761,0.0011964398884069,-0.0011964445603159,0.0011964185717083,1.1456563966306e-08,-1.0624681319691e-08,-0.0012656317296612,0.0012656325551987,-2.9078028106495e-09,3.8905489828697e-09,-0.0014512547605161,0.0014512606438214,-0.0014512524861627,0.0014512628587703,-0.0014512621551833,0.0014512533104762,-0.0014512598862648,0.0014512555360885,-0.0011964410087632,0.0011964224853671,-0.0011964193390261,0.0011964440672573,0.71766339585797,131329,3014,0.0040272294408958,0.0052587455015309,0.0052587455015652,29.280999693058,-5.7520024555334e-06,-5.7520024555334e-06,-5.7520024555334e-06,3337324.1382113,0.014652284700939
32219200,0.9976529751894,0.015004547660887,0.0043434485747349,0.0053305495430636,0.0053305495430887,-0.00096776158616775,0.00096776320485319,-1.0284636919843e-08,1.1895978518404e-08,-9.6235172699768e-09,1.1685012461773e-08,-0.0011403926317653,0.0011403798549875,-0.0011403852532887,0.001140387256303,-0.001140385932002,0.0011403868690386,-0.0011403785422465,0.0011403942658936,-0.0010357639058077,0.0010357508485081,-0.0010357421739341,0.0010357725494744,9.2526891566864e-09,-1.2025644818372e-08,2.3459217605944e-09,-4.6710715007822e-09,-0.0012657670911676,0.0012657647768552,-0.0014514504786532,0.0014514575012209,-0.0014514527196976,0.0014514551523145,-0.0014514571780896,0.0014514504548186,-0.0014514594177727,0.0014514481141821,-0.0012873321612447,0.0012873296686713,-0.0012873389275879,0.0012873226780935,-0.0011965796279918,0.0011965957132606,-0.001196600390236,0.001196574268495,1.1530446787824e-08,-1.0699132040507e-08,-0.0012657655215559,0.0012657663464852,-2.8991952701628e-09,3.8813120450224e-09,-0.0014514509050825,0.0014514568442639,-0.0014514486378046,0.0014514590520088,-0.0014514583501986,0.0014514494603745,-0.0014514560861826,0.0014514516810086,-0.0011965968456351,0.0011965781741728,-0.0011965750343161,0.0011965998975138,0.73340852785863,131329,3014,0.0040274939967323,0.0052592988056935,0.0052592988057312,29.290213780636,-5.6782897549124e-06,-5.6782897549124e-06,-5.6782897549124e-06,3333829.071414,0.014653678396768
32419200,0.99775932246126,0.015006221563347,0.0043439265237617,0.0053311475197803,0.0053311475198054,-0.00096781228335533,0.00096781390547394,-1.0358190266309e-08,1.1972905224582e-08,-9.7067465902017e-09,1.1772477102494e-08,-0.0011405465793787,0.0011405336991888,-0.0011405391507933,0.0011405411505701,-0.0011405398232815,0.0011405407699417,-0.0011405323831555,0.0011405482171181,-0.0010358522420248,0.0010358390968088,-0.0010358303622099,0.0010358609455621,9.3446105184015e-09,-1.2126145372491e-08,2.3365480706499e-09,-4.6693662055758e-09,-0.0012658904883281,0.0012658881663319,-0.0014516476027999,0.0014516546783931,-0.0014516498402363,0.0014516523330427,-0.0014516543662817,0.0014516475674509,-0.0014516566021149,0.0014516452306556,-0.0012875001402008,0.0012874975645741,-0.0012875068952373,0.0012874905852456,-0.001196741071443,0.0011967573420351,-0.0011967620229249,0.0011967357071783,1.1605416879304e-08,-1.0774481294463e-08,-0.0012658889150886,0.0012658897395924,-2.8942448307189e-09,3.8759350683442e-09,-0.0014516480290255,0.001451654021366,-0.0014516457652874,0.0014516562255537,-0.0014516555243299,0.0014516465873002,-0.0014516532636125,0.0014516488046608,-0.001196758456982,0.001196739634745,-0.0011967364985821,0.0011967615049792,0.75109426438497,131329,3014,0.0040277101199471,0.0052598086233193,0.0052598086233631,29.299209426161,-5.6063245907098e-06,-5.6063245907098e-06,-5.6063245907098e-06,3329415.4529982,0.014654935452424
32619200,0.99786064992473,0.015007686531931,0.0043443401567308,0.0053316731875873,0.0053316731876124,-0.00096776016365749,0.000967761786676,-1.0432446394512e-08,1.2048040998706e-08,-9.7407275728707e-09,1.1807693866999e-08,-0.0011406214997806,0.0011406085470332,-0.0011406140205911,0.001140616049034,-0.0011406147201163,0.001140615641346,-0.0011406072309789,0.0011406231375718,-0.0010358330724161,0.0010358198067755,-0.0010358110487194,0.0010358417995857,9.4430636441696e-09,-1.2230274199585e-08,2.3261795870006e-09,-4.6637839628978e-09,-0.0012659081464985,0.001265905819677,-0.0014517521261623,0.0014517592584989,-0.0014517543575374,0.0014517569192829,-0.0014517589562482,0.0014517520805565,-0.0014517611874982,0.0014517497483396,-0.0012875637542782,0.0012875610927752,-0.0012875704960266,0.0012875541267987,-0.0011968098401902,0.0011968263122748,-0.0011968309923584,0.0011968044757014,1.1680970571955e-08,-1.0850296853114e-08,-0.0012659065709639,0.0012659073952312,-2.8917317453743e-09,3.8731607623327e-09,-0.0014517525551272,0.0014517585986278,-0.0014517502922901,0.001451760801766,-0.0014517601000725,0.0014517511149056,-0.0014517578417799,0.0014517533297116,-0.0011968274024992,0.0011968084277607,-0.0011968052937272,0.0011968304485698,0.69653887284432,131329,3014,0.0040275006982138,0.0052598798121567,0.0052598798121978,29.262896498925,-5.8968280086007e-06,-5.8968280086007e-06,-5.8968280086007e-06,3323560.3742311,0.014654871298776
32819200,0.99795708257381,0.015008963410613,0.004344696386186,0.0053321335122009,0.005332133512226,-0.00096769023602441,0.00096769186112107,-1.0505768502925e-08,1.2123407954238e-08,-9.7906029081546e-09,1.1860118994476e-08,-0.0011405923266054,0.0011405792919022,-0.0011405847978075,0.0011405868435073,-0.0011405855127191,0.0011405864206415,-0.0011405779738764,0.0011405939665768,-0.001035772387077,0.0010357590115962,-0.0010357502174529,0.0010357811503851,9.4678625830763e-09,-1.2256509703556e-08,2.3225260563465e-09,-4.6612944956577e-09,-0.0012658842528106,0.0012658819247973,-0.0014517608155874,0.001451767961102,-0.0014517630450369,0.0014517656238233,-0.0014517676619476,0.0014517607667631,-0.0014517698911244,0.00145175843664,-0.0012875444984163,0.0012875418127955,-0.0012875512339183,0.0012875348530294,-0.001196788032015,0.0011968045537937,-0.0011968092330912,0.0011967826680974,1.1756793116864e-08,-1.0926497231245e-08,-0.0012658826768719,0.0012658835007555,-2.8858247256532e-09,3.8668180053054e-09,-0.0014517612238642,0.0014517673217902,-0.0014517589652665,0.0014517695207804,-0.0014517688195714,0.0014517597874462,-0.0014517665652874,0.0014517619981744,-0.0011968056956802,0.0011967865678138,-0.0011967834381439,0.0011968087370895,0.6444613632754,131329,3014,0.004027212599769,0.0052597800268031,0.0052597800268437,29.20441976675,-6.3646418659994e-06,-6.3646418659994e-06,-6.3646418659994e-06,3322132.1252044,0.014654376727063
33019200,0.9980488676827,0.015010289124945,0.0043450712617092,0.0053326089316051,0.0053326089316302,-0.00096765688638514,0.00096765851175278,-1.0580524284069e-08,1.219842134716e-08,-9.8019241962088e-09,1.1871861623365e-08,-0.0011405097253058,0.0011404966330787,-0.0011405021463595,0.0011405042348197,-0.001140502903615,0.0011405037696631,-0.0011404953150225,0.0011405113653287,-0.0010357338683877,0.0010357203548112,-0.0010357115525991,0.0010357426396533,9.4888532723267e-09,-1.2283332812758e-08,2.3155011185514e-09,-4.6598472308834e-09,-0.0012658757230877,0.0012658733894768,-0.0014517300160554,0.0014517371690205,-0.0014517322424948,0.001451734834768,-0.0014517368781837,0.0014517299587567,-0.0014517391047337,0.0014517276312788,-0.0012875097237598,0.0012875070089447,-0.001287516451599,0.0012875000570688,-0.0011967338575082,0.0011967504242846,-0.0011967551062364,0.001196728490611,1.1832045365371e-08,-1.1002313535109e-08,-0.0012658741446458,0.0012658749679388,-2.8826070464217e-09,3.8629782590776e-09,-0.0014517304020907,0.0014517365518632,-0.0014517281456638,0.0014517387487294,-0.001451738047932,0.0014517289674258,-0.0014517357961515,0.001451731175594,-0.0011967516192684,0.0011967323399975,-0.001196729213309,0.0011967546578422,0.69524136126259,131329,3014,0.0040270713486355,0.0052597453299263,0.0052597453299682,29.145406766983,-6.8367458641342e-06,-6.8367458641342e-06,-6.8367458641342e-06,3324893.4552067,0.014654159937024
33219200,0.99813624220608,0.015011620354176,0.0043454502671047,0.0053330850435232,0.0053330850435483,-0.00096759996699569,0.00096760159196551,-1.0655700962091e-08,1.2273191801386e-08,-9.8016761412573e-09,1.1871205925572e-08,-0.0011404809401012,0.0011404677975908,-0.0011404733110401,0.0011404754494578,-0.0011404741185049,0.0011404749340348,-0.0011404664800369,0.0011404825795973,-0.001035691159444,0.0010356774987065,-0.0010356686971503,0.0010356999300424,9.4929225254211e-09,-1.2287656945585e-08,2.3120939352157e-09,-4.6566578947472e-09,-0.0012658566235835,0.001265854289762,-0.0014517369221648,0.0014517440753414,-0.0014517391463132,0.0014517417434094,-0.0014517437869133,0.0014517368624723,-0.0014517460113881,0.0014517345370891,-0.0012875010930138,0.0012874983689499,-0.001287507814646,0.0012874914231723,-0.0011967143154551,0.0011967308926234,-0.0011967355726983,0.001196708950459,1.1907364061849e-08,-1.1077857866811e-08,-0.0012658550451438,0.0012658558682209,-2.8795472437495e-09,3.8596693183399e-09,-0.0014517372822788,0.0014517434841151,-0.0014517350278589,0.0014517456789686,-0.00145174497828,0.0014517358495481,-0.0014517427287181,0.0014517380554768,-0.0011967321575987,0.0011967127279387,-0.0011967096035684,0.0011967351938649,0.72922791444168,131329,3014,0.0040268364860014,0.0052596657840312,0.0052596657840713,29.086373930383,-7.3090085569367e-06,-7.3090085569367e-06,-7.3090085569367e-06,3323165.7637981,0.01465376060048
33419200,0.99822077725864,0.015012935007549,0.004345825437507,0.0053335547850082,0.0053335547850333,-0.00096803200009609,0.00096803361961725,-1.0729766069218e-08,1.234163811328e-08,-9.7047047044329e-09,1.1767648065312e-08,-0.0011410073763332,0.0011409942462716,-0.0011409996979847,0.0011410019474679,-0.0011410006197146,0.0011410013173357,-0.0011409929353616,0.001141009008733,-0.0010361658295808,0.001036151961147,-0.0010361432316107,0.0010361745271389,9.4225921563433e-09,-1.221018855961e-08,2.3162105193172e-09,-4.6542900603779e-09,-0.0012663656332904,0.0012663633061004,-0.0014523123502406,0.0014523194599621,-0.0014523145732175,0.0014523171288614,-0.0014523191640772,0.0014523122976545,-0.001452321391102,0.0014523099700275,-0.0012880532414057,0.0012880505783342,-0.0012880599679905,0.0012880436264906,-0.0011972557577352,0.001197272199099,-0.0011972768739652,0.0011972503990508,1.1986863912771e-08,-1.1156865123076e-08,-0.0012663640580461,0.0012663648813737,-2.8798333287451e-09,3.8603928508836e-09,-0.0014523126631112,0.0014523189157852,-0.0014523104069991,0.0014523211128366,-0.0014523204101429,0.0014523112302284,-0.0014523181618083,0.0014523134344322,-0.0011972736104887,0.0011972540222319,-0.0011972508971817,0.0011972766481763,0.74278653261431,131329,3014,0.0040286348451328,0.0052617739218126,0.0052617739218729,29.311910663736,-5.5047146901126e-06,-5.5047146901126e-06,-5.5047146901126e-06,3322341.9855837,0.014659866307865
33619200,0.99830286469526,0.015014211899477,0.0043461897285364,0.005334011085458,0.005334011085483,-0.00096858441765573,0.00096858602680198,-1.0790098921826e-08,1.2391708447372e-08,-9.5260350187574e-09,1.1576944183478e-08,-0.0011416806602531,0.0011416675985369,-0.0011416729377975,0.0011416753435409,-0.001141674018827,0.0011416745532733,-0.0011416663048678,0.0011416822737279,-0.0010367667741538,0.0010367526815093,-0.001036744087424,0.0010367753378548,9.3859431792973e-09,-1.2167256439671e-08,2.3235579415478e-09,-4.6558474805815e-09,-0.0012670168512471,0.0012670145297546,-0.0014530446769011,0.0014530517611047,-0.0014530468954724,0.0014530494335638,-0.0014530514559108,0.0014530446316054,-0.0014530536935271,0.0014530422934356,-0.0012887558734614,0.0012887532677826,-0.0012887626263425,0.0012887462913157,-0.0011979528121863,0.0011979691960323,-0.0011979738647688,0.001197947457419,1.2082247951736e-08,-1.1252008903205e-08,-0.0012670152788396,0.0012670161022279,-2.8802322381469e-09,3.861354891641e-09,-0.0014530449489421,0.0014530512576605,-0.0014530426853196,0.0014530534620321,-0.0014530527515456,0.0014530435150093,-0.0014530505097749,0.0014530457114658,-0.001197970736468,0.0011979509435834,-0.0011979478209587,0.0011979737773396,0.74303042876006,131329,3014,0.004030934301367,0.0052644709769087,0.0052644709770452,29.613691818558,-3.0904654515372e-06,-3.0904654515372e-06,-3.0904654515372e-06,3321610.3271123,0.014667676431053
33819200,0.9983825147948,0.015015454850739,0.0043465443696612,0.0053344552405264,0.0053344552405512,-0.00096913332104807,0.00096913493046606,-1.0885071752e-08,1.2487152233953e-08,-9.4916465733302e-09,1.1542568696714e-08,-0.0011423519278134,0.0011423388328247,-0.0011423441494517,0.0011423466340077,-0.0011423453161701,0.0011423457578881,-0.0011423375309338,0.0011423535501962,-0.0010373634961925,0.0010373491757761,-0.0010373406027641,0.0010373720381584,9.2150947315303e-09,-1.1981839338934e-08,2.3314814153114e-09,-4.6509474755945e-09,-0.0012676660096666,0.001267663701254,-0.0014537739023232,0.0014537808877274,-0.0014537761299156,0.0014537785523183,-0.0014537805703399,0.001453773872881,-0.0014537828004519,0.0014537715418265,-0.0012894544878953,0.0012894520004457,-0.0012894612257263,0.0012894450383749,-0.0011986482525584,0.0011986642772389,-0.0011986689368759,0.0011986429107898,1.2137665210307e-08,-1.1307472300954e-08,-0.001267664443649,0.0012676652673014,-2.8851152525624e-09,3.8660277446532e-09,-0.0014537741047945,0.0014537804547152,-0.0014537718455662,0.0014537826548884,-0.0014537819523623,0.001453772668636,-0.0014537796997388,0.0014537748772418,-0.001198666042976,0.0011986461652903,-0.0011986430364289,0.0011986690840804,0.74517769557201,131329,3014,0.0040332193984567,0.005267159337819,0.0052671593378816,29.917357918255,-6.6113665395587e-07,-6.6113665395587e-07,-6.6113665395587e-07,3321086.519705,0.014675454186257
34019200,0.99845973189705,0.01501662177628,0.0043468758645558,0.0053348729558497,0.0053348729558746,-0.00096967447532639,0.00096967607921757,-1.0957608774721e-08,1.2554247860404e-08,-9.3774644325456e-09,1.1421788878543e-08,-0.0011430168996385,0.0011430038295225,-0.0011430090729457,0.0011430116790275,-0.0011430103644806,0.0011430106776008,-0.0011430025346672,0.0011430185145,-0.0010379502836668,0.0010379357488675,-0.0010379272592645,0.0010379587423323,9.1416571546477e-09,-1.1900440556725e-08,2.3389768999237e-09,-4.6512537039218e-09,-0.0012683082966902,0.0012683059954975,-0.0014544962406329,0.0014545031835761,-0.00145449846882,0.0014545008475281,-0.0014545028566204,0.0014544962210808,-0.0014545050913143,0.0014544938854378,-0.0012901438264608,0.001290141410686,-0.0012901505775819,0.0012901344353166,-0.0011993369120448,0.0011993527970007,-0.0011993574521561,0.0011993315755878,1.2218383995874e-08,-1.1388005253139e-08,-0.0012683067341559,0.0012683075580549,-2.8878277522856e-09,3.8689550098155e-09,-0.0014544963967487,0.0014545027971415,-0.0014544941336614,0.0014545050011779,-0.0014545042963119,0.0014544949588791,-0.0014545020438388,0.0014544971674114,-0.0011993547137974,0.001199334673973,-0.0011993315432403,0.0011993577571719,0.72426545596271,131329,3014,0.0040354723970545,0.0052698191276239,0.0052698191276725,30.221094034261,1.7687522740874e-06,1.7687522740874e-06,1.7687522740874e-06,3320683.2300504,0.014683141325404
34219200,0.99853581535964,0.015017738912307,0.0043471920051948,0.0053352734535436,0.0053352734535685,-0.00097076899364237,0.00097077058186386,-1.1035942981547e-08,1.2616647168913e-08,-9.1877516127597e-09,1.121415546116e-08,-0.001144217917417,0.0011442049022803,-0.0011442100311074,0.0011442128099614,-0.00114421150099,0.0011442116300231,-0.0011442036349465,0.0011442195005598,-0.0010391039918592,0.0010390891911007,-0.0010390808552052,0.0010391123012474,9.0632761703981e-09,-1.1813175025895e-08,2.3518830328832e-09,-4.6560874936301e-09,-0.0012695416353663,0.0012695393421197,-0.001455797308507,0.001455804196731,-0.0014557995300655,0.0014558018629435,-0.0014558038513298,0.0014557972975236,-0.0014558061058617,0.0014557949424232,-0.0012914217791446,0.001291419453649,-0.0012914285616866,0.0012914124490069,-0.001200599204158,0.0012006149482991,-0.0012006195914997,0.0012005938739578,1.229988011887e-08,-1.1466759008678e-08,-0.0012695400763804,0.0012695409013146,-2.890245186317e-09,3.8751866752659e-09,-0.0014557974168708,0.0014558038562007,-0.0014557951404286,0.0014558060736755,-0.0014558053545634,0.0014557959737935,-0.0014558031108334,0.001455798169383,-0.0012006170106441,0.0012005967958861,-0.0012005936699459,0.0012006200700014,0.70594349130706,131329,3014,0.0040400214096015,0.0052749285649107,0.0052749285653413,30.83270127885,6.6616102308e-06,6.6616102308e-06,6.6616102308e-06,3325566.4732695,0.014698128678799
34419200,0.99861076994135,0.015018844234479,0.0043475048763287,0.0053356696790631,0.0053356696790874,-0.00097192889597322,0.00097193048924588,-1.1120133049363e-08,1.2706333671699e-08,-9.1643675188042e-09,1.1195969532198e-08,-0.0011454603609039,0.0011454473239774,-0.0011454524324129,0.0011454552752059,-0.0011454539737957,0.0011454540229764,-0.0011454460355583,0.0011454619680126,-0.0010403190170289,0.0010403040064157,-0.0010402956742903,0.0010403273186692,8.8807633493246e-09,-1.1614626683172e-08,2.3624521323542e-09,-4.652549248342e-09,-0.0012708432182769,0.0012708409396754,-0.0014571527949853,0.0014571595880057,-0.0014571550347972,0.0014571572399993,-0.0014571592309206,0.0014571528061998,-0.0014571614704812,0.0014571504656091,-0.001292756144721,0.0012927539464064,-0.0012927629083548,0.0012927469585479,-0.0012019114976103,0.0012019268461384,-0.0012019314865077,0.0012019061779915,1.2363015528891e-08,-1.1531003710575e-08,-0.0012708416664525,0.0012708424915734,-2.9010119691639e-09,3.8840466117186e-09,-0.0014571528309819,0.0014571593221037,-0.0014571505621807,0.0014571615321987,-0.0014571608293439,0.0014571513846624,-0.0014571585639118,0.0014571536057793,-0.0012019291607653,0.0012019088614384,-0.0012019057204539,0.0012019322156426,0.70867958921725,131329,3014,0.0040448404049727,0.0052803211983372,0.0052803211984928,31.47654321966,1.1812345757276e-05,1.1812345757276e-05,1.1812345757276e-05,3332272.6014318,0.014713963910581
34619200,0.99868446014976,0.015019978241566,0.0043478274894421,0.0053360753760497,0.0053360753760741,-0.00097308986167426,0.00097309144909362,-1.118996638259e-08,1.2770369258691e-08,-9.0366409330578e-09,1.1061187134326e-08,-0.0011467062054406,0.0011466931967617,-0.0011466982230599,0.0011467012019033,-0.0011466998965692,0.0011466998168871,-0.0011466919231589,0.0011467077971957,-0.001041538695094,0.0010415234880869,-0.0010415152485763,0.0010415469039,8.8652764625669e-09,-1.159526655196e-08,2.3730737732482e-09,-4.6595268728469e-09,-0.0012721481969824,0.0012721459219988,-0.0014585140877566,0.0014585208707171,-0.0014585163238932,0.0014585185263523,-0.0014585205041744,0.0014585141085258,-0.001458522759106,0.0014585117525606,-0.0012940980296566,0.0012940958910995,-0.0012941048382501,0.0012940888578905,-0.0012032283370908,0.0012032436797016,-0.0012032483225679,0.0012032230153604,1.2446682661565e-08,-1.1614492358702e-08,-0.0012721466467619,0.0012721474722737,-2.9045602795596e-09,3.8878194052271e-09,-0.0014585140966588,0.0014585206320756,-0.0014585118158628,0.0014585228540944,-0.0014585221412914,0.0014585126481403,-0.001458519882947,0.0014585148621848,-0.0012032460917797,0.001203225603195,-0.001203222459936,0.0012032491499324,0.73613739134206,131329,3014,0.0040496639477036,0.0052857278350969,0.0052857278352109,32.121241875385,1.696993500308e-05,1.696993500308e-05,1.696993500308e-05,3338573.5554255,0.014729832661053
34819200,0.99875788491054,0.015021118417357,0.0043481519573487,0.005336483229992,0.0053364832300165,-0.00097475729255014,0.00097475888142759,-1.1273790738932e-08,1.2855631686688e-08,-9.0447465484368e-09,1.1070743561854e-08,-0.0011485078939232,0.0011484948398196,-0.0011484998711398,0.0011485028854199,-0.0011485015946202,0.0011485014504989,-0.0011484935488106,0.0011485095032962,-0.0010432976484302,0.0010432822364698,-0.0010432739890089,0.0010433058635672,8.6884211292002e-09,-1.1405088905414e-08,2.3828431244799e-09,-4.6575867163747e-09,-0.0012739889806923,0.0012739867176122,-0.0014604477854925,0.0014604544754904,-0.0014604500402676,0.0014604521124691,-0.0014604540948571,0.0014604478212374,-0.0014604563362361,0.0014604454788165,-0.0012960078830338,0.0012960058399698,-0.0012960146519736,0.0012959988449718,-0.0012051046906549,0.001205119632875,-0.0012051242675824,0.001205099379178,1.2513330774276e-08,-1.1680069340076e-08,-0.0012739874359568,0.0012739882624101,-2.9162077674133e-09,3.90064836437e-09,-0.0014604477217307,0.0014604543096581,-0.0014604454489983,0.0014604565239864,-0.001460455826447,0.0014604462658543,-0.0014604535439298,0.0014604485043598,-0.0012051222822941,0.0012051017209392,-0.0012050985675486,0.00120512534919,0.74236047759059,131329,3014,0.004056592961138,0.005293354057578,0.0052933540577082,33.051998053547,2.4415984428374e-05,2.4415984428374e-05,2.4415984428374e-05,3344950.2953409,0.014752345062314
35019200,0.99883119672635,0.015022220241082,0.0043484639088185,0.0053368781661194,0.0053368781661439,-0.00097659535187173,0.00097659693295012,-1.1343189579609e-08,1.291727202253e-08,-8.8819679960628e-09,1.0898666995763e-08,-0.0011505004837705,0.001150487472939,-0.0011504923991455,0.0011504955803682,-0.0011504942784971,0.0011504939887543,-0.001150486207375,0.0011505020668289,-0.0010452352036991,0.0010452195966793,-0.0010452114689317,0.0010452432992244,8.7367548141808e-09,-1.145462734102e-08,2.3952583628996e-09,-4.6708295896926e-09,-0.0012760179058865,0.0012760156420218,-0.0014625830274053,0.0014625897419664,-0.0014625852723148,0.0014625873887572,-0.0014625893533122,0.0014625830708865,-0.0014625916216951,0.0014625807013781,-0.0012981123577439,0.0012981103583503,-0.0012981192048317,0.0012981032849674,-0.0012071751597983,0.001207190244863,-0.0012071948889548,0.0012071698385208,1.2598657518073e-08,-1.176490011726e-08,-0.0012760163605066,0.001276017187463,-2.9187695937395e-09,3.9037467974503e-09,-0.001462582957489,0.0014625895825494,-0.0014625806642345,0.0014625918168706,-0.0014625911004107,0.001462581499957,-0.0014625888344921,0.0014625837218103,-0.0012071929319298,0.0012071721520555,-0.0012071689968306,0.0012071960016835,0.72136488614535,131329,3014,0.0040642313862476,0.0053017594572458,0.0053017594573736,34.084080148292,3.2672641186333e-05,3.2672641186333e-05,3.2672641186333e-05,3351950.1610725,0.014777159821165
35219200,0.99890411526345,0.015023282991213,0.0043487633429348,0.0053372598241266,0.0053372598241511,-0.00097844308577145,0.00097844466243284,-1.1412117209241e-08,1.2981840218398e-08,-8.7837469787357e-09,1.0795131711136e-08,-0.0011524736876348,0.0011524606793894,-0.0011524655435252,0.0011524688462954,-0.0011524675336681,0.0011524671434729,-0.001152459432805,0.0011524752512842,-0.0010471768280621,0.0010471610624993,-0.0010471530071383,0.0010471848522313,8.802292494801e-09,-1.1522919835661e-08,2.4049138791182e-09,-4.6826947650386e-09,-0.001278053776793,0.0012780515106053,-0.0014647079569721,0.001464714704009,-0.0014647101943808,0.0014647123583311,-0.0014647143106464,0.0014647080050544,-0.0014647166006533,0.0014647056138367,-0.0013002099369317,0.0013002079558606,-0.0013002168491926,0.0013002008185212,-0.0012092333246327,0.0012092485721781,-0.0012092532249823,0.0012092279938732,1.2682627341323e-08,-1.1848809883168e-08,-0.0012780522301409,0.0012780530573088,-2.921101370123e-09,3.9061251687338e-09,-0.0014647078832976,0.0014647145482161,-0.0014647055739178,0.0014647167988917,-0.0014647160675082,0.0014647064246571,-0.0014647138142467,0.001464708633285,-0.0012092512802771,0.00120923029504,-0.0012092271389145,0.0012092543523642,0.70214229600641,131329,3014,0.0040719084144276,0.0053101939174522,0.0053101939175596,35.118647161246,4.0949177289968e-05,4.0949177289968e-05,4.0949177289968e-05,3360568.1449369,0.014802072030536
35419200,0.99897549824954,0.015024288667443,0.004349045150008,0.0053376217587052,0.0053376217587297,-0.00097989767012989,0.00097989925369369,-1.1488243183645e-08,1.3064893035015e-08,-8.9165694516591e-09,1.0936156208346e-08,-0.0011540134067478,0.0011540002681269,-0.0011540052179285,0.0011540084797724,-0.0011540071692395,0.0011540068164236,-0.0011539990067202,0.0011540149859021,-0.001048704175973,0.0010486883289066,-0.0010486801750356,0.0010487122987694,8.8394268779254e-09,-1.1564963396935e-08,2.4021323536663e-09,-4.6844235446861e-09,-0.001279668831733,0.0012796665608511,-0.0014663875687699,0.0014663943432469,-0.0014663898145089,0.0014663919893406,-0.0014663939550543,0.0014663876116343,-0.0014663962359101,0.0014663852295484,-0.001301865380895,0.0013018633443678,-0.0013018722678368,0.0013018562329912,-0.0012108484235189,0.0012108637166939,-0.0012108683730746,0.0012108430882599,1.2753750774492e-08,-1.1919809179188e-08,-0.0012796672826068,0.0012796681100221,-2.9259470477673e-09,3.9111477655323e-09,-0.0014663874822111,0.0014663941999748,-0.0014663851784213,0.001466396445566,-0.0014663957225725,0.0014663860209143,-0.0014663934570599,0.0014663882414617,-0.0012108664571562,0.0012108453618265,-0.0012108422019686,0.0012108695319949,0.68162297809123,131329,3014,0.0040779512605927,0.0053168850464133,0.0053168850465072,35.930670798044,4.7445366384352e-05,4.7445366384352e-05,4.7445366384352e-05,3368230.6360113,0.014821786529639
35619200,0.99904453797448,0.015025221723348,0.0043493048911259,0.0053379584160987,0.0053379584161232,-0.00098106049375628,0.00098106208886882,-1.1568873974577e-08,1.3156919115329e-08,-9.151651637148e-09,1.1184917844173e-08,-0.0011552175302391,0.0011552041976778,-0.0011552092968365,0.0011552124538731,-0.0011552111456064,0.0011552108942115,-0.0011552029125266,0.0011552191341683,-0.0010499230759386,0.0010499071947579,-0.0010498988684969,0.0010499313727702,8.8983672152385e-09,-1.1632931879729e-08,2.3945050173665e-09,-4.6851328820542e-09,-0.0012809661550139,0.0012809638755801,-0.0014677230195275,0.0014677298392042,-0.0014677252758688,0.0014677274747339,-0.0014677294617994,0.001467723051493,-0.0014677317274739,0.0014677206844903,-0.0013031841523186,0.0013031820204653,-0.0013031909951387,0.0013031749544862,-0.0012121234778463,0.0012121388534364,-0.0012121435163511,0.0012121181364666,1.2818048685176e-08,-1.1984099784448e-08,-0.0012809646015705,0.0012809654290626,-2.9270252407116e-09,3.9121196012845e-09,-0.0014677229278437,0.0014677297008064,-0.0014677206362199,0.0014677319341693,-0.0014677312240923,0.0014677214661048,-0.0014677289452235,0.0014677237003346,-0.0012121415965621,0.0012121204140319,-0.0012121172521728,0.0012121446713666,0.65729899512052,131329,3014,0.0040827806347537,0.0053222601418266,0.0053222601419086,36.574927603617,5.259942082894e-05,5.259942082894e-05,5.259942082894e-05,3375560.8984355,0.014837597281194
35819200,0.99911112143402,0.015026182548814,0.0043495749554295,0.0053383037966798,0.0053383037967044,-0.00098223444886303,0.00098223605184036,-1.1643725226246e-08,1.3239567618944e-08,-9.3234679380426e-09,1.1366292232751e-08,-0.0011563883330702,0.0011563748444918,-0.0011563800529544,0.0011563831474237,-0.0011563818375581,0.0011563816526143,-0.0011563735464185,0.0011563899507096,-0.0010511501531355,0.0010511342265705,-0.001051125774452,0.0010511585746524,9.0231081131662e-09,-1.1771176062909e-08,2.3848798771786e-09,-4.6876610201631e-09,-0.0012822646976223,0.0012822624059898,-0.0014690336690169,0.0014690405692949,-0.0014690359284442,0.0014690382017576,-0.0014690402058641,0.0014690336863633,-0.0014690424638112,0.0014690313271843,-0.0013044933765719,0.0013044911214278,-0.0013045001957132,0.0013044840784553,-0.0012133764863893,0.0012133920967558,-0.0012133967691646,0.0012133711335007,1.2889801737817e-08,-1.2055952398459e-08,-0.0012822631381681,0.0012822639654846,-2.9261908930827e-09,3.9112381675058e-09,-0.0014690335905368,0.0014690404174227,-0.0014690313047829,0.0014690426446431,-0.0014690419402979,0.0014690321291634,-0.0014690396567106,0.0014690343683685,-0.0012133947854223,0.0012133734764059,-0.0012133703156665,0.0012133978593009,0.69619235472845,131329,3014,0.0040876538747901,0.0053276409488465,0.0053276409489316,37.215137943954,5.7721103551632e-05,5.7721103551632e-05,5.7721103551632e-05,3384485.2694359,0.014853462975307
36019200,0.99917516293769,0.015027165863512,0.0043498534778609,0.0053386561928135,0.005338656192838,-0.00098338834204526,0.00098338994937228,-1.1711412930727e-08,1.3311450626144e-08,-9.426444132867e-09,1.1474606893754e-08,-0.0011576010121773,0.0011575874039423,-0.0011575926786902,0.0011575957602206,-0.0011575944395074,0.0011575942896231,-0.0011575861085953,0.0011576026274771,-0.0010523728274138,0.0010523568590597,-0.0010523483319143,0.0010523813237305,9.2012922742539e-09,-1.196546900236e-08,2.3757149773512e-09,-4.6928110613674e-09,-0.0012835547919805,0.0012835524859468,-0.0014703750041129,0.0014703820058471,-0.0014703772553463,0.0014703796464956,-0.0014703816574763,0.0014703750055286,-0.001470383920944,0.0014703726408122,-0.0013058241715651,0.0013058217945869,-0.0013058310072692,0.0013058147346101,-0.0012146576868256,0.0012146736709736,-0.0012146783564663,0.0012146523192354,1.297051017817e-08,-1.2136842891781e-08,-0.0012835532254347,0.0012835540525344,-2.9228828054366e-09,3.9076748616859e-09,-0.0014703749516577,0.0014703818275542,-0.001470372661255,0.0014703840592609,-0.0014703833484111,0.0014703734923592,-0.0014703810739029,0.0014703757223443,-0.0012146762628434,0.0012146547726088,-0.0012146516143725,0.0012146793345447,0.73586310233312,131329,3014,0.0040924472902982,0.0053329858327654,0.0053329858328531,37.855197842667,6.2841582741338e-05,6.2841582741338e-05,6.2841582741338e-05,3389854.3660783,0.014869177810186
36219200,0.9992345064667,0.015028045562269,0.004350101238545,0.0053389721618498,0.0053389721618744,-0.00098331411278828,0.00098331573305328,-1.1790396279575e-08,1.3403226923559e-08,-9.705924129945e-09,1.1769685059377e-08,-0.0011576223606298,0.0011576085227854,-0.0011576139763738,0.00115761692985,-0.0011576156033594,0.001157615594212,-0.0011576072092882,0.0011576239952773,-0.0010523275097789,0.0010523115603455,-0.0010523028292996,0.0010523362103984,9.4059497966454e-09,-1.2190953298852e-08,2.3474866435245e-09,-4.6833885860764e-09,-0.0012835501216807,0.0012835477966486,-0.0014704400397603,0.0014704471590135,-0.0014704422848399,0.0014704448059647,-0.00147044684157,0.0014704400093869,-0.0014704490862567,0.0014704376635658,-0.0013058535084294,0.0013058509142736,-0.001305860289284,0.0013058439095399,-0.0012146808691194,0.0012146972501751,-0.0012147019415792,0.0012146754934815,1.3034750255974e-08,-1.2202779194119e-08,-0.0012835485464452,0.0012835493719206,-2.9059876542484e-09,3.8889286525756e-09,-0.0014704400158662,0.0014704469516877,-0.0014704377435725,0.0014704491651234,-0.0014704484623305,0.0014704385670534,-0.0014704461934206,0.0014704407914793,-0.0012146997046022,0.0012146780917651,-0.0012146749466691,0.0012147027621113,0.71361055519576,131329,3014,0.0040921448207263,0.0053329647542687,0.0053329647543454,37.82719175514,6.2617534041123e-05,6.2617534041123e-05,6.2617534041123e-05,3385143.0655428,0.014868830997221
36419200,0.99928864403389,0.015028836586913,0.0043503236719611,0.0053392564574639,0.0053392564574885,-0.00098270519184764,0.00098270682156529,-1.1856695601323e-08,1.3478840529821e-08,-9.9244394233939e-09,1.1999792298641e-08,-0.0011570461729583,0.0011570321467877,-0.0011570377401634,0.0011570406023724,-0.0011570392658575,0.001157039368892,-0.0011570308259503,0.0011570478158199,-0.0010517221795338,0.001051706253657,-0.0010516973641687,0.0010517310386832,9.6580442042299e-09,-1.2459444235101e-08,2.3186886495017e-09,-4.6684860472145e-09,-0.0012829712676557,0.0012829689285667,-0.0014698880540708,0.0014698953177201,-0.0014698902832605,0.0014698929806465,-0.0014698950279451,0.0014698879947668,-0.0014698972595746,0.0014698856621373,-0.0013052851135818,0.0013052822926297,-0.0013052918555496,0.001305275326865,-0.0012141085757983,0.0012141254732197,-0.0012141301635788,0.0012141031984337,1.311348416306e-08,-1.2282803155854e-08,-0.0012829696860118,0.0012829705102456,-2.8854171132525e-09,3.8669334748073e-09,-0.0014698880697272,0.0014698950703218,-0.00146988581011,0.0014698972708398,-0.0014698965679922,0.0014698866339864,-0.001469894314603,0.0014698888427208,-0.0012141277564838,0.0012141059682315,-0.0012141028386793,0.0012141307982651,0.70434020382345,131329,3014,0.0040896199510148,0.0053305650612444,0.0053305650613175,37.496210115451,5.9969680923612e-05,5.9969680923612e-05,5.9969680923612e-05,3378533.6729621,0.014861398503128
36619200,0.99933807519338,0.015029515484988,0.0043505129620581,0.0053395012614524,0.0053395012614771,-0.00098208972622207,0.00098209136200051,-1.1924703459965e-08,1.3552792183414e-08,-1.0070965335657e-08,1.215380371111e-08,-0.00115643823879,0.0011564240696847,-0.0011564297572943,0.0011564325739593,-0.0011564312305196,0.0011564313935209,-0.0011564227446512,0.001156439886433,-0.0010511041061553,0.0010510881510329,-0.0010510791556812,0.0010511130709782,9.8356589035587e-09,-1.2648921244528e-08,2.293889049181e-09,-4.6536692104886e-09,-0.0012823753313595,0.0012823729821435,-0.0014693023362436,0.0014693096974067,-0.0014693045509641,0.0014693073749177,-0.0014693094302854,0.0014693022534592,-0.0014693116501394,0.0014692999326907,-0.0013046905479444,0.0013046875598266,-0.0013046972552478,0.0013046806289127,-0.0012135082535607,0.0012135255180066,-0.0012135302053359,0.0012135028776418,1.3192371430932e-08,-1.2362735613913e-08,-0.001282373745193,0.0012823745683458,-2.8668649586552e-09,3.8470962854669e-09,-0.0014693023688517,0.0014693094327083,-0.0014693001206082,0.0014693116216961,-0.0014693109187078,0.0014693009449135,-0.0014693086793888,0.0014693031393986,-0.0012135277041713,0.0012135057426688,-0.0012135026266005,0.0012135307319412,0.66675281290086,131329,3014,0.0040870664810535,0.005328095013885,0.00532809501396,37.157822491743,5.7262579933947e-05,5.7262579933947e-05,5.7262579933947e-05,3372850.460646,0.014853793402817
36819200,0.9993832654649,0.015030118298508,0.0043506804400816,0.0053397189292007,0.0053397189292253,-0.00098149916901291,0.00098150080984509,-1.1998066761855e-08,1.3631102954367e-08,-1.0186376010587e-08,1.227539601846e-08,-0.0011557910944698,0.0011557768000779,-0.0011557825617186,0.0011557853555941,-0.0011557840068651,0.0011557842037763,-0.0011557754710494,0.0011557927466423,-0.0010504965842309,0.0010504805663601,-0.0010504714870942,0.0010505056329309,9.9317979036719e-09,-1.275178646857e-08,2.2740618149652e-09,-4.6394890621062e-09,-0.0012817859093795,0.0012817835544445,-0.0014686836228601,0.0014686910325428,-0.0014686858257117,0.0014686887220343,-0.0014686907820597,0.0014686835230106,-0.0014686929912687,0.0014686812129545,-0.0013040761897746,0.0013040730983226,-0.0013040828657738,0.001304066198854,-0.0012128791793381,0.0012128966462554,-0.0012129013280842,0.001212873808139,1.3266453835589e-08,-1.2437811516455e-08,-0.001281784320859,0.0012817851429993,-2.8497011363217e-09,3.8287369815369e-09,-0.0014686836496725,0.0014686907733972,-0.0014686814126426,0.0014686929511437,-0.0014686922486431,0.0014686822366826,-0.0014686900217652,0.0014686844186622,-0.0012128988114168,0.0012128766893003,-0.0012128735856379,0.0012129018260353,0.64957834150314,131329,3014,0.0040846126974674,0.0053256530159112,0.0053256530159828,36.81915866675,5.4553269334003e-05,5.4553269334003e-05,5.4553269334003e-05,3370408.6963758,0.014846344007422
37019200,0.99942580790057,0.015030726066081,0.0043508511587062,0.005339937453675,0.0053399374536997,-0.00098188616081059,0.00098188779572173,-1.2077456482671e-08,1.370462290753e-08,-1.0072293213533e-08,1.2154341667235e-08,-0.0011561244260288,0.0011561101540406,-0.0011561158431604,0.0011561187596858,-0.0011561174173101,0.0011561174783838,-0.0011561088297118,0.0011561260730571,-0.001050897649184,0.0010508813949524,-0.0010508723996051,0.0010509066132667,9.8220164772309e-09,-1.2634988130786e-08,2.2714809710655e-09,-4.6308747582071e-09,-0.0012822064416942,0.0012822040929077,-0.0014690786406936,0.0014690859781601,-0.0014690808406827,0.0014690836705649,-0.0014690857255272,0.0014690785435132,-0.0014690879302095,0.0014690762380298,-0.0013044827817316,0.0013044797584131,-0.0013044894441156,0.0013044728721556,-0.0012132533903508,0.0012132706419789,-0.0012132753144531,0.0012132480295778,1.334041634585e-08,-1.2511956740781e-08,-0.0012822048563753,0.0012822056782629,-2.8451901509821e-09,3.8239783973496e-09,-0.0014690786050298,0.0014690857817548,-0.0014690763719663,0.0014690879556291,-0.001469087254186,0.001469077194817,-0.0014690850295859,0.0014690793745597,-0.0012132729880965,0.0012132507200747,-0.0012132476196115,0.0012132759994976,0.68961816032384,131329,3014,0.0040862163603572,0.0053273963751671,0.0053273963752432,37.016266577783,5.6130132622263e-05,5.6130132622263e-05,5.6130132622263e-05,3375935.2452256,0.014851507408199
37219200,0.99946609781811,0.015031342993764,0.0043510260338152,0.005340158479962,0.0053401584799866,-0.00098248541172573,0.0009824870368172,-1.2156905902428e-08,1.3774428808684e-08,-9.8801115903729e-09,1.19505552143e-08,-0.0011567521516427,0.0011567379512877,-0.0011567435181993,0.0011567466075149,-0.0011567452735006,0.0011567451442107,-0.0011567366369893,0.001156753787818,-0.0010515312485009,0.0010515147088799,-0.0010515058551331,0.0010515400707113,9.634893258264e-09,-1.2434881693779e-08,2.2774365644093e-09,-4.6257535684297e-09,-0.0012828626834348,0.0012828603458644,-0.0014697615266086,0.0014697687456318,-0.0014697637260399,0.0014697664385855,-0.0014697684821492,0.0014697614411205,-0.0014697706879382,0.001469759134555,-0.001305156918622,0.0013051540387478,-0.0013051635842087,0.0013051471491294,-0.001213903776909,0.0012139206614696,-0.0012139253230945,0.0012138984284618,1.3416335377693e-08,-1.2587828985289e-08,-0.0012828611037026,0.0012828619256347,-2.8456564852065e-09,3.8245299857636e-09,-0.0014697614072117,0.0014697686334073,-0.0014697591730584,0.0014697708085343,-0.0014697701060562,0.0014697599966137,-0.0014697678819673,0.0014697621759156,-0.0012139232668608,0.0012139008479591,-0.001213897747594,0.0012139262788911,0.73362543614886,131329,3014,0.0040887053642969,0.0053301153791791,0.0053301153792587,37.34308378277,5.8744670262162e-05,5.8744670262162e-05,5.8744670262162e-05,3379499.734377,0.014859552895725
37419200,0.99950420999603,0.01503188429351,0.0043511778114207,0.0053403532410321,0.0053403532410568,-0.00098305920219953,0.00098306081747341,-1.223669448056e-08,1.384449416356e-08,-9.6796498059899e-09,1.1738298703562e-08,-0.0011574275845215,0.0011574134618047,-0.0011574189007439,0.0011574221683789,-0.0011574208430682,0.0011574205171901,-0.0011574121569523,0.0011574292103994,-0.0010521511367523,0.001052134304468,-0.0010521255980057,0.0010521598122296,9.4325448235886e-09,-1.2217737149701e-08,2.2867341444684e-09,-4.622366123799e-09,-0.0012835081946552,0.0012835058699276,-0.0014704792943915,0.001470486388068,-0.001470481495415,0.0014704840794377,-0.0014704861105723,0.0014704792240084,-0.0014704883186639,0.001470476915094,-0.0013058466360892,0.0013058439157725,-0.0013058533086528,0.001305837019306,-0.001214582775098,0.0012145992601444,-0.0012146039113498,0.0012145774395544,1.3491266672652e-08,-1.2664081104015e-08,-0.0012835066219868,0.0012835074426302,-2.8488969529478e-09,3.8264707403867e-09,-0.0014704790890983,0.0014704863622614,-0.001470476852909,0.0014704885395544,-0.001470487837885,0.0014704776754197,-0.0014704856125092,0.0014704798561612,-0.0012146021400994,0.0012145795726279,-0.0012145764717541,0.0012146051526809,0.68665559490177,131329,3014,0.0040910926380693,0.0053327888290827,0.0053327888291544,37.673148036773,6.1385184294188e-05,6.1385184294188e-05,6.1385184294188e-05,3379538.7758722,0.014867405616907
37619200,0.99954021304531,0.015032376796989,0.0043513151983939,0.0053405307992851,0.0053405307993098,-0.00098365345148492,0.00098365505765978,-1.23170663859e-08,1.3915920175544e-08,-9.4887360979785e-09,1.1536461291144e-08,-0.0011580445985563,0.0011580305480772,-0.0011580358651464,0.0011580393043195,-0.0011580379883836,0.0011580374713437,-0.0011580292507245,0.0011580462161518,-0.0010527773552407,0.0010527602319485,-0.0010527516652128,0.0010527858911852,9.234275606624e-09,-1.2000219401296e-08,2.2994605504814e-09,-4.6178875794334e-09,-0.0012841710529883,0.0012841687455991,-0.0014711647576717,0.0014711717337746,-0.0014711669624326,0.001471169421471,-0.0014711714370038,0.0014711647076776,-0.00147117364686,0.0014711623970031,-0.0013065234698002,0.0013065209107473,-0.001306530147729,0.0013065140088796,-0.0012152344113057,0.0012152505000798,-0.0012152551370131,0.0012152290920734,1.356595685286e-08,-1.2738656566198e-08,-0.0012841694889036,0.0012841703097189,-2.8525373443245e-09,3.8302819721914e-09,-0.0014711644696508,0.0014711717912353,-0.0014711622319994,0.0014711739701156,-0.0014711732691238,0.0014711630536634,-0.0014711710403325,0.0014711652379301,-0.0012152536490395,0.0012152309407676,-0.001215227837403,0.0012152566643291,0.664152863199,131329,3014,0.0040935606567754,0.0053355352593775,0.0053355352594513,38.003333895332,6.4026671162654e-05,6.4026671162654e-05,6.4026671162654e-05,3383330.4561728,0.014875485255961
37819200,0.99957325973621,0.015032810314134,0.0043514353612571,0.005340687476426,0.0053406874764507,-0.00098331271089079,0.00098331431510425,-1.2391847774057e-08,1.3988801462629e-08,-9.4489859701411e-09,1.1494353526213e-08,-0.0011576627117491,0.0011576486363271,-0.0011576539279409,0.0011576574429172,-0.0011576561276977,0.0011576555333399,-0.0011576473419132,0.0011576643262107,-0.0010524243915569,0.0010524070980578,-0.0010523985605594,0.0010524328987427,9.1781167442601e-09,-1.1940105676501e-08,2.2992140346626e-09,-4.6143088229131e-09,-0.0012838344416716,0.0012838321376242,-0.0014708101508259,0.0014708170892308,-0.00147081235316,0.0014708147793402,-0.0014708167906787,0.0014708101029417,-0.0014708190003734,0.0014708077923882,-0.0013061643121313,0.0013061617950234,-0.0013061709899904,0.0013061548936943,-0.001214860956247,0.0012148769393664,-0.0012148815715252,0.0012148556423844,1.3642453502587e-08,-1.2815483883117e-08,-0.0012838328794033,0.0012838336999217,-2.8487241659028e-09,3.8260875700922e-09,-0.0014708098178462,0.0014708171917772,-0.0014708075817457,0.0014708193691694,-0.0014708186672488,0.0014708084042348,-0.0014708164423176,0.0014708105847633,-0.001214880219586,0.0012148573546442,-0.0012148542544449,0.0012148832318907,0.6401614177336,131329,3014,0.0040921441715954,0.0053341409064628,0.0053341409065241,37.804132619225,6.2433060953804e-05,6.2433060953804e-05,6.2433060953804e-05,3382643.6159044,0.014871215556608
38019200,0.99960354532283,0.015033225941211,0.0043515514435615,0.0053408372488125,0.0053408372488372,-0.00098290856966929,0.00098291017251185,-1.2469032256565e-08,1.4064697904869e-08,-9.4255198788965e-09,1.1469359529998e-08,-0.001157168417152,0.001157154305458,-0.0011571595824148,0.0011571631630105,-0.0011571618491111,0.0011571611863,-0.0011571530123229,0.0011571700302409,-0.0010520008811677,0.0010519834201556,-0.0010519748997785,0.0010520093700056,9.1650428857561e-09,-1.1926177879184e-08,2.2979095912808e-09,-4.612252110588e-09,-0.0012834169818191,0.0012834146785108,-0.0014703434939289,0.001470350422913,-0.0014703456951995,0.0014703481141212,-0.0014703501247619,0.0014703434456281,-0.0014703523333605,0.0014703411362862,-0.0013057119733393,0.0013057094627296,-0.0013057186476056,0.0013057025645426,-0.0012143866048838,0.001214402562748,-0.0012144071925431,0.0012143812923589,1.3716324018952e-08,-1.2889526673808e-08,-0.0012834154200133,0.0012834162403515,-2.8480343686521e-09,3.8253117450285e-09,-0.0014703431313949,0.0014703505550633,-0.0014703408958368,0.0014703527319609,-0.0014703520301566,0.0014703417181343,-0.00147034980563,0.0014703438981756,-0.0012144059285247,0.0012143829175189,-0.0012143798187399,0.0012144089401213,0.66569814057088,131329,3014,0.0040904620955506,0.0053324122094599,0.0053324122095328,37.559829314157,6.0478634513254e-05,6.0478634513254e-05,6.0478634513254e-05,3383073.7871486,0.014865996146367
38219200,0.99963132480722,0.015033610473741,0.004351658992171,0.0053409757407726,0.0053409757407973,-0.00098248871109302,0.00098249031370927,-1.2544786195658e-08,1.4140160542155e-08,-9.4184211019063e-09,1.1461884980811e-08,-0.0011567034478843,0.0011566892913223,-0.0011566945635771,0.001156698198437,-0.0011566968855601,0.0011566961664259,-0.0011566879974575,0.0011567050616499,-0.0010515720858041,0.0010515544692131,-0.0010515459540553,0.0010515805701892,9.1610791607988e-09,-1.1922100351426e-08,2.2980832915732e-09,-4.6123363233347e-09,-0.0012829894148049,0.0012829871116022,-0.0014698942416029,0.0014699011690398,-0.00146989644384,0.0014698988592991,-0.0014699008707374,0.0014698941936201,-0.001469903078522,0.0014698918850156,-0.001305270328513,0.0013052678182959,-0.0013052770006285,0.0013052609225812,-0.0012139295742374,0.0012139455220457,-0.001213950152528,0.0012139242622006,1.3791263662127e-08,-1.2964366471974e-08,-0.0012829878530043,0.0012829886734314,-2.849162189492e-09,3.8264325180837e-09,-0.0014698938532937,0.0014699013270041,-0.0014698916178466,0.0014699035037727,-0.0014699028028367,0.001469892439341,-0.001469900576719,0.0014698946210191,-0.0012139489644514,0.0012139258106974,-0.0012139227103287,0.0012139519769622,0.67076171940726,131329,3014,0.0040887173483779,0.0053306409560796,0.0053306409561398,37.314287143837,5.8514297150693e-05,5.8514297150693e-05,5.8514297150693e-05,3380916.6291377,0.014860628840618
38419200,0.99965700013783,0.015033991104521,0.0043517665048857,0.0053411122998051,0.0053411122998297,-0.00098229747493968,0.00098229907708394,-1.2619199514764e-08,1.4214072527724e-08,-9.4065897535517e-09,1.1449421832081e-08,-0.0011564839719898,0.0011564697737568,-0.0011564750382915,0.0011564787302723,-0.0011564774178437,0.0011564766406316,-0.0011564684802199,0.0011564855853743,-0.00105138256471,0.0010513647941318,-0.0010513562874689,0.0010513910403827,9.1365100388892e-09,-1.1896069916561e-08,2.3039355545916e-09,-4.6169322736207e-09,-0.0012828000441136,0.0012827977422162,-0.001469693292091,0.0014697002076321,-0.0014696954978509,0.0014696978943553,-0.0014696999046079,0.0014696932490099,-0.001469702115774,0.0014696909369776,-0.0013050767201787,0.0013050742381201,-0.0013050834022451,0.0013050673321553,-0.0012137196807856,0.0012137355764565,-0.0012137402095664,0.0012137143667686,1.3867771888441e-08,-1.3040569552787e-08,-0.0012827984828423,0.0012827993035175,-2.8530002410363e-09,3.8305751244123e-09,-0.0014696928736334,0.0014697003957949,-0.0014696906355805,0.0014697025751749,-0.0014697018741221,0.0014696914571939,-0.0014696996453027,0.001469693641637,-0.0012137391182997,0.0012137158182912,-0.0012137127145531,0.0012137421337313,0.71253732551331,131329,3014,0.0040879224566417,0.0053298565500826,0.0053298565501457,37.196592230979,5.7572737847835e-05,5.7572737847835e-05,5.7572737847835e-05,3379793.9771907,0.014858229247893
38619200,0.99968088411994,0.015034347201175,0.0043518671363379,0.005341240032406,0.0053412400324307,-0.00098228672487762,0.00098228832832892,-1.2690190441246e-08,1.4286214070114e-08,-9.4154578552256e-09,1.1459489628193e-08,-0.0011565221977945,0.0011565079481414,-0.0011565132173329,0.0011565169514761,-0.0011565156385382,0.0011565148203165,-0.0011565066521614,0.0011565238138709,-0.0010513926339257,0.0010513747289074,-0.0010513662142013,0.0010514011182857,9.0740073760963e-09,-1.1829425824139e-08,2.3172089383571e-09,-4.6266731423139e-09,-0.0012828137568804,0.0012828114586249,-0.0014697426484861,0.0014697495334786,-0.0014697448629054,0.0014697472116395,-0.0014697492196065,0.0014697426172106,-0.00146975143731,0.0014697402985183,-0.0013051172683631,0.001305114853536,-0.0013051239704768,0.0013051079272642,-0.0012137544906039,0.0012137702538133,-0.0012137748921294,0.0012137491735344,1.3946880890362e-08,-1.3119416342425e-08,-0.0012828121972811,0.0012828130182484,-2.85678801594e-09,3.8345741618327e-09,-0.0014697421892174,0.0014697497626002,-0.0014697399495474,0.0014697519436318,-0.0014697512434814,0.0014697407706361,-0.0014697490112338,0.0014697429589462,-0.0012137739371965,0.0012137504884145,-0.0012137473801084,0.0012137769545218,0.71625966311242,131329,3014,0.0040878808825612,0.005329912590256,0.0053299125903072,37.193719918452,5.7549759347615e-05,5.7549759347615e-05,5.7549759347615e-05,3376544.411284,0.014858303036038
38819200,0.99970310515941,0.015034679690973,0.0043519611401097,0.0053413592754195,0.0053413592754442,-0.00098227768057951,0.00098227927887623,-1.2777928318502e-08,1.4368990275446e-08,-9.3199278172791e-09,1.1358123778174e-08,-0.0011565656994483,0.0011565514516186,-0.0011565566606298,0.0011565605132946,-0.001156559203824,0.0011565582595695,-0.0011565501622225,0.0011565673083335,-0.0010514018685831,0.0010513837294107,-0.0010513752860905,0.0010514102810139,9.1422814443735e-09,-1.1902952731781e-08,2.3141137120685e-09,-4.6282388349456e-09,-0.0012828298290581,0.0012828275260607,-0.0014697957039775,0.0014698026292719,-0.001469797916288,0.0014698003094207,-0.0014698023202216,0.0014697956668997,-0.001469804539048,0.001469793347161,-0.001305158701409,0.0013051562367057,-0.0013051654062364,0.0013051493078504,-0.0012137933907054,0.0012138092923714,-0.0012138139335355,0.0012137880683696,1.4012640703092e-08,-1.3184229310786e-08,-0.0012828282666108,0.0012828290885357,-2.8737381205377e-09,3.8527485316182e-09,-0.001469795249157,0.00146980285382,-0.0014697929962214,0.0014698050481002,-0.0014698043452194,0.001469793819628,-0.0014698021025343,0.0014697960177483,-0.001213812965539,0.0012137893966585,-0.001213786277745,0.0012138159967533,0.71844599919335,131329,3014,0.0040878464810676,0.0053299783348842,0.0053299783349425,37.19361284665,5.7548902773202e-05,5.7548902773202e-05,5.7548902773202e-05,3373436.6256156,0.014858403766487
38880000,0.99970971010014,0.01503477864696,0.0043519891279997,0.0053413947594676,0.0053413947594922,-0.0009822732421954,0.00098227483842712,-1.280825728512e-08,1.4397260697951e-08,-9.2757207422161e-09,1.131146429106e-08,-0.0011565788107445,0.0011565645705942,-0.001156569751403,0.0011565736528131,-0.0011565723442577,0.0011565713491818,-0.0011565632841146,0.0011565804164958,-0.0010514035146668,0.0010513852885229,-0.0010513768778302,0.0010514118946351,9.1933571021939e-09,-1.1957560411193e-08,2.3098302638473e-09,-4.6270221646544e-09,-0.0012828336926371,0.0012828313865536,-0.001469811436778,0.0014698183912247,-0.0014698136462774,0.0014698160741998,-0.001469818086915,0.0014698113946706,-0.0014698203049132,0.0014698090757742,-0.0013051705252145,0.0013051680196857,-0.0013051772276292,0.0013051610933405,-0.0012138048684572,0.0012138208753505,-0.0012138255175581,0.0012137995444597,1.4029334778394e-08,-1.3200469245373e-08,-0.0012828321284115,0.0012828329508061,-2.8818975039212e-09,3.861441244797e-09,-0.0014698109940831,0.0014698186035958,-0.00146980873452,0.0014698208044717,-0.0014698201001219,0.0014698095593883,-0.0014698178526934,0.0014698117620216,-0.001213824510137,0.0012138009120776,-0.0012137977876593,0.0012138275479251,0.71909630215462,131329,3014,0.0040878290979957,0.0053299940417904,0.0053299940418472,37.193608960978,5.7548871687827e-05,5.7548871687827e-05,5.7548871687827e-05,3372461.1291578,0.014858418683881
