time,ASR_ext,ASR_strain,ASR_strain_xx,ASR_strain_yy,ASR_strain_zz,disp_x_101,disp_x_102,disp_x_103,disp_x_104,disp_x_105,disp_x_106,disp_x_p1_neg,disp_x_p1_pos,disp_x_p2_neg,disp_x_p2_pos,disp_x_p3_neg,disp_x_p3_pos,disp_x_p4_neg,disp_x_p4_pos,disp_x_p5_neg,disp_x_p5_pos,disp_x_p6_neg,disp_x_p6_pos,disp_y_101,disp_y_102,disp_y_103,disp_y_104,disp_y_105,disp_y_106,disp_y_p1_neg,disp_y_p1_pos,disp_y_p2_neg,disp_y_p2_pos,disp_y_p3_neg,disp_y_p3_pos,disp_y_p4_neg,disp_y_p4_pos,disp_y_p5_neg,disp_y_p5_pos,disp_y_p6_neg,disp_y_p6_pos,disp_y_p7_neg,disp_y_p7_pos,disp_y_p8_neg,disp_y_p8_pos,disp_z_101,disp_z_102,disp_z_103,disp_z_104,disp_z_105,disp_z_106,disp_z_p1_neg,disp_z_p1_pos,disp_z_p2_neg,disp_z_p2_pos,disp_z_p3_neg,disp_z_p3_pos,disp_z_p4_neg,disp_z_p4_pos,disp_z_p5_neg,disp_z_p5_pos,disp_z_p6_neg,disp_z_p6_pos,humidity,ndof,nelem,strain_xx,strain_yy,strain_zz,temp,thermal_strain_xx,thermal_strain_yy,thermal_strain_zz,vonmises,vstrain
2419200,0,0,0,0,0,0,0,0,0,0,0,0,0,0,0,0,0,0,0,0,0,0,0,0,0,0,0,0,0,0,0,0,0,0,0,0,0,0,0,0,0,0,0,0,0,0,0,0,0,0,0,0,0,0,0,0,0,0,0,0,0,0,0,0,0,0,0,0,0,0,0,0,0,0,0
2619200,0.01957207765316,0.00040149105724489,0.00013383035241496,0.00013383035241496,0.00013383035241496,-3.352967391944e-05,3.3529658686513e-05,-2.2583846020183e-11,7.5547056758391e-12,2.7273609820971e-11,-4.3628775900624e-11,-3.3305364918664e-05,3.3305363022071e-05,-3.330534924626e-05,3.330536748198e-05,-3.3305384332909e-05,3.3305336363729e-05,-3.3305374967794e-05,3.3305346899819e-05,-3.4639177735163e-05,3.4639109671158e-05,-3.4639146832943e-05,3.4639138135836e-05,-2.8685139686827e-11,5.0532346577565e-11,-1.4387780701881e-09,1.459271380253e-09,-3.4766022975181e-05,3.4766043656898e-05,-3.438312699669e-05,3.4382171626515e-05,-3.4382198940459e-05,3.43831434016e-05,-3.4383101749089e-05,3.438219808859e-05,-3.4382173940533e-05,3.4383169868741e-05,-3.5572258148652e-05,3.5569461162499e-05,-3.5569453337111e-05,3.5572343818994e-05,-3.5317140653784e-05,3.5318044335848e-05,-3.5317063969181e-05,3.531812399313e-05,-3.5942475414769e-10,-3.8885452602586e-10,-3.4766410121299e-05,3.476565650907e-05,1.0396651115309e-09,-1.8374455318223e-09,-3.4382549125834e-05,3.4382771965158e-05,-3.4383503320459e-05,3.4381817949964e-05,-3.4382558911542e-05,3.4382762137013e-05,-3.4383513186673e-05,3.4381808023932e-05,-3.5318457221301e-05,3.5316721907712e-05,-3.5318428367341e-05,3.5316750304779e-05,0.81992967029261,131329,3014,0.00013969715878333,0.00014484792086754,0.00014484792086398,31.550974481417,1.2407795851337e-05,1.2407795851337e-05,1.2407795851337e-05,514902.45767542,0.00042948542650571
2819200,0.041161578685121,0.00083625822649303,0.00027695818680482,0.00027965001984056,0.00027965001984765,-6.8471072910548e-05,6.8472333581404e-05,5.522634455948e-10,6.9749378369075e-10,-2.2183004812481e-09,3.5746348290582e-09,-6.9104472537923e-05,6.9103771823205e-05,-6.9104428361843e-05,6.9103821480271e-05,-6.9102633192272e-05,6.9105703042423e-05,-6.9102582093309e-05,6.9105751606423e-05,-7.0536821888417e-05,7.0539842378726e-05,-7.0536674283409e-05,7.0539988091999e-05,2.1013054848146e-09,-3.7036704311058e-09,1.3902404778907e-10,-1.6415295100782e-09,-7.1650599758079e-05,7.1649086340676e-05,-7.176978619969e-05,7.1770774443739e-05,-7.1770359404574e-05,7.1770174274169e-05,-7.1771630847449e-05,7.1768836513073e-05,-7.1772201202866e-05,7.1768239328627e-05,-7.2958839603295e-05,7.2957158095189e-05,-7.2960557686055e-05,7.2955392406406e-05,-7.236880745229e-05,7.2372367623713e-05,-7.2374453110789e-05,7.2366551170629e-05,5.1166417691503e-10,3.6544343477745e-10,-7.1649403982426e-05,7.1650282117975e-05,-4.2510884795547e-10,1.3296483995162e-09,-7.1770080359547e-05,7.1770418364983e-05,-7.1769496347701e-05,7.1770992433271e-05,-7.1770137655431e-05,7.1770375210824e-05,-7.1769550158236e-05,7.1770951660555e-05,-7.2369892702871e-05,7.2371213750829e-05,-7.2369735588174e-05,7.2371334017714e-05,0.82138490739909,131329,3014,0.00028525817829165,0.00029849629476044,0.00029849629476379,32.739624231327,2.1916993850616e-05,2.1916993850616e-05,2.1916993850616e-05,651325.98196612,0.00088264055559229
3019200,0.062600118712624,0.0012617404543505,0.00041393160338315,0.00042390442547761,0.0004239044254897,-9.9319560952681e-05,9.9321672944313e-05,9.0198269261774e-10,1.1915533402126e-09,-4.3571580478419e-09,6.6584923905104e-09,-0.0001008294589333,0.00010082784044607,-0.00010082937658394,0.00010082794150693,-0.00010082597323883,0.00010083151175507,-0.00010082587029398,0.00010083161146383,-0.00010279021677542,0.00010279566093647,-0.00010278991893633,0.00010279595803323,3.9396920437966e-09,-6.7291359160161e-09,1.2084151751215e-09,-3.8069135519389e-09,-0.0001053855483537,0.00010538293081155,-0.00010615183454239,0.00010615438437649,-0.00010615344434224,0.00010615269624652,-0.00010615522053533,0.00010615082317113,-0.00010615682076018,0.00010614914472201,-0.00010748910472078,0.00010748788577757,-0.00010749394257355,0.00010748290712619,-0.00010619028149881,0.00010619640774076,-0.00010620065443883,0.00010618571040663,9.0389009596552e-10,6.6896624816532e-10,-0.00010538344995546,0.00010538502921537,-1.6487186777559e-09,3.3074052994355e-09,-0.00010615304515438,0.00010615304080995,-0.0001061513992678,0.00010615466884655,-0.00010615314352597,0.00010615297293694,-0.00010615148776166,0.00010615461037925,-0.00010619177980764,0.00010619478550839,-0.00010619152599238,0.00010619496420987,0.82013325057502,131329,3014,0.00041375078396122,0.00043900422353462,0.000439004223546,32.491747748535,1.9933981988282e-05,1.9933981988282e-05,1.9933981988282e-05,871981.21970155,0.0012925950648305
3219200,0.083798336337159,0.0016701303055747,0.00054354483647832,0.00056329273454173,0.00056329273455465,-0.00012835496279598,0.00012835694805641,7.8404323280419e-10,1.183328276093e-09,-4.9345041176173e-09,7.1412448063805e-09,-0.00013110143225681,0.00013109930172374,-0.00013110131647729,0.00013109944444584,-0.0001310976265759,0.0001311033280622,-0.00013109748766034,0.00013110346371277,-0.00013322987902423,0.00013323544230792,-0.000133229476043,0.00013323584407229,4.4218564764142e-09,-7.3844859225235e-09,2.043490431608e-09,-4.7826860795267e-09,-0.00013785329921497,0.00013785054050179,-0.00013964194779147,0.00013964531718507,-0.00013964413215769,0.000139643022421,-0.00013964567822669,0.00013964138477635,-0.00013964785450615,0.00013963909833871,-0.00014066858696144,0.00014066863387185,-0.00014067517675712,0.00014066184388001,-0.00013849304342022,0.00013849953755989,-0.000138504524623,0.00013848767853943,1.1079546051738e-09,7.4970758344059e-10,-0.00013785098656527,0.0001378528531574,-2.3800859923596e-09,4.3614786699271e-09,-0.0001396436904272,0.00013964341119849,-0.00013964144998278,0.00013964562886013,-0.00013964383183426,0.00013964330652228,-0.00013964158366801,0.00013964553290143,-0.00013849433791841,0.00013849809973102,-0.0001384939574167,0.00013849839911029,0.80675914030356,131329,3014,0.0005346748337382,0.00057421736344095,0.00057421736345296,32.203786519509,1.7630292156074e-05,1.7630292156074e-05,1.7630292156074e-05,1049074.9907585,0.001684528825467
3419200,0.10473213865353,0.0020580892729458,0.00066505888569447,0.00069651519361937,0.00069651519363192,-0.00015548298688626,0.00015548469637104,5.8916494784909e-10,1.1051487714048e-09,-5.018275921777e-09,6.9599900663237e-09,-0.00015987357041303,0.00015987116111294,-0.00015987341879348,0.00015987134574363,-0.0001598698130478,0.00015987515441974,-0.00015986963543752,0.00015987532923787,-0.00016160581128573,0.00016161095432032,-0.00016160529319475,0.00016161146978069,4.4097116520911e-09,-7.2952193818023e-09,2.6581626377744e-09,-5.3041192223227e-09,-0.00016881875978731,0.000168816095629,-0.00017209544844541,0.00017209924895038,-0.00017209799129806,0.00017209657326905,-0.0001720991356469,0.00017209535559275,-0.0001721016704134,0.00017209268824955,-0.00017212342139173,0.00017212471270278,-0.00017213110606417,0.0001721167846876,-0.00016893238399,0.00016893848649412,-0.00016894376631504,0.00016892671529578,1.2275089520618e-09,7.5293050425463e-10,-0.00016881643249435,0.00016881842292809,-2.8635499216038e-09,4.9957343523624e-09,-0.00017209750811596,0.0001720970128022,-0.00017209489611731,0.00017209959825796,-0.00017209768929188,0.00017209687040491,-0.00017209507092849,0.00017209946594258,-0.00016893329052648,0.00016893743377121,-0.00016893279598199,0.00016893784681363,0.78589837031089,131329,3014,0.00064764237555262,0.00070315749335868,0.00070315749337115,31.914301007348,1.5314408058784e-05,1.5314408058784e-05,1.5314408058784e-05,1206715.4790545,0.0020560711667525
3619200,0.12592365360757,0.0024378205242113,0.00078284292581752,0.00082748879919124,0.00082748879920255,-0.00018239732847028,0.00018239850954629,2.782426393563e-10,8.9282659101786e-10,-4.3730954650898e-09,5.7650362992601e-09,-0.00018859226134822,0.00018858990071011,-0.00018859207722672,0.00018859011959066,-0.00018858909932986,0.0001885932783354,-0.00018858888965482,0.00018859348585435,-0.00018975248668467,0.00018975640088133,-0.00018975187185762,0.00018975700973283,3.8394527923564e-09,-6.1213889497557e-09,3.0148058519214e-09,-5.0775583886391e-09,-0.00019991688227516,0.00019991480631087,-0.00020507642803376,0.00020508027871244,-0.00020507900555835,0.00020507755995407,-0.00020507954941243,0.00020507697159026,-0.00020508211985594,0.00020507426015936,-0.00020362545689896,0.00020362803740375,-0.00020363326183022,0.00020361997394284,-0.00019914529196703,0.00019915022718505,-0.00019915497476909,0.00019914019625848,1.2458408464761e-09,6.368995840446e-10,-0.00019991489827685,0.00019991679031462,-2.9634925451201e-09,5.0077435271337e-09,-0.00020507856362079,0.000205077973474,-0.00020507591568952,0.00020508059504155,-0.00020507878797248,0.00020507778571697,-0.00020507613503425,0.00020508041670945,-0.00019914571882848,0.00019914966920744,-0.00019914509787037,0.00019915022195764,0.77011575643523,131329,3014,0.00075970786169145,0.00083263413373805,0.00083263413374914,31.993876311547,1.5951010492373e-05,1.5951010492373e-05,1.5951010492373e-05,1393428.2315579,0.0024279228533886
3819200,0.14771828356124,0.0028233704479112,0.00090162633240842,0.0009608720577461,0.00096087205775672,-0.00020998440607804,0.00020998518887963,7.9456214652478e-12,7.6928056887432e-10,-3.8813749923421e-09,4.8534829710592e-09,-0.00021803659228137,0.00021803425112001,-0.00021803635975569,0.00021803451823315,-0.00021803387930501,0.00021803715684374,-0.00021803362135711,0.00021803741354509,-0.00021883338732045,0.00021883629905498,-0.00021883262652076,0.00021883705028267,3.349215562222e-09,-5.0471295043185e-09,3.1000776782742e-09,-4.6007213580319e-09,-0.00023202607595694,0.00023202456670284,-0.00023930197868934,0.00023930575260358,-0.00023930442778322,0.00023930316510812,-0.00023930460253671,0.00023930296868456,-0.00023930704408549,0.00023930038879588,-0.00023625802928061,0.0002362613040264,-0.00023626544946159,0.00023625362790038,-0.00023027452818818,0.00023027862922826,-0.00023028269291304,0.00023027016434161,1.1858964156859e-09,4.9080415613023e-10,-0.00023202447925881,0.00023202616340586,-2.8802798036534e-09,4.7181600642612e-09,-0.00023930411142424,0.00023930346529201,-0.00023930158899209,0.00023930596242607,-0.00023930436334124,0.00023930324620148,-0.00023930183649646,0.00023930575409755,-0.00023027475446765,0.00023027829121718,-0.00023027405390785,0.00023027893237371,0.77140161262376,131329,3014,0.00087456287470213,0.00096630228668213,0.00096630228669218,32.325317292068,1.8602538336541e-05,1.8602538336541e-05,1.8602538336541e-05,1582757.5970825,0.0028111169369822
4019200,0.17010574980172,0.0032156368037351,0.0010215430048652,0.0010970468994298,0.00109704689944,-0.00023782146727013,0.00023782205451925,-1.4398162277643e-10,7.2796519925109e-10,-3.7049323850647e-09,4.4688795137543e-09,-0.00024786148409212,0.00024785909399927,-0.00024786121371421,0.00024785939784295,-0.00024785894298663,0.00024786181057479,-0.00024785864830761,0.0002478621049652,-0.0002484013712803,0.00024840379602449,-0.00024840050084771,0.00024840465415668,3.2582497730597e-09,-4.6054244353621e-09,3.0389399580323e-09,-4.2007999957956e-09,-0.00026476744776245,0.00026476628052552,-0.00027440391534237,0.00027440770331154,-0.00027440621495636,0.00027440527137767,-0.00027440637204172,0.00027440509964918,-0.00027440866428461,0.0002744026753901,-0.00026966240026382,0.00026966573537742,-0.00026966937205544,0.00026965851724311,-0.00026199089036316,0.00026199496963434,-0.00026199854375339,0.00026198704094382,1.134743124575e-09,3.1727996118262e-10,-0.00026476613551271,0.00026476759278003,-2.7632309304124e-09,4.3720749612691e-09,-0.00027440607733524,0.00027440539768609,-0.00027440370913707,0.00027440774115218,-0.00027440636765093,0.00027440513639154,-0.00027440399575506,0.00027440749122735,-0.00026199135902061,0.000261994397727,-0.0002619905424034,0.00026199516197476,0.77299485364771,131329,3014,0.00099044728809364,0.0011025827579517,0.0011025827579615,32.66283117631,2.1302649410483e-05,2.1302649410483e-05,2.1302649410483e-05,1761424.1022012,0.0032007322293371
4219200,0.19306001584991,0.0036148829165922,0.0011425785346729,0.0012361521909548,0.0012361521909645,-0.00026589665809732,0.00026589718148253,-2.3345767286658e-10,7.5449800892727e-10,-3.6507624879767e-09,4.3445341664046e-09,-0.00027810480830093,0.00027810237477367,-0.00027810449835221,0.00027810271647374,-0.00027810231961713,0.00027810502877525,-0.00027810198664831,0.00027810536222988,-0.0002784163181532,0.00027841850708823,-0.00027841533262073,0.00027841947739772,3.2582763687001e-09,-4.4285304535522e-09,2.9093046602866e-09,-3.90055181685e-09,-0.00029816162754645,0.00029816063323384,-0.00031040921486842,0.0003104129765862,-0.00031041137769604,0.00031041069005846,-0.00031041161705041,0.00031041043351149,-0.00031041377252413,0.00031040815462592,-0.00030387801604845,0.00030388115697537,-0.00030388457182544,0.00030387436737286,-0.00029434590564889,0.00029435013039147,-0.00029435339127553,0.00029434238056554,1.0852879442718e-09,1.5084618373793e-10,-0.00029816051090298,0.00029816174988186,-2.6603422066144e-09,4.0471745202656e-09,-0.00031041138663022,0.00031041066945754,-0.00031040916057115,0.00031041287116205,-0.00031041171443057,0.00031041036800458,-0.00031040948514488,0.00031041258149911,-0.0002943466840737,0.00029434925068975,-0.00029434575557306,0.00029435013189335,0.77488673310542,131329,3014,0.0011073116677087,0.0012415603801286,0.0012415603801379,33.000570384705,2.4004563077642e-05,2.4004563077642e-05,2.4004563077642e-05,1930200.6433151,0.0035968969270854
4419200,0.21695011078488,0.0040273392250526,0.0012665422165776,0.0013803985042328,0.0013803985042422,-0.00029510365285319,0.0002951040938116,-3.1075192225679e-10,7.5033258145763e-10,-3.4126773994157e-09,4.0148171953553e-09,-0.00030976729004129,0.00030976493802617,-0.00030976695401329,0.00030976530382746,-0.00030976498268799,0.00030976740079883,-0.00030976462613812,0.00030976775836294,-0.00030978718265049,0.00030978903116115,-0.00030978612596539,0.0003097900696729,3.1177705001433e-09,-4.1502903493022e-09,2.7793742217739e-09,-3.6405763658591e-09,-0.00033321791642919,0.00033321705438063,-0.00034837856424023,0.00034838219112175,-0.00034838060292799,0.00034838003737252,-0.00034838083134374,0.00034837978964349,-0.00034838286388205,0.00034837764227242,-0.0003399392400617,0.000339942268126,-0.00033994542127375,0.00033993586563961,-0.00032833625229434,0.00032834033168057,-0.00032834333332366,0.00032833299809326,1.0669864281794e-09,-2.7340479370064e-11,-0.0003332169653148,0.00033321800549924,-2.5491573478899e-09,3.7322338461856e-09,-0.00034838067521525,0.00034837995369182,-0.00034837859004578,0.00034838201487148,-0.00034838105392511,0.00034837959805389,-0.00034837896697731,0.00034838167000211,-0.00032833720659599,0.00032833927698484,-0.00032833612360933,0.00032834032051619,0.77612068270043,131329,3014,0.0012288750675013,0.0013874337738568,0.0013874337738655,33.59473907759,2.8757912620722e-05,2.8757912620722e-05,2.8757912620722e-05,2096812.9191245,0.0040117837653925
4619200,0.24191312351977,0.0044547779852942,0.0013939148883972,0.0015304315484442,0.0015304315484528,-0.0003252830760296,0.00032528345818473,-4.0310501663903e-10,7.8464213035387e-10,-3.2648518907364e-09,3.7995834080703e-09,-0.00034278657319682,0.00034278424366799,-0.00034278619494847,0.00034278465012284,-0.00034278438292298,0.00034278658227128,-0.00034278398496385,0.00034278698172626,-0.00034232822397292,0.00034232976999767,-0.00034232704190286,0.00034233093099456,2.971035688579e-09,-3.8947529836941e-09,2.6652883903235e-09,-3.4248595204442e-09,-0.00036979680622126,0.00036979604774917,-0.00038819497925693,0.00038819847205984,-0.00038819691479714,0.0003881964298284,-0.00038819712245505,0.00038819620467154,-0.00038819905134313,0.00038819416876268,-0.00037771238509526,0.00037771532421428,-0.00037771824849354,0.00037770925105321,-0.00036382459145663,0.00036382849058078,-0.00036383128310807,0.00036382156150598,1.0439870073694e-09,-1.5658447274596e-10,-0.00036979598406103,0.00036979686991255,-2.4701888672934e-09,3.494422155743e-09,-0.00038819703425393,0.00038819630085948,-0.00038819505486815,0.00038819825660745,-0.00038819744773128,0.00038819590759065,-0.00038819546662726,0.00038819787461623,-0.0003638256380294,0.00036382734761395,-0.00036382445377177,0.00036382849754849,0.77693646760552,131329,3014,0.001354473473113,0.0015396193817809,0.0015396193817874,34.292617262592,3.4340938100738e-05,3.4340938100738e-05,3.4340938100738e-05,2258949.9253618,0.0044435768514299
4819200,0.26791792063602,0.0048962761465317,0.0015244788322797,0.0016858986571211,0.0016858986571309,-0.00035620528989634,0.0003562056659673,-4.6591591177989e-10,8.4168775798734e-10,-3.1981543524034e-09,3.7210730914919e-09,-0.00037697347367867,0.0003769711469842,-0.00037697305484019,0.0003769715925834,-0.00037697132810898,0.00037697343504038,-0.00037697089055108,0.00037697387463179,-0.00037580751059621,0.00037580888472371,-0.0003758062104851,0.00037581016250075,2.927493904467e-09,-3.7811034392944e-09,2.5759564329086e-09,-3.2705779873382e-09,-0.00040761267959131,0.0004076119874352,-0.00042958318533866,0.00042958661426811,-0.00042958504451545,0.00042958465487904,-0.000429585281819,0.00042958439920033,-0.00042958713433337,0.00042958244628649,-0.0004169019434638,0.00041690475990533,-0.00041690757301436,0.00041689893063141,-0.00040054503486163,0.00040054892870912,-0.0004005515764912,0.00040054215958997,1.0486838150911e-09,-2.64939429547e-10,-0.00040761194324895,0.0004076127237826,-2.4060328554802e-09,3.3212279991468e-09,-0.00042958520591953,0.00042958448462788,-0.0004295833054464,0.00042958636168344,-0.00042958565605255,0.00042958405201503,-0.00042958375410428,0.00042958594075286,-0.00040054622645857,0.00040054764279762,-0.00040054493327714,0.00040054890542913,0.77792179582147,131329,3014,0.0014831508607543,0.0016969260126042,0.0016969260126145,34.993032849369,3.9944262794952e-05,3.9944262794952e-05,3.9944262794952e-05,2417137.1467866,0.0048889434532206
5019200,0.29491620558308,0.0053493505439692,0.0016576055975793,0.0018458724731903,0.0018458724731996,-0.0003877235981607,0.00038772399840563,-5.1220944697064e-10,9.1208183830533e-10,-3.167605897123e-09,3.7113371106106e-09,-0.00041220072672722,0.00041219839882296,-0.00041220026837141,0.00041219888271372,-0.00041219859148298,0.00041220067171115,-0.00041219811525644,0.00041220115034987,-0.00041001858338395,0.0004100198535577,-0.00041001716834861,0.00041002124498463,2.9273112460373e-09,-3.7411048301647e-09,2.4990124338214e-09,-3.1573924123822e-09,-0.00044643934808897,0.0004464386931003,-0.00047236876920076,0.00047237216005206,-0.00047237056844719,0.00047237026551047,-0.00047237085463752,0.0004723699583442,-0.00047237264728336,0.00047236807031087,-0.00045720317531278,0.00045720585454256,-0.00045720862272307,0.00045720021578456,-0.00043825571193561,0.00043825966769193,-0.00043826221594575,0.00043825294118732,1.0736275516947e-09,-3.5630270691747e-10,-0.00044643866421086,0.00044643937698248,-2.3478143387291e-09,3.19222816329e-09,-0.00047237075611787,0.00047237006852104,-0.00047236891807282,0.00047237188368837,-0.00047237124402456,0.00047236959604557,-0.00047236940445689,0.00047237142281932,-0.00043825705570346,0.00043825822949464,-0.00043825565046029,0.00043825960777408,0.77677326226131,131329,3014,0.0016142967530605,0.0018584102281733,0.0018584102281817,35.693542954067,4.5548343632539e-05,4.5548343632539e-05,4.5548343632539e-05,2568975.5664854,0.0053453910434238
5219200,0.32221236545755,0.0058039966842611,0.001790580335013,0.0020067081746195,0.0020067081746285,-0.00041853115736996,0.00041853167509698,-5.4733926949926e-10,1.0637384307123e-09,-3.4641729272185e-09,4.1307861773766e-09,-0.00044702201931016,0.00044701950985432,-0.00044702150016953,0.00044702005408539,-0.00044701964822143,0.00044702201779269,-0.00044701910859075,0.00044702256045271,-0.00044362738529472,0.00044362882242687,-0.00044362578261159,0.00044363040164936,3.1839106797889e-09,-4.0215665976381e-09,2.4630632744524e-09,-3.1444214063902e-09,-0.00048468991461065,0.00048468923693652,-0.00051486183813501,0.00051486536999323,-0.00051486362450413,0.00051486349123518,-0.00051486410104247,0.00051486298704995,-0.00051486587769106,0.00051486111801012,-0.00049704582038639,0.00049704824548174,-0.00049705121778304,0.00049704266208029,-0.00047545415334087,0.00047545862540813,-0.00047546117759064,0.00047545137265377,1.0904296633282e-09,-3.8584511115259e-10,-0.00048468922619194,0.00048468992535956,-2.3772212213764e-09,3.2074821751213e-09,-0.00051486390091087,0.00051486320199147,-0.00051486205002664,0.00051486503066699,-0.00051486440605986,0.00051486271243432,-0.00051486255006917,0.00051486455546181,-0.00047545577277137,0.00047545690809473,-0.00047545432680941,0.00047545832676934,0.77855552768573,131329,3014,0.0017424752319712,0.0020174709322707,0.0020174709322796,36.022968967753,4.8183751742024e-05,4.8183751742024e-05,4.8183751742024e-05,2714507.4785179,0.0057941885776121
5419200,0.34960294357304,0.0062504954195324,0.0019206857023242,0.0021649048585998,0.0021649048586085,-0.0004485120743995,0.00044851269756399,-5.4668237856683e-10,1.1673673735957e-09,-3.6216713800724e-09,4.4007183600161e-09,-0.00048135712021833,0.00048135453672005,-0.00048135656545072,0.0004813551162129,-0.0004813546066466,0.00048135718643043,-0.00048135403220987,0.0004813577641701,-0.00047622795588477,0.00047622953638018,-0.0004762262523437,0.00047623121726293,3.4128889216247e-09,-4.2746470808722e-09,2.4584261718585e-09,-3.1627953818629e-09,-0.00052218658035488,0.00052218587981489,-0.00055692248963551,0.00055692615884061,-0.00055692427886907,0.00055692427669421,-0.00055692490468769,0.00055692361491176,-0.00055692668536645,0.00055692174313361,-0.00053599618811739,0.00053599844165749,-0.0005360015988749,0.00053599284636965,-0.00051182943693867,0.00051183435319789,-0.00051183692877086,0.00051182662135776,1.1558696584607e-09,-4.5065815799674e-10,-0.00052218588047193,0.00052218657970028,-2.3723729496275e-09,3.2030360448887e-09,-0.00055692459685213,0.00055692394214162,-0.00055692274811548,0.00055692576866841,-0.00055692514445131,0.00055692341021532,-0.00055692329084553,0.00055692525081413,-0.00051183134119728,0.0005118323459334,-0.00051182976733441,0.00051183389053543,0.76958003745806,131329,3014,0.0018672057688025,0.0021733699685377,0.0021733699685427,36.275815325701,5.0206522605609e-05,5.0206522605609e-05,5.0206522605609e-05,2837612.7028791,0.0062333559670506
5619200,0.37700951240551,0.0066729387093543,0.0020431386803859,0.0023149000144804,0.002314900014488,-0.00047665512876562,0.00047665581320962,-5.7405171152602e-10,1.2551060932527e-09,-3.7134438333252e-09,4.5591487378121e-09,-0.00051419389807325,0.00051419125350107,-0.00051419330469968,0.00051419187131811,-0.00051419130135074,0.00051419398495918,-0.00051419068864296,0.00051419460132974,-0.00050626772600676,0.00050626933742752,-0.00050626590946499,0.00050627113044893,3.5277298627306e-09,-4.4154864580281e-09,2.4388822058652e-09,-3.1682134266968e-09,-0.00055792611286229,0.00055792538752853,-0.00059768277642077,0.00059768649930167,-0.00059768456076561,0.00059768462228832,-0.00059768527139501,0.0005976838693835,-0.00059768704722563,0.00059768200241183,-0.00057258110343419,0.0005725832341954,-0.00057258650084582,0.00057257765236592,-0.00054592889882845,0.00054593404648188,-0.00054593663690356,0.00054592605672238,1.2202347896942e-09,-5.0457483752624e-10,-0.00055792539552374,0.00055792610487015,-2.3590233771904e-09,3.1997299559315e-09,-0.00059768488111702,0.00059768428110672,-0.00059768303874018,0.0005976861024997,-0.00059768546872228,0.0005976837111867,-0.00059768362048872,0.00059768554529471,-0.00054593097114189,0.00054593186457958,-0.00054592928162074,0.00054593352561666,0.73637049067142,131329,3014,0.0019842845940131,0.0023219384007714,0.0023219384007777,36.52672597863,5.2213807829042e-05,5.2213807829042e-05,5.2213807829042e-05,2941776.2969343,0.006650253215639
5819200,0.40435249208552,0.0070754038732799,0.002159352723863,0.0024580255747048,0.0024580255747121,-0.00050324639496454,0.0005032471022424,-6.2088298733328e-10,1.3243516781859e-09,-3.7439815523453e-09,4.6157345716684e-09,-0.00054547172739194,0.00054546903742217,-0.00054547109510375,0.00054546969388446,-0.00054546910169128,0.00054547179709468,-0.00054546845023941,0.00054547245219128,-0.0005343680818433,0.00053436963109993,-0.00053436615149141,0.00053437153753836,3.5584652439747e-09,-4.4747714995486e-09,2.4098271342799e-09,-3.1673165846439e-09,-0.00059230953639619,0.00059230878292389,-0.00063732064105486,0.00063732435502617,-0.00063732241506581,0.00063732248812094,-0.00063732316348801,0.00063732169434459,-0.00063732492898714,0.00063731983729655,-0.00060740551781869,0.00060740756166415,-0.00060741088624996,0.00060740200901473,-0.00057816015613024,0.00057816537402608,-0.00057816797961587,0.00057815729209361,1.2846454282875e-09,-5.5723447195762e-10,-0.00059230879921055,0.00059230952011251,-2.338462300979e-09,3.1903026871487e-09,-0.00063732270965741,0.00063732217032493,-0.00063732087778427,0.00063732398193393,-0.00063732333692645,0.0006373215621681,-0.00063732149872053,0.00063732338582975,-0.0005781623186846,0.00057816309881707,-0.00057816051382457,0.00057816487420211,0.71317584271358,131329,3014,0.0020949054560039,0.0024648449805602,0.0024648449805662,36.777563962835,5.4220511702681e-05,5.4220511702681e-05,5.4220511702681e-05,3063930.5239566,0.007049416590563
6019200,0.43114843078491,0.0074591707301031,0.0022696023961212,0.0025947841669875,0.0025947841669944,-0.00052797243589603,0.00052797315614549,-6.6876269017064e-10,1.3849836618469e-09,-3.8452264247075e-09,4.7328123036858e-09,-0.00057489829832856,0.00057489551208883,-0.00057489762988746,0.00057489620433377,-0.0005748956007839,0.00057489834376607,-0.00057489491261318,0.00057489903529025,-0.00056042711841128,0.00056042864587361,-0.00056042508036536,0.00056043065899321,3.6564962632134e-09,-4.6060859193509e-09,2.3917773859033e-09,-3.1814929299627e-09,-0.00062488924871861,0.00062488846289706,-0.00067511623111257,0.00067511998721875,-0.00067511800346387,0.00067511812142641,-0.00067511882844555,0.00067511724939107,-0.00067512059158698,0.00067511539395162,-0.00064015211746192,0.00064015404816834,-0.0006401574815582,0.00064014850033669,-0.00060855606895677,0.00060856148001897,-0.00060856411449174,0.00060855317090188,1.3529999480744e-09,-6.1351908173672e-10,-0.00062488848944014,0.00062488922217819,-2.3264285433814e-09,3.1896076055741e-09,-0.0006751182906713,0.0006751178094445,-0.00067511646374667,0.000675119616592,-0.00067511896034015,0.00067511716016797,-0.00067511712605952,0.00067511897953824,-0.00060855838369305,0.00060855905013043,-0.00060855645754639,0.0006085609466769,0.7026152361119,131329,3014,0.0021977676477457,0.0026002316719628,0.0026002316719682,36.775493878484,5.4203951027868e-05,5.4203951027868e-05,5.4203951027868e-05,3166413.3178958,0.0074257722766536
6219200,0.45732820587206,0.0078347326757975,0.0023771688589944,0.002728781908398,0.0027287819084051,-0.00055192841104505,0.00055192913194722,-7.2690636918586e-10,1.4438062238874e-09,-3.8931558747016e-09,4.7831446380969e-09,-0.00060370166880022,0.00060369881129319,-0.00060370096107205,0.00060369954219753,-0.00060369893968539,0.00060370167508564,-0.00060369821276733,0.00060370240512036,-0.00058593790192671,0.00058593934841485,-0.00058593574900862,0.00058594147538124,3.6901629878302e-09,-4.6712154571459e-09,2.3644752579846e-09,-3.1850933587829e-09,-0.00065695598513545,0.00065695516831478,-0.00071247472326561,0.00071247847283904,-0.00071247648633159,0.00071247661499208,-0.00071247735302978,0.00071247570170795,-0.00071247910699225,0.00071247385399696,-0.00067254024000824,0.00067254208425624,-0.00067254558083504,0.00067253655884598,-0.00063856828983578,0.00063857377491684,-0.00063857643070019,0.00063856536643839,1.4171112696352e-09,-6.6549054998522e-10,-0.00065695520437971,0.00065695594907369,-2.3091023142887e-09,3.1838398493046e-09,-0.00071247674944773,0.00071247632686609,-0.00071247493087943,0.00071247812616177,-0.00071247745828526,0.00071247563913698,-0.00071247563218511,0.00071247745015565,-0.00063857069536467,0.0006385712520372,-0.00063856865550502,0.0006385732628049,0.70745492162704,131329,3014,0.00229742460237,0.0027334668249245,0.002733466824931,36.758762015878,5.4070096127026e-05,5.4070096127026e-05,5.4070096127026e-05,3220256.5475113,0.0077947051611059
6419200,0.48285289842773,0.0081976734717587,0.0024802417589589,0.0028587158563964,0.0028587158564034,-0.00057479367042905,0.00057479437639038,-7.9271827714784e-10,1.4949319460611e-09,-3.9147569669795e-09,4.790246257912e-09,-0.00063158109777263,0.00063157817675851,-0.00063158035063341,0.00063157894635244,-0.00063157835975526,0.00063158104975541,-0.00063157759396908,0.00063158181849429,-0.00061028369620291,0.00061028502336008,-0.00061028142887344,0.00061028726437313,3.6909543806228e-09,-4.6991235050081e-09,2.3397624327617e-09,-3.1872844554056e-09,-0.00068818810739752,0.00068818726355337,-0.00074914568599269,0.0007491494116011,-0.00074914744163482,0.00074914756139147,-0.00074914832661043,0.00074914663080592,-0.00074915007341994,0.00074914479051906,-0.00070406759523801,0.00070406938126776,-0.00070407291429328,0.00070406387785987,-0.00066763498912036,0.00066764048272782,-0.00066764315801486,0.00066763204561694,1.4732932668138e-09,-7.2538203666494e-10,-0.00068818731503665,0.00068818805591716,-2.2999805779662e-09,3.1707510635403e-09,-0.00074914767951014,0.00074914729888693,-0.00074914586834485,0.00074914909101767,-0.00074914842704592,0.00074914657245159,-0.00074914660860499,0.00074914837607653,-0.00066763746136904,0.00066763789292361,-0.00066763530725959,0.00066764001762004,0.7021089312076,131329,3014,0.0023925443484289,0.0028632146221111,0.002863214622117,36.741601465048,5.3932811720385e-05,5.3932811720385e-05,5.3932811720385e-05,3265682.06486,0.0081521694084206
6619200,0.50809859087572,0.0085796394780339,0.0025887796754838,0.0029954299012716,0.0029954299012785,-0.00059897860342497,0.00059897929304453,-8.5916088128365e-10,1.545270453666e-09,-3.7684132544442e-09,4.6266152596091e-09,-0.00066061499213216,0.00066061211932838,-0.00066061420576468,0.00066061292766674,-0.00066061235746848,0.00066061488882946,-0.00066061155272715,0.00066061569632688,-0.00063684940620497,0.00063685049964164,-0.00063684702459653,0.0006368528545138,3.5307523279009e-09,-4.5500511870136e-09,2.3194477107523e-09,-3.1790881383305e-09,-0.00072103919330006,0.00072103833745069,-0.00078725873945296,0.00078726234127286,-0.00078726048644635,0.00078726050050903,-0.00078726127780735,0.0007872596638792,-0.00078726301612436,0.00078725783288681,-0.00073812166372395,0.00073812351309983,-0.0007381269549915,0.00073811803756211,-0.00069867236838359,0.00069867755549575,-0.00069868023355646,0.00069866942291812,1.5292199917319e-09,-7.8574505241036e-10,-0.0007210383971853,0.00072103913356798,-2.2882712401491e-09,3.1543419007702e-09,-0.00078726064970821,0.00078726031267561,-0.00078725884788186,0.00078726209575372,-0.00078726143586698,0.00078725954742416,-0.00078725962705231,0.00078726134197625,-0.00069867475156021,0.00069867505523182,-0.00069867248301666,0.00069867729367548,0.74070666466789,131329,3014,0.0024931475649376,0.0029996692116254,0.0029996692116305,37.008990949577,5.6071927596619e-05,5.6071927596619e-05,5.6071927596619e-05,3283779.6362281,0.0085288219889551
6819200,0.53416217627795,0.0090070314240298,0.0027101939469857,0.0031484187385187,0.0031484187385255,-0.0006271049114785,0.00062710556626819,-9.4313834721207e-10,1.5949122006741e-09,-3.3005257013819e-09,4.1195436850623e-09,-0.00069314445105014,0.00069314182302744,-0.00069314361889007,0.00069314267649568,-0.00069314213840091,0.00069314426831946,-0.00069314129008778,0.00069314511912982,-0.00066869221738727,0.00066869282370327,-0.00066868970783128,0.00066869530621474,3.0558591890946e-09,-4.0476585763714e-09,2.2996936443091e-09,-3.1360370382793e-09,-0.0007583996301513,0.00075839879792176,-0.0008294884422277,0.00082949172082875,-0.00082949016856825,0.00082948990183962,-0.00082949065577277,0.00082948937106031,-0.00082949237552218,0.00082948755972531,-0.00077792247970939,0.00077792461993781,-0.00077792771258434,0.00077791920321809,-0.00073465999705907,0.00073466427172586,-0.00073466690667169,0.00073465710004879,1.5767138215339e-09,-8.3792103923448e-10,-0.00075839884822763,0.00075839957984629,-2.2690237043392e-09,3.1299851544109e-09,-0.00082949017071938,0.00082948987588912,-0.00082948838247544,0.00082949164588678,-0.0008294909888838,0.0008294890781629,-0.00082948919585215,0.00082949085763205,-0.00073466198536115,0.00073466216914371,-0.00073465961584956,0.000734664507897,0.7922145084519,131329,3014,0.002610132161625,0.0031548310157168,0.0031548310157185,38.074144431118,6.4593155448943e-05,6.4593155448943e-05,6.4593155448943e-05,3359283.7267321,0.008959896132125
7019200,0.56094441681345,0.0094114010024699,0.0028224746181994,0.0032944631921317,0.0032944631921389,-0.00065399206599389,0.00065399268913332,-1.0140574801812e-09,1.6346091720471e-09,-2.882480051713e-09,3.664961222421e-09,-0.00072507314980995,0.00072507074403543,-0.00072507228030064,0.00072507163402155,-0.00072507112596265,0.00072507289765997,-0.00072507023988437,0.00072507378604581,-0.0006982293540688,0.00069822952839275,-0.00069822673422866,0.00069823212072346,2.6464407728521e-09,-3.5870111654862e-09,2.299710694983e-09,-3.0895482051436e-09,-0.00079511560988746,0.00079511482455998,-0.00087170568236682,0.00087170870318781,-0.00087170739391354,0.00087170689935003,-0.00087170760862903,0.0008717066436343,-0.00087170931333018,0.00087170484835168,-0.00081592003406717,0.0008159224640439,-0.0008159252203493,0.00081591709459209,-0.00076928810699409,0.00076929158923254,-0.00076929416417613,0.00076928527792422,1.6357508904919e-09,-9.015879582244e-10,-0.00079511485380361,0.00079511558064552,-2.2458870587655e-09,3.1016951580038e-09,-0.00087170725640414,0.00087170701459593,-0.00087170548554221,0.00087170876775505,-0.00087170811495923,0.00087170617566584,-0.00087170633882961,0.0008717079389724,-0.00076928977141465,0.00076928981431861,-0.00076928728304309,0.00076929227236061,0.7333580721039,131329,3014,0.0027219652081563,0.0033072891878849,0.0033072891878883,39.158344263529,7.3266754108232e-05,7.3266754108232e-05,7.3266754108232e-05,3379789.8648722,0.0093804991319679
7219200,0.58829177313219,0.0098073253046088,0.0029312703973805,0.0034380274536105,0.0034380274536178,-0.00068035667396434,0.00068035726457159,-1.0883891501939e-09,1.6768145549664e-09,-2.5235924328364e-09,3.2683125570007e-09,-0.00075656691662928,0.00075656469116595,-0.00075656600795778,0.00075656561981491,-0.0007565651418225,0.00075656659252994,-0.00075656421684346,0.00075656751963727,-0.00072680060247471,0.00072680037902855,-0.00072679786846817,0.00072680308519116,2.3034827872385e-09,-3.1747104119967e-09,2.3102856058459e-09,-3.0357381032776e-09,-0.00083158671126137,0.00083158599070809,-0.00091396293033887,0.00091396575084811,-0.00091396462814315,0.0009139639614197,-0.00091396460823531,0.00091396394354293,-0.00091396629920381,0.00091396216263923,-0.00085321198702385,0.0008532146905561,-0.0008532171308548,0.00085320936366447,-0.0008032007723556,0.00080320359301575,-0.00080320609012764,0.00080319802821164,1.6903924398184e-09,-9.6371100964312e-10,-0.00083158599131642,0.00083158671065601,-2.2280455933542e-09,3.0758876116713e-09,-0.00091396438256094,0.00091396418656398,-0.00091396262640603,0.00091396592553776,-0.00091396527943298,0.00091396330826409,-0.00091396351811265,0.00091396505744564,-0.00080320217560872,0.00080320208235221,-0.00080319957349304,0.00080320465509153,0.70718848344936,131329,3014,0.002831622403306,0.0034587045752873,0.0034587045752935,40.243252644928,8.194602115942e-05,8.194602115942e-05,8.194602115942e-05,3420257.1429995,0.0097969754342901
7419200,0.61520745024787,0.010182003500935,0.0030333729522087,0.0035743152743602,0.0035743152743665,-0.00070429873912051,0.00070429931165146,-1.1519016437249e-09,1.722596335335e-09,-2.5078639521542e-09,3.2319094741487e-09,-0.0007855415976026,0.00078553933492855,-0.00078554065274147,0.00078554029947683,-0.00078553983832984,0.00078554121834634,-0.00078553887631439,0.00078554218245731,-0.00075248508902021,0.00075248472223828,-0.00075248224660154,0.00075248753714496,2.3060562204765e-09,-3.1228682595624e-09,2.3331454235392e-09,-3.0062137726242e-09,-0.00086544649035705,0.00086544582222134,-0.00095368993167993,0.00095369278752379,-0.00095369162817379,0.00095369099989344,-0.00095369159686656,0.00095369099601551,-0.00095369328552079,0.00095368921798023,-0.00088744720346106,0.00088744996754686,-0.00088745233970753,0.00088744464944713,-0.0008341920387274,0.00083419486522198,-0.00083419730852117,0.00083418935347703,1.7491692314336e-09,-1.0291759423226e-09,-0.00086544579991559,0.00086544651266531,-2.2236208646001e-09,3.064328622467e-09,-0.00095369138234109,0.00095369122701306,-0.00095368963206017,0.00095369296033359,-0.00095369232050933,0.00095369030628861,-0.00095369056412313,0.00095369205095088,-0.00083419351212136,0.00083419328679532,-0.00083419079059345,0.00083419598029217,0.68501444010388,131329,3014,0.0029312057097863,0.0035992545496912,0.0035992545496964,40.771066269009,8.616853015207e-05,8.616853015207e-05,8.616853015207e-05,3470199.6559224,0.010181495129714
7619200,0.64095043586246,0.010531221505115,0.0031281677730781,0.0037015268660156,0.0037015268660215,-0.00072571611363681,0.00072571668316375,-1.2077183949438e-09,1.7753095086308e-09,-2.7476469282136e-09,3.468511528589e-09,-0.00081209382662711,0.00081209136659368,-0.00081209284680437,0.00081209236597504,-0.00081209190752458,0.00081209340805168,-0.0008120909081056,0.00081209440946054,-0.00077536951973235,0.00077536919948225,-0.00077536656779772,0.00077537212408175,2.5566110845932e-09,-3.3510895524262e-09,2.3537890235936e-09,-3.0041842717622e-09,-0.00089636660029824,0.00089636595483547,-0.00099033430554776,0.00099033735233465,-0.0009903360102152,0.00099033555709817,-0.00099033613364528,0.0009903353997543,-0.00099033782768842,0.00099033361662674,-0.00091842948485399,0.00091843212601817,-0.00091843463524089,0.00091842679335761,-0.00086222226475026,0.00086222557458146,-0.00086222800206542,0.00086221959779011,1.8091767024524e-09,-1.0942229854448e-09,-0.00089636592365487,0.00089636663148163,-2.2309358586615e-09,3.0664835788551e-09,-0.00099033583465817,0.00099033571442608,-0.00099033408263891,0.00099033744967586,-0.00099033681589771,0.00099033475058202,-0.0009903350551516,0.00099033649984988,-0.00086222404064413,0.00086222369469439,-0.00086222120047133,0.00086222650713582,0.67223241200184,131329,3014,0.0030202893996498,0.0037275828147797,0.0037275828147854,40.851777621506,8.6814220972048e-05,8.6814220972048e-05,8.6814220972048e-05,3510993.3164109,0.010530850668441
7819200,0.6654863449283,0.010859746208526,0.0032172246305531,0.0038212607889834,0.0038212607889893,-0.00074565998941015,0.00074566056388908,-1.2664237152425e-09,1.8388140516988e-09,-3.0075940593601e-09,3.7343207976806e-09,-0.00083732682076386,0.00083732414833702,-0.00083732579934803,0.00083732518933626,-0.00083732472385073,0.00083732636662525,-0.00083732368521896,0.00083732740731841,-0.00079666545539998,0.00079666520016642,-0.00079666238832567,0.00079666824059138,2.8179026349423e-09,-3.61332372197e-09,2.362323691829e-09,-3.0123395429218e-09,-0.00092566165609452,0.00092566101084832,-0.0010254176268237,0.0010254208541694,-0.0010254193373414,0.0010254190540642,-0.0010254196293905,0.0010254187277272,-0.0010254213311263,0.001025416937694,-0.00094771961795533,0.0009477221041846,-0.0009477247878825,0.00094771675200329,-0.00088866111952884,0.0008886649414048,-0.00088866737440619,0.000888658447432,1.862964336983e-09,-1.1516941187999e-09,-0.00092566098132639,0.00092566168561889,-2.2434668477895e-09,3.0753105492413e-09,-0.0010254192334133,0.0010254191394074,-0.0010254174733671,0.0010254208826528,-0.001025420251285,0.0010254181391494,-0.0010254184845085,0.0010254198945304,-0.00088866320596545,0.00088866275123662,-0.00088866025324583,0.00088866567560538,0.66655083713026,131329,3014,0.0031032440469456,0.0038491516226594,0.0038491516226644,40.921648754389,8.7373190035113e-05,8.7373190035113e-05,8.7373190035113e-05,3526088.2625724,0.010860467711825
8019200,0.68880762554394,0.011168750658628,0.0033006129871833,0.0039340688357195,0.0039340688357256,-0.00076427831132274,0.00076427889523823,-1.3199814938244e-09,1.9015570607077e-09,-3.2550661986679e-09,3.9928143189398e-09,-0.00086117433891795,0.00086117146832133,-0.00086117327909282,0.00086117254800704,-0.00086117207291671,0.00086117385539978,-0.00086117099536238,0.00086117493534698,-0.00081657609260198,0.00081657590094289,-0.00081657291174399,0.00081657905642995,3.0624417688692e-09,-3.8750686973995e-09,2.3652605284779e-09,-3.0305389881538e-09,-0.00095336534779211,0.00095336468692696,-0.0010587768145716,0.001058780202885,-0.0010587785332067,0.0010587783954575,-0.0010587789858971,0.0010587779072009,-0.0010587806953667,0.0010587761102813,-0.00097536934238171,0.00097537166433279,-0.00097537453273194,0.00097536629240458,-0.00091365398466921,0.00091365828068499,-0.00091366073651808,0.00091365128933793,1.9199942204945e-09,-1.2118866469889e-09,-0.00095336466663621,0.00095336536808496,-2.2555012083393e-09,3.0842237309351e-09,-0.0010587784868684,0.0010587784225165,-0.001058776719811,0.0010587801725445,-0.0010587795442047,0.0010587773830859,-0.0010587777700823,0.0010587791457348,-0.00091365636343974,0.00091365579809391,-0.00091365329570985,0.00091365883644786,0.66097249358716,131329,3014,0.0031806856905608,0.0039641028861408,0.0039641028861451,40.991114620689,8.7928916965508e-05,8.7928916965508e-05,8.7928916965508e-05,3534439.853733,0.011171236145803
8219200,0.71105819419332,0.011460805112228,0.0033790479730022,0.0040408785696095,0.0040408785696161,-0.000782002529559,0.00078200312217159,-1.3721464751612e-09,1.9621587988956e-09,-3.416924131725e-09,4.1647729438983e-09,-0.00088396481796351,0.00088396180768305,-0.00088396372129268,0.00088396292432118,-0.0008839624412068,0.00088396430558677,-0.00088396132535055,0.00088396542403316,-0.00083554121414536,0.00083554102981245,-0.00083553792119583,0.00083554429793392,3.2184641624539e-09,-4.0542868081445e-09,2.3656138834349e-09,-3.0523839957584e-09,-0.00097987690439608,0.00097987622189396,-0.0010907436687545,0.0010907471556039,-0.0010907453962212,0.0010907453399938,-0.0010907459520522,0.0010907447472611,-0.0010907476689308,0.0010907429436471,-0.0010017694063425,0.0010017716141523,-0.0010017746161281,0.0010017662228665,-0.00093758040306552,0.0009375849969165,-0.00093758748190394,0.00093757767762647,1.9793815755163e-09,-1.273192615369e-09,-0.00097987621334217,0.00097987691295037,-2.2656945290433e-09,3.0925091220279e-09,-0.001090745373727,0.0010907453424553,-0.0010907436009804,0.0010907470979643,-0.0010907464721422,0.0010907442622673,-0.0010907446909595,0.0010907460319372,-0.00093758298649628,0.00093758230936185,-0.00093757980199732,0.00093758546328512,0.65549139759059,131329,3014,0.0032544081910451,0.0040740949023578,0.0040740949023629,41.181554995508,8.9452439964066e-05,8.9452439964066e-05,8.9452439964066e-05,3541797.4255633,0.01146830712278
8419200,0.73228922347321,0.011738808083571,0.0034534950948745,0.0041426564943453,0.0041426564943512,-0.0007988817132016,0.00079888231163182,-1.4283383318032e-09,2.0238984052342e-09,-3.5134243613563e-09,4.2681037959764e-09,-0.00090568197398257,0.00090567886351106,-0.000905680838035,0.00090568001953044,-0.00090567953051374,0.00090568142832574,-0.00090567837572572,0.00090568258586301,-0.0008536606710573,0.00085366044443796,-0.00085365726398247,0.00085366382732006,3.3065640910896e-09,-4.1657729958382e-09,2.3641335087917e-09,-3.0729706513586e-09,-0.0010052317760491,0.001005231071251,-0.001121313284633,0.0011213168222906,-0.0011213150189886,0.0011213150003375,-0.0011213156338794,0.0011213143474708,-0.0011213173579111,0.0011213125372403,-0.0010270338319136,0.001027035970102,-0.0010270390610633,0.0010270305598128,-0.00096051219071833,0.0009605169522162,-0.00096051946605935,0.00096050943562584,2.036549317581e-09,-1.3314932731474e-09,-0.0010052310743536,0.0010052317729483,-2.2762485835506e-09,3.1019036627959e-09,-0.0011213149994562,0.0011213149991552,-0.0011213132197552,0.0011213167613936,-0.0011213161365669,0.0011213138806959,-0.0011213143487813,0.0011213156569095,-0.00096051491195457,0.00096051412686391,-0.00096051161312102,0.00096051739372227,0.65380935250262,131329,3014,0.0033246151858624,0.00417927665273,0.0041792766527337,41.430889912443,9.1447119299546e-05,9.1447119299546e-05,9.1447119299546e-05,3548719.8405015,0.011752175824909
8619200,0.75248493224948,0.012002921387181,0.0035240556060836,0.0042394328905456,0.0042394328905515,-0.00081484633612793,0.00081484693892536,-1.4849040300541e-09,2.0846923128455e-09,-3.576530630856e-09,4.3365290853661e-09,-0.0009262167821313,0.00092621359291729,-0.00092621560703225,0.00092621478818129,-0.00092621429487316,0.00092621620181708,-0.00092621310119976,0.00092621739837883,-0.00087086316158819,0.00087086286877215,-0.00087085964054739,0.00087086636605738,3.3611692865781e-09,-4.2425797354083e-09,2.3627210601037e-09,-3.0927278884953e-09,-0.0010293039427377,0.0010293032165789,-0.0011503307083528,0.0011503342746295,-0.0011503324491485,0.0011503324466464,-0.0011503331008012,0.0011503317560895,-0.0011503348315813,0.0011503299395461,-0.0010510436211078,0.0010510457126626,-0.001051048868922,0.0010510402841281,-0.00098230872888602,0.00098231359221583,-0.00098231613344711,0.00098230594530413,2.0943018733095e-09,-1.3897679922183e-09,-0.001029303230586,0.0010293039287339,-2.2858980360606e-09,3.1110133969409e-09,-0.0011503324214117,0.0011503324531011,-0.0011503306351344,0.0011503342217269,-0.0011503335972875,0.0011503312962088,-0.0011503318032948,0.0011503330785876,-0.00098231155515502,0.00098231066162932,-0.00098230814160387,0.00098231404223976,0.65260875568368,131329,3014,0.0033910183939495,0.0042791260061681,0.0042791260061748,41.681668551899,9.3453348415192e-05,9.3453348415192e-05,9.3453348415192e-05,3555055.552887,0.012021481648415
8819200,0.77163617111586,0.012243232966804,0.0035876302824485,0.0043278013421752,0.0043278013421803,-0.00082944896280262,0.00082944956809148,-1.5420977537957e-09,2.1442857264547e-09,-3.6065769556967e-09,4.3697698350017e-09,-0.0009452675814987,0.00094526433475896,-0.00094526636751323,0.00094526556899136,-0.00094526507330682,0.0009452669648267,-0.00094526384074023,0.00094526820039196,-0.00088635845865631,0.00088635807512966,-0.00088635482365595,0.00088636168681237,3.383289624143e-09,-4.2839956846115e-09,2.3618278798535e-09,-3.1104796986714e-09,-0.001051598416268,0.001051597671293,-0.0011774473729665,0.0011774509473426,-0.0011774491197325,0.0011774491137228,-0.0011774497862399,0.0011774484076216,-0.0011774515230619,0.001177446585422,-0.0010729629218484,0.0010729649900792,-0.0010729681864877,0.0010729595452495,-0.001002339626533,0.0010023445277929,-0.0010023470932922,0.0010023368178806,2.1525098635071e-09,-1.4481174763875e-09,-0.0010515976947404,0.001051598392823,-2.2944038365524e-09,3.119365584655e-09,-0.0011774490734197,0.0011774491383321,-0.0011774472813244,0.0011774509126007,-0.0011774502882935,0.0011774479427257,-0.0011774484885995,0.0011774497307733,-0.0010023425261183,0.0010023415238495,-0.0010023389978469,0.0010023450183105,0.62941992879664,131329,3014,0.0034517589874531,0.0043715913341844,0.0043715913341893,41.932501302174,9.5460010417391e-05,9.5460010417391e-05,9.5460010417391e-05,3574756.6500109,0.01227017781894
9019200,0.78934123958799,0.012465561818984,0.0036464274930066,0.0044095671629861,0.0044095671629911,-0.00084209784299869,0.00084209845537743,-1.5924637243557e-09,2.2016229569887e-09,-3.746895543619e-09,4.5188798468226e-09,-0.00096203792966014,0.00096203456040261,-0.00096203668271781,0.00096203582765293,-0.00096203532849469,0.00096203728415739,-0.00096203405684914,0.00096203855889314,-0.00089988103791007,0.00089988064320302,-0.00089987728833684,0.00089988436936098,3.5179500327358e-09,-4.4472220682843e-09,2.357510890372e-09,-3.1329143936299e-09,-0.0010713757094295,0.0010713749374265,-0.001201694410862,0.0012016980665973,-0.0012016961669661,0.0012016962239225,-0.0012016969258232,0.0012016954244152,-0.0012016986658796,0.0012016935992881,-0.0010924399535154,0.0010924419038163,-0.0010924452264386,0.0010924364509859,-0.0010200271190999,0.001020032270301,-0.0010200348683122,0.0010200242756597,2.2153603090868e-09,-1.5109223490064e-09,-0.0010713749743449,0.0010713756725148,-2.3001545749743e-09,3.1250968982437e-09,-0.001201696131296,0.0012016962372668,-0.0012016943381969,0.0012016980123354,-0.00120169739115,0.0012016949970459,-0.0012016955843775,0.0012016967920504,-0.0010200301984195,0.0010200290859807,-0.0010200265560108,0.0010200326941029,0.62977530291687,131329,3014,0.0035043770551084,0.0044536092008387,0.0044536092008462,41.750000730605,9.4000005844841e-05,9.4000005844841e-05,9.4000005844841e-05,3581027.6832474,0.012489553061272
9219200,0.80559352363707,0.01266724489667,0.0036996197919932,0.004483812552336,0.0044838125523409,-0.00085328978568483,0.00085329040528477,-1.6506179557545e-09,2.2668260832251e-09,-3.8682056479727e-09,4.6490241622678e-09,-0.00097706820659474,0.00097706471779563,-0.00097706691656151,0.00097706602820569,-0.00097706552011888,0.00097706752768597,-0.00097706421005883,0.00097706884088786,-0.00091176623468627,0.0009117658177082,-0.00091176237228545,0.00091176965704321,3.6257255645952e-09,-4.5844854443721e-09,2.348391057279e-09,-3.1515875249892e-09,-0.001089111583883,0.0010891107838328,-0.0012235853850296,0.0012235890955889,-0.0012235871423647,0.001223587251922,-0.0012235879788863,0.0012235863737463,-0.0012235897247905,0.0012235845429816,-0.0011098602435382,0.0011098621011495,-0.0011098655335867,0.0011098566317064,-0.001035743163091,0.0010357485301043,-0.00103575115909,0.0010357402865495,2.2703610760276e-09,-1.5657083207738e-09,-0.0010891108346343,0.001089111533084,-2.3070587761439e-09,3.132188347796e-09,-0.001223587117522,0.0012235872538321,-0.0012235853173842,0.0012235890357174,-0.0012235884121442,0.0012235859792087,-0.001223586603022,0.0012235877764565,-0.0010357464045447,0.0010357451827513,-0.0010357426475017,0.0010357489047814,0.62300580454691,131329,3014,0.0035509378712576,0.0045271549798811,0.0045271549798859,41.452121603402,9.1616972827219e-05,9.1616972827219e-05,9.1616972827219e-05,3585615.258914,0.012685680919665
9419200,0.8205021027199,0.012850081827522,0.0037477352277884,0.0045511732998644,0.0045511732998697,-0.00086334518810729,0.00086334581280537,-1.7061921292369e-09,2.327365080212e-09,-3.9331202824634e-09,4.7202276959016e-09,-0.00099066133046824,0.00099065776298821,-0.00099066000202342,0.00099065911186514,-0.00099065859953898,0.00099066061802162,-0.0009906572504988,0.00099066197028485,-0.00092241324285904,0.00092241276160912,-0.00092240926605784,0.0009224167155209,3.6812513116217e-09,-4.665894367935e-09,2.3406897878264e-09,-3.1685376634762e-09,-0.0011051601678821,0.00110515934299,-0.0012434694450802,0.0012434731798592,-0.0012434712059794,0.0012434713328413,-0.001243472084409,0.0012434704119952,-0.0012434738332686,0.001243468578432,-0.001125576648412,0.0011255784440988,-0.001125581947153,0.0011255729664249,-0.0010498784307563,0.0010498839034022,-0.0010498865601336,0.0010498755249247,2.328984202896e-09,-1.624159573834e-09,-0.0011051594060972,0.0011051601047765,-2.3114094779388e-09,3.1367211359989e-09,-0.001243471171227,0.0012434713441627,-0.0012434693682709,0.0012434731286888,-0.0012434725053685,0.001243470030368,-0.0012434706928852,0.0012434718308749,-0.0010498817802397,0.0010498804474339,-0.0010498779086897,0.0010498842832605,0.61620824265216,131329,3014,0.0035927715316502,0.004593699290038,0.0045936992900412,41.151349387817,8.9210795102533e-05,8.9210795102533e-05,8.9210795102533e-05,3591074.2940637,0.012862873741414
9619200,0.83417309704279,0.013015731175457,0.0037912384180622,0.0046122463786943,0.0046122463787001,-0.00087237204034864,0.00087237266824942,-1.7629847269385e-09,2.3872513976379e-09,-3.9616304319979e-09,4.7527656683889e-09,-0.0010029698435383,0.0010029662200803,-0.0010029684762039,0.0010029676078912,-0.001002967092825,0.0010029690954829,-0.0010029657049061,0.0010029704866825,-0.00093193203560167,0.00093193146340379,-0.00093192794455072,0.00093193553163764,3.7010365842976e-09,-4.7072851250475e-09,2.3338717075668e-09,-3.1825132166765e-09,-0.0011196804682465,0.0011196796224461,-0.0012615345230431,0.0012615382597332,-0.0012615362864093,0.0012615364103514,-0.0012615371823983,0.0012615354714636,-0.0012615389338332,0.0012615336354771,-0.0011397561868581,0.0011397579483577,-0.0011397614927525,0.0011397524637769,-0.0010625917866636,0.0010625972958136,-0.001062599975736,0.0010625888564521,2.3873313525483e-09,-1.6822729667744e-09,-0.0011196796958796,0.0011196803948155,-2.3148662386313e-09,3.1404181587045e-09,-0.0012615362317258,0.001261536441274,-0.0012615344262256,0.0012615382282076,-0.001261537604782,0.0012615350888382,-0.0012615357899008,0.0012615368917299,-0.0010625952099149,0.0010625937656766,-0.0010625912239822,0.0010625977152634,0.60938040793184,131329,3014,0.003630327051345,0.0046539028867233,0.0046539028867284,40.850468288391,8.6803746307132e-05,8.6803746307132e-05,8.6803746307132e-05,3596299.5025895,0.013022915157865
9819200,0.84647110553528,0.013165702107036,0.0038307015540437,0.0046675002764934,0.0046675002764991,-0.00087976579192174,0.00087976642450892,-1.8147706945598e-09,2.4436951944657e-09,-4.0315337130007e-09,4.8286011366086e-09,-0.0010133091512007,0.0010133054517583,-0.0010133077519297,0.0010133068715849,-0.0010133063567164,0.0010133083717552,-0.0010133049283168,0.0010133098035138,-0.0009397868307497,0.00093978619321024,-0.00093978262094149,0.00093979037975769,3.7718516779169e-09,-4.8024344599422e-09,2.3243400211986e-09,-3.1960431387769e-09,-0.001131976712205,0.0011319758431822,-0.0012770042695256,0.0012770080437091,-0.0012770060385894,0.0012770061887994,-0.0012770069877983,0.0012770051959472,-0.0012770087364358,0.0012770033629627,-0.0011517956359903,0.0011517973096474,-0.0011518009321358,0.0011517918345242,-0.0010732838379224,0.0010732894724754,-0.0010732921761771,0.0010732808815361,2.4498709895347e-09,-1.744791462642e-09,-0.0011319759282022,0.001131976627189,-2.3145884809401e-09,3.1401501534801e-09,-0.0012770059738009,0.001277006229386,-0.0012770041725943,0.0012770080118721,-0.0012770073927933,0.0012770048313148,-0.0012770055737038,0.0012770066382829,-0.0010732873786575,0.0010732858240949,-0.0010732832827995,0.0010732898836212,0.61213711386452,131329,3014,0.0036610933192497,0.0047048819582842,0.0047048819582923,40.184105436486,8.1472843491892e-05,8.1472843491892e-05,8.1472843491892e-05,3593357.057792,0.013157407959255
10019200,0.85752548193721,0.013301618798602,0.0038665683792008,0.0047175252096976,0.0047175252097033,-0.00088623967615552,0.00088624031106256,-1.8741487625124e-09,2.5052937876416e-09,-4.0535309244127e-09,4.8536152007402e-09,-0.0010224087505791,0.0010224049962327,-0.0010224073093752,0.0010224064579762,-0.0010224059394395,0.0010224079334305,-0.0010224044727395,0.0010224094035213,-0.00094673743960167,0.00094673670664035,-0.00094673311696738,0.00094674100656051,3.7817063004539e-09,-4.8303514592202e-09,2.3142218485284e-09,-3.2033303857277e-09,-0.0011428241631631,0.0011428232766007,-0.0012906831788109,0.0012906869458208,-0.0012906849454891,0.0012906850934495,-0.0012906859081544,0.0012906840868416,-0.0012906876576427,0.0012906822531005,-0.0011624747937759,0.0011624764401574,-0.0011624800928804,0.0011624709625697,-0.0010827259365736,0.0010827315961678,-0.0010827343165938,0.0010827229626454,2.5059731994154e-09,-1.8008332729561e-09,-0.0011428233703371,0.0011428240694297,-2.3143075267878e-09,3.1398316519748e-09,-0.0012906848612916,0.0012906851531844,-0.001290683058638,0.0012906869370296,-0.0012906863163739,0.0012906837192959,-0.0012906844991141,0.0012906855243684,-0.0010827295468756,0.0010827278777473,-0.0010827253362443,0.0010827320516445,0.61574677281258,131329,3014,0.0036880335828895,0.0047498516873268,0.0047498516873327,39.479925899459,7.5839407195674e-05,7.5839407195674e-05,7.5839407195674e-05,3586658.9361147,0.013275860291939
10219200,0.86747560302756,0.013425124846299,0.0038992645426151,0.0047629301518389,0.0047629301518446,-0.00089197306743782,0.00089197370190905,-1.9333921430501e-09,2.5640624498875e-09,-4.0262987242495e-09,4.8260905178063e-09,-0.001030441556182,0.001030437779711,-0.0010304400748513,0.0010304392816519,-0.0010304387628104,0.0010304406993891,-0.0010304372577281,0.0010304422078694,-0.00095296759013938,0.00095296672631538,-0.00095296315551146,0.00095297113847627,3.7468858459733e-09,-4.8068644176284e-09,2.3064527882327e-09,-3.2068062335137e-09,-0.0011524495503593,0.0011524486525014,-0.0013028449753884,0.0013028487095539,-0.0013028467398729,0.0013028468595272,-0.0013028476845231,0.0013028458708498,-0.0013028494336227,0.0013028440375874,-0.0011720161675489,0.001172017821285,-0.0011720214660351,0.0011720123445559,-0.0010911264932684,0.0010911320886096,-0.0010911348190918,0.0010911235090976,2.5634537020726e-09,-1.8584761610055e-09,-0.0011524487519455,0.0011524494509167,-2.3126322664658e-09,3.1379511349527e-09,-0.0013028466221427,0.0013028469526603,-0.0013028448197393,0.0013028487362125,-0.0013028481148768,0.0013028454813212,-0.0013028462997001,0.0013028472842631,-0.0010911301298911,0.0010911283436886,-0.001091125803267,0.0010911326332406,0.62007023213037,131329,3014,0.0037118936709765,0.00478975270849,0.004789752708493,38.774727972695,7.0197823781558e-05,7.0197823781558e-05,7.0197823781558e-05,3578554.4430893,0.013380929105166
10419200,0.87645950126982,0.013537817056603,0.0039292020205408,0.0048043075180284,0.0048043075180343,-0.00089712273419201,0.00089712336479508,-1.9942285091879e-09,2.6210247052297e-09,-3.9399871957133e-09,4.7353727994644e-09,-0.0010376166846262,0.0010376129235123,-0.0010376151633487,0.001037614465432,-0.0010376139495923,0.0010376157846925,-0.00103761240599,0.0010376173317403,-0.00095863067604712,0.0009586296363354,-0.00095862612845655,0.00095863416153764,3.654770114292e-09,-4.7174319459496e-09,2.3015909269987e-09,-3.2053026031242e-09,-0.0011610832770667,0.0011610823759584,-0.001313742674934,0.0013137463427386,-0.0013137444367486,0.0013137444955448,-0.0013137453231376,0.0013137435653458,-0.0013137470709883,0.0013137417334708,-0.0011806407231451,0.001180642429973,-0.0011806460175987,0.0011806369569686,-0.00109869751378,0.0010987029318191,-0.0010987056638913,0.0010986945287714,2.6209812422339e-09,-1.9162593030054e-09,-0.0011610824771569,0.0011610831758707,-2.3098133960804e-09,3.1348808109255e-09,-0.0013137442689252,0.0013137446388094,-0.001313742467749,0.0013137464211281,-0.0013137457994611,0.0013137431297701,-0.0013137439869708,0.001313744930071,-0.0010987011205586,0.001098699216986,-0.0010986966784532,0.0010987036216188,0.62506143090909,131329,3014,0.0037333255305009,0.0048255409308711,0.0048255409308764,38.099684160053,6.4797473280428e-05,6.4797473280428e-05,6.4797473280428e-05,3568762.7753055,0.013475209049167
10619200,0.88484731634872,0.01364096729383,0.0039565346250656,0.0048422163343793,0.0048422163343851,-0.00090284899994407,0.00090284961538216,-2.0571836872152e-09,2.6690427425763e-09,-3.6287306010651e-09,4.406237163891e-09,-0.0010452665523291,0.0010452629561441,-0.001045264997839,0.0010452645313059,-0.0010452640335462,0.0010452655998709,-0.001045262449007,0.0010452671879064,-0.00096482674777624,0.00096482535949089,-0.00096482207976141,0.00096483000502007,3.3611045622105e-09,-4.4026921772063e-09,2.307886374558e-09,-3.1933010493054e-09,-0.0011701060942897,0.0011701052116899,-0.0013248974067617,0.0013249008920483,-0.0013248991706716,0.0013248990429003,-0.0013248998567858,0.0013248983143052,-0.0013249015989592,0.0013248964882396,-0.001189627801303,0.0011896297115934,-0.0011896330778389,0.0011896242563118,-0.0011067121011214,0.0011067169305612,-0.00110671964245,0.0011067091385702,2.6816534649156e-09,-1.9774121600629e-09,-0.0011701053038596,0.0011701060021217,-2.3064067989437e-09,3.1309820737645e-09,-0.0013248988867055,0.0013248993029551,-0.001324897091896,0.0013249010790632,-0.0013249004615898,0.001324897749467,-0.001324898647669,0.0013248995512965,-0.0011067154694145,0.0011067134550406,-0.001106710919924,0.0011067179678224,0.61395112837509,131329,3014,0.0037571497900601,0.0048629408921744,0.0048629408921777,38.029473660419,6.4235789283356e-05,6.4235789283356e-05,6.4235789283356e-05,3567775.6354264,0.013575189808372
10819200,0.89268076043626,0.01373554503467,0.0039815217274917,0.0048770116535865,0.0048770116535923,-0.00090813070546374,0.00090813130522507,-2.1252501915361e-09,2.721656579995e-09,-3.346533429495e-09,4.1055928258985e-09,-0.0010523512568812,0.0010523477965132,-0.0010523496591461,0.0010523494149364,-0.0010523489286025,0.0010523502483939,-0.0010523473071034,0.0010523518734048,-0.00097049981804886,0.00097049811171429,-0.00097049504180797,0.00097050286566279,3.0724270622158e-09,-4.086738493845e-09,2.3158027336208e-09,-3.1768665146021e-09,-0.0011784518898962,0.0011784510318437,-0.0013352445385707,0.0013352478412553,-0.0013352462965964,0.0013352459981322,-0.0013352467854276,0.0013352454684451,-0.0013352485280716,0.0013352436420144,-0.0011978873843203,0.0011978895224617,-0.0011978926628398,0.0011978840655751,-0.0011140843302319,0.0011140886026455,-0.0011140912879156,0.0011140813976553,2.7374313876443e-09,-2.0336959925716e-09,-0.0011784511119893,0.0011784518097534,-2.3030350421839e-09,3.1270042899889e-09,-0.0013352459095815,0.0013352463620392,-0.001335244114116,0.0013352481389623,-0.0013352475186516,0.0013352447742177,-0.0013352457104376,0.0013352465704797,-0.001114087481685,0.0011140853453181,-0.0011140828134444,0.0011140899775758,0.60386754230433,131329,3014,0.0037791244212076,0.0048975332214719,0.0048975332214773,37.97366146433,6.378929171464e-05,6.378929171464e-05,6.378929171464e-05,3569925.4567155,0.013667612136831
11019200,0.89999313076996,0.01382208300886,0.0040043116946852,0.0049088856570847,0.0049088856570903,-0.00091296776751627,0.00091296835176519,-2.191043140636e-09,2.7721692399561e-09,-3.0963546130508e-09,3.8372493901357e-09,-0.0010588783182863,0.0010588749767949,-0.0010588766820638,0.0010588766337243,-0.0010588761619997,0.0010588772552563,-0.00105887450145,0.0010588789193441,-0.00097566178566814,0.0009756597769434,-0.00097565689493532,0.00097566464552569,2.8279784072318e-09,-3.8131553135498e-09,2.3246186016445e-09,-3.1592627975761e-09,-0.0011861331724774,0.0011861323410419,-0.0013448197460625,0.0013448229003767,-0.0013448215015951,0.0013448210598788,-0.0013448218220232,0.0013448207002303,-0.001344823561541,0.0013448188770462,-0.0012054397478673,0.001205442075733,-0.0012054450171023,0.0012054366283748,-0.0011208224717781,0.0011208262648346,-0.0011208289212331,0.0011208195713893,2.7953199880108e-09,-2.0922308368429e-09,-0.0011861324081943,0.0011861331053277,-2.2990579897977e-09,3.1223000711114e-09,-0.0013448210226732,0.0013448215165359,-0.0013448192304737,0.0013448232903311,-0.001344822670795,0.0013448198894658,-0.0013448208652217,0.0013448216832296,-0.0011208254428831,0.001120823189423,-0.0011208206612483,0.0011208279354247,0.59320720159386,131329,3014,0.0037992490403901,0.0049293701834887,0.0049293701834943,37.918384589469,6.3347076715751e-05,6.3347076715751e-05,6.3347076715751e-05,3574222.3527057,0.013752579588319
11219200,0.90680693187842,0.013902690941152,0.0040255609743112,0.0049385649834174,0.0049385649834231,-0.00091741256733104,0.00091741313877503,-2.2556545010975e-09,2.8241896307983e-09,-2.9208774677277e-09,3.6468716454863e-09,-0.0010648840719445,0.0010648808003756,-0.0010648823965461,0.0010648824964781,-0.001064882036273,0.0010648829569707,-0.0010648803371208,0.0010648846596802,-0.00098042401981502,0.00098042176349453,-0.00098041901592935,0.00098042674558382,2.6569665447632e-09,-3.6161438046677e-09,2.3318725523207e-09,-3.1425998471338e-09,-0.0011932113162153,0.0011932105087939,-0.0013536645719438,0.0013536676243754,-0.0013536663241911,0.001353665787307,-0.001353666526184,0.0013536655474446,-0.0013536682629525,0.0013536637271394,-0.0012124075539947,0.0012124100201682,-0.0012124128151906,0.0012124045814833,-0.0011270126705604,0.0011270161303763,-0.0011270187601444,0.0011270097996145,2.8529655079797e-09,-2.1506648317833e-09,-0.0011932105643156,0.0011932112606955,-2.294788784719e-09,3.1171057182364e-09,-0.0013536657776149,0.0013536663123381,-0.0013536639883221,0.001353668083313,-0.0013536674640617,0.0013536646467503,-0.0013536656619536,0.0013536664371659,-0.0011270155348469,0.0011270131630264,-0.0011270106389948,0.0011270180237254,0.59263236689342,131329,3014,0.0038177412253265,0.0049587065539192,0.0049587065539232,37.837584375566,6.2700675004526e-05,6.2700675004526e-05,6.2700675004526e-05,3577880.6490988,0.013830827062699
11419200,0.91311216901513,0.013977872131556,0.0040454295766759,0.004966221277437,0.0049662212774428,-0.00092130327385121,0.00092130383811663,-2.3175318454341e-09,2.8789836034095e-09,-2.8644166275088e-09,3.5822042712949e-09,-0.0010702040427783,0.0010702007644615,-0.0010702023274346,0.0010702025005013,-0.0010702020457792,0.0010702028815956,-0.001070200308771,0.0010702046221694,-0.00098463419089205,0.00098463177621409,-0.00098462907608155,0.00098463686955233,2.5989374031855e-09,-3.5417590299538e-09,2.3346048930738e-09,-3.1299941377397e-09,-0.0011995159499964,0.0011995151579697,-0.0013615942412598,0.0013615972609166,-0.0013615959892633,0.0013615954282034,-0.0013615961512724,0.0013615952291905,-0.0013615978858837,0.0013615934111377,-0.0012186431367954,0.0012186456559949,-0.0012186483918486,0.0012186402238819,-0.0011325136224542,0.0011325169742256,-0.0011325195857919,0.0011325107716442,2.9105727360008e-09,-2.2090784921096e-09,-0.0011995152061903,0.0011995159017775,-2.2898986340215e-09,3.1112796240726e-09,-0.001361595410634,0.0013615959857562,-0.0013615936238497,0.0013615977542345,-0.0013615971346393,0.0013615942824793,-0.0013615953371772,0.0013615960683463,-0.0011325164936933,0.0011325140008601,-0.0011325114810083,0.001132518978273,0.59626238542392,131329,3014,0.0038339298650153,0.0049848361300609,0.0049848361300643,37.630521330104,6.1044170640829e-05,6.1044170640829e-05,6.1044170640829e-05,3577877.5947196,0.013900240831151
11619200,0.91894704810741,0.014047836610005,0.0040639579063406,0.0049919393518291,0.0049919393518351,-0.00092488202821031,0.00092488258827739,-2.3777611799399e-09,2.9350980872682e-09,-2.8584887158084e-09,3.5716202431003e-09,-0.001075090351061,0.0010750870356891,-0.0010750885976711,0.0010750888097999,-0.0010750883595865,0.0010750891467749,-0.0010750865830562,0.0010750909269015,-0.00098853577125127,0.00098853323099453,-0.00098853054021396,0.00098853844037676,2.6005477605635e-09,-3.533401070872e-09,2.3342043600607e-09,-3.1200438150503e-09,-0.0012053166308923,0.0012053158484656,-0.001368884547712,0.0013688875720422,-0.0013688862931027,0.0013688857420447,-0.0013688864565923,0.0013688855420111,-0.0013688881871551,0.0013688837281392,-0.0012244103656175,0.0012244128839876,-0.0012244156081043,0.0012244074644931,-0.0011375881583325,0.0011375915144203,-0.0011375941129584,0.001137585321292,2.9683070665508e-09,-2.2676750087321e-09,-0.001205315892314,0.0012053165870459,-2.2855949491432e-09,3.1060585492493e-09,-0.0013688856986835,0.0013688863156621,-0.0013688839157899,0.0013688880802429,-0.0013688874621271,0.0013688845728452,-0.0013688856671378,0.0013688863562974,-0.001137591089924,0.0011375884811496,-0.0011375859655234,0.0011375935703883,0.59873359502923,131329,3014,0.0038488211757572,0.0050088762489593,0.0050088762489633,37.420447121765,5.9363576974121e-05,5.9363576974121e-05,5.9363576974121e-05,3575900.3275236,0.013964105610538
11819200,0.92434799834494,0.014113085735367,0.0040812790956691,0.0050159033198459,0.005015903319852,-0.00092818493821078,0.00092818549652029,-2.4368484624522e-09,2.9924421507111e-09,-2.8895239780553e-09,3.6008211687379e-09,-0.0010795837145654,0.0010795803385282,-0.0010795819224971,0.0010795821513377,-0.0010795817027617,0.0010795824696514,-0.0010795798872861,0.0010795842887548,-0.00099216319731741,0.0009921605609626,-0.00099215785183075,0.00099216588489341,2.633822231412e-09,-3.56155239953e-09,2.332010187985e-09,-3.1127425378215e-09,-0.0012106646437336,0.0012106638664252,-0.0013755960366164,0.0013755990836253,-0.0013755977790671,0.0013755972566699,-0.0013755979664268,0.0013755970330415,-0.0013755996937961,0.0013755952224673,-0.0012297577805572,0.0012297602736831,-0.0012297630133122,0.0012297548640633,-0.0011422818400962,0.0011422852642851,-0.0011422878547083,0.0011422790117378,3.0259883733676e-09,-2.3262191162498e-09,-0.001210663908137,0.001210664602024,-2.2814174969086e-09,3.1009487333507e-09,-0.0013755971785032,0.001375597836593,-0.0013755953988026,0.0013755995979409,-0.0013755989807845,0.0013755960548971,-0.001375597188768,0.0013755978354052,-0.0011422848645343,0.0011422821384678,-0.0011422796267192,0.0011422873409944,0.60218092641672,131329,3014,0.0038625652369592,0.0050310395757344,0.0050310395757389,37.210260954928,5.7682087639423e-05,5.7682087639423e-05,5.7682087639423e-05,3572569.6506946,0.014023003792767
12019200,0.92935612194027,0.014175636864525,0.0040980063947993,0.0050388152348596,0.0050388152348658,-0.00093136128347532,0.00093136184243479,-2.4947512015927e-09,3.0509598458298e-09,-2.9569322694254e-09,3.6692089827725e-09,-0.0010838262908473,0.0010838228311325,-0.0010838244598049,0.0010838246829293,-0.0010838242334648,0.0010838250077705,-0.0010838223793478,0.0010838268655383,-0.00099571493400184,0.00099571223007529,-0.00099570947502398,0.00099571766744624,2.7006987434493e-09,-3.6285665957224e-09,2.3281495804281e-09,-3.1086350293326e-09,-0.0012157336695689,0.0012157328925185,-0.0013818912587219,0.0013818943479779,-0.0013818929984237,0.0013818925238612,-0.0013818932331634,0.0013818922528591,-0.0013818949581488,0.0013818904447692,-0.001234909581117,0.0012349120224111,-0.0012349148065506,0.0012349066200492,-0.0011467907950951,0.0011467943541156,-0.0011467969417993,0.0011467879696223,3.0837249078502e-09,-2.3847109158361e-09,-0.001215732934484,0.0012157336276061,-2.277789105224e-09,3.0965105022297e-09,-0.0013818924015595,0.0013818931000977,-0.0013818906243204,0.0013818948589311,-0.0013818942423965,0.0013818912798549,-0.001381892453227,0.0013818930575146,-0.0011467939458871,0.0011467911020888,-0.0011467885935541,0.0011467964187772,0.61929850665885,131329,3014,0.0038757822854284,0.0050520460993471,0.0050520460993527,37.027904995659,5.622323996527e-05,5.622323996527e-05,5.622323996527e-05,3566320.0973958,0.014079023588513
12219200,0.93401798733466,0.014235925248679,0.0041142408579133,0.00506084219538,0.0050608421953861,-0.00093450853509768,0.00093450909620587,-2.5515792859455e-09,3.1098778669247e-09,-3.0399348066372e-09,3.7549091871018e-09,-0.0010879611850344,0.0010879576318074,-0.0010879593145575,0.0010879595230518,-0.0010879590706481,0.0010879598655332,-0.0010879571787827,0.0010879617610769,-0.0009992917055394,0.00099928894921339,-0.00099928613592279,0.00099929449741364,2.7755809502714e-09,-3.7065397934668e-09,2.3242703769479e-09,-3.1072778307158e-09,-0.0012206540455251,0.0012206532659024,-0.0013879257518498,0.0013879288871206,-0.0013879274890272,0.0013879270656207,-0.0013879277765813,0.0013879267417023,-0.0013879295007318,0.0013879249345337,-0.0012399997199138,0.0012400021051443,-0.0012400049429556,0.0012399967053669,-0.0011512467898647,0.0011512505006889,-0.00115125308932,0.001151243963395,3.1418203418393e-09,-2.4435189242918e-09,-0.0012206533095038,0.0012206540019263,-2.2748069147691e-09,3.0927458576782e-09,-0.0013879268978975,0.0013879276360716,-0.0013879251219845,0.0013879293934856,-0.0013879287768544,0.0013879257777457,-0.0013879269907549,0.001387927552345,-0.0011512500765948,0.0011512471128554,-0.001151244606895,0.0011512525463339,0.63789981383053,131329,3014,0.0038888786393814,0.0050724357583662,0.0050724357583719,36.914261052863,5.5314088422907e-05,5.5314088422907e-05,5.5314088422907e-05,3556727.9745346,0.014133672755923
12419200,0.93835799650393,0.014290103489778,0.0041287368244075,0.0050806833326821,0.0050806833326882,-0.00093733509630464,0.00093733565916113,-2.6091847304916e-09,3.1691513073383e-09,-3.1303093335515e-09,3.8477227032714e-09,-0.0010917741034873,0.0010917704520698,-0.001091772194456,0.0010917723818689,-0.0010917719283206,0.001091772746745,-0.0010917699971063,0.001091774681637,-0.0010024657911687,0.0010024629819424,-0.0010024601058245,0.0010024686458246,2.8692285322105e-09,-3.8065432949983e-09,2.3187939745644e-09,-3.1073428365591e-09,-0.0012251334957663,0.0012251327105396,-0.0013934880337392,0.001393491226575,-0.0013934897695936,0.0013934894064784,-0.001393490123284,0.0013934890162472,-0.0013934918453411,0.0013934872112583,-0.0012445883457336,0.0012445906541342,-0.0012445935621899,0.0012445852610574,-0.0011552857757154,0.0011552896716583,-0.001155292263985,0.001155282944961,3.1993908198654e-09,-2.5016921311403e-09,-0.001225132757243,0.0012251334490662,-2.2730062163086e-09,3.0902955305928e-09,-0.0013934891886438,0.0013934899666251,-0.0013934874144773,0.0013934917221724,-0.0013934911066307,0.0013934880693962,-0.0013934893215725,0.0013934898429702,-0.0011552892120767,0.0011552861341195,-0.0011552836300919,0.0011552916795572,0.61826606745906,131329,3014,0.0039006435797961,0.0050909971330901,0.005090997133097,36.802258972967,5.4418071783739e-05,5.4418071783739e-05,5.4418071783739e-05,3548364.5683661,0.014183266937459
12619200,0.94239854835724,0.014337675943702,0.0041413317193625,0.0050981721121669,0.0050981721121729,-0.00093983322936359,0.00093983379547314,-2.6658898435717e-09,3.2290532274051e-09,-3.2245981309464e-09,3.9460670750654e-09,-0.0010952042386951,0.0010952004875301,-0.0010952022910077,0.0010952024559922,-0.0010952019996114,0.0010952028463724,-0.0010952000293189,0.0010952048203528,-0.0010051899171655,0.0010051870605091,-0.0010051841170619,0.0010051928392562,2.9629825002996e-09,-3.9081806295365e-09,2.3132372082941e-09,-3.1087986426717e-09,-0.0012291506183312,0.0012291498259996,-0.0013985355038187,0.0013985387535326,-0.0013985372385875,0.0013985369346009,-0.0013985376584917,0.0013985364778239,-0.0013985393790632,0.0013985346744077,-0.0012485984444034,0.0012486006759157,-0.0012486036562741,0.0012485952876357,-0.0011588368799952,0.0011588409613194,-0.0011588435592796,0.0011588340429109,3.2571048445063e-09,-2.5599754276256e-09,-0.0012291498765305,0.0012291505678029,-2.2714276089163e-09,3.088091615068e-09,-0.0013985366673157,0.001398537484894,-0.0013985348945613,0.0013985392389422,-0.0013985386242185,0.0013985355488455,-0.0013985368401846,0.0013985373213403,-0.0011588404663118,0.0011588372735676,-0.0011588347712498,0.001158842931834,0.58731202453899,131329,3014,0.003911041352224,0.005107642593569,0.0051076425935744,36.690317930925,5.3522543447397e-05,5.3522543447397e-05,5.3522543447397e-05,3546075.4188828,0.014227589170302
12819200,0.94612647877218,0.014381960327912,0.004153094030906,0.0051144331485,0.0051144331485059,-0.00094184414267957,0.00094184471430077,-2.7206688300524e-09,3.2892449859117e-09,-3.3601477598513e-09,4.0883546020439e-09,-0.0010980041897013,0.0010980003120614,-0.0010980022025983,0.001098002319933,-0.0010980018573901,0.0010980027646083,-0.0010979998498018,0.0010980047758866,-0.0010073995521149,0.0010073966840787,-0.001007393642869,0.0010074025723307,3.0873354363951e-09,-4.0450968015584e-09,2.3062311417782e-09,-3.1131037310596e-09,-0.0012325189692552,0.0012325181654592,-0.0014028102184696,0.0014028135420092,-0.0014028119513252,0.0014028117250706,-0.0014028124590192,0.0014028111799807,-0.0014028141798034,0.0014028093764212,-0.0012519510176208,0.0012519531514048,-0.001251956230439,0.0012519477626022,-0.0011617622139171,0.0011617665444036,-0.0011617691527796,0.0011617593654374,3.315633489614e-09,-2.6191050440799e-09,-0.0012325182220078,0.0012325189127088,-2.2693806190681e-09,3.0853526503591e-09,-0.0014028113991988,0.0014028122559317,-0.0014028096268763,0.0014028140094146,-0.0014028133942941,0.0014028102818269,-0.0014028116128695,0.0014028120516718,-0.0011617659849477,0.0011617626716442,-0.0011617601711386,0.00116176844808,0.59134553788022,131329,3014,0.0039194111976922,0.0051215999600777,0.0051215999600822,36.406834776714,5.1254678213716e-05,5.1254678213716e-05,5.1254678213716e-05,3544886.8186046,0.014264400509657
13019200,0.94952290195283,0.014422466045586,0.0041638736308111,0.0051292962073843,0.0051292962073903,-0.00094318881914061,0.00094318939833844,-2.7748960493011e-09,3.3509413476008e-09,-3.5296363635319e-09,4.2670569293398e-09,-0.0011000530960496,0.0011000490711578,-0.0011000510703383,0.0011000511176262,-0.001100050648145,0.0011000516399788,-0.0011000486018714,0.0011000536899324,-0.0010089165689077,0.0010089137107572,-0.0010089105461193,0.0010089197127948,3.250720863102e-09,-4.2262498037048e-09,2.2958302237034e-09,-3.1187683584233e-09,-0.0012350583664404,0.0012350575463713,-0.0014061656731216,0.0014061690937166,-0.0014061674045098,0.0014061672783344,-0.0014061680280713,0.0014061666165673,-0.0014061697473243,0.00140616481461,-0.0012544820057394,0.0012544840037194,-0.001254487213959,0.0012544786200217,-0.0011639106610734,0.0011639153151143,-0.0011639179377498,0.0011639077965252,3.3737130725579e-09,-2.6778072928253e-09,-0.0012350576113512,0.0012350583014617,-2.2671472920594e-09,3.0824030416147e-09,-0.001406166882152,0.0014061677790239,-0.0014061651114781,0.0014061695306555,-0.001406168916244,0.0014061657660364,-0.001406167136499,0.0014061675341708,-0.0011639146518906,0.0011639112219074,-0.001163908723617,0.0011639171124533,0.59302696868745,131329,3014,0.0039250128077666,0.005132121801699,0.0051321218017015,35.874080176103,4.6992641408822e-05,4.6992641408822e-05,4.6992641408822e-05,3539799.3934747,0.01429143514059
13219200,0.95262086767285,0.014459590601697,0.0041737772314095,0.0051429066851408,0.005142906685147,-0.00094432997025654,0.00094433055537891,-2.8310906144486e-09,3.4129888718563e-09,-3.6586881189129e-09,4.4033818742358e-09,-0.0011018280454712,0.0011018238986003,-0.0011018259806379,0.00110182598421,-0.0011018255095323,0.0011018265559745,-0.0011018234236722,0.0011018286455364,-0.0010102226684749,0.0010102197879603,-0.0010102165289608,0.0010102259061954,3.3814575450287e-09,-4.3728743253234e-09,2.2866226967715e-09,-3.1240735224188e-09,-0.0012372731651846,0.0012372723305209,-0.0014091162389195,0.0014091197361852,-0.0014091179693015,0.0014091179218599,-0.0014091186858761,0.0014091171663098,-0.0014091204036848,0.0014091153658778,-0.0012567018428992,0.0012567037291501,-0.0012567070463064,0.0012566983500285,-0.001165779135862,0.0011657840479273,-0.0011657866834327,0.0011657762565958,3.4306902994133e-09,-2.7352673669889e-09,-0.001237272403057,0.0012372730926526,-2.2656879424945e-09,3.0804785282602e-09,-0.0014091174666152,0.0014091184025106,-0.0014091156972319,0.0014091201527111,-0.001409119539171,0.0014091163511486,-0.0014091177602896,0.0014091181183297,-0.0011657833119403,0.0011657797687262,-0.0011657772722292,0.0011657857706359,0.59512403776853,131329,3014,0.0039297677897611,0.0051412984890117,0.0051412984890201,35.335349995042,4.2682799960336e-05,4.2682799960336e-05,4.2682799960336e-05,3533822.5635801,0.014314882174483
13419200,0.95545075333327,0.014492931005089,0.00418265426622,0.0051551383694315,0.0051551383694377,-0.00094526475061327,0.00094526533996225,-2.887234928896e-09,3.4732301764081e-09,-3.7477123936648e-09,4.4975257917919e-09,-0.0011033501241363,0.0011033458819588,-0.001103348020875,0.0011033480060124,-0.0011033475277791,0.0011033486001676,-0.0011033454027328,0.0011033507289379,-0.0010112917062363,0.0010112887757643,-0.0010112854516584,0.0010112950092444,3.468466901232e-09,-4.472360629063e-09,2.2793679008504e-09,-3.1283223973595e-09,-0.0012391737062724,0.0012391728600736,-0.0014117005429867,0.0014117040902773,-0.0014117022728042,0.0014117022765538,-0.0014117030521009,0.0014117014578478,-0.0014117047685601,0.0014116996587909,-0.0012585925300894,0.0012585943384235,-0.0012585977293205,0.0012585889633964,-0.0011673615447597,0.0011673666280676,-0.001167369274307,0.0011673586541356,3.4886356077534e-09,-2.7936061395442e-09,-0.001239172938571,0.0012391736277775,-2.2651009857491e-09,3.0794714262029e-09,-0.0014117017759303,0.0014117027510857,-0.0014117000074517,0.0014117045003345,-0.0014117038877307,0.0014117006606866,-0.0014117021089826,0.0014117024277041,-0.0011673658630331,0.0011673622063899,-0.0011673597103107,0.001167368320654,0.58608287685648,131329,3014,0.0039336646435288,0.0051491728332212,0.0051491728332264,34.796397728041,3.8371181824332e-05,3.8371181824332e-05,3.8371181824332e-05,3528020.425625,0.01433481688736
13619200,0.95805334689638,0.014523182955136,0.0041907005475402,0.0051662412037946,0.0051662412038008,-0.00094621223321076,0.00094621282383203,-2.9392168548838e-09,3.5263548018108e-09,-3.7730360939549e-09,4.5243324036331e-09,-0.0011048279400552,0.0011048236440722,-0.0011048257983636,0.001104825806561,-0.0011048253239067,0.0011048263821916,-0.0011048231668628,0.0011048285429729,-0.0010123530671319,0.0010123500619902,-0.0010123467200275,0.0010123563889508,3.4509251431039e-09,-4.4581390244204e-09,2.2812968005489e-09,-3.1335924175802e-09,-0.0012410024110354,0.0012410015614709,-0.0014141544322962,0.00141415796541,-0.0014141561612049,0.0014141561526523,-0.0014141569283542,0.0014141553461926,-0.0014141586503088,0.0014141535415794,-0.0012603982033364,0.0012604000361008,-0.0012604034199317,0.0012603946437234,-0.0011688886340734,0.0011688936899156,-0.0011688963425976,0.0011688857380014,3.5522838361672e-09,-2.8576333633211e-09,-0.0012410016418281,0.0012410023306797,-2.2626063196065e-09,3.0764907196732e-09,-0.001414155637964,0.0014141566535694,-0.0014141538678712,0.001414158404245,-0.0014141577889023,0.001414154524035,-0.0014141560151906,0.0014141562862052,-0.0011688930071675,0.0011688892140839,-0.0011688867186273,0.0011688954623523,0.57889843234925,131329,3014,0.0039376122175112,0.0051567498191239,0.005156749819127,34.355722799288,3.4845782394306e-05,3.4845782394306e-05,3.4845782394306e-05,3524584.1578221,0.01435419926125
13819200,0.96046124133766,0.014551166355901,0.004198154097561,0.0051765061291668,0.0051765061291731,-0.00094719541749856,0.00094719600385746,-3.0062700389845e-09,3.5892689132691e-09,-3.6845638905141e-09,4.4309669849119e-09,-0.0011062879995963,0.001106283720109,-0.0011062858191499,0.001106285921383,-0.0011062854471069,0.0011062863942422,-0.0011062832427201,0.0011062886023938,-0.0010134463011579,0.001013443091083,-0.001013439812816,0.0010134495581277,3.409787488336e-09,-4.4152078694377e-09,2.2800420134801e-09,-3.1309211868715e-09,-0.0012427969131257,0.001242796065055,-0.0014165221511916,0.0014165256601965,-0.0014165238833948,0.0014165238442602,-0.0014165246227568,0.0014165230654753,-0.0014165263393633,0.0014165212663765,-0.0012621722002656,0.0012621740446012,-0.0012621773988629,0.0012621686700179,-0.001170400684614,0.0011704056479938,-0.0011704082973369,0.0011703977910902,3.6036763826896e-09,-2.9090061322124e-09,-0.0012427961446794,0.0012427968335055,-2.2681031003307e-09,3.0821157736552e-09,-0.0014165233272289,0.0014165243780812,-0.0014165215579145,0.001416526128035,-0.0014165255169212,0.0014165222097442,-0.0014165237352613,0.0014165239797991,-0.0011704050533924,0.0011704011760241,-0.0011703986782856,0.0011704075123508,0.57842147825742,131329,3014,0.0039417063354228,0.0051641853630585,0.0051641853630672,34.00350022943,3.2028001835439e-05,3.2028001835439e-05,3.2028001835439e-05,3522640.6138411,0.014373442914556
14019200,0.96269129427881,0.014577089324393,0.0042050673215078,0.0051860110014396,0.0051860110014457,-0.00094806704385096,0.00094806762573872,-3.0663658066294e-09,3.6449487662878e-09,-3.5975992912523e-09,4.3387379025647e-09,-0.0011075987461406,0.0011075944836457,-0.0011075965273848,0.0011075967232366,-0.0011075962534456,0.00110759709764,-0.0011075940101653,0.0011075993446666,-0.0010144211173697,0.001014417728931,-0.0010144145150803,0.0010144243102212,3.3209628810964e-09,-4.3200134534073e-09,2.2851884555668e-09,-3.1305355005921e-09,-0.0012444102219001,0.0012444093794139,-0.0014186609228153,0.0014186643775503,-0.0014186626570028,0.0014186625597647,-0.0014186633331408,0.0014186618443605,-0.0014186650512244,0.001418660043908,-0.0012637696263678,0.0012637715416368,-0.0012637748289513,0.0012637661633441,-0.0011717565190133,0.0011717613040731,-0.0011717639497639,0.0011717536302378,3.6621210367161e-09,-2.9674835414148e-09,-0.0012444094562555,0.0012444101450637,-2.2701532927281e-09,3.0841213099757e-09,-0.0014186620528205,0.001418663141661,-0.0014186602824052,0.0014186648928058,-0.0014186642818235,0.0014186609340283,-0.0014186624984911,0.001418662705704,-0.0011717608550029,0.0011717568652347,-0.0011717543662473,0.0011717633154477,0.57820996833185,131329,3014,0.0039453362933422,0.0051708700828683,0.0051708700828789,33.653405801499,2.922724641199e-05,2.922724641199e-05,2.922724641199e-05,3520379.6327761,0.014390692424307
14219200,0.96475851959458,0.014600189007799,0.0042111866453657,0.0051945011812135,0.0051945011812195,-0.00094879036090349,0.00094879093790058,-3.1260910189476e-09,3.699865455003e-09,-3.5050301291473e-09,4.2404141603758e-09,-0.0011087412623018,0.0011087370192914,-0.0011087390041126,0.0011087392983476,-0.0011087388319097,0.0011087395705517,-0.0011087365515558,0.0011087418546918,-0.0010152112828099,0.0010152077174056,-0.0010152045720467,0.0010152144072,3.2238385296537e-09,-4.214639008539e-09,2.2916674883808e-09,-3.129737388831e-09,-0.0012458090175098,0.0012458081823677,-0.0014205517455245,0.0014205551409817,-0.0014205534805218,0.001420553322513,-0.0014205540876821,0.0014205526764624,-0.0014205558088853,0.0014205508730052,-0.0012651251267697,0.0012651271263453,-0.0012651303388365,0.0012651217384868,-0.0011729066446208,0.0011729112401032,-0.0011729138804789,0.0011729037620774,3.7211425720017e-09,-3.0265470124192e-09,-0.0012458082555397,0.0012458089443406,-2.2720149592967e-09,3.0859531898366e-09,-0.0014205528275784,0.0014205539533243,-0.00142055105475,0.0014205557069562,-0.0014205550947417,0.0014205517075649,-0.0014205533112706,0.0014205534793733,-0.0011729109451781,0.0011729068372395,-0.0011729043369336,0.0011729134067939,0.55856305849173,131329,3014,0.0039483496012287,0.0051766658473583,0.0051766658473641,33.303390416695,2.6427123333558e-05,2.6427123333558e-05,2.6427123333558e-05,3518833.3834713,0.014405513009528
14419200,0.96664466193322,0.014621516626884,0.0042168585407798,0.0052023290430489,0.005202329043055,-0.00094887212608446,0.00094887269986976,-3.1956154687292e-09,3.7664020222683e-09,-3.4507856800133e-09,4.1826597575567e-09,-0.0011091518652762,0.0011091476151972,-0.00110914956716,0.0011091499341802,-0.0011091494760028,0.0011091501251799,-0.001109147145553,0.0011091524594177,-0.0010153330670795,0.0010153293130392,-0.0010153262067432,0.0010153361506552,3.2303489662825e-09,-4.2208801626003e-09,2.2860653451047e-09,-3.1238348947832e-09,-0.0012464468160861,0.0012464459812165,-0.0014216039743777,0.0014216073746525,-0.0014216057109229,0.0014216055546446,-0.0014216063246544,0.001421604901845,-0.0014216080372949,0.0014216031071957,-0.0012657084258617,0.0012657103942829,-0.0012657136104752,0.0012657050344279,-0.0011733091197129,0.0011733137168188,-0.0011733163517273,0.0011733062405581,3.7694032340245e-09,-3.0748449021283e-09,-0.0012464460542733,0.0012464467430352,-2.2777255434599e-09,3.0917600593819e-09,-0.0014216050417257,0.0014216062016168,-0.0014216032705305,0.0014216079539087,-0.0014216073465959,0.0014216039182858,-0.0014216055542316,0.001421605698683,-0.0011733134589785,0.0011733092743022,-0.0011733067730891,0.0011733159244097,0.56383118234999,131329,3014,0.00394869605495,0.0051793084382528,0.005179308438265,32.647725628982,2.1181805031857e-05,2.1181805031857e-05,2.1181805031857e-05,3515486.7253562,0.014411229114669
14619200,0.96835247379997,0.014640946228692,0.0042220400944745,0.0052094530671055,0.0052094530671116,-0.00094854469485028,0.00094854526951743,-3.2461847414315e-09,3.8177094102452e-09,-3.4825150522615e-09,4.2153798335396e-09,-0.0011091200912492,0.001109115783935,-0.0011091177552067,0.001109118140836,-0.0011091176781801,0.001109118317803,-0.0011091153169656,0.0011091206827428,-0.0010150359800047,0.0010150321588828,-0.0010150290320299,0.0010150390861696,3.2155730540446e-09,-4.2062573381558e-09,2.2888794251025e-09,-3.1268863510107e-09,-0.0012465848477649,0.0012465840125985,-0.0014221062661027,0.0014221096555092,-0.0014221080008641,0.001422107837266,-0.0014221086042047,0.0014221071950765,-0.0014221103221104,0.0014221053951602,-0.0012658019748233,0.0012658039700136,-0.001265807177255,0.0012657985928064,-0.001173243924979,0.0011732485015696,-0.0011732511398166,0.001173241044328,3.8346007761667e-09,-3.1404747337702e-09,-0.0012465840859722,0.0012465847743924,-2.2723559652321e-09,3.0857606599535e-09,-0.0014221073065206,0.0014221085093696,-0.001422105535404,0.0014221102616686,-0.0014221096513134,0.0014221061863862,-0.0014221078659717,0.0014221079596571,-0.0011732483256556,0.0011732439985633,-0.0011732414991959,0.0011732507868172,0.5664523359859,131329,3014,0.0039473428378723,0.0051798799116627,0.005179879911665,31.823346964832,1.4586775718657e-05,1.4586775718657e-05,1.4586775718657e-05,3508490.9515675,0.014411018833267
14819200,0.96990156559193,0.014658698746927,0.0042267893244757,0.0052159547112224,0.0052159547112285,-0.0009481157171258,0.00094811629158938,-3.3018188864936e-09,3.8731196431476e-09,-3.4905659156661e-09,4.223270849651e-09,-0.0011089497141384,0.0011089453622953,-0.0011089473385818,0.0011089477586767,-0.0011089472939008,0.0011089479033094,-0.0011089448978602,0.0011089503031105,-0.001014636170087,0.0010146322523296,-0.0010146291205144,0.0010146392810962,3.2070105889241e-09,-4.1975965055618e-09,2.2894366625563e-09,-3.127415390252e-09,-0.0012465605526557,0.0012465597175208,-0.0014224043073436,0.0014224076896021,-0.0014224060400347,0.0014224058734686,-0.0014224066379934,0.0014224052366544,-0.001422408358552,0.0014224034340878,-0.0012657446631581,0.0012657466727198,-0.0012657498741285,0.0012657412866975,-0.0011730434599105,0.0011730480268166,-0.0011730506654381,0.0011730405791403,3.8952993838659e-09,-3.2014629406224e-09,-0.0012465597910378,0.0012465604791401,-2.269719564243e-09,3.0827875945139e-09,-0.0014224053244993,0.0014224065667848,-0.0014224035527483,0.0014224083196748,-0.0014224077072326,0.0014224042057617,-0.0014224059260809,0.001422405974958,-0.0011730479199828,0.001173043464509,-0.0011730409669865,0.0011730503790237,0.56961685233508,131329,3014,0.0039455674199616,0.0051797787112473,0.0051797787112501,30.994878075233,7.9590246018652e-06,7.9590246018652e-06,7.9590246018652e-06,3500425.4280736,0.014409015291712
15019200,0.97128783330624,0.014674526637883,0.0042310273415341,0.0052217496481712,0.0052217496481774,-0.00094708581108326,0.00094708638469093,-3.3823260852304e-09,3.9529352801877e-09,-3.4803453871904e-09,4.2123383149559e-09,-0.0011081322932707,0.001108127897296,-0.0011081298694526,0.0011081303420008,-0.0011081298824812,0.001108130428713,-0.0011081274293032,0.0011081328858637,-0.0010136096589246,0.0010136055634854,-0.0010136024378461,0.0010136127625044,3.316647918641e-09,-4.3144807115906e-09,2.2706574052125e-09,-3.1149613734201e-09,-0.0012458545773602,0.001245853735836,-0.0014219745561254,0.0014219779998648,-0.0014219762832748,0.0014219761893603,-0.001421976964434,0.0014219754687869,-0.0014219786707088,0.0014219736809379,-0.0012649997336152,0.0012650016171269,-0.0012650049005204,0.0012649962764254,-0.0011721832632404,0.0011721880442357,-0.0011721906778603,0.0011721803847869,3.931295693321e-09,-3.2375763550294e-09,-0.0012458538125204,0.0012458545006624,-2.2774523823048e-09,3.0906004198963e-09,-0.0014219755915061,0.0014219768584462,-0.0014219738195705,0.0014219786119686,-0.0014219780037584,0.0014219744685895,-0.0014219762129153,0.0014219762467505,-0.0011721878561853,0.0011721833473269,-0.0011721808484011,0.0011721903207244,0.56737759854195,131329,3014,0.0039412961903419,0.0051768523834533,0.0051768523834257,29.891857645236,-8.6513883811346e-07,-8.6513883811346e-07,-8.6513883811346e-07,3488350.9390485,0.014398747806378
15219200,0.97251000965201,0.014687828885694,0.0042345626856224,0.0052266331000323,0.0052266331000391,-0.00094537942392904,0.00094538000604766,-3.3990311373143e-09,3.9779085380953e-09,-3.6671465952476e-09,4.4091554472394e-09,-0.0011065875510137,0.0011065830147331,-0.0011065851025509,0.0011065854841248,-0.0011065850071691,0.0011065856800971,-0.0011065825481286,0.0011065881429122,-0.0010118595682698,0.0010118555966247,-0.0010118523368293,0.0010118628064018,3.3102349337512e-09,-4.3084638464715e-09,2.2832974784985e-09,-3.1278604905184e-09,-0.0012443854871131,0.0012443846453389,-0.0014207349351119,0.0014207383764603,-0.0014207366606884,0.0014207365676056,-0.0014207373334576,0.0014207358556508,-0.0014207390568725,0.0014207340504136,-0.0012634617419021,0.0012634636849506,-0.0012634669635206,0.00126345828708,-0.0011705676688985,0.001170572455523,-0.0011705750985102,0.0011705647823508,4.0262075477702e-09,-3.3337658606825e-09,-0.0012443847228356,0.0012443854096097,-2.2534757236282e-09,3.0649728180372e-09,-0.0014207359356949,0.0014207372699413,-0.001420734169976,0.0014207390168371,-0.0014207384008901,0.0014207348270245,-0.001420736635673,0.0014207365802209,-0.0011705723826866,0.001170567640566,-0.0011705651547036,0.0011705748279461,0.54391180508617,131329,3014,0.0039342147725631,0.0051707635910788,0.0051707635910651,28.486121062808,-1.2111031497536e-05,-1.2111031497536e-05,-1.2111031497536e-05,3473258.9704581,0.014379213038224
15419200,0.97358980753596,0.014701385558806,0.0042382691984585,0.0052315581801703,0.0052315581801774,-0.00094366982675187,0.0009436704094215,-3.4746932563297e-09,4.0540625043204e-09,-3.6848332840784e-09,4.427595822928e-09,-0.0011049341743725,0.0011049295816013,-0.0011049316826113,0.0011049320941643,-0.0011049316235408,0.0011049322538965,-0.0011049291078547,0.0011049347734539,-0.0010101494359823,0.0010101453069193,-0.0010101420343836,0.0010101526876138,3.4125421008819e-09,-4.4181761217265e-09,2.2664022724911e-09,-3.1173764074436e-09,-0.0012428506959299,0.0012428498476837,-0.0014193359874872,0.0014193394891495,-0.0014193377109004,0.00141933768246,-0.0014193384609146,0.001419336892522,-0.0014193401690663,0.0014193351026424,-0.0012619071155546,0.0012619089319638,-0.0012619122887707,0.0012619035838584,-0.0011689153851734,0.001168920363765,-0.0011689230042777,0.0011689125005673,4.0666289253366e-09,-3.3740725905749e-09,-0.0012428499283803,0.0012428506152341,-2.25682446565e-09,3.0684760587803e-09,-0.0014193370020159,0.0014193383684661,-0.0014193352409078,0.0014193401107265,-0.0014193395012935,0.0014193358913791,-0.0014193377274027,0.0014193376529413,-0.0011689202215546,0.0011689154241786,-0.0011689129370816,0.0011689226702274,0.61487580322238,131329,3014,0.0039271169596838,0.0051644032180788,0.0051644032180805,27.073150233082,-2.3414798135342e-05,-2.3414798135342e-05,-2.3414798135342e-05,3458423.9093867,0.014359108701957
15619200,0.97456316965616,0.014713884150857,0.004241700865221,0.0052360916428146,0.0052360916428216,-0.00094241601747558,0.00094241660311779,-3.489115105105e-09,4.0711630985266e-09,-3.7479920136226e-09,4.4939383170045e-09,-0.001103859376712,0.0011038547448521,-0.0011038568836621,0.0011038572587549,-0.0011038567951239,0.0011038574482387,-0.0011038542580588,0.001103859989053,-0.0010089426168712,0.0010089384731386,-0.0010089351546293,0.001008945914979,3.2624756731485e-09,-4.2581160552495e-09,2.2902935289008e-09,-3.1325185646891e-09,-0.0012417917645567,0.0012417909251383,-0.0014184678680268,0.0014184713001988,-0.0014184696142783,0.0014184694709872,-0.0014184702512673,0.0014184687952633,-0.001418471961642,0.0014184670026222,-0.0012609000139323,0.0012609019504723,-0.001260905193629,0.0012608965936798,-0.0011678233606123,0.0011678279984524,-0.0011678306443684,0.0011678204733945,4.1667833097477e-09,-3.4752242566374e-09,-0.001241791001964,0.0012417916877393,-2.2371484075047e-09,3.0475175531071e-09,-0.0014184688041071,0.0014184702588164,-0.0014184670657846,0.0014184719773708,-0.0014184713794722,0.0014184677050831,-0.001418469609318,0.0014184694642694,-0.0011678281190042,0.001167823141634,-0.0011678206632132,0.0011678305504297,0.62694797076058,131329,3014,0.0039219181015526,0.0051600132332661,0.005160013233283,25.964255932733,-3.2285952538133e-05,-3.2285952538133e-05,-3.2285952538133e-05,3438133.503668,0.014344932975422
15819200,0.97547870642726,0.014726552541361,0.0042452219344125,0.0052406653034707,0.0052406653034779,-0.00094240478481184,0.00094240535675181,-3.5765099044598e-09,4.1452419108815e-09,-3.4734430893155e-09,4.203372244128e-09,-0.001104055324739,0.0011040508052513,-0.0011040527714127,0.0011040533793959,-0.0011040529216931,0.0011040533288967,-0.0011040503386017,0.0011040559158124,-0.0010090412547035,0.0010090367727558,-0.0010090336556206,0.0010090443506589,3.1111480284632e-09,-4.0960395013196e-09,2.2915069799736e-09,-3.1246762668476e-09,-0.0012420189888253,0.0012420181585638,-0.0014188938103361,0.0014188971362358,-0.0014188955477593,0.0014188953159053,-0.0014188960805181,0.0014188947448096,-0.0014188977961251,0.0014188929470251,-0.0012612301155913,0.0012612321813921,-0.0012612353107808,0.0012612268096042,-0.00116805323477,0.0011680575987307,-0.0011680602324232,0.001168050359408,4.2030035413622e-09,-3.5106029564306e-09,-0.0012420182303615,0.0012420189170281,-2.2556066001784e-09,3.0670422380532e-09,-0.0014188946904077,0.0014188961513714,-0.0014188929327939,0.0014188978893195,-0.001418897283041,0.0014188935798362,-0.0014188955075976,0.0014188953443301,-0.0011680578949834,0.0011680528379036,-0.001168050350057,0.0011680603412765,0.6691969997839,131329,3014,0.0039218798258543,0.0051609533602054,0.0051609533602065,25.548098083683,-3.5615215330536e-05,-3.5615215330536e-05,-3.5615215330536e-05,3425300.6278623,0.014346806135345
16019200,0.97634135369399,0.014738454305743,0.004248527521285,0.0052449633922255,0.0052449633922326,-0.00094235716965026,0.00094235772921953,-3.6618491645216e-09,4.2183386661787e-09,-3.2193045878958e-09,3.9345012771279e-09,-0.0011042853556624,0.0011042809358013,-0.0011042827412687,0.0011042835710738,-0.0011042831159964,0.0011042832949091,-0.0011042804893968,0.0011042859253725,-0.0010091035593748,0.0010090987627488,-0.0010090958321091,0.0010091064693319,2.9707157591773e-09,-3.9461054624405e-09,2.2918677712256e-09,-3.1170189595206e-09,-0.0012422164968823,0.0012422156747621,-0.0014193262567464,0.0014193294819511,-0.0014193279832039,0.001419327672557,-0.0014193284207202,0.0014193271972243,-0.0014193301430313,0.0014193253928669,-0.001261544596107,0.0012615467857736,-0.0012615498112086,0.0012615413950258,-0.0011682915535168,0.0011682956697935,-0.0011682982931925,0.001168288690035,4.2409342472522e-09,-3.547336279194e-09,-0.0012422157418995,0.0012422164297474,-2.27507497508e-09,3.0878979764541e-09,-0.0014193270844157,0.0014193285498109,-0.0014193253049504,0.0014193303098901,-0.0014193296934964,0.0014193259617952,-0.0014193279134477,0.0014193277304815,-0.0011682961321498,0.0011682909900928,-0.0011682884891147,0.0011682985944189,0.66742792788234,131329,3014,0.0039216939575522,0.0051617692822693,0.0051617692822745,25.148331691288,-3.8813346469693e-05,-3.8813346469693e-05,-3.8813346469693e-05,3409733.454163,0.014348279807024
16219200,0.97715479075604,0.014749622795636,0.0042516281022941,0.0052489973466677,0.0052489973466746,-0.00094226696777855,0.00094226751814188,-3.735955189457e-09,4.2834014725841e-09,-3.0236038092732e-09,3.7277876087651e-09,-0.0011044593097457,0.0011044549630786,-0.0011044566440037,0.0011044576497519,-0.0011044571980742,0.0011044571934132,-0.0011044545303775,0.0011044598649363,-0.0010091084072501,0.0010091033467897,-0.001009100559342,0.0010091111740632,2.8244751013021e-09,-3.7899383766496e-09,2.2988164974183e-09,-3.1155720412563e-09,-0.0012423549012028,0.0012423540876278,-0.0014196845119712,0.0014196876410948,-0.0014196862351235,0.0014196858348567,-0.0014196865698852,0.0014196854630616,-0.0014196882992549,0.0014196836517767,-0.0012617836206711,0.0012617859403435,-0.0012617888568793,0.0012617805288209,-0.0011684706412388,0.0011684744821835,-0.0011684770994225,0.0011684677858914,4.2882541693669e-09,-3.5939537097694e-09,-0.0012423541501414,0.0012423548386895,-2.2879384641975e-09,3.1015883896331e-09,-0.0014196852825027,0.001419686766186,-0.0014196834893862,0.0014196885404701,-0.0014196879181808,0.0014196841519098,-0.0014196861342453,0.0014196859241214,-0.0011684751314811,0.0011684698912484,-0.0011684673815065,0.0011684776040011,0.66425605250877,131329,3014,0.003921330682154,0.0051623402804098,0.0051623402804104,24.749168296326,-4.2006653629395e-05,-4.2006653629395e-05,-4.2006653629395e-05,3396093.399791,0.014349075872065
16419200,0.97792518147411,0.01475904316183,0.0042541961058473,0.0052524235279878,0.0052524235279947,-0.00094220221058281,0.00094220275776515,-3.771302372213e-09,4.3156288047377e-09,-2.9497611009996e-09,3.649979735801e-09,-0.001104662555987,0.0011046582530567,-0.0011046598856618,0.0011046609443691,-0.0011046605137854,0.0011046604137511,-0.0011046578049821,0.0011046631262969,-0.0010090954165869,0.001009090181883,-0.0010090874476727,0.0010090981296057,2.6316153395869e-09,-3.5836892395846e-09,2.3275087905391e-09,-3.1327528175953e-09,-0.0012425055572783,0.0012425047552861,-0.0014200580002939,0.0014200610418171,-0.0014200597567345,0.0014200592021767,-0.0014200599446499,0.0014200589782861,-0.0014200616707967,0.001420057170189,-0.0012619855107837,0.001261987965634,-0.001261990736665,0.0012619825637444,-0.0011686422202504,0.0011686456092382,-0.0011686482304662,0.0011686393624503,4.3707405049954e-09,-3.6769567816708e-09,-0.0012425048122652,0.0012425055002991,-2.2812167360417e-09,3.0942415523093e-09,-0.0014200586885315,0.0014200602494902,-0.0014200569183046,0.0014200620011183,-0.00142006139748,0.0014200575619756,-0.0014200595999217,0.0014200593481163,-0.0011686465413372,0.0011686411890208,-0.0011686386832835,0.0011686490074712,0.59981698247344,131329,3014,0.0039210724033403,0.0051629621216872,0.0051629621216871,24.411718351378,-4.4706253188973e-05,-4.4706253188973e-05,-4.4706253188973e-05,3385861.9041009,0.014350081210628
16619200,0.9786588702897,0.014769785542183,0.0042572112827892,0.0052562871296938,0.0052562871297005,-0.00094237583450119,0.00094237637534613,-3.8444278366332e-09,4.38250580825e-09,-2.8309285618992e-09,3.5236407796341e-09,-0.0011049657967969,0.0011049615118412,-0.0011049630692203,0.0011049642603455,-0.0011049638250225,0.0011049636014208,-0.0011049610803042,0.0011049663499537,-0.0010093501349859,0.0010093447071514,-0.0010093420603247,0.0010093527606029,2.5615936235043e-09,-3.5083434253438e-09,2.3308731878855e-09,-3.1315935274382e-09,-0.0012428628060356,0.0012428620086231,-0.0014205424480051,0.0014205454360325,-0.0014205441944396,0.0014205436064448,-0.0014205443338208,0.0014205434314494,-0.0014205460715281,0.0014205416117308,-0.0012624052497395,0.0012624077915252,-0.0012624105101301,0.0012624023555159,-0.0011689971768512,0.0011690004610697,-0.0011690030785093,0.0011689943238148,4.417757887529e-09,-3.7231383573259e-09,-0.001242862062898,0.0012428627517611,-2.2950794918675e-09,3.10907709677e-09,-0.0014205431039769,0.0014205446763057,-0.0014205413133676,0.0014205464482473,-0.0014205458329056,0.0014205419685418,-0.0014205440366459,0.0014205437534376,-0.0011690015019277,0.0011689960370267,-0.0011689935213147,0.0011690039791614,0.70235632394735,131329,3014,0.0039217980956788,0.0051644417269564,0.0051644417269574,24.157899509592,-4.673680392326e-05,-4.673680392326e-05,-4.673680392326e-05,3382098.8258019,0.014353820339139
16819200,0.97935800084946,0.014780067742256,0.0042600962505198,0.0052599857458649,0.0052599857458715,-0.00094247614295276,0.00094247668226153,-3.9035772205425e-09,4.4401565044431e-09,-2.7859913490531e-09,3.4767572188065e-09,-0.001105348408328,0.0011053441131409,-0.0011053456413379,0.0011053469011035,-0.0011053464667124,0.0011053461724029,-0.0011053436834301,0.0011053489594897,-0.0010095586949694,0.001009553121592,-0.0010095505071945,0.0010095612883563,2.5152915787822e-09,-3.4594153166779e-09,2.3383658763847e-09,-3.1369634789015e-09,-0.0012431789005341,0.0012431781052858,-0.0014210741864658,0.0014210771488428,-0.0014210759368611,0.0014210753152622,-0.001421076040387,0.0014210751763574,-0.0014210777826507,0.0014210733521043,-0.0012628479948513,0.0012628505838685,-0.0012628532686185,0.0012628451344317,-0.0011693955950444,0.0011693987844223,-0.0011694014039309,0.0011693927404112,4.4760754167332e-09,-3.7812130720656e-09,-0.0012431781583448,0.0012431788474758,-2.3015063066504e-09,3.1158338413267e-09,-0.0014210748124553,0.0014210764191672,-0.001421073017177,0.0014210781958476,-0.0014210775799204,0.0014210736728962,-0.001421075779519,0.001421075461925,-0.0011693999281213,0.001169394352524,-0.0011693918323835,0.0011694024101266,0.7057157220566,131329,3014,0.0039222273684104,0.0051657485671375,0.0051657485671391,23.906064404785,-4.8751484761723e-05,-4.8751484761723e-05,-4.8751484761723e-05,3368698.1077665,0.014356914064692
17019200,0.98002449783988,0.014789665664481,0.0042627815389614,0.0052634420627565,0.0052634420627631,-0.00094253212702134,0.00094253266625496,-3.9587294880315e-09,4.4952457932679e-09,-2.7742434176503e-09,3.4648257311582e-09,-0.0011056883637227,0.0011056840430446,-0.0011056855634096,0.001105686864354,-0.0011056864334224,0.0011056860909383,-0.0011056836099394,0.0011056889182439,-0.0010097085419639,0.0010097028428433,-0.0010097002364885,0.0010097111274543,2.492238505468e-09,-3.4351955659239e-09,2.3462340516097e-09,-3.1439124212234e-09,-0.0012434421995394,0.0012434414051996,-0.0014215490914227,0.0014215520472473,-0.0014215508501099,0.0014215502053674,-0.0014215509330872,0.0014215500871304,-0.0014215526768863,0.0014215482613553,-0.001263221272546,0.0012632238827323,-0.0012632265507339,0.001263218428856,-0.0011697409310688,0.0011697440596259,-0.0011697466831265,0.0011697380725907,4.5375414322828e-09,-3.8426079840814e-09,-0.001243441457752,0.0012434421469869,-2.3053417191576e-09,3.1197839615356e-09,-0.0014215496932368,0.0014215513417862,-0.0014215478987318,0.0014215531177081,-0.0014215525050377,0.0014215485512044,-0.0014215506986378,0.0014215503462379,-0.0011697452874894,0.0011697396044804,-0.0011697370816266,0.0011697477720791,0.69245976427612,131329,3014,0.0039224727750311,0.0051668364118073,0.0051668364118072,23.654302242049,-5.0765582063608e-05,-5.0765582063608e-05,-5.0765582063608e-05,3356672.0826047,0.014359376601193
17219200,0.98064485063611,0.014798344826602,0.0042652006819589,0.0052665720723182,0.0052665720723248,-0.00094181017590453,0.00094181072207222,-4.0070373210839e-09,4.5504274629175e-09,-2.9145006989748e-09,3.613315252817e-09,-0.0011051975398599,0.0011051930962369,-0.0011051947057894,0.0011051959512642,-0.001105195514713,0.0011051952395922,-0.0011051926558252,0.001105198102263,-0.0010090326956556,0.001009026996068,-0.0010090242867164,0.0010090353849746,2.5918687468982e-09,-3.5414630253348e-09,2.3436884774676e-09,-3.1470942201903e-09,-0.0012428730450095,0.0012428722447966,-0.0014211555792665,0.0014211585989703,-0.0014211573389619,0.0014211567561132,-0.0014211574903257,0.0014211565691103,-0.0014211592335121,0.0014211547439061,-0.0012627199144076,0.001262722448645,-0.0012627251910881,0.001262716996886,-0.0011692340411444,0.0011692373641467,-0.0011692399929878,0.0011692311761087,4.6022756211095e-09,-3.9076737706016e-09,-0.0012428723003964,0.0012428729894053,-2.3033766625711e-09,3.1174879330012e-09,-0.001421156190304,0.0014211578840967,-0.001421154397919,0.0014211596577495,-0.0014211590460861,0.0014211550495798,-0.0014211572403681,0.0014211568440739,-0.0011692385579275,0.0011692327483683,-0.0011692302270283,0.0011692410401939,0.67475987660271,131329,3014,0.0039194859987368,0.0051644746157928,0.0051644746157839,22.994416284688,-5.6044669722495e-05,-5.6044669722495e-05,-5.6044669722495e-05,3342179.6488352,0.014351560338639
17419200,0.98121100600091,0.0148059081499,0.0042672959528056,0.0052693060985438,0.0052693060985504,-0.00094042291794527,0.00094042347457141,-4.0558338712946e-09,4.609657643535e-09,-3.1379313748799e-09,3.8493919325423e-09,-0.0011039784401998,0.0011039738187576,-0.0011039755712256,0.0011039767086561,-0.0011039762637067,0.0011039761143278,-0.0011039733676257,0.0011039790141404,-0.001007645016086,0.0010076393707601,-0.0010076364982457,0.0010076478691209,2.78863774013e-09,-3.7513339015265e-09,2.3332031005139e-09,-3.147858701768e-09,-0.0012415821234806,0.0012415813118595,-0.0014199970031808,0.0014200001451269,-0.001419998760815,0.0014199983044839,-0.0014199990506361,0.0014199979781156,-0.0014200007893565,0.0014199961572058,-0.0012614548087375,0.0012614571830991,-0.0012614600729399,0.0012614517443367,-0.0011679819984286,0.0011679857101032,-0.0011679883461067,0.0011679791238996,4.6645912769972e-09,-3.9707494680941e-09,-0.0012415813735054,0.0012415820618311,-2.2959867234757e-09,3.1093608344844e-09,-0.0014199976515307,0.0014199993927031,-0.0014199958651804,0.0014200011598346,-0.0014200005500631,0.0014199965152353,-0.0014199987484977,0.0014199983058383,-0.0011679867722583,0.0011679808373183,-0.0011679783217177,0.0011679892482056,0.64747798567666,131329,3014,0.0039137340627496,0.005159122095879,0.0051591220958716,21.991198370263,-6.4070413037899e-05,-6.4070413037899e-05,-6.4070413037899e-05,3325911.9184111,0.014334870099288
17619200,0.98172811788127,0.014812536474701,0.0042691228033656,0.0052717068356641,0.0052717068356709,-0.00093899045315661,0.00093899101908082,-4.1078054366283e-09,4.6707180427993e-09,-3.3412332433238e-09,4.0638205444542e-09,-0.0011026538321476,0.0011026490445852,-0.0011026509266915,0.0011026519710202,-0.0011026515184807,0.0011026514781317,-0.0011026485833928,0.001102654417034,-0.0010061871042004,0.0010061814927822,-0.0010061784715805,0.0010061901050298,2.9862107189946e-09,-3.9625559234196e-09,2.3213350690286e-09,-3.1475510617122e-09,-0.0012402133286276,0.0012402125052992,-0.0014187205215394,0.0014187237857408,-0.0014187222764326,0.0014187219479238,-0.0014187227062713,0.001418721480603,-0.0014187244397528,0.0014187196651002,-0.0012600802284512,0.0012600824390918,-0.0012600854765137,0.0012600770156484,-0.0011666257027415,0.0011666298040346,-0.0011666324480634,0.0011666228184553,4.7246747624292e-09,-4.0310693818915e-09,-0.0012402125729523,0.0012402132609659,-2.2883928821389e-09,3.1013116452051e-09,-0.0014187212077665,0.0014187229950358,-0.0014187194278039,0.0014187247556299,-0.0014187241476566,0.0014187200764703,-0.0014187223499642,0.0014187218630788,-0.0011666307304976,0.0011666246760067,-0.0011666221650434,0.0011666332005332,0.62390234164438,131329,3014,0.0039077912045272,0.005153447658866,0.0051534476588483,20.979798761422,-7.2161609908622e-05,-7.2161609908622e-05,-7.2161609908622e-05,3312582.696287,0.014317331490998
17819200,0.98220164298047,0.014818383913717,0.0042707270534592,0.0052738284301256,0.0052738284301325,-0.00093757383812572,0.00093757440959711,-4.1777192938962e-09,4.7460126131901e-09,-3.4686782897298e-09,4.1979991648895e-09,-0.0011012968564998,0.0011012919339961,-0.0011012938984557,0.0011012949129868,-0.001101294450959,0.0011012944598718,-0.0011012914720766,0.001101297442571,-0.0010047267420352,0.0010047210940539,-0.0010047179800056,0.0010047298353773,3.1829532306937e-09,-4.1730368035019e-09,2.3044169417532e-09,-3.1424108670846e-09,-0.0012388345810583,0.0012388337459122,-0.0014174029883689,0.0014174063643481,-0.0014174047315897,0.0014174045381775,-0.0014174053031183,0.0014174039280752,-0.0014174070337801,0.0014174021154504,-0.001258670557366,0.0012586726116221,-0.0012586757969442,0.0012586671967667,-0.0011652363182164,0.0011652408279459,-0.0011652434765413,0.0011652334278347,4.7687504442415e-09,-4.0752005430678e-09,-0.0012388338195572,0.0012388345074114,-2.2857643791437e-09,3.0986047013122e-09,-0.0014174037168295,0.001417405530904,-0.0014174019342931,0.0014174072940386,-0.0014174066819644,0.0014174025871775,-0.0014174048903455,0.0014174043673473,-0.0011652416001707,0.0011652354445853,-0.0011652329358346,0.0011652440688481,0.6034162898412,131329,3014,0.0039019114186658,0.0051477327033352,0.0051477327033312,19.990101306936,-8.0079189544514e-05,-8.0079189544514e-05,-8.0079189544514e-05,3302025.4394564,0.014299773506236
18019200,0.98263623295907,0.014823747870315,0.0042722009656236,0.0052757734523425,0.0052757734523493,-0.0009361796234174,0.0009361802008709,-4.2358407232676e-09,4.8101385273345e-09,-3.5883130936746e-09,4.3248865619196e-09,-0.0010999179508766,0.0010999129093785,-0.0010999149505528,0.0010999159306138,-0.001099915461301,0.0010999155194868,-0.0010999124436472,0.0010999185411302,-0.0010032812016872,0.0010032755272459,-0.0010032723250526,0.0010032843822263,3.3131360915957e-09,-4.3129617549275e-09,2.2931307909532e-09,-3.1394812991547e-09,-0.0012374553805872,0.0012374545371246,-0.0014160556395467,0.0014160590906647,-0.0014160573765377,0.0014160572711465,-0.0014160580420652,0.0014160565666834,-0.0014160597695356,0.0014160547570182,-0.0012572472117284,0.0012572491588424,-0.0012572524425189,0.0012572437518437,-0.0011638295203715,0.0011638342965532,-0.0011638369495747,0.0011638266255921,4.8243088462057e-09,-4.1308950960492e-09,-0.0012374546150136,0.0012374553026796,-2.2801118381485e-09,3.0927655172246e-09,-0.0014160563861752,0.0014160582392843,-0.0014160546053804,0.0014160599999361,-0.0014160593869193,0.0014160552599731,-0.0014160576008345,0.001416057034713,-0.0011638349948616,0.0011638287210955,-0.0011638262152179,0.0011638374590618,0.60265704001473,131329,3014,0.0038961223681942,0.0051420164906022,0.0051420164905633,19.018714451565,-8.7850284387476e-05,-8.7850284387476e-05,-8.7850284387476e-05,3293517.6095066,0.014282304106238
18219200,0.98303550938319,0.014828780240868,0.0042735903668041,0.0052775949370284,0.0052775949370359,-0.00093477306950119,0.00093477365180237,-4.2832044113983e-09,4.8622078979745e-09,-3.7013811166711e-09,4.4438072521212e-09,-0.001098512808607,0.0010985076676164,-0.0010985097806775,0.0010985107164656,-0.0010985102485606,0.0010985103489751,-0.0010985071915879,0.0010985134097727,-0.0010018259200239,0.0010018202127682,-0.0010018169287887,0.0010018291829483,3.3895590871869e-09,-4.3944167514781e-09,2.2871944889769e-09,-3.1378581355026e-09,-0.0012360491286315,0.0012360482807536,-0.0014146696201957,0.0014146731232374,-0.0014146713603309,0.001414671300252,-0.0014146720811899,0.0014146705398296,-0.0014146738004842,0.0014146687386049,-0.0012558010895621,0.0012558029544122,-0.0012558062950609,0.0012557975731031,-0.0011623968093482,0.0011624017209034,-0.0011624043749456,0.0011623939117294,4.8909807701889e-09,-4.1982664517241e-09,-0.0012360483612032,0.0012360490481809,-2.2720945521005e-09,3.0840011776457e-09,-0.001414670364815,0.0014146722731656,-0.001414668595696,0.0014146740226871,-0.0014146734158736,0.0014146692437594,-0.0014146716294951,0.0014146710186302,-0.0011624024111777,0.0011623960171325,-0.0011623935181082,0.0011624048692217,0.61338751848545,131329,3014,0.0038902815908929,0.0051361882937638,0.0051361882937616,18.047762895256,-9.561789683795e-05,-9.561789683795e-05,-9.561789683795e-05,3284738.8623496,0.014264555348401
18419200,0.98341199401588,0.014833563545682,0.0042749141083256,0.0052793247186744,0.0052793247186819,-0.00093406811098129,0.0009340686927916,-4.3266242571577e-09,4.9051558653259e-09,-3.6937635837639e-09,4.4356494945703e-09,-0.0010978402913762,0.0010978351268875,-0.0010978372344919,0.0010978382048388,-0.0010978377372763,0.0010978378022484,-0.0010978346513004,0.001097840892124,-0.0010011021376145,0.0010010963402908,-0.0010010930620084,0.0010011053939972,3.3074085554307e-09,-4.306554363327e-09,2.2942660247896e-09,-3.1398515700435e-09,-0.0012353713019067,0.0012353704590665,-0.0014140297746793,0.0014140332297343,-0.0014140315178582,0.0014140314040207,-0.0014140321801326,0.0014140307025986,-0.0014140339022619,0.001414028898448,-0.0012551068614874,0.0012551087983728,-0.0012551120768498,0.0012551034065945,-0.0011617065926739,0.0011617113393057,-0.0011617139920048,0.0011617036973108,4.9644361478834e-09,-4.2720433108328e-09,-0.0012353705371771,0.0012353712237964,-2.2667219193484e-09,3.0781327370696e-09,-0.0014140304695048,0.0014140324299451,-0.0014140287038291,0.0014140341756628,-0.0014140335692926,0.0014140293515972,-0.0014140317867681,0.0014140311231097,-0.0011617121876269,0.0011617056452172,-0.0011617031486683,0.0011617146409084,0.61738403756804,131329,3014,0.0038873551064196,0.0051333788837792,0.0051333788837799,17.475308087423,-0.00010019753530062,-0.00010019753530062,-0.00010019753530062,3279578.0813101,0.014255887620735
18619200,0.9837746138877,0.014838124987131,0.0042761753692813,0.0052809748089209,0.0052809748089286,-0.00093394066557405,0.00093394123753403,-4.4086847387957e-09,4.9774662194707e-09,-3.4989488851604e-09,4.2291281208918e-09,-0.0010977711685938,0.0010977660732887,-0.0010977680577344,0.0010977692050994,-0.0010977687440733,0.0010977686182714,-0.0010977656096936,0.0010977717564905,-0.0010009741862925,0.0010009681025555,-0.0010009649675756,0.0010009773003121,3.2014054599709e-09,-4.1930825051783e-09,2.2949480049836e-09,-3.1342624052071e-09,-0.001235295637515,0.0012352948010506,-0.0014140087285207,0.0014140121115992,-0.0014140104673733,0.0014140102900012,-0.0014140110574501,0.0014140096612143,-0.0014140127808972,0.0014140078557998,-0.0012550252086636,0.0012550272275547,-0.0012550304271035,0.0012550218336932,-0.0011616230990353,0.0011616276470765,-0.0011616302914048,0.0011616202129066,5.0042784424934e-09,-4.3114677895009e-09,-0.0012352948757341,0.00123529556283,-2.2758287873751e-09,3.0878060364099e-09,-0.0014140093782217,0.0014140113570409,-0.0014140076038357,0.0014140131117925,-0.0014140125019333,0.0014140082546774,-0.0014140107159329,0.0014140100294143,-0.0011616286332143,0.0011616220118159,-0.001161619510414,0.0011616310941576,0.61178640741563,131329,3014,0.0038868272501152,0.0051330650651473,0.0051330650651444,17.230579154166,-0.00010215536676667,-0.00010215536676667,-0.00010215536676667,3278192.7328574,0.014254715940356
18819200,0.98412415629947,0.014842830761352,0.0042774907998503,0.0052826699807468,0.0052826699807545,-0.00093383518064201,0.0009338357454751,-4.4647378918221e-09,5.0264906127503e-09,-3.3561689694006e-09,4.0778338259758e-09,-0.0010977114922567,0.0010977064539979,-0.0010977083474358,0.0010977096197757,-0.0010977091664707,0.0010977088996508,-0.0010977059959256,0.0010977120740181,-0.0010008746471838,0.0010008683526403,-0.0010008653226168,0.0010008776563136,3.0352040123e-09,-4.0152248507436e-09,2.3055335408964e-09,-3.1348749999126e-09,-0.0012352378836416,0.0012352370572648,-0.0014139968739614,0.001414000157274,-0.0014139986175981,0.0014139983308497,-0.0014139990899098,0.0014139978206261,-0.0014140008159938,0.0014139960125835,-0.0012549672114568,0.0012549693628448,-0.001254972437381,0.0012549639613052,-0.0011615571088151,0.0011615613215581,-0.0011615639596027,0.0011615542303979,5.0686635273968e-09,-4.375791278286e-09,-0.0012352371268723,0.0012352378140321,-2.2775439092146e-09,3.0896098443342e-09,-0.0014139974525489,0.0014139994741945,-0.0014139956781332,0.0014140012291182,-0.0014140006201461,0.0014139963278357,-0.0014139988319237,0.0014139981048951,-0.0011615625365251,0.0011615557933313,-0.0011615532907278,0.0011615649986528,0.64922937552612,131329,3014,0.0038863901770251,0.0051328256085288,0.0051328256085247,16.993639894007,-0.00010405088084794,-0.00010405088084794,-0.00010405088084794,3277133.5460163,0.01425378688934
19019200,0.98446119576253,0.014847667728439,0.004278854903316,0.0052844064125578,0.0052844064125654,-0.00093371479782817,0.00093371535525532,-4.529664364363e-09,5.0841195671371e-09,-3.2036848127751e-09,3.9164851412144e-09,-0.0010976886512991,0.0010976836688056,-0.0010976854651286,0.0010976868759651,-0.001097686428961,0.0010976860103264,-0.0010976832181613,0.0010976892249799,-0.0010007822027016,0.0010007756780492,-0.0010007727597595,0.0010007851001874,2.8959952398411e-09,-3.8662515613452e-09,2.31234368528e-09,-3.1333595285265e-09,-0.0012351775436822,0.0012351767257318,-0.0014140112774902,0.001414014474275,-0.0014140130223645,0.0014140126466355,-0.0014140133972438,0.001414012234544,-0.0014140151256569,0.0014140104241929,-0.0012549423160531,0.0012549445786196,-0.0012549475487523,0.0012549391701784,-0.0011615245169229,0.0011615284552815,-0.0011615310869652,0.0011615216463845,5.1243224007623e-09,-4.4312718167466e-09,-0.0012351767910222,0.0012351774783885,-2.2819048254622e-09,3.0942137934808e-09,-0.0014140117961081,0.0014140138515373,-0.0014140100182123,0.0014140156100335,-0.0014140150002045,0.0014140106686036,-0.0014140132095745,0.0014140124481218,-0.0011615298613178,0.0011615230108973,-0.0011615205053414,0.0011615323268531,0.68719101663297,131329,3014,0.0038858943234442,0.005132574604466,0.0051325746044593,16.756986229871,-0.00010594411016103,-0.00010594411016103,-0.00010594411016103,3272064.3234885,0.014252776931915
19219200,0.98479672830572,0.014852636760619,0.0042802615995233,0.0052861875805439,0.0052861875805515,-0.00093447952664443,0.0009344800727846,-4.6049090408368e-09,5.1481859031016e-09,-2.9628530013158e-09,3.6620860302561e-09,-0.0010986327790998,0.0010986279009867,-0.0010986295435505,0.00109863115753,-0.0010986307179389,0.0010986300803113,-0.0010986274637882,0.0010986333383314,-0.001001621764342,0.0010016149360001,-0.0010016121938373,0.0010016244852985,2.7103462768477e-09,-3.6683905759875e-09,2.3233920790868e-09,-3.1339783497745e-09,-0.0012360599181256,0.0012360591107519,-0.0014150174124054,0.0014150204927478,-0.0014150191581318,0.0014150186641819,-0.0014150194018005,0.0014150183842118,-0.0014150211371201,0.0014150165669429,-0.001255904357315,0.0012559067785529,-0.0012559096104365,0.001255901349784,-0.0011624718937244,0.0011624754710401,-0.0011624780967705,0.0011624690313463,5.1718271747005e-09,-4.4779002778673e-09,-0.0012360591703613,0.0012360598585162,-2.2937375078936e-09,3.1069608955362e-09,-0.0014150178625404,0.0014150199388865,-0.0014150160735713,0.0014150217086968,-0.0014150210950018,0.0014150167275069,-0.0014150192991578,0.0014150185121561,-0.0011624771039643,0.0011624701616554,-0.0011624676472844,0.0011624795792392,0.70677988522427,131329,3014,0.0038890773002827,0.005136229833328,0.0051362298333281,17.022520553291,-0.00010381983557367,-0.00010381983557367,-0.00010381983557367,3269891.8418754,0.014263424785374
19419200,0.98513592336532,0.014857546390267,0.0042816465204327,0.0052879499349132,0.0052879499349208,-0.00093567622847929,0.00093567676601451,-4.6579651007459e-09,5.1926965031274e-09,-2.7716397437495e-09,3.460394971603e-09,-0.0011000580782426,0.0011000532894518,-0.0011000548094938,0.0011000565791717,-0.0011000561469253,0.0011000553382457,-0.0011000528608127,0.0011000586281302,-0.0010029061211827,0.0010028990595728,-0.001002896456982,0.0010029087030451,2.5068085267067e-09,-3.4513238841119e-09,2.3430319524243e-09,-3.1421533556841e-09,-0.0012374080137944,0.0012374072179686,-0.0014165208094695,0.001416523769698,-0.0014165225637262,0.0014165219322857,-0.0014165226585253,0.0014165218019861,-0.001416524403839,0.001416519974831,-0.0012573421214236,0.0012573447228999,-0.0012573474029767,0.0012573392658895,-0.0011638982631623,0.0011639014309953,-0.0011639040539942,0.001163895404782,5.2399118005854e-09,-4.5456177565566e-09,-0.0012374072716165,0.0012374079601519,-2.3010259939118e-09,3.1147386574309e-09,-0.0014165211796186,0.0014165232959863,-0.0014165193852811,0.0014165250716277,-0.0014165244566425,0.001416520039975,-0.0014165226563743,0.0014165218288728,-0.0011639033329378,0.0011638962612827,-0.0011638937424596,0.0011639058141463,0.69264758648311,131329,3014,0.0038940558635817,0.0051418146865977,0.0051418146866092,17.539178172859,-9.9686574617128e-05,-9.9686574617128e-05,-9.9686574617128e-05,3270203.5779508,0.014279809501527
19619200,0.98547865037822,0.014862375652441,0.0042830033885174,0.0052896861319583,0.0052896861319657,-0.00093687892183956,0.00093687945444284,-4.7156006870771e-09,5.2455621978226e-09,-2.6484038027876e-09,3.3311363305423e-09,-0.0011014730548764,0.0011014683099067,-0.0011014697506244,0.0011014716351662,-0.0011014712088199,0.00110147027293,-0.0011014678844479,0.0011014736011162,-0.0010041849735609,0.0010041777109703,-0.0010041751971563,0.0010041874663892,2.3636895153785e-09,-3.2988885036288e-09,2.3568889020557e-09,-3.1481597783114e-09,-0.0012387626767389,0.0012387618889102,-0.0014180221843915,0.001418025062145,-0.0014180239466606,0.0014180232168854,-0.0014180239370445,0.0014180231919227,-0.0014180256873749,0.0014180213595626,-0.0012587676822396,0.0012587704060764,-0.0012587729795625,0.00125876493291,-0.00116531642927,0.0011653193046414,-0.0011653219267849,0.001165313573411,5.301511928685e-09,-4.6068291456495e-09,-0.0012387619383435,0.0012387626273043,-2.3092555340639e-09,3.1234364376608e-09,-0.0014180224950454,0.0014180246484059,-0.0014180206963762,0.0014180264283423,-0.0014180258143436,0.0014180213500772,-0.0014180240071006,0.0014180231462868,-0.0011653214089417,0.0011653142270024,-0.0011653117015705,0.001165323895695,0.67638954455579,131329,3014,0.0038990582582238,0.0051474269270155,0.0051474269270129,18.061865307631,-9.5505077538951e-05,-9.5505077538951e-05,-9.5505077538951e-05,3272698.8649317,0.01429627318001
19819200,0.98582463636908,0.014867099414005,0.0042843244876528,0.0052913874631725,0.0052913874631799,-0.00093807991477325,0.00093808044340294,-4.7826711255918e-09,5.3087302335237e-09,-2.558208858946e-09,3.2361014705567e-09,-0.0011028632601747,0.0011028585306605,-0.001102859913483,0.0011028618983645,-0.0011028614766412,0.0011028604307659,-0.0011028581078775,0.0011028638033487,-0.0010054525147671,0.0010054450559851,-0.0010054426078615,0.0010054549420254,2.2783532708783e-09,-3.20800603993e-09,2.3650564917276e-09,-3.1516691664393e-09,-0.0012401126872901,0.0012401119041713,-0.001419506842167,0.0014195096707479,-0.001419508609285,0.0014195078205995,-0.0014195085373738,0.0014195078583549,-0.0014195102906088,0.0014195060230809,-0.0012601709371466,0.001260173732883,-0.0012601762429529,0.0012601682512882,-0.0011667124097837,0.0011667151102833,-0.0011667177316908,0.0011667095555333,5.3533428323453e-09,-4.6581233437646e-09,-0.0012401119509768,0.0012401126404835,-2.3189351114182e-09,3.1337539663498e-09,-0.0014195071137192,0.001419509296311,-0.0014195053093943,0.001419511081972,-0.0014195104683254,0.0014195059625796,-0.0014195086534507,0.0014195077664563,-0.0011667173476244,0.0011667100748085,-0.0011667075423729,0.0011667198417202,0.65786895458237,131329,3014,0.0039040522585712,0.0051530201610371,0.005153020161035,18.584773942145,-9.132180846284e-05,-9.132180846284e-05,-9.132180846284e-05,3277012.0746252,0.014312688991071
20019200,0.98616429183595,0.01487191689873,0.0042856793115967,0.005293118793563,0.0052931187935703,-0.00093850649806942,0.00093850702904888,-4.8538695382351e-09,5.3822107065692e-09,-2.6104971812795e-09,3.2911815389573e-09,-0.0011034210637022,0.0011034162510499,-0.0011034176676423,0.00110341966811,-0.0011034192429416,0.0011034181885203,-0.0011034158272939,0.0011034216079718,-0.0010059181816749,0.0010059106227875,-0.0010059081369938,0.0010059206471735,2.4017932985237e-09,-3.33988067253e-09,2.358245848465e-09,-3.1521695638417e-09,-0.0012406455484284,0.0012406447579194,-0.0014201379844334,0.0014201408870678,-0.0014201397481987,0.0014201390401439,-0.0014201397626773,0.0014201389908288,-0.0014201415152086,0.0014201371563899,-0.0012607349290985,0.0012607376293589,-0.0012607402323287,0.0012607321509718,-0.0011672722925967,0.0011672752421427,-0.0011672778684436,0.0011672694323841,5.3976998790915e-09,-4.7023426369544e-09,-0.0012406448083439,0.0012406454980053,-2.3220571460128e-09,3.1370661654879e-09,-0.0014201382795725,0.001420140488666,-0.0014201364719589,0.0014201422777268,-0.0014201416626723,0.0014201371265746,-0.0014201398467434,0.0014201389310391,-0.0011672773981541,0.001167270037278,-0.0011672675033459,0.0011672798951744,0.68048384584411,131329,3014,0.0039058286169119,0.0051552271947455,0.0051552271947484,18.671671974505,-9.0626624203959e-05,-9.0626624203959e-05,-9.0626624203959e-05,3277413.5293223,0.014318970066346
20219200,0.98649520677094,0.014876753935718,0.0042870451674318,0.0052948543841395,0.0052948543841467,-0.00093870503130176,0.00093870557369641,-4.8771934407647e-09,5.4169162343097e-09,-2.8373493501015e-09,3.5316174657459e-09,-0.0011037644886786,0.0011037595157177,-0.0011037610764462,0.0011037629489652,-0.0011037625164962,0.0011037616056459,-0.0011037590780807,0.0011037650478452,-0.0010061604292437,0.0010061529712241,-0.0010061503186415,0.0010061630615056,2.4855769279836e-09,-3.4290963098439e-09,2.3591049861527e-09,-3.157602596057e-09,-0.0012409448938157,0.001240944098624,-0.0014205420742353,0.0014205450352123,-0.0014205438433824,0.0014205431830434,-0.0014205439133494,0.0014205430780629,-0.0014205456645367,0.0014205412448398,-0.0012610815249615,0.0012610841604406,-0.0012610868251733,0.0012610786848666,-0.0011676161863649,0.0011676192885691,-0.0011676219213872,0.0011676133185279,5.4849032989692e-09,-4.7903552782874e-09,-0.0012409441517612,0.0012409448406764,-2.3127562328846e-09,3.1268840905139e-09,-0.0014205423647312,0.0014205446413017,-0.0014205405667319,0.0014205464205177,-0.0014205458096048,0.0014205412175579,-0.0014205439970528,0.0014205430191459,-0.0011676214539913,0.0011676139231833,-0.0011676113952459,0.0011676239421572,0.69908660438153,131329,3014,0.0039066593451816,0.0051564660873586,0.0051564660873542,18.638371132891,-9.0893030936868e-05,-9.0893030936868e-05,-9.0893030936868e-05,3274107.7145513,0.014322328848567
20419200,0.98681755922369,0.014881471994857,0.0042883775458291,0.0052965472245102,0.0052965472245175,-0.0009388808859625,0.00093888143566754,-4.9356066746334e-09,5.4824815452757e-09,-2.9954207082476e-09,3.6984517931306e-09,-0.0011041060140297,0.0011041008982053,-0.0011041025596801,0.0011041043735352,-0.0011041039335813,0.0011041030970068,-0.001104100454389,0.0011041065799991,-0.0010063842791816,0.0010063768170612,-0.0010063740483429,0.0010063870273037,2.6664438880793e-09,-3.6224995768194e-09,2.3483912154396e-09,-3.1575835419813e-09,-0.0012412251636416,0.0012412243576176,-0.0014209382722817,0.0014209413437688,-0.0014209400371574,0.0014209394958882,-0.0014209402356543,0.0014209392614162,-0.0014209419839571,0.0014209374310882,-0.0012614184074139,0.001261420898295,-0.0012614236987935,0.0012614154315308,-0.0011679537438682,0.0011679572098319,-0.0011679598497099,0.0011679508672955,5.5395422621982e-09,-4.8451326058777e-09,-0.0012412244162603,0.0012412251049979,-2.3092127705761e-09,3.1231195359008e-09,-0.0014209385990209,0.0014209409132358,-0.0014209368026535,0.001420942690645,-0.0014209420793026,0.0014209374540538,-0.0014209402698198,0.0014209392524787,-0.0011679592482024,0.0011679516064817,-0.0011679490810171,0.001167961733961,0.69998401652201,131329,3014,0.0039073971427514,0.0051576255506734,0.0051576255506712,18.602124031397,-9.1183007748822e-05,-9.1183007748822e-05,-9.1183007748822e-05,3269472.7459054,0.014325433018599
20619200,0.98713158197964,0.014885558170818,0.0042895118204939,0.0052980231751586,0.0052980231751659,-0.00093902406959403,0.00093902462590773,-5.0016235446575e-09,5.5549802280495e-09,-3.1426219901142e-09,3.8536320182165e-09,-0.0011044194081143,0.0011044141505813,-0.0011044159064174,0.0011044176732485,-0.0011044172259481,0.001104416451667,-0.0011044137018276,0.001104419979566,-0.0010065576510518,0.0010065501639539,-0.0010065472882839,0.0010065605060474,2.8545437418717e-09,-3.8234221535887e-09,2.335761499618e-09,-3.1559076268586e-09,-0.0012414702254726,0.0012414694083853,-0.0014213035575743,0.0014213067415944,-0.0014213053165088,0.0014213048996757,-0.0014213056486213,0.0014213045306836,-0.0014213073934097,0.001421302703905,-0.0012616998600062,0.0012617021996545,-0.0012617051410326,0.0012616967433808,-0.0011682467153437,0.0011682505602591,-0.0011682532062944,0.0011682438309948,5.5869351400253e-09,-4.8926169534399e-09,-0.0012414694726252,0.0012414701612311,-2.3064129047866e-09,3.1201731139708e-09,-0.0014213039242594,0.0014213062707101,-0.0014213021285501,0.0014213080473339,-0.0014213074350637,0.0014213027811369,-0.0014213056286095,0.0014213045763098,-0.0011682524580093,0.0011682447176585,-0.0011682421943505,0.0011682549419055,0.63099125571185,131329,3014,0.0039079991419842,0.0051586390895393,0.0051586390895362,18.565768307852,-9.1473853537181e-05,-9.1473853537181e-05,-9.1473853537181e-05,3265651.1246318,0.014328103315854
20819200,0.98742285952545,0.014889662542522,0.0042906659820367,0.0052994982802391,0.0052994982802463,-0.00093778375497395,0.00093778433428273,-5.0011905570614e-09,5.5778493117382e-09,-3.5742662325024e-09,4.3129070537677e-09,-0.0011031914743919,0.0011031859361266,-0.0011031879645635,0.0011031894673324,-0.0011031889976678,0.0011031885337651,-0.0011031854665428,0.0011031920692771,-0.0010052843069669,0.0010052771233873,-0.0010052739278853,0.0010052874807647,3.0308063335087e-09,-4.0106440192032e-09,2.3268518019442e-09,-3.1561817697454e-09,-0.0012402349954603,0.0012402341689193,-0.0014200882544617,0.0014200915480974,-0.0014200900102593,0.0014200897112138,-0.0014200904689245,0.0014200892169085,-0.0014200922101587,0.0014200873928124,-0.0012604389090789,0.001260441122629,-0.0012604441922177,0.0012604356631226,-0.0011670010625528,0.0011670052646538,-0.0011670079186556,0.0011669981694956,5.6908431629419e-09,-4.999112098204e-09,-0.0012402342388632,0.0012402349254746,-2.2829725862252e-09,3.0937810778764e-09,-0.0014200886344184,0.0014200910648874,-0.0014200868534548,0.0014200928252645,-0.0014200922151968,0.0014200875063491,-0.0014200904265244,0.0014200892865228,-0.0011670071068549,0.0011669991358592,-0.0011669966251841,0.0011670095660263,0.67642718846951,131329,3014,0.00390284997533,0.0051535192855734,0.0051535192854877,17.742056082691,-9.8063551338468e-05,-9.8063551338468e-05,-9.8063551338468e-05,3257777.6544682,0.014312492405357
21019200,0.98769179096615,0.014893323131106,0.0042916905826466,0.0053008162742255,0.0053008162742344,-0.0009363489340459,0.0009363495144166,-5.1220135573547e-09,5.6991144174666e-09,-3.6705620164088e-09,4.410711753313e-09,-0.0011018116999054,0.0011018060177101,-0.0011018081113514,0.0011018096272073,-0.0011018091590837,0.0011018086795615,-0.0011018055454584,0.0011018122970939,-0.0010038222356854,0.001003814870704,-0.0010038116099874,0.0010038254760833,3.4509168844725e-09,-4.4598538652648e-09,2.2855353403328e-09,-3.1398747842815e-09,-0.0012388011825339,0.0012388003308228,-0.0014186979688669,0.0014187015086377,-0.0014186997072806,0.0014186996876176,-0.0014187004704728,0.0014186988847565,-0.0014187021917924,0.0014186970814595,-0.0012590042980531,0.0012590061242772,-0.0012590095108746,0.0012590007363241,-0.0011655883203645,0.0011655933608242,-0.0011655960183786,0.001165585418486,5.6864863402751e-09,-4.9939883181437e-09,-0.0012388004131954,0.0012388011001511,-2.2810116011613e-09,3.0927316992284e-09,-0.0014186984706764,0.0014187009015464,-0.0014186966935703,0.0014187026588823,-0.0014187020500521,0.0014186973437363,-0.0014187002597214,0.001418699122684,-0.0011655947661096,0.0011655868135437,-0.0011655843089767,0.0011655972298529,0.65601666272337,131329,3014,0.0038968957221518,0.0051475757181843,0.0051475757181621,16.83135607041,-0.00010534915143672,-0.00010534915143672,-0.00010534915143672,3244613.6451249,0.014294396308874
21219200,0.9879402625274,0.014896729239912,0.0042926459391669,0.0053020416503684,0.0053020416503771,-0.00093490977808991,0.00093491037250921,-5.1282723011543e-09,5.7192491341295e-09,-3.9707552894457e-09,4.7277320090324e-09,-0.0011003877524095,0.0011003818666996,-0.0011003841523707,0.0011003854876769,-0.0011003850037502,0.0011003847377814,-0.0011003813841463,0.0011003883611907,-0.0010023465821344,0.0010023394198155,-0.001002335939891,0.001002350041636,3.5422362919609e-09,-4.5565861900042e-09,2.2785756151806e-09,-3.1372307981364e-09,-0.0012373462343953,0.0012373453782344,-0.0014172599193752,0.001417263510993,-0.0014172616518721,0.0014172616959514,-0.0014172624801563,0.0014172608275782,-0.0014172642011001,0.0014172590246425,-0.0012575339292491,0.0012575356873841,-0.0012575391408641,0.0012575303005008,-0.0011641388098847,0.0011641440391312,-0.0011641466978944,0.0011641359057719,5.7891113790329e-09,-5.0979372303405e-09,-0.0012373454635282,0.0012373461490921,-2.258527058931e-09,3.0686573633004e-09,-0.0014172604067687,0.0014172629180578,-0.0014172586423144,0.0014172646624934,-0.0014172640523718,0.0014172592940943,-0.0014172622806351,0.0014172610549224,-0.0011641454644146,0.0011641372834729,-0.0011641347943801,0.0011641479098073,0.65967103290727,131329,3014,0.0038909214335892,0.0051415451345287,0.0051415451345092,15.918378612962,-0.0001126529710963,-0.0001126529710963,-0.0001126529710963,3233425.5547118,0.014276102375399
21419200,0.98817332788965,0.014899948224296,0.0042935505141733,0.005303198855057,0.0053031988550656,-0.00093386746615189,0.00093386805897526,-5.2164101253984e-09,5.8057526164487e-09,-3.9615797815158e-09,4.7169332786615e-09,-0.0010993704009805,0.0010993644634707,-0.0010993667444618,0.0010993681411063,-0.0010993676602202,0.0010993673262449,-0.0010993639808991,0.0010993710094818,-0.0010012824236574,0.0010012750764977,-0.0010012716045824,0.0010012858749631,3.6622447161159e-09,-4.6845969792265e-09,2.2599209914976e-09,-3.1253971888248e-09,-0.0012363001061184,0.0012362992430946,-0.001416235694627,0.0014162393536457,-0.0014162374187439,0.0014162375472298,-0.001416238339255,0.0014162365857181,-0.001416240048593,0.001416234794556,-0.0012564816712012,0.001256483304377,-0.0012564868481651,0.0012564779527057,-0.0011631015797821,0.0011631070522334,-0.0011631097079249,0.0011630986780689,5.8182137024475e-09,-5.127061129743e-09,-0.0012362993318804,0.0012363000173349,-2.2550052056389e-09,3.0651118812007e-09,-0.0014162362042122,0.0014162387386035,-0.0014162344435276,0.0014162404788096,-0.0014162398707047,0.0014162350936059,-0.0014162380994755,0.0014162368533411,-0.0011631083822676,0.0011631001479187,-0.001163097661496,0.0011631108265469,0.66373455335005,131329,3014,0.0038865950726721,0.0051372088820146,0.0051372088820187,15.230000363457,-0.00011815999709235,-0.00011815999709235,-0.00011815999709235,3224744.0262103,0.014262917643121
21619200,0.9883924167843,0.014903003614777,0.0042944107816078,0.0053042964165802,0.0053042964165888,-0.00093286087062232,0.00093286145789697,-5.3228462994052e-09,5.9068640780335e-09,-3.8617915694184e-09,4.6110064603883e-09,-0.0010983925185936,0.0010983865776063,-0.0010983887967653,0.0010983903203176,-0.001098389848985,0.0010983893696882,-0.0010983860972985,0.0010983931250224,-0.0010002544991058,0.0010002468650093,-0.001000243466795,0.001000257875954,3.7330458857645e-09,-4.7588107173492e-09,2.2426845182057e-09,-3.1110822099265e-09,-0.0012352878650765,0.0012352869991746,-0.0014152469947964,0.0014152506913435,-0.0014152487115948,0.0014152488917434,-0.0014152496895071,0.0014152478721528,-0.0014152513845642,0.0014152460947834,-0.0012554648216346,0.0012554663632982,-0.0012554699598745,0.0012554610516806,-0.0011621005222983,0.0011621061349774,-0.0011621087836242,0.0011620976272574,5.8307433303819e-09,-5.139993250558e-09,-0.001235287089624,0.0012352877746828,-2.2564357336431e-09,3.0662255412968e-09,-0.0014152475168147,0.0014152500624769,-0.0014152457596011,0.0014152518009625,-0.001415251195762,0.0014152464047157,-0.0014152494203307,0.0014152481690096,-0.0011621074033912,0.0011620991543473,-0.0011620966687459,0.0011621098495697,0.6692085673027,131329,3014,0.0038824171160041,0.0051330130514124,0.0051330130515296,14.565685516496,-0.00012347451586803,-0.00012347451586803,-0.00012347451586803,3216182.7895232,0.014250168679527
21819200,0.98859849482535,0.014905833412998,0.0042952061651291,0.0053053136239301,0.0053053136239384,-0.00093184322919889,0.00093184381631503,-5.3439918528348e-09,5.9277444611816e-09,-3.8689632033005e-09,4.6177876400809e-09,-0.0010974074285087,0.0010974014666056,-0.0010974036897528,0.0010974052262995,-0.001097404751715,0.001097404265271,-0.0010974009886632,0.0010974080321545,-0.00099921395405531,0.00099920629166222,-0.00099920288976586,0.00099921733536791,3.5979738447016e-09,-4.6143711077588e-09,2.2484402014747e-09,-3.1086925147101e-09,-0.0012342613425655,0.0012342604848848,-0.0014142455145842,0.0014142491246796,-0.0014142472299497,0.0014142473266707,-0.0014142481143593,0.001414246401646,-0.0014142498137075,0.0014142446206718,-0.0012544340709072,0.0012544357246045,-0.0012544392185416,0.0012544304027427,-0.0011610880079165,0.0011610933593383,-0.001161096000463,0.0011610851214022,5.9260485118152e-09,-5.2356190946658e-09,-0.0012342605713356,0.0012342612561101,-2.2442928372473e-09,3.0535635237892e-09,-0.0014142459593985,0.001414248573967,-0.0014142442074073,0.0014142503064455,-0.0014142496994364,0.0014142448559082,-0.0014142479347814,0.0014142466088112,-0.0011610948594217,0.001161086405912,-0.0011610839284891,0.0011610972955897,0.65988856243637,131329,3014,0.0038781934983454,0.005128757980058,0.0051287579800478,13.90200280789,-0.00012878397753688,-0.00012878397753688,-0.00012878397753688,3207325.0951355,0.014237253631943
22019200,0.98880425389379,0.014908611616849,0.0042959857283107,0.005306312944265,0.0053063129442733,-0.00093247328123399,0.0009324738554093,-5.3926275661942e-09,5.9634406696869e-09,-3.6082255800088e-09,4.3414517915985e-09,-0.0010981054918799,0.0010980996685262,-0.0010981017245236,0.0010981034569177,-0.0010981029939781,0.0010981022871657,-0.0010980992026093,0.0010981060824333,-0.00099987399647161,0.00099986605940313,-0.00099986284813951,0.00099987718459833,3.2654024333887e-09,-4.2592222711502e-09,2.2695635811671e-09,-3.1101136686865e-09,-0.0012349532380829,0.0012349524002927,-0.0014149863798721,0.0014149897890636,-0.0014149881025348,0.0014149879837154,-0.0014149887522899,0.0014149872948793,-0.0014149904592305,0.0014149855063486,-0.0012551446310623,0.0012551465561907,-0.0012551498001524,0.0012551412110838,-0.0011617938902655,0.0011617985782789,-0.0011618012093154,0.0011617910178958,6.0014206716004e-09,-5.3101517062751e-09,-0.0012349524765501,0.0012349531618281,-2.2488243910467e-09,3.0587015881778e-09,-0.0014149867014216,0.0014149893623742,-0.0014149849460997,0.0014149910983623,-0.0014149904906985,0.0014149855948039,-0.0014149887230402,0.0014149873510113,-0.0011618004822129,0.0011617918866389,-0.0011617894036911,0.0011618029225025,0.64982380145091,131329,3014,0.0038808117869429,0.0051316251368751,0.0051316251368805,14.153523744623,-0.00012677181004301,-0.00012677181004301,-0.00012677181004301,3210725.2648193,0.014245726117442
22219200,0.98901088302566,0.01491137780116,0.0042967609934846,0.0053073084038338,0.0053073084038419,-0.0009332778217122,0.00093327838314502,-5.4457351058247e-09,6.0042898212145e-09,-3.3284062854433e-09,4.0463658614769e-09,-0.0010989800889262,0.0010989744137169,-0.0010989762905085,0.0010989782332485,-0.0010989777820405,0.0010989768391448,-0.0010989739590715,0.0010989806664345,-0.0010007061413138,0.0010006979075938,-0.0010006949011669,0.0010007091263218,2.9395138964713e-09,-3.9113866505654e-09,2.2909910864493e-09,-3.1130917568961e-09,-0.0012358286033465,0.0012358277842862,-0.001415915717743,0.0014159189296195,-0.0014159174492788,0.001415917116291,-0.001415917868316,0.0014159166607461,-0.0014159195829297,0.0014159148645897,-0.001256029717057,0.0012560319085583,-0.0012560349083208,0.0012560265407544,-0.0011626724887005,0.0011626765262998,-0.0011626791454793,0.0011626696309538,6.0717884840297e-09,-5.3801319537795e-09,-0.0012358278507939,0.0012358285367705,-2.2568935253049e-09,3.0674515808421e-09,-0.0014159159207666,0.0014159186239169,-0.001415914159202,0.0014159203642493,-0.0014159197570864,0.0014159148094564,-0.0014159179834383,0.0014159165718652,-0.0011626788216009,0.0011626700944946,-0.0011626676058911,0.0011626812663793,0.6449743659413,131329,3014,0.0038841541237673,0.0051352528384878,0.0051352528383441,14.50001104141,-0.00012399991166872,-0.00012399991166872,-0.00012399991166872,3216493.938476,0.014256475633718
22419200,0.98921831942197,0.014914283489435,0.0042975806179367,0.0053083514357447,0.0053083514357535,-0.00093409280060394,0.00093409334696041,-5.529097433957e-09,6.0726438990738e-09,-3.0256666802539e-09,3.7256166510275e-09,-0.0010998586741306,0.0010998531402921,-0.0010998548244557,0.0010998570109802,-0.0010998565736131,0.0010998553590093,-0.0010998527006293,0.0010998592359044,-0.0010015528379002,0.0010015442351974,-0.0010015414507363,0.0010015556014298,2.7211265819144e-09,-3.6769980290835e-09,2.3050356150902e-09,-3.1135442501221e-09,-0.0012367157901341,0.0012367149848086,-0.0014168537499898,0.0014168568285492,-0.00141685548527,0.0014168550106863,-0.0014168557487693,0.0014168547110227,-0.0014168574688451,0.0014168529091285,-0.0012569290876755,0.0012569314599638,-0.0012569342961328,0.0012569260761989,-0.0011635601179809,0.0011635637229346,-0.0011635663335264,0.0011635572707174,6.113321897683e-09,-5.4211611679534e-09,-0.0012367150442473,0.0012367157306886,-2.270253188147e-09,3.0814939432694e-09,-0.0014168538768615,0.0014168565982116,-0.0014168521064011,0.0014168583493333,-0.0014168577397015,0.0014168527564876,-0.0014168559578562,0.0014168545274031,-0.0011635662710523,0.0011635574714702,-0.001163554974783,0.0011635687275808,0.67139355271371,131329,3014,0.0038875395220913,0.0051389295977069,0.0051389295976929,14.84900182601,-0.00012120798539192,-0.00012120798539192,-0.00012120798539192,3222366.6334651,0.014267368292408
22619200,0.98942631984153,0.014917232081787,0.0042984133652272,0.0053094093582755,0.0053094093582843,-0.00093487450158551,0.00093487503944851,-5.5894380865326e-09,6.1246322248955e-09,-2.8362304965758e-09,3.5258902864132e-09,-0.0011007434420942,0.0011007379920356,-0.0011007395551639,0.0011007418999806,-0.0011007414705688,0.0011007400810243,-0.0011007375601481,0.0011007439953215,-0.0010023765353364,0.0010023676846225,-0.0010023650383608,0.0010023791607898,2.5221066292708e-09,-3.4645886650584e-09,2.3211360328976e-09,-3.1182635082063e-09,-0.0012375807334791,0.0012375799396509,-0.0014177940475631,0.0014177970071517,-0.0014177957898421,0.0014177951822317,-0.0014177959096479,0.0014177950272529,-0.0014177976365549,0.0014177932184788,-0.0012578254791536,0.0012578280202407,-0.0012578307078726,0.0012578226162832,-0.0011644466375709,0.0011644498423995,-0.0011644524486621,0.0011644437965302,6.174563091983e-09,-5.481917530653e-09,-0.0012375799930797,0.0012375806800421,-2.2794179787278e-09,3.0912350478324e-09,-0.0014177940976057,0.0014177968540739,-0.0014177923210382,0.0014177986114798,-0.0014177980012465,0.0014177929713915,-0.0014177962131038,0.0014177947487592,-0.0011644526474302,0.0011644437351424,-0.0011644412318052,0.0011644551107944,0.67880269016515,131329,3014,0.0038907889491831,0.005142513560861,0.0051425135608439,15.187172984788,-0.0001185026161217,-0.0001185026161217,-0.0001185026161217,3225544.6273044,0.014277936468732
22819200,0.98963186089519,0.014920135967774,0.0042992328649612,0.0053104515514019,0.0053104515514106,-0.0009352475558252,0.00093524809093215,-5.6532015086627e-09,6.185678462916e-09,-2.7677046982272e-09,3.4539505918274e-09,-0.0011012184375999,0.0011012129898628,-0.0011012145089041,0.001101216939542,-0.0011012165125228,0.0011012150321206,-0.0011012125606356,0.0011012189878714,-0.0010027799490176,0.0010027709269229,-0.0010027683302188,0.0010027825250274,2.4708910591738e-09,-3.4104037409626e-09,2.3278929108431e-09,-3.1225920783499e-09,-0.0012380227905251,0.0012380219991748,-0.0014183100332232,0.0014183129637224,-0.0014183117790144,0.0014183111352192,-0.0014183118602163,0.0014183110191035,-0.0014183135909377,0.0014183092064735,-0.0012582957335288,0.0012582983233121,-0.0012583009733762,0.0012582929082362,-0.0011649137985725,0.0011649168992466,-0.0011649195066924,0.001164910956827,6.2294808405188e-09,-5.5364368257142e-09,-0.0012380220511645,0.001238022738529,-2.2861111802845e-09,3.0984072507853e-09,-0.001418310052717,0.001418312841267,-0.0014183082714297,0.0014183146034855,-0.0014183139926448,0.0014183089222289,-0.0014183122000221,0.0014183107040699,-0.0011649198075582,0.001164910792797,-0.0011649082846394,0.0011649222761378,0.67691804168813,131329,3014,0.003892342000569,0.0051443446670095,0.0051443446669964,15.303578976682,-0.00011757136818654,-0.00011757136818654,-0.00011757136818654,3225398.4356392,0.014283228365406
23019200,0.98983487196673,0.014922792174193,0.0042999741761315,0.0053114089990266,0.0053114089990353,-0.00093559739643704,0.00093559793047594,-5.7229209180767e-09,6.2542615839547e-09,-2.7427283613254e-09,3.4276066969388e-09,-0.0011016664965989,0.0011016610183186,-0.0011016625213374,0.0011016650146434,-0.0011016645879926,0.001101663044074,-0.0011016605905334,0.0011016670453327,-0.0010031539037444,0.0010031447296287,-0.0010031421510806,0.0010031564615146,2.4924841862198e-09,-3.4338112663788e-09,2.3305272650377e-09,-3.1268928765905e-09,-0.0012384400108947,0.0012384392178569,-0.0014187993396658,0.0014188022851479,-0.0014188010871878,0.0014188004547555,-0.0014188011807798,0.0014188003258566,-0.0014188029144586,0.0014187985104209,-0.0012587332580823,0.0012587358393559,-0.0012587385063541,0.0012587304160259,-0.0011653511668185,0.0011653543090019,-0.0011653569202172,0.0011653483206151,6.2776468418452e-09,-5.584250641682e-09,-0.001238439270513,0.0012384399582366,-2.2928285718669e-09,3.1055408987102e-09,-0.0014187993528676,0.0014188021687146,-0.0014187975666292,0.0014188039362302,-0.0014188033243019,0.001418798218198,-0.0014188015274235,0.001418800003883,-0.0011653572413406,0.001165348135925,-0.0011653456235605,0.0011653597155568,0.63260004243531,131329,3014,0.0038937984376389,0.0051460728613855,0.0051460728613816,15.414793594688,-0.0001166816512425,-0.0001166816512425,-0.0001166816512425,3225554.4951097,0.014288213325064
23219200,0.99003535105301,0.014925540987515,0.0043007470874503,0.0053123969500281,0.0053123969500366,-0.00093597121981382,0.00093597175665881,-5.7686734993373e-09,6.3028481850791e-09,-2.7941628570074e-09,3.4823317640373e-09,-0.0011020688712912,0.0011020633294646,-0.0011020648650616,0.0011020673566804,-0.0011020669279579,0.0011020653900965,-0.0011020628985174,0.0011020694233481,-0.0010035419362939,0.0010035327065293,-0.0010035300900437,0.0010035445320186,2.494738752408e-09,-3.4361398326912e-09,2.3369463904576e-09,-3.1333264141406e-09,-0.0012388651589827,0.0012388643659124,-0.0014192541960291,0.0014192571477095,-0.0014192559483642,0.00141925531254,-0.001419256039231,0.0014192551866814,-0.0014192577765677,0.0014192533674766,-0.0012591542198026,0.0012591568109074,-0.0012591594791945,0.0012591513764176,-0.0011657619941285,0.0011657651345949,-0.0011657677503095,0.0011657591438925,6.3476995149606e-09,-5.654079668159e-09,-0.0012388644184799,0.0012388651064084,-2.2954338509833e-09,3.1083734893824e-09,-0.0014192541896006,0.0014192570509921,-0.0014192524019622,0.0014192588197145,-0.0014192582082966,0.0014192530532963,-0.0014192564091914,0.0014192548414804,-0.0011657681352088,0.001165758896097,-0.0011657563809388,0.001165770610655,0.6590001123384,131329,3014,0.0038953508572503,0.0051478348862183,0.0051478348862043,15.525818420059,-0.00011579345263953,-0.00011579345263953,-0.00011579345263953,3229406.2003931,0.01429336171829
23419200,0.99023415237793,0.014928235874317,0.0043015034836572,0.0053133661953254,0.0053133661953339,-0.00093645187659035,0.00093645241668481,-5.8247311992837e-09,6.3621067209774e-09,-2.859620857134e-09,3.5516220449727e-09,-0.0011026206194003,0.0011026149975845,-0.0011026165747297,0.0011026190632908,-0.0011026186315438,0.0011026171029861,-0.0011026145635349,0.0011026211748433,-0.0010040499856215,0.0010040406906682,-0.0010040380259813,0.0010040526293661,2.5559052750726e-09,-3.5016537649841e-09,2.3391171583807e-09,-3.1392592745723e-09,-0.0012394121396652,0.0012394113427968,-0.001419858125113,0.0014198611181839,-0.0014198598801835,0.0014198592802513,-0.0014198600106019,0.0014198591145197,-0.0014198617505977,0.0014198572927127,-0.0012597168526293,0.001259719405268,-0.0012597221194665,0.0012597139629962,-0.0011663140511829,0.0011663173095206,-0.0011663199315867,0.0011663111938229,6.4072583924189e-09,-5.7134802817463e-09,-0.0012394113971829,0.001239412085273,-2.2990224102964e-09,3.1121691649565e-09,-0.0014198581206353,0.0014198610193472,-0.0014198563306009,0.0014198627904771,-0.0014198621789879,0.0014198569820731,-0.0014198603772812,0.0014198587727409,-0.0011663203076883,0.0011663109550653,-0.001166308437292,0.0011663227857341,0.65256369654286,131329,3014,0.0038973489883768,0.0051501012945517,0.0051501012945394,15.704514719427,-0.00011436388224458,-0.00011436388224458,-0.00011436388224458,3231505.6633893,0.014299987154061
23619200,0.99043548108771,0.014931032061805,0.0043022911227636,0.0053143704695167,0.0053143704695251,-0.00093754235709568,0.00093754289778005,-5.8899398091171e-09,6.4278697212276e-09,-2.8712099152139e-09,3.563898144858e-09,-0.0011037925711756,0.0011037868978116,-0.0011037884825062,0.0011037910075323,-0.0011037905747842,0.0011037890117328,-0.0011037864635945,0.001103793126801,-0.0010051893499699,0.0010051799364838,-0.0010051772630158,0.001005192001988,2.6026682005921e-09,-3.5519816100213e-09,2.3423374013887e-09,-3.1455465664263e-09,-0.0012405965300848,0.0012405957301722,-0.001421106701552,0.0014211097267562,-0.0014211084593711,0.0014211078860808,-0.001421108618837,0.0014211076911221,-0.0014211103623813,0.0014211058657203,-0.0012609268183746,0.0012609293459022,-0.0012609320956156,0.0012609238929417,-0.0011675033596297,0.0011675067081911,-0.0011675093368221,0.0011675004956099,6.4594242501996e-09,-5.7651097096792e-09,-0.0012405957858477,0.0012405964744057,-2.3063561647258e-09,3.1200974091953e-09,-0.0014211066983696,0.001421109626554,-0.0014211049027988,0.0014211114031628,-0.0014211107909089,0.0014211055550984,-0.0014211089844747,0.0014211073504044,-0.0011675097097477,0.0011675002600426,-0.0011674977366491,0.001167512193713,0.66669035276865,131329,3014,0.0039018792284577,0.005155009494051,0.0051550094940434,16.219250049208,-0.00011024599960634,-0.00011024599960634,-0.00011024599960634,3238243.7515325,0.014314540367281
23819200,0.99063930411439,0.014934025311941,0.0043031403238152,0.0053154424940588,0.0053154424940672,-0.000938646942031,0.0009386474844502,-5.9572587279527e-09,6.4968489757234e-09,-2.9037249568722e-09,3.5984121463907e-09,-0.0011050035613711,0.001104997821392,-0.0011049994267604,0.0011050019770422,-0.0011050015420982,0.0011049999583409,-0.0011049973860304,0.0011050041182656,-0.0010063527219443,0.0010063432006344,-0.0010063405034856,0.0010063553982178,2.6759663057591e-09,-3.6305272082168e-09,2.342781008908e-09,-3.1505887077724e-09,-0.0012418044329048,0.0012418036283861,-0.0014223948446223,0.001422397916959,-0.001422396603731,0.0014223960749389,-0.0014223968115697,0.0014223958313668,-0.0014223985574826,0.0014223940035902,-0.0012621741887591,0.0012621766679385,-0.0012621794730957,0.0012621712080603,-0.0011687290311422,0.001168732524104,-0.0011687351591396,0.0011687261604656,6.5088602754335e-09,-5.8141450829764e-09,-0.001241803686148,0.0012418043751365,-2.3129039709596e-09,3.1271210790682e-09,-0.0014223948507613,0.0014223978072122,-0.0014223930501867,0.0014223995888893,-0.0014223989757572,0.0014223937034916,-0.0014223971652467,0.0014223955026836,-0.0011687354997624,0.0011687259570028,-0.0011687234287103,0.0011687379888065,0.70079155754165,131329,3014,0.003906469406229,0.005160014737749,0.0051600147377357,16.741867665231,-0.00010606505867816,-0.00010606505867816,-0.00010606505867816,3243704.2032143,0.014329352368936
24019200,0.99084548020337,0.014937089506192,0.0043040103991479,0.0053165395535179,0.0053165395535263,-0.0009397334003996,0.00093973394816727,-5.9965949802572e-09,6.541519366603e-09,-3.0085177762882e-09,3.709564401001e-09,-0.001106248510891,0.0011062426771837,-0.0011062443491789,0.0011062468599483,-0.0011062464209742,0.0011062448852415,-0.0011062422359677,0.0011062490740964,-0.0010075105654196,0.0010075010365031,-0.0010074982621935,0.00100751331882,2.7032055870259e-09,-3.6595411878706e-09,2.3492738563519e-09,-3.158563622525e-09,-0.0012430096472413,0.0012430088411669,-0.0014237118021759,0.0014237148972509,-0.0014237135670025,0.0014237130494818,-0.0014237137885255,0.0014237127920563,-0.0014237155383226,0.0014237109603914,-0.0012634419200203,0.0012634443906115,-0.0012634472157797,0.0012634389192807,-0.001169980394025,0.0011699839324664,-0.0011699865735439,0.0011699775165852,6.584102490012e-09,-5.8895411400315e-09,-0.0012430088997714,0.001243009588631,-2.3128499886969e-09,3.1269312625434e-09,-0.0014237117940185,0.0014237148016756,-0.0014237099944228,0.0014237165823222,-0.001423715970234,0.0014237106467403,-0.001423714158936,0.0014237124468299,-0.0011699869581648,0.0011699772699665,-0.0011699747416004,0.0011699894463913,0.70866201475286,131329,3014,0.0039109872176042,0.0051650080027958,0.005165008002784,17.264773594578,-0.00010188181124338,-0.00010188181124338,-0.00010188181124338,3246267.1526858,0.014344068760226
24219200,0.99105262019561,0.014940027793068,0.0043048391523205,0.0053175943203697,0.0053175943203781,-0.00094063265411399,0.0009406332081362,-6.0305904088673e-09,6.5817864808821e-09,-3.1359878938695e-09,3.8445632902893e-09,-0.0011073152420781,0.0011073093010204,-0.0011073110541957,0.0011073135099456,-0.0011073130638806,0.0011073115979618,-0.0011073088554276,0.0011073158102432,-0.0010084739984604,0.0010084644948121,-0.0010084616263533,0.0010084768461463,2.7675385758144e-09,-3.7280021767874e-09,2.3527405999738e-09,-3.1655348227722e-09,-0.0012440252094248,0.0012440243997396,-0.0014248444430271,0.0014248475812518,-0.0014248462099279,0.0014248457314588,-0.0014248464725895,0.0014248454326418,-0.0014248482271492,0.0014248435961308,-0.0012645153003188,0.0012645177375301,-0.0012645206105484,0.0012645122520945,-0.0011710446477015,0.0011710483146821,-0.0011710509623907,0.0011710417625878,6.6640829711926e-09,-5.9700234814689e-09,-0.001244024460356,0.0012440251487978,-2.308850415087e-09,3.122400437457e-09,-0.0014248444291633,0.0014248474912393,-0.001424842630943,0.0014248492704073,-0.0014248486573131,0.0014248432843824,-0.0014248468503106,0.0014248450804063,-0.0011710513582264,0.0011710415055636,-0.0011710389805438,0.0011710538426384,0.68010064212804,131329,3014,0.0039147283512782,0.0051692149923155,0.0051692149922937,17.692586208283,-9.8459310333734e-05,-9.8459310333734e-05,-9.8459310333734e-05,3247463.786644,0.014356402518102
24419200,0.99125755087194,0.014942931241367,0.0043056580279528,0.0053186366067029,0.0053186366067112,-0.0009411170275773,0.00094111760072829,-5.9212569778403e-09,6.4928924108291e-09,-3.3246898799181e-09,4.0556336625285e-09,-0.0011079097790113,0.0011079037704559,-0.0011079056356693,0.0011079079363404,-0.001107907448194,0.0011079062216541,-0.0011079033281954,0.0011079103480577,-0.001008998765709,0.001008989693053,-0.0010089866639215,0.0010090017690284,2.8548493476527e-09,-3.8211400356846e-09,2.3811672436062e-09,-3.1991521213144e-09,-0.0012445967623586,0.0012445959482927,-0.0014254970231628,0.0014255002190637,-0.0014254987898523,0.0014254983758151,-0.0014254991004163,0.0014254980374615,-0.0014255008932624,0.0014254961598647,-0.0012651170890664,0.0012651196169313,-0.0012651225483362,0.0012651139758462,-0.0011716396663107,0.0011716435687193,-0.0011716462559389,0.0011716367517718,6.8781989848012e-09,-6.1888464513421e-09,-0.0012445960124622,0.0012445966979306,-2.2729002951915e-09,3.0801460975922e-09,-0.0014254969677429,0.0014255001744595,-0.0014254951707496,0.0014255019501823,-0.0014255013210531,0.0014254958485894,-0.0014254995627471,0.0014254976029658,-0.0011716467812104,0.0011716363966133,-0.0011716338827708,0.0011716492169139,0.67934590502107,131329,3014,0.0039167442827379,0.0051715824203187,0.0051715824197862,17.884930212472,-9.6920558300221e-05,-9.6920558300221e-05,-9.6920558300221e-05,3248325.9191764,0.014363252276304
24619200,0.99146016377887,0.014945945190905,0.0043065137181867,0.0053197157363533,0.0053197157363647,-0.0009415970288647,0.0009415975937384,-6.1870469113462e-09,6.7490084833059e-09,-3.3574380448665e-09,4.0790704795204e-09,-0.0011084893377413,0.001108483152443,-0.0011084850464332,0.001108487464821,-0.0011084870136912,0.0011084855961126,-0.0011084826918884,0.0011084899221973,-0.0010095229143479,0.0010095132401401,-0.0010095102080447,0.0010095259251261,3.0716295979005e-09,-4.0531203019275e-09,2.3251400287878e-09,-3.1559635635864e-09,-0.0012451616168735,0.001245160788995,-0.0014261356791228,0.0014261390036795,-0.0014261374393082,0.0014261371617143,-0.0014261379254903,0.0014261366385506,-0.0014261396613518,0.0014261348200667,-0.0012657163859508,0.0012657185442316,-0.001265721645464,0.0012657131093739,-0.0011722279391664,0.0011722322070038,-0.0011722348608586,0.001172225045634,6.7376879759632e-09,-6.0438759956194e-09,-0.0012451608586401,0.0012451615471668,-2.3088378073545e-09,3.1220139129121e-09,-0.0014261357327047,0.0014261388462632,-0.0014261339394285,0.0014261406199311,-0.0014261400127233,0.0014261345879818,-0.001426138200091,0.0014261363901194,-0.0011722350132481,0.0011722250353709,-0.0011722225085077,0.0011722374966294,0.70944459155777,131329,3014,0.0039187415977861,0.0051739221833093,0.0051739221831795,18.07173628115,-9.5426109750803e-05,-9.5426109750803e-05,-9.5426109750803e-05,3249052.2573965,0.014370026842561
24819200,0.99166042271186,0.014948695140366,0.0043072856248848,0.0053207047577353,0.0053207047577462,-0.00094204884865344,0.00094204941769069,-6.2460743787152e-09,6.8120604754344e-09,-3.4602200236241e-09,4.1869180971144e-09,-0.0011090852142701,0.0011090789223155,-0.0011090808827758,0.0011090832749171,-0.0011090828196216,0.0011090814370754,-0.0011090784581168,0.0011090858026442,-0.0010100188537728,0.0010100091374988,-0.0010100060323822,0.0010100219380686,3.1817078050725e-09,-4.1701716145425e-09,2.3160932944475e-09,-3.1526949854488e-09,-0.0012457079111695,0.0012457070774297,-0.0014267839076425,0.0014267872958505,-0.0014267856630886,0.0014267854582903,-0.0014267862267491,0.0014267848570504,-0.0014267879598449,0.0014267830416899,-0.001266306607086,0.0012663086743787,-0.0012663118567438,0.0012663032492658,-0.0011728165197572,0.0011728210069213,-0.0011728236630736,0.0011728136236645,6.7932630127722e-09,-6.0995493791887e-09,-0.0012457071501747,0.0012457078383813,-2.3038606774319e-09,3.1168103544949e-09,-0.0014267839713888,0.0014267871278115,-0.0014267821810421,0.0014267888985619,-0.0014267882909438,0.0014267828301682,-0.001426786482685,0.0014267846275732,-0.0011728237630257,0.0011728136660944,-0.0011728111434935,0.0011728262425468,0.66112228217209,131329,3014,0.0039206241078198,0.0051761844386299,0.0051761844385396,18.258339694346,-9.3933282445236e-05,-9.3933282445236e-05,-9.3933282445236e-05,3247655.8304102,0.014376529373436
25019200,0.99186057912913,0.014951409338816,0.0043080465387123,0.0053216814000463,0.0053216814000571,-0.00094285337088642,0.00094285394216225,-6.2853908683587e-09,6.8535511043065e-09,-3.5131756358959e-09,4.2425781346208e-09,-0.001109973549653,0.0011099671950008,-0.0011099691893868,0.0011099715763951,-0.0011099711170136,0.0011099697479229,-0.0011099667306207,0.001109974138351,-0.0010108639979939,0.001010854246694,-0.0010108511031053,0.0010108671205676,3.1858170726013e-09,-4.1743603383997e-09,2.3160322619228e-09,-3.1526055866286e-09,-0.0012466054255403,0.0012466045918703,-0.0014277470023133,0.0014277503913515,-0.0014277487557014,0.0014277485556423,-0.001427749321989,0.001427747951719,-0.0014277510571719,0.0014277461344648,-0.0012672217707545,0.0012672238405291,-0.001267227025594,0.0012672184100844,-0.0011737187404613,0.0011737232412406,-0.0011737258974686,0.0011737158442161,6.8697841159285e-09,-6.1764423812779e-09,-0.0012466046648176,0.0012466053525596,-2.2963390325659e-09,3.1088659143392e-09,-0.0014277470393068,0.0014277502499111,-0.0014277452522158,0.0014277520173999,-0.0014277514083628,0.0014277459027869,-0.0014277496073048,0.0014277476930052,-0.0011737260713106,0.0011737158130069,-0.0011737132952281,0.0011737285450697,0.6536253811289,131329,3014,0.0039239675181522,0.0051799032586972,0.0051799032586277,18.629920700922,-9.0960634392624e-05,-9.0960634392624e-05,-9.0960634392624e-05,3252749.0567393,0.014387466350797
25219200,0.99206385831137,0.014954265756284,0.0043088515463316,0.0053227071049711,0.0053227071049818,-0.00094415448889474,0.00094415505828945,-6.3259464675013e-09,6.8923348953706e-09,-3.4754338379701e-09,4.2026628229768e-09,-0.00111136120994,0.0011113548508203,-0.0011113568208858,0.0011113592610255,-0.0011113588012713,0.0011113573796511,-0.0011113543903381,0.0011113617946447,-0.0010122225955459,0.0010122127455038,-0.0010122096292815,0.0010122256904419,3.1029888255061e-09,-4.0855541836866e-09,2.3215525726482e-09,-3.1529720745155e-09,-0.0012480203805228,0.0012480195520271,-0.0014292318748693,0.0014292352122017,-0.0014292336280735,0.0014292333767604,-0.0014292341361905,0.0014292328315166,-0.001429235875312,0.001429231010307,-0.0012686615404687,0.0012686636853892,-0.0012686668077772,0.0012686582422722,-0.001175133761317,0.0011751381038524,-0.0011751407566548,0.0011751308687306,6.9472653487536e-09,-6.2543513759175e-09,-0.0012480196225688,0.0012480203099427,-2.2918476978907e-09,3.103923181748e-09,-0.0014292318600922,0.0014292351227909,-0.0014292300739476,0.0014292368892942,-0.0014292362784481,0.0014292307263385,-0.0014292344826822,0.0014292325115799,-0.0011751410946809,0.0011751306741682,-0.0011751281597556,0.0011751435643784,0.6745467420433,131329,3014,0.0039293724102384,0.0051857667235465,0.0051857667234668,19.270939497988,-8.5832484016095e-05,-8.5832484016095e-05,-8.5832484016095e-05,3261654.2873122,0.014404845769032
25419200,0.99227013939689,0.014957421549983,0.0043097505682178,0.0053238354908771,0.0053238354908877,-0.00094546999260078,0.00094547055772568,-6.3834342283484e-09,6.9455300512363e-09,-3.3953737862497e-09,4.1175084382377e-09,-0.0011127950036298,0.0011127886571262,-0.0011127905764586,0.0011127931054311,-0.0011127926485253,0.0011127911320089,-0.0011127882017169,0.0011127955828497,-0.0010136105900926,0.0010136005753004,-0.0010135975180468,0.001013613625864,3.0423406471636e-09,-4.0207483272699e-09,2.3227929571639e-09,-3.1507148767625e-09,-0.001249461078071,0.0012494602532192,-0.0014307629411563,0.0014307662391302,-0.0014307646929315,0.0014307644050676,-0.0014307651598884,0.001430763901139,-0.00143076689976,0.0014307620791726,-0.0012701495872828,0.0012701517786978,-0.0012701548558503,0.0012701463338513,-0.0011765937107423,0.0011765979375696,-0.0011766005864887,0.0011765908227295,7.0093606134917e-09,-6.3164006693541e-09,-0.0012494603219578,0.0012494610093002,-2.2902929613574e-09,3.1024590622994e-09,-0.0014307628863546,0.0014307661898973,-0.0014307611001495,0.0014307679564735,-0.0014307673445823,0.0014307617533591,-0.0014307655508852,0.0014307635364773,-0.0011766010483136,0.0011765905029049,-0.0011765879896529,0.0011766035175055,0.72789190570056,131329,3014,0.0039348388525199,0.0051917363641071,0.0051917363640403,19.918318570508,-8.0653451435933e-05,-8.0653451435933e-05,-8.0653451435933e-05,3268573.0336936,0.014422504674585
25619200,0.99247920530492,0.014960639466896,0.0043106670960542,0.0053249861854154,0.0053249861854259,-0.00094675543914921,0.00094675599956753,-6.4591883080839e-09,7.0166591819961e-09,-3.3010418987006e-09,4.0176092777061e-09,-0.001114276717783,0.0011142703834758,-0.0011142722429088,0.0011142748794828,-0.0011142744282489,0.0011142727923331,-0.0011142699312054,0.0011142772934179,-0.0010149884654535,0.0010149782334862,-0.0010149752458718,0.0010149914318794,2.9970430921103e-09,-3.9681100520426e-09,2.3222054482038e-09,-3.1433036352403e-09,-0.0012508973193399,0.0012508965013289,-0.0014323400121448,0.0014323432826908,-0.0014323417625917,0.0014323414500166,-0.0014323421994628,0.0014323409762807,-0.0014323439354106,0.0014323391582583,-0.0012716704150252,0.0012716726340975,-0.0012716756720105,0.001271667201159,-0.0011780891267143,0.0011780932629531,-0.0011780959021677,0.0011780862487089,7.0536208968411e-09,-6.3600546662251e-09,-0.0012508965663253,0.0012508972543099,-2.2915977471148e-09,3.1044045075732e-09,-0.0014323399286699,0.0014323432623356,-0.0014323381426853,0.0014323450286957,-0.0014323444173461,0.00143233879523,-0.0014323426212201,0.0014323405806329,-0.0011780964591018,0.0011780858331092,-0.0011780833188051,0.0011780989304801,0.73243474408094,131329,3014,0.0039401849894885,0.0051976862528588,0.0051976862527892,20.565922105678,-7.5472623154576e-05,-7.5472623154576e-05,-7.5472623154576e-05,3271296.6101249,0.01444000475238
25819200,0.99268563209262,0.014963725330652,0.0043115422440319,0.0053260915433047,0.0053260915433151,-0.00094729080741087,0.00094729136517348,-6.5341192864645e-09,7.0889016970368e-09,-3.2533874108949e-09,3.9667841159682e-09,-0.0011149956522966,0.0011149892897748,-0.0011149911184891,0.0011149938447029,-0.0011149933861206,0.0011149916751804,-0.0011149888497159,0.0011149962156244,-0.001015587816668,0.0010155774339373,-0.0010155744825879,0.0010155907475902,3.0891101891744e-09,-4.0658144182413e-09,2.3139588460794e-09,-3.1398916660773e-09,-0.0012515517122603,0.0012515508893466,-0.0014331237841535,0.0014331270995239,-0.0014331255209194,0.0014331252804709,-0.0014331260248723,0.0014331247393193,-0.0014331277667948,0.0014331229154875,-0.0012723907246624,0.001272392892774,-0.0012723959990008,0.0012723874431036,-0.0011788037691586,0.001178808118791,-0.0011788107587983,0.0011788008896403,7.0970316190851e-09,-6.4039935529223e-09,-0.0012515509570205,0.0012515516445484,-2.2857481873442e-09,3.0978904799253e-09,-0.0014331237113224,0.0014331270681878,-0.0014331219198609,0.0014331288403838,-0.001433128219582,0.001433122581899,-0.0014331264371332,0.0014331243531894,-0.0011788112673989,0.001178800521712,-0.001178798012975,0.0011788137344658,0.71386318672881,131329,3014,0.0039424167796013,0.005200395719787,0.0052003957197082,20.805043511603,-7.3559651907175e-05,-7.3559651907175e-05,-7.3559651907175e-05,3269021.4240341,0.01444777059563
26019200,0.99288484792491,0.014966576997823,0.0043123463067287,0.0053271153455419,0.0053271153455522,-0.00094716105009537,0.00094716161233288,-6.5863402683553e-09,7.1455071292209e-09,-3.351095292545e-09,4.0698882582368e-09,-0.0011149952336777,0.0011149887719566,-0.0011149906639638,0.0011149933627192,-0.0011149929002951,0.0011149912248311,-0.0011149883275149,0.0011149958015749,-0.0010154877252622,0.0010154773060222,-0.0010154742838796,0.0010154907268273,3.1720782366796e-09,-4.1555146431117e-09,2.2998331990522e-09,-3.1316243350051e-09,-0.0012514976423203,0.0012514968134754,-0.0014331622634792,0.0014331656216666,-0.0014331639932058,0.0014331638095475,-0.0014331645599285,0.0014331632050215,-0.0014331662940874,0.0014331613890196,-0.0012723716392435,0.0012723737210568,-0.0012723768904232,0.0012723682946383,-0.001178790438018,0.0011787949557157,-0.0011787975938506,0.0011787875594312,7.1592732339994e-09,-6.4668925165197e-09,-0.0012514968844801,0.001251497571283,-2.2731893829189e-09,3.08459704506e-09,-0.0014331621866911,0.001433165593947,-0.0014331604043564,0.0014331673570924,-0.0014331667375339,0.0014331610652012,-0.0014331649631259,0.0014331628279834,-0.0011787980854284,0.0011787872090976,-0.0011787847094919,0.0011788005434284,0.68688291242084,131329,3014,0.0039418846535345,0.0052001696340103,0.0052001696339429,20.675738128577,-7.4594094971383e-05,-7.4594094971383e-05,-7.4594094971383e-05,3263946.1006908,0.01444677469308
26219200,0.9930770409581,0.014969502710052,0.0043131785911982,0.0053281620594219,0.0053281620594321,-0.00094703523070274,0.00094703579808023,-6.6353086592281e-09,7.1995736806131e-09,-3.4594866750862e-09,4.184453558022e-09,-0.0011149441735905,0.0011149376123932,-0.0011149395737641,0.0011149422332542,-0.0011149417703419,0.0011149401356692,-0.0011149371589594,0.0011149447509669,-0.0010153868983141,0.0010153764455472,-0.0010153733436814,0.001015389979784,3.2162557333864e-09,-4.2019420680247e-09,2.2874867704937e-09,-3.1210638048451e-09,-0.0012514319894697,0.0012514311587238,-0.0014331539360493,0.0014331573189031,-0.0014331556623887,0.0014331555101794,-0.0014331562665738,0.0014331548679285,-0.0014331579889198,0.0014331530638082,-0.0012723285709127,0.0012723305863109,-0.0012723337876713,0.001272325194689,-0.0011787439926738,0.0011787485927867,-0.0011787512248985,0.00117874111934,7.2244331459382e-09,-6.5328240000641e-09,-0.0012514312310341,0.001251431917126,-2.2624955267559e-09,3.073031676727e-09,-0.0014331538441137,0.0014331573060938,-0.0014331520735013,0.0014331590576606,-0.0014331584429503,0.0014331527295337,-0.0014331566717383,0.0014331544891284,-0.0011787517432986,0.0011787407428388,-0.0011787382512278,0.0011787541927591,0.72524660714671,131329,3014,0.0039413661605732,0.0051998963181852,0.0051998963181161,20.537681174687,-7.5698550602501e-05,-7.5698550602501e-05,-7.5698550602501e-05,3260909.0037079,0.014445694935471
26419200,0.99326249522515,0.014972411239482,0.004314008938354,0.0053292011505592,0.0053292011505693,-0.00094689247809989,0.00094689304905981,-6.6883864803253e-09,7.2561966529378e-09,-3.5412592276673e-09,4.2705755955823e-09,-0.0011149227435213,0.0011149160969946,-0.0011149181106001,0.0011149207509528,-0.0011149202882304,0.0011149186725715,-0.001114915636745,0.0011149233280272,-0.0010152789607508,0.0010152684496388,-0.0010152652878515,0.001015282101812,3.2536385782523e-09,-4.241351270597e-09,2.2758672553516e-09,-3.1110351435673e-09,-0.0012513580852351,0.0012513572528871,-0.0014331652923146,0.0014331686960175,-0.0014331670149436,0.0014331668910932,-0.0014331676523104,0.0014331662154258,-0.0014331693640564,0.0014331644219645,-0.001272300650371,0.0012723026068998,-0.00127230583549,0.0012722972469685,-0.0011787181076324,0.0011787227790867,-0.0011787254058069,0.0011787152396581,7.2865064703466e-09,-6.5952571542446e-09,-0.0012513573262168,0.0012513580118733,-2.253076661231e-09,3.0631419035292e-09,-0.0014331651854355,0.0014331686981676,-0.0014331634246102,0.0014331704397522,-0.0014331698290546,0.0014331640767717,-0.0014331680609053,0.001433165833408,-0.0011787259530912,0.001178714834288,-0.0011787123492848,0.0011787283957013,0.74502755070757,131329,3014,0.0039407798751444,0.0051995881533062,0.0051995881532399,20.399303230447,-7.6805574156422e-05,-7.6805574156422e-05,-7.6805574156422e-05,3254981.1129384,0.014444477688701
26619200,0.9934455615318,0.014975254026974,0.0043148194546923,0.005330217286136,0.0053302172861459,-0.00094739760402683,0.00094739817394174,-6.7548511991385e-09,7.3217042824012e-09,-3.5193410943689e-09,4.2474578257261e-09,-0.0011155953095049,0.0011155886409186,-0.0011155906406516,0.0011155933308332,-0.0011155928771845,0.0011155911934213,-0.001115588173571,0.001115595901068,-0.0010158455379552,0.0010158348587343,-0.0010158317124067,0.001015848663135,3.1776709739864e-09,-4.1634977963863e-09,2.2666355709366e-09,-3.1006338137004e-09,-0.0012519680531339,0.0012519672220311,-0.0014338886475917,0.0014338920030343,-0.0014338903717312,0.0014338901968109,-0.0014338909650013,0.0014338895657296,-0.0014338926620885,0.0014338877868468,-0.0012729775555723,0.0012729795226877,-0.0012729826988722,0.0012729742043466,-0.0011793935982324,0.0011793981038636,-0.0011794007234608,0.0011793907385914,7.3374302233668e-09,-6.6470557518919e-09,-0.0012519672951855,0.0012519679799441,-2.2529871453775e-09,3.0621425349122e-09,-0.0014338884960107,0.0014338920502516,-0.0014338867434025,0.0014338937834415,-0.0014338931817042,0.0014338873866665,-0.0014338914060547,0.0014338891512506,-0.0011794014008125,0.0011793902035239,-0.0011793877191308,0.0011794038417926,0.73848439628687,131329,3014,0.0039428855005296,0.0052021136563541,0.0052021136562808,20.629889876805,-7.4960880985559e-05,-7.4960880985559e-05,-7.4960880985559e-05,3252655.4514014,0.014451741880038
26819200,0.99362844833523,0.014978019503934,0.0043156052212676,0.0053312071413282,0.0053312071413381,-0.00094826160919417,0.00094826217172014,-6.808444599838e-09,7.3679026760426e-09,-3.3780153870663e-09,4.0973241427953e-09,-0.0011166318815244,0.0011166252593912,-0.0011166271687394,0.0011166299932121,-0.0011166295356998,0.0011166277247756,-0.0011166248095815,0.0011166324548443,-0.001016777130855,0.0010167662799173,-0.0010167632384206,0.0010167801511746,3.1164960181455e-09,-4.0947363178626e-09,2.2757036060545e-09,-3.1027722251445e-09,-0.001252967973619,0.0012529671495373,-0.0014350041324247,0.0014350074455403,-0.0014350058494743,0.0014350056461829,-0.0014350063966863,0.001435005061304,-0.0014350081085298,0.0014350032677391,-0.0012740413932359,0.0012740434513267,-0.0012740465776592,0.0012740380915824,-0.0011804537936582,0.0011804582063001,-0.0011804608225966,0.0011804509376779,7.4046265243307e-09,-6.7144826759868e-09,-0.0012529672193282,0.0012529679037995,-2.2465373657667e-09,3.0554521932975e-09,-0.0014350039405743,0.0014350075331675,-0.0014350021816319,0.0014350092726801,-0.0014350086602655,0.0014350028352223,-0.0014350068999296,0.0014350045843646,-0.0011804616330905,0.001180450268025,-0.0011804477890678,0.0011804640700886,0.72121904766422,131329,3014,0.0039464809930785,0.0052062552747878,0.0052062552747286,21.064588572584,-7.1483291419331e-05,-7.1483291419331e-05,-7.1483291419331e-05,3253804.3693221,0.014463796296849
27019200,0.99381105432627,0.014980698959313,0.0043163634070681,0.0053321677761174,0.0053321677761272,-0.00094913617348353,0.00094913673298664,-6.8775604021624e-09,7.434075803146e-09,-3.3099076852981e-09,4.0255216683116e-09,-0.0011176563614096,0.001117649745639,-0.0011176516116805,0.0011176545163813,-0.0011176540699599,0.001117652156386,-0.0011176492903691,0.0011176569399373,-0.0010177102929162,0.0010176992358247,-0.0010176962440704,0.0010177132637516,2.9934429082335e-09,-3.9602953941758e-09,2.2764541246658e-09,-3.0933796869674e-09,-0.0012539786930926,0.0012539778792019,-0.001436116370965,0.0014361196129724,-0.0014361180935232,0.0014361178081353,-0.0014361185573703,0.0014361173072089,-0.001436120257839,0.0014361155250282,-0.0012751001358961,0.0012751022577332,-0.0012751052877843,0.0012750969308426,-0.0011815082808441,0.0011815124288148,-0.0011815150319163,0.0011815054392458,7.45445673964e-09,-6.7639676270202e-09,-0.0012539779437133,0.0012539786285522,-2.2526280640824e-09,3.0619448394223e-09,-0.0014361161249522,0.0014361197549934,-0.0014361143702822,0.0014361214904436,-0.0014361208859877,0.0014361150157531,-0.0014361191129722,0.0014361167776275,-0.0011815160222246,0.0011815045891007,-0.0011815021056111,0.0011815184638806,0.70228505361572,131329,3014,0.003950118948294,0.0052104419787646,0.0052104419787047,21.504178617047,-6.7966571063625e-05,-6.7966571063625e-05,-6.7966571063625e-05,3256542.507225,0.014475984358642
27219200,0.9939932213009,0.014983284200083,0.0043170914944249,0.0053330963528243,0.0053330963528341,-0.00095001622629124,0.00095001678020658,-6.9307674684584e-09,7.4817564699167e-09,-3.1951196309944e-09,3.9040477634619e-09,-0.0011186571708164,0.0011186505868081,-0.0011186523794114,0.0011186553992207,-0.0011186549498887,0.0011186529265306,-0.0011186501448012,0.0011186577355284,-0.0010186397216676,0.0010186285053003,-0.0010186255976862,0.0010186426083844,2.9363965728489e-09,-3.8963873440192e-09,2.2863603059776e-09,-3.0970371029629e-09,-0.0012549902362241,0.0012549894286537,-0.0014372129407609,0.0014372161457274,-0.0014372146596235,0.0014372143445009,-0.0014372150794083,0.0014372138879281,-0.0014372167926835,0.0014372120929419,-0.0012761442590836,0.0012761464641729,-0.0012761494479137,0.0012761411002465,-0.0011825446621887,0.0011825487175415,-0.0011825513189784,0.0011825418228018,7.5211805735668e-09,-6.8307911144909e-09,-0.0012549894900607,0.0012549901747886,-2.2493358452457e-09,3.0585350459715e-09,-0.0014372126570066,0.0014372163256884,-0.0014372108963844,0.0014372180670472,-0.0014372174544019,0.0014372115498872,-0.0014372156919055,0.0014372133012222,-0.0011825524358806,0.0011825408454705,-0.0011825383647676,0.0011825548754541,0.68191772158085,131329,3014,0.0039537778715072,0.0052146325989036,0.0052146325988445,21.943948411488,-6.4448412708098e-05,-6.4448412708098e-05,-6.4448412708098e-05,3260832.0431585,0.014488200668049
27419200,0.99417335861433,0.014985926407957,0.0043178390778241,0.0053340436650617,0.0053340436650714,-0.00095067574314451,0.00095067629731856,-6.9974399098081e-09,7.5487437523247e-09,-3.1940906744577e-09,3.9032639577889e-09,-0.001119396232355,0.001119389612635,-0.0011193914044324,0.0011193944615899,-0.001119394020026,0.0011193919437761,-0.0011193891623172,0.0011193968054628,-0.0010193369960779,0.0010193256248639,-0.0010193227177195,0.0010193398822498,2.8750876525291e-09,-3.8296932490515e-09,2.2850823918511e-09,-3.0909713601115e-09,-0.0012557588276248,0.0012557580248383,-0.0014380426883837,0.0014380458606955,-0.0014380444129933,0.0014380440538411,-0.0014380447924174,0.001438043638007,-0.0014380464949984,0.0014380418537233,-0.0012769309605599,0.0012769331827151,-0.0012769361187414,0.0012769278496747,-0.0011833189747979,0.0011833228875024,-0.001183325481746,0.001183316143214,7.5717899045453e-09,-6.8811565396264e-09,-0.0012557580837094,0.0012557587687239,-2.2553390303231e-09,3.0648200687036e-09,-0.0014380423694325,0.0014380460760004,-0.0014380406128906,0.0014380478133833,-0.0014380472086098,0.0014380412585574,-0.0014380454338269,0.0014380430223275,-0.0011833267129995,0.0011833150519558,-0.0011833125665926,0.0011833291566012,0.70214877963569,131329,3014,0.0039565191381268,0.0052178169200421,0.0052178169199805,22.252204327633,-6.1982365378933e-05,-6.1982365378933e-05,-6.1982365378933e-05,3264985.4577688,0.014497443035988
27619200,0.99435093807688,0.014988573601277,0.0043185895011293,0.0053349920500688,0.0053349920500785,-0.00095125354432239,0.00095125410289713,-7.079111256981e-09,7.6348412454584e-09,-3.2690459768894e-09,3.9833090683481e-09,-0.0011200755621243,0.0011200688650087,-0.0011200707038642,0.0011200737443881,-0.0011200733241266,0.001120071222278,-0.0011200683849856,0.0011200761655651,-0.0010199577197332,0.0010199461670335,-0.0010199432029062,0.0010199606629369,2.7929602474272e-09,-3.7420653632255e-09,2.2746620251204e-09,-3.0758177079774e-09,-0.0012564461095694,0.0012564453115325,-0.0014388051711322,0.0014388083089587,-0.001438806912638,0.0014388064854036,-0.0014388072449154,0.0014388061174252,-0.0014388089136594,0.0014388043671109,-0.0012776499623023,0.001277652147941,-0.001277655022246,0.0012776469131135,-0.0011840272681083,0.0011840309547478,-0.0011840335363917,0.0011840244501679,7.605583003307e-09,-6.9142249685263e-09,-0.0012564453676136,0.0012564460534467,-2.2707788103543e-09,3.0810613733076e-09,-0.001438804816046,0.0014388085606156,-0.0014388030742366,0.0014388102832617,-0.0014388097030697,0.0014388036956162,-0.0014388078926657,0.0014388054957115,-0.0011840348845024,0.0011840232424877,-0.0011840207451655,0.0011840373384628,0.71252806687797,131329,3014,0.0039589224579261,0.0052206639438439,0.0052206639437578,22.519201389135,-5.9846388886921e-05,-5.9846388886921e-05,-5.9846388886921e-05,3266846.6410136,0.014505659400218
27819200,0.99452589037657,0.0149912276612,0.0043193434491979,0.005335942105996,0.0053359421060057,-0.00095182449170099,0.00095182504983158,-7.1382458729591e-09,7.6934792886358e-09,-3.2683797650064e-09,3.9821552149505e-09,-0.0011207606319152,0.0011207538950581,-0.0011207557337094,0.0011207588142726,-0.0011207583939035,0.0011207562522207,-0.001120753416204,0.001120761233936,-0.0010205767964171,0.0010205651305431,-0.0010205621672205,0.0010205797394153,2.8099826487184e-09,-3.7603189716932e-09,2.2769214795414e-09,-3.0791160075538e-09,-0.001257128856536,0.0012571280573945,-0.0014395702354924,0.0014395733859345,-0.0014395719774032,0.0014395715616153,-0.0014395723206036,0.001439571182198,-0.0014395739929941,0.0014395694283445,-0.001278372607909,0.001278374788354,-0.0012783776763036,0.0012783695452585,-0.0011847394165581,0.0011847431402254,-0.001184745724291,0.0011847365955477,7.6640036176562e-09,-6.9723623867034e-09,-0.0012571281139308,0.0012571287999686,-2.2719798414283e-09,3.0826078811217e-09,-0.0014395698680943,0.0014395736498803,-0.0014395681239016,0.001439575374528,-0.001439574792558,0.0014395687466843,-0.0014395729829751,0.0014395705459493,-0.0011847471089563,0.0011847353497925,-0.0011847328524442,0.0011847495650795,0.72383355993953,131329,3014,0.0039612981574785,0.0052234919264359,0.0052234919263712,22.7851905879,-5.7718475296796e-05,-5.7718475296796e-05,-5.7718475296796e-05,3267849.56952,0.014513809748845
28019200,0.99469815954087,0.014993890317492,0.0043201014673968,0.0053368944250427,0.0053368944250524,-0.00095238896225266,0.00095238951673618,-7.1702561704782e-09,7.721825319684e-09,-3.2000745200377e-09,3.9095849125116e-09,-0.001121453040208,0.0011214462991493,-0.0011214480941926,0.001121451266155,-0.0011214508214056,0.0011214486367483,-0.0011214458514356,0.0011214536106351,-0.0010211941842251,0.0010211824886906,-0.0010211795765243,0.0010211970758746,2.9068252267071e-09,-3.8634960272307e-09,2.2920490014465e-09,-3.0996846316959e-09,-0.0012578088068805,0.0012578080023207,-0.0014403403580268,0.0014403435543361,-0.001440342084131,0.0014403417456395,-0.0014403424820987,0.0014403413110163,-0.0014403441940117,0.0014403395176031,-0.0012791005091834,0.0012791027324383,-0.0012791056930043,0.0012790973736898,-0.0011854577785209,0.0011854617621937,-0.0011854643634182,0.0011854549392539,7.7507303305676e-09,-7.0596229619527e-09,-0.001257808061857,0.0012578087473158,-2.259211143768e-09,3.0692011894516e-09,-0.0014403399941501,0.0014403438146351,-0.0014403382309922,0.001440345558019,-0.0014403449490074,0.0014403388807878,-0.0014403431757167,0.001440340643534,-0.001185465730924,0.0011854537106853,-0.0011854512233615,0.0011854681783554,0.73612509290366,131329,3014,0.0039636478457948,0.0052263080442253,0.0052263080441665,23.051142570723,-5.5590859434218e-05,-5.5590859434218e-05,-5.5590859434218e-05,3268006.3073936,0.014521910264971
28219200,0.99486702633508,0.01499655288839,0.0043208611169731,0.0053378458857035,0.0053378458857131,-0.00095282761737619,0.00095282817164421,-7.2128237434504e-09,7.7641632453777e-09,-3.1974656087381e-09,3.9067551075485e-09,-0.0011220302962899,0.0011220235151011,-0.0011220253087124,0.0011220285236364,-0.001122028065938,0.0011220258642131,-0.0011220230807813,0.0011220308532414,-0.0010216860149181,0.0010216742707991,-0.0010216713618628,0.0010216889033291,2.9835139313125e-09,-3.9459559272661e-09,2.2994293519795e-09,-3.1121101067581e-09,-0.001258358730316,0.0012583579206426,-0.0014409864094494,0.0014409896462442,-0.0014409881296235,0.0014409878434772,-0.001440988572434,0.001440987363618,-0.0014409903032014,0.0014409855512399,-0.001279703442073,0.0012797056629941,-0.0012797086815808,0.001279700249063,-0.0011860549268946,0.0011860590895253,-0.0011860617019303,0.0011860520756613,7.8254994266583e-09,-7.1346435555368e-09,-0.0012583579828523,0.001258358668078,-2.2532235295678e-09,3.0629186528788e-09,-0.0014409860452555,0.0014409899065715,-0.0014409842738122,0.0014409916585184,-0.0014409910372778,0.0014409849358418,-0.0014409892801226,0.0014409866818886,-0.0011860630617963,0.0011860508549643,-0.0011860483719672,0.001186065505088,0.74948916767469,131329,3014,0.003965475969475,0.0052285850431285,0.0052285850430698,23.250958230763,-5.3992334153895e-05,-5.3992334153895e-05,-5.3992334153895e-05,3266547.0993364,0.014528388233375
28419200,0.99503239845015,0.014999216340627,0.0043216227561851,0.0053387967922163,0.0053387967922258,-0.00095324135208621,0.00095324191009203,-7.2821689293261e-09,7.8372004206127e-09,-3.2694152288737e-09,3.9831082308365e-09,-0.0011225963120379,0.0011225894477228,-0.0011225912875973,0.001122594493146,-0.0011225940427397,0.0011225918361055,-0.0011225889991086,0.0011225968836298,-0.0010221562305565,0.0010221443685691,-0.0010221414063794,0.0010221591719335,2.9928511724576e-09,-3.9571443615443e-09,2.2941667149227e-09,-3.1085703463191e-09,-0.0012588856562419,0.0012588848448537,-0.0014416165608847,0.0014416198096863,-0.0014416182891774,0.001441617998923,-0.0014416187406396,0.0014416175103608,-0.0014416204571814,0.0014416157121336,-0.0012802901237726,0.0012802922961553,-0.0012802953226584,0.0012802869226805,-0.0011866388546432,0.0011866430047892,-0.001186645616051,0.0011866360048345,7.8720046520732e-09,-7.1805593317825e-09,-0.0012588849076427,0.0012588855934267,-2.2612493158856e-09,3.0716148419809e-09,-0.0014416161844998,0.0014416200820888,-0.0014416144185587,0.0014416218287278,-0.001441621218124,0.0014416150700186,-0.0014416194440877,0.0014416168328677,-0.0011866470091524,0.0011866347514266,-0.0011866322612813,0.0011866494582005,0.7640241632222,131329,3014,0.0039672015142442,0.0052307664573764,0.0052307664573222,23.441576901739,-5.2467384786089e-05,-5.2467384786089e-05,-5.2467384786089e-05,3264169.7409045,0.014534568701642
28619200,0.99519428099284,0.015001841791743,0.0043223738975193,0.005339733947107,0.0053397339471165,-0.00095364300855537,0.00095364356783297,-7.3373591588613e-09,7.8936426614881e-09,-3.2976146675178e-09,4.0128601840524e-09,-0.0011231665494493,0.0011231596264514,-0.0011231614841544,0.0011231647127285,-0.0011231642574322,0.0011231620376473,-0.0011231591803632,0.0011231671186047,-0.0010226161380662,0.001022604198405,-0.0010226012155571,0.0010226191002714,3.0416282370791e-09,-4.0100853417006e-09,2.2964451166206e-09,-3.1145145544862e-09,-0.0012594042572599,0.0012594034421454,-0.0014422471123506,0.0014422503907733,-0.0014422488394282,0.0014422485812046,-0.0014422493224913,0.001442248060811,-0.0014422510458561,0.0014422462557614,-0.001280873892868,0.0012808760466406,-0.0012808791110256,0.0012808706540786,-0.0011872243225833,0.0011872285780249,-0.0011872311957578,0.0011872214658142,7.9334498107893e-09,-7.2419472142484e-09,-0.0012594035067621,0.0012594041926164,-2.2612762441806e-09,3.0716826399391e-09,-0.0014422467320763,0.0014422506669677,-0.0014422449621309,0.0014422524175416,-0.0014422518028656,0.0014422456177283,-0.0014422500328622,0.0014422473764954,-0.0011872325955953,0.0011872202059032,-0.001187217715769,0.0011872350446171,0.76896079201901,131329,3014,0.0039688778467009,0.005232913058777,0.0052329130587216,23.631959304692,-5.0944325562467e-05,-5.0944325562467e-05,-5.0944325562467e-05,3261087.2544271,0.014540629137345
28819200,0.99535270432511,0.015004339257606,0.0043230857548042,0.0053406267513963,0.0053406267514058,-0.00095403778827225,0.00095403835028472,-7.4037123240824e-09,7.9626870322593e-09,-3.3534353909389e-09,4.0719251866865e-09,-0.0011237335886283,0.001123726592206,-0.0011237284857866,0.0011237317160334,-0.0011237312658817,0.0011237290343713,-0.0011237261358644,0.0011237341682915,-0.0010230657776207,0.0010230537242351,-0.0010230507002059,0.0010230687808357,3.0508766898749e-09,-4.0208336505641e-09,2.2930093838882e-09,-3.112485225456e-09,-0.0012599166513469,0.0012599158348501,-0.0014428730053947,0.0014428762945472,-0.0014428747383908,0.0014428744790663,-0.0014428752294645,0.0014428739506134,-0.0014428769431436,0.0014428721552536,-0.0012814480483981,0.0012814501667872,-0.0012814532389157,0.001281444801531,-0.0011878041870374,0.001187808439927,-0.001187811057166,0.0011878013306797,7.9833007232899e-09,-7.2912750122592e-09,-0.0012599158999139,0.001259916586258,-2.2679415531776e-09,3.078953136154e-09,-0.0014428726122392,0.0014428765835423,-0.001442870845397,0.0014428783310544,-0.001442877723755,0.0014428714936542,-0.0014428759412535,0.0014428732649635,-0.0011878124934172,0.0011878000344199,-0.0011877975388686,0.0011878149476061,0.74978434603685,131329,3014,0.0039705257875183,0.0052350338475508,0.0052350338474989,23.824555672746,-4.9403554618035e-05,-4.9403554618035e-05,-4.9403554618035e-05,3258177.000562,0.014546608378851
29019200,0.99550881164827,0.015006658649756,0.0043237417384361,0.0053414584556554,0.0053414584556648,-0.00095465319086368,0.00095465375165387,-7.4573090766207e-09,8.0150271174821e-09,-3.3401907043491e-09,4.0573069464696e-09,-0.0011244985174647,0.0011244914907462,-0.0011244933760392,0.0011244966531559,-0.0011244962008141,0.0011244939267334,-0.0011244910389411,0.0011244990924983,-0.0010237329308199,0.0010237207730249,-0.0010237177594319,0.0010237359234521,3.0583161325404e-09,-4.0285772942878e-09,2.2993553457882e-09,-3.1190558756476e-09,-0.0012606581163274,0.0012606572996327,-0.0014437139002615,0.0014437171957002,-0.0014437156340167,0.0014437153793837,-0.00144371612637,0.0014437148496544,-0.0014437178479995,0.0014437130463495,-0.0012822370003766,0.0012822391358222,-0.0012822422134258,0.0012822337477968,-0.0011885942633051,0.0011885985371442,-0.0011886011591204,0.0011885914022146,8.0477280487852e-09,-7.3554958521213e-09,-0.0012606573647084,0.0012606580512292,-2.268695231918e-09,3.0799307861992e-09,-0.0014437134906541,0.0014437175011354,-0.0014437117197013,0.0014437192526915,-0.0014437186416762,0.0014437123716785,-0.0014437168622531,0.0014437141399183,-0.0011886026480028,0.0011885900532469,-0.00118858755703,0.0011886051029538,0.71130253462297,131329,3014,0.0039730882044663,0.0052381043344509,0.0052381043344041,24.140405288407,-4.6876757692742e-05,-4.6876757692742e-05,-4.6876757692742e-05,3258529.6039265,0.014555441394811
29219200,0.99566255526278,0.015008884643847,0.0043243691923612,0.0053422577257383,0.0053422577257477,-0.00095529052915498,0.0009552910900429,-7.5247373421159e-09,8.0825371683905e-09,-3.3451620034499e-09,4.062397581366e-09,-0.0011252288205456,0.0011252217498166,-0.0011252236384112,0.0011252269529718,-0.0011252265048369,0.0011252241849048,-0.0011252212936048,0.0011252294000397,-0.0010244088839026,0.0010243965847428,-0.0010243935677313,0.0010244118798727,3.0396721296595e-09,-4.0084512848662e-09,2.2995740040495e-09,-3.118003403438e-09,-0.0012614095675421,0.0012614087521456,-0.00144453146972,0.0014445347574082,-0.0014445332075874,0.0014445329369924,-0.0014445336871334,0.0014445324201229,-0.0014445354040464,0.0014445306215557,-0.0012830089652899,0.0012830111014004,-0.0012830141646928,0.0012830057268226,-0.0011893589676665,0.0011893631920942,-0.0011893658124585,0.0011893561083276,8.0978942375367e-09,-7.4051491097778e-09,-0.0012614088163156,0.0012614095033509,-2.2757793790315e-09,3.087617053742e-09,-0.0014445310397185,0.0014445350832513,-0.0014445292682468,0.0014445368353889,-0.0014445362282765,0.0014445299162782,-0.0014445344394772,0.001444531693905,-0.0011893673673254,0.0011893546932105,-0.0011893521914703,0.0011893698278194,0.69516967198403,131329,3014,0.0039757384312038,0.0052412171133066,0.0052412171132628,24.459149119642,-4.4326807042862e-05,-4.4326807042862e-05,-4.4326807042862e-05,3261927.054972,0.014564447178828
29419200,0.99581386303537,0.015010917033868,0.0043249357830464,0.0053429906254059,0.0053429906254153,-0.00095593057164923,0.0009559311312997,-7.574269042427e-09,8.1308637546641e-09,-3.3229998888697e-09,4.0388052302726e-09,-0.0011259363058118,0.0011259292113756,-0.0011259310859561,0.0011259344522297,-0.0011259340001781,0.001125931636251,-0.0011259287614733,0.0011259368788627,-0.0010250785385236,0.0010250661422433,-0.0010250631416898,0.0010250815183659,3.0453093719079e-09,-4.0140785276931e-09,2.3072880522504e-09,-3.1256483199896e-09,-0.0012621578753617,0.0012621570600004,-0.0014453330056052,0.0014453362971504,-0.0014453347433663,0.0014453344768102,-0.0014453352217402,0.0014453339611331,-0.0014453369490303,0.0014453321521828,-0.001283762910077,0.0012837650727352,-0.0012837681398334,0.0012837596679437,-0.001190101430085,0.001190105676236,-0.0011901083015296,0.0011900985656099,8.1662643117602e-09,-7.4735378359609e-09,-0.0012621571241475,0.0012621578111951,-2.2746530017945e-09,3.0864613965171e-09,-0.0014453325568697,0.0014453366417616,-0.0014453307809215,0.0014453383983036,-0.0014453377859209,0.001445331434266,-0.0014453360031239,0.0014453332058408,-0.0011901099156892,0.0011900970911149,-0.001190094590512,0.0011901123755245,0.65089857796524,131329,3014,0.0039783981978346,0.0052443173839113,0.0052443173838707,24.777999175699,-4.1776006594408e-05,-4.1776006594408e-05,-4.1776006594408e-05,3266568.2355821,0.014573436541396
29619200,0.99596258435983,0.01501288355245,0.0043254829286176,0.0053437003119115,0.0053437003119208,-0.00095657642483683,0.00095657698476738,-7.6450403218248e-09,8.2019289943757e-09,-3.3316359901604e-09,4.0477967524995e-09,-0.0011265811340145,0.001126573993734,-0.0011265758738382,0.0011265792749367,-0.0011265788295648,0.0011265764175422,-0.0011265735367056,0.0011265817142723,-0.0010257420208128,0.0010257294711656,-0.0010257264648184,0.0010257450066342,3.0224352094834e-09,-3.9894204601566e-09,2.3056033911412e-09,-3.1223758594005e-09,-0.0012628965429114,0.0012628957290756,-0.0014460857430003,0.001446089025517,-0.0014460874861621,0.0014460871997537,-0.0014460879503103,0.001446086698344,-0.0014460896689212,0.0014460848981163,-0.0012844802043845,0.001284482358751,-0.0012844854087434,0.0012844769801931,-0.001190793788155,0.0011907979699756,-0.0011908005920278,0.0011907909271407,8.2129993772125e-09,-7.5197098051448e-09,-0.001262895792173,0.001262896479797,-2.2821903769153e-09,3.0946035740439e-09,-0.0014460852730895,0.0014460893913009,-0.0014460834989947,0.0014460911460517,-0.0014460905400821,0.0014460841458234,-0.0014460887450364,0.0014460859297198,-0.0011908022738853,0.0011907893849842,-0.0011907868785752,0.0011908047394872,0.64191386474082,131329,3014,0.0039810782637279,0.0052473788151618,0.0052473788151268,25.08761933211,-3.9299045343116e-05,-3.9299045343116e-05,-3.9299045343116e-05,3274334.5389752,0.014582365372001
29819200,0.99610816935345,0.015014933587185,0.0043260588101115,0.0053444373885324,0.0053444373885416,-0.00095713282442082,0.00095713338540552,-7.7265266335915e-09,8.2844110084598e-09,-3.34397716594e-09,4.0612875813345e-09,-0.0011271156632536,0.0011271084826618,-0.0011271103695633,0.0011271137975732,-0.0011271133712463,0.001127110893991,-0.0011271080036125,0.0011271162658944,-0.0010263166423935,0.0010263038831555,-0.0010263008663469,0.0010263196375218,3.0203019685757e-09,-3.9873752512025e-09,2.2976190210872e-09,-3.1144450290336e-09,-0.0012635347974503,0.0012635339835209,-0.001446726457249,0.0014467297541367,-0.0014467282159975,0.0014467279132367,-0.0014467286848368,0.0014467274079208,-0.0014467303775637,0.0014467256338042,-0.0012850969293798,0.0012850990115271,-0.0012851020588185,0.0012850937077855,-0.0011913763957094,0.001191380521096,-0.0011913831387921,0.0011913735389484,8.2483808455683e-09,-7.5550369827473e-09,-0.0012635340464572,0.0012635347344563,-2.2930133803093e-09,3.1055510438121e-09,-0.0014467259755711,0.0014467301319145,-0.0014467242148863,0.0014467318732603,-0.0014467312877017,0.0014467248423001,-0.0014467294648082,0.0014467266542921,-0.0011913848571139,0.0011913719647238,-0.0011913694501102,0.0011913873286851,0.67837703933634,131329,3014,0.0039833860311848,0.0052500244224875,0.0052500244223693,25.339857631715,-3.7281138946284e-05,-3.7281138946284e-05,-3.7281138946284e-05,3281591.5768626,0.014590072438553
30019200,0.99625058918956,0.015016972913206,0.0043266328362488,0.0053451700384737,0.0053451700384832,-0.00095766918604725,0.00095766974565717,-7.7516349203741e-09,8.3081340993533e-09,-3.3300509863164e-09,4.0458192169119e-09,-0.0011276869530828,0.0011276797341453,-0.0011276816132894,0.0011276850948818,-0.0011276846410801,0.0011276821654156,-0.0011276792861558,0.0011276875242682,-0.001026886372282,0.0010268736395375,-0.0010268706345623,0.001026889356514,3.0422693892706e-09,-4.0108503749286e-09,2.3118518860927e-09,-3.1299823423624e-09,-0.001264164714867,0.0012641638996324,-0.0014473930348496,0.0014473963256082,-0.0014473947738672,0.0014473945039472,-0.00144739524712,0.0014473939934927,-0.0014473969791377,0.0014473921798617,-0.0012857347343431,0.001285736913677,-0.0012857399784635,0.0012857314949574,-0.0011919839426574,0.0011919881858702,-0.0011919908139833,0.0011919810753316,8.3412400681357e-09,-7.6479680687665e-09,-0.0012641639634064,0.0012641646510669,-2.2802273790305e-09,3.0925746155272e-09,-0.0014473925299838,0.0014473967263392,-0.0014473907484462,0.0014473984884572,-0.0014473978737444,0.0014473914041675,-0.0014473960888128,0.001447393177937,-0.0011919925989082,0.0011919794302959,-0.0011919769252531,0.0011919950630956,0.68873090558452,131329,3014,0.0039856138674768,0.0052526346116328,0.0052526346115785,25.590744373983,-3.5274045008135e-05,-3.5274045008135e-05,-3.5274045008135e-05,3285255.1529493,0.014597629162851
30219200,0.99638982992639,0.015018872606067,0.0043271636886989,0.0053458544586794,0.0053458544586889,-0.00095819355562258,0.0009581941154796,-7.822108358606e-09,8.3788735626347e-09,-3.3375522163355e-09,4.0536561422639e-09,-0.0011282651640957,0.00112825790417,-0.0011282597882813,0.0011282633009623,-0.0011282628581437,0.0011282603294589,-0.001128257444716,0.0011282657467823,-0.0010274454860751,0.0010274325867599,-0.0010274295763873,0.0010274484756745,3.0401521958122e-09,-4.0087306036788e-09,2.3079508663572e-09,-3.1261003730543e-09,-0.0012647855846201,0.0012647847694192,-0.0014480628489503,0.001448066146878,-0.0014480645965906,0.0014480643166005,-0.0014480650709989,0.001448063804991,-0.0014480667890882,0.001448062005294,-0.0012863684286465,0.0012863705686057,-0.0012863736320014,0.0012863651906609,-0.0011925921161613,0.0011925963239601,-0.0011925989494935,0.0011925892516499,8.3882141528155e-09,-7.6945767622558e-09,-0.0012647848330202,0.0012647855209952,-2.2852510071504e-09,3.0980399576529e-09,-0.0014480623281315,0.0014480665635526,-0.0014480605543121,0.0014480683179752,-0.0014480677142414,0.001448061199037,-0.0014480659144764,0.0014480629876619,-0.0011926007816342,0.0011925875593884,-0.0011925850502917,0.0011926032496337,0.66008313147955,131329,3014,0.0039877929465125,0.0052552070508717,0.0052552070508224,25.841581437594,-3.3267348499251e-05,-3.3267348499251e-05,-3.3267348499251e-05,3287963.9440938,0.014605060740313
30419200,0.99652617456733,0.015020621563526,0.0043276478810038,0.0053464868412565,0.0053464868412659,-0.00095879199436769,0.0009587925538408,-7.8823757639487e-09,8.4387462298306e-09,-3.3322220118166e-09,4.0478719898775e-09,-0.0011288774099192,0.0011288701158967,-0.0011288719965853,0.0011288755502057,-0.0011288751101335,0.0011288725349669,-0.0011288696543722,0.0011288779946325,-0.0010280684373611,0.0010280554093044,-0.0010280524031283,0.001028071422847,3.0296547541567e-09,-3.9973694376444e-09,2.3086345964766e-09,-3.1260284711021e-09,-0.0012654762479079,0.0012654754335059,-0.0014487781704343,0.0014487814646148,-0.0014487799207046,0.0014487796316931,-0.0014487803876876,0.0014487791275654,-0.0014487821036547,0.0014487773300033,-0.0012870540465765,0.0012870561874073,-0.0012870592428274,0.0012870508165,-0.0011932467912235,0.0011932509712567,-0.001193253596461,0.0011932439273242,8.4455520175361e-09,-7.7518079681759e-09,-0.00126547549667,0.0012654761847234,-2.2859184539074e-09,3.0988233619264e-09,-0.0014487776276183,0.0014487819033158,-0.001448775855733,0.0014487836557847,-0.0014487830543941,0.0014487764981159,-0.0014487812518153,0.001448778289569,-0.0011932554952556,0.0011932421681444,-0.0011932396583392,0.0011932579638411,0.62526527929144,131329,3014,0.0039902771523553,0.005258069377273,0.0052580693772308,26.129539055089,-3.0963687559286e-05,-3.0963687559286e-05,-3.0963687559286e-05,3293488.5292618,0.014613388698994
30619200,0.99666041298101,0.015022463800405,0.0043281633761665,0.0053471502121144,0.0053471502121238,-0.00095960432626847,0.00095960488348955,-7.9355385774495e-09,8.4897037103204e-09,-3.2897799018645e-09,4.0027863324781e-09,-0.0011296521004937,0.0011296447897212,-0.0011296466436306,0.0011296502675411,-0.0011296498208659,0.0011296471884533,-0.0011296443391008,0.0011296526741024,-0.0010289079410519,0.0010288948055144,-0.0010288918305822,0.0010289108952277,3.0090471817248e-09,-3.9742091443151e-09,2.312859649797e-09,-3.1279187786028e-09,-0.0012663843834925,0.0012663835714378,-0.0014496794952675,0.0014496827702953,-0.00144968123878,0.001449680944097,-0.0014496816890417,0.0014496804567421,-0.001449683415815,0.001449678648375,-0.0012879446898359,0.0012879468796258,-0.0012879499181164,0.0012879414766428,-0.0011940885390936,0.0011940927022832,-0.0011940953269884,0.0011940856756614,8.51090244889e-09,-7.8171873604686e-09,-0.0012663836334427,0.0012663843214688,-2.2848818389576e-09,3.0977791326798e-09,-0.0014496789251941,0.0014496832363032,-0.0014496771452428,0.0014496849968793,-0.0014496843866632,0.0014496777963201,-0.0014496825935172,0.0014496795782845,-0.0011940973118649,0.0011940838299922,-0.00119408132127,0.0011940997799135,0.66318230770942,131329,3014,0.0039936466086383,0.0052618337150071,0.0052618337149682,26.523797871298,-2.7809617029615e-05,-2.7809617029615e-05,-2.7809617029615e-05,3302772.9591608,0.014624443541453
30819200,0.99679246554882,0.015024365846752,0.0043286989514542,0.0053478334476441,0.0053478334476534,-0.00096040464859807,0.00096040520479,-7.9961894249019e-09,8.5493409562376e-09,-3.2686594586972e-09,3.980423325682e-09,-0.0011304792650976,0.0011304719312637,-0.0011304737716003,0.0011304774457415,-0.0011304770034353,0.0011304743119279,-0.0011304714780976,0.0011304798411646,-0.0010297531639095,0.0010297398848844,-0.001029736925484,0.0010297561024512,2.9748755474374e-09,-3.9368649985392e-09,2.3148073314538e-09,-3.1270409670348e-09,-0.0012672945091969,0.0012672937000067,-0.0014506223288796,0.0014506255868586,-0.0014506240761974,0.0014506237568719,-0.0014506245025331,0.0014506232936552,-0.0014506262262135,0.0014506214884006,-0.001288869573214,0.001288871780488,-0.0012888747921908,0.0012888663866714,-0.0011949691838877,0.0011949732690848,-0.0011949758913955,0.0011949663232288,8.5682274442389e-09,-7.8744414936294e-09,-0.0012672937605472,0.0012672944486379,-2.2855292454739e-09,3.0984975310861e-09,-0.0014506217297091,0.0014506260820617,-0.0014506199527463,0.0014506278396581,-0.00145062723284,0.0014506206004446,-0.0014506254357957,0.0014506223863434,-0.0011949779685978,0.0011949643852987,-0.0011949618759501,0.001194980437138,0.69236328701295,131329,3014,0.0039969699084659,0.0052656052888761,0.005265605288838,26.920569112388,-2.4635447100896e-05,-2.4635447100896e-05,-2.4635447100896e-05,3308092.1893343,0.014635469132861
31019200,0.99692223615209,0.015026294841078,0.0043292440876268,0.0053485253767209,0.0053485253767302,-0.00096118881534795,0.00096118937025632,-8.053883155251e-09,8.6057743699708e-09,-3.2413017056931e-09,3.9515254892558e-09,-0.0011313379713269,0.0011313306139301,-0.0011313324367982,0.0011313361694517,-0.0011313357253526,0.0011313329787666,-0.0011313301649481,0.0011313385430788,-0.0010305937925293,0.0010305803904311,-0.0010305774511076,0.0010305967111366,2.9554000152469e-09,-3.9151822053895e-09,2.3165698774985e-09,-3.1268090100841e-09,-0.0012681999735299,0.0012681991663391,-0.0014515885541975,0.0014515917979342,-0.0014515902990627,0.0014515899704219,-0.0014515907112137,0.0014515895214829,-0.0014515924383661,0.0014515877127652,-0.0012898123806681,0.001289814613975,-0.0012898176100122,0.001289809209827,-0.0011958744993373,0.0011958785544634,-0.0011958811752309,0.0011958716403762,8.6285745966749e-09,-7.9348154038361e-09,-0.0012681992258814,0.0012681999139677,-2.2854450782511e-09,3.0984009232139e-09,-0.0014515879292828,0.0014515923189584,-0.0014515861494081,0.0014515940794672,-0.0014515934696597,0.0014515868000876,-0.001451591675624,0.0014515885829472,-0.0011958833325544,0.0011958696221371,-0.0011958671129908,0.001195885801105,0.71215832644691,131329,3014,0.0040002288685079,0.0052693567926533,0.0052693567926124,27.317432829393,-2.1460537364857e-05,-2.1460537364857e-05,-2.1460537364857e-05,3310665.872182,0.014646390767848
31219200,0.99705074846722,0.015028305220038,0.0043298156134794,0.0053492448032745,0.0053492448032838,-0.00096223312258895,0.00096223367426,-8.1038588442927e-09,8.6520549804241e-09,-3.2666797196769e-09,3.9733095241214e-09,-0.001132495273737,0.0011324878465687,-0.0011324896895274,0.0011324934508076,-0.0011324929946695,0.0011324902445094,-0.0011324874180532,0.0011324958230688,-0.0010317137885858,0.0010317003440591,-0.0010316973958647,0.0010317167197216,2.8384152281646e-09,-3.7898883196567e-09,2.3306569395161e-09,-3.1337154921863e-09,-0.0012693958508452,0.0012693950507311,-0.0014528664005057,0.0014528695599496,-0.001452868134949,0.0014528677393302,-0.0014528684558432,0.001452867377986,-0.0014528702087444,0.00145286554427,-0.0012910687129907,0.0012910710864637,-0.0012910739968429,0.0012910656291929,-0.0011970931579546,0.0011970970145936,-0.0011970996279461,0.0011970903024945,8.6985164868217e-09,-8.0034220707142e-09,-0.0012693951067422,0.0012693957949682,-2.2766140699147e-09,3.0915830737592e-09,-0.0014528657153316,0.0014528701393048,-0.0014528639253466,0.0014528719108333,-0.0014528712828593,0.0014528645897336,-0.0014528695109271,0.0014528663475068,-0.0011971019731244,0.0011970880819494,-0.0011970855839558,0.0011971044450022,0.74546030190438,131329,3014,0.0040045699293997,0.0052743111668382,0.0052743111671148,27.866962543839,-1.7064299649288e-05,-1.7064299649288e-05,-1.7064299649288e-05,3313335.2263641,0.014660852905419
31419200,0.99717795662843,0.015030195924059,0.0043303490025233,0.0053499234607636,0.0053499234607718,-0.0009632807701437,0.00096328132095594,-8.1731579902219e-09,8.7210012592214e-09,-3.162796582559e-09,3.8681475334834e-09,-0.0011337104664362,0.0011337030803206,-0.0011337048529328,0.0011337087147422,-0.0011337082738605,0.0011337053914118,-0.0011337026357042,0.0011337110332007,-0.0010328496089936,0.0010328359204745,-0.0010328330392538,0.0010328524697349,2.8695979768416e-09,-3.8212458971822e-09,2.3229596344718e-09,-3.1259129848088e-09,-0.0012706113670645,0.0012706105673009,-0.0014541972433991,0.0014542004366351,-0.001454198989516,0.0014541986075625,-0.0014541993407477,0.0014541982195919,-0.0014542010702592,0.001454196408521,-0.0012923603313822,0.0012923626373248,-0.0012923655663083,0.0012923572276777,-0.0011983553809057,0.0011983592662497,-0.0011983618808301,0.0011983525286284,8.7464942424871e-09,-8.0522165558997e-09,-0.0012706106230204,0.0012706113113697,-2.2869320235318e-09,3.1005257255674e-09,-0.0014541965548706,0.001454201021366,-0.0014541947733629,0.0014542027835055,-0.0014542021728045,0.0014541954244266,-0.0014542003780108,0.001454197207887,-0.0011983642428277,0.0011983503038199,-0.001198347794016,0.0011983667141376,0.71242630709875,131329,3014,0.0040089277670951,0.0052793460154114,0.0052793460154643,28.435063074245,-1.2519495406042e-05,-1.2519495406042e-05,-1.2519495406042e-05,3313852.7114547,0.014675497442197
31619200,0.99730367485794,0.015031970816576,0.0043308459626268,0.0053505624269705,0.0053505624269788,-0.00096433643318502,0.00096433698237858,-8.2351176588083e-09,8.7813511906018e-09,-3.1234146000927e-09,3.826779038586e-09,-0.0011348845385568,0.0011348771400473,-0.0011348788877142,0.0011348828117834,-0.0011348823758157,0.0011348794211262,-0.0011348766935802,0.0011348851070573,-0.0010339734818224,0.0010339596353391,-0.0010339567827733,0.0010339763139007,2.8609138229799e-09,-3.8110230525419e-09,2.3222672432792e-09,-3.1238258687794e-09,-0.0012718269688948,0.0012718261705314,-0.0014554961128732,0.0014554993029733,-0.0014554978613144,0.0014554974715926,-0.0014554982065243,0.0014554970896978,-0.0014554999319787,0.0014554952826764,-0.0012936252479978,0.0012936275492676,-0.0012936304706285,0.0012936221517032,-0.001199592302754,0.0011995961614398,-0.0011995987738863,0.0011995894527533,8.8028379281085e-09,-8.1084639386984e-09,-0.0012718262254663,0.0012718269139713,-2.2894307963725e-09,3.1031195977381e-09,-0.0014554954031313,0.001455499908939,-0.0014554936232043,0.0014555016695809,-0.0014555010619084,0.0014554942711614,-0.0014554992622732,0.0014554960594397,-0.0011996012010918,0.0011995871627165,-0.0011995846510547,0.0011996036741024,0.68057767533009,131329,3014,0.0040133162003801,0.0052843818361635,0.0052843818361879,29.00364885194,-7.9708091844827e-06,-7.9708091844827e-06,-7.9708091844827e-06,3317573.2394567,0.014690172945503
31819200,0.99742559375954,0.015033627762284,0.0043313071823666,0.0053511602899544,0.0053511602899628,-0.00096485940565955,0.0009648599560683,-8.2972300271711e-09,8.8446663600728e-09,-3.1470489875195e-09,3.8518830424406e-09,-0.0011354601196711,0.0011354526685533,-0.0011354544315101,0.0011354583776542,-0.0011354579448853,0.0011354549617642,-0.0011354522165094,0.0011354606939889,-0.0010345311161767,0.001034517151707,-0.0010345142814551,0.0010345339659471,2.9640250227054e-09,-3.9224022059668e-09,2.3121112305394e-09,-3.1209468482777e-09,-0.0012724562259321,0.0012724554201784,-0.0014561696338948,0.0014561728875655,-0.0014561713824295,0.0014561710562529,-0.0014561718026918,0.0014561705989966,-0.0014561735195158,0.0014561688007429,-0.0012942671404768,0.0012942693383604,-0.0012942723381851,0.0012942639660963,-0.0012002097717108,0.0012002138255396,-0.0012002164408297,0.0012002069175546,8.8573130701068e-09,-8.1633078608425e-09,-0.0012724554788953,0.0012724561672065,-2.2901457195909e-09,3.1034219175613e-09,-0.0014561689355801,0.0014561734818962,-0.001456167159727,0.0014561752385971,-0.0014561746354722,0.0014561678035146,-0.0014561728309859,0.0014561695963529,-0.0012002188152344,0.0012002046815915,-0.0012002021700834,0.0012002212877389,0.65805653809171,131329,3014,0.0040154896914625,0.005286988727868,0.0052869887278507,29.265857993369,-5.873136053047e-06,-5.873136053047e-06,-5.873136053047e-06,3320512.3840312,0.014697669336093
32019200,0.99754210815561,0.015035374829101,0.0043318005269843,0.0053517871510542,0.0053517871510626,-0.00096496286354739,0.00096496342028282,-8.3512639100907e-09,8.9048928971346e-09,-3.2844868912683e-09,3.9969130078747e-09,-0.0011355577186638,0.0011355501390613,-0.0011355519903902,0.0011355558881668,-0.0011355554477488,0.0011355525289768,-0.0011355496832728,0.0011355582971472,-0.0010346507577779,0.0010346367865664,-0.001034633816755,0.0010346537076237,3.0648065899581e-09,-4.0340134403643e-09,2.30335139573e-09,-3.1219528536005e-09,-0.0012726202476758,0.001272619432084,-0.0014563428865552,0.0014563461956587,-0.0014563446304478,0.001456344368794,-0.0014563451224841,0.0014563438389369,-0.0014563468389376,0.0014563420410089,-0.0012944262328255,0.0012944283470712,-0.0012944314277933,0.0012944229776871,-0.0012003416269603,0.0012003458862129,-0.0012003485085649,0.0012003387649311,8.9172973395109e-09,-8.2236834128814e-09,-0.0012726194959876,0.0012726201837793,-2.2828225346327e-09,3.095669679181e-09,-0.0014563421944627,0.0014563467833367,-0.0014563404216648,0.0014563485369893,-0.0014563479323906,0.0014563410667523,-0.0014563461350376,0.0014563428522136,-0.0012003508371017,0.0012003365744065,-0.0012003340679079,0.0012003533040975,0.71766339558525,131329,3014,0.0040159186791233,0.005287668530211,0.005287668530226,29.280998484797,-5.7520121216249e-06,-5.7520121216249e-06,-5.7520121216249e-06,3322245.6816069,0.014699482938866
32219200,0.99765341499801,0.015037084157027,0.0043322845249778,0.0053523998160206,0.005352399816029,-0.00096502465908238,0.00096502522170146,-8.4050114032005e-09,8.96447894291e-09,-3.4095976177215e-09,4.1291292172603e-09,-0.0011357002021583,0.0011356925031537,-0.0011356944338995,0.0011356982922427,-0.0011356978441673,0.0011356949807081,-0.0011356920440366,0.0011357007845745,-0.0010347471291427,0.001034733144867,-0.0010347300837952,0.0010347501700481,3.1495283236159e-09,-4.1277149862178e-09,2.2957296391034e-09,-3.1224136062747e-09,-0.0012727561286063,0.001272755304819,-0.0014565399130312,0.0014565432691461,-0.0014565416523237,0.0014565414469734,-0.0014565422064307,0.0014565408547474,-0.0014565439226022,0.0014565390570976,-0.0012945985584476,0.0012946006059191,-0.0012946037539941,0.0012945952360057,-0.0012004992919506,0.0012005037274877,-0.00120050635549,0.0012004964232783,8.9776333989328e-09,-8.2846829136238e-09,-0.0012727553731318,0.0012727560602989,-2.2756629523824e-09,3.0877427475492e-09,-0.0014565392230015,0.0014565438545254,-0.0014565374529758,0.0014565456054012,-0.0014565449992763,0.0014565380998397,-0.0014565432091213,0.0014565398782252,-0.0012005086562137,0.0012004942621706,-0.0012004917609043,0.0012005111170157,0.73340852758924,131329,3014,0.0040161796184943,0.005288230406503,0.0052882304065146,29.290213348724,-5.6782932102084e-06,-5.6782932102084e-06,-5.6782932102084e-06,3318672.7803681,0.014700890381111
32419200,0.99775974239838,0.015038761085883,0.0043327609086367,0.0053530000886188,0.0053530000886272,-0.00096507439080772,0.00096507495809469,-8.4593119954723e-09,9.0233724181371e-09,-3.5129807142035e-09,4.2381567835136e-09,-0.0011358524094385,0.0011358446039525,-0.0011358466009285,0.00113585043332,-0.0011358499783495,0.0011358471549939,-0.0011358441430406,0.0011358529940637,-0.0010348353440676,0.0010348213324601,-0.0010348181953473,0.0010348384608578,3.2229387662441e-09,-4.208627534906e-09,2.2886523436766e-09,-3.122087972651e-09,-0.0012728819525468,0.0012728811219534,-0.0014567379240537,0.0014567413203784,-0.0014567396584557,0.0014567395031588,-0.0014567402667113,0.0014567388564332,-0.0014567419828496,0.0014567370588545,-0.0012947696998377,0.0012947716888295,-0.0012947748952587,0.0012947663190271,-0.0012006625682843,0.0012006671587114,-0.001200669790993,0.0012006596946915,9.0381262180951e-09,-8.3456719226868e-09,-0.0012728811939205,0.001272881880583,-2.2692006717418e-09,3.0807188473892e-09,-0.0014567372330667,0.0014567419065751,-0.0014567354650213,0.0014567436553459,-0.0014567430473976,0.0014567361139228,-0.0014567412641683,0.0014567378854125,-0.0012006720751048,0.001200657550274,-0.0012006550541324,0.0012006745312,0.75109426411927,131329,3014,0.0040163917903107,0.0052887502096553,0.0052887502096628,29.299209039668,-5.606327682657e-06,-5.606327682657e-06,-5.606327682657e-06,3314196.3134939,0.014702163692317
32619200,0.99786105093349,0.015040228922869,0.0043331730793599,0.0053535279217504,0.0053535279217588,-0.00096502144841198,0.00096502202358706,-8.4952797950043e-09,9.0674952320096e-09,-3.6476309819068e-09,4.3822707701655e-09,-0.0011359256416351,0.0011359177117847,-0.0011359197942539,0.0011359235802062,-0.0011359231052392,0.0011359203687949,-0.0011359172560743,0.0011359262221069,-0.0010348159223864,0.0010348019728522,-0.0010347987333797,0.0010348191407258,3.2231406013997e-09,-4.2080149117535e-09,2.2938276979095e-09,-3.1264791492574e-09,-0.0012729024043001,0.0012729015746351,-0.001456843292145,0.0014568466800771,-0.0014568450175121,0.0014568448729206,-0.0014568456232591,0.0014568442300511,-0.0014568473543569,0.0014568424169752,-0.0012948365865312,0.0012948386257491,-0.0012948418307561,0.0012948332067491,-0.0012007333195638,0.0012007379473716,-0.0012007405844042,0.0012007304433182,9.1147268135289e-09,-8.4235979796875e-09,-0.0012729016466465,0.0012729023322623,-2.2549281487576e-09,3.064820825857e-09,-0.0014568425731583,0.0014568472949936,-0.0014568408021873,0.0014568490460721,-0.0014568484271802,0.0014568414633636,-0.0014568466668147,0.0014568432134769,-0.0012007429488757,0.0012007282227618,-0.0012007257349573,0.0012007453903884,0.69653887258052,131329,3014,0.0040161790338931,0.0052888329132838,0.0052888329132299,29.26289795773,-5.8968163381626e-06,-5.8968163381626e-06,-5.8968163381626e-06,3308292.0417689,0.014702119438382
32819200,0.99795746556874,0.015041508509573,0.0043335279507731,0.0053539902793956,0.0053539902794042,-0.00096495025466254,0.00096495082586067,-8.5763858818572e-09,9.1443597887913e-09,-3.6110155331012e-09,4.3411176931873e-09,-0.0011358955449028,0.0011358875986352,-0.001135889658077,0.0011358935063587,-0.0011358930489484,0.0011358902149468,-0.0011358871330065,0.0011358961346854,-0.0010347553205806,0.0010347411436083,-0.0010347379352442,0.0010347585083247,3.3359363414247e-09,-4.3292126901711e-09,2.2746322873961e-09,-3.1145621209571e-09,-0.0012728797826,0.0012728789454473,-0.0014568528792451,0.001456856342939,-0.0014568546077857,0.0014568545317563,-0.0014568553028141,0.0014568537977912,-0.0014568570102152,0.0014568520089187,-0.0012948188115968,0.0012948206908154,-0.0012948239825291,0.0012948153457131,-0.0012007122178888,0.0012007170378897,-0.0012007196693989,0.0012007093442413,9.1536284085825e-09,-8.4616860458879e-09,-0.0012728790209118,0.0012728797071286,-2.2610418475471e-09,3.0719588550892e-09,-0.0014568521802974,0.0014568569369977,-0.001456850418999,0.0014568586787885,-0.0014568580727612,0.0014568510662276,-0.0014568562936977,0.0014568528337056,-0.0012007219537491,0.001200707200401,-0.0012007047100033,0.0012007244037783,0.64446136301095,131329,3014,0.0040158857050427,0.0052887383791614,0.0052887383791473,29.204422211768,-6.364622305853e-06,-6.364622305853e-06,-6.364622305853e-06,3306953.7510657,0.014701630208111
33019200,0.99804923352753,0.015042836812824,0.004333901516446,0.005354467648185,0.0053544676481936,-0.00096491511801512,0.00096491569068672,-8.6295787826741e-09,9.1989770475656e-09,-3.6420853263521e-09,4.37394882316e-09,-0.0011358126683745,0.0011358046626588,-0.0011358067420979,0.0011358106098262,-0.0011358101475267,0.0011358073040541,-0.0011358041992347,0.0011358132561075,-0.0010347164911978,0.0010347022407748,-0.0010346990107911,0.0010347197007917,3.3356804356496e-09,-4.3328837889958e-09,2.2714274029915e-09,-3.1152056425868e-09,-0.0012728708684156,0.0012728700273993,-0.0014568231190501,0.0014568265743233,-0.0014568248430305,0.0014568247677295,-0.0014568255388209,0.0014568240329835,-0.0014568272492798,0.0014568222410425,-0.0012947836511043,0.0012947855343097,-0.00129478883068,0.001294780180602,-0.0012006578630319,0.0012006626926531,-0.0012006653272677,0.0012006549859772,9.2166262991578e-09,-8.5254484527548e-09,-0.0012728701051957,0.0012728707906145,-2.2553361461465e-09,3.0654109520643e-09,-0.001456822394849,0.0014568271936449,-0.0014568206338755,0.0014568289350392,-0.0014568283260109,0.0014568212841478,-0.0014568265550106,0.0014568230436956,-0.0012006676745772,0.0012006527800071,-0.0012006502940005,0.00120067011884,0.69524136100021,131329,3014,0.0040157370391813,0.005288702134726,0.0052887021347165,29.145409281646,-6.8367257468344e-06,-6.8367257468344e-06,-6.8367257468344e-06,3309864.1483872,0.01470140285126
33219200,0.99813659172061,0.015044170528708,0.0043342792597221,0.0053549456344888,0.0053549456344974,-0.000964857167444,0.00096485773952762,-8.6903589046184e-09,9.2591662064458e-09,-3.6370237472152e-09,4.3682535976452e-09,-0.0011357828673615,0.0011357748257641,-0.0011357769021875,0.0011357808118347,-0.0011357803515233,0.0011357774621136,-0.0011357743614648,0.0011357834559321,-0.0010346734289183,0.0010346590516398,-0.0010346558258511,0.0010346766342829,3.3424477106102e-09,-4.3400887806897e-09,2.2672231360315e-09,-3.1113664545413e-09,-0.0012728526580874,0.0012728518167049,-0.0014568307356135,0.0014568341938665,-0.0014568324583311,0.0014568323885566,-0.001456833161374,0.0014568316465086,-0.001456834867784,0.0014568298586368,-0.0012947765078632,0.001294778373938,-0.0012947816753381,0.0012947730322833,-0.0012006392490281,0.0012006440906509,-0.001200646723006,0.0012006363741487,9.2734007189147e-09,-8.5823678611413e-09,-0.0012728518947577,0.0012728525800305,-2.253222240519e-09,3.0631343599068e-09,-0.0014568299925852,0.0014568348320126,-0.0014568282344767,0.001456836570544,-0.0014568359630501,0.0014568288832204,-0.0014568341921139,0.0014568306426754,-0.0012006491210083,0.0012006341175734,-0.0012006316331323,0.0012006515636293,0.72922791418356,131329,3014,0.0040154979212811,0.005288626255505,0.005288626255497,29.086376449929,-7.3089884005682e-06,-7.3089884005682e-06,-7.3089884005682e-06,3308113.6642094,0.014701006625283
33419200,0.99822111091569,0.015045487597795,0.0043346532023217,0.0053554171977323,0.0053554171977408,-0.00096528821153614,0.00096528878001194,-8.7586613389377e-09,9.3239674164604e-09,-3.560255675133e-09,4.2872089890612e-09,-0.0011363077392245,0.001136299705993,-0.0011363017334961,0.0011363057326689,-0.0011363052794557,0.0011363022859365,-0.0011362992412595,0.0011363083279798,-0.0010351477851309,0.0010351332108896,-0.001035130040873,0.0010351509343515,3.2388503053769e-09,-4.2269096301689e-09,2.2707147266797e-09,-3.106287358369e-09,-0.0012733640582885,0.0012733632255561,-0.0014574071116107,0.0014574105094792,-0.0014574088376352,0.0014574087010564,-0.0014574094693854,0.0014574080309906,-0.0014574111713572,0.0014574062474847,-0.001295331632364,0.0012953335676612,-0.0012953367879681,0.0012953282376264,-0.0012011828330576,0.0012011874602743,-0.0012011900840419,0.0012011799680087,9.3242668076377e-09,-8.6332815925264e-09,-0.0012733632992894,0.0012733639845492,-2.2547888113084e-09,3.0646433284264e-09,-0.001457406320263,0.0014574111963367,-0.0014574045648485,0.0014574129321186,-0.0014574123284611,0.0014574052098423,-0.0014574105527722,0.0014574069743421,-0.001201192642782,0.001201177551314,-0.0012011750653419,0.0012011950859079,0.74278653235362,131329,3014,0.0040172922890336,0.0052907441725184,0.0052907441725065,29.311901648195,-5.5047868144404e-06,-5.5047868144404e-06,-5.5047868144404e-06,3307186.5736873,0.014707128364888
33619200,0.99830318293573,0.015046766841944,0.0043350162997234,0.0053558752711061,0.0053558752711147,-0.00096583945404465,0.00096584002021505,-8.8690600460683e-09,9.4319727811765e-09,-3.5238133877434e-09,4.247891049109e-09,-0.0011369795702016,0.0011369715062183,-0.0011369735111963,0.0011369775860378,-0.0011369771550505,0.0011369740413866,-0.0011369710237368,0.0011369801762767,-0.0010357485422935,0.0010357336683605,-0.0010357305254651,0.0010357516651059,3.0492301566314e-09,-4.021527201303e-09,2.2737566468416e-09,-3.0954268808088e-09,-0.0012740179101916,0.001274017091434,-0.0014581405666192,0.0014581438636655,-0.0014581423097188,0.0014581420375743,-0.001458142812251,0.0014581414969155,-0.0014581444921901,0.0014581397356528,-0.0012960375707452,0.0012960395842389,-0.0012960426585581,0.0012960343216117,-0.0012018823747318,0.0012018865723395,-0.0012018891784832,0.0012018795282423,9.3329812602407e-09,-8.6411428537232e-09,-0.0012740171578682,0.0012740178437748,-2.2625165461726e-09,3.0734371118412e-09,-0.0014581397148029,0.0014581446109669,-0.0014581379739931,0.0014581463324874,-0.001458145747717,0.0014581385992052,-0.0014581439468312,0.001458140388608,-0.0012018919439417,0.00120187690144,-0.0012018744101146,0.0012018943947003,0.74303042849535,131329,3014,0.004019587018764,0.0052934519903704,0.0052934519904067,29.613679110198,-3.0905671184158e-06,-3.0905671184158e-06,-3.0905671184158e-06,3306389.998816,0.01471495585206
33819200,0.99838281807472,0.015048012084857,0.0043353697809443,0.0053563211519519,0.0053563211519605,-0.00096638766133561,0.00096638821898373,-8.8858121143041e-09,9.4403842572411e-09,-3.3416776245424e-09,4.0556078727575e-09,-0.0011376498877239,0.0011376419138685,-0.0011376438014328,0.0011376480210563,-0.0011376475782049,0.0011376443426274,-0.0011376414588944,0.0011376504657045,-0.0010363453022461,0.0010363303302169,-0.0010363273201647,0.0010363482918646,3.0174808035084e-09,-3.9839054950137e-09,2.285284781177e-09,-3.1014947382608e-09,-0.0012746695871892,0.0012746687740117,-0.0014588706558116,0.0014588739234798,-0.0014588723847969,0.0014588721116912,-0.0014588728610223,0.0014588715980897,-0.0014588745667682,0.0014588698110447,-0.0012967389880925,0.0012967411058504,-0.0012967441523596,0.0012967357665859,-0.0012025797207009,0.0012025839111332,-0.0012025865185224,0.0012025768736812,9.437301515152e-09,-8.7457248744025e-09,-0.0012746688377196,0.0012746695234836,-2.2594899992786e-09,3.0700219502897e-09,-0.0014588697628868,0.0014588747123423,-0.0014588680040386,0.0014588764516005,-0.0014588758469924,0.0014588686494588,-0.0014588740684079,0.0014588704169722,-0.0012025894208995,0.0012025741105003,-0.0012025716220831,0.0012025918692008,0.74517769530353,131329,3014,0.0040218693646973,0.0052961506015271,0.0052961506015326,29.917344945349,-6.6124043721128e-07,-6.6124043721128e-07,-6.6124043721128e-07,3305868.9227642,0.014722751924295
34019200,0.99846002067297,0.015049181230712,0.0043357001619748,0.0053567405343646,0.0053567405343731,-0.00096692825398482,0.00096692880797329,-8.9528761645434e-09,9.5038732511077e-09,-3.2555926858488e-09,3.9650425076731e-09,-0.0011383141422349,0.0011383061826085,-0.0011383080153433,0.0011383123303927,-0.0011383118940085,0.0011383085497184,-0.0011383057279063,0.0011383147196259,-0.0010369324169586,0.0010369172444125,-0.0010369142972164,0.0010369353436877,2.9101871890502e-09,-3.8664598389751e-09,2.2918422346964e-09,-3.098988774272e-09,-0.0012753143800288,0.0012753135759803,-0.0014595939482416,0.0014595971534447,-0.0014595956820783,0.0014595953368735,-0.0014595960810052,0.0014595949011226,-0.0014595977844678,0.0014595931163042,-0.0012974310913728,0.0012974332878388,-0.0012974362498815,0.0012974279544314,-0.0012032707521225,0.0012032747175899,-0.0012032773173579,0.001203267913976,9.4897089859045e-09,-8.7978579067153e-09,-0.0012753136349689,0.0012753143210405,-2.263308113726e-09,3.0741545741879e-09,-0.0014595930066394,0.0014595979912288,-0.0014595912486964,0.0014595997297542,-0.0014595991282985,0.0014595918908389,-0.0014595973434672,0.0014595936646125,-0.0012032803840673,0.0012032649857415,-0.0012032624943204,0.0012032828354625,0.7242654556957,131329,3014,0.0040241201680867,0.005298820618842,0.005298820618843,30.221081037001,1.7686482960094e-06,1.7686482960094e-06,1.7686482960094e-06,3305473.0980174,0.014730457906234
34219200,0.99853608979259,0.015050300551395,0.0043360152163836,0.0053571426675015,0.00535714266751,-0.00096802231382175,0.00096802285907112,-8.9907580135436e-09,9.5329820238841e-09,-3.0754158767148e-09,3.7743089140123e-09,-0.0011395148929355,0.0011395070171608,-0.0011395087345758,0.0011395131964622,-0.0011395127587532,0.0011395092693799,-0.0011395065797066,0.0011395154522443,-0.0010380866847734,0.0010380713407868,-0.001038068525633,0.0010380894785596,2.8140987222078e-09,-3.7596559828294e-09,2.3062929853811e-09,-3.103657198117e-09,-0.001276549967733,0.0012765491736457,-0.0014608961137002,0.0014608992589947,-0.001460897844606,0.0014608974451866,-0.001460898170252,0.0014608970830687,-0.0014608998894673,0.0014608952825887,-0.0012987109561619,0.0012987132746342,-0.0012987161592014,0.0012987078958249,-0.0012045346951477,0.0012045384910671,-0.0012045410882975,0.0012045318612437,9.5739956030062e-09,-8.8814398109926e-09,-0.0012765492273749,0.0012765499140087,-2.2663367692909e-09,3.0778935266714e-09,-0.0014608951196957,0.0014609001493816,-0.0014608933503462,0.001460901899452,-0.0014609012881578,0.0014608940020165,-0.0014608995102656,0.0014608957685487,-0.0012045443363189,0.0012045287499035,-0.00120452625542,0.0012045467909553,0.70594349104606,131329,3014,0.0040286674401844,0.0053039391686134,0.0053039391686239,30.832675716769,6.6614057341484e-06,6.6614057341484e-06,6.6614057341484e-06,3310467.3117646,0.014745462660537
34419200,0.9986110302391,0.015051408030246,0.0043363270208042,0.0053575405047164,0.005357540504725,-0.00096918158331029,0.00096918212257773,-9.0287663780024e-09,9.5651728636231e-09,-2.9431034510333e-09,3.6348018325638e-09,-0.0011407571855716,0.0011407493617773,-0.0011407509950743,0.0011407555731637,-0.0011407551326132,0.0011407515322294,-0.001140748938449,0.0011407577301497,-0.0010393022550629,0.0010392867706769,-0.0010392840522742,0.0010393049527807,2.742747096345e-09,-3.6796691264649e-09,2.3196220759618e-09,-3.1091712923141e-09,-0.0012778532403324,0.0012778524540881,-0.001462252643818,0.0014622557432137,-0.001462254372618,0.0014622539316292,-0.0014622546409328,0.001462253627358,-0.0014622563745713,0.0014622518121944,-0.0013000468903019,0.0013000493110555,-0.001300052137376,0.0013000438890491,-0.0012058483722037,0.0012058520450695,-0.0012058546402843,0.0012058455409523,9.6565669503317e-09,-8.9637821176681e-09,-0.0012778525037395,0.0012778531906854,-2.2698722378436e-09,3.0817140497217e-09,-0.0014622516050373,0.0014622566786774,-0.0014622498248445,0.0014622584396554,-0.0014622578195496,0.0014622504852086,-0.0014622560474706,0.0014622522458855,-0.0012058580436217,0.0012058422745053,-0.0012058397777552,0.0012058605012383,0.70867958896082,131329,3014,0.0040334839187709,0.0053093385901339,0.0053093385901439,31.476515692474,1.181212553979e-05,1.181212553979e-05,1.181212553979e-05,3317298.4334969,0.014761309860934
34619200,0.99868470655369,0.015052544172256,0.0043366485781937,0.0053579477970269,0.0053579477970354,-0.00097035325831969,0.00097035379831049,-9.1413098032898e-09,9.6784903508516e-09,-2.9414291176831e-09,3.6337746462965e-09,-0.0011420090735523,0.0011420011945051,-0.0011420028263957,0.0011420074626007,-0.0011420070400948,0.0011420033455215,-0.0011420007515848,0.0011420096378258,-0.0010405360528314,0.0010405202920728,-0.0010405175735506,0.0010405387504456,2.6037453581152e-09,-3.5294361543283e-09,2.3243241704291e-09,-3.1040483073895e-09,-0.0012791568943974,0.0012791561180809,-0.0014636135615927,0.0014636165926098,-0.0014636153092458,0.0014636147623303,-0.0014636154811688,0.0014636145552507,-0.0014636171956022,0.0014636127591878,-0.0013013885802277,0.0013013910520277,-0.0013013937715453,0.0013013856856305,-0.0012071619777949,0.0012071653200857,-0.0012071679056311,0.0012071591578916,9.6617459707633e-09,-8.9681408968634e-09,-0.0012791561623481,0.0012791568501337,-2.2818471583709e-09,3.0946505879311e-09,-0.001463612481716,0.0014636175694083,-0.0014636107122687,0.0014636193199268,-0.0014636187179262,0.0014636113544804,-0.0014636169186465,0.0014636131426065,-0.0012071714565136,0.0012071557436544,-0.0012071532371196,0.0012071739226832,0.73613739107836,131329,3014,0.0040383520457621,0.0053147395756123,0.0053147395756203,32.121214180095,1.6969713440758e-05,1.6969713440758e-05,1.6969713440758e-05,3323035.3191857,0.014777213116206
34819200,0.99875811742926,0.015053686507095,0.0043369720393218,0.0053583572338821,0.0053583572338906,-0.00097202129177125,0.00097202182049525,-9.0755294089827e-09,9.6014845865896e-09,-2.7087850760635e-09,3.387724373934e-09,-0.0011438106045873,0.0011438028830165,-0.0011438043654434,0.0011438091431497,-0.0011438086904869,0.0011438049135509,-0.0011438024909901,0.0011438111169164,-0.0010422964356301,0.0010422807616236,-0.0010422782138109,0.0010422989610397,2.6704196288759e-09,-3.597571700121e-09,2.3464852912153e-09,-3.1270502023806e-09,-0.0012810000578397,0.0012809992808652,-0.0014655480286856,0.0014655510806671,-0.0014655497505901,0.0014655492758167,-0.0014655499542277,0.0014655490367167,-0.0014655517245482,0.0014655471849773,-0.0013033005522116,0.0013033031393523,-0.0013033059054993,0.0013032976102763,-0.0012090395355915,0.00120904311403,-0.0012090457162097,0.0012090366986597,9.8503008213067e-09,-9.1566176209112e-09,-0.0012809993254806,0.0012810000132292,-2.2753128599304e-09,3.0881169426766e-09,-0.0014655469138011,0.0014655520924248,-0.0014655451080255,0.0014655538791061,-0.001465553236457,0.0014655457907227,-0.0014655514821125,0.0014655475335307,-0.0012090493791365,0.0012090331721788,-0.0012090306708757,0.0012090518415426,0.74236047731197,131329,3014,0.0040452837245544,0.0053223753250557,0.0053223753250667,33.051958610403,2.4415668883222e-05,2.4415668883222e-05,2.4415668883222e-05,3329435.5423837,0.014799748550846
35019200,0.99883141537039,0.015054790484677,0.0043372829930877,0.0053587537457903,0.0053587537457988,-0.00097386012424112,0.00097386065208219,-9.1356450158746e-09,9.6607462208344e-09,-2.670042157339e-09,3.3477107909098e-09,-0.00114580324437,0.0011457955097334,-0.0011457969681086,0.0011458018069521,-0.0011458013587958,0.0011457975115991,-0.0011457951148456,0.0011458037593068,-0.0010442359181607,0.0010442200864917,-0.0010442175665626,0.0010442384161189,2.6062989043095e-09,-3.527743126233e-09,2.3558898311957e-09,-3.1313910375563e-09,-0.0012830321167309,0.0012830313448141,-0.0014676844400215,0.001467687457691,-0.0014676861708479,0.0014676856442254,-0.0014676863222024,0.0014676854576799,-0.0014676880923836,0.0014676836055675,-0.0013054081148757,0.0013054107540543,-0.0013054134699442,0.0013054052244369,-0.0012111117648397,0.0012111151950146,-0.0012111177961901,0.0012111089297702,9.9090618213162e-09,-9.2146767819495e-09,-0.0012830313865432,0.0012830320750123,-2.2834750461401e-09,3.0971040638321e-09,-0.0014676832903873,0.0014676885043631,-0.0014676814832409,0.001467690292717,-0.0014676896536537,0.0014676821622178,-0.0014676878889595,0.0014676839150242,-0.0012111215795807,0.0012111052823942,-0.0012111027742328,0.0012111240489237,0.721364885868,131329,3014,0.0040529256226903,0.0053307933634482,0.0053307933634706,34.084035908281,3.2672287266246e-05,3.2672287266246e-05,3.2672287266246e-05,3336441.0460476,0.014824593576353
35219200,0.99890432011493,0.015055855376844,0.0043375814430424,0.0053591369668964,0.0053591369669049,-0.00097570758459578,0.00097570811287782,-9.1733105639532e-09,9.6988683569057e-09,-2.6616233056174e-09,3.3396282646489e-09,-0.0011477749134954,0.0011477671584218,-0.0011477686113046,0.0011477734815671,-0.0011477730327946,0.0011477691554405,-0.0011477667631707,0.0011477754288376,-0.0010461788794006,0.0010461629701238,-0.0010461604545254,0.0010461813736241,2.5920678272992e-09,-3.5118816638964e-09,2.3638740694408e-09,-3.1379609333567e-09,-0.0012850724617297,0.0012850716912337,-0.0014698118683532,0.0014698148815698,-0.0014698136039394,0.0014698130635431,-0.0014698137401886,0.0014698128924161,-0.0014698155151438,0.0014698110352806,-0.0013075116754897,0.0013075143421153,-0.0013075170461541,0.0013075087970598,-0.0012131703469107,0.0012131737451942,-0.0012131763499843,0.0012131675091822,9.9891770864969e-09,-9.294400675557e-09,-0.0012850717320145,0.0012850724209539,-2.2889500000605e-09,3.1030204585609e-09,-0.0014698106919236,0.0014698159550729,-0.0014698088809188,0.0014698177475251,-0.0014698171078514,0.0014698095606044,-0.0014698153393848,0.0014698113171213,-0.0012131802223895,0.0012131637726327,-0.0012131612598465,0.0012131826955114,0.70214229574142,131329,3014,0.0040606017816772,0.0053392460199799,0.005339246019991,35.118602443857,4.0948819550856e-05,4.0948819550856e-05,4.0948819550856e-05,3345006.176915,0.014849542953705
35419200,0.998975689642,0.015056863159067,0.0043378622879088,0.0053595004355748,0.0053595004355833,-0.00097716249991285,0.00097716303324522,-9.2369793290926e-09,9.7677697799263e-09,-2.7629810923242e-09,3.4472229998213e-09,-0.0011493144445271,0.0011493065854198,-0.001149308103639,0.001149312947249,-0.0011493125000848,0.0011493086466109,-0.0011493061796235,0.0011493149708159,-0.0010477080587766,0.0010476920762336,-0.0010476894854872,0.0010477106273443,2.6661267922957e-09,-3.5931318324139e-09,2.3602808724802e-09,-3.1408374827821e-09,-0.0012866899529231,0.0012866891757159,-0.0014714929522815,0.0014714960155601,-0.0014714946937759,0.0014714941918542,-0.0014714948810489,0.0014714939689609,-0.0014714966496296,0.0014714921180736,-0.0013091695982349,0.0013091721888337,-0.001309174950621,0.0013091666621536,-0.0012147853203494,0.0012147888464589,-0.0012147914557953,0.0012147824753431,1.0040752028565e-08,-9.3459009154364e-09,-0.0012866892197615,0.0012866899088821,-2.2936401618381e-09,3.107946446193e-09,-0.0014714917825488,0.0014714970822148,-0.0014714899744181,0.0014714988718995,-0.0014714982378248,0.0014714906483463,-0.0014714964599374,0.0014714924140117,-0.0012147952992303,0.0012147787693484,-0.0012147762548915,0.0012147977755151,0.68162297784283,131329,3014,0.0040666461738145,0.0053459469878908,0.005345946987901,35.930635138094,4.7445081104752e-05,4.7445081104752e-05,4.7445081104752e-05,3352704.7999618,0.014869279901857
35619200,0.99904471638291,0.0150577982474,0.0043381211073337,0.0053598385700288,0.0053598385700373,-0.00097832565551598,0.00097832619753328,-9.334689553877e-09,9.8740361695317e-09,-2.9406192912462e-09,3.6352110004463e-09,-0.0011505189526242,0.0011505109229706,-0.0011505125544159,0.0011505173421485,-0.0011505168976496,0.0011505130954706,-0.0011505104982205,0.0011505194986808,-0.0010489288260386,0.0010489127428253,-0.001048910021516,0.0010489315252755,2.7895730060548e-09,-3.7296324272748e-09,2.3479754352181e-09,-3.1403207536123e-09,-0.0012879883721087,0.0012879875830297,-0.0014728294160208,0.0014728325606786,-0.0014728311640784,0.0014728307305888,-0.0014728314419667,0.0014728304165572,-0.0014728331955279,0.0014728285806015,-0.0013104890647397,0.0013104915130012,-0.0013104943730413,0.0013104860301855,-0.0012160599774171,0.0012160637201978,-0.0012160663372153,0.0012160571238225,1.0056509563301e-08,-9.3614965050607e-09,-0.0012879876329187,0.0012879883222246,-2.2975315178128e-09,3.1120466647871e-09,-0.0014728282775551,0.0014728335957789,-0.0014728264774684,0.0014728353773704,-0.0014728347540009,0.0014728271410235,-0.0014728329627492,0.0014728289200873,-0.0012160700630064,0.0012160535363901,-0.0012160510186502,0.0012160725415691,0.65729899488923,131329,3014,0.0040714770304471,0.0053513264472089,0.0053513264472196,36.574899246504,5.2599193972036e-05,5.2599193972036e-05,5.2599193972036e-05,3360149.2418541,0.014885101778906
35819200,0.99911128732767,0.015058761045079,0.004338390274336,0.0053601853853671,0.0053601853853756,-0.00097949957356425,0.00097950012446401,-9.4316679311071e-09,9.9796593164347e-09,-3.1252125549017e-09,3.8303189230626e-09,-0.0011516902488365,0.001151682041532,-0.0011516837903107,0.0011516885210233,-0.0011516880750755,0.0011516843336381,-0.0011516816015753,0.0011516908109024,-0.0010501576146295,0.0010501414488409,-0.0010501385926948,0.0010501604497766,2.9075467372502e-09,-3.8607448158262e-09,2.3373202798251e-09,-3.141519306308e-09,-0.0012892873404732,0.001289286539438,-0.0014741410912781,0.0014741443113444,-0.0014741428428822,0.0014741424776761,-0.0014741432072499,0.0014741420767197,-0.0014741449510806,0.0014741402504935,-0.0013117982249305,0.0013118005488998,-0.0013118035043909,0.0013117950953169,-0.0012173121727536,0.0012173161329117,-0.0012173187595293,0.0012173093094923,1.0072619054873e-08,-9.3775926813924e-09,-0.0012892865953007,0.0012892872846127,-2.2977088436897e-09,3.1121209604291e-09,-0.0014741399812135,0.0014741453177004,-0.0014741381876618,0.0014741470925875,-0.0014741464761129,0.0014741388446763,-0.0014741446782744,0.0014741406304981,-0.0012173223733781,0.001217305834071,-0.0012173033150108,0.0012173248517561,0.69619235450199,131329,3014,0.0040763501973671,0.0053567088826437,0.0053567088826491,37.215110108965,5.7720880871721e-05,5.7720880871721e-05,5.7720880871721e-05,3369249.0694758,0.01490097149877
36019200,0.99917531679983,0.015059746275497,0.0043386679220167,0.005360539176736,0.0053605391767445,-0.00098065354609053,0.00098065410359436,-9.4828306360334e-09,1.0037285544493e-08,-3.2705731953221e-09,3.9836536322925e-09,-0.001152902851772,0.0011528945124564,-0.0011528963539858,0.0011529010311587,-0.001152900575924,0.0011528969072952,-0.0011528940695818,0.0011529034173585,-0.0010513810425877,0.0010513648863437,-0.0010513619241492,0.0010513839837138,3.0478096231344e-09,-4.0150868286954e-09,2.3297340386067e-09,-3.1465464047292e-09,-0.0012905789827627,0.001290578169006,-0.0014754833105645,0.0014754866124399,-0.0014754850580229,0.0014754847828258,-0.001475485521321,0.0014754842822527,-0.0014754872675907,0.0014754824536121,-0.0013131303678019,0.0013131325881767,-0.0013131356543897,0.0013131271270054,-0.001218594307985,0.0012185985559858,-0.0012186011940095,0.0012185914312416,1.0135480042983e-08,-9.4406704299987e-09,-0.0012905782313638,0.0012905789204088,-2.2935437953114e-09,3.1076562283531e-09,-0.0014754822203293,0.0014754875985472,-0.0014754804263534,0.0014754893737571,-0.0014754887544122,0.0014754810864185,-0.0014754869627315,0.0014754828660819,-0.0012186047204962,0.0012185880440906,-0.0012185855281576,0.0012186071959144,0.73586310209471,131329,3014,0.004081144056393,0.0053620599978257,0.0053620599978343,37.855170003449,6.2841360027596e-05,6.2841360027596e-05,6.2841360027596e-05,3374677.5887948,0.014916700149514
36219200,0.99923464926751,0.015060627748012,0.0043389148771213,0.005360856435441,0.0053608564354495,-0.00098057996625651,0.0009805805359639,-9.5505055324353e-09,1.0117019624819e-08,-3.5368500153069e-09,4.2646298714848e-09,-0.0011529239832353,0.0011529154282669,-0.0011529174401152,0.0011529219923229,-0.001152921529542,0.001152918002022,-0.0011529149703564,0.0011529245649905,-0.0010513376271568,0.0010513215103395,-0.0010513183538414,0.0010513407631134,3.2800929391764e-09,-4.2701890010947e-09,2.3061901100046e-09,-3.1435668589503e-09,-0.0012905757785813,0.0012905749440864,-0.0014755489624296,0.0014755524012615,-0.0014755507048466,0.0014755505767071,-0.0014755513389532,0.0014755499041929,-0.0014755530727012,0.0014755480882659,-0.0013131620013052,0.0013131640014311,-0.0013131672509216,0.0013131585772993,-0.0012186180898958,0.0012186227942057,-0.0012186254436375,0.0012186151996455,1.0178414269666e-08,-9.4847269048684e-09,-0.0012905750173407,0.0012905757053272,-2.2832329882113e-09,3.0961672579803e-09,-0.0014755479207163,0.0014755533383103,-0.0014755461376638,0.00147555510235,-0.0014755544879878,0.0014755467931828,-0.0014755526997837,0.0014755485693731,-0.0012186287714894,0.0012186120121901,-0.001218609504417,0.0012186312382336,0.71361055495895,131329,3014,0.0040808443535226,0.0053620449271346,0.0053620449271355,37.827191498786,6.2617531990286e-05,6.2617531990286e-05,6.2617531990286e-05,3369849.5350198,0.014916368292388
36419200,0.99928877678083,0.015061420388533,0.0043391365800235,0.0053611419042504,0.0053611419042589,-0.00097997147439977,0.00097997205465025,-9.5972298076584e-09,1.0174091002092e-08,-3.7741535917573e-09,4.5147735274737e-09,-0.0011523482969689,0.0011523395533012,-0.001152341716968,0.0011523461542149,-0.0011523456792212,0.0011523422920708,-0.0011523390881584,0.0011523488869084,-0.0010507333339733,0.0010507172957346,-0.0010507139667239,0.0010507366426489,3.522590766781e-09,-4.5289163979849e-09,2.2839311390124e-09,-3.135072190602e-09,-0.0012899971579967,0.0012899963095601,-0.0014749972436451,0.0014750008233166,-0.0014749989733369,0.0014749990115121,-0.0014749997842554,0.0014749981609306,-0.0014750015103931,0.0014749963527187,-0.0013125944779425,0.0013125962740175,-0.0013125997047376,0.0013125908730122,-0.0012180465209193,0.0012180517214497,-0.0012180543742063,0.0012180436248707,1.0243200251793e-08,-9.5504704402132e-09,-0.0012899963902623,0.0012899970772933,-2.2670492521133e-09,3.0788727027582e-09,-0.0014749962462452,0.001475001715493,-0.0014749944717363,0.0014750034707631,-0.0014750028549742,0.0014749951290407,-0.0014750010804345,0.0014749968914335,-0.0012180575239299,0.0012180406168482,-0.0012180381209954,0.0012180599782746,0.70434020358694,131329,3014,0.0040783212842002,0.0053596462460688,0.0053596462460669,37.496223763095,5.9969790104764e-05,5.9969790104764e-05,5.9969790104764e-05,3363205.7513528,0.01490893934847
36619200,0.99933819875956,0.015062100750404,0.0043393252148516,0.0053613877677721,0.0053613877677805,-0.00097935624424702,0.00097935683104028,-9.6420014728853e-09,1.0225334526461e-08,-3.9325508256246e-09,4.6813099527237e-09,-0.0011517408498918,0.0011517319686772,-0.0011517342342725,0.0011517386052029,-0.0011517381206095,0.0011517348195479,-0.0011517315012758,0.0011517414426795,-0.0010501160347087,0.001050100027542,-0.0010500965839436,0.0010501194574259,3.691745375893e-09,-4.7094034054954e-09,2.265208553458e-09,-3.1258740082518e-09,-0.0012894010717602,0.0012894002136194,-0.0014744117462683,0.0014744154197686,-0.0014744134630733,0.0014744136209012,-0.0014744143990106,0.0014744126441855,-0.0014744161195597,0.001474410841684,-0.001312000282657,0.0013120019357412,-0.0013120054926855,0.0013119965516698,-0.0012174465897332,0.0012174521431167,-0.0012174547958539,0.0012174436915384,1.0312062876911e-08,-9.6202091113329e-09,-0.0012894002996376,0.0012894009857453,-2.251949043179e-09,3.0627349221093e-09,-0.0014744107695741,0.0014744162908683,-0.0014744090017745,0.0014744180392649,-0.0014744174208034,0.0014744096618844,-0.0014744156601888,0.0014744114100931,-0.0012174578474951,0.0012174407828381,-0.0012174382985387,0.0012174602906271,0.66675281265812,131329,3014,0.0040757687873801,0.0053571756417892,0.0053571756417966,37.157837142178,5.7262697137424e-05,5.7262697137424e-05,5.7262697137424e-05,3357512.6739951,0.014901333782011
36819200,0.99938338063484,0.015062704895231,0.0043394921009805,0.0053616063971209,0.0053616063971294,-0.00097876559502515,0.00097876618685389,-9.7152851263259e-09,1.0303543745576e-08,-4.0436277432422e-09,4.7985052406646e-09,-0.0011510945331988,0.0011510855357533,-0.0011510878723396,0.0011510922175017,-0.0011510917335804,0.0011510884575243,-0.0011510850583627,0.001151095136539,-0.0010495092159271,0.0010494931256938,-0.0010494896011481,0.0010495127197033,3.788562326168e-09,-4.8131108580392e-09,2.2474698173412e-09,-3.1139564040647e-09,-0.0012888106016017,0.0012888097375928,-0.00147379335295,0.0014737970829914,-0.0014737950653427,0.0014737952886502,-0.001473796077605,0.0014737942351881,-0.001473797782902,0.0014737924479547,-0.0013113850040444,0.0013113865397516,-0.0013113901693865,0.0013113812004041,-0.0012168168905121,0.0012168226289375,-0.0012168252779271,0.0012168139955783,1.035334260202e-08,-9.6621267353077e-09,-0.0012888098268684,0.001288810512327,-2.240564201684e-09,3.0505581891295e-09,-0.0014737923843173,0.0014737979457922,-0.0014737906297456,0.0014737996809216,-0.0014737990686457,0.0014737912839435,-0.0014737973105062,0.001473793029716,-0.0012168282776265,0.0012168111392162,-0.0012168086628041,0.0012168307119592,0.649578341253,131329,3014,0.0040733145774657,0.0053547294122064,0.0053547294122089,36.819173362009,5.4553386896069e-05,5.4553386896069e-05,5.4553386896069e-05,3355163.8080392,0.014893875099854
37019200,0.99942591511521,0.015063313923671,0.0043396622580918,0.0053618258327854,0.0053618258327939,-0.00097915223949048,0.00097915282563171,-9.7766957706846e-09,1.0359309355004e-08,-3.9313799989514e-09,4.6795197559424e-09,-0.0011514281779175,0.0011514192122636,-0.0011514214772794,0.0011514259337814,-0.0011514254544204,0.0011514220574805,-0.0011514187409461,0.0011514287747459,-0.001049911178639,0.0010498948932422,-0.0010498914513282,0.0010499145994969,3.664822116025e-09,-4.6813379993008e-09,2.2489079702724e-09,-3.1084914207272e-09,-0.0012892309051121,0.0012892300481199,-0.0014741891861994,0.0014741928361724,-0.0014741908965421,0.0014741910438969,-0.0014741918254477,0.0014741900743597,-0.0014741935301224,0.0014741882877383,-0.0013117910151802,0.0013117926412463,-0.0013117961786771,0.0013117873034138,-0.001217190289666,0.0012171957874965,-0.0012171984287559,0.0012171874039791,1.0412094198022e-08,-9.7209441233004e-09,-0.0012892301339611,0.0012892308192742,-2.2375528542962e-09,3.0473994628912e-09,-0.0014741881575028,0.0014741937593195,-0.0014741864042997,0.0014741954931513,-0.0014741948802951,0.001474187058928,-0.0014741931249874,0.0014741888019845,-0.0012172016165481,0.0012171843588146,-0.001217181884279,0.0012172040488568,0.68961816007682,131329,3014,0.0040749168053893,0.0053564718176434,0.0053564718176509,37.016259204312,5.6130073634496e-05,5.6130073634496e-05,5.6130073634496e-05,3360774.2004851,0.014899035414859
37219200,0.99946619748582,0.01506393206,0.004339836592735,0.005362047733628,0.0053620477336365,-0.00097975154962611,0.00097975212769225,-9.836969295458e-09,1.0411497432194e-08,-3.7653132294125e-09,4.5036208062993e-09,-0.001152055628905,0.0011520467299122,-0.0011520488886028,0.001152053491097,-0.0011520530169979,0.0011520494629263,-0.0011520462680829,0.0011520562156082,-0.001050545597231,0.001050529086583,-0.0010505257665902,0.0010505488972594,3.4389172026087e-09,-4.4397112073665e-09,2.2602118880346e-09,-3.1063356650849e-09,-0.0012898881996809,0.001289887356351,-0.0014748728734756,0.0014748763824255,-0.0014748745847513,0.0014748745892623,-0.0014748753559326,0.0014748737789006,-0.0014748770656649,0.0014748719870797,-0.0013124662518163,0.0013124680628269,-0.0013124714307855,0.0013124627096398,-0.0012178411243005,0.0012178461808784,-0.0012178488128961,0.0012178382518457,1.0473311929274e-08,-9.7821199396565e-09,-0.0012898874353388,0.0012898881206925,-2.2364731002231e-09,3.0462534903704e-09,-0.0014748717548939,0.0014748773960335,-0.0014748700003434,0.0014748791312957,-0.0014748785163197,0.0014748706570369,-0.0014748767640654,0.001474872397489,-0.0012178522946911,0.0012178349107715,-0.0012178324356178,0.0012178547261021,0.73362543589782,131329,3014,0.0040774061183691,0.005359195090956,0.0053591950909554,37.343069927334,5.8744559418672e-05,5.8744559418672e-05,5.8744559418672e-05,3364288.2884069,0.014907090252829
37419200,0.99950430252527,0.015064474495218,0.0043399878663957,0.0053622433144068,0.0053622433144153,-0.00098032574738071,0.0009803263122487,-9.9103799346664e-09,1.0471985116161e-08,-3.5048615370035e-09,4.2276346018119e-09,-0.0011527303299627,0.0011527215567836,-0.0011527235498785,0.0011527283577652,-0.0011527279008592,0.0011527241057936,-0.0011527211026165,0.0011527309078446,-0.0010511660442849,0.0010511491963996,-0.00105114606816,0.0010511691514919,3.2860043527403e-09,-4.2748463265813e-09,2.2627454377109e-09,-3.0985700651669e-09,-0.0012905360340696,0.0012905352011695,-0.0014755912419208,0.001475594658248,-0.0014755929561974,0.0014755928620661,-0.001475593623511,0.0014755921560307,-0.0014755953268066,0.0014755903707381,-0.0013131585885072,0.0013131604963212,-0.0013131637480027,0.0013131551621645,-0.0012185215915622,0.0012185263338103,-0.001218528952904,0.0012185187319602,1.0523460025814e-08,-9.8328950699228e-09,-0.0012905352752542,0.0012905359599878,-2.2453177016443e-09,3.0546943420964e-09,-0.0014755900611995,0.0014755957344204,-0.0014755883057275,0.0014755974707905,-0.0014755968608809,0.0014755889568112,-0.0014755950980116,0.0014755907076607,-0.0012185326447678,0.0012185151803873,-0.001218512701894,0.00121853508203,0.68665559465586,131329,3014,0.004079795178501,0.005361878012494,0.0053618780125005,37.673133709551,6.138506967641e-05,6.138506967641e-05,6.138506967641e-05,3364177.7658517,0.014914964299496
37619200,0.99954029883259,0.015064968065399,0.004340124781243,0.0053624216420736,0.0053624216420821,-0.00098092036793894,0.00098092092394722,-9.9733731874128e-09,1.0526280240923e-08,-3.3162910087625e-09,4.0284098265803e-09,-0.0011533478760462,0.0011533391833002,-0.0011533410563319,0.001153346023942,-0.0011533455745752,0.0011533416038642,-0.0011533387380066,0.0011533484442611,-0.0010517937399403,0.0010517766416096,-0.0010517736509988,0.001051796709826,3.0766000287016e-09,-4.0451082918617e-09,2.2766316158364e-09,-3.0942725452262e-09,-0.0012911994459597,0.0012911986313612,-0.0014762773140901,0.0014762806045198,-0.0014762790309229,0.001476278805779,-0.001476279549046,0.0014762782499679,-0.0014762812562872,0.0014762764607762,-0.0013138358763357,0.0013138379600602,-0.0013138410470445,0.0013138326148565,-0.0012191735756914,0.001219177903665,-0.0012191805077869,0.0012191707328203,1.0582255406773e-08,-9.8915649943028e-09,-0.0012911986962068,0.0012911993811145,-2.247846826293e-09,3.057386914399e-09,-0.0014762760520864,0.0014762817625109,-0.0014762742942928,0.0014762835013055,-0.0014762828903702,0.0014762749461723,-0.0014762811265497,0.0014762766980879,-0.0012191844800034,0.0012191668998139,-0.0012191644197622,0.0012191869191888,0.66415286296024,131329,3014,0.004082264818692,0.0053646266430963,0.0053646266430981,38.003319530844,6.4026556246753e-05,6.4026556246753e-05,6.4026556246753e-05,3367949.4585228,0.014923050445549
37819200,0.99957333937299,0.015065402557757,0.0043402445170444,0.005362579020352,0.0053625790203605,-0.00098057962046095,0.00098058017490095,-1.0031960591784e-08,1.0583352634724e-08,-3.2818075186801e-09,3.9920014345376e-09,-0.001152966775646,0.0011529580653032,-0.0011529599160897,0.0011529649457429,-0.0011529644966044,0.001152960463317,-0.0011529576226828,0.0011529673410309,-0.0010514413809808,0.0010514241482457,-0.0010514211829429,0.0010514443260971,3.0117182803662e-09,-3.9758017388904e-09,2.2760056264277e-09,-3.0899328802919e-09,-0.0012908622198423,0.0012908614089678,-0.0014759231177791,0.0014759263643604,-0.0014759248316318,0.0014759245685888,-0.0014759253071365,0.0014759240557658,-0.0014759270140266,0.001475922266906,-0.001313476052206,0.001313478183628,-0.0013134812221958,0.0013134728395038,-0.0012187998025607,0.0012188040084653,-0.0012188066070449,0.0012187969658561,1.0641547510558e-08,-9.9512714552526e-09,-0.0012908614721343,0.0012908621566749,-2.2424799196013e-09,3.0515545345448e-09,-0.0014759218130229,0.0014759275652421,-0.0014759200576731,0.0014759293016634,-0.0014759286896958,0.0014759207104951,-0.0014759269309769,0.0014759224574304,-0.0012188107082432,0.0012187930034373,-0.0012187905275819,0.001218813143276,0.64016141749161,131329,3014,0.0040808482908177,0.0053632298110769,0.0053632298110755,37.804140114946,6.2433120919571e-05,6.2433120919571e-05,6.2433120919571e-05,3367341.4786331,0.014918775534621
38019200,0.99960361932635,0.015065819082329,0.0043403602067248,0.0053627294377981,0.0053627294378066,-0.00098017531190418,0.00098017586538437,-1.0092867917637e-08,1.0643398863618e-08,-3.2640631162006e-09,3.9732081573946e-09,-0.0011524733216153,0.0011524645818073,-0.0011524664214228,0.0011524715029167,-0.0011524710542819,0.0011524669679949,-0.0011524641405173,0.0011524738856243,-0.0010510184846543,0.0010510011215223,-0.0010509981689172,0.0010510214155485,2.9923635050382e-09,-3.9551138492221e-09,2.2736007368178e-09,-3.0863745223757e-09,-0.0012904434201395,0.0012904426104185,-0.001475456857847,0.0014754600898338,-0.0014754585693275,0.0014754582964794,-0.0014754590334837,0.0014754577949704,-0.0014754607388553,0.0014754560077662,-0.001313022239681,0.0013130243812149,-0.0013130274048544,0.0013130190413016,-0.0012183243199557,0.0012183284903212,-0.0012183310850763,0.0012183214858054,1.0698261015058e-08,-1.0008301028156e-08,-0.0012904426731725,0.001290443357391,-2.239382054886e-09,3.0482322317448e-09,-0.0014754555260869,0.0014754613177686,-0.001475453772497,0.0014754630525008,-0.0014754624403271,0.001475454425442,-0.0014754606841149,0.0014754561698199,-0.0012183352657681,0.0012183174450498,-0.0012183149725094,0.0012183376981822,0.66569814032745,131329,3014,0.0040791654598126,0.0053614956786594,0.0053614956786716,37.559839781089,6.0478718248714e-05,6.0478718248714e-05,6.0478718248714e-05,3367905.3544613,0.014913544174534
38219200,0.9996313936425,0.015066204439382,0.0043404673965321,0.0053628685214205,0.005362868521429,-0.00097975571289861,0.00097975626610271,-1.0153161658587e-08,1.0703337988313e-08,-3.2548758228367e-09,3.9635627316734e-09,-0.0011520088743979,0.0011520001016203,-0.0011520019352267,0.0011520070616857,-0.0011520066143887,0.001152002480451,-0.0011519996593896,0.001152009439264,-0.0010505904047252,0.0010505729141363,-0.0010505699682664,0.0010505933298831,2.9915381254004e-09,-3.9544068335452e-09,2.2709616995126e-09,-3.083845098803e-09,-0.0012900152839719,0.0012900144741492,-0.0014750077740912,0.0014750110048831,-0.0014750094849947,0.0014750092121124,-0.0014750099503526,0.0014750087094921,-0.001475011652874,0.0014750069250599,-0.001312580058692,0.0013125821919609,-0.0013125852155256,0.0013125768608161,-0.0012178667444035,0.0012178709119358,-0.0012178735058457,0.0012178639123999,1.0755516192481e-08,-1.0065516254152e-08,-0.001290014536946,0.0012900152211755,-2.2385127651187e-09,3.0472572855581e-09,-0.0014750064218356,0.0014750122533483,-0.001475004669981,0.0014750139863137,-0.0014750133753426,0.0014750053217565,-0.0014750116186595,0.0014750070666226,-0.0012178777432952,0.0012178598138422,-0.0012178573411063,0.0012178801753059,0.67076171916323,131329,3014,0.0040774217507401,0.0053597221481701,0.0053597221481717,37.314297801634,5.8514382413071e-05,5.8514382413071e-05,5.8514382413071e-05,3365791.9998264,0.014908173086542
38419200,0.99965706418817,0.015066585839192,0.0043405745735011,0.0053630056328415,0.0053630056328499,-0.00097956475985387,0.00097956531201444,-1.0214374944092e-08,1.0763515824392e-08,-3.231513593772e-09,3.9389349469471e-09,-0.0011517897153193,0.0011517809177186,-0.0011517827364243,0.0011517879175195,-0.0011517874718817,0.0011517832798605,-0.0011517804757352,0.0011517902798429,-0.0010504015822855,0.0010503839537036,-0.0010503810246788,0.0010504044900894,2.979538364217e-09,-3.9418163524184e-09,2.2720415082003e-09,-3.0844251536137e-09,-0.0012898257254059,0.0012898249161216,-0.0014748070352119,0.0014748102596106,-0.0014748087473791,0.0014748084655721,-0.0014748092039697,0.0014748079717586,-0.0014748109063463,0.0014748061874861,-0.0013123862954158,0.0013123884368214,-0.0013123914515714,0.0013123831060216,-0.0012176565079714,0.0012176606489638,-0.001217663243033,0.0012176536758297,1.0812291980196e-08,-1.0122095758158e-08,-0.0012898249785767,0.0012898256629537,-2.2410540093972e-09,3.0500161074839e-09,-0.0014748056613334,0.0014748115297159,-0.0014748039084451,0.001474813263759,-0.0014748126533613,0.0014748045596,-0.0014748108941842,0.0014748063069194,-0.0012176675471488,0.0012176495106538,-0.0012176470360254,0.0012176699811855,0.71253732527369,131329,3014,0.0040766280164936,0.005358937002159,0.0053589370021659,37.19659762827,5.757278102616e-05,5.757278102616e-05,5.757278102616e-05,3364683.4273346,0.014905773073242
38619200,0.99968094371235,0.015066942652809,0.0043406748920813,0.0053631338803596,0.005363133880368,-0.00097955459358424,0.00097955514486815,-1.0272303112015e-08,1.0820616104664e-08,-3.2085005378051e-09,3.9148672224348e-09,-0.001151827693324,0.0011518188710582,-0.0011518206749829,0.0011518259102995,-0.0011518254644003,0.0011518212185849,-0.0011518184310366,0.0011518282557609,-0.0010504122609297,0.0010503945062791,-0.0010503915938941,0.0010504151519649,2.951378629809e-09,-3.9119558517943e-09,2.2779219078733e-09,-3.088876071047e-09,-0.0012898404532677,0.0012898396454163,-0.0014748565175336,0.001474859726336,-0.0014748582319957,0.0014748579299449,-0.0014748586658706,0.0014748574589035,-0.0014748603727901,0.0014748556700631,-0.0013124282265401,0.0013124304019128,-0.0013124333959675,0.0013124250577956,-0.0012176920856329,0.0012176961706449,-0.0012176987666228,0.0012176892516203,1.0872313830217e-08,-1.018186895854e-08,-0.0012898397070368,0.0012898403916511,-2.245018375465e-09,3.0542755387435e-09,-0.0014748551177081,0.0014748610224155,-0.0014748533609826,0.0014748627603266,-0.001474862148529,0.0014748540134053,-0.0014748603877187,0.0014748557623334,-0.0012177031555949,0.0012176850014463,-0.0012176825240698,0.0012177055927919,0.7162596628758,131329,3014,0.0040765888936235,0.0053589972030668,0.0053589972030757,37.193720308351,5.7549762466811e-05,5.7549762466811e-05,5.7549762466811e-05,3361327.9996794,0.014905857750768
38819200,0.99970316060361,0.015067275810105,0.0043407686037264,0.005363253603185,0.0053632536031935,-0.00097954605372422,0.00097954660515059,-1.0342264267338e-08,1.0890717518056e-08,-3.2003815390114e-09,3.9068034223372e-09,-0.0011518709661815,0.0011518621106139,-0.0011518639089033,0.001151869188801,-0.0011518687504976,0.0011518644449442,-0.0011518616626233,0.0011518715366393,-0.0010504220295916,0.0010504041101475,-0.0010504012029913,0.0010504249157885,2.9361671640902e-09,-3.8958685302142e-09,2.281742730261e-09,-3.0920127833644e-09,-0.0012898575338213,0.0012898567266887,-0.0014749097154322,0.001474912924678,-0.0014749114399709,0.0014749111182458,-0.0014749118613404,0.0014749106600111,-0.0014749135627402,0.0014749088766065,-0.0013124710512448,0.0013124732222147,-0.001312476205081,0.0013124678936125,-0.0012177320163259,0.0012177360467512,-0.0012177386445891,0.0012177291810445,1.091991082522e-08,-1.0229078995952e-08,-0.001289856787734,0.0012898574727772,-2.251983357219e-09,3.061689558868e-09,-0.0014749082983745,0.0014749142380294,-0.0014749065446131,0.0014749159730001,-0.0014749153685981,0.0014749071897531,-0.0014749135952859,0.0014749089513521,-0.0012177430917497,0.001217724872651,-0.0012177223896028,0.0012177455338568,0.71844599895957,131329,3014,0.0040765566315972,0.0053590670946879,0.005359067094691,37.193612870332,5.7548902962653e-05,5.7548902962653e-05,5.7548902962653e-05,3358118.3212341,0.014905969030336
38880000,0.9997097643113,0.015067374964407,0.0043407965047907,0.0053632892298039,0.0053632892298124,-0.00097954178188073,0.00097954233351879,-1.036055230918e-08,1.0909183305615e-08,-3.2057028405375e-09,3.9123555118423e-09,-0.0011518841284966,0.0011518752574276,-0.0011518770591323,0.00115188234771,-0.0011518819093459,0.0011518775952171,-0.0011518748090621,0.0011518846993175,-0.001050423879854,0.0010504059276909,-0.0010504030167607,0.0010504267699737,2.9398514829965e-09,-3.8998837807018e-09,2.2835684368133e-09,-3.0941275389855e-09,-0.0012898616971706,0.0012898608897249,-0.0014749254705004,0.0014749286834716,-0.0014749271965116,0.001474926875534,-0.0014749276191113,0.0014749264159754,-0.0014749293216795,0.001474924631431,-0.0013124832814072,0.0013124854527136,-0.0013124884384618,0.001312480121046,-0.0012177438122299,0.0012177478480695,-0.0012177504473871,0.0012177409753611,1.0937267498574e-08,-1.0246323779018e-08,-0.0012898609508698,0.0012898616360273,-2.2537947280005e-09,3.0636339987608e-09,-0.0014749240499842,0.0014749300002661,-0.0014749222951362,0.0014749317363007,-0.0014749311319279,0.0014749229402261,-0.0014749293571685,0.001474924703194,-0.0012177549062411,0.0012177366551445,-0.0012177341709083,0.0012177573497997,0.71909630192171,131329,3014,0.0040765399660522,0.0053590840298324,0.0053590840298365,37.193608970276,5.7548871762207e-05,5.7548871762207e-05,5.7548871762207e-05,3357108.4684795,0.01490598715528
