time,ASR_ext,ASR_strain,ASR_strain_xx,ASR_strain_yy,ASR_strain_zz,disp_x_101,disp_x_102,disp_x_103,disp_x_104,disp_x_105,disp_x_106,disp_x_p1_neg,disp_x_p1_pos,disp_x_p2_neg,disp_x_p2_pos,disp_x_p3_neg,disp_x_p3_pos,disp_x_p4_neg,disp_x_p4_pos,disp_x_p5_neg,disp_x_p5_pos,disp_x_p6_neg,disp_x_p6_pos,disp_y_101,disp_y_102,disp_y_103,disp_y_104,disp_y_105,disp_y_106,disp_y_p1_neg,disp_y_p1_pos,disp_y_p2_neg,disp_y_p2_pos,disp_y_p3_neg,disp_y_p3_pos,disp_y_p4_neg,disp_y_p4_pos,disp_y_p5_neg,disp_y_p5_pos,disp_y_p6_neg,disp_y_p6_pos,disp_y_p7_neg,disp_y_p7_pos,disp_y_p8_neg,disp_y_p8_pos,disp_z_101,disp_z_102,disp_z_103,disp_z_104,disp_z_105,disp_z_106,disp_z_p1_neg,disp_z_p1_pos,disp_z_p2_neg,disp_z_p2_pos,disp_z_p3_neg,disp_z_p3_pos,disp_z_p4_neg,disp_z_p4_pos,disp_z_p5_neg,disp_z_p5_pos,disp_z_p6_neg,disp_z_p6_pos,humidity,ndof,nelem,strain_xx,strain_yy,strain_zz,temp,thermal_strain_xx,thermal_strain_yy,thermal_strain_zz,vonmises,vstrain
2419200,0,0,0,0,0,0,0,0,0,0,0,0,0,0,0,0,0,0,0,0,0,0,0,0,0,0,0,0,0,0,0,0,0,0,0,0,0,0,0,0,0,0,0,0,0,0,0,0,0,0,0,0,0,0,0,0,0,0,0,0,0,0,0,0,0,0,0,0,0,0,0,0,0,0,0
2619200,0.019573309222775,0.00040151581914395,0.00013383860638132,0.00013383860638132,0.00013383860638132,-3.3545075196761e-05,3.3544715527511e-05,-1.9980842436663e-10,-1.566190010735e-10,6.3337349673106e-10,-1.0204871108358e-09,-3.3323394378346e-05,3.332356690014e-05,-3.3323373210735e-05,3.3323574810241e-05,-3.3323916991948e-05,3.3323012260941e-05,-3.3323903091672e-05,3.332302692978e-05,-3.4649577015874e-05,3.4648631592362e-05,-3.4649533115132e-05,3.4648671463611e-05,-6.2960973124466e-10,1.1065560811632e-09,-1.4241501327451e-09,1.871171445469e-09,-3.4747146202383e-05,3.4747596465259e-05,-3.4372438413944e-05,3.4371235962923e-05,-3.4371383031304e-05,3.4372340900283e-05,-3.4371887287649e-05,3.4371815197218e-05,-3.4370832202562e-05,3.4372919924787e-05,-3.555680174981e-05,3.5554590381286e-05,-3.5553612719203e-05,3.5557867698141e-05,-3.5308918800041e-05,3.5308765890775e-05,-3.5307229708817e-05,3.5310506699848e-05,-4.0977407312636e-10,-4.4949844958863e-10,-3.4747804012199e-05,3.4746938654314e-05,1.2022852615868e-09,-2.1187109742321e-09,-3.4371724935676e-05,3.4371988434472e-05,-3.4372827749909e-05,3.4370888849466e-05,-3.4371736119391e-05,3.4371973407806e-05,-3.4372839513806e-05,3.4370873918078e-05,-3.5309851882848e-05,3.5307847015787e-05,-3.5309816849872e-05,3.5307890603007e-05,0.8199296707335,131329,3014,0.00013976060379689,0.00014477017401419,0.00014477017401183,31.551827822162,1.2414622577297e-05,1.2414622577297e-05,1.2414622577297e-05,515048.83056523,0.00042939333859125
2819200,0.041162542887134,0.00084153559731179,0.00027872454097261,0.00028140552817315,0.00028140552816603,-6.8895702680105e-05,6.8896539587697e-05,3.3070006823698e-10,5.0394667167952e-10,-1.0232827916227e-09,1.9083762848042e-09,-6.9458647885155e-05,6.945846114866e-05,-6.9458589180743e-05,6.9458519559401e-05,-6.9457722027794e-05,6.9459436009808e-05,-6.9457662716916e-05,6.9459490080666e-05,-7.097351064551e-05,7.0975146276701e-05,-7.0973337720155e-05,7.0975306812732e-05,9.2777306837755e-10,-1.9528118205526e-09,4.0570543866489e-11,-1.0209937884092e-09,-7.2019092761076e-05,7.2018110340469e-05,-7.2094236186428e-05,7.2094546520337e-05,-7.2094565384551e-05,7.2094191787773e-05,-7.209514604362e-05,7.2093584447463e-05,-7.2095477137122e-05,7.2093227916425e-05,-7.3379412768798e-05,7.3378522328748e-05,-7.3380442329983e-05,7.3377464153546e-05,-7.2810571170183e-05,7.2812055111615e-05,-7.281337869953e-05,7.280916240285e-05,4.5275371923981e-10,2.8289835705379e-10,-7.2018235531554e-05,7.2018967565361e-05,-1.340948076942e-10,8.8152444797991e-10,-7.2094149038622e-05,7.2094593079912e-05,-7.2093811262556e-05,7.2094929066973e-05,-7.2094207440411e-05,7.2094539874432e-05,-7.2093871579272e-05,7.2094874083098e-05,-7.2810842969173e-05,7.2811744760479e-05,-7.2810670072933e-05,7.2811910236153e-05,0.82138490785954,131329,3014,0.00028702605174019,0.00030003230463727,0.0003000323046276,32.73971613231,2.1917729058479e-05,2.1917729058479e-05,2.1917729058479e-05,675019.22013166,0.00088748476963021
3019200,0.062598901601929,0.0012755119416118,0.00041855404693963,0.00042847894734082,0.00042847894733139,-0.00010040354516464,0.00010040525096808,6.9940359227388e-10,9.9169697767997e-10,-3.0428781279266e-09,4.8818954795655e-09,-0.00010171607504313,0.00010171505932154,-0.00010171598261827,0.00010171516705862,-0.00010171355215123,0.00010171770508919,-0.00010171345560853,0.00010171779765779,-0.00010386702936841,0.0001038710650325,-0.00010386675057349,0.00010387134261105,2.8829061598875e-09,-5.1606662608495e-09,1.03515942541e-09,-3.1740149645627e-09,-0.00010639697667338,0.00010639482346844,-0.00010704974695035,0.00010705163009688,-0.00010705109111006,0.00010705022080528,-0.00010705230385009,0.00010704894695898,-0.00010705365348948,0.00010704753231176,-0.00010857099261495,0.00010857032570395,-0.00010857507129662,0.00010856613023683,-0.00010727369148797,0.00010727800261053,-0.00010728152419281,0.00010726992656401,8.4897291455948e-10,5.363631183352e-10,-0.00010639520516169,0.00010639659497573,-1.3396197766843e-09,2.7942026346378e-09,-0.00010705058931412,0.00010705068871735,-0.00010704920893505,0.0001070520548662,-0.00010705070186506,0.00010705059810781,-0.0001070493259197,0.00010705195784875,-0.00010727457660168,0.00010727702448492,-0.00010727423554126,0.00010727731125819,0.82013325101099,131329,3014,0.00041826458842711,0.00044321754704637,0.00044321754703707,32.491742099892,1.993393679914e-05,1.993393679914e-05,1.993393679914e-05,893445.14439706,0.0013055523202813
3219200,0.083793573565887,0.001695417885441,0.00055192724779903,0.00057174531882588,0.00057174531881608,-0.00013030516456691,0.00013030684029329,6.1564084371247e-10,1.0394492773396e-09,-3.677787300038e-09,5.5175087534464e-09,-0.00013271532735631,0.00013271381138704,-0.00013271519671995,0.00013271396810163,-0.00013271239571223,0.00013271688453224,-0.00013271225621738,0.00013271702192129,-0.00013513853290521,0.00013514282713052,-0.00013513812968537,0.0001351432389012,3.410354072088e-09,-5.8876493938957e-09,1.844733173259e-09,-4.1453019134163e-09,-0.00013975850017746,0.00013975617954383,-0.00014136862972227,0.00014137135948351,-0.00014137055227304,0.00014136935189556,-0.00014137159811271,0.00014136825635828,-0.00014137352594153,0.00014136624357319,-0.0001426459798291,0.00014264647828358,-0.00014265177568183,0.00014264050848817,-0.0001404285922456,0.00014043335514191,-0.00014043763641008,0.00014042401599134,1.0493349362586e-09,6.0644507511482e-10,-0.00013975650690805,0.00013975817280889,-2.0640668448365e-09,3.8279607090272e-09,-0.00014137002400311,0.00014136985025622,-0.00014136805592832,0.00014137179589829,-0.00014137018600568,0.00014136972160414,-0.00014136822241315,0.0001413716612475,-0.00014042933349721,0.00014043251354712,-0.00014042884766902,0.00014043290901595,0.80675914072168,131329,3014,0.00054279552201588,0.00058215187782488,0.00058215187781564,32.203774481303,1.7630195850425e-05,1.7630195850425e-05,1.7630195850425e-05,1067859.6731773,0.0017085590678016
3419200,0.10472266440513,0.0020973651879504,0.00067789520187381,0.00070973499304305,0.00070973499303357,-0.00015845449745942,0.00015845597651256,4.510515668166e-10,1.0063758767019e-09,-3.7977413062717e-09,5.4527101081991e-09,-0.00016240305294991,0.00016240127796322,-0.0001624028825907,0.00016240148244946,-0.00016240011243379,0.00016240437143874,-0.00016239992996833,0.00016240455355355,-0.0001644806408416,0.00016448462720273,-0.00016448011136333,0.00016448517057587,3.4335548743851e-09,-5.908415829045e-09,2.4231738659238e-09,-4.702294789751e-09,-0.00017183070062352,0.0001718283994749,-0.00017489386813845,0.00017489701248158,-0.00017489615818366,0.00017489462345408,-0.00017489685167234,0.00017489389725758,-0.00017489914684699,0.00017489150314141,-0.0001751645864405,0.00017516620487319,-0.00017517147432285,0.00017515910068902,-0.00017185773652123,0.00017186216796635,-0.0001718668163695,0.00017185277779935,1.1811671856827e-09,6.080087423091e-10,-0.00017182864871278,0.00017183045138154,-2.5408747263043e-09,4.4673863918645e-09,-0.00017489556608081,0.00017489519446111,-0.00017489322456845,0.00017489750699971,-0.00017489577389589,0.00017489502450265,-0.00017489343811486,0.00017489733255028,-0.00017185812275771,0.00017186168295306,-0.00017185750105579,0.00017186219700533,0.78589837072021,131329,3014,0.00066001491110237,0.00071569885422602,0.00071569885421728,31.91428861455,1.5314308916404e-05,1.5314308916404e-05,1.5314308916404e-05,1219898.4902026,0.0020936036242862
3619200,0.12590866173723,0.0024938810245367,0.00080078581687809,0.00084654760383482,0.00084654760382376,-0.0001865367378838,0.00018653773040142,1.3413205103438e-10,8.4075163625433e-10,-3.2175097113604e-09,4.3667337654206e-09,-0.00019234176899214,0.00019234000613588,-0.00019234155060104,0.00019234026239213,-0.00019233936100767,0.0001923425436446,-0.00019233912847348,0.00019234277756464,-0.000193679132582,0.00019368193550244,-0.00019367845429763,0.00019368262947218,2.8331389907719e-09,-4.729687620708e-09,2.7362056107472e-09,-4.4563879349476e-09,-0.00020428864800302,0.00020428690903778,-0.00020929657716806,0.00020929972279628,-0.00020929888839133,0.0002092973100688,-0.00020929899555052,0.00020929720291901,-0.00020930131086506,0.00020929478615052,-0.00020790044948416,0.00020790327927809,-0.00020790739196225,0.00020789610399907,-0.00020329909960762,0.00020330231912205,-0.00020330644252946,0.00020329471169701,1.2097292751893e-09,5.2613925604953e-10,-0.00020428690322183,0.0002042886538141,-2.5971531414161e-09,4.4821793414169e-09,-0.0002092983032351,0.00020929789074191,-0.00020929593985871,0.00020930022444546,-0.00020929854792681,0.00020929768294566,-0.00020929619039019,0.00020930001435479,-0.00020329895865997,0.00020330238357852,-0.00020329823090943,0.0002033030047947,0.77011575683084,131329,3014,0.0007769415335938,0.00085083480348134,0.0008508348034711,31.993878921433,1.5951031371467e-05,1.5951031371467e-05,1.5951031371467e-05,1409028.3991129,0.0024816885418502
3819200,0.14769327429095,0.0028995271204351,0.00092577219941758,0.00098687746051434,0.00098687746050321,-0.00021554314625664,0.00021554374206673,-8.9597758276458e-11,6.7230749138675e-10,-2.5790131551978e-09,3.3074755034011e-09,-0.00022328092171022,0.00022327930275757,-0.00022328068393938,0.00022327957840956,-0.00022327905315375,0.00022328127187794,-0.00022327880240245,0.00022328152508945,-0.00022407413441262,0.00022407592707972,-0.00022407340140051,0.00022407667299274,2.4265504252462e-09,-3.7595592218792e-09,2.8165320176813e-09,-3.9971026381249e-09,-0.00023802425072293,0.00023802305608283,-0.00024526155590672,0.00024526466125254,-0.00024526374518523,0.00024526237626884,-0.00024526352722889,0.00024526260478446,-0.00024526572132077,0.00024526031532177,-0.00024196756857932,0.00024197102134409,-0.0002419741406422,0.00024196422078689,-0.00023585184427203,0.00023585439221935,-0.00023585784944083,0.0002358481578642,1.2104339088544e-09,3.2040103526978e-10,-0.00023802288125959,0.00023802442554144,-2.4894420410964e-09,4.1684033175444e-09,-0.00024526326826191,0.00024526285579965,-0.00024526104546607,0.00024526505018923,-0.00024526357866556,0.00024526257838297,-0.00024526136143657,0.00024526476904734,-0.00023585164596637,0.00023585452315633,-0.00023585072504716,0.00023585535732867,0.77140161299973,131329,3014,0.00089770311336066,0.00099127029203422,0.00099127029202429,32.32533090746,1.8602647259683e-05,1.8602647259683e-05,1.8602647259683e-05,1610951.4750349,0.0028843996938576
4019200,0.17006506082401,0.0033145035684173,0.0010527951200064,0.0011308542242112,0.0011308542241997,-0.0002450095915753,0.00024501000672113,-2.5404453861373e-10,6.5835774224789e-10,-2.4104128895555e-09,2.9450767255747e-09,-0.00025482719199118,0.00025482552522521,-0.00025482690548677,0.00025482584900635,-0.00025482549295372,0.00025482731133386,-0.00025482519397211,0.00025482761347404,-0.00025517411766488,0.0002551754098682,-0.00025517323646426,0.00025517629993376,2.2813370505491e-09,-3.2982909559657e-09,2.7301429401044e-09,-3.6068192816047e-09,-0.00027259908778301,0.00027259820094319,-0.00028235736375928,0.00028236042407273,-0.00028235940020847,0.00028235829963266,-0.00028235914689083,0.00028235856873631,-0.00028236118727175,0.0002823564391837,-0.00027695279131729,0.00027695628203512,-0.00027695889987313,0.00027694995383206,-0.000269123230733,0.00026912565961587,-0.0002691286568999,0.00026912003060828,1.1659956453687e-09,1.6497642867894e-10,-0.00027259797327003,0.00027259931545115,-2.3587349122308e-09,3.8328571294854e-09,-0.00028235906249957,0.00028235864241837,-0.00028235699672293,0.00028236068182119,-0.00028235941096469,0.00028235832496446,-0.0002823573501075,0.0002823603602425,-0.00026912320924915,0.00026912562182808,-0.00026912218326167,0.00026912657110576,0.77299485400522,131329,3014,0.001020367078699,0.0011351777621078,0.0011351777620973,32.662845584585,2.1302764676681e-05,2.1302764676681e-05,2.1302764676681e-05,1799877.7758828,0.0032961485846278
4219200,0.19299929502351,0.0037387938435709,0.0011818105355306,0.0012784916540258,0.0012784916540145,-0.0002749121363787,0.00027491246471375,-3.6297081118205e-10,6.8166873609097e-10,-2.3669520680332e-09,2.8076296241216e-09,-0.00028698566516199,0.00028698392892568,-0.00028698533392276,0.00028698429585477,-0.00028698401996418,0.00028698565192509,-0.00028698367734269,0.00028698599829194,-0.00028695416495227,0.00028695518289318,-0.00028695315280292,0.00028695619998999,2.2627410158819e-09,-3.1242289251485e-09,2.5792351841161e-09,-3.3066192385159e-09,-0.00030800198355672,0.00030800124817577,-0.00032057032536566,0.00032057332685824,-0.00032057221767991,0.0003205713548989,-0.00032057205098565,0.00032057153571873,-0.00032057394721231,0.00032056955863422,-0.00031287178424473,0.00031287504488927,-0.00031287745630255,0.00031286916540239,-0.00030312993036067,0.00030313247904819,-0.00030313517777485,0.00030312704219019,1.136698506935e-09,6.3489848958107e-12,-0.00030800104005143,0.00030800219167615,-2.2323770267671e-09,3.5122295770914e-09,-0.00032057199796053,0.00032057157972992,-0.00032057008097491,0.00032057347074909,-0.00032057238892425,0.00032057121731575,-0.00032057047716303,0.00032057310452236,-0.00030313020224624,0.00030313215110444,-0.00030312905172631,0.00030313323058462,0.77488673344596,131329,3014,0.0011448333334838,0.0012825092314847,0.0012825092314744,33.000584831908,2.4004678655266e-05,2.4004678655266e-05,2.4004678655266e-05,1977780.0418807,0.0037167495283943
4419200,0.21686668807928,0.0041790537769177,0.0013147125237953,0.0014321706265664,0.001432170626556,-0.00030616367888463,0.00030616393369702,-5.1988497335622e-10,7.6582511093619e-10,-2.2151766032577e-09,2.573888827419e-09,-0.00032074575765092,0.00032074399820824,-0.00032074534532528,0.00032074444442149,-0.00032074423540618,0.00032074558992743,-0.00032074381354854,0.00032074601669327,-0.00032032341763445,0.00032032399984946,-0.00032032216909514,0.00032032525131903,1.9883091954008e-09,-2.6884126713971e-09,2.4095436918527e-09,-2.9851884370482e-09,-0.00034528575482302,0.00034528517319263,-0.00036100536619529,0.00036100812602122,-0.00036100710232237,0.00036100632037581,-0.00036100686471759,0.00036100657285834,-0.00036100860521297,0.00036100476181023,-0.00035080028510165,0.000350803452484,-0.00035080548478429,0.00035079806248259,-0.00033891532525349,0.00033891749914384,-0.00033891988629482,0.00033891277053781,1.0571254429404e-09,-9.380419834613e-11,-0.00034528497937127,0.00034528594864082,-2.1241645020561e-09,3.2164625607325e-09,-0.00036100694351186,0.00036100648495466,-0.00036100516050636,0.00036100824213159,-0.00036100734060102,0.00036100611434583,-0.00036100556463659,0.00036100786879525,-0.00033891558274769,0.00033891719686999,-0.00033891440971381,0.00033891829567764,0.77612068302125,131329,3014,0.0012749005992944,0.0014376437907108,0.0014376437907034,33.594763960791,2.8758111686332e-05,2.8758111686332e-05,2.8758111686332e-05,2152985.5406922,0.0041588227074664
4619200,0.24180598688949,0.0046375514081447,0.0014519946579785,0.0015927783750884,0.0015927783750778,-0.00033859924361396,0.00033859945214535,-6.3355383658577e-10,8.3417428484232e-10,-2.1041192531011e-09,2.4105096628639e-09,-0.00035601252590409,0.00035601074480107,-0.00035601204927069,0.00035601125292173,-0.00035601108526868,0.00035601224575573,-0.00035601060122003,0.00035601273608442,-0.0003550924527491,0.00035509271757513,-0.00035509102435362,0.00035509414955522,1.8562521273638e-09,-2.4330734402664e-09,2.2867367174753e-09,-2.7470046852543e-09,-0.00038436824984946,0.00038436778501074,-0.00040362460559695,0.0004036272291929,-0.00040362622558384,0.00040362554719473,-0.00040362597565318,0.00040362580965937,-0.0004036276011724,0.00040362412295169,-0.00039066615222853,0.00039066920786925,-0.00039067100727381,0.00039066418178463,-0.00037638990437374,0.00037639193720887,-0.00037639409007736,0.00037638759876078,1.0222996496974e-09,-2.0877265525634e-10,-0.00038436760893331,0.00038436842592319,-2.0426960460453e-09,2.9779018476721e-09,-0.00040362613043279,0.0004036256484253,-0.00040362445202581,0.00040362730096467,-0.000403626549149,0.00040362525268963,-0.0004036248795086,0.00040362690376122,-0.00037639026184728,0.00037639154279977,-0.00037638901135167,0.00037639271652339,0.77693646790667,131329,3014,0.0014098810732706,0.0016002357818062,0.0016002357817985,34.292646953291,3.4341175626332e-05,3.4341175626332e-05,3.4341175626332e-05,2324119.5584518,0.0046210110113551
4819200,0.26778751495627,0.0051137380684209,0.0015934124683399,0.0017601628000456,0.0017601628000353,-0.00037198146495559,0.00037198166698933,-6.9401897782897e-10,8.8816404809505e-10,-2.062530884112e-09,2.3583349641033e-09,-0.00039258465252971,0.00039258285476278,-0.00039258413534152,0.00039258340173874,-0.0003925832370182,0.00039258432428046,-0.00039258271347588,0.00039258485483694,-0.00039101994998155,0.00039102006204246,-0.00039101840711468,0.00039102160850041,1.8577023513014e-09,-2.3753658318128e-09,2.1937248545155e-09,-2.5998081742695e-09,-0.00042501356103091,0.00042501315162367,-0.00044821104540705,0.00044821362061604,-0.00044821258769995,0.00044821202137567,-0.00044821239352265,0.00044821222356472,-0.00044821394181713,0.00044821062035735,-0.00043225766804485,0.00043226055950795,-0.00043226229456103,0.0004322557771801,-0.00041531260341753,0.00041531471680134,-0.00041531673343567,0.00041531043827023,1.0401213088021e-09,-3.3887209199902e-10,-0.00042501300495819,0.0004250137076925,-1.9783669759454e-09,2.7948113055507e-09,-0.00044821254117184,0.00044821207283448,-0.00044821094405445,0.00044821364459455,-0.00044821300453317,0.00044821162964638,-0.00044821141671875,0.00044821320075016,-0.0004153131699923,0.00041531411336883,-0.00041531177892178,0.00041531543086495,0.77792179610471,131329,3014,0.0015487862305443,0.0017693000531619,0.0017693000531538,34.99306284671,3.9944502773682e-05,3.9944502773682e-05,3.9944502773682e-05,2490514.6708742,0.0051003683225316
5019200,0.2947637413904,0.0056052423744668,0.0017382383357534,0.0019335020193619,0.0019335020193515,-0.00040615056188242,0.00040615078931029,-7.4458251994159e-10,9.6348231055619e-10,-2.0601190525565e-09,2.3792051982085e-09,-0.00043035342184727,0.00043035160035805,-0.00043035286152786,0.00043035218940264,-0.00043035199658874,0.00043035307532562,-0.00043035143056964,0.00043035364866806,-0.00042789439897453,0.00042789441880364,-0.00042789273235003,0.00042789608823418,1.886381589651e-09,-2.3781310853068e-09,2.1109435288692e-09,-2.49439606147e-09,-0.00046701600217306,0.0004670156163754,-0.00049459974780855,0.00049460229273206,-0.0004946012304176,0.00049460075814644,-0.00049460110472657,0.00049460088638731,-0.00049460259302144,0.00049459934763462,-0.00047534314258595,0.00047534586254429,-0.00047534758949118,0.00047534126851578,-0.00045544925976414,0.00045545149097701,-0.00045545341776405,0.00045544718187654,1.069818982985e-09,-4.4542548689536e-10,-0.0004670154970374,0.00046701612150655,-1.9241005678793e-09,2.6584070568422e-09,-0.0004946012144191,0.00049460077636681,-0.00049459968113348,0.00049460228558518,-0.00049460172152749,0.00049460028810572,-0.00049460019722545,0.00049460179646603,-0.00045545001929389,0.0004554506900271,-0.00045544849893059,0.00045545214222314,0.77677326252726,131329,3014,0.0016909509477616,0.0019439776460259,0.0019439776460165,35.693572986613,4.5548583892906e-05,4.5548583892906e-05,4.5548583892906e-05,2652954.4339247,0.0055945228588861
5219200,0.32203885516801,0.0061011155113192,0.0018834626347185,0.0021088264383047,0.0021088264382959,-0.00043971101837768,0.00043971139616503,-7.9659274744719e-10,1.1640958666262e-09,-2.4484194197321e-09,2.9267916802144e-09,-0.00046783196545575,0.0004678298969369,-0.00046783132061352,0.00046783057045569,-0.00046783022887778,0.00046783168225569,-0.00046782957875005,0.00046783234048747,-0.00046428850143602,0.00046428873470608,-0.00046428658792001,0.00046429065187779,2.2397975485776e-09,-2.7505230539106e-09,2.0703501656246e-09,-2.4714734133205e-09,-0.00050873246462655,0.00050873206150881,-0.00054103386900097,0.00054103661407123,-0.00054103533144362,0.00054103510179919,-0.00054103546057551,0.00054103496483277,-0.00054103692844095,0.0005410334481713,-0.00051832023984863,0.00051832263970493,-0.00051832462736461,0.00051831810972139,-0.00049526162061816,0.00049526456930643,-0.00049526648368005,0.00049525953869199,1.0680723576815e-09,-4.5672383131223e-10,-0.00050873195777757,0.00050873256835504,-1.9632739336525e-09,2.6829565901796e-09,-0.00054103544934135,0.00054103497953618,-0.0005410338959385,0.00054103651065485,-0.00054103596024979,0.00054103448932441,-0.00054103441472745,0.00054103601852311,-0.00049526273509795,0.00049526340495748,-0.00049526120621426,0.00049526486588011,0.77855552794033,131329,3014,0.0018305708221664,0.0021174335180827,0.002117433518077,36.022983894579,4.8183871156634e-05,4.8183871156634e-05,4.8183871156634e-05,2806259.4711383,0.0060839032352976
5419200,0.34941012564003,0.0065907783814529,0.0020260376789618,0.0022823703512486,0.0022823703512425,-0.000472421644184,0.00047242217166994,-7.8726737299275e-10,1.3025224695826e-09,-2.6540832248587e-09,3.2940575813314e-09,-0.00050480221370692,0.0005048000531549,-0.00050480152289347,0.00050480077340886,-0.00050480028605303,0.00050480203065112,-0.00050479958952988,0.00050480273502825,-0.00049971584168531,0.00049971628195186,-0.00049971380012562,0.00049971833065567,2.5053535727519e-09,-3.0606138455703e-09,2.0473284077723e-09,-2.489582884376e-09,-0.00055005265056858,0.00055005220617606,-0.00058743759528361,0.0005874404793864,-0.00058743905206125,0.00058743897122644,-0.00058743936523765,0.00058743863906028,-0.00058744082855305,0.00058743712749317,-0.00056087233981148,0.00056087450022056,-0.0005608767247818,0.00056086997945429,-0.00053449582743623,0.00053449929871773,-0.00053450124484138,0.00053449369315429,1.1435594308973e-09,-5.1513543271613e-10,-0.00055005211478035,0.00055005274196198,-1.9582924486276e-09,2.6951402333306e-09,-0.00058743921507593,0.00058743879708702,-0.0005874376576239,0.00058744033340275,-0.00058743976796843,0.00058743826818006,-0.00058743821744362,0.00058743980148847,-0.00053449725428457,0.0005344978140139,-0.00053449559527866,0.00053449940036806,0.76958003770162,131329,3014,0.0019666443251508,0.0022892096925059,0.0022892096925011,36.275826363264,5.0206610906111e-05,5.0206610906111e-05,5.0206610906111e-05,2946432.2957075,0.0065665720166188
5619200,0.37679896423889,0.0070569176599733,0.0021603922415202,0.002448262709229,0.002448262709224,-0.00050313200737446,0.00050313262015402,-8.0718505050666e-10,1.4059372076863e-09,-2.7492193379128e-09,3.4833958845586e-09,-0.00054020387623352,0.00054020166150624,-0.00054020314355873,0.00054020242470716,-0.0005402018551415,0.00054020373429842,-0.00054020111570399,0.00054020448067655,-0.00053248809107643,0.00053248858813409,-0.00053248592840282,0.00053249075874563,2.6334102736355e-09,-3.2366635563927e-09,2.0155013149454e-09,-2.5035817130109e-09,-0.00059000383877421,0.00059000334825824,-0.00063290946017533,0.00063291238881928,-0.00063291090953054,0.0006329108878337,-0.00063291132429277,0.00063291044741282,-0.00063291277902106,0.00063290894194478,-0.00060142668603414,0.00060142868257171,-0.00060143105375712,0.00060142417921967,-0.00057172695969315,0.00057173068689511,-0.00057173266446748,0.0005717247739302,1.226217857445e-09,-5.7192098950047e-10,-0.00059000326694387,0.00059000392008676,-1.9315688197514e-09,2.6941923265973e-09,-0.00063291105889102,0.000632910720786,-0.00063290951163208,0.0006329122491677,-0.00063291165939403,0.00063291014973833,-0.00063291011662699,0.00063291167276495,-0.00057172856974362,0.00057172901039081,-0.00057172677418243,0.0005717307300933,0.73637049090088,131329,3014,0.0020943903280677,0.0024552633198962,0.0024552633198924,36.526736735589,5.2213893884714e-05,5.2213893884714e-05,5.2213893884714e-05,3080324.4809947,0.0070295617053171
5819200,0.40412516150519,0.0075042865705875,0.0022878730647633,0.0026082067529145,0.0026082067529098,-0.00053225206655449,0.00053225270570145,-8.5830287093646e-10,1.4825451801448e-09,-2.7706958517024e-09,3.5363398300103e-09,-0.00057452264705311,0.00057452038907825,-0.00057452187208008,0.00057452119624982,-0.00057452060265321,0.00057452248684483,-0.00057451981909394,0.00057452327550791,-0.00056323519437275,0.00056323561573088,-0.00056323290572041,0.00056323791197739,2.6540536454265e-09,-3.2999766440247e-09,1.9730881516304e-09,-2.5024641311362e-09,-0.00062901138770239,0.00062901085545319,-0.00067792049136495,0.00067792338931797,-0.00067792192636859,0.00067792190459226,-0.00067792238101449,0.00067792142091041,-0.00067792381884212,0.0006779199292579,-0.0006405376088532,0.00064053949337622,-0.000640541934637,0.000640535032424,-0.00060753837739735,0.00060754215735871,-0.00060754415752237,0.00060753615763403,1.3051519982965e-09,-6.2777356615436e-10,-0.00062901078340762,0.00062901145974606,-1.8962823055831e-09,2.6814068404499e-09,-0.00067792203113725,0.00067792177674988,-0.00067792050155814,0.00067792329002027,-0.0006779226784902,0.00067792116433085,-0.00067792115020138,0.00067792266914955,-0.00060754007349532,0.00060754038960929,-0.00060753814628094,0.00060754223921,0.71317584292773,131329,3014,0.0022155178010901,0.0026173643747384,0.0026173643747344,36.777574706152,5.4220597649214e-05,5.4220597649214e-05,5.4220597649214e-05,3220359.3857792,0.0074781350054901
6019200,0.43090689867902,0.0079338880441846,0.0024087681485157,0.002762559947837,0.0027625599478319,-0.00055949144956193,0.00055949209629144,-9.1314251947578e-10,1.5445544826855e-09,-2.8766761061078e-09,3.6539058840363e-09,-0.0006076215449036,0.00060761918011406,-0.00060762073155569,0.00060762002603745,-0.00060761942760332,0.00060762135137002,-0.00060761860353217,0.00060762217976581,-0.00059201301035551,0.00059201339549812,-0.00059201060408148,0.00059201580885291,2.7472678938182e-09,-3.4380848919272e-09,1.9273619962518e-09,-2.4996186715869e-09,-0.0006667506195956,0.00066675004400956,-0.00072231261641839,0.0007223155316162,-0.00072231403618206,0.0007223140636609,-0.00072231458263848,0.00072231348562289,-0.000722316002228,0.00072231201085872,-0.00067822414668338,0.00067822586152665,-0.00067822842205657,0.00067822144952888,-0.00064180454141489,0.00064180851798148,-0.00064181054262025,0.0006418022889944,1.3886327551931e-09,-6.8982649239182e-10,-0.00066674998284153,0.00066675068076094,-1.8553100929031e-09,2.6611998455391e-09,-0.00072231411846892,0.00072231395497226,-0.00072231261089049,0.00072231544752299,-0.00072231481616602,0.00072231329530229,-0.00072231330661979,0.00072231477925805,-0.00064180640401978,0.00064180658005873,-0.00064180433586568,0.0006418085695749,0.70261523632322,131329,3014,0.0023288228789996,0.0027741661802857,0.00277416618028,36.775494340879,5.4203954727032e-05,5.4203954727032e-05,5.4203954727032e-05,3312777.3856853,0.007908345769054
6219200,0.45707733946409,0.0083560177180794,0.0025262586149294,0.0029148795515775,0.0029148795515725,-0.00058592224365817,0.00058592288544271,-9.8174940317081e-10,1.6079421039136e-09,-2.9249954210153e-09,3.6996269372013e-09,-0.00064018390286204,0.00064018145702132,-0.00064018304480778,0.00064018234649521,-0.00064018175453193,0.00064018365962957,-0.00064018088689806,0.00064018453146667,-0.0006203790266641,0.00062037930900158,-0.00062037649159507,0.00062038184979168,2.7750323687166e-09,-3.5075233654677e-09,1.8771599349153e-09,-2.4894689427288e-09,-0.00070411862021817,0.00070411800431323,-0.00076654873371012,0.00076655162184323,-0.00076655013466229,0.00076655017403104,-0.00076655073135477,0.00076654954313257,-0.000766552132755,0.00076654808823768,-0.00071579323537009,0.00071579481963803,-0.00071579745061305,0.00071579046516945,-0.00067558037921634,0.00067558443040142,-0.00067558647409899,0.00067557810238291,1.4562932965336e-09,-7.5255030413419e-10,-0.0007041179608287,0.00070411866370103,-1.8213896670312e-09,2.6328947554313e-09,-0.00076655018750607,0.00076655009307697,-0.00076654870004679,0.00076655156563539,-0.00076655092932908,0.00076654939002427,-0.00076654944045009,0.00076655085363879,-0.00067558235050224,0.00067558238202335,-0.00067558015246447,0.00067558449964857,0.70745492183613,131329,3014,0.0024387626966523,0.0029293998733722,0.0029293998733687,36.75876135971,5.4070090877682e-05,5.4070090877682e-05,5.4070090877682e-05,3345738.9656504,0.0083321881821895
6419200,0.48259641206384,0.0087645887527048,0.0026386862981873,0.0030629512272613,0.0030629512272561,-0.00061120884428309,0.00061120946108069,-1.0592942359941e-09,1.6605837389831e-09,-2.951380254565e-09,3.7016360322366e-09,-0.00067152766509614,0.00067152514106943,-0.00067152676295444,0.00067152607334925,-0.00067152550726626,0.00067152735357814,-0.00067152459610383,0.00067152826882108,-0.00064768103854503,0.00064768117794816,-0.00064767837597319,0.00064768384530436,2.7725697801185e-09,-3.5402737043773e-09,1.8316427239602e-09,-2.4781637385118e-09,-0.00074044820382046,0.0007404475534963,-0.00080965060395007,0.00080965345133287,-0.00080965198751852,0.00080965202210396,-0.00080965261343863,0.00080965136182502,-0.00080965399800652,0.00080964992597016,-0.00075230684018107,0.00075230832436197,-0.00075231099886509,0.00075230402544685,-0.00070825183322619,0.00070825589757064,-0.00070825795847363,0.0007082495402292,1.519063219632e-09,-8.2160566892255e-10,-0.00074044753044237,0.00074044822687148,-1.7951604030525e-09,2.600523388825e-09,-0.000809652009576,0.0008096519722127,-0.00080965054077664,0.00080965342567269,-0.00080965279550849,0.00080965122454747,-0.00080965132607961,0.00080965266975893,-0.00070825388940659,0.0007082537655953,-0.00070825156063063,0.00070825601209108,0.70210893141459,131329,3014,0.0025439428888505,0.0030802939544668,0.0030802939544607,36.741600735836,5.3932805886692e-05,5.3932805886692e-05,5.3932805886692e-05,3383577.3425758,0.00874265477855
6619200,0.5078388763604,0.0091925320765624,0.0027567819367234,0.0032178750699219,0.0032178750699171,-0.00063763626428565,0.00063763685996577,-1.1345540395058e-09,1.714952870867e-09,-2.7987747460585e-09,3.5269922936594e-09,-0.00070343746091846,0.00070343498174103,-0.00070343651509014,0.00070343595667345,-0.00070343541190191,0.00070343708541522,-0.00070343445723532,0.00070343804375583,-0.00067690100507945,0.00067690088774456,-0.00067689821540842,0.00067690368120264,2.6016540090487e-09,-3.3860912958253e-09,1.7978429041352e-09,-2.4617470704941e-09,-0.00077811466407758,0.00077811399647726,-0.00085360127901206,0.00085360398561025,-0.00085360264722796,0.00085360257271586,-0.00085360318149309,0.00085360200442805,-0.00085360455073994,0.00085360058517089,-0.00079101217339005,0.00079101369926371,-0.00079101628170474,0.00079100944939191,-0.00074277671479898,0.00074278045800352,-0.00074278252071531,0.0007427744214985,1.5812448419967e-09,-8.9197419594765e-10,-0.00077811398627681,0.00077811467427514,-1.7731699267141e-09,2.5703246542579e-09,-0.00085360258824015,0.00085360260417589,-0.00085360113649567,0.0008536040405476,-0.00085360341835627,0.00085360181179291,-0.00085360196629863,0.00085360324046415,-0.00074277868834551,0.00074277840943282,-0.00074277622943182,0.00074278078521495,0.74070666486512,131329,3014,0.0026538620598666,0.0032367137445601,0.0032367137445541,37.009001761795,5.6072014094362e-05,5.6072014094362e-05,5.6072014094362e-05,3393781.0791255,0.0091692232696815
6819200,0.53390012737966,0.0096674343215288,0.0028886126514697,0.003389410835031,0.003389410835028,-0.00066783860611313,0.00066783916817629,-1.1957724850008e-09,1.7430209799055e-09,-2.281728570729e-09,2.9716862928765e-09,-0.00073841837666265,0.00073841619350463,-0.00073841740255597,0.00073841719599776,-0.00073841668543963,0.00073841793739848,-0.0007384156985035,0.00073841892769296,-0.00071074882059954,0.00071074821941609,-0.00071074593741275,0.00071075110576102,2.074964823162e-09,-2.8307545870394e-09,1.7957836379924e-09,-2.4363551041196e-09,-0.00082021085556819,0.00082021021229974,-0.00090148969424833,0.00090149205864146,-0.000901491056555,0.00090149065274424,-0.00090149124054064,0.00090149043679674,-0.00090149259957574,0.00090148902863301,-0.00083528460593055,0.00083528648254117,-0.0008352886784735,0.00083528226361025,-0.00078220621317364,0.00078220892088344,-0.00078221095052145,0.00078220395703664,1.6629775130903e-09,-9.8321908397895e-10,-0.00082021019471449,0.0008202108731555,-1.744176393579e-09,2.5323026115552e-09,-0.00090149079734396,0.00090149088535309,-0.00090148936985151,0.00090149229801932,-0.00090149168685823,0.00090149003292746,-0.00090149025500228,0.00090149144224523,-0.00078220776665609,0.00078220729240585,-0.00078220514455296,0.00078220983163312,0.79221450866662,131329,3014,0.0027794670674258,0.0034114974045569,0.0034114974045613,38.074188247117,6.4593505976937e-05,6.4593505976937e-05,6.4593505976937e-05,3434122.1803253,0.0096488884037616
7019200,0.56068126822776,0.010117817729753,0.0030111676343996,0.0035533250476791,0.0035533250476748,-0.00069697959355065,0.00069698012173325,-1.2803148317019e-09,1.7943614151963e-09,-1.8175396095008e-09,2.4681754756393e-09,-0.00077302351968772,0.00077302158061646,-0.00077302250139366,0.00077302262738915,-0.0007730221482695,0.00077302300218307,-0.00077302111726564,0.00077302403599242,-0.0007426420985856,0.00074264101117684,-0.00074263908429915,0.00074264402735712,1.6234188285047e-09,-2.319316598413e-09,1.8059076510366e-09,-2.3919682779457e-09,-0.00086180018531502,0.00086179959698506,-0.00094953487924377,0.00094953696745265,-0.00094953623266993,0.00094953557265429,-0.00094953610707799,0.00094953566810023,-0.00094953745659747,0.00094953427005919,-0.00087801390097959,0.00087801612147461,-0.00087801794012509,0.00087801193382452,-0.00082016513701798,0.00082016696690381,-0.00082016892863803,0.00082016295068441,1.7195927452102e-09,-1.0526311243123e-09,-0.00086179955829599,0.00086180022400396,-1.7343231992785e-09,2.5091833698322e-09,-0.00094953582438806,0.00094953595532727,-0.00094953440844215,0.0009495373567476,-0.00094953675697705,0.00094953505827238,-0.00094953533712342,0.00094953645646171,-0.0008201663262018,0.00082016570342846,-0.00082016357924378,0.00082016836867681,0.7333580722853,131329,3014,0.0029006580547297,0.0035841436087327,0.0035841436087325,39.158390612594,7.3267124900753e-05,7.3267124900753e-05,7.3267124900753e-05,3478259.0569042,0.010120010758717
7219200,0.58802985318106,0.010560093055773,0.0031300046555556,0.0037150442001131,0.003715044200104,-0.00072565729919267,0.00072565779089624,-1.3643795733759e-09,1.8426695796504e-09,-1.4258010718442e-09,2.0340214955101e-09,-0.00080738308743781,0.00080738134267113,-0.00080738202487212,0.00080738243331438,-0.00080738198804386,0.0008073824886588,-0.00080738091303286,0.00080738356639807,-0.00077378256195103,0.0007737810345085,-0.00077377941841003,0.00077378417980802,1.2512870077101e-09,-1.867678641865e-09,1.8303029910726e-09,-2.3425009793784e-09,-0.00090330681074338,0.00090330629693655,-0.0009979029820978,0.00099790486295639,-0.0009979043284594,0.00099790347649223,-0.0009979039383912,0.00099790383886537,-0.00099790528122206,0.00099790244906756,-0.00092015406243805,0.00092015660735436,-0.00092015807754499,0.0009201524443141,-0.00085748323210215,0.00085748433743305,-0.00085748621846461,0.00085748113547123,1.778710684286e-09,-1.1235129145693e-09,-0.00090330622693309,0.00090330688074404,-1.7287208634407e-09,2.4913067369805e-09,-0.00099790380527332,0.00099790397583795,-0.00099790239708213,0.00099790536996721,-0.00099790478064621,0.00099790303440029,-0.00099790336897623,0.00099790442525782,-0.00085748413470604,0.00085748336439213,-0.00085748126069678,0.00085748615864732,0.70718848358511,131329,3014,0.0030199195631878,0.003756414097139,0.0037564140971333,40.243299187075,8.1946393496602e-05,8.1946393496602e-05,8.1946393496602e-05,3544122.2606619,0.010588648047229
7419200,0.61494876107569,0.010980382383799,0.0032416514049028,0.0038693654894539,0.0038693654894424,-0.00075195300588316,0.00075195347505026,-1.4218871149423e-09,1.8781415029781e-09,-1.4241781619818e-09,2.0067697517969e-09,-0.00083937500238523,0.00083937321617409,-0.00083937391168456,0.00083937433458474,-0.00083937391379883,0.00083937434932908,-0.00083937280422598,0.00083937546159538,-0.00080223710852945,0.00080223544920865,-0.00080223386447049,0.00080223869502065,1.2640152132505e-09,-1.8161798702513e-09,1.8673758175554e-09,-2.3179621520186e-09,-0.00094223556899237,0.00094223511703211,-0.0010438761083062,0.0010438780466944,-0.0010438774634102,0.0010438766527408,-0.0010438770577931,0.0010438770323767,-0.0010438784028768,0.0010438756418252,-0.00095924642865884,0.00095924905056061,-0.00095925044657641,0.00095924488568876,-0.00089191765112059,0.00089191876740273,-0.00089192059245556,0.00089191561753656,1.8584329393553e-09,-1.2136964794939e-09,-0.00094223502136621,0.00094223566465558,-1.7244387386538e-09,2.4760548971931e-09,-0.0010438769336039,0.0010438771600645,-0.0010438755350285,0.0010438785448337,-0.0010438779681056,0.0010438761581742,-0.001043876559636,0.0010438775464804,-0.00089191864782768,0.00089191770387129,-0.00089191561770666,0.00089192065579045,0.68501444021173,131329,3014,0.0031292786119731,0.003917954695869,0.0039179546958635,40.771090128558,8.6168721028467e-05,8.6168721028467e-05,8.6168721028467e-05,3608826.2389543,0.011025798918853
7619200,0.640696820951,0.011373791777458,0.0033455321897948,0.0040141297938386,0.0040141297938248,-0.00077572397486926,0.00077572444065208,-1.4838662089647e-09,1.9368941697127e-09,-1.6982695047088e-09,2.2773736873265e-09,-0.00086871954814929,0.00086871753895595,-0.00086871842007023,0.00086871869470526,-0.0008687182777162,0.00086871885314539,-0.00086871712778643,0.00086872000549746,-0.00082800864771735,0.00082800704660356,-0.00082800528272499,0.00082801041260916,1.5484518524364e-09,-2.074008680929e-09,1.8901589206079e-09,-2.3134733883115e-09,-0.00097815349386582,0.00097815306908953,-0.0010868936278946,0.001086895783465,-0.0010868949926053,0.0010868943810645,-0.0010868947611142,0.0010868945868939,-0.0010868961120499,0.0010868931909886,-0.00099505497451877,0.00099505745610664,-0.0009950590048926,0.00099505327658165,-0.00092325037918782,0.00092325204480751,-0.00092325384789023,0.00092324836748144,1.9247102160123e-09,-1.2890646240782e-09,-0.00097815296440936,0.00097815359854211,-1.7328515326634e-09,2.4750245597722e-09,-0.0010868945422244,0.0010868948087985,-0.0010868931437686,0.00108689619395,-0.0010868956277973,0.0010868937561701,-0.0010868942155,0.0010868951477585,-0.0009232517217543,0.00092325063611044,-0.0009232485559576,0.00092325372305322,0.67223241210299,131329,3014,0.0032281417090141,0.0040669761560293,0.0040669761560213,40.851782116935,8.6814256935481e-05,8.6814256935481e-05,8.6814256935481e-05,3654188.9045905,0.011427202391793
7819200,0.66523960112807,0.01174503627307,0.0034432923175447,0.0041508719777702,0.0041508719777549,-0.00079803417975261,0.00079803465130754,-1.5503275534692e-09,2.0090917697138e-09,-1.986828657866e-09,2.5728414508715e-09,-0.00089668133519941,0.00089667909060158,-0.00089668016118387,0.00089668029242076,-0.00089667986854506,0.00089668060109258,-0.00089667867428177,0.00089668179772032,-0.00085238195489335,0.00085238042360982,-0.00085237845923146,0.00085238392093653,1.8411192088156e-09,-2.3681146129668e-09,1.900059207694e-09,-2.3229666956934e-09,-0.0010122400265714,0.0010122396019866,-0.0011279651551158,0.0011279675131369,-0.0011279665267534,0.0011279661047451,-0.0011279664835271,0.0011279661216815,-0.0011279678431032,0.0011279647179686,-0.0010289869338486,0.0010289892417864,-0.0010289909861386,0.0010289850400117,-0.00095304662042691,0.00095304885892202,-0.00095305066789235,0.00095304460211155,1.9828808307047e-09,-1.3547479949669e-09,-0.0010122395009522,0.0010122401275995,-1.7485289695667e-09,2.4831104965023e-09,-0.0011279661574708,0.0011279664510327,-0.0011279647504736,0.0011279678447468,-0.0011279672850227,0.0011279653566529,-0.0011279658657157,0.0011279667548063,-0.0009530483115788,0.00095304710126099,-0.00095304502050285,0.00095305031316015,0.66655083722636,131329,3014,0.0033209297160662,0.0042083789292628,0.0042083789292501,40.921651824007,8.7373214592059e-05,8.7373214592059e-05,8.7373214592059e-05,3671805.9264813,0.011807205258788
8019200,0.68856915850157,0.012094776073566,0.0035350574755635,0.0042798592990089,0.0042798592989933,-0.00081896683821608,0.00081896732052208,-1.6114127997392e-09,2.080764422134e-09,-2.2592769227879e-09,2.8579525098067e-09,-0.0009231408155945,0.00092313835163883,-0.00092313959742415,0.00092313959752854,-0.00092313916318689,0.00092314004847666,-0.00092313792492093,0.00092314128922266,-0.00087530360838858,0.00087530214382408,-0.00087529998315959,0.00087530577089735,2.1096933794351e-09,-2.6580506008805e-09,1.9039652082741e-09,-2.3457521486114e-09,-0.0010444760040181,0.0010444755602259,-0.0011669294095537,0.0011669319439452,-0.001166930790652,0.0011669305266805,-0.0011669309237645,0.0011669303661241,-0.001166932293419,0.0011669289532719,-0.0010610507148221,0.001061052844033,-0.0010610547941953,0.001061048615905,-0.00098112323075501,0.00098112599001886,-0.00098112782754153,0.00098112118326219,2.0449489644187e-09,-1.4226566142288e-09,-0.0010444754717081,0.001044476092529,-1.7653551453915e-09,2.4940966005462e-09,-0.0011669304859178,0.001166930807871,-0.0011669290692937,0.0011669322110754,-0.0011669316570596,0.001166929670332,-0.0011669302283918,0.0011669310773577,-0.00098112524457252,0.00098112390951927,-0.00098112182524098,0.00098112724910417,0.66097249367851,131329,3014,0.0034079884415918,0.0043420866642506,0.0043420866642364,40.991117600793,8.7928940806347e-05,8.7928940806347e-05,8.7928940806347e-05,3682793.2339374,0.012165977252142
8219200,0.71082914652835,0.012425639091919,0.0036216072389837,0.0044020159264756,0.00440201592646,-0.00083892476673387,0.00083892525919433,-1.669033849191e-09,2.1482783173662e-09,-2.4326266018683e-09,3.0431806013921e-09,-0.00094846822988119,0.0009484656158615,-0.00094846697106786,0.00094846690240532,-0.00094846645954327,0.00094846743153583,-0.00094846517846057,0.00094846871513135,-0.00089704545284615,0.00089704399201848,-0.00089704170226238,0.00089704774464417,2.2743426479932e-09,-2.8511080972518e-09,1.9085667611856e-09,-2.3766680173446e-09,-0.0010752807533065,0.0010752802828891,-0.001204207276818,0.0012042099173186,-0.0012042086714368,0.0012042084870835,-0.0012042089109982,0.0012042082189491,-0.0012042102923989,0.0012042067952713,-0.0010916702973707,0.0010916723123315,-0.0010916744082048,0.001091668052437,-0.001007758673896,0.0010077617421468,-0.0010077636181641,0.0010077565861182,2.1117033643823e-09,-1.4933992793242e-09,-0.0010752802096559,0.0010752808265319,-1.7828323694302e-09,2.5077276268777e-09,-0.0012042083899565,0.0012042087444578,-0.0012042069637239,0.0012042101570259,-0.0012042096082046,0.0012042075603177,-0.0012042081678842,0.0012042089785823,-0.0010077609044496,0.0010077594442323,-0.0010077573530859,0.0010077629146803,0.65549139767258,131329,3014,0.0034909922645038,0.0044698410667123,0.0044698410666963,41.181562892615,8.9452503140924e-05,8.9452503140924e-05,8.9452503140924e-05,3695186.0849298,0.012508716971248
8419200,0.73207047471471,0.012740628368331,0.0037039140285568,0.0045183571698944,0.0045183571698794,-0.00085796272142905,0.00085796322103493,-1.7302429717649e-09,2.2163863353012e-09,-2.5312474197465e-09,3.150260499263e-09,-0.00097268407209338,0.00097268135417946,-0.00097268277090605,0.00097268268317496,-0.00097268223377094,0.00097268323823493,-0.0009726809096443,0.00097268456521756,-0.00091778373644288,0.00091778222375286,-0.00091777985877469,0.00091778610404553,2.3633334236974e-09,-2.9684479297622e-09,1.9142077236596e-09,-2.4090161935928e-09,-0.0011046899740495,0.0011046894765388,-0.0012398208221772,0.0012398235178877,-0.0012398222304592,0.0012398220745718,-0.0012398225253032,0.0012398217503595,-0.0012398239197205,0.0012398203143071,-0.0011209441218793,0.0011209460773285,-0.001120948268927,0.0011209417811469,-0.0010331175420397,0.0010331207716769,-0.0010331226872365,0.0010331154127128,2.1765703080653e-09,-1.5617561246283e-09,-0.0011046894184885,0.0011046900320906,-1.8026545186713e-09,2.5241923753909e-09,-0.0012398219480453,0.0012398223323565,-0.0012398205098968,0.001239823756536,-0.0012398232117204,0.0012398211034263,-0.0012398217587533,0.0012398225339252,-0.0010331199134813,0.0010331183321848,-0.0010331162318335,0.0010331219316999,0.65380935257329,131329,3014,0.0035701680584647,0.0045917914896942,0.0045917914896755,41.430900454823,9.1447203638583e-05,9.1447203638583e-05,9.1447203638583e-05,3702098.9761946,0.012835938552558
8619200,0.75227706936619,0.013039821787807,0.0037820430781423,0.0046288893548389,0.0046288893548262,-0.00087598672046,0.00087598722562755,-1.7945948556237e-09,2.2861259741855e-09,-2.5933637586938e-09,3.2190560299891e-09,-0.00099567364400871,0.00099567084309208,-0.00099567229802293,0.00099567221684669,-0.00099567176188964,0.0009956727713118,-0.00099567039380958,0.00099567414257157,-0.00093743833990882,0.0009374367464033,-0.0009374343323512,0.00093744075680895,2.4161327497605e-09,-3.0482393725211e-09,1.9201155244055e-09,-2.4405710561049e-09,-0.0011325854063065,0.0011325848828785,-0.0012736334891261,0.0012736362154922,-0.0012736349098935,0.0012736347600757,-0.0012736352357216,0.001273634404275,-0.0012736366436503,0.0012736329551951,-0.0011487459783807,0.0011487479019865,-0.001148750163586,0.0011487435677561,-0.0010571042717924,0.0010571075940962,-0.0010571095478632,0.0010571021024095,2.2397484149292e-09,-1.6270009891778e-09,-0.0011325848387878,0.0011325854503913,-1.8231123506985e-09,2.5427121068611e-09,-0.0012736346164523,0.0012736350285275,-0.0012736331646721,0.0012736364660179,-0.0012736359230139,0.0012736337571713,-0.0012736344574224,0.0012736352000333,-0.001057106747317,0.0010571050497241,-0.0010571029379059,0.0010571087760769,0.65260875574338,131329,3014,0.0036451247995017,0.0047074500065462,0.0047074500065342,41.681679284519,9.3453434276154e-05,9.3453434276154e-05,9.3453434276154e-05,3706661.6816156,0.013146241330045
8819200,0.77143956311319,0.013312922578225,0.0038527377118682,0.004730092433185,0.0047300924331719,-0.00089256070141494,0.00089256121032723,-1.8587406991887e-09,2.353922607339e-09,-2.6204456745952e-09,3.2506830226297e-09,-0.0010171166702453,0.0010171138093519,-0.0010171152802266,0.0010171152272243,-0.0010171147686651,0.0010171157573642,-0.0010171133567363,0.0010171171726586,-0.00095523473340685,0.00095523303442983,-0.00095523059732981,0.00095523717383054,2.4343698069968e-09,-3.0900370808872e-09,1.9276434109254e-09,-2.4706402857095e-09,-0.0011584894179886,0.0011584888717597,-0.0013052751887732,0.0013052779248868,-0.0013052766222483,0.0013052764570258,-0.0013052769553141,0.0013052760936304,-0.0013052783752143,0.0013052746319406,-0.0011742602336684,0.0011742621520768,-0.0011742644565806,0.0011742577809462,-0.0010791007804859,0.0010791041263556,-0.0010791061156421,0.0010790985747195,2.3046169171822e-09,-1.6927676472868e-09,-0.0011584888394803,0.0011584894502615,-1.842437555268e-09,2.5612635990375e-09,-0.0013052763057688,0.0013052767481986,-0.0013052748411237,0.0013052781980446,-0.001305277656224,0.0013052754329038,-0.0013052761778695,0.0013052768887939,-0.0010791033260785,0.0010791015118793,-0.0010790993878616,0.0010791053661266,0.62941992884554,131329,3014,0.0037140510556711,0.0048148391673997,0.0048148391673864,41.93251204841,9.5460096387283e-05,9.5460096387283e-05,9.5460096387283e-05,3729249.693299,0.013433768370427
9019200,0.78915578380663,0.013565596063871,0.0039181844772421,0.0048237057933211,0.0048237057933079,-0.0009070250980149,0.00090702561557447,-1.9274843682933e-09,2.4311426093209e-09,-2.7688276462748e-09,3.4094930809738e-09,-0.0010361143329598,0.0010361113261406,-0.0010361128907777,0.0010361127962256,-0.0010361123258565,0.0010361133804932,-0.0010361108693801,0.0010361148405231,-0.00097086980243236,0.00097086808229011,-0.00097086553431083,0.00097087235435551,2.5717474284699e-09,-3.2603854061256e-09,1.9250376392984e-09,-2.4987637911253e-09,-0.0011815458005045,0.0011815452231363,-0.0013335240414485,0.0013335268538043,-0.0013335254797686,0.0013335253810873,-0.0013335259060835,0.0013335249235762,-0.0013335273384199,0.00133352344962,-0.001197031037044,0.001197032858804,-0.001197035297597,0.0011970284517562,-0.0010984204950793,0.0010984241142903,-0.0010984261437052,0.0010984182478399,2.3628857879905e-09,-1.7511506384324e-09,-0.0011815452064221,0.0011815458172134,-1.8595594075895e-09,2.5783378863709e-09,-0.0013335251844016,0.001333525650793,-0.0013335237043249,0.0013335271155634,-0.0013335265702806,0.0013335243002653,-0.0013335250842484,0.0013335257638319,-0.001098423233907,0.0010984213059824,-0.0010984191699381,0.0010984252853509,0.62977530296996,131329,3014,0.0037742064953033,0.0049104127182977,0.0049104127182868,41.749993865613,9.3999950924905e-05,9.3999950924905e-05,9.3999950924905e-05,3740309.737234,0.013688527962835
9219200,0.80541887063588,0.013794930893158,0.0039774644558252,0.0049087332186736,0.0049087332186596,-0.00091987056819056,0.00091987109427154,-1.9832685130671e-09,2.4953332946631e-09,-2.8891789482428e-09,3.5401806911453e-09,-0.0010531264515306,0.0010531233315893,-0.0010531249714092,0.0010531248397498,-0.0010531243642553,0.0010531254674274,-0.0010531228647058,0.0010531269704376,-0.00098474062614763,0.00098473887219747,-0.00098473623223081,0.00098474327009765,2.6810371124631e-09,-3.404033483963e-09,1.9225734758921e-09,-2.528716840601e-09,-0.0012022636395528,0.0012022630295343,-0.0013590280352092,0.0013590309107041,-0.0013590294848061,0.0013590294263418,-0.0013590299856463,0.0013590288934464,-0.0013590314248844,0.0013590274130813,-0.0012174636598078,0.0012174653839559,-0.0012174679396665,0.0012174609583706,-0.001115635730323,0.0011156395477461,-0.0011156416186793,0.0011156334396573,2.434412255259e-09,-1.8223047239592e-09,-0.0012022630289545,0.0012022636401258,-1.8699422846644e-09,2.5892816918393e-09,-0.0013590291883369,0.0013590296969801,-0.0013590277030483,0.0013590311664514,-0.0013590306235005,0.0013590282972905,-0.0013590291277516,0.0013590297706644,-0.0011156386301453,0.0011156365778537,-0.0011156344341293,0.0011156406887346,0.6230058046084,131329,3014,0.0038276306805585,0.0049962844177014,0.0049962844176876,41.452109160213,9.1616873281708e-05,9.1616873281708e-05,9.1616873281708e-05,3748986.126766,0.01391685057288
9419200,0.82033783669347,0.014002916548061,0.004031125711429,0.0049858954183232,0.004985895418309,-0.00093142673098357,0.00093142726347884,-2.0469085895535e-09,2.5652070840668e-09,-2.948050282411e-09,3.6067184857554e-09,-0.001068388218161,0.0010683850180872,-0.0010683866932704,0.001068386571147,-0.001068386089307,0.0010683871964034,-0.0010683845459113,0.0010683887433154,-0.00099718388813346,0.00099718205345135,-0.00099717936539155,0.00099718658052499,2.7290206676561e-09,-3.4820891355267e-09,1.9183457241514e-09,-2.5531766782845e-09,-0.0012210164389075,0.0012210157999604,-0.0013822006023414,0.0013822034973577,-0.0013822020584088,0.0013822020066284,-0.0013822025937757,0.0013822014384286,-0.0013822040405016,0.0013821999508598,-0.0012359129868563,0.0012359146613586,-0.001235917287768,0.0012359102147228,-0.0011311578143935,0.0011311617206183,-0.0011311638269886,0.0011311554863184,2.4991299190612e-09,-1.8864355012198e-09,-0.0012210158134906,0.0012210164253699,-1.8801251272621e-09,2.6002485268689e-09,-0.0013822017470187,0.0013822022918383,-0.0013822002539432,0.0013822037686645,-0.0013822032248208,0.0013822008497201,-0.0013822017224456,0.0013822023297555,-0.0011311608179137,0.0011311586460609,-0.0011311564941979,0.0011311628841048,0.61620824272199,131329,3014,0.0038756933666904,0.0050740045344195,0.0050740045344042,41.151336559887,8.9210692479093e-05,8.9210692479093e-05,8.9210692479093e-05,3758472.607375,0.014123251653895
9619200,0.834018760671,0.014191432203176,0.0040796769631468,0.0050558776200217,0.0050558776200075,-0.00094181864541392,0.00094181918199177,-2.1105172952924e-09,2.6328003081696e-09,-2.9626184408638e-09,3.6261200191107e-09,-0.0010821649838618,0.0010821617329628,-0.0010821634153552,0.0010821633297106,-0.0010821628442212,0.0010821639226209,-0.0010821612571286,0.0010821655133067,-0.0010084606315641,0.0010084586837189,-0.0010084559803387,0.0010084633395005,2.7341942640519e-09,-3.5117316768387e-09,1.9153676420989e-09,-2.5737921871273e-09,-0.0012379872228898,0.0012379865601886,-0.0014032524212072,0.0014032553100734,-0.0014032538833634,0.0014032538132816,-0.0014032544237316,0.0014032532394107,-0.0014032558765403,0.0014032517460586,-0.0012525704280413,0.0012525720845291,-0.0012525747462959,0.001252567620972,-0.0011451579436178,0.0011451618540746,-0.0011451639899607,0.00114515558481,2.5651009922196e-09,-1.9516038517243e-09,-0.0012379865851596,0.0012379871979115,-1.8883721133223e-09,2.6094951442734e-09,-0.0014032535432743,0.0014032541268913,-0.0014032520442289,0.001403255609392,-0.001403255064955,0.0014032526410933,-0.0014032535566287,0.0014032541271069,-0.0011451610096067,0.0011451587162712,-0.0011451565575257,0.0011451630826367,0.60938040800963,131329,3014,0.003918914597187,0.0051443334747623,0.0051443334747474,40.850455462099,8.6803643696789e-05,8.6803643696789e-05,8.6803643696789e-05,3768056.8308093,0.014309787758969
9819200,0.84632600536005,0.014361896900636,0.0041236778663474,0.0051191095171514,0.0051191095171371,-0.00095039881638826,0.0009503993585965,-2.1683755553211e-09,2.6962636510551e-09,-3.0290574664913e-09,3.6994091085617e-09,-0.0010937412310061,0.0010937379021778,-0.0010937396256217,0.001093739535849,-0.0010937390489978,0.001093740134975,-0.0010937374176808,0.0010937417698938,-0.0010178958357165,0.0010178938104614,-0.0010178910545018,0.001017898595546,2.7952568790346e-09,-3.5994533314656e-09,1.9059234858178e-09,-2.5896090687471e-09,-0.001252455166853,0.001252454478731,-0.0014213901368486,0.0014213930555481,-0.0014213916048719,0.0014213915529451,-0.0014213921918305,0.0014213909315806,-0.0014213936433035,0.0014213894399171,-0.0012668150373894,0.0012668166138792,-0.0012668193500667,0.0012668121554649,-0.0011568232143655,0.0011568272325706,-0.0011568293953751,0.0011568208265303,2.6357507220953e-09,-2.0217894958952e-09,-0.0012524545162149,0.0012524551293627,-1.889332366399e-09,2.6109969773934e-09,-0.0014213912487127,0.0014213918822451,-0.0014213897522149,0.0014213933618531,-0.001421392820917,0.0014213903461156,-0.0014213913079456,0.001421391836746,-0.0011568263972069,0.0011568239776193,-0.0011568218177117,0.0011568284709147,0.61213711396008,131329,3014,0.0039546058393853,0.0052042854900187,0.0052042854900056,40.184077853736,8.1472622829891e-05,8.1472622829891e-05,8.1472622829891e-05,3769715.3550424,0.014467660400163
10019200,0.85738893049307,0.014516148252049,0.0041636082507331,0.0051762700006655,0.0051762700006506,-0.00095791234974296,0.00095791289494167,-2.2351908080433e-09,2.7659295758089e-09,-3.042724446298e-09,3.7166275543441e-09,-0.0011039076918393,0.0011039043092217,-0.0011039060397713,0.001103905989668,-0.0011039054985107,0.0011039065538167,-0.0011039038236832,0.0011039082323027,-0.0010262706266502,0.001026268486823,-0.0010262657179351,0.0010262733999852,2.7988677882936e-09,-3.6231779609261e-09,1.8954153425659e-09,-2.5984790051066e-09,-0.0012652407169663,0.0012652400092417,-0.0014374638873802,0.0014374667935699,-0.0014374653534604,0.0014374652931523,-0.0014374659496013,0.0014374646620525,-0.0014374674024319,0.001437463169244,-0.0012794622046471,0.0012794637564116,-0.0012794665212376,0.0012794592942586,-0.0011671577544337,0.0011671617857328,-0.0011671639678375,0.0011671553465303,2.6985030785833e-09,-2.0845351931749e-09,-0.001265240056449,0.0012652406697518,-1.8894356253033e-09,2.6111428472313e-09,-0.0014374649726398,0.0014374656467857,-0.0014374634742565,0.0014374671280383,-0.0014374665854403,0.0014374640703024,-0.0014374650739847,0.0014374655593485,-0.001167161007716,0.0011671584598528,-0.0011671562992955,0.0011671630816221,0.61574677292778,131329,3014,0.0039858623704662,0.005257262276675,0.0052572622766601,39.479896080192,7.5839168641533e-05,7.5839168641533e-05,7.5839168641533e-05,3766272.3643991,0.014606899966283
10219200,0.86734695489906,0.014656093211049,0.0041999491664675,0.0052280720222984,0.0052280720222832,-0.0009645564690205,0.00096455701448489,-2.30113525178e-09,2.8321153702312e-09,-3.0113209203306e-09,3.6856027312488e-09,-0.0011129098267024,0.0011129064208867,-0.0011129081302986,0.0011129081457018,-0.0011129076539905,0.0011129086450416,-0.0011129059356371,0.001112910367099,-0.0010337281769817,0.0010337258890128,-0.0010337231408356,0.0010337309300192,2.7609040155402e-09,-3.5983885074805e-09,1.8871672724906e-09,-2.6032334905425e-09,-0.0012766101328629,0.0012766094120209,-0.0014517773375902,0.0014517802082622,-0.0014517788022653,0.0014517787093748,-0.0014517793783048,0.0014517780980851,-0.0014517808307502,0.0014517766060294,-0.0012907590469016,0.0012907606049432,-0.001290763362082,0.001290756144737,-0.0011764223619302,0.0011764263206778,-0.0011764285148058,0.0011764199415123,2.763329471005e-09,-2.1495155285408e-09,-0.0012766094658271,0.0012766100790493,-1.8878983727947e-09,2.6094826313027e-09,-0.0014517783831206,0.001451779101221,-0.0014517768852199,0.0014517805818038,-0.001451780038913,0.001451777481871,-0.0014517785289524,0.0014517789694615,-0.001176425643648,0.0011764229659832,-0.001176420806491,0.0011764277163758,0.62007023226549,131329,3014,0.0040135037951386,0.0053043681345632,0.0053043681345479,38.774698076066,7.0197584608529e-05,7.0197584608529e-05,7.0197584608529e-05,3759695.9668862,0.014730571881388
10419200,0.87633816832035,0.014783590766658,0.0042331684580442,0.0052752111543147,0.005275211154299,-0.00097051273910069,0.00097051328121443,-2.3677426326467e-09,2.8953713646276e-09,-2.9198215554263e-09,3.5901727180996e-09,-0.0011209685543099,0.0011209651647949,-0.0011209668151818,0.0011209669323753,-0.0011209664443188,0.0011209673260212,-0.0011209646821957,0.001120969091911,-0.001040450025022,0.0010404475428749,-0.0010404448601957,0.0010404527123852,2.6669681286741e-09,-3.5086994388318e-09,1.8819845829547e-09,-2.6028973314144e-09,-0.0012868176863808,0.0012868169607982,-0.0014646171939541,0.0014646199975082,-0.0014646186574607,0.0014646184998989,-0.0014646191739987,0.0014646179481886,-0.0014646206244285,0.0014646164584916,-0.0013009526730647,0.0013009542804431,-0.0013009569810115,0.0013009498269426,-0.0011848117497065,0.0011848155234079,-0.0011848177206692,0.0011848093265195,2.8292542965174e-09,-2.2156588848478e-09,-0.0012868170170881,0.0012868176300822,-1.8850414892764e-09,2.6065111623732e-09,-0.0014646181829764,0.0014646189471609,-0.0014646166874066,0.0014646204253217,-0.0014646198832686,0.0014646172833563,-0.0014646183747613,0.001464618769575,-0.0011848150039705,0.0011848121962134,-0.0011848100387957,0.0011848170743727,0.62506143106333,131329,3014,0.0040382848246978,0.0053466575530873,0.0053466575530694,38.099655498522,6.479724398818e-05,6.479724398818e-05,6.479724398818e-05,3750368.8230978,0.01484157701215
10619200,0.88473300098631,0.014900418783236,0.0042635209129817,0.005318448935135,0.005318448935119,-0.00097701794588216,0.00097701847348486,-2.4459383283219e-09,2.9592339765216e-09,-2.6076219577038e-09,3.2605836192615e-09,-0.001129469965784,0.001129466723955,-0.001129468174596,0.0011294685436495,-0.0011294680641156,0.001129468675604,-0.0011294662598054,0.0011294704837379,-0.0010476438929784,0.0010476410586538,-0.0010476386044456,0.0010476463526241,2.3453213995726e-09,-3.1649351236876e-09,1.8927663950327e-09,-2.5945472163673e-09,-0.0012973011582606,0.0012973004519633,-0.0014775790856135,0.0014775816826849,-0.0014775805450936,0.0014775801892132,-0.0014775808399896,0.0014775798604832,-0.0014775822965112,0.0014775783650144,-0.00131139013102,0.0013113919976196,-0.0013113944574982,0.0013113875263727,-0.0011935865245075,0.001193589678407,-0.0011935918581832,0.0011935841224378,2.889183264258e-09,-2.2756953969501e-09,-0.0012973004986083,0.0012973011116065,-1.8872852552309e-09,2.6087113140424e-09,-0.0014775799549909,0.0014775807528569,-0.0014775784528951,0.0014775822375533,-0.0014775816903126,0.0014775790537897,-0.0014775801854301,0.0014775805366678,-0.0011935895350948,0.0011935865964373,-0.0011935844373928,0.0011935916071538,0.61395112853252,131329,3014,0.0040653421466176,0.0053900886222209,0.005390088622202,38.029469381451,6.4235755051611e-05,6.4235755051611e-05,6.4235755051611e-05,3748144.1675134,0.014957222079034
10819200,0.89257315929003,0.015007658366114,0.004291302235874,0.0053581780651278,0.0053581780651118,-0.00098302633004321,0.00098302684152851,-2.5162471804935e-09,3.01373431725e-09,-2.3058037025444e-09,2.9396575620676e-09,-0.0011373499366839,0.0011373468464635,-0.0011373481058245,0.0011373487058297,-0.0011373482433713,0.0011373485882841,-0.0011373463950965,0.0011373504404522,-0.0010542511557396,0.001054247968301,-0.0010542457371393,0.0010542533922512,2.0559535990301e-09,-2.8472819317561e-09,1.9060434576247e-09,-2.5825260908183e-09,-0.0013070012978369,0.0013070006170553,-0.0014896091600129,0.00148961158291,-0.0014896106224252,0.0014896100865106,-0.0014896107152686,0.0014896099612939,-0.0014896121700448,0.0014896084679562,-0.0013209925789996,0.0013209946666727,-0.001320996898869,0.0013209902023298,-0.0012016538678474,0.0012016564431658,-0.0012016585984991,0.0012016514935602,2.9577467124565e-09,-2.3443869095892e-09,-0.0013070006510092,0.0013070012638751,-1.8874102766469e-09,2.6087164018576e-09,-0.0014896099189036,0.0014896107645144,-0.0014896084191318,0.0014896122468942,-0.001489611701999,0.0014896090172761,-0.0014896101947301,0.0014896105028638,-0.0012016566533828,0.0012016535878106,-0.0012016514292697,0.0012016587256729,0.60386754246367,131329,3014,0.0040903329178217,0.0054302726532898,0.0054302726532735,37.973659015051,6.3789272120405e-05,6.3789272120405e-05,6.3789272120405e-05,3750264.1948857,0.015064189527654
11019200,0.89989193663956,0.015105912549621,0.0043166763479742,0.0053946181008316,0.0053946181008154,-0.00098853926831756,0.00098853976434882,-2.5889735347827e-09,3.0713016522545e-09,-2.0490032474161e-09,2.664582462776e-09,-0.0011446062098806,0.0011446032387684,-0.0011446043363329,0.0011446051408605,-0.0011446046933569,0.0011446048022902,-0.0011446028008814,0.0011446066986989,-0.0010602828318762,0.0010602793226317,-0.0010602772837253,0.0010602848762475,1.8070989605403e-09,-2.5675827919354e-09,1.9193141149395e-09,-2.5677958728357e-09,-0.0013159381828588,0.0013159375303057,-0.0015007425091055,0.001500744784025,-0.0015007439716259,0.0015007432875134,-0.0015007438897573,0.001500743338586,-0.0015007453435823,0.0015007418463659,-0.0013297865625435,0.0013297888510064,-0.0013297908788674,0.0013297843903615,-0.0012090254633704,0.0012090275466223,-0.0012090296738257,0.0012090231205627,3.0234852550126e-09,-2.4103661831441e-09,-0.0013159375502534,0.0013159381629032,-1.8867081836836e-09,2.6077839491963e-09,-0.0015007431721373,0.0015007440624176,-0.0015007416734627,0.0015007455437853,-0.0015007449994286,0.0015007422706007,-0.0015007434922052,0.001500743756414,-0.0012090280674037,0.0012090248742238,-0.0012090227167954,0.0012090301392663,0.59320720175488,131329,3014,0.0041132628720765,0.0054672933549548,0.0054672933549385,37.918382249372,6.334705799498e-05,6.334705799498e-05,6.334705799498e-05,3755267.3302333,0.015162652356404
11219200,0.90671182829114,0.01519740199332,0.0043403303933768,0.0054285357999797,0.0054285357999633,-0.00099360477205183,0.00099360525552504,-2.6607829432605e-09,3.1308083711298e-09,-1.8751539222172e-09,2.4759843378781e-09,-0.0011512676968043,0.001151264790043,-0.0011512657793681,0.0011512667360513,-0.0011512662998761,0.0011512662326772,-0.001151264363829,0.0011512681727008,-0.0010658550133129,0.0010658512432606,-0.0010658493373304,0.0010658569249437,1.6394901322683e-09,-2.3725765742341e-09,1.9295913645703e-09,-2.5528406229592e-09,-0.0013241765031695,0.0013241758759939,-0.0015110249554417,0.0015110271331393,-0.001511026416282,0.0015110256383873,-0.0015110262159979,0.0015110258091297,-0.001511027668661,0.0015110243182884,-0.0013378958948586,0.001337898325557,-0.0013379002074198,0.0013378938690991,-0.0012157893678619,0.001215791122755,-0.0012157932236801,0.00121578705436,3.088593993103e-09,-2.4759225954995e-09,-0.0013241758834513,0.0013241764957038,-1.8845719186215e-09,2.6051750050154e-09,-0.0015110255480319,0.001511026482822,-0.0015110240506953,0.0015110279629123,-0.0015110274184668,0.0015110246475074,-0.0015110259131116,0.0015110261316743,-0.0012157918735833,0.0012157885498658,-0.0012157863947971,0.0012157939439092,0.59263236705638,131329,3014,0.0041343312969057,0.0055014191518529,0.0055014191518358,37.837581012156,6.2700648097247e-05,6.2700648097247e-05,6.2700648097247e-05,3759570.8058771,0.015253354617928
11419200,0.91302280082591,0.01528264357051,0.0043624286729585,0.0054601074487838,0.0054601074487673,-0.00099806073979071,0.00099806121647283,-2.73036975499e-09,3.1936982698572e-09,-1.8260811484744e-09,2.4190256080752e-09,-0.001157174078666,0.0011571711548573,-0.0011571721155176,0.0011571731465958,-0.0011571727149297,0.0011571725635509,-0.001157170736383,0.0011571745461116,-0.0010708113826195,0.0010708074459413,-0.0010708055820332,0.0010708132528691,1.5886079220877e-09,-2.3043384176203e-09,1.9333224040354e-09,-2.5402176422662e-09,-0.0013315504483896,0.0013315498375985,-0.001520279216509,0.0015202813665973,-0.0015202806728811,0.0015202798764088,-0.0015202804366907,0.0015202800838998,-0.0015202818880714,0.0015202785944572,-0.0013451838541327,0.0013451863370572,-0.0013451881633702,0.0013451818846091,-0.0012218228135101,0.0012218244758323,-0.0012218265581473,0.0012218205209281,3.152904591576e-09,-2.5409844959031e-09,-0.0013315498372002,0.0013315504487793,-1.8798970204659e-09,2.5996504149937e-09,-0.0015202797734565,0.0015202807525356,-0.0015202782778738,0.0015202822308558,-0.0015202816853325,0.0015202788755241,-0.0015202801849988,0.0015202803548376,-0.001221825341016,0.0012218218820833,-0.0012218197307713,0.0012218274075959,0.59626238559125,131329,3014,0.0041528663017716,0.0055319631040617,0.0055319631040439,37.63051285324,6.1044102825919e-05,6.1044102825919e-05,6.1044102825919e-05,3760194.1086089,0.015334217078334
11619200,0.91886307374535,0.015361900451976,0.0043830200065431,0.0054894402227249,0.0054894402227084,-0.0010021592058431,0.0010021596786952,-2.797046552236e-09,3.2567036491743e-09,-1.8257435169359e-09,2.41443445642e-09,-0.0011626002633762,0.0011625972950168,-0.0011625982581937,0.0011625993288007,-0.001162598901956,0.0011625987010937,-0.0011625968788895,0.0011626007281428,-0.0010753947643426,0.0010753906907839,-0.0010753888318612,0.0010753966291688,1.5976931717669e-09,-2.3028899024487e-09,1.9328224191363e-09,-2.5295753270073e-09,-0.0013383382272369,0.0013383376266994,-0.0015287941256549,0.0015287962864149,-0.0015287955799709,0.0015287947983347,-0.0015287953502512,0.0015287949998204,-0.0015287967964907,0.0015287935156252,-0.0013519231152175,0.0013519255898381,-0.0013519274084848,0.0013519211532796,-0.0012273952524243,0.0012273969317751,-0.0012273990000362,0.0012273929745621,3.2186194116804e-09,-2.6074215681785e-09,-0.0013383376215583,0.0013383382323694,-1.8752693427794e-09,2.5942950707429e-09,-0.0015287946640659,0.0015287956912704,-0.0015287931733529,0.0015287971647078,-0.0015287966214142,0.0015287937685703,-0.0015287951229022,0.0015287952461773,-0.0012273978531565,0.0012273942651155,-0.0012273921183768,0.0012273999156982,0.59873359520122,131329,3014,0.0041699149674796,0.0055600779430665,0.0055600779430489,37.420438265696,5.9363506125567e-05,5.9363506125567e-05,5.9363506125567e-05,3758382.6544878,0.015408642084135
11819200,0.92426909121065,0.015435738677027,0.0044022514516151,0.0055167436127144,0.0055167436126978,-0.001005939869813,0.0010059403412854,-2.8632620404866e-09,3.3215820630951e-09,-1.8618926101059e-09,2.4491395560854e-09,-0.0011675961274007,0.0011675930903223,-0.0011675940785546,0.0011675951677718,-0.0011675947421158,0.0011675945200228,-0.001167592675377,0.0011675965908264,-0.001079640693194,0.0010796365143489,-0.0010796346331013,0.0010796425804546,1.6358777051524e-09,-2.3355142868733e-09,1.9301937507059e-09,-2.5213760768107e-09,-0.0013445981127804,0.0013445975178333,-0.0015366343866855,0.001536636572878,-0.0015366358372534,0.0015366350886301,-0.0015366356349301,0.0015366352629591,-0.0015366370777841,0.0015366337820908,-0.0013581652724188,0.0013581677189429,-0.0013581695557245,0.0013581632925113,-0.0012325634828226,0.0012325652414487,-0.0012325673005764,0.0012325612145615,3.2835383223935e-09,-2.6732198236164e-09,-0.0013445975103268,0.0013445981202779,-1.8702931038295e-09,2.5883961475391e-09,-0.0015366349148388,0.0015366359881905,-0.0015366334275446,0.0015366374582322,-0.0015366369154987,0.0015366340220994,-0.001536635420834,0.001536635495872,-0.0012325661897612,0.001232562468752,-0.0012325603265955,0.0012325682478679,0.60218092659345,131329,3014,0.0041856422518662,0.0055860052609216,0.0055860052609034,37.210252079721,5.7682016637767e-05,5.7682016637767e-05,5.7682016637767e-05,3754791.7135629,0.015477286414986
12019200,0.9292819785593,0.015506303248888,0.0044207698810992,0.0055427666839027,0.0055427666838862,-0.0010095562897317,0.0010095567621592,-2.9282583127774e-09,3.3874993804545e-09,-1.9324052616104e-09,2.5209483666696e-09,-0.0011723077461461,0.0011723046189359,-0.0011723056537347,0.0011723067400076,-0.0011723063133942,0.0011723060961178,-0.0011723042029908,0.0011723082106568,-0.0010837526379413,0.0010837483791628,-0.0010837464495787,0.0010837545736885,1.7074916396905e-09,-2.4070656171175e-09,1.9253638431203e-09,-2.5160662888216e-09,-0.001350511517662,0.0013505109232203,-0.0015439713284637,0.0015439735596987,-0.0015439727758177,0.0015439720787537,-0.001543972624556,0.0015439722019483,-0.0015439740640325,0.0015439707245121,-0.0013641434965764,0.0013641458855551,-0.0013641477697682,0.001364141469331,-0.0012375383561773,0.0012375402591907,-0.0012375423144839,0.0012375360918085,3.3485226301675e-09,-2.7391284793287e-09,-0.0013505109159106,0.0013505115249632,-1.8657148754854e-09,2.582904385544e-09,-0.0015439718561265,0.0015439729755627,-0.0015439703722262,0.0015439744421845,-0.0015439739004289,0.001543970965797,-0.0015439724090325,0.0015439724363164,-0.0012375412014977,0.001237537348151,-0.0012375352101769,0.0012375432552304,0.61929850683985,131329,3014,0.004200685932402,0.0056104967025098,0.0056104967024923,37.027897238138,5.6223177905107e-05,5.6223177905107e-05,5.6223177905107e-05,3747179.6131555,0.015542322690371
12219200,0.93394833584652,0.015574106998556,0.004438693199128,0.0055677068997222,0.0055677068997056,-0.0010131168035387,0.0010131172765153,-2.9936731934859e-09,3.4533557688223e-09,-2.0178500163318e-09,2.6074531279203e-09,-0.0011768817865057,0.0011768785577605,-0.0011768796493203,0.0011768807236262,-0.0011768802956122,0.0011768800932927,-0.0011768781424968,0.0011768822505818,-0.0010878480368617,0.0010878437106459,-0.0010878417233674,0.0010878500306731,1.7846026257801e-09,-2.4871335556227e-09,1.9207114555536e-09,-2.5137795107278e-09,-0.0013562221289701,0.0013562215321013,-0.0015509777616755,0.0015509800397141,-0.0015509792057591,0.0015509785621233,-0.0015509791093145,0.0015509786304826,-0.0015509805475913,0.0015509771543603,-0.0013700057477017,0.0013700080782331,-0.0013700100174859,0.0013700036657468,-0.0012424535716154,0.0012424556319965,-0.001242457687607,0.0012424513070655,3.4133319429933e-09,-2.8048069407791e-09,-0.0013562215264149,0.0013562221346482,-1.8616792700939e-09,2.577949529882e-09,-0.0015509782904217,0.0015509794545099,-0.0015509768083982,0.0015509809191478,-0.0015509803772879,0.0015509774023545,-0.0015509788898896,0.0015509788689,-0.0012424565630581,0.0012424525750905,-0.001242450440459,0.0012424586127487,0.63789981401341,131329,3014,0.0042154973862377,0.0056341472389819,0.0056341472389648,36.9142561086,5.5314048868799e-05,5.5314048868799e-05,5.5314048868799e-05,3734862.5579573,0.015605418133334
12419200,0.93829257637931,0.015635190026791,0.0044547337851087,0.0055902281208495,0.0055902281208328,-0.0010163348785881,0.0010163353543515,-3.057673027482e-09,3.5201247913981e-09,-2.1079701613703e-09,2.7011154925111e-09,-0.0011811037133786,0.0011811003831115,-0.001181101533377,0.0011811025918108,-0.0011811021619848,0.0011811019793913,-0.0011810999645388,0.0011811041810501,-0.0010915166578005,0.0010915122653006,-0.0010915102139744,0.0010915187155694,1.8791505661374e-09,-2.5879879821738e-09,1.9139299474083e-09,-2.5124688256051e-09,-0.001361442820646,0.0013614422182463,-0.0015574469607495,0.0015574492964347,-0.0015574484029786,0.0015574478207507,-0.0015574483740102,0.0015574478212856,-0.0015574498088997,0.0015574463486448,-0.0013753222969438,0.0013753245463322,-0.0013753265563394,0.0013753201443184,-0.0012469016043278,0.0012469038514946,-0.0012469059097151,0.0012468993363363,3.4784452294154e-09,-2.8706821639245e-09,-0.0013614422157096,0.0013614428231744,-1.8587791262795e-09,2.5742693251039e-09,-0.0015574474953535,0.0015574487052905,-0.0015574460162152,0.0015574501669152,-0.00155744962665,0.001557446608698,-0.0015574481406593,0.0015574480738604,-0.0012469047535249,0.0012469006364771,-0.0012468985049337,0.0012469068001732,0.61826606764365,131329,3014,0.004228887670939,0.0056557674156113,0.0056557674155944,36.802254236514,5.4418033892111e-05,5.4418033892111e-05,5.4418033892111e-05,3724647.0596384,0.015662950804727
12619200,0.9423371114028,0.015689057939575,0.0044687252886521,0.0056101663254699,0.005610166325453,-0.0010191934017094,0.0010191938807338,-3.1215500083782e-09,3.587207845498e-09,-2.2025007346732e-09,2.7997267603281e-09,-0.0011849120084295,0.0011849085733616,-0.0011849097848464,0.0011849108256606,-0.0011849103928879,0.0011849102341201,-0.0011849081517567,0.0011849124794974,-0.0010947002776681,0.0010946958243819,-0.0010946937055532,0.0010947024030731,1.9722449216138e-09,-2.6890243001718e-09,1.9070035802145e-09,-2.5125868039634e-09,-0.0013661404777799,0.0013661398682397,-0.0015633354592802,0.0015633378503245,-0.0015633368993858,0.0015633363768304,-0.0015633369370257,0.0015633363103542,-0.0015633383697002,0.0015633348400288,-0.0013800024510506,0.0013800046217526,-0.0013800067036783,0.0013800002267669,-0.0012507986040501,0.0012508010366363,-0.0012508030996174,0.001250796330562,3.5434371875439e-09,-2.9364585235607e-09,-0.0013661398696499,0.001366140476361,-1.8558710758243e-09,2.5705300991582e-09,-0.001563335998933,0.0015633372540007,-0.0015633345220118,0.0015633387133065,-0.001563338173908,0.0015633351138104,-0.0015633366900575,0.0015633365767938,-0.0012508019112256,0.0012507976633505,-0.0012507955347151,0.0012508039547738,0.58731202472481,131329,3014,0.0042407817937025,0.005675221270475,0.005675221270457,36.690313212709,5.3522505701671e-05,5.3522505701671e-05,5.3522505701671e-05,3722618.8470019,0.015714565670942
12819200,0.94606875193876,0.015739142204123,0.0044817760568866,0.0056286830736269,0.0056286830736099,-0.0010215187091653,0.0010215191932114,-3.1849779199343e-09,3.6555851147664e-09,-2.3298254246678e-09,2.9332860713299e-09,-0.0011880463283817,0.0011880427684512,-0.0011880440620348,0.001188045063518,-0.0011880446273778,0.0011880445153148,-0.0011880423412008,0.0011880468057674,-0.0010973145072917,0.0010973100134458,-0.0010973078026739,0.0010973167245002,2.1034697630757e-09,-2.8334284481103e-09,1.8959044733476e-09,-2.5133139974597e-09,-0.0013701248257728,0.0013701242042814,-0.0015683812131361,0.0015683836817427,-0.0015683826510405,0.001568382210526,-0.0015683827833871,0.001568382048683,-0.0015683842115778,0.0015683805829657,-0.0013839593521258,0.0013839614052735,-0.0013839635910345,0.0013839570242411,-0.0012540383683184,0.0012540410595583,-0.0012540431306992,0.0012540360852379,3.607961116441e-09,-3.0018571813237e-09,-0.001370124212106,0.0013701248179395,-1.8521939395995e-09,2.5659262228035e-09,-0.0015683817682421,0.0015683830697015,-0.0015683802951768,0.0015683845250342,-0.0015683839877684,0.0015683808851164,-0.0015683825054743,0.0015683823464407,-0.0012540418683367,0.0012540374928762,-0.0012540353680258,0.0012540439080943,0.59134553806979,131329,3014,0.0042504572121472,0.005691721226599,0.0056917212265811,36.406823204905,5.125458563924e-05,5.125458563924e-05,5.125458563924e-05,3722915.2666887,0.015757925293247
13019200,0.9494685822281,0.015784923670105,0.0044937275835451,0.0056455980432887,0.0056455980432716,-0.0010231481340237,0.0010231486252901,-3.2477401166511e-09,3.7254353036264e-09,-2.4932225956435e-09,3.1055082099735e-09,-0.0011903966360888,0.001190392928658,-0.0011903943270003,0.0011903952664332,-0.0011903948251345,0.0011903947861942,-0.0011903924933548,0.0011903971223235,-0.0010991972397591,0.0010991927311073,-0.0010991904014395,0.0010991995758379,2.2708569069762e-09,-3.0192775707089e-09,1.8804453393419e-09,-2.5145182998236e-09,-0.0013732251681512,0.0013732245298261,-0.0015724373723384,0.0015724399383692,-0.0015724388069058,0.001572438470569,-0.0015724390609448,0.0015724381861102,-0.0015724404831908,0.0015724367264748,-0.0013870413882396,0.0013870432887612,-0.0013870456091627,0.0013870389260599,-0.0012564764119252,0.001256479433757,-0.0012564815167358,0.0012564741152384,3.6720171174565e-09,-3.0669402835502e-09,-0.0013732245465864,0.0013732251513829,-1.8466509285229e-09,2.5592544561508e-09,-0.0015724379522187,0.0015724393011216,-0.001572436484496,0.0015724407510243,-0.0015724402162606,0.0015724370722836,-0.0015724387366253,0.001572438530767,-0.0012564801406097,0.0012564756376299,-0.0012564735178576,0.0012564821752089,0.59302696888509,131329,3014,0.004257241986605,0.0057045595710838,0.0057045595710673,35.874058307256,4.6992466458046e-05,4.6992466458046e-05,4.6992466458046e-05,3719147.403028,0.015790910229435
13219200,0.95256967966636,0.015826851332378,0.0045046986743949,0.0056610763290002,0.005661076328983,-0.0010245479641389,0.0010245484617181,-3.3098374305032e-09,3.7937128700877e-09,-2.6290938254589e-09,3.2490610134751e-09,-0.0011924449907889,0.0011924411529195,-0.0011924426378294,0.0011924435344916,-0.0011924430870917,0.0011924431038851,-0.0011924407122318,0.0011924454831167,-0.0011008362866352,0.0011008317512819,-0.0011008293226707,0.0011008387219023,2.3957496988273e-09,-3.1604976060889e-09,1.8677693038697e-09,-2.5167640615747e-09,-0.0013759500903107,0.001375949436897,-0.0015760249118433,0.0015760275476662,-0.0015760263424366,0.0015760260838747,-0.0015760266882938,0.0015760257068545,-0.0015760281076738,0.0015760242501852,-0.0013897624844579,0.0013897642728857,-0.0013897666971317,0.0013897599187173,-0.0012586111571904,0.0012586144302283,-0.0012586165246652,0.0012586088477275,3.737237360964e-09,-3.133088428358e-09,-0.0013759494616497,0.0013759500655462,-1.8409261579401e-09,2.5525151303267e-09,-0.0015760255031744,0.0015760268985791,-0.0015760240390051,0.0015760283448594,-0.0015760278105707,0.001576024626628,-0.0015760263355333,0.0015760260803849,-0.0012586150788627,0.001258610440528,-0.0012586083255288,0.0012586171082372,0.59512403797528,131329,3014,0.0042630720022137,0.0057158430231305,0.0057158430231061,35.335327401767,4.2682619214138e-05,4.2682619214138e-05,4.2682619214138e-05,3713981.92116,0.01581976630615
13419200,0.95540244643483,0.015864543697365,0.0045145406772612,0.0056750015100604,0.0056750015100433,-0.0010257199338324,0.0010257204361252,-3.3724310796043e-09,3.8608977612236e-09,-2.7270942408488e-09,3.3528042760132e-09,-0.0011942167618451,0.0011942128171662,-0.0011942143644807,0.0011942152431973,-0.00119421479037,0.0011942148364689,-0.0011942123733626,0.0011942172578861,-0.0011022105086545,0.0011022059214175,-0.001102203421129,0.0011022130158021,2.4845198235337e-09,-3.2626092305092e-09,1.8571091687923e-09,-2.5184196893696e-09,-0.0013783158433367,0.0013783151775444,-0.0015791850003321,0.0015791876835565,-0.001579186426884,0.0015791862238889,-0.0015791868391887,0.0015791857798571,-0.0015791882566899,0.0015791843251621,-0.0013921109345858,0.0013921126416231,-0.0013921151419875,0.0013921082928156,-0.0012604319433809,0.0012604353978188,-0.0012604375015508,0.0012604296236715,3.8027069620302e-09,-3.1995703912032e-09,-0.0013783152089768,0.0013783158118953,-1.8364327036238e-09,2.5469899195298e-09,-0.0015791855926552,0.001579187033239,-0.0015791841306397,0.0015791884772554,-0.001579187942981,0.0015791847184988,-0.0015791864723027,0.0015791861678831,-0.0012604360240046,0.0012604312487685,-0.0012604291377305,0.0012604380488439,0.58608287707049,131329,3014,0.0042679547220132,0.0057256389093052,0.0057256389092866,34.796375124854,3.8371000998831e-05,3.8371000998831e-05,3.8371000998831e-05,3708960.2784212,0.01584463811142
13619200,0.95800770802865,0.015898767622381,0.0045234662094446,0.005687650706477,0.0056876507064598,-0.0010268816504451,0.0010268821539381,-3.4336265273018e-09,3.9231043049741e-09,-2.7489338246057e-09,3.3759975484158e-09,-0.0011959211718462,0.0011959171689078,-0.0011959187293898,0.0011959196400675,-0.0011959191822603,0.0011959192065514,-0.0011959167278643,0.0011959216653789,-0.001103548792382,0.0011035441118658,-0.001103541596015,0.0011035513162757,2.4730927795697e-09,-3.2555212657034e-09,1.8552918549405e-09,-2.5209022868354e-09,-0.0013805689035457,0.0013805682334037,-0.0015821663626797,0.0015821690324124,-0.0015821677856983,0.0015821675763576,-0.0015821681922296,0.0015821671380779,-0.0015821696136151,0.0015821656795195,-0.0013943333968811,0.0013943351180303,-0.0013943376168951,0.0013943307567757,-0.0012621729727656,0.001262176415732,-0.0012621785247273,0.0012621706487057,3.8715083436659e-09,-3.2691873170421e-09,-0.0013805682673578,0.0013805688695825,-1.8327349037361e-09,2.5424183006308e-09,-0.0015821669261572,0.0015821684109749,-0.0015821654629853,0.0015821698559916,-0.0015821693187659,0.001582166053977,-0.0015821678545453,0.0015821674970815,-0.0012621771228079,0.001262172197788,-0.0012621700886795,0.001262179144006,0.57889843256828,131329,3014,0.0042727925786831,0.0057349684314897,0.0057349684314709,34.355704116114,3.4845632928908e-05,3.4845632928908e-05,3.4845632928908e-05,3706509.0078744,0.015868516411654
13819200,0.96041808695743,0.015930412591601,0.0045317302483703,0.005699341171624,0.0056993411716067,-0.0010280602608164,0.0010280607612267,-3.5000729796436e-09,3.986545209898e-09,-2.6825468807989e-09,3.3060238054186e-09,-0.0011975884871817,0.0011975844813301,-0.0011975859996639,0.0011975869976591,-0.0011975865410356,0.0011975864754911,-0.001197584045112,0.0011975889756691,-0.0011048936578838,0.0011048888059866,-0.0011048863382642,0.0011048961333654,2.4053504943799e-09,-3.1850432858786e-09,1.8571951896199e-09,-2.5206543932806e-09,-0.0013827532924184,0.0013827526244768,-0.0015850182966881,0.0015850209218593,-0.0015850197189647,0.0015850194665978,-0.001585020079106,0.0015850190749601,-0.0015850215023895,0.001585017614523,-0.0013964893688783,0.001396491144108,-0.0013964935947933,0.0013964867767274,-0.0012638825888124,0.0012638859021363,-0.0012638880094113,0.0012638802667435,3.9372529812123e-09,-3.3353359267769e-09,-0.0013827526575404,0.0013827532593463,-1.8334965836438e-09,2.5427960368559e-09,-0.0015850188171203,0.0015850203436935,-0.0015850173521471,0.0015850217903868,-0.0015850212522469,0.0015850179440316,-0.0015850197890367,0.0015850193863115,-0.0012638867410283,0.001263881682195,-0.001263879573273,0.001263888762131,0.57842147848103,131329,3014,0.0042776986394069,0.0057440138454324,0.0057440138454151,34.003485282596,3.2027882260769e-05,3.2027882260769e-05,3.2027882260769e-05,3705567.0299492,0.015891886345196
14019200,0.96265045436911,0.015959716552028,0.0045393916887077,0.0057101624316689,0.0057101624316516,-0.0010291130821381,0.0010291135776458,-3.5696240168483e-09,4.0513269785065e-09,-2.5829718490419e-09,3.2007087953669e-09,-0.0011990883591781,0.0011990843718857,-0.0011990858273621,0.0011990869325284,-0.00119908648089,0.0011990862978105,-0.0011990839399459,0.0011990888429902,-0.0011061009212908,0.0011060958631571,-0.0011060934680163,0.0011061033235679,2.3214140316345e-09,-3.0951547115673e-09,1.8603885823792e-09,-2.5186871666356e-09,-0.0013847269501827,0.0013847262874904,-0.0015876049865136,0.0015876075595447,-0.0015876064098422,0.0015876061032363,-0.0015876067113779,0.0015876057707214,-0.0015876081344798,0.0015876043102935,-0.0013984395739093,0.0013984414117056,-0.0013984437989725,0.0013984370450038,-0.0012654211019303,0.0012654242474492,-0.0012654263497553,0.0012654187851284,4.0008760041609e-09,-3.3991127909081e-09,-0.0013847263180366,0.0013847269196274,-1.8364120696365e-09,2.5455886696606e-09,-0.0015876054604471,0.0015876070281368,-0.0015876039942092,0.0015876084760674,-0.0015876079387009,0.0015876045852117,-0.0015876064731657,0.0015876060299586,-0.0012654252311924,0.0012654200506244,-0.0012654179407264,0.0012654272539871,0.57820996856027,131329,3014,0.0042820814510562,0.0057521865423472,0.0057521865423285,33.653391141754,2.9227129134033e-05,2.9227129134033e-05,2.9227129134033e-05,3704145.0656191,0.015912951439307
14219200,0.96471983682946,0.015985906020622,0.0045461907674246,0.0057198576266075,0.00571985762659,-0.0010300053019872,0.0010300057921235,-3.6392670110086e-09,4.1156987861096e-09,-2.4787593032518e-09,3.0901536976904e-09,-0.0012004053057222,0.0012004013426042,-0.001200402732169,0.0012004039449692,-0.001200403501141,0.001200403194239,-0.0012004009128457,0.0012004057868942,-0.0011071097985258,0.0011071045236231,-0.0011071022052572,0.0011071121239818,2.2277461679e-09,-2.9934623510006e-09,1.8655111376239e-09,-2.5167468037622e-09,-0.0013864595575881,0.0013864589020455,-0.0015899148985354,0.0015899174170522,-0.0015899163257986,0.0015899159568549,-0.0015899165609446,0.0015899156911911,-0.0015899179824239,0.0015899142324177,-0.001400122796573,0.0014001247007374,-0.0014001270155833,0.0014001203400659,-0.0012667320480247,0.0012667349988559,-0.0012667370952167,0.0012667297380327,4.0646717531857e-09,-3.4630196845375e-09,-0.0013864589290707,0.0013864595305537,-1.8393057497366e-09,2.5484220418971e-09,-0.0015899153236239,0.0015899169347995,-0.0015899138583011,0.0015899183818144,-0.0015899178473083,0.0015899144463597,-0.0015899163771498,0.0015899158957562,-0.0012667361374507,0.0012667308422167,-0.001266728730778,0.0012667381621271,0.55856305872101,131329,3014,0.004285796672334,0.0057593609334203,0.0057593609334016,33.303375782277,2.6427006258215e-05,2.6427006258215e-05,2.6427006258215e-05,3703668.1174612,0.015931310285536
14419200,0.96660795546793,0.016010051179462,0.0045524835720502,0.0057287838037148,0.0057287838036973,-0.001030232089328,0.0010302325778603,-3.7044879963169e-09,4.1793542458319e-09,-2.4571947967386e-09,3.066754695455e-09,-0.0012009674879036,0.0012009634948891,-0.001200964870957,0.0012009661405682,-0.0012009656978953,0.0012009653318037,-0.0012009630670156,0.0012009679670482,-0.0011074229012481,0.0011074174859422,-0.001107415184277,0.0011074252103317,2.1996755875043e-09,-2.9634507145156e-09,1.8664644731573e-09,-2.5158719871333e-09,-0.0013873924907367,0.0013873918368293,-0.0015913454860234,0.0015913479860252,-0.0015913469126126,0.0015913465265873,-0.0015913471285216,0.001591346280353,-0.0015913485507984,0.0015913448207719,-0.0014009949310424,0.001400996858822,-0.0014009991527321,0.0014009924965236,-0.0012672766701971,0.0012672795671734,-0.0012672816620923,0.0012672743620566,4.1308845314896e-09,-3.5296157670141e-09,-0.0013873918632085,0.0013873924643481,-1.8385533746329e-09,2.5470869120079e-09,-0.0015913458799668,0.0015913475350962,-0.0015913444145547,0.001591348982167,-0.0015913484471484,0.0015913450031393,-0.0015913469784421,0.0015913464510928,-0.0012672807992581,0.0012672753713896,-0.0012672732607229,0.0012672828229784,0.56383118258419,131329,3014,0.0042867464513021,0.0057632238603662,0.0057632238603467,32.647698908852,2.1181591270813e-05,2.1181591270813e-05,2.1181591270813e-05,3701844.8725578,0.015940129169826
14619200,0.96831756343777,0.016032028161388,0.0045582273918758,0.0057369003847647,0.0057369003847473,-0.001030039450535,0.0010300399388541,-3.7703051531186e-09,4.2449602678483e-09,-2.4652121691075e-09,3.0746402001465e-09,-0.0012010632947284,0.0012010592526941,-0.0012010606343707,0.0012010619418167,-0.0012010614997469,0.001201061094622,-0.0012010588246955,0.001201063774016,-0.001107303274246,0.0011072977340421,-0.001107295427239,0.0011073055883348,2.2087715813893e-09,-2.9738833506881e-09,1.8634980445168e-09,-2.5141978605255e-09,-0.0013877950559055,0.0013877944007681,-0.0015921888924137,0.0015921913966247,-0.0015921903179443,0.0015921899382823,-0.0015921905418594,0.0015921896840455,-0.0015921919621657,0.0015921882264397,-0.0014013476558277,0.0014013495697601,-0.0014013518714102,0.0014013452133232,-0.0012673377568152,0.0012673406720371,-0.0012673427665663,0.0012673354489676,4.1958635814242e-09,-3.5950522683857e-09,-0.0013877944280033,0.0013877950286615,-1.8367499383149e-09,2.5448585681705e-09,-0.0015921892660926,0.0015921909659776,-0.0015921878024579,0.0015921924112523,-0.0015921918772044,0.0015921883901027,-0.0015921904094066,0.0015921898371818,-0.0012673419591644,0.0012673364029343,-0.0012673342941001,0.0012673439809401,0.5664523362293,131329,3014,0.0042859544701977,0.0057648901941146,0.0057648901940965,31.823312989452,1.4586503915619e-05,1.4586503915619e-05,1.4586503915619e-05,3696005.0936108,0.015942714796617
14819200,0.96986829042801,0.016052087434656,0.0045634871826484,0.0057443001260123,0.0057443001259949,-0.0010297338796057,0.0010297343672652,-3.8371235092166e-09,4.3111328836144e-09,-2.4622008271019e-09,3.0709503543982e-09,-0.0012010118487958,0.0012010077644299,-0.0012010091446442,0.0012010104973381,-0.0012010100564026,0.0012010096037242,-0.0012010073365922,0.0012010123279088,-0.0011070670022926,0.0011070613277397,-0.0011070590237286,0.0011070693134489,2.2104616787435e-09,-2.9760380416799e-09,1.8616289262692e-09,-2.5128156753183e-09,-0.0013880084731492,0.0013880078175462,-0.0015927934681743,0.0015927959724868,-0.0015927948931051,0.001592794514744,-0.001592795119222,0.0015927942582954,-0.0015927965380576,0.0015927928021912,-0.001401523160594,0.0014015250681708,-0.0014015273715205,0.0014015207163368,-0.0012672510305034,0.0012672539487107,-0.0012672560424934,0.0012672487232111,4.2600939458777e-09,-3.6596560743131e-09,-0.0013880078451971,0.0013880084454884,-1.835837890942e-09,2.5436008610926e-09,-0.0015927938200061,0.0015927955636987,-0.0015927923575567,0.0015927970077945,-0.0015927964745473,0.0015927929443752,-0.0015927950070514,0.0015927943911604,-0.0012672552972549,0.0012672496149974,-0.0012672475075022,0.001267257317902,0.56961685259068,131329,3014,0.0042846930349194,0.0057657732083108,0.0057657732082906,30.994843635541,7.9587490843303e-06,7.9587490843303e-06,7.9587490843303e-06,3688737.1730714,0.01594323141804
15019200,0.97125602523725,0.016069969979292,0.0045681806213617,0.0057508946789739,0.0057508946789565,-0.0010288165301278,0.0010288170178189,-3.9171831042744e-09,4.3913232407952e-09,-2.4725589050815e-09,3.0815806889429e-09,-0.0012003062754777,0.0012003021350727,-0.0012003035235358,0.0012003049156988,-0.001200304480046,0.0012003039773966,-0.0012003017020665,0.0012003067598254,-0.0011061874963946,0.0011061816564958,-0.001106179344423,0.0011061898145267,2.2998671253035e-09,-3.0717333482356e-09,1.845501466674e-09,-2.5020557532067e-09,-0.0013875124614786,0.001387511800449,-0.0015926342632811,0.0015926368190353,-0.0015926356846717,0.0015926353647862,-0.001592635979596,0.0015926350391013,-0.0015926373846595,0.0015926335969963,-0.0014009841856352,0.0014009859831278,-0.0014009883539872,0.001400981674912,-0.0012664920127013,0.0012664951005552,-0.0012664971905369,0.0012664897076466,4.3107217205869e-09,-3.7104021941717e-09,-0.0013875118309248,0.0013875124309956,-1.8370062308089e-09,2.5446436175901e-09,-0.0015926346212943,0.0015926364037114,-0.0015926331636636,0.001592637843289,-0.0015926373154839,0.0015926337451787,-0.0015926358420152,0.0015926351973902,-0.0012664964053275,0.0012664906393794,-0.0012664885337169,0.0012664984269843,0.56737759881175,131329,3014,0.0042808914383693,0.0057637178731415,0.0057637178731267,29.891812436826,-8.6550050539239e-07,-8.6550050539239e-07,-8.6550050539239e-07,3677369.7385695,0.015935196417149
15219200,0.97247949745913,0.016085050846087,0.0045721085313182,0.0057564711573932,0.0057564711573756,-0.0010272091913045,0.0010272096844454,-3.9698246440527e-09,4.449244814625e-09,-2.5950645001491e-09,3.2105923603131e-09,-0.0011988616471108,0.0011988573895284,-0.0011988588550105,0.0011988602098843,-0.0011988597664087,0.0011988593171782,-0.0011988569541624,0.0011988621343764,-0.0011045679439843,0.0011045620949439,-0.0011045596952033,0.0011045703510224,2.3650371243607e-09,-3.141809486432e-09,1.8383688856448e-09,-2.4991117726541e-09,-0.0013862265072824,0.0013862258419537,-0.0015916319663624,0.0015916345569518,-0.0015916333809721,0.0015916331095557,-0.0015916337250204,0.0015916327343914,-0.0015916351300744,0.0015916312923339,-0.0013996270310667,0.0013996287804037,-0.0013996312003997,0.0013996244715698,-0.0012649594417249,0.0012649626712688,-0.001264964762351,0.0012649571356754,4.3858462527605e-09,-3.7866413496472e-09,-0.0013862258750824,0.0013862264741436,-1.8225778420568e-09,2.5289064010571e-09,-0.0015916323138384,0.0015916341520382,-0.0015916308627264,0.00159163558497,-0.001591635054829,0.0015916314467671,-0.0015916335947628,0.0015916328856431,-0.0012649639896859,0.0012649580554179,-0.0012649559591098,0.0012649659999942,0.54391180534662,131329,3014,0.0042742243417905,0.0057583908836967,0.0057583908836759,28.486063590654,-1.2111491274766e-05,-1.2111491274766e-05,-1.2111491274766e-05,3663423.7744707,0.015917602123635
15419200,0.97356044275439,0.016100234724182,0.0045761826887741,0.0057620260177127,0.0057620260176952,-0.0010255769502858,0.0010255774467248,-4.0306177412183e-09,4.5132177496487e-09,-2.670527235579e-09,3.2900426557494e-09,-0.0011972876331658,0.0011972832842687,-0.0011972847976354,0.0011972861483714,-0.0011972857000907,0.0011972852649642,-0.0011972828476557,0.0011972881220417,-0.0011029610880866,0.0011029551759158,-0.0011029527214816,0.0011029635497712,2.4234497948504e-09,-3.2049584168858e-09,1.8293757320757e-09,-2.4942578651037e-09,-0.0013848440722034,0.0013848434027413,-0.0015904372728138,0.0015904398943089,-0.0015904386812832,0.0015904384530898,-0.0015904390709696,0.0015904380318397,-0.0015904404727405,0.0015904365931906,-0.0013982201568311,0.001398221852212,-0.0013982243170757,0.0013982175519497,-0.0012633885027742,0.0012633918566325,-0.0012633939470065,0.0012633861965946,4.4540501371198e-09,-3.8556343937806e-09,-0.0013848434383326,0.0013848440366058,-1.8129840622873e-09,2.5184748556454e-09,-0.001590437610742,0.0015904394987628,-0.0015904361647318,0.0015904409265823,-0.0015904403958673,0.0015904367494315,-0.0015904389436684,0.0015904381803468,-0.0012633931859738,0.0012633871050549,-0.0012633850157755,0.0012633951887161,0.61487580353741,131329,3014,0.0042674505119745,0.0057526650454565,0.0057526650454437,27.073091983964,-2.3415264128291e-05,-2.3415264128291e-05,-2.3415264128291e-05,3649501.5698987,0.015899086392566
15619200,0.97453484205299,0.016114208495903,0.0045799496273364,0.005767129434292,0.0057671294342741,-0.001024416250622,0.0010244167538187,-4.0330112006291e-09,4.5206099956442e-09,-2.7803533184088e-09,3.405719681778e-09,-0.0011962909982853,0.0011962865771026,-0.0011962881522537,0.0011962894522367,-0.0011962889892227,0.0011962886345148,-0.0011962861382658,0.0011962914909774,-0.0011018755120026,0.0011018696956866,-0.0011018671575953,0.001101878061226,2.2312322708933e-09,-3.000147837815e-09,1.8642638233361e-09,-2.5181743452474e-09,-0.0013839469085455,0.0013839462500757,-0.0015897604378267,0.0015897629556325,-0.001589761859285,0.0015897615027394,-0.0015897621050205,0.0015897612290409,-0.0015897635307142,0.0015897597661005,-0.00139737420003,0.0013973761204477,-0.001397378436851,0.0013973717391623,-0.0012623887676042,0.0012623917422313,-0.0012623938477773,0.0012623864546499,4.5791643010268e-09,-3.9830782121065e-09,-0.0013839462808296,0.0013839468777293,-1.7850092399577e-09,2.4873271254225e-09,-0.0015897606774302,0.0015897626598053,-0.0015897592434884,0.0015897640746902,-0.0015897635401058,0.0015897598346549,-0.0015897621134847,0.001589761242608,-0.0012623934090219,0.0012623870436917,-0.001262384960239,0.0012623953822871,0.62694797111199,131329,3014,0.004262640780588,0.005748947410242,0.0057489474101137,25.964209632441,-3.228632294047e-05,-3.228632294047e-05,-3.228632294047e-05,3627572.3347394,0.015886650667339
15819200,0.97545135848202,0.016128293096775,0.004583796952787,0.0057722480720023,0.0057722480719857,-0.0010244915709017,0.0010244920516408,-4.1958221378079e-09,4.6626173616519e-09,-2.354904034357e-09,2.9554684851724e-09,-0.0011965685543658,0.0011965643041508,-0.001196565617332,0.0011965672699282,-0.0011965668390902,0.0011965660657507,-0.0011965638792241,0.0011965690301188,-0.0011020809993329,0.0011020745389875,-0.0011020723162541,0.0011020832303292,2.2243107173526e-09,-2.9923284663458e-09,1.8383540853801e-09,-2.4920110057605e-09,-0.0013843288945795,0.0013843282365924,-0.0015903665937366,0.0015903690938928,-0.0015903680072879,0.001590367647738,-0.0015903682579456,0.0015903673667512,-0.0015903696586722,0.0015903659289228,-0.0013978588713557,0.0013978607116413,-0.0013978630289736,0.0013978564139649,-0.0012627198667451,0.0012627228188442,-0.0012627248997367,0.0012627175717682,4.5593957071791e-09,-3.9594799613698e-09,-0.0013843282656398,0.001384328865537,-1.8383713352235e-09,2.5457045222096e-09,-0.0015903668431401,0.0015903687878093,-0.0015903653821174,0.0015903702302198,-0.0015903697009257,0.0015903659652813,-0.0015903682282027,0.0015903674171421,-0.001262724437563,0.0012627181805202,-0.0012627160709607,0.0012627264596914,0.6691970001426,131329,3014,0.0042629626783622,0.005750527658153,0.0057505276581634,25.548079509844,-3.5615363921249e-05,-3.5615363921249e-05,-3.5615363921249e-05,3612049.1158542,0.015890192896503
16019200,0.97631493133756,0.016141528556316,0.0045874100794961,0.0057770592384185,0.0057770592384013,-0.0010245359126179,0.0010245363873526,-4.2341692214485e-09,4.6952498106354e-09,-2.2200925268149e-09,2.8134159083105e-09,-0.001196882505383,0.0011968783143473,-0.001196879541555,0.0011968813068443,-0.0011968808782818,0.0011968799872072,-0.0011968778982289,0.0011968829718961,-0.0011022568421685,0.0011022502246056,-0.0011022481000587,0.0011022589746134,1.9594222058937e-09,-2.7093107801838e-09,1.8752089587652e-09,-2.5132411366976e-09,-0.0013846841692445,0.0013846835269931,-0.0015909733220101,0.0015909756710166,-0.0015909747519602,0.0015909742083373,-0.0015909748005499,0.001590974131006,-0.0015909762242723,0.001590972670065,-0.0013983335740187,0.0013983356820559,-0.0013983377987491,0.0013983313167025,-0.0012630602359268,0.0012630626527535,-0.0012630647380286,0.001263057938396,4.6545125816592e-09,-4.0546389546808e-09,-0.0013846835481943,0.0013846841480331,-1.8409965423193e-09,2.5482146252335e-09,-0.0015909734664673,0.0015909754702824,-0.0015909720010844,0.0015909769174546,-0.0015909763847264,0.0015909725874197,-0.0015909749142377,0.0015909740374579,-0.001263064638792,0.0012630581855314,-0.0012630560729633,0.001263066659967,0.66742792824487,131329,3014,0.0042631598667146,0.0057519961296199,0.005751996129599,25.148315178274,-3.8813478573804e-05,-3.8813478573804e-05,-3.8813478573804e-05,3593194.0040693,0.015893383496182
16219200,0.97712924342785,0.016153950082124,0.0045907998050062,0.0057815751385674,0.0057815751385502,-0.0010245276145466,0.0010245280818867,-4.2951348699898e-09,4.7489762371534e-09,-2.0632224626759e-09,2.6476422819339e-09,-0.0011971359013011,0.0011971317719276,-0.0011971328980171,0.0011971348039235,-0.0011971343813173,0.0011971333369878,-0.0011971313634346,0.0011971363594768,-0.0011023674100295,0.0011023605682506,-0.0011023585581245,0.0011023694277705,1.7706594854621e-09,-2.5076625807913e-09,1.8993629978391e-09,-2.5264539646962e-09,-0.001384967984516,0.001384967353322,-0.0015914959957582,0.001591498238019,-0.0015914974370428,0.0015914967640214,-0.001591497345127,0.0015914968283076,-0.0015914987817274,0.0015914953542849,-0.0013987203044622,0.0013987225926945,-0.0013987245682174,0.0013987181876121,-0.0012633297351166,0.0012633317708097,-0.0012633338575858,0.0012633274379413,4.7282080607834e-09,-4.1277431003993e-09,-0.0013849673686955,0.0013849679691318,-1.8525940397296e-09,2.5605146755343e-09,-0.0015914960671441,0.0015914981109392,-0.0015914945926512,0.0015914995671468,-0.0015914990328893,0.0015914951802838,-0.001591497555187,0.001591496637949,-0.001263334016775,0.0012633274257602,-0.0012633253044916,0.0012633360465559,0.66425605287397,131329,3014,0.0042631380595871,0.0057531685723645,0.0057531685723426,24.749151913944,-4.2006784688451e-05,-4.2006784688451e-05,-4.2006784688451e-05,3576838.6984663,0.015895749527151
16419200,0.97790046499588,0.016164514395057,0.0045936277581529,0.0057854433184607,0.0057854433184434,-0.0010245400274397,0.0010245405018483,-4.2243682008041e-09,4.683907894829e-09,-2.2089319951732e-09,2.8001806025224e-09,-0.0011974144724917,0.0011974102909841,-0.0011974115040727,0.0011974132883555,-0.0011974128488798,0.0011974119607039,-0.0011974098833012,0.0011974149308683,-0.0011024563973716,0.0011024498217694,-0.001102447704845,0.0011024585258706,1.3553988225465e-09,-2.0637070761911e-09,1.9799586080322e-09,-2.5822925509909e-09,-0.0013852533839232,0.0013852527776038,-0.0015920248390069,0.0015920268594376,-0.0015920263163011,0.0015920253492805,-0.0015920258987866,0.001592025741759,-0.0015920273890593,0.0015920242140933,-0.001399060113422,0.0013990628719378,-0.0013990645310545,0.0013990583089042,-0.0012635736194029,0.0012635748156826,-0.0012635769215582,0.0012635713045078,4.9259709666154e-09,-4.3271859898501e-09,-0.0013852527813878,0.0013852533802314,-1.815697111229e-09,2.521628052641e-09,-0.0015920247275231,0.0015920269163006,-0.0015920232686369,0.0015920283562488,-0.0015920278148326,0.0015920238636408,-0.0015920263717828,0.0015920252888209,-0.0012635777020963,0.0012635706729286,-0.0012635685693173,0.0012635797003643,0.59981698284033,131329,3014,0.0042632014546824,0.0057543477176881,0.0057543477178789,24.411704372716,-4.4706365018269e-05,-4.4706365018269e-05,-4.4706365018269e-05,3564949.0166968,0.015898215772511
16619200,0.97863494709046,0.016176402553612,0.004596910415397,0.0057897460691179,0.0057897460690971,-0.0010247666846399,0.0010247671392452,-4.4423743639831e-09,4.8834771291259e-09,-1.8150689483013e-09,2.3841259209426e-09,-0.0011977788330266,0.0011977747703532,-0.0011977757374606,0.0011977778940447,-0.0011977774852325,0.0011977761612658,-0.001197774371207,0.0011977792805141,-0.0011027836642785,0.0011027763582752,-0.0011027745275549,0.001102785503075,1.5550951816519e-09,-2.2771142103931e-09,1.9315473097352e-09,-2.5459796332942e-09,-0.0013857175224501,0.0013857169040419,-0.0015926474765507,0.001592649605369,-0.0015926489372338,0.0015926481127208,-0.0015926486840903,0.0015926483395299,-0.0015926501351606,0.0015926468501317,-0.0013995848073939,0.0013995872963109,-0.0013995891135681,0.0013995828465164,-0.001263995238431,0.0012639968315556,-0.0012639989240231,0.0012639929393967,4.8501113500157e-09,-4.2475942887925e-09,-0.0013857169120003,0.0013857175144858,-1.8847448014577e-09,2.5950245434286e-09,-0.0015926474619046,0.0015926495662667,-0.0015926459661397,0.0015926510420525,-0.0015926505077033,0.0015926465535376,-0.0015926490064232,0.0015926480366698,-0.0012639994009815,0.0012639926054725,-0.001263990462087,0.0012640014569763,0.70235632430869,131329,3014,0.0042641477346875,0.0057562687592379,0.005756268759226,24.157888916589,-4.6736888667287e-05,-4.6736888667287e-05,-4.6736888667287e-05,3560539.8131345,0.015903081609603
16819200,0.97933483516633,0.016187784122551,0.0046000524959839,0.005793865813294,0.0057938658132734,-0.0010249456388014,0.0010249460941068,-4.4851791286799e-09,4.927079189054e-09,-1.8119073232985e-09,2.3816906951606e-09,-0.0011982325991646,0.0011982285082077,-0.0011982294724833,0.0011982316630757,-0.0011982312513374,0.0011982298993066,-0.0011982281105181,0.0011982330452643,-0.0011030902511607,0.0011030828678247,-0.0011030810383718,0.0011030920882154,1.4725008892102e-09,-2.189190454624e-09,1.9542565747071e-09,-2.5641910863542e-09,-0.0013861666813964,0.0013861660675514,-0.0015933221272781,0.0015933242132206,-0.0015933235990576,0.0015933227091921,-0.0015933232740299,0.0015933230083893,-0.0015933247410063,0.00159332150316,-0.0014001634303112,0.0014001660296369,-0.0014001677840765,0.0014001615316345,-0.0012644816167327,0.0012644830336879,-0.0012644851355902,0.0012644793096061,4.9378112409619e-09,-4.3352713733178e-09,-0.0013861660732273,0.0013861666757238,-1.8885587316506e-09,2.5988774584305e-09,-0.0015933220639128,0.0015933242226304,-0.0015933205634458,0.0015933257035686,-0.0015933251668426,0.0015933211531373,-0.0015933236652099,0.0015933226365076,-0.001264485780826,0.0012644788063226,-0.0012644766606645,0.0012644878396682,0.70571572241202,131329,3014,0.0042649045206213,0.0057581255313319,0.0057581255313393,23.906054079181,-4.875156736655e-05,-4.875156736655e-05,-4.875156736655e-05,3544213.9304444,0.015907629704036
17019200,0.98000205589578,0.016198422067217,0.0046029804090371,0.0057977208291002,0.0057977208290796,-0.0010250735897946,0.0010250740430485,-4.5697250252726e-09,5.009614145256e-09,-1.7653110534297e-09,2.3326188926822e-09,-0.0011986401507939,0.0011986360350198,-0.0011986369705365,0.001198639243701,-0.0011986388353774,0.0011986373936066,-0.0011986356376683,0.0011986405963486,-0.0011033339793216,0.0011033263933962,-0.0011033245983086,0.0011033357822594,1.4903196180314e-09,-2.2087192656058e-09,1.9574225183987e-09,-2.5689534766945e-09,-0.001386554094067,0.0013865534786217,-0.0015939339191395,0.0015939360189834,-0.0015939353952685,0.0015939345104541,-0.0015939350785564,0.0015939348012454,-0.0015939365466461,0.0015939332950498,-0.0014006647486743,0.001400667338205,-0.0014006691056581,0.0014006628376432,-0.0012649049093431,0.0012649063536743,-0.0012649084594479,0.001264902597572,4.9852178023711e-09,-4.3818401962604e-09,-0.0013865534846597,0.0013865540880306,-1.9051564232496e-09,2.616500770521e-09,-0.0015939338510305,0.001593936032921,-0.0015939323410815,0.0015939375236369,-0.0015939369877214,0.0015939329299511,-0.0015939354728276,0.0015939344260925,-0.001264909124509,0.0012649020752111,-0.0012648999170925,0.0012649111952815,0.69245976462843,131329,3014,0.0042654498075558,0.0057597263286084,0.005759726328612,23.654291934075,-5.0765664527398e-05,-5.0765664527398e-05,-5.0765664527398e-05,3529721.2679454,0.015911442643297
17219200,0.98062308300633,0.016208059092605,0.0046056222080499,0.0058012184422878,0.0058012184422671,-0.0010244132295782,0.0010244136943596,-4.5879041713827e-09,5.0395099599006e-09,-1.9833590212727e-09,2.5644794220905e-09,-0.0011982107429219,0.0011982064760331,-0.0011982075503097,0.001198209696952,-0.0011982092816265,0.0011982079814838,-0.0011982060644952,0.001198211203755,-0.0011027408121222,0.0011027333325279,-0.0011027313741507,0.0011027427762712,1.525776683205e-09,-2.2462590645628e-09,1.9691982218571e-09,-2.5823740658987e-09,-0.0013860945108941,0.0013860938937632,-0.0015936668060298,0.0015936689404901,-0.0015936682941077,0.0015936674203977,-0.0015936679937883,0.001593667695376,-0.0015936694660672,0.0015936661845171,-0.0014002766935937,0.0014002792742847,-0.001400281066304,0.0014002747568501,-0.0012644631689475,0.0012644646638098,-0.0012644667807929,0.0012644608461061,5.0912889596759e-09,-4.4892181204091e-09,-0.0013860939012279,0.0013860945033875,-1.8908276701008e-09,2.6006096622776e-09,-0.0015936667134243,0.0015936689790423,-0.0015936652167999,0.0015936704561083,-0.0015936699252723,0.0015936658012073,-0.0015936684170033,0.0015936672917141,-0.0012644675172193,0.0012644602561997,-0.0012644581066478,0.0012644695729882,0.6747598769559,131329,3014,0.0042627208328511,0.005757819307358,0.0057578193072718,22.994390121227,-5.6044879030181e-05,-5.6044879030181e-05,-5.6044879030181e-05,3513824.4724267,0.015904800431501
17419200,0.98118985423568,0.016216482236141,0.0046079162241572,0.0058042830060016,0.005804283005982,-0.001023077552381,0.0010230780239758,-4.6581462585352e-09,5.1161255688757e-09,-2.1578963202781e-09,2.7472339098898e-09,-0.0011970450889504,0.0011970406580514,-0.0011970418442399,0.0011970439309375,-0.0011970435063531,0.0011970422853074,-0.001197040242845,0.0011970455539285,-0.0011014247225381,0.0011014172311129,-0.0011014151476954,0.0011014268133832,1.7864482615805e-09,-2.5248103268622e-09,1.9477986843887e-09,-2.5763454898777e-09,-0.0013848975285085,0.0013848968958286,-0.0015926218005079,0.0015926240885538,-0.0015926232766939,0.0015926225800564,-0.0015926231653573,0.0015926226641169,-0.0015926246315287,0.0015926211596709,-0.0013991086142559,0.0013991109769903,-0.0013991129656907,0.0013991064814875,-0.0012632623391552,0.0012632643665573,-0.0012632664878097,0.0012632600081959,5.1487437307074e-09,-4.5468367023186e-09,-0.0013848969112306,0.0013848975131205,-1.8823987585395e-09,2.5920648099052e-09,-0.0015926217642454,0.0015926240700924,-0.0015926202705241,0.0015926255440447,-0.0015926250107345,0.0015926208571958,-0.0015926235106715,0.0015926223388548,-0.0012632670130255,0.0012632596282208,-0.0012632574862987,0.0012632690656814,0.6474779860371,131329,3014,0.0042571857876927,0.0057528586589716,0.0057528586590009,21.991158143689,-6.4070734850485e-05,-6.4070734850485e-05,-6.4070734850485e-05,3497137.2568516,0.015889101503528
17619200,0.98170752935002,0.016223883177828,0.0046099208224247,0.0058069811777115,0.0058069811776914,-0.0010216855556791,0.0010216860349048,-4.7330598370944e-09,5.1986227015273e-09,-2.3228453250227e-09,2.9214991758526e-09,-0.0011957658580615,0.0011957612665998,-0.0011957625589502,0.0011957645939135,-0.0011957641601217,0.0011957630097105,-0.0011957608464737,0.0011957663286121,-0.0011000259076208,0.0011000183891956,-0.0011000161854807,0.0011000281186613,2.0310987461617e-09,-2.7860266074907e-09,1.9242134974648e-09,-2.5668300254262e-09,-0.0013836063291332,0.0013836056821406,-0.0015914457105826,0.0015914481389144,-0.0015914471737998,0.0015914466436488,-0.0015914472403601,0.0015914465487294,-0.001591448697675,0.0015914450532622,-0.001397813073962,0.0013978152284349,-0.0013978174001652,0.0013978107584888,-0.0012619441145815,0.0012619466411468,-0.0012619487656203,0.001261941778367,5.2006858097361e-09,-4.5993446441194e-09,-0.0013836057049454,0.0013836063063199,-1.8748122490668e-09,2.5837839024401e-09,-0.0015914457253643,0.0015914480690126,-0.0015914442347717,0.0015914495396876,-0.001591449005033,0.0015914448234545,-0.001591447512094,0.0015914462974807,-0.0012619490950387,0.0012619415949224,-0.0012619394595115,0.0012619511420653,0.62390234201218,131329,3014,0.0042514135071327,0.0057475086817055,0.0057475086816882,20.979757630153,-7.2161938958773e-05,-7.2161938958773e-05,-7.2161938958773e-05,3484189.8095901,0.015872369003793
17819200,0.98218157085334,0.01623042760571,0.0046116847214442,0.0058093714421432,0.005809371442123,-0.001020301141027,0.0010203016293204,-4.802373788042e-09,5.2768715865482e-09,-2.5188721141859e-09,3.1284653577661e-09,-0.0011944478570667,0.0011944430958165,-0.0011944445128495,0.0011944464681649,-0.0011944460300188,0.001194444968945,-0.0011944426633068,0.0011944483408893,-0.0010986132771781,0.0010986057454999,-0.0010986033986416,0.0010986156309125,2.160425819023e-09,-2.9242263025739e-09,1.9052768080604e-09,-2.5554406726226e-09,-0.0013822918655611,0.0013822912110078,-0.0015902170347554,0.0015902195392077,-0.0015902184919017,0.001590218049973,-0.0015902186576841,0.0015902178551883,-0.0015902201009296,0.0015902163737991,-0.0013964678579926,0.001396469874235,-0.0013964721426046,0.0013964654457961,-0.0012605830498784,0.0012605858286265,-0.0012605879509068,0.0012605807151662,5.2575656542135e-09,-4.656775707934e-09,-0.0013822912378967,0.001382291838664,-1.8661377655663e-09,2.5745049049071e-09,-0.0015902170635341,0.0015902194548447,-0.001590215582971,0.0015902209155113,-0.0015902203855485,0.0015902161670314,-0.0015902188946993,0.0015902176391573,-0.0012605882101492,0.0012605806029383,-0.0012605784736018,0.0012605902498633,0.6034162902127,131329,3014,0.0042456697608684,0.005742063155331,0.0057420631553143,19.990061054017,-8.0079511567865e-05,-8.0079511567865e-05,-8.0079511567865e-05,3474647.9966309,0.015855470269349
18019200,0.98261663531711,0.016236428119609,0.0046133045194487,0.0058115618000904,0.0058115618000702,-0.0010189322638115,0.0010189327552484,-4.8669665772472e-09,5.3445391610267e-09,-2.5915210979564e-09,3.2050299199477e-09,-0.0011931021443114,0.0011930972862631,-0.0011930987505667,0.0011931007080843,-0.0011931002617133,0.0011930992151741,-0.0011930968562768,0.0011931026258474,-0.0010972060568474,0.0010971984651131,-0.0010971960650894,0.0010972084639113,2.3093118757051e-09,-3.083571204998e-09,1.8894932616657e-09,-2.5486358150216e-09,-0.0013809655541924,0.0013809648905852,-0.0015889482120224,0.0015889507967773,-0.0015889496562462,0.0015889493204631,-0.0015889499312382,0.0015889490155895,-0.0015889513724054,0.001588947536361,-0.0013950965116967,0.0013950984101028,-0.001395100790758,0.0013950939874664,-0.0012591975496936,0.0012592006463301,-0.0012592027697869,0.001259195212335,5.32204768392e-09,-4.721930110394e-09,-0.001380964922351,0.0013809655224234,-1.8553167899927e-09,2.5629282542717e-09,-0.0015889482584943,0.0015889506943447,-0.0015889467799836,0.0015889521529574,-0.0015889516183596,0.0015889473687928,-0.0015889501401639,0.001588948827859,-0.0012592029437315,0.0012591951853582,-0.0012591930649592,0.0012592049762076,0.6026570403894,131329,3014,0.0042399880657958,0.0057365692116091,0.0057365692116029,19.018674950519,-8.785060039585e-05,-8.785060039585e-05,-8.785060039585e-05,3467536.0610402,0.015838535293015
18219200,0.98301634811542,0.016242046544001,0.0046148287146534,0.0058136089146839,0.0058136089146635,-0.0010175494094236,0.0010175499066548,-4.9321802828662e-09,5.4154959066998e-09,-2.7161331355266e-09,3.3366421508727e-09,-0.0011917271262086,0.0011917221531875,-0.0011917236960515,0.0011917256113746,-0.0011917251686655,0.0011917241575611,-0.001191721708846,0.0011917276226572,-0.001095785793509,0.001095778131809,-0.0010957756413334,0.0010957882910525,2.3445409951953e-09,-3.1215655369185e-09,1.8764519519764e-09,-2.5379406443456e-09,-0.0013796074252606,0.001379606759311,-0.0015876336370016,0.0015876362460662,-0.0015876350824088,0.0015876347686202,-0.0015876353905802,0.0015876344303816,-0.0015876368148139,0.0015876329681472,-0.0013936978986003,0.0013936997190789,-0.0013937021264969,0.0013936953476084,-0.0012577855722138,0.0012577887185057,-0.0012577908366417,0.0012577832402173,5.3846153333448e-09,-4.785045828311e-09,-0.0013796067925305,0.0013796073920364,-1.8462068007672e-09,2.553207618201e-09,-0.0015876336673062,0.001587636159758,-0.0015876322040139,0.0015876376029356,-0.0015876370780859,0.001587632783251,-0.0015876355972518,0.001587634245269,-0.0012577910428973,0.0012577831816536,-0.0012577810671712,0.001257793067753,0.61338751886556,131329,3014,0.0042342478319956,0.0057309436506471,0.0057309436506378,18.047723446868,-9.5618212425053e-05,-9.5618212425053e-05,-9.5618212425053e-05,3460023.6431892,0.015821273636919
18419200,0.98339324500825,0.016247381913243,0.0046162796955445,0.0058155511088594,0.0058155511088389,-0.0010168705117895,0.0010168710080605,-4.9785891967822e-09,5.4611297653226e-09,-2.6870742710784e-09,3.3064540834797e-09,-0.0011910847843885,0.0011910798010246,-0.0011910813243035,0.0011910832891747,-0.0011910828484218,0.0011910817838254,-0.0011910793564496,0.0011910852812199,-0.0010950980267617,0.0010950902531992,-0.0010950877821646,0.001095100503124,2.2395287929573e-09,-3.0091031471298e-09,1.8833877055107e-09,-2.5384015061977e-09,-0.0013789787461369,0.001378978086639,-0.0015870615835349,0.0015870641307769,-0.0015870630324103,0.0015870626502348,-0.0015870632673297,0.001587062386319,-0.0015870646925337,0.0015870609228831,-0.0013930523504506,0.0013930542573569,-0.0013930565844147,0.001393049878341,-0.0012571187779967,0.0012571217121291,-0.0012571238273503,0.0012571164502458,5.4692438862359e-09,-4.8704783198188e-09,-0.001378978116942,0.0013789787157764,-1.8397426605363e-09,2.545732235363e-09,-0.0015870615525229,0.0015870641062771,-0.0015870600946299,0.0015870655438922,-0.0015870650207616,0.001587060672466,-0.0015870635436384,0.0015870621316608,-0.0012571242295666,0.0012571161975992,-0.001257114087099,0.0012571262465754,0.61738403795211,131329,3014,0.0042314307678046,0.0057283393377457,0.0057283393376277,17.475284057219,-0.00010019772754225,-0.00010019772754225,-0.00010019772754225,3455464.8212329,0.015813120748402
18619200,0.98375626272135,0.016252472320207,0.0046176627862967,0.0058174047669652,0.0058174047669454,-0.0010167706350713,0.001016771117564,-5.0834440894195e-09,5.5521529754201e-09,-2.4233453296401e-09,3.0263223534589e-09,-0.0011910459528527,0.0011910410622766,-0.001191042420131,0.0011910446229711,-0.0011910441873107,0.001191042873279,-0.0011910406383869,0.0011910464275076,-0.0010950063677335,0.0010949982296625,-0.0010949959541571,0.0010950086511048,2.169444643094e-09,-2.9342974648038e-09,1.882515737964e-09,-2.5336813784823e-09,-0.0013789521204996,0.0013789514649698,-0.0015871059464161,0.0015871084376033,-0.0015871073856388,0.0015871069662206,-0.0015871075716418,0.0015871067507681,-0.001587109003363,0.0015871052811457,-0.0013930192084237,0.0013930211820278,-0.0013930234591086,0.0013930167888476,-0.0012570589038841,0.0012570617254418,-0.0012570638336791,0.0012570565834295,5.5028091313701e-09,-4.9028928470478e-09,-0.0013789514928078,0.0013789520926774,-1.8535620217761e-09,2.5610051798732e-09,-0.0015871058843356,0.0015871084441216,-0.0015871044093198,0.0015871098991768,-0.0015871093669329,0.0015871049954531,-0.001587107887742,0.0015871064555777,-0.0012570643344401,0.0012570562275728,-0.0012570541094689,0.0012570663665484,0.61178640780151,131329,3014,0.0042310178295095,0.0057282286635578,0.0057282286635909,17.230568514123,-0.00010215545188702,-0.00010215545188702,-0.00010215545188702,3454356.8212386,0.015812476956656
18819200,0.98410618910538,0.01625769733321,0.0046190990245721,0.0058192991543291,0.0058192991543089,-0.0010166907193256,0.001016691193456,-5.1559610637522e-09,5.6164986992024e-09,-2.2478482592198e-09,2.8408163131587e-09,-0.0011910147272179,0.0011910098999541,-0.0011910111458564,0.0011910135092821,-0.0011910130783501,0.0011910115935143,-0.0011910094868421,0.0011910151903927,-0.0010949400089515,0.0010949316181906,-0.0010949294706391,0.0010949421638135,2.0138816730609e-09,-2.7678615452408e-09,1.892720629292e-09,-2.5346012172944e-09,-0.0013789400512583,0.0013789394051299,-0.0015871562369973,0.0015871586306871,-0.0015871576768519,0.00158715715866,-0.0015871577522928,0.0015871570547355,-0.0015871591906206,0.0015871555785188,-0.0013930058241263,0.001393007935428,-0.0013930100956136,0.0013930035214132,-0.001257017015089,0.0012570195349795,-0.0012570216384015,0.0012570147017662,5.5656141174856e-09,-4.9653963093747e-09,-0.0013789394280985,0.0013789400282833,-1.8604064527717e-09,2.5681689720831e-09,-0.0015871561090862,0.0015871587032916,-0.0015871546265385,0.001587160166285,-0.0015871596306539,0.0015871552159339,-0.0015871581496315,0.0015871566777867,-0.0012570223592163,0.0012570141248134,-0.0012570120022127,0.0012570243965425,0.64922937591298,131329,3014,0.0042306873215952,0.0057281784081845,0.0057281784081718,16.993630216101,-0.0001040509582712,-0.0001040509582712,-0.0001040509582712,3453584.0177143,0.015812039298464
19019200,0.98444359923269,0.016263045575353,0.0046205832626928,0.0058212311563401,0.0058212311563198,-0.0010166050304149,0.001016605498473,-5.2140307282638e-09,5.6686123573424e-09,-2.1207244945577e-09,2.7063572822604e-09,-0.0011910238631436,0.0011910190833978,-0.001191020247279,0.0011910227272376,-0.0011910223044609,0.0011910206861919,-0.0011910186733492,0.0011910243227173,-0.0010948901047271,0.0010948815049516,-0.0010948794508566,0.0010948921661393,1.8349227232131e-09,-2.5765271417174e-09,1.9068191101441e-09,-2.5381288453871e-09,-0.0013789352474787,0.001378934612011,-0.0015872344322084,0.001587236722318,-0.0015872358803702,0.001587235241953,-0.0015872358281927,0.0015872352665876,-0.0015872372696996,0.0015872337871844,-0.0013930371090792,0.0013930393636569,-0.0013930413895808,0.0013930349401171,-0.0012570186287019,0.0012570207818749,-0.0012570228806155,0.0012570163216409,5.6416078234006e-09,-5.04129251568e-09,-0.0013789346295835,0.0013789352299019,-1.863796733848e-09,2.5717107150618e-09,-0.0015872342274192,0.0015872368722026,-0.0015872327450739,0.0015872383351061,-0.0015872378017837,0.0015872333319567,-0.0015872363158678,0.0015872347989141,-0.0012570238592113,0.0012570154861505,-0.0012570133609734,0.0012570258988706,0.6871910170172,131329,3014,0.0042303361262908,0.0057281573948285,0.0057281573948202,16.756976613448,-0.00010594418709241,-0.00010594418709241,-0.00010594418709241,3447719.2816132,0.01581164190582
19219200,0.98477950164342,0.016268529441267,0.0046221115757667,0.0058232089327606,0.0058232089327401,-0.0010174127528085,0.0010174132138871,-5.2629289854556e-09,5.7107311996701e-09,-1.959363534436e-09,2.5364926385087e-09,-0.0011920048892556,0.0011920001887633,-0.0011920012486444,0.0011920038573302,-0.0011920034468278,0.0011920016747452,-0.0011919997794143,0.0011920053475336,-0.0010957805193799,0.0010957716966669,-0.0010957697591042,0.0010957824636821,1.57215667484e-09,-2.2959411637021e-09,1.9355330042287e-09,-2.5516550376966e-09,-0.0013798832081339,0.0013798825880335,-0.0015883074481057,0.0015883095927072,-0.0015883089160038,0.0015883080926157,-0.001588308670225,0.0015883083123176,-0.0015883101197684,0.0015883068246166,-0.0013940663906222,0.0013940688664576,-0.0013940706954436,0.0013940644180565,-0.0012580092781205,0.0012580108818431,-0.0012580129798855,0.0012580069743296,5.7271584045361e-09,-5.1264555171852e-09,-0.0013798825977234,0.0013798831984311,-1.8717010161129e-09,2.5800688111689e-09,-0.0015883071422179,0.0015883098443605,-0.0015883056601378,0.0015883113069982,-0.0015883107789218,0.0015883062414513,-0.0015883092820535,0.0015883077200513,-0.001258014307205,0.0012580057896334,-0.0012580036579884,0.0012580163516691,0.70677988560836,131329,3014,0.0042336972086109,0.0057320818603265,0.0057320818603005,17.02253032936,-0.00010381975736512,-0.00010381975736512,-0.00010381975736512,3443619.7261206,0.015823033636572
19419200,0.98511907134874,0.016273956523954,0.0046236183409654,0.0058251690915047,0.0058251690914841,-0.0010186539776431,0.001018654423114,-5.3789414632953e-09,5.8108977928847e-09,-1.6479432557588e-09,2.2061684859201e-09,-0.0011934695916631,0.0011934650047671,-0.0011934658660022,0.0011934687583881,-0.001193468349193,0.0011934662893695,-0.0011934646225755,0.0011934700213565,-0.0010971187898072,0.0010971095619032,-0.0010971078553451,0.0010971205047017,1.479121112748e-09,-2.1976997349214e-09,1.9412969071684e-09,-2.5532613114987e-09,-0.0013813002386178,0.0013812996227349,-0.0015898804833152,0.0015898825579251,-0.0015898819405711,0.0015898810677269,-0.0015898816284613,0.001589881353313,-0.0015898830939378,0.0015898798503541,-0.0013955750569526,0.0013955776429866,-0.0013955794048126,0.0013955731524621,-0.0012594807459963,0.0012594822018939,-0.0012594842966917,0.0012594784450995,5.7511546059981e-09,-5.1482061661296e-09,-0.0013812996292859,0.0013813002321097,-1.9022601127299e-09,2.6132845595388e-09,-0.0015898801507566,0.0015898828358886,-0.0015898786350582,0.0015898843329854,-0.0015898837894679,0.0015898792307812,-0.0015898822837847,0.001589880716829,-0.0012594857275333,0.0012594771523049,-0.0012594750005631,0.0012594877994094,0.69264758686671,131329,3014,0.0042388597209629,0.0057379486010604,0.0057379486011497,17.539198591871,-9.9686411265032e-05,-9.9686411265032e-05,-9.9686411265032e-05,3441816.7845987,0.015840202753449
19619200,0.98546217746997,0.016279304581605,0.0046250968838174,0.0058271038489048,0.0058271038488831,-0.0010198944187991,0.0010198948629863,-5.4215015122032e-09,5.8525455440451e-09,-1.5796872795203e-09,2.1362135073496e-09,-0.00119492162763,0.0011949170653029,-0.0011949178821755,0.0011949208387611,-0.0011949204389881,0.001194918295877,-0.0011949166762627,0.0011949220639629,-0.0010984467477757,0.0010984373680997,-0.0010984357076656,0.0010984484155141,1.2943511831687e-09,-2.0005401380852e-09,1.9693843278706e-09,-2.5707368274492e-09,-0.0013827172779924,0.0013827166728261,-0.0015914507852124,0.0015914527657534,-0.0015914522658958,0.0015914512525306,-0.0015914518115399,0.0015914516820104,-0.0015914532835091,0.0015914501720018,-0.001397064057126,0.0013970668043557,-0.0013970684275218,0.0013970622908312,-0.0012609370190686,0.0012609380703742,-0.0012609401713832,0.001260934715341,5.8399741821504e-09,-5.2370392786331e-09,-0.0013827166739487,0.0013827172768662,-1.9097324418377e-09,2.6207027789761e-09,-0.0015914503744935,0.0015914531226181,-0.0015914488618047,0.0015914546164295,-0.0015914540811914,0.001591449449666,-0.0015914525625944,0.0015914509494921,-0.0012609418742099,0.001260933151891,-0.0012609309936052,0.0012609439491636,0.6763895449364,131329,3014,0.0042440178951564,0.0057438155525809,0.0057438155525741,18.061886516387,-9.5504907868901e-05,-9.5504907868901e-05,-9.5504907868901e-05,3442869.5318265,0.015857367358669
19819200,0.98580854671541,0.016284547440238,0.0046265391841969,0.0058290041280316,0.0058290041280099,-0.0010211282157505,0.0010211286556389,-5.4969175022377e-09,5.9237438011049e-09,-1.4839021924537e-09,2.0352070228225e-09,-0.0011963470104664,0.0011963424581323,-0.0011963432134183,0.0011963462831757,-0.0011963458847257,0.0011963436253621,-0.0011963420756512,0.0011963474398227,-0.0010997585278847,0.0010997489425154,-0.0010997473519894,0.0010997601258002,1.2339105407573e-09,-1.9363925187877e-09,1.981456662957e-09,-2.5797993212914e-09,-0.0013841242127913,0.0013841236107184,-0.0015930028811414,0.0015930048280682,-0.0015930043661059,0.0015930033105106,-0.0015930038639996,0.0015930037880981,-0.0015930053455872,0.0015930022684032,-0.0013985240676309,0.0013985268876127,-0.0013985284664227,0.001398522345609,-0.0012623645674355,0.0012623655010939,-0.0012623676061133,0.0012623622603109,5.8979977638051e-09,-5.2942042660467e-09,-0.001384123609865,0.001384124213644,-1.9246457121593e-09,2.6366345529184e-09,-0.0015930024406752,0.0015930052148382,-0.0015930009149964,0.0015930067216854,-0.0015930061828782,0.0015930015062796,-0.0015930046566185,0.0015930030137755,-0.0012623694183286,0.0012623605869521,-0.0012623584177695,0.0012623715046654,0.65786895495857,131329,3014,0.0042491470888103,0.0057496409252046,0.0057496409252037,18.584795182714,-9.1321638538288e-05,-9.1321638538288e-05,-9.1321638538288e-05,3446263.117059,0.015874417399503
20019200,0.98614857856883,0.016289880569842,0.0046280150388974,0.0058309327654831,0.0058309327654612,-0.001021582135305,0.0010215825870482,-5.5154243896297e-09,5.954610955311e-09,-1.6872353618826e-09,2.2527874733008e-09,-0.0011969362210158,0.0011969315337274,-0.0011969324170584,0.0011969353658185,-0.0011969349661247,0.0011969328311609,-0.0011969311308403,0.001196936672009,-0.0011002619179401,0.0011002524117618,-0.0011002506672555,0.0011002636671322,1.2231911169136e-09,-1.9243232866857e-09,1.9923984078127e-09,-2.5894304753678e-09,-0.0013847067885866,0.0013847061877799,-0.0015936981367616,0.0015937000945754,-0.0015936996384246,0.0015936985615722,-0.0015936991236462,0.0015936990533333,-0.0015937006014377,0.0015936975363534,-0.0013991368580138,0.0013991396846809,-0.0013991412532082,0.0013991351445951,-0.0012629517572252,0.0012629526360976,-0.0012629547496304,0.0012629494444151,6.0037031703422e-09,-5.4012744428322e-09,-0.0013847061867901,0.0013847067894681,-1.9156405927007e-09,2.6259081432205e-09,-0.0015936976592825,0.0015937005193854,-0.0015936961489352,0.0015937020097982,-0.0015937014821421,0.0015936967303138,-0.0015936999534705,0.0015936982424211,-0.0012629566811087,0.0012629476583773,-0.0012629454925632,0.0012629587544239,0.68048384621775,131329,3014,0.0042510369072475,0.0057520523056552,0.0057520523054322,18.671676389587,-9.06265888833e-05,-9.06265888833e-05,-9.06265888833e-05,3446433.3028802,0.015881238697417
20219200,0.98647986052345,0.016295225360147,0.0046295006258159,0.0058328623671755,0.0058328623671554,-0.0010218128989947,0.0010218133629326,-5.5235695650354e-09,5.974456903325e-09,-1.9552546790176e-09,2.5351647609862e-09,-0.0011973123552291,0.0011973075000933,-0.0011973085538209,0.0011973113294736,-0.0011973109305761,0.0011973089686083,-0.0011973070733182,0.0011973128313398,-0.0011005459715554,0.001100536596115,-0.0011005346552387,0.0011005479179886,1.2907211573e-09,-1.9962552954291e-09,1.9965401538496e-09,-2.597263036639e-09,-0.0013850604904848,0.0013850598859074,-0.0015941664153501,0.0015941684334121,-0.0015941679330327,0.0015941668838305,-0.0015941674617239,0.0015941673314157,-0.0015941689315467,0.0015941658227501,-0.0013995378954186,0.001399540643932,-0.0013995422623531,0.001399536131352,-0.0012633280561893,0.0012633290284468,-0.0012633311476903,0.0012633257341396,6.1203649588752e-09,-5.5186366156748e-09,-0.0013850598872298,0.0013850604891299,-1.8995063667667e-09,2.6090635208416e-09,-0.0015941659178374,0.0015941688776737,-0.0015941644307866,0.0015941703448569,-0.0015941698300939,0.0015941649989289,-0.0015941683004242,0.0015941665122908,-0.0012633331252036,0.0012633239002697,-0.0012633217461095,0.0012633351866464,0.69908660475177,131329,3014,0.0042520017629685,0.005753515339467,0.0057535153394001,18.638370066025,-9.0893039471798e-05,-9.0893039471798e-05,-9.0893039471798e-05,3442411.1775264,0.015885194244399
20419200,0.98680257090123,0.016300438680977,0.0046309498452191,0.005834744417889,0.005834744417869,-0.0010220234819947,0.0010220239450931,-5.6629739193869e-09,6.1127889634932e-09,-1.9715469028307e-09,2.5507638593268e-09,-0.001197687587631,0.0011976826111306,-0.0011976836775525,0.0011976865491097,-0.0011976861346941,0.0011976841075769,-0.001197682201647,0.0011976880460614,-0.001100815198657,0.0011008056075289,-0.0011008036582698,0.0011008171548627,1.6360242033091e-09,-2.3659189963391e-09,1.9618933787393e-09,-2.583631563585e-09,-0.0013853974171855,0.0013853967913981,-0.0015946268149344,0.0015946290177591,-0.0015946283001755,0.0015946275005027,-0.0015946280817382,0.0015946276926725,-0.0015946295523409,0.0015946261834159,-0.0013999326998191,0.0013999351868813,-0.0013999370674223,0.0013999306752798,-0.0012636995617474,0.0012637012823851,-0.001263703405197,0.0012636972328297,6.1130864242883e-09,-5.5105283410829e-09,-0.001385396802982,0.0013853974055932,-1.9086154865776e-09,2.619175186643e-09,-0.001594626423253,0.0015946293555888,-0.0015946249132751,0.0015946308453417,-0.0015946303133047,0.0015946254984313,-0.0015946287933469,0.0015946270008357,-0.001263705014701,0.0012636957656764,-0.0012636936074978,0.0012637070872993,0.69998401688891,131329,3014,0.0042528841792847,0.005754908472321,0.0057549084723043,18.602122576163,-9.1183019390692e-05,-9.1183019390692e-05,-9.1183019390692e-05,3436738.0377535,0.0158889247647
20619200,0.98711694272806,0.016304991137845,0.0046321923511037,0.0058363993933808,0.0058363993933606,-0.001022199759598,0.0010222002332,-5.704721971542e-09,6.1648989208638e-09,-2.1931671054857e-09,2.7849744519422e-09,-0.0011980343512172,0.0011980292059434,-0.0011980304144502,0.0011980331706267,-0.0011980327507578,0.0011980308509363,-0.0011980287823521,0.0011980348246792,-0.0011010335730168,0.0011010240400347,-0.0011010219290203,0.0011010356909316,1.7713536149479e-09,-2.5099238385092e-09,1.9545934463102e-09,-2.5835783757917e-09,-0.001385696486346,0.0013856958531922,-0.0015950550955074,0.0015950573839038,-0.0015950565827176,0.0015950558645635,-0.0015950564571024,0.0015950559633863,-0.0015950579210055,0.0015950544609621,-0.001400269866857,0.0014002722352061,-0.0014002742149419,0.0014002677432657,-0.001264020362973,0.0012640223360939,-0.0012640244637575,0.0012640180276972,6.1968119722362e-09,-5.5949552575457e-09,-0.0013856958688339,0.0013856964706952,-1.896631960519e-09,2.6063487278648e-09,-0.0015950547118011,0.001595057713182,-0.0015950532146637,0.0015950591902677,-0.0015950586635525,0.0015950537948441,-0.0015950571474665,0.0015950552932009,-0.0012640260236529,0.0012640166118392,-0.0012640144617031,0.0012640280860185,0.6309912560785,131329,3014,0.0042536241168562,0.0057561448201264,0.0057561448201083,18.565766833785,-9.1473865329718e-05,-9.1473865329718e-05,-9.1473865329718e-05,3432186.7060559,0.015892192092847
20819200,0.98740854384224,0.016309536392141,0.0046334500113556,0.0058380431904027,0.0058380431903825,-0.0010209721632099,0.0010209726469646,-5.7950041955997e-09,6.2650431123511e-09,-2.4305486964057e-09,3.0347930445674e-09,-0.0011968280043074,0.0011968226415249,-0.0011968240028735,0.0011968266708215,-0.001196826240414,0.0011968244507042,-0.0011968222098321,0.0011968284865954,-0.0010997837030144,0.0010997741581014,-0.0010997718757981,0.0010997859934754,2.1605327102391e-09,-2.9260168262864e-09,1.9127941827237e-09,-2.5647799903318e-09,-0.0013844910379821,0.0013844903816032,-0.0015938913696993,0.0015938938818921,-0.0015938928356093,0.0015938923838282,-0.0015938929968371,0.0015938921933177,-0.0015938944420288,0.0015938907098661,-0.0013990376119968,0.0013990396301505,-0.0013990419030656,0.001399035196581,-0.0012627869080754,0.0012627896729148,-0.0012627918022025,0.0012627845669739,6.2321633293353e-09,-5.6312591765447e-09,-0.0013844904093825,0.0013844910102282,-1.878103749102e-09,2.5867591453426e-09,-0.0015938910803226,0.0015938941159818,-0.0015938895946209,0.0015938955813644,-0.001593895054612,0.0015938901750428,-0.001593893552073,0.0015938916588967,-0.0012627930054913,0.0012627835081408,-0.0012627813726824,0.0012627950561789,0.67642718883495,131329,3014,0.004248529744729,0.0057511512054074,0.0057511512054603,17.742024209018,-9.8063806327858e-05,-9.8063806327858e-05,-9.8063806327858e-05,3425445.112206,0.015876869642997
21019200,0.98767777416934,0.016313599935949,0.0046345688275308,0.0058395155542197,0.005839515554199,-0.0010195615039527,0.0010195619942654,-5.9022154221644e-09,6.3788444009175e-09,-2.5800639937572e-09,3.192532853254e-09,-0.001195473052528,0.0011954675189165,-0.0011954689764209,0.00119547162288,-0.0011954711852474,0.0011954694320684,-0.0011954670823496,0.0011954735404637,-0.0010983550296133,0.0010983453817253,-0.0010983429902864,0.0010983574275791,2.5329832196749e-09,-3.3233144789099e-09,1.8692124910451e-09,-2.5423673900874e-09,-0.001383097485332,0.0013830968075547,-0.0015925525456813,0.0015925552698105,-0.0015925539885032,0.0015925537950325,-0.001592554427023,0.0015925533258318,-0.0015925558514024,0.0015925518634348,-0.0013976446923781,0.0013976463734785,-0.0013976489247256,0.0013976419986074,-0.0012613950531639,0.0012613985778128,-0.001261400707297,0.0012613927092193,6.2520946083307e-09,-5.6524516410706e-09,-0.0013830968465958,0.0013830974462654,-1.8612680920374e-09,2.5683735437748e-09,-0.0015925523500653,0.0015925554091436,-0.0015925508751077,0.0015925568642222,-0.0015925563377296,0.0015925514560707,-0.0015925548474972,0.0015925529267096,-0.0012614015592305,0.0012613920029245,-0.0012613898817772,0.0012614035968592,0.65601666309253,131329,3014,0.0042426782329742,0.0057453777721887,0.0057453777721365,16.831319322875,-0.000105349445417,-0.000105349445417,-0.000105349445417,3412404.370859,0.015859195889014
21219200,0.98792652208094,0.016317377653277,0.0046356112160313,0.0058408832186332,0.0058408832186125,-0.0010181396453803,0.0010181401535159,-5.8879104463775e-09,6.3820897769499e-09,-2.9595166869438e-09,3.5932794372209e-09,-0.0011940695630123,0.0011940637892442,-0.0011940654876929,0.0011940678923737,-0.0011940674358384,0.0011940659640325,-0.001194063338528,0.001194070066716,-0.0010969058384795,0.001096896485629,-0.0010968938175741,0.0010969085136869,2.545590951923e-09,-3.3356359410161e-09,1.8570552518999e-09,-2.5296055063442e-09,-0.0013816734795015,0.0013816728022268,-0.0015911595495202,0.0015911622722623,-0.0015911609816278,0.001591160808173,-0.0015911614371838,0.0015911603217561,-0.0015911628557034,0.0015911588652838,-0.0013962058778502,0.0013962075338969,-0.0013962100920054,0.0013962031769075,-0.0012599597817261,0.0012599633445623,-0.001259965464919,0.0012599574467115,6.3876396044065e-09,-5.789912626026e-09,-0.0013816728419969,0.001381673439723,-1.8280601828398e-09,2.5329664056738e-09,-0.0015911592984194,0.0015911624668711,-0.0015911578438292,0.0015911639013743,-0.0015911633745091,0.0015911584253521,-0.0015911619099221,0.0015911598710601,-0.0012599664571626,0.0012599566015557,-0.0012599545030381,0.0012599684683953,0.65967103327911,131329,3014,0.0042367780964021,0.0057394787981582,0.0057394787981414,15.918341537194,-0.00011265326770245,-0.00011265326770245,-0.00011265326770245,3401744.1358758,0.015841216716885
21419200,0.98815984696766,0.016320945000989,0.0046365975347415,0.0058421737331342,0.0058421737331134,-0.0010171143877411,0.0010171148942364,-5.9708218494322e-09,6.4628923515456e-09,-2.9728663725318e-09,3.6047140886354e-09,-0.0011930718988587,0.0011930660605663,-0.0011930677674273,0.0011930702187891,-0.0011930697635637,0.0011930682439044,-0.0011930656119413,0.0011930724005677,-0.0010958665692191,0.0010958570612154,-0.0010958543872758,0.0010958692509911,2.6386245473024e-09,-3.435021813629e-09,1.8360657802127e-09,-2.513822347238e-09,-0.0013806573117703,0.001380656629302,-0.001590177595395,0.0015901803652095,-0.0015901790140927,0.0015901789130418,-0.0015901795464181,0.0015901783489385,-0.0015901809536928,0.0015901769040402,-0.0013951842039634,0.0013951857524882,-0.0013951883789956,0.0013951814339454,-0.0012589374170449,0.0012589411773393,-0.0012589432874626,0.0012589350879344,6.4365828722233e-09,-5.8388557580822e-09,-0.0013806566718697,0.001380657269261,-1.815269684316e-09,2.5201831489288e-09,-0.0015901773472195,0.0015901805553388,-0.0015901759013807,0.0015901819826298,-0.0015901814547343,0.0015901764823534,-0.0015901799991689,0.0015901779184247,-0.0012589442393266,0.0012589342794914,-0.0012589321928241,0.0012589462438823,0.6637345537227,131329,3014,0.0042325243297357,0.0057352690781984,0.0057352690783206,15.229971935623,-0.00011816022451501,-0.00011816022451501,-0.00011816022451501,3393316.1641696,0.015828342650244
21619200,0.98837918001932,0.016324328160836,0.004637534867866,0.0058433966464958,0.005843396646474,-0.0010161252406233,0.0010161257459576,-6.0382708056188e-09,6.5295526730597e-09,-2.9405662295731e-09,3.5713070188456e-09,-0.0011921130621033,0.0011921071995528,-0.0011921088870807,0.0011921114024107,-0.0011921109480975,0.0011921093609351,-0.001192106751921,0.0011921135625334,-0.0010948634707978,0.0010948538106499,-0.0010948511587803,0.0010948661298676,2.6107146629846e-09,-3.4041009332186e-09,1.8257498666803e-09,-2.501036347866e-09,-0.0013796742660771,0.0013796735860823,-0.0015892290041073,0.0015892317488576,-0.0015892304160313,0.0015892303051736,-0.0015892309360988,0.0015892297535836,-0.001589232335185,0.0015892283166489,-0.0013941974607957,0.0013941990113465,-0.0013942016172133,0.0013941947123621,-0.0012579512278969,0.0012579549414446,-0.0012579570445718,0.0012579489094846,6.4999052205925e-09,-5.9033941745955e-09,-0.0013796736278589,0.0013796742242923,-1.8047690137514e-09,2.5082521183548e-09,-0.0015892287193783,0.0015892319772229,-0.001589227280254,0.0015892333959274,-0.0015892328699303,0.0015892278608343,-0.0015892314217801,0.0015892292900941,-0.001257958097468,0.0012579480030913,-0.0012579459224494,0.0012579600921914,0.66920856767502,131329,3014,0.0042284205692363,0.0057311965338365,0.0057311965338202,14.56565848719,-0.00012347473210248,-0.00012347473210248,-0.00012347473210248,3384945.5198151,0.015815900030915
21819200,0.98858548788138,0.016327464334633,0.0046384021707323,0.0058445310819612,0.0058445310819393,-0.0010151254047598,0.0010151259048285,-6.1145337786608e-09,6.6006565726491e-09,-2.8441048369613e-09,3.4686868244103e-09,-0.0011911464335504,0.0011911405831633,-0.0011911422095846,0.0011911448348262,-0.0011911443857469,0.0011911426778964,-0.0011911401402486,0.0011911469288115,-0.0010938481415848,0.0010938382649515,-0.0010938356846268,0.0010938507290847,2.5522431170258e-09,-3.3411326552827e-09,1.8178471776259e-09,-2.4892529322768e-09,-0.0013786764035478,0.0013786757275087,-0.0015882657271541,0.0015882684289021,-0.0015882671327276,0.0015882669914922,-0.0015882676189524,0.001588266474119,-0.0015882690112712,0.0015882650439959,-0.0013931967234205,0.0013931982982776,-0.0013932008597918,0.0013931940194298,-0.0012569530297351,0.0012569566340132,-0.0012569587265759,0.0012569507224624,6.5570305365122e-09,-5.9608350430517e-09,-0.0013786757674678,0.0013786763635846,-1.7980378080321e-09,2.5011443867558e-09,-0.0015882653995805,0.0015882687002015,-0.0015882639654026,0.0015882701141733,-0.0015882695886655,0.0015882645453868,-0.0015882681448274,0.0015882659702241,-0.0012569599028722,0.0012569496919986,-0.0012569476168477,0.0012569618930406,0.65988856280986,131329,3014,0.004224272641462,0.0057270625500125,0.0057270625500047,13.901975838468,-0.00012878419329226,-0.00012878419329226,-0.00012878419329226,3376199.318821,0.01580328811499
22019200,0.98879147701724,0.016330546023918,0.0046392528581418,0.0058456465828992,0.0058456465828771,-0.0010157712824584,0.0010157717666103,-6.1919256188638e-09,6.6623624055782e-09,-2.5157168873112e-09,3.121220007283e-09,-0.0011918629672009,0.0011918572788182,-0.0011918586957145,0.0011918615777866,-0.0011918611426355,0.00119185914912,-0.0011918568518005,0.0011918634452727,-0.0010945291326254,0.0010945188822635,-0.0010945165425602,0.0010945314794374,2.2511991281944e-09,-3.0192345975695e-09,1.8392471727628e-09,-2.4928467789304e-09,-0.0013793953169543,0.0013793946589479,-0.0015890428047589,0.001589045324018,-0.0015890442174181,0.001589043879157,-0.0015890444886974,0.0015890435782913,-0.0015890458902926,0.0015890421387623,-0.0013939332896946,0.001393935117786,-0.0013939374535109,0.0013939308112767,-0.0012576724270685,0.0012576754326102,-0.0012576775158407,0.0012576701322429,6.6192926761524e-09,-6.0222505696731e-09,-0.0013793946894713,0.001379395286426,-1.8118277769639e-09,2.5159229553395e-09,-0.0015890423703585,0.0015890457024643,-0.0015890409259769,0.0015890471274214,-0.0015890465995827,0.0015890415073981,-0.0015890451472966,0.0015890429408065,-0.0012576790581871,0.0012576687332832,-0.001257666648789,0.0012576810593966,0.64982380182181,131329,3014,0.0042269560764063,0.0057300397588109,0.0057300397588018,14.153532103386,-0.00012677174317291,-0.00012677174317291,-0.00012677174317291,3379314.3313221,0.015812063402048
22219200,0.9889983374354,0.016333616244652,0.0046400992891508,0.0058467584777618,0.0058467584777396,-0.0010165904276755,0.0010165908978806,-6.2599852860407e-09,6.7167300290082e-09,-2.2161373490546e-09,2.8047450243471e-09,-0.0011927554320367,0.0011927498936699,-0.0011927511190219,0.0011927542345574,-0.0011927538107597,0.0011927515586049,-0.0011927494801726,0.0011927558949382,-0.0010953801574925,0.0010953695711025,-0.0010953674505307,0.001095382285005,1.919569604888e-09,-2.6652822484679e-09,1.8662556342201e-09,-2.5009068320793e-09,-0.0013802956680816,0.0013802950292419,-0.0015900079895066,0.0015900103102827,-0.0015900094132391,0.0015900088548673,-0.0015900094458452,0.0015900087948144,-0.0015900108602052,0.0015900073429678,-0.0013948413502633,0.0013948434629847,-0.0013948455505609,0.0013948391195035,-0.0012585621146849,0.0012585644568077,-0.0012585665327441,0.0012585598301358,6.690099539169e-09,-6.0919130916485e-09,-0.001380295049554,0.0013802956477239,-1.8278783967462e-09,2.5333114178692e-09,-0.0015900074388147,0.0015900108068269,-0.0015900059819227,0.0015900122433027,-0.001590011714054,0.0015900065661369,-0.0015900102513167,0.001590008009703,-0.0012585684789378,0.0012585580256297,-0.0012585559286479,0.0012585704917688,0.64497436630888,131329,3014,0.0042303581906332,0.0057337686487336,0.0057337686486383,14.500024840563,-0.00012399980127549,-0.00012399980127549,-0.00012399980127549,3385139.4508844,0.015823095874093
22419200,0.98920600620521,0.016336831387097,0.0046409918178454,0.0058479197846365,0.0058479197846147,-0.0010174199016578,0.0010174203586912,-6.3333229507724e-09,6.7770725353213e-09,-1.9418007139387e-09,2.5145759457839e-09,-0.0011936514624581,0.0011936460561505,-0.0011936471064315,0.0011936504398879,-0.0011936500303809,0.0011936475313289,-0.0011936456534358,0.0011936519136933,-0.001096245209324,0.0010962342862287,-0.0010962323664244,0.0010962471363432,1.6580342634594e-09,-2.3853728645883e-09,1.8919835658552e-09,-2.5109911335357e-09,-0.001381206966029,0.0013812063430273,-0.0015909811217138,0.0015909832914887,-0.0015909825587158,0.0015909818223513,-0.0015909823998322,0.001590981954648,-0.0015909838242054,0.0015909804923037,-0.0013957626267542,0.0013957649660249,-0.0013957668577658,0.0013957605923558,-0.0012594608889664,0.0012594626990637,-0.0012594647718851,0.0012594586104703,6.7550635207404e-09,-6.1560914550435e-09,-0.0013812063550688,0.0013812069539864,-1.8444394874339e-09,2.5508140314411e-09,-0.0015909804784959,0.0015909838804469,-0.0015909790123454,0.0015909853272157,-0.0015909847979605,0.0015909795946388,-0.0015909833225283,0.0015909810515178,-0.0012594670425113,0.0012594564803483,-0.0012594543714372,0.0012594690684965,0.67139355307854,131329,3014,0.0042338029217095,0.0057375429301549,0.0057375429301536,14.849015986477,-0.00012120787210818,-0.00012120787210818,-0.00012120787210818,3391086.4196171,0.015834263769575
22619200,0.98941423980489,0.016340092100634,0.0046418982360529,0.0058490969323013,0.0058490969322795,-0.0010182234201129,0.0010182238688003,-6.4014437431995e-09,6.836996329867e-09,-1.7528775041484e-09,2.3154664609126e-09,-0.001194556913976,0.0011945515840487,-0.0011945525132369,0.0011945560126097,-0.001194555608615,0.0011945529315958,-0.0011945511910577,0.0011945573546605,-0.0010970954549852,0.0010970842753163,-0.0010970824929698,0.0010970972445962,1.4554532534565e-09,-2.1693302650524e-09,1.9139796579637e-09,-2.5215792551585e-09,-0.0013821039025493,0.0013821032910543,-0.0015919594450385,0.001591961495511,-0.0015919608908245,0.0015919600176343,-0.0015919605823504,0.0015919603006074,-0.0015919620196431,0.0015919588253953,-0.0013966903286704,0.0013966928570513,-0.001396694597647,0.0013966884453406,-0.0012603644326186,0.0012603658382579,-0.0012603679107269,0.001260362156545,6.8229311208436e-09,-6.2230188111646e-09,-0.0013821032968454,0.0013821038967488,-1.8607396698862e-09,2.5682117517174e-09,-0.0015919587261998,0.0015919621607198,-0.0015919572467052,0.0015919636207716,-0.0015919630884674,0.0015919578320499,-0.0015919616038748,0.0015919592981442,-0.0012603704473865,0.001260359759184,-0.0012603576382483,0.0012603724856548,0.67880269052761,131329,3014,0.004237142280283,0.0057412570864056,0.0057412570863867,15.187186743975,-0.0001185025060482,-0.0001185025060482,-0.0001185025060482,3393726.1103555,0.015845204026081
22819200,0.98962001135781,0.016343304509214,0.0046427905274295,0.0058502569909033,0.0058502569908814,-0.0010186185973758,0.0010186190397402,-6.4853179392828e-09,6.9143107516998e-09,-1.6329396367562e-09,2.1878114541266e-09,-0.001195052607588,0.0011950472915211,-0.0011950481444635,0.0011950517819138,-0.0011950513756584,0.0011950485651678,-0.0011950469127251,0.0011950530333691,-0.0010975260458914,0.0010975146409027,-0.0010975129495476,0.0010975277473064,1.4423164943546e-09,-2.1564183977107e-09,1.9193044750074e-09,-2.5271989883468e-09,-0.0013825786210352,0.00138257800929,-0.0015925142124928,0.0015925162488964,-0.0015925156532315,0.0015925147751228,-0.0015925153317382,0.0015925150705202,-0.0015925167812213,0.0015925135831216,-0.0013971933925522,0.0013971959611466,-0.0013971976937373,0.0013971915186803,-0.0012608496941388,0.001260851094597,-0.0012608531684489,0.0012608474147717,6.8743608196428e-09,-6.2730604097811e-09,-0.0013825780146554,0.0013825786157589,-1.8755242639623e-09,2.5846928559663e-09,-0.0015925134781776,0.0015925169288444,-0.0015925119803436,0.0015925184079065,-0.0015925178655991,0.0015925125743562,-0.0015925163788548,0.0015925140419925,-0.0012608557589536,0.001260844961658,-0.001260842830775,0.0012608578124929,0.67691804204807,131329,3014,0.0042387871202796,0.0057432222009075,0.0057432222010929,15.303584153116,-0.00011757132677507,-0.00011757132677507,-0.00011757132677507,3393111.6812815,0.015850869575847
23019200,0.9898232502586,0.016346258753096,0.0046436014073297,0.0058513286728946,0.005851328672872,-0.0010189894165167,0.0010189898616919,-6.5421450785174e-09,6.9740973954941e-09,-1.660628064629e-09,2.2186801277274e-09,-0.0011955208327378,0.0011955154669855,-0.0011955163366826,0.0011955199908391,-0.0011955195872589,0.0011955167543901,-0.0011955150797904,0.0011955212672597,-0.0010979271952932,0.0010979156846141,-0.0010979139687452,0.0010979289187359,1.4097300578799e-09,-2.1213968907444e-09,1.9324757842414e-09,-2.538326273775e-09,-0.0013830268754303,0.0013830262657016,-0.0015930416145146,0.0015930436441148,-0.0015930430692425,0.0015930421569151,-0.0015930427173966,0.0015930424833,-0.0015930441690821,0.0015930409937507,-0.0013976622553477,0.0013976648587074,-0.0013976665662447,0.0013976604052441,-0.0012613019283632,0.0012613032389306,-0.0012613053211025,0.0012612996427041,6.9473058956325e-09,-6.3461513609615e-09,-0.0013830262700198,0.0013830268711212,-1.8811989772802e-09,2.5901148641218e-09,-0.0015930408515192,0.0015930443531186,-0.0015930393556204,0.0015930458302185,-0.0015930452938584,0.001593039944473,-0.0015930437975557,0.0015930414218248,-0.0012613080125386,0.0012612970895106,-0.0012612949540089,0.0012613100671892,0.63260004279352,131329,3014,0.0042403306484174,0.0057450777353921,0.0057450777354118,15.414798143307,-0.00011668161485354,-0.00011668161485354,-0.00011668161485354,3392935.4413418,0.015856209455784
23219200,0.99002395450208,0.016349305165925,0.0046444442641658,0.0058524304508911,0.0058524304508684,-0.0010193721685212,0.001019372615681,-6.603643312818e-09,7.0376668912544e-09,-1.6987012566956e-09,2.2591496629403e-09,-0.0011959376677339,0.0011959322386013,-0.0011959331323995,0.0011959368016754,-0.001195936398791,0.0011959335495646,-0.0011959318471297,0.0011959381066358,-0.0010983284804006,0.001098316868252,-0.0010983151242347,0.0010983302318482,1.4304479493819e-09,-2.1434147133467e-09,1.9406284637318e-09,-2.547623386777e-09,-0.0013834699865111,0.0013834693756516,-0.0015935291407069,0.0015935311919793,-0.0015935306036475,0.0015935296965917,-0.0015935302606525,0.0015935300142741,-0.0015935317155688,0.0015935285213275,-0.0013980991041696,0.001398101702161,-0.0013981034250461,0.0013980972387345,-0.001261719520294,0.0012617208590896,-0.001261722948346,0.0012617172277625,7.0162876722866e-09,-6.414716861509e-09,-0.0013834693803213,0.0013834699818413,-1.8877777702732e-09,2.5971884120886e-09,-0.0015935283665849,0.0015935319121833,-0.001593526868417,0.0015935333913355,-0.0015935328571312,0.0015935274552535,-0.0015935313538924,0.0015935289397753,-0.0012617256802858,0.0012617146347877,-0.0012617124938759,0.0012617277393925,0.65900011269425,131329,3014,0.0042419198360709,0.0057469129830404,0.0057469129830411,15.525822932136,-0.00011579341654291,-0.00011579341654291,-0.00011579341654291,3397337.56736,0.015861552083104
23419200,0.99022297928892,0.016352294593796,0.0046452697967436,0.0058535123985376,0.0058535123985148,-0.0010198706619296,0.0010198711125237,-6.6687416072568e-09,7.1061482457254e-09,-1.7661786352198e-09,2.3306905401803e-09,-0.0011965075264407,0.001196502009727,-0.0011965029464096,0.0011965066175383,-0.0011965062112334,0.0011965033671978,-0.0011965016152083,0.0011965079686787,-0.0010988578446289,0.0010988461519185,-0.0010988443582665,0.0010988596458417,1.5012283460385e-09,-2.2191768797615e-09,1.9449093189744e-09,-2.5562109793937e-09,-0.0013840437983031,0.0013840431830896,-0.0015941679291224,0.0015941700290809,-0.0015941693961553,0.0015941685296113,-0.0015941690976468,0.0015941688025103,-0.0015941705569972,0.0015941673051315,-0.0013986876657997,0.0013986902235012,-0.0013986919996414,0.001398685746953,-0.0012622848874228,0.0012622863620334,-0.0012622884598444,0.0012622825857397,7.0809631036142e-09,-6.4791183429703e-09,-0.0013840431897834,0.0013840437916129,-1.8942926488069e-09,2.6040613178025e-09,-0.0015941671599451,0.0015941707442033,-0.0015941656570804,0.0015941722279749,-0.0015941716933486,0.0015941662444851,-0.0015941701857765,0.0015941677332962,-0.0012622911761711,0.0012622800086308,-0.0012622778628722,0.0012622932400228,0.65256369689616,131329,3014,0.0042439916736368,0.0057492890406711,0.0057492890406794,15.704521840651,-0.00011436382527479,-0.00011436382527479,-0.00011436382527479,3399312.5747872,0.015868485397686
23619200,0.99042453462957,0.016355391104934,0.0046461281928418,0.0058546314560575,0.0058546314560347,-0.0010209777308997,0.0010209781849548,-6.7233759366861e-09,7.1642528884038e-09,-1.8318244958426e-09,2.4004472265732e-09,-0.0011976973735217,0.001197691778356,-0.0011976927565117,0.0011976964232486,-0.0011976960142849,0.0011976931801567,-0.0011976913800059,0.0011976978199365,-0.0011000163943306,0.0011000046384861,-0.0011000027959845,0.001100018243796,1.5060667210914e-09,-2.2242662928202e-09,1.9577853130559e-09,-2.5693293134466e-09,-0.0013852539694285,0.0013852533539885,-0.0015954509982824,0.0015954531108375,-0.0015954524745533,0.0015954516021862,-0.0015954521710366,0.001595451880189,-0.0015954536383444,0.0015954503747741,-0.0013999213083655,0.0013999238868891,-0.0013999256661794,0.0013999193856078,-0.0012634871826807,0.0012634886562221,-0.0012634907632527,0.0012634848720396,7.1562460698301e-09,-6.5540074056903e-09,-0.0013852533605771,0.0013852539628274,-1.9026263193955e-09,2.6129035908536e-09,-0.0015954502127949,0.0015954538423053,-0.0015954487047116,0.0015954553311885,-0.0015954547968114,0.0015954492919761,-0.0015954532829831,0.0015954507873029,-0.0012634935411973,0.0012634822338135,-0.0012634800813788,0.0012634956102755,0.66669035311868,131329,3014,0.0042485895729296,0.0057543009751308,0.0057543009751058,16.219270263565,-0.00011024583789148,-0.00011024583789148,-0.00011024583789148,3405828.3794835,0.015883340503886
23819200,0.99062858728733,0.016358694287306,0.0046470510136975,0.0058558216368159,0.0058558216367931,-0.0010221030099728,0.0010221034691362,-6.7718390438479e-09,7.2176814001406e-09,-1.9356032905305e-09,2.510203594415e-09,-0.0011989280894115,0.0011989223952945,-0.0011989234391584,0.0011989270733459,-0.001198926660478,0.001198923867302,-0.0011989219912456,0.0011989285419713,-0.0011012028784613,0.0011011910962467,-0.0011011891776518,0.0011012048044864,1.5254366445821e-09,-2.2451881116767e-09,1.9685047271315e-09,-2.5813325224406e-09,-0.0013864922207821,0.0013864916040476,-0.001596775703978,0.0015967778375216,-0.0015967771886183,0.001596776320448,-0.0015967768914222,0.0015967765921826,-0.0015967783653472,0.0015967750799916,-0.0014011976360009,0.0014012002190723,-0.0014012020128374,0.001401195698596,-0.0012647303112209,0.001264731813195,-0.0012647339288673,0.0012647279915825,7.2369134221449e-09,-6.6343050672401e-09,-0.0013864916111187,0.0013864922137134,-1.9076907731211e-09,2.6183817603522e-09,-0.0015967749034194,0.0015967785840521,-0.0015967733925251,0.0015967800754856,-0.0015967795417055,0.0015967739792642,-0.0015967780237264,0.0015967754791847,-0.0012647367592984,0.0012647253013912,-0.0012647231442648,0.0012647388319203,0.70079155789331,131329,3014,0.0042532645073765,0.0057594287944892,0.0057594287944949,16.741888852622,-0.00010606488917902,-0.00010606488917902,-0.00010606488917902,3410764.7463762,0.015898510376642
24019200,0.99083499584679,0.016362074229724,0.0046479962217056,0.0058570390040206,0.0058570390039977,-0.0010232179061666,0.0010232183680926,-6.8406877155683e-09,7.2892858939666e-09,-1.9926839872838e-09,2.5706654685227e-09,-0.0012001966136921,0.0012001908360264,-0.001200191916655,0.001200195560852,-0.0012001951454309,0.0012001923475619,-0.0012001904295009,0.0012001970689388,-0.001102392948307,0.0011023810705826,-0.0011023791098705,0.0011023949163529,1.6172454444811e-09,-2.3435007618332e-09,1.9708535665278e-09,-2.5892699345321e-09,-0.0013877369398649,0.0013877363174762,-0.0015981334289024,0.001598135623601,-0.0015981349169434,0.001598134103145,-0.0015981346794299,0.0015981343147363,-0.0015981361567837,0.0015981327990432,-0.0014025051762433,0.001402507700158,-0.0014025095633001,0.0014025031695363,-0.0012660056938242,0.0012660073746131,-0.0012660094991343,0.0012660033642668,7.2982948546314e-09,-6.6953613020728e-09,-0.0013877363272198,0.0013877369301242,-1.914978313727e-09,2.6260646091464e-09,-0.0015981326408204,0.0015981363575345,-0.0015981311247968,0.0015981378538804,-0.0015981373198024,0.0015981317119262,-0.0015981357968748,0.0015981332167932,-0.0012660122883031,0.0012660007158743,-0.0012659985537485,0.0012660143663426,0.70866201510747,131329,3014,0.0042578994037642,0.005764582516778,0.0057645825167846,17.264794843817,-0.00010188164124946,-0.00010188164124946,-0.00010188164124946,3412185.9404196,0.015913694188689
24219200,0.99104236954553,0.01636532579695,0.0046488990008192,0.0058582133980769,0.0058582133980539,-0.0010241443714882,0.0010241448378502,-6.8953108044587e-09,7.3485801742729e-09,-2.0730852807853e-09,2.6565733399786e-09,-0.0012012846671254,0.0012012787966462,-0.001201279928596,0.0012012835629973,-0.0012012831399497,0.0012012803674939,-0.0012012783898237,0.0012012851232143,-0.0011033900740617,0.0011033781571864,-0.0011033761358216,0.0011033921012752,1.7511793366334e-09,-2.4773732159194e-09,1.972536275499e-09,-2.5895153143635e-09,-0.0013887940640977,0.0013887934430319,-0.0015993108195487,0.0015993131017325,-0.0015993123046631,0.0015993115846598,-0.0015993121555241,0.0015993117077281,-0.0015993136368272,0.0015993101878133,-0.0014036234125214,0.0014036258631317,-0.0014036278141556,0.0014036213175548,-0.0012670920631001,0.0012670940182872,-0.0012670961432167,0.0012670897323812,7.3736635826979e-09,-6.7689425682745e-09,-0.0013887934511364,0.0013887940559571,-1.9160217707913e-09,2.6287449616165e-09,-0.0015993100517571,0.0015993138153457,-0.0015993085306331,0.0015993153166275,-0.0015993147771388,0.0015993091237633,-0.0015993132565102,0.0015993106265319,-0.0012670988731444,0.0012670871450905,-0.0012670849794483,0.0012671009527,0.6801006424795,131329,3014,0.004261752854581,0.005768958970324,0.0057689589702502,17.692603782699,-9.8459169738405e-05,-9.8459169738405e-05,-9.8459169738405e-05,3412467.095428,0.015926505260021
24419200,0.99124753151071,0.016368538967626,0.0046497910108594,0.0058593739783947,0.005859373978372,-0.0010246471380891,0.0010246476113178,-6.991167327343e-09,7.4509608044973e-09,-2.2360444714351e-09,2.8277406756987e-09,-0.0012018961958089,0.0012018901623265,-0.001201891398927,0.0012018949870005,-0.0012018945653073,0.0012018918370724,-0.0012018897412471,0.001201896666606,-0.00110393999231,0.0011039279747349,-0.0011039258365306,0.0011039421379989,1.8874578360386e-09,-2.6267122268033e-09,1.9584993080977e-09,-2.5871552516145e-09,-0.0013893974498972,0.001389396817037,-0.0016000049455241,0.001600007312974,-0.0016000064329527,0.001600005793255,-0.0016000063831944,0.0016000058157273,-0.0016000078516096,0.0016000043089876,-0.0014042584590892,0.0014042607621735,-0.001404262820371,0.0014042562579958,-0.0012677013017437,0.0012677035070743,-0.0012677056370024,0.0012676989644129,7.4059817114012e-09,-6.8012840949101e-09,-0.0013893968311075,0.0013893974358264,-1.9126237736566e-09,2.6253784426966e-09,-0.0016000042044088,0.0016000079993815,-0.0016000026934301,0.0016000094904592,-0.0016000089588671,0.0016000032785178,-0.0016000074326606,0.0016000047863422,-0.0012677082561878,0.0012676964875753,-0.0012676943244838,0.001267710334896,0.67934590536939,131329,3014,0.0042638448737507,0.0057714566812056,0.0057714566812059,17.884938506142,-9.6920491950863e-05,-9.6920491950863e-05,-9.6920491950863e-05,3413218.9099903,0.015933707644073
24619200,0.99145037325457,0.01637186383661,0.0046507206228416,0.0058605716068955,0.0058605716068727,-0.0010251449336017,0.0010251454101513,-7.0169596839336e-09,7.4799714715942e-09,-2.3190440321496e-09,2.914877274206e-09,-0.0012024919438208,0.0012024858248376,-0.0012024871149891,0.001202490681454,-0.0012024902429519,0.0012024875702474,-0.0012024854144677,0.0012024924042137,-0.0011044868718203,0.0011044749013031,-0.0011044727033134,0.0011044890772478,2.0629936728474e-09,-2.8169776649314e-09,1.9454876739761e-09,-2.5871249402792e-09,-0.0013899935545672,0.0013899929086131,-0.0016006842230755,0.0016006866813124,-0.0016006856923937,0.0016006851796819,-0.0016006857683326,0.0016006850755867,-0.0016006872462126,0.001600683559474,-0.0014048897570616,0.0014048919526344,-0.0014048941459767,0.0014048874206305,-0.0012683049138556,0.0012683075103296,-0.001268309648566,0.001268302566076,7.509594424104e-09,-6.9055576317781e-09,-0.0013899929295615,0.0013899935336174,-1.9040400377956e-09,2.6160658150733e-09,-0.0016006834965158,0.0016006873527261,-0.0016006819777458,0.0016006888515936,-0.0016006883069826,0.0016006825760602,-0.0016006868003156,0.0016006840639691,-0.001268312189045,0.0012683001686335,-0.0012682980126279,0.0012683142613634,0.7094445919043,131329,3014,0.0042659158070279,0.0057739243642232,0.0057739243642213,18.071743902709,-9.5426048778326e-05,-9.5426048778326e-05,-9.5426048778326e-05,3413760.5669132,0.01594082733079
24819200,0.99165085853238,0.016374914514671,0.004651563182189,0.0058616756662522,0.0058616756662294,-0.0010256216226414,0.0010256221042718,-7.0935395874701e-09,7.5615400457303e-09,-2.4371927997859e-09,3.0392238732675e-09,-0.001203107297841,0.0012031010539338,-0.0012031024199954,0.0012031059595296,-0.0012031055201574,0.0012031028766556,-0.0012031006350647,0.0012031077671983,-0.0011050140354895,0.0011050019841233,-0.0011049997004471,0.001105016326458,2.1673651714306e-09,-2.931015060579e-09,1.9318286023864e-09,-2.5820704146844e-09,-0.0013905785553099,0.0013905779006899,-0.0016013758258834,0.0016013783453179,-0.0016013772928827,0.0016013768461314,-0.0016013774468775,0.0016013766634552,-0.0016013789146505,0.0016013751573579,-0.0014055214223821,0.0014055235072286,-0.0014055257817332,0.0014055190049134,-0.0012689124254685,0.0012689152217194,-0.0012689173621325,0.0012689100742415,7.561651096279e-09,-6.9581728755361e-09,-0.0013905779262695,0.0013905785297314,-1.8967780359977e-09,2.6081599356219e-09,-0.0016013751083963,0.0016013790073443,-0.001601373598602,0.001601380497391,-0.001601379957283,0.0016013741925279,-0.0016013784517366,0.0016013756791082,-0.0012689198483818,0.0012689077316246,-0.001268905581264,0.0012689219150772,0.6611222825151,131329,3014,0.0042679014915305,0.0057763454268566,0.0057763454268596,18.258347277367,-9.3933221781063e-05,-9.3933221781063e-05,-9.3933221781063e-05,3411737.6592863,0.015947767310876
25019200,0.99185124143505,0.016377927561569,0.0046523941572057,0.0058627667021933,0.0058627667021704,-0.0010264373099461,0.0010264377937314,-7.1681553322456e-09,7.6383118296991e-09,-2.4846168310731e-09,3.0892787066561e-09,-0.0012040080270695,0.0012040017066322,-0.0012040031029902,0.0012040066585009,-0.0012040062213025,0.0012040035576534,-0.001204001281641,0.0012040085028145,-0.0011058761855937,0.0011058640089066,-0.0011058616904776,0.0011058785112186,2.1715795785789e-09,-2.936287728885e-09,1.9248383265297e-09,-2.5760825739057e-09,-0.0013915018397255,0.0013915011840994,-0.0016023787906996,0.0016023813121885,-0.0016023802575278,0.001602379813239,-0.0016023804191064,0.0016023796230271,-0.0016023818784351,0.0016023781254341,-0.001406463018082,0.0014064650743772,-0.001406467352834,0.0014064605964129,-0.0012698228372983,0.0012698256339054,-0.0012698277712988,0.0012698204893969,7.6170920325376e-09,-7.0141399807795e-09,-0.0013915012104235,0.0013915018133931,-1.8910959117004e-09,2.6019183564449e-09,-0.00160237805178,0.0016023819956653,-0.0016023765500536,0.0016023834775842,-0.0016023829421522,0.0016023771394559,-0.0016023814365022,0.0016023786262951,-0.0012698303116407,0.0012698180930037,-0.0012698159467211,0.0012698323732735,0.65362538146733,131329,3014,0.0042712904717269,0.0057801686504265,0.0057801686504102,18.629935428962,-9.0960516568306e-05,-9.0960516568306e-05,-9.0960516568306e-05,3417143.236433,0.015958979715401
25219200,0.99205475094002,0.016381090740242,0.0046532714158741,0.0058639096621953,0.0058639096621723,-0.0010277454168285,0.0010277458937329,-7.245577403878e-09,7.7087567828894e-09,-2.3627974889821e-09,2.9592960983002e-09,-0.001205403830713,0.0012053975354015,-0.0012053988550115,0.0012054025388136,-0.001205402105733,0.001205399304966,-0.001205397119169,0.0012054042969064,-0.001107245336766,0.0011072329302458,-0.0011072307034362,0.0011072475721918,2.1591242026647e-09,-2.9204357924228e-09,1.9230757891663e-09,-2.571119602002e-09,-0.0013929512649496,0.0013929506125879,-0.001603909654158,0.0016039121646259,-0.0016039111162971,0.0016039106699662,-0.0016039112701406,0.0016039104869837,-0.0016039127299298,0.0016039089891982,-0.0014079369945863,0.0014079390610795,-0.0014079413278314,0.0014079345855029,-0.0012712581548461,0.0012712609356571,-0.001271263066494,0.0012712558129727,7.6748107310945e-09,-7.0715907296397e-09,-0.0013929506372137,0.0013929512403591,-1.8912363474395e-09,2.6024618921638e-09,-0.0016039088916295,0.0016039128716074,-0.001603907387439,0.0016039143560719,-0.0016039138179207,0.0016039079790269,-0.0016039123142699,0.0016039094632008,-0.0012712656788593,0.0012712533423799,-0.0012712511968854,0.0012712677428832,0.674546742378,131329,3014,0.0042767228195149,0.0057861713111329,0.0057861713112065,19.270964972069,-8.5832280223451e-05,-8.5832280223451e-05,-8.5832280223451e-05,3426263.0163295,0.015976696712249
25419200,0.99226126594755,0.016384567186424,0.0046542467761172,0.0058651602051648,0.0058651602051415,-0.0010290710358269,0.0010290715119716,-7.3058432435627e-09,7.7684285385465e-09,-2.3364917127232e-09,2.9320225384888e-09,-0.0012068474349023,0.0012068411201115,-0.0012068424222783,0.0012068461605092,-0.0012068457310811,0.0012068428685313,-0.0012068407015405,0.0012068479035294,-0.0011086462383775,0.0011086336881181,-0.0011086314793281,0.0011086484546434,2.0282010907421e-09,-2.7781885332143e-09,1.9278766069141e-09,-2.5658406925847e-09,-0.0013944395987881,0.0013944389565443,-0.001605493103912,0.0016054955361334,-0.00160549456897,0.001605494038849,-0.0016054946324749,0.0016054939473369,-0.0016054960888595,0.0016054924528029,-0.0014094725387572,0.0014094746995078,-0.001409476864181,0.0014094702311384,-0.0012727555532757,0.0012727580666304,-0.0012727601884272,0.0012727532225756,7.7461819088717e-09,-7.1433463257908e-09,-0.0013944389762629,0.0013944395790685,-1.8877353898914e-09,2.598429276181e-09,-0.001605492275946,0.0016054963089442,-0.0016054907772694,0.0016054977879985,-0.001605497253256,0.0016054913657047,-0.0016054957492309,0.0016054928508167,-0.0012727630128518,0.0012727505407057,-0.001272748397262,0.0012727650726691,0.72789190604744,131329,3014,0.0042822298843914,0.005792334584956,0.0057923345849548,19.918344846378,-8.0653241228977e-05,-8.0653241228977e-05,-8.0653241228977e-05,3432797.3794691,0.015994817457266
25619200,0.99247056913297,0.016388112486521,0.0046552411203244,0.0058664356831102,0.0058664356830868,-0.001030375958484,0.0010303764291136,-7.3792272298499e-09,7.8363576156539e-09,-2.2259152413467e-09,2.8148628196966e-09,-0.0012083444808982,0.001208338187978,-0.0012083394194959,0.0012083432771638,-0.0012083428511765,0.0012083398617618,-0.0012083377761884,0.0012083449422282,-0.0011100462218335,0.0011100334567066,-0.0011100313292599,0.0011100483566273,1.9830046285432e-09,-2.7268429895905e-09,1.9271024712421e-09,-2.5594677310618e-09,-0.0013959406914524,0.0013959400549393,-0.0016071274401478,0.0016071298426455,-0.001607128901146,0.0016071283494322,-0.0016071289357631,0.0016071282869999,-0.0016071303914267,0.0016071267931979,-0.0014110604787744,0.0014110626746482,-0.0014110648018322,0.0014110582083256,-0.0012743044508029,0.0012743068833908,-0.0012743089971703,0.001274302128589,7.8070052839358e-09,-7.2042352729105e-09,-0.0013959400718303,0.0013959406745624,-1.8865648195045e-09,2.5972199850946e-09,-0.0016071265776996,0.0016071306501922,-0.0016071250780741,0.0016071321300797,-0.0016071315937188,0.001607125667988,-0.0016071300921612,0.0016071271506709,-0.0012743119324835,0.0012742993355956,-0.0012742971930628,0.001274313991534,0.73243474443988,131329,3014,0.00428765590541,0.0057985492503033,0.0057985492503063,20.565948424335,-7.5472412605323e-05,-7.5472412605323e-05,-7.5472412605323e-05,3433600.7630967,0.016012963457534
25819200,0.99267723020959,0.016391519440171,0.0046561920021322,0.0058676637190312,0.0058676637190078,-0.0010309329383155,0.0010309334098664,-7.4427881176967e-09,7.9008388434438e-09,-2.2473983922865e-09,2.8374689722706e-09,-0.0012090819604054,0.0012090756099199,-0.0012090768553628,0.0012090807427251,-0.001209080314929,0.0012090772995469,-0.0012090751982681,0.0012090824216625,-0.0011106734376552,0.0011106605656821,-0.0011106584226799,0.001110675588176,2.0002707707727e-09,-2.7451783282416e-09,1.9157100019847e-09,-2.5489081911994e-09,-0.0013966483034857,0.0013966476660426,-0.0016079632832285,0.0016079656878141,-0.0016079647359825,0.0016079642028646,-0.0016079647891378,0.0016079641217432,-0.0016079662385257,0.0016079626343068,-0.0014118374856922,0.0014118396504161,-0.0014118417903148,0.001411835203246,-0.0012750572345724,0.0012750597104719,-0.0012750618179027,0.0012750549187166,7.8739203754315e-09,-7.2721000420414e-09,-0.0013966476838752,0.0013966482856564,-1.8758051547048e-09,2.585325765396e-09,-0.0016079623964112,0.0016079665196492,-0.0016079609034403,0.0016079679929714,-0.0016079674565538,0.0016079614934445,-0.0016079659634596,0.001607962967503,-0.0012750648095196,0.0012750520691153,-0.0012750499354876,0.0012750668605022,0.7138631870853,131329,3014,0.0042899775493693,0.0058014772418826,0.0058014772418902,20.805054064396,-7.3559567484835e-05,-7.3559567484835e-05,-7.3559567484835e-05,3430017.6663504,0.016021276515152
26019200,0.99287667213786,0.016394676940931,0.0046570676428827,0.0058688046490359,0.0058688046490125,-0.0010308216948565,0.0010308221707281,-7.5056757542284e-09,7.968010052233e-09,-2.3427268535969e-09,2.9380523525174e-09,-0.0012091003407434,0.0012090938857032,-0.0012090951922724,0.0012090990619193,-0.0012090986300631,0.0012090956409263,-0.0012090934701517,0.0012091008062975,-0.0011105992168426,0.0011105862875081,-0.0011105840749294,0.0011106014367869,2.0929092308271e-09,-2.846286379199e-09,1.8943000039085e-09,-2.5350363035615e-09,-0.0013966311363957,0.0013966304913431,-0.0016080455307218,0.0016080479803538,-0.001608046971674,0.0016080465072954,-0.0016080471007149,0.0016080463497799,-0.0016080485385037,0.0016080448740196,-0.0014118572689001,0.0014118593274835,-0.0014118615395121,0.0014118549144654,-0.0012750653953237,0.0012750680660175,-0.0012750701691707,0.0012750630827316,7.9395310351297e-09,-7.3392383252482e-09,-0.0013966305137452,0.0013966311139943,-1.858477172504e-09,2.5662953035871e-09,-0.0016080446389328,0.0016080488169576,-0.0016080431579719,0.0016080502782486,-0.0016080497432876,0.0016080437466509,-0.0016080482623895,0.0016080452084504,-0.0012750731396043,0.001275060254985,-0.0012750581348935,0.001275075176658,0.68688291277367,131329,3014,0.0042895231695883,0.0058014039091368,0.0058014039091392,20.675733657443,-7.4594130740457e-05,-7.4594130740457e-05,-7.4594130740457e-05,3424513.412709,0.016020668497601
26219200,0.99306908342416,0.016397902640778,0.0046579708068774,0.005869965916962,0.0058699659169385,-0.0010307068011095,0.001030707280824,-7.5701678228635e-09,8.0362286856711e-09,-2.4295459062167e-09,3.0294972149396e-09,-0.0012090635256398,0.0012090569717792,-0.0012090583338591,0.0012090621912763,-0.0012090617568406,0.0012090587855832,-0.001209056551663,0.001209063996144,-0.0011105144394051,0.0011105014406571,-0.0011104991648527,0.0011105167227231,2.1662428667272e-09,-2.9264242396563e-09,1.8745283890465e-09,-2.5213299053331e-09,-0.0013965933144017,0.0013965926631977,-0.0016080758346037,0.0016080783190836,-0.0016080772654017,0.0016080768561892,-0.0016080774564415,0.0016080766362118,-0.0016080788821871,0.0016080751725764,-0.001411841876512,0.0014118438422019,-0.0014118461116088,0.001411839464812,-0.0012750362109384,0.0012750390344404,-0.0012750411324455,0.0012750339026287,8.0038576465842e-09,-7.4050503907348e-09,-0.0013965926894036,0.001396593288198,-1.8425732515049e-09,2.5487463759595e-09,-0.0016080749330585,0.0016080791651805,-0.0016080734642829,0.0016080806143891,-0.0016080800817731,0.0016080740506113,-0.0016080786110565,0.0016080755021719,-0.0012750440999179,0.0012750310779975,-0.0012750289705404,0.0012750461243329,0.72524660749151,131329,3014,0.0042890506626882,0.0058012458679755,0.005801245867981,20.537675616109,-7.5698595071124e-05,-7.5698595071124e-05,-7.5698595071124e-05,3421467.347237,0.016019868067578
26419200,0.99325474841803,0.016401103980322,0.0046588706741505,0.0058711166530976,0.005871116653074,-0.0010305842958122,0.0010305847784985,-7.6354583171073e-09,8.1044774005433e-09,-2.498330251961e-09,3.1019397701046e-09,-0.0012090595598832,0.0012090529182339,-0.0012090543245054,0.0012090581813369,-0.0012090577450518,0.0012090547782302,-0.0012090524945101,0.0012090600342495,-0.0011104315624136,0.001110418480258,-0.0011104161545153,0.0011104338956647,2.2252930782323e-09,-2.989282674764e-09,1.8575740063671e-09,-2.5075836944273e-09,-0.0013965562289252,0.001396555574498,-0.0016081278726547,0.0016081303852885,-0.001608129294189,0.0016081289318018,-0.0016081295359383,0.0016081286608478,-0.0016081309506028,0.0016081272083677,-0.0014118523783198,0.0014118542675323,-0.0014118565808322,0.0014118499229854,-0.0012750347361466,0.0012750376838432,-0.0012750397748946,0.0012750324345187,8.0681073402707e-09,-7.4701000804526e-09,-0.0013965556027265,0.0013965562006974,-1.827980653534e-09,2.5332147140294e-09,-0.0016081269585868,0.0016081312439232,-0.0016081255006373,0.0016081326820948,-0.0016081321513347,0.0016081260853633,-0.0016081306897821,0.0016081275277944,-0.0012750427547756,0.0012750295979709,-0.0012750275011005,0.0012750447681465,0.74502755104167,131329,3014,0.0042885492120156,0.0058010902145364,0.0058010902145388,20.399297607146,-7.6805619142835e-05,-7.6805619142835e-05,-7.6805619142835e-05,3414850.4416112,0.016019044880952
26619200,0.99343802301888,0.016404235116005,0.00465974955634,0.0058722427798443,0.0058722427798206,-0.0010311105590495,0.0010311110406173,-7.7158702111085e-09,8.1838770012929e-09,-2.4720472877111e-09,3.0743654945974e-09,-0.0012097487730465,0.0012097421019238,-0.0012097434914715,0.0012097474112434,-0.0012097469831236,0.0012097439369152,-0.0012097416721561,0.0012097492534291,-0.0011110248816376,0.0011110116043576,-0.0011110092970618,0.0011110271958904,2.159202634834e-09,-2.9185248620982e-09,1.8513764581189e-09,-2.497413811454e-09,-0.0013972100521122,0.0013972094017491,-0.0016088961257394,0.001608898598474,-0.001608897548955,0.0016088971435353,-0.0016088977509249,0.0016088969129267,-0.001608899152871,0.0016088954730353,-0.0014125757164645,0.0014125776198234,-0.0014125798833004,0.0014125733103603,-0.0012757395922451,0.0012757423949405,-0.001275744477256,0.0012757373006017,8.1192154768346e-09,-7.5220167124939e-09,-0.0013972094283191,0.0013972100255253,-1.8248017833522e-09,2.5291827913489e-09,-0.0016088951703729,0.0016088994987094,-0.0016088937218077,0.0016089009274003,-0.0016089004045607,0.0016088942987687,-0.001608898938421,0.0016088957462135,-0.0012757475812178,0.0012757343402052,-0.001275732245945,0.0012757495905347,0.73848439662101,131329,3014,0.0042907426105173,0.0058037956411801,0.0058037956411461,20.629898505229,-7.4960811958168e-05,-7.4960811958168e-05,-7.4960811958168e-05,3411386.1817976,0.016026774867034
26819200,0.99362111814225,0.016407286461884,0.004660602774918,0.0058733418434946,0.005873341843471,-0.0010319908330533,0.001031991306921,-7.7544989112635e-09,8.2148476591606e-09,-2.3265150007402e-09,2.9197136552814e-09,-0.0012108002895818,0.0012107936736149,-0.0012107949704148,0.001210799020506,-0.0012107985849296,0.0012107954226165,-0.0012107932656663,0.0012108007473167,-0.0011119775012127,0.0011119640896284,-0.0011119618906338,0.0011119797073043,2.1036543990352e-09,-2.8555730575194e-09,1.8604702729824e-09,-2.4997895498245e-09,-0.0013982523196891,0.0013982516761784,-0.0016100559731028,0.0016100584030767,-0.0016100573854402,0.0016100569586462,-0.0016100575446831,0.0016100567707055,-0.0016100589652896,0.0016100553123202,-0.0014136834851685,0.0014136854863941,-0.0014136877042015,0.001413681124993,-0.0012768280248667,0.0012768307561504,-0.0012768328348485,0.0012768257367682,8.2156213132319e-09,-7.6184668163624e-09,-0.0013982516993833,0.0013982522964834,-1.8207067199536e-09,2.5251456124466e-09,-0.0016100549699964,0.0016100593510912,-0.0016100535096474,0.0016100607916043,-0.0016100602540938,0.0016100541007917,-0.0016100588052664,0.0016100555305885,-0.0012768360943722,0.001276822619573,-0.0012768205293043,0.0012768381018883,0.72121904799776,131329,3014,0.0042944051564624,0.0058081099213694,0.0058081099213689,21.064605809373,-7.1483153525015e-05,-7.1483153525015e-05,-7.1483153525015e-05,3411498.6345491,0.016039266795965
27019200,0.99380393228016,0.016410248953764,0.0046614273487585,0.0058744108025143,0.0058744108024907,-0.0010328774276699,0.0010328778989284,-7.847516721045e-09,8.3052954646304e-09,-2.2634821954079e-09,2.8533798616745e-09,-0.0012118376709805,0.0012118310449641,-0.0012118323015394,0.0012118364421134,-0.0012118360201191,0.0012118327399687,-0.0012118306281371,0.0012118381374366,-0.0011129273904434,0.0011129137211062,-0.0011129115676188,0.0011129295513315,1.9770729457654e-09,-2.7173658382654e-09,1.8643970698799e-09,-2.4932668939101e-09,-0.0013992988567035,0.0013992982236445,-0.0016112101744703,0.0016112125358775,-0.0016112115971909,0.0016112110812622,-0.0016112116685877,0.0016112109819324,-0.0016112130769971,0.0016112095356378,-0.0014147784316829,0.0014147804978871,-0.0014147826162455,0.0014147761710108,-0.0012779038649819,0.0012779063149443,-0.0012779083826536,0.001277901589331,8.2555829361376e-09,-7.6579113366535e-09,-0.0013992982413586,0.001399298838989,-1.8272083821852e-09,2.5321276845609e-09,-0.0016112091207573,0.0016112135347974,-0.0016112076671867,0.0016112149687939,-0.0016112144419127,0.0016112082476912,-0.0016112129773366,0.0016112096933003,-0.0012779118142527,0.0012778982995191,-0.0012778962038706,0.0012779138268974,0.70228505394475,131329,3014,0.0042980924274603,0.0058124422471216,0.0058124422471218,21.504196500832,-6.7966427993345e-05,-6.7966427993345e-05,-6.7966427993345e-05,3413702.4525401,0.016051819724562
27219200,0.99398630703704,0.016413113950069,0.0046622206442854,0.0058754466529039,0.0058754466528802,-0.0010337636721616,0.0010337641384347,-7.9001541583016e-09,8.3530136249322e-09,-2.1589792431955e-09,2.7428688501218e-09,-0.0012128471111803,0.0012128405122092,-0.0012128417018531,0.0012128459492494,-0.0012128455252626,0.0012128421418133,-0.001212840106586,0.0012128475659446,-0.0011138685977714,0.0011138547731662,-0.0011138526961691,0.0011138706821491,1.9119852571234e-09,-2.6447441707192e-09,1.8737500387584e-09,-2.4957814063483e-09,-0.0014003439623432,0.0014003433361985,-0.0016123480755316,0.0016123503959267,-0.0016123494955386,0.0016123489439019,-0.0016123495179364,0.0016123488939314,-0.0016123509369734,0.00161234743707,-0.0014158557211256,0.0014158578704838,-0.0014158599364207,0.0014158535129264,-0.0012789576903669,0.0012789600276685,-0.001278962092771,0.0012789554183865,8.3368053943178e-09,-7.7389359915236e-09,-0.0014003433503608,0.00140034394818,-1.8283241870687e-09,2.5334550657162e-09,-0.0016123469777564,0.0016123514391268,-0.001612345516721,0.0016123528804906,-0.0016123523467417,0.0016123461039602,-0.0016123508880454,0.0016123475437842,-0.0012789656723131,0.0012789519801473,-0.0012789498835574,0.0012789676859517,0.68191772190271,131329,3014,0.0043017764366009,0.0058167691066636,0.0058167691066626,21.943966346829,-6.444826922537e-05,-6.444826922537e-05,-6.444826922537e-05,3417802.1817945,0.016064357359292
27419200,0.99416664989622,0.016416035487876,0.0046630335343894,0.0058765009767551,0.0058765009767314,-0.0010344258687043,0.0010344263324529,-7.9579636822603e-09,8.4083378325804e-09,-2.1068283471343e-09,2.6876812017136e-09,-0.0012135932007547,0.0012135865928915,-0.0012135877493908,0.0012135920719441,-0.0012135916461177,0.0012135881909798,-0.0012135861937712,0.0012135936487793,-0.0011145728311021,0.0011145588695106,-0.0011145568307014,0.0011145748770474,1.9043915540618e-09,-2.6350335841137e-09,1.8787816251829e-09,-2.4987524682679e-09,-0.0014011393546949,0.0014011387305825,-0.0016132153142642,0.0016132176290054,-0.0016132167327782,0.0016132161784742,-0.0016132167463986,0.0016132161372885,-0.0016132181722436,0.0016132146736236,-0.001416667515677,0.0014166696930244,-0.0014166717509137,0.0014166653155212,-0.0012797453030017,0.0012797476343319,-0.001279749699709,0.0012797430302209,8.4115390927841e-09,-7.8135561696342e-09,-0.0014011387436886,0.0014011393415942,-1.8291967281779e-09,2.534418510313e-09,-0.0016132141912501,0.0016132186974249,-0.0016132127255316,0.0016132201436658,-0.0016132196056196,0.0016132133169921,-0.0016132181502938,0.0016132147531383,-0.0012797533603949,0.0012797395105772,-0.0012797374139291,0.001279755375174,0.70214877995437,131329,3014,0.0043045283612915,0.0058200623033916,0.0058200623034038,22.252217183509,-6.1982262531931e-05,-6.1982262531931e-05,-6.1982262531931e-05,3422137.3979497,0.016073846208521
27619200,0.99434443208883,0.016418959893938,0.0046638488527039,0.0058775555206292,0.0058775555206053,-0.0010350130742968,0.0010350135369199,-8.0112437468262e-09,8.460537771261e-09,-2.0778889740946e-09,2.6573829624805e-09,-0.0012142818006698,0.001214275170449,-0.0012142763083719,0.0012142806904556,-0.001214280259842,0.001214276754595,-0.0012142747781727,0.0012142822417556,-0.0011152070257856,0.0011151929571352,-0.0011151909393821,0.0011152090504429,1.9311919667095e-09,-2.6629935631614e-09,1.8828273704029e-09,-2.5037100241563e-09,-0.0014018587803098,0.0014018581552668,-0.0016140160321117,0.0016140183612003,-0.0016140174478979,0.0016140169135906,-0.0016140174766223,0.0016140168573418,-0.0016140189110918,0.0016140153848693,-0.0014174180322283,0.0014174202167562,-0.0014174222937324,0.0014174158128506,-0.0012804704329682,0.0012804728307633,-0.0012804749004302,0.0012804681560891,8.4900033845185e-09,-7.8920039952835e-09,-0.0014018581687963,0.001401858766771,-1.829968473984e-09,2.5351842599199e-09,-0.0016140148932571,0.001614019445486,-0.0016140134212482,0.0016140208980873,-0.0016140203542251,0.0016140140186532,-0.0016140189040486,0.0016140154495357,-0.0012804786089876,0.0012804645890131,-0.0012804624916347,0.0012804806240901,0.71252806719469,131329,3014,0.0043069704405001,0.0058230405246044,0.0058230405245864,22.51921238812,-5.984630089504e-05,-5.984630089504e-05,-5.984630089504e-05,3423786.7803301,0.016082381233541
27819200,0.99451958423653,0.016421888847923,0.0046646672608252,0.0058786107935607,0.0058786107935368,-0.0010355958003704,0.0010355962660171,-8.0986914985339e-09,8.5509567070834e-09,-2.1353367912797e-09,2.718350732604e-09,-0.0012149769491856,0.0012149702332924,-0.0012149714078299,0.0012149758023572,-0.0012149753792249,0.0012149718468273,-0.001214969827892,0.0012149774036487,-0.0011158423928899,0.0011158281620119,-0.0011158261019269,0.0011158444603381,1.8979527428277e-09,-2.6280397222529e-09,1.8831027897639e-09,-2.5025959822127e-09,-0.0014025757960592,0.0014025751724383,-0.0016148198300086,0.001614822147279,-0.0016148212558774,0.0016148206896118,-0.0016148212616411,0.0016148206564027,-0.0016148226854873,0.0016148191944996,-0.0014181750199251,0.0014181771975473,-0.0014181792499578,0.001418172825135,-0.0012812014445819,0.0012812037461555,-0.0012812058140479,0.0012811991698852,8.5326119262097e-09,-7.9341030103051e-09,-0.0014025751850076,0.0014025757834889,-1.8364433395048e-09,2.5422761957661e-09,-0.0016148186680956,0.001614823254582,-0.001614817201987,0.0016148247014491,-0.0016148241674347,0.001614817789487,-0.0016148227023961,0.0016148192351977,-0.0012812095960538,0.0012811955290181,-0.0012811934263109,0.0012812116162352,0.72383356025563,131329,3014,0.0043093948282727,0.00582600852608,0.005826008526079,22.785201454835,-5.7718388361323e-05,-5.7718388361323e-05,-5.7718388361323e-05,3424373.6769075,0.01609087810217
28019200,0.99469205029897,0.016424824100983,0.0046654893214411,0.0058796673897831,0.0058796673897592,-0.0010361743042694,0.0010361747707147,-8.1628960126595e-09,8.6159461358186e-09,-2.15035040533e-09,2.7343116790081e-09,-0.0012156807490296,0.0012156739802548,-0.0012156751641043,0.0012156795928924,-0.0012156791683985,0.001215675604543,-0.0012156735747257,0.0012156812036767,-0.0011164790141984,0.0011164646701787,-0.00111646259884,0.0011164810928893,1.9185503829981e-09,-2.6503640129597e-09,1.8860039460979e-09,-2.5070077591292e-09,-0.0014032914723912,0.0014032908472494,-0.0016156287006224,0.0016156310332164,-0.0016156301282052,0.0016156295736975,-0.0016156301465059,0.0016156295278658,-0.0016156315735154,0.0016156280628811,-0.0014189391718925,0.0014189413423429,-0.0014189434109353,0.0014189369610325,-0.0012819399980603,0.0012819423404885,-0.0012819444124336,0.001281937719288,8.5993729762937e-09,-8.0005669032906e-09,-0.0014032908604351,0.0014032914592052,-1.8394543980779e-09,2.5456107552212e-09,-0.0016156275252151,0.0016156321539876,-0.0016156260562408,0.0016156336035245,-0.0016156330685641,0.0016156266446925,-0.0016156316021873,0.0016156280919187,-0.001281948235189,0.0012819340378143,-0.0012819319326228,0.0012819502576474,0.73612509322079,131329,3014,0.0043118026662327,0.0058289706846302,0.0058289706846307,23.051153444359,-5.5590772445131e-05,-5.5590772445131e-05,-5.5590772445131e-05,3423940.507442,0.016099346875217
28219200,0.9948611101883,0.016427755958913,0.0046663123728628,0.0058807217930369,0.0058807217930129,-0.0010366293383332,0.0010366298077007,-8.2368017263612e-09,8.6927762910042e-09,-2.2066981634741e-09,2.7941507646709e-09,-0.0012162714575507,0.0012162646064619,-0.001216265826263,0.0012162702654691,-0.0012162698421772,0.001216266265745,-0.0012162641943374,0.0012162719190552,-0.0011169927318568,0.0011169782707657,-0.0011169761577558,0.0011169948521522,1.9419075328309e-09,-2.6764280776175e-09,1.8858773962704e-09,-2.5093057463853e-09,-0.0014038772518374,0.0014038766242213,-0.0016163128325968,0.0016163151835851,-0.0016163142647959,0.0016163137195047,-0.0016163142986209,0.0016163136580983,-0.0016163157224125,0.0016163121962951,-0.0014195789580964,0.0014195811008879,-0.0014195831882849,0.0014195767284753,-0.0012825579769914,0.0012825603534766,-0.0012825624286231,0.0012825556947938,8.6553348665199e-09,-8.0562698070757e-09,-0.0014038766385065,0.0014038772375467,-1.8432617090318e-09,2.5496740195324e-09,-0.0016163116470075,0.0016163163145199,-0.0016163101792292,0.0016163177627548,-0.0016163172314697,0.0016163107641406,-0.0016163157586116,0.001616312217978,-0.0012825662789748,0.0012825519862963,-0.0012825498779425,0.0012825683041131,0.74948916799299,131329,3014,0.0043136989375747,0.0058313945664859,0.0058313945664755,23.250966537901,-5.3992267696791e-05,-5.3992267696791e-05,-5.3992267696791e-05,3421804.5945351,0.016106202433035
28419200,0.99502667150223,0.016430685320358,0.0046671367891041,0.0058817742656388,0.0058817742656148,-0.0010370605209105,0.0010370609935608,-8.3172065499902e-09,8.7764164077972e-09,-2.2735771471317e-09,2.864945625113e-09,-0.0012168518226806,0.0012168448796522,-0.0012168461421144,0.0012168505879574,-0.0012168501670491,0.0012168465795194,-0.0012168444590131,0.0012168522930382,-0.0011174868002946,0.0011174722124297,-0.0011174700499928,0.0011174889700516,1.9597386487923e-09,-2.6966501007493e-09,1.8848967961365e-09,-2.5105304039019e-09,-0.0014044410304152,0.0014044404005711,-0.0016169810744311,0.0016169834415085,-0.0016169825120742,0.0016169819718944,-0.0016169825585923,0.001616981897717,-0.0016169839770861,0.0016169804413075,-0.0014202044867037,0.0014202065991701,-0.0014202087014104,0.0014202022420056,-0.001283164415312,0.0012831668114951,-0.0012831688888941,0.0012831621306162,8.7047023298484e-09,-8.1053021065844e-09,-0.0014044404157984,0.0014044410151844,-1.847831400078e-09,2.5546384947829e-09,-0.0016169798791231,0.0016169845820404,-0.001616978413558,0.0016169860280402,-0.0016169855018545,0.0016169789934212,-0.0016169840204557,0.0016169804559324,-0.0012831727657344,0.0012831583956711,-0.0012831562836278,0.0012831747941727,0.76402416354304,131329,3014,0.0043154972169729,0.0058337270078769,0.0058337270078707,23.441584729938,-5.2467322160496e-05,-5.2467322160496e-05,-5.2467322160496e-05,3418614.4625318,0.016112773090754
28619200,0.99518873935089,0.016433572082209,0.0046679496520292,0.005882811215102,0.005882811215078,-0.0010374804131618,0.0010374808868314,-8.3746265983766e-09,8.8348165135965e-09,-2.3003398910189e-09,2.8929853551656e-09,-0.0012174375409228,0.0012174305392437,-0.0012174318187011,0.0012174362892145,-0.0012174358641502,0.0012174322603434,-0.0012174301208945,0.0012174380090589,-0.0011179725464561,0.0011179578738559,-0.0011179556922717,0.0011179747354909,2.0123295852988e-09,-2.7536244899561e-09,1.8865993322378e-09,-2.5160872100043e-09,-0.0014049972911436,0.0014049966574019,-0.0016176499932745,0.0016176523927609,-0.0016176514300151,0.0016176509239196,-0.0016176515110525,0.001617650814924,-0.0016176529353248,0.0016176493528271,-0.0014208288833227,0.001420830971369,-0.0014208331144525,0.0014208265980377,-0.0012837735087004,0.0012837760160832,-0.0012837780996652,0.0012837712172719,8.7780190156622e-09,-8.1784546432363e-09,-0.0014049966744977,0.0014049972740467,-1.848989604078e-09,2.5559698896685e-09,-0.0016176487914558,0.0016176535396887,-0.001617647321728,0.0016176549896884,-0.0016176544600668,0.0016176479050532,-0.0016176529811616,0.0016176493650757,-0.0012837819906609,0.0012837674683421,-0.0012837653554294,0.001283784020188,0.76896079234232,131329,3014,0.0043172496897423,0.0058360279567541,0.0058360279567529,23.631967099763,-5.0944263201896e-05,-5.0944263201896e-05,-5.0944263201896e-05,3414560.6190147,0.016119233732061
28819200,0.99534734412546,0.016436323265194,0.0046687211419687,0.0058838010616248,0.0058838010616007,-0.0010378918904037,0.0010378923648072,-8.4323007436475e-09,8.8931712596049e-09,-2.3207550309974e-09,2.9143134253136e-09,-0.0012180200585376,0.0012180130020511,-0.0012180142945949,0.00121801879375,-0.0012180183648609,0.0012180147400671,-0.0012180125860983,0.0012180205243085,-0.0011184473555693,0.0011184325926334,-0.0011184303967783,0.0011184495588059,2.0590215814522e-09,-2.8042272943472e-09,1.8884300366075e-09,-2.5213959499147e-09,-0.001405545662772,0.0014055450255889,-0.0016183136080905,0.0016183160358628,-0.0016183150441469,0.0016183145677034,-0.0016183151550376,0.0016183144286902,-0.0016183165847328,0.0016183129611415,-0.0014214421427968,0.00142144421056,-0.0014214463895358,0.0014214398213551,-0.0012843754021005,0.0012843780078405,-0.0012843800971378,0.0012843731044844,8.8512595289795e-09,-8.2514933801295e-09,-0.0014055450443106,0.0014055456440493,-1.8500643229813e-09,2.5572998022464e-09,-0.0016183123978617,0.0016183171911259,-0.0016183109242357,0.0016183186449404,-0.0016183181121763,0.0016183115108375,-0.001618316635492,0.0016183129685552,-0.0012843840086378,0.0012843693352315,-0.0012843672213113,0.001284386039198,0.74978434635889,131329,3014,0.0043189674441465,0.0058382961151085,0.0058382961151075,23.824563547397,-4.9403491620823e-05,-4.9403491620823e-05,-4.9403491620823e-05,3410749.2484939,0.01612559250653
29019200,0.99550363037202,0.016438888288071,0.0046694343141556,0.0058847269869697,0.0058847269869456,-0.0010385175103898,0.0010385179845919,-8.4962727932277e-09,8.9569482136745e-09,-2.31881149343e-09,2.912154921725e-09,-0.0012187973432111,0.0012187902457797,-0.0012187915372705,0.0012187960794813,-0.001218795651422,0.0012187919819391,-0.0012187898294278,0.0012187978093942,-0.0011191336921658,0.0011191188007335,-0.0011191166064683,0.0011191358937661,2.0521219909507e-09,-2.7965192675611e-09,1.8932058625383e-09,-2.5254512185129e-09,-0.0014063175757893,0.0014063169393369,-0.0016191902549414,0.001619192681834,-0.0016191916945632,0.0016191912100739,-0.0016191917973517,0.0016191910791789,-0.0016191932293028,0.0016191896093382,-0.0014222635413981,0.0014222656217643,-0.0014222677949972,0.0014222612256848,-0.0012851815034974,0.0012851840904779,-0.0012851861819891,0.0012851792037158,8.9188002220695e-09,-8.3186908747628e-09,-0.0014063169575188,0.0014063175576069,-1.8539655406253e-09,2.5616050366363e-09,-0.001619189022724,0.0016191938590192,-0.0016191875470689,0.0016191953149911,-0.001619194782489,0.0016191881333144,-0.0016191933023799,0.0016191895944098,-0.0012851901641041,0.0012851753637111,-0.0012851732468,0.0012851921977584,0.71130253493884,131329,3014,0.0043215723685599,0.0058414905274084,0.0058414905274086,24.140417979231,-4.687665616615e-05,-4.687665616615e-05,-4.687665616615e-05,3410613.0034969,0.016134734210754
29219200,0.99565755029246,0.016441354241395,0.0046701173749648,0.0058856184332272,0.0058856184332031,-0.0010391561176156,0.0010391565916399,-8.5619904673625e-09,9.0225083260345e-09,-2.3085040229044e-09,2.9015836266119e-09,-0.001219535899627,0.0012195287651922,-0.0012195300499071,0.0012195346427159,-0.0012195342147824,0.0012195304943913,-0.0012195283489741,0.0012195363656851,-0.0011198173898244,0.00111980236277,-0.0011198001756529,0.0011198195843866,2.0436935358762e-09,-2.7871299067673e-09,1.8975236754005e-09,-2.5289127879736e-09,-0.0014070892186022,0.0014070885830209,-0.0016200387954389,0.001620041219893,-0.0016200402376489,0.0016200397455417,-0.0016200403319954,0.0016200396231266,-0.0016200417665268,0.0016200381506896,-0.001423055289345,0.0014230573840905,-0.0014230595505347,0.0014230529804177,-0.0012859548684439,0.0012859574362345,-0.0012859595294849,0.0012859525670856,8.9845658487394e-09,-8.384157620034e-09,-0.0014070886006178,0.0014070892010054,-1.8577431292814e-09,2.5657207356398e-09,-0.0016200375413331,0.0016200424190007,-0.0016200360630355,0.0016200438776085,-0.0016200433447766,0.0016200366495685,-0.0016200418620335,0.0016200381133113,-0.0012859635822778,0.0012859486563974,-0.0012859465364988,0.0012859656188503,0.69516967229235,131329,3014,0.0043242277130413,0.0058446847626674,0.0058446847626688,24.459162181375,-4.4326702549004e-05,-4.4326702549004e-05,-4.4326702549004e-05,3414215.3502212,0.016143924790478
29419200,0.995809031661,0.016443618090976,0.0046707369647728,0.0058864405631135,0.0058864405630893,-0.0010397955992524,0.0010397960727671,-8.6288058204935e-09,9.0888436895347e-09,-2.2964129191616e-09,2.8888776748877e-09,-0.001220250042875,0.0012202428716157,-0.0012202441486128,0.0012202487937189,-0.0012202483660657,0.0012202445927038,-0.0012202424560563,0.0012202505082405,-0.0011204914828332,0.0011204763172347,-0.0011204741389127,0.0011204936687002,2.0342242628282e-09,-2.7765918380143e-09,1.901485474287e-09,-2.5319057896266e-09,-0.0014078545188991,0.0014078538842693,-0.0016208687858927,0.0016208712067143,-0.0016208702302543,0.0016208697302307,-0.0016208703156103,0.0016208696168241,-0.0016208717526386,0.0016208681419188,-0.0014238248178006,0.0014238269274835,-0.0014238290863087,0.0014238225164949,-0.0012867019619426,0.0012867045092324,-0.0012867066038096,0.0012866996593491,9.049376924982e-09,-8.4487037939574e-09,-0.0014078539012413,0.001407854501927,-1.8612669531899e-09,2.5695495889356e-09,-0.0016208675095957,0.0016208724280722,-0.0016208660286524,0.0016208738892957,-0.0016208733559722,0.0016208666156764,-0.0016208718709299,0.0016208680816979,-0.0012867107277507,0.0012866956773967,-0.0012866935548253,0.0012867127671125,0.65089857826317,131329,3014,0.0043268848691114,0.0058478532877542,0.0058478532877551,24.778012259318,-4.1775901925452e-05,-4.1775901925452e-05,-4.1775901925452e-05,3419321.2969803,0.01615306427732
29619200,0.99595792369029,0.016445810829734,0.0046713357384437,0.0058872375456573,0.0058872375456331,-0.0010404316643503,0.0010404321374406,-8.6942264915251e-09,9.1538681330826e-09,-2.2878161695511e-09,2.8797854918241e-09,-0.0012208973920584,0.0012208901828861,-0.001220891454423,0.0012208961483169,-0.001220895721229,0.0012208918979751,-0.0012208897676143,0.001220897857079,-0.0011211478643069,0.0011211325643935,-0.0011211303925123,0.0011211500439145,2.0237541546366e-09,-2.765149671094e-09,1.9047557651526e-09,-2.5342408538518e-09,-0.0014085989603647,0.0014085983266169,-0.0016216438662198,0.0016216462825511,-0.0016216453125703,0.0016216448040839,-0.0016216453887662,0.0016216446999068,-0.0016216468275216,0.0016216432232285,-0.0014245441478487,0.0014245462710242,-0.0014245484217289,0.0014245418551255,-0.0012873912556128,0.0012873937800729,-0.0012873958756668,0.0012873889521826,9.1155295142423e-09,-8.5146230716981e-09,-0.0014085983430275,0.0014085989439551,-1.8639135570144e-09,2.5724066619775e-09,-0.0016216425664266,0.0016216475274746,-0.0016216410837296,0.001621648990391,-0.0016216484569231,0.0016216416708763,-0.0016216469699499,0.0016216431388889,-0.0012874000735528,0.0012873848963788,-0.0012873827715894,0.0012874021150742,0.64191386502987,131329,3014,0.0043295237402294,0.0058509365891922,0.0058509365891953,25.087632065897,-3.9298943472822e-05,-3.9298943472822e-05,-3.9298943472822e-05,3428196.0009421,0.016162009777226
29819200,0.99610367584446,0.0164480861449,0.0046719634892644,0.0058880613278297,0.0058880613278054,-0.0010409790743832,0.0010409795476347,-8.7601946605958e-09,9.2199892754212e-09,-2.2915892502861e-09,2.8837495737829e-09,-0.0012214339573881,0.0012214267015842,-0.0012214279754823,0.0012214327113041,-0.0012214322837768,0.0012214284194871,-0.0012214262863845,0.0012214344223923,-0.0011217136465909,0.0011216982209776,-0.00112169604622,0.0011217158287678,2.0265852665642e-09,-2.7683101064125e-09,1.9054101831569e-09,-2.5352102773306e-09,-0.001409241177784,0.0014092405437495,-0.00162230478732,0.0016223072057106,-0.0016223062339567,0.0016223057269425,-0.0016223063116504,0.0016223056212996,-0.0016223077512094,0.0016223041438511,-0.0014251609167079,0.0014251630401472,-0.0014251651929709,0.0014251586215557,-0.0012879720826424,0.0012879746128593,-0.0012879767093623,0.0012879697782777,9.180772787458e-09,-8.5797934871396e-09,-0.0014092405602705,0.0014092411612588,-1.8647156600989e-09,2.5733141929884e-09,-0.001622303467191,0.0016223084709306,-0.0016223019836922,0.0016223099347004,-0.001622309400946,0.0016223025711509,-0.0016223079136394,0.0016223040394995,-0.00128798096751,0.0012879656622938,-0.0012879635368861,0.0012879830094767,0.67837703962091,131329,3014,0.0043317935938649,0.0058535968705434,0.005853596870536,25.339868110686,-3.7281055114512e-05,-3.7281055114512e-05,-3.7281055114512e-05,3436543.4725288,0.01616972027763
30019200,0.99624625927524,0.016450347360003,0.0046725887227269,0.0058888793186503,0.0058888793186261,-0.0010415193664539,0.0010415198397072,-8.8260715623958e-09,9.2858675619436e-09,-2.2924492054857e-09,2.8846209415162e-09,-0.0012220119068614,0.0012220046069198,-0.0012220058814337,0.0012220106601592,-0.0012220102330432,0.0012220063250277,-0.001222004191333,0.0012220123722447,-0.0011222886642615,0.0011222731090655,-0.0011222709337946,0.0011222908470762,2.0300383630632e-09,-2.7720059765026e-09,1.9054548384205e-09,-2.5354641584417e-09,-0.0014098863584821,0.0014098857242348,-0.0016229951180394,0.0016229975390602,-0.0016229965651711,0.0016229960597805,-0.0016229966450782,0.0016229959518657,-0.0016229980843589,0.0016229944747133,-0.0014258122232397,0.0014258143430168,-0.0014258164984994,0.0014258099255229,-0.0012885850972196,0.0012885876329268,-0.0012885897296591,0.0012885827925588,9.2461488105595e-09,-8.645151890544e-09,-0.0014098857408549,0.0014098863418615,-1.8649012639289e-09,2.5735335031121e-09,-0.0016229937772939,0.0016229988248928,-0.0016229922940494,0.0016230002883899,-0.0016229997550032,0.0016229928811123,-0.0016229982671604,0.0016229943499769,-0.0012885940480965,0.0012885786162043,-0.0012885764906795,0.0012885960902933,0.68873090586574,131329,3014,0.0043340373347627,0.0058562685698703,0.0058562685698702,25.590754693041,-3.5273962455668e-05,-3.5273962455668e-05,-3.5273962455668e-05,3440514.7171392,0.0161774298818
30219200,0.99638566002306,0.01645246110467,0.0046731685950252,0.0058896462548344,0.0058896462548101,-0.0010420521887809,0.0010420526621081,-8.8918442597321e-09,9.3517100525007e-09,-2.2940709771181e-09,2.8863271581572e-09,-0.0012225981417124,0.0012225907967317,-0.001222592072273,0.001222596893975,-0.0012225964666571,0.001222592516098,-0.0012225903812021,0.0012225986070415,-0.0011228578829948,0.0011228422005616,-0.0011228400241098,0.0011228600669326,2.0308774426893e-09,-2.7728939305637e-09,1.9052755793981e-09,-2.5353220942086e-09,-0.0014105260908043,0.0014105254565272,-0.0016236892401364,0.0016236916614635,-0.0016236906870186,0.0016236901824169,-0.0016236907675993,0.0016236900738317,-0.0016236922069084,0.0016236885966448,-0.0014264656223916,0.0014264677416689,-0.0014264698977492,0.0014264633241063,-0.0012892002102234,0.0012892027480614,-0.0012892048447427,0.0012891979056437,9.31158888941e-09,-8.710582225104e-09,-0.0014105254731642,0.001410526074167,-1.8647716477709e-09,2.5734091671752e-09,-0.0016236878777599,0.0016236929689166,-0.0016236863944648,0.0016236944324681,-0.0016236938989513,0.0016236869816388,-0.0016236924113395,0.0016236884502939,-0.0012892092265371,0.0012891936659723,-0.0012891915404893,0.0012892112686301,0.66008313175597,131329,3014,0.004336251244667,0.0058589173885147,0.0058589173885153,25.841591754468,-3.3267265964256e-05,-3.3267265964256e-05,-3.3267265964256e-05,3443300.5273984,0.016185063523694
30419200,0.99652216142323,0.01645441578312,0.0046736994427676,0.0058903581701885,0.0058903581701642,-0.0010426525577436,0.0010426530305509,-8.9580376370404e-09,9.4173819986796e-09,-2.2838923821849e-09,2.8755254943171e-09,-0.0012232151013901,0.0012232077191523,-0.0012232089882368,0.0012232138601231,-0.0012232134335071,0.00122320943128,-0.0012232073038722,0.0012232155664209,-0.0011234895656806,0.0011234737459589,-0.0011234715770758,0.0011234917421547,2.0232692475911e-09,-2.7644682792409e-09,1.9055519428699e-09,-2.5348873638758e-09,-0.001411227829438,0.0014112271958991,-0.0016244256799227,0.0016244280968158,-0.0016244271269902,0.0016244266175761,-0.0016244272022657,0.0016244265143014,-0.001624428641312,0.0016244250374078,-0.0014271604002764,0.0014271625245919,-0.0014271646746078,0.0014271581079389,-0.0012898508833469,0.0012898534054927,-0.0012898555013285,0.0012898485796502,9.3769039598441e-09,-8.7759018511048e-09,-0.0014112272121651,0.0014112278131733,-1.8647930188827e-09,2.5734717749685e-09,-0.0016244242934687,0.0016244294283739,-0.0016244228103764,0.0016244308917159,-0.0016244303584254,0.0016244233972992,-0.0016244288705422,0.0016244248662026,-0.0012898599553382,0.001289844267559,-0.0012898421421007,0.0012898619974928,0.6252652795621,131329,3014,0.0043387430273747,0.0058618236986702,0.0058618236986741,26.129550830599,-3.0963593355204e-05,-3.0963593355204e-05,-3.0963593355204e-05,3449357.3197238,0.016193501518059
30619200,0.99665655426722,0.016456463996111,0.0046742621339457,0.0058911009310948,0.0058911009310704,-0.0010434583503226,0.0010434588217238,-9.0228069510294e-09,9.4807564238109e-09,-2.2580269184747e-09,2.8479856378172e-09,-0.0012239903922604,0.0012239829824047,-0.0012239842351608,0.0012239891673203,-0.0012239887408872,0.001223984677907,-0.0012239825697358,0.0012239908545007,-0.0011243239892793,0.001124308028077,-0.0011243058790973,0.0011243261468697,1.983511516491e-09,-2.7210519724249e-09,1.9088422929292e-09,-2.5349794780217e-09,-0.0014121389292126,0.0014121382989578,-0.0016253440997153,0.0016253464921082,-0.0016253455466794,0.0016253450129196,-0.0016253455931448,0.0016253449384932,-0.0016253470345634,0.0016253434591839,-0.0014280509322421,0.0014280530937755,-0.0014280552132493,0.001428048670689,-0.0012906870015252,0.001290689447656,-0.001290691541294,0.0012906847007486,9.4441679852684e-09,-8.8430177505249e-09,-0.0014121383135184,0.001412138914671,-1.8655662333204e-09,2.5744589580754e-09,-0.0016253426795437,0.0016253478574998,-0.0016253411946201,0.0016253493226088,-0.0016253487879026,0.0016253417827127,-0.0016253473007352,0.0016253432509832,-0.0012906961023573,0.0012906802808176,-0.0012906781543085,0.0012906981458331,0.66318230797495,131329,3014,0.0043420843117593,0.0058655979377142,0.0058655979377548,26.523813873042,-2.7809489015665e-05,-2.7809489015665e-05,-2.7809489015665e-05,3459646.6862111,0.016204565113388
30819200,0.99678875881202,0.016458571984272,0.0046748452373413,0.0058918633734774,0.0058918633734529,-0.0010442715800594,0.0010442720497495,-9.0918265747626e-09,9.5480920385776e-09,-2.2196848493868e-09,2.8075523094982e-09,-0.0012248263391588,0.0012248189103056,-0.0012248201384633,0.0012248251388664,-0.0012248247157013,0.0012248205777649,-0.001224818497305,0.0012248268016279,-0.0011251849832575,0.0011251688559072,-0.0011251667340755,0.0011251871125726,1.9646777601616e-09,-2.6997518844074e-09,1.9103286232489e-09,-2.5341634458563e-09,-0.0014130639680838,0.0014130633401117,-0.0016263080194556,0.0016263104027112,-0.0016263094684468,0.0016263089215248,-0.0016263095014264,0.0016263088608345,-0.0016263109412496,0.0016263073831625,-0.0014289911462527,0.0014289933194754,-0.0014289954228378,0.0014289889004614,-0.001291569425677,0.001291571829308,-0.0012915739210457,0.0012915671267301,9.5072697154951e-09,-8.9060751784579e-09,-0.0014130633535017,0.0014130639546948,-1.8670354169084e-09,2.5759426353383e-09,-0.0016263065732434,0.0016263117941782,-0.0016263050891798,0.0016263132585457,-0.0016263127255866,0.0016263056756123,-0.0016263112355724,0.0016263071466941,-0.0012915785644431,0.0012915626249029,-0.0012915604976783,0.0012915806084276,0.69236328727685,131329,3014,0.0043454603148975,0.0058694289264093,0.0058694289264127,26.920585452172,-2.463531638262e-05,-2.463531638262e-05,-2.463531638262e-05,3464827.663415,0.016215782038518
31019200,0.99691867882448,0.016460705659438,0.0046754378726385,0.0058926338934119,0.0058926338933873,-0.0010450808311169,0.001045081300105,-9.1565696867285e-09,9.6121727607202e-09,-2.200497759951e-09,2.7874838212238e-09,-0.0012256992316907,0.0012256917712371,-0.0012256929870271,0.0012256980437974,-0.0012256976202315,0.001225693426583,-0.0012256913599314,0.0012256996923944,-0.0011260551401227,0.0011260388759811,-0.0011260367679571,0.0011260572557476,1.9361277580576e-09,-2.6684308466002e-09,1.9124565124033e-09,-2.5338130137911e-09,-0.0014139923258328,0.0014139917003423,-0.0016272979554714,0.0016273003207897,-0.0016272994040473,0.0016272988400642,-0.0016272994165972,0.0016272987999739,-0.0016273008580382,0.0016272973207077,-0.0014299597240263,0.0014299619244963,-0.0014299640054394,0.0014299575007189,-0.0012924818239539,0.0012924841736493,-0.001292486263556,0.0012924795271986,9.5740967727391e-09,-8.9729254801094e-09,-0.001413991712487,0.00141399231369,-1.867341961779e-09,2.576234390396e-09,-0.0016272964786694,0.001627301742974,-0.0016272949933535,0.0016273032085453,-0.0016273026745513,0.0016272955808683,-0.0016273011853647,0.0016272970511565,-0.0012924910027208,0.0012924749294504,-0.0012924728020411,0.0012924930469386,0.71215832671254,131329,3014,0.0043488227719848,0.0058732728458816,0.0058732728458867,27.317449203111,-2.1460406375111e-05,-2.1460406375111e-05,-2.1460406375111e-05,3466518.8267228,0.016227013389237
31219200,0.99704733919795,0.016462922378802,0.0046760577196961,0.0058934323295653,0.0058934323295407,-0.0010461587577778,0.0010461592269022,-9.2188898557724e-09,9.674229807273e-09,-2.2372564129405e-09,2.8243201437818e-09,-0.0012268749254304,0.0012268673948859,-0.0012268686356098,0.001226873712384,-0.0012268732856529,0.0012268690785458,-0.0012268669870532,0.0012268753819228,-0.0011272151371057,0.0011271987810834,-0.0011271966517866,0.00112721728041,1.8069812381277e-09,-2.5303004468303e-09,1.9260504809873e-09,-2.5397640229297e-09,-0.0014152161515184,0.0014152155338384,-0.0016286010756099,0.001628603362335,-0.0016286025271304,0.0016286018772926,-0.0016286024425778,0.0016286019330024,-0.0016286038950649,0.0016286004431791,-0.0014312474739001,0.001431249792319,-0.0014312517783912,0.0014312453489775,-0.0012937102167274,0.0012937123130524,-0.0012937143982122,0.0012937079246552,9.6436976238338e-09,-9.041392475725e-09,-0.0014152155418286,0.0014152161436712,-1.8620228649208e-09,2.5724315171006e-09,-0.0016285995363115,0.001628604846613,-0.0016285980511145,0.00162860631207,-0.0016286057736262,0.001628598641285,-0.0016286042913526,0.0016286001037642,-0.0012937193370769,0.0012937031227696,-0.0012937009982212,0.0012937213837174,0.74546030218606,131329,3014,0.0043533026166036,0.0058783397705334,0.0058783397708297,27.866984916899,-1.7064120664808e-05,-1.7064120664808e-05,-1.7064120664808e-05,3467718.201486,0.016241867373718
31419200,0.99717469397747,0.016465014455593,0.0046766379146067,0.0058941882705059,0.0058941882704805,-0.0010472478323805,0.0010472483034488,-9.2822225159443e-09,9.7398941818597e-09,-2.2284105990564e-09,2.8176562339479e-09,-0.0012281130694998,0.0012281055041318,-0.0012281067373425,0.001228111864115,-0.0012281114356076,0.0012281071821191,-0.0012281050937838,0.0012281135292954,-0.0011283933561994,0.0011283768752729,-0.0011283747444635,0.0011283954949686,1.7426550768576e-09,-2.4602301616279e-09,1.9340298368962e-09,-2.5425895250858e-09,-0.0014164677967837,0.0014164671842694,-0.0016299606652036,0.0016299629172742,-0.0016299621209442,0.0016299614291579,-0.0016299619903984,0.001629961533095,-0.0016299634450501,0.0016299600405248,-0.0014325808263931,0.0014325832111448,-0.0014325851451569,0.0014325787499569,-0.0012949897587261,0.00129499172666,-0.0012949938139725,0.0012949874666779,9.7099488386693e-09,-9.1086364614674e-09,-0.0014164671899274,0.0014164677911344,-1.861782935427e-09,2.5708242708185e-09,-0.0016299590863231,0.0016299644418555,-0.0016299576018122,0.0016299659065214,-0.0016299653695005,0.0016299581920516,-0.0016299638875001,0.0016299596558478,-0.0012949988858881,0.0012949825349387,-0.0012949804108805,0.001295000926567,0.71242630738073,131329,3014,0.004357831978644,0.0058835209055509,0.0058835209055702,28.435086496004,-1.2519308031965e-05,-1.2519308031965e-05,-1.2519308031965e-05,3466488.8335931,0.0162570058299
31619200,0.99730055716197,0.016466985078677,0.0046771800348725,0.005894902521915,0.0058949025218896,-0.0010483318046054,0.001048332270708,-9.353726731422e-09,9.8064913654202e-09,-2.1315208119729e-09,2.7149049616347e-09,-0.0012293065928679,0.0012292990461081,-0.0012293002168111,0.0012293054500034,-0.0012293050282539,0.0012293006543084,-0.0012292986382215,0.0012293070497675,-0.0011295546569229,0.0011295379624755,-0.0011295359038479,0.0011295567235753,1.7907117056188e-09,-2.5102786566256e-09,1.9283094988058e-09,-2.5384327283711e-09,-0.001417710315886,0.0014177097017612,-0.001631285120361,0.0016312874038263,-0.001631286574934,0.0016312859169454,-0.0016312864818085,0.0016312859831649,-0.0016312879309185,0.0016312844961636,-0.0014338748535767,0.0014338771873276,-0.0014338791566281,0.0014338727420595,-0.0012962335274559,0.0012962355885428,-0.0012962376738484,0.0012962312367676,9.7723670282483e-09,-9.1706346618178e-09,-0.0014177097079861,0.0014177103096703,-1.8698314449623e-09,2.5793371713729e-09,-0.0016312835380708,0.0016312889320763,-0.0016312820498782,0.001631290399953,-0.0016312898645706,0.0016312826384385,-0.0016312883748369,0.0016312841100975,-0.0012962427557293,0.0012962262952406,-0.0012962241653686,0.0012962448027022,0.6805776756045,131329,3014,0.0043623372963787,0.0058886648739989,0.0058886648740193,29.003672389939,-7.9706208804854e-06,-7.9706208804854e-06,-7.9706208804854e-06,3469232.6929615,0.0162720424707
31819200,0.99742261661039,0.016468829632106,0.0046776842974162,0.0058955726673575,0.005895572667332,-0.0010488698003347,0.0010488702685762,-9.4193771384941e-09,9.874238994012e-09,-2.1767748829039e-09,2.7627569462011e-09,-0.0012298947840057,0.0012298871641023,-0.0012298883640449,0.0012298936118993,-0.0012298931887434,0.0012298888031304,-0.0012298867536785,0.0012298952436322,-0.0011301341237101,0.0011301173293471,-0.0011301152384456,0.0011301362227548,1.8769324598509e-09,-2.6039424499338e-09,1.9182489216192e-09,-2.5349320049264e-09,-0.0014183549150055,0.0014183542942311,-0.0016319800146194,0.0016319823464751,-0.0016319814652723,0.0016319808635355,-0.0016319814352761,0.001631980866121,-0.0016319828794197,0.0016319793841606,-0.0014345326679183,0.0014345349204055,-0.0014345369562227,0.0014345304901964,-0.001296851689551,0.0012968539220941,-0.0012968560093695,0.0012968493959274,9.8366524513727e-09,-9.2352459001065e-09,-0.001418354303946,0.0014183549053031,-1.8674769058624e-09,2.5765965711552e-09,-0.0016319784338952,0.0016319838728759,-0.0016319769480517,0.0016319853385489,-0.0016319848040613,0.0016319775358139,-0.0016319833153487,0.0016319790060849,-0.0012968610666132,0.0012968444794161,-0.0012968423517932,0.0012968631117033,0.65805653836036,131329,3014,0.0043645729876706,0.0058913335130345,0.0058913335130615,29.265869489309,-5.8730440855275e-06,-5.8730440855275e-06,-5.8730440855275e-06,3472186.9289805,0.016279739197725
32019200,0.99753926530402,0.016470761046583,0.0046782206142555,0.0058962702161764,0.0058962702161509,-0.0010489791886061,0.0010489796615502,-9.4861385035685e-09,9.9455528155413e-09,-2.2754894754173e-09,2.8670748455962e-09,-0.0012299998284055,0.0012299921014523,-0.0012299933645026,0.0012299985931696,-0.0012299981676333,0.0012299938064219,-0.0012299916844718,0.0012300002951026,-0.0011302630299692,0.0011302461669439,-0.0011302440033376,0.0011302652014258,2.0246885326759e-09,-2.7653265456391e-09,1.9012371375399e-09,-2.5299520650362e-09,-0.0014185262183704,0.0014185255853753,-0.0016321702932584,0.0016321727102427,-0.0016321717387202,0.0016321712325491,-0.001632171818149,0.0016321711250831,-0.0016321732529663,0.0016321696526169,-0.0014346982346459,0.0014347003444862,-0.0014347024952267,0.0014346959422156,-0.0012969827204985,0.0012969852447808,-0.001296987336966,0.0012969804203315,9.8983168843313e-09,-9.2976797464424e-09,-0.0014185256015661,0.0014185262021865,-1.8607260083918e-09,2.5689174862165e-09,-0.001632168731062,0.0016321742176749,-0.0016321672521952,0.0016321756765232,-0.001632175144966,0.0016321678374199,-0.0016321736587741,0.0016321693047915,-0.0012969923036026,0.0012969755952234,-0.0012969734730681,0.0012969943427786,0.71766339585114,131329,3014,0.0043650268099007,0.0058920428834227,0.0058920428834381,29.280999670235,-5.7520026381206e-06,-5.7520026381206e-06,-5.7520026381206e-06,3474412.1172649,0.016281640961559
32219200,0.99765070047617,0.01647264830302,0.0046787462660904,0.0058969510184777,0.0058969510184521,-0.0010490625003105,0.0010490629775878,-9.5514403679355e-09,1.0015178432644e-08,-2.3732958330885e-09,2.970279180304e-09,-0.0012301554384861,0.0012301476049761,-0.0012301489307743,0.001230154140493,-0.0012301537122801,0.001230149375776,-0.0012301471829508,0.0012301559105638,-0.001130385354725,0.0011303684268545,-0.001130366192849,0.0011303875968629,2.1436919675376e-09,-2.8954556830223e-09,1.8863436981723e-09,-2.5250625211775e-09,-0.0014186863292793,0.0014186856862437,-0.0016323900003001,0.0016323924849159,-0.0016323914403553,0.0016323910126742,-0.0016323916089285,0.0016323908152667,-0.001632393036004,0.0016323893504722,-0.0014348975499513,0.0014348995441958,-0.0014349017882517,0.0014348951642797,-0.0012971520679951,0.0012971548300468,-0.0012971569252132,0.0012971497636994,9.9615876680994e-09,-9.3616612834974e-09,-0.0014186857078186,0.001418686307712,-1.853352795609e-09,2.56081768266e-09,-0.001632388447792,0.0016323939824032,-0.0016323869751787,0.0016323954348628,-0.0016323949051897,0.0016323875584819,-0.0016323934230142,0.0016323890217879,-0.0012971618333336,0.001297144997848,-0.0012971428816557,0.0012971638668971,0.73340852785188,131329,3014,0.0043653776058079,0.0058927045663307,0.0058927045663477,29.290213767666,-5.6782898586727e-06,-5.6782898586727e-06,-5.6782898586727e-06,3470264.6370259,0.016283344511616
32419200,0.99775715050201,0.016474496756764,0.0046792629799511,0.0058976168884192,0.0058976168883936,-0.0010491353587689,0.0010491358408978,-9.612815145684e-09,1.0081324330285e-08,-2.4788969744578e-09,3.0817447389313e-09,-0.0012303220581009,0.0012303141131221,-0.0012303155066785,0.0012303206923689,-0.0012303202584071,0.001230315957836,-0.0012303136878383,0.001230322533883,-0.0011305023523572,0.0011304853804771,-0.0011304830693409,0.0011305046715516,2.2205575207619e-09,-2.9801652915218e-09,1.8755129407522e-09,-2.5212931781751e-09,-0.0014188380007197,0.0014188373505684,-0.0016326110847206,0.0016326136094325,-0.0016326125186947,0.0016326121433038,-0.0016326127451178,0.0016326118876558,-0.0016326141686607,0.0016326104264695,-0.0014350982954241,0.0014351002184837,-0.0014351025231699,0.0014350958491598,-0.0012973286412714,0.0012973315624834,-0.0012973336598397,0.001297326334008,1.0028516466647e-08,-9.4293306957727e-09,-0.0014188373760731,0.001418837975222,-1.8445966080751e-09,2.5512367860851e-09,-0.0016326095275792,0.001632615111276,-0.0016326080598949,0.0016326165589011,-0.001632616028799,0.0016326086438218,-0.0016326145539455,0.0016326100996343,-0.0012973385574394,0.0012973215793727,-0.0012973194696735,0.0012973405837023,0.75109426437831,131329,3014,0.0043656865025444,0.0058933308372019,0.0058933308372177,29.299209414173,-5.6063246866171e-06,-5.6063246866171e-06,-5.6063246866171e-06,3465026.7201058,0.016284934179786
32619200,0.99785857589877,0.016476123908785,0.0046797121109386,0.0058982058989361,0.0058982058989104,-0.0010491067515932,0.0010491072377131,-9.6671413518793e-09,1.0139717088897e-08,-2.5574213115932e-09,3.1651139497062e-09,-0.0012304114033605,0.0012304033674108,-0.0012304048109132,0.001230409987652,-0.0012304095464429,0.0012304052696827,-0.0012304029419631,0.0012304118798402,-0.0011305154315401,0.0011304984191375,-0.0011304960491843,0.0011305178086631,2.2762693916425e-09,-3.0412125723082e-09,1.8659681057052e-09,-2.5165249494991e-09,-0.001418885161915,0.0014188845069658,-0.0016327403162009,0.0016327428670198,-0.0016327417419735,0.0016327414094826,-0.001632742012467,0.0016327411100313,-0.0016327434344603,0.0016327396501985,-0.0014351971305188,0.0014351990078002,-0.0014352013558856,0.0014351946404708,-0.0012974124221674,0.0012974154691368,-0.001297417567728,0.001297410113988,1.0102785475721e-08,-9.5044810525103e-09,-0.0014188845352459,0.0014188851336123,-1.8366455917673e-09,2.5422124920946e-09,-0.0016327387465175,0.0016327443814934,-0.0016327372808131,0.0016327458269997,-0.0016327452943418,0.0016327378678236,-0.0016327438287043,0.0016327393148984,-0.0012974224842723,0.0012974053416262,-0.0012974032374768,0.0012974245024452,0.69653887283771,131329,3014,0.0043655757876018,0.0058935237847021,0.0058935237846568,29.262896544244,-5.8968276460493e-06,-5.8968276460493e-06,-5.8968276460493e-06,3458282.3591765,0.016285217395428
32819200,0.99795510177638,0.016477550958769,0.0046801007447336,0.0058987251070303,0.0058987251070048,-0.0010490432140335,0.0010490437011514,-9.741621132279e-09,1.0215068296852e-08,-2.59472428766e-09,3.2037043330906e-09,-0.0012303909290689,0.0012303828219359,-0.0012303842897606,0.001230389488997,-0.0012303890501581,0.0012303847462985,-0.0012303823923563,0.0012303914096493,-0.0011304705491187,0.0011304534055734,-0.0011304510099932,0.0011304729527396,2.3133198813474e-09,-3.0821388990995e-09,1.8576655304232e-09,-2.5117253211407e-09,-0.0014188721463889,0.0014188714879052,-0.0016327669405096,0.0016327695128065,-0.0016327683651798,0.001632768056089,-0.0016327686656527,0.001632767725956,-0.0016327700802908,0.0016327662736857,-0.0014351907690666,0.0014351925930137,-0.0014351949709334,0.0014351882497709,-0.0012973915943448,0.0012973947090516,-0.0012973968056664,0.0012973892869477,1.015879615328e-08,-9.560909231727e-09,-0.0014188715182185,0.0014188721160787,-1.8300220747583e-09,2.5351970372649e-09,-0.0016327653591624,0.0016327710386692,-0.001632763901417,0.001632772476272,-0.0016327719473021,0.0016327644844002,-0.0016327704829112,0.0016327659298234,-0.0012974017416597,0.0012973844946786,-0.0012973823962301,0.0012974037559739,0.64446136326877,131329,3014,0.0043653150342281,0.005893468847715,0.0058934688477225,29.204419839314,-6.3646412854866e-06,-6.3646412854866e-06,-6.3646412854866e-06,3457053.1320551,0.01628484103722
33019200,0.99804697564308,0.016479022612721,0.0046805075885531,0.0058992575120968,0.0058992575120712,-0.0010490024564447,0.0010490029443503,-9.8052159469128e-09,1.0279430115701e-08,-2.6116908939889e-09,3.2216657405584e-09,-0.0012303108221329,0.0012303026609428,-0.0012303041395948,0.0012303093712028,-0.0012303089310752,0.0012303045975646,-0.0012303022312463,0.001230311302922,-0.0011304290595027,0.0011304118048735,-0.0011304093969182,0.0011304314753744,2.3286296967134e-09,-3.0997841833129e-09,1.8510033543948e-09,-2.5071763740098e-09,-0.0014188592641387,0.0014188586035206,-0.0016327474062002,0.0016327499829781,-0.0016327488264959,0.0016327485306392,-0.0016327491415579,0.0016327481857686,-0.0016327505531624,0.0016327467365717,-0.0014351497013649,0.0014351515031471,-0.0014351538941794,0.0014351471691659,-0.0012973311113023,0.0012973342617838,-0.0012973363567821,0.001297328805244,1.0225671764453e-08,-9.628313823563e-09,-0.0014188586351875,0.0014188592324782,-1.8247032785674e-09,2.5292731912343e-09,-0.001632745803364,0.0016327515302688,-0.0016327443487065,0.0016327529647703,-0.0016327524357316,0.0016327449317675,-0.0016327509757615,0.0016327463727841,-0.0012973413454792,0.0012973239605571,-0.00129732186633,0.0012973433554338,0.695241361256,131329,3014,0.0043651432952719,0.0058934160572516,0.0058934160572663,29.145406842208,-6.8367452623323e-06,-6.8367452623323e-06,-6.8367452623323e-06,3460844.3208629,0.016284556410279
33219200,0.99813443467894,0.016480495324007,0.0046809178899062,0.0058997887170632,0.0058997887170376,-0.0010489548475778,0.0010489553352392,-9.8703447981535e-09,1.0344313172039e-08,-2.6120405377193e-09,3.2217709239921e-09,-0.001230289227751,0.0012302810225445,-0.0012302825016072,0.0012302877764132,-0.0012302873362576,0.0012302829595742,-0.0012302805933511,0.0012302897080334,-0.0011303992858947,0.0011303819047509,-0.0011303794969437,0.0011304017017648,2.3296341042788e-09,-3.1009436948465e-09,1.8461893066417e-09,-2.5025156096784e-09,-0.0014188527723391,0.0014188521115563,-0.0016327700172176,0.0016327725911054,-0.0016327714341187,0.001632771142195,-0.0016327717530244,0.0016327707934664,-0.0016327731617622,0.00163276934717,-0.0014351550079312,0.0014351568003329,-0.0014351591922584,0.0014351524747869,-0.0012973172083152,0.001297320364715,-0.0012973224566914,0.0012973149052323,1.0291540334566e-08,-9.6946402633946e-09,-0.0014188521435174,0.0014188527403804,-1.820351068995e-09,2.5244398528306e-09,-0.0016327683897168,0.0016327741630863,-0.001632766937852,0.0016327755947772,-0.0016327750658812,0.0016327675208036,-0.0016327736092421,0.0016327689584851,-0.0012973275123166,0.0012973099935589,-0.0012973079028703,0.0012973295187252,0.72922791443518,131329,3014,0.0043649475726901,0.0058933886253901,0.0058933886253964,29.086374006618,-7.3090079470571e-06,-7.3090079470571e-06,-7.3090079470571e-06,3459056.0623488,0.016284302042179
33419200,0.99821905151111,0.016481947918464,0.0046813236913199,0.005900312113585,0.0059003121135593,-0.0010494039113926,0.0010494043931356,-9.9298684966865e-09,1.0397960513973e-08,-2.4899812807222e-09,3.0925937885591e-09,-0.0012308247326234,0.0012308165651439,-0.001230817966044,0.0012308233594806,-0.0012308229219693,0.0012308184208333,-0.0012308161441159,0.001230825204356,-0.0011308951326333,0.0011308775595161,-0.0011308752411067,0.0011308974586465,2.2694125765539e-09,-3.0334470300512e-09,1.8507837473288e-09,-2.5005403279333e-09,-0.0014193860163998,0.0014193853623141,-0.0016333652947343,0.0016333678311358,-0.0016333667097506,0.0016333663841699,-0.0016333669858255,0.0016333660788342,-0.0016333683980628,0.0016333646290401,-0.0014357350101644,0.0014357368628451,-0.0014357392053352,0.0014357325258324,-0.0012978723264271,0.0012978753712876,-0.001297877458005,0.001297870029354,1.036630410182e-08,-9.7691741334361e-09,-0.0014193853907819,0.0014193859879246,-1.824095985208e-09,2.5284724355792e-09,-0.0016333636262273,0.0016333694442895,-0.0016333621690698,0.0016333708814412,-0.0016333703495475,0.0016333627550577,-0.0016333688929712,0.0016333641927336,-0.0012978826507795,0.0012978649799665,-0.0012978628864986,0.001297884659671,0.74278653260776,131329,3014,0.0043668167564079,0.0058955955110333,0.0058955955110195,29.311910393886,-5.5047168489155e-06,-5.5047168489155e-06,-5.5047168489155e-06,3457352.255209,0.016290689899456
33619200,0.99830121837763,0.016483358905753,0.0046817177434499,0.0059008205811642,0.0059008205811386,-0.0010499803053175,0.0010499807838926,-1.0013383893407e-08,1.047830426188e-08,-2.4256634264121e-09,3.0243699440448e-09,-0.0012315119361217,0.0012315037589835,-0.0012315051192781,0.0012315106035681,-0.0012315101735506,0.0012315055663115,-0.0012315033363912,0.0012315124090027,-0.001131526861674,0.0011315090668554,-0.0011315067959859,0.0011315291410619,2.1048363194827e-09,-2.8544423793292e-09,1.8645214488757e-09,-2.50149602287e-09,-0.0014200626058326,0.0014200619645982,-0.0016341173584194,0.0016341198017793,-0.0016341187828814,0.0016341183450868,-0.0016341189389969,0.0016341181601154,-0.001634120351781,0.0016341167098798,-0.0014364669988036,0.0014364689789268,-0.0014364711939918,0.0014364646424746,-0.0012985818402862,0.0012985845413566,-0.0012985866196304,0.0012985795529339,1.0415934240829e-08,-9.8182226240383e-09,-0.0014200619864112,0.0014200625840402,-1.8268770440427e-09,2.5319140564988e-09,-0.0016341156256384,0.0016341214793516,-0.0016341141712324,0.0016341229140311,-0.0016341223860173,0.0016341147527912,-0.0016341209228785,0.0016341161968301,-0.0012985920323293,0.0012985742821033,-0.0012985721864516,0.0012985940447006,0.74303042875341,131329,3014,0.004369215913787,0.0058983955871765,0.0058983955872206,29.613691439158,-3.0904684867353e-06,-3.0904684867353e-06,-3.0904684867353e-06,3455530.1118827,0.016298822881885
33819200,0.99838094556746,0.016484732155582,0.004682101320787,0.0059013154174103,0.0059013154173845,-0.0010505508264013,0.0010505512995413,-1.0078220180939e-08,1.0537876056238e-08,-2.3038818206389e-09,2.8960407657072e-09,-0.001232197479495,0.0012321893382908,-0.0012321906203903,0.0012321962251504,-0.0012321957992174,0.0012321910627597,-0.0012321889216801,0.0012321979458739,-0.0011321547911164,0.00113213678972,-0.0011321346070606,0.0011321569818089,2.0113481094796e-09,-2.751211793927e-09,1.8743087713907e-09,-2.5025105625401e-09,-0.0014207352526172,0.0014207346202365,-0.0016348660561356,0.0016348684463062,-0.0016348674831585,0.0016348669871837,-0.0016348675716283,0.0016348668706055,-0.0016348689888738,0.0016348654157877,-0.0014371933584904,0.0014371954268123,-0.0014371975677481,0.001437191075977,-0.0012992872397512,0.0012992897572403,-0.0012992918309426,0.0012992849585604,1.0485160928354e-08,-9.887011727402e-09,-0.0014207346373777,0.0014207352354774,-1.8330546534092e-09,2.5385340948495e-09,-0.0016348642762488,0.0016348701715175,-0.0016348628163213,0.0016348716113711,-0.0016348710818793,0.0016348633994496,-0.0016348696156291,0.0016348648470524,-0.0012992974079034,0.0012992795235916,-0.001299277422877,0.0012992994245532,0.74517769556527,131329,3014,0.0043715910256278,0.0059011791107862,0.0059011791107907,29.917357530669,-6.6113975464917e-07,-6.6113975464917e-07,-6.6113975464917e-07,3454028.3514682,0.016306897716526
34019200,0.9984582374228,0.016486024257708,0.0046824604694782,0.0059017818941278,0.005901781894102,-0.0010511122085674,0.0010511126770076,-1.0143113927773e-08,1.0598164569288e-08,-2.197930165448e-09,2.7843739888153e-09,-0.0012328770335732,0.0012328689179021,-0.0012328701321071,0.0012328758471369,-0.001232875424876,0.0012328705703406,-0.0012328685062908,0.0012328774945142,-0.0011327726639304,0.0011327544646212,-0.0011327523592825,0.0011327747773866,1.9223712377144e-09,-2.6532081478711e-09,1.8840443790693e-09,-2.5041523882629e-09,-0.00142139935232,0.0014213987280972,-0.0016356074055683,0.0016356097444754,-0.0016356088357183,0.0016356082821951,-0.0016356088581849,0.001635608232073,-0.0016356102798374,0.0016356067728213,-0.0014379088600068,0.0014379110118483,-0.001437913082296,0.0014379066480088,-0.0012999842123323,0.0012999865521654,-0.0012999886215764,0.0012999819362551,1.0554046142547e-08,-9.9553948261688e-09,-0.0014213987408942,0.0014213993395246,-1.8392296738842e-09,2.5452750592117e-09,-0.0016356055795006,0.0016356115160863,-0.0016356041146683,0.0016356129609308,-0.0016356124301668,0.0016356046988844,-0.0016356109602546,0.0016356061501647,-0.0012999943574569,0.0012999763416446,-0.0012999742364861,0.0012999963792825,0.72426545595599,131329,3014,0.0043739283458696,0.0059039271309774,0.0059039271309821,30.22109364611,1.768749168878e-06,1.768749168878e-06,1.768749168878e-06,3452692.9286152,0.01631486198013
34219200,0.99853439455236,0.016487263625161,0.0046828034949657,0.0059022300651107,0.0059022300650849,-0.0010522265296725,0.0010522269912524,-1.0206263884232e-08,1.0654500530205e-08,-2.0494103616849e-09,2.6274902038602e-09,-0.0012340938964507,0.0012340858351338,-0.0012340869543213,0.001234092805018,-0.0012340923882595,0.0012340873864058,-0.0012340854306411,0.0012340943495753,-0.0011339585977237,0.0011339401747783,-0.0011339381782709,0.0011339606028428,1.8043965178467e-09,-2.523085969757e-09,1.9013142974429e-09,-2.5105271244245e-09,-0.0014226499130867,0.0014226492998848,-0.0016369252150549,0.0016369274891858,-0.0016369266522242,0.0016369260197203,-0.0016369265843149,0.0016369260604869,-0.0016369280146919,0.0016369245925157,-0.0014392062861523,0.0014392085565709,-0.0014392105333424,0.0014392041680014,-0.0013012481538413,0.0013012502550668,-0.0013012523212523,0.0013012458820341,1.0625939214263e-08,-1.00262329967e-08,-0.0014226493066625,0.0014226499063258,-1.8496168897384e-09,2.5568729975203e-09,-0.0016369233365214,0.0016369293134958,-0.0016369218636525,0.0016369307665125,-0.0016369302338033,0.0016369224494883,-0.0016369287573483,0.001636923907179,-0.0013012582461997,0.0013012400971444,-0.0013012379840135,0.0013012602770006,0.70594349130047,131329,3014,0.0043785591107509,0.0059091042649306,0.0059091042649669,30.83270052603,6.6616042082427e-06,6.6616042082427e-06,6.6616042082427e-06,3456673.3509802,0.016330093857591
34419200,0.99860942172456,0.016488489553194,0.0046831429262943,0.0059026733134629,0.0059026733134371,-0.0010534038168782,0.0010534042751357,-1.0281793405563e-08,1.072683065104e-08,-1.96612685788e-09,2.5400816961301e-09,-0.0012353511658552,0.0012353431097393,-0.0012353441754558,0.0012353501279162,-0.0012353497152203,0.0012353446031204,-0.0012353427072369,0.001235351616689,-0.0011352025301485,0.0011351838997252,-0.00113518196298,0.0011352044750707,1.6924431647531e-09,-2.4004061378799e-09,1.9164774089022e-09,-2.5161111519153e-09,-0.0014239640386099,0.0014239634350603,-0.0016382951110403,0.0016382973241685,-0.0016382965561753,0.0016382958468264,-0.001638296403289,0.0016382959733267,-0.0016382978393966,0.0016382944994827,-0.001440553741147,0.0014405561175246,-0.0014405580060397,0.0014405517109147,-0.0013025579058022,0.0013025597762176,-0.0013025618401426,0.0013025556376546,1.0683610061458e-08,-1.0082995581583e-08,-0.0014239634365414,0.0014239640371331,-1.8609663439321e-09,2.5692088977259e-09,-0.0016382931861205,0.0016382991951684,-0.0016382917064351,0.0016383006551254,-0.0016383001224991,0.0016382922921301,-0.0016382986371167,0.0016382937589015,-0.001302567933582,0.0013025496839814,-0.0013025475619691,0.0013025699729293,0.70867958921076,131329,3014,0.0043834495563929,0.0059145450576819,0.0059145450576921,31.476542399288,1.1812339194303e-05,1.1812339194303e-05,1.1812339194303e-05,3462813.090407,0.016346124876516
34619200,0.99868318331539,0.016489743801008,0.0046834922260438,0.0059031257874953,0.0059031257874694,-0.001054583634644,0.0010545840892622,-1.0339168273036e-08,1.0780626622139e-08,-1.8814149583586e-09,2.4509051704118e-09,-0.001236611642661,0.00123660360275,-0.001236604614075,0.0012366106591286,-0.0012366102485737,0.0012366050391962,-0.0012366032047552,0.0012366120885985,-0.0011364512928613,0.0011364324958655,-0.0011364306204356,0.0011364531763401,1.6442745913068e-09,-2.3466211819403e-09,1.9300287016217e-09,-2.5246001657298e-09,-0.001425283181786,0.0014252825833823,-0.0016396706850492,0.0016396728758183,-0.0016396721362839,0.0016396713922922,-0.0016396719425998,0.001639671559889,-0.0016396733872264,0.0016396700775011,-0.0014419098727756,0.0014419123131417,-0.0014419141626679,0.0014419078812108,-0.0013038737249103,0.0013038754968883,-0.0013038775631866,0.001303871455055,1.0759533179706e-08,-1.0158080726901e-08,-0.0014252825818728,0.0014252831832997,-1.8698031727083e-09,2.5789877645176e-09,-0.0016396687270694,0.0016396747800377,-0.0016396672399621,0.0016396762473739,-0.001639675712692,0.0016396678275935,-0.0016396742223213,0.001639669299398,-0.0013038837759591,0.0013038653817393,-0.0013038632527957,0.0013038858224137,0.73613739133538,131329,3014,0.0043883506427161,0.005920006573777,0.0059200065737874,32.121241046812,1.69699283745e-05,1.69699283745e-05,1.69699283745e-05,3468527.6183741,0.016362209255949
34819200,0.9987566792125,0.016491004432421,0.0046838434808578,0.0059035804757947,0.0059035804757689,-0.0010562654434296,0.0010562658956607,-1.0416689161591e-08,1.0855935950609e-08,-1.8181065242702e-09,2.3847426374553e-09,-0.0012384240335303,0.0012384159835422,-0.0012384169544177,0.001238423090408,-0.0012384226826547,0.0012384173765102,-0.0012384155873582,0.0012384244773322,-0.0011382336147204,0.0011382146207895,-0.001138212790675,0.0011382354517727,1.5438949515205e-09,-2.2373823332445e-09,1.9456648589488e-09,-2.5325077889083e-09,-0.0014271529595445,0.0014271523691221,-0.0016416236905061,0.0016416258272252,-0.0016416251499896,0.0016416243352768,-0.0016416248783014,0.0016416245812648,-0.0016416263302063,0.0016416230914289,-0.0014438483236868,0.0014438508633368,-0.0014438526344335,0.0014438464092316,-0.0013057603136362,0.0013057618774609,-0.0013057639431391,0.0013057580443809,1.0814866437548e-08,-1.0212205182495e-08,-0.0014271523630713,0.0014271529656,-1.8838616404083e-09,2.5945903281641e-09,-0.0016416216916067,0.0016416277724124,-0.0016416201952296,0.0016416292492586,-0.0016416287139029,0.0016416207831038,-0.0016416272131733,0.0016416222652746,-0.0013057703079179,0.0013057518185953,-0.0013057496796357,0.0013057723654069,0.74236047758354,131329,3014,0.0043953382263903,0.0059277475376535,0.0059277475376651,33.051996877477,2.441597501982e-05,2.441597501982e-05,2.441597501982e-05,3474466.6152425,0.016385050117148
35019200,0.99883006207024,0.016492225593259,0.0046841817724149,0.0059040219104352,0.0059040219104093,-0.0010581177413146,0.001058118188883,-1.0446118627952e-08,1.0880800183082e-08,-1.7093510390873e-09,2.2703295988127e-09,-0.0012404281965804,0.0012404201972545,-0.0012404210979891,0.0012404273236011,-0.0012404269184935,0.0012404215169011,-0.0012404198069597,0.0012404286339485,-0.0011401971909256,0.0011401780694219,-0.0011401763185804,0.00114019894908,1.5560907636177e-09,-2.248667639306e-09,1.9633828274766e-09,-2.5491459795018e-09,-0.0014292133667305,0.0014292127772773,-0.0016437794718497,0.0016437816278944,-0.0016437809411135,0.0016437801260658,-0.0016437806665782,0.0016437803748721,-0.0016437821315742,0.0016437788719726,-0.0014459838535151,0.0014459864244661,-0.0014459882031441,0.0014459819325336,-0.0013078405181842,0.0013078420996642,-0.0013078441759301,0.0013078382384761,1.0919076361006e-08,-1.0315712771879e-08,-0.0014292127703563,0.0014292133736558,-1.8911912190535e-09,2.6026016317184e-09,-0.0016437774507519,0.0016437835953989,-0.001643775947558,0.0016437850788509,-0.0016437845410041,0.0016437765379122,-0.001643783036744,0.0016437780234816,-0.0013078506225501,0.0013078319307988,-0.0013078297862716,0.00130785268625,0.7213648861383,131329,3014,0.0044030346589391,0.005936277408429,0.0059362774084394,34.084078891859,3.2672631134869e-05,3.2672631134869e-05,3.2672631134869e-05,3481042.3143533,0.016410216250242
35219200,0.99890305128427,0.016493406084133,0.0046845070098618,0.0059044495371485,0.0059044495371226,-0.0010599729482037,0.0010599733925798,-1.0461162267144e-08,1.0892538569894e-08,-1.631425576245e-09,2.1883453714334e-09,-0.0012424112254841,0.0012424032649238,-0.0012424041157074,0.0012424104024977,-0.0012424099980884,0.0012424045335159,-0.0012424028794819,0.0012424116576889,-0.0011421592209186,0.0011421400217177,-0.001142138327998,0.0011421609225423,1.6176312747727e-09,-2.3135165206363e-09,1.9781161315148e-09,-2.5666103136127e-09,-0.0014312742834623,0.0014312736912784,-0.0016459225308007,0.0016459247334448,-0.0016459240087771,0.0016459232230895,-0.0016459237642047,0.0016459234418742,-0.0016459252417317,0.0016459219262115,-0.0014481045462535,0.0014481071103629,-0.0014481089335449,0.0014481025810312,-0.0013099029313692,0.0013099046278906,-0.0013099067178882,0.0013099006379946,1.1037098084465e-08,-1.0433132383144e-08,-0.0014312736853951,0.0014312742893515,-1.895000213956e-09,2.6070117442866e-09,-0.0016459204962849,0.0016459267142983,-0.0016459189883574,0.0016459282026774,-0.0016459276622445,0.0016459195814919,-0.0016459261569383,0.0016459210676205,-0.0013099132089132,0.0013098942855924,-0.001309892137513,0.0013099152766395,0.70214229599963,131329,3014,0.0044107416137186,0.0059448096518734,0.0059448096518871,35.118645835083,4.0949166680661e-05,4.0949166680661e-05,4.0949166680661e-05,3489636.6233215,0.016435397353459
35419200,0.99897450347804,0.016494526042008,0.0046848136745043,0.0059048561837646,0.0059048561837387,-0.0010614315019109,0.0010614319484865,-1.0485012993344e-08,1.0918785335603e-08,-1.6718452693923e-09,2.231619829899e-09,-0.0012439599222195,0.0012439519170847,-0.0012439527947095,0.0012439590723109,-0.0012439586656552,0.0012439532150113,-0.0012439515301429,0.0012439603560339,-0.001143701187586,0.0011436819699417,-0.0011436802455891,0.001143702917921,1.7580622127638e-09,-2.465385072546e-09,1.9790456130885e-09,-2.5775390166387e-09,-0.001432905263604,0.0014329046612437,-0.0016476163311561,0.0016476186221617,-0.0016476178127854,0.0016476171084583,-0.0016476176589377,0.0016476172357264,-0.0016476191405219,0.0016476157156612,-0.0014497721417937,0.0014497746128348,-0.0014497765419249,0.0014497700698913,-0.0013115175605811,0.0013115195288497,-0.0013115216316551,0.0013115152513721,1.1143236917232e-08,-1.05392301744e-08,-0.001432904660462,0.0014329052643805,-1.8944122820052e-09,2.6064360636086e-09,-0.0016476143060368,0.0016476205932369,-0.0016476127982733,0.0016476220818905,-0.0016476215410649,0.0016476133918259,-0.001647620036011,0.0016476148768665,-0.0013115280780504,0.001311508945492,-0.0013115067993827,0.0013115301453369,0.68162297808484,131329,3014,0.0044168001503236,0.0059515619713724,0.0059515619713635,35.930669737231,4.744535789785e-05,4.744535789785e-05,4.744535789785e-05,3497690.5842743,0.016455283704085
35619200,0.99904361015495,0.016495568410418,0.0046850970036724,0.0059052357033857,0.0059052357033598,-0.0010625939836171,0.0010625944394038,-1.0568180842388e-08,1.1010962133194e-08,-1.8581742906392e-09,2.4288756415752e-09,-0.0012451708172801,0.001245162636063,-0.0012451636330897,0.00124516984799,-0.0012451694350488,0.0012451640604911,-0.0012451622381795,0.0012451712629035,-0.001144927695037,0.0011449084350081,-0.0011449065740257,0.00114492956268,1.8776670103747e-09,-2.597976791449e-09,1.9661790583322e-09,-2.5763990588098e-09,-0.0014342109058408,0.0014342102916524,-0.0016489624957168,0.0016489648549375,-0.0016489639751856,0.0016489633437957,-0.0016489639080093,0.0016489633837877,-0.0016489653823842,0.0016489618706187,-0.0014510941726322,0.001451096527783,-0.0014510985516374,0.0014510920056005,-0.0013127885666869,0.0013127907670534,-0.0013127928770136,0.0013127862496742,1.1186778976287e-08,-1.0582789812212e-08,-0.0014342102967854,0.0014342109007104,-1.8949624040817e-09,2.6069927976301e-09,-0.0016489604897104,0.0016489668065258,-0.0016489589840434,0.001648968293432,-0.0016489677550968,0.0016489595753657,-0.0016489662470798,0.0016489610629765,-0.0013127992383677,0.0013127800294683,-0.0013127778820051,0.0013128013057058,0.65729899511456,131329,3014,0.0044216274266244,0.0059569677153236,0.0059569677153306,36.57492673683,5.2599413894643e-05,5.2599413894643e-05,5.2599413894643e-05,3505729.5889545,0.016471179973964
35819200,0.99911025819639,0.016496636522546,0.0046853904612849,0.0059056230306436,0.0059056230306176,-0.0010637613275272,0.0010637617949095,-1.0691056461505e-08,1.1145196975e-08,-2.0961326031761e-09,2.6805899862865e-09,-0.0012463443892227,0.0012463359728044,-0.0012463371210888,0.0012463432686792,-0.0012463428464864,0.0012463375588379,-0.001246335562548,0.001246344848353,-0.0011461541875225,0.001146134845876,-0.0011461328106145,0.0011461562304836,1.9431106254637e-09,-2.6735445534903e-09,1.9504657337816e-09,-2.5700141963982e-09,-0.0014355126054421,0.001435511981794,-0.0016502817872851,0.0016502841791436,-0.0016502832610251,0.0016502826738576,-0.0016502832488048,0.0016502826586179,-0.0016502847143267,0.0016502811542706,-0.0014523990652911,0.001452401337832,-0.0014524034181246,0.0014523968420341,-0.0013140347771442,0.0013140371098564,-0.0013140392226469,0.0013140324578823,1.1189294317151e-08,-1.0585405954114e-08,-0.0014355119916665,0.0014355125955716,-1.8959014663057e-09,2.6078080759004e-09,-0.0016502797958886,0.0016502861158629,-0.0016502782911746,0.0016502876017899,-0.0016502870651429,0.0016502788811082,-0.0016502855552005,0.0016502803709518,-0.0013140455153067,0.0013140263067348,-0.0013140241569932,0.0013140475822475,0.6961923547226,131329,3014,0.0044264722971755,0.0059623578921898,0.0059623578921958,37.21513711072,5.7721096885761e-05,5.7721096885761e-05,5.7721096885761e-05,3515589.9008809,0.016487061346061
36019200,0.99917436182713,0.01649772523871,0.0046856921940809,0.0059060165223278,0.0059060165223018,-0.0010649215489604,0.0010649220232916,-1.0761320082176e-08,1.1222275795531e-08,-2.2483637045616e-09,2.8412425306969e-09,-0.0012475637383137,0.0012475551753987,-0.0012475564207159,0.0012475625206907,-0.0012475620915373,0.0012475568661669,-0.0012475547592569,0.0012475642039887,-0.0011473894658005,0.0011473700933305,-0.0011473679467588,0.001147391620084,2.0748453642481e-09,-2.8188680547034e-09,1.9383583324927e-09,-2.5700917882058e-09,-0.0014368189568713,0.0014368183209355,-0.001651635372461,0.0016516378407039,-0.0016516368416248,0.0016516363399465,-0.0016516369260833,0.0016516362273565,-0.0016516383882146,0.0016516347264266,-0.001453741819261,0.001453743976874,-0.0014537461621109,0.0014537394912249,-0.0013153189263043,0.0013153215248198,-0.0013153236459335,0.0013153165976533,1.1246588669318e-08,-1.064313822955e-08,-0.0014368183371868,0.0014368189406217,-1.8903469745799e-09,2.6017333877133e-09,-0.0016516333981823,0.001651639759919,-0.0016516318967378,0.0016516412424613,-0.0016516407058219,0.0016516324868433,-0.0016516392003876,0.0016516339722371,-0.0013153298567551,0.0013153105291767,-0.0013153083833538,0.0013153319189872,0.73586310232656,131329,3014,0.0044312913469482,0.0059677663254507,0.0059677663254561,37.8551970127,6.28415761016e-05,6.28415761016e-05,6.28415761016e-05,3521069.3540564,0.016502956392884
36219200,0.99923376294457,0.016498701866325,0.0046859611491181,0.0059063703586163,0.0059063703585902,-0.0010648657063576,0.0010648661932832,-1.0834789931899e-08,1.1308161272906e-08,-2.5236714842744e-09,3.1317762546205e-09,-0.0012475960502515,0.0012475872596759,-0.0012475886811676,0.0012475946565016,-0.0012475942172068,0.0012475891378483,-0.0012475868303489,0.0012475965302877,-0.0011473691941445,0.0011473498628542,-0.0011473475149178,0.0011473715499916,2.3017146257995e-09,-3.0682416749002e-09,1.9092621599444e-09,-2.5611820470104e-09,-0.0014368335091539,0.0014368328528323,-0.0016517139884728,0.0016517165847953,-0.0016517154465961,0.0016517150951598,-0.0016517157024048,0.0016517148100209,-0.0016517171504549,0.0016517133233714,-0.0014537928195383,0.001453794755995,-0.0014537971206646,0.0014537903120732,-0.001315348398694,0.0013153514539943,-0.0013153535824309,0.0013153460604685,1.129699183036e-08,-1.0695155906152e-08,-0.0014368328800776,0.001436833481914,-1.8732726907758e-09,2.5828357555524e-09,-0.0016517120545606,0.0016517184631067,-0.0016517105665708,0.001651719931971,-0.0016517193986464,0.0016517111538127,-0.0016517179036645,0.0016517126287332,-0.0013153596122346,0.0013153401744369,-0.0013153380417511,0.0013153616605893,0.71361055518926,131329,3014,0.00443106636322,0.0059678244308505,0.0059678244308633,37.827191747107,6.2617533976857e-05,6.2617533976857e-05,6.2617533976857e-05,3515835.6374277,0.016502848478522
36419200,0.99928795305897,0.016499580789339,0.0046862027692812,0.005906689010042,0.0059066890100159,-0.0010642659824946,0.001064266479761,-1.0890260352669e-08,1.1373766005432e-08,-2.7592657499136e-09,3.380011375502e-09,-0.0012470283831985,0.0012470194001842,-0.0012470209723787,0.001247026838732,-0.0012470263883291,0.0012470214411468,-0.0012470189629068,0.0012470288721455,-0.0011467815746183,0.0011467623012663,-0.00114675978224,0.0011467841017501,2.5434757124218e-09,-3.3260620885642e-09,1.8765479017525e-09,-2.5420212713763e-09,-0.0014362634038824,0.0014362627338259,-0.0016511715791831,0.0016511743103923,-0.0016511730184634,0.0016511728396057,-0.0016511734580427,0.0016511723694212,-0.0016511748905945,0.0016511708985008,-0.0014532352041823,0.0014532369137339,-0.0014532394594625,0.0014532325163664,-0.0013147763786623,0.0013147799339803,-0.0013147820585438,0.0013147740418403,1.1366323036575e-08,-1.0765909760553e-08,-0.0014362627686449,0.0014362633690658,-1.849123571603e-09,2.5570263666585e-09,-0.0016511696819772,0.0016511761514967,-0.0016511682088837,0.0016511776051094,-0.0016511770717374,0.0016511687965612,-0.0016511755950575,0.0016511702531712,-0.0013147879219837,0.0013147683234016,-0.0013147662085423,0.0013147899520963,0.70434020381699,131329,3014,0.0044285814646093,0.0059654621176303,0.0059654621176368,37.4962105206,5.9969684164798e-05,5.9969684164798e-05,5.9969684164798e-05,3509245.1452338,0.016495520587124
36619200,0.99933743220261,0.016500338412036,0.0046864090808597,0.0059069646656012,0.0059069646655751,-0.0010636559414954,0.0010636564452136,-1.0946802636458e-08,1.143669305476e-08,-2.9139456506665e-09,3.5427388194668e-09,-0.0012464271840884,0.0012464180601144,-0.0012464197317772,0.001246425540127,-0.0012464250822013,0.0012464202087011,-0.001246417618692,0.0012464276777845,-0.0011461761598569,0.0011461568862904,-0.0011461542553625,0.0011461787985987,2.7083559056742e-09,-3.5018514536838e-09,1.8478311729792e-09,-2.5225048442831e-09,-0.0014356718120731,0.0014356711326866,-0.0016505934516107,0.0016505962694782,-0.0016505948732137,0.001650594816392,-0.0016505954418047,0.0016505942161697,-0.0016505968600907,0.0016505927596995,-0.00145264715527,0.0014526486995667,-0.0014526513683808,0.0014526443446548,-0.0013141746829429,0.001314178584094,-0.0013141807014893,0.0013141723512357,1.1436722267809e-08,-1.0837588050654e-08,-0.0014356711728253,0.0014356717719365,-1.8269947424765e-09,2.5334239584606e-09,-0.0016505915676673,0.0016505980969647,-0.0016505901080726,0.0016505995368577,-0.0016505990031921,0.0016505906962357,-0.0016505975434007,0.0016505921358548,-0.0013141864790935,0.0013141667196957,-0.0013141646216285,0.0013141884925554,0.66675281289425,131329,3014,0.0044260521647865,0.0059630113222365,0.0059630113222425,37.157822929455,5.7262583435637e-05,5.7262583435637e-05,5.7262583435637e-05,3503644.4382594,0.016487966981943
36819200,0.99938266634562,0.016501012396741,0.0046865918863186,0.005907210255224,0.0059072102551979,-0.0010630600359341,0.0010630605443823,-1.102127501432e-08,1.151577806165e-08,-3.0207071859984e-09,3.6552874634771e-09,-0.0012457822113048,0.0012457729701128,-0.0012457747101159,0.0012457804989774,-0.0012457800390573,0.0012457751895792,-0.0012457725220028,0.0012457827122083,-0.0011455683197844,0.0011455489666215,-0.0011455462581219,0.0011455710362215,2.7983246359297e-09,-3.5981851158337e-09,1.8240660630118e-09,-2.5040868239536e-09,-0.0014350755239961,0.0014350748391882,-0.0016499777989056,0.0016499806618246,-0.0016499792089417,0.0016499792204345,-0.0016499798532299,0.0016499785439876,-0.001649981255154,0.0016499771039537,-0.0014520252987006,0.001452026727305,-0.0014520294636462,0.0014520224207402,-0.0013135373672245,0.0013135414528878,-0.0013135435616908,0.0013135350433319,1.149016106629e-08,-1.0892224042503e-08,-0.0014350748826341,0.0014350754805515,-1.8064721008409e-09,2.5114828747751e-09,-0.0016499759117084,0.0016499824923507,-0.0016499744686472,0.0016499839156634,-0.001649983385654,0.0016499750533656,-0.0016499819376442,0.0016499764811875,-0.001313549312519,0.0013135294390549,-0.0013135273559473,0.0013135513103867,0.64957834149635,131329,3014,0.0044235774069286,0.0059605422790908,0.0059605422790951,36.819159105652,5.4553272845216e-05,5.4553272845216e-05,5.4553272845216e-05,3501907.9801996,0.016480429519077
37019200,0.99942525008007,0.016501688280423,0.0046867774582498,0.0059074554110994,0.0059074554110733,-0.0010634388261511,0.0010634393287492,-1.1089361214156e-08,1.1578045614889e-08,-2.9032568789658e-09,3.5308457495566e-09,-0.0012461152884701,0.0012461060776997,-0.0012461077427615,0.0012461136510798,-0.0012461131955624,0.0012461082173806,-0.0012461056361098,0.0012461157824006,-0.0011459639713629,0.0011459444073103,-0.001145941785314,0.0011459666015678,2.6639715227112e-09,-3.4550753123393e-09,1.8236451530109e-09,-2.4962316500982e-09,-0.0014354875417945,0.0014354868645456,-0.0016503738628056,0.0016503766371119,-0.0016503752690423,0.0016503751995358,-0.0016503758241083,0.0016503746129296,-0.0016503772243432,0.0016503731745906,-0.0014524197807318,0.0014524213043036,-0.0014524239406917,0.0014524170026419,-0.0013139019838305,0.0013139058104648,-0.0013139079095192,0.0013138996715191,1.1555951758371e-08,-1.0958250636965e-08,-0.0014354869043274,0.0014354875020138,-1.8018573103784e-09,2.5065908184593e-09,-0.0016503719085533,0.0016503785350071,-0.0016503704676334,0.0016503799562465,-0.0016503794253582,0.0016503710530556,-0.001650377981656,0.0016503724767409,-0.001313913867698,0.0013138938588955,-0.0013138917788045,0.0013139158622235,0.68961816031714,131329,3014,0.0044251466837369,0.0059622492145578,0.0059622492145618,37.016266357959,5.6130130863672e-05,5.6130130863672e-05,5.6130130863672e-05,3507995.7211089,0.016485492290702
37219200,0.99946557911211,0.01650237122907,0.004686966910375,0.0059077021593607,0.0059077021593346,-0.0010640442553018,0.0010640447484067,-1.11595510102e-08,1.1638815027131e-08,-2.7100890244053e-09,3.3262198413847e-09,-0.0012467471379814,0.0012467380061563,-0.0012467395479614,0.0012467456238767,-0.0012467451764492,0.0012467400136727,-0.0012467375739826,0.0012467476217387,-0.0011466071562549,0.001146587324365,-0.0011465848440756,0.0011466096450684,2.4493848585663e-09,-3.2256781839258e-09,1.832806100188e-09,-2.492761092736e-09,-0.0014361495026301,0.0014361488381721,-0.0016510622087168,0.0016510648490505,-0.0016510636161999,0.0016510634102654,-0.0016510640222093,0.0016510629739029,-0.0016510654249535,0.0016510615330343,-0.0014530989483561,0.0014531006402798,-0.001453103115789,0.0014530963311511,-0.0013145516676506,0.0013145550714722,-0.0013145571602931,0.0013145493682137,1.1621609504336e-08,-1.1023772417143e-08,-0.0014361488714759,0.001436149469327,-1.8033392092838e-09,2.5081999271257e-09,-0.0016510601666533,0.0016510668353013,-0.0016510587241088,0.0016510682583098,-0.0016510677264975,0.001651059310251,-0.0016510662825181,0.0016510607344704,-0.0013145634053214,0.0013145432674925,-0.0013145411858217,0.001314565400992,0.7336254361421,131329,3014,0.0044276609535969,0.005964990023813,0.0059649900238163,37.343083371341,5.874466697073e-05,5.874466697073e-05,5.874466697073e-05,3511320.2926895,0.016493620534208
37419200,0.99950372829389,0.016502973760054,0.0046871320361648,0.0059079208619574,0.0059079208619313,-0.0010646377725663,0.0010646382547062,-1.1233046912363e-08,1.1701594078627e-08,-2.4858740706065e-09,3.0889497016481e-09,-0.0012474318093611,0.0012474227758632,-0.0012474241749725,0.0012474304379516,-0.0012474300018302,0.0012474246283945,-0.0012474223529131,0.0012474322829069,-0.0011472511722805,0.0011472310396479,-0.0011472287234622,0.0011472534964019,2.2473050466721e-09,-3.0075008433328e-09,1.8431802257141e-09,-2.489141232001e-09,-0.0014368134197686,0.00143681276946,-0.0016517899997037,0.0016517925172826,-0.0016517914104574,0.0016517910751645,-0.0016517916747118,0.0016517907814526,-0.0016517930786845,0.0016517893393694,-0.0014538099916499,0.0014538118412583,-0.0014538141625169,0.0014538075285212,-0.0013152380122978,0.0013152410122619,-0.0013152430891372,0.0013152357262616,1.1683832161771e-08,-1.1087398062894e-08,-0.0014368127964186,0.0014368133928121,-1.8091841351077e-09,2.5127344479815e-09,-0.0016517878774434,0.0016517945842123,-0.0016517864325862,0.0016517960097099,-0.0016517954802049,0.0016517870159861,-0.0016517940317588,0.0016517884447004,-0.0013152496076481,0.0013152293511602,-0.0013152272683203,0.0013152516055716,0.68665559489515,131329,3014,0.0044301301790146,0.0059677376832888,0.005967737683295,37.673147614141,6.1385180913126e-05,6.1385180913126e-05,6.1385180913126e-05,3510362.4147973,0.016501719652165
37619200,0.99953976630252,0.016503523383975,0.0046872818039765,0.0059081207900122,0.0059081207899861,-0.001065240701536,0.0010652411737267,-1.1305339773218e-08,1.1764105439419e-08,-2.2759444440477e-09,2.8670087510271e-09,-0.0012480558717893,0.0012480469279964,-0.0012480481929794,0.001248054634525,-0.0012480542080488,0.0012480486357852,-0.0012480465137726,0.0012480563356776,-0.0011478907099767,0.0011478702905722,-0.0011478681280512,0.001147892880551,2.0485039149555e-09,-2.788868644106e-09,1.8569255166128e-09,-2.4851425517926e-09,-0.0014374786170564,0.0014374779846385,-0.0016524786942926,0.0016524810943052,-0.0016524801087267,0.0016524796484707,-0.0016524802313465,0.0016524794974262,-0.0016524816381314,0.0016524780525888,-0.001454488367771,0.0014544903824625,-0.0014544925468114,0.0014544860615656,-0.0013158838035087,0.001315886406993,-0.0013158884694831,0.0013158815338386,1.1747700589164e-08,-1.1150875915336e-08,-0.00143747800244,0.0014374785992552,-1.8147821813265e-09,2.5187911520416e-09,-0.0016524764937826,0.0016524832400739,-0.0016524750454954,0.0016524846690087,-0.0016524841393928,0.0016524756287486,-0.0016524826866752,0.0016524770618917,-0.0013158952605,0.0013158748848441,-0.0013158727981527,0.0013158972631278,0.66415286319259,131329,3014,0.004432634091797,0.0059704917709231,0.0059704917709253,38.003333466513,6.4026667732108e-05,6.4026667732108e-05,6.4026667732108e-05,3513978.0584401,0.016509864211463
37819200,0.99957284508924,0.016504008692667,0.0046874131210794,0.0059082977858067,0.0059082977857806,-0.0010648979555721,0.0010648984259006,-1.137155490945e-08,1.1828503698096e-08,-2.2347511107111e-09,2.8235154633054e-09,-0.0012476760285541,0.0012476670669181,-0.0012476683054308,0.0012476748177296,-0.0012476743922082,0.0012476687471539,-0.0012476666551355,0.0012476764898127,-0.0011475383674706,0.0011475177925288,-0.0011475156601029,0.0011475405081393,1.9908550106706e-09,-2.7272307972359e-09,1.8533157914527e-09,-2.4781077501381e-09,-0.0014371362574856,0.0014371356284741,-0.0016521254000477,0.0016521277593894,-0.0016521268101617,0.0016521263178946,-0.0016521268968074,0.0016521262030958,-0.0016521283008627,0.0016521247610146,-0.0014541220211436,0.0014541240710543,-0.0014541261923122,0.0014541197584507,-0.0013155027537634,0.0013155052493892,-0.0013155073050583,0.0013155004915611,1.1813094345724e-08,-1.121668768242e-08,-0.0014371356447789,0.0014371362411819,-1.8087777250233e-09,2.5122402571376e-09,-0.0016521231558915,0.0016521299489632,-0.0016521217110105,0.0016521313745165,-0.0016521308444411,0.001652122294628,-0.001652129396762,0.0016521237228463,-0.0013155142246502,0.0013154937136819,-0.0013154916315077,0.0013155162228191,0.6401614177271,131329,3014,0.004431210082524,0.0059690743474094,0.0059690743474133,37.804132843995,6.2433062751959e-05,6.2433062751959e-05,6.2433062751959e-05,3513964.9177375,0.016505533254254
38019200,0.99960316009232,0.01650447226097,0.0046875396138417,0.0059084663235773,0.0059084663235512,-0.0010644848452013,0.001064485314501,-1.1440299062893e-08,1.1896470704868e-08,-2.2141401623614e-09,2.8019060606932e-09,-0.0012471800900194,0.0012471710957345,-0.0012471723214245,0.0012471788919912,-0.0012471784675684,0.0012471727619437,-0.0012471706849607,0.0012471805501506,-0.0011471080888845,0.0011470873651836,-0.0011470852471204,0.0011471102128783,1.9798573407324e-09,-2.7154319967032e-09,1.8491563739888e-09,-2.4733655577254e-09,-0.00143670626407,0.0014367056357639,-0.0016516572410909,0.0016516595905483,-0.0016516586482965,0.0016516581519387,-0.0016516587301974,0.0016516580418764,-0.0016516601313249,0.0016516566028168,-0.001453654830931,0.0014536568809659,-0.0014536589932014,0.0014536525761818,-0.0013150170293093,0.0013150195060225,-0.0013150215569284,0.0013150147701284,1.1875526976626e-08,-1.1279357198615e-08,-0.0014367056519228,0.0014367062479085,-1.804635776204e-09,2.5080098024633e-09,-0.001651654969891,0.0016516618071648,-0.0016516535278996,0.001651663229909,-0.0016516627002601,0.0016516541110072,-0.0016516612553174,0.0016516555364216,-0.0013150285542673,0.0013150079159135,-0.0013150058385709,0.0013150305486916,0.66569814056435,131329,3014,0.0044294913099604,0.0059672948557205,0.0059672948557168,37.559829627604,6.0478637020833e-05,6.0478637020833e-05,6.0478637020833e-05,3515341.9043107,0.016500165130913
38219200,0.99963096656051,0.016504900873528,0.0046876567531911,0.0059086220601816,0.0059086220601555,-0.0010640660070086,0.001064066476413,-1.1506485761994e-08,1.1962555606255e-08,-2.2126996784849e-09,2.8003337528437e-09,-0.0012467161601741,0.0012467071236132,-0.0012467083480506,0.0012467149634171,-0.0012467145393529,0.0012467087881885,-0.0012467067120312,0.0012467166211077,-0.0011466828269068,0.0011466619710362,-0.0011466598544148,0.0011466849514211,1.9789705779679e-09,-2.714587679548e-09,1.8463607321566e-09,-2.4705666551477e-09,-0.0014362757000097,0.001436275071623,-0.0016512090812256,0.0016512114288212,-0.0016512104871767,0.0016512099915175,-0.0016512105704617,0.0016512098801073,-0.001651211969124,0.0016512084434838,-0.0014532101493825,0.0014532121920622,-0.0014532143044579,0.0014532078954152,-0.0013145547617512,0.0013145572369704,-0.0013145592870383,0.0013145525050087,1.1940200246079e-08,-1.1344228053149e-08,-0.0014362750878452,0.0014362756837872,-1.8030363633003e-09,2.5060492396218e-09,-0.0016512067866848,0.0016512136688448,-0.0016512053464247,0.0016512150897931,-0.0016512145607784,0.0016512059289328,-0.00165121311646,0.0016512073537827,-0.0013145663485843,0.0013145455852756,-0.0013145435077919,0.0013145683422227,0.67076171940072,131329,3014,0.0044277515011111,0.0059655122844935,0.0059655122844949,37.31428746255,5.8514299700401e-05,5.8514299700401e-05,5.8514299700401e-05,3513535.6468395,0.016494771256552
38419200,0.9996566668315,0.0165053230385,0.0046877734160031,0.0059087748112614,0.0059087748112353,-0.0010638783587618,0.0010638788280105,-1.1571621303795e-08,1.2027501495909e-08,-2.2054885841318e-09,2.7928481175836e-09,-0.0012464982918011,0.0012464892166252,-0.0012464904362496,0.0012464970998679,-0.0012464966758347,0.0012464908763226,-0.0012464888052085,0.001246498752548,-0.0011464990960377,0.0011464781080105,-0.0011464759964945,0.0011465012156175,1.9592698057069e-09,-2.6936594581923e-09,1.8503297953337e-09,-2.4735170470953e-09,-0.0014360859864764,0.0014360853591486,-0.0016510096094604,0.0016510119468975,-0.0016510110176354,0.0016510105073583,-0.0016510110852438,0.0016510104117765,-0.0016510124862521,0.0016510089727757,-0.0014530162615147,0.0014530183256882,-0.001453020423485,0.0014530140220232,-0.0013143414972964,0.0013143439316166,-0.0013143459831394,0.0013143392395787,1.2006162824497e-08,-1.1410026856688e-08,-0.0014360853747587,0.0014360859708663,-1.8057604438168e-09,2.508968318946e-09,-0.0016510072888092,0.0016510142130737,-0.001651005846593,0.0016510156359781,-0.001651015106755,0.0016510064292999,-0.001651013660653,0.0016510078560147,-0.0013143531273303,0.0013143322369802,-0.0013143301571393,0.0013143551229894,0.71253732550689,131329,3014,0.004426971929589,0.0059647269154709,0.0059647269154728,37.196592394414,5.7572739155315e-05,5.7572739155315e-05,5.7572739155315e-05,3512545.8948298,0.016492381370946
38619200,0.9996805740144,0.016505717887201,0.004687882596516,0.0059089176453557,0.0059089176453295,-0.0010638837324719,0.0010638842059504,-1.1628468096105e-08,1.2087984901359e-08,-2.2588086480051e-09,2.8502478250031e-09,-0.0012465427563151,0.0012465336112472,-0.0012465348623468,0.0012465415331212,-0.0012465411050378,0.0012465353068234,-0.0012465331944427,0.0012465432233064,-0.0011465285859138,0.0011465075237848,-0.0011465053705025,0.0011465307495871,1.8621616673378e-09,-2.5898802129189e-09,1.868769752161e-09,-2.4861609750054e-09,-0.0014361123134974,0.0014361116920387,-0.0016510647491581,0.0016510670372195,-0.0016510661684721,0.0016510655869358,-0.0016510661604361,0.0016510655687273,-0.001651067570733,0.0016510641203482,-0.001453072411211,0.0014530745781639,-0.0014530766018966,0.0014530702454918,-0.0013143814979069,0.0013143837302878,-0.0013143857889478,0.0013143792372974,1.2078438144006e-08,-1.1482394717311e-08,-0.0014361117046094,0.0014361123009181,-1.8054478352785e-09,2.5083336538934e-09,-0.0016510623793397,0.0016510693529293,-0.001651060938041,0.0016510707748983,-0.0016510702466078,0.0016510615208508,-0.0016510688003571,0.0016510629487834,-0.0013143930980087,0.0013143720692819,-0.001314369985096,0.0013143950913666,0.71625966310609,131329,3014,0.004426997822142,0.0059648349879026,0.0059648349878869,37.193719930784,5.7549759446274e-05,5.7549759446274e-05,5.7549759446274e-05,3508627.9971717,0.016492629346003
38819200,0.99970281664036,0.016506086453489,0.0046879845669456,0.0059090509432848,0.0059090509432587,-0.001063889502867,0.0010638899646241,-1.1722668721164e-08,1.2171079122829e-08,-2.0506979831725e-09,2.6291106583564e-09,-0.001246592618266,0.0012465835430963,-0.0012465846639713,0.0012465915251436,-0.0012465911074514,0.0012465850968315,-0.001246583139171,0.0012465930707801,-0.0011465561440899,0.001146534755364,-0.0011465327579215,0.0011465581496824,2.0524118203191e-09,-2.7944300643554e-09,1.848684941899e-09,-2.4786465279984e-09,-0.0014361402676539,0.0014361396335454,-0.001651123658999,0.0016511260551979,-0.0016511250677656,0.0016511246150813,-0.0016511251988539,0.0016511244554457,-0.001651126601534,0.0016511230147867,-0.0014531289687314,0.0014531309661031,-0.0014531331357478,0.0014531266573356,-0.0013144257407264,0.001314428359334,-0.0013144304184117,0.0013144234742438,1.2121753572102e-08,-1.1523747425956e-08,-0.0014361396516037,0.0014361402495949,-1.8348480282993e-09,2.5401961264579e-09,-0.0016511213389036,0.0016511283207652,-0.0016511198759605,0.0016511297643242,-0.0016511292326866,0.0016511204610536,-0.0016511277666717,0.0016511219070765,-0.0013144375646297,0.0013144164700306,-0.001314414368749,0.0013144395828908,0.7184459991871,131329,3014,0.0044270254540535,0.0059649496880158,0.0059649496880164,37.193612844257,5.7548902754058e-05,5.7548902754058e-05,5.7548902754058e-05,3504904.6920811,0.016492892579011
38880000,0.99970942799752,0.016506196122871,0.0046880149219538,0.0059090906004714,0.0059090906004453,-0.0010638894037057,0.0010638898695985,-1.1733800951612e-08,1.2186320717914e-08,-2.1212142933594e-09,2.7044127727521e-09,-0.0012466082731471,0.0012465991452711,-0.0012466003105009,0.0012466071356715,-0.0012466067145516,0.001246600747214,-0.0012465987369863,0.001246608730413,-0.001146563222885,0.0011465418593741,-0.0011465398095568,0.001146565280976,1.9933767342294e-09,-2.7307021606403e-09,1.8608565992838e-09,-2.48667477205e-09,-0.0014361473348925,0.0014361467049369,-0.001651141144073,0.0016511435099804,-0.0016511425600149,0.0016511420626416,-0.0016511426429865,0.0016511419515759,-0.0016511440519114,0.001651140504618,-0.0014531451180857,0.0014531471794252,-0.0014531493035055,0.0014531428521705,-0.0013144392449594,0.0013144417383334,-0.0013144438004076,0.0013144369765462,1.2148210852733e-08,-1.1550555538104e-08,-0.0014361467210886,0.0014361473187401,-1.8309417632801e-09,2.5358971216131e-09,-0.0016511387984775,0.0016511458010745,-0.0016511373387811,0.0016511472414394,-0.0016511467106172,0.0016511379231043,-0.0016511452470744,0.0016511393670124,-0.0013144510331188,0.0013144298844917,-0.001314427786884,0.0013144530488725,0.7190963021484,131329,3014,0.0044270263833393,0.0059649785607362,0.0059649785607367,37.19360895733,5.7548871658638e-05,5.7548871658638e-05,5.7548871658638e-05,3503736.8658603,0.016492952842988
