time,ASR_ext,ASR_strain,ASR_strain_xx,ASR_strain_yy,ASR_strain_zz,disp_x_101,disp_x_102,disp_x_103,disp_x_104,disp_x_105,disp_x_106,disp_x_p1_neg,disp_x_p1_pos,disp_x_p2_neg,disp_x_p2_pos,disp_x_p3_neg,disp_x_p3_pos,disp_x_p4_neg,disp_x_p4_pos,disp_x_p5_neg,disp_x_p5_pos,disp_x_p6_neg,disp_x_p6_pos,disp_y_101,disp_y_102,disp_y_103,disp_y_104,disp_y_105,disp_y_106,disp_y_p1_neg,disp_y_p1_pos,disp_y_p2_neg,disp_y_p2_pos,disp_y_p3_neg,disp_y_p3_pos,disp_y_p4_neg,disp_y_p4_pos,disp_y_p5_neg,disp_y_p5_pos,disp_y_p6_neg,disp_y_p6_pos,disp_y_p7_neg,disp_y_p7_pos,disp_y_p8_neg,disp_y_p8_pos,disp_z_101,disp_z_102,disp_z_103,disp_z_104,disp_z_105,disp_z_106,disp_z_p1_neg,disp_z_p1_pos,disp_z_p2_neg,disp_z_p2_pos,disp_z_p3_neg,disp_z_p3_pos,disp_z_p4_neg,disp_z_p4_pos,disp_z_p5_neg,disp_z_p5_pos,disp_z_p6_neg,disp_z_p6_pos,humidity,ndof,nelem,strain_xx,strain_yy,strain_zz,temp,thermal_strain_xx,thermal_strain_yy,thermal_strain_zz,vonmises,vstrain
2419200,0,0,0,0,0,0,0,0,0,0,0,0,0,0,0,0,0,0,0,0,0,0,0,0,0,0,0,0,0,0,0,0,0,0,0,0,0,0,0,0,0,0,0,0,0,0,0,0,0,0,0,0,0,0,0,0,0,0,0,0,0,0,0,0,0,0,0,0,0,0,0,0,0,0,0
2619200,0.019541745136998,0.00040088099755591,0.0001336269991853,0.0001336269991853,0.0001336269991853,-3.5565067715422e-05,3.5568300754846e-05,1.6141999329545e-09,1.6000953235373e-09,-3.1785254894928e-09,6.5467579858444e-09,-3.4936057253738e-05,3.4936081426598e-05,-3.4936026946186e-05,3.493604182786e-05,-3.4932934863544e-05,3.4939312187123e-05,-3.493293781352e-05,3.4939306202201e-05,-3.563442414699e-05,3.5640873561236e-05,-3.5634431659197e-05,3.5640852763384e-05,3.1815011905541e-09,-6.5474619100581e-09,-8.6133553612626e-09,5.4005834665031e-09,-3.5568300703025e-05,3.5565067766918e-05,-3.4938366658294e-05,3.4933760308649e-05,-3.4933894205275e-05,3.4938459946756e-05,-3.4941474852005e-05,3.4930512696188e-05,-3.4937001771966e-05,3.4935212066016e-05,-3.5647610513669e-05,3.5627423541226e-05,-3.5634066717014e-05,3.5641387592236e-05,-3.6234654053382e-05,3.6245567804367e-05,-3.6244130893427e-05,3.623584031797e-05,-1.3932673968229e-09,-1.3790429127867e-09,-3.2484230209356e-05,3.2481432673806e-05,5.4177445836703e-09,-8.4513189352773e-09,-3.2282110275225e-05,3.2283974277333e-05,-3.2286700753819e-05,3.2279370826771e-05,-3.2282112058757e-05,3.2283985435753e-05,-3.2286702903853e-05,3.2279382316406e-05,-3.3941160795115e-05,3.3933780397163e-05,-3.3941147995918e-05,3.3933740356519e-05,0.81992965888364,125803,2834,0.00014818346922141,0.00014818346922115,0.00013533598110741,31.529954611628,1.2239636893027e-05,1.2239636893027e-05,1.2239636893027e-05,620035.22096897,0.00043179634690558
2819200,0.041137095317175,0.00084167315635799,0.00028267310817703,0.00028267311114964,0.00027632693703132,-7.4260952419586e-05,7.4264610360766e-05,1.874495581568e-09,1.7340456488935e-09,-5.7453884037656e-09,9.6247064431116e-09,-7.3677082619956e-05,7.3675699790052e-05,-7.3677085470784e-05,7.3675610860645e-05,-7.3672126220932e-05,7.3680812331679e-05,-7.3672167091522e-05,7.368076049387e-05,-7.3845825726355e-05,7.3854665369389e-05,-7.3845944699271e-05,7.385450315961e-05,5.7682829292065e-09,-9.63718776308e-09,-9.5378030471963e-09,5.9048663495083e-09,-7.4264616628722e-05,7.4260947776463e-05,-7.3678232638569e-05,7.3674577137758e-05,-7.3673243062042e-05,7.3679746148521e-05,-7.3683181025717e-05,7.3669435320738e-05,-7.3678191359338e-05,7.3674603325511e-05,-7.386205513022e-05,7.383814669947e-05,-7.3847111549487e-05,7.3853507337318e-05,-7.5212560188613e-05,7.5229068896444e-05,-7.5227536662237e-05,7.5213621676897e-05,-8.6137274184892e-10,-7.3919673596992e-10,-6.6315223519481e-05,6.6313578579277e-05,6.6913147248739e-09,-8.5831483993294e-09,-6.7024188333329e-05,6.7027640983027e-05,-6.7029253053267e-05,6.7022547741231e-05,-6.7024164177089e-05,6.7027697871344e-05,-6.7029229118031e-05,6.7022604313957e-05,-6.9179910551663e-05,6.9173321334224e-05,-6.9179951534431e-05,6.9173119023336e-05,0.82138489552323,125803,2834,0.0003093801469435,0.00030938015032799,0.00027627217430397,32.737371445985,2.1898971567881e-05,2.1898971567881e-05,2.1898971567881e-05,927315.34120072,0.00089543362864737
3019200,0.062603990573227,0.0012782638492738,0.00043351360084198,0.00043351362799431,0.00041123662043746,-0.0001105517025768,0.00011055332343534,9.1895061979598e-10,6.631480198457e-10,-5.1190092178153e-09,6.8840935792364e-09,-0.00011006001397187,0.000110057739802,-0.00011006006494349,0.00011005762078751,-0.00011005610382613,0.00011006173104524,-0.00011005618694551,0.00011006164394675,-0.00010917719728468,0.00010918303882549,-0.00010917742784718,0.00010918276449595,5.1315502854921e-09,-6.8848870871641e-09,-7.8561376817818e-09,6.267304776893e-09,-0.0001105533293002,0.00011055170984902,-0.00011006003928965,0.0001100577376227,-0.00011005543268065,0.00011006245380968,-0.00011006393390591,0.00011005372705593,-0.00011005932734469,0.0001100584430854,-0.00010918975051813,0.00010917028344517,-0.00010917606535951,0.00010918431414637,-0.00011195930631218,0.00011197411512136,-0.00011197100615596,0.00011196209631672,-6.0865770034872e-10,-3.6561234551072e-10,-9.5730246318505e-05,9.5729230634224e-05,6.365870301344e-09,-7.6085536385804e-09,-9.7143372620655e-05,9.7146981677566e-05,-9.7148007213741e-05,9.7142311719196e-05,-9.7143310597382e-05,9.7147081402712e-05,-9.7147945619448e-05,9.7142411256906e-05,-0.00010060639020166,0.00010060097584158,-0.00010060655795426,0.00010060066503816,0.82013323933614,125803,2834,0.000460528765529,0.0004605287928854,0.00039879562292533,32.491887025549,1.9935096204394e-05,1.9935096204394e-05,1.9935096204394e-05,1253429.5323966,0.0013207255702745
3219200,0.08384306666821,0.0017020006434254,0.00058226374111573,0.00058226376439755,0.00053747313791212,-0.00014625332488925,0.00014625408736075,5.5358624226147e-10,1.8002564600185e-10,-4.2823110157718e-09,5.1441480251619e-09,-0.00014613023410719,0.00014612799365961,-0.00014613033116066,0.00014612784185313,-0.0001461271476966,0.00014613112375952,-0.00014612727257192,0.00014613099961309,-0.00014333246504007,0.00014333672669341,-0.00014333281704483,0.00014333634338618,4.2927059951755e-09,-5.1447958316496e-09,-6.8201672522489e-09,6.0790063644466e-09,-0.00014625409287533,0.00014625333065181,-0.00014613006431601,0.00014612816622134,-0.00014612584116553,0.00014613246755045,-0.00014613313718481,0.00014612501964151,-0.00014612891403196,0.00014612932083099,-0.00014334280224742,0.00014332623201315,-0.00014333029491352,0.00014333903756857,-0.00014799803546998,0.0001480107700193,-0.000148007228513,0.00014800135241147,-4.957994504325e-10,-1.3427370880978e-10,-0.00012304462248773,0.00012304395618999,5.9422424811196e-09,-6.8187199921736e-09,-0.00012534644038446,0.00012534995438557,-0.0001253506783615,0.00012534569166561,-0.00012534633344542,0.00012535008815816,-0.00012535057190407,0.00012534582524844,-0.00013009380427738,0.00013008925372953,-0.00013009410687589,0.00013008884627629,0.80675912952707,125803,2834,0.00060920355390789,0.00060920357738748,0.00051255622701476,32.204083180199,1.7632665441591e-05,1.7632665441591e-05,1.7632665441591e-05,1518453.4288558,0.0017324638461025
3419200,0.10482916545038,0.0021089047793422,0.00072734393369485,0.00072734395626191,0.00065421688938544,-0.00018106015457535,0.00018106044028096,3.7703729327685e-10,-1.1449897446581e-10,-3.6412432867891e-09,4.0004497419549e-09,-0.00018168314271479,0.00018168105643368,-0.00018168328356097,0.00018168086962705,-0.00018168063418153,0.00018168359165792,-0.00018168079889468,0.0001816834285963,-0.00017593535009348,0.00017593866558873,-0.00017593581842148,0.00017593816775943,3.6505838396916e-09,-4.0009797573658e-09,-6.0680424230337e-09,5.7981974174161e-09,-0.00018106044572598,0.00018106016006552,-0.00018168293418273,0.00018168126046704,-0.00018167904213167,0.00018168521394019,-0.00018168543084383,0.0001816787111045,-0.00018168153879304,0.00018168266447922,-0.00017594418565288,0.00017592969205906,-0.00017593267857603,0.00017594146994116,-0.00018291343689055,0.00018292455420177,-0.00018292089321838,0.00018291693517978,-4.3305599982955e-10,4.6725505016425e-11,-0.00014815311397003,0.00014815269378741,5.5618137700569e-09,-6.1777826835564e-09,-0.00015159395734663,0.0001515973356451,-0.00015159786088559,0.00015159341675605,-0.00015159380616683,0.0001515975040178,-0.00015159771020393,0.00015159358495855,-0.00015733997394557,0.00015733612443689,-0.00015734040744144,0.00015733561651131,0.78589835976245,125803,2834,0.00075413127569461,0.0007541312984586,0.00061711949395296,31.914606392267,1.5316851138139e-05,1.5316851138139e-05,1.5316851138139e-05,1755970.1221223,0.0021276441133732
3619200,0.12608123293122,0.0025113866440799,0.00087277633987785,0.00087277636327107,0.00076583394093099,-0.00021666235133699,0.0002166628265164,5.3025567300905e-10,-7.9664741355659e-11,-3.948430952483e-09,4.5081643842388e-09,-0.00021845519468981,0.00021845307013334,-0.00021845537624244,0.00021845284506167,-0.00021845243003648,0.00021845587714064,-0.00021845263384088,0.0002184556742118,-0.00020863487367619,0.00020863875717245,-0.00020863545757856,0.0002086381429986,3.9578736514341e-09,-4.5083287025403e-09,-6.0953650428513e-09,5.6375737006081e-09,-0.00021666283197355,0.00021666235720408,-0.00021845491380069,0.00021845336285319,-0.0002184510661395,0.00021845727114996,-0.0002184576670928,0.00021845054249235,-0.00021845381944553,0.00021845445071745,-0.00020864414828518,0.00020862933252556,-0.00020863277243935,0.00020864098170954,-0.00021851650387476,0.00021852819256573,-0.0002185247661147,0.00021851975629945,-4.7035211452934e-10,1.2689783246127e-10,-0.00017271862943251,0.0001727182518387,5.5190603746999e-09,-6.0908111136676e-09,-0.000177433402532,0.00017743674051264,-0.00017743726315874,0.00017743286642156,-0.00017743321125695,0.00017743694708692,-0.00017743707236939,0.00017743307283078,-0.00018415019199134,0.00018414654461848,-0.00018415073931395,0.00018414592047608,0.77011574624317,125803,2834,0.00090234998433197,0.00090235000790203,0.00071941240282146,31.993811761959,1.595049409567e-05,1.595049409567e-05,1.595049409567e-05,2022501.7121502,0.0025273027447114
3819200,0.14793877239866,0.0029240428955429,0.0010231144917402,0.0010231145157024,0.00087781388810025,-0.00025393109610361,0.00025393171797806,6.6272830839186e-10,-6.6817873502477e-11,-4.1380696726135e-09,4.8519288822046e-09,-0.00025717176304489,0.00025716964926705,-0.00025717198408983,0.00025716938399074,-0.00025716882689477,0.00025717263474405,-0.00025716906974736,0.00025717239101884,-0.00024250183968057,0.00024250616027395,-0.00024250253919863,0.00024250542717649,4.1454772497141e-09,-4.8476467650738e-09,-6.172435986007e-09,5.5722504857449e-09,-0.00025393172225578,0.00025393110343273,-0.00025717147740535,0.00025716995270663,-0.00025716762710085,0.00025717386493654,-0.00025717440023345,0.00025716695630257,-0.00025717055000376,0.00025717086837319,-0.000242511491829,0.00024249635012796,-0.00024250010765229,0.00024250801456349,-0.00025590043576983,0.0002559125054771,-0.00025590921459293,0.00025590353766216,-5.2602738838296e-10,1.8722274587069e-10,-0.00019781527585299,0.0001978149018974,5.5289688343663e-09,-6.0977344968831e-09,-0.00020368845929094,0.0002036917673369,-0.00020369232436381,0.00020368788779174,-0.00020368822976337,0.00020369201298751,-0.00020369209537283,0.0002036881331838,-0.00021195132938376,0.00021194779529988,-0.00021195198783867,0.00021194705529402,0.77140160294024,125803,2834,0.0010574824919943,0.0010574825161483,0.00082390852295205,32.324981202282,1.8599849618257e-05,1.8599849618257e-05,1.8599849618257e-05,2287731.5912731,0.0029431988729267
4019200,0.17039010350266,0.0033471557239218,0.001178421489133,0.0011784215135066,0.00099031272128212,-0.00029245311007037,0.00029245386955117,7.8936316907056e-10,-5.7371468943946e-11,-4.2046201277854e-09,5.0613770949776e-09,-0.00029733181519188,0.00029732978624032,-0.00029733207506112,0.00029732948147691,-0.0002973287892901,0.00029733286454888,-0.0002973290706279,0.00029733258104497,-0.00027736799336088,0.00027737265482424,-0.00027736880601203,0.00027737180530369,4.213338778319e-09,-5.0578162675023e-09,-6.2422128398151e-09,5.5064276891009e-09,-0.00029245387365018,0.00029245311776779,-0.00029733159602933,0.00029733002541333,-0.00029732774519113,0.0002973339388144,-0.00029733460892733,0.00029732693622175,-0.00029733075814645,0.00029733084949339,-0.00027737792785229,0.00027736255590077,-0.00027736654157424,0.00027737422581293,-0.00029455336394822,0.00029456557070961,-0.00029456241125717,0.00029455632060428,-5.8588690924133e-10,2.457888753921e-10,-0.00022302075118221,0.00022302037507553,5.5294755979714e-09,-6.1007101226704e-09,-0.00023014159768897,0.0002301448648692,-0.000230145463579,0.00023014098389684,-0.0002301413290893,0.00023014515025882,-0.00023014519544629,0.0002301412689979,-0.00024017002053661,0.00024016660034692,-0.00024017079292336,0.00024016574246612,0.77299484444213,125803,2834,0.0012178054356507,0.0012178054601949,0.00092885012451841,32.662475190509,2.1299801524072e-05,2.1299801524072e-05,2.1299801524072e-05,2523927.8454025,0.003370130666706
4219200,0.19341109287975,0.003780922393679,0.0013388024756032,0.0013388025003161,0.0011033174177597,-0.00033234820055099,0.00033234896861765,8.5241171903946e-10,-1.1193137589683e-10,-4.2978169561715e-09,5.1617366903843e-09,-0.00033891307161825,0.00033891102680219,-0.0003389133704591,0.00033891068252452,-0.00033890998066648,0.00033891416936204,-0.00033891030089224,0.0003389138462724,-0.00031353288176109,0.00031353773107827,-0.00031353380837163,0.00031353676507349,4.3067528627887e-09,-5.1584625152764e-09,-6.2333518765793e-09,5.489038272405e-09,-0.00033234897278881,0.00033234820830919,-0.00033891281128337,0.00033891130536625,-0.00033890897076022,0.00033891521007214,-0.00033891588936276,0.00033890815185981,-0.00033891204890365,0.000338912056455,-0.00031354293197219,0.00031352751296213,-0.00031353157241059,0.00031353915812665,-0.00033459569101537,0.00033460807391028,-0.0003346049303684,0.00033459863380901,-6.4798452532146e-10,3.0171128808166e-10,-0.00024824391457213,0.00024824353161961,5.5126491519264e-09,-6.0911942669959e-09,-0.0002570198134141,0.00025702302524665,-0.00025702367066379,0.00025701915313101,-0.00025701950540256,0.00025702334985795,-0.00025702336306272,0.00025701947741481,-0.00026863557708943,0.00026863227506987,-0.00026863646421703,0.00026863130087784,0.77488672433884,125803,2834,0.0013838143469599,0.0013838143717761,0.0010338585800692,33.000213008055,2.4001704064437e-05,2.4001704064437e-05,2.4001704064437e-05,2724127.6811698,0.0038087269441923
4419200,0.21737342437547,0.0042324676388716,0.0015070507764697,0.0015070508013995,0.0012183660610024,-0.0003748710573257,0.00037487182266603,8.9995569907409e-10,-1.6104580167601e-10,-4.3431758835904e-09,5.2009860871804e-09,-0.00038318872917735,0.00038318668717287,-0.00038318906056808,0.00038318630985355,-0.00038318560951977,0.00038318985711629,-0.00038318596178296,0.0003831895018776,-0.00035200533350614,0.00035201030446658,-0.00035200635136942,0.00035200924351113,4.3543525121374e-09,-5.2053318711248e-09,-6.266617580081e-09,5.5227108649933e-09,-0.00037487182826668,0.00037487106376495,-0.00038318846640991,0.00038318697026221,-0.00038318460536453,0.00038319089697539,-0.00038319157673102,0.000383183784855,-0.0003831877153701,0.00038318771248262,-0.00035201549333025,0.0003519999779039,-0.00035200406835063,0.00035201169142447,-0.0003774274341641,0.00037743993337263,-0.00037743677337911,0.00037743040691556,-7.2038387866328e-10,3.6829600672157e-10,-0.00027413526415617,0.00027413487423648,5.5274625049948e-09,-6.1137600327247e-09,-0.00028491152331738,0.00028491469423809,-0.00028491539362538,0.00028491080955536,-0.00028491116873433,0.00028491506430932,-0.00028491503880963,0.00028491117989057,-0.00029812815026372,0.00029812496726487,-0.00029812917618132,0.00029812385886944,0.77612067444343,125803,2834,0.0015607260867081,0.0015607261117492,0.0011416423502001,33.594123153131,2.8752985225046e-05,2.8752985225046e-05,2.8752985225046e-05,2896830.6611364,0.0042722011244805
4619200,0.2424162818948,0.0047044662089801,0.0016844257208041,0.0016844257472953,0.0013356147408808,-0.00041985404687357,0.00041985480694212,9.6165806015343e-10,-2.2691405049034e-10,-4.3648046739192e-09,5.215130868523e-09,-0.00042996747108783,0.0004299654541626,-0.00042996784400956,0.00042996503490221,-0.00042996433902816,0.00042996863595302,-0.00042996473293164,0.00042996823838757,-0.00039254093591995,0.00039254604086176,-0.00039254207842727,0.00039254485354461,4.3735026930536e-09,-5.2180815006131e-09,-6.2901298804175e-09,5.5516681597263e-09,-0.00041985481240547,0.00041985405349299,-0.00042996722152118,0.00042996572418564,-0.00042996334341297,0.00042996966933593,-0.00042997034357069,0.00042996252823991,-0.00042996646510802,0.0004299664737703,-0.00039255119217344,0.0003925356207661,-0.00039253971744867,0.00039254738650847,-0.00042290694378279,0.00042291949955027,-0.00042291632077532,0.00042290994521571,-7.8075129506145e-10,4.1630265032803e-10,-0.00030061484680928,0.00030061444380606,5.553263161467e-09,-6.1536251609191e-09,-0.00031368927280345,0.00031369241533443,-0.00031369316464256,0.0003136885095406,-0.00031368888118725,0.00031369282174328,-0.00031369277305622,0.00031368891586852,-0.00032858038550361,0.00032857727435442,-0.00032858151929176,0.000328576061876,0.77693645985564,125803,2834,0.0017478371726383,0.001747837197763,0.0012518691495713,34.291882989212,3.4335063913696e-05,3.4335063913696e-05,3.4335063913696e-05,3061416.0639539,0.004758840004941
4819200,0.26850772348209,0.0051964656818268,0.0018707685343544,0.0018707685613118,0.0014549285861606,-0.00046700940773004,0.00046701016826479,1.0207636187545e-09,-2.8537747217882e-10,-4.3618943430778e-09,5.2127073294134e-09,-0.00047899349783481,0.00047899152172581,-0.00047899390969345,0.0004789910632283,-0.0004789903668847,0.00047899470189568,-0.00047899079981717,0.00047899426518905,-0.00043485428356891,0.00043485950164881,-0.00043485554158045,0.00043485819968957,4.370509231296e-09,-5.2148573481133e-09,-6.3034869620125e-09,5.5645389638115e-09,-0.00046701017343861,0.00046700941438669,-0.00047899327302442,0.00047899176504398,-0.0004789893862829,0.00047899571922564,-0.0004789963938306,0.00047898857127422,-0.00047899250678037,0.00047899252588558,-0.00043486460853898,0.00043484901237113,-0.0004348531082466,0.00043486080467994,-0.00047075318695175,0.00047076574628168,-0.00047076255842489,0.00047075619716164,-8.4423092997351e-10,4.7101752459088e-10,-0.00032751173649423,0.00032751132438946,5.5618617513641e-09,-6.1716697489184e-09,-0.00034312854905627,0.00034313165200609,-0.00034313244992189,0.00034312773756693,-0.00034312811788142,0.00034313209756893,-0.00034313201873656,0.00034312818314779,-0.00035978004334934,0.00035977703009773,-0.00035978129292483,0.00035977570156875,0.77792178853344,125803,2834,0.0019439445934463,0.0019439446180411,0.0013638285144627,34.992289060464,3.9938312483708e-05,3.9938312483708e-05,3.9938312483708e-05,3217066.5946231,0.005265544178515
5019200,0.29559720518506,0.0057060787948226,0.0020651513931961,0.0020651514197798,0.0015757759818467,-0.0005160987220143,0.00051609948565206,1.0813078486992e-09,-3.4284873773582e-10,-4.3337879207686e-09,5.1878214843206e-09,-0.00053008632234835,0.000530084405844,-0.00053008677355264,0.00053008390807506,-0.00053008320844054,0.00053008756855761,-0.00053008368073163,0.00053008709257007,-0.00047866940882828,0.00047867472767033,-0.00047867078272431,0.00047867331045319,4.3424641539215e-09,-5.1896521486034e-09,-6.3016347652361e-09,5.5596505229983e-09,-0.0005160994906696,0.00051609872866202,-0.00053008613607827,0.0005300846097308,-0.00053008225115375,0.0005300885618657,-0.00053008923980549,0.00053008143357542,-0.00053008535463286,0.00053008538617828,-0.00047867977329561,0.000478664198252,-0.00047866827964477,0.00047867598442432,-0.00052066736851551,0.00052067987069606,-0.00052067668765621,0.00052067037317138,-9.0625865750262e-10,5.2673837918055e-10,-0.00035475254873138,0.00035475213014533,5.5558052467143e-09,-6.1721386500825e-09,-0.0003731083275131,0.0003731113827821,-0.00037311222667775,0.00037310747042709,-0.00037310785688932,0.00037311186739765,-0.00037311175604048,0.00037310795506884,-0.00039158574792067,0.00039158284542879,-0.00039158711297055,0.00039158140182709,0.7767732554188,125803,2834,0.0021480510238967,0.0021480510481425,0.0014772162337108,35.692797601077,4.5542380808613e-05,4.5542380808613e-05,4.5542380808613e-05,3365482.5989801,0.0057900316293994
5219200,0.3229864138485,0.006222007022973,0.0022630827351919,0.0022630827616355,0.0016958415261455,-0.00056528051404514,0.00056528129587625,1.181316852434e-09,-4.2757205514368e-10,-4.3056951114699e-09,5.1853756892144e-09,-0.00058135600704253,0.00058135417674836,-0.00058135651926795,0.00058135361927172,-0.00058135290264582,0.00058135733098145,-0.00058135343668473,0.00058135679244812,-0.00052231022886175,0.00052231573081825,-0.00052231178900518,0.00052231413123207,4.3084922469899e-09,-5.1681500232557e-09,-6.208524611806e-09,5.4536417093956e-09,-0.00056528129803108,0.00056528052411103,-0.0005813558425315,0.00058135435096597,-0.00058135202111188,0.00058135823834668,-0.00058135892831529,0.00058135119510153,-0.00058135510670834,0.00058135507944789,-0.00052232057828955,0.00052230520418231,-0.00052230927913389,0.00052231678902769,-0.00057082904011529,0.00057084141071336,-0.00057083828974756,0.00057083194861561,-9.2802244867917e-10,5.5624230422354e-10,-0.00038111899196637,0.00038111858222134,5.4996223009553e-09,-6.1050355480495e-09,-0.00040228000012199,0.00040228300510044,-0.00040228385759615,0.00040227913465279,-0.00040227951270574,0.00040228350828128,-0.00040228337129265,0.00040227963587285,-0.00042272617313788,0.0004227233660432,-0.00042272758116628,0.00042272186797017,0.77855552113615,125803,2834,0.0023524969108215,0.0023524969362191,0.001586963713795,36.02259836573,4.8180786925838e-05,4.8180786925838e-05,4.8180786925838e-05,3491645.5751211,0.0063118132822805
5419200,0.35046907281254,0.0067331993811262,0.0024603206394287,0.0024603206627039,0.0018125580789935,-0.00061420886205649,0.00061420965204399,1.2403629689098e-09,-4.7942653152502e-10,-4.2639602070308e-09,5.153116443124e-09,-0.00063257445957712,0.00063257270042112,-0.00063257501134524,0.00063257210331224,-0.00063257137858317,0.00063257583074492,-0.00063257195223421,0.00063257525330076,-0.00056542099694534,0.0005654265893864,-0.00056542266555704,0.00056542488143638,4.268944515293e-09,-5.1357823681432e-09,-6.1246531611076e-09,5.3628752368887e-09,-0.00061420965355616,0.00061420887265413,-0.00063257431716563,0.00063257285281277,-0.00063257055240077,0.00063257667940773,-0.00063257737814019,0.00063256972070491,-0.00063257361414642,0.00063257354587568,-0.00056543129692735,0.00056541611065327,-0.00056542016631191,0.00056542752273778,-0.00062063157335403,0.00062064380622501,-0.00062064074753027,0.00062063441153529,-9.8091145855592e-10,6.2686908806495e-10,-0.00040668411657296,0.00040668372499211,5.4202817767934e-09,-6.005149282817e-09,-0.00043080020243739,0.00043080312533825,-0.00043080400048251,0.0004307993137326,-0.00043079967413662,0.00043080366883976,-0.00043080347414104,0.00043079985593164,-0.00045298311125388,0.00045298050122152,-0.00045298463718421,0.00045297888083137,0.76958003119358,125803,2834,0.0025558440042814,0.0025558440294432,0.0016933765991276,36.275540965929,5.0204327727432e-05,5.0204327727432e-05,5.0204327727432e-05,3607955.2440349,0.006828296412231
5619200,0.37796228563195,0.0072213922023206,0.0026499616628178,0.0026499616858615,0.0019214688536414,-0.00066181091218355,0.00066181169751894,1.2944577662332e-09,-5.380853403328e-10,-4.2202611833295e-09,5.1038578122943e-09,-0.00068292937712539,0.00068292768353165,-0.00068292996853342,0.00068292704780508,-0.00068292632680762,0.00068293078279388,-0.00068292693960044,0.00068293016676257,-0.00060678343867017,0.00060678910758588,-0.00060678521749482,0.00060678728852477,4.2267115142763e-09,-5.0893331943391e-09,-6.0434971172262e-09,5.2857761738013e-09,-0.00066181169966569,0.00066181092255031,-0.00068292925507867,0.00068292781753919,-0.00068292554177178,0.00068293159015724,-0.00068293228676903,0.00068292471456604,-0.00068292857432837,0.00068292848638321,-0.00060679368491922,0.00060677868751631,-0.00060678270714429,0.00060678994230982,-0.00066843900389697,0.00066845110013398,-0.00066844809081597,0.0006684417935133,-1.0334564199163e-09,6.9682599410597e-10,-0.00043065970774988,0.00043065933386323,5.3502804994315e-09,-5.9147539997403e-09,-0.00045829325857404,0.00045829610501366,-0.00045829700383425,0.00045829234645018,-0.00045829268992433,0.00045829668896196,-0.00045829643706678,0.00045829292879632,-0.00048096148842437,0.00048095906818941,-0.00048096313423893,0.00048095733000681,0.7363704847717,125803,2834,0.0027536342497298,0.0027536342757236,0.0017931784818886,36.526458266475,5.22116661318e-05,5.22116661318e-05,5.22116661318e-05,3723326.4768163,0.0073271915787057
5819200,0.40538223841284,0.0076910678931955,0.0028332016731737,0.0028332016961189,0.0020246645239029,-0.00070858683785194,0.00070858761841781,1.3500624559893e-09,-5.9835557997129e-10,-4.1652302511338e-09,5.0428976106749e-09,-0.00073279669395825,0.00073279507346551,-0.00073279732477518,0.00073279439906053,-0.00073279368181392,0.00073279813416818,-0.00073279433368679,0.00073279747935129,-0.00064690171146921,0.00064690745133999,-0.00064690360263792,0.00064690551769068,4.171879784701e-09,-5.0296562121561e-09,-5.9774966518029e-09,5.2245218164227e-09,-0.00070858762069214,0.00070858684802382,-0.00073279660538262,0.00073279517588143,-0.00073279293268504,0.00073279890556022,-0.00073279959946623,0.000732792110933,-0.00073279592771873,0.00073279584011617,-0.00064691191113227,0.00064689708128647,-0.00064690105587399,0.00064690820899678,-0.00071502607330859,0.00071503801874534,-0.00071503504863827,0.00071502882642735,-1.0872948096838e-09,7.6272134829813e-10,-0.00045327973223552,0.00045327937037341,5.2943501589537e-09,-5.8443275879523e-09,-0.00048501881872831,0.00048502159443122,-0.00048502252244074,0.00048501787764272,-0.00048501821007508,0.00048502221820308,-0.00048502191562906,0.00048501849973682,-0.00050724660431869,0.00050724435520355,-0.00050724836739102,0.00050724250110476,0.71317583720973,125803,2834,0.0029479477624951,0.002947947788343,0.0018873466777802,36.777296532837,5.42183722627e-05,5.42183722627e-05,5.42183722627e-05,3802989.7031878,0.0078136511091036
6019200,0.43224703724428,0.0081430504813596,0.0030100510321342,0.0030100510554165,0.0021229483938089,-0.00075384665690374,0.00075384743963185,1.4071649825463e-09,-6.5513624424332e-10,-4.1109122809517e-09,4.9942489163885e-09,-0.00078122958743623,0.00078122804005261,-0.00078123025671947,0.00078122732788328,-0.00078122660897158,0.00078123106676099,-0.00078122729893241,0.00078123037411745,-0.00068536600176958,0.0006853718166034,-0.00068536800459335,0.00068536977162272,4.1197256477388e-09,-4.9794502723947e-09,-5.8923374111068e-09,5.137659325685e-09,-0.00075384744202079,0.00075384666760354,-0.00078122952383928,0.00078122811537964,-0.00078122590595528,0.00078123178721548,-0.00078123248465635,0.00078122508434461,-0.00078122886762754,0.0007812287559054,-0.00068537613544178,0.00068536150591342,-0.00068536544614232,0.00068537246197355,-0.00076005078140425,0.00076006256617469,-0.00076005964692233,0.00076005346643039,-1.141657329834e-09,8.3003108307605e-10,-0.00047423098959533,0.0004742306411374,5.2159973238061e-09,-5.7495665490392e-09,-0.00051028710667189,0.00051028979726308,-0.00051029075332594,0.00051028613755143,-0.00051028645793373,0.00051029046177748,-0.00051029010619989,0.000510286800466,-0.00053171759214112,0.0005317155326531,-0.00053171947081184,0.00053171355553785,0.70261523068038,125803,2834,0.0031359218580473,0.0031359218852281,0.0019745782697121,36.775482515291,5.4203860122327e-05,5.4203860122327e-05,5.4203860122327e-05,3837900.3011204,0.0082805701497833
6219200,0.45848739079571,0.0085872666483171,0.003183901398366,0.0031839014199687,0.0022194638299824,-0.00079834737832188,0.00079834815890716,1.4650515653568e-09,-7.1489962583657e-10,-4.0507950473448e-09,4.9310182806293e-09,-0.00082871949135551,0.00082871802181181,-0.00082872020019995,0.00082871727074054,-0.000828716552834,0.00082872100779473,-0.00082871728213017,0.00082872027600505,-0.00072326661491292,0.00072327250362587,-0.0007232687318624,0.00072327034230808,4.0594267460347e-09,-4.9169056943619e-09,-5.8187427833251e-09,5.066478092947e-09,-0.00079834816107898,0.00079834738877416,-0.00082871946268636,0.00082871806309016,-0.00082871589056595,0.00082872168638557,-0.0008287223837983,0.00082871507277844,-0.0008287188126167,0.0008287186958638,-0.00072327669516381,0.00072326225099264,-0.00072326614567583,0.00072327306282823,-0.00080461156049946,0.00080462317813754,-0.00080462030680011,0.00080461420138314,-1.1959280119993e-09,8.9367841626724e-10,-0.00049442142722936,0.00049442108802014,5.150572013612e-09,-5.6725112504329e-09,-0.00053483871074045,0.00053484132319578,-0.0005348423103667,0.00053483771068448,-0.00053483802252813,0.00053484202695153,-0.00053484162366726,0.00053483841275258,-0.00055543775785911,0.00055543587061649,-0.00055543975317785,0.0005554337801478,0.70745491625332,125803,2834,0.0033207057863579,0.0033207058125667,0.0020586469477798,36.758778410274,5.407022728219e-05,5.407022728219e-05,5.407022728219e-05,3851225.5339886,0.0087380803915973
6419200,0.48406168469369,0.0090169466822077,0.0033523720461277,0.0033523720674643,0.0023122025686157,-0.00084152076610348,0.00084152153640282,1.5186289821035e-09,-7.7831513306577e-10,-3.9880905288072e-09,4.8566124612054e-09,-0.00087479470712688,0.00087479331162898,-0.00087479545518769,0.00087479252170705,-0.00087479181290988,0.0008747962522463,-0.0008747925812063,0.00087479548144048,-0.00076006814232328,0.00076007409126804,-0.00076007037291863,0.00076007181436035,3.9963422535756e-09,-4.843239824617e-09,-5.7597335668018e-09,5.0175333833398e-09,-0.00084152153848581,0.0008415207761895,-0.00087479471576865,0.00087479331618668,-0.00087479117745102,0.00087479690329279,-0.00087479759278117,0.00087479037127654,-0.00087479405546779,0.00087479395828861,-0.00076007817397896,0.00076006389089505,-0.00076006772855873,0.00076007459520888,-0.00084785964711304,0.00084787110442367,-0.00084786826116311,0.00084786226536864,-1.251580062412e-09,9.5662609278834e-10,-0.00051370288739786,0.00051370255534713,5.1019333142739e-09,-5.6148045853921e-09,-0.00055854914845232,0.00055855169282655,-0.00055855271309425,0.00055854811546665,-0.00055854842067259,0.00055855243596718,-0.00055855198672529,0.00055854885686246,-0.00057808626453375,0.00057808453608987,-0.00057808837691452,0.00057808233082534,0.70210892588857,125803,2834,0.0034999427549054,0.0034999427801631,0.002138935770825,36.741619660142,5.3932957281134e-05,5.3932957281134e-05,5.3932957281134e-05,3879284.4879627,0.0091807900726928
6619200,0.50934469227281,0.009465795251012,0.0035274029219581,0.0035274029431499,0.002410989385904,-0.00088591394617704,0.00088591469057125,1.5677623848765e-09,-8.4778716844866e-10,-3.9201555293512e-09,4.7481569358296e-09,-0.00092162318632888,0.00092162186796206,-0.00092162397468001,0.00092162103773713,-0.00092162034914546,0.00092162474968993,-0.0009216211575866,0.000921623938491,-0.00079874480633815,0.00079875080366062,-0.00079874714961773,0.00079874840675443,3.9204833256902e-09,-4.742729204218e-09,-5.7420358957228e-09,5.0241298786044e-09,-0.00088591469194179,0.00088591395267745,-0.0009216232559817,0.00092162182376042,-0.0009216197204118,0.00092162540708059,-0.00092162607580422,0.000921618936925,-0.00092162254132883,0.00092162252029891,-0.000798754825571,0.00079874063810427,-0.00079874439152568,0.0007987513327672,-0.00089319791355115,0.00089320921856134,-0.00089320638585778,0.00089320058495925,-1.3081447453515e-09,1.0168880829436e-09,-0.00053412168907321,0.0005341213591229,5.0986811269165e-09,-5.6096929018708e-09,-0.00058312322553681,0.00058312572945,-0.00058312678765055,0.00058312215532488,-0.00058312245742207,0.00058312651058188,-0.00058312602131546,0.00058312293462075,-0.00060263009151412,0.00060262848409869,-0.00060263232927673,0.00060262617793458,0.74070665959917,125803,2834,0.003684208431577,0.0036842084478991,0.0022239566665247,37.008721090939,5.6069768727514e-05,5.6069768727514e-05,5.6069768727514e-05,3885001.4378939,0.0096386242033733
6819200,0.53543004538618,0.009962495922718,0.003720079743273,0.0037200797699978,0.0025223364094472,-0.00093481488360331,0.0009348155827251,1.6126722538814e-09,-9.3132782151552e-10,-3.8159784567128e-09,4.5836897295722e-09,-0.00097246279499957,0.00097246156593765,-0.00097246362565857,0.00097246069224611,-0.00097246004468429,0.00097246435832463,-0.00097246089597234,0.00097246350369049,-0.00084237790900889,0.00084238391578297,-0.00084238037732467,0.0008423813896441,3.8087149256676e-09,-4.5854989700741e-09,-5.8193823209738e-09,5.1447910982186e-09,-0.00093481558513621,0.00093481488883997,-0.00097246297025393,0.00097246142593009,-0.00097245936946353,0.00097246507547067,-0.00097246570236181,0.00097245862834562,-0.00097246210328996,0.00097246227805576,-0.00084238797946545,0.00084237373080965,-0.00084237735554205,0.00084238462361308,-0.0009443101500625,0.00094432130193537,-0.00094431838682064,0.00094431296170341,-1.3683443422396e-09,1.0643764648531e-09,-0.00055807890811184,0.00055807856391416,5.1947609757099e-09,-5.7222190936217e-09,-0.00061083289947895,0.00061083542229187,-0.00061083653090471,0.00061083177938336,-0.00061083209406368,0.00061083623849959,-0.00061083572805467,0.00061083259345306,-0.0006318995050013,0.00063189792140826,-0.00063190186164956,0.00063189552443664,0.792214502909,125803,2834,0.0038871441332592,0.0038871441490949,0.0023236954111911,38.073049648843,6.4584397190744e-05,6.4584397190744e-05,6.4584397190744e-05,3915219.3981681,0.010149246491584
7019200,0.56221977381691,0.010434300272108,0.0039050968038402,0.0039050968352933,0.0026241066329751,-0.00098339036823997,0.0009833910239748,1.6472207358313e-09,-1.0115755086508e-09,-3.7218413443017e-09,4.4496579248871e-09,-0.0010235962273328,0.0010235950673197,-0.0010235970965626,0.0010235941542724,-0.0010235935508191,0.0010235977838307,-0.0010235944408328,0.0010235968900148,-0.00088469599503212,0.0008847019865475,-0.00088469857597024,0.00088469934884838,3.7177588008441e-09,-4.4489381529954e-09,-5.891884856598e-09,5.260629821484e-09,-0.00098339102764226,0.00098339037525172,-0.0010235964814221,0.0010235948439962,-0.0010235928193468,0.001023598556345,-0.0010235991398998,0.0010235921225021,-0.0010235954791984,0.0010235958346882,-0.00088470608399207,0.00088469176814613,-0.00088469527571661,0.00088470284601848,-0.00099378677422307,0.00099379780852005,-0.00099379477373942,0.00099378968036781,-1.4354289640716e-09,1.1180224624165e-09,-0.00058097696069859,0.0005809766029018,5.2803856885238e-09,-5.8226110626365e-09,-0.00063814351365002,0.00063814604534636,-0.00063814720731743,0.00063814234031738,-0.00063814266864557,0.00063814690177067,-0.00063814636475787,0.00063814319461889,-0.00065907204505194,0.0006590705035043,-0.00065907451285927,0.00065906798186085,0.7333580674176,125803,2834,0.0040886817729193,0.004088681795049,0.0024190380678576,39.157185847848,7.3257486782781e-05,7.3257486782781e-05,7.3257486782781e-05,3973107.7547093,0.010652864639191
7219200,0.58956146059863,0.010897883229444,0.0040878010684283,0.0040878011021443,0.0027222810588715,-0.0010318996517218,0.0010319002683852,1.6851252163755e-09,-1.0903256222713e-09,-3.6516446603799e-09,4.3426701062621e-09,-0.0010751056730927,0.0010751045701628,-0.0010751065808023,0.001075103617482,-0.0010751030533359,0.0010751072275467,-0.001075103982201,0.0010751062945388,-0.00092636096074753,0.00092636696371574,-0.00092636365653967,0.00092636421239841,3.650187914853e-09,-4.339678543701e-09,-5.9495842420575e-09,5.3582890424901e-09,-0.0010319002726049,0.0010318996605289,-0.0010751059882816,0.0010751042815785,-0.0010751022747306,0.0010751080456297,-0.001075108589636,0.0010751016186032,-0.0010751048775772,0.0010751053826811,-0.00092637107746839,0.00092635670742987,-0.00092636011779691,0.0009263679384901,-0.0010426431095849,0.0010426540620434,-0.0010426509262803,0.0010426460996947,-1.501432059955e-09,1.1715244607319e-09,-0.00060345956445664,0.00060345919409329,5.3507551585955e-09,-5.9067122019232e-09,-0.00066517769547849,0.00066518022667968,-0.00066518144070761,0.00066517647015236,-0.00066517681087671,0.00066518112297218,-0.00066518055849147,0.00066517736435336,-0.0006855528223339,0.00068555133315549,-0.0006855554038465,0.00068554869149434,0.70718847994064,125803,2834,0.0042898995330967,0.0042898995600966,0.0025126588301054,40.242087736492,8.1936701891934e-05,8.1936701891934e-05,8.1936701891934e-05,4046594.2544137,0.011154350913863
7419200,0.61646133737084,0.011338724761853,0.0042622355373573,0.0042622355706764,0.0028142536538188,-0.0010777346808737,0.0010777352819712,1.7350089139922e-09,-1.1616713234149e-09,-3.6320543148809e-09,4.3197290372431e-09,-0.0011241991374536,0.0011241980690989,-0.0011242000848204,0.001124197076303,-0.0011241965305985,0.0011242007125539,-0.0011241974996121,0.001124199739334,-0.0009652341326006,0.00096524020756817,-0.00096523694955526,0.00096523733979635,3.6376888676903e-09,-4.3100453849374e-09,-5.9211118032283e-09,5.3465546711086e-09,-0.0010777352862313,0.0010777346915802,-0.001124199455674,0.0011241977659314,-0.0011241957539765,0.0011242015166974,-0.0011242020439394,0.001124195117378,-0.0011241983440096,0.0011241988678585,-0.00096524423548202,0.0009652299355474,-0.00096523331362037,0.00096524112433438,-0.0010883035105865,0.0010883144253024,-0.0010883112589074,0.0010883064761272,-1.5603247780733e-09,1.2276854921686e-09,-0.00062374899415398,0.00062374862208329,5.3320216040728e-09,-5.8890141766643e-09,-0.00069038125572994,0.00069038373520871,-0.00069038498887191,0.00069037999031675,-0.00069038033396823,0.00069038467088904,-0.00069038406934026,0.00069038092362001,-0.00070933411485272,0.00070933274635046,-0.00070933679554143,0.00070932997874209,0.68501443731274,125803,2834,0.0044799823192072,0.004479982350246,0.0025971623934468,40.770468534346,8.6163748274768e-05,8.6163748274768e-05,8.6163748274768e-05,4108986.4405765,0.011624339283694
7619200,0.64218107699299,0.011751569472947,0.0044258625024164,0.0044258625297541,0.0028998444407765,-0.0011204582243035,0.0011204588249651,1.7908252766347e-09,-1.2196811285787e-09,-3.6472093496697e-09,4.3369750599772e-09,-0.0011702085837091,0.0011702075421735,-0.0011702095695488,0.0011702065109362,-0.0011702059656271,0.0011702101961895,-0.0011702069729395,0.0011702091847,-0.0010008384335879,0.0010008446266133,-0.0010008413615297,0.0010008416478868,3.6539854774872e-09,-4.3259428469281e-09,-5.8401811639474e-09,5.2666689359803e-09,-0.0011204588279386,0.0011204582339128,-0.0011702088809245,0.0011702072556082,-0.0011702052311359,0.0011702109522397,-0.0011702114807555,0.0011702045965394,-0.0011702078326004,0.0011702082930975,-0.0010008485167872,0.0010008343656388,-0.0010008377509408,0.0010008453952929,-0.001130598997661,0.0011306098905298,-0.0011306067733729,0.0011306019057151,-1.6161583309874e-09,1.2936232336394e-09,-0.00064164868862849,0.00064164832694394,5.2564784275544e-09,-5.8018197642954e-09,-0.00071347549004124,0.00071347788548,-0.0007134791694571,0.000713474194414,-0.000713474528091,0.00071347886162752,-0.00071347820952425,0.000713475168351,-0.0007304459881554,0.00073044480302525,-0.00073044878563392,0.00073044191399179,0.67223240938207,125803,2834,0.004657125338044,0.0046571253641402,0.0026717282579377,40.851665106127,8.6813320849016e-05,8.6813320849016e-05,8.6813320849016e-05,4137054.1356613,0.01205830017823
7819200,0.66668727170385,0.01214127867959,0.0045804135074369,0.0045804135316329,0.00298045164052,-0.0011610542320284,0.0011610548328495,1.8503135680141e-09,-1.2776131677359e-09,-3.6585626411874e-09,4.3452584435137e-09,-0.0012140096295858,0.0012140086214711,-0.0012140106546148,0.0012140075510755,-0.0012140070047247,0.0012140112819749,-0.0012140080510866,0.0012140102313509,-0.0010342606304807,0.001034266950203,-0.0010342636730395,0.0010342638558593,3.6634036055345e-09,-4.3361593689255e-09,-5.76186985654e-09,5.1877011750144e-09,-0.0011610548354637,0.0011610542404818,-0.0012140099153719,0.0012140083472659,-0.001214006316274,0.0012140119911471,-0.0012140125221759,0.0012140056817635,-0.0012140089248288,0.0012140093258522,-0.00103427070871,0.0010342567044661,-0.0010342600960746,0.0010342675799056,-0.0011708120459062,0.0011708229049689,-0.0011708198475433,0.0011708149075064,-1.6706969481682e-09,1.3576939441467e-09,-0.00065818460409371,0.00065818425192756,5.1835781413048e-09,-5.7185957049751e-09,-0.00073487983024277,0.00073488214348738,-0.00073488345780421,0.00073487850454807,-0.0007348788283538,0.00073488315903331,-0.00073488245796166,0.00073487951791211,-0.0007502069575196,0.0007502059495162,-0.00075020987480997,0.00075020294861162,0.66655083464013,125803,2834,0.0048254153380481,0.0048254153609892,0.0027406204116543,40.921571799733,8.7372574397861e-05,8.7372574397861e-05,8.7372574397861e-05,4147441.6920768,0.012468777012351
8019200,0.68997306166643,0.012508364581805,0.0047261129918241,0.004726113015714,0.0030561385742668,-0.0011993881239296,0.0011993887155699,1.9047629289765e-09,-1.3407076253612e-09,-3.6737163069592e-09,4.3498097362396e-09,-0.0012555487330147,0.001255547748299,-0.0012555497972526,0.0012555466388332,-0.0012555461007596,0.0012555504154553,-0.0012555471862191,0.0012555493256956,-0.0010652228024133,0.001065229235794,-0.0010652259599046,0.0010652260262627,3.677976537165e-09,-4.3414166733493e-09,-5.6863665202822e-09,5.1210203054975e-09,-0.0011993887180905,0.001199388131863,-0.0012555489995416,0.0012555474937124,-0.0012555454462481,0.0012555510899647,-0.0012555516137832,0.0012555448215576,-0.0012555480623612,0.001255548418184,-0.0010652328685931,0.0010652190056873,-0.0010652223939136,0.0010652297407631,-0.0012087985679653,0.0012088094077846,-0.0012088063912417,0.0012088013940272,-1.7255598234223e-09,1.4212195663943e-09,-0.00067355131457612,0.00067355097118787,5.1181157979138e-09,-5.6432160644101e-09,-0.00075473533189544,0.00075473756739954,-0.00075473891278663,0.00075473397521713,-0.00075473429047712,0.00075473862237792,-0.00075473787340886,0.00075473502799365,-0.00076891475829932,0.00076891392160606,-0.00076891779241954,0.0007689108059082,0.66097249121906,125803,2834,0.004984299430467,0.00498429945213,0.0028046456543019,40.99103979391,8.7928318351279e-05,8.7928318351279e-05,8.7928318351279e-05,4158004.9698134,0.012855437989919
8219200,0.71218264939426,0.012855476330513,0.004863971145498,0.0048639711693597,0.003127534015655,-0.001235894788118,0.0012358953668524,1.9572460198305e-09,-1.4044064946397e-09,-3.6881064448209e-09,4.3472570002827e-09,-0.0012953375548559,0.0012953365933456,-0.0012953386578567,0.0012953354448332,-0.0012953349184469,0.0012953392643318,-0.0012953360425425,0.0012953381357299,-0.0010948377987088,0.0010948443422405,-0.0010948410694527,0.0010948410176511,3.6904882067068e-09,-4.3405437312059e-09,-5.6292395439383e-09,5.076568400309e-09,-0.0012358953691659,0.0012358947954594,-0.0012953378097433,0.0012953363535074,-0.0012953342892438,0.0012953399153347,-0.0012953404280227,0.0012953336771648,-0.0012953369096302,0.0012953372399329,-0.0010948478702474,0.0010948341152872,-0.0010948374945913,0.0010948447505178,-0.0012449528972396,0.0012449637277953,-0.0012449607396051,0.0012449557107165,-1.7817746420173e-09,1.4846234616253e-09,-0.00068815435046669,0.00068815401413528,5.0712354826874e-09,-5.5885580766769e-09,-0.00077365574871069,0.00077365791740165,-0.00077365929599024,0.00077365435889513,-0.00077365466714539,0.00077365901204956,-0.00077365821654875,0.00077365545159847,-0.00078658003834939,0.00078657936001615,-0.00078658319312613,0.00078657613088434,0.65549139546208,125803,2834,0.0051355839670601,0.0051355839870566,0.0028654920472355,41.181356663892,8.9450853311135e-05,8.9450853311135e-05,8.9450853311135e-05,4172078.3334633,0.013223626741821
8419200,0.73336803305439,0.013185670202265,0.0049950709096314,0.0049950709348297,0.0031955283578042,-0.0012706619387416,0.0012706625087887,2.011799495377e-09,-1.46748486458e-09,-3.697122759261e-09,4.3473872522448e-09,-0.0013334319227364,0.0013334309886938,-0.0013334330650943,0.0013334298010683,-0.0013334292825351,0.0013334336627705,-0.0013334304458853,0.0013334324949077,-0.0011231521527398,0.0011231588055186,-0.0011231555386256,0.0011231553658579,3.6997253567535e-09,-4.3406913337494e-09,-5.5881159593393e-09,5.0440589388147e-09,-0.0012706625112744,0.0012706619462464,-0.0013334321735963,0.0013334307536758,-0.0013334286770406,0.0013334342908609,-0.0013334347956001,0.001333428074014,-0.0013334313011301,0.001333431612073,-0.0011231622409977,0.0011231485633534,-0.0011231519363845,0.0011231591255089,-0.0012794090213856,0.0012794198448942,-0.0012794168724389,0.0012794118194289,-1.8381844915739e-09,1.5464785867878e-09,-0.00070205217842091,0.00070205184768741,5.0383289152399e-09,-5.5490858988194e-09,-0.00079163771706265,0.00079163982777528,-0.00079164124048344,0.00079163629327948,-0.00079163659605613,0.00079164096177593,-0.0007916401215086,0.00079163742521674,-0.00080342737381794,0.00080342684046583,-0.00080343064422777,0.00080342349568726,0.65380935066346,125803,2834,0.0052796359876066,0.0052796360082952,0.0029234033941618,41.430625026011,9.1445000208089e-05,9.1445000208089e-05,9.1445000208089e-05,4184056.2770519,0.013574313315641
8619200,0.7535144870179,0.013499057639707,0.0051194384007012,0.0051194384263983,0.0032601808126073,-0.0013035849020216,0.0013035854658033,2.0671658588549e-09,-1.5296865744193e-09,-3.7049109221615e-09,4.349518034445e-09,-0.0013696047213079,0.0013696038166547,-0.0013696059029616,0.0013696025899822,-0.0013696020776013,0.0013696064942283,-0.0013696032801177,0.0013696052871565,-0.0011500042331384,0.001150010997123,-0.0011500077341114,0.0011500074422104,3.7081065992417e-09,-4.3423807072879e-09,-5.5549726576292e-09,5.0174808666537e-09,-0.0013035854684509,0.0013035849099419,-0.0013696049722293,0.0013696035820901,-0.0013696014952094,0.0013696070992463,-0.001369607597711,0.0013696008988683,-0.0013696041228168,0.0013696044169062,-0.0011500143459203,0.0011500007295971,-0.0011500040988636,0.0011500112322412,-0.001312081694741,0.0013120925143484,-0.0013120895535013,0.0013120844775787,-1.8950447713687e-09,1.6078718333251e-09,-0.0007151931512366,0.00071519282511409,5.0117626450473e-09,-5.5170461773494e-09,-0.00080863207375259,0.00080863413001327,-0.00080863557789484,0.00080863061494945,-0.00080863091325938,0.00080863530346444,-0.00080863441942582,0.00080863178633657,-0.00081940932005734,0.00081940892624895,-0.00081941270519279,0.00081940546500203,0.65260875412455,125803,2834,0.0054160251607415,0.0054160251826254,0.0029781645538368,41.681398710203,9.3451189681624e-05,9.3451189681624e-05,9.3451189681624e-05,4193564.3961189,0.013906388191071
8819200,0.77261383882815,0.013785233947371,0.0052334408588116,0.0052334408847083,0.0033183522038509,-0.0013341975020061,0.0013341980609707,2.1232179748542e-09,-1.5909445254427e-09,-3.7116883495864e-09,4.3516398302726e-09,-0.0014034174655058,0.0014034165918578,-0.0014034186864856,0.001403415326231,-0.0014034148184771,0.0014034192726326,-0.0014034160601095,0.0014034180263902,-0.0011746869814639,0.0011746938580748,-0.0011746905972523,0.0011746901881173,3.7152114456641e-09,-4.3442587765246e-09,-5.5278177158228e-09,4.9955095519321e-09,-0.0013341980637236,0.0013341975103091,-0.0014034177202809,0.0014034163544549,-0.0014034142584611,0.0014034198552715,-0.0014034203492549,0.001403413667947,-0.0014034168894008,0.0014034171694779,-0.0011746971253385,0.0011746835591409,-0.0011746869257088,0.001174694012996,-0.001342152299836,0.0013421631166751,-0.0013421601660809,0.0013421550703155,-1.9522872099724e-09,1.6690597951631e-09,-0.00072714729999161,0.00072714697783457,4.9899977250977e-09,-5.4905897016271e-09,-0.00082433345873647,0.00082433546323823,-0.00082433694694341,0.00082433196415156,-0.00082433225872586,0.00082433667619719,-0.00082433574895523,0.00082433317506733,-0.00083382590851832,0.00083382565038983,-0.00083382940895672,0.00083382207286855,0.62941992751149,125803,2834,0.0055428238716484,0.0055428238945411,0.0030279868760654,41.932231026158,9.5457848209262e-05,9.5457848209262e-05,9.5457848209262e-05,4211816.1087201,0.014214112928679
9019200,0.79026727129402,0.014049846297099,0.0053387288669968,0.0053387288930476,0.0033723885370548,-0.0013615677794849,0.0013615683432553,2.1834335559566e-09,-1.6556723031712e-09,-3.7252253521579e-09,4.3910553085098e-09,-0.0014336976394122,0.0014336967875904,-0.0014336989013408,0.0014336954817126,-0.0014336949742154,0.0014336994856518,-0.0014336962581317,0.0014336981980968,-0.0011966577883864,0.0011966647861822,-0.0011966615277358,0.0011966609956738,3.7415915961215e-09,-4.3727387560792e-09,-5.4768579025096e-09,4.9423622887853e-09,-0.0013615683481302,0.0013615677939304,-0.0014336978721693,0.0014336965591535,-0.0014336944429279,0.0014337000250702,-0.001433700518587,0.0014336938532114,-0.0014336970934308,0.0014336973195631,-0.0011966679318937,0.0011966544516237,-0.0011966578298418,0.0011966647945684,-0.0013691300276477,0.0013691408637521,-0.0013691379028928,0.0013691327099192,-2.0068910842243e-09,1.7252197772789e-09,-0.00073729715556097,0.00073729683756341,4.9457922720715e-09,-5.4394416537067e-09,-0.00083786922372763,0.00083787116519975,-0.0008378726804505,0.00083786769752676,-0.00083786798860078,0.00083787241639483,-0.00083787144663512,0.00083786894427764,-0.00084626623600602,0.000846266116531,-0.00084626982147144,0.00084626240986796,0.62977530152668,125803,2834,0.0056561771474346,0.0056561771874783,0.0030702992884211,41.750173702864,9.4001389622912e-05,9.4001389622912e-05,9.4001389622912e-05,4216113.6731879,0.014487029550019
9219200,0.80646882737235,0.014289979802933,0.005434294092008,0.0054342941117266,0.0034213915991989,-0.0013862321452854,0.0013862327098152,2.2408843722853e-09,-1.7127787544906e-09,-3.7545985587678e-09,4.4148136024161e-09,-0.0014610407523006,0.001461039925541,-0.0014610420541925,0.0014610385798903,-0.0014610380698489,0.0014610426422369,-0.0014610393928136,0.001461041315001,-0.0012164698904486,0.0012164770241279,-0.0012164737426742,0.0012164731201148,3.7676553590679e-09,-4.39899633457e-09,-5.4289296977313e-09,4.8950134440486e-09,-0.0013862327141511,0.0013862321593714,-0.0014610409773592,0.0014610397125601,-0.0014610375796753,0.0014610431457404,-0.0014610436405645,0.001461036988902,-0.0014610402460927,0.0014610404226532,-0.0012164800670474,0.0012164666605804,-0.0012164700603861,0.0012164769137212,-0.0013933921607093,0.0013934030144123,-0.0013934000967802,0.0013933948236144,-2.0624934884606e-09,1.789818007112e-09,-0.00074621176497054,0.0007462114550981,4.9016648952411e-09,-5.3868718300749e-09,-0.00084988658072222,0.00084988845794151,-0.00084989000553292,0.00084988502224306,-0.00084988530569986,0.00084988974863282,-0.00084988873161864,0.00084988630897503,-0.00085714295886006,0.00085714299694351,-0.0008571466646431,0.00085713918064786,0.62300580294679,125803,2834,0.005758310998373,0.0057583110365455,0.0031074687366241,41.452434811019,9.1619478488152e-05,9.1619478488152e-05,9.1619478488152e-05,4215830.131293,0.014732029877339
9419200,0.82132795500374,0.014507732276648,0.0055209625938733,0.0055209626127594,0.0034658070700154,-0.0014085800878495,0.0014085806525142,2.3001767550614e-09,-1.7688156177794e-09,-3.7751233712194e-09,4.4306326972712e-09,-0.0014858851800928,0.0014858843816147,-0.0014858865211496,0.0014858829972269,-0.0014858824857008,0.001485887110403,-0.0014858838474474,0.0014858857443634,-0.0012345048456066,0.0012345121112312,-0.0012345088100973,0.0012345080930948,3.7851015951562e-09,-4.4176477575569e-09,-5.3915256786352e-09,4.8567478085522e-09,-0.0014085806557011,0.0014085800996636,-0.0014858854022899,0.0014858841732047,-0.0014858820295794,0.0014858875811971,-0.001485888078169,0.0014858814377839,-0.0014858847080772,0.0014858848460705,-0.0012345150629856,0.0012345017175664,-0.0012345051303778,0.0012345118966776,-0.001415348626326,0.0014153594895305,-0.0014153566086887,0.0014153512747423,-2.1195846521643e-09,1.8529864127135e-09,-0.00075417262790874,0.00075417232370957,4.8662593614496e-09,-5.3453170168814e-09,-0.00086068301617693,0.00086068483331728,-0.00086068641542901,0.00086068142315484,-0.00086068170082919,0.0008606861635829,-0.00086068510131057,0.00086068274980706,-0.00086683960494282,0.00086683979421752,-0.00086684343622825,0.00086683586519418,0.61620824084427,125803,2834,0.0058508425275712,0.0058508425586438,0.0031406648987412,41.151672349397,8.9213378795179e-05,8.9213378795179e-05,8.9213378795179e-05,4216544.2234788,0.014953563752372
9619200,0.83495113406682,0.014705087862751,0.0055995296182354,0.0055995296369903,0.0035060286075255,-0.0014288030364449,0.0014288036005571,2.3590527449109e-09,-1.8270319369579e-09,-3.7799293840461e-09,4.4336114263908e-09,-0.0015084493977238,0.0015084486354306,-0.0015084507778546,0.0015084472120209,-0.0015084467006774,0.0015084513669484,-0.0015084481013505,0.0015084499618782,-0.0012506556717805,0.0012506630560574,-0.001250659750997,0.0012506589227868,3.7889733451122e-09,-4.4215961001348e-09,-5.3700430372445e-09,4.8352277104617e-09,-0.0014288036032304,0.0014288030470885,-0.0015084496295044,0.0015084484171187,-0.0015084462706008,0.001508451810695,-0.0015084523085179,0.001508445679336,-0.0015084489520753,0.0015084490731876,-0.0012506659308499,0.0012506526251738,-0.0012506560398756,0.0012506627614676,-0.0014352129808236,0.0014352238370991,-0.0014352209745551,0.0014352156185969,-2.1766730211506e-09,1.9142514031689e-09,-0.00076128862111232,0.00076128832101185,4.8473372759364e-09,-5.3217143276902e-09,-0.00087037282063887,0.00087037458813029,-0.00087037620581799,0.00087037119207289,-0.00087037146563916,0.00087037595779021,-0.00087037485213255,0.00087037255822343,-0.00087564325768305,0.00087564358116739,-0.00087564720650255,0.00087563953801646,0.6093804059263,125803,2834,0.0059345669539248,0.0059345669815027,0.0031703408884135,40.850791628504,8.6806333028033e-05,8.6806333028033e-05,8.6806333028033e-05,4218548.7565259,0.015153690123708
9819200,0.8472044637653,0.014883452073073,0.0056704064753312,0.0056704064938791,0.0035426391038631,-0.001446168367201,0.001446168934214,2.4160813638434e-09,-1.8847969597467e-09,-3.7864673870793e-09,4.4508773933391e-09,-0.001527922934324,0.0015279222035663,-0.0015279243535134,0.001527920742085,-0.0015279202297003,0.0015279249430926,-0.0015279216682465,0.0015279234999545,-0.0012644159404827,0.0012644234366369,-0.0012644201310412,0.0012644191935442,3.800296130856e-09,-4.4350295203754e-09,-5.3395218654574e-09,4.8025136576661e-09,-0.0014461689374314,0.0014461683795706,-0.0015279231655673,0.0015279219812257,-0.001527919827895,0.00152792535377,-0.0015279258536759,0.001527919235338,-0.0015279225168824,0.0015279226077659,-0.0012644262228802,0.0012644129678924,-0.0012644163902964,0.0012644230406603,-0.0014523375749503,0.001452348430842,-0.0014523455760795,0.0014523401742795,-2.2347366162672e-09,1.9767667466328e-09,-0.00076698407963616,0.00076698378451361,4.8175970033821e-09,-5.2854253359723e-09,-0.00087831513030674,0.00087831684095248,-0.00087831849412487,0.00087831346626929,-0.00087831373605216,0.00087831825086233,-0.00087831710013301,0.00087831487302747,-0.0008828549208946,0.00088285538944175,-0.00088285898143549,0.00088285122070352,0.61213711141589,125803,2834,0.0060064534267895,0.0060064534590836,0.0031941030886496,40.184800663882,8.1478405311054e-05,8.1478405311054e-05,8.1478405311054e-05,4210671.4637765,0.015323808996414
10019200,0.85821714990824,0.015044766272241,0.0057343690012368,0.0057343690182167,0.0035760282527877,-0.0014615489343399,0.0014615495002577,2.4757901397224e-09,-1.9437292556408e-09,-3.7914793063215e-09,4.448835301253e-09,-0.0015451891406408,0.0015451884487332,-0.001545190599,0.0015451869475672,-0.0015451864347073,0.0015451911893429,-0.0015451879130324,0.0015451897065804,-0.0012766712979134,0.0012766789185281,-0.001276675605016,0.0012766745565058,3.80160816748e-09,-4.4358264857727e-09,-5.3187176490976e-09,4.7825900584691e-09,-0.0014615495031685,0.0014615489455935,-0.0015451893867364,0.0015451882163287,-0.0015451860613441,0.0015451915749523,-0.0015451920749598,0.0015451854691376,-0.0015451887515865,0.0015451888282367,-0.0012766816270846,0.0012766684130576,-0.0012766718361409,0.0012766784458461,-0.0014675484674046,0.0014675593128324,-0.0014675564828998,0.0014675510651785,-2.2910955502756e-09,2.0370290101914e-09,-0.00077196028990967,0.00077195999826446,4.8002830507122e-09,-5.2646289571495e-09,-0.00088528389626139,0.00088528555820205,-0.00088528724706678,0.00088528219658847,-0.00088528246245601,0.00088528700717259,-0.00088528581412531,0.00088528364221374,-0.00088920819181154,0.00088920879110057,-0.00088921237045947,0.00088920451300784,0.61574676987196,125803,2834,0.006070118145982,0.0060701181753172,0.0032148681128467,39.480677283674,7.5845418269391e-05,7.5845418269391e-05,7.5845418269391e-05,4197864.5974877,0.015474211334528
10219200,0.86812846796254,0.015191043524791,0.005792239183763,0.0057922392007482,0.0036065651402795,-0.0014752532453021,0.0014752538095222,2.5341264980573e-09,-2.0026180795688e-09,-3.7861999403672e-09,4.4406535908457e-09,-0.0015605803367751,0.0015605796867868,-0.0015605818341163,0.0015605781465858,-0.0015605776351288,0.0015605824229985,-0.0015605791524122,0.0015605809011748,-0.0012876752069503,0.0012876829383371,-0.0012876796281935,0.0012876784603974,3.7955731697862e-09,-4.4284237973886e-09,-5.3081900882913e-09,4.7733780914104e-09,-0.0014752538118952,0.0014752532555557,-0.0015605806018049,0.0015605794346101,-0.0015605772825414,0.0015605827866155,-0.0015605832861256,0.001560576692204,-0.0015605799688504,0.0015605800446509,-0.001287685580517,0.0012876723913834,-0.0012876758086463,0.0012876824039969,-0.0014811282342709,0.0014811390609484,-0.0014811362398033,0.0014811308303215,-2.3487619326131e-09,2.0974429676453e-09,-0.00077638035783893,0.00077638006887513,4.7921613748661e-09,-5.2534565577307e-09,-0.00089148016487305,0.00089148178349998,-0.00089148350926234,0.00089147842828939,-0.00089147869143395,0.00089148327173061,-0.00089148203684984,0.00089147991322016,-0.00089490911804553,0.00089490984229155,-0.00089491341436554,0.00089490545085527,0.6200702286874,125803,2834,0.0061268398755242,0.0061268399016687,0.0032333152015248,38.775481986821,7.0203855894571e-05,7.0203855894571e-05,7.0203855894571e-05,4181915.9016071,0.015608175927995
10419200,0.87707625991161,0.015324244672921,0.0058448164405054,0.0058448164573996,0.0036346117750163,-0.0014875700567952,0.0014875706176688,2.5916063374406e-09,-2.0623948684289e-09,-3.7734945810955e-09,4.4224139467602e-09,-0.0015744023906289,0.0015744017871275,-0.0015744039269531,0.0015744002077229,-0.0015743996990222,0.0015744045130381,-0.0015744012553262,0.0015744029520681,-0.0012976396324645,0.0012976474680946,-0.0012976441684528,0.0012976428742831,3.7815487354584e-09,-4.4112524287057e-09,-5.3088692378081e-09,4.7771426943051e-09,-0.001487570619612,0.0014875700661183,-0.0015744026838265,0.0015744015074851,-0.0015743993626779,0.0015744048608272,-0.0015744053581196,0.0015743987754413,-0.001574402039137,0.0015744021294218,-0.001297650055378,0.0012976368752643,-0.0012976402792489,0.001297646892153,-0.0014933660356972,0.0014933768360401,-0.0014933740153877,0.0014933686410015,-2.4070340385787e-09,2.1572281934242e-09,-0.00078038108429394,0.00078038079669166,4.795280740862e-09,-5.255282486687e-09,-0.00089706880325485,0.00089707038541623,-0.00089707214930824,0.00089706702860131,-0.00089706729020614,0.0008970719129233,-0.00089707063744071,0.00089706855288035,-0.00090012004514642,0.00090012088478409,-0.00090012445878275,0.00090011637980445,0.6250614269831,125803,2834,0.0061778153257155,0.0061778153490388,0.0032500137858609,38.100406624361,6.4803252994891e-05,6.4803252994891e-05,6.4803252994891e-05,4164152.8911043,0.015728705933302
10619200,0.88542906034029,0.015446334491686,0.005893059026203,0.0058930590432527,0.0036602164222306,-0.0015000359675817,0.0015000365188547,2.6473626927693e-09,-2.1237989312828e-09,-3.7348292394128e-09,4.3658520521578e-09,-0.0015882985577371,0.0015882980173511,-0.0015883001331137,0.0015882963985465,-0.0015882958972729,0.0015883007113918,-0.0015882974927299,0.0015882991110599,-0.0013078337933254,0.0013078417128179,-0.0013078384440161,0.0013078370024385,3.7380073897931e-09,-4.3589652178701e-09,-5.3515373259535e-09,4.8282772126587e-09,-0.0015000365200002,0.0015000359744299,-0.001588298911544,0.0015882976799409,-0.0015882955594496,0.0015883010646814,-0.0015883015547156,0.0015882949799433,-0.0015882982047778,0.0015882983652517,-0.001307844291319,0.0013078310592043,-0.0013078344253389,0.0013078411700887,-0.001505692457621,0.0015057032035314,-0.001505700360753,0.0015056951205527,-2.4668707697658e-09,2.2156843592755e-09,-0.00078502733087066,0.00078502704124413,4.8407300414245e-09,-5.3038862703214e-09,-0.00090326401152303,0.00090326558357273,-0.00090326738887331,0.00090326219565891,-0.00090326245852844,0.00090326715010599,-0.00090326583729571,0.00090326375890427,-0.00090592716621459,0.00090592808955465,-0.00090593170340994,0.00090592347597366,0.61395112436824,125803,2834,0.0062294055997093,0.0062294056162385,0.0032693927165321,38.029581223779,6.4236649790233e-05,6.4236649790233e-05,6.4236649790233e-05,4157294.1112936,0.015853222429008
10819200,0.89322889388393,0.01555843221977,0.0059374083396282,0.0059374083576152,0.0036836155225262,-0.0015115634174848,0.0015115639610642,2.7014892064768e-09,-2.1871269360675e-09,-3.6909267511331e-09,4.3181985516454e-09,-0.0016011989414015,0.0016011984614443,-0.001601200555693,0.00160119680364,-0.0016011963107522,0.0016012011251145,-0.0016011979451035,0.0016011994857707,-0.0013171711065191,0.0013171790978956,-0.0013171758720995,0.001317174273528,3.6968111392514e-09,-4.3092585580626e-09,-5.3982256090218e-09,4.8824493824971e-09,-0.0015115639624526,0.0015115634249512,-0.0016011993510429,0.0016011980639742,-0.0016011959657389,0.0016012014827075,-0.0016012019649241,0.0016011953948611,-0.0016011985814051,0.001601198813799,-0.0013171816681263,0.0013171683743739,-0.0013171717023136,0.0013171785837716,-0.0015170398648929,0.0015170505623312,-0.0015170476697065,0.0015170425616789,-2.5271791510988e-09,2.273395345568e-09,-0.00078929986630943,0.0007892995740829,4.8899068070768e-09,-5.3557135951655e-09,-0.00090896610793363,0.0009089676716919,-0.00090896951910266,0.00090896425004514,-0.00090896451558195,0.00090896927759562,-0.00090896792802182,0.00090896585268255,-0.00091127067440541,0.00091127167615053,-0.00091127532408289,0.00091126694468535,0.603867538249,125803,2834,0.006277109353454,0.0062771093717738,0.0032872137410159,37.973723357952,6.3789786863617e-05,6.3789786863617e-05,6.3789786863617e-05,4155117.4197414,0.015968274021365
11019200,0.90050911174612,0.015661167962177,0.0059781095875139,0.0059781096056328,0.00370494876903,-0.0015221844283377,0.0015221849642641,2.7558134639668e-09,-2.2501144988995e-09,-3.6548440634344e-09,4.2756547053307e-09,-0.0016131281233876,0.0016131277003429,-0.001613129776607,0.0016131260033263,-0.0016131255183612,0.0016131303377651,-0.0016131271917135,0.0016131286593343,-0.0013257128543881,0.0013257209253213,-0.0013257177351456,0.0013257159866408,3.6619399586597e-09,-4.2656628711582e-09,-5.4438682943123e-09,4.9361412343122e-09,-0.0015221849662128,0.00152218443696,-0.0016131285862332,0.0016131272484993,-0.0016131251680025,0.001613130700329,-0.0016131311742885,0.0016131246053044,-0.00161312775797,0.0016131280575182,-0.0013257234862495,0.0013257101290191,-0.0013257134235069,0.0013257204364648,-0.001527457420729,0.0015274680820217,-0.0015274651439624,0.0015274601550257,-2.5878952667826e-09,2.3307400381682e-09,-0.00079318316327831,0.0007931828677642,4.9377035344214e-09,-5.4071620344887e-09,-0.00091416646251879,0.00091416801685883,-0.00091416990685974,0.00091416456215747,-0.00091416483081888,0.00091416966217513,-0.00091416827641376,0.00091416620428802,-0.00091612071091725,0.00091612179158686,-0.00091612547474456,0.00091611694300735,0.59320719749625,125803,2834,0.0063210597811066,0.0063210598029819,0.0033034120986143,37.918443727171,6.3347549817365e-05,6.3347549817365e-05,6.3347549817365e-05,4155759.6766238,0.016074062207607
11219200,0.90729228896555,0.015756806864357,0.0060159687389058,0.0060159687569705,0.0037248693684804,-0.0015319696243922,0.0015319701534196,2.8105839391193e-09,-2.3124934862643e-09,-3.6292196543602e-09,4.24400499709e-09,-0.001624134823521,0.0016241344511625,-0.0016241365156168,0.0016241327150362,-0.0016241322370668,0.001624137069514,-0.0016241339493783,0.0016241353519932,-0.0013335863132473,0.0013335944717758,-0.0013335913088925,0.0013335894184433,3.637068710871e-09,-4.2330611162266e-09,-5.4847606454409e-09,4.9841778059658e-09,-0.001531970155699,0.0015319696337794,-0.0016241353317804,0.0016241339528359,-0.0016241318841381,0.0016241374344184,-0.0016241379010069,0.0016241313287258,-0.0016241344553158,0.0016241348106679,-0.0013335970184726,0.0013335836000204,-0.0013335868689389,0.0013335939949549,-0.0015370724269146,0.0015370830681793,-0.0015370800904351,0.0015370751956957,-2.6484489136275e-09,2.3883669244417e-09,-0.00079672869734722,0.00079672839886014,4.9804579745765e-09,-5.453278521033e-09,-0.00091890073742773,0.00091890227909905,-0.00091890421145584,0.00091889879482044,-0.00091889906630945,0.00091890396385314,-0.0009189025415841,0.00091890047637653,-0.0009205730459236,0.0009205742091147,-0.00092057792429923,0.00092056924439889,0.59263236274758,125803,2834,0.0063615498867578,0.0063615499109013,0.0033182016776829,37.837669218185,6.2701353745482e-05,6.2701353745482e-05,6.2701353745482e-05,4157028.9474838,0.016171395768722
11419200,0.9135686630088,0.015845874553741,0.006051170068992,0.0060511700869057,0.0037435343978429,-0.0015407684257651,0.0015407689498691,2.8652438701783e-09,-2.3726828096983e-09,-3.6206308298017e-09,4.2310771599677e-09,-0.0016340516591171,0.0016340513272487,-0.0016340533893697,0.0016340495525588,-0.0016340490794281,0.0016340539383302,-0.001634050830258,0.0016340521822278,-0.0013406673573294,0.0013406756160331,-0.0013406724658923,0.0013406704491215,3.6275531796816e-09,-4.2179497723038e-09,-5.5134426176231e-09,5.0182068747761e-09,-0.0015407689520592,0.0015407684354579,-0.0016340521991882,0.0016340507965946,-0.0016340487306662,0.0016340542990576,-0.0016340547602994,0.0016340481804669,-0.0016340512941859,0.0016340516833671,-0.0013406781347422,0.0013406646688406,-0.0013406679241848,0.0013406751246909,-0.0015457402945157,0.0015457509379193,-0.0015457479325605,0.0015457430880423,-2.7097223075681e-09,2.4474418728308e-09,-0.00079980247885815,0.00079980217806914,5.0096679066136e-09,-5.485204774854e-09,-0.00092304974424117,0.00092305126402095,-0.00092305323864221,0.00092304775945736,-0.00092304803297046,0.00092305298891112,-0.00092305152880695,0.00092304948098808,-0.00092449670550114,0.00092449796291737,-0.00092450169971166,0.00092449288006082,0.59626238116969,125803,2834,0.0063979565399516,0.0063979565645465,0.0033310267351945,37.630735308598,6.1045882468782e-05,6.1045882468782e-05,6.1045882468782e-05,4154342.234894,0.016258440583779
11619200,0.91937634404687,0.015928658880104,0.006083844248062,0.0060838442658423,0.0037609703661993,-0.0015488799756792,0.0015488804955529,2.9230420808356e-09,-2.4341956179948e-09,-3.6186374524627e-09,4.223386793609e-09,-0.0016431846059519,0.0016431843130391,-0.0016431863758914,0.001643182498471,-0.001643182029232,0.0016431869208812,-0.0016431838196064,0.0016431851250911,-0.0013472117380088,0.0013472201067109,-0.001347216963164,0.0013472148241514,3.6260964303019e-09,-4.2123888577318e-09,-5.5361605466424e-09,5.0449137940157e-09,-0.0015488804977508,0.0015488799850651,-0.0016431851729588,0.0016431837555325,-0.0016431816882598,0.0016431872745666,-0.0016431877319756,0.0016431811417676,-0.0016431842494466,0.0016431846613333,-0.0013472225930414,0.0013472090841574,-0.0013472123345374,0.0013472195903192,-0.001553745253352,0.0015537559098932,-0.0015537528871736,0.0015537480710182,-2.7685227407274e-09,2.50463846722e-09,-0.00080263797710379,0.00080263767453829,5.0339774521171e-09,-5.5117616394856e-09,-0.00092687801072165,0.00092687950690008,-0.00092688152203856,0.00092687598539051,-0.00092687626055338,0.00092688127045291,-0.0009268797732676,0.00092687774582334,-0.00092814656818351,0.00092814792092512,-0.00092815167763235,0.00092814272546076,0.5987335906584,125803,2834,0.006431517990948,0.0064315180149195,0.0033428586995428,37.420670559855,5.9365364478839e-05,5.9365364478839e-05,5.9365364478839e-05,4149049.9022115,0.016338698581764
11819200,0.92475169590695,0.016005753692819,0.0061142278116511,0.0061142278294,0.0037772980517678,-0.0015563691798126,0.0015563696965679,2.9803295675069e-09,-2.4942594270866e-09,-3.6215406437134e-09,4.2224734750985e-09,-0.001651606419285,0.0016516061618181,-0.0016516082281991,0.0016516043080377,-0.0016516038417019,0.0016516087703146,-0.0016516056710646,0.0016516069353535,-0.0013532668278035,0.0013532753097496,-0.0013532721678537,0.0013532699121758,3.6286529774953e-09,-4.2118690330677e-09,-5.5542673545707e-09,5.0659955082779e-09,-0.0015563696985849,0.001556369188832,-0.0016516070085696,0.0016516055817258,-0.0016516035109991,0.0016516091139548,-0.0016516095685487,0.0016516029673889,-0.0016516060730459,0.0016516065000746,-0.0013532777578277,0.0013532642127393,-0.0013532674613589,0.0013532747579196,-0.0015611536393221,0.0015611643138954,-0.0015611612766687,0.0015611564748673,-2.8281619835181e-09,2.562957032569e-09,-0.0008052657323304,0.00080526542826124,5.0526661768861e-09,-5.5323341992846e-09,-0.00093042103520988,0.00093042250372464,-0.00093042455967939,0.00093041896917804,-0.00093041924567347,0.00093042430655226,-0.00093042277150224,0.00093042076887876,-0.00093155919781241,0.0009315606517206,-0.00093156442347127,0.0009315553412915,0.60218092192708,125803,2834,0.0064625031172252,0.0064625031400619,0.0033538247318561,37.210484856192,5.7683878849539e-05,5.7683878849539e-05,5.7683878849539e-05,4141952.1301197,0.016412844048518
12019200,0.92973570825476,0.016079355379647,0.0061431156972155,0.0061431157149724,0.0037931239674595,-0.0015634307366026,0.0015634312506077,3.0381248962522e-09,-2.5538704812451e-09,-3.6284639417996e-09,4.2243724776735e-09,-0.0016594930820822,0.0016594928588324,-0.0016594949300126,0.0016594909656106,-0.0016594905014351,0.0016594954702202,-0.0016594923698625,0.0016594935959859,-0.0013590622158235,0.0013590708153803,-0.0013590676707195,0.0013590653020227,3.6343014725259e-09,-4.2151572200206e-09,-5.5673266039258e-09,5.0815976444448e-09,-0.0015634312521172,0.0015634307445793,-0.0016594936911572,0.001659492259895,-0.0016594901841294,0.0016594958016379,-0.0016594962542796,0.0016594896425526,-0.0016594927493824,0.0016594931849351,-0.0013590732196493,0.0013590596458109,-0.0013590628957232,0.0013590702197364,-0.001568210510564,0.0015682212057524,-0.0015682181619724,0.0015682133634145,-2.8874754505847e-09,2.6214585796516e-09,-0.00080783078377349,0.00080783047857029,5.0662397199681e-09,-5.5476181611458e-09,-0.00093381888657785,0.00093382032421773,-0.00093382242063509,0.00093381678014313,-0.00093381705754814,0.00093382216626904,-0.00093382059309009,0.00093381861920806,-0.00093491747275792,0.00093491903181051,-0.00093492281524231,0.00093491360760318,0.6192985020601,125803,2834,0.0064917179112655,0.0064917179308922,0.0033645280886546,37.028100694974,5.6224805559794e-05,5.6224805559794e-05,5.6224805559794e-05,4132219.6247421,0.016483126471756
12219200,0.93437478887619,0.016150008196327,0.0061707370223036,0.0061707370402379,0.0038085341337853,-0.0015702497755896,0.0015702502883942,3.0962855872477e-09,-2.6131655688797e-09,-3.6345626222538e-09,4.229595958335e-09,-0.0016670213342865,0.0016670211449781,-0.0016670232213287,0.0016670192126361,-0.0016670187497301,0.0016670237601269,-0.0016670206572594,0.0016670218467197,-0.0013647888324752,0.0013647975495581,-0.0013647944025147,0.001364791921393,3.6407239077955e-09,-4.2203061179746e-09,-5.5759072670172e-09,5.0913451781717e-09,-0.0015702502900908,0.0015702497838459,-0.0016670219604815,0.0016670205283535,-0.0016670184474913,0.0016670240763774,-0.0016670245276443,0.0016670179072123,-0.0016670210166394,0.0016670214556873,-0.0013647999058723,0.0013647863114312,-0.0013647895641704,0.0013647969036058,-0.0015750907024571,0.0015751014163301,-0.0015750983643887,0.0015750935619243,-2.9467425675417e-09,2.680031679313e-09,-0.00081042858992055,0.00081042828403973,5.0751098931504e-09,-5.5572309370915e-09,-0.00093722685092847,0.00093722825489466,-0.00093723039118071,0.00093722470464458,-0.00093722498265466,0.00093723013618918,-0.00093722852431714,0.00093722658286363,-0.0009383053207109,0.00093830698799453,-0.00093831077868219,0.00093830144866436,0.63789980918349,125803,2834,0.0065199278704113,0.006519927891001,0.0033753677554108,36.914385803313,5.5315086426505e-05,5.5315086426505e-05,5.5315086426505e-05,4117403.4950864,0.016551507416638
12419200,0.93869330482268,0.016213710971988,0.0061957262679478,0.0061957262859584,0.0038222584180815,-0.0015765417209329,0.0015765422330628,3.1542849607596e-09,-2.6722259156267e-09,-3.6417749629806e-09,4.2366916012151e-09,-0.0016739691436047,0.0016739689877917,-0.0016739710695905,0.0016739670163538,-0.0016739665541853,0.0016739716077283,-0.0016739685006878,0.0016739696552415,-0.0013700421216995,0.0013700509566863,-0.0013700478062256,0.0013700452137785,3.648131523145e-09,-4.2269724456294e-09,-5.5798415678421e-09,5.0959967555692e-09,-0.0015765422347726,0.0015765417292784,-0.0016739697851508,0.0016739683556129,-0.0016739662693016,0.0016739719065544,-0.0016739723570812,0.0016739657297853,-0.001673968843203,0.0016739692811496,-0.0013700532594398,0.0013700396526329,-0.0013700429091827,0.0013700502531738,-0.0015813728029288,0.0015813835341304,-0.001581380477249,0.0015813756646932,-3.0058669548177e-09,2.7390640061513e-09,-0.00081275004677896,0.00081274974070406,5.0792455592847e-09,-5.5616080637437e-09,-0.00094038940101159,0.00094039076818861,-0.00094039294412364,0.00094038721509595,-0.00094038749333504,0.00094039268890916,-0.00094039103784148,0.00094038913274301,-0.00094129864846483,0.00094130042829139,-0.00094130422126254,0.00094129477281383,0.61826606276933,125803,2834,0.0065459550049983,0.0065459550258018,0.0033850594350899,36.802378453966,5.4419027631728e-05,5.4419027631728e-05,5.4419027631728e-05,4100218.482709,0.016614288683809
12619200,0.94271360344203,0.016269969815448,0.0062179196908116,0.0062179197088712,0.0038341304157654,-0.0015821941314768,0.0015821946432837,3.2126767046378e-09,-2.7311574027808e-09,-3.6493504423196e-09,4.2444474227506e-09,-0.0016802918188003,0.0016802916964327,-0.0016802937838524,0.001680289685866,-0.0016802892242115,0.0016802943214866,-0.0016802912097896,0.0016802923298846,-0.0013746307862635,0.0013746397406254,-0.0013746365859296,0.0013746338829724,3.6560629036703e-09,-4.2344574206126e-09,-5.5789505788515e-09,5.0955638627754e-09,-0.0015821946451378,0.0015821941401303,-0.0016802924738153,0.001680291050383,-0.0016802889583632,0.0016802946008915,-0.0016802950509305,0.0016802884193882,-0.0016802915374551,0.0016802919703295,-0.0013746419853924,0.0013746283751957,-0.0013746316364976,0.0013746389745399,-0.001586922974624,0.0015869337209125,-0.0015869306630486,0.0015869258354479,-3.0648459115407e-09,2.7979825182017e-09,-0.00081476405843746,0.00081476375236973,5.0786411380858e-09,-5.5609561726025e-09,-0.00094315420829811,0.00094315553580185,-0.00094315775100566,0.00094315198310775,-0.00094315226132815,0.00094315749585643,-0.00094315580542373,0.00094315394010054,-0.00094388987385013,0.00094389176926396,-0.00094389556180606,0.00094388599821099,0.58731201982075,125803,2834,0.0065693361907772,0.0065693362125161,0.0033934684883015,36.690437064476,5.3523496515806e-05,5.3523496515806e-05,5.3523496515806e-05,4092128.5841506,0.016670390480098
12819200,0.94642267980584,0.016322257454001,0.0062385105565063,0.0062385105745661,0.0038452363229282,-0.0015869834909493,0.0015869840049645,3.2720166599018e-09,-2.7905781825756e-09,-3.6591524060528e-09,4.2619542309297e-09,-0.0016857323910376,0.0016857322992812,-0.0016857343950661,0.0016857302493309,-0.0016857297873638,0.0016857349338232,-0.0016857318119536,0.0016857329030267,-0.0013784252926069,0.0013784343685742,-0.0013784312093765,0.0013784283956192,3.6699891862319e-09,-4.2492674496763e-09,-5.5643518951374e-09,5.0796219779839e-09,-0.0015869840075046,0.0015869835017506,-0.001685733050584,0.0016857316461107,-0.0016857295445001,0.0016857351859562,-0.0016857356369643,0.0016857290055415,-0.001685732133336,0.001685732546454,-0.0013784365407477,0.0013784229492742,-0.0013784262207067,0.0013784335175044,-0.0015916360883473,0.0015916468514761,-0.0015916437936494,0.0015916389275691,-3.1229176418418e-09,2.8564283113111e-09,-0.00081634018575122,0.00081633988061219,5.064801605646e-09,-5.545376895194e-09,-0.00094529155998741,0.00094529283955666,-0.00094529509294832,0.0009452892964486,-0.00094528957415762,0.00094529483871372,-0.00094529310858165,0.00094529129293327,-0.00094602479067799,0.00094602680921247,-0.00094603058855925,0.00094602092120618,0.59134553307191,125803,2834,0.0065891477309319,0.0065891477585381,0.0034000504585207,36.407127054224,5.1257016433791e-05,5.1257016433791e-05,5.1257016433791e-05,4089875.7733219,0.016717377141072
13019200,0.94980180864383,0.01637004247682,0.0062573075382749,0.0062573075560632,0.0038554273824823,-0.0015908126802056,0.0015908131994132,3.3325098574055e-09,-2.8495554057443e-09,-3.6724244026612e-09,4.2901532902913e-09,-0.0016901465803083,0.00169014651554,-0.001690148622946,0.0016901444262611,-0.0016901439627335,0.0016901491645951,-0.0016901460262548,0.0016901470950293,-0.0013813794657404,0.0013813886671465,-0.0013813855010811,0.0013813825812678,3.6905462279343e-09,-4.2725395758527e-09,-5.5354771728395e-09,5.0471321330447e-09,-0.0015908132035652,0.0015908126955141,-0.0016901472345331,0.0016901458627209,-0.0016901437470706,0.0016901493810996,-0.0016901498345822,0.0016901432074134,-0.0016901463508599,0.0016901467283754,-0.001381390753341,0.0013813772031501,-0.001381380492696,0.0013813877113614,-0.0015954052536781,0.0015954160368644,-0.0015954129825737,0.0015954080523316,-3.1804840544038e-09,2.9147522225263e-09,-0.00081732397510268,0.00081732367194746,5.0367840268745e-09,-5.5135949610469e-09,-0.00094676290402202,0.00094676412669655,-0.00094676641706406,0.00094676060309889,-0.00094676087960418,0.00094676616488166,-0.00094676439430213,0.00094676263934069,-0.00094749269688224,0.00094749484845942,-0.00094749860283717,0.00094748884169648,0.59302696368209,125803,2834,0.0066049863217126,0.0066049863619779,0.0034041677050168,35.874632265545,4.6997058124357e-05,4.6997058124357e-05,4.6997058124357e-05,4081828.9583972,0.016753779727289
13219200,0.95288386322106,0.016413794478848,0.0062744955994442,0.0062744956165268,0.0038648032628766,-0.0015942031378793,0.0015942036556524,3.3905688647427e-09,-2.9056014505172e-09,-3.6962679403752e-09,4.302616839009e-09,-0.0016940570198922,0.0016940569841624,-0.0016940591022435,0.0016940548564012,-0.0016940543905567,0.0016940596446331,-0.0016940564933634,0.0016940575357968,-0.0013839943452688,0.0013840036801191,-0.0013840004911073,0.0013839974787875,3.7064805628572e-09,-4.2898485927658e-09,-5.504504682981e-09,5.0166943957276e-09,-0.0015942036582551,0.0015942031489452,-0.0016940576765996,0.001694056334875,-0.0016940542108353,0.0016940598337895,-0.0016940602882705,0.0016940536682328,-0.0016940568249404,0.0016940571680679,-0.0013840056764172,0.0013839921770898,-0.0013839954767349,0.0013840026250679,-0.0015987520843012,0.0015987628787931,-0.0015987598665453,0.0015987548796914,-3.238944233636e-09,2.9769984290356e-09,-0.00081814643318662,0.00081814613281638,5.0060054817611e-09,-5.4811043440918e-09,-0.00094802417709372,0.00094802534151528,-0.00094802766900809,0.00094802183942128,-0.00094802211276711,0.00094802741976762,-0.00094802560621001,0.00094802391493954,-0.00094875808071804,0.00094876037659029,-0.00094876411070516,0.00094875425673232,0.59512403253794,125803,2834,0.0066190097623285,0.0066190097906085,0.0034076120648404,35.335920509435,4.2687364075481e-05,4.2687364075481e-05,4.2687364075481e-05,4072358.9338507,0.016785807135039
13419200,0.95569909658063,0.016453140254916,0.0062899684854344,0.0062899685024495,0.0038732032670318,-0.0015971788450053,0.001597179362769,3.4497868619088e-09,-2.9636385910518e-09,-3.7075998871332e-09,4.3114914397196e-09,-0.0016975083042753,0.0016975083019096,-0.0016975104258543,0.0016975061349573,-0.0016975056682853,0.0016975109690293,-0.0016975078102613,0.0016975088209024,-0.0013862617608187,0.0013862712197458,-0.0013862680208386,0.00138626490262,3.7162050142524e-09,-4.300296635569e-09,-5.4749316759716e-09,4.9864758677101e-09,-0.0015971793647064,0.0015971788545942,-0.0016975089653914,0.0016975076493519,-0.001697505519481,0.0016975111284483,-0.0016975115840582,0.0016975049761263,-0.0016975081403798,0.001697508455901,-0.0013862731298163,0.0013862596817316,-0.0013862629884363,0.0013862700708212,-0.0016016709587655,0.0016016817525738,-0.0016016787664451,0.0016016737389298,-3.2965109843949e-09,3.0373175150348e-09,-0.00081880013645888,0.00081879983852965,4.9773961889024e-09,-5.4499756818148e-09,-0.00094908607852862,0.00094908718612169,-0.00094908955053199,0.00094908370395083,-0.00094908397469603,0.00094908930349159,-0.00094908744821427,0.00094908581852684,-0.00094979744492503,0.00094979987915982,-0.00094980359181518,0.00094979364558068,0.58608287145058,125803,2834,0.006631317178481,0.0066313172023252,0.0034103531017177,34.796968678867,3.8375749430934e-05,3.8375749430934e-05,3.8375749430934e-05,4062461.9669874,0.016813630333848
13619200,0.95828809780213,0.016488873486231,0.0063040287657831,0.0063040287828158,0.0038808159376325,-0.0015999734285282,0.0015999739442965,3.5110754018801e-09,-3.0249968225412e-09,-3.7090141626339e-09,4.3064452223486e-09,-0.0017007515728555,0.0017007516122874,-0.0017007537351278,0.0017007494035612,-0.0017007489381031,0.0017007542777224,-0.0017007511210942,0.001700752088424,-0.0013883910363771,0.0013884006176337,-0.001388397415396,0.0013883941798333,3.717677553385e-09,-4.3006422829686e-09,-5.4504106313793e-09,4.9635168949365e-09,-0.0015999739452844,0.0015999734359439,-0.0017007522478178,0.0017007509487693,-0.0017007488170018,0.0017007544110617,-0.0017007548668957,0.0017007482741401,-0.0017007514393086,0.0017007517383866,-0.0013884024432836,0.0013883890435291,-0.0013883923497088,0.0013883993878365,-0.001604404319509,0.0016044151020956,-0.0016044121410272,0.0016044070960405,-3.3521020431465e-09,3.0941409283538e-09,-0.00081948526741646,0.00081948497058228,4.9561796762288e-09,-5.4282912356118e-09,-0.00095012478274483,0.00095012584005211,-0.00095012824053907,0.00095012237219246,-0.00095012264122831,0.00095012799456602,-0.00095012610066234,0.00095012452405729,-0.00095084013711876,0.0009508426995333,-0.00095084639648286,0.00095083635630471,0.5788984268255,125803,2834,0.0066428758076685,0.0066428758250513,0.0034132217418275,34.356194422828,3.4849555382623e-05,3.4849555382623e-05,3.4849555382623e-05,4056589.2084817,0.016840060725496
13819200,0.96068331435958,0.016521909332981,0.0063170176980299,0.0063170177152416,0.0038878739197093,-0.001602643347841,0.0016026438618967,3.5688050930424e-09,-3.0840275371934e-09,-3.7011640038626e-09,4.2963658795009e-09,-0.0017038402289312,0.001703840311575,-0.0017038424304002,0.0017038380641785,-0.0017038375999441,0.0017038429712359,-0.0017038398219303,0.0017038407429287,-0.0013904446424963,0.0013904543307657,-0.0013904511361902,0.0013904477788091,3.7088693519989e-09,-4.2905439214025e-09,-5.4348695385799e-09,4.9492105759443e-09,-0.0016026438628886,0.0016026433548481,-0.001703840922817,0.0017038396286524,-0.0017038375022226,0.0017038430815495,-0.0017038435360727,0.0017038369609041,-0.0017038401180142,0.0017038404149264,-0.001390456085516,0.0013904427222429,-0.0013904460212637,0.0013904530374413,-0.0016070227356457,0.001607033490782,-0.0016070305396496,0.0016070255052496,-3.4102397770213e-09,3.1544332751993e-09,-0.0008202248550563,0.00082022456028768,4.9422606821596e-09,-5.4120049889203e-09,-0.0009511712431324,0.00095117225304244,-0.00095117469104944,0.00095116879530889,-0.00095116906241127,0.00095117444688997,-0.0009511725115288,0.00095117098597121,-0.00095191863464296,0.00095192132415413,-0.00095192501093039,0.00095191486714734,0.57842147262396,125803,2834,0.0066539191776691,0.0066539191942138,0.0034163141708129,34.003877652701,3.2031021221612e-05,3.2031021221612e-05,3.2031021221612e-05,4053582.0096319,0.016865670797105
14019200,0.9629015471981,0.016552496879029,0.0063290358042168,0.0063290358215589,0.0038944252532536,-0.0016050651467756,0.0016050656599226,3.6245122546974e-09,-3.141829313977e-09,-3.6884579652587e-09,4.2857468584342e-09,-0.0017066454057702,0.0017066455319075,-0.0017066476451471,0.0017066432471441,-0.0017066427844425,0.0017066481840538,-0.0017066450440898,0.0017066459180417,-0.001392305869194,0.0013923156568865,-0.0013923124749363,0.0013923089938305,3.6963783426495e-09,-4.2762210615332e-09,-5.4238632290211e-09,4.9394434180743e-09,-0.0016050656614528,0.0016050651552113,-0.0017066461203297,0.0017066448261391,-0.0017066427067062,0.0017066482724501,-0.0017066487251351,0.0017066421677228,-0.0017066453135394,0.00170664561456,-0.0013923173468034,0.00139230401362,-0.0013923073015861,0.0013923143067001,-0.001609401010389,0.0016094117328136,-0.0016094087799263,0.0016094037671686,-3.4705119651377e-09,3.2158414056937e-09,-0.00082087722903869,0.00082087693566295,4.9314680113572e-09,-5.3990564716255e-09,-0.00095210396429233,0.00095210492695517,-0.00095210740433409,0.00095210147705049,-0.00095210174309177,0.00095210716149687,-0.00095210518429663,0.00095210370843003,-0.00095288218130909,0.00095288499721158,-0.00095288867460629,0.00095287842052518,0.57820996258167,125803,2834,0.0066639361127697,0.0066639361333838,0.0034190426202073,33.65377608001,2.9230208640082e-05,2.9230208640082e-05,2.9230208640082e-05,4050079.44687,0.01688882332672
14219200,0.96495774799981,0.016579858641138,0.0063398245755173,0.0063398245928535,0.0039002094727671,-0.0016072117034052,0.001607212214533,3.6818584751039e-09,-3.2015931166456e-09,-3.6760017391408e-09,4.2715400342664e-09,-0.0017091571299886,0.0017091573020726,-0.0017091594085293,0.0017091549782195,-0.0017091545174255,0.0017091599453108,-0.0017091568162172,0.0017091576401793,-0.0013939187913112,0.0013939286823493,-0.0013939255118344,0.0013939219043442,3.6842005493786e-09,-4.2617452010479e-09,-5.4138497559288e-09,4.9315373742897e-09,-0.0016072122162426,0.0016072117121426,-0.0017091578680467,0.0017091565731388,-0.0017091544602433,0.0017091600134107,-0.0017091604640267,0.0017091539234332,-0.0017091570582841,0.0017091573642551,-0.0013939303060884,0.0013939170013593,-0.0013939202779806,0.0013939272763055,-0.0016114786002382,0.0016114892925326,-0.0016114863421256,0.0016114813519178,-3.5289938920411e-09,3.2752818333294e-09,-0.00082139966824783,0.00082139937584056,4.9230531051401e-09,-5.3894525200858e-09,-0.00095289373380367,0.00095289465196762,-0.00095289716777152,0.0009528912080414,-0.00095289147318338,0.00095289692585702,-0.0009528949084815,0.0009528934789406,-0.00095366907580512,0.00095367201404692,-0.00095367568375755,0.00095366532133733,0.55856305273196,125803,2834,0.0066728142983634,0.0066728143199743,0.00342122974864,33.30375997964,2.6430079837119e-05,2.6430079837119e-05,2.6430079837119e-05,4046760.6170977,0.016909110091252
14419200,0.96683380974755,0.016605072825988,0.0063497461742037,0.0063497461915372,0.003905580460247,-0.0016084657409866,0.0016084662532372,3.7388248328796e-09,-3.2603950755802e-09,-3.6699261380403e-09,4.273229443362e-09,-0.0017107635441923,0.0017107637555043,-0.0017107658614732,0.0017107613933923,-0.001710760932927,0.001710766397303,-0.0017107632704987,0.0017107640537925,-0.001394680964556,0.0013946909614465,-0.0013946877987919,0.0013946840725042,3.6816304209531e-09,-4.2590524749093e-09,-5.396799783163e-09,4.9138579259913e-09,-0.0016084662560747,0.0016084657522587,-0.0017107642949433,0.0017107630104092,-0.001710760898439,0.0017107664391596,-0.0017107668891659,0.0017107603624142,-0.0017107634947104,0.0017107637915434,-0.0013946925116749,0.0013946792426234,-0.0013946825161192,0.0013946894827156,-0.0016126796248439,0.0016126903006401,-0.001612687346288,0.0016126823501922,-3.5881569309533e-09,3.3354536337693e-09,-0.00082132430071223,0.00082132401000309,4.906514524875e-09,-5.3700082485876e-09,-0.00095296017134112,0.00095296103967898,-0.00095296359346802,0.00095295760751748,-0.00095295787140353,0.00095296335346282,-0.00095296129452012,0.00095295991812489,-0.00095382810560265,0.00095383117322413,-0.00095383482569546,0.00095382435856955,0.56383117648147,125803,2834,0.0066780009131899,0.0066780009423855,0.0034209278418796,32.648400657868,2.1187205262945e-05,2.1187205262945e-05,2.1187205262945e-05,4043523.9232926,0.016919356735313
14619200,0.96853246778269,0.016628016082773,0.0063587608708058,0.0063587608879631,0.003910494324004,-0.0016091586945532,0.0016091592076621,3.7966028520948e-09,-3.3179118813048e-09,-3.6720630999341e-09,4.2774041237107e-09,-0.0017117611957359,0.0017117614436352,-0.0017117635504511,0.0017117590423629,-0.0017117585827411,0.0017117640873876,-0.0017117609580854,0.0017117617055892,-0.0013949550343169,0.0013949651476881,-0.0013949619820976,0.0013949581438791,3.6844488481462e-09,-4.2604829650658e-09,-5.377075035809e-09,4.8952957139365e-09,-0.0016091592102113,0.0016091587073643,-0.0017117619579473,0.001711760688468,-0.001711758572354,0.0017117641023024,-0.0017117645526861,0.0017117580375704,-0.0017117611712948,0.0017117614544675,-0.001394966620118,0.0013949533890741,-0.0013949566615986,0.0013949635897338,-0.0016133333638697,0.0016133440319287,-0.0016133410880406,0.0016133360746144,-3.6482349691711e-09,3.3950045344125e-09,-0.00082088154078257,0.00082088125024582,4.8866929798158e-09,-5.3500139415011e-09,-0.00095263047341944,0.00095263128923019,-0.00095263388251749,0.00095262787004754,-0.00095262813349636,0.00095263364292212,-0.00095263154400266,0.00095263022139374,-0.00095357184115774,0.00095357503820962,-0.00095357867521449,0.00095356810473508,0.56645232989917,125803,2834,0.0066808661670449,0.0066808661988264,0.003419097769016,31.824204718576,1.4593637748608e-05,1.4593637748608e-05,1.4593637748608e-05,4035088.5762102,0.016923327449238
14819200,0.97007322070857,0.016648950585214,0.0063669728178082,0.0063669728348174,0.0039150049325888,-0.0016096355742306,0.0016096360852698,3.8562050268187e-09,-3.3775277359049e-09,-3.67664021193e-09,4.2742650638422e-09,-0.0017125035884894,0.0017125038757799,-0.0017125059842555,0.0017125014349856,-0.0017125009747437,0.0017125065202199,-0.0017125033907127,0.0017125040980811,-0.0013950727149996,0.0013950829475922,-0.0013950797790439,0.0013950758268933,3.6859150075913e-09,-4.2624776037851e-09,-5.3615285378809e-09,4.8803715746234e-09,-0.0016096360876176,0.0016096355846152,-0.0017125043664197,0.0017125031078015,-0.0017125009921796,0.0017125065129965,-0.0017125069627142,0.0017125004566131,-0.0017125035910133,0.0017125038628175,-0.0013950843481202,0.0013950711453747,-0.0013950744204295,0.0013950813177702,-0.0016137799306304,0.0016137905914145,-0.0016137876694306,0.0016137826434481,-3.7041255459175e-09,3.4547566139981e-09,-0.0008203619560344,0.00082036166844826,4.8739011981401e-09,-5.3344363041326e-09,-0.00095220766339337,0.00095220843348188,-0.00095221106271624,0.00095220502410289,-0.00095220528484144,0.00095221082566598,-0.00095220868528177,0.00095220741319727,-0.00095321507385181,0.00095321839720706,-0.00095322202632948,0.00095321135636947,0.56961684594913,125803,2834,0.0066828375866761,0.0066828376130182,0.003416947376994,30.995747470063,7.965979760502e-06,7.965979760502e-06,7.965979760502e-06,4025006.6767012,0.016925153929922
15019200,0.97145201936647,0.016667613495942,0.0063742906289753,0.0063742906459801,0.0039190322209864,-0.0016093529718096,0.0016093534861038,3.9118821620969e-09,-3.4329501303771e-09,-3.6806976465076e-09,4.290017649435e-09,-0.0017124551245843,0.0017124554429296,-0.0017124575569799,0.0017124529652182,-0.0017124525045175,0.0017124580934093,-0.0017124549573176,0.0017124556346246,-0.0013944867688071,0.0013944971138483,-0.0013944939415399,0.0013944898858264,3.6928267772062e-09,-4.270042216469e-09,-5.3444702590373e-09,4.8613458117004e-09,-0.0016093534891582,0.0016093529853922,-0.0017124559071058,0.0017124546651201,-0.0017124525440546,0.0017124580574102,-0.0017124585083636,0.001712452008332,-0.0017124551487283,0.0017124554025796,-0.0013944984405708,0.0013944852687004,-0.0013944885456589,0.0013944954032412,-0.001613464322208,0.0016134749850046,-0.0016134720573096,0.001613467002343,-3.7666457174144e-09,3.516311574448e-09,-0.00081929248978965,0.00081929220257444,4.8538969116746e-09,-5.3129284825403e-09,-0.00095119709423573,0.00095119781087912,-0.00095120048028299,0.0009511944148191,-0.00095119467512968,0.00095120024428911,-0.00095119806182138,0.00095119684507967,-0.00095225608065903,0.00095225953863326,-0.00095226314816248,0.00095225236805779,0.56737759181147,125803,2834,0.0066816667807854,0.0066816668152098,0.0034125103383889,29.892998655299,-8.5601075761061e-07,-8.5601075761061e-07,-8.5601075761061e-07,4009671.9611715,0.016918263817057
15219200,0.97266761206876,0.016683370433713,0.006380493778338,0.006380493795165,0.0039223828602095,-0.0016082069943495,0.0016082075098457,3.9746188299466e-09,-3.4951608248242e-09,-3.6934786847027e-09,4.3033769996102e-09,-0.0017115260753892,0.0017115264284138,-0.0017115285502211,0.0017115239095782,-0.0017115234464001,0.0017115290882394,-0.0017115259412479,0.0017115265874926,-0.0013930708025353,0.0013930812779322,-0.0013930780980716,0.0013930739277199,3.7080414889366e-09,-4.2879154611427e-09,-5.3205066894036e-09,4.8352516036362e-09,-0.0016082075135165,0.0016082070075115,-0.0017115268636354,0.0017115256467354,-0.0017115235178762,0.0017115290234855,-0.0017115294756726,0.0017115229796873,-0.0017115261320579,0.0017115263566724,-0.0013930825214737,0.0013930693842459,-0.0013930726754819,0.0013930794695315,-0.0016122657188129,0.0016122763945982,-0.0016122734866413,0.0016122683816706,-3.819705451839e-09,3.5731039940374e-09,-0.00081759741357538,0.00081759712959594,4.8340165130678e-09,-5.2892889601333e-09,-0.00094950306848271,0.00094950373625281,-0.00094950643969202,0.00094950035492676,-0.00094950061262229,0.00094950620666967,-0.00094950398435758,0.00094950282169464,-0.00095060550309062,0.00095060908546882,-0.00095061267856417,0.00095060180995864,0.54391179865386,125803,2834,0.0066769241598723,0.0066769241947058,0.0034054709095654,28.487572450399,-1.209942039681e-05,-1.209942039681e-05,-1.209942039681e-05,3990787.119081,0.016901462715203
15419200,0.97374157824823,0.016699172980364,0.0063866176027408,0.0063866176194591,0.0039259377581642,-0.0016068719095269,0.0016068724247396,4.0336305396499e-09,-3.5518911299288e-09,-3.7071795395039e-09,4.3110449778293e-09,-0.0017103782455446,0.0017103786312449,-0.0017103807586321,0.0017103760735634,-0.0017103756095806,0.0017103812981852,-0.0017103781427101,0.00171037875898,-0.001391521718559,0.0013915323203627,-0.0013915291276423,0.0013915248553548,3.7176502016912e-09,-4.298062879598e-09,-5.3041672846114e-09,4.8190878206383e-09,-0.0016068724273492,0.0016068719207288,-0.0017103790435141,0.0017103778430425,-0.0017103757081517,0.001710381208607,-0.0017103816619903,0.001710375169259,-0.0017103783290469,0.001710378535695,-0.0013915334908411,0.0013915203785016,-0.0013915236782998,0.0013915304332523,-0.0016109475628243,0.0016109582468966,-0.0016109553633174,0.001610950227776,-3.8786145770854e-09,3.6335409548474e-09,-0.00081592583191392,0.00081592554899917,4.817500573611e-09,-5.2722092775814e-09,-0.00094770468330049,0.00094770530074085,-0.00094770804314917,0.00094770193082187,-0.00094770218713711,0.00094770781093235,-0.00094770554801014,0.00094770443788187,-0.00094901691460476,0.00094902062759874,-0.00094902421119117,0.00094901323887451,0.61487579536726,125803,2834,0.0066714007041272,0.0066714007327026,0.0033985245727281,27.074619711216,-2.3403042310272e-05,-2.3403042310272e-05,-2.3403042310272e-05,3976593.6823833,0.016883166123194
15619200,0.97470965154515,0.016713707030757,0.0063922350062764,0.0063922350229827,0.0039292370014982,-0.0016061879568597,0.0016061884687995,4.1016196934515e-09,-3.62067794348e-09,-3.6994060608607e-09,4.2946268389804e-09,-0.001709759070106,0.0017097595072863,-0.001709761628814,0.0017097569042925,-0.0017097564418596,0.0017097621664024,-0.0017097590207772,0.0017097595810831,-0.0013907602232042,0.0013907709549176,-0.0013907677668533,0.0013907633530107,3.7155643155312e-09,-4.2949484296974e-09,-5.3058821963664e-09,4.8222234204067e-09,-0.0016061884711634,0.0016061879653753,-0.0017097598962596,0.0017097586928166,-0.001709756559643,0.0017097620607169,-0.0017097625132518,0.0017097560214243,-0.0017097591787892,0.0017097593889616,-0.0013907720638612,0.0013907589506722,-0.0013907622482761,0.0013907690097775,-0.0016102907617596,0.0016103014446803,-0.0016102985706866,0.0016102934417432,-3.9278090066858e-09,3.6826721405116e-09,-0.0008147091360681,0.00081470885257066,4.8271836568124e-09,-5.2832785106685e-09,-0.0009466210040419,0.00094662159476226,-0.00094662437054004,0.00094661821833347,-0.00094661847467639,0.00094662413786821,-0.00094662184261821,0.00094662075757337,-0.00094783915985285,0.0009478429617151,-0.00094784655589985,0.00094783548212649,0.62694796196126,125803,2834,0.0066685679968109,0.0066685680193125,0.0033934777222928,25.965422826988,-3.2276617384093e-05,-3.2276617384093e-05,-3.2276617384093e-05,3946011.6736987,0.016872274852668
15819200,0.97562016024747,0.016728330472576,0.0063978462020373,0.0063978462187921,0.0039326380517464,-0.0016068522300767,0.0016068527306142,4.1464650667502e-09,-3.6680218896256e-09,-3.6893727811352e-09,4.2497858290777e-09,-0.0017104444300825,0.0017104449141196,-0.0017104470206198,0.0017104422779152,-0.0017104418204775,0.0017104475536413,-0.0017104444307678,0.0017104449363662,-0.0013913847083084,0.0013913955220965,-0.0013913923375943,0.0013913878233012,3.6792102426526e-09,-4.2507117362517e-09,-5.3463922870053e-09,4.8737168352079e-09,-0.001606852727588,0.0016068522288945,-0.0017104453115626,0.0017104440575264,-0.0017104419458637,0.0017104474557369,-0.0017104479027447,0.001710441412024,-0.0017104445385115,0.0017104448108877,-0.0013913966199637,0.0013913834528622,-0.0013913867175566,0.0013913936066134,-0.0016110144859426,0.0016110251264329,-0.0016110222646411,0.0016110172520957,-3.9988059223611e-09,3.7542566499187e-09,-0.00081466642258654,0.00081466613677211,4.8600687320727e-09,-5.3225905384832e-09,-0.00094679938421127,0.00094679994894704,-0.00094680277476137,0.00094679654909613,-0.00094679680655165,0.00094680253871743,-0.00094680019869031,0.00094679913573595,-0.00094789959177392,0.00094790351394745,-0.0009479071411038,0.00094789590627808,0.6691969907968,125803,2834,0.0066713132086642,0.0066713131999517,0.0033933119291205,25.548566174769,-3.5611470601849e-05,-3.5611470601849e-05,-3.5611470601849e-05,3923579.5124788,0.016877690842443
16019200,0.97647805355373,0.016742075402125,0.0064031232373824,0.006403123254488,0.0039358289102547,-0.0016075714377437,0.0016075719409047,4.2055419405217e-09,-3.7336848828427e-09,-3.6437295461518e-09,4.2294492264058e-09,-0.001711133225729,0.0017111337670808,-0.0017111358567541,0.0017111310909811,-0.0017111306372679,0.001711136385508,-0.0017111332884367,0.0017111337279921,-0.0013921273840835,0.0013921382782974,-0.0013921351389946,0.0013921304647161,3.6516976965538e-09,-4.2205446860816e-09,-5.3895119128379e-09,4.9155161520763e-09,-0.0016075719428578,0.0016075714468519,-0.0017111341510748,0.0017111328530946,-0.0017111307562607,0.001711136279654,-0.0017111367227423,0.0017111302273647,-0.0017111333300019,0.0017111336544552,-0.0013921393643489,0.0013921261324764,-0.0013921293752014,0.0013921363667992,-0.0016117801869179,0.0016117908015894,-0.0016117878580651,0.0016117829353208,-4.0570923287053e-09,3.8067639782677e-09,-0.00081457515504333,0.00081457486606537,4.9055963171407e-09,-5.3682189950992e-09,-0.00094706527809172,0.00094706583368299,-0.00094706869930057,0.00094706240262167,-0.0009470626643643,0.00094706846087919,-0.00094706608665928,0.00094706502647948,-0.00094787603389172,0.00094788002462246,-0.00094788367811596,0.00094787229594089,0.66742791879807,125803,2834,0.006674283756164,0.0066742837790475,0.0033929492668557,25.148748448792,-3.8810012409665e-05,-3.8810012409665e-05,-3.8810012409665e-05,3892954.4362344,0.016883365978685
16219200,0.97728699540273,0.016754978069472,0.0064080792643686,0.0064080792814847,0.0039388195236185,-0.0016081948190662,0.0016081953184641,4.2624461497254e-09,-3.795026830653e-09,-3.6186912504663e-09,4.2016498040709e-09,-0.0017117299872452,0.0017117305814942,-0.0017117326575446,0.0017117278660083,-0.0017117274160519,0.0017117331823819,-0.0017117301065819,0.0017117304855122,-0.0013927702442178,0.0013927812313427,-0.001392778115049,0.0013927733022421,3.6277443430182e-09,-4.1923915389048e-09,-5.430879371602e-09,4.9607059017516e-09,-0.00160819532054,0.0016081948284406,-0.0017117309597111,0.0017117296195953,-0.0017117275362783,0.0017117330750488,-0.0017117335141397,0.0017117270112199,-0.0017117300928698,0.0017117304672389,-0.0013927823014134,0.0013927690056479,-0.0013927722276865,0.0013927793250637,-0.0016124392102982,0.0016124498064786,-0.0016124468277287,0.0016124419892313,-4.1169305671543e-09,3.8637973898478e-09,-0.0008144242212389,0.00081442392943298,4.9472235307924e-09,-5.4130697964996e-09,-0.00094725108611625,0.00094725162865117,-0.00094725453615277,0.0009472481687931,-0.00094724843337117,0.00094725429495907,-0.00094725188454832,0.0009472508318075,-0.00094779628196751,0.00094780035524599,-0.0009478040392829,0.00094779251113021,0.6642560433591,125803,2834,0.0066768579750405,0.0066768579987322,0.0033923377681277,24.749581653363,-4.2003346773097e-05,-4.2003346773097e-05,-4.2003346773097e-05,3866084.7714216,0.016887981847858
16419200,0.97805311470818,0.016765983717331,0.0064123526310284,0.0064123526481485,0.0039412784381545,-0.0016087933242087,0.0016087938187435,4.3148803794251e-09,-3.8502306593904e-09,-3.6052500820259e-09,4.1777764761493e-09,-0.0017123262896295,0.0017123269299077,-0.0017123289963708,0.001712324177512,-0.0017123237308277,0.0017123295180173,-0.0017123264576283,0.0017123267847018,-0.0013933480508582,0.0013933591314791,-0.0013933560271872,0.0013933510946606,3.6058050829534e-09,-4.1659603615645e-09,-5.4729177169114e-09,5.0077841533154e-09,-0.0016087938193575,0.001608793331373,-0.0017123273071795,0.0017123259256816,-0.0017123238549174,0.0017123294106019,-0.0017123298459579,0.0017123233332181,-0.0017123263955591,0.0017123268190408,-0.0013933601882611,0.0013933468257229,-0.0013933500289771,0.0013933572338973,-0.0016130303565087,0.001613040939049,-0.0016130379394775,0.0016130331831207,-4.1814154991987e-09,3.9266275608704e-09,-0.00081429044668555,0.00081429015235501,4.9860887148627e-09,-5.4557428547769e-09,-0.00094743918119781,0.00094743970621501,-0.0009474426585834,0.0009474362191472,-0.00094743648610544,0.00094744241447163,-0.00094743996461771,0.0009474389244841,-0.00094770765383675,0.00094771182336718,-0.0009477155385901,0.00094770385836928,0.59981697328886,125803,2834,0.0066793294035343,0.0066793294196295,0.0033917965316907,24.412070572981,-4.4703435416155e-05,-4.4703435416155e-05,-4.4703435416155e-05,3844718.2198055,0.016892460733818
16619200,0.97878272137355,0.016778314913687,0.006417059827124,0.0064170598443092,0.0039441952422534,-0.0016094230791893,0.0016094235724643,4.3761360671647e-09,-3.913977256505e-09,-3.5890952928966e-09,4.1638597084735e-09,-0.0017130064852881,0.0017130071739345,-0.0017130092332395,0.0017130043805517,-0.0017130039361079,0.0017130097522189,-0.00171300670434,0.0017130069775867,-0.0013939074823877,0.0013939186711824,-0.0013939155811546,0.0013939105135653,3.5962874612984e-09,-4.1546478171024e-09,-5.5097476251392e-09,5.0455441941802e-09,-0.001609423574421,0.0016094230881998,-0.0017130075405257,0.001713006129104,-0.0017130040634908,0.0017130096393025,-0.0017130100723351,0.0017130035438143,-0.0017130065972489,0.0017130070544487,-0.0013939197070169,0.0013939062796628,-0.0013939094740066,0.0013939167607286,-0.0016137069990158,0.0016137175874607,-0.0016137145519537,0.001613709842107,-4.238220352278e-09,3.9801099075509e-09,-0.00081439705569451,0.00081439675858157,5.0248842016927e-09,-5.4971883795214e-09,-0.00094763911046283,0.00094763962257601,-0.00094764261440147,0.00094763610881716,-0.00094763637844431,0.00094764236797872,-0.00094763988356215,0.00094763885101984,-0.00094795164837964,0.00094795589534307,-0.00094795963969518,0.00094794782026064,0.7023563149096,125803,2834,0.0066819331781687,0.0066819332008569,0.0033922463786394,24.158166342677,-4.6734669258585e-05,-4.6734669258585e-05,-4.6734669258585e-05,3841022.4296964,0.016898213937978
16819200,0.97947795218887,0.016790122206613,0.0064215680945315,0.0064215681117275,0.0039469860003544,-0.0016102404160165,0.0016102409085287,4.4344255097564e-09,-3.973374973122e-09,-3.585426363921e-09,4.1600456019918e-09,-0.0017137506943167,0.0017137514236077,-0.0017137534812634,0.0017137485909974,-0.0017137481475129,0.00171375399943,-0.0017137509548356,0.0017137511856812,-0.0013947980161972,0.0013948093162515,-0.0013948062303796,0.0013948010435262,3.5931581404853e-09,-4.150551482518e-09,-5.5405786155053e-09,5.0772005405049e-09,-0.0016102409105447,0.0016102404252209,-0.0017137517807287,0.001713750347066,-0.0017137482829659,0.0017137538780586,-0.0017137543101379,0.001713747764174,-0.0017137508144558,0.0017137512957506,-0.0013948103249319,0.0013947968394204,-0.0013948000310042,0.0013948073820796,-0.0016145734741961,0.001614584077239,-0.0016145810188374,0.0016145763380047,-4.2979592607903e-09,4.0378684793603e-09,-0.00081443814240735,0.00081443784330238,5.0550094125831e-09,-5.5296102035128e-09,-0.00094806638000578,0.00094806687178235,-0.00094806990478583,0.00094806333716489,-0.00094806360875329,0.00094806965643054,-0.00094806713475492,0.0009480661186777,-0.00094804688880749,0.00094805122785185,-0.00094805499458742,0.00094804303729941,0.70571571317543,125803,2834,0.0066853089058106,0.0066853089290238,0.0033924349093681,23.906324905464,-4.8749400756288e-05,-4.8749400756288e-05,-4.8749400756288e-05,3813306.5820271,0.016905273358104
17019200,0.9801407226763,0.016801164899924,0.0064257928165067,0.0064257928337083,0.0039495792497087,-0.0016109832910853,0.0016109837836148,4.4927130982282e-09,-4.0317230797451e-09,-3.5882302514406e-09,4.1629551386369e-09,-0.0017144263736797,0.0017144271399382,-0.0017144291994469,0.0017144242684152,-0.0017144238249441,0.0017144297176426,-0.0017144266710989,0.0017144268650395,-0.001395602613698,0.0013956140297822,-0.0013956109420827,0.0013956056428027,3.5957025172269e-09,-4.1530486827827e-09,-5.5650444279304e-09,5.1017202281365e-09,-0.0016109837856127,0.0016109833003442,-0.0017144274857333,0.0017144260375733,-0.0017144239718581,0.0017144295849336,-0.0017144300168501,0.0017144234529962,-0.0017144265050195,0.0017144270009504,-0.0013956150050272,0.001395601469849,-0.0013956046632673,0.001395612060806,-0.0016153509860057,0.001615361610304,-0.001615358535334,0.001615353865906,-4.3579146179731e-09,4.0964299096135e-09,-0.00081442034309529,0.00081442004254008,5.0784237816836e-09,-5.5547571496208e-09,-0.00094843496650943,0.00094843543354932,-0.00094843850749463,0.0009484318827303,-0.00094843215576391,0.00094843825773428,-0.00094843569793402,0.0009484347037882,-0.00094808839641646,0.00094809283383565,-0.00094809661805558,0.00094808452718357,0.69245975547764,125803,2834,0.0066883761318276,0.0066883761551159,0.0033923794189777,23.654562219805,-5.0763502241563e-05,-5.0763502241563e-05,-5.0763502241563e-05,3787737.2220325,0.016911457306459
17219200,0.98075761490775,0.016811176666624,0.0064296328039519,0.0064296328211591,0.0039519110415132,-0.0016107926987831,0.0016107931940652,4.5526784266227e-09,-4.0896166369601e-09,-3.6094332872907e-09,4.188102395229e-09,-0.001714197099287,0.0017141978921172,-0.0017141999643501,0.0017141949812797,-0.0017141945352392,0.0017142004852948,-0.0017141974207188,0.0017141975933559,-0.0013954535638444,0.0013954651120137,-0.0013954620075806,0.001395456609587,3.6177197652621e-09,-4.1780189819649e-09,-5.56336039031e-09,5.0973273322666e-09,-0.0016107931960522,0.0016107927080507,-0.0017141982171863,0.0017141967839062,-0.0017141947052928,0.0017142003292514,-0.0017142007637599,0.0017141941836539,-0.001714197253929,0.0017141977295613,-0.0013954660259336,0.0013954524785182,-0.0013954556897237,0.0013954630630306,-0.0016151746091108,0.0016151852748058,-0.0016151822024315,0.0016151774818094,-4.4163738629181e-09,4.1551519254903e-09,-0.00081366064273004,0.0008136603424431,5.0757324818403e-09,-5.551721534411e-09,-0.00094796307972519,0.00094796350597332,-0.00094796661878134,0.00094795995705291,-0.00094796022990596,0.00094796636935237,-0.00094796377016153,0.00094796281728867,-0.00094735510471505,0.00094735965878767,-0.00094736343948181,0.00094735123626557,0.67475986778907,125803,2834,0.0066875819522642,0.0066875819755536,0.0033892374358631,22.995075727549,-5.6039394179611e-05,-5.6039394179611e-05,-5.6039394179611e-05,3762104.3636901,0.016906648765566
17419200,0.98132061880888,0.01681993750253,0.0064330057689949,0.0064330057862054,0.0039539259473296,-0.0016097666420174,0.001609767149976,4.631425055379e-09,-4.1649393445502e-09,-3.6130250377417e-09,4.2317804258363e-09,-0.0017131617577089,0.0017131625856667,-0.0017131646697406,0.0017131596260158,-0.0017131591776957,0.0017131651945064,-0.0017131621122038,0.0017131622539717,-0.0013944436636335,0.0013944553694541,-0.0013944522572057,0.0013944467280639,3.6608030877433e-09,-4.2281032922117e-09,-5.5414128567615e-09,5.0639938689744e-09,-0.0016097671589806,0.001609766664163,-0.0017131628643405,0.0017131614737131,-0.0017131593655661,0.0017131649979131,-0.001713165439284,0.001713158840035,-0.0017131619480403,0.0017131623684246,-0.0013944561961535,0.0013944426656674,-0.0013944459097811,0.0013944531945926,-0.0016141457963606,0.0016141565321911,-0.0016141534233081,0.0016141485828631,-4.4616887176464e-09,4.1918291652905e-09,-0.00081228157552319,0.0008122812721281,5.0599621714709e-09,-5.5355653202838e-09,-0.00094675253199199,0.00094675291913206,-0.00094675606060313,0.00094674938020968,-0.00094674965515987,0.00094675581106536,-0.00094675318473184,0.00094675226796266,-0.00094596649652216,0.00094597113436157,-0.00094597489759405,0.00094596260856093,0.64747797668745,125803,2834,0.0066833323517939,0.0066833324162294,0.0033835169803038,21.992211875961,-6.4062304992311e-05,-6.4062304992311e-05,-6.4062304992311e-05,3737826.9238792,0.016892190086081
17619200,0.98183484839437,0.016827642373917,0.0064359812425804,0.0064359812595656,0.0039556798717711,-0.001608562812671,0.0016085633187247,4.6708270736156e-09,-4.1988650832598e-09,-3.6705444832091e-09,4.2661125231908e-09,-0.0017119808929074,0.0017119817235569,-0.0017119838333069,0.0017119787378995,-0.0017119782833577,0.001711984362883,-0.0017119812438071,0.0017119813962281,-0.0013932181831169,0.0013932300057442,-0.0013932268495966,0.0013932212838835,3.6779717393704e-09,-4.2475930387927e-09,-5.5230795555442e-09,5.0477675494457e-09,-0.0016085633215909,0.0016085628250144,-0.0017119819959186,0.0017119806273278,-0.0017119785132251,0.0017119841425068,-0.001711984585443,0.0017119779833465,-0.001711981104744,0.0017119814994898,-0.001393230764886,0.0013932172533489,-0.0013932205149883,0.0013932277495456,-0.0016129284790437,0.0016129392334758,-0.0016129361874213,0.0016129312999915,-4.5372308860648e-09,4.2775553318856e-09,-0.0008108711211753,0.00081087082373227,5.0302103881432e-09,-5.5020382051861e-09,-0.00094540130273736,0.00094540161949997,-0.00094540481036615,0.00094539810194891,-0.00094539837225758,0.00094540456407948,-0.0009454018803535,0.00094540104331847,-0.00094454449859041,0.00094454932455189,-0.00094455306962024,0.0009445406591706,0.62390233248043,125803,2834,0.0066783488621616,0.0066783488936282,0.0033776612510298,20.980835510085,-7.2153315919317e-05,-7.2153315919317e-05,-7.2153315919317e-05,3721134.5216914,0.016876100819804
17819200,0.98230572957515,0.016834460977298,0.0064386214250411,0.0064386214420024,0.0039572181102547,-0.001607269836304,0.0016072703432059,4.7346019448076e-09,-4.2595164528727e-09,-3.6959310793719e-09,4.2860953300239e-09,-0.0017107382841628,0.0017107391450236,-0.0017107412671041,0.0017107361172116,-0.0017107356594578,0.0017107417993938,-0.0017107386625393,0.0017107387900932,-0.0013918732402779,0.0013918852071881,-0.0013918820279824,0.0013918763607781,3.7036484446705e-09,-4.2771566568456e-09,-5.4982349141238e-09,5.0202131172404e-09,-0.0016072703454301,0.0016072698452764,-0.0017107393882436,0.0017107380516341,-0.0017107359236632,0.001710741549968,-0.0017107419961169,0.0017107353896171,-0.0017107385329907,0.0017107388877923,-0.0013918858800051,0.0013918723993384,-0.0013918756825106,0.0013918828445079,-0.0016116141112614,0.0016116248994853,-0.001611621887142,0.0016116169237886,-4.5906715791632e-09,4.3342875951656e-09,-0.00080948870186943,0.00080948840666351,5.007686791264e-09,-5.4778051654474e-09,-0.00094399371548421,0.00094399398193077,-0.00094399720727688,0.00094399048022963,-0.00094399074814142,0.00094399696296543,-0.00094399424071386,0.00094399345762938,-0.00094314969280562,0.00094315464590532,-0.00094315837503189,0.00094314587711185,0.60341628060213,125803,2834,0.0066729979401859,0.006672997963349,0.0033719180407502,19.991115804008,-8.0071073567933e-05,-8.0071073567933e-05,-8.0071073567933e-05,3710844.641052,0.016859378590659
18019200,0.98273788913335,0.016840711481985,0.0064410393303836,0.0064410393473661,0.0039586328042354,-0.001605909694617,0.0016059102043106,4.7948600150826e-09,-4.3171932962377e-09,-3.7104708634268e-09,4.3044281182051e-09,-0.0017094479637232,0.0017094488550832,-0.0017094509852573,0.0017094457878505,-0.0017094453282983,0.0017094515206787,-0.0017094483701481,0.0017094484723164,-0.0013904418249271,0.0013904539208045,-0.0013904507290235,0.0013904449579874,3.7192991891981e-09,-4.2948255364381e-09,-5.4752765118663e-09,4.9952188177329e-09,-0.0016059102063725,0.0016059097041981,-0.0017094490708209,0.0017094477590053,-0.0017094456211526,0.001709451240474,-0.001709451689278,0.0017094450856557,-0.0017094482420392,0.001709448568126,-0.0013904545123121,0.0013904410653777,-0.0013904443617361,0.0013904514625509,-0.0016102334331961,0.0016102442360983,-0.001610241241237,0.0016102362270361,-4.6487799664085e-09,4.3933273567179e-09,-0.0008081410476705,0.00080814075363871,4.9845377636476e-09,-5.4531882994216e-09,-0.00094255129779391,0.00094255151018008,-0.0009425547736468,0.00094254802432567,-0.00094254829108245,0.00094255453041043,-0.00094255176811943,0.00094255104144099,-0.00094179436388757,0.00094179944772751,-0.00094180315950849,0.00094179056455277,0.60265703071377,125803,2834,0.0066673702412952,0.0066673702653796,0.0033663162065958,19.019710028479,-8.7842319772166e-05,-8.7842319772166e-05,-8.7842319772166e-05,3705328.7653697,0.016842237075467
18219200,0.98313492966909,0.016846559457932,0.0064432950179905,0.0064432950349866,0.0039599694049551,-0.0016045047861337,0.0016045052977137,4.8544900810132e-09,-4.3754332803991e-09,-3.7202668776947e-09,4.3171975147558e-09,-0.0017081070999791,0.0017081080247004,-0.0017081101607721,0.0017081049183085,-0.0017081044570677,0.0017081106979002,-0.0017081075381785,0.0017081076103326,-0.0013889760352518,0.0013889882544151,-0.0013889850547609,0.0013889791769814,3.7298751078757e-09,-4.3074642256985e-09,-5.4530637891981e-09,4.9709555350074e-09,-0.0016045053000655,0.0016045047960524,-0.0017081082130584,0.0017081069225049,-0.0017081047786052,0.0017081103885296,-0.0017081108390828,0.0017081042414709,-0.0017081074070385,0.0017081077084297,-0.0013889887661261,0.0013889753550082,-0.0013889786608074,0.0013889857067335,-0.0016088142589346,0.001608825067424,-0.0016088220874885,0.0016088170335788,-4.706483329428e-09,4.452830515849e-09,-0.00080679456577013,0.0008067942735676,4.9627336304291e-09,-5.4290223477208e-09,-0.00094110117343446,0.00094110133309059,-0.00094110463394531,0.00094109786254972,-0.00094109812765263,0.0009411043924154,-0.00094110158934512,0.00094110091875385,-0.00094043497837285,0.00094044019401237,-0.00094044388807213,0.00094043119527144,0.61338750905935,125803,2834,0.0066615574929719,0.0066615575183556,0.0033607187283225,18.048757098041,-9.5609943215671e-05,-9.5609943215671e-05,-9.5609943215671e-05,3699109.122949,0.016824723846644
18419200,0.98350929392843,0.016852110425472,0.0064454328885935,0.006445432905596,0.0039612446312823,-0.001603880195186,0.0016038807051215,4.9118081409858e-09,-4.4338467459666e-09,-3.7075024132286e-09,4.3019807419119e-09,-0.0017075241865477,0.0017075251574671,-0.0017075272860671,0.0017075220125972,-0.0017075215528641,0.0017075278213317,-0.001707524672601,0.0017075246952295,-0.0013883049684054,0.0013883172914656,-0.0013883141017243,0.0013883081005798,3.7161522706284e-09,-4.2917769594454e-09,-5.4480914316618e-09,4.9677496891276e-09,-0.0016038807075523,0.0016038802053378,-0.0017075253252528,0.0017075240295108,-0.0017075218936475,0.0017075274928981,-0.0017075279416943,0.0017075213583407,-0.0017075245123215,0.0017075248225286,-0.0013883177431205,0.0013883043513815,-0.0013883076461219,0.0013883146953382,-0.0016081835243072,0.0016081943028719,-0.0016081913254047,0.0016081862995677,-4.766131068489e-09,4.512658173361e-09,-0.00080611998490139,0.00080611969297761,4.958207208971e-09,-5.4241700444047e-09,-0.00094039259667116,0.00094039271379022,-0.00094039605408618,0.0009403892463342,-0.0009403895111135,0.00094039581284702,-0.00094039296963418,0.00094039234224727,-0.0009397700041409,0.00093977533999838,-0.00093977903215972,0.00093976622563798,0.61738402804768,125803,2834,0.0066589729396329,0.0066589729656566,0.0033579155271519,17.475914451588,-0.0001001926843873,-0.0001001926843873,-0.0001001926843873,3695260.173799,0.016816617451467
18619200,0.98386986084092,0.016857407080903,0.0064474737402622,0.0064474737572692,0.0039624595833717,-0.0016038940098939,0.0016038945148276,4.970029256606e-09,-4.4958069252433e-09,-3.6807224459264e-09,4.2668804273201e-09,-0.0017075724705789,0.0017075734980586,-0.0017075756102005,0.0017075703129854,-0.001707569857217,0.0017075761412527,-0.0017075730171201,0.0017075729749071,-0.0013882726365231,0.0013882850550645,-0.0013882818873831,0.0013882757453532,3.6886203993552e-09,-4.2597185915731e-09,-5.4555090504711e-09,4.9797653635901e-09,-0.0016038945168122,0.0016038940187614,-0.0017075736493531,0.0017075723313754,-0.001707570211457,0.0017075758013532,-0.0017075762461827,0.0017075696800817,-0.0017075728105057,0.0017075731507424,-0.0013882854571671,0.0013882720706969,-0.0013882753419286,0.0013882824341261,-0.0016081917860554,0.0016082025168139,-0.0016081995353328,0.0016081945785626,-4.8238137438966e-09,4.5699741593382e-09,-0.00080599598849687,0.0008059956958578,4.9682537277774e-09,-5.4355223133599e-09,-0.00094028364796575,0.00094028373303277,-0.00094028711241265,0.00094028025862287,-0.00094028052383802,0.00094028687041924,-0.00094028398956419,0.0009402833928036,-0.00093967410032422,0.0009396795414,-0.0009396832426412,0.00093967031658341,0.61178639785213,125803,2834,0.0066590296272858,0.006659029649728,0.0033574016989131,17.230847279187,-0.0001021532217665,-0.0001021532217665,-0.0001021532217665,3694965.0076642,0.016816210640836
18819200,0.98421742103251,0.016862834249947,0.0064495513291359,0.006449551346161,0.0039637315746503,-0.001603911968719,0.0016039124697332,5.0258574747982e-09,-4.5566719759754e-09,-3.6520001947832e-09,4.2357353970147e-09,-0.0017076277086501,0.0017076287907938,-0.0017076308874645,0.0017076255669161,-0.0017076251148446,0.001707631413974,-0.0017076283139455,0.0017076282086961,-0.0013882457999735,0.0013882583066119,-0.0013882551646931,0.0013882488829928,3.6605056921226e-09,-4.2273197614878e-09,-5.4645151569046e-09,4.9924354889161e-09,-0.0016039124719619,0.0016039119778837,-0.001707628925876,0.001707627584632,-0.0017076254811889,0.001707631062282,-0.0017076315028931,0.0017076249536524,-0.0017076280600269,0.0017076284314536,-0.0013882586617196,0.0013882452778856,-0.0013882485246391,0.0013882556622928,-0.0016082125686675,0.0016082232513805,-0.0016082202539314,0.0016082153683767,-4.8832286386879e-09,4.6290729786451e-09,-0.0008058976561012,0.00080589736310465,4.9785759673812e-09,-5.4461289181663e-09,-0.00094018408197358,0.00094018413425979,-0.00094018755341074,0.00094018065281594,-0.00094018091852435,0.00094018731109604,-0.000940184391093,0.00094018382628802,-0.00093961142212802,0.00093961697177728,-0.00093962067863698,0.0009396076292344,0.64922936593843,125803,2834,0.0066591037112924,0.0066591037348609,0.0033569939503057,16.993883700901,-0.00010404893039279,-0.00010404893039279,-0.00010404893039279,3695675.6688259,0.016815946841592
19019200,0.98455254656661,0.016868381310664,0.0064516632347227,0.0064516632517582,0.0039650548241828,-0.0016040141596574,0.0016040146574881,5.0823639802103e-09,-4.616763867327e-09,-3.6266756522542e-09,4.208349883741e-09,-0.0017077164878881,0.0017077176225745,-0.0017077197052544,0.0017077143598175,-0.0017077139114862,0.0017077202282959,-0.0017077171491458,0.0017077169842918,-0.0013883644152395,0.00138837701431,-0.0013883738948902,0.0013883674769432,3.6359124896634e-09,-4.1986224487181e-09,-5.4728174785989e-09,5.0043452704298e-09,-0.0016040146599127,0.0016040141696415,-0.0017077177410981,0.0017077163793292,-0.0017077142893846,0.0017077198633333,-0.0017077203004857,0.001707713766012,-0.0017077168509274,0.0017077172506492,-0.0013883773224972,0.001388363939867,-0.0013883671656417,0.0013883743440595,-0.0016083296380322,0.0016083402786933,-0.0016083372683928,0.0016083324461648,-4.9431328030105e-09,4.6878031725956e-09,-0.00080578693284265,0.00080578663893303,4.9881097694499e-09,-5.4564770255001e-09,-0.00094018031967441,0.00094018033807048,-0.00094018379781629,0.00094017684997621,-0.00094017711660793,0.00094018355456859,-0.00094018059589792,0.00094018006329261,-0.00093951651615555,0.0009395221737613,-0.00093952588812793,0.00093951271470823,0.687191007113,125803,2834,0.0066595247429933,0.006659524768661,0.0033565390497034,16.757228608457,-0.00010594217113234,-0.00010594217113234,-0.00010594217113234,3686752.8748752,0.016816341180892
19219200,0.98488616067658,0.016874065395048,0.0064538221735652,0.0064538221906025,0.0039664210308807,-0.0016051879444949,0.0016051884378006,5.1394076078607e-09,-4.6776601927508e-09,-3.5975130329169e-09,4.1733708722669e-09,-0.0017088272716229,0.0017088284624364,-0.0017088305281931,0.0017088251603555,-0.0017088247162787,0.001708831046765,-0.0017088279932001,0.0017088277634673,-0.0013895963345677,0.0013896090249666,-0.001389605929854,0.0013895993718242,3.6064321380914e-09,-4.1643767936102e-09,-5.4967537804434e-09,5.0326834310419e-09,-0.0016051884402742,0.0016051879544308,-0.0017088285698125,0.0017088271739524,-0.0017088251008587,0.0017088306754137,-0.0017088311082577,0.0017088245819184,-0.0017088276414931,0.0017088280840189,-0.0013896093015639,0.001389595893174,-0.0013895990940841,0.0013896063491637,-0.0016095288590843,0.0016095394589721,-0.001609536428904,0.0016095316913592,-5.002687517661e-09,4.7456742530562e-09,-0.00080650548268412,0.00080650518701676,5.0132924353739e-09,-5.483764056162e-09,-0.00094115957734682,0.0009411595723741,-0.00094116307297993,0.00094115606681789,-0.00094115633506036,0.00094116282794342,-0.00094115983187522,0.00094115931918907,-0.00094027641397931,0.0009402821673269,-0.00094028590219858,0.00094027259465408,0.70677987569997,125803,2834,0.0066643779549612,0.0066643779806249,0.00335953582843,17.02227413213,-0.00010382180694296,-0.00010382180694296,-0.00010382180694296,3677010.8558923,0.016829259484011
19419200,0.9852234078255,0.016879694320741,0.0064559653636806,0.0064559653807211,0.0039677635763391,-0.0016068899872666,0.0016068904732159,5.1902258121642e-09,-4.7314459646912e-09,-3.5811895190008e-09,4.1378447935642e-09,-0.001710455524484,0.001710456764681,-0.0017104588162875,0.0017104534263964,-0.0017104529866922,0.0017104593315573,-0.0017104562982464,0.001710456012828,-0.0013913623251855,0.0013913751038989,-0.0013913720215413,0.0013913653430263,3.5747039588361e-09,-4.1260185538143e-09,-5.5265315045615e-09,5.070716420219e-09,-0.0016068904720204,0.0016068899921679,-0.0017104568707308,0.001710455434752,-0.0017104533800535,0.0017104589583504,-0.0017104593865489,0.001710452865956,-0.0017104558975519,0.0017104563910571,-0.0013913753545494,0.0013913619096048,-0.0013913650820208,0.0013913724327136,-0.0016112509470175,0.0016112615049276,-0.0016112584728521,0.0016112538315647,-5.0679720254771e-09,4.8108372424304e-09,-0.00080762007630909,0.00080761977877306,5.0418355534858e-09,-5.5165517176713e-09,-0.00094261141609428,0.00094261138557755,-0.00094261493215276,0.00094260785980761,-0.00094260812964338,0.00094261468442695,-0.0009426116473144,0.00094261115663011,-0.00094144615516833,0.00094145201671791,-0.00094145577631919,0.00094144232304041,0.69264757696304,125803,2834,0.0066714158937093,0.0066714159013713,0.003364181361696,17.538663069492,-9.9690695444065e-05,-9.9690695444065e-05,-9.9690695444065e-05,3668678.7092072,0.016848298137344
19619200,0.98556416339684,0.016885245562502,0.006458084778136,0.0064580847952404,0.0039690759891256,-0.0016085611332892,0.0016085616191021,5.2499605964251e-09,-4.7952980453481e-09,-3.5538078171989e-09,4.1203480831356e-09,-0.0017120817439109,0.0017120830363429,-0.0017120850770898,0.0017120796578714,-0.0017120792203255,0.0017120855881396,-0.0017120825736518,0.0017120822286292,-0.0013930629399207,0.0013930758152378,-0.0013930727580182,0.0013930659381161,3.5578853246338e-09,-4.1078488585521e-09,-5.5536053093792e-09,5.0971323994055e-09,-0.0016085616210616,0.0016085611426113,-0.001712083126717,0.0017120816632094,-0.0017120796185161,0.0017120852055485,-0.0017120856308681,0.0017120791062079,-0.0017120821241198,0.0017120826488382,-0.0013930760373458,0.0013930625520575,-0.0013930657111243,0.0013930731277052,-0.0016129346341448,0.0016129451781515,-0.0016129421027774,0.0016129375169112,-5.1255250877405e-09,4.8652447493184e-09,-0.00080872931683829,0.00080872901754036,5.0696082395493e-09,-5.544729329553e-09,-0.00094401625787986,0.00094401620787803,-0.00094401979263305,0.00094401266313503,-0.00094401293490169,0.00094401954400815,-0.00094401647066642,0.00094401599626379,-0.00094262839824547,0.00094263434679171,-0.00094263812438079,0.00094262453718948,0.67638953510647,125803,2834,0.0066783263415611,0.0066783263648951,0.0033688034967458,18.06133108555,-9.5509351315601e-05,-9.5509351315601e-05,-9.5509351315601e-05,3665479.5350393,0.016867053916625
19819200,0.98590815630615,0.016890692382768,0.0064601707629732,0.0064601707800831,0.0039703508397116,-0.0016101869036491,0.0016101873879122,5.3095633206617e-09,-4.8570457500569e-09,-3.5419686520537e-09,4.1079898399067e-09,-0.0017136887750378,0.0017136901139643,-0.0017136921482306,0.0017136866949544,-0.0017136862593811,0.0017136926579023,-0.001713689652943,0.0017136892578851,-0.0013946839188453,0.0013946969023441,-0.0013946938564979,0.0013946869062127,3.5492194367825e-09,-4.0973065220428e-09,-5.5746090878255e-09,5.1197600253235e-09,-0.0016101873899672,0.0016101869132569,-0.0017136901903513,0.00171368870768,-0.001713686667319,0.0017136922642439,-0.0017136926880015,0.0017136861571015,-0.0017136891669576,0.0017136897142931,-0.00139469708658,0.0013946835666028,-0.0013946867179566,0.001394694184811,-0.0016145667641191,0.0016145773056526,-0.0016145742121422,0.0016145696614088,-5.1833718531458e-09,4.9214208965875e-09,-0.00080982898810394,0.00080982868715781,5.0918384004148e-09,-5.5687302929687e-09,-0.00094536364948997,0.000945363575011,-0.0009453671996272,0.0009453600149479,-0.00094536028830308,0.00094536694941437,-0.0009453638396621,0.00094536338636846,-0.00094381905726785,0.00094382509984121,-0.00094382889351527,0.0009438151781765,0.65786894524201,125803,2834,0.0066850494176178,0.0066850494417434,0.0033733846037403,18.584238581916,-9.1326091344675e-05,-9.1326091344675e-05,-9.1326091344675e-05,3666721.9363589,0.016885386987466
20019200,0.98624586147236,0.016896228516237,0.0064622841894299,0.0064622842065415,0.0039716601202655,-0.0016109091662585,0.0016109096532116,5.3668228425402e-09,-4.9130671591708e-09,-3.5583880111006e-09,4.1301035508774e-09,-0.0017144193369862,0.0017144207029158,-0.0017144227478896,0.0017144172462097,-0.0017144168086554,0.0017144232596933,-0.0017144202398479,0.0017144198220862,-0.0013953852236716,0.0013953983298877,-0.0013953952720345,0.0013953882237448,3.5652919029562e-09,-4.1155741615227e-09,-5.5727802879931e-09,5.1156256092153e-09,-0.0016109096554536,0.0016109091767376,-0.0017144207595399,0.0017144192883552,-0.0017144172384206,0.001714422842878,-0.0017144232685248,0.0017144167262663,-0.0017144197493137,0.0017144202815243,-0.001395398454686,0.0013953849268156,-0.0013953880909614,0.0013953955387911,-0.0016152954606977,0.0016153060318114,-0.0016153029359846,0.0016152983477806,-5.244330585924e-09,4.9825856643987e-09,-0.00081019829958963,0.00081019799904291,5.0878825663657e-09,-5.5639995637852e-09,-0.00094587587457475,0.00094587575690178,-0.00094587942191605,0.00094587219962469,-0.00094587247284657,0.00094587917212054,-0.00094587602119656,0.00094587561192705,-0.00094426019826209,0.00094426636327778,-0.00094427015157956,0.00094425631955279,0.68048383656754,125803,2834,0.0066880350880629,0.0066880351143848,0.0033749273063821,18.671560905252,-9.0627512757982e-05,-9.0627512757982e-05,-9.0627512757982e-05,3665998.9904283,0.016893028805163
20219200,0.98657487664783,0.016901773319371,0.0064643957137364,0.0064643957308405,0.0039729818747944,-0.0016114283525778,0.0016114288429979,5.4273473877922e-09,-4.9695170341364e-09,-3.5866091750222e-09,4.1608889987561e-09,-0.0017149192928675,0.0017149206819021,-0.0017149227427674,0.0017149171861347,-0.0017149167451019,0.00171492325836,-0.0017149202152894,0.0017149197817715,-0.0013959175638256,0.0013959308090613,-0.0013959277267938,0.0013959205881,3.5924185891957e-09,-4.1466127975331e-09,-5.5595333803143e-09,5.0989644694039e-09,-0.0016114288451179,0.0016114283628316,-0.001714920714572,0.0017149192690135,-0.0017149172032309,0.0017149228134563,-0.0017149232426733,0.0017149166875199,-0.0017149197333296,0.0017149202328693,-0.0013959308620728,0.0013959173407959,-0.0013959205277716,0.001395927923626,-0.001615828571844,0.001615839186382,-0.0016158361066743,0.0016158314474532,-5.3029593126878e-09,5.0423197301228e-09,-0.00081035428175606,0.00081035398225544,5.0736307409294e-09,-5.5486018504606e-09,-0.00094620869013386,0.00094620852405908,-0.00094621222754245,0.00094620497664658,-0.00094620524884468,0.00094621197871211,-0.00094620878732726,0.00094620842849496,-0.00094446607328944,0.00094447236520039,-0.00094447614348944,0.00094446220661546,0.69908659519164,125803,2834,0.0066901799226103,0.00669017994821,0.003375584955897,18.63839810067,-9.0892815194636e-05,-9.0892815194636e-05,-9.0892815194636e-05,3658503.3885761,0.01689806065867
20419200,0.98689537632312,0.016907182036017,0.0064664554518448,0.0064664554689459,0.0039742711152259,-0.001611958972621,0.0016119594665347,5.4897718477678e-09,-5.0278442792791e-09,-3.6150612977118e-09,4.1918160363681e-09,-0.0017154124116666,0.0017154138250742,-0.0017154159019326,0.0017154102890844,-0.0017154098443305,0.0017154164213549,-0.0017154133548822,0.0017154129043474,-0.0013964816844798,0.0013964950729125,-0.0013964919659049,0.0013964847329821,3.6219663207092e-09,-4.1804838710862e-09,-5.5416639224015e-09,5.0772879804918e-09,-0.0016119594686141,0.0016119589823075,-0.0017154138309892,0.0017154124155224,-0.0017154103327611,0.0017154159468801,-0.0017154163800048,0.0017154098129741,-0.0017154128837164,0.0017154133449861,-0.0013964950481372,0.0013964815409669,-0.0013964847528238,0.0013964920847796,-0.0016163736841715,0.0016163843440211,-0.0016163812843977,0.001616376545085,-5.3595813347818e-09,5.1002726172902e-09,-0.00081048583951672,0.00081048554127513,5.0555261513908e-09,-5.5291795483942e-09,-0.00094655811402288,0.00094655789847994,-0.0009465616388731,0.00094655436361195,-0.00094655463450521,0.00094656139134237,-0.00094655816052939,0.0009465578535277,-0.00094463842328165,0.00094464484107045,-0.00094464860637465,0.00094463457156918,0.69998400741695,125803,2834,0.0066923714040483,0.0066923714283879,0.0033761428216162,18.60216066477,-9.1182714681843e-05,-9.1182714681843e-05,-9.1182714681843e-05,3647615.3975393,0.016903086169253
20619200,0.98720759193776,0.016911919265873,0.0064682787200851,0.0064682787371886,0.0039753618085993,-0.0016124443912149,0.0016124448887942,5.5507383173428e-09,-5.0851600320281e-09,-3.6415306426209e-09,4.222206711542e-09,-0.0017158716165343,0.0017158730540887,-0.0017158751461968,0.0017158694787659,-0.0017158690304689,0.0017158756693655,-0.001715872580412,0.0017158721129659,-0.001396983317096,0.001396996843901,-0.0013969937144827,0.0013969863881114,3.6487359474449e-09,-4.2112918928247e-09,-5.5225334451437e-09,5.0544630291938e-09,-0.0016124448909173,0.0016124444008784,-0.0017158730334889,0.0017158716472905,-0.0017158695490274,0.0017158751646698,-0.0017158756014583,0.0017158690255853,-0.001715872118946,0.0017158725435729,-0.0013969967408796,0.0013969832520986,-0.0013969864865848,0.0013969937546079,-0.0016168553000955,0.0016168659988414,-0.0016168629569548,0.0016168581431144,-5.4174266078308e-09,5.1595208383565e-09,-0.00081058085013985,0.00081058055332458,5.0355042241389e-09,-5.5074536357043e-09,-0.00094686917085167,0.00094686890368557,-0.00094687268177249,0.00094686538273112,-0.0009468656522866,0.00094687243564345,-0.00094686916440074,0.00094686891170329,-0.0009447652850013,0.00094477183261012,-0.00094477558260377,0.00094476144858831,0.63099124661387,125803,2834,0.0066943758389885,0.0066943758633706,0.0033765486570471,18.565805510097,-9.1473555919226e-05,-9.1473555919226e-05,-9.1473555919226e-05,3637954.2917448,0.016907576992745
20819200,0.98749720542529,0.016916639418116,0.0064700814693284,0.0064700814864343,0.0039764764623536,-0.0016112094345497,0.0016112099398076,5.6091628137499e-09,-5.1400311678114e-09,-3.6811333727846e-09,4.2774880355591e-09,-0.0017146935719781,0.0017146950221189,-0.0017146971400364,0.0017146914094472,-0.0017146909544767,0.0017146976691714,-0.0017146945426675,0.0017146940750961,-0.0013956980828895,0.0013957117493743,-0.0013957085910303,0.0013957011857009,3.6907606072087e-09,-4.2609252978675e-09,-5.4756375203835e-09,4.9998223863949e-09,-0.0016112099429192,0.0016112094460292,-0.0017146949651285,0.0017146936364601,-0.0017146915145444,0.0017146971206746,-0.0017146975633928,0.0017146909846044,-0.0017146941139703,0.0017146944684615,-0.0013957115404995,0.001395698113055,-0.0013957013832236,0.0013957085149292,-0.0016156140694914,0.0016156248175862,-0.0016156217984699,0.0016156168549775,-5.4763703741867e-09,5.2224951839452e-09,-0.00080937734302735,0.00080937705058733,4.9865895552499e-09,-5.4524288201011e-09,-0.00094559330328558,0.00094559296493303,-0.00094559677961317,0.00094558947845431,-0.00094558974457543,0.00094559653778361,-0.00094559322157641,0.00094559304798665,-0.0009435742351503,0.00094358094028786,-0.00094358464612563,0.00094357043072266,0.67642717940904,125803,2834,0.0066892654727258,0.0066892655029292,0.0033715480163828,17.742859597747,-9.8057123218022e-05,-9.8057123218022e-05,-9.8057123218022e-05,3632434.9102367,0.016892097916792
21019200,0.98776460108102,0.016920862713821,0.0064716987944596,0.0064716988115472,0.003977465107814,-0.0016098521042984,0.0016098526144663,5.6755237471748e-09,-5.1998030682326e-09,-3.7155430442987e-09,4.314928388782e-09,-0.0017133361003226,0.0017133375734042,-0.0017133397104301,0.0017133339189723,-0.0017133334590966,0.0017133402443244,-0.001713337089496,0.00171333660819,-0.0013943561860354,0.001394370009336,-0.0013943668186387,0.0013943593220282,3.7281819981873e-09,-4.3042977947028e-09,-5.4263584652571e-09,4.9451216545162e-09,-0.001609852618165,0.0016098521157842,-0.0017133374774855,0.0017133362046079,-0.0017133340609786,0.0017133396540944,-0.0017133401022062,0.0017133335256907,-0.0017133366871834,0.0017133369746842,-0.0013943696913049,0.0013943563343474,-0.0013943596370354,0.0013943666346724,-0.0016142539610129,0.0016142647490695,-0.0016142617755381,0.0016142567115883,-5.5297709906537e-09,5.2783099398133e-09,-0.00080799870988046,0.00080799842021424,4.9384248505842e-09,-5.4009533042641e-09,-0.00094423767999893,0.00094423727513878,-0.00094424112302508,0.00094423382188012,-0.00094423408489198,0.00094424088424863,-0.0009442375287471,0.00094423742731657,-0.00094215676307639,0.00094216361084071,-0.00094216728393412,0.00094215299685122,0.6560166535733,125803,2834,0.0066836475799663,0.0066836476113828,0.0033658226010896,16.832282304091,-0.00010534174156727,-0.00010534174156727,-0.00010534174156727,3615293.430201,0.016874850503378
21219200,0.98801165254086,0.016924787692094,0.0064731998530911,0.0064731998701635,0.0039783879688397,-0.0016084105842155,0.0016084110966469,5.7343994907377e-09,-5.254684613992e-09,-3.7407167312598e-09,4.3384039430317e-09,-0.0017119163637197,0.0017119178620674,-0.0017119200114371,0.0017119141694028,-0.0017119137068174,0.0017119205492876,-0.0017119173746184,0.0017119168752202,-0.0013929048268322,0.0013929187843399,-0.0013929155704483,0.0013929079830338,3.7489520503235e-09,-4.327580417883e-09,-5.3836788031909e-09,4.9007644722778e-09,-0.0016084110989961,0.0016084105941177,-0.001711917734708,0.0017119165025886,-0.0017119143465545,0.0017119199224182,-0.0017119203739505,0.0017119138088093,-0.001711916987616,0.0017119172289895,-0.0013929183658087,0.0013929050774843,-0.0013929083966374,0.0013929152915552,-0.0016128091469429,0.0016128199461957,-0.0016128170138942,0.0016128118742057,-5.5890094747925e-09,5.3405257829268e-09,-0.00080662347897915,0.00080662319188028,4.8954749236915e-09,-5.3556605089049e-09,-0.00094281490428831,0.00094281443170146,-0.00094281831791593,0.00094281100791707,-0.00094281126828978,0.00094281808135229,-0.00094281468305932,0.0009428146544555,-0.00094075179254304,0.00094075879163069,-0.00094076243392664,0.00094074806159092,0.65967102369478,125803,2834,0.0066776824050077,0.0066776824303544,0.0033601083403369,15.919313031572,-0.00011264549574743,-0.00011264549574743,-0.00011264549574743,3603110.8308378,0.016856907960064
21419200,0.98824338141163,0.016928492863393,0.0064746150298859,0.0064746150469599,0.0039792627865474,-0.0016073954294259,0.0016073959393453,5.7913610323664e-09,-5.3096081827029e-09,-3.7515090645615e-09,4.3358327028754e-09,-0.0017109144335748,0.001710915967696,-0.001710918117948,0.0017109122363054,-0.0017109117746131,0.00171091865738,-0.0017109154790374,0.0017109149455667,-0.0013918841663758,0.0013918982454498,-0.0013918950178734,0.0013918873282798,3.7506012829994e-09,-4.3273048473261e-09,-5.3554787672597e-09,4.8762138371578e-09,-0.0016073959384402,0.0016073954348989,-0.0017109158167122,0.0017109146033417,-0.001710912445118,0.0017109180038389,-0.0017109184562437,0.0017109119081441,-0.0017109150878169,0.0017109153113525,-0.0013918977396792,0.0013918845060763,-0.0013918878227954,0.0013918946671957,-0.0016117942525607,0.0016118050363141,-0.0016118021454597,0.0016117969856737,-5.649826233419e-09,5.4028274006845e-09,-0.00080562852749619,0.00080562824093992,4.866974515569e-09,-5.3284724304379e-09,-0.00094179876964091,0.00094179823756225,-0.00094180216465061,0.00094179483257518,-0.00094179509160824,0.00094180192820099,-0.00094179848862365,0.00094179852127063,-0.00093973953706063,0.00093974667778601,-0.0009397503030767,0.00093973583299009,0.66373454412156,125803,2834,0.0066734812859268,0.0066734812953784,0.0033559748795907,15.230716595933,-0.00011815426723253,-0.00011815426723253,-0.00011815426723253,3593391.7263474,0.016844160785123
21619200,0.98846121237923,0.016932005570911,0.0064759549816666,0.0064759549987771,0.0039800955904675,-0.0016064177407044,0.0016064182518728,5.8510869011351e-09,-5.3714387203518e-09,-3.7361325441271e-09,4.3298646023732e-09,-0.0017099459579991,0.0017099475381118,-0.0017099496835275,0.0017099437673618,-0.0017099433055727,0.0017099502209653,-0.0017099470510923,0.0017099464689447,-0.0013909077402647,0.0013909219238388,-0.0013909187123316,0.0013909108923867,3.7422623841588e-09,-4.3196413347771e-09,-5.3378946496722e-09,4.8564957180328e-09,-0.0016064182535396,0.0016064177496875,-0.0017099473579249,0.0017099461516949,-0.0017099439992201,0.0017099495410801,-0.0017099499923038,0.0017099434626062,-0.0017099466356973,0.0017099468528456,-0.0013909213459275,0.0013909081520904,-0.0013909114648125,0.0013909182772638,-0.001610816296491,0.0016108270523108,-0.0016108241549167,0.001610819000407,-5.7062135595321e-09,5.4603983064623e-09,-0.00080467202370021,0.00080467173912602,4.8514984303013e-09,-5.3090903163864e-09,-0.0009408315339317,0.00094083095447144,-0.00094083491738788,0.00094082756090169,-0.00094082781867905,0.00094083468311376,-0.00094083120346746,0.00094083128669812,-0.00093876080139385,0.00093876806541283,-0.00093877167603349,0.00093875710531704,0.66920855808746,125803,2834,0.0066694351177268,0.0066694351397586,0.0033520013576242,14.566367531003,-0.00012346905975197,-0.00012346905975197,-0.00012346905975197,3583322.7028398,0.016831891662422
21819200,0.9886661061659,0.016935262811803,0.0064771987129661,0.0064771987300827,0.0039808653687539,-0.0016054292521165,0.0016054297613122,5.9086759004189e-09,-5.4316645060248e-09,-3.7181880077322e-09,4.3112546765408e-09,-0.0017089613483145,0.0017089629774131,-0.0017089651132149,0.0017089591675734,-0.0017089587078516,0.0017089656481011,-0.0017089624927308,0.0017089618568742,-0.00138992756011,0.0013899418433858,-0.0013899386478213,0.0013899306973419,3.7254082062189e-09,-4.3005050987108e-09,-5.3281121096055e-09,4.8485740919448e-09,-0.0016054297633698,0.0016054292616716,-0.0017089627741665,0.0017089615640803,-0.0017089594213686,0.0017089649477317,-0.0017089653967301,0.0017089588870686,-0.0017089620458762,0.0017089622713158,-0.0013899411997406,0.0013899280370868,-0.0013899313357391,0.0013899381448799,-0.0016098257362207,0.0016098364530106,-0.0016098335559781,0.0016098284335051,-5.7647879470953e-09,5.5193476419535e-09,-0.00080370776807196,0.0008037074840289,4.8431571413205e-09,-5.2998160806298e-09,-0.00093986685222899,0.00093986622828342,-0.00093987022983582,0.00093986284055468,-0.00093986309790129,0.00093986999612301,-0.00093986647673687,0.00093986660542089,-0.0009377668498268,0.0009377742349539,-0.00093777783868976,0.0009377631588717,0.65988855319501,125803,2834,0.0066653441382468,0.0066653441622718,0.0033479958427937,13.902682514076,-0.00012877853988739,-0.00012877853988739,-0.00012877853988739,3572290.9293901,0.016819499131418
22019200,0.98887067002241,0.016938464220555,0.0064784223220757,0.0064784223391937,0.0039816195592855,-0.0016062168372798,0.0016062173395139,5.9645978906875e-09,-5.4938001572939e-09,-3.6705380507586e-09,4.2551066262369e-09,-0.0017097538519024,0.0017097555478767,-0.0017097576560456,0.0017097516986662,-0.0017097512455591,0.0017097581839476,-0.0017097550697409,0.0017097543533878,-0.0013906908102513,0.0013907051696025,-0.0013907020137498,0.001390693907701,3.6774275745825e-09,-4.245104788488e-09,-5.3614599730711e-09,4.8887099871223e-09,-0.0016062173416787,0.0016062168468593,-0.0017097553368296,0.0017097540749204,-0.0017097519598488,0.0017097574831358,-0.0017097579254059,0.0017097514324261,-0.0017097545503709,0.0017097548412173,-0.001390704504823,0.0013906913111255,-0.0013906945695849,0.0013907014917353,-0.0016106198113007,0.0016106304578887,-0.0016106275316099,0.001610622542563,-5.824865367742e-09,5.576925645985e-09,-0.00080430104124032,0.00080430075460881,4.8784326734879e-09,-5.338149554904e-09,-0.00094052391438306,0.00094052327326568,-0.00094052731654253,0.00094051986104411,-0.00094052012078165,0.00094052708022521,-0.00094052352417857,0.00094052366501048,-0.00093841573353724,0.00093842320681308,-0.00093842683917162,0.00093841201713284,0.64982379227466,125803,2834,0.0066686020102835,0.0066686020345739,0.0033504644740384,14.15331257969,-0.00012677349936248,-0.00012677349936248,-0.00012677349936248,3576670.5196914,0.016828634885979
22219200,0.98907609606256,0.016941654392008,0.006479642644654,0.0064796426617743,0.0039823690855792,-0.0016071825780494,0.0016071830738085,6.0201372541158e-09,-5.5561695448343e-09,-3.6259662456907e-09,4.204163519455e-09,-0.0017107432385206,0.0017107449990367,-0.0017107470819159,0.0017107411104152,-0.0017107406635599,0.0017107476032355,-0.0017107445270723,0.0017107437333224,-0.0013916124055132,0.0013916268413887,-0.0013916237244804,0.0013916154640047,3.6333407995797e-09,-4.1939803381547e-09,-5.4020871258861e-09,4.9357691716215e-09,-0.0016071830759437,0.0016071825876186,-0.001710744782421,0.0017107434663057,-0.0017107413765893,0.0017107469038146,-0.0017107473396435,0.0017107408555277,-0.0017107439357582,0.0017107442935921,-0.0013916261612947,0.0013916129195412,-0.0013916161403627,0.0013916231863492,-0.0016115853408845,0.0016115959296557,-0.0016115929665809,0.0016115881072409,-5.8852081851621e-09,5.6343338648798e-09,-0.00080506057807422,0.0008050602884484,4.9205158484714e-09,-5.3837712011205e-09,-0.0009413409873683,0.00094134033328288,-0.00094134441876657,0.00094133689187949,-0.00094133715448486,0.00094134417953628,-0.00094134058712904,0.00094134073513409,-0.00093924124274905,0.00093924879893808,-0.00093925246270796,0.00093923749340305,0.64497435684768,125803,2834,0.0066725971991984,0.0066725972234102,0.0033536236827804,14.499663221355,-0.00012400269422916,-0.00012400269422916,-0.00012400269422916,3584847.5171598,0.01683997258432
22419200,0.98928232352739,0.01694499149649,0.0064809142095103,0.0064809142266323,0.0039831630603469,-0.0016081545198365,0.0016081550098111,6.0757000172409e-09,-5.6175124534976e-09,-3.5890205160045e-09,4.1607293242222e-09,-0.0017117433364009,0.001711745157025,-0.0017117472186462,0.0017117412292432,-0.0017117407878821,0.0017117477344247,-0.0017117446902986,0.0017117438254822,-0.001392535187892,0.0013925497058359,-0.0013925466211771,0.0013925382136311,3.5959863693789e-09,-4.1504126034036e-09,-5.442532719792e-09,4.9819784524045e-09,-0.0016081550117148,0.0016081545291246,-0.0017117449351791,0.0017117435691607,-0.0017117415007902,0.001711747035537,-0.0017117474657717,0.0017117409853447,-0.0017117440333738,0.0017117444523982,-0.0013925490101857,0.0013925357158529,-0.0013925389047183,0.0013925460680748,-0.0016125614095249,0.0016125719533351,-0.0016125689564103,0.0016125642117259,-5.9459007298743e-09,5.6924034086304e-09,-0.0008058309289941,0.00080583063652747,4.9619642656514e-09,-5.4287020401603e-09,-0.00094215856103026,0.00094215789326713,-0.00094216202123683,0.00094215442312723,-0.0009421546884806,0.00094216177911699,-0.00094215814996523,0.00094215830606046,-0.00094008583041656,0.00094009347143043,-0.00094009716642006,0.00094008204980025,0.67139354368722,125803,2834,0.0066766181325986,0.0066766181557521,0.003356827689933,14.848644917267,-0.00012121084066187,-0.00012121084066187,-0.00012121084066187,3593441.9134523,0.016851408206071
22619200,0.98948911083895,0.016948375206615,0.006482202603706,0.0064822026208318,0.0039839699820774,-0.0016091674820587,0.0016091679689442,6.1326744291823e-09,-5.6777043112659e-09,-3.5674732309651e-09,4.13638455635e-09,-0.0017127541565338,0.0017127560281725,-0.001712758077858,0.0017127520613278,-0.0017127516230466,0.0017127585901956,-0.0017127555645926,0.0017127546422092,-0.0013935341678198,0.0013935487819894,-0.0013935457160033,0.0013935371753084,3.5744764760208e-09,-4.1254729494859e-09,-5.4793333841773e-09,5.0218689271161e-09,-0.0016091679710458,0.0016091674916681,-0.0017127557991531,0.0017127543955531,-0.0017127523396141,0.0017127578876359,-0.0017127583144872,0.0017127518272127,-0.0017127548568468,0.0017127553198484,-0.0013935480665233,0.0013935347155583,-0.0013935378862182,0.0013935451434022,-0.0016135819540408,0.0016135924809708,-0.0016135894541198,0.0016135847839877,-6.0064766657753e-09,5.7503574293513e-09,-0.00080656813715588,0.00080656784212979,4.9986281180334e-09,-5.4683043601859e-09,-0.0009430194976327,0.00094301881340118,-0.00094302298326399,0.00094301531783375,-0.00094301558563488,0.00094302273873828,-0.00094301907247612,0.00094301924019078,-0.00094088211937483,0.00094088984826005,-0.00094089357130564,0.00094087831039944,0.6788026811953,125803,2834,0.0066808076074114,0.0066808076316388,0.0033598971650081,15.186826181648,-0.00011850539054682,-0.00011850539054682,-0.00011850539054682,3595338.8253682,0.016863050424674
22819200,0.98969345494737,0.016951709388577,0.0064834728644081,0.0064834728815355,0.0039847636426334,-0.0016097529665217,0.0016097534575113,6.1879970445261e-09,-5.7334008579511e-09,-3.5571786084588e-09,4.1427251254146e-09,-0.0017133339368654,0.0017133358453955,-0.0017133378931462,0.0017133318420747,-0.0017133314052223,0.0017133384069542,-0.0017133353815373,0.0017133344232739,-0.0013941163558599,0.0013941310715767,-0.0013941280153804,0.0013941193565813,3.5686188593199e-09,-4.1177622635742e-09,-5.5054111731503e-09,5.0474612934119e-09,-0.0016097534607619,0.0016097529827755,-0.001713335604597,0.0017133341809908,-0.0017133321259003,0.0017133376881214,-0.0017133381149786,0.0017133316168217,-0.001713334639972,0.0017133351272663,-0.0013941303273583,0.0013941169298835,-0.0013941200930083,0.0013941274035691,-0.0016141725876571,0.0016141831182827,-0.0016141800474422,0.0016141754077917,-6.0714077418207e-09,5.8103132840352e-09,-0.00080691577691834,0.00080691547886504,5.0218267726484e-09,-5.4932049824743e-09,-0.00094348812572451,0.00094348741321371,-0.00094349162794952,0.00094348390086997,-0.00094348417219281,0.00094349138063034,-0.000943487675693,0.00094348786666423,-0.00094126825722283,0.00094127608379026,-0.00094127982233123,0.00094126441788492,0.67691803278094,125803,2834,0.0066832280677753,0.0066832281081199,0.0033613480866106,15.303448519921,-0.00011757241184063,-0.00011757241184063,-0.00011757241184063,3592558.6858788,0.01686944924198
23019200,0.98989528302816,0.016954781595325,0.0064846514484972,0.0064846514655919,0.0039854786812354,-0.0016103040481666,0.001610304535347,6.2507912091487e-09,-5.7964502284244e-09,-3.5658811027212e-09,4.1373930178951e-09,-0.001713884881708,0.0017138868320028,-0.00171388888188,0.0017138827862115,-0.0017138823482978,0.0017138893939369,-0.0017138863688196,0.0017138853670119,-0.0013946540222364,0.0013946688665621,-0.0013946658030284,0.0013946570281239,3.5752507601905e-09,-4.1260555415724e-09,-5.5241380115454e-09,5.0665802539364e-09,-0.0016103045378463,0.001610304058685,-0.0017138865773452,0.0017138851447429,-0.0017138830881757,0.0017138886666538,-0.0017138890930389,0.0017138825760119,-0.0017138856059347,0.0017138860985227,-0.0013946680793832,0.001394654640297,-0.0013946578111942,0.0013946651554704,-0.0016147233268756,0.0016147338850536,-0.0016147308232938,0.0016147261815169,-6.1252319169516e-09,5.8659274250025e-09,-0.00080723739761761,0.00080723709967125,5.0420775468798e-09,-5.5149056800136e-09,-0.00094392139374829,0.00094392065858247,-0.00094392490937072,0.00094391713292105,-0.00094391740363674,0.00094392466212859,-0.00094392092048545,0.00094392113346048,-0.00094162767656548,0.00094163560081611,-0.00094163935611111,0.00094162383261074,0.63260003357208,125803,2834,0.006685506261418,0.0066855062883496,0.0033626905697735,15.414678930903,-0.00011668256855277,-0.00011668256855277,-0.00011668256855277,3590526.0687443,0.016875448474196
23219200,0.99009459293203,0.016957945755091,0.006485859879329,0.0064858598964218,0.0039862259793402,-0.0016107605811986,0.0016107610693706,6.309554487265e-09,-5.8536695520604e-09,-3.5779304925618e-09,4.1492505200683e-09,-0.0017143900876216,0.0017143920699472,-0.0017143941263036,0.0017143879854185,-0.0017143875464092,0.0017143946398047,-0.0017143916053932,0.0017143905742555,-0.0013950401962665,0.0013950551644008,-0.0013950520904317,0.0013950432119532,3.5856607204086e-09,-4.1376104589051e-09,-5.5393874231795e-09,5.080915763103e-09,-0.0016107610715827,0.0016107605913411,-0.0017143918014108,0.0017143903652128,-0.0017143883025243,0.0017143938969309,-0.0017143943244013,0.001714387789118,-0.0017143908275455,0.0017143913215621,-0.0013950543343147,0.0013950408578873,-0.001395044037624,0.0013950514027101,-0.0016151818728716,0.0016151924613306,-0.0016151893936736,0.0016151847391267,-6.185479355577e-09,5.9254328204183e-09,-0.00080758344140616,0.00080758314251021,5.0558869799615e-09,-5.5300521171174e-09,-0.00094425008138741,0.00094424931500695,-0.00094425360668422,0.00094424577972397,-0.00094424605132732,0.00094425335845237,-0.0009442495778534,0.0009442498202784,-0.00094204401875209,0.00094205205004711,-0.00094205581632623,0.00094204016547266,0.65900010353438,125803,2834,0.0066873951118761,0.0066873951374338,0.0033641296275786,15.525704689703,-0.00011579436248238,-0.00011579436248238,-0.00011579436248238,3598349.9579709,0.01688075317492
23419200,0.99029223309132,0.016961051650668,0.0064870473441195,0.0064870473612139,0.0039869569453342,-0.0016114089949442,0.0016114094852278,6.3694429620073e-09,-5.9114080847172e-09,-3.5939037193554e-09,4.16741698486e-09,-0.0017150546437189,0.0017150566560409,-0.0017150587216048,0.0017150525322821,-0.0017150520912504,0.0017150592372701,-0.0017150561894585,0.0017150551324978,-0.0013956541757056,0.0013956692726353,-0.0013956661851735,0.001395657204903,3.6016002325851e-09,-4.1558728388187e-09,-5.5485256892769e-09,5.0879443759683e-09,-0.0016114094874591,0.0016114090050797,-0.0017150563706212,0.0017150549382912,-0.0017150528664305,0.0017150584754291,-0.0017150589048725,0.0017150523508031,-0.0017150554027045,0.0017150558886457,-0.0013956683928405,0.0013956548871348,-0.0013956580804826,0.0013956654479776,-0.0016158344590704,0.0016158450843861,-0.0016158420136569,0.0016158373286047,-6.2447207709044e-09,5.9842297721823e-09,-0.00080803252862777,0.00080803222926847,5.0636721264082e-09,-5.538420765994e-09,-0.00094476505752356,0.00094476425674184,-0.00094476858818732,0.00094476071607313,-0.00094476098813129,0.00094476833954879,-0.00094476452002608,0.00094476479597601,-0.0009425468380898,0.0009425549790358,-0.00094255875119521,0.00094254297905636,0.65256368780274,125803,2834,0.0066900768310056,0.0066900768565877,0.0033659998669269,15.704335169191,-0.00011436531864648,-0.00011436531864648,-0.00011436531864648,3600519.5191635,0.016888109468863
23619200,0.99049238072892,0.01696426682874,0.0064882739312109,0.006488273948307,0.003987718949222,-0.0016127132181767,0.0016127137093318,6.430688610583e-09,-5.9709792196835e-09,-3.603660117363e-09,4.1766184335267e-09,-0.0017163782438897,0.0017163802913214,-0.0017163823620087,0.0017163761272915,-0.001716375685131,0.0017163828788633,-0.0017163798236544,0.0017163787337484,-0.0013969084123134,0.001396923636812,-0.0013969205402423,0.0013969114502377,3.6120080155757e-09,-4.1677415563341e-09,-5.5610704171001e-09,5.0993195119731e-09,-0.0016127137115758,0.0016127132278626,-0.0017163799896022,0.0017163785553361,-0.0017163764775732,0.00171638210055,-0.0017163825311804,0.0017163759604702,-0.0017163790212,0.0017163795062611,-0.0013969227103042,0.0013969091727263,-0.0013969123751756,0.0013969197574261,-0.0016171485616418,0.0016171592155783,-0.0016171561414994,0.0016171514408127,-6.3025260912503e-09,6.0413463730447e-09,-0.00080905753080403,0.00080905723063495,5.0759483989721e-09,-5.551831379138e-09,-0.00094587418297088,0.0009458733516324,-0.00094587772212107,0.00094586980247403,-0.00094587007518678,0.00094587747273903,-0.00094587361566442,0.00094587392057582,-0.0009436629055331,0.0009436711497006,-0.00094367493237296,0.00094365903868314,0.66669034410754,125803,2834,0.0066954720329104,0.0066954720575842,0.0033702639589533,16.218740191027,-0.00011025007847178,-0.00011025007847178,-0.00011025007847178,3608721.1784516,0.016903418807552
23819200,0.99069500678835,0.016967692401712,0.0064895750052993,0.0064895750223995,0.0039885423740135,-0.0016140807669204,0.0016140812590083,6.4864304795896e-09,-6.0261917752131e-09,-3.6162370906745e-09,4.1896607225644e-09,-0.0017177496554014,0.0017177517336221,-0.0017177538120144,0.0017177475325245,-0.0017177470878132,0.0017177543293534,-0.0017177512647216,0.0017177501469137,-0.0013982465843807,0.0013982619261061,-0.0013982588209962,0.001398249631385,3.6207621260848e-09,-4.178770161886e-09,-5.5705468710291e-09,5.1067837486443e-09,-0.001614081261375,0.0016140807757356,-0.0017177514170375,0.0017177499820052,-0.0017177479009771,0.0017177535343964,-0.0017177539656049,0.0017177473810679,-0.0017177504499378,0.0017177509322305,-0.0013982609527176,0.0013982473897589,-0.0013982506016093,0.0013982579924866,-0.00161853028039,0.0016185409578331,-0.0016185378805212,0.0016185331654352,-6.3639741996897e-09,6.1045769283064e-09,-0.00081009479320056,0.0008100944940388,5.0838902532252e-09,-5.5586750604185e-09,-0.00094704261372994,0.00094704174701877,-0.00094704615769427,0.00094703819279232,-0.00094703846501005,0.00094704590909716,-0.00094704200994848,0.00094704235150357,-0.00094478821280612,0.00094479657566255,-0.00094480036181764,0.00094478434303181,0.70079154882976,125803,2834,0.0067011284384048,0.0067011284615381,0.0033745811289249,16.741333752991,-0.00010606932997607,-0.00010606932997607,-0.00010606932997607,3613511.4133729,0.016919313889559
24019200,0.99089997110525,0.016971197177978,0.0064909055482398,0.006490905565347,0.0039893860643915,-0.0016155243265435,0.0016155248208694,6.5485433714951e-09,-6.0864865842481e-09,-3.6249595572091e-09,4.2025532515888e-09,-0.0017191604661218,0.0017191625787941,-0.0017191646621954,0.001719158336895,-0.0017191578917703,0.0017191651820532,-0.001719162108237,0.0017191609590728,-0.0013997039429258,0.0013997194131363,-0.001399716299592,0.001399706998211,3.6329895325459e-09,-4.1920127433707e-09,-5.5733476888406e-09,5.1084469769625e-09,-0.0016155248231961,0.0016155243364482,-0.0017191622417642,0.001719160812494,-0.001719158722846,0.0017191643649865,-0.0017191647983199,0.0017191582025973,-0.0017191612812513,0.0017191617554825,-0.0013997183821201,0.0013997048053662,-0.0013997080258255,0.0013997154110752,-0.0016199906265424,0.0016200013289998,-0.0016199982480125,0.0016199935070575,-6.4217048322302e-09,6.1602112216581e-09,-0.0008111086176581,0.00081110831712389,5.0858900790455e-09,-5.5621109765832e-09,-0.00094828473807898,0.00094828383382408,-0.00094828828398378,0.00094828027786106,-0.0009482805510845,0.00094828803430644,-0.00094828409824679,0.00094828447535004,-0.00094587540032658,0.00094588387010833,-0.00094588765863085,0.00094587152505153,0.70866200595506,125803,2834,0.0067070977257416,0.0067070977510436,0.0033788050949395,17.264238257617,-0.00010188609393907,-0.00010188609393907,-0.00010188609393907,3610818.7689458,0.01693575141892
24219200,0.99110589387982,0.016974573073955,0.0064921928263069,0.0064921928434157,0.0039901874042327,-0.0016167833470461,0.0016167838437126,6.6075779874987e-09,-6.144006054303e-09,-3.6369181844695e-09,4.218798322313e-09,-0.0017203855931401,0.0017203877370241,-0.0017203898279686,0.0017203834564113,-0.0017203830094797,0.0017203903497276,-0.0017203872646802,0.0017203860880784,-0.0014009795285473,0.0014009951225437,-0.0014009919993917,0.0014009825940972,3.64542497224e-09,-4.2064948296334e-09,-5.566765532921e-09,5.0997483899079e-09,-0.0016167838462636,0.0016167833576416,-0.0017203873779422,0.0017203859608486,-0.0017203838639478,0.0017203895081971,-0.0017203899433281,0.0017203833419765,-0.0017203864312099,0.0017203868898106,-0.0014009940269095,0.0014009804541153,-0.0014009836850358,0.0014009910445702,-0.0016212604418095,0.0016212711636764,-0.0016212680856665,0.0016212633114436,-6.4810516922907e-09,6.2200447797839e-09,-0.00081193568508293,0.00081193538522166,5.0786833770435e-09,-5.5538659126287e-09,-0.00094935136916707,0.00094935042067238,-0.00094935490997103,0.00094934686977104,-0.00094934714251635,0.00094935466094472,-0.00094935068446648,0.00094935110706071,-0.00094676884112564,0.00094677743299916,-0.00094678121486452,0.0009467649700306,0.68010063340762,125803,2834,0.0067123029768181,0.0067123030040149,0.003382253930701,17.692143324214,-9.8462853406284e-05,-9.8462853406284e-05,-9.8462853406284e-05,3606003.5658314,0.016949847116137
24419200,0.99130962234357,0.016977909484623,0.006493465320784,0.00649346533789,0.0039909788259486,-0.0016175079796459,0.0016175084780767,6.6698200848101e-09,-6.2041790793526e-09,-3.6520955202241e-09,4.2349798212147e-09,-0.0017211132746284,0.0017211154509941,-0.001721117550308,0.0017211111295871,-0.0017211106805884,0.0017211180741996,-0.0017211149767554,0.0017211137715772,-0.0014016845980665,0.0014017003251644,-0.0014016971889423,0.0014016876762172,3.663156578081e-09,-4.2268859458326e-09,-5.5447220309822e-09,5.0754781470016e-09,-0.0016175084806131,0.0016175079895248,-0.0017211150634025,0.0017211136717381,-0.0017211115646294,0.0017211172036994,-0.0017211176412635,0.0017211110401926,-0.0017211141444985,0.0017211145724767,-0.0014016991476233,0.0014016856056124,-0.0014016888512595,0.0014016961502444,-0.0016219911823922,0.0016220019240432,-0.0016219988659705,0.0016219940358154,-6.5367982055669e-09,6.2774764733734e-09,-0.00081236705241765,0.00081236675416169,5.0572405736855e-09,-5.5307142073267e-09,-0.00094991363461585,0.00094991263497733,-0.00094991716044669,0.00094990909903698,-0.00094990937010505,0.00094991691306593,-0.00094991289727337,0.00094991337399172,-0.00094726974547404,0.00094727846455848,-0.00094728222999478,0.00094726589135569,0.67934589637925,125803,2834,0.0067152984685379,0.0067152984942229,0.0033840544953091,17.884721093794,-9.692223124965e-05,-9.692223124965e-05,-9.692223124965e-05,3604774.0755047,0.016957771559757
24619200,0.99151104590653,0.0169813580298,0.0064947751594279,0.0064947751765341,0.0039918076938384,-0.0016182176992651,0.0016182182005134,6.7270318539121e-09,-6.2583756142739e-09,-3.6666610908441e-09,4.2533284794993e-09,-0.0017218249994842,0.0017218272038805,-0.0017218293108696,0.0017218228448415,-0.0017218223952332,0.0017218298381027,-0.0017218267269471,0.0017218254986709,-0.0014023756034154,0.0014023914536782,-0.0014023883027191,0.0014023786948601,3.6750283655237e-09,-4.2393269235277e-09,-5.5212605456557e-09,5.0513830298703e-09,-0.0016182182022278,0.0016182177103131,-0.0017218267909752,0.0017218254223402,-0.0017218233061166,0.0017218289361973,-0.001721829376347,0.0017218227816005,-0.0017218258953119,0.0017218262985759,-0.0014023901954043,0.0014023766912556,-0.0014023799448054,0.0014023871885186,-0.0016227137891632,0.0016227245380297,-0.0016227214966051,0.0016227166253836,-6.5994341448186e-09,6.339191296969e-09,-0.00081279712656636,0.0008127968282184,5.0319653285512e-09,-5.5055447209174e-09,-0.00095045856118486,0.00095045750334846,-0.00095046207062666,0.0009504539841301,-0.00095045425497801,0.00095046182314933,-0.00095045776568757,0.00095045830152399,-0.00094777100985151,0.00094777986722364,-0.00094778361549662,0.00094776717099969,0.70944458295787,125803,2834,0.0067182325415192,0.0067182325679184,0.0033858489587304,18.071544147313,-9.5427646821499e-05,-9.5427646821499e-05,-9.5427646821499e-05,3603818.1679687,0.01696556470742
24819200,0.99171012840634,0.016984528677112,0.0064959881472688,0.0064959881643733,0.0039925523654699,-0.001618971018558,0.0016189715203068,6.7874090150195e-09,-6.3180667646914e-09,-3.6758880152032e-09,4.2617575309387e-09,-0.0017225527751176,0.0017225550153041,-0.0017225571279927,0.0017225506166745,-0.0017225501645794,0.0017225576553558,-0.0017225545377439,0.0017225532756077,-0.0014031408557227,0.001403156830307,-0.0014031536731439,0.0014031439543845,3.6843273140943e-09,-4.2512196567247e-09,-5.4970886431907e-09,5.0250331177427e-09,-0.0016189715225328,0.0016189710284809,-0.0017225545738775,0.0017225532269077,-0.0017225511072486,0.0017225567258465,-0.0017225571667543,0.0017225505800515,-0.0017225537021905,0.0017225540796637,-0.0014031554905837,0.0014031420266256,-0.0014031452897386,0.0014031524747161,-0.0016234738677964,0.0016234846183732,-0.0016234815972853,0.0016234766866811,-6.6551488604753e-09,6.3989605190015e-09,-0.00081319773549652,0.00081319744052008,5.0095200818741e-09,-5.4792163820324e-09,-0.00095105335605646,0.00095105224655275,-0.00095105684890635,0.00095104874359911,-0.00095104901158648,0.00095105660456569,-0.00095105250568632,0.0009510530986423,-0.0009482180456177,0.00094822703578021,-0.00094823076546997,0.00094821422829976,0.66112227365966,125803,2834,0.0067213458370998,0.0067213458622317,0.0033875239777154,18.258148574608,-9.3934811403137e-05,-9.3934811403137e-05,-9.3934811403137e-05,3596979.7938878,0.016973601668694
25019200,0.99190910585223,0.016987661130276,0.0064971876179996,0.0064971876351056,0.0039932858771712,-0.0016199817494916,0.0016199822507814,6.8467773843566e-09,-6.3775664091357e-09,-3.6726892375119e-09,4.2575599457015e-09,-0.0017235914198023,0.0017235937015721,-0.0017235958122185,0.0017235892633819,-0.0017235888117122,0.001723596339161,-0.0017235932244438,0.0017235919198436,-0.0014040934194357,0.0014041095085244,-0.0014041063534173,0.0014040965160075,3.6815428171588e-09,-4.2479947401904e-09,-5.4802160021025e-09,5.0085797721716e-09,-0.0016199822530556,0.0016199817593991,-0.0017235932347618,0.0017235918972111,-0.0017235897790088,0.0017235953849543,-0.0017235958256258,0.0017235892523168,-0.0017235923720659,0.0017235927408281,-0.0014041080947471,0.0014040946660121,-0.001404097926643,0.0014041050813935,-0.001624488971908,0.0016244997059272,-0.0016244966966179,0.0016244917810503,-6.7131395901866e-09,6.4577959154147e-09,-0.00081392917233032,0.00081392887823783,4.993667283804e-09,-5.4623155468331e-09,-0.00095186353923839,0.00095186238079518,-0.00095186702117122,0.00095185888876598,-0.00095185915578543,0.00095186677774516,-0.00095186263902324,0.00095186328275439,-0.0009490473345496,0.00094905645080273,-0.00094906016914232,0.00094904352946358,0.65362537273265,125803,2834,0.0067255259962602,0.0067255260214567,0.0033905691257704,18.629549602729,-9.0963603178168e-05,-9.0963603178168e-05,-9.0963603178168e-05,3603720.8428736,0.016985201198746
25219200,0.99211118336554,0.016990946700365,0.0064984416996825,0.0064984417167904,0.0039940632838919,-0.0016215204998377,0.0016215209922864,6.898255050514e-09,-6.4307062077513e-09,-3.6771203005577e-09,4.23200089316e-09,-0.0017251638386181,0.0017251661625512,-0.001725168268976,0.0017251616892275,-0.0017251612377151,0.0017251687936842,-0.0017251656866506,0.0017251643375981,-0.00140555995698,0.0014055761493131,-0.0014055729932245,0.0014055630437364,3.6640694254295e-09,-4.2274877335625e-09,-5.4734119189597e-09,5.0083642119112e-09,-0.0016215209900838,0.0016215204994789,-0.0017251656841333,0.0017251643386281,-0.0017251622351729,0.0017251678279255,-0.0017251682648328,0.0017251617093468,-0.0017251648126786,0.0017251651941265,-0.0014055746736264,0.0014055612675695,-0.0014055645132435,0.0014055716734346,-0.0016260377408287,0.0016260484342601,-0.0016260454687073,0.0016260405914222,-6.7741471215743e-09,6.527289296969e-09,-0.00081513627434102,0.00081513598448336,4.9885711711688e-09,-5.4553483115009e-09,-0.0009531533753672,0.00095315217090816,-0.00095315685257276,0.00095314868401778,-0.0009531489474244,0.00095315661146373,-0.00095315242638095,0.00095315312143086,-0.00095037813819324,0.00095038739174536,-0.00095039111082214,0.00095037436165229,0.67454673373868,125803,2834,0.0067318910337359,0.0067318910284441,0.0033955907331845,19.270297188988,-8.58376224881e-05,-8.58376224881e-05,-8.58376224881e-05,3615686.6674005,0.017003254919043
25419200,0.99231624389039,0.016994550756981,0.0064998080071702,0.0064998080243409,0.0039949347254696,-0.0016231393736938,0.0016231398697142,6.9623472041897e-09,-6.4969349915075e-09,-3.6473578727795e-09,4.2229596448934e-09,-0.0017267914949972,0.0017267938715439,-0.0017267959664389,0.0017267893545902,-0.0017267889066103,0.0017267964891423,-0.0017267933982221,0.0017267919908716,-0.0014071384042996,0.0014071547019238,-0.0014071515684462,0.0014071414771844,3.6538304394588e-09,-4.2158684444031e-09,-5.4690774464671e-09,5.0020225439536e-09,-0.0016231398714857,0.0016231393818341,-0.0017267933632155,0.0017267920157357,-0.0017267899140248,0.0017267954980202,-0.0017267959347021,0.0017267893911377,-0.001726792487014,0.0017267928734527,-0.0014071531638748,0.0014071397763345,-0.0014071430136547,0.0014071501742395,-0.0016276758067275,0.0016276864799049,-0.0016276834802612,0.0016276786222708,-6.830349858104e-09,6.5767076467723e-09,-0.00081635954092303,0.00081635924778141,4.9853322975627e-09,-5.45336065584e-09,-0.00095452235939507,0.0009545211172616,-0.0009545258355125,0.00095451763113602,-0.00095451789722623,0.00095452559278156,-0.00095452137479017,0.00095452210371359,-0.00095171876239204,0.00095172811689603,-0.00095173182995537,0.00095171496787491,0.72789189706563,125803,2834,0.0067385865740627,0.0067385865945647,0.0034006822555244,19.917656685566,-8.0658746515474e-05,-8.0658746515474e-05,-8.0658746515474e-05,3622420.969598,0.017022052739064
25619200,0.99252407183157,0.016998226385496,0.0065012017333347,0.0065012017505131,0.0039958229016479,-0.0016248717319584,0.0016248722269562,7.0194820111723e-09,-6.5561119071639e-09,-3.6341118550833e-09,4.2108422776589e-09,-0.0017284760565256,0.0017284784782362,-0.0017284805664054,0.0017284739229304,-0.0017284734764813,0.0017284810874386,-0.0017284780064982,0.0017284765508352,-0.00140889610544,0.0014089125049632,-0.0014089093835484,0.0014088991675676,3.6410012931451e-09,-4.2012403281106e-09,-5.4654031466468e-09,4.9997553668099e-09,-0.001624872228943,0.0016248717410327,-0.0017284779494666,0.0017284765965059,-0.0017284745019697,0.0017284800767787,-0.0017284805118449,0.0017284739810024,-0.001728477065946,0.0017284774614558,-0.0014089109068817,0.0014088975357677,-0.0014089007618791,0.0014089079277019,-0.0016294305918428,0.0016294412376861,-0.0016294382333938,0.0016294334022252,-6.8903095652644e-09,6.6363965861397e-09,-0.00081754726167609,0.00081754696860669,4.9821235781328e-09,-5.4497229125469e-09,-0.0009560070407962,0.0009560057564707,-0.00095601051468561,0.00095600227261131,-0.00095600253873357,0.00095601027206723,-0.00095600601389797,0.00095600678518706,-0.00095299887447257,0.00095300834790713,-0.000953012057678,0.00095299507991402,0.73243473511958,125803,2834,0.006745749138492,0.0067457491613737,0.0034056325597501,20.565258214574,-7.5477934283408e-05,-7.5477934283408e-05,-7.5477934283408e-05,3617599.1439363,0.017041658224829
25819200,0.99272928037681,0.017001761565448,0.0065025461449959,0.0065025461621758,0.0039966692582764,-0.0016257888518802,0.0016257893500036,7.077058641187e-09,-6.6152944931177e-09,-3.6288030116766e-09,4.2193531881858e-09,-0.0017293526360232,0.001729355095218,-0.0017293571847771,0.0017293505019255,-0.0017293500546146,0.0017293577059015,-0.0017293546235623,0.001729353130883,-0.0014098432070757,0.0014098597140509,-0.0014098566010728,0.0014098462662973,3.6438888903427e-09,-4.2058750346218e-09,-5.4502813985127e-09,4.9812198164627e-09,-0.0016257893543338,0.0016257888650146,-0.0017293545385662,0.0017293531981889,-0.0017293511019918,0.0017293566677338,-0.001729357103351,0.0017293505806786,-0.001729353668131,0.001729354049675,-0.0014098580460238,0.0014098447023844,-0.001409847932023,0.0014098550603382,-0.0016303614272794,0.0016303720680273,-0.0016303690524638,0.0016303642030035,-6.949569933853e-09,6.6962695585909e-09,-0.00081801461695493,0.00081801432551501,4.9654401637463e-09,-5.4293793159241e-09,-0.00095674096662968,0.00095673963202578,-0.00095674442835787,0.00095673616014535,-0.0009567364254504,0.00095674418749583,-0.00095673988799577,0.0009567407121904,-0.00095353146596,0.00095354106732623,-0.00095354475955548,0.00095352767686175,0.71386317782768,125803,2834,0.006749538519699,0.0067495385558313,0.003407589176293,20.80477746473,-7.3561780282157e-05,-7.3561780282157e-05,-7.3561780282157e-05,3607080.6027933,0.017051357810523
26019200,0.99292732425075,0.017005041649424,0.0065037982837654,0.0065037983009209,0.0039974450647373,-0.0016259108223386,0.0016259113202746,7.1372415384055e-09,-6.6724951215013e-09,-3.6496122364396e-09,4.2320439910787e-09,-0.001729461557227,0.0017294640472089,-0.0017294661453295,0.0017294594139968,-0.0017294589651123,0.0017294666687247,-0.0017294635732204,0.0017294620541202,-0.0014099732255625,0.0014099898665012,-0.0014099867331696,0.0014099763003724,3.6567234862546e-09,-4.2195195516097e-09,-5.4208947904432e-09,4.952519265436e-09,-0.0016259113224239,0.0016259108321829,-0.0017294634642542,0.0017294621507724,-0.0017294600469568,0.0017294656003909,-0.0017294660378557,0.0017294595239674,-0.0017294626220569,0.0017294629737036,-0.0014099881081597,0.001409974813229,-0.0014099780518347,0.0014099851142228,-0.0016304889517072,0.0016304995979627,-0.0016304966208165,0.0016304917233083,-7.0075839301846e-09,6.7562787871737e-09,-0.00081784955331475,0.00081784926310949,4.9385875492977e-09,-5.4024325240473e-09,-0.00095673793252672,0.00095673654166354,-0.00095674137625231,0.000956733087956,-0.00095673335154186,0.00095674113641947,-0.00095673679636825,0.00095673767964551,-0.00095341181300026,0.00095342155105333,-0.0009534252259698,0.00095340804890503,0.68688290361366,125803,2834,0.0067500392435739,0.0067500392683897,0.0034069139556127,20.675851057454,-7.4593191540366e-05,-7.4593191540366e-05,-7.4593191540366e-05,3596418.9754983,0.01705169056347
26219200,0.99311838613475,0.017008387541306,0.0065050684273277,0.0065050684444827,0.0039982506694953,-0.0016259476820925,0.0016259481814844,7.197255052328e-09,-6.7302856685692e-09,-3.6617925556922e-09,4.2445212576127e-09,-0.0017295112162513,0.0017295137389108,-0.001729515843593,0.0017295090664664,-0.0017295086160342,0.0017295163686337,-0.0017295132633913,0.0017295117147728,-0.0014099874423611,0.0014100042100755,-0.0014100010654196,0.0014099905282461,3.6689988004875e-09,-4.2336423014064e-09,-5.3983329708656e-09,4.9283936235166e-09,-0.0016259481836588,0.0016259476917048,-0.0017295131287264,0.0017295118376995,-0.001729509726693,0.0017295152717376,-0.0017295157110027,0.0017295092020694,-0.001729512310556,0.0017295126362798,-0.0014100023719968,0.0014099891124963,-0.0014099923615393,0.0014099993677912,-0.0016305373197663,0.0016305479748085,-0.0016305450175119,0.0016305400766689,-7.0657926936624e-09,6.815914065651e-09,-0.00081769496366264,0.00081769467489785,4.9158396327144e-09,-5.3780666153678e-09,-0.00095664921438932,0.00095664776992067,-0.00095665264235403,0.00095664433191987,-0.00095664459403871,0.00095665240390466,-0.00095664802322776,0.00095664896290477,-0.00095331786271541,0.00095332773335132,-0.00095333139224673,0.00095331411700231,0.72524659854736,125803,2834,0.0067501894029316,0.0067501894273152,0.0034062781017423,20.537821359083,-7.569742912734e-05,-7.569742912734e-05,-7.569742912734e-05,3592039.9519808,0.017051349419069
26419200,0.99330274815697,0.017011706146321,0.0065063252604548,0.006506325277611,0.0039990556082547,-0.0016260510407802,0.0016260515413753,7.2568079753212e-09,-6.78851469483e-09,-3.671363142435e-09,4.255329358315e-09,-0.0017295863716472,0.0017295889280135,-0.001729591038253,0.0017295842163429,-0.0017295837647185,0.001729591564553,-0.0017295884513256,0.0017295868714196,-0.0014101182522977,0.0014101351434275,-0.0014101319907857,0.0014101213463033,3.6787152038933e-09,-4.2448468670514e-09,-5.3793954366786e-09,4.9080996446676e-09,-0.0016260515436351,0.0016260510503024,-0.0017295882917971,0.00172958701934,-0.0017295849026557,0.001729590440276,-0.0017295908809656,0.0017295843767518,-0.0017295874934091,0.001729587797837,-0.0014101332288188,0.0014101199994842,-0.0014101232567486,0.0014101302162164,-0.0016306563182308,0.0016306669794387,-0.0016306640367858,0.0016306590609074,-7.1241428807554e-09,6.875402304385e-09,-0.00081752877095618,0.00081752848335416,4.8966618878847e-09,-5.3574674309335e-09,-0.00095663802432766,0.0009566365284171,-0.00095664143904239,0.00095663310367051,-0.00095663336467437,0.00095664120168939,-0.00095663678062499,0.00095663777391817,-0.00095318336860741,0.00095319336889814,-0.00095319701350244,0.00095317963735193,0.74502754238534,125803,2834,0.0067506134679338,0.0067506134923063,0.00340559728493,20.399444979271,-7.6804440165836e-05,-7.6804440165836e-05,-7.6804440165836e-05,3580187.9395081,0.017051520317527
26619200,0.99348473152853,0.017014952904041,0.0065075559798563,0.0065075559970139,0.0039998409271706,-0.0016269045115352,0.0016269050113032,7.3173521251507e-09,-6.8491693674008e-09,-3.6666524299322e-09,4.2485062468152e-09,-0.001730390975481,0.0017303935754237,-0.0017303956825193,0.0017303888233353,-0.0017303883723463,0.0017303962080633,-0.0017303930993672,0.001730391474563,-0.0014110100070335,0.0014110270138881,-0.0014110238642795,0.0014110130978936,3.6724486235684e-09,-4.2375850459231e-09,-5.3789784732378e-09,4.9086909572651e-09,-0.0016269050134199,0.0016269045210061,-0.0017303929193667,0.0017303916432979,-0.0017303895302027,0.001730395064274,-0.0017303955041173,0.0017303890051956,-0.0017303921165231,0.001730392426365,-0.0014110250400608,0.0014110118159142,-0.0014110150682621,0.0014110220333558,-0.0016315282388154,0.0016315388876932,-0.0016315359466892,0.0016315309851543,-7.1816278926144e-09,6.9324349035194e-09,-0.0008179695166824,0.00081796922859731,4.8994755824981e-09,-5.3609135211799e-09,-0.00095731686296328,0.00095731533055963,-0.00095732027977996,0.00095731190372241,-0.00095731216515233,0.00095732004193501,-0.00095731558317969,0.00095731661208749,-0.00095368170844914,0.00095369181848008,-0.00095369546689999,0.00095367797600903,0.73848438795769,125803,2834,0.0067541399946534,0.0067541400186187,0.0034074417707488,20.629672149957,-7.4962622800347e-05,-7.4962622800347e-05,-7.4962622800347e-05,3570658.7556358,0.017060570808508
26819200,0.99366653334157,0.017018119152621,0.0065087590189027,0.0065087590360631,0.0040006010976553,-0.0016281367724001,0.0016281372691454,7.374639736877e-09,-6.9079197482641e-09,-3.6558285871226e-09,4.2307737114731e-09,-0.0017315883207897,0.0017315909671027,-0.0017315930663804,0.0017315861760348,-0.0017315857271419,0.0017315935900657,-0.0017315904927686,0.0017315888177323,-0.0014122595322282,0.0014122766440417,-0.0014122735024216,0.0014122626127246,3.6597808970293e-09,-4.2223689422712e-09,-5.3915764298594e-09,4.924297140018e-09,-0.0016281372703461,0.0016281367801722,-0.0017315902971669,0.0017315890044806,-0.0017315868986364,0.0017315924347261,-0.0017315928727307,0.0017315863754467,-0.0017315894759792,0.0017315898061885,-0.0014122746257068,0.0014122613860841,-0.0014122646269128,0.0014122716313826,-0.001632774577451,0.0016327852106992,-0.0016327822664404,0.0016327773432955,-7.2418958426877e-09,6.9918262958002e-09,-0.00081874951636854,0.00081874922701305,4.9113400276632e-09,-5.374945390822e-09,-0.00095833855359005,0.00095833698852571,-0.00095834197893646,0.0009583335532308,-0.00095833381556965,0.00095834173982277,-0.00095833724237611,0.00095833830165245,-0.00095454664781612,0.00095455686593895,-0.00095456052493766,0.00095454290809833,0.72121903934658,125803,2834,0.0067592336621584,0.0067592336807154,0.0034106962818701,21.064153627096,-7.1486770983231e-05,-7.1486770983231e-05,-7.1486770983231e-05,3566637.8251502,0.01707424333313
27019200,0.99384805515301,0.01702119565986,0.0065099311340545,0.0065099311512266,0.0040013333745788,-0.0016293355888965,0.0016293360847654,7.4314360363185e-09,-6.9672911405088e-09,-3.6408567652074e-09,4.21863740917e-09,-0.0017327778129348,0.0017327805049739,-0.0017327825975622,0.001732775675589,-0.0017327752279764,0.0017327831189271,-0.0017327800326351,0.0017327783079861,-0.0014134465100483,0.0014134637218357,-0.0014134605944323,0.0014134495783361,3.6475187180422e-09,-4.2089431756924e-09,-5.4076683776367e-09,4.9408092040527e-09,-0.0016293360870064,0.0016293355980138,-0.0017327798198775,0.0017327785092185,-0.0017327764110269,0.0017327819510041,-0.0017327823871249,0.0017327758890842,-0.0017327789794654,0.0017327793304919,-0.0014134616641042,0.0014134484016465,-0.0014134516328033,0.0014134586788629,-0.0016339819275666,0.0016339925477314,-0.0016339895823926,0.0016339846973608,-7.3019382679698e-09,7.0514320887959e-09,-0.00081954074342934,0.00081954045391388,4.9261449692501e-09,-5.3894049553551e-09,-0.00095932369829268,0.00095932210322398,-0.0009593271334238,0.00095931865803929,-0.00095931892075418,0.00095932689438076,-0.00095932235706043,0.00095932344599501,-0.00095543590964189,0.00095544623412495,-0.00095544990187479,0.00095543215706795,0.70228504541352,125803,2834,0.0067641895750249,0.0067641895985195,0.0034139956966066,21.503727717499,-6.7970178260007e-05,-6.7970178260007e-05,-6.7970178260007e-05,3566994.4256629,0.017087681260277
27219200,0.99402913987759,0.017024173538462,0.0065110690629266,0.0065110690801009,0.0040020353954346,-0.001630488904307,0.0016304893989465,7.4896158424947e-09,-7.0270277960656e-09,-3.6299869125092e-09,4.2070873465459e-09,-0.0017339461953218,0.0017339489326951,-0.0017339510189815,0.0017339440638095,-0.0017339436178238,0.001733951539279,-0.0017339484615657,0.0017339466890213,-0.0014145584969417,0.001414575814899,-0.0014145726971484,0.0014145615558283,3.6371162293605e-09,-4.1967035014095e-09,-5.4226564383446e-09,4.957413846682e-09,-0.0016304894010595,0.0016304889137488,-0.0017339482329148,0.0017339469059757,-0.0017339448133122,0.001733950357849,-0.0017339507925802,0.0017339442932707,-0.0017339473745725,0.0017339477452912,-0.0014145737143808,0.0014145604299748,-0.0014145636522245,0.0014145707381782,-0.0016351401487452,0.0016351507587294,-0.00163514778028,0.0016351429298375,-7.3614104841447e-09,7.1097473656571e-09,-0.0008203409124521,0.00082034062181289,4.9417648746793e-09,-5.406266477362e-09,-0.00096026163758533,0.00096026001288482,-0.00096026508360312,0.00096025655687743,-0.00096025682070206,0.00096026484338924,-0.00096026026795357,0.00096026138435944,-0.00095634392474497,0.00095635435235125,-0.00095635803149824,0.00095634015971086,0.68191771356432,125803,2834,0.0067689580624158,0.006768958086317,0.0034173300122,21.943496134843,-6.4452030921256e-05,-6.4452030921256e-05,-6.4452030921256e-05,3571521.7964314,0.017100773280871
27419200,0.99420820773881,0.017027207655613,0.0065122250814101,0.0065122250985855,0.0040027574756178,-0.0016313438480379,0.0016313443425455,7.5481462736067e-09,-7.0866998494782e-09,-3.6254399529451e-09,4.2044406685766e-09,-0.0017348393265687,0.0017348421051102,-0.0017348441897822,0.0017348371969978,-0.0017348367513314,0.0017348447094135,-0.0017348416345755,0.0017348398197601,-0.0014153501291425,0.0014153675577469,-0.0014153644454868,0.0014153531838706,3.634675504923e-09,-4.194193642125e-09,-5.4336917614142e-09,4.9681908600067e-09,-0.0016313443451686,0.0016313438580005,-0.0017348413884563,0.0017348400528571,-0.0017348379618916,0.0017348435123624,-0.001734843946587,0.0017348374420876,-0.0017348405212289,0.0017348409012452,-0.0014153654110323,0.0014153521064892,-0.0014153553273088,0.0014153624362363,-0.0016360008828667,0.0016360114954419,-0.0016360085049496,0.0016360036675543,-7.4203079143889e-09,7.1683704504974e-09,-0.00082093744276316,0.00082093715189308,4.9521815912774e-09,-5.4166456760788e-09,-0.0009609212871934,0.00096091962997738,-0.00096092474016295,0.00096091616699739,-0.00096091643127687,0.00096092449967957,-0.00096091988534086,0.00096092103353326,-0.00095704829767481,0.00095705883277273,-0.00095706251831112,0.00095704452415813,0.70214877169969,125803,2834,0.0067724931732483,0.006772493199284,0.0034198151229868,22.251880336693,-6.1984957306458e-05,-6.1984957306458e-05,-6.1984957306458e-05,3578151.7208501,0.017110492267204
27619200,0.99438473279633,0.017030243655918,0.0065133803235551,0.0065133803407277,0.0040034829916353,-0.0016321571500905,0.0016321576454073,7.6068489722208e-09,-7.144967281507e-09,-3.6252088932979e-09,4.206523393539e-09,-0.0017356677727164,0.0017356705894525,-0.0017356726745886,0.0017356656426252,-0.0017356651968809,0.0017356731942694,-0.0017356701188602,0.0017356682659419,-0.0014161277209629,0.0014161452647261,-0.0014161421515663,0.0014161307773813,3.6351374656927e-09,-4.1948518530807e-09,-5.4425167784553e-09,4.9765379985846e-09,-0.0016321576484752,0.001632157161161,-0.0017356698558489,0.0017356685148468,-0.0017356664233224,0.0017356719799124,-0.0017356724142295,0.0017356659034442,-0.0017356689832066,0.0017356693684237,-0.0014161430699471,0.0014161297481056,-0.0014161329690616,0.0014161400949121,-0.0016368239835294,0.0016368346025937,-0.0016368316027969,0.0016368267692061,-7.4804128833956e-09,7.2271399448062e-09,-0.00082146174632022,0.00082146145456894,4.9601509657413e-09,-5.4253935914793e-09,-0.00096155264866456,0.00096155095678586,-0.00096155610723671,0.00096154748817782,-0.00096154775315532,0.00096155586619676,-0.00096155121271668,0.00096155239435292,-0.00095766234005501,0.00095767298483585,-0.00095767667677291,0.00095765855829897,0.71252805898963,125803,2834,0.0067758553794558,0.0067758554086999,0.0034220017963612,22.518923979658,-5.9848608162736e-05,-5.9848608162736e-05,-5.9848608162736e-05,3579480.0355763,0.017119556399243
27819200,0.99455864570977,0.017033283219025,0.0065145353246699,0.0065145353418355,0.0040042125525197,-0.0016329856143184,0.0016329861089928,7.6658641608767e-09,-7.2035329561305e-09,-3.6299369833286e-09,4.2076551916692e-09,-0.0017365000526823,0.001736502907338,-0.0017365049939005,0.0017364979208485,-0.0017364974749548,0.0017365055140733,-0.0017365024363035,0.0017365005462165,-0.0014169329829473,0.001416950646122,-0.0014169475287685,0.0014169360417163,3.6376353861477e-09,-4.1972863101428e-09,-5.44964254988e-09,4.9842253956884e-09,-0.0016329861112824,0.0016329856239554,-0.0017365021573803,0.0017365008129835,-0.0017364987200917,0.0017365042828597,-0.0017365047174161,0.0017364981999287,-0.0017365012816737,0.0017365016698708,-0.0014169483993011,0.0014169350617504,-0.0014169382845934,0.001416945423018,-0.0016376648311189,0.0016376754600697,-0.0016376724623675,0.0016376676287356,-7.5393269359742e-09,7.2861959325687e-09,-0.00082198125551524,0.00082198096341688,4.9674513793621e-09,-5.4336304921804e-09,-0.00096220467059772,0.00096220294407251,-0.00096220813430421,0.00096219947037035,-0.00096219973560254,0.00096220789271308,-0.00096220320048917,0.00096220441592596,-0.00095826779038707,0.00095827854550362,-0.00095828224352688,0.00095826400574422,0.72383355206315,125803,2834,0.006779279883681,0.0067792799083504,0.003424169720582,22.784916297682,-5.7720669618544e-05,-5.7720669618544e-05,-5.7720669618544e-05,3578504.4987585,0.017128728412355
28019200,0.9947298908404,0.017036328142017,0.0065156907339422,0.0065156907511087,0.0040049466569665,-0.0016338313846624,0.0016338318798166,7.7248953332207e-09,-7.2619939986564e-09,-3.6335884457789e-09,4.2117049330112e-09,-0.0017373385913261,0.00173734148307,-0.0017373435716487,0.0017373364573883,-0.0017373360110649,0.0017373440923697,-0.0017373410115316,0.0017373390853528,-0.0014177688010084,0.0014177865825021,-0.0014177834619602,0.0014177718628949,3.641254930926e-09,-4.2014123131235e-09,-5.4563796811328e-09,4.9905210526472e-09,-0.0016338318820835,0.0016338313942747,-0.0017373407157037,0.0017373393690672,-0.001737337274079,0.0017373428432615,-0.0017373432782855,0.0017373367534165,-0.0017373398382455,0.0017373402277328,-0.0014177842844695,0.001417770931092,-0.0014177741571007,0.0014177813052299,-0.0016385250728703,0.001638535713286,-0.0016385327120114,0.0016385278746067,-7.5986082406534e-09,7.3451259086807e-09,-0.00082249502710323,0.00082249473463778,4.9736787443575e-09,-5.440329844642e-09,-0.00096287808554973,0.00096287632354905,-0.00096288155356021,0.00096287284553924,-0.0009628731111245,0.00096288131161436,-0.00096287658033992,0.00096287783055019,-0.00095886436860316,0.00095887523468518,-0.00095887893745364,0.00095886057941325,0.73612508499577,125803,2834,0.0067827755042283,0.0067827755287993,0.0034263150870598,23.050868313289,-5.5593053493691e-05,-5.5593053493691e-05,-5.5593053493691e-05,3575359.5477623,0.017138022395653
28219200,0.99489775391108,0.01703936837122,0.0065168427170661,0.0065168427342338,0.0040056829199199,-0.001634562945964,0.0016345634421131,7.7844503632084e-09,-7.3209250300597e-09,-3.6395206180846e-09,4.2193835954922e-09,-0.0017380526520813,0.0017380555796786,-0.0017380576719529,0.0017380505145312,-0.0017380500672907,0.0017380581934926,-0.001738055107329,0.0017380531469651,-0.0014185052670334,0.0014185231692904,-0.0014185200440013,0.0014185083338648,3.6473884234344e-09,-4.2086127726051e-09,-5.458799749822e-09,4.9918923098592e-09,-0.0016345634444944,0.0016345629557248,-0.0017380547931237,0.0017380534487266,-0.001738051350292,0.001738056924277,-0.0017380573601012,0.0017380508286455,-0.0017380539187992,0.0017380543041961,-0.0014185208149369,0.0014185074524784,-0.0014185106836895,0.0014185178303292,-0.0016392720922361,0.0016392827460872,-0.0016392797428412,0.0016392748926704,-7.657233343023e-09,7.4036886426588e-09,-0.00082288812595457,0.00082288783345705,4.9762982061656e-09,-5.4429172708764e-09,-0.0009634516053752,0.00096344980603567,-0.0009634550751237,0.00096344632627128,-0.00096344659194134,0.00096345483319159,-0.00096345006283151,0.00096345135028571,-0.00095933158809078,0.00095934256697777,-0.00095934627103736,0.00095932779643212,0.74948915973102,125803,2834,0.0067857981474239,0.0067857981725403,0.003427960103643,23.250748689602,-5.3994010483186e-05,-5.3994010483186e-05,-5.3994010483186e-05,3569204.1169303,0.017145845480499
28419200,0.99506214265092,0.017042404808742,0.0065179915492122,0.0065179915663799,0.00400642169315,-0.0016352911218505,0.0016352916186861,7.8427314023509e-09,-7.3783021013472e-09,-3.6458572740335e-09,4.2259425205921e-09,-0.0017387517309846,0.0017387546937325,-0.0017387567894378,0.0017387495899748,-0.0017387491419499,0.0017387573117981,-0.0017387542205659,0.0017387522266893,-0.0014192527525693,0.0014192707735824,-0.0014192676427777,0.0014192558247498,3.6536030273472e-09,-4.215738640352e-09,-5.4604741540272e-09,4.9927975019525e-09,-0.0016352916210138,0.0016352911313895,-0.0017387538883975,0.0017387525467063,-0.0017387504447306,0.0017387560231257,-0.0017387564597957,0.0017387499221548,-0.0017387530176308,0.0017387533985796,-0.0014192683638771,0.0014192549936555,-0.0014192582302548,0.0014192653742604,-0.001640017533678,0.0016400282007263,-0.0016400251986573,0.0016400203354198,-7.717170179465e-09,7.4637781035846e-09,-0.0008232545295855,0.00082325423718404,4.9761710261612e-09,-5.4427606936901e-09,-0.000964024350017,0.00096402251067307,-0.00096402781966813,0.00096401903100451,-0.00096401929656431,0.0009640275778146,-0.00096402276734911,0.00096402409500953,-0.00095976865844713,0.00095977975514602,-0.00095978345919308,0.00095976486747232,0.76402415520592,125803,2834,0.0067888062807835,0.0067888063053296,0.0034294954413372,23.441379524868,-5.2468963801054e-05,-5.2468963801054e-05,-5.2468963801054e-05,3560956.9233568,0.017153527660585
28619200,0.9952230620586,0.017045396933378,0.0065191232759584,0.0065191232931272,0.0040071503642925,-0.0016360322379902,0.0016360327355995,7.9026961714684e-09,-7.4374288910644e-09,-3.6509808206303e-09,4.231847729545e-09,-0.0017394529357651,0.0017394559352742,-0.0017394580338633,0.0017394507917846,-0.0017394503431164,0.0017394585570695,-0.0017394554613802,0.0017394534322487,-0.0014200269980254,0.0014200451404101,-0.0014200420050682,0.0014200300746491,3.6586538059906e-09,-4.2214699905289e-09,-5.4598149241106e-09,4.9915162657478e-09,-0.001636032737867,0.0016360322475943,-0.0017394551097885,0.0017394537716778,-0.0017394516666947,0.0017394572473309,-0.00173945768472,0.0017394511435388,-0.0017394542432204,0.0017394546193067,-0.0014200426713317,0.0014200292988097,-0.0014200325396046,0.0014200396773026,-0.0016407757124526,0.0016407863886806,-0.0016407833881342,0.0016407785127466,-7.7754640616741e-09,7.522037896288e-09,-0.0008236042787297,0.0008236039863168,4.9762661651794e-09,-5.4428772415837e-09,-0.00096460924928735,0.00096460737112831,-0.00096461271901674,0.00096460389137622,-0.00096460415694414,0.00096461247716503,-0.00096460762787197,0.00096460899434078,-0.00096018568352572,0.0009601968940175,-0.00096020059824849,0.00096018189248132,0.7689607839324,125803,2834,0.0067918673911184,0.0067918674156738,0.0034309629388623,23.631762663871,-5.0945898689029e-05,-5.0945898689029e-05,-5.0945898689029e-05,3550853.5680877,0.017161248832584
28819200,0.99538054232505,0.017048250694216,0.0065202053576654,0.0065202053748352,0.0040078399617156,-0.0016367668376498,0.0016367673356314,7.9613186964728e-09,-7.4955927330225e-09,-3.6551082034239e-09,4.2360319968949e-09,-0.0017401488982127,0.0017401519345199,-0.0017401540354249,0.0017401467520762,-0.0017401463027735,0.0017401545590213,-0.0017401514601455,0.0017401493951734,-0.0014207938074789,0.0014208120676759,-0.0014208089290074,0.0014207968874842,3.6626360235719e-09,-4.2261670342074e-09,-5.4593956859202e-09,4.9905102482052e-09,-0.0016367673379122,0.001636766847007,-0.0017401510893458,0.0017401497539787,-0.0017401476468834,0.0017401532293303,-0.0017401536671962,0.0017401471229884,-0.0017401502261575,0.0017401505982169,-0.0014208095406721,0.0014207961661078,-0.0014207994105542,0.001420806543442,-0.0016415236137071,0.0016415342974884,-0.001641531298806,0.0016415264139768,-7.8347135827287e-09,7.5816635873523e-09,-0.00082394204935683,0.00082394175722339,4.9751700400604e-09,-5.4414963717334e-09,-0.00096518592848006,0.00096518401017034,-0.00096518939738583,0.00096518053125112,-0.00096518079658776,0.00096518915579408,-0.00096518426661791,0.00096518567367097,-0.00096059168578685,0.00096060301379612,-0.00096060671704326,0.00096058789625649,0.74978433798015,125803,2834,0.0067949013754745,0.0067949013995471,0.0034323809510059,23.824356818889,-4.9405145448889e-05,-4.9405145448889e-05,-4.9405145448889e-05,3541097.7787728,0.017168864583566
29019200,0.99553571879177,0.017050915366306,0.0065212208364328,0.0065212208536044,0.0040084736762692,-0.0016376877643596,0.0016376882619694,8.0184940187471e-09,-7.5525250708375e-09,-3.6543448082746e-09,4.2337687593882e-09,-0.001741056305861,0.0017410593810411,-0.0017410614811451,0.0017410541605557,-0.0017410537114571,0.0017410620045348,-0.0017410589068132,0.001741056802692,-0.0014217122956945,0.001421730667488,-0.0014217275291477,0.0014217153754915,3.6608689553193e-09,-4.2240546488073e-09,-5.4630873601878e-09,4.9946271839687e-09,-0.0016376882641359,0.0016376877735368,-0.0017410585183775,0.0017410571794416,-0.0017410550734324,0.0017410606574265,-0.001741061095024,0.0017410545497847,-0.0017410576513562,0.0017410580276352,-0.0014217280888019,0.0014217147079332,-0.0014217179514653,0.0014217250934399,-0.0016424525366024,0.0016424632193595,-0.0016424602203659,0.001642455342403,-7.8955112033813e-09,7.6425045835839e-09,-0.0008244891046314,0.00082448881246531,4.9768410120538e-09,-5.4433283833154e-09,-0.00096592635018796,0.00096592439243445,-0.00096592982025549,0.00096592091236764,-0.00096592117770039,0.00096592957858589,-0.00096592464889616,0.00096592609541015,-0.00096122901298387,0.00096124045907705,-0.00096124416449122,0.00096122522353155,0.71130252672709,125803,2834,0.0067987069923726,0.0067987070158327,0.0034346666597115,24.140085098928,-4.6879319208575e-05,-4.6879319208575e-05,-4.6879319208575e-05,3538023.5068234,0.017178932480924
29219200,0.9956885451356,0.01705347881655,0.0065221998299896,0.0065221998471642,0.0040090791393957,-0.0016385312419427,0.0016385317394434,8.0788277782393e-09,-7.6135098553824e-09,-3.6510188557625e-09,4.2315777416753e-09,-0.0017419308033856,0.0017419339203831,-0.0017419360190005,0.0017419286594059,-0.0017419282107994,0.0017419365420727,-0.0017419334465736,0.0017419312997447,-0.001422501449119,0.0014225199369287,-0.0014225168014647,0.0014225045258884,3.6586535915265e-09,-4.2214199940856e-09,-5.4638311096546e-09,4.9955958049993e-09,-0.0016385317417428,0.001638531251506,-0.0017419330374388,0.0017419316967229,-0.0017419295917602,0.0017419351750677,-0.0017419356123856,0.0017419290686008,-0.0017419321682518,0.0017419325469976,-0.001422517299372,0.0014225039189976,-0.0014225071599165,0.0014225143055047,-0.0016432986813271,0.0016433093602307,-0.001643306357481,0.0016433014848309,-7.9529414301801e-09,7.6993835533234e-09,-0.00082506268196398,0.00082506238942658,4.9798458134927e-09,-5.4466564340382e-09,-0.00096658566627394,0.00096658367225149,-0.00096658913847632,0.0009665801900298,-0.00096658045568205,0.0009665888965643,-0.00096658392907154,0.00096658541124617,-0.00096191230748518,0.0009619238624527,-0.00096192756952509,0.00096190851412433,0.69516966428546,125803,2834,0.0068021938961738,0.0068021939207094,0.0034370579949665,24.458819810661,-4.4329441514712e-05,-4.4329441514712e-05,-4.4329441514712e-05,3543153.4915939,0.017188458857085
29419200,0.9958389497599,0.017055836874094,0.0065231064717116,0.0065231064888872,0.0040096239134949,-0.0016393342020006,0.0016393346991258,8.1370008552093e-09,-7.6721431043534e-09,-3.6484299694394e-09,4.2286322509521e-09,-0.0017427844285676,0.0017427875859515,-0.0017427896830611,0.0017427822860493,-0.001742781837812,0.0017427902058032,-0.0017427871124657,0.0017427849245909,-0.0014232259629873,0.0014232445627685,-0.0014232414296885,0.0014232290373677,3.6560449385132e-09,-4.2183731725743e-09,-5.4650003439583e-09,4.9971780409572e-09,-0.0016393347013787,0.0016393342115551,-0.0017427866840437,0.0017427853409043,-0.0017427832373981,0.0017427888201661,-0.0017427892571089,0.0017427827146518,-0.0017427858120316,0.0017427861940293,-0.0014232418691934,0.0014232284883595,-0.0014232317269926,0.0014232388776605,-0.0016440987690411,0.0016441094437124,-0.0016441064394859,0.0016441015738569,-8.0123640423117e-09,7.7588750311643e-09,-0.00082564568303402,0.00082564539054623,4.9807601218829e-09,-5.4475328997784e-09,-0.00096720635783244,0.00096720432475551,-0.00096720983062415,0.00096720084194761,-0.00096720110756874,0.0009672095887229,-0.00096720458154477,0.00096720610285439,-0.00096260510723538,0.00096261677805383,-0.00096262048548253,0.0009626013132281,0.65089857054041,125803,2834,0.0068055140805863,0.0068055141050078,0.0034394861149775,24.777669083016,-4.1778647335869e-05,-4.1778647335869e-05,-4.1778647335869e-05,3551357.2187386,0.017197683406135
29619200,0.99598678306817,0.017058121617817,0.0065239859180915,0.0065239859352681,0.0040101497644578,-0.0016400295827906,0.0016400300795918,8.1957632238828e-09,-7.731316451707e-09,-3.6462234439649e-09,4.2262195181888e-09,-0.0017435772728796,0.0017435804708131,-0.0017435825666882,0.0017435751315582,-0.0017435746836896,0.0017435830891073,-0.0017435799976464,0.0017435777685181,-0.0014237879073902,0.0014238066209126,-0.0014238034895735,0.0014237909796022,3.6539312497908e-09,-4.215824347945e-09,-5.4644933473067e-09,4.9970748362461e-09,-0.0016400300818108,0.001640029592378,-0.0017435795491093,0.0017435782050197,-0.0017435761026547,0.0017435816840238,-0.0017435821206429,0.0017435755802764,-0.0017435786757845,0.001743579059412,-0.0014238038688948,0.0014237904908267,-0.0014237937270684,0.0014238008791301,-0.0016447890387178,0.0016447997089668,-0.0016447967041205,0.0016447918430015,-8.0712585085655e-09,7.8177388242688e-09,-0.00082624174507391,0.00082624145259499,4.980677205245e-09,-5.4474727159267e-09,-0.00096771787614189,0.00096771580382206,-0.00096772134890332,0.00096771232106253,-0.00096771258663852,0.00096772110705034,-0.00096771606057244,0.00096771762120819,-0.00096333106802769,0.00096334285395329,-0.00096334656106122,0.0009633272737613,0.64191385754839,125803,2834,0.0068083912670158,0.0068083912914357,0.0034419631038883,25.087298063129,-3.930161549497e-05,-3.930161549497e-05,-3.930161549497e-05,3567932.0578161,0.017206055719386
29819200,0.99613149888789,0.017060488156308,0.0065248913781265,0.006524891395304,0.0040107053828774,-0.0016406046981588,0.0016406051964713,8.2550354600391e-09,-7.7906442968703e-09,-3.6428138250088e-09,4.2288615142424e-09,-0.0017442546671488,0.0017442579045195,-0.0017442600000031,0.001744252525801,-0.0017442520781507,0.0017442605224965,-0.0017442574314204,0.0017442551628054,-0.001424226836245,0.0014242456633161,-0.0014242425350166,0.0014242299086392,3.6541079436283e-09,-4.2163106669161e-09,-5.4618184783358e-09,4.9933370694874e-09,-0.0016406051996207,0.0016406047099565,-0.0017442569607539,0.0017442556189855,-0.0017442535156028,0.0017442590951467,-0.0017442595320346,0.0017442529935066,-0.0017442560893829,0.0017442564707968,-0.0014242428517217,0.0014242294790138,-0.0014242327162281,0.00142423986223,-0.0016453653054227,0.0016453759745387,-0.0016453729626771,0.0016453680987956,-8.1304595747023e-09,7.8757822324943e-09,-0.00082676257430302,0.00082676228150077,4.9776594230887e-09,-5.4441351499275e-09,-0.00096812546089385,0.00096812334760096,-0.0009681289317032,0.00096811986669828,-0.00096812013259825,0.00096812868982683,-0.00096812360442429,0.00096812520595351,-0.00096397758454892,0.00096398948683812,-0.00096399319051535,0.00096397378812856,0.67837703225938,125803,2834,0.0068107714798371,0.0068107715107508,0.0034441260799897,25.339593167201,-3.7283254662389e-05,-3.7283254662389e-05,-3.7283254662389e-05,3584006.8626043,0.017213097459272
30019200,0.99627306812787,0.01706283897183,0.006525789520355,0.0065257895375242,0.0040112599139509,-0.0016412607948082,0.0016412612917281,8.3135488267312e-09,-7.8491829407314e-09,-3.6459804245654e-09,4.2265744948151e-09,-0.0017449664512638,0.0017449697276439,-0.0017449718235535,0.0017449643098391,-0.0017449638620476,0.0017449723460253,-0.0017449692544966,0.0017449669469401,-0.0014248001944752,0.001424819138463,-0.0014248160077536,0.0014248032666932,3.6542045067371e-09,-4.216108147939e-09,-5.4577201222483e-09,4.990223720032e-09,-0.0016412612939954,0.001641260804588,-0.0017449687642978,0.0017449674249112,-0.0017449653221911,0.0017449708992758,-0.0017449713359214,0.0017449647999393,-0.0017449678955156,0.0017449682745836,-0.0014248162645949,0.0014248028995286,-0.0014248061362006,0.0014248132747833,-0.0016460291355187,0.0016460398018663,-0.0016460368007362,0.0016460319347664,-8.1889108690516e-09,7.9358778537613e-09,-0.00082727238195023,0.0008272720900401,4.9743367733121e-09,-5.4404178815233e-09,-0.00096863306676117,0.00096863091191857,-0.00096863653505438,0.00096862743361794,-0.00096862769865719,0.00096863629374794,-0.00096863116812457,0.00096863281241424,-0.0009645866949932,0.00096459871662679,-0.00096460241851672,0.00096458290546315,0.68873089859297,125803,2834,0.0068134850307633,0.006813485055681,0.0034462479174062,25.590483919942,-3.5276128640467e-05,-3.5276128640467e-05,-3.5276128640467e-05,3590286.279567,0.017220776379627
30219200,0.99641147692459,0.017065039208344,0.0065266338080067,0.0065266338251766,0.0040117715751605,-0.0016419344882689,0.0016419349851404,8.3723171453994e-09,-7.9078579883666e-09,-3.6464298333657e-09,4.226693649528e-09,-0.0017456828935819,0.0017456862089695,-0.0017456883050962,0.0017456807520125,-0.0017456803041609,0.0017456888275239,-0.0017456857358361,0.0017456833892625,-0.0014254046228843,0.0014254236823977,-0.001425420551236,0.0014254076955343,3.6544083078053e-09,-4.2163580734057e-09,-5.4540593584741e-09,4.9865636129193e-09,-0.001641934987434,0.0016419344979868,-0.0017456852249,0.0017456838880663,-0.0017456817852708,0.0017456873600428,-0.0017456877966897,0.0017456812629585,-0.0017456843587136,0.0017456847351388,-0.0014254207475324,0.0014254073894822,-0.0014254106263774,0.0014254177576383,-0.0016467082078099,0.0016467188721667,-0.0016467158740309,0.0016467110051834,-8.2478637716809e-09,7.9951452333895e-09,-0.0008277738571157,0.00082777356550049,4.9707881717213e-09,-5.4365560027649e-09,-0.00096916680643411,0.00096916461001312,-0.00096917027223447,0.00096916113418541,-0.00096916139891958,0.00096917003123255,-0.00096916486590719,0.0009691665523586,-0.00096517758211471,0.00096518972223772,-0.00096519342158249,0.00096517379564985,0.66008312461277,125803,2834,0.0068162708916423,0.0068162709164855,0.0034483364884933,25.84132109226,-3.3269431261921e-05,-3.3269431261921e-05,-3.3269431261921e-05,3593713.9814422,0.017228568964287
30419200,0.99654700632992,0.017067077106866,0.006527420151476,0.0065274201686469,0.0040122367867431,-0.0016426151497484,0.0016426156455634,8.4311937775234e-09,-7.9670553156348e-09,-3.6469458888947e-09,4.2238301473589e-09,-0.0017464375156685,0.0017464408713262,-0.0017464429673734,0.0017464353751205,-0.0017464349268925,0.0017464434889261,-0.0017464403985728,0.0017464380109486,-0.0014259767242211,0.0014259958989814,-0.0014259927676413,0.0014259797967976,3.6535217583593e-09,-4.2157850214993e-09,-5.4518408324983e-09,4.9844574623453e-09,-0.0016426156478549,0.0016426151582412,-0.0017464398671437,0.0017464385311543,-0.0017464364299268,0.0017464420026853,-0.001746442438829,0.0017464359068973,-0.0017464390021871,0.0017464393772739,-0.0014259929044913,0.0014259795511488,-0.001425982788072,0.0014259899161355,-0.0016473895666488,0.0016474002281568,-0.0016473972355804,0.0016473923667877,-8.3059974916476e-09,8.0545833098911e-09,-0.00082834790805533,0.00082834761728331,4.9690821009546e-09,-5.4341692838898e-09,-0.00096969964958216,0.00096969741340148,-0.00096970311392532,0.00096969393911435,-0.00096969420303828,0.00096970287373424,-0.00096969766830939,0.00096969939586935,-0.0009658579898638,0.0009658702483946,-0.0009658739463859,0.00096585420787416,0.62526527257404,125803,2834,0.0068190868314116,0.0068190868537181,0.0034507233753971,26.129241922402,-3.0966064620785e-05,-3.0966064620785e-05,-3.0966064620785e-05,3603725.7300022,0.017236725802264
30619200,0.99668044099559,0.017069208357063,0.0065282371078973,0.0065282371250728,0.004012734124093,-0.0016434414422033,0.0016434419370247,8.4892526352181e-09,-8.0247961841027e-09,-3.6449742440683e-09,4.2184897707979e-09,-0.0017473708642388,0.0017473742604628,-0.0017473763533869,0.0017473687245773,-0.0017473682783157,0.0017473768753339,-0.001747373787845,0.0017473713586912,-0.0014266525770288,0.0014266718663412,-0.0014266687335172,0.001426655647134,3.6498578542891e-09,-4.2097309296811e-09,-5.4531014825048e-09,4.9883275220036e-09,-0.0016434419380475,0.001643441450205,-0.0017473732387548,0.001747371899461,-0.0017473697983191,0.0017473753705275,-0.0017473758066377,0.0017473692771412,-0.0017473723689613,0.0017473727498466,-0.0014266688136906,0.0014266554620018,-0.0014266586924002,0.0014266658303963,-0.0016482214294055,0.0016482320851981,-0.0016482290960973,0.0016482242383858,-8.3669552613415e-09,8.1134360728326e-09,-0.00082913082403501,0.00082913053142399,4.9697015840004e-09,-5.4376167528358e-09,-0.000970356491273,0.00097035421507407,-0.00097035995713457,0.00097035073933184,-0.0009703510043692,0.0009703597152582,-0.00097035447173177,0.00097035623681682,-0.00096677676510674,0.00096678913755547,-0.00096679283791364,0.00096677298023406,0.66318230112323,125803,2834,0.0068225067796185,0.0068225067982839,0.0034539743721081,26.523393646245,-2.7812850830041e-05,-2.7812850830041e-05,-2.7812850830041e-05,3622088.6627634,0.017246989904062
30819200,0.99681170259609,0.017071399069207,0.0065290733882991,0.0065290734054833,0.0040132522754248,-0.0016443708747196,0.0016443713701922,8.5481336980303e-09,-8.0847693428462e-09,-3.6391569320773e-09,4.2173253304884e-09,-0.0017483567836692,0.0017483602210815,-0.0017483623128448,0.0017483546464321,-0.0017483541997614,0.0017483628340545,-0.0017483597490796,0.0017483572780893,-0.0014274919154727,0.0014275113143711,-0.0014275081894125,0.0014274949815211,3.6467407852781e-09,-4.2072950429201e-09,-5.4556362381689e-09,4.9895616827347e-09,-0.0016443713724175,0.0016443708842252,-0.0017483591790908,0.0017483578364501,-0.0017483557380243,0.0017483613099496,-0.001748361745386,0.0017483552168757,-0.0017483583059312,0.0017483586905453,-0.0014275082086427,0.0014274948530887,-0.0014274980831764,0.0014275052257773,-0.0016491639147129,0.0016491745655264,-0.0016491715658336,0.0016491667161959,-8.4250815956438e-09,8.1723435938953e-09,-0.00082990839560579,0.00082990810393539,4.9728993432485e-09,-5.4389063623674e-09,-0.00097113238987077,0.00097113007676968,-0.00097113585715925,0.00097112659950886,-0.00097112686421378,0.00097113561611583,-0.00097113033267772,0.00097113213578264,-0.00096766217903553,0.00096767466437338,-0.00096767836540503,0.00096765839154193,0.69236328046475,125803,2834,0.0068263514851075,0.0068263515093704,0.0034572084102054,26.920156696596,-2.4638746427234e-05,-2.4638746427234e-05,-2.4638746427234e-05,3629932.0806547,0.017258101953792
31019200,0.99694069566875,0.017073614828212,0.0065299171531317,0.0065299171703168,0.004013780504764,-0.0016453685907913,0.0016453690860113,8.606774791938e-09,-8.143768338585e-09,-3.6372590702909e-09,4.2152888824652e-09,-0.0017493732880439,0.0017493767656835,-0.0017493788564211,0.00174937115181,-0.0017493707054157,0.0017493793773441,-0.001749376293957,0.0017493737821746,-0.0014284439196328,0.0014284634320861,-0.0014284603088413,0.0014284469840437,3.6449250096312e-09,-4.2052008522513e-09,-5.4572358507853e-09,4.9913984562034e-09,-0.0016453690882348,0.0016453686003196,-0.001749375704618,0.0017493743598093,-0.0017493722623986,0.0017493778344453,-0.0017493782696136,0.0017493717415247,-0.0017493748290391,0.0017493752163613,-0.0014284602703535,0.0014284469129977,-0.0014284501415161,0.0014284572891204,-0.0016501779577944,0.0016501886061634,-0.0016501856048034,0.001650180760473,-8.4841756404064e-09,8.2313297150274e-09,-0.00083067125251153,0.00083067096072806,4.9745918549883e-09,-5.4407175614795e-09,-0.00097198401505001,0.00097198166362284,-0.00097198748348797,0.0009719781851856,-0.00097197845000969,0.00097198724234639,-0.00097198191964494,0.00097198376085673,-0.00096851531467854,0.00096852791428202,-0.00096853161642662,0.00096851152572033,0.71215831984893,125803,2834,0.0068304772237437,0.00683047724805,0.0034603851785951,27.317019573799,-2.1463843409608e-05,-2.1463843409608e-05,-2.1463843409608e-05,3630529.9180061,0.017269728238165
31219200,0.99706843668804,0.017075914196459,0.0065307893366078,0.0065307893537937,0.0040143355060576,-0.0016467104531785,0.0016467109469038,8.6655556109303e-09,-8.2025208297956e-09,-3.6346819767841e-09,4.2078066098082e-09,-0.0017507080657509,0.0017507115854165,-0.0017507136733229,0.0017507059320937,-0.0017507054864692,0.0017507141935805,-0.0017507111142478,0.0017507085590934,-0.0014297659207823,0.0014297855470706,-0.0014297824247837,0.0014297689827656,3.6395111827846e-09,-4.1986061140706e-09,-5.4633262158172e-09,4.9991095422306e-09,-0.0016467109484971,0.0016467104616164,-0.0017507105079501,0.0017507091555073,-0.0017507070612275,0.0017507126346348,-0.0017507130690007,0.0017507065410745,-0.0017507096240237,0.0017507100205949,-0.001429782333483,0.0014297689680358,-0.0014297721919502,0.0014297793582008,-0.0016515413075609,0.0016515519498,-0.0016515489502386,0.0016515441230027,-8.5433965116192e-09,8.2902945378984e-09,-0.00083167981670087,0.00083167952434173,4.9812924059437e-09,-5.4486001442309e-09,-0.0009731536676813,0.00097315128105342,-0.00097315714089252,0.00097314779787986,-0.00097314806302819,0.00097315689912737,-0.00097315153759826,0.00097315341299351,-0.00096962100354253,0.00096963371413313,-0.00096963742301882,0.00096961721191961,0.74546029487523,125803,2834,0.0068360255917016,0.0068360256124464,0.003464586040231,27.866397502701,-1.706881997839e-05,-1.706881997839e-05,-1.706881997839e-05,3629184.8924364,0.017285291254123
31419200,0.9971948810373,0.017078087096698,0.0065316175050523,0.0065316175222437,0.0040148520694022,-0.0016481456454027,0.0016481461389718,8.7242779128278e-09,-8.2621360155337e-09,-3.6292467756493e-09,4.2039240601821e-09,-0.0017521044163641,0.0017521079778739,-0.0017521100631662,0.0017521022851324,-0.0017521018402055,0.0017521105830888,-0.0017521075071714,0.0017521049092069,-0.0014312209344211,0.0014312406718112,-0.0014312375546304,0.0014312239913255,3.6359944143959e-09,-4.1944603553065e-09,-5.4698889806367e-09,5.0059610065554e-09,-0.0016481461406939,0.0016481456543234,-0.0017521068822836,0.0017521055233863,-0.0017521034309492,0.0017521090068049,-0.0017521094408248,0.0017521029115752,-0.0017521059913509,0.0017521063955682,-0.0014312374069386,0.0014312240311801,-0.00143122725175,0.0014312344337012,-0.0016529944534754,0.0016530050930652,-0.0016530020849251,0.0016529972700987,-8.6024649356431e-09,8.3486663575324e-09,-0.00083268213940317,0.00083268184649436,4.9878547586135e-09,-5.4556085647286e-09,-0.00097441428464676,0.00097441186283478,-0.00097441776247202,0.00097440837505259,-0.00097440864086443,0.00097441752014821,-0.00097441212005596,0.0009744140295199,-0.0009707045146287,0.00097071733439469,-0.00097072104742058,0.00097070071648362,0.71242630005721,125803,2834,0.0068419583196152,0.0068419583416262,0.0034687653050339,28.43447128909,-1.2524229687276e-05,-1.2524229687276e-05,-1.2524229687276e-05,3621893.8765388,0.017301615295518
31619200,0.99731984425488,0.017080136507855,0.0065324022550779,0.0065324022722724,0.0040153319805048,-0.0016494972258995,0.0016494977195275,8.7826729897806e-09,-8.3210485942655e-09,-3.626206237418e-09,4.2021545690036e-09,-0.0017534591136978,0.0017534627155365,-0.001753464799754,0.0017534569838931,-0.0017534565389971,0.0017534653191248,-0.0017534622452553,0.0017534596062419,-0.0014325405790164,0.0014325604284595,-0.0014325573143076,0.0014325436341051,3.6337244977403e-09,-4.1922484229865e-09,-5.4756635109211e-09,5.0114966731946e-09,-0.0016494977216558,0.0016494972353388,-0.001753461601909,0.0017534602378868,-0.0017534581469841,0.0017534637253701,-0.0017534641589762,0.0017534576276439,-0.0017534607057335,0.0017534611153962,-0.0014325571123804,0.0014325437268412,-0.0014325469460947,0.0014325541409821,-0.0016543574222866,0.001654368061334,-0.0016543650464004,0.0016543602402909,-8.66187044979e-09,8.4077773161155e-09,-0.00083368491419725,0.00083368462112126,4.9931929524747e-09,-5.4609221450623e-09,-0.00097558252750153,0.00097558006965092,-0.0009755860088702,0.00097557657828056,-0.0009755768443516,0.00097558576647459,-0.00097558032694451,0.00097558227209202,-0.00097181598206503,0.00097182891398257,-0.00097183263057338,0.00097181217927299,0.6805776684845,125803,2834,0.0068475463646868,0.0068475463886108,0.0034729429292197,29.003054525747,-7.9755637940212e-06,-7.9755637940212e-06,-7.9755637940212e-06,3623070.6478657,0.017317235951997
31819200,0.99744103289878,0.017082056683498,0.0065331400875248,0.0065331401047202,0.0040157764912534,-0.0016501703050859,0.0016501708006574,8.8418866357855e-09,-8.379990720624e-09,-3.6338606124644e-09,4.2151399445446e-09,-0.0017541752455569,0.0017541788811229,-0.0017541809710478,0.0017541731102949,-0.0017541726640347,0.0017541814916726,-0.0017541784096611,0.0017541757394284,-0.001433146152304,0.0014331661226768,-0.0014331630033591,0.0014331492133356,3.6437940887094e-09,-4.2041670266551e-09,-5.4681220651587e-09,5.0018456988341e-09,-0.0016501708032527,0.0016501703153079,-0.0017541777442278,0.0017541763916712,-0.0017541742950077,0.0017541798735758,-0.0017541803085758,0.0017541737742088,-0.0017541768608559,0.0017541772560814,-0.0014331627404752,0.0014331493628079,-0.0014331525898201,0.0014331597591993,-0.0016550336358423,0.0016550442889615,-0.0016550412739262,0.0016550364387531,-8.7204165697527e-09,8.4668274190283e-09,-0.00083417716471333,0.00083417687237663,4.9852196312398e-09,-5.4516564173307e-09,-0.00097611735750305,0.00097611485548804,-0.00097612083319247,0.00097611136975895,-0.00097611163534081,0.00097612059160791,-0.0009761151120769,0.00097611710271798,-0.00097240631886351,0.0009724193715976,-0.00097242307968557,0.00097240251932535,0.65805653139496,125803,2834,0.0068503291785129,0.0068503292050276,0.0034749940745628,29.265567700393,-5.8754583968565e-06,-5.8754583968565e-06,-5.8754583968565e-06,3627120.6901871,0.017324985059714
32019200,0.99755685091528,0.017084062204283,0.0065339038658113,0.0065339038830037,0.0040162544554685,-0.0016503098430093,0.0016503103431402,8.9010455936376e-09,-8.4370101454256e-09,-3.6476694704957e-09,4.2399926234299e-09,-0.0017543789148815,0.0017543825784233,-0.0017543846787085,0.0017543767693679,-0.0017543763205551,0.0017543852020764,-0.0017543821046323,0.0017543794116253,-0.0014332018374947,0.0014332219337393,-0.0014332188036716,0.0014332049126851,3.6604291938713e-09,-4.2240489807199e-09,-5.4513252610416e-09,4.9810117476279e-09,-0.0016503103469218,0.0016503098561468,-0.001754381414954,0.0017543800843661,-0.0017543779775114,0.0017543835534375,-0.0017543839910391,0.0017543774546799,-0.0017543805555671,0.0017543809240945,-0.0014332184778122,0.0014332051214433,-0.0014332083628429,0.0014332154801837,-0.0016551799121713,0.0016551905855963,-0.0016551875723058,0.001655182686019,-8.78016575556e-09,8.5267937353927e-09,-0.00083427410788166,0.00083427381665018,4.9674015802694e-09,-5.431442966256e-09,-0.00097615540893253,0.00097615285575582,-0.00097615887210702,0.00097614938240513,-0.00097614964722706,0.00097615863183641,-0.00097615311124344,0.00097615515531511,-0.00097258840900444,0.00097260159055002,-0.00097260528365699,0.00097258461798777,0.71766338895809,125803,2834,0.0068509063431808,0.006850906378176,0.0034753981270275,29.280968992106,-5.7522480631487e-06,-5.7522480631487e-06,-5.7522480631487e-06,3632265.8410509,0.017326570055808
32219200,0.99766749240009,0.01708602089752,0.0065346484372001,0.0065346484543811,0.004016724005939,-0.0016505577977529,0.0016505582974775,8.9616029828863e-09,-8.4946735553186e-09,-3.666873176718e-09,4.2505504157201e-09,-0.0017546188385577,0.0017546225341367,-0.0017546246421858,0.0017546166850814,-0.0017546162345727,0.0017546251674915,-0.0017546220583396,0.0017546193371015,-0.0014334505696121,0.0014334707987371,-0.0014334676504921,0.0014334536592777,3.6748919991602e-09,-4.2398607896174e-09,-5.4337150760151e-09,4.9634455909972e-09,-0.0016505582996965,0.0016505578075058,-0.0017546213469861,0.0017546200363937,-0.0017546179215966,0.0017546234938071,-0.001754623933256,0.0017546173965808,-0.0017546205095615,0.0017546208542345,-0.0014334672659413,0.0014334539334224,-0.0014334571869847,0.0014334642586271,-0.0016554423604313,0.0016554530507367,-0.0016554500689962,0.0016554451392946,-8.8377094814913e-09,8.5865352766531e-09,-0.00083433571862561,0.00083433542862574,4.9501851869556e-09,-5.4140881673422e-09,-0.00097632060320341,0.00097631800017838,-0.00097632405462953,0.00097631453868105,-0.00097631480189911,0.00097632381526712,-0.00097631825449445,0.00097632035071195,-0.00097269116747335,0.00097270447885756,-0.00097270816179624,0.00097268739638986,0.73340852104338,125803,2834,0.0068519295254375,0.0068519295501987,0.0034756620243943,29.290202752088,-5.6783779832932e-06,-5.6783779832932e-06,-5.6783779832932e-06,3623619.2324097,0.017328921097754
32419200,0.99777318401034,0.017087938266378,0.0065353757895081,0.0065353758066896,0.0040171866701799,-0.0016508243327426,0.0016508248339912,9.0215374654584e-09,-8.5525944936972e-09,-3.6786661802145e-09,4.2633257186787e-09,-0.0017548611427265,0.0017548648710487,-0.0017548669856923,0.001754858982741,-0.0017548585306572,0.0017548675125878,-0.0017548643937368,0.0017548616429256,-0.0014337366587602,0.0014337570139188,-0.0014337538552676,0.0014337397589141,3.6864528509253e-09,-4.2531806465423e-09,-5.4183072644981e-09,4.946527382403e-09,-0.0016508248362686,0.0016508243424244,-0.0017548636590351,0.0017548623657904,-0.0017548602443151,0.0017548658124315,-0.0017548662535141,0.0017548597176937,-0.0017548628404605,0.0017548631645507,-0.0014337534080266,0.0014337400973087,-0.0014337433609497,0.0014337503908928,-0.0016557247427237,0.0016557354450939,-0.0016557324772148,0.0016557275106168,-8.896155196362e-09,8.6459461315452e-09,-0.0008343820584644,0.00083438176944792,4.9346076813046e-09,-5.3973778392935e-09,-0.00097651002806534,0.0009765073759533,-0.00097651346870975,0.00097650392521128,-0.00097650418746766,0.0009765132303169,-0.00097650762932398,0.00097650977654026,-0.00097277411657929,0.00097278755508558,-0.0009727912269518,0.00097277035793812,0.75109425766334,125803,2834,0.0068530288400158,0.0068530288647479,0.0034758643296872,29.299199572147,-5.6064034228236e-06,-5.6064034228236e-06,-5.6064034228236e-06,3612483.7521418,0.01733136460525
32619200,0.99787388683238,0.017089629684212,0.0065360221528757,0.0065360221700583,0.0040175853612779,-0.0016510127049359,0.0016510132087077,9.0799678995075e-09,-8.6100488493296e-09,-3.6845808227027e-09,4.2759525228209e-09,-0.0017550117230204,0.0017550154844836,-0.0017550176040365,0.0017550095580598,-0.0017550091048981,0.0017550181323679,-0.0017550150060007,0.001755012224635,-0.0014339627870626,0.0014339832605662,-0.0014339800969043,0.0014339658936173,3.6952249094743e-09,-4.2634430352687e-09,-5.4045575869471e-09,4.9306992808267e-09,-0.0016510132116718,0.0016510127164588,-0.0017550142475348,0.0017550129690719,-0.0017550108419907,0.0017550164056076,-0.0017550168481457,0.0017550103145378,-0.0017550134445835,0.0017550137516784,-0.0014339795849037,0.0014339662949359,-0.0014339695652844,0.0014339765587974,-0.0016559231607991,0.0016559338702882,-0.0016559309041194,0.0016559259073336,-8.956169676412e-09,8.7059324580041e-09,-0.00083432354524719,0.00083432325686673,4.9192457728963e-09,-5.3806281890362e-09,-0.00097663407347998,0.00097663137135041,-0.00097663750350229,0.00097662793113814,-0.00097662819288837,0.0009766372659268,-0.00097663162403277,0.00097663382281103,-0.00097273906920364,0.0009727526355239,-0.00097275629482448,0.00097273531797816,0.69653886617094,125803,2834,0.0068538040033239,0.0068538040332831,0.0034756327663854,29.262933571851,-5.8965314251911e-06,-5.8965314251911e-06,-5.8965314251911e-06,3598287.8330649,0.017332707516949
32819200,0.99796972496619,0.017091116468942,0.0065365946667202,0.0065365946838987,0.0040179271183231,-0.0016510262140268,0.00165102671799,9.1399991433589e-09,-8.6695653384947e-09,-3.6904376174875e-09,4.280808603765e-09,-0.0017550503221361,0.0017550541209981,-0.0017550562436212,0.0017550481545476,-0.0017550477004244,0.0017550567723383,-0.0017550536419375,0.0017550508243501,-0.0014339396409719,0.0014339602363547,-0.0014339570680492,0.0014339427520217,3.7002066400506e-09,-4.2694239955284e-09,-5.39111259473e-09,4.9166098879759e-09,-0.0016510267208398,0.001651026224777,-0.0017550528597374,0.001755051593279,-0.0017550494637696,0.00175505502095,-0.0017550554640981,0.0017550489352021,-0.0017550520696938,0.0017550523628895,-0.0014339564882031,0.0014339432211069,-0.0014339464959946,0.0014339534582304,-0.001655937038826,0.0016559477492473,-0.0016559447959025,0.0016559397783296,-9.0134841919713e-09,8.7645907817679e-09,-0.00083424472571676,0.00083424443843487,4.9072315346032e-09,-5.3674842041311e-09,-0.00097657987543705,0.0009765771274147,-0.00097658329708604,0.0009765736956399,-0.00097657395636109,0.00097658306053463,-0.00097657737898661,0.000976579625534,-0.00097271389326826,0.00097272758291814,-0.00097273123298521,0.00097271015270512,0.64446135658476,125803,2834,0.0068538582706691,0.0068538582987952,0.0034753099485111,29.204482101086,-6.3641431913148e-06,-6.3641431913148e-06,-6.3641431913148e-06,3596533.1113577,0.017332489659611
33019200,0.99806094404994,0.017092646051211,0.0065371787016678,0.0065371787188444,0.0040182886306993,-0.0016509317915839,0.0016509322951419,9.1986991616431e-09,-8.7279639294578e-09,-3.692499421442e-09,4.280577053074e-09,-0.0017550354915365,0.0017550393291756,-0.0017550414520555,0.0017550333234592,-0.001755032869275,0.0017550419811405,-0.0017550388498416,0.0017550359939862,-0.0014337473019273,0.0014337680139319,-0.0014337648437222,0.0014337504137568,3.700835987648e-09,-4.2699417248147e-09,-5.3812922438138e-09,4.9072183765493e-09,-0.0016509322975113,0.0016509318014915,-0.0017550380458346,0.0017550367860556,-0.0017550346561596,0.0017550402071899,-0.0017550406505474,0.001755034127581,-0.0017550372625266,0.0017550375489047,-0.0014337641980549,0.0014337509496857,-0.0014337542249858,0.001433761167804,-0.0016558432368486,0.0016558539421694,-0.0016558509996224,0.0016558459746403,-9.0722208831943e-09,8.8243779615753e-09,-0.00083420623783529,0.00083420595131252,4.8978617156995e-09,-5.357515699402e-09,-0.00097640891274208,0.00097640611929974,-0.00097641232787564,0.00097640269404296,-0.00097640295397217,0.0009764120918869,-0.00097640637028117,0.00097640866357835,-0.00097275296824543,0.00097276678132353,-0.00097277042447833,0.00097274923650595,0.69524135462483,125803,2834,0.0068534687984748,0.0068534688238654,0.0034751474192632,29.145470913782,-6.8362326897412e-06,-6.8362326897412e-06,-6.8362326897412e-06,3606102.0164156,0.01733153085194
33219200,0.99814777959147,0.017094174763184,0.0065377597556163,0.0065377597727935,0.0040186552347743,-0.001650948065237,0.0016509485683778,9.2573619208302e-09,-8.7869794775733e-09,-3.6893744690248e-09,4.2769224081327e-09,-0.0017550695102561,0.0017550733889551,-0.0017550755100274,0.0017550673440194,-0.0017550668902351,0.0017550760386706,-0.0017550729100374,0.0017550700122908,-0.0014337400729922,0.0014337608978274,-0.0014337577301796,0.0014337431822987,3.6976987286656e-09,-4.2663233835725e-09,-5.3751429626198e-09,4.9015217548271e-09,-0.0016509485707497,0.0016509480751644,-0.0017550720840363,0.0017550708263779,-0.0017550686982554,0.0017550742435504,-0.0017550746865245,0.0017550681701538,-0.0017550713024044,0.0017550715875307,-0.001433757018564,0.0014337437844575,-0.0014337470571178,0.0014337539909352,-0.0016558679189491,0.00165587861412,-0.0016558756752688,0.0016558706534872,-9.1310962086715e-09,8.8835040357261e-09,-0.00083415423562145,0.0008341539493753,4.8921485723203e-09,-5.3514720829329e-09,-0.00097636970258246,0.0009763668661588,-0.00097637311380042,0.00097636344481751,-0.00097636370447583,0.00097637287808692,-0.00097636711687127,0.00097636945370557,-0.00097273877945939,0.0009727527121375,-0.00097275635125552,0.0009727350520392,0.72922790791451,125803,2834,0.0068535350883445,0.0068535351137807,0.0034749346293806,29.086438178078,-7.3084945753721e-06,-7.3084945753721e-06,-7.3084945753721e-06,3603399.9191765,0.017331449330708
33419200,0.99823179165705,0.017095681928191,0.0065383317085949,0.0065383317257726,0.0040190184938239,-0.0016515885861238,0.0016515890844907,9.318405700867e-09,-8.847616517918e-09,-3.682780486937e-09,4.2540694506278e-09,-0.0017556871116867,0.0017556910390068,-0.0017556931502451,0.0017556849517586,-0.0017556845022766,0.0017556936789883,-0.0017556905610197,0.001755687611755,-0.0014343942078295,0.0014344151506683,-0.0014344119830226,0.0014343973065561,3.6826811893823e-09,-4.2450930999515e-09,-5.3784975833449e-09,4.9126958528521e-09,-0.0016515890828617,0.0016515885921696,-0.001755689719768,0.00175568844929,-0.0017556863273997,0.0017556918683252,-0.0017556923098288,0.0017556858039321,-0.0017556889216991,0.0017556892270493,-0.0014344112103889,0.0014343979817062,-0.0014344012354325,0.0014344081985419,-0.0016565228740719,0.0016565335427248,-0.0016565306215435,0.0016565256403559,-9.1890711950689e-09,8.9392358786859e-09,-0.00083456666181386,0.0008345663726048,4.9003380655487e-09,-5.3653343374579e-09,-0.00097691660478769,0.00097691373403009,-0.00097692002317962,0.00097691030564262,-0.00097691056703664,0.00097691978412303,-0.00097691398827263,0.00097691635469848,-0.00097319699877425,0.00097321103314559,-0.00097321468412402,0.00097319326818188,0.74278652601292,125803,2834,0.0068561820879666,0.0068561820970986,0.0034766567630913,29.311680551777,-5.506555585784e-06,-5.506555585784e-06,-5.506555585784e-06,3597600.7453451,0.017338587958107
33619200,0.99831337074369,0.017097146028605,0.0065388874434068,0.0065388874605969,0.0040193711246018,-0.0016523980266186,0.0016523985232718,9.3723920620325e-09,-8.9056895215924e-09,-3.6604780558492e-09,4.2351962461324e-09,-0.0017564635308589,0.0017564675061844,-0.0017564696080905,0.0017564613829538,-0.0017564609343514,0.0017564701320329,-0.0017564670315747,0.0017564640277096,-0.001435229519981,0.0014352505492344,-0.0014352474033684,0.0014352326023183,3.6649205773685e-09,-4.2272354034061e-09,-5.3955120005556e-09,4.92885555303e-09,-0.0016523985241696,0.0016523980340684,-0.0017564661717678,0.0017564648794875,-0.0017564627700859,0.0017564683122751,-0.0017564687507152,0.0017564622467695,-0.0017564653509485,0.0017564656804075,-0.0014352465762837,0.0014352333257008,-0.0014352365681165,0.0014352435788169,-0.0016573450130462,0.0016573556589728,-0.001657352710788,0.0016573477798482,-9.2509135463014e-09,9.001550544398e-09,-0.0008350910772132,0.00083509078874708,4.9130798623121e-09,-5.376234973428e-09,-0.00097762094558645,0.0009776180423838,-0.00097762437184904,0.00097761460615873,-0.00097761486739177,0.00097762413386861,-0.00097761829511734,0.00097762069489642,-0.00097377124524286,0.00097378539544573,-0.00097378905288139,0.00097376750436128,0.74303042204687,125803,2834,0.0068595270739774,0.0068595270912426,0.0034788464005317,29.613367849951,-3.0930572003907e-06,-3.0930572003907e-06,-3.0930572003907e-06,3591046.7813305,0.017347622795631
33819200,0.99839252750268,0.017098570953903,0.0065394282795139,0.0065394282967093,0.0040197143776794,-0.0016531997202474,0.0016532002158462,9.4298221441123e-09,-8.9659814077166e-09,-3.6413414512241e-09,4.2190215971392e-09,-0.0017572362506565,0.0017572402747066,-0.0017572423673336,0.0017572341122947,-0.0017572336655635,0.0017572428890549,-0.001757239802317,0.001757236745435,-0.0014360529190434,0.0014360740474358,-0.001436070919917,0.0014360559862527,3.6488063939399e-09,-4.2093317230009e-09,-5.4103177165066e-09,4.9445168112437e-09,-0.0016532002176276,0.001653199729354,-0.0017572389242096,0.0017572376126612,-0.00175723551256,0.0017572410556488,-0.0017572414918782,0.001757234991595,-0.0017572380821144,0.0017572384352027,-0.0014360700330817,0.0014360567649461,-0.0014360599953671,0.0014360670479726,-0.0016581578496612,0.001658168474106,-0.0016581655059124,0.0016581606214848,-9.3105355383784e-09,9.0601071027412e-09,-0.00083560656612013,0.00083560627685725,4.9281354899778e-09,-5.3914174101885e-09,-0.00097831695279378,0.00097831401984373,-0.00097832038931846,0.00097831057327369,-0.00097831083569985,0.00097832015054004,-0.00097831427356514,0.00097831670115673,-0.00097434479088008,0.00097435904402985,-0.00097436271154749,0.00097434103641586,0.74517768875456,125803,2834,0.0068628397691743,0.0068628397916936,0.0034809994227966,29.917027116202,-6.6378307038151e-07,-6.6378307038151e-07,-6.6378307038151e-07,3585335.8311222,0.017356554708936
34019200,0.99846926628577,0.017099912788785,0.0065399390382664,0.0065399390554628,0.0040200346950553,-0.0016539922118514,0.0016539927057858,9.4886093402038e-09,-9.0266271567365e-09,-3.628347084546e-09,4.2045683815574e-09,-0.0017580016209049,0.0017580056921226,-0.0017580077774425,0.0017579994898964,-0.0017579990447846,0.0017580082973205,-0.0017580052214445,0.0017580021138689,-0.0014368655375833,0.0014368867720772,-0.0014368836558037,0.0014368685940369,3.6356358699962e-09,-4.1942952749799e-09,-5.4240178553192e-09,4.9598302900304e-09,-0.0016539927076626,0.0016539922211624,-0.001758004326386,0.0017580029976626,-0.0017580009052453,0.0017580064503972,-0.0017580068847759,0.0017580003860411,-0.0017580034654796,0.0017580038392906,-0.001436882713379,0.0014368694278613,-0.0014368726474756,0.0014368797395619,-0.0016589590983113,0.0016589697064463,-0.0016589667262218,0.001658961881091,-9.369258665756e-09,9.1178154370854e-09,-0.00083611035547738,0.00083611006518904,4.9433750241135e-09,-5.4077655087478e-09,-0.00097900255634844,0.00097899959416457,-0.00097900600340785,0.00097899613705601,-0.0009789964004885,0.00097900576364766,-0.00097899984887277,0.00097900230366645,-0.00097490977398973,0.00097492412931945,-0.00097492780851737,0.0009749060078456,0.72426544918265,125803,2834,0.0068661142586953,0.006866114281834,0.0034831040523268,30.220762609785,1.7661008782781e-06,1.7661008782781e-06,1.7661008782781e-06,3580059.5121507,0.017365359721738
34219200,0.99854487709252,0.017101200773724,0.0065404305105668,0.0065404305277636,0.0040203397353934,-0.0016553402479616,0.0016553407366941,9.5455418870712e-09,-9.0847644452705e-09,-3.6163448581469e-09,4.1775688350809e-09,-0.0017593442968959,0.0017593484176921,-0.0017593504927517,0.0017593421765733,-0.0017593417336161,0.001759351009513,-0.0017593479493905,0.0017593447869959,-0.0014381967903123,0.0014382181278655,-0.0014382150205949,0.0014381998350789,3.6180660730356e-09,-4.1735910977699e-09,-5.4490741826502e-09,4.9892711409341e-09,-0.0016553407372522,0.0016553402535564,-0.0017593470432873,0.0017593456864591,-0.0017593436054404,0.0017593491581936,-0.0017593495895858,0.0017593430878296,-0.0017593461524703,0.0017593465589961,-0.0014382140387216,0.0014382007156527,-0.0014382039223377,0.0014382110832193,-0.0016603159851459,0.0016603265770384,-0.0016603235968994,0.0016603188108842,-9.4295153448655e-09,9.1782741476133e-09,-0.00083714069696641,0.00083714040562974,4.9674720505339e-09,-5.4345165510292e-09,-0.00098018618604485,0.00098018319918338,-0.00098018964979268,0.00098017972558841,-0.00098017998965429,0.00098018940871019,-0.00098018345481618,0.000980185932011,-0.00097604501436133,0.00097605947265808,-0.00097606317373679,0.0009760412392685,0.70594348468668,125803,2834,0.0068716876037066,0.0068716876164283,0.0034873952603469,30.832049796031,6.6563983682513e-06,6.6563983682513e-06,6.6563983682513e-06,3584157.2152306,0.017381066679117
34419200,0.99861936586465,0.017102474640991,0.0065409164700688,0.0065409164872743,0.0040206416836483,-0.0016567166558177,0.0016567171446731,9.6045094275945e-09,-9.1462556259924e-09,-3.5995616710383e-09,4.1677008953632e-09,-0.0017607385167753,0.0017607426840139,-0.0017607447515523,0.0017607364028697,-0.0017607359623314,0.0017607452672696,-0.0017607422173297,0.0017607390051385,-0.0014395310319045,0.0014395524733616,-0.001439549380719,0.0014395340628486,3.6052189680941e-09,-4.1585329765676e-09,-5.4723670690548e-09,5.0134774038391e-09,-0.0016567171459521,0.0016567166642185,-0.0017607412961921,0.0017607399163829,-0.0017607378413951,0.0017607434028563,-0.0017607438328021,0.0017607373267005,-0.0017607403800979,0.0017607408140763,-0.0014395483480549,0.0014395349894861,-0.0014395381832751,0.0014395454015174,-0.0016616978704053,0.0016617084522853,-0.0016617054394844,0.0016617006981594,-9.4890366942966e-09,9.2343883082465e-09,-0.00083823499682195,0.00083823470296679,4.9922113324662e-09,-5.4612980746248e-09,-0.00098138923149022,0.00098138622106513,-0.00098139271263057,0.00098138272995399,-0.00098138299658913,0.00098139246932906,-0.0009813864793323,0.00098138897561281,-0.0009772574078752,0.00097727195722464,-0.00097727567477744,0.00097725360642999,0.70867958271801,125803,2834,0.0068773790242839,0.0068773790443015,0.0034919502982187,31.475841198396,1.1806729587169e-05,1.1806729587169e-05,1.1806729587169e-05,3592649.0152037,0.017397282326009
34619200,0.99869259816125,0.017103776582953,0.0065414114390183,0.0065414114562259,0.0040209536877091,-0.0016581023682468,0.001658102855941,9.6626298458203e-09,-9.2064992411795e-09,-3.5899151317922e-09,4.1584935996397e-09,-0.0017621392407934,0.0017621434522149,-0.0017621455148564,0.0017621371317315,-0.0017621366924908,0.0017621460292509,-0.001762142986802,0.00176213972774,-0.0014408788895439,0.0014409004369377,-0.0014408973539237,0.0014408819114889,3.5964393011892e-09,-4.1486104236111e-09,-5.4942912310878e-09,5.03621773302e-09,-0.0016581028574426,0.0016581023768699,-0.0017621420518272,0.0017621406521079,-0.0017621385822595,0.0017621441536428,-0.0017621445822807,0.0017621380687581,-0.0017621411147184,0.00176214157105,-0.0014408962755904,0.0014408828802977,-0.0014408860666619,0.0014408933364422,-0.0016630911267071,0.0016631017061672,-0.0016630986732931,0.0016630939668941,-9.5483790886575e-09,9.2926626621521e-09,-0.00083933205241142,0.00083933175745827,5.0142532694402e-09,-5.4844438528322e-09,-0.00098260177299404,0.0009825987371642,-0.00098260526923966,0.00098259523101816,-0.00098259549887111,0.00098260502474698,-0.00098259899653403,0.00098260151582083,-0.00097847163050143,0.00097848627875932,-0.00097849001125908,0.00097846781139042,0.73613738464614,125803,2834,0.0068831087758793,0.0068831087968205,0.0034965171822867,32.120535486619,1.6964283892952e-05,1.6964283892952e-05,1.6964283892952e-05,3600178.431378,0.017413588345931
34819200,0.99876556556397,0.017105084926574,0.0065419086528936,0.0065419086701024,0.0040212676035782,-0.001660105243373,0.0016601057274565,9.7193088964907e-09,-9.2629026736228e-09,-3.5847825804117e-09,4.1406879153559e-09,-0.0017641250409884,0.0017641292970915,-0.0017641313532857,0.0017641229380679,-0.0017641225002682,0.0017641318660524,-0.0017641288328754,0.0017641255263814,-0.0014428711328291,0.0014428927884167,-0.0014428897077883,0.0014428741500186,3.5864000268233e-09,-4.1362399649492e-09,-5.5226113403719e-09,5.0681401680835e-09,-0.0016601057275253,0.0016601052489191,-0.0017641278891978,0.0017641264638592,-0.0017641244003259,0.0017641299854831,-0.0017641304123946,0.0017641238877395,-0.0017641269253774,0.0017641274102794,-0.001442888599864,0.0014428751554459,-0.0014428783350841,0.0014428856731093,-0.0016651079590104,0.001665118539106,-0.0016651155047932,0.0016651108426413,-9.6101908481514e-09,9.3536620293692e-09,-0.00084089613746763,0.00084089584080298,5.039661219447e-09,-5.5132643378191e-09,-0.00098438806946729,0.00098438500888425,-0.00098439158349401,0.00098438148496034,-0.00098438175399107,0.00098439133712931,-0.00098438526980938,0.00098438781070751,-0.00098016728305702,0.00098018203433543,-0.00098018579018261,0.00098016345236393,0.74236047049349,125803,2834,0.0068913899487107,0.0068913899603203,0.0035030293890083,33.050991603506,2.4407932828047e-05,2.4407932828047e-05,2.4407932828047e-05,3605700.5735984,0.017437066377781
35019200,0.99883842041184,0.017106353381796,0.006542392279717,0.006542392296934,0.0040215688051453,-0.0016623169178284,0.0016623174027569,9.7806713283811e-09,-9.3255163822288e-09,-3.5759485284036e-09,4.1381701902707e-09,-0.0017663174802294,0.0017663217802752,-0.0017663238335123,0.0017663153803614,-0.0017663149431726,0.0017663243456699,-0.0017663213168324,0.001766317964875,-0.0014450718909625,0.0014450936608604,-0.0014450905878777,0.0014450749015449,3.5806411749288e-09,-4.1301071691282e-09,-5.5463158481876e-09,5.0912973564415e-09,-0.0016623174037899,0.0016623169255949,-0.0017663203582559,0.001766318914037,-0.0017663168536995,0.0017663224512773,-0.0017663228774562,0.0017663163420044,-0.0017663193749323,0.0017663198800378,-0.0014450894350402,0.0014450759490135,-0.0014450791228362,0.0014450865109387,-0.0016673319704935,0.0016673425545133,-0.0016673394914395,0.0016673348562833,-9.6675605347534e-09,9.4085270296046e-09,-0.0008426157256275,0.00084261542708439,5.0662624974929e-09,-5.5412695987077e-09,-0.00098636683300389,0.00098636375173588,-0.00098637036538968,0.00098636020938363,-0.00098636048043514,0.00098637011753353,-0.00098636401449626,0.00098636657251168,-0.00098203306746349,0.0009820479063676,-0.00098205168049881,0.00098202921159551,0.72136487908266,125803,2834,0.0069005340425439,0.0069005340607404,0.0035101898254169,34.082950348209,3.2663602785676e-05,3.2663602785676e-05,3.2663602785676e-05,3611510.149322,0.017462960785946
35219200,0.99891088459916,0.017107580562729,0.0065428615921423,0.0065428616093622,0.0040218573612247,-0.001664487982742,0.0016644884683118,9.8375337942718e-09,-9.3829990425847e-09,-3.5746879606777e-09,4.1401505658892e-09,-0.0017684955544097,0.0017684998920914,-0.0017685019456858,0.0017684934543375,-0.0017684930170463,0.0017685024578089,-0.0017684994286774,0.0017684960391812,-0.0014472013830748,0.001447223262916,-0.0014472201923173,0.0014472043930447,3.5811390237198e-09,-4.1310445020996e-09,-5.5671672355874e-09,5.1113089946805e-09,-0.0016644884698318,0.0016644879913393,-0.0017684984572058,0.0017684969996378,-0.0017684949391161,0.0017685005507143,-0.0017685009768735,0.0017684944272286,-0.001768497460705,0.0017684979790173,-0.0014472190019637,0.0014472054744167,-0.0014472086494995,0.0014472160771096,-0.0016695117047031,0.0016695223033575,-0.0016695192213739,0.0016695145989046,-9.7290744064538e-09,9.4689124844292e-09,-0.00084433906166421,0.00084433876217268,5.0841106254581e-09,-5.5598895712443e-09,-0.00098829703211572,0.00098829392146963,-0.0009883005767254,0.0009882903668703,-0.00098829063906292,0.0009883003279689,-0.00098829418508765,0.00098829677060165,-0.00098392283473319,0.00098393777950186,-0.00098394156589271,0.00098391896390057,0.70214228927512,125803,2834,0.0069095107320846,0.0069095107530075,0.0035173639834369,35.117505963047,4.0940047704372e-05,4.0940047704372e-05,4.0940047704372e-05,3621779.4035413,0.017488528763274
35419200,0.99898182387199,0.017108745849026,0.0065433087210393,0.00654330873826,0.0040221283897269,-0.0016661795130872,0.0016661800054113,9.8938022331332e-09,-9.4383497875986e-09,-3.5756346498747e-09,4.1653235229315e-09,-0.0017702191195242,0.0017702234874869,-0.0017702255444844,0.0017702170082879,-0.0017702165741389,0.0017702260582502,-0.0017702230222052,0.001770219602674,-0.0014488304855371,0.001448852481502,-0.001448849398921,0.0014488335086319,3.5968975238967e-09,-4.1467434424194e-09,-5.5745529453758e-09,5.115603900555e-09,-0.0016661800088319,0.0016661795292753,-0.0017702220312043,0.0017702205809251,-0.0017702185022854,0.0017702241264297,-0.0017702245575394,0.0017702179899021,-0.0017702210406796,0.0017702215480002,-0.0014488481650289,0.0014488346209359,-0.0014488378012227,0.0014488452397789,-0.0016712070618646,0.0016712177038562,-0.0016712145844906,0.0016712099285181,-9.7986234241775e-09,9.5240011305677e-09,-0.00084569177722861,0.00084569146860468,5.0799789246621e-09,-5.5650712460433e-09,-0.00098977956956752,0.00098977641592511,-0.00098978311683455,0.00098977285885754,-0.00098977313762044,0.00098978286196915,-0.00098977668472254,0.00098977930260497,-0.00098543254358991,0.00098544760430823,-0.00098545138523313,0.00098542864154713,0.68162297180237,125803,2834,0.0069165047246586,0.0069165047652167,0.0035229950425392,35.929760701921,4.7438085615365e-05,4.7438085615365e-05,4.7438085615365e-05,3632668.3962055,0.017508491984241
35619200,0.99905043527077,0.017109831575097,0.0065437269567835,0.0065437269739901,0.0040223776443235,-0.0016674947468917,0.001667495240555,9.9575689769853e-09,-9.4997398185871e-09,-3.6022434148187e-09,4.1874781282411e-09,-0.001771588823386,0.0017715932194822,-0.0017715952929841,0.001771586702893,-0.0017715862611862,0.001771595809903,-0.0017715927516199,0.0017715893129262,-0.0014500601816776,0.0014500823166474,-0.0014500792234478,0.0014500632202421,3.616650383931e-09,-4.1728711857857e-09,-5.5641684405635e-09,5.100581504773e-09,-0.0016674952440694,0.0016674947599583,-0.0017715917404921,0.0017715903079369,-0.0017715882254531,0.0017715938531165,-0.001771594284654,0.0017715877085889,-0.0017715907732436,0.0017715912561931,-0.0014500779347602,0.0014500643893272,-0.0014500675946139,0.0014500749802292,-0.0016725232747421,0.0016725339409309,-0.0016725308452549,0.001672526136166,-9.8483512989805e-09,9.5854920279454e-09,-0.00084677126281045,0.00084677096266868,5.0775127847988e-09,-5.5526348361426e-09,-0.00099091020077388,0.00099090700754775,-0.00099091374132777,0.00099090345702909,-0.00099090373006553,0.00099091349258625,-0.00099090727113499,0.00099090993887694,-0.000986661316463,0.00098667649455506,-0.0009866802725603,0.00098665743928412,0.65729898928645,125803,2834,0.006921943352018,0.0069219433863091,0.0035274872795477,36.574204303676,5.2593634429408e-05,5.2593634429408e-05,5.2593634429408e-05,3645045.2595875,0.017524131022358
35819200,0.99911660580409,0.017110942116475,0.0065441521497639,0.0065441521669633,0.0040226377997481,-0.0016687565971846,0.0016687570920881,1.0018440430051e-08,-9.5565211201338e-09,-3.6288937993736e-09,4.2087086390165e-09,-0.001772926399453,0.0017729308224353,-0.0017729329090547,0.0017729242666895,-0.0017729238215751,0.0017729334288472,-0.001772930351731,0.0017729268922655,-0.0014512104881494,0.0014512327619963,-0.0014512296457435,0.0014512135474195,3.6380350487618e-09,-4.1972877763481e-09,-5.5510805077435e-09,5.0859854141662e-09,-0.0016687570946941,0.0016687566077782,-0.0017729293208643,0.0017729279097676,-0.0017729258161554,0.001772931446775,-0.001772931880709,0.0017729252958361,-0.0017729283783676,0.0017729288338385,-0.0014512283082975,0.0014512147723469,-0.001451217996324,0.0014512253353568,-0.0016737879909259,0.0016737986890373,-0.0016737956201728,0.0016737908534453,-9.9059508459609e-09,9.6459856810528e-09,-0.00084786470916908,0.00084786441084245,5.0649793036053e-09,-5.5388319634717e-09,-0.00099198280991071,0.0009919795696028,-0.00099198634119032,0.00099197602816072,-0.0009919762993122,0.00099198609400568,-0.00099197983169534,0.00099198254950431,-0.00098791307636571,0.00098792838119602,-0.0009879321520211,0.00098790921590945,0.69619234902092,125803,2834,0.0069271625032407,0.0069271625305351,0.0035320339513249,37.214427354396,5.7715418835167e-05,5.7715418835167e-05,5.7715418835167e-05,3661810.6201729,0.017539378461383
36019200,0.99918025026417,0.017112072376445,0.0065445826921673,0.0065445827093654,0.0040229069749122,-0.0016701065137825,0.0016701070108586,1.0078460447599e-08,-9.6138398712617e-09,-3.6489913596423e-09,4.2296367429714e-09,-0.0017743039729423,0.0017743084242558,-0.0017743105214647,0.0017743018291068,-0.0017743013817055,0.0017743110443325,-0.0017743079507392,0.001774304468462,-0.001452506473639,0.001452528879281,-0.0014525257451948,0.0014525095483953,3.6574732807019e-09,-4.2192280328713e-09,-5.5356682685213e-09,5.0685126372196e-09,-0.0016701070129421,0.0016701065235653,-0.0017743068982079,0.0017743055092253,-0.0017743034041297,0.0017743090349053,-0.0017743094716498,0.001774302881362,-0.001774305980165,0.0017743064084213,-0.0014525243509775,0.001452510831423,-0.001452514070798,0.0014525213615391,-0.0016751476772786,0.0016751584026345,-0.0016751553502411,0.0016751505292294,-9.9645499798837e-09,9.7059475377887e-09,-0.00084894607242886,0.00084894577519391,5.0486123277541e-09,-5.5214741302214e-09,-0.0009931574294015,0.00099315413925189,-0.00099316094945692,0.00099315060906013,-0.00099315087910386,0.00099316070317877,-0.00099315440036515,0.00099315717011367,-0.0009891239259506,0.00098913935976602,-0.00098914311763473,0.00098912007874459,0.73586309630304,125803,2834,0.00693274411225,0.0069327441367872,0.003536535364549,37.854487009205,6.2835896073638e-05,6.2835896073638e-05,6.2835896073638e-05,3668756.4324806,0.017555318627019
36219200,0.99923922809509,0.017113087250018,0.0065449706271528,0.0065449706443513,0.0040231459785141,-0.0016702134340524,0.0016702139411035,1.0134820218846e-08,-9.6686559360215e-09,-3.6717467035998e-09,4.282487602061e-09,-0.0017744029942964,0.0017744074610756,-0.0017744095786547,0.0017744008297925,-0.0017744003778963,0.0017744101066995,-0.0017744069831673,0.0017744034951271,-0.0014526243788928,0.0014526469097115,-0.0014526437608036,0.001452627477424,3.6940483607112e-09,-4.2632437031627e-09,-5.496941075495e-09,5.0196156604114e-09,-0.0016702139466368,0.0016702134507718,-0.0017744058979333,0.0017744045588989,-0.0017744024308008,0.0017744080543352,-0.0017744084970356,0.0017744019036968,-0.0017744050339917,0.0017744054020383,-0.0014526422887523,0.0014526288199655,-0.0014526320903036,0.0014526392635593,-0.0016752590856704,0.0016752698548719,-0.0016752667953045,0.001675261861664,-1.0027055362618e-08,9.7686004483147e-09,-0.00084886811438127,0.00084886781965701,5.0031366570635e-09,-5.4700416024066e-09,-0.00099321691354403,0.00099321355318199,-0.00099322040204,0.00099321005421125,-0.00099321032282327,0.00099322015875265,-0.0009932138116052,0.00099321665690856,-0.00098909000304229,0.0009891055903261,-0.00098910930594054,0.00098908617394336,0.71361054920596,125803,2834,0.0069331825372791,0.0069331825833035,0.0035362224892418,37.827185458543,6.2617483668348e-05,6.2617483668348e-05,6.2617483668348e-05,3657431.2318481,0.017555893740646
36419200,0.99929303297834,0.01711400093677,0.0065453202321089,0.0065453202492957,0.0040233604553656,-0.0016696563319209,0.0016696568420942,1.0198642191835e-08,-9.7262919371048e-09,-3.7127212688549e-09,4.3191833218555e-09,-0.0017738612307587,0.0017738657182765,-0.0017738678560494,0.0017738590453424,-0.0017738585890287,0.0017738683893448,-0.0017738652353257,0.0017738617364937,-0.0014520556817869,0.0014520783683109,-0.0014520751818494,0.0014520588142677,3.7304338393951e-09,-4.3039223928487e-09,-5.4412217989497e-09,4.9612794532227e-09,-0.001669656845932,0.0016696563458248,-0.0017738641178546,0.001773862837813,-0.0017738606881942,0.0017738662942078,-0.0017738667421321,0.0017738601561698,-0.001773863317271,0.0017738636164596,-0.0014520736289156,0.0014520602438521,-0.0014520635438175,0.0014520705761259,-0.0016747044783072,0.001674715282149,-0.001674712282638,0.0016747072292126,-1.0082342652882e-08,9.8272208209437e-09,-0.00084828261610905,0.00084828232426514,4.9493123788729e-09,-5.4140706502413e-09,-0.0009926610696187,0.00099265763756389,-0.00099266452141221,0.00099265417539561,-0.00099265444054396,0.00099266428087466,-0.00099265789298195,0.00099266081600024,-0.00098853750805344,0.00098855324853065,-0.00098855692630559,0.00098853372414461,0.7043401978389,125803,2834,0.0069308757098443,0.0069308757465387,0.0035337961425047,37.49655869258,5.9972469540638e-05,5.9972469540638e-05,5.9972469540638e-05,3647246.331627,0.017548730424656
36619200,0.99934216034069,0.017114789742366,0.0065456236164344,0.0065456236336158,0.0040235424923162,-0.0016690505030817,0.0016690510162686,1.0261568738237e-08,-9.7830007825708e-09,-3.7445560257955e-09,4.3475530114751e-09,-0.0017732785198666,0.0017732830315802,-0.0017732851861577,0.0017732763199834,-0.0017732758584129,0.0017732857231832,-0.001773282544932,0.0017732790304781,-0.0014514286236749,0.0014514514573292,-0.0014514482426876,0.0014514317842824,3.7564846445609e-09,-4.3343857049418e-09,-5.3893637644707e-09,4.9066801753365e-09,-0.0016690510195646,0.0016690505155562,-0.0017732813952849,0.0017732801651503,-0.001773278002439,0.0017732835880609,-0.001773284039115,0.0017732774661056,-0.0017732806487857,0.0017732808902153,-0.0014514466088595,0.0014514333051328,-0.0014514366285523,0.0014514435316914,-0.0016740998188811,0.0016741106367971,-0.0016741076903594,0.0016741025407248,-1.0137846447054e-08,9.887885445534e-09,-0.00084769498305585,0.00084769469569584,4.9004464404015e-09,-5.3605701807248e-09,-0.00099206036908193,0.00099205686742388,-0.00099206378619146,0.00099205343991702,-0.00099205370075138,0.00099206355000658,-0.00099205711886751,0.00099206011952619,-0.00098797852187521,0.00098799441406703,-0.00098799805939806,0.00098797478324721,0.66675280674952,125803,2834,0.0069283682266373,0.0069283682592455,0.0035313584391912,37.158196413393,5.7265571307145e-05,5.7265571307145e-05,5.7265571307145e-05,3639629.3494988,0.017541146926803
36819200,0.99938707279048,0.017115491924527,0.0065458942487583,0.0065458942659379,0.0040237034098305,-0.0016683611256881,0.0016683616398675,1.0321306348764e-08,-9.8408751720186e-09,-3.7613293453233e-09,4.3628112552874e-09,-0.0017726518385989,0.0017726563813806,-0.00177265854417,0.0017726496301087,-0.001772649166718,0.001772659083571,-0.0017726558924758,0.001772652351213,-0.0014506720443135,0.0014506950063368,-0.0014506917769378,0.0014506752161013,3.7715463996699e-09,-4.3514584654035e-09,-5.3450386133187e-09,4.8608889361098e-09,-0.0016683616424531,0.0016683611364029,-0.0017726547116552,0.0017726535198775,-0.0017726513484589,0.0017726569125441,-0.0017726573660756,0.0017726508100171,-0.0017726540054342,0.0017726542039841,-0.0014506900544778,0.0014506768270549,-0.0014506801620004,0.0014506869644323,-0.0016734074096962,0.0016734182276375,-0.0016734153186158,0.001673410105442,-1.0194919182182e-08,9.9487467310282e-09,-0.00084713448887337,0.00084713420470494,4.8572436113874e-09,-5.3140421256047e-09,-0.00099137431303691,0.00099137074506559,-0.00099137770023205,0.00099136734750091,-0.00099136760521432,0.00099137746674236,-0.00099137099353579,0.00099137406630377,-0.00098745947368804,0.00098747551531937,-0.00098747912654529,0.00098745576984848,0.64957833515481,125803,2834,0.0069255172476951,0.0069255172751983,0.0035290277784024,36.819533817386,5.4556270539091e-05,5.4556270539091e-05,5.4556270539091e-05,3640532.7548466,0.017532972542847
37019200,0.99942935237245,0.017116194696576,0.0065461632554697,0.0065461632726496,0.0040238681684566,-0.001668695379598,0.0016686958907749,1.0380026665252e-08,-9.9004841657106e-09,-3.7428713010863e-09,4.3376457537232e-09,-0.0017730565154208,0.0017730611095403,-0.0017730632603603,0.001773054318772,-0.001773053858027,0.0017730637971327,-0.0017730606231138,0.0017730570253607,-0.001450911139384,0.0014509342045372,-0.0014509309883551,0.0014509142973778,3.7514090253235e-09,-4.3279861359628e-09,-5.3333985716304e-09,4.8526930929467e-09,-0.0016686958931084,0.0016686953900193,-0.0017730594172593,0.0017730582204542,-0.0017730560604893,0.0017730616062646,-0.0017730620572866,0.0017730555249746,-0.0017730587032487,0.0017730589123841,-0.0014509291858283,0.001450915995361,-0.0014509193139642,0.0014509261137527,-0.0016737462710842,0.0016737570426359,-0.0016737541452966,0.0016737489712816,-1.0253600305646e-08,1.0007677841723e-08,-0.00084750276411043,0.00084750248015706,4.8475279361137e-09,-5.3044279109925e-09,-0.00099162720565629,0.00099162359228307,-0.00099163058635567,0.00099162020126441,-0.00099162045844066,0.00099163035305878,-0.00099162384046128,0.00099162695931605,-0.00098792256690875,0.00098793873046169,-0.0009879423381115,0.0009879188732761,0.68961815405655,125803,2834,0.0069269011005527,0.0069269011269162,0.0035305558384551,37.016078005913,5.6128624047306e-05,5.6128624047306e-05,5.6128624047306e-05,3652072.3097584,0.01753734268487
37219200,0.9994693930188,0.017116903638019,0.0065464330418483,0.0065464330590294,0.0040240375371409,-0.0016693832292054,0.0016693837351853,1.043621782465e-08,-9.9622574006983e-09,-3.7105012976735e-09,4.2996556313542e-09,-0.001773767541927,0.0017737721941976,-0.0017737743264972,0.0017737653640507,-0.0017737649076196,0.0017737748583175,-0.0017737717122867,0.0017737680470169,-0.0014515593711798,0.0014515825221823,-0.0014515793349637,0.0014515624997045,3.7193192865841e-09,-4.2910303351851e-09,-5.3361438867653e-09,4.8600254878956e-09,-0.0016693837373584,0.0016693832387719,-0.0017737704837555,0.0017737692651624,-0.0017737671240536,0.001773772654747,-0.0017737731012293,0.0017737665928988,-0.0017737697438204,0.0017737699835445,-0.0014515774500889,0.0014515642770194,-0.0014515675680838,0.0014515744055196,-0.0016744427228254,0.0016744534345206,-0.0016744505289384,0.0016744454313089,-1.0312442306899e-08,1.0066691799093e-08,-0.00084807871434124,0.00084807843026723,4.8522915628364e-09,-5.3094404789364e-09,-0.00099223232898341,0.00099222867923356,-0.00099223571290827,0.00099222528506111,-0.00099222554243321,0.0009922354793501,-0.00099222892759379,0.00099223208228958,-0.00098857513390536,0.00098859141017204,-0.00098859501987418,0.00098857143680461,0.73362542976875,125803,2834,0.0069297453553204,0.0069297453795916,0.0035329531068465,37.342729929903,5.8741839439221e-05,5.8741839439221e-05,5.8741839439221e-05,3655405.2941365,0.017545570570265
37419200,0.9995072694063,0.017117530324312,0.006546673167738,0.0065466731849206,0.0040241839716539,-0.0016701642724312,0.0016701647742221,1.0492154405003e-08,-1.002347796504e-08,-3.6754532223682e-09,4.2625994092787e-09,-0.0017745242211234,0.0017745289314386,-0.0017745310446232,0.0017745220623706,-0.0017745216104782,0.0017745315716284,-0.0017745284541113,0.0017745247213921,-0.0014523580042803,0.0014523812397705,-0.0014523780833175,0.0014523611028251,3.6849459856061e-09,-4.2515550104023e-09,-5.3461252330462e-09,4.8743101171203e-09,-0.0016701647767067,0.0016701642828956,-0.0017745272049994,0.0017745259586848,-0.0017745238371858,0.0017745293563628,-0.0017745297981386,0.0017745233111052,-0.0017745264326788,0.0017745267098534,-0.0014523761219867,0.0014523629541075,-0.0014523662156137,0.0014523731057915,-0.0016752326789166,0.0016752433306987,-0.0016752404068026,0.0016752353949997,-1.0372482686106e-08,1.0125436434103e-08,-0.00084862938108309,0.00084862909591892,4.8642258051211e-09,-5.3222187072275e-09,-0.00099294135972172,0.00099293767758821,-0.00099294475196353,0.00099293427509334,-0.00099293453365718,0.00099294451733586,-0.0009929379270807,0.00099294111195797,-0.00098917745746917,0.00098919383963836,-0.0009891974577826,0.00098917374881715,0.68665558865612,125803,2834,0.006932972856863,0.0069329728836378,0.0035352512969571,37.672782232703,6.1382257861626e-05,6.1382257861626e-05,6.1382257861626e-05,3649118.773705,0.017554478702104
37619200,0.99954304974476,0.017118102537766,0.0065468931386008,0.0065468931557836,0.0040243162433817,-0.0016708403982098,0.00167084089541,1.0548762034796e-08,-1.0084666106549e-08,-3.6442328528349e-09,4.2263291631334e-09,-0.0017752295559748,0.0017752343234456,-0.001775236418755,0.0017752274150755,-0.0017752269675163,0.0017752369411411,-0.0017752338504397,0.0017752300516045,-0.0014529877732789,0.0014530110973255,-0.0014530079677658,0.0014529908448779,3.6537557557991e-09,-4.2154720705879e-09,-5.3602494385782e-09,4.8929205827782e-09,-0.0016708408978697,0.0016708404085892,-0.0017752325825855,0.00177523130759,-0.001775229204043,0.0017752347162585,-0.0017752351536257,0.0017752286824753,-0.0017752317773808,0.0017752320921497,-0.0014530059378169,0.00145299276456,-0.0014529959995044,0.0014530029484749,-0.0016759110257616,0.0016759216268662,-0.0016759186877938,0.001675913757869,-1.0432085006513e-08,1.0183944731244e-08,-0.00084919517874383,0.00084919489241689,4.8798334123305e-09,-5.3392042453659e-09,-0.00099353141048757,0.00099352769866837,-0.00099353481359194,0.00099352428534597,-0.00099352454501662,0.00099353457777754,-0.00099352794930779,0.00099353116156641,-0.00098982773807399,0.00098984422377592,-0.00098984785400952,0.00098982401761119,0.66415285714149,125803,2834,0.0069357685517864,0.0069357685783346,0.0035376064090754,38.002967118401,6.4023736947205e-05,6.4023736947205e-05,6.4023736947205e-05,3653996.6775726,0.01756256496331
37819200,0.9995758929737,0.017118608347136,0.0065470883221768,0.0065470883393598,0.004024431685599,-0.001670426532614,0.0016704270288821,1.0607042831887e-08,-1.014444182356e-08,-3.6381287080182e-09,4.2199627119182e-09,-0.0017748748848713,0.0017748796949609,-0.0017748817870598,0.0017748727472124,-0.0017748723005086,0.0017748823085233,-0.0017748792228288,0.001774875379579,-0.0014525125294605,0.001452535962934,-0.0014525328395552,0.0014525155948098,3.6482012837785e-09,-4.2089768248668e-09,-5.3595998782801e-09,4.8931149932619e-09,-0.0016704270312824,0.0016704265428765,-0.0017748779342147,0.0017748766562394,-0.0017748745558497,0.0017748800647941,-0.0017748805012886,0.0017748740351535,-0.0017748771251756,0.0017748774446508,-0.0014525307449945,0.0014525175770394,-0.0014525208067456,0.0014525277601406,-0.0016754908097718,0.0016755013996896,-0.0016754984584418,0.0016754935411294,-1.04909158663e-08,1.0242811881304e-08,-0.00084887727192047,0.00084887698561558,4.8797742673689e-09,-5.3390796441246e-09,-0.0009931182933333,0.00099311454216972,-0.00099312169636745,0.00099311112892011,-0.00099311138861616,0.00099312146057115,-0.00099311479283763,0.00099311804443536,-0.00098955168875029,0.00098956828954199,-0.00098957191865876,0.0009895479673413,0.64016141159018,125803,2834,0.0069340570570009,0.0069340570831903,0.0035362844723739,37.804324180132,6.2434593441059e-05,6.2434593441059e-05,6.2434593441059e-05,3656087.8525043,0.017557736241411
38019200,0.99960599217913,0.01711909085678,0.0065472736401831,0.0065472736573662,0.0040245435592309,-0.0016698707207906,0.0016698712174687,1.0664750302905e-08,-1.0201958096124e-08,-3.6374795079097e-09,4.2207467040266e-09,-0.0017743969769195,0.0017744018252819,-0.0017744039177733,0.0017743948394429,-0.0017743943924218,0.0017744044390737,-0.0017744013533006,0.0017743974717824,-0.0014518702524688,0.0014518937990318,-0.0014518906769513,0.0014518733177803,3.6468652436525e-09,-4.2078318946286e-09,-5.3617478240892e-09,4.8948513387177e-09,-0.0016698712202937,0.0016698707318556,-0.0017744000459106,0.0017743987658704,-0.001774396666572,0.0017744021762058,-0.0017744026123134,0.0017743961460186,-0.0017743992347364,0.0017743995566563,-0.0014518885273277,0.0014518753558581,-0.001451878585211,0.0014518855421704,-0.0016749320993427,0.0016749426877988,-0.001674939743065,0.0016749348300166,-1.0551054261753e-08,1.0303314174001e-08,-0.00084850308544558,0.00084850279950953,4.8817305937975e-09,-5.3402309848462e-09,-0.00099256856669485,0.00099256477665632,-0.00099257197073293,0.00099256136234692,-0.00099256162192709,0.00099257173521572,-0.00099256502708892,0.00099256831790024,-0.0009892232747742,0.00098923999140376,-0.00098924362271915,0.00098921955282544,0.66569813438852,125803,2834,0.0069317599050099,0.0069317599337321,0.0035347246819545,37.560096530212,6.0480772241693e-05,6.0480772241693e-05,6.0480772241693e-05,3662149.7428513,0.017551472949443
38219200,0.99963360067293,0.017119536850172,0.0065474447587506,0.0065474447759332,0.004024647315488,-0.0016693719718577,0.0016693724682444,1.0724479729329e-08,-1.0261336305984e-08,-3.6393373346837e-09,4.2208942034618e-09,-0.0017739411852461,0.0017739460727183,-0.0017739481655299,0.0017739390469093,-0.0017739386001839,0.0017739486870485,-0.0017739456005889,0.0017739416800261,-0.0014513251884841,0.0014513488532544,-0.001451345728715,0.0014513282555575,3.648647781903e-09,-4.2094188377724e-09,-5.3655971703281e-09,4.8991217708325e-09,-0.0016693724707618,0.0016693719824148,-0.0017739442750168,0.0017739429934311,-0.0017739408926861,0.001773946406021,-0.0017739468423902,0.0017739403721089,-0.0017739434622896,0.0017739437856131,-0.0014513435268378,0.0014513303466778,-0.0014513335772292,0.0014513405418651,-0.0016744363697431,0.0016744469644905,-0.0016744440200502,0.0016744391060809,-1.0609738470865e-08,1.0361275412031e-08,-0.0008481226418888,0.00084812235522332,4.8854801096255e-09,-5.3451401717572e-09,-0.00099209377462698,0.00099208994788179,-0.00099209718154473,0.00099208653073636,-0.00099208679077799,0.00099209694534948,-0.00099209019892679,0.00099209352534983,-0.0009888654489129,0.00098888227734574,-0.00098888591194827,0.00098886172416034,0.6707617132084,125803,2834,0.0069296975472308,0.0069296975742658,0.0035331423176013,37.314559248622,5.8516473988973e-05,5.8516473988973e-05,5.8516473988973e-05,3661170.3818923,0.017545665209024
38419200,0.99965911775301,0.017119975358167,0.0065476119544908,0.0065476119716733,0.0040247514320033,-0.0016691388755436,0.0016691393710803,1.0783551936243e-08,-1.0320039890159e-08,-3.6403529548925e-09,4.2181887095833e-09,-0.0017737392575295,0.0017737441848854,-0.0017737462772165,0.0017737371196377,-0.0017737366730543,0.0017737467985284,-0.0017737437128391,0.0017737397520697,-0.0014510543110984,0.0014510780925991,-0.0014510749662083,0.0014510573784604,3.6478557993917e-09,-4.2081619815958e-09,-5.3780571766179e-09,4.9124483613871e-09,-0.0016691393731473,0.0016691388851439,-0.0017737423723721,0.0017737410818218,-0.0017737389817993,0.0017737445031187,-0.0017737449391854,0.0017737384611761,-0.0017737415506785,0.0017737418832483,-0.0014510727204531,0.001451059516419,-0.0014510627462051,0.0014510697371753,-0.0016742087927728,0.0016742193945419,-0.0016742164471462,0.0016742115437842,-1.0669038398233e-08,1.0420004925767e-08,-0.00084796086708125,0.00084796057952665,4.8976016302791e-09,-5.358756438955e-09,-0.00099186979986723,0.00099186594141344,-0.00099187321528246,0.00099186251580302,-0.00099186277653921,0.00099187297818752,-0.00099186619326576,0.00099186954971531,-0.00098873160741599,0.0009887485425775,-0.00098875218755214,0.00098872787554643,0.71253731942953,125803,2834,0.0069287337339917,0.0069287337581154,0.0035324696465188,37.196729884271,5.7573839074168e-05,5.7573839074168e-05,5.7573839074168e-05,3660457.1972478,0.017543018968374
38619200,0.99968285434923,0.017120385447783,0.0065477682544915,0.0065477682716748,0.0040248489216162,-0.0016692202272759,0.0016692207220673,1.0842317066303e-08,-1.0378940855599e-08,-3.6392867268768e-09,4.2148324049397e-09,-0.0017738023599134,0.0017738073279706,-0.0017738094191612,0.0017738002232909,-0.0017737997768368,0.00177380994012,-0.001773806856144,0.0017738028541821,-0.0014511538450018,0.0014511777411383,-0.0014511746159473,0.0014511569106915,3.6444857981076e-09,-4.2042636753484e-09,-5.3966107469866e-09,4.9317605811915e-09,-0.0016692207238103,0.0016692202362859,-0.0017738055026097,0.0017738041975998,-0.001773802099951,0.0017738076317529,-0.0017738080671486,0.00177380157954,-0.0017738046662444,0.0017738050141474,-0.0014511723287917,0.0014511590906153,-0.001451162318285,0.0014511693486523,-0.0016742998204864,0.0016743104283087,-0.0016743074716092,0.0016743025888257,-1.0728456981395e-08,1.0478726858058e-08,-0.00084797101939067,0.0008479707307809,4.9163485157088e-09,-5.3789553522404e-09,-0.00099195462706622,0.00099195074109974,-0.00099195805542998,0.0009919473025594,-0.0009919475643862,0.00099195781716241,-0.00099195099408655,0.0009919543757271,-0.00098875286714475,0.00098876990380063,-0.00098877356344663,0.0009887491228913,0.71625965710543,125803,2834,0.0069290684388759,0.0069290684611089,0.0035325174262076,37.193729857981,5.7549838863848e-05,5.7549838863848e-05,5.7549838863848e-05,3651867.8554397,0.017543749453047
38819200,0.99970493824549,0.017120768219567,0.0065479141037855,0.0065479141209698,0.0040249399948113,-0.0016693079829853,0.0016693084781782,1.0901043575602e-08,-1.0438364655184e-08,-3.636154161751e-09,4.2146264521138e-09,-0.0017738699866294,0.0017738749945333,-0.0017738770846793,0.0017738678506389,-0.0017738674046985,0.0017738776056439,-0.001773874522877,0.001773870480612,-0.0014512640392734,0.0014512880478015,-0.0014512849251893,0.0014512671025089,3.6437810426374e-09,-4.2034223766558e-09,-5.416221205047e-09,4.9510599812551e-09,-0.0016693084802261,0.0016693079928116,-0.0017738731552988,0.0017738718369485,-0.0017738697393346,0.0017738752838022,-0.0017738757192102,0.0017738692192645,-0.0017738723053869,0.0017738726670111,-0.0014512825971075,0.0014512693212144,-0.0014512725474825,0.00145127961722,-0.0016743936680207,0.0016744042871728,-0.0016744013112506,0.0016743964428737,-1.0788403007839e-08,1.0536655872631e-08,-0.00084797694835037,0.00084797665807931,4.9346605129241e-09,-5.3989498252282e-09,-0.00099204213085578,0.00099203821677576,-0.0009920455720573,0.00099203476538121,-0.00099203502881284,0.00099204533230704,-0.00099203847130996,0.00099204187811409,-0.00098876925314081,0.00098878639055514,-0.00098879006317229,0.0009887654918901,0.71844599325902,125803,2834,0.0069294294756631,0.0069294295002163,0.0035325479160825,37.193613435653,5.7548907485224e-05,5.7548907485224e-05,5.7548907485224e-05,3643614.6379707,0.017544515966771
38880000,0.99971150242115,0.017120882112467,0.006547957492404,0.0065479575095884,0.0040249671104744,-0.0016693341326098,0.0016693346280975,1.09190076484e-08,-1.0456276533929e-08,-3.6367291562442e-09,4.2160481436821e-09,-0.0017738901116199,0.0017738951310012,-0.0017738972217888,0.0017738879752175,-0.0017738875289532,0.0017738977427876,-0.0017738946592752,0.0017738906057955,-0.0014512976189949,0.0014513216631351,-0.0014513185405166,0.00145130068311,3.6452147001931e-09,-4.2053323112432e-09,-5.4220417179403e-09,4.956379085727e-09,-0.0016693346303922,0.0016693341426062,-0.0017738932872649,0.0017738919660103,-0.0017738898677829,0.0017738954167846,-0.0017738958523045,0.0017738893473176,-0.0017738924348041,0.0017738927987301,-0.0014513162009486,0.0014513029125304,-0.0014513061406096,0.0014513132196973,-0.0016744203541221,0.0016744309798717,-0.0016744279995747,0.0016744231313617,-1.0806416454888e-08,1.0554476528193e-08,-0.00084797450340945,0.0008479742129507,4.9401256871009e-09,-5.4045007051296e-09,-0.00099206865984652,0.00099206473733662,-0.00099207210469667,0.00099206128225145,-0.00099206154595108,0.00099207186478314,-0.00099206499206185,0.0009920684068086,-0.00098877575759834,0.00098879292601537,-0.00098879660258349,0.00098877199222703,0.7190962962422,125803,2834,0.0069295368401215,0.0069295368655367,0.0035325401389076,37.193609059276,5.754887247421e-05,5.754887247421e-05,5.754887247421e-05,3640840.8345028,0.017544726801028
