time,ASR_ext,ASR_strain,ASR_strain_xx,ASR_strain_yy,ASR_strain_zz,disp_x_101,disp_x_102,disp_x_103,disp_x_104,disp_x_105,disp_x_106,disp_x_p1_neg,disp_x_p1_pos,disp_x_p2_neg,disp_x_p2_pos,disp_x_p3_neg,disp_x_p3_pos,disp_x_p4_neg,disp_x_p4_pos,disp_x_p5_neg,disp_x_p5_pos,disp_x_p6_neg,disp_x_p6_pos,disp_y_101,disp_y_102,disp_y_103,disp_y_104,disp_y_105,disp_y_106,disp_y_p1_neg,disp_y_p1_pos,disp_y_p2_neg,disp_y_p2_pos,disp_y_p3_neg,disp_y_p3_pos,disp_y_p4_neg,disp_y_p4_pos,disp_y_p5_neg,disp_y_p5_pos,disp_y_p6_neg,disp_y_p6_pos,disp_y_p7_neg,disp_y_p7_pos,disp_y_p8_neg,disp_y_p8_pos,disp_z_101,disp_z_102,disp_z_103,disp_z_104,disp_z_105,disp_z_106,disp_z_p1_neg,disp_z_p1_pos,disp_z_p2_neg,disp_z_p2_pos,disp_z_p3_neg,disp_z_p3_pos,disp_z_p4_neg,disp_z_p4_pos,disp_z_p5_neg,disp_z_p5_pos,disp_z_p6_neg,disp_z_p6_pos,humidity,ndof,nelem,strain_xx,strain_yy,strain_zz,temp,thermal_strain_xx,thermal_strain_yy,thermal_strain_zz,vonmises,vstrain
2419200,0,0,0,0,0,0,0,0,0,0,0,0,0,0,0,0,0,0,0,0,0,0,0,0,0,0,0,0,0,0,0,0,0,0,0,0,0,0,0,0,0,0,0,0,0,0,0,0,0,0,0,0,0,0,0,0,0,0,0,0,0,0,0,0,0,0,0,0,0,0,0,0,0,0,0
2619200,0.019542776184902,0.00040090172321092,0.00013363390773697,0.00013363390773697,0.00013363390773697,-3.5576736308903e-05,3.5579913697268e-05,1.5871047074634e-09,1.5722787372966e-09,-3.1239817832325e-09,6.4337230516954e-09,-3.4950360017893e-05,3.495038421799e-05,-3.4950330207917e-05,3.4950344615686e-05,-3.4947291317404e-05,3.4953559213995e-05,-3.4947294444716e-05,3.4953552889438e-05,-3.563633701589e-05,3.5642677265834e-05,-3.5636344691887e-05,3.5642655303236e-05,3.1267036062629e-09,-6.4351366113957e-09,-8.5159872748022e-09,5.3585547219168e-09,-3.5579913700702e-05,3.5576736305041e-05,-3.4952646207134e-05,3.4948086015859e-05,-3.4948218460444e-05,3.495273889065e-05,-3.4955700984996e-05,3.494489419493e-05,-3.4951272647851e-05,3.4949546818145e-05,-3.564934570308e-05,3.5629406413203e-05,-3.5635937224633e-05,3.5643232189056e-05,-3.6247641195105e-05,3.6258400273714e-05,-3.6256956597387e-05,3.6248841234842e-05,-1.3721202733518e-09,-1.3571877970613e-09,-3.2448117836388e-05,3.2445363389831e-05,5.3702553410029e-09,-8.3589165977599e-09,-3.2253323368194e-05,3.225518324989e-05,-3.2257867535962e-05,3.2250626301367e-05,-3.2253324723342e-05,3.2255194431049e-05,-3.2257869233878e-05,3.2250637828784e-05,-3.3916989489239e-05,3.3909699736991e-05,-3.3916978878795e-05,3.3909660337084e-05,0.81992965924002,125803,2834,0.00014823196472531,0.00014823196472482,0.00013518562476092,31.530670773099,1.2245366184792e-05,1.2245366184792e-05,1.2245366184792e-05,625067.9162432,0.00043174295896311
2819200,0.041138060902665,0.00083737951727485,0.00028125072161311,0.00028125072389184,0.0002748780717699,-7.3931051146176e-05,7.3934406930122e-05,1.7279916493464e-09,1.5925106048059e-09,-5.5779495820831e-09,9.1306257471767e-09,-7.3384486009247e-05,7.3383036548537e-05,-7.3384494535011e-05,7.338295472827e-05,-7.3379766012001e-05,7.3387925828926e-05,-7.3379809518848e-05,7.3387879199026e-05,-7.3402887669201e-05,7.3411219117217e-05,-7.3403007447201e-05,7.3411072711425e-05,5.5791391356364e-09,-9.1247417242014e-09,-9.3415839731516e-09,6.0223986758438e-09,-7.3934405920152e-05,7.3931053269832e-05,-7.3385560687964e-05,7.3382020370507e-05,-7.3380631037112e-05,7.3387160281664e-05,-7.3390261451149e-05,7.3377115425228e-05,-7.3385331484887e-05,7.3382255233441e-05,-7.3418551633196e-05,7.3395269022086e-05,-7.3403671700159e-05,7.3410559397499e-05,-7.4831123561296e-05,7.4847245972778e-05,-7.4845464533305e-05,7.4832528760608e-05,-8.1813472296658e-10,-6.7749468378555e-10,-6.5922845914268e-05,6.5921313076366e-05,6.7174344310178e-09,-8.4955157621687e-09,-6.6703171260662e-05,6.6706705033714e-05,-6.6708214969197e-05,6.6701638506682e-05,-6.6703136082955e-05,6.6706763320665e-05,-6.6708180052299e-05,6.6701697214238e-05,-6.8825289932276e-05,6.8818856256086e-05,-6.8825379373198e-05,6.8818670107004e-05,0.82138489589785,125803,2834,0.00030800537627577,0.00030800537859573,0.00027463799185477,32.737452144636,2.1899617157091e-05,2.1899617157091e-05,2.1899617157091e-05,916269.33659457,0.00089104595954068
3019200,0.06260606550767,0.0012685001475352,0.00043041062340582,0.00043041062828043,0.00040767889584896,-0.00010981523292725,0.00010981848314718,1.7390832570973e-09,1.4793938880984e-09,-6.7970573637213e-09,1.0266849247391e-08,-0.00010938396571804,0.00010938166341495,-0.00010938402631564,0.00010938155225397,-0.00010937847417454,0.00010938734235946,-0.00010937856351833,0.00010938725978185,-0.00010826886300565,0.0001082780117119,-0.00010826912345111,0.00010827775953104,6.8050625833071e-09,-1.0263330579596e-08,-9.3837791357365e-09,6.1585422926011e-09,-0.00010981848455857,0.00010981523398056,-0.00010938421422308,0.00010938149869586,-0.0001093791998864,0.00010938668653073,-0.00010938969335752,0.00010937580485532,-0.00010938467868153,0.00010938099219947,-0.00010828540637549,0.00010826123221471,-0.0001082703288362,0.00010827668139564,-0.00011112294633673,0.00011114156037413,-0.00011113959195155,0.00011112447304632,-6.9667359764118e-10,-4.3223906945563e-10,-9.4846853695851e-05,9.4845698319727e-05,6.9919120164016e-09,-8.3921071363339e-09,-9.6473973641624e-05,9.6477906807423e-05,-9.6479072167924e-05,9.6472772997377e-05,-9.6473904502347e-05,9.6478013160029e-05,-9.6479003126205e-05,9.6472879752203e-05,-9.9816298272125e-05,9.9810292177219e-05,-9.9816505411495e-05,9.9809977899709e-05,0.82013323969113,125803,2834,0.00045746501572114,0.00045746502085385,0.00039511610271017,32.491882762466,1.993506209973e-05,1.993506209973e-05,1.993506209973e-05,1242501.398043,0.0013109056310281
3219200,0.083846750871293,0.0016849977198268,0.00057683689432293,0.00057683691211338,0.00053132391339048,-0.00014495108888202,0.00014495401926323,1.6458162741631e-09,1.2620272095233e-09,-7.2955770997304e-09,1.0432529582382e-08,-0.00014488996234416,0.00014488716572251,-0.00014489007198492,0.00014488702039329,-0.00014488424982333,0.00014489306372124,-0.00014488438329902,0.00014489294220236,-0.00014186144506513,0.00014187064010557,-0.00014186183129224,0.00014187027159317,7.3009384116078e-09,-1.0428530412185e-08,-9.1873631473788e-09,6.2761637713404e-09,-0.00014495402277765,0.0001449510939887,-0.0001448896965082,0.00014488754105851,-0.00014488469462766,0.00014489269670217,-0.00014489539697777,0.00014488163081737,-0.000144890394941,0.0001448867862978,-0.00014187794701168,0.00014185393066618,-0.00014186293690764,0.00014186929612967,-0.00014655513135221,0.00014657470445486,-0.00014657244261555,0.00014655697793949,-6.5426925867138e-10,-2.6593534852309e-10,-0.0001215696347278,0.00012156869169965,7.0588279130913e-09,-8.2476925231125e-09,-0.00012424303966097,0.00012424712038497,-0.00012424811439167,0.00012424201220985,-0.00012424292777825,0.000124247266875,-0.00012424800270438,0.00012424215910254,-0.00012874570575818,0.00012874005513514,-0.00012874604563818,0.00012873963182373,0.80675912986754,125803,2834,0.00060378552887595,0.00060378554682588,0.00050641320917698,32.204073045922,1.7632584367374e-05,1.7632584367374e-05,1.7632584367374e-05,1511339.0788566,0.0017154556419201
3419200,0.1048339904591,0.0020831333373022,0.00071893895315107,0.00071893897147069,0.00064525541268041,-0.00017902942402603,0.00017903198381367,1.5259315440079e-09,1.0180974863795e-09,-7.4728645162436e-09,1.0229719405859e-08,-0.00017968928249641,0.00017968616381478,-0.00017968943849218,0.00017968598208798,-0.00017968357007748,0.00017969205292547,-0.00017968374595302,0.00017969189105896,-0.00017378707403908,0.00017379602539069,-0.00017378758448254,0.00017379553830242,7.4777328958856e-09,-1.0225997590419e-08,-8.926196356859e-09,6.3788701684042e-09,-0.00017903198755058,0.00017902942917253,-0.00017968864854188,0.00017968690681591,-0.00017968369123568,0.00017969200633878,-0.00017969435072221,0.0001796810073759,-0.00017968939332353,0.00017968610680623,-0.00017380320001086,0.00017377970362873,-0.00017378834102171,0.00017379491131743,-0.0001807438177301,0.00018076369303038,-0.00018076111235774,0.00018074600366797,-6.4587731463747e-10,-1.3359768657944e-10,-0.00014604690140591,0.00014604610083366,7.0516184467843e-09,-8.0980725188913e-09,-0.00014999048368328,0.00014999461416924,-0.00014999550701553,0.00014998956007905,-0.00014999032905723,0.0001499948005831,-0.000149995352571,0.00014998974687366,-0.00015540879092302,0.00015540345487744,-0.00015540925979419,0.00015540291798825,0.78589836009579,125803,2834,0.00074568123021022,0.00074568124870344,0.00060834850363537,31.914595914059,1.5316767312474e-05,1.5316767312474e-05,1.5316767312474e-05,1754301.4981378,0.0021019191396324
3619200,0.12608604099215,0.0024747164898602,0.00086032929663315,0.0008603293157209,0.00075405787750617,-0.00021364602626241,0.00021364822759711,1.410919287921e-09,7.7837136632582e-10,-7.1796393300056e-09,9.5643342441835e-09,-0.00021542926208239,0.00021542613974095,-0.00021542946156553,0.00021542591834031,-0.00021542384831848,0.00021543171031615,-0.000215424065643,0.00021543150672857,-0.00020552695467812,0.00020553535600372,-0.0002055275881788,0.00020553474775398,7.1848807276198e-09,-9.5609831949058e-09,-8.6380322406766e-09,6.4451601771759e-09,-0.00021364823157155,0.00021364603153747,-0.00021542855938094,0.00021542693537113,-0.0002154236713077,0.00021543195946011,-0.0002154339639966,0.00021542135507152,-0.00021542907587977,0.00021542637910072,-0.00020554236457758,0.00020551975652208,-0.00020552772094189,0.00020553474565877,-0.00021547243988198,0.00021549166787897,-0.0002154888012615,0.00021547493416541,-6.5414209676415e-10,-1.8644576075411e-11,-0.00016999325512095,0.00016999256194407,6.9964050510538e-09,-7.9342329784501e-09,-0.00017518294696574,0.00017518707084632,-0.00017518789828251,0.00017518209214816,-0.00017518274953477,0.00017518729658956,-0.00017518770101328,0.0001751823182416,-0.00018170570964351,0.00018170067402688,-0.00018170630349787,0.00018170002082808,0.77011574656542,125803,2834,0.00088979716639515,0.00088979718564743,0.00070806459210086,31.993813908256,1.5950511266049e-05,1.5950511266049e-05,1.5950511266049e-05,2012675.4391164,0.0024907585426884
3819200,0.14794616173939,0.0028738117974151,0.0010056073231405,0.0010056073424898,0.00086259713178487,-0.00024968531395326,0.00024968729296449,1.3625701895263e-09,6.0461349289193e-10,-6.9686249528426e-09,9.1233399775571e-09,-0.00025282386788852,0.00025282078087553,-0.00025282410904705,0.00025282051756576,-0.00025281866498152,0.00025282613522888,-0.00025281892360028,0.00025282588924376,-0.00023831683338498,0.00023832491823172,-0.0002383175888277,0.00023832418608497,6.9718213602019e-09,-9.1158081096276e-09,-8.4601734850458e-09,6.4917236711417e-09,-0.00024968729592492,0.00024968532039021,-0.00025282315512162,0.0002528215812777,-0.00025281831011062,0.00025282656136758,-0.00025282834711537,0.00025281621946075,-0.00025282350215705,0.00025282119947868,-0.00023833179913818,0.00023830976361075,-0.00023831728422837,0.0002383246243818,-0.00025175858353268,0.00025177734925069,-0.00025177430276751,0.00025176127004942,-6.8650789023171e-10,7.1357793244869e-11,-0.00019432697445318,0.00019432633871324,6.9626022873429e-09,-7.8425620756733e-09,-0.00020068027375308,0.00020068437203084,-0.00020068518365094,0.00020067943647208,-0.00020068003460465,0.0002006846376521,-0.00020068494474035,0.00020067970241201,-0.00020879306246132,0.00020878824642254,-0.00020879377750809,0.00020878747504362,0.77140160324652,125803,2834,0.0010398135203279,0.0010398135398846,0.00080938598392619,32.324992696697,1.8599941573578e-05,1.8599941573578e-05,1.8599941573578e-05,2256087.436132,0.002893193978336
4019200,0.17040535624268,0.0032817810738339,0.0011552717897948,0.0011552718093059,0.0009712374747332,-0.00028682977095717,0.00028683155760092,1.3281668082098e-09,4.4687135193106e-10,-6.8684464922626e-09,8.8253858180213e-09,-0.00029145870119333,0.00029145559495988,-0.00029145898371964,0.00029145529063548,-0.00029145362779927,0.00029146081746825,-0.00029145392736076,0.00029146053004381,-0.00027197093125237,0.00027197881213586,-0.0002719718069857,0.00027197795870916,6.8727651193609e-09,-8.8187076125294e-09,-8.297146887049e-09,6.5211268186012e-09,-0.0002868315604651,0.00028682977758507,-0.000291457925339,0.00029145645656992,-0.00029145312407054,0.00029146139192706,-0.00029146298819011,0.00029145122662654,-0.00029145818693864,0.00029145616187612,-0.00027198556792431,0.00027196398768933,-0.00027197118319591,0.00027197871697853,-0.00028922100167243,0.00028923953034135,-0.00028923633642367,0.00028922384510167,-7.2757354248346e-10,1.5471930656374e-10,-0.0002186656177917,0.00021866502440604,6.9178932366236e-09,-7.7543119988297e-09,-0.00022629392585373,0.00022629798052945,-0.00022629879117202,0.00022629308927138,-0.00022629364542368,0.00022629828770844,-0.00022629851092337,0.00022629339673736,-0.0002361838562941,0.00023617924900658,-0.000236184693729,0.0002361783564411,0.77299484473334,125803,2834,0.0011944057720473,0.0011944057917978,0.00091072108502402,32.662487424593,2.1299899396741e-05,2.1299899396741e-05,2.1299899396741e-05,2470001.2449722,0.0033049871789958
4219200,0.19343846251014,0.0036994291287534,0.0013096590884975,0.001309659108129,0.0010801109321269,-0.00032514651932134,0.00032514816322518,1.3187349860808e-09,3.136703941583e-10,-6.8392469107751e-09,8.6506515338572e-09,-0.00033134066657155,0.00033133752712606,-0.0003313409907861,0.00033133718191286,-0.00033133566090556,0.00033134268215121,-0.00033133600170628,0.00033134235339423,-0.00030660310383789,0.00030661089549227,-0.00030660410078653,0.00030660992079231,6.8438476325644e-09,-8.6440683693966e-09,-8.1598142868314e-09,6.5266171344507e-09,-0.0003251481660309,0.00032514652607745,-0.0003313398154047,0.00033133846493185,-0.00033133505705931,0.00033134335614608,-0.00033134481082948,0.00033133330259718,-0.00033134005250188,0.00033133819371002,-0.00030661752701009,0.0003065962863119,-0.00030660327001901,0.0003066108853173,-0.00032792846813215,0.00032794689997534,-0.00032794360703083,0.00032793141582302,-7.7425784228572e-10,2.3204154268721e-10,-0.00024301821262759,0.00024301764996603,6.8691141008786e-09,-7.6730386515761e-09,-0.00025218137221161,0.0002521853727766,-0.00025218619359074,0.00025218052432324,-0.00025218105102581,0.00025218572185161,-0.00025218587255308,0.00025218087365473,-0.00026385292068924,0.00026384850909604,-0.00026385387941113,0.00026384749504635,0.77488672461619,125803,2834,0.0013538509591104,0.0013538509790026,0.001012108213875,33.000225299841,2.400180239873e-05,2.400180239873e-05,2.400180239873e-05,2660745.2396322,0.0037267441762979
4419200,0.21741449885095,0.004133756815113,0.0014714493887161,0.0014714494084178,0.001190858017979,-0.00036578842511214,0.00036578994458645,1.3176796127923e-09,1.915278257211e-10,-6.8676305414834e-09,8.549923987897e-09,-0.00037361331498755,0.00037361011703444,-0.00037361367996533,0.00037360973153134,-0.00037360833367561,0.00037361524794031,-0.00037360871494394,0.00037361487879152,-0.00034323793218773,0.00034324569568437,-0.00034323904607549,0.00034324460180285,6.872499018696e-09,-8.5460659265015e-09,-8.0907514259058e-09,6.5810992750164e-09,-0.00036578994785843,0.00036578843157557,-0.00037361238346598,0.00037361113770406,-0.00037360763074431,0.000373616024129,-0.00037361735562513,0.0003736059984146,-0.00037361260285634,0.00037361088486707,-0.00034325226119446,0.00034323118183901,-0.00034323801745794,0.00034324576701774,-0.00036906351031394,0.0003690819976375,-0.00036907858980122,0.00036906658734617,-8.3372880982034e-10,2.9925398920193e-10,-0.0002681966333815,0.00026819607785158,6.8641160571633e-09,-7.6602787200657e-09,-0.00027915507846443,0.00027915903766151,-0.00027915989348972,0.0002791541949317,-0.00027915471518096,0.0002791594291275,-0.00027915953032667,0.00027915458670485,-0.00029270977101968,0.0002927054976444,-0.00029271085522786,0.00029270436177447,0.77612067470465,125803,2834,0.0015229426810633,0.0015229427013127,0.0011169275548044,33.594144296731,2.8753154373852e-05,2.8753154373852e-05,2.8753154373852e-05,2839652.0244211,0.0041714988701665
4619200,0.242470135155,0.0045871121049124,0.0016416540580314,0.001641654078912,0.0013038039679691,-0.00040869558371232,0.00040869704936867,1.3489811790951e-09,1.0717941080139e-10,-6.8713617883052e-09,8.4981367448293e-09,-0.00041823282821556,0.00041822963175498,-0.00041823323252291,0.00041822920786659,-0.00041822786297892,0.00041823474623971,-0.00041822828304814,0.00041823433850891,-0.00038178552251658,0.00038179333007156,-0.00038178674873315,0.00038179212356242,6.8784859949892e-09,-8.5001904640514e-09,-8.0747973028365e-09,6.6164048515536e-09,-0.00040869705417783,0.00040869558915052,-0.00041823188178622,0.00041823066805387,-0.00041822712407202,0.00041823556172199,-0.00041823684143011,0.00041822554202897,-0.00041823208261797,0.00041823043500298,-0.00038179985204792,0.00038177881787898,-0.00038178558880758,0.00038179342377446,-0.00041258283619685,0.00041260134403386,-0.00041259788036243,0.0004125859751096,-9.0200821227421e-10,3.6311928463158e-10,-0.0002940003984146,0.000293999837846,6.8647748416211e-09,-7.665815964137e-09,-0.0003070318663563,0.00030703577868071,-0.00030703668335796,0.00030703093392492,-0.00030703145954636,0.00030703621413341,-0.00030703627599103,0.00030703136923658,-0.00032252192045324,0.00032251777081617,-0.00032252313645059,0.00032251650729369,0.77693646010074,125803,2834,0.0017014264589874,0.0017014264802972,0.0012243451642162,34.291908238483,3.4335265907862e-05,3.4335265907862e-05,3.4335265907862e-05,3005614.8089481,0.0046379326585231
4819200,0.26857259596384,0.0050588235304445,0.0018200433577429,0.0018200433798295,0.0014187367928721,-0.00045358322031521,0.00045358465394003,1.396582703063e-09,2.7336373966069e-11,-6.8709601018265e-09,8.465522670461e-09,-0.00046489247766409,0.00046488930256604,-0.00046489292392484,0.00046488883672172,-0.00046488752401757,0.00046489440612053,-0.00046488798616711,0.00046489395651162,-0.00042200999663233,0.00042201788516503,-0.00042201134874891,0.00042201655367746,6.8769446139449e-09,-8.4652874407749e-09,-8.0533795754854e-09,6.6276753905368e-09,-0.00045358465854771,0.00045358322632556,-0.00046489153016384,0.00046489034015438,-0.00046488677557272,0.00046489523063201,-0.00046489647740742,0.00046488522592419,-0.00046489172212181,0.00046489011606309,-0.00042202433922697,0.00042200335966687,-0.00042201008576607,0.00042201795559413,-0.00045818526803234,0.00045820377158974,-0.00045820027687804,0.00045818843591429,-9.6558042012767e-10,4.2006947572469e-10,-0.00032024766597536,0.00032024709860383,6.8601875345837e-09,-7.6675028797662e-09,-0.00033562558569958,0.00033562944953955,-0.00033563040111393,0.00033562460572011,-0.00033562513867106,0.00033562992560912,-0.00033562995383572,0.00033562508178412,-0.00035308115685799,0.0003530771198053,-0.00035308249047915,0.00035307573755868,0.77792178876383,125803,2834,0.001888112132937,0.0018881121550134,0.0013336052366646,34.992314666216,3.9938517329726e-05,3.9938517329726e-05,3.9938517329726e-05,3157738.694769,0.0051229234844056
5019200,0.29567159863909,0.0055465670177347,0.0020056976368923,0.00200569765921,0.0015351717216323,-0.00050023083011615,0.00050023224068976,1.446962908747e-09,-4.6263207499591e-11,-6.8602150837412e-09,8.4313062758072e-09,-0.00051338293546039,0.00051337979378112,-0.0005133834231414,0.0005133792869426,-0.00051337799715612,0.00051338488255933,-0.00051337850064105,0.00051338439181995,-0.000463727567509,0.00046373553856819,-0.00046372904116922,0.00046373408590048,6.8660755987653e-09,-8.4305890083545e-09,-8.027998330684e-09,6.6255613576559e-09,-0.00050023224525383,0.0005002308362695,-0.00051338199664687,0.00051338082333829,-0.00051337725114634,0.00051338570485295,-0.00051338692829894,0.00051337572417458,-0.00051338218215527,0.00051338060535015,-0.00046374191872615,0.00046372100452029,-0.00046372769125147,0.00046373557347045,-0.00050558677455021,0.00050560524854,-0.00050560173887546,0.000505589957108,-1.0292198940499e-09,4.8035177795056e-10,-0.00034683661224307,0.00034683604139942,6.8458895918926e-09,-7.6559983716852e-09,-0.0003648452783316,0.00036484908843841,-0.0003648500849641,0.00036484425306197,-0.00036484479011694,0.0003648496059474,-0.00036484959654249,0.00036484477065823,-0.00038418515936979,0.00038418124887862,-0.00038418661420761,0.0003841797451528,0.77677325563496,125803,2834,0.0020820775392339,0.0020820775615124,0.0014442851086789,35.69282327208,4.5542586176642e-05,4.5542586176642e-05,4.5542586176642e-05,3296979.8978071,0.0056242183709897
5219200,0.32306928194974,0.0060395873367996,0.0021943645792151,0.0021943646015778,0.0016508581560067,-0.00054686205849842,0.00054686346266643,1.501226118852e-09,-1.0829852009867e-10,-6.8550051319457e-09,8.4226639650445e-09,-0.00056188610167495,0.00056188299624073,-0.00056188662852941,0.00056188245135527,-0.00056188116874875,0.00056188808075452,-0.00056188171093083,0.00056188755167724,-0.00050528472536406,0.00050529279548245,-0.00050528631537381,0.00050529123018899,6.8641248334922e-09,-8.4239600241435e-09,-7.9347563471855e-09,6.5365165794256e-09,-0.0005468634679227,0.00054686206365827,-0.00056188514956693,0.00056188403786798,-0.00056188046232368,0.00056188885818297,-0.00056189007780337,0.00056187894142742,-0.00056188538981964,0.00056188376149203,-0.00050529903296314,0.00050527830349619,-0.00050528498055521,0.00050529269038589,-0.00055306557205492,0.00055308398232157,-0.0005530805211492,0.00055306869224932,-1.0828170410823e-09,5.5839706774994e-10,-0.00037258765771588,0.00037258711225404,6.7660760307947e-09,-7.5470874738119e-09,-0.00039338459910487,0.00039338832728151,-0.00039338934319077,0.00039338355411032,-0.00039338406763401,0.0003933888889042,-0.00039338881121363,0.00039338411596299,-0.00041462349790319,0.00041461980389707,-0.00041462507937215,0.00041461816690451,0.778555521343,125803,2834,0.0022759335444513,0.0022759335661002,0.0015514776764814,36.02261120428,4.8180889634242e-05,4.8180889634242e-05,4.8180889634242e-05,3409578.7946493,0.0061220354106337
5419200,0.35055944748474,0.006527386247995,0.0023819698879405,0.0023819699076518,0.0017634464524027,-0.00059312530790505,0.00059312670585849,1.5632907315118e-09,-1.7732074979634e-10,-6.8460261802466e-09,8.4099700653344e-09,-0.00061012032083159,0.00061011725906739,-0.00061012089117726,0.00061011667153291,-0.00061011539597956,0.00061012233663875,-0.00061011598130522,0.00061012176420118,-0.00054645982508067,0.00054646800819241,-0.00054646154544321,0.00054646631427512,6.8542784816444e-09,-8.4064045436555e-09,-7.8328724081169e-09,6.4414329076812e-09,-0.00059312671002751,0.00059312531315278,-0.00061011935777315,0.00061011830864426,-0.00061011473266728,0.00061012306297224,-0.0006101242769997,0.00061011322156257,-0.00061011965124569,0.00061011797537107,-0.00054647408587448,0.00054645356491103,-0.00054646022344714,0.00054646775454636,-0.00060001932582111,0.00060003765182589,-0.00060003424334717,0.00060002238336543,-1.1297401790709e-09,6.2845880558841e-10,-0.00039756220042594,0.00039756167886241,6.6883512692548e-09,-7.4415304657577e-09,-0.00042138625034986,0.00042138990158834,-0.0004213909336166,0.00042138518889373,-0.00042138568016872,0.00042139050255128,-0.00042139036298945,0.00042138578997159,-0.00044404731498248,0.00044404381964791,-0.00044404900967514,0.00044404206559321,0.76958003139137,125803,2834,0.0024682180575914,0.0024682180771583,0.0016554401290098,36.275550442802,5.020440354242e-05,5.020440354242e-05,5.020440354242e-05,3507651.0693103,0.0066136843872181
5619200,0.37806017959931,0.0069921771084936,0.0025616931844784,0.0025616932006932,0.001868790723322,-0.00063780055953462,0.00063780193322383,1.6125776508009e-09,-2.5048162434067e-10,-6.8431325620564e-09,8.3802842899204e-09,-0.00065715672524108,0.00065715369187315,-0.0006571573370443,0.00065715306386148,-0.00065715181089446,0.00065715875864328,-0.00065715243722223,0.00065715814532539,-0.00058617103451393,0.00058617930325328,-0.00058617287241105,0.00058617748852995,6.8509383066551e-09,-8.3777559947464e-09,-7.745932057386e-09,6.378880875533e-09,-0.00063780193700982,0.00063780056409311,-0.00065715574644113,0.00065715475859128,-0.00065715116887802,0.00065715946282021,-0.00065716065545166,0.00065714968265224,-0.00065715607717932,0.00065715438635261,-0.0005861852477748,0.00058616490962347,-0.00058617152957743,0.00058617894986464,-0.00064466708331643,0.00064468535328635,-0.00064468197376562,0.00064467012112201,-1.1844798206154e-09,6.9906664740555e-10,-0.00042090298835729,0.00042090248238748,6.6234689190242e-09,-7.3582112489831e-09,-0.0004484338113256,0.00044843738606968,-0.00044843844588046,0.00044843272221856,-0.00044843319914487,0.00044843802856619,-0.00044843783324244,0.00044843336482518,-0.00047072921254735,0.00047072590503842,-0.0004707310301672,0.00047072402961333,0.73637048495785,125803,2834,0.002653860838437,0.0026538608557711,0.0017526083492345,36.526467491845,5.2211739934761e-05,5.2211739934761e-05,5.2211739934761e-05,3607527.2553448,0.0070853540569522
5819200,0.40548678985845,0.0074367248645377,0.0027340268505365,0.0027340268665343,0.0019686711474669,-0.00068132595562228,0.00068132730910506,1.6644052122986e-09,-3.2248798677219e-10,-6.8337029931526e-09,8.3490056128742e-09,-0.00070329955517716,0.00070329655685819,-0.00070330020861687,0.00070329588788777,-0.00070329465386498,0.00070330160982022,-0.00070329532153903,0.00070330095526937,-0.00062472994267823,0.00062473829941407,-0.00062473190082593,0.00062473636257623,6.8412909137292e-09,-8.3466340910396e-09,-7.6803866137189e-09,6.3337610242333e-09,-0.00068132731293968,0.00068132596013405,-0.00070329857284753,0.00070329762737228,-0.00070329403060901,0.00070330229450704,-0.00070330346905152,0.00070329256546751,-0.00070329892610244,0.00070329723208812,-0.00062474413013398,0.00062472393477756,-0.00062473051907256,0.00062473786437715,-0.00068780112914767,0.00068781934312057,-0.00068781598150664,0.00068780415336143,-1.2435038624985e-09,7.6402267136713e-10,-0.00044277109726601,0.00044277059698056,6.5734578051741e-09,-7.3001872077059e-09,-0.00047472079990765,0.00047472430224579,-0.00047472539909865,0.00047471967411459,-0.00047472014618216,0.00047472498592035,-0.00047472474489515,0.00047472035784856,-0.00049531942473826,0.00049531628033915,-0.00049532136391813,0.00049531428397575,0.71317583738316,125803,2834,0.0028346863990733,0.0028346864164072,0.0018436539552103,36.777305757444,5.4218446059554e-05,5.4218446059554e-05,5.4218446059554e-05,3678617.6035579,0.0075413704198637
6019200,0.43235617278108,0.00786223288816,0.0028992962448967,0.0028992962609389,0.0020636403823244,-0.00072321442804544,0.00072321578738015,1.7272230902849e-09,-3.8150377843909e-10,-6.8094525221644e-09,8.3349647639008e-09,-0.00074783596908137,0.00074783302845867,-0.00074783666337399,0.00074783231948622,-0.00074783108039917,0.00074783806888087,-0.00074783178851693,0.00074783737407309,-0.00066157575797645,0.00066158422190369,-0.00066157783631129,0.00066158216598817,6.8191067273233e-09,-8.3303407854059e-09,-7.601092812876e-09,6.2490461800409e-09,-0.00072321579115344,0.00072321443290812,-0.00074783499615511,0.00074783408644195,-0.00074783050623451,0.00074783869863381,-0.00074783988003819,0.0007478290375259,-0.00074783538930448,0.00074783364925481,-0.00066158991292056,0.00066156988502346,-0.00066157646018396,0.0006615836509418,-0.00072926127191183,0.00072927938688266,-0.00072927607621897,0.00072926422572772,-1.3020816024179e-09,8.3141111651992e-10,-0.0004629380640546,0.00046293757298876,6.4981368459148e-09,-7.2123429565885e-09,-0.00049965733015652,0.00049966074494644,-0.00049966187561508,0.00049965617058607,-0.00049965663491542,0.00049966147076909,-0.00049966117965509,0.00049965689655196,-0.00051811817989103,0.00051811522186826,-0.00051812023877166,0.00051811309693057,0.70261523085145,125803,2834,0.0030086768879578,0.0030086769058921,0.0019276243262015,36.775482955237,5.4203863641896e-05,5.4203863641896e-05,5.4203863641896e-05,3706270.6041189,0.0079766845371774
6219200,0.45860001327292,0.0082800220267809,0.0030616200812337,0.0030616200948255,0.0021567818507217,-0.00076434650031671,0.00076434787396197,1.7966674925708e-09,-4.3670769973248e-10,-6.7589980597194e-09,8.2998625707487e-09,-0.00079149172719324,0.00079148886997543,-0.00079149246313091,0.0007914881198287,-0.00079148686652219,0.00079149388237502,-0.00079148761598772,0.00079149314599884,-0.00069767775432878,0.00069768632680446,-0.00069767995366112,0.00069768414801989,6.7687490966849e-09,-8.2950799240371e-09,-7.5371516862214e-09,6.1713918789625e-09,-0.00076434787748972,0.00076434650513111,-0.00079149079375467,0.00079148988799184,-0.00079148634847456,0.00079149445279888,-0.00079149564998131,0.00079148486757017,-0.00079149120384862,0.00079148943177804,-0.00069769188775556,0.00069767201381544,-0.00069767857207623,0.000697685638901,-0.00077028855941607,0.00077030652793962,-0.00077030327817042,0.00077029144970163,-1.358333616585e-09,8.9822379952655e-10,-0.00048249030001389,0.00048248981942808,6.4356005946806e-09,-7.1369335225822e-09,-0.00052391837495823,0.00052392171284348,-0.00052392287484428,0.00052391718416071,-0.00052391763846931,0.00052392247966678,-0.00052392213764669,0.00052391795100469,-0.00054052636411049,0.00054052358268014,-0.00054052854456186,0.00054052133882004,0.70745491642259,125803,2834,0.0031794945295769,0.0031794945468955,0.0020090370032986,36.758777859166,5.4070222873331e-05,5.4070222873331e-05,5.4070222873331e-05,3717862.0308102,0.008403210380528
6419200,0.48417724108075,0.0086843353741147,0.003219045261565,0.0032190452741498,0.0022462448383998,-0.00080418982852638,0.00080419120789216,1.8615265580826e-09,-4.9553069793615e-10,-6.6938475332292e-09,8.2399272053506e-09,-0.00083382358402275,0.0008338208150438,-0.00083382436133369,0.00083382002377099,-0.00083381876400178,0.00083382578622898,-0.0008338195545543,0.00083382500846675,-0.00073261451308748,0.00073262317184943,-0.00073261683219186,0.00073262087090721,6.7029621880768e-09,-8.235675208262e-09,-7.4823271917126e-09,6.1108421216811e-09,-0.00080419121121763,0.00080418983281626,-0.00083382269998914,0.00083382178449706,-0.00083381829068942,0.00083382631054861,-0.00083382751579862,0.00083381680554791,-0.000833823105642,0.00083382133102325,-0.00073262861615022,0.00073260889143062,-0.00073261541180203,0.00073262240147011,-0.00081002266251934,0.00081004046305976,-0.00081003725980847,0.00081002550971902,-1.415409850275e-09,9.6509019418645e-10,-0.00050124722666211,0.00050124675566439,6.3849215549695e-09,-7.0746326089362e-09,-0.00054732894333613,0.00054733221149733,-0.00054733340607505,0.00054732772012248,-0.00054732816535367,0.00054733301954827,-0.00054733262739878,0.00054732852818985,-0.00056199656368962,0.00056199395087622,-0.0005619988665225,0.00056199158718512,0.70210892605617,125803,2834,0.0033449299159475,0.0033449299317525,0.0020871410106312,36.741619031341,5.393295225073e-05,5.393295225073e-05,5.393295225073e-05,3747825.9961828,0.0088157211131969
6619200,0.50946226415802,0.009107711913901,0.0033830551267975,0.0033830551393039,0.0023416016477996,-0.00084529355381152,0.00084529491679906,1.9163557262362e-09,-5.6453711224932e-10,-6.6064200506082e-09,8.1305714579171e-09,-0.00087698765961061,0.00087698498178836,-0.0008769884783244,0.00087698414904309,-0.00087698290324382,0.00087698988768066,-0.00087698373504568,0.00087698906835005,-0.00076929429156371,0.00076930299640553,-0.00076929673027946,0.00076930057254566,6.6127928211303e-09,-8.1289449952592e-09,-7.469372884195e-09,6.1137034646385e-09,-0.00084529492000164,0.00084529355715052,-0.00087698684607381,0.00087698588390367,-0.00087698243876227,0.00087699040643399,-0.00087699159824123,0.00087698097015537,-0.00087698719009771,0.0008769854921914,-0.00076930837701169,0.00076928874335378,-0.00076929518218821,0.00076930224338996,-0.00085190072753034,0.00085191834701947,-0.00085191514270179,0.00085190359975776,-1.4767210538267e-09,1.0276694426981e-09,-0.00052122518458583,0.00052122471426272,6.3815469100369e-09,-7.0699183148067e-09,-0.00057147129683648,0.00057147452130047,-0.00057147575719041,0.00057147003257132,-0.00057147047698877,0.00057147537023595,-0.00057147493679813,0.00057147088155898,-0.00058558864382893,0.00058558615636534,-0.00058559107326069,0.00058558367740662,0.74070665975872,125803,2834,0.0035155680331487,0.0035155680467167,0.0021703265837792,37.008730341863,5.6069842734906e-05,5.6069842734906e-05,5.6069842734906e-05,3757567.3257082,0.0092440301397028
6819200,0.53554916975099,0.0095785284594691,0.003564676349783,0.0035646763640473,0.0024491757456389,-0.00089097661276783,0.00089097792802741,1.9621351273834e-09,-6.5656208586131e-10,-6.4855191509594e-09,7.9573861265513e-09,-0.00092418831951088,0.00092418573650538,-0.00092418918330088,0.00092418485774892,-0.00092418365750454,0.00092419054484172,-0.00092418453514397,0.00092418967920667,-0.00081084424678364,0.00081085294694013,-0.0008108468206297,0.00081085038620596,6.4904663436496e-09,-7.9562416117485e-09,-7.5458800519646e-09,6.2378537449933e-09,-0.000890977931701,0.00089097661681133,-0.00092418761054268,0.00092418653239813,-0.00092418313697825,0.00092419112224552,-0.00092419226734923,0.00092418171689228,-0.00092418779351342,0.00092418630575085,-0.00081085835981608,0.00081083867445365,-0.00081084497081592,0.00081085237264966,-0.00089946509426495,0.00089948253937876,-0.00089947922517657,0.00089946808904374,-1.5397797248071e-09,1.0747423217422e-09,-0.0005448194350367,0.00054481894818184,6.4799671451558e-09,-7.1863234567118e-09,-0.00059869442407198,0.00059869766675833,-0.00059869895578686,0.00059869310698689,-0.00059869356688024,0.00059869855237967,-0.00059869809861766,0.00059869399211883,-0.00061419303850631,0.00061419057075523,-0.00061419557901098,0.00061418798878225,0.79221450308285,125803,2834,0.0037051801293117,0.0037051801453104,0.0022685602815451,38.073087233593,6.4584697868747e-05,6.4584697868747e-05,6.4584697868747e-05,3792310.85536,0.0097260296971134
7019200,0.56234016690775,0.010025783539223,0.0037391250007545,0.0037391250159397,0.0025475335225288,-0.0009363582119743,0.00093635947784026,1.9964899116331e-09,-7.4120917339207e-10,-6.3995541519841e-09,7.8216372460864e-09,-0.00097163570570065,0.00097163318618884,-0.0009716366093735,0.00097163226665452,-0.00097163111497582,0.00097163792072038,-0.000971632032646,0.00097163701463546,-0.00085126398764053,0.00085127267942782,-0.00085126667788051,0.00085127000196521,6.4055823263569e-09,-7.8196735997602e-09,-7.6070838127945e-09,6.3486407432692e-09,-0.00093635948154301,0.00093635821641243,-0.00097163506613213,0.00097163390835676,-0.00097163053696628,0.00097163855549707,-0.00097163965173577,0.00097162916654787,-0.00097163512203048,0.00097163381261151,-0.00085127811590888,0.00085125838406026,-0.00085126455950245,0.00085127225275279,-0.00094536247149625,0.00094537980539845,-0.00094537638033284,0.00094536557087618,-1.611173439701e-09,1.1317043250332e-09,-0.00056734692864642,0.00056734642707053,6.5560074299916e-09,-7.2785157582488e-09,-0.00062571100962849,0.00062571425166598,-0.00062571559764955,0.00062570963567517,-0.00062571011012775,0.00062571517972893,-0.00062571469806739,0.00062571056337099,-0.00064065213981726,0.00064064972700113,-0.00064065480377494,0.00064064701713729,0.73335806756355,125803,2834,0.0038934971391159,0.0038934971559948,0.0023623682990008,39.157225761962,7.3257806095695e-05,7.3257806095695e-05,7.3257806095695e-05,3836954.5947723,0.010201176578234
7219200,0.58968207688879,0.010464378923377,0.0039108777619382,0.0039108777773031,0.0026426233841356,-0.00098154324635659,0.00098154446699339,2.0352929422565e-09,-8.2549122978016e-10,-6.3376851552453e-09,7.7134118402983e-09,-0.0010193255749235,0.0010193231070852,-0.0010193265193138,0.0010193221457934,-0.0010193210382094,0.001019327784967,-0.0010193219969218,0.0010193268375535,-0.00089108775006554,0.00089109646051758,-0.00089109056062582,0.00089109366220712,6.3440719485156e-09,-7.7111277591334e-09,-7.6501580255702e-09,6.4371747761171e-09,-0.0009815444706624,0.00098154325104042,-0.001019324986241,0.0010193237749399,-0.001019320414378,0.0010193284659666,-0.0010193295176296,0.0010193190894473,-0.0010193249452854,0.0010193237795597,-0.00089110190018555,0.00089108214055888,-0.00089108821574785,0.00089109613983904,-0.00099055193862689,0.00099056919491606,-0.00099056568000315,0.00099055512822618,-1.6800895419255e-09,1.1874948386419e-09,-0.00058953413922613,0.00058953362429527,6.6141951280059e-09,-7.3516660251925e-09,-0.00065256902964744,0.00065257226066698,-0.00065257366139003,0.00065256760095143,-0.00065256808853381,0.00065257323031883,-0.00065257272023376,0.0006525685702181,-0.00066631957533529,0.00066631722734292,-0.00066632236055633,0.00066631439526352,0.70718848004825,125803,2834,0.004080958250666,0.0040809582679822,0.0024547650907857,40.242127897767,8.1937023182139e-05,8.1937023182139e-05,8.1937023182139e-05,3900549.907982,0.010673393877708
7419200,0.61658106546804,0.010880082738525,0.0040741518226959,0.0040741518381545,0.0027317790776751,-0.0010239101559499,0.0010239113574442,2.0830482266301e-09,-8.9774898482593e-10,-6.3264938285445e-09,7.6945872761111e-09,-0.0010645457029775,0.0010645432618044,-0.0010645466869318,0.001064542260737,-0.0010645411748586,0.0010645479299537,-0.0010645421730903,0.0010645469429576,-0.00092805909735156,0.00092806788132017,-0.00092806202792226,0.00092806496769812,6.3394496211951e-09,-7.6862913010475e-09,-7.6060672974753e-09,6.4131807926334e-09,-0.0010239113611433,0.0010239101622331,-0.0010645451046499,0.0010645439278793,-0.0010645405548886,0.001064548596161,-0.0010645496279363,0.0010645392524469,-0.0010645450774074,0.0010645439197658,-0.00092807322564474,0.00092805356147754,-0.0009280596063403,0.0009280674924441,-0.0010324642315148,0.0010324814550594,-0.0010324779162581,0.001032467390539,-1.7437260395053e-09,1.2520398942465e-09,-0.00060957740693669,0.00060957689401817,6.5802731105631e-09,-7.3146070318561e-09,-0.0006773601676693,0.00067736333510912,-0.00067736477586156,0.00067735869817781,-0.00067735918533545,0.00067736434830001,-0.000677363792909,0.00067735971104002,-0.00068922301109225,0.00068922081259605,-0.00068922591066163,0.00068921784172762,0.68501443739677,125803,2834,0.0042566913693255,0.0042566913900314,0.0025382455557662,40.770489252833,8.6163914022666e-05,8.6163914022666e-05,8.6163914022666e-05,3958948.4789104,0.011113103309767
7619200,0.64229884144838,0.011268050576747,0.0042266909971924,0.004226691007184,0.0028146685723704,-0.0010629184530992,0.0010629196554601,2.1447024483712e-09,-9.577769559832e-10,-6.3462100581684e-09,7.7130956059296e-09,-0.0011064587347223,0.0011064563233685,-0.0011064597592758,0.0011064552814411,-0.0011064541936318,0.0011064610041365,-0.0011064552321915,0.0011064599765644,-0.00096226071930737,0.00096226963798227,-0.00096226376710615,0.00096226660419346,6.3574858431715e-09,-7.7057900022246e-09,-7.5026746537288e-09,6.3092941040467e-09,-0.00106291965758,0.0010629184573967,-0.0011064581118625,0.001106457014463,-0.0011064536288889,0.0011064616130081,-0.0011064626482743,0.0011064523262189,-0.0011064581647429,0.0011064569245666,-0.00096227481940999,0.00096225534627472,-0.00096226140152694,0.00096226907251265,-0.0010707572469788,0.0010707744375462,-0.0010707709772026,0.0010707603440799,-1.7999778664425e-09,1.3219510893016e-09,-0.00062743192097975,0.00062743142158054,6.4838850089733e-09,-7.2036153920561e-09,-0.00070018458290157,0.00070018765227917,-0.00070018912216221,0.00070018308408985,-0.00070018355812211,0.00070018870755958,-0.00070018809673214,0.00070018413940801,-0.00070946981509859,0.0007094678227894,-0.00070947283955273,0.00070946473082421,0.67223240946039,125803,2834,0.0044184624474515,0.0044184624607589,0.002612620920762,40.8516690827,8.6813352661602e-05,8.6813352661602e-05,8.6813352661602e-05,3999322.8806354,0.011515551260454
7819200,0.66680176006717,0.011633221036958,0.0043702206258163,0.0043702206347483,0.002892779776393,-0.0010999885151152,0.0010999897195764,2.2084867738039e-09,-1.0186696996634e-09,-6.3506585178592e-09,7.7181477223556e-09,-0.0011463122161239,0.0011463098450295,-0.0011463132823912,0.0011463087619889,-0.0011463076713063,0.0011463145291059,-0.0011463087512838,0.0011463134600555,-0.00099457769483485,0.00099458674284642,-0.00099458086473187,0.00099458358712226,6.3611378591931e-09,-7.7116352473276e-09,-7.4076076009716e-09,6.2121729595108e-09,-0.0010999897217179,0.0010999885192428,-0.0011463115817549,0.0011463105484051,-0.0011463071605776,0.0011463150827882,-0.0011463161222363,0.0011463058572179,-0.0011463117004366,0.0011463103912699,-0.00099459177146727,0.00099457248233486,-0.00099457854049167,0.00099458601891987,-0.0011071281263212,0.0011071452603817,-0.0011071418692191,0.0011071311613713,-1.8538694203067e-09,1.3913763662012e-09,-0.00064389509656172,0.00064389461281241,6.3979578102972e-09,-7.1003003154726e-09,-0.0007217111191583,0.00072171409973928,-0.00072171559563001,0.00072170959435184,-0.00072171005311618,0.00072171519614383,-0.00072171452893721,0.0007217106906733,-0.00072829099311867,0.00072828919988064,-0.00072829414081525,0.00072828598964219,0.66655083471424,125803,2834,0.0045721703216463,0.004572170334638,0.0026812050846189,40.921574463284,8.737259570627e-05,8.737259570627e-05,8.737259570627e-05,4009007.7331249,0.011895982767147
8019200,0.69008353421016,0.011976809492203,0.0045053812005117,0.0045053812092622,0.002966047082429,-0.0011350188032971,0.0011350200077594,2.2705481907819e-09,-1.0805125564949e-09,-6.343918137185e-09,7.7107073023612e-09,-0.0011840558801418,0.001184053554932,-0.0011840569878782,0.0011840524309059,-0.0011840513394627,0.0011840582344867,-0.0011840524606334,0.0011840571241361,-0.001024391197555,0.001024400362706,-0.001024394488802,0.0010243970855598,6.3540467064112e-09,-7.704570715482e-09,-7.3231878588363e-09,6.1278353869419e-09,-0.0011350200098621,0.0011350188072486,-0.0011840552439682,0.0011840542612209,-0.0011840508768143,0.0011840587391305,-0.0011840597805053,0.0011840495747833,-0.0011840554127255,0.0011840540523193,-0.0010244052494466,0.0010243861307751,-0.0010243921818558,0.0010243995003214,-0.0011415130389448,0.001141530102771,-0.0011415267693036,0.0011415160194366,-1.9092132130235e-09,1.4599398254287e-09,-0.00065912845376216,0.00065912798334292,6.322308706682e-09,-7.009571497832e-09,-0.00074182815964109,0.00074183105663425,-0.00074183258105749,0.00074182660667288,-0.00074182705208018,0.000741832194176,-0.00074183147283606,0.00074182774408833,-0.00074601529639072,0.00074601369264858,-0.00074601856577664,0.00074601036179529,0.66097249128921,125803,2834,0.0047173962015801,0.0047173962141217,0.0027446705900745,40.991042369454,8.7928338955636e-05,8.7928338955636e-05,8.7928338955636e-05,4014539.9013491,0.012254203660946
8219200,0.71228862898132,0.012301511556557,0.0046332309011956,0.0046332309099641,0.0030350497453976,-0.001168440897899,0.001168442096672,2.3311311452495e-09,-1.1445144159879e-09,-6.3229748640464e-09,7.6775190313578e-09,-0.0012201445614085,0.0012201422920707,-0.0012201457111416,0.0012201411263672,-0.0012201400379804,0.0012201469536446,-0.0012201412009309,0.0012201458012482,-0.0010525858174531,0.0010525950881246,-0.0010525892290825,0.001052591687396,6.3296279750926e-09,-7.6747926483291e-09,-7.2625586822222e-09,6.0727078238305e-09,-0.0011684420985317,0.0011684409005409,-0.0012201439440655,0.0012201429855645,-0.0012201396138518,0.0012201474247755,-0.0012201484633658,0.0012201383169563,-0.0012201441325204,0.0012201427556364,-0.0010525998577697,0.0010525808767563,-0.0010525869027964,0.0010525941320332,-0.0011743178328921,0.0011743348103018,-0.0011743315236307,0.0011743207937689,-1.9659636306159e-09,1.526185491875e-09,-0.00067359777338869,0.00067359731187341,6.2707607406814e-09,-6.9484542380983e-09,-0.00076082300469544,0.00076082583127244,-0.00076082738868076,0.00076082141924778,-0.00076082185522728,0.00076082700951335,-0.00076082623893298,0.0007608225973821,-0.000762931602061,0.0007629301651627,-0.00076293499613096,0.00076292672039323,0.65549139552438,125803,2834,0.0048559332597834,0.004855933269101,0.0028049550865078,41.181363474455,8.9450907795639e-05,8.9450907795639e-05,8.9450907795639e-05,4024216.182657,0.012595784407334
8419200,0.73346921016684,0.012610361653591,0.0047548640159895,0.0047548640273197,0.003100633610282,-0.0012003095558152,0.0012003107481838,2.3895981317703e-09,-1.2096228374409e-09,-6.2863372651234e-09,7.6348429388478e-09,-0.0012546230534768,0.0012546208446736,-0.0012546242443642,0.0012546196379685,-0.0012546185554774,0.0012546254799953,-0.0012546197594328,0.0012546242864047,-0.0010794444826724,0.001079453840362,-0.0010794480153248,0.0010794503185574,6.2934588025065e-09,-7.6318260605021e-09,-7.2207876141558e-09,6.0371603621726e-09,-0.0012003107504769,0.0012003095588814,-0.0012546224637388,0.0012546215108577,-0.001254618157749,0.00125462592413,-0.0012546269576375,0.0012546168685515,-0.0012546226510441,0.0012546212812776,-0.0010794585129877,0.0010794396396371,-0.0010794456327189,0.0010794528180911,-0.0012056752440577,0.0012056921244386,-0.0012056888556328,0.0012056781848315,-2.0248930939752e-09,1.5914199233314e-09,-0.00068735578336318,0.00068735532829368,6.2366251157973e-09,-6.9066956222747e-09,-0.00077871449470149,0.00077871726110645,-0.00077871885359439,0.0007787128741989,-0.00077871330390369,0.00077871848067939,-0.00077871766249345,0.00077871409365251,-0.0007790850374676,0.00077908375364261,-0.00077908855235118,0.00077908018619305,0.65380935071621,125803,2834,0.0049880111847801,0.0049880111958753,0.0028622789907407,41.430634142814,9.1445073142513e-05,9.1445073142513e-05,9.1445073142513e-05,4033676.4207198,0.012921396047539
8619200,0.75361066640862,0.012903532766012,0.0048703303762936,0.0048703303882853,0.0031628720014328,-0.0012305263896898,0.001230527575659,2.4477578870297e-09,-1.2747527071798e-09,-6.2458290570332e-09,7.5879464316216e-09,-0.0012873653919924,0.0012873632466437,-0.001287366624013,0.0012873619988538,-0.0012873609222106,0.0012873678529338,-0.0012873621671707,0.0012873666181624,-0.0011049998257078,0.0011050092679255,-0.0011050034788967,0.0011050056250093,6.2532610186389e-09,-7.5846212730891e-09,-7.1858087108689e-09,6.0088360451026e-09,-0.0012305275780827,0.0012305263930815,-0.0012873648349018,0.0012873638803605,-0.0012873605487201,0.0012873682723401,-0.0012873693005735,0.0012873592670971,-0.0012873650138132,0.001287363658588,-0.0011050138492225,0.001104995073176,-0.0011050010299877,0.0011050081888553,-0.0012354767250424,0.0012354935050574,-0.0012354902494452,0.001235479650579,-2.0846824213282e-09,1.6559567780395e-09,-0.00070035530214969,0.0007003548518144,6.2082922697673e-09,-6.8727538370999e-09,-0.00079563715430168,0.00079563986316413,-0.00079564149264531,0.00079563549689782,-0.00079563592205369,0.00079564112413587,-0.00079564026005427,0.000795636757792,-0.00079436965917937,0.00079436852246918,-0.00079437329481332,0.00079436483242918,0.65260875416803,125803,2834,0.0051132248636184,0.0051132248756585,0.0029164467369188,41.681408005113,9.3451264040905e-05,9.3451264040905e-05,9.3451264040905e-05,4041243.6062183,0.013230003949176
8819200,0.77270491069248,0.013170810181598,0.0049760362413991,0.0049760362537572,0.0032187376864415,-0.0012586142671299,0.0012586154478404,2.5067163906526e-09,-1.3393000717727e-09,-6.2006948820865e-09,7.5376072994475e-09,-0.0013180346628204,0.0013180325846911,-0.0013180359360111,0.0013180312957877,-0.0013180302239752,0.0013180371592327,-0.0013180315100059,0.0013180358832435,-0.0011286071191885,0.0011286166449849,-0.0011286108933793,0.0011286128809528,6.2084461365851e-09,-7.5339633883875e-09,-7.1571297243564e-09,5.98576335152e-09,-0.0012586154503841,0.0012586142708768,-0.0013180341438022,0.0013180331799924,-0.0013180298736855,0.001318037554605,-0.0013180385785516,0.001318028598496,-0.0013180343078687,0.0013180329726271,-0.0011286211406661,0.0011286024525425,-0.0011286083716552,0.001128615516955,-0.0012628625073889,0.0012628791819183,-0.0012628759370896,0.0012628654206187,-2.1448481810856e-09,1.7198858764612e-09,-0.00071215685395066,0.00071215640738916,6.1852252430851e-09,-6.8451868525667e-09,-0.00081128695810186,0.00081128961246237,-0.00081129127975227,0.00081128526299292,-0.00081128568445685,0.00081129091476054,-0.00081129000574546,0.00081128656520751,-0.00080802790927341,0.00080802691438056,-0.00080803166597881,0.00080802310250422,0.62941992754579,125803,2834,0.0052295996168775,0.0052295996299005,0.0029656306331052,41.932240342245,9.5457922737959e-05,9.5457922737959e-05,9.5457922737959e-05,4057340.9704519,0.013515740263234
9019200,0.79035328343786,0.013417929513348,0.0050736820766412,0.0050736820890656,0.0032705653476412,-0.0012837243197082,0.0012837255014903,2.5667395130462e-09,-1.4038383265851e-09,-6.1625941191563e-09,7.5119156867792e-09,-0.0013455454403517,0.0013455434223039,-0.0013455467545169,0.0013455420928198,-0.0013455410221195,0.0013455479760993,-0.0013455423492394,0.0013455466591167,-0.0011495187828051,0.0011495283951302,-0.0011495226809185,0.0011495245105574,6.1768618124645e-09,-7.5023036493677e-09,-7.1085850160863e-09,5.9369451181262e-09,-0.0012837255044939,0.00128372432569,-0.0013455449412272,0.0013455439894159,-0.0013455407020435,0.0013455483316997,-0.0013455493552907,0.001345539429491,-0.0013455451157028,0.0013455437709284,-0.001149532779595,0.0011495142075524,-0.00114952010364,0.0011495271735436,-0.0012874246852306,0.0012874412647259,-0.0012874380265108,0.0012874275395207,-2.2041926846057e-09,1.7836341147021e-09,-0.0007221362373883,0.00072213579622284,6.1415576467326e-09,-6.7937923395694e-09,-0.00082475137692289,0.00082475396407529,-0.00082475566709977,0.00082474964586883,-0.00082475006308842,0.00082475530796167,-0.00082475435262275,0.00082475098932261,-0.00081981864029425,0.0008198178009513,-0.00081982250549139,0.00081981385555775,0.62977530156462,125803,2834,0.0053336239572389,0.0053336239758569,0.0030072304571938,41.750167820661,9.4001342565291e-05,9.4001342565291e-05,9.4001342565291e-05,4057017.3510391,0.013768825144967
9219200,0.80654995380082,0.013642156720631,0.0051623266581754,0.0051623266672036,0.0033175033952515,-0.0013063212992499,0.0013063224471626,2.6121085111721e-09,-1.4809076255239e-09,-6.1832649515589e-09,7.4907318726361e-09,-0.0013703851274529,0.0013703831183943,-0.0013703864829347,0.001370381747514,-0.0013703807081849,0.0013703876718823,-0.0013703820763371,0.0013703863136128,-0.0011682441086377,0.0011682538163993,-0.001168248125091,0.0011682498103603,6.1941758215335e-09,-7.4838986845473e-09,-7.0490690290885e-09,5.9115104094148e-09,-0.0013063224499695,0.0013063213045825,-0.0013703846045355,0.0013703837135361,-0.001370380392797,0.0013703880270825,-0.0013703890195685,0.001370379153315,-0.0013703848073696,0.0013703834663522,-0.001168258099196,0.0011682396438612,-0.0011682455068989,0.0011682525273534,-0.0013095002970117,0.0013095168814646,-0.0013095136496151,0.0013095031718661,-2.26377296287e-09,1.8488626471623e-09,-0.00073088810172135,0.00073088766556545,6.1015428879005e-09,-6.7488802454252e-09,-0.000836692402181,0.00083669492413527,-0.00083669666418098,0.00083669063429992,-0.00083669104632599,0.0008366963094638,-0.00083669530779944,0.0008366920194383,-0.00083023517784418,0.00083023449497543,-0.00083023917090677,0.00083023043428043,0.62300580299203,125803,2834,0.0054272264007715,0.0054272264176272,0.0030437196577643,41.452424046956,9.161939237565e-05,9.161939237565e-05,9.161939237565e-05,4053277.8049999,0.013995654028479
9419200,0.82140438562126,0.01384546455416,0.005242726753173,0.0052427267624641,0.0033600110385234,-0.001326781351417,0.0013267824846875,2.6671425688606e-09,-1.5494029649794e-09,-6.203782728402e-09,7.4950974467414e-09,-0.001392976812206,0.0013929748210785,-0.0013929782088365,0.0013929734090134,-0.0013929723834297,0.0013929793828626,-0.0013929737927013,0.001392977983335,-0.0011851962763439,0.0011852061007708,-0.0011852004133673,0.0011852019734087,6.2141630629958e-09,-7.4887865329894e-09,-7.0084092906295e-09,5.8849133601497e-09,-0.0013267824872557,0.0013267813561564,-0.0013929762748853,0.0013929754289049,-0.0013929720848046,0.0013929797199678,-0.0013929806997206,0.0013929708607403,-0.0013929765091267,0.0013929751511974,-0.0011852102914448,0.0011851919073161,-0.0011851977644237,0.0011852047240808,-0.0013294648816624,0.0013294814823396,-0.001329478261326,0.0013294677525148,-2.3232883538286e-09,1.9132064888256e-09,-0.00073871514254121,0.00073871471113823,6.0712756451396e-09,-6.7130806137352e-09,-0.00084743914428798,0.00084744160755679,-0.00084744338448536,0.00084743733974928,-0.00084743774687765,0.00084744303398336,-0.00084744198657703,0.0008474387659338,-0.00083955484775686,0.00083955431267023,-0.00083955896442696,0.00083955013331905,0.6162082408968,125803,2834,0.0055119682282282,0.0055119682433563,0.0030763566915646,41.15166121794,8.921328974352e-05,8.921328974352e-05,8.921328974352e-05,4050473.4390516,0.014200652525805
9619200,0.83502306423759,0.014029687136215,0.0053155950074949,0.0053155950167011,0.0033984971120187,-0.0013452994959723,0.0013453006204754,2.7246128130665e-09,-1.6153000294576e-09,-6.2339059000421e-09,7.5155756403231e-09,-0.0014135475070241,0.0014135455312112,-0.0014135489447865,0.0014135440780357,-0.0014135430606789,0.0014135501099279,-0.0014135445109868,0.0014135486692182,-0.00120052760439,0.0012005375588529,-0.0012005318620076,0.0012005333103213,6.2439302788631e-09,-7.5096015928554e-09,-6.9856115411584e-09,5.8707203779028e-09,-0.001345300622958,0.0013452995003959,-0.0014135469581066,0.0014135461498721,-0.0014135427798661,0.0014135504284871,-0.0014135514006996,0.0014135415649478,-0.0014135472219395,0.0014135458429745,-0.0012005416715922,0.0012005233152022,-0.001200529180367,0.0012005360952649,-0.0013474964317888,0.0013475130783733,-0.0013475098630718,0.0013474993016528,-2.3835044008146e-09,1.9769511850866e-09,-0.00074572241736795,0.00074572198945426,6.0552380886145e-09,-6.6929803529691e-09,-0.00085710410392229,0.00085710651721186,-0.00085710833222488,0.00085710226140391,-0.00085710266508924,0.00085710798490525,-0.00085710689291174,0.00085710372886696,-0.00084791218936261,0.00084791179097953,-0.00084791642800235,0.00084790749104437,0.60938040598585,125803,2834,0.0055886598937102,0.0055886599080048,0.0031055781502682,40.850780482144,8.6806243857155e-05,8.6806243857155e-05,8.6806243857155e-05,4048217.3547885,0.014385894417341
9819200,0.8472721824984,0.014196287802792,0.0053813712083977,0.0053813712175939,0.0034335453768007,-0.0013611433421508,0.0013611444656995,2.7843748520831e-09,-1.6787533510022e-09,-6.2780201343825e-09,7.5642058155282e-09,-0.0014312672491411,0.0014312652812252,-0.0014312687278124,0.0014312637876361,-0.0014312627717599,0.0014312698908317,-0.0014312642638854,0.0014312684089266,-0.001213532330583,0.0012135424305327,-0.0012135367099467,0.0012135380602565,6.2894241251161e-09,-7.5543894234303e-09,-6.9560353692294e-09,5.8420167430824e-09,-0.0013611444685642,0.0013611433472627,-0.0014312666768472,0.0014312659197471,-0.0014312625180811,0.0014312701792092,-0.0014312711487595,0.0014312613044436,-0.0014312669906348,0.001431265562788,-0.0012135464505872,0.0012135281244733,-0.001213534015849,0.0012135408438542,-0.0013629555043661,0.0013629722223996,-0.0013629690125094,0.0013629583418458,-2.4437366673986e-09,2.0407052941776e-09,-0.00075135076666347,0.00075135034290169,6.0301922023263e-09,-6.6624889127618e-09,-0.00086503224498659,0.00086503460284914,-0.00086503645463864,0.00086503036565039,-0.00086503076522557,0.00086503611227648,-0.00086503497451521,0.00086503187350771,-0.00085477440874888,0.00085477415206781,-0.00085477876186294,0.0008547697252626,0.61213711149093,125803,2834,0.0056542703749998,0.0056542703915213,0.0031290580139502,40.184776765465,8.1478214123723e-05,8.1478214123723e-05,8.1478214123723e-05,4037911.7116694,0.014542856861001
10019200,0.85828095396124,0.014347092063346,0.0054407834092431,0.0054407834172857,0.0034655252368176,-0.001375133874746,0.0013751349980694,2.8466325706231e-09,-1.7399407112997e-09,-6.321373291091e-09,7.6037423012451e-09,-0.0014469539419561,0.0014469519883504,-0.0014469554621407,0.0014469504532203,-0.001446949437062,0.0014469566258835,-0.001446950969893,0.0014469551027639,-0.0012251275169771,0.0012251377681754,-0.0012251320162241,0.0012251332773034,6.3316891373019e-09,-7.5966732294418e-09,-6.9382485056818e-09,5.8246140047039e-09,-0.0013751350006586,0.0013751338792864,-0.0014469533584969,0.0014469526408742,-0.0014469492111076,0.0014469568881666,-0.0014469578589774,0.0014469479974953,-0.0014469537115198,0.0014469522440946,-0.0012251417129226,0.0012251233916915,-0.0012251293128359,0.0012251360785562,-0.0013766747358236,0.0013766915240112,-0.0013766883352685,0.0013766775716702,-2.5035673114581e-09,2.1045407022262e-09,-0.00075628510465807,0.00075628468442416,6.0141034178589e-09,-6.6428382588097e-09,-0.00087198053276429,0.00087198284081463,-0.00087198473080838,0.00087197861524575,-0.00087197901161288,0.00087198439117644,-0.00087198320918175,0.00087198016484656,-0.00086085905788326,0.00086085893909359,-0.00086086353596422,0.00086085439499466,0.61574676996409,125803,2834,0.0057122019522548,0.0057122019670148,0.0031496449655068,39.48065138531,7.5845211082481e-05,7.5845211082481e-05,7.5845211082481e-05,4025368.4206243,0.014681322303011
10219200,0.86818863902246,0.0144839670517,0.0054945925296293,0.0054945925377234,0.0034947819843477,-0.0013875758667589,0.0013875769913061,2.9092929559796e-09,-1.8006030732827e-09,-6.3550526679739e-09,7.6381198262706e-09,-0.0014609050051738,0.0014609030712831,-0.0014609065664426,0.0014609014950761,-0.0014609004778344,0.0014609077316315,-0.0014609020516421,0.00146090616741,-0.0012354226488513,0.0012354330458281,-0.0012354272688222,0.0012354284339789,6.3649464230794e-09,-7.6315664708935e-09,-6.92980170319e-09,5.8149317788e-09,-0.0013875769936274,0.0013875758708512,-0.0014609044182909,0.0014609037277286,-0.0014609002762947,0.0014609079689661,-0.0014609089414831,0.0014608990616925,-0.0014609047993069,0.0014609033022074,-0.0012354369218867,0.0012354185949758,-0.001235424539223,0.0012354312638245,-0.0013889332028525,0.0013889500505292,-0.0013889468714629,0.0013889360334354,-2.5643285920278e-09,2.1676502349203e-09,-0.00076069404279442,0.00076069362478996,6.0065665244845e-09,-6.6327628503831e-09,-0.00087814324827824,0.00087814551124679,-0.00087814744048767,0.00087814129147217,-0.00087814168569194,0.00087814710288989,-0.00087814587744437,0.00087814288246578,-0.00086633786935117,0.00086633787994804,-0.00086634246984201,0.00086633321567498,0.62007022879687,125803,2834,0.0057637178561478,0.0057637178694214,0.0031680416819335,38.775455984027,7.0203647872213e-05,7.0203647872213e-05,7.0203647872213e-05,4011777.3892097,0.01480456022318
10419200,0.87713305743407,0.014608727868958,0.0055435348563403,0.0055435348644335,0.0035216581481843,-0.0013987504422599,0.0013987515672405,2.971498443527e-09,-1.8615800107144e-09,-6.3773892926641e-09,7.6593174766969e-09,-0.0014734041847945,0.00147340227846,-0.0014734057871955,0.0014734006611093,-0.0014733996432391,0.0014734069534104,-0.0014734012581518,0.0014734053480249,-0.001244665873388,0.0012446764079615,-0.001244670613819,0.0012446716749239,6.386134663852e-09,-7.6537159263614e-09,-6.9315204319592e-09,5.8160523753716e-09,-0.0013987515693916,0.0013987504457602,-0.0014734036066015,0.001473402928297,-0.0014733994630048,0.0014734071704902,-0.0014734081439613,0.0014733982476402,-0.0014734040001603,0.0014734024890936,-0.0012446802252192,0.0012446618808092,-0.0012446678398211,0.001244674552555,-0.0013999977525112,0.0014000146430025,-0.001400011467762,0.0014000005869762,-2.625577958524e-09,2.230293550063e-09,-0.00076469595240804,0.00076469553559763,6.0088166232547e-09,-6.633841522311e-09,-0.00088368914050801,0.00088369136437724,-0.00088369333380383,0.0008836871434722,-0.00088368753650558,0.00088369299733211,-0.00088369172941791,0.00088368877578883,-0.00087135988668286,0.00087136001871598,-0.00087136460960315,0.00087135523475143,0.62506142710917,125803,2834,0.0058099831044234,0.0058099831161166,0.0031847413732476,38.100381704424,6.4803053635392e-05,6.4803053635392e-05,6.4803053635392e-05,3997027.7278768,0.014915430599051
10619200,0.88548262471424,0.014723028998952,0.0055884252638413,0.0055884252721731,0.0035461784629373,-0.0014101531146454,0.0014101542326525,3.0315456677137e-09,-1.9235964102148e-09,-6.3696468806013e-09,7.6333852010866e-09,-0.0014860563445729,0.0014860544865913,-0.001486057987875,0.0014860528276914,-0.0014860518140442,0.0014860591500407,-0.0014860534700038,0.001486057503274,-0.0012542116035738,0.001254222252766,-0.0012542164614818,0.001254217397862,6.371249979863e-09,-7.6330054564415e-09,-6.9701777699975e-09,5.8611290710595e-09,-0.0014101542338599,0.001410153115304,-0.0014860558115632,0.0014860550983687,-0.0014860516405973,0.0014860593684183,-0.001486060337406,0.0014860504292738,-0.0014860561663285,0.0014860546986968,-0.001254226051607,0.0012542076437733,-0.0012542135859345,0.0012542203993042,-0.0014112425650165,0.0014112594545054,-0.0014112562698845,0.0014112454570219,-2.6885802642058e-09,2.2921885162143e-09,-0.0007693414379004,0.00076934101879562,6.0485367883567e-09,-6.6776753437353e-09,-0.00088984484753348,0.00088984705490242,-0.00088984906846151,0.00088984280655936,-0.00088984320090388,0.0008898487291728,-0.0008898474219721,0.00088984448030979,-0.00087696185745157,0.00087696208298192,-0.00087696671147267,0.00087695718768231,0.6139511244972,125803,2834,0.0058571906435728,0.0058571906474168,0.0032041141834262,38.029577395785,6.4236619166281e-05,6.4236619166281e-05,6.4236619166281e-05,3992887.3981937,0.015030939599803
10819200,0.89327935637665,0.014827912662582,0.0056296695086989,0.0056296695187569,0.0035685736351265,-0.0014206988996194,0.001420700013907,3.0902886375093e-09,-1.989132522308e-09,-6.3429857059054e-09,7.6112822583163e-09,-0.0014978065973782,0.0014978047900206,-0.0014978082815491,0.0014978030902141,-0.0014978020825605,0.0014978094375154,-0.0014978037794095,0.0014978077498625,-0.0012629913073301,0.0012630020493555,-0.0012629962886089,0.0012629970745481,6.3501638172661e-09,-7.6070847661602e-09,-7.0130801502276e-09,5.9076212466415e-09,-0.0014207000159238,0.001420698902247,-0.0014978061056286,0.0014978053524606,-0.0014978019050253,0.0014978096525611,-0.0014978106165273,0.0014978006996852,-0.0014978064156573,0.0014978049990057,-0.001263005832457,0.0012629873557671,-0.0012629932781008,0.0012630001984725,-0.0014215895664819,0.0014216064436803,-0.0014216032063759,0.0014215924752382,-2.7518573279592e-09,2.3519232218894e-09,-0.00077361361073583,0.00077361318880073,6.0925264772151e-09,-6.7236894102853e-09,-0.00089552763221144,0.00089552982624435,-0.00089553188337178,0.00089552554753996,-0.00089552594514993,0.00089553154152455,-0.00089553019610128,0.00089552726228003,-0.00088209304181065,0.0008820933537818,-0.00088209801076503,0.00088208833103614,0.60386753837969,125803,2834,0.0059008483870165,0.0059008483966185,0.0032219308065098,37.973721217948,6.3789769743585e-05,6.3789769743585e-05,6.3789769743585e-05,3992803.8582356,0.015137674572527
11019200,0.90055660619862,0.014923961400978,0.0056674917066565,0.0056674917166455,0.0035889779776761,-0.0014304129659006,0.0014304140741152,3.1484230933063e-09,-2.0543741682793e-09,-6.3205574838369e-09,7.5832088284697e-09,-0.001508669730138,0.0015086679745724,-0.0015086714553967,0.001508666233541,-0.0015086652317727,0.0015086726052921,-0.0015086669697296,0.0015086708764605,-0.0012710386764789,0.00127104951481,-0.0012710437787036,0.0012710444192144,6.3282777697522e-09,-7.5785381061593e-09,-7.0534956465858e-09,5.954392951844e-09,-0.0014304140765307,0.0014304129691933,-0.0015086692843043,0.0015086684918747,-0.0015086650548858,0.0015086728210541,-0.0015086737783742,0.0015086638554463,-0.0015086695487453,0.0015086681839278,-0.001271053279232,0.0012710347399504,-0.0012710406399187,0.0012710476686495,-0.0014310751595868,0.0014310920224077,-0.0014310887476088,0.0014310781017926,-2.8151622147493e-09,2.4122729063362e-09,-0.00077749650444223,0.00077749607946926,6.1344741021851e-09,-6.7690954191647e-09,-0.00090072156205783,0.0009007237410256,-0.00090072584239337,0.0009007194332373,-0.0009007198338871,0.00090072549766946,-0.00090072411394956,0.00090072118932414,-0.00088674311174813,0.00088674351249822,-0.0008867481997247,0.00088673836696185,0.59320719762846,125803,2834,0.0059410612361522,0.0059410612479598,0.0032381243925016,37.918441690749,6.3347533525994e-05,6.3347533525994e-05,6.3347533525994e-05,3995179.1178255,0.015235777728169
11219200,0.90733695469765,0.015013386700586,0.0057026786771412,0.0057026786871514,0.0036080293362937,-0.0014393588439489,0.0014393599464694,3.2066781670067e-09,-2.1191041480582e-09,-6.2995989379884e-09,7.558196475227e-09,-0.0015186876538721,0.0015186859479071,-0.0015186894197824,0.0015186841659348,-0.0015186831703954,0.001518690563429,-0.0015186849490979,0.0015186887937131,-0.001278443688295,0.0012784546241968,-0.001278448911385,0.0012784494082907,6.3084684222083e-09,-7.5520978840116e-09,-7.0892837530701e-09,5.9962535445555e-09,-0.001439359949142,0.001439358848162,-0.0015186872492026,0.00151868642211,-0.001518682994032,0.0015186907772022,-0.0015186917281211,0.001518681801058,-0.0015186874728678,0.0015186861555421,-0.0012784583665057,0.0012784397721739,-0.0012784456513091,0.0012784527771069,-0.0014398298222864,0.0014398466714608,-0.0014398433603892,0.001439832792523,-2.8786859215824e-09,2.4728463601235e-09,-0.00078104673233242,0.00078104630447919,6.1717209229288e-09,-6.809422847831e-09,-0.00090545482307187,0.00090545698377999,-0.00090545912932246,0.00090545265010736,-0.0009054530535928,0.0009054587818711,-0.00090545735956379,0.0009054544476583,-0.00089101620813111,0.00089101670112024,-0.00089102141627353,0.00089101143291665,0.59263236288155,125803,2834,0.0059780928418435,0.0059780928560873,0.0032529304027073,37.837666296813,6.2701330374502e-05,6.2701330374502e-05,6.2701330374502e-05,3997890.2608336,0.015326020211412
11419200,0.91361065772084,0.015096712033746,0.0057354148687169,0.0057354148785054,0.0036258822865238,-0.0014473808401295,0.0014473819374162,3.2705945001125e-09,-2.1895763611216e-09,-6.2836232020362e-09,7.5389802737982e-09,-0.0015276875120321,0.0015276858562548,-0.0015276893221228,0.0015276840295958,-0.0015276830401207,0.0015276904598122,-0.0015276848627906,0.0015276886459338,-0.0012850703947393,0.0012850814406361,-0.0012850757464071,0.0012850760978465,6.2992666598452e-09,-7.5376459447851e-09,-7.1113734636721e-09,6.0232150885496e-09,-0.0014473819407116,0.0014473808447626,-0.001527687141049,0.0015276862950084,-0.0015276828694125,0.0015276906660636,-0.0015276916123244,0.0015276816812649,-0.0015276873406971,0.0015276860525414,-0.0012850851434547,0.0012850665132215,-0.0012850723797049,0.0012850795697239,-0.0014477072197756,0.001447724066421,-0.0014477207274129,0.0014477102045043,-2.9365569586772e-09,2.5277565926536e-09,-0.00078412637366201,0.00078412594322563,6.1987486303079e-09,-6.8393154231995e-09,-0.00090959735472155,0.00090959949444544,-0.00090960168018327,0.00090959514165284,-0.00090959554769221,0.00090960133041721,-0.00090959987232992,0.00090959697733275,-0.00089478422612395,0.00089478481203101,-0.00089478954409739,0.00089477942567342,0.59626238130756,125803,2834,0.0060112985283756,0.0060112985447797,0.0032657766597733,37.630727955079,6.1045823640634e-05,6.1045823640634e-05,6.1045823640634e-05,3996615.7549476,0.01540650945636
11619200,0.91941582271765,0.015174197560945,0.0057658182631451,0.0057658182725418,0.0036425610252581,-0.0014547719147312,0.0014547730066386,3.3256388000763e-09,-2.2489014267228e-09,-6.2794374141444e-09,7.5260578024532e-09,-0.0015359682462075,0.0015359666304295,-0.0015359700951138,0.0015359647652347,-0.0015359637797707,0.0015359712283844,-0.0015359656412899,0.0015359693754712,-0.0012911946033247,0.0012912057550034,-0.001291200069088,0.0012912002964323,6.2888697522871e-09,-7.5216947606351e-09,-7.1291196063114e-09,6.0465780007643e-09,-0.0014547730094358,0.0014547719187034,-0.0015359679048342,0.0015359670417015,-0.0015359636202668,0.0015359714270474,-0.0015359723677902,0.0015359624369402,-0.0015359680827075,0.00153596682145,-0.0012912094187016,0.0012911907628938,-0.0012911966163085,0.001291203858618,-0.0014549871240974,0.0014550039647324,-0.0014550006143834,0.0014549901369538,-3.0028056417163e-09,2.5939374868433e-09,-0.00078696728063046,0.00078696684949435,6.2156992112918e-09,-6.8575358623625e-09,-0.00091341390858443,0.00091341601548298,-0.00091341824594141,0.00091341165121084,-0.00091341205776933,0.00091341789518221,-0.00091341639426479,0.00091341352996355,-0.00089828419136193,0.00089828489116405,-0.00089828964002274,0.00089827938273391,0.59873359080042,125803,2834,0.0060418913002926,0.0060418913142962,0.0032776280652641,37.420662855326,5.9365302842606e-05,5.9365302842606e-05,5.9365302842606e-05,3992869.5693976,0.015480686908235
11819200,0.92478880764909,0.015246403300606,0.0057941106059532,0.0057941106154162,0.0036581820792367,-0.0014615945762967,0.0014615956636479,3.3850869670932e-09,-2.3124529479145e-09,-6.2736628249659e-09,7.5152014169318e-09,-0.0015435989807366,0.0015435974069767,-0.0015436008705662,0.0015435955005644,-0.0015435945195356,0.0015436019993342,-0.0015435964220937,0.0015436001053358,-0.0012968706149076,0.0012968818778964,-0.0012968762013189,0.001296876298107,6.2828534392578e-09,-7.5110741806877e-09,-7.1410722926461e-09,6.0628323683939e-09,-0.0014615956662847,0.0014615945799066,-0.0015435986650869,0.0015435977915568,-0.0015435943712353,0.0015436021862832,-0.0015436031228718,0.001543593192394,-0.0015435988286214,0.0015435975864178,-0.0012968854956534,0.0012968668217766,-0.0012968726656004,0.0012968799448042,-0.0014617296131584,0.0014617464510871,-0.0014617430882528,0.0014617326411552,-3.0652196190929e-09,2.6553716896882e-09,-0.00078959850055952,0.00078959806831346,6.2291500694526e-09,-6.8723132401821e-09,-0.00091694161148951,0.00091694368528246,-0.00091694595809578,0.00091693931158649,-0.0009169397190851,0.00091694560622725,-0.0009169440651298,0.00091694123188017,-0.00090154395829142,0.00090154476880192,-0.00090154952860624,0.00090153913990232,0.60218092207329,125803,2834,0.0060701301629751,0.0060701301758949,0.0032886055842677,37.210477133743,5.7683817069944e-05,5.7683817069944e-05,5.7683817069944e-05,3987425.4486601,0.015549200126309
12019200,0.92977059243546,0.015315466411428,0.0058210649615739,0.005821064971063,0.0036733364787907,-0.0014680385812009,0.0014680396637959,3.4447307956623e-09,-2.3760332064636e-09,-6.2707539684177e-09,7.505032367707e-09,-0.0015507497609349,0.0015507482288165,-0.0015507516919114,0.001550746281014,-0.0015507453038941,0.0015507528167345,-0.0015507472476224,0.0015507508814146,-0.0013023045288951,0.0013023159058474,-0.0013023102354328,0.0013023102046104,6.2784988005243e-09,-7.5023211858862e-09,-7.1485860624505e-09,6.0747916474468e-09,-0.0014680396661166,0.0014680385838267,-0.0015507494702268,0.0015507485899547,-0.001550745170081,0.0015507529911912,-0.0015507539239028,0.001550743995051,-0.0015507496233314,0.001550748395603,-0.0013023194721357,0.0013023007879743,-0.00130230662324,0.0013023139304041,-0.0014681748289657,0.0014681916647111,-0.0014681882961794,0.0014681778727018,-3.1271902921037e-09,2.7170661021427e-09,-0.0007921624569985,0.00079216202413624,6.2384450274907e-09,-6.8827183815437e-09,-0.00092031282823351,0.00092031486661835,-0.00092031718136289,0.00092031048646171,-0.00092031089434582,0.00092031682872856,-0.00092031524704408,0.00092031244800614,-0.0009047577457521,0.00090475867048063,-0.00090476343820626,0.00090475292230059,0.61929850221011,125803,2834,0.0060968009523212,0.0060968009625508,0.0032993016964173,37.028093929822,5.6224751438578e-05,5.6224751438578e-05,5.6224751438578e-05,3979504.0610114,0.01561424520981
12219200,0.93440757116794,0.015381888628253,0.0058468921852623,0.0058468921949847,0.0036881042480057,-0.0014742723543082,0.001474273432538,3.5038135854883e-09,-2.4384717573028e-09,-6.2684906747363e-09,7.4955149825154e-09,-0.0015575861788387,0.0015575846877473,-0.0015575881503435,0.0015575826991194,-0.0015575817255551,0.0015575892717023,-0.0015575837098364,0.0015575872956287,-0.0013076587028582,0.0013076701936456,-0.0013076645280088,0.0013076643721923,6.2737841684943e-09,-7.4933675822383e-09,-7.1539406531151e-09,6.0844862062038e-09,-0.0014742734344262,0.0014742723560627,-0.0015575859124126,0.0015575850264802,-0.0015575816073816,0.001557589432702,-0.0015575903617692,0.0015575804360421,-0.001557586056338,0.0015575848416525,-0.0013076737066831,0.0013076550167093,-0.0013076608432804,0.0013076681739263,-0.0014744804498603,0.0014744972810594,-0.0014744939091941,0.0014744835079281,-3.1899021943997e-09,2.7797220930746e-09,-0.0007947533484099,0.00079475291512612,6.2449531127724e-09,-6.890170200166e-09,-0.0009236757311837,0.00092367773184153,-0.00092368008892534,0.00092367334715312,-0.00092367375520499,0.00092367973568473,-0.00092367811270166,0.0009236753505578,-0.00090801855769684,0.00090801960009066,-0.00090802437419197,0.00090801373173278,0.63789980933524,125803,2834,0.0061226001792727,0.0061226001868048,0.0033101104502996,36.914381481455,5.5315051851642e-05,5.5315051851642e-05,5.5315051851642e-05,3966809.1197849,0.015677637139351
12419200,0.93872410508573,0.015441701531792,0.0058702295283093,0.0058702295384364,0.0037012424650464,-0.0014800097293647,0.0014800108056616,3.5644180366522e-09,-2.502228729924e-09,-6.263562681636e-09,7.4919247497239e-09,-0.0015638878765187,0.0015638864262406,-0.0015638898892737,0.0015638843964156,-0.0015638834257776,0.0015638910074591,-0.0015638854513501,0.00156388899017,-0.0013125583268871,0.0013125699314495,-0.0013125642745115,0.0013125639892683,6.271557081295e-09,-7.4884679382565e-09,-7.1551859825718e-09,6.0878636467533e-09,-0.0014800108082199,0.0014800097325554,-0.0015638876296549,0.001563886742732,-0.0015638833229864,0.0015638911505778,-0.0015638920767764,0.0015638821547284,-0.0015638877697319,0.0015638865619268,-0.0013125733873309,0.0013125546970929,-0.0013125605191923,0.0013125678589013,-0.0014802129583541,0.0014802297867614,-0.0014802264034461,0.0014802160141382,-3.2514362934804e-09,2.8408368526489e-09,-0.00079706610736221,0.00079706567400924,6.2479109419955e-09,-6.892747989545e-09,-0.00092679207043636,0.00092679403224651,-0.00092679643009636,0.00092678964555185,-0.00092679005385941,0.0009267960769917,-0.00092679441311746,0.0009267916897833,-0.00091090178086158,0.00091090294103048,-0.00091090771587281,0.00091089695014778,0.61826606292265,125803,2834,0.0061463427781007,0.0061463427899912,0.0033197641255022,36.802374339532,5.4418994716258e-05,5.4418994716258e-05,5.4418994716258e-05,3951611.002317,0.01573568274206
12619200,0.94274253596507,0.015494401323852,0.0058909054159639,0.0058909054261391,0.0037125904817494,-0.0014851625895871,0.0014851636633762,3.6246463199548e-09,-2.5652449829384e-09,-6.2625950349617e-09,7.4888803985503e-09,-0.0015696225785743,0.0015696211679661,-0.0015696246323525,0.0015696190970986,-0.001569618128996,0.0015696257478927,-0.0015696201955946,0.0015696236895546,-0.001316855729336,0.0013168674502108,-0.0013168617979151,0.0013168613873979,6.2708939123779e-09,-7.4851224697187e-09,-7.1527937267856e-09,6.0880065594058e-09,-0.0014851636660215,0.0014851625929554,-0.0015696223503041,0.0015696214654469,-0.0015696180443331,0.0015696258725677,-0.0015696267962149,0.0015696168787456,-0.0015696224898714,0.0015696212852124,-0.0013168708446946,0.0013168521604261,-0.0013168579787709,0.0013168653200449,-0.0014852611602341,0.0014852779864726,-0.0014852746002592,0.0014852642169013,-3.3132140809645e-09,2.9027361835786e-09,-0.00079907906101571,0.00079907862782632,6.2470081883203e-09,-6.8915917567697e-09,-0.00092955000371706,0.000929551923764,-0.00092955436271384,0.00092954753774891,-0.00092954794593584,0.00092955400978977,-0.0009295523044986,0.00092954962323732,-0.00091338366820003,0.0009133849501141,-0.00091338972375668,0.00091337883765159,0.58731201997526,125803,2834,0.0061676661862222,0.0061676661986598,0.003328166788607,36.690432957755,5.3523463662044e-05,5.3523463662044e-05,5.3523463662044e-05,3944671.6347645,0.015787546437259
12819200,0.94644986930234,0.015543416000695,0.0059101025730183,0.0059101025832042,0.003723210844472,-0.0014895155995459,0.0014895166748061,3.6841209915149e-09,-2.6260884236248e-09,-6.2654741390659e-09,7.5009209221911e-09,-0.0015745334302935,0.0015745320529105,-0.0015745355236938,0.0015745299428885,-0.0015745289755694,0.0015745366383164,-0.0015745310817265,0.0015745345405236,-0.0013204093691861,0.0013204212064755,-0.0013204155575317,0.0013204150271752,6.277257755555e-09,-7.4913391805008e-09,-7.1400255066413e-09,6.074634236524e-09,-0.0014895166783785,0.0014895156058958,-0.001574533208698,0.0015745323375074,-0.00157452891106,0.0015745367362093,-0.0015745376589366,0.0015745277471629,-0.0015745333608063,0.0015745321448552,-0.0013204245314172,0.0013204058673218,-0.0013204116897205,0.0013204189996562,-0.0014895343013505,0.001489551130174,-0.0014895477357683,0.0014895373315628,-3.376274166178e-09,2.9664154520736e-09,-0.00080065787349263,0.00080065744172734,6.2342529581493e-09,-6.8759971047473e-09,-0.00093170268871743,0.00093170455855015,-0.00093170703831991,0.00093170018172954,-0.00093170058918064,0.00093170668716664,-0.00093170493816177,0.00093170230971402,-0.00091540280949411,0.00091540422429507,-0.00091540898469937,0.00091539798256721,0.59134553322985,125803,2834,0.006185680342826,0.0061856803633484,0.0033347575190291,36.407117013337,5.1256936106697e-05,5.1256936106697e-05,5.1256936106697e-05,3943071.4531618,0.015830846925754
13019200,0.94982739411048,0.015588225329926,0.0059276341043888,0.0059276341140752,0.0037329571114625,-0.0014929463180665,0.0014929473984063,3.7417486708524e-09,-2.6826238411537e-09,-6.2760518973344e-09,7.5273949764858e-09,-0.0015784627241571,0.001578461372428,-0.001578464856671,0.0015784592277981,-0.0015784582566868,0.001578465972045,-0.0015784604006147,0.0015784638370795,-0.0013231445952129,0.0013231565483225,-0.0013231508994128,0.0013231502606371,6.2899611470634e-09,-7.5080154730888e-09,-7.1165967929038e-09,6.0464876265785e-09,-0.0014929474041092,0.0014929463292085,-0.0015784624978582,0.0015784616513076,-0.0015784582194823,0.0015784660368922,-0.0015784669592593,0.0015784570547177,-0.0015784626760816,0.0015784614337596,-0.0013231598007477,0.00132314116913,-0.0013231470062919,0.0013231542478356,-0.0014929025838786,0.0014929194156546,-0.0014929160167998,0.0014929055639685,-3.4401057189862e-09,3.0355445165222e-09,-0.00080163921988554,0.0008016387936714,6.2093537302521e-09,-6.8423320206456e-09,-0.00093317604437466,0.00093317785430379,-0.00093318037391926,0.00093317349705293,-0.00093317390115152,0.0009331800283577,-0.00093317822968388,0.00093317566961255,-0.00091675896045032,0.00091676052568922,-0.00091676526273659,0.00091675415109597,0.59302696384724,125803,2834,0.0061998768210538,0.0061998768558868,0.0033388620995511,35.874613294405,4.6996906355241e-05,4.6996906355241e-05,4.6996906355241e-05,3935727.0036934,0.015863866266623
13219200,0.95290797355798,0.015629272198744,0.0059436734264017,0.0059436734350059,0.0037419253373367,-0.0014959731249726,0.0014959742007688,3.8091273464801e-09,-2.7501152785719e-09,-6.2971622763091e-09,7.5305721895418e-09,-0.0015819322441335,0.0015819309312057,-0.0015819344210148,0.001581928738448,-0.0015819277691254,0.0015819355370748,-0.0015819299584644,0.0015819333562265,-0.0013255540805631,0.0013255661841764,-0.0013255605122393,0.0013255597599544,6.308328231491e-09,-7.5235729151854e-09,-7.0843249867528e-09,6.0182777596647e-09,-0.0014959742039813,0.0014959731303794,-0.0015819320280045,0.001581931213666,-0.0015819277674948,0.0015819355753168,-0.0015819364990445,0.0015819266019418,-0.0015819322375264,0.0015819309620456,-0.0013255693310739,0.0013255507552704,-0.0013255565989941,0.0013255637768814,-0.0014958846696477,0.0014959015228867,-0.0014958981723591,0.0014958876678032,-3.4961122068543e-09,3.0912205532752e-09,-0.00080245810520923,0.00080245767792853,6.1817127970901e-09,-6.8184630983221e-09,-0.00093443400690355,0.00093443576208399,-0.00093443831932107,0.00093443142202992,-0.00093443182518394,0.00093443797272392,-0.00093443613777259,0.00093443363270796,-0.00091792201341713,0.0009179237104501,-0.00091792842812246,0.00091791722875746,0.59512403271121,125803,2834,0.0062124015317469,0.0062124015495672,0.003342289211404,35.335900830982,4.2687206647858e-05,4.2687206647858e-05,4.2687206647858e-05,3927007.7047505,0.015892800979511
13419200,0.95572184939655,0.015666165393274,0.0059581044579338,0.005958104466528,0.003749956468812,-0.0014986153972411,0.0014986164728057,3.8704086587311e-09,-2.8104291066729e-09,-6.3085793519959e-09,7.5399312842161e-09,-0.001584981054285,0.0015849797750331,-0.0015849832715775,0.001584977541521,-0.0015849765723125,0.0015849843878549,-0.0015849788021444,0.0015849821664006,-0.0013276322486712,0.0013276444806713,-0.0013276387986302,0.0013276379372792,6.3179511164008e-09,-7.5333720428166e-09,-7.0581305278817e-09,5.9922463356899e-09,-0.0014986164754576,0.0014986154016978,-0.0015849808433412,0.0015849800524752,-0.0015849765998812,0.0015849843965689,-0.0015849853210108,0.0015849754344992,-0.0015849810767057,0.0015849797772762,-0.0013276475422101,0.0013276290116195,-0.0013276348611757,0.0013276419824525,-0.0014984688712842,0.0014984857260643,-0.0014984823980426,0.0014984718568657,-3.5571641991426e-09,3.1553272190076e-09,-0.00080310847711229,0.00080310805279939,6.1568208923553e-09,-6.7906030752906e-09,-0.00093549283914328,0.00093549453802002,-0.00093549713423518,0.0009354902156359,-0.00093549061575536,0.00093549679019077,-0.00093549491050803,0.00093549246733643,-0.00091886839679972,0.00091887023651024,-0.00091887493653671,0.00091886363589049,0.58608287163046,125803,2834,0.0062233345722378,0.0062233345869327,0.0033450141689045,34.796948982935,3.8375591863478e-05,3.8375591863478e-05,3.8375591863478e-05,3917856.990648,0.015917788976777
13619200,0.95830959385425,0.015699659494548,0.0059712133634944,0.0059712133721039,0.0037572327589496,-0.0015011102706964,0.0015011113435822,3.9323148320105e-09,-2.873031611974e-09,-6.3144312797529e-09,7.5375618990109e-09,-0.001587859125658,0.0015878578862884,-0.0015878613847066,0.0015878556108265,-0.0015878546425571,0.001587862500134,-0.0015878569141004,0.0015878602367522,-0.001329596861654,0.0013296092192821,-0.00132960353184,0.0013296025528888,6.3208877999813e-09,-7.5349537573283e-09,-7.0376504525512e-09,5.973822020371e-09,-0.0015011113454442,0.0015011102727938,-0.0015878589291508,0.001587858153521,-0.0015878546986359,0.0015878624846356,-0.0015878634084757,0.001587853533924,-0.0015878591770092,0.0015878578636828,-0.0013296121994796,0.0013295937079314,-0.0013295995566297,0.0013296066410811,-0.0015009005550991,0.001500917402648,-0.0015009140977972,0.0015009035398691,-3.6169391600316e-09,3.2177272910518e-09,-0.00080379168135707,0.00080379125907311,6.1388059776251e-09,-6.771151746372e-09,-0.00093653540500852,0.00093653705222432,-0.00093653968752091,0.00093653274256466,-0.00093653314036132,0.00093653934507421,-0.00093653742270252,0.00093653503496521,-0.00091982273443172,0.00091982470901908,-0.00091982939651806,0.00091981799282897,0.57889842701005,125803,2834,0.0062336581025674,0.0062336581107501,0.0033478726896845,34.356178123562,3.4849424988494e-05,3.4849424988494e-05,3.4849424988494e-05,3912569.3680408,0.015941674343241
13819200,0.96070364043681,0.015730632327359,0.0059833265336096,0.0059833265424748,0.0037639792512741,-0.0015035080116451,0.0015035090838267,3.9925674745101e-09,-2.9345674393909e-09,-6.3081672875842e-09,7.5332837622345e-09,-0.0015906134252536,0.0015906122277153,-0.0015906157246496,0.0015906099119202,-0.0015906089454848,0.0015906168381498,-0.0015906112574001,0.0015906145344599,-0.0013315038342439,0.0013315163053712,-0.001331510624809,0.0013315095203415,6.3158314662723e-09,-7.5283711664435e-09,-7.0262426657578e-09,5.9633802632198e-09,-0.0015035090860118,0.001503508014885,-0.0015906132454694,0.0015906124749312,-0.0015906090219364,0.0015906167987377,-0.0015906177212526,0.0015906078594925,-0.0015906134968303,0.001590612182006,-0.0013315192167953,0.0013315007513267,-0.0013315065951051,0.0013315136627779,-0.0015032444374871,0.001503261267913,-0.0015032579633947,0.0015032474117837,-3.6790882920112e-09,3.2807208822879e-09,-0.00080452886924152,0.00080452844820324,6.12828965007e-09,-6.7587717208913e-09,-0.00093758715876988,0.00093758875815262,-0.00093759143377774,0.00093758445595725,-0.00093758485264921,0.00093759109260751,-0.00093758912733671,0.00093758678991704,-0.00092081758002437,0.00092081968527987,-0.00092082436439636,0.00092081284578982,0.57842147281271,125803,2834,0.0062435800972612,0.0062435801084739,0.0033509532213174,34.003864616653,3.2030916933224e-05,3.2030916933224e-05,3.2030916933224e-05,3910019.1796267,0.015964969393459
14019200,0.96292078316013,0.015759315488174,0.0059945369520387,0.0059945369609503,0.0037702415751849,-0.0015056770623982,0.0015056781327684,4.0530888708583e-09,-2.9976107362261e-09,-6.2999983115526e-09,7.524525564262e-09,-0.0015931089594133,0.0015931078065203,-0.0015931112999942,0.001593105449607,-0.0015931044851344,0.0015931124113755,-0.0015931068382343,0.0015931100665426,-0.0013332291136042,0.0013332416966691,-0.001333236025537,0.0013332347907823,6.3086197942898e-09,-7.5190244927382e-09,-7.0185460035467e-09,5.957554378498e-09,-0.0015056781351919,0.0015056770661154,-0.0015931088012099,0.0015931080317471,-0.0015931045819606,0.001593112350966,-0.001593113271474,0.0015931034217157,-0.0015931090514242,0.0015931077397059,-0.0013332445411231,0.0013332260961649,-0.0013332319324419,0.001333238994049,-0.0015053668146499,0.0015053836262979,-0.0015053803213067,0.0015053697836918,-3.740325694527e-09,3.3426947797925e-09,-0.00080517795434417,0.00080517753420528,6.1223373072427e-09,-6.7515865219521e-09,-0.00093852249370325,0.00093852404854196,-0.00093852676436252,0.00093851975065839,-0.00093852014661132,0.00093852642412659,-0.00093852441693129,0.00093852212575368,-0.00092170251995548,0.00092170475078404,-0.00092170942344639,0.00092169778917968,0.57820996277482,125803,2834,0.006252555625874,0.0062525556385685,0.0033536662465324,33.653763302609,2.9230106420869e-05,2.9230106420869e-05,2.9230106420869e-05,3906962.1602897,0.015985968032079
14219200,0.96497596775885,0.015784930066412,0.0060045828643484,0.006004582873259,0.0037757643288047,-0.0015075884047283,0.0015075894729127,4.113515214875e-09,-3.0603488642076e-09,-6.2921213870695e-09,7.5143598305241e-09,-0.0015953339528987,0.0015953328448852,-0.001595336334556,0.001595330446915,-0.0015953294844967,0.0015953374437317,-0.001595331878662,0.0015953350578403,-0.0013347206659363,0.0013347333613644,-0.0013347276985351,0.0013347263347741,6.300802663039e-09,-7.5088109483239e-09,-7.0130949855392e-09,5.9543509657829e-09,-0.0015075894753739,0.0015075884085443,-0.0015953338177074,0.0015953330473717,-0.0015953296012103,0.001595337363654,-0.0015953382820268,0.0015953284432388,-0.001595334064771,0.0015953327583442,-0.0013347361411407,0.0013347177128442,-0.0013347235408874,0.0013347306021745,-0.0015072052523962,0.0015072220457231,-0.0015072187412458,0.0015072082208879,-3.8018116870533e-09,3.4048260916942e-09,-0.00080569801151781,0.00080569759204269,6.1184479572508e-09,-6.7469428495484e-09,-0.00093931838142964,0.00093931989286699,-0.00093932264927155,0.00093931559782464,-0.00093931599314153,0.00093932230967713,-0.00093932026064046,0.00093931801414926,-0.00092241414455147,0.00092241649982017,-0.00092242116877999,0.00092240941704842,0.55856305292653,125803,2834,0.0062604644888965,0.0062604645018737,0.0033558417873254,33.303747226957,2.6429977815658e-05,2.6429977815658e-05,2.6429977815658e-05,3904049.4655598,0.016004253712206
14419200,0.96685109671922,0.015808553175158,0.0060138290214082,0.0060138290303221,0.0037808951234272,-0.0015086452799911,0.0015086463546806,4.1647409973743e-09,-3.1116066908456e-09,-6.2858401986026e-09,7.5324248240039e-09,-0.0015966882231201,0.0015966871432074,-0.0015966906401134,0.0015966847164143,-0.0015966837501847,0.0015966917489395,-0.0015966861775333,0.0015966893304874,-0.0013353945606907,0.0013354073453713,-0.0013354017000666,0.0013354002226498,6.2968815501792e-09,-7.5090521572829e-09,-7.0059051502877e-09,5.9412636670173e-09,-0.0015086463604234,0.0015086452915985,-0.0015966880911212,0.0015966873246458,-0.0015966838846016,0.0015966916402285,-0.0015966925567048,0.0015966827274674,-0.0015966883428598,0.0015966870337203,-0.0013354100795284,0.0013353916602311,-0.0013353974926185,0.0013354045235831,-0.0015082040826623,0.0015082208519779,-0.0015082175151667,0.0015082069887487,-3.8712908008933e-09,3.4800527046904e-09,-0.00080561687445642,0.00080561646127679,6.1055737643721e-09,-6.7228896936738e-09,-0.00093939895323724,0.0009394004079525,-0.0009394032081285,0.00093939612526188,-0.00093939651767807,0.00093940287462122,-0.00093940077148101,0.00093939859033425,-0.00092249100253338,0.00092249350926277,-0.00092249816341769,0.00092248628095895,0.56383117668079,125803,2834,0.006264837929748,0.0062648379656151,0.0033555137416049,32.648377453697,2.1187019629579e-05,2.1187019629579e-05,2.1187019629579e-05,3900796.0052675,0.01601281065198
14619200,0.9685489061256,0.015830059090574,0.0060222345255352,0.0060222345338028,0.0037855900312362,-0.0015091571403597,0.0015091582134075,4.2314770412222e-09,-3.1791069060545e-09,-6.2934456039097e-09,7.5341977107257e-09,-0.0015974563508877,0.0015974553138314,-0.0015974588093779,0.0015974528381098,-0.0015974518757555,0.001597459919932,-0.0015974543469652,0.0015974574568516,-0.0013355843357777,0.001335597262506,-0.0013355916034144,0.0013355900025564,6.3081303145372e-09,-7.515454137268e-09,-6.9840280747823e-09,5.9241131277413e-09,-0.0015091582171775,0.0015091571509766,-0.0015974562353739,0.0015974554902686,-0.0015974520359081,0.0015974597849835,-0.0015974607031856,0.0015974508799447,-0.0015974565051007,0.0015974551759748,-0.0013355998973178,0.0013355815209772,-0.00133558735161,0.0013355943457197,-0.0015086718429655,0.0015086886294493,-0.0015086853139328,0.0015086747581417,-3.930878368126e-09,3.5327787482401e-09,-0.00080516386491308,0.00080516344626098,6.0864224601041e-09,-6.7118704042945e-09,-0.000939073198604,0.00093907460332742,-0.00093907744413349,0.00093907032985254,-0.00093907072506536,0.00093907710656471,-0.00093907497111127,0.00093907283420548,-0.00092215893755573,0.00092216156522057,-0.00092216620150271,0.00092215421702566,0.56645233010692,125803,2834,0.0062669555353429,0.0062669555650903,0.0033536389262618,31.824175153192,1.4593401225536e-05,1.4593401225536e-05,1.4593401225536e-05,3892370.9501507,0.016015211697462
14819200,0.97008888644801,0.015849694241861,0.0060298967165694,0.0060298967245716,0.0037899008007202,-0.001509467189281,0.0015094682583581,4.2961996286386e-09,-3.2440998505058e-09,-6.3029825487391e-09,7.5293141722674e-09,-0.0015979893785128,0.0015979883837982,-0.0015979918823786,0.0015979858641464,-0.0015979849013929,0.0015979929916342,-0.001597987417715,0.0015979904838523,-0.0013356170664952,0.0013356301251427,-0.0013356244576872,0.0013356227396691,6.312720750479e-09,-7.5205259900616e-09,-6.9710342631964e-09,5.9126674737952e-09,-0.0015094682614041,0.0015094671951261,-0.0015979892822151,0.0015979885478095,-0.0015979850925835,0.0015979928359394,-0.0015979937535799,0.0015979839352833,-0.0015979895636664,0.0015979882225563,-0.0013356326839394,0.0013356143298615,-0.0013356201639063,0.0013356271348931,-0.0015089492358312,0.0015089660237151,-0.0015089627400133,0.0015089521684577,-3.9862727904214e-09,3.5937584905567e-09,-0.00080463301040012,0.00080463259570562,6.0785606683426e-09,-6.7010756621859e-09,-0.00093864965407148,0.00093865101669409,-0.00093865389315231,0.00093864675009903,-0.00093864714138478,0.00093865355852292,-0.00093865138005914,0.00093864929145203,-0.00092172973992786,0.00092173249295117,-0.00092173712562432,0.00092172504158471,0.56961684616779,125803,2834,0.006268237925202,0.0062682379435856,0.0033514396842503,30.995717464288,7.9657397143034e-06,7.9657397143034e-06,7.9657397143034e-06,3882445.2186171,0.016015585554074
15019200,0.97146699086958,0.015867200475811,0.0060367255107482,0.0060367255187841,0.0037937494462791,-0.0015090344175023,0.0015090354868656,4.3568482082779e-09,-3.304036912705e-09,-6.3120455277537e-09,7.5383614109393e-09,-0.0015977523322872,0.0015977513719372,-0.0015977548761818,0.0015977488122127,-0.0015977478491858,0.0015977559857351,-0.0015977504054035,0.0015977534379567,-0.0013349540245024,0.0013349672084975,-0.0013349615342243,0.0013349597052518,6.3206074607219e-09,-7.528908306498e-09,-6.9578728307892e-09,5.8987146005533e-09,-0.0015090354893464,0.001509034422429,-0.0015977522453274,0.0015977515247964,-0.0015977480648405,0.0015977558040648,-0.0015977567227447,0.0015977469073859,-0.0015977525414918,0.001597751185523,-0.0013349696952635,0.0013349513615119,-0.0013349572018362,0.0013349641404776,-0.0015084818846558,0.0015084986792844,-0.0015084954060511,0.0015084848095857,-4.0488257689281e-09,3.6575222831166e-09,-0.00080354868923398,0.00080354827575624,6.0647910414089e-09,-6.6858530726098e-09,-0.00093763528875124,0.00093763660084997,-0.00093763951831175,0.00093763234392771,-0.00093763273390076,0.00093763918464355,-0.00093763696306082,0.00093763492738506,-0.00092069799414486,0.0009207008822478,-0.00092070550483877,0.00092069330726327,0.56737759204294,125803,2834,0.0062664457905771,0.0062664458058923,0.0033469386527646,29.892959310734,-8.5632551412455e-07,-8.5632551412455e-07,-8.5632551412455e-07,3867311.540611,0.016007372875485
15219200,0.97268196930268,0.015881951881438,0.0060425023450361,0.0060425023530781,0.0037969471833238,-0.0015077608232666,0.001507761895816,4.4214104853564e-09,-3.3677033156225e-09,-6.3203106211431e-09,7.556015731259e-09,-0.0015966594536896,0.0015966585281475,-0.0015966620401087,0.0015966559264975,-0.0015966549618819,0.001596663150855,-0.0015966575605867,0.0015966605606884,-0.0013334815527437,0.0013334948687018,-0.0013334891897907,0.0013334872406779,6.3342940273126e-09,-7.5451768879204e-09,-6.9392177658984e-09,5.8768045341187e-09,-0.0015077618992484,0.0015077608300895,-0.0015966593709575,0.0015966586717555,-0.0015966552037556,0.0015966629378589,-0.0015966638584341,0.0015966540448545,-0.0015966596902492,0.0015966583091843,-0.0013334972754312,0.0013334789684668,-0.0013334848205683,0.001333491705932,-0.0015071529285386,0.0015071697367249,-0.0015071664656652,0.0015071558236214,-4.1075915595832e-09,3.71730241311e-09,-0.00080183495233094,0.00080183454063803,6.047996793241e-09,-6.6660000355099e-09,-0.0009359414888313,0.00093594275118713,-0.00093594570624441,0.00093593850628594,-0.00093593889493387,0.0009359453747366,-0.000935943111694,0.00093594112910343,-0.00091897165126298,0.00091897466798647,-0.00091897927431337,0.00091896697251052,0.54391179887907,125803,2834,0.0062611737760613,0.0062611737972665,0.0033398190538649,28.487522389628,-1.2099820882978e-05,-1.2099820882978e-05,-1.2099820882978e-05,3848478.2895479,0.015989428440246
15419200,0.9737553916351,0.015896850263366,0.0060482479205283,0.0060482479284466,0.003800354414391,-0.0015063348642819,0.0015063359379662,4.4831921250286e-09,-3.4270716077266e-09,-6.3315351938872e-09,7.5659901266069e-09,-0.0015953792355857,0.0015953783451184,-0.0015953818625934,0.0015953757028389,-0.0015953747368707,0.0015953829747841,-0.0015953773761577,0.0015953803442306,-0.001331898417134,0.0013319118633081,-0.0013319061733061,0.0013319041170596,6.3436246071521e-09,-7.5553720326795e-09,-6.9249188456583e-09,5.8622041415018e-09,-0.0015063359414032,0.0015063348713934,-0.001595379164069,0.0015953784800929,-0.0015953750061512,0.0015953827361128,-0.0015953836576029,0.001595373846103,-0.0015953794990839,0.0015953781009796,-0.0013319141961313,0.0013318959105832,-0.0013319017708309,0.0013319086209612,-0.0015057428686581,0.0015057596856199,-0.0015057564316438,0.0015057457598198,-4.169855595184e-09,3.7804309881048e-09,-0.00080013950568973,0.00080013909497861,6.0332416933595e-09,-6.650516520427e-09,-0.00093414528595235,0.00093414649745872,-0.00093414949322488,0.00093414226271852,-0.00093414265015119,0.00093414916287731,-0.00093414685690251,0.00093414492761575,-0.00091730568836403,0.00091730883889104,-0.00091731343704795,0.00091730102379429,0.61487579563834,125803,2834,0.00625527274348,0.0062552727652901,0.0033327708130855,27.074568974138,-2.3403448206898e-05,-2.3403448206898e-05,-2.3403448206898e-05,3833923.7015129,0.015970276582117
15619200,0.97472297436231,0.015910567926546,0.0060535252746007,0.0060535252824501,0.0038035173694956,-0.0015055112467057,0.0015055123178768,4.5387620732871e-09,-3.4837704839678e-09,-6.3287596507369e-09,7.5568071116711e-09,-0.0015946087281761,0.001594607878429,-0.001594611392838,0.0015946051980002,-0.0015946042335719,0.0015946125037905,-0.0015946069103192,0.0015946098355457,-0.0013310315045843,0.0013310450566046,-0.0013310393679014,0.001331037199618,6.3341657275262e-09,-7.5434317796808e-09,-6.9326423881502e-09,5.8726543212229e-09,-0.0015055123203681,0.0015055112525634,-0.0015946086839522,0.0015946079890608,-0.0015946045202046,0.0015946122508722,-0.0015946131706996,0.0015946033618898,-0.0015946090061478,0.001594607623007,-0.0013310473405948,0.0013310290467826,-0.0013310348971701,0.0013310417757486,-0.0015049494606793,0.0015049662646084,-0.0015049630102094,0.0015049523684802,-4.2365397233262e-09,3.8480218318097e-09,-0.00079889923668544,0.00079889882604604,6.0378493582933e-09,-6.6557173277288e-09,-0.00093301472131072,0.00093301589137044,-0.00093301893204067,0.0009330116532805,-0.00093301204062298,0.00093301860113205,-0.00093301625067974,0.00093301436289279,-0.00091608306955623,0.00091608634981909,-0.00091609095148494,0.00091607840541318,0.62694796226344,125803,2834,0.0062518611942643,0.0062518612115232,0.0033276246550866,25.96538245541,-3.2276940356718e-05,-3.2276940356718e-05,-3.2276940356718e-05,3804395.2511498,0.015958117836499
15819200,0.97563302170115,0.015924417948788,0.0060588168171924,0.0060588168250494,0.0038067843065464,-0.0015060316968442,0.0015060327575356,4.5965268437307e-09,-3.5453732162819e-09,-6.3095575878762e-09,7.5097202464955e-09,-0.0015951479592224,0.0015951471675499,-0.0015951506645315,0.0015951444456278,-0.0015951434866446,0.0015951517699877,-0.0015951462040102,0.0015951490606871,-0.0013315334837656,0.0013315471372751,-0.0013315414590761,0.0013315391592732,6.3027293196515e-09,-7.5040108590602e-09,-6.9677890702788e-09,5.9177883781235e-09,-0.0015060327573931,0.0015060316966134,-0.0015951479723228,0.0015951472337346,-0.0015951437828134,0.0015951515220972,-0.0015951524357717,0.0015951426292049,-0.0015951482453709,0.0015951469172528,-0.0013315493951559,0.0013315310570372,-0.0013315368751112,0.0013315438669448,-0.0015055314372281,0.0015055482056518,-0.0015055449538776,0.0015055344141432,-4.3006742700933e-09,3.910987931621e-09,-0.00079884584937241,0.0007988454355489,6.073447719661e-09,-6.6978857210749e-09,-0.00093314420045191,0.00093314535025849,-0.00093314843681072,0.0009331410869299,-0.00093314147603417,0.00093314810205274,-0.00093314571232754,0.00093314383890803,-0.00091611486427034,0.00091611824262563,-0.00091612287973527,0.0009161101867604,0.66919699110548,125803,2834,0.0062540123656485,0.0062540123648683,0.0033274142529005,25.548549869218,-3.5611601046255e-05,-3.5611601046255e-05,-3.5611601046255e-05,3783411.9401716,0.015962276746476
16019200,0.97649047919474,0.015937436932844,0.0060637938543729,0.006063793862485,0.0038098492159864,-0.0015065865998758,0.0015065876594724,4.6610100929882e-09,-3.6172293683022e-09,-6.2686467774969e-09,7.4827465377591e-09,-0.0015956840891222,0.0015956833580271,-0.0015956868387219,0.0015956805922181,-0.0015956796382587,0.0015956879387596,-0.0015956824003126,0.0015956851850522,-0.0013321253544875,0.0013321391029617,-0.0013321334683878,0.0013321309943124,6.2766949322783e-09,-7.474554582796e-09,-7.0062643677959e-09,5.9570052672105e-09,-0.0015065876621301,0.0015065866048906,-0.0015956841466347,0.0015956833677117,-0.0015956799308713,0.0015956876824238,-0.0015956885916595,0.0015956787827145,-0.0015956843753099,0.0015956830964993,-0.0013321413391347,0.0013321229434568,-0.0013321287420675,0.0013321358277374,-0.0015061335325539,0.001506150276086,-0.0015061469614077,0.0015061365071797,-4.3584939750455e-09,3.9640454261039e-09,-0.00079875158193288,0.00079875116502115,6.1163236118852e-09,-6.7417327914878e-09,-0.00093334724343212,0.00093334838250574,-0.00093335150878221,0.00093334408986146,-0.00093334448299315,0.00093335117173647,-0.000933348748075,0.00093334687879583,-0.00091608007540391,0.00091608352737939,-0.00091608819025338,0.00091607535154373,0.66742791911028,125803,2834,0.0062563040417094,0.0062563040575723,0.0033270393336167,25.148734036443,-3.8810127708457e-05,-3.8810127708457e-05,-3.8810127708457e-05,3754753.824535,0.015966555182246
16219200,0.97729900896125,0.015949660022694,0.0060684687815755,0.0060684687896965,0.0038127224514219,-0.001507060921096,0.0015070619760173,4.7190593870338e-09,-3.6804720004009e-09,-6.244231516131e-09,7.453991776962e-09,-0.0015961413174805,0.0015961406398385,-0.0015961441074144,0.0015961378335493,-0.0015961368840465,0.0015961452027816,-0.0015961396864331,0.0015961424087381,-0.0013326301868696,0.0013326440306796,-0.00133263841958,0.0013326358033551,6.2519189668729e-09,-7.4447408743994e-09,-7.0439826434876e-09,5.999320175872e-09,-0.0015070619785928,0.0015070609260466,-0.0015961414214186,0.0015961406025817,-0.0015961371793042,0.0015961449439719,-0.001596145848534,0.0015961360356722,-0.0015961416057883,0.0015961403762357,-0.0013326462459638,0.0013326277942824,-0.001332633570562,0.0013326407574735,-0.0015066418348633,0.0015066585560954,-0.0015066552085864,0.0015066448398444,-4.4227217185291e-09,4.0253702613781e-09,-0.00079860466206444,0.00079860424222332,6.1543638625243e-09,-6.7830193108297e-09,-0.00093348614141034,0.00093348726218872,-0.00093349043326585,0.0009334829430795,-0.00093348333916935,0.00093349009329385,-0.00093348763059786,0.00093348577391717,-0.00091599471767004,0.00091599826331398,-0.00091600295434814,0.0009159899631427,0.66425604367394,125803,2834,0.0062582623549556,0.0062582623705183,0.0033264447216222,24.74956736135,-4.2003461109199e-05,-4.2003461109199e-05,-4.2003461109199e-05,3729379.1439096,0.015969932747215
16419200,0.97806473706498,0.015960039269174,0.0060724802534597,0.0060724802615866,0.0038150787541281,-0.0015075252799596,0.0015075263277316,4.7877863953533e-09,-3.7541407442831e-09,-6.223755936293e-09,7.4196984230122e-09,-0.0015966108295738,0.0015966102122363,-0.0015966136664822,0.0015966073591854,-0.0015966064144055,0.0015966147566775,-0.0015966092636472,0.0015966119147166,-0.0013330924948688,0.0013331064586156,-0.0013331008607701,0.0013330980893857,6.2373270528812e-09,-7.4256170913122e-09,-7.0764618286177e-09,6.0369926353701e-09,-0.0015075263300286,0.0015075252813097,-0.0015966109815623,0.0015966101313794,-0.0015966067167227,0.0015966144971819,-0.0015966153981171,0.0015966055756833,-0.0015966111320611,0.0015966099390362,-0.00133310863907,0.0013330901366692,-0.0013330958920706,0.0013331031661038,-0.0015070952980504,0.0015071120128396,-0.0015071086465612,0.0015070983331532,-4.4767374656665e-09,4.0758125641063e-09,-0.00079847713209382,0.00079847670828556,6.1936043232754e-09,-6.8282838829867e-09,-0.0009336433958411,0.00093364450514639,-0.00093364771542593,0.00093364015880918,-0.00093364055758502,0.00093364737222192,-0.00093364487690742,0.00093364302445617,-0.00091590211055636,0.00091590572764698,-0.00091591045177159,0.00091589732717294,0.59981697360548,125803,2834,0.0062601795810291,0.0062601795885726,0.0033259296712519,24.412058386037,-4.4703532911701e-05,-4.4703532911701e-05,-4.4703532911701e-05,3709014.6449051,0.015973307983477
16619200,0.97879397035601,0.015971757346112,0.0060769350343983,0.0060769350426093,0.003817887269104,-0.0015080781460985,0.0015080791939189,4.8408633711822e-09,-3.8086506636895e-09,-6.2137301595148e-09,7.4146029414991e-09,-0.0015971978147833,0.0015971972366539,-0.0015972006876724,0.0015971943470636,-0.0015971934042847,0.0015972017761944,-0.0015971962897448,0.0015971988988251,-0.0013335925697484,0.0013336066299792,-0.0013336010464174,0.0013335981574568,6.2221239671486e-09,-7.4077787425866e-09,-7.1120693573154e-09,6.074263696818e-09,-0.001508079196613,0.0015080781507598,-0.0015971979999461,0.0015971971181811,-0.0015971937107911,0.0015972015074916,-0.001597202405317,0.001597192573446,-0.001597198115503,0.0015971969617591,-0.0013336087930055,0.0013335902302157,-0.0013335959781648,0.0013336033344381,-0.0015076921431108,0.0015077088533561,-0.0015077054543851,0.0015076952054106,-4.5472536019705e-09,4.1445575791991e-09,-0.00079858644131777,0.00079858601593163,6.2236521400852e-09,-6.8591220966698e-09,-0.00093383934969154,0.00093384043203969,-0.00093384368997277,0.00093383606474281,-0.00093383646597469,0.00093384334465259,-0.00093384080578846,0.0009338389768477,-0.00091612637664404,0.0009161301070861,-0.00091613485322185,0.00091612157003556,0.70235631522177,125803,2834,0.006262466494275,0.0062624665094834,0.0033263903162075,24.158157105994,-4.6734743152048e-05,-4.6734743152048e-05,-4.6734743152048e-05,3705255.4123839,0.015978422868111
16819200,0.97948884463921,0.015982977502016,0.0060812020186828,0.0060812020269024,0.0038205734564309,-0.0015087503769971,0.0015087514237351,4.9009428294431e-09,-3.8699301174678e-09,-6.2105117478939e-09,7.4103582327015e-09,-0.0015978137580878,0.001597813221924,-0.0015978166715252,0.0015978102917144,-0.0015978093499716,0.001597817758894,-0.0015978122760007,0.0015978148410016,-0.0013343459025241,0.0013343600779814,-0.0013343544981284,0.0013343514864843,6.218076135807e-09,-7.4024797938546e-09,-7.1387723085595e-09,6.1021238663634e-09,-0.0015087514263823,0.0015087503817042,-0.0015978139740743,0.0015978130723896,-0.0015978096670482,0.0015978174798635,-0.0015978183764083,0.0015978085307026,-0.0015978140686976,0.0015978129372284,-0.0013343622077727,0.0013343435956541,-0.0013343493396449,0.0013343567536585,-0.0015084116868659,0.0015084284072117,-0.0015084249884746,0.0015084147681223,-4.6109297679175e-09,4.2063547624847e-09,-0.0007986305537774,0.00079863012649499,6.2490796550623e-09,-6.8867363622816e-09,-0.00093421074476035,0.00093421180125405,-0.00093421510273894,0.00093420741619545,-0.00093420781928911,0.00093421475559468,-0.00093421217676555,0.00093421037006794,-0.00091622720522636,0.00091623103887755,-0.00091623580434579,0.00091622237874534,0.70571571348286,125803,2834,0.0062652428118825,0.0062652428270892,0.0033265923873364,23.906315915327,-4.8749472677384e-05,-4.8749472677384e-05,-4.8749472677384e-05,3678930.2111877,0.015984272111937
17019200,0.98015127443595,0.015993465461443,0.0060851981088498,0.0060851981170769,0.0038230692355165,-0.0015093595120186,0.0015093605585905,4.9635883018434e-09,-3.9327933222754e-09,-6.2122790569038e-09,7.4120459252613e-09,-0.001598370343235,0.0015983698476135,-0.0015983732984897,0.0015983668754766,-0.0015983659338832,0.0015983743857671,-0.0015983689018417,0.0015983714259377,-0.0013350259752823,0.0013350402746655,-0.00133503469408,0.0013350315600866,6.2210321942662e-09,-7.4054323469551e-09,-7.1583258505892e-09,6.1216952213543e-09,-0.0015093605613476,0.0015093595166892,-0.0015983705849199,0.0015983696722555,-0.0015983662649895,0.0015983740927686,-0.0015983749891659,0.0015983651286201,-0.0015983706686543,0.0015983695481674,-0.0013350423624152,0.0013350237100543,-0.0013350294562668,0.0013350369065131,-0.0015090525534916,0.0015090692926999,-0.0015090658608139,0.0015090556475552,-4.6722260008242e-09,4.2663125777557e-09,-0.00079862278799539,0.00079862235932533,6.2687567414868e-09,-6.9080115578325e-09,-0.00093453262264832,0.00093453365100136,-0.00093453699422473,0.000934529252277,-0.00093452965670875,0.00093453664576391,-0.00093453402792975,0.0009345322465989,-0.00091627580551745,0.00091627974265128,-0.00091628452298722,0.00091627096393776,0.69245975578267,125803,2834,0.0062677577525265,0.0062677577678843,0.0033265790619523,23.654553235746,-5.0763574114035e-05,-5.0763574114035e-05,-5.0763574114035e-05,3654528.6669075,0.015989371331417
17219200,0.98076784842568,0.016002966246083,0.0060888267202785,0.0060888267285119,0.0038253127972924,-0.0015090592729045,0.0015090603234107,5.0281200073264e-09,-3.9957502181619e-09,-6.2284952586864e-09,7.4374491906796e-09,-0.0015980380530492,0.0015980375881818,-0.0015980410503994,0.0015980345740698,-0.0015980336298404,0.0015980421405113,-0.0015980366400503,0.001598039138495,-0.0013347838864441,0.0013347983232057,-0.0013347927318467,0.0013347894843915,6.2425944364957e-09,-7.4307259701745e-09,-7.1547805393413e-09,6.1138973790436e-09,-0.0015090603270007,0.0015090592789441,-0.0015980383004711,0.0015980374038063,-0.0015980339839462,0.0015980418205937,-0.0015980427200374,0.0015980328448273,-0.0015980384031604,0.0015980372605101,-0.0013348003449239,0.0013347816839363,-0.00133478744928,0.0013347948682565,-0.0015087614749936,0.0015087782531812,-0.001508774817104,0.0015087645506297,-4.7319816213221e-09,4.3259967955909e-09,-0.00079787303578519,0.00079787260763917,6.2650407646912e-09,-6.9028229875218e-09,-0.00093402932454892,0.00093403031075182,-0.00093403369318506,0.00093402591482623,-0.00093402631909735,0.00093403334551785,-0.00093403068736261,0.00093402894897805,-0.00091554014549003,0.00091554420202654,-0.0009155489759638,0.00091553530172058,0.67475986809519,125803,2834,0.0062665096127223,0.0062665096326366,0.0033234781405564,22.995053010967,-5.603957591226e-05,-5.603957591226e-05,-5.603957591226e-05,3629555.2339504,0.015983686405767
17419200,0.9813305610332,0.01601126728611,0.0060920085786087,0.0060920085868056,0.0038272501206958,-0.0015079501564319,0.0015079512123952,5.0942435306511e-09,-4.0575634683389e-09,-6.2567360144213e-09,7.4743816264778e-09,-0.0015969177403194,0.0015969173007359,-0.001596920780405,0.0015969142445244,-0.001596913295508,0.0015969218750341,-0.0015969163484386,0.0015969188305279,-0.0013337164170535,0.0013337310031749,-0.0013337253891681,0.0013337220401535,6.2745749159845e-09,-7.4685483423804e-09,-7.1323409532398e-09,6.0856100539667e-09,-0.0015079512167673,0.001507950163419,-0.001596917981939,0.0015969171200656,-0.0015969136822567,0.0015969215204061,-0.0015969224245877,0.0015969125383003,-0.0015969181241974,0.0015969169368042,-0.0013337329400202,0.0013337142996038,-0.0013337200939609,0.0013337274338872,-0.00150764226877,0.0015076590934213,-0.0015076556733854,0.0015076453164627,-4.7904035658916e-09,4.3864655737818e-09,-0.00079649762390702,0.00079649719809006,6.2427970481185e-09,-6.877299128101e-09,-0.00093280050034535,0.00093280143326677,-0.00093280485303958,0.00093279705318497,-0.00093279745551643,0.00093280450776696,-0.00093280180773293,0.00093280012675739,-0.00091413432523896,0.00091413851576757,-0.00091414327091173,0.00091412949749257,0.64747797700021,125803,2834,0.0062619147280865,0.0062619147515766,0.003317772055352,21.992176873479,-6.4062585012165e-05,-6.4062585012165e-05,-6.4062585012165e-05,3605363.9287874,0.015968553523655
17619200,0.98184452420933,0.016018558027745,0.0060948112780658,0.0060948112862059,0.0038289354634735,-0.0015066904510714,0.0015066915106903,5.1546323435202e-09,-4.1119757737862e-09,-6.2903757325746e-09,7.5072160309975e-09,-0.0015956706394235,0.0015956702212796,-0.0015956737179109,0.0015956671263596,-0.0015956661731352,0.0015956748172133,-0.0015956692641656,0.0015956717343655,-0.0013324651925708,0.0013324799221342,-0.0013324742747639,0.0013324708460229,6.3010484337662e-09,-7.4986947461659e-09,-7.1078354467691e-09,6.0586009434588e-09,-0.0015066915139949,0.0015066904570602,-0.0015956708775115,0.001595670047953,-0.0015956665948236,0.0015956744305639,-0.0015956753388977,0.0015956654465734,-0.0015956710555604,0.0015956698280756,-0.0013324817741605,0.0013324631633728,-0.0013324689781329,0.0013324762472547,-0.0015063618637791,0.0015063787228886,-0.0015063753339432,0.0015063648991923,-4.8554920436385e-09,4.4532420308069e-09,-0.00079508867028416,0.00079508824602843,6.2146285214087e-09,-6.8482524755767e-09,-0.0009314484416154,0.00093144931320438,-0.00093145277530745,0.00093144495222428,-0.00093144535249335,0.00093145243158543,-0.00093144968563548,0.00093144807001282,-0.00091268773054046,0.00091269207168188,-0.00091269680866555,0.00091268292755119,0.62390233280002,125803,2834,0.0062566982454838,0.0062566982646998,0.0033119214010236,20.98079966119,-7.2153602710481e-05,-7.2153602710481e-05,-7.2153602710481e-05,3588277.5100238,0.015952010165945
17819200,0.98231516120454,0.016025001936219,0.0060972946613561,0.0060972946694812,0.0038304126053817,-0.0015053626169132,0.001505363678692,5.2176093144993e-09,-4.1717515109138e-09,-6.3145428292863e-09,7.5301303366871e-09,-0.0015943764577859,0.0015943760689902,-0.0015943795777271,0.0015943729326565,-0.0015943719760334,0.0015943806805554,-0.0015943751084766,0.001594377556236,-0.0013311189671261,0.0013311338378867,-0.0013311281690253,0.0013311246397555,6.3230674473945e-09,-7.5241236709309e-09,-7.0819627997496e-09,6.0300120346814e-09,-0.0015053636814421,0.0015053626212217,-0.0015943766971426,0.0015943758979665,-0.001594372432656,0.001594380262494,-0.0015943811741486,0.0015943712807567,-0.0015943769088429,0.0015943756439889,-0.0013311356014699,0.0013311170259857,-0.0013311228592208,0.0013311300564083,-0.0015050055885478,0.0015050224731861,-0.0015050191133237,0.0015050086104377,-4.9158267465611e-09,4.516701719657e-09,-0.00079370460721474,0.00079370418540439,6.1888715275337e-09,-6.8202828137751e-09,-0.00093005212422726,0.0009300529388569,-0.00093005643998844,0.0009300485958713,-0.00093004899373585,0.00093005609831696,-0.00093005330906517,0.00093005175473306,-0.00091126173951227,0.00091126622231118,-0.00091127093960444,0.00091125696018465,0.60341628092558,125803,2834,0.006251201192033,0.0062512012066279,0.00330617002589,19.99108071601,-8.0071354271917e-05,-8.0071354271917e-05,-8.0071354271917e-05,3577250.7694914,0.015934997315656
18019200,0.9827470964671,0.016030910172128,0.0060995693740368,0.0060995693821793,0.0038317714159116,-0.0015039847780174,0.001503985842311,5.280900399706e-09,-4.2327089498823e-09,-6.3274201751864e-09,7.5462234238779e-09,-0.0015930464894371,0.0015930461345139,-0.001593049650556,0.0015930429568362,-0.0015930419981408,0.0015930507558554,-0.001593045171841,0.0015930475903286,-0.0013297036277512,0.0013297186315648,-0.0013297129515575,0.0013297093123959,6.3367463867476e-09,-7.540239060163e-09,-7.0574447999032e-09,6.0031328628474e-09,-0.0015039858451756,0.001503984782691,-0.0015930467334567,0.0015930459588754,-0.0015930424855336,0.0015930503060292,-0.0015930512200812,0.001593041331689,-0.0015930469716755,0.001593045677941,-0.0013297203099362,0.0013297017723598,-0.0013297076180569,0.0013297147526821,-0.0015036010149749,0.0015036179095036,-0.0015036145681127,0.0015036040169353,-4.9761437271273e-09,4.5788967916108e-09,-0.00079235170591378,0.00079235128608926,6.1647899164494e-09,-6.7937964551036e-09,-0.00092862773607155,0.00092862849481828,-0.00092863203492871,0.00092862416864918,-0.00092862456463032,0.00092863169516504,-0.00092862886320505,0.00092862736860028,-0.00090986982133329,0.00090987444301611,-0.00090987914129984,0.0009098650604341,0.6026570310406,125803,2834,0.0062454983321574,0.0062454983477438,0.0033005448477493,19.019675601992,-8.7842595184061e-05,-8.7842595184061e-05,-8.7842595184061e-05,3570793.8378771,0.015917694278692
18219200,0.98314393076573,0.016036443496216,0.0061016937559042,0.0061016937640567,0.0038330559762551,-0.0015025647679023,0.0015025658337924,5.343054008603e-09,-4.2935272876297e-09,-6.335912483164e-09,7.5568754809354e-09,-0.0015916693723421,0.00159166905357,-0.0015916725745223,0.0015916658349875,-0.0015916648747714,0.0015916736812862,-0.0015916680894677,0.0015916704747641,-0.001328254221303,0.0013282693529399,-0.0013282636655583,0.0013282599132278,6.3454086855909e-09,-7.5505690459897e-09,-7.0341169427955e-09,5.9781814298374e-09,-0.0015025658367315,0.0015025647726859,-0.0015916696240631,0.0015916688702522,-0.0015916653920553,0.00159167320134,-0.0015916741169715,0.0015916642367413,-0.00159166988439,0.0015916685668074,-0.0013282709475151,0.0013282524494886,-0.0013282583024828,0.0013282653819166,-0.0015021611099799,0.0015021780055518,-0.0015021746804986,0.0015021640928808,-5.0370622984994e-09,4.6417369098001e-09,-0.0007909966105131,0.00079099619267862,6.1418053493603e-09,-6.7684357666926e-09,-0.0009271906253193,0.00092719132870262,-0.00092719490809758,0.00092718701860155,-0.00092718741270153,0.00092719457029645,-0.00092719169512296,0.00092719025972493,-0.00090847210470503,0.00090847686542456,-0.00090848154518129,0.00090846736118166,0.61338750939118,125803,2834,0.0062396211162217,0.0062396211321901,0.0032949099350548,18.048722737284,-9.561021810173e-05,-9.561021810173e-05,-9.561021810173e-05,3563808.6464878,0.015900027354472
18419200,0.98351810069944,0.016041698237911,0.0061037082231721,0.0061037082313309,0.0038342817834078,-0.0015019147612986,0.001501915825109,5.403416751092e-09,-4.3553318430724e-09,-6.3232747290034e-09,7.5412208480561e-09,-0.001591046616888,0.0015910463461845,-0.0015910498598247,0.0015910430868206,-0.0015910421286402,0.0015910509644486,-0.0015910453840667,0.0015910477171937,-0.0013275821211607,0.0013275973623817,-0.0013275916848864,0.0013275878029812,6.3320543122049e-09,-7.5348334719373e-09,-7.0284707824119e-09,5.9748566095499e-09,-0.0015019158280402,0.0015019147662251,-0.0015910468949665,0.0015910461367166,-0.001591042665893,0.0015910504647369,-0.001591051378327,0.0015910415128462,-0.0015910471487231,0.0015910458399665,-0.0013275988928573,0.0013275804155383,-0.0013275862568768,0.0013275933394238,-0.0015015009334926,0.0015015177997088,-0.0015015144776367,0.0015015039179966,-5.0991914020653e-09,4.7042480690977e-09,-0.00079031578764959,0.00079031537013489,6.1371149340978e-09,-6.7635296210306e-09,-0.00092648604386547,0.00092648670285286,-0.00092649032346583,0.00092648239595296,-0.00092648278964598,0.00092648998594626,-0.00092648706890778,0.00092648567863392,-0.00090777922136009,0.0009077841076555,-0.00090778878514134,0.00090777448297393,0.61738402838323,125803,2834,0.0062369305969237,0.0062369306131689,0.0032920797634864,17.475893413375,-0.000100192852693,-0.000100192852693,-0.000100192852693,3559627.9605179,0.015891685246371
18619200,0.9838784805017,0.016046710757576,0.0061056306780843,0.0061056306862505,0.0038354493932412,-0.0015018978848817,0.0015018989436945,5.4637637328273e-09,-4.4200592404007e-09,-6.2972450866029e-09,7.5083780183232e-09,-0.0015910537290673,0.0015910535151278,-0.0015910570137207,0.0015910502139552,-0.0015910492601335,0.0015910581137276,-0.0015910525573365,0.0015910548246637,-0.0013275391519604,0.0013275544928654,-0.0013275488378868,0.0013275448105162,6.3057307377838e-09,-7.5035611321424e-09,-7.0363054944929e-09,5.9874834321198e-09,-0.0015018989464873,0.0015018978892506,-0.0015910540466595,0.0015910532670068,-0.0015910498108864,0.0015910576018785,-0.0015910585110607,0.0015910486622742,-0.0015910542747905,0.0015910529962193,-0.0013275559718371,0.0013275374984154,-0.0013275433161788,0.0013275504426081,-0.0015014755547177,0.0015014923759145,-0.0015014890457163,0.0015014785541631,-5.1604124133381e-09,4.7648370754098e-09,-0.00079018818243653,0.00079018776409771,6.1473506754158e-09,-6.7749781953553e-09,-0.00092637795118692,0.00092637857588769,-0.00092638223797131,0.00092637426186812,-0.00092637465618874,0.00092638189958264,-0.00092637894272885,0.00092637758512406,-0.00090766350726514,0.00090766850484549,-0.00090767319106502,0.00090765876236708,0.61178639818942,125803,2834,0.0062368604683661,0.0062368604831714,0.0032915503993044,17.230837942946,-0.00010215329645643,-0.00010215329645643,-0.00010215329645643,3559220.2798642,0.015891005077871
18819200,0.98422586013852,0.016051861011078,0.0061075936317203,0.0061075936399013,0.0038366737394565,-0.0015018894363227,0.0015018904904733,5.5225750751811e-09,-4.4842162190373e-09,-6.2711521041373e-09,7.477979746793e-09,-0.0015910706175413,0.0015910704587992,-0.0015910739433432,0.0015910671166944,-0.0015910661670648,0.0015910750385211,-0.0015910695054303,0.0015910717084568,-0.0013275039454386,0.0013275193821297,-0.0013275137517445,0.0013275095792371,6.2797315209832e-09,-7.47279477785e-09,-7.045665830026e-09,6.0010537778712e-09,-0.0015018904933134,0.0015018894404986,-0.0015910709735071,0.0015910701718512,-0.0015910667304226,0.0015910745146643,-0.0015910754193122,0.0015910655861074,-0.0015910711754693,0.0015910699276501,-0.0013275208118189,0.0013275023388936,-0.001327508133486,0.0013275153055344,-0.0015014674369376,0.0015014842146698,-0.0015014808701347,0.0015014704470276,-5.2226771988548e-09,4.826537798201e-09,-0.00079008439795893,0.00079008397901471,6.158294362476e-09,-6.7865406598229e-09,-0.00092627869062081,0.00092627928099966,-0.00092628298491294,0.00092627495944205,-0.00092627535444012,0.00092628264593645,-0.00092627964839437,0.00092627832383119,-0.00090757999344074,0.00090758510437686,-0.00090758979733669,0.00090757523909271,0.64922936627668,125803,2834,0.0062368254690942,0.0062368254836019,0.003291119480053,16.993875265486,-0.00010404899787611,-0.00010404899787611,-0.00010404899787611,3559756.0150927,0.015890496083818
19019200,0.98456081138187,0.016057137367895,0.0061095942382665,0.0061095942464597,0.0038379488831686,-0.0015019391304721,0.0015019401812151,5.5820519531445e-09,-4.5474054577083e-09,-6.2481146995613e-09,7.4525793866389e-09,-0.0015911070887942,0.0015911069829536,-0.001591110455226,0.0015911035999814,-0.0015911026542676,0.0015911115466079,-0.0015911060332805,0.0015911081757973,-0.0013275813383419,0.0013275968748905,-0.0013275912655878,0.0013275869523001,6.2574438026224e-09,-7.4463232877921e-09,-7.0548480332163e-09,6.0139912000261e-09,-0.0015019401842307,0.0015019391353687,-0.0015911074802517,0.0015911066591173,-0.0015911032296108,0.0015911110090195,-0.0015911119099908,0.0015911020895664,-0.0015911076588537,0.0015911064385571,-0.0013275982558094,0.0013275797808623,-0.0013275855559226,0.0013275927693024,-0.0015015303195472,0.0015015470605277,-0.0015015437024753,0.0015015333388401,-5.2854595433108e-09,4.8880280773622e-09,-0.00078996785463015,0.00078996743464626,6.1687985075595e-09,-6.7979842238227e-09,-0.00092625415247566,0.0009262547077389,-0.00092625845415539,0.00092625037884606,-0.00092625077487656,0.0009262581141753,-0.00092625507621775,0.00092625378485331,-0.00090747407832564,0.00090747930212962,-0.00090748400352757,0.00090746931464176,0.68719100744916,125803,2834,0.0062370294091773,0.0062370294255374,0.0032906403343665,16.757220227645,-0.00010594223817884,-0.00010594223817884,-0.00010594223817884,3551301.2054647,0.015890424380245
19219200,0.98489425210558,0.016062550276423,0.0061116420528365,0.0061116420610327,0.0038392661625538,-0.0015030330337774,0.0015030340765657,5.6378942963169e-09,-4.6063477227096e-09,-6.2285148255593e-09,7.4130671924152e-09,-0.0015921521769873,0.0015921521256318,-0.0015921555822963,0.0015921487030631,-0.0015921477622287,0.0015921566688964,-0.0015921511798886,0.001592153259073,-0.0013287337103588,0.0013287493433222,-0.0013287437461155,0.0013287393058136,6.2262748250486e-09,-7.4080195121431e-09,-7.0799394391285e-09,6.0476392931146e-09,-0.0015030340774021,0.0015030330349427,-0.0015921526180969,0.0015921517605684,-0.0015921483485967,0.0015921561296476,-0.0015921570251039,0.0015921472133282,-0.0015921527549621,0.0015921515821705,-0.0013287506905808,0.0013287321899421,-0.0013287379344368,0.0013287452379072,-0.0015026496824549,0.0015026663809171,-0.0015026630224482,0.0015026527522556,-5.3519450863159e-09,4.9535176773764e-09,-0.00079068993084307,0.00079068950848451,6.1933440547816e-09,-6.8273473336988e-09,-0.00092719852771282,0.00092719905425616,-0.00092720284728546,0.00092719470775593,-0.00092719510526585,0.00092720250440161,-0.00092719942472824,0.00092719815799353,-0.00090824587046756,0.00090825120527616,-0.00090825593156083,0.0009082410976289,0.70677987603585,125803,2834,0.0062415537145642,0.0062415537187,0.0032936528855923,17.022282559978,-0.00010382173952018,-0.00010382173952018,-0.00010382173952018,3542609.161917,0.015902679044884
19419200,0.98523132389446,0.016067906509201,0.006113673139172,0.0061136731474305,0.0038405602225986,-0.0015046461352276,0.0015046471749051,5.6985517521556e-09,-4.6720760399899e-09,-6.1987730446797e-09,7.3848155832472e-09,-0.0015937097566966,0.0015937097616081,-0.0015937132037342,0.0015937062973262,-0.0015937053608119,0.0015937142858045,-0.0015937088203346,0.0015937108342032,-0.0013304096371334,0.0013304253669526,-0.001330419798172,0.0013304152065411,6.2006989897257e-09,-7.3782464587948e-09,-7.1110266392636e-09,6.0817620871334e-09,-0.0015046471766034,0.0015046461381567,-0.0015937102417814,0.0015937093484039,-0.0015937059505817,0.0015937137393157,-0.0015937146305393,0.0015937048198957,-0.0015937103388317,0.0015937092105063,-0.001330426686374,0.0013304081428535,-0.001330413866174,0.0013304212544795,-0.0015042813403949,0.0015042980102795,-0.0015042946154644,0.0015042844262533,-5.4138314705216e-09,5.0124325572437e-09,-0.0007918143576117,0.00079181393276963,6.2261052972992e-09,-6.8621800066884e-09,-0.00092861422220397,0.00092861472874189,-0.00092861856437739,0.00092861035954688,-0.00092861075980184,0.00092861821924842,-0.00092861510176707,0.00092861385005864,-0.00090943619495191,0.00090944162214943,-0.00090944637162239,0.00090943139277791,0.69264757729828,125803,2834,0.006248226044145,0.0062482260537108,0.0032983408659915,17.538680826761,-9.9690553385909e-05,-9.9690553385909e-05,-9.9690553385909e-05,3535457.8083262,0.015921001045433
19619200,0.98557190199578,0.016073184064961,0.0061156795895349,0.0061156795978258,0.0038418248775999,-0.0015062430712958,0.0015062441094582,5.7607864468108e-09,-4.737947560719e-09,-6.1797600174558e-09,7.3691978429467e-09,-0.0015952736316167,0.0015952736872188,-0.0015952771209925,0.0015952701807665,-0.0015952692468589,0.0015952782001527,-0.0015952727489557,0.0015952747061303,-0.0013320375611871,0.0013320533985432,-0.0013320478495484,0.0013320431137569,6.187479615098e-09,-7.3629972540399e-09,-7.1373946181743e-09,6.1091730442916e-09,-0.0015062441121831,0.001506243075762,-0.0015952741525243,0.0015952732340051,-0.0015952698434208,0.001595277643112,-0.0015952785318669,0.0015952687153516,-0.0015952742223648,0.0015952731237796,-0.0013320546844167,0.0013320360984511,-0.0013320418114405,0.0013320492624432,-0.0015058874232752,0.0015059040853668,-0.0015059006595256,0.0015058905188934,-5.4746162592978e-09,5.0707429363722e-09,-0.00079293868309996,0.00079293825633944,6.2531707838201e-09,-6.8905582947319e-09,-0.00092999485965849,0.00092999534321942,-0.00092999922030701,0.0009299909554435,-0.00092999135786135,0.00092999887357837,-0.00092999571824507,0.00092999448549604,-0.00091063726514346,0.00091064278756098,-0.00091064755543437,0.00091063243772249,0.67638953543901,125803,2834,0.0062548319052779,0.0062548319201466,0.003303026992131,18.061349549671,-9.5509203602633e-05,-9.5509203602633e-05,-9.5509203602633e-05,3533054.3739882,0.015939186071523
19819200,0.9859157154565,0.016078356430547,0.0061176518345883,0.0061176518428831,0.0038430527530754,-0.0015078091115731,0.0015078101480568,5.8217648305512e-09,-4.8008702121222e-09,-6.171662366657e-09,7.3597200480162e-09,-0.0015968264641076,0.0015968265650803,-0.001596829994723,0.0015968230173612,-0.0015968220850647,0.0015968310721706,-0.0015968256284515,0.0015968275368513,-0.0013336033760242,0.0013336193267955,-0.001333613785957,0.0013336089204778,6.1800755505812e-09,-7.3538801680145e-09,-7.1596796617746e-09,6.1330047815645e-09,-0.0015078101508204,0.0015078091160139,-0.0015968270170328,0.0015968260793688,-0.0015968226928027,0.001596830503946,-0.0015968313909822,0.0015968215662811,-0.0015968270663089,0.0015968259900571,-0.0013336205745176,0.001333601950391,-0.0013336076564522,0.0013336151595739,-0.0015074550634329,0.0015074717262811,-0.0015074682824833,0.0015074581750092,-5.5370304244042e-09,5.1315340296578e-09,-0.00079405571662906,0.00079405528823395,6.2754803509546e-09,-6.914689653609e-09,-0.00093133019676018,0.00093133065310788,-0.00093133457287989,0.00093132624985753,-0.0009313266539147,0.00093133422458274,-0.00093133102975932,0.00093132982096449,-0.00091184286460168,0.00091184849035157,-0.00091185327479958,0.00091183801945001,0.65786894557069,125803,2834,0.0062613103638815,0.0062613103787782,0.0033076812712751,18.584257093772,-9.1325943249825e-05,-9.1325943249825e-05,-9.1325943249825e-05,3534778.6000537,0.01595707976725
20019200,0.98625324389547,0.016083621087866,0.0061196530679902,0.0061196530762879,0.0038443149435875,-0.0015084897848891,0.0015084908243922,5.8850674655815e-09,-4.8624514228585e-09,-6.1875374958592e-09,7.3814857715589e-09,-0.001597511839491,0.0015975119717189,-0.0015975154115799,0.0015975083826119,-0.0015975074479925,0.0015975164914731,-0.0015975110329052,0.0015975129147134,-0.00133427359245,0.0013342896781064,-0.0013342841257039,0.0013342791500432,6.198156748213e-09,-7.3749471652844e-09,-7.1578213447572e-09,6.1279985168885e-09,-0.0015084908275586,0.0015084897900282,-0.0015975124008999,0.0015975114758594,-0.0015975080788005,0.0015975158981629,-0.0015975167876882,0.0015975069498333,-0.0015975124652157,0.0015975113712989,-0.0013342908621627,0.0013342722285923,-0.0013342779504922,0.0013342854307216,-0.0015081361997863,0.0015081528960998,-0.0015081494511876,0.0015081393003425,-5.5981463329958e-09,5.1926133609027e-09,-0.00079443584346148,0.00079443541537083,6.2730177461341e-09,-6.9113940461248e-09,-0.0009318379780315,0.00093183839209313,-0.00093184235225008,0.00093183399067051,-0.00093183439464104,0.00093184200439455,-0.00093183876852187,0.00093183760254009,-0.00091228464146081,0.00091229038856039,-0.00091229516917834,0.00091227979532564,0.68048383689404,125803,2834,0.0062641251151123,0.006264125132288,0.0033092692247734,18.671564826209,-9.0627481390325e-05,-9.0627481390325e-05,-9.0627481390325e-05,3534035.8625971,0.015964413149309
20219200,0.98658208658436,0.016088899515024,0.006121654824277,0.0061216548325658,0.0038455898581811,-0.0015089554008162,0.0015089564469189,5.9514383469379e-09,-4.9242615646599e-09,-6.2064741729449e-09,7.4146817082105e-09,-0.0015979602285055,0.0015979603887831,-0.0015979638428659,0.0015979567583528,-0.001597955819603,0.0015979649259789,-0.0015979594468591,0.0015979613073491,-0.0013347612448645,0.0013347774736229,-0.0013347719046049,0.0013347668239707,6.2245056919767e-09,-7.4071467674571e-09,-7.1479983596775e-09,6.111596259753e-09,-0.0015089564521364,0.0015089554094739,-0.0015979607889399,0.0015979598872288,-0.0015979564753288,0.0015979643014414,-0.0015979651951012,0.0015979553420367,-0.0015979608809049,0.0015979597545807,-0.0013347785888674,0.0013347599547063,-0.001334765701843,0.0013347731310002,-0.001508610676716,0.0015086274166041,-0.0015086239694572,0.0015086137476098,-5.6578593357789e-09,5.2520050896143e-09,-0.00079459983170885,0.00079459940447531,6.2619549949097e-09,-6.8980754588772e-09,-0.00093215588409344,0.00093215625165227,-0.00093216025012627,0.00093215185816841,-0.00093215226148099,0.00093215990392448,-0.00093215662675691,0.00093215550929545,-0.00091249425166425,0.00091250012381785,-0.00091250489566331,0.00091248940917698,0.69908659551529,125803,2834,0.0062660489721439,0.0062660490008333,0.0033099606729586,18.638397209772,-9.0892822321827e-05,-9.0892822321827e-05,-9.0892822321827e-05,3526744.0667255,0.015969025775812
20419200,0.98690241803113,0.016094048766367,0.0061236076280175,0.0061236076362557,0.0038468335020935,-0.0015094235211258,0.0015094245686585,6.0124394166323e-09,-4.9811215115688e-09,-6.240142210233e-09,7.4415575675244e-09,-0.0015983976316328,0.0015983978166492,-0.0015984012857679,0.0015983941455653,-0.001598393203153,0.001598402373904,-0.0015983968700408,0.001598398715135,-0.0013352694689186,0.0013352858423559,-0.0013352802427978,0.0013352750732633,6.2500303235109e-09,-7.4354765073916e-09,-7.1327688305116e-09,6.0951361456055e-09,-0.0015094245717581,0.0015094235261826,-0.0015983981957672,0.001598397319196,-0.0015983938927064,0.0015984017221173,-0.001598402619595,0.0015983927556629,-0.0015983983161578,0.0015983971577816,-0.0013352868777531,0.0013352682560469,-0.0013352740227977,0.0013352814013607,-0.001509088842142,0.0015091056214353,-0.0015091022066795,0.0015090919173124,-5.7209687958636e-09,5.3177054836595e-09,-0.00079474160271899,0.00079474117684506,6.2451302452913e-09,-6.8811294969838e-09,-0.00093248483567353,0.00093248514986238,-0.00093248919051224,0.00093248076781146,-0.00093248116956053,0.0009324888448545,-0.00093248552404649,0.00093248446233894,-0.00091267517166472,0.00091268118312378,-0.00091268594323221,0.00091267034858444,0.6999840077378,125803,2834,0.0062679824896333,0.0062679825064965,0.0033105616291563,18.60215940087,-9.1182724793042e-05,-9.1182724793042e-05,-9.1182724793042e-05,3516257.5636815,0.015973566417898
20619200,0.98721446957232,0.016098539203521,0.006125328002594,0.0061253280108329,0.0038478831900942,-0.001509849956394,0.0015098510077208,6.0757142435122e-09,-5.0403697969273e-09,-6.2651748052691e-09,7.4700794904345e-09,-0.0015988038618218,0.0015988040739423,-0.0015988075569412,0.0015988003619533,-0.0015987994157391,0.0015988086490124,-0.0015988031235638,0.0015988049493295,-0.001335722045954,0.0013357385615073,-0.0013357329396201,0.0013357276722347,6.2743680819502e-09,-7.4639554565739e-09,-7.1164151588069e-09,6.0750454224883e-09,-0.0015098510107516,0.0015098499612937,-0.0015988044270166,0.0015988035761765,-0.0015988001360143,0.0015988079669619,-0.0015988088682338,0.0015987989950256,-0.0015988045767801,0.0015988033849708,-0.0013357395187642,0.0013357209116347,-0.0013357266993969,0.0013357340211179,-0.0015095062371465,0.001509523052281,-0.0015095196546682,0.0015095092972309,-5.7824445116614e-09,5.3806631520224e-09,-0.00079484961974665,0.00079484919528509,6.2275239661805e-09,-6.8620002349478e-09,-0.00093278195957863,0.00093278222141606,-0.00093278630216422,0.00093277785157369,-0.00093277825198249,0.00093278595786879,-0.00093278259423353,0.00093278158760058,-0.00091281072305271,0.00091281686993471,-0.00091282161668784,0.00091280591424574,0.63099124693455,125803,2834,0.0062697434513483,0.006269743467745,0.0033110221111219,18.56580422419,-9.147356620648e-05,-9.147356620648e-05,-9.147356620648e-05,3506860.9144617,0.015977613927364
20819200,0.98750393024357,0.016103028028598,0.0061270349035617,0.0061270349118038,0.0038489582132326,-0.0015086124376794,0.0015086135040225,6.1368782576994e-09,-5.0966118674765e-09,-6.290486848533e-09,7.5374353022313e-09,-0.0015976033670002,0.0015976035919705,-0.0015976070999684,0.0015975998433804,-0.0015975988900349,0.0015976081986867,-0.0015976026357444,0.0015976044620835,-0.001334457000509,0.0013344736515972,-0.0013344680165525,0.0013344626535375,6.3136822583409e-09,-7.5135228048673e-09,-7.0752645959068e-09,6.0203354568806e-09,-0.0015086135109891,0.0015086124526569,-0.0015976039018436,0.0015976031045308,-0.0015975996412335,0.0015976074633666,-0.0015976083722233,0.0015975984945736,-0.0015976041115363,0.0015976028525933,-0.0013344745139774,0.0013344559566017,-0.0013344617847752,0.0013344689684612,-0.0015082545527578,0.0015082714136653,-0.0015082679994176,0.0015082575158859,-5.8472937894166e-09,5.4459660567694e-09,-0.00079364617190169,0.00079364575130033,6.1821909286104e-09,-6.8076511501528e-09,-0.00093152147446461,0.00093152166504548,-0.00093152578437456,0.00093151732723627,-0.0009315177257864,0.00093152544517596,-0.00093152203409366,0.00093152110642456,-0.00091159361972646,0.00091159992677368,-0.00091160462748087,0.00091158882292139,0.67642717972898,125803,2834,0.0062646206745316,0.0062646207199076,0.003306020490686,17.742831968598,-9.8057344251216e-05,-9.8057344251216e-05,-9.8057344251216e-05,3500385.8562563,0.015962122274753
21019200,0.98777118465082,0.016107039149035,0.0061285641189606,0.006128564127094,0.0038499109029804,-0.0015072236085918,0.0015072246729356,6.2025425978754e-09,-5.1556868329533e-09,-6.336827670088e-09,7.5588635998468e-09,-0.0015962089534226,0.0015962092049193,-0.0015962127292215,0.0015962054125541,-0.0015962044547067,0.0015962138335186,-0.0015962082430142,0.0015962100534683,-0.0013331034200362,0.0013331202352374,-0.001333114551734,0.0013331091093584,6.3461660242783e-09,-7.5487534981983e-09,-7.0263445509721e-09,5.9724496631852e-09,-0.0015072246760208,0.0015072236144863,-0.0015962094857988,0.0015962087388464,-0.0015962052578627,0.0015962130650052,-0.0015962139784726,0.0015962041054199,-0.0015962097502647,0.0015962084311252,-0.0013331209799628,0.0013331024972348,-0.0013331083477278,0.0013331154162012,-0.0015068567288637,0.001506873621337,-0.0015068702926505,0.0015068597044617,-5.9050691693419e-09,5.5098170615473e-09,-0.00079226414733546,0.00079226373005748,6.1349571323793e-09,-6.7604714554729e-09,-0.00093015873192807,0.00093015885242645,-0.00093016300996383,0.00093015454697113,-0.00093015494074529,0.00093016267285553,-0.00093015921817868,0.00093015836703096,-0.00091015945753107,0.00091016592213391,-0.00091017059499209,0.00091015471609517,0.6560166538967,125803,2834,0.0062588701306311,0.006258870149197,0.0033002802781496,16.832250305576,-0.00010534199755539,-0.00010534199755539,-0.00010534199755539,3482949.9617036,0.015944605838687
21219200,0.98801810552268,0.016110768854018,0.0061299841442915,0.0061299841524238,0.003850800557303,-0.0015057685078767,0.0015057695757422,6.2681708076845e-09,-5.2170445351059e-09,-6.3581930708602e-09,7.58274630907e-09,-0.0015947631827183,0.0015947634651586,-0.001594767000916,0.0015947596305444,-0.0015947586691268,0.0015947681089358,-0.0015947624998304,0.0015947642864325,-0.0013316600855386,0.0013316770454664,-0.001331671341488,0.001331665794999,6.3684286059364e-09,-7.5750944851812e-09,-6.984615516827e-09,5.927119933413e-09,-0.0015057695789757,0.0015057685136192,-0.00159476371058,0.0015947630047115,-0.001594759511259,0.0015947673018789,-0.0015947682191905,0.0015947583551666,-0.0015947640196365,0.0015947626517177,-0.0013316776861147,0.0013316592693061,-0.0013316651393381,0.0013316721026715,-0.0015053919787001,0.0015054088862914,-0.0015054055935115,0.0015053949245188,-5.9634005482149e-09,5.5713727797683e-09,-0.00079088313735749,0.00079088272323006,6.0937498449744e-09,-6.7158274692388e-09,-0.00092873827190542,0.00092873832676297,-0.00092874252125042,0.0009287340499985,-0.00092873444058811,0.00092874218722987,-0.00092873868952045,0.00092873791003582,-0.00090873136068498,0.00090873797423151,-0.0009087426168468,0.00090872665312313,0.65967102402075,125803,2834,0.0062528464568816,0.0062528464754381,0.0032945409272151,15.919280727059,-0.00011264575418352,-0.00011264575418352,-0.00011264575418352,3470229.85602,0.015926535029937
21419200,0.98824971194418,0.016114291238861,0.0061313235678508,0.0061313235759844,0.0038516440950258,-0.00150473674873,0.0015047378159024,6.3294215369285e-09,-5.2779160358763e-09,-6.3600933137503e-09,7.5810408357593e-09,-0.0015937352816493,0.0015937356052443,-0.0015937391408592,0.0015937317297247,-0.0015937307680517,0.001593740248984,-0.0015937346396751,0.0015937363855805,-0.0013306404221621,0.001330657503669,-0.0013306517969604,0.0013306461330308,6.3680506896579e-09,-7.5745476664983e-09,-6.9591245270202e-09,5.9021996728533e-09,-0.0015047378186998,0.001504736753423,-0.0015937358231236,0.0015937351336434,-0.0015937316406099,0.0015937394140709,-0.0015937403314962,0.0015937304843409,-0.0015937361485485,0.0015937347640487,-0.0013306580589275,0.0013306396924609,-0.0013306455616707,0.0013306524765838,-0.0015043553654086,0.0015043722553927,-0.0015043689855551,0.0015043583007133,-6.0246252922594e-09,5.6349031919578e-09,-0.00078988439340968,0.00078988398120871,6.0693668580565e-09,-6.6896695742159e-09,-0.0009277220073029,0.00092772200544993,-0.00092772623977087,0.00092771774561561,-0.00092771813421067,0.00092772590743783,-0.00092772236632829,0.0009277216472275,-0.00090770194803307,0.00090770870286481,-0.00090771332779004,0.00090769726199744,0.66373454444845,125803,2834,0.0062485749974339,0.0062485750129186,0.0032903909590204,15.230691795108,-0.00011815446563913,-0.00011815446563913,-0.00011815446563913,3460164.5885008,0.015913639613667
21619200,0.98846742775204,0.016117632244653,0.0061325924545448,0.0061325924626889,0.0038524473274189,-0.0015037409347611,0.0015037420005175,6.3898511093171e-09,-5.3401719959994e-09,-6.3505835653254e-09,7.5705061491161e-09,-0.001592740718902,0.0015927410885475,-0.0015927446187123,0.0015927371719838,-0.0015927362119709,0.0015927457257799,-0.0015927401242354,0.001592741821542,-0.0013296622764455,0.0013296794694436,-0.0013296737718859,0.0013296679779546,6.3586467085902e-09,-7.5632572575221e-09,-6.9410119064165e-09,5.8857132101688e-09,-0.0015037420030689,0.0015037409394627,-0.001592741280427,0.0015927405971306,-0.0015927371088653,0.0015927448655415,-0.0015927457818344,0.0015927359546348,-0.0015927416103028,0.001592740222959,-0.0013296799469024,0.0013296616227032,-0.0013296674833394,0.0013296743723828,-0.0015033543978867,0.001503371257666,-0.0015033679967848,0.0015033573225553,-6.0862556722636e-09,5.697525460714e-09,-0.00078892320068376,0.00078892278952757,6.0526934792035e-09,-6.6716886570408e-09,-0.00092675191466366,0.0009267518607264,-0.00092675613565276,0.00092674761239752,-0.00092674800006681,0.00092675580417521,-0.00092675222086127,0.00092675155577656,-0.00090670660670741,0.00090671349542263,-0.00090671810664288,0.00090670193220956,0.66920855841429,125803,2834,0.0062444522403349,0.0062444522553295,0.0032863972395965,14.566343944551,-0.00012346924844359,-0.00012346924844359,-0.00012346924844359,3449852.777893,0.015901205369089
21819200,0.98867221315304,0.016120728850011,0.0061337696242364,0.0061337696323897,0.0038531895933847,-0.001502732404607,0.0015027334681781,6.4507275084673e-09,-5.4038431945939e-09,-6.3325762397898e-09,7.551833043449e-09,-0.0015917297828367,0.0015917302033033,-0.0015917337243439,0.0015917262456064,-0.0015917252878449,0.0015917348282819,-0.0015917292417558,0.0015917308826374,-0.0013286778049446,0.0013286951040156,-0.0013286894227554,0.0013286834915072,6.3421666611031e-09,-7.5444254326759e-09,-6.9310084007142e-09,5.8776137702776e-09,-0.0015027334712755,0.0015027324099585,-0.0015917303705599,0.0015917296839626,-0.0015917262052122,0.0015917339467534,-0.0015917348604965,0.0015917250534028,-0.0015917306948031,0.0015917293155083,-0.0013286955131555,0.0013286772202828,-0.0013286830670055,0.0013286899520893,-0.0015023391774334,0.0015023559988413,-0.0015023527376322,0.0015023420947587,-6.1472831112667e-09,5.7589574658908e-09,-0.00078795370844758,0.00078795329794764,6.0444534032925e-09,-6.6623141881974e-09,-0.00092578197388908,0.00092578187406606,-0.00092578618900439,0.00092577763156672,-0.000925778018676,0.00092578585834088,-0.00092578223339804,0.00092578161545466,-0.00090569674021114,0.00090570375513316,-0.00090570835980453,0.00090569207084588,0.65988855352306,125803,2834,0.006240276711328,0.0062402767287961,0.0032823692870666,13.902659015248,-0.00012877872787802,-0.00012877872787802,-0.00012877872787802,3438667.8714527,0.015888629421406
22019200,0.98887666913309,0.016123771042003,0.0061349271704655,0.0061349271786205,0.0038539166929173,-0.0015034999838807,0.001503501039941,6.509493341035e-09,-5.4695547513862e-09,-6.2868516017637e-09,7.4975797699669e-09,-0.0015924984818027,0.0015924989693392,-0.0015925024647112,0.0015924949700844,-0.0015924940196159,0.0015925035609824,-0.0015924980150093,0.0015924995738112,-0.0013294284423381,0.0013294458238751,-0.0013294401817199,0.0013294340892469,6.2966741882787e-09,-7.4908846811284e-09,-6.9622543814252e-09,5.9163698957881e-09,-0.0015035010431367,0.0015034999893619,-0.0015924991269743,0.0015924983918298,-0.0015924949386212,0.0015925026780422,-0.0015925035843944,0.0015924937943189,-0.0015924993957102,0.0015924980798108,-0.0013294462065819,0.0013294278853597,-0.0013294336923784,0.0013294406862704,-0.0015031106695996,0.0015031274246312,-0.0015031241340308,0.0015031136197102,-6.2099591659033e-09,5.8189939359355e-09,-0.00078855317444769,0.00078855276112565,6.0779841170349e-09,-6.6992323590913e-09,-0.000926440789643,0.0009264406696112,-0.00092644502823862,0.00092643640368931,-0.00092643679342533,0.00092644469476913,-0.00092644103165772,0.00092644042842736,-0.00090634850197025,0.0009063556107977,-0.00090636024278143,0.00090634380794431,0.64982379260049,125803,2834,0.006243453024259,0.0062434530421955,0.0032848641073973,14.153319710963,-0.00012677344231229,-0.00012677344231229,-0.00012677344231229,3443056.9110237,0.015897617692993
22219200,0.98908198681547,0.016126801531584,0.0061360811709909,0.0061360811791475,0.0038546391814458,-0.001504450415284,0.001504451464266,6.567385658935e-09,-5.5347455470286e-09,-6.2458186579391e-09,7.4491569886026e-09,-0.0015934663171245,0.0015934668684125,-0.0015934703409886,0.0015934628280531,-0.0015934618842973,0.0015934714302037,-0.0015934659207051,0.0015934674020059,-0.0013303434527543,0.0013303609178335,-0.001330355312927,0.001330349062619,6.2555377544391e-09,-7.4422169091513e-09,-7.0004887495831e-09,5.9615345882656e-09,-0.001504451467402,0.0015044504206259,-0.001593467019095,0.0015934662335169,-0.0015934628033332,0.0015934705475669,-0.0015934714469976,0.0015934616658978,-0.0015934672308959,0.0015934659792374,-0.0013303612807508,0.0013303429143033,-0.0013303486851374,0.0013303557974029,-0.001504057900998,0.0015040746026507,-0.0015040712768233,0.0015040608859807,-6.2736579601946e-09,5.8794699992862e-09,-0.00078931883991242,0.00078931842335942,6.1176733207353e-09,-6.7426112469641e-09,-0.00092726382504881,0.00092726368814979,-0.00092726809134071,0.00092725939459268,-0.00092725978742845,0.00092726775469054,-0.00092726405335285,0.00092726346073167,-0.00090717474560355,0.00090718194504649,-0.00090718660743541,0.00090717002009903,0.64497435717062,125803,2834,0.0062473864171509,0.006247386434678,0.0032880492427693,14.49967521748,-0.00012400259826016,-0.00012400259826016,-0.00012400259826016,3451139.6347485,0.015908845678964
22419200,0.9892881054113,0.016129976741224,0.0061372857795371,0.0061372857876954,0.0038554051739913,-0.0015054092600973,0.0015054103032998,6.6260293085294e-09,-5.5991299153657e-09,-6.2136814653553e-09,7.4106705048089e-09,-0.0015944457403957,0.0015944463505336,-0.0015944498052667,0.0015944422690509,-0.0015944413307258,0.0015944508887401,-0.0015944454081984,0.0015944468194851,-0.0013312626229408,0.0013312801795726,-0.0013312746035906,0.0013312682037689,6.2231243927039e-09,-7.4037211613714e-09,-7.0383021478784e-09,6.0050311798717e-09,-0.0015054103063785,0.0015054092652756,-0.001594446494001,0.0015944456636237,-0.0015944422515776,0.0015944500048711,-0.0015944508986207,0.0015944411196289,-0.0015944466558007,0.0015944454601176,-0.0013312805215654,0.0013312621045223,-0.0013312678466757,0.0013312750678812,-0.0015050178449863,0.0015050345097906,-0.0015050311515592,0.0015050208635389,-6.3372366145122e-09,5.9400945870113e-09,-0.00079009433985039,0.0007900939202362,6.1563769156501e-09,-6.7849086092095e-09,-0.00092808745817273,0.00092808730387859,-0.00092809175145822,0.00092808298336688,-0.00092808337913334,0.00092809141178762,-0.00092808767205074,0.00092808709087962,-0.0009080182460621,0.00090802553709386,-0.00090803022945235,0.0009080134907266,0.6713935440077,125803,2834,0.0062513547202185,0.0062513547372902,0.0032912750758357,14.848657256558,-0.00012121074194754,-0.00012121074194754,-0.00012121074194754,3459602.9495029,0.015920185959419
22619200,0.98949478346063,0.016133197267858,0.0061385067725112,0.0061385067806719,0.0038561837146749,-0.0015063902779633,0.0015063913179735,6.6861744243727e-09,-5.6624856921843e-09,-6.1955696796579e-09,7.3892506215245e-09,-0.0015954252283571,0.0015954258895471,-0.0015954293342885,0.0015954217668204,-0.0015954208316492,0.0015954304145682,-0.0015954249502431,0.0015954263041368,-0.0013322361581518,0.0013322538195152,-0.0013322482598466,0.0013322417226361,6.2051685624186e-09,-7.3823173660764e-09,-7.0723277476961e-09,6.0422601503757e-09,-0.0015063913210555,0.0015063902831784,-0.0015954260239568,0.0015954251601374,-0.0015954217580773,0.0015954295251376,-0.001595430415642,0.00159542062925,-0.0015954261494093,0.0015954249935418,-0.0013322541356907,0.001332235664997,-0.0013322413912965,0.0013322486985487,-0.0015060036192029,0.001506020272287,-0.0015060168869559,0.001506006664694,-6.4004476149834e-09,6.0006188549483e-09,-0.00079083683114128,0.00079083640880062,6.1904375798481e-09,-6.8221297426147e-09,-0.00092894071582234,0.00092894054136156,-0.00092894503286696,0.00092893619711792,-0.00092893659551,0.00092894469053422,-0.00092894091220109,0.0009289403459136,-0.00090881938859869,0.0009088267742236,-0.00090883149298366,0.00090881460677805,0.67880268151367,125803,2834,0.0062554135154404,0.0062554135325954,0.0032943672238224,15.186838173145,-0.00011850529461484,-0.00011850529461484,-0.00011850529461484,3461782.285672,0.015931575093092
22819200,0.98969901940646,0.016136370134884,0.0061397103545644,0.0061397103627269,0.003856949417593,-0.0015069419700282,0.0015069430102789,6.7481947462238e-09,-5.724459776095e-09,-6.1988061828438e-09,7.3928734313208e-09,-0.0015959722202565,0.0015959729208008,-0.0015959763674778,0.0015959687567135,-0.0015959678212522,0.0015959774480979,-0.0015959719811932,0.0015959732963192,-0.0013327926700835,0.0013328104551453,-0.0013328048933956,0.0013327982367388,6.2087373588061e-09,-7.3862855235327e-09,-7.0925467154131e-09,6.0621001835171e-09,-0.0015069430133658,0.0015069419751128,-0.0015959730410835,0.0015959721661129,-0.0015959687620347,0.0015959765445076,-0.0015959774352333,0.0015959676327111,-0.0015959731558427,0.0015959720103647,-0.001332810730072,0.00133279221725,-0.0013327979465874,0.0013328052902489,-0.0015065568253147,0.0015065734988012,-0.0015065701000808,0.0015065598833359,-6.4627772184097e-09,6.061502396792e-09,-0.00079118830235325,0.0007911878785564,6.2097373396177e-09,-6.8430974125254e-09,-0.00092939845408605,0.00092939825052782,-0.00092940278452857,0.00092939389287892,-0.00092939429269612,0.0009294024408025,-0.00092939862279875,0.00092939808275246,-0.00090920754273291,0.00090921503402564,-0.00090921976723683,0.00090920274557477,0.67691803309714,125803,2834,0.0062576949422543,0.0062576949591509,0.0032958345374813,15.303453069037,-0.0001175723754477,-0.0001175723754477,-0.0001175723754477,3459271.630359,0.015937702232168
23019200,0.98990074056158,0.016139285411507,0.0061408235667081,0.0061408235748723,0.0038576382699268,-0.0015074625062492,0.0015074635482428,6.8105120377086e-09,-5.7849579358001e-09,-6.2096803753506e-09,7.4057030805014e-09,-0.0015964925630639,0.0015964932982924,-0.0015964967512036,0.0015964890932538,-0.0015964881562525,0.0015964978334679,-0.0015964923571184,0.0015964936407758,-0.0013333091658661,0.0013333270808792,-0.0013333215094752,0.0013333147423038,6.2193730852449e-09,-7.3986686752965e-09,-7.1080946800336e-09,6.076054564395e-09,-0.0015074635513907,0.0015074625115457,-0.001596493402956,0.0015964925242927,-0.001596489114234,0.0015964969125547,-0.0015964978047094,0.0015964879832332,-0.0015964935156065,0.0015964923707462,-0.0013333273101159,0.0013333087591518,-0.001333314497889,0.0013333218613168,-0.0015070728284818,0.001507089532736,-0.0015070861257517,0.0015070758945405,-6.525469347027e-09,6.1231960781512e-09,-0.00079151487968513,0.00079151445486792,6.2237073006428e-09,-6.8582532646973e-09,-0.00092982434483729,0.00092982410854224,-0.00092982868498211,0.00092981974116439,-0.00092982014199859,0.00092982834028515,-0.00092982448178137,0.00092982397251886,-0.0009095693038727,0.00090957690616332,-0.00090958165036641,0.00090956449623371,0.63260003388679,125803,2834,0.0062598474942599,0.0062598475117199,0.0032971980691282,15.414682898317,-0.00011668253681347,-0.00011668253681347,-0.00011668253681347,3457403.0559816,0.015943462072458
23219200,0.99009994478923,0.016142293660924,0.0061419673031394,0.0061419673113043,0.0038583590464798,-0.0015079195520625,0.0015079205961537,6.8732725067723e-09,-5.8455272649781e-09,-6.2249784337113e-09,7.4229050034651e-09,-0.0015969844711259,0.0015969852389192,-0.0015969887003594,0.0015969809927045,-0.0015969800536272,0.0015969897849096,-0.0015969842956044,0.0015969855510695,-0.0013337095384114,0.0013337275873756,-0.00133372200269,0.0013337151277906,6.2344603128111e-09,-7.4160734421495e-09,-7.1189504129762e-09,6.084829152069e-09,-0.0015079205992286,0.0015079195572132,-0.0015969853264545,0.0015969844498886,-0.001596981031295,0.0015969888446977,-0.0015969897388872,0.0015969798979779,-0.0015969854433519,0.0015969842920548,-0.0013337277655438,0.0013337091825509,-0.0013337149342147,0.001333722304105,-0.0015075269447444,0.0015075436852886,-0.0015075402746419,0.0015075300156939,-6.5877073409302e-09,6.1848255632657e-09,-0.00079186446583748,0.00079186404033034,6.2331004474055e-09,-6.8685507243256e-09,-0.00093016603826666,0.00093016576655912,-0.00093017038495964,0.00093016139262664,-0.00093016179411948,0.00093017003959759,-0.00093016614045935,0.00093016566529026,-0.00090997692964714,0.00090998464595839,-0.00090998939734771,0.00090997211504251,0.65900010384707,125803,2834,0.0062617392622237,0.0062617392792307,0.003298651784913,15.525708621504,-0.00011579433102797,-0.00011579433102797,-0.00011579433102797,3464735.3021073,0.01594878249043
23419200,0.99029748011031,0.016145244948148,0.0061430905751137,0.0061430905832803,0.0038590637897545,-0.0015085475049492,0.0015085485514193,6.938172460888e-09,-5.9079176228779e-09,-6.2401672507622e-09,7.4404662705687e-09,-0.001597624356668,0.0015976251583633,-0.001597628628315,0.0015976208697461,-0.0015976199283651,0.0015976297153311,-0.0015976242128126,0.0015976254389785,-0.0013343130698435,0.0013343312571334,-0.0013343256589926,0.0013343186727158,6.2513664443992e-09,-7.4358144807268e-09,-7.1250094770118e-09,6.0882894466498e-09,-0.0015085485546439,0.0015085475099787,-0.0015976252258703,0.0015976243556264,-0.001597620927601,0.0015976287536876,-0.0015976296503397,0.0015976197915986,-0.0015976253517031,0.0015976241887683,-0.0013343313783001,0.0013343127713627,-0.0013343185379823,0.001334325902317,-0.0015081555852314,0.0015081723624821,-0.0015081689519152,0.0015081586572328,-6.647835811401e-09,6.2446170387948e-09,-0.00079231691198856,0.00079231648610762,6.2386323691113e-09,-6.8745757010333e-09,-0.00093068012572607,0.00093067981749393,-0.00093068447622474,0.00093067543974673,-0.00093067584156719,0.0009306841305604,-0.00093068019180348,0.00093067975234466,-0.00091047882969121,0.00091048665906839,-0.00091049141488602,0.00091047401133629,0.65256368811322,125803,2834,0.0062643372790182,0.006264337296084,0.0033005363570285,15.704341363933,-0.00011436526908854,-0.00011436526908854,-0.00011436526908854,3466894.6719904,0.015955976490972
23619200,0.99049752163693,0.016148302895305,0.0061442520288738,0.0061442520370423,0.0038597988293892,-0.0015098328778118,0.0015098339235224,6.9979601367685e-09,-5.9655920775511e-09,-6.2529718430612e-09,7.4454537133822e-09,-0.0015989247055547,0.0015989255424744,-0.0015989290165971,0.0015989212138761,-0.0015989202715589,0.0015989301050161,-0.0015989245954037,0.0015989257891254,-0.001335555239897,0.0013355735540848,-0.0013355679418479,0.0013355608532477,6.2571710996592e-09,-7.4416885225884e-09,-7.1373057380359e-09,6.1017034326191e-09,-0.0015098339254637,0.0015098328805857,-0.0015989255976931,0.0015989247223608,-0.0015989212910724,0.0015989291286914,-0.0015989300259229,0.0015989201539313,-0.0015989257190741,0.0015989245599509,-0.0013355736266417,0.0013355549918673,-0.0013355607620772,0.0013355681493879,-0.0015094478900604,0.0015094646870129,-0.0015094612838172,0.0015094509855734,-6.7126807376139e-09,6.3094365318685e-09,-0.00079334941527025,0.00079334898848044,6.248814939004e-09,-6.8870729438797e-09,-0.00093179118177781,0.00093179083662707,-0.00093179553971041,0.00093178645155174,-0.0009317868537836,0.00093179519277236,-0.00093179121172651,0.00093179080762956,-0.00091160025275871,0.00091160820177103,-0.00091161296876705,0.00091159543272445,0.6666903444151,125803,2834,0.0062696565041382,0.0062696565138853,0.0033048323679846,16.218757754574,-0.00011024993796341,-0.00011024993796341,-0.00011024993796341,3475109.8481579,0.015971149856933
23819200,0.99070004018621,0.016151567096934,0.0061454866255994,0.0061454866337904,0.0038605938375438,-0.0015111710627897,0.0015111721107354,7.0605728623456e-09,-6.028159016527e-09,-6.2561883542108e-09,7.4558797511092e-09,-0.0016002666052839,0.0016002674798819,-0.0016002709578674,0.0016002631100906,-0.0016002621667032,0.0016002720471465,-0.00160026653205,0.0016002676897938,-0.0013368684814921,0.0013368869200267,-0.0013368813068629,0.0013368740971582,6.2640701651328e-09,-7.4502726341681e-09,-7.146159413523e-09,6.1081317164527e-09,-0.0015111721134147,0.0015111710670122,-0.0016002675151315,0.0016002666385105,-0.0016002632035078,0.001600271050233,-0.0016002719485518,0.0016002620652386,-0.0016002676364828,0.0016002664762048,-0.001336886940326,0.0013368682829641,-0.0013368740597995,0.001336881454518,-0.0015107974879416,0.0015108143036592,-0.0015108108852291,0.0015108005755691,-6.7742725640411e-09,6.3700887620433e-09,-0.00079439439299378,0.00079439396577316,6.2567939890289e-09,-6.8948204945549e-09,-0.00093295318637685,0.00093295280558631,-0.00093295754966015,0.00093294841507372,-0.00093294881808992,0.00093295720259772,-0.0009329531811069,0.00093295281174509,-0.00091273327500358,0.00091274133740904,-0.00091274610739409,0.00091272844426096,0.70079154913844,125803,2834,0.0062751935037677,0.0062751935180385,0.0033091824448416,16.741352211995,-0.00010606918230404,-0.00010606918230404,-0.00010606918230404,3480153.0805629,0.015986821285002
24019200,0.99090489565137,0.016154907725945,0.0061467496171909,0.0061467496253894,0.0038614084833648,-0.0015125635203072,0.0015125645697681,7.1230167764328e-09,-6.0896919988543e-09,-6.2614555224201e-09,7.4643345555854e-09,-0.0016016357656798,0.0016016366779537,-0.0016016401595163,0.0016016322669572,-0.0016016313225451,0.0016016412498543,-0.0016016357291807,0.0016016368512967,-0.0013382739931338,0.0013382925578243,-0.0013382869410452,0.0013382796140159,6.2705391513332e-09,-7.458105387524e-09,-7.1502758563269e-09,6.1107886804387e-09,-0.0015125645727464,0.0015125635251407,-0.0016016366930434,0.0016016358178143,-0.0016016323790965,0.0016016402317499,-0.0016016411311447,0.0016016312398311,-0.0016016368168229,0.0016016356530437,-0.0013382925215013,0.0013382738512049,-0.001338279634425,0.0013382870293846,-0.0015122047239506,0.0015122215547017,-0.001512218132175,0.0015122078095478,-6.8361709721826e-09,6.4315358459359e-09,-0.00079541829276368,0.00079541786534061,6.2605018512636e-09,-6.8984077291999e-09,-0.00093417408361683,0.00093417366399575,-0.00093417844934656,0.00093416927099375,-0.00093416967432783,0.00093417810215328,-0.0009341740397593,0.00093417370879673,-0.00091383620495084,0.00091384438492902,-0.00091384915726889,0.00091383137000036,0.70866200626596,125803,2834,0.0062809534533023,0.0062809534694548,0.003313449402427,17.264256767181,-0.00010188594586255,-0.00010188594586255,-0.00010188594586255,3478184.4077759,0.016002862330584
24219200,0.9911107089183,0.016158120167415,0.0061479692507976,0.006147969258998,0.0038621816576197,-0.0015137704635967,0.0015137715153474,7.1850502498822e-09,-6.1505578792669e-09,-6.2677887618851e-09,7.4760364471007e-09,-0.0016028191501633,0.001602820098444,-0.00160282358472,0.0016028156467591,-0.0016028147010693,0.0016028246764531,-0.0016028191484213,0.001602820237239,-0.0013394964788972,0.0013395151694819,-0.0013395095480081,0.001339502106001,6.2782365702412e-09,-7.4674657903556e-09,-7.145706305566e-09,6.1041834776422e-09,-0.0015137715187453,0.0015137704696522,-0.001602820090442,0.0016028192232054,-0.0016028157799461,0.0016028236333157,-0.0016028245341352,0.0016028146396013,-0.0016028202233861,0.0016028190491443,-0.0013395150685149,0.0013394964013074,-0.0013395021919223,0.0013395095681711,-0.001513419430253,0.0015134362724244,-0.0015134328487062,0.0015134225043147,-6.8983751816008e-09,6.4937684526254e-09,-0.00079625805443316,0.00079625762743426,6.2555086191049e-09,-6.8924029042664e-09,-0.0009352207376677,0.00093522027347676,-0.0009352250998155,0.0009352158839788,-0.00093521628711687,0.000935224753155,-0.00093522064883868,0.00093522036332243,-0.00091474559480624,0.00091475390019691,-0.00091475866745396,0.00091474076111541,0.68010063371573,125803,2834,0.0062859450649086,0.0062859450844545,0.0033169519501092,17.692158652725,-9.8462730778198e-05,-9.8462730778198e-05,-9.8462730778198e-05,3474071.8455871,0.016016565773117
24419200,0.99131432884051,0.016161295152676,0.0061491748688295,0.0061491748770227,0.0038629454068241,-0.0015144664479606,0.0015144675032814,7.2505158165423e-09,-6.2151174162527e-09,-6.2742393100018e-09,7.4927062247916e-09,-0.0016035174611054,0.0016035184463015,-0.001603521939783,0.0016035139526023,-0.0016035130038219,0.0016035230321565,-0.0016035174952813,0.0016035185498573,-0.0013401772588213,0.0013401960806265,-0.0013401904575016,0.0013401828938817,6.2922684555767e-09,-7.4861385381737e-09,-7.129504049067e-09,6.0825657206712e-09,-0.001514467508884,0.0015144664559451,-0.0016035184069433,0.0016035175596567,-0.0016035141099416,0.0016035219590467,-0.0016035228618039,0.0016035129662195,-0.0016035185630438,0.0016035173624778,-0.0013401959045392,0.0013401772575046,-0.001340183064862,0.0013401903882606,-0.001514117662573,0.0015141345207857,-0.0015141310984359,0.0015141207077865,-6.9560394983868e-09,6.5535770931007e-09,-0.0007967012212938,0.00079670079694481,6.2397336845183e-09,-6.8722097324609e-09,-0.00093577878188335,0.00093577826946695,-0.00093578313192405,0.00093577389182794,-0.00093577429303825,0.00093578278828279,-0.0009357786420089,0.00093577840908396,-0.00091525090113519,0.00091525933597581,-0.00091526408777433,0.00091524607747184,0.67934589668463,125803,2834,0.0062888231735184,0.006288823201612,0.0033188018133453,17.884728374582,-9.6922173003346e-05,-9.6922173003346e-05,-9.6922173003346e-05,3473004.4580215,0.016024294491632
24619200,0.99151564499658,0.016164582518583,0.0061504182529361,0.0061504182611027,0.003863746004544,-0.0015151499109589,0.0015151509661297,7.3113796288417e-09,-6.2732742290138e-09,-6.2904849992365e-09,7.5016865836242e-09,-0.0016042008893159,0.0016042019083328,-0.0016042054072942,0.0016041973739068,-0.0016041964242451,0.0016042065024864,-0.0016042009549724,0.0016042019801899,-0.0013408474681772,0.0013408664226556,-0.0013408607818908,0.0013408531157146,6.3017285697532e-09,-7.4954516623306e-09,-7.1086915940808e-09,6.0631699007332e-09,-0.0015151509697638,0.0015151499165969,-0.0016042018458136,0.001604201017477,-0.0016041975614093,0.0016042054020694,-0.0016042063066127,0.0016041964170204,-0.0016042020214642,0.0016042008002607,-0.001340866162759,0.0013408475510477,-0.0013408533627406,0.0013408606414411,-0.0015148099434673,0.0015148268060188,-0.0015148234138239,0.0015148129884586,-7.0193756243211e-09,6.618290689233e-09,-0.00079714113472182,0.00079714071111608,6.2189170970133e-09,-6.85182028911e-09,-0.00093631985991043,0.00093631929133755,-0.000936324196235,0.00093631492762643,-0.00093631532749775,0.00093632385289766,-0.00093631966342703,0.0009363194885943,-0.00091575581592556,0.00091576439057387,-0.00091576912943507,0.00091575101207486,0.70944458326162,125803,2834,0.0062916496990376,0.0062916497182066,0.0033206374851802,18.071550791573,-9.5427593667419e-05,-9.5427593667419e-05,-9.5427593667419e-05,3472180.2469613,0.016031903809357
24819200,0.9917146212553,0.016167596123506,0.0061515659765773,0.0061515659847412,0.0038644641621877,-0.001515858634511,0.0015158596903998,7.3732501907385e-09,-6.3339279444373e-09,-6.2978607906759e-09,7.5085909228779e-09,-0.0016048905772096,0.0016048916335158,-0.0016048951359478,0.0016048870579831,-0.0016048861075386,0.0016048962323678,-0.001604890678983,0.0016048916690712,-0.0013415723419756,0.0013415914231733,-0.0013415857747488,0.0013415779954159,6.3079580466822e-09,-7.5024068375211e-09,-7.0880423191819e-09,6.0420039591985e-09,-0.0015158596936615,0.0015158586396968,-0.0016048915443706,0.0016048907333926,-0.00160488727351,0.0016048951037031,-0.001604896009429,0.0016048861283119,-0.0016048917380545,0.0016048904976565,-0.0013415910816211,0.0013415725061566,-0.0013415783222624,0.0013415855552344,-0.0015155216003988,0.0015155384613823,-0.0015155350865736,0.0015155246334775,-7.0804804385338e-09,6.6818869978506e-09,-0.00079755257205068,0.00079755215080117,6.1989382704722e-09,-6.8295568979049e-09,-0.00093689959208779,0.0009368989702115,-0.00093690391437866,0.00093689462058421,-0.00093689501797992,0.00093690357333743,-0.00093689933990777,0.00093689922323464,-0.00091621343047976,0.00091622214385737,-0.00091622686638942,0.00091620864416389,0.66112227396045,125803,2834,0.0062945795062821,0.0062945795237468,0.0033223581483131,18.258155181903,-9.3934758544773e-05,-9.3934758544773e-05,-9.3934758544773e-05,3465817.7540878,0.016039607032208
25019200,0.99191349250573,0.016170572517683,0.0061527004629057,0.0061527004710714,0.0038651715837061,-0.0015168566568366,0.0015168577120351,7.43528145702e-09,-6.3964149539727e-09,-6.2932604503308e-09,7.5030508548879e-09,-0.0016059094264245,0.0016059105268341,-0.0016059140266275,0.0016059059098017,-0.0016059049601017,0.0016059151223258,-0.0016059095730144,0.0016059105175207,-0.0013425186542147,0.0013425378539054,-0.0013425322088851,0.0013425243039745,6.3037597275851e-09,-7.497437211938e-09,-7.0740921844657e-09,6.0288168395045e-09,-0.0015168577153225,0.0015168566620712,-0.0016059104123832,0.0016059096080353,-0.0016059061503615,0.001605913969213,-0.0016059148743904,0.0016059050059821,-0.0016059106119602,0.0016059093662809,-0.0013425374382602,0.0013425188932951,-0.0013425247054139,0.0013425319155158,-0.001516519822853,0.0015165366665312,-0.0015165333006296,0.0015165228480778,-7.1413349787501e-09,6.7438119026461e-09,-0.0007982990144547,0.00079829859430276,6.186245340931e-09,-6.8156861953329e-09,-0.00093771951983797,0.0009377188492467,-0.0009377238332768,0.00093771450847489,-0.00093771490474493,0.0009377234933241,-0.00093771921786682,0.00093771915209347,-0.00091704717667507,0.00091705602002675,-0.0009170607330025,0.00091704240074292,0.6536253730295,125803,2834,0.0062987087695314,0.0062987087871494,0.0033254659316115,18.629562397759,-9.0963500817929e-05,-9.0963500817929e-05,-9.0963500817929e-05,3472439.8141403,0.016051155997131
25219200,0.9921154621959,0.016173698380316,0.0061538882779568,0.0061538882861242,0.003865921816235,-0.0015183850637805,0.0015183861155189,7.4960190889388e-09,-6.4590175180367e-09,-6.2814474736797e-09,7.4837323730542e-09,-0.0016074631735284,0.0016074643234128,-0.0016074678151182,0.0016074596649452,-0.0016074587175229,0.0016074689083887,-0.0016074633717473,0.0016074642621377,-0.0013439813310324,0.0013440006416809,-0.0013439950054637,0.0013439869699859,6.2895215241995e-09,-7.4802314919561e-09,-7.0699173429682e-09,6.0280110766494e-09,-0.0015183861182533,0.0015183850676755,-0.0016074641887332,0.0016074633781478,-0.001607459928594,0.001607467737702,-0.001607468640469,0.0016074587864511,-0.0016074643797577,0.0016074631450289,-0.0013440001617979,0.0013439816356878,-0.0013439874342786,0.0013439946534044,-0.001518054377057,0.0015180711909575,-0.0015180678326102,0.0015180574116662,-7.2029292530503e-09,6.8061222844597e-09,-0.00079952015585471,0.00079951973596527,6.1836069338855e-09,-6.8134462875491e-09,-0.00093902054722014,0.00093901983379388,-0.00093902485898833,0.00093901549481821,-0.00093901589053262,0.00093902451912218,-0.00093902020209982,0.00093902017971306,-0.00091838428386216,0.00091839325084801,-0.00091839796360989,0.00091837951369609,0.67454673403221,125803,2834,0.0063050335374355,0.00630503355114,0.0033305465106812,19.270319373746,-8.5837445010032e-05,-8.5837445010032e-05,-8.5837445010032e-05,3484263.5107743,0.016069171170287
25419200,0.99232041321553,0.016177136823975,0.0061551864841079,0.0061551864922877,0.0038667638475791,-0.0015199778306207,0.0015199788794126,7.5547957379996e-09,-6.5215474120855e-09,-6.2678952612787e-09,7.4672643109069e-09,-0.0016090626987698,0.0016090638968591,-0.0016090673807754,0.001609059197611,-0.0016090582525353,0.0016090684718119,-0.00160906294728,0.0016090637849377,-0.0013455368500875,0.0013455562645734,-0.0013455506424418,0.0013455424733667,6.2750543088688e-09,-7.4631269800114e-09,-7.0668202708643e-09,6.027155610684e-09,-0.0015199788818476,0.0015199778336989,-0.0016090637418757,0.0016090629244338,-0.001609059482957,0.001609067282669,-0.0016090681831501,0.0016090583432454,-0.0016090639236696,0.0016090627005637,-0.0013455557219849,0.0013455372124798,-0.0013455429978788,0.0013455502261737,-0.0015196628109657,0.0015196795953777,-0.0015196762344673,0.0015196658469678,-7.2652123377109e-09,6.8697975727821e-09,-0.00080075639149886,0.00080075597249244,6.1819711580283e-09,-6.8107455526089e-09,-0.00094038796418897,0.00094038720798526,-0.00094039227455944,0.0009403828703853,-0.00094038326554351,0.00094039193506268,-0.00094038757570237,0.00094038759713254,-0.0009197350271193,0.00091974412007632,-0.00091974882777278,0.00091973025798336,0.72789189736906,125803,2834,0.0063116235789934,0.0063116235903932,0.0033356928565331,19.917679563283,-8.0658563493738e-05,-8.0658563493738e-05,-8.0658563493738e-05,3491215.5585979,0.01608779309629
25619200,0.99252813007031,0.016180643542219,0.0061565107985055,0.0061565108067,0.003867621937014,-0.0015216498725146,0.0015216509207322,7.6161798538746e-09,-6.5841774148407e-09,-6.2537313179186e-09,7.4554377064369e-09,-0.0016107002845941,0.0016107015302909,-0.0016107050077723,0.0016106967902571,-0.0016106958469133,0.0016107060967059,-0.0016107005827565,0.0016107013689264,-0.0013472307823261,0.0013472503077262,-0.0013472446980186,0.0013472363964101,6.2630776950991e-09,-7.4494447688825e-09,-7.0641976782375e-09,6.0257624980515e-09,-0.0015216509238423,0.0015216498773695,-0.0016107013525573,0.0016107005298365,-0.0016106970948599,0.0016107048867031,-0.0016107057854626,0.0016106959573066,-0.0016107015272534,0.0016107003132622,-0.0013472497044781,0.0013472312082767,-0.0013472369842573,0.0013472442179018,-0.0015213547549777,0.0015213715141041,-0.0015213681469538,0.001521357784632,-7.3275477026429e-09,6.9309150599201e-09,-0.00080196066305833,0.00080196024367276,6.179943320049e-09,-6.8086147616691e-09,-0.00094184821682975,0.00094184741800947,-0.00094185252585122,0.00094184308172135,-0.00094184347723138,0.00094185218649515,-0.00094184778593147,0.00094184784979405,-0.00092103875371319,0.0009210479676673,-0.00092105267534876,0.00092103398339401,0.7324347354328,125803,2834,0.0063185390951718,0.0063185391116402,0.003340713396921,20.565281162284,-7.5477750701729e-05,-7.5477750701729e-05,-7.5477750701729e-05,3487313.0632504,0.016106950257244
25819200,0.99273322865602,0.016184012853048,0.0061577867561232,0.0061577867643195,0.0038684393326052,-0.0015225116573774,0.0015225127088061,7.6775037261195e-09,-6.6462672532741e-09,-6.2498406811867e-09,7.4645476274292e-09,-0.001611532117684,0.00161153340212,-0.0016115368813577,0.0016115286219875,-0.0016115276781126,0.0016115379707458,-0.0016115324544978,0.0016115332026522,-0.0013481215014416,0.0013481411433723,-0.001348135541058,0.0013481271132214,6.2661933830346e-09,-7.454232945405e-09,-7.0492432219361e-09,6.0075829658134e-09,-0.0015225127134661,0.0015225116656556,-0.0016115331951468,0.001611532385004,-0.0016115289478538,0.0016115367308939,-0.0016115376306348,0.0016115278103346,-0.0016115333829892,0.0016115321552108,-0.0013481404676881,0.0013481219976293,-0.0013481277785703,0.0013481349734037,-0.0015222265171199,0.0015222432714399,-0.0015222398952346,0.0015222295136179,-7.3895087171958e-09,6.9930700908913e-09,-0.00080244493629947,0.0008024445183102,6.1641822305744e-09,-6.7894976682797e-09,-0.00094256044572645,0.00094255959572699,-0.00094256474332284,0.00094255527064961,-0.00094255566549567,0.00094256440573268,-0.00094255996243603,0.0009425600800512,-0.00092158708962349,0.00092159643658454,-0.00092160112752851,0.00092158232286886,0.71386317813875,125803,2834,0.0063221008582174,0.0063221008849683,0.0033427409694846,20.804786736722,-7.3561706106223e-05,-7.3561706106223e-05,-7.3561706106223e-05,3477611.7534264,0.016116250645934
26019200,0.99293116616982,0.016187134561481,0.0061589731879332,0.0061589731961047,0.0038691881774429,-0.0015225979898661,0.0015225990412517,7.7406877190683e-09,-6.7066507046599e-09,-6.2695155901317e-09,7.4766129457243e-09,-0.0016116069821964,0.0016116083005035,-0.0016116117876476,0.0016116034784329,-0.0016116025323369,0.0016116128793855,-0.0016116073504424,0.0016116080694287,-0.0013482202756381,0.0013482400561519,-0.0013482344342826,0.0013482259031297,6.2810198467434e-09,-7.4706917656126e-09,-7.0214836519637e-09,5.9796144717428e-09,-0.0015225990446418,0.0015225979951109,-0.0016116080663944,0.0016116072831108,-0.0016116038377592,0.0016116116102639,-0.0016116125121385,0.0016116026976085,-0.0016116082831054,0.0016116070238348,-0.0013482392895066,0.0013482208639671,-0.0013482266556887,0.0013482337855864,-0.0015223133522044,0.001522330117164,-0.001522326777921,0.0015223163442491,-7.4497491034779e-09,7.0561954568371e-09,-0.00080229408993478,0.00080229367398544,6.1369898542773e-09,-6.7612273913575e-09,-0.00094254834764257,0.0009425474396134,-0.00094255262660332,0.00094254313332439,-0.00094254352564652,0.00094255229066066,-0.0009425478042472,0.00094254798387701,-0.00092147117768543,0.00092148066690953,-0.00092148533960993,0.0009214664379726,0.68688290392164,125803,2834,0.0063224543396451,0.0063224543574981,0.0033421246336289,20.675847227359,-7.4593222181125e-05,-7.4593222181125e-05,-7.4593222181125e-05,3467326.7673636,0.016116343664922
26219200,0.99312212536714,0.016190326190257,0.0061601797116522,0.0061601797198233,0.0038699667587813,-0.0015226203214718,0.0015226213748343,7.8035480861978e-09,-6.766931160898e-09,-6.2831283298013e-09,7.4913042732085e-09,-0.0016116345498315,0.0016116359019991,-0.0016116393964147,0.0016116310388268,-0.0016116300907378,0.001611640490271,-0.0016116349498761,0.0016116356392216,-0.0013482276540652,0.0013482475678293,-0.0013482419327819,0.0013482332939682,6.2932538548264e-09,-7.4849629040273e-09,-6.9981541564128e-09,5.954598482306e-09,-0.0015226213780692,0.0015226203266293,-0.0016116356399265,0.0016116348795437,-0.0016116314272258,0.0016116391905183,-0.0016116400944283,0.0016116302851536,-0.0016116358812758,0.0016116345952558,-0.0013482467166558,0.0013482283281631,-0.0013482341300129,0.0013482412022242,-0.0015223418575513,0.0015223586304655,-0.0015223553116312,0.0015223448337333,-7.5108400385485e-09,7.1191071711039e-09,-0.00080215045731287,0.0008021500430844,6.1144970218003e-09,-6.736949040186e-09,-0.00094246200920271,0.00094246104588869,-0.00094246627257784,0.00094245675519231,-0.00094245714580667,0.00094246593828258,-0.00094246140883471,0.00094246164716634,-0.0009213741757128,0.0009213838036665,-0.0009213884599493,0.00092136945476861,0.72524659884854,125803,2834,0.0063225445605208,0.0063225445778717,0.0033415338511452,20.537816520091,-7.5697467839269e-05,-7.5697467839269e-05,-7.5697467839269e-05,3462896.7715445,0.016115926697033
26419200,0.99330638824633,0.016193494740315,0.0061613748916643,0.0061613748998368,0.0038707449488138,-0.0015226860265932,0.001522687081564,7.8661203770691e-09,-6.8277885464526e-09,-6.293590003322e-09,7.5033782612388e-09,-0.0016116752846247,0.0016116766720791,-0.0016116801723776,0.0016116717677952,-0.001611670818129,0.0016116812678769,-0.0016116757184087,0.0016116763756755,-0.0013483254396651,0.0013483454835617,-0.0013483398392855,0.0013483310888173,6.3036661540907e-09,-7.4971967362137e-09,-6.9786484470604e-09,5.9334320816272e-09,-0.0015226870848425,0.0015226860317005,-0.001611676382865,0.0016116756417627,-0.0016116721835285,0.0016116799391657,-0.0016116808448231,0.0016116710398404,-0.0016116766450222,0.0016116753363448,-0.0013483445521918,0.0013483261944159,-0.0013483320052809,0.0013483390284689,-0.0015224189513957,0.0015224357313325,-0.0015224324280645,0.0015224219126123,-7.5719862501211e-09,7.181689988477e-09,-0.00080199377725786,0.00080199336447298,6.0948481533575e-09,-6.7156236211841e-09,-0.00094243656710734,0.00094243555027255,-0.00094244081682775,0.00094243127322444,-0.00094243166243171,0.00094244048391934,-0.00094243591182046,0.00094243620644918,-0.00092124483351627,0.00092125459759277,-0.00092125923896035,0.00092124012784636,0.74502754267772,125803,2834,0.0063228128917659,0.0063228129091032,0.0033408926369083,20.399440079898,-7.6804479360819e-05,-7.6804479360819e-05,-7.6804479360819e-05,3451432.9908918,0.016115821295422
26619200,0.99348827383161,0.016196593824924,0.0061625448606337,0.0061625448688076,0.003871504095483,-0.0015234901692868,0.0015234912201136,7.9258889299455e-09,-6.8871671335951e-09,-6.2971825993353e-09,7.4909500050311e-09,-0.0016124404091382,0.0016124418398139,-0.0016124453372089,0.001612436894659,-0.0016124359457677,0.0016124464322609,-0.0016124408863831,0.0016124414994013,-0.0013491671227631,0.0013491872870735,-0.0013491816355759,0.0013491727730237,6.3006806538251e-09,-7.4921201070805e-09,-6.9767699558266e-09,5.9355028282239e-09,-0.0015234912214208,0.001523490169897,-0.0016124415343434,0.0016124407916054,-0.0016124373353303,0.0016124450889313,-0.001612445993638,0.0016124361918574,-0.0016124417941418,0.0016124404884613,-0.001349186292737,0.0013491679418426,-0.0013491737470713,0.0013491807774413,-0.0015232385836501,0.0015232553575891,-0.0015232520782098,0.0015232415711856,-7.6351936970195e-09,7.2463020836807e-09,-0.0008024518349527,0.00080245142215098,6.0909719481277e-09,-6.7138296805677e-09,-0.00094309767346915,0.00094309661126599,-0.000943101920986,0.00094309233666514,-0.00094309272505671,0.00094310158753625,-0.00094309697285544,0.00094309731281794,-0.00092176167060222,0.00092177156344162,-0.00092177620668482,0.0009217569776653,0.73848438824991,125803,2834,0.006326136510602,0.0063261365145662,0.0033428097938298,20.629679604895,-7.496256316084e-05,-7.496256316084e-05,-7.496256316084e-05,3442586.4062256,0.016124525188861
26819200,0.99366997796892,0.016199613540075,0.0061636874046835,0.0061636874128878,0.0038722387225033,-0.0015246794055198,0.0015246804517023,7.990960668578e-09,-6.9555612621426e-09,-6.29187062873e-09,7.4746036026966e-09,-0.0016136022643043,0.0016136037470889,-0.0016136072393017,0.0016135987555409,-0.0016135978076126,0.001613608331825,-0.0016136027952509,0.0016136033525693,-0.0013503719626276,0.0013503922522337,-0.0013503866087693,0.0013503776032095,6.2881178677273e-09,-7.4774606339874e-09,-6.9803873925978e-09,5.9420100322752e-09,-0.0015246804520195,0.0015246794024854,-0.0016136034230381,0.0016136026702782,-0.0016135992224148,0.0016136069714817,-0.0016136078734616,0.0016135980796997,-0.0016136036713923,0.0016136023791188,-0.0013503911908573,0.0013503728432373,-0.0013503786388781,0.0013503856900218,-0.0015244385940209,0.0015244553483203,-0.0015244520788362,0.0015244416061517,-7.6909331249873e-09,7.3037979837793e-09,-0.0008032539837222,0.00080325357105833,6.1050587187204e-09,-6.7284999452238e-09,-0.00094410825404138,0.00094410716435926,-0.00094411251140435,0.00094410288004179,-0.0009441032687893,0.00094411217718863,-0.00094410752615441,0.00094410789234602,-0.00092264691505742,0.00092265690848363,-0.00092266156157191,0.00092264221892814,0.72121903963816,125803,2834,0.0063310540549747,0.0063310540493622,0.0033461571116258,21.064168593376,-7.1486651252995e-05,-7.1486651252995e-05,-7.1486651252995e-05,3439189.5120799,0.016137921671083
27019200,0.99385140218811,0.016202544677732,0.0061647992814152,0.0061647992896661,0.0038729461066511,-0.0015258488304315,0.0015258498802489,8.0479558645315e-09,-7.0136117968563e-09,-6.2694908720045e-09,7.4708336109849e-09,-0.0016147635396427,0.0016147650644291,-0.0016147685499954,0.0016147600372914,-0.0016147590917666,0.0016147696412272,-0.0016147641147046,0.0016147646262569,-0.001351530724091,0.0013515511074079,-0.0013515454834791,0.0013515363514966,6.2780464894598e-09,-7.4666376484784e-09,-6.9972807987281e-09,5.9571598250844e-09,-0.0015258498829782,0.0015258488343351,-0.0016147647215448,0.0016147639521135,-0.0016147605083658,0.0016147682637316,-0.0016147691650832,0.0016147593688283,-0.0016147649514102,0.0016147636795449,-0.0013515500149548,0.0013515316394821,-0.0013515374274426,0.0013515445157636,-0.0015256124403029,0.0015256291839795,-0.001525625868941,0.0015256154276422,-7.7598279680358e-09,7.3681483998006e-09,-0.00080406743156033,0.0008040670169079,6.1131764454187e-09,-6.7365873833061e-09,-0.00094509166024195,0.00094509052966473,-0.00094509592298515,0.00094508623968592,-0.00094508663056912,0.00094509558815022,-0.00094509089316145,0.00094509129782888,-0.0009235509371194,0.0009235610526312,-0.00092356571012991,0.00092354621979725,0.70228504570124,125803,2834,0.0063358903364676,0.0063358903501846,0.0033495493119091,21.503743293088,-6.7970053655295e-05,-6.7970053655295e-05,-6.7970053655295e-05,3439924.4125953,0.016151198419263
27219200,0.99403238948439,0.016205378447811,0.0061658772775714,0.0061658772858243,0.0038736238844155,-0.001526986433482,0.0015269874818206,8.1089016684437e-09,-7.0766341796834e-09,-6.2593073179874e-09,7.4601448407548e-09,-0.0016159109297658,0.0016159125012261,-0.0016159159815593,0.0016159074327278,-0.001615906488695,0.0016159170710869,-0.0016159115530899,0.0016159120147435,-0.0013526316768238,0.0013526521718082,-0.0013526465579139,0.0013526372946051,6.2682941476224e-09,-7.4552487089981e-09,-7.0093148233436e-09,5.9705421589802e-09,-0.0015269874846435,0.0015269864375664,-0.0016159121415475,0.0016159113583416,-0.001615907920105,0.0016159156784085,-0.001615916578121,0.0016159067821309,-0.0016159123561397,0.0016159111012266,-0.0013526510312256,0.001352632639104,-0.0013526384186638,0.0013526455402193,-0.0015267498348185,0.0015267665676674,-0.001526763240043,0.0015267528296191,-7.821938323069e-09,7.4293070126234e-09,-0.0008048876654418,0.00080488724995409,6.125791743155e-09,-6.7499719108904e-09,-0.0009460366154666,0.00094603545174171,-0.00094604088692967,0.00094603115302615,-0.00094603154481273,0.0009460405512611,-0.00094603581600041,0.00094603625210842,-0.00092446766894819,0.00092447789560327,-0.00092448256162022,0.00092446294056282,0.68191771384596,125803,2834,0.0063405957937067,0.00634059580799,0.0033529671966851,21.94351176224,-6.4451905902083e-05,-6.4451905902083e-05,-6.4451905902083e-05,3444571.5491176,0.016164235111571
27419200,0.99421136088746,0.016208269020039,0.006166973789471,0.0061669737977241,0.0038743214328435,-0.0015278399464099,0.001527840997725,8.172345271697e-09,-7.1399965990638e-09,-6.248671021566e-09,7.4622472440572e-09,-0.0016167902142637,0.0016167918287985,-0.0016167953068785,0.0016167867188977,-0.0016167857759667,0.0016167963959189,-0.0016167908814315,0.0016167912985737,-0.0013534293209748,0.0013534499320842,-0.001353444327461,0.0013534349345894,6.2649899883269e-09,-7.4521180310639e-09,-7.0177807814057e-09,5.9773048175621e-09,-0.0015278410021291,0.0015278399550774,-0.0016167914470883,0.0016167906570953,-0.0016167872192478,0.0016167949813068,-0.0016167958811562,0.0016167860826487,-0.0016167916540311,0.0016167904072932,-0.0013534487421312,0.0013534303348829,-0.0013534361137512,0.0013534432511965,-0.0015276033505237,0.001527620082079,-0.0015276167291971,0.0015276063307253,-7.8840306128791e-09,7.4880489819495e-09,-0.00080549945447179,0.00080549903729115,6.134013481448e-09,-6.7586794239296e-09,-0.00094670986800465,0.00094670866881923,-0.00094671414534955,0.00094670436400715,-0.00094670475760187,0.00094671380879194,-0.00094670903435116,0.00094670950365652,-0.00092517256816977,0.00092518290576372,-0.00092518757682852,0.00092516782416764,0.70214877197856,125803,2834,0.0063441265643237,0.0063441265913472,0.0033555155209022,22.251891570549,-6.1984867435608e-05,-6.1984867435608e-05,-6.1984867435608e-05,3451059.0062657,0.016174000361633
27619200,0.99438779077831,0.01621116266233,0.0061680701473807,0.0061680701556085,0.0038750223593405,-0.0015286384829727,0.0015286395320727,8.2341535418497e-09,-7.2028219176758e-09,-6.2530736230696e-09,7.4584611696016e-09,-0.0016175970949597,0.0016175987525759,-0.0016176022338317,0.0016175936029069,-0.00161759265543,0.0016176033205952,-0.0016175978059324,0.0016175981803769,-0.0013541974946014,0.0013542182284538,-0.0013542126272551,0.0013542031099561,6.2625864151662e-09,-7.4528794409597e-09,-7.0239600553828e-09,5.9815898129269e-09,-0.0015286395374404,0.0015286384885639,-0.0016175983527673,0.0016175975570899,-0.0016175941272683,0.001617601891454,-0.0016176027885772,0.0016175929872628,-0.0016175985567425,0.0016175973131238,-0.0013542169864837,0.0013541985661732,-0.0013542043493991,0.0013542114942698,-0.0015284058750711,0.0015284226038931,-0.0015284192591433,0.0015284088658288,-7.9413717774649e-09,7.5531850258528e-09,-0.00080603641738364,0.00080603600538775,6.1448155973607e-09,-6.7633509891053e-09,-0.00094734379989879,0.00094734256861808,-0.00094734808162043,0.00094733825929296,-0.00094733864932064,0.00094734774916994,-0.00094734292984926,0.00094734343748197,-0.00092578973024199,0.0009258001860769,-0.00092580486359509,0.00092578499519299,0.71252805926675,125803,2834,0.0063474290632184,0.006347429085873,0.0033577548124369,22.518933577095,-5.984853138324e-05,-5.984853138324e-05,-5.984853138324e-05,3452551.9474641,0.016182988190493
27819200,0.99456160987272,0.016214061277285,0.0061691669663602,0.0061691669745785,0.0038757273363461,-0.0015294460014296,0.0015294470496481,8.2947184845146e-09,-7.2627736937784e-09,-6.2564914789505e-09,7.4580002816225e-09,-0.0016184046452072,0.0016184063417707,-0.0016184098211864,0.0016184011495145,-0.0016184002056702,0.0016184109099876,-0.0016184053941962,0.0016184057296822,-0.0013549853957453,0.0013550062527568,-0.0013550006417426,0.0013549910118442,6.2658413784352e-09,-7.4526969986119e-09,-7.0296208741203e-09,5.9907705290358e-09,-0.0015294470528806,0.0015294460060565,-0.0016184059261863,0.001618405128288,-0.0016184016917696,0.0016184094623492,-0.0016184103613434,0.0016184005540558,-0.0016184061258966,0.0016184048865027,-0.0013550049511518,0.0013549865206735,-0.0013549922991002,0.001354999462039,-0.0015292204339967,0.0015292371753862,-0.0015292338322425,0.0015292234406613,-8.0074641551608e-09,7.6136791306523e-09,-0.00080656845781839,0.00080656804106802,6.1464254951684e-09,-6.7717761194201e-09,-0.0009479927161493,0.00094799144219668,-0.00094799700172877,0.00094798712930007,-0.00094798752233294,0.00094799666495059,-0.00094799180759155,0.00094799235152902,-0.00092640074331327,0.00092641131655743,-0.00092641599832303,0.00092639599945666,0.72383355233962,125803,2834,0.0063507682876555,0.0063507683039026,0.0033599748732955,22.78492577456,-5.7720593803523e-05,-5.7720593803523e-05,-5.7720593803523e-05,3451889.5043766,0.016192031424967
28019200,0.99473276256562,0.016216966709939,0.0061702649138408,0.0061702649220602,0.0038764368740378,-0.001530264875059,0.0015302659236984,8.3569078149674e-09,-7.3244441880813e-09,-6.259196065092e-09,7.4610698482612e-09,-0.0016192154002048,0.0016192171365048,-0.0016192206173636,0.0016192119029461,-0.0016192109587615,0.0016192217066558,-0.0016192161884836,0.0016192164851292,-0.0013557959192991,0.001355816900121,-0.0013558112865443,0.0013558015377205,6.2681967405981e-09,-7.4553837398932e-09,-7.0350851528659e-09,5.995978575985e-09,-0.0015302659268409,0.0015302648796837,-0.0016192167022516,0.0016192159021052,-0.0016192124642299,0.0016192202396419,-0.0016192211390005,0.0016192113261411,-0.001619216900051,0.0016192156622306,-0.0013558155427061,0.0013557970998206,-0.0013558028801995,0.0013558100516161,-0.0015300487075639,0.0015300654571306,-0.001530062110997,0.0015300517176787,-8.0694145009824e-09,7.6751678081566e-09,-0.00080709528217487,0.0008070948650005,6.1521167135353e-09,-6.778056948761e-09,-0.00094865800520835,0.00094865669356627,-0.00094866229479272,0.00094865237672267,-0.00094865277018703,0.00094866195755717,-0.00094865705940361,0.00094865764016737,-0.00092700517165518,0.00092701586121914,-0.00092702054753221,0.00092700042352671,0.73612508527296,125803,2834,0.0063541540143954,0.0063541540304527,0.0033621746048343,23.050877787189,-5.559297770249e-05,-5.559297770249e-05,-5.559297770249e-05,3449207.0145918,0.016201148820748
28219200,0.9949005349463,0.016219869467345,0.0061713603843307,0.0061713603925516,0.0038771486904625,-0.0015309645473422,0.0015309655987989,8.4184632693729e-09,-7.3848746046206e-09,-6.2602244022064e-09,7.4703861354785e-09,-0.0016198990553771,0.0016199008287983,-0.001619904312434,0.0016198955554853,-0.0016198946105398,0.0016199054026731,-0.0016198998801048,0.0016199001413056,-0.0013565009612661,0.0013565220629066,-0.0013565164486381,0.0013565065830579,6.273203541585e-09,-7.4618615970923e-09,-7.0393983566716e-09,5.9980590439723e-09,-0.0015309656028567,0.0015309645544612,-0.001619900373544,0.0016198995739398,-0.0016198961329366,0.0016199039136396,-0.001619904814091,0.0016198949943658,-0.0016199005726849,0.0016198993327166,-0.001356520652367,0.0013565021965431,-0.0013565079823832,0.0013565151541183,-0.001530758872984,0.0015307756340417,-0.0015307722750404,0.0015307618711792,-8.1327748941648e-09,7.737365670437e-09,-0.00080750142282362,0.00080750100532842,6.1540447486995e-09,-6.7795135329307e-09,-0.00094921892928625,0.00094921757670184,-0.00094922322001949,0.00094921325856626,-0.00094921365255384,0.00094922288285725,-0.00094921794278478,0.00094921856418643,-0.0009274810070565,0.00092749181768588,-0.00092749650453134,0.00092747625277786,0.74948916000904,125803,2834,0.0063570459160934,0.0063570459391986,0.0033638739073169,23.250755949348,-5.3993952405213e-05,-5.3993952405213e-05,-5.3993952405213e-05,3443625.0302181,0.016208754265905
28419200,0.99506483481674,0.016222770537418,0.0061724536887719,0.0061724536969818,0.0038778631516645,-0.0015316558738869,0.0015316569243906,8.4809271109101e-09,-7.446931432533e-09,-6.2688153544646e-09,7.473450030761e-09,-0.0016205652835139,0.0016205670962741,-0.0016205705828506,0.001620561780621,-0.0016205608347953,0.001620571673734,-0.0016205661466992,0.0016205663700907,-0.0013572102948485,0.0013572315255534,-0.0013572259037541,0.0013572159219135,6.2782419563119e-09,-7.4673465017029e-09,-7.0399719713528e-09,5.9989611303627e-09,-0.0015316569277065,0.0015316558787851,-0.0016205666220793,0.0016205658249145,-0.0016205623814702,0.0016205701651081,-0.0016205710660595,0.0016205612416142,-0.0016205668244955,0.0016205655803072,-0.001357230051636,0.0013572115917969,-0.0013572173812937,0.0013572245513408,-0.0015314625315529,0.0015314793035926,-0.0015314759547822,0.0015314655407012,-8.1935927396124e-09,7.7990195349537e-09,-0.00080788218699202,0.000807881769629,6.155743729034e-09,-6.7817969186996e-09,-0.00094977551530956,0.00094977412330458,-0.00094977980736311,0.00094976980394397,-0.00094977019765753,0.00094977946998123,-0.00094977448925631,0.00094977515000087,-0.00092792929604566,0.00092794022564103,-0.00092794491432097,0.00092792454442022,0.7640241554859,125803,2834,0.0063599027513844,0.0063599027683651,0.0033654690724327,23.441386345087,-5.24689092393e-05,-5.24689092393e-05,-5.24689092393e-05,3436058.8954637,0.016216182825314
28619200,0.99522566718051,0.016225629866726,0.0061735309674499,0.0061735309756608,0.0038785679236149,-0.0015323553182901,0.0015323563694762,8.5428296640649e-09,-7.5080072449441e-09,-6.2731755729688e-09,7.4782788180095e-09,-0.0016212312495547,0.0016212331009061,-0.0016212365897314,0.0016212277442484,-0.001621226797854,0.0016212376814624,-0.0016212321506039,0.0016212323368717,-0.0013579398690101,0.0013579612242828,-0.0013579555982875,0.0013579454999139,6.2826681212721e-09,-7.4724046885024e-09,-7.0410757062723e-09,5.9995252073805e-09,-0.0015323563726991,0.0015323553231483,-0.0016212326065644,0.0016212318113127,-0.0016212283652795,0.001621236151956,-0.0016212370536503,0.0016212272248306,-0.0016212328115282,0.0016212315641422,-0.0013579596907618,0.0013579412256007,-0.0013579470187504,0.0013579541866551,-0.0015321740878037,0.0015321908690117,-0.0015321875208776,0.001532177097167,-8.2557913681814e-09,7.8611215588972e-09,-0.0008082485641385,0.00080824814665924,6.1561734322065e-09,-6.7824276780857e-09,-0.00095034197684745,0.00095034054356023,-0.00095034626924475,0.00095033622385801,-0.00095033661765348,0.00095034593174016,-0.00095034090969454,0.00095034161153598,-0.00092836081954963,0.00092837187026795,-0.00092837655944757,0.00092835606766265,0.76896078421427,125803,2834,0.0063627926273081,0.0063627926440141,0.0033670058713181,23.631769455482,-5.0945844356142e-05,-5.0945844356142e-05,-5.0945844356142e-05,3426750.8947063,0.016223619482629
28819200,0.99538306221624,0.016228354530653,0.0061745599294254,0.0061745599376375,0.0038792346635904,-0.001533049693014,0.0015330507446654,8.6048561203168e-09,-7.5695173385589e-09,-6.2765014310132e-09,7.4819525011928e-09,-0.0016218932262337,0.0016218951169622,-0.0016218986075756,0.0016218897191076,-0.0016218887722357,0.0016218996998399,-0.0016218941661491,0.0016218943140652,-0.0013586629488573,0.0013586844280884,-0.0013586787990861,0.0013586685826086,6.285817828933e-09,-7.4760612245064e-09,-7.0414559187531e-09,5.9994644017675e-09,-0.0015330507478453,0.0015330496978062,-0.0016218946021786,0.0016218938085877,-0.0016218903607788,0.0016218981493121,-0.0016218990515076,0.0016218892198218,-0.001621894809282,0.001621893559241,-0.001358682834047,0.0013586643658853,-0.0013586701616995,0.001358677327235,-0.0015328765226534,0.0015328933101576,-0.0015328899627085,0.0015328795318648,-8.3176574200429e-09,7.9229718439723e-09,-0.00080860560017385,0.0008086051826676,6.1564529647405e-09,-6.7827704853677e-09,-0.00095090261869099,0.0009509011443145,-0.00095090691129528,0.00095089682440809,-0.00095089721822107,0.0009509065737585,-0.0009509015104723,0.00095090225335884,-0.00092878254403971,0.00092879371559996,-0.00092879840501682,0.00092877779200103,0.74978433826085,125803,2834,0.0063656613850652,0.0063656614015459,0.0033685040808765,23.824363686867,-4.9405090505065e-05,-4.9405090505065e-05,-4.9405090505065e-05,3417766.6132197,0.016230974058254
29019200,0.99553815469118,0.016230893740709,0.0061755234392576,0.0061755234474714,0.00387984685398,-0.0015339451160696,0.0015339461638026,8.6692790405938e-09,-7.6348472993617e-09,-6.281399660905e-09,7.4733309237525e-09,-0.0016227751185432,0.0016227770551193,-0.0016227805445115,0.0016227716121906,-0.0016227706656331,0.001622781636215,-0.0016227761044803,0.0016227762055849,-0.001359554501623,0.0013595761122092,-0.0013595704788074,0.0013595601353199,6.2849528201232e-09,-7.4739749757874e-09,-7.0423800437779e-09,6.003045117482e-09,-0.0015339461654974,0.0015339451163311,-0.0016227765221411,0.0016227757268251,-0.0016227722799609,0.0016227800688386,-0.0016227809702834,0.0016227711385389,-0.0016227767273837,0.0016227754792639,-0.0013595744507057,0.0013595559830613,-0.0013595617768263,0.0013595689497311,-0.0015337737887576,0.0015337905775134,-0.0015337872496401,0.0015337768245612,-8.3754989054942e-09,7.9821336719131e-09,-0.00080917377117313,0.00080917335351965,6.1623361515904e-09,-6.7903376151438e-09,-0.0009516382091495,0.00095163670004521,-0.0009516425062122,0.0009516323759004,-0.00095163276949987,0.00095164216784564,-0.00095163706650916,0.00095163784310561,-0.00092943326664825,0.000929444548183,-0.00092944924401782,0.00092942851851565,0.71130252700262,125803,2834,0.0063693630934847,0.0063693630975317,0.0033708775128811,24.140096120198,-4.6879231038414e-05,-4.6879231038414e-05,-4.6879231038414e-05,3415213.1807071,0.016240910649099
29219200,0.99569089827228,0.016233334395317,0.0061764514215024,0.0061764514297392,0.0038804315440753,-0.0015347887194112,0.0015347897700246,8.7284687975638e-09,-7.6938780590713e-09,-6.2732629698283e-09,7.4767688834311e-09,-0.0016236378613706,0.0016236398368304,-0.0016236433252846,0.001623634356262,-0.0016236334101303,0.0016236444168319,-0.0016236388866613,0.0016236389483953,-0.0013603472736253,0.0013603689928189,-0.0013603633667148,0.0013603529039455,6.2820350330831e-09,-7.4713964148283e-09,-7.0482257141913e-09,6.0071986069487e-09,-0.0015347897730275,0.001534788723755,-0.0016236392833795,0.0016236384828657,-0.0016236350371847,0.0016236428284804,-0.001623643729936,0.0016236338968671,-0.0016236394829298,0.001623638241197,-0.0013603672836824,0.0013603488051396,-0.0013603545973873,0.0013603617808473,-0.0015346129288142,0.001534629713891,-0.001534626362798,0.0015346159460607,-8.4411548396306e-09,8.0461731076406e-09,-0.00080976534553543,0.00080976492757732,6.1640893945741e-09,-6.7911087553765e-09,-0.0009523096528455,0.00095230810107286,-0.00095231395075427,0.00095230377588705,-0.00095230417008427,0.00095231361276174,-0.00095230846769345,0.00095230928710487,-0.00093011948039589,0.00093013088762827,-0.0009301355828798,0.00093011472338485,0.69516966455466,125803,2834,0.0063728521883793,0.0063728522035698,0.0033733431556916,24.458831179953,-4.4329350560375e-05,-4.4329350560375e-05,-4.4329350560375e-05,3420390.0208825,0.016250508026189
29419200,0.99584122140249,0.016235573184514,0.0061773081708033,0.0061773081790414,0.0038809568346695,-0.0015356012346009,0.0015356022847984,8.7900835430992e-09,-7.7559982768707e-09,-6.2708668759685e-09,7.4740656921882e-09,-0.0016244846146643,0.001624486632658,-0.0016244901198591,0.0016244811107846,-0.0016244801650957,0.0016244912109752,-0.0016244856829267,0.0016244857012484,-0.0013610882733952,0.0013611101115985,-0.0013611044878392,0.0013610939014907,6.279754685452e-09,-7.4686474904881e-09,-7.0502385719451e-09,6.0096304443857e-09,-0.0015356022877932,0.0015356012389721,-0.001624486059244,0.0016244852560621,-0.001624481811577,0.0016244896030809,-0.0016244905041167,0.001624480671728,-0.0016244862557001,0.0016244850175187,-0.0013611083440408,0.0013610898632279,-0.0013610956534312,0.0013611028433144,-0.0015354149939007,0.001535431775939,-0.0015354284226324,0.0015354180126858,-8.5029884440632e-09,8.1078467463474e-09,-0.00081036310816511,0.00081036269008767,6.1664647750336e-09,-6.7936110092358e-09,-0.00095294869541102,0.00095294710401067,-0.00095295299496042,0.00095294277718792,-0.00095294317148964,0.00095295265685987,-0.00095294747072408,0.00095294832955195,-0.00093081006393583,0.00093082159022934,-0.00093082628711695,0.00093080530492613,0.65089857080085,125803,2834,0.0063762135225933,0.006376213537823,0.0033758320174539,24.777680479937,-4.1778556160503e-05,-4.1778556160503e-05,-4.1778556160503e-05,3428479.5981425,0.016259869151661
29619200,0.99598897456623,0.01623774104066,0.0061781386598727,0.0061781386681119,0.0038814637126751,-0.0015363332260464,0.0015363342763095,8.8514586806603e-09,-7.8176249277482e-09,-6.2682376051733e-09,7.4727149386293e-09,-0.0016252850995251,0.0016252871593414,-0.0016252906458025,0.0016252815966892,-0.00162528065128,0.0016252917362437,-0.0016252862100845,0.0016252861855778,-0.0013616981677512,0.0013617201243647,-0.0013617145026998,0.0013617037942796,6.2779231051114e-09,-7.4666848690917e-09,-7.0516721360495e-09,6.010993206405e-09,-0.0015363342796371,0.0015363332309932,-0.0016252865653407,0.0016252857603096,-0.0016252823169215,0.0016252901084256,-0.0016252910090869,0.0016252811772491,-0.001625286759679,0.0016252855238474,-0.0013617182987794,0.0013616998164714,-0.0013617056052107,0.0013617127992549,-0.0015361334239534,0.0015361502033336,-0.0015361468460836,0.0015361364407205,-8.5653271495937e-09,8.1698636167157e-09,-0.00081096986961962,0.00081096945145544,6.1674492994938e-09,-6.7945537868298e-09,-0.00095349542578204,0.00095349379377333,-0.00095349972605295,0.00095348946626723,-0.00095348986064184,0.00095349938808062,-0.00095349416033995,0.00095349505984694,-0.00093152249369787,0.00093153414097951,-0.00093153883859649,0.00093151773302639,0.64191385780134,125803,2834,0.0063792437911476,0.0063792438082551,0.0033783523939199,25.087309169869,-3.9301526641049e-05,-3.9301526641049e-05,-3.9301526641049e-05,3444478.4726505,0.016268588486781
29819200,0.99613361187703,0.016239991457758,0.006178995834507,0.0061789958427444,0.003881999780507,-0.0015369474213231,0.001536948472738,8.9136798739632e-09,-7.8798012947735e-09,-6.2662047315115e-09,7.4752691394826e-09,-0.0016259711382211,0.0016259732388851,-0.0016259767254857,0.0016259676349215,-0.0016259666897139,0.0016259778160268,-0.0016259722897119,0.0016259722243438,-0.0013621868851992,0.0013622089618102,-0.001362203342859,0.0013621925115326,6.2783999603085e-09,-7.4675018736612e-09,-7.0501109000401e-09,6.0086155490518e-09,-0.0015369484765742,0.0015369474277359,-0.0016259726223711,0.0016259718189912,-0.0016259683746702,0.0016259761653791,-0.0016259770662651,0.0016259672353408,-0.0016259728181834,0.0016259715809066,-0.0013622070750908,0.0013621885950869,-0.0013621943855346,0.0013622015747046,-0.001536740847096,0.0015367576265077,-0.0015367542640221,0.0015367438567732,-8.6270601351345e-09,8.2311298423099e-09,-0.00081149595459472,0.00081149553645529,6.1659668232163e-09,-6.7924966720905e-09,-0.00095393567434863,0.00095393400041535,-0.00095393997348539,0.00095392967390947,-0.00095393006839847,0.00095393963568993,-0.0009539343669435,0.00095393530862618,-0.00093215108411309,0.00093216285319113,-0.00093216754841588,0.00093214632181781,0.6783770325085,125803,2834,0.0063817871344727,0.0063817871556611,0.0033805360195414,25.339602314417,-3.7283181484664e-05,-3.7283181484664e-05,-3.7283181484664e-05,3460071.9705469,0.016275975818488
30019200,0.99627510427863,0.01624222778371,0.0061798465195685,0.0061798465277971,0.0038825347363447,-0.0015376136112745,0.001537614661451,8.9747032333885e-09,-7.9409342313807e-09,-6.2696553057458e-09,7.4738195409433e-09,-0.0016266755877044,0.0016266777288905,-0.0016266812160071,0.0016266720839375,-0.0016266711386282,0.0016266823067186,-0.0016266767795554,0.0016266766739142,-0.0013627760061761,0.0013627982051529,-0.0013627925829546,0.0013627816333129,6.2790821868199e-09,-7.4677345162459e-09,-7.0473496573821e-09,6.0068536533287e-09,-0.0015376146646042,0.0015376136160649,-0.0016266770926407,0.0016266762911452,-0.0016266728467757,0.001626680636237,-0.001626681536971,0.0016266717073094,-0.0016266772903871,0.0016266760512172,-0.0013627962542229,0.0013627777795933,-0.0013627835690524,0.0013627907541272,-0.0015374080858509,0.0015374248647443,-0.0015374215109467,0.0015374111009186,-8.6890700998435e-09,8.2941429460381e-09,-0.00081200853703119,0.00081200811936622,6.1634758770905e-09,-6.7900466209894e-09,-0.00095445308002299,0.00095445136283122,-0.00095445737740668,0.00095444703817134,-0.00095444743205609,0.00095445703981924,-0.00095445172905735,0.00095445271465165,-0.00093275024631325,0.00093276213947954,-0.00093276683350603,0.0009327454889675,0.68873089883921,125803,2834,0.0063845438235375,0.0063845438399607,0.0033826686709116,25.590492913996,-3.5276056688031e-05,-3.5276056688031e-05,-3.5276056688031e-05,3466536.014804,0.016283746151826
30219200,0.99641343791711,0.016244317008432,0.0061806445867982,0.0061806445950268,0.0038830278266069,-0.0015382884737546,0.0015382895239019,9.0365415384472e-09,-8.00263008685e-09,-6.2707239123359e-09,7.4743766560414e-09,-0.0016273798549251,0.0016273820368932,-0.0016273855243982,0.0016273763507054,-0.0016273754053336,0.0016273866152625,-0.001627381087427,0.001627380941249,-0.0013633866392115,0.0013634089601362,-0.0013634033367744,0.0013633922670729,6.2799045066398e-09,-7.4685821591593e-09,-7.0446032546023e-09,6.0041457425866e-09,-0.0015382895269686,0.0015382884783836,-0.0016273813793244,0.0016273805801127,-0.001627377135237,0.0016273849233545,-0.0016273858241976,0.0016273759956996,-0.0016273815794143,0.0016273803378104,-0.0013634069458117,0.0013633884760244,-0.0013633942659643,0.0013634014452167,-0.001538082190031,0.0015380989687144,-0.0015380956177866,0.0015380852042737,-8.7507660781733e-09,8.3561762918737e-09,-0.00081251181441214,0.00081251139700021,6.1608972107439e-09,-6.787285249249e-09,-0.00095499032215675,0.00095498856212919,-0.0009549946177537,0.00095498423926565,-0.00095498463288385,0.00095499428036804,-0.00095498892813118,0.00095498995703952,-0.00093333291882933,0.00093334493518026,-0.0009333496272701,0.00093332816402612,0.66008312485489,125803,2834,0.0063873358127476,0.0063873358286579,0.0033847642493764,25.841330079419,-3.3269359364649e-05,-3.3269359364649e-05,-3.3269359364649e-05,3470277.2807386,0.016291551029113
30419200,0.99654889370376,0.016246247604983,0.0061813859821969,0.0061813859904266,0.0038834756323594,-0.0015389879077667,0.001538988956987,9.0982097695839e-09,-8.0645215743428e-09,-6.2719292408081e-09,7.4723759475735e-09,-0.0016281325384051,0.0016281347619805,-0.0016281382493933,0.0016281290344506,-0.0016281280890748,0.0016281393399657,-0.0016281338126306,0.0016281336245256,-0.0013639844077054,0.0013640068501807,-0.0013640012255587,0.0013639900358533,6.2797051904347e-09,-7.4681560891395e-09,-7.042920611694e-09,6.0030148792661e-09,-0.0015389889598216,0.001538987911407,-0.0016281340840417,0.0016281332856734,-0.0016281298412148,0.0016281376282272,-0.0016281385287983,0.001628128701472,-0.0016281342849664,0.0016281330425548,-0.0013640047732208,0.0013639863070378,-0.0013639920963427,0.001363999273952,-0.0015387760705743,0.0015387928480417,-0.0015387895023461,0.0015387790887777,-8.8122630434938e-09,8.4183549584758e-09,-0.00081308725417565,0.00081308683711528,6.1595373754403e-09,-6.7858946255166e-09,-0.00095553903636941,0.00095553723441617,-0.00095554333098647,0.00095553291258129,-0.00095553330575403,0.00095554299384058,-0.0009555376000205,0.00095553867144718,-0.00093400091361994,0.00093401305278096,-0.00093401774415643,0.00093399616208043,0.62526527281126,125803,2834,0.0063902308133872,0.0063902308267752,0.0033871562227835,26.129252173706,-3.096598261035e-05,-3.096598261035e-05,-3.096598261035e-05,3480156.4353044,0.016299865977187
30619200,0.99668225588445,0.016248271852181,0.0061821584488423,0.0061821584570775,0.0038839549462614,-0.0015398540351723,0.0015398550824473,9.1586033081321e-09,-8.1248196982765e-09,-6.272855404985e-09,7.4658111526529e-09,-0.0016290755506548,0.0016290778154766,-0.001629081300199,0.0016290720471575,-0.0016290711037134,0.0016290823924505,-0.0016290768659708,0.0016290766370131,-0.0013647096886169,0.0013647322505951,-0.0013647266235133,0.0013647153141248,6.2767983974705e-09,-7.4622280740752e-09,-7.0440400204061e-09,6.0079263176441e-09,-0.0015398550832664,0.0015398540372602,-0.0016290771213668,0.0016290763194139,-0.0016290728749459,0.0016290806624211,-0.0016290815627158,0.0016290717380524,-0.0016290773169391,0.0016290760818847,-0.0013647301132104,0.001364711647241,-0.0013647174297387,0.0013647246182392,-0.0015396410027259,0.0015396577733498,-0.0015396544358362,0.0015396440327863,-8.8756220623686e-09,8.4815427007513e-09,-0.00081386936347251,0.00081386894561838,6.1609888060119e-09,-6.7892923710808e-09,-0.00095622359947878,0.00095622175441973,-0.00095622789539432,0.00095621743134953,-0.00095621782492182,0.00095622755671934,-0.00095622212200543,0.00095622323482057,-0.00093489887875744,0.00093491113828526,-0.00093491583260848,0.00093489412832168,0.66318230135605,125803,2834,0.0063938173999026,0.0063938174059108,0.0033904028157016,26.523407577371,-2.7812739381035e-05,-2.7812739381035e-05,-2.7812739381035e-05,3498140.0150392,0.016310454474091
30819200,0.99681344614985,0.016250355744727,0.006182950611384,0.0061829506196362,0.003884454513707,-0.0015407918416873,0.0015407928904781,9.2208689948405e-09,-8.187978676166e-09,-6.265319466791e-09,7.4666922303836e-09,-0.0016300535615035,0.0016300558698859,-0.0016300593540538,0.0016300500603646,-0.0016300491162631,0.0016300604439571,-0.001630054921473,0.0016300546467107,-0.0013655614784797,0.0013655841567457,-0.001365578537937,0.0013655671011165,6.2738939061419e-09,-7.4610254955755e-09,-7.0474744266594e-09,6.008615359326e-09,-0.0015407928933678,0.0015407918461793,-0.0016300551523389,0.001630054347486,-0.0016300509056855,0.0016300586930245,-0.0016300595926618,0.0016300497675239,-0.0016300553455077,0.0016300541121884,-0.0013655819643049,0.0013655634934243,-0.0013655692772879,0.0013655764698574,-0.0015405861428391,0.0015406029119658,-0.0015405995589878,0.0015405891625725,-8.9369250298495e-09,8.5422537569526e-09,-0.00081464396914609,0.00081464355156326,6.1641685938936e-09,-6.7909804563106e-09,-0.00095700318169027,0.00095700129956311,-0.0009570074795522,0.0009569969744468,-0.00095699736812836,0.00095700714194144,-0.00095700166578179,0.00095700281649487,-0.00093577213026781,0.00093578450840397,-0.00093578920328492,0.00093576737381471,0.69236328069607,125803,2834,0.0063976985606823,0.0063976985759444,0.0033936239692114,26.92017093252,-2.4638632539839e-05,-2.4638632539839e-05,-2.4638632539839e-05,3506346.8553398,0.016321617209513
31019200,0.99694236908736,0.016252465545625,0.0061837507998111,0.0061837508080645,0.0038849639377492,-0.0015417753919872,0.0015417764405059,9.2824267426465e-09,-8.2499253355616e-09,-6.2637728094521e-09,7.4650137206609e-09,-0.0016310499931404,0.001631052343456,-0.0016310558268334,0.0016310464928063,-0.0016310455489545,0.0016310569164555,-0.0016310513952959,0.0016310510780606,-0.0013664982062711,0.0013665210039639,-0.0013665153868131,0.0013665038273424,6.2724232777744e-09,-7.4593064358809e-09,-7.0490472693013e-09,6.0103783379131e-09,-0.0015417764434076,0.0015417753964507,-0.0016310516058502,0.0016310507990595,-0.0016310473581107,0.0016310551457434,-0.0016310560451457,0.0016310462201796,-0.0016310517968642,0.001631050565938,-0.0013665187527214,0.0013665002797807,-0.0013665060623817,0.0013665132594609,-0.0015415817204636,0.001541598487774,-0.0015415951330036,0.0015415847410575,-8.9989049236029e-09,8.604114515443e-09,-0.00081540430866645,0.00081540389097916,6.1658414581711e-09,-6.7927312977776e-09,-0.00095784314282609,0.00095784122044725,-0.00095784744183594,0.00095783689418977,-0.00095783728798911,0.00095784710412245,-0.00095784158678886,0.00095784277754846,-0.00093662122948627,0.00093663372752408,-0.00093663842336534,0.00093661647140688,0.71215832008146,125803,2834,0.0064017674119912,0.0064017674272192,0.0033967902073839,27.317033834938,-2.1463729320493e-05,-2.1463729320493e-05,-2.1463729320493e-05,3507666.4875391,0.016333106584005
31219200,0.99707004065768,0.016254658624677,0.0061845795339201,0.0061845795421745,0.003885499548582,-0.0015430891937083,0.001543090241035,9.3440285641649e-09,-8.3118128384703e-09,-6.2601481806526e-09,7.4582017037634e-09,-0.001632357347173,0.0016323597415421,-0.001632363222082,0.0016323538495329,-0.0016323529064669,0.001632364311004,-0.0016323587940159,0.0016323584312948,-0.0013677871581883,0.0013678100743114,-0.0013678044590955,0.0013677927761972,6.2680769171998e-09,-7.4539309234392e-09,-7.0551033630368e-09,6.0177048611002e-09,-0.0015430902436845,0.0015430891976197,-0.0016323589859461,0.0016323581723117,-0.0016323547338487,0.0016323625233943,-0.001632363422062,0.0016323535965885,-0.0016323591694393,0.0016323579468176,-0.0013678077685985,0.0013677892871121,-0.0013677950654454,0.0013678022800839,-0.0015429136003922,0.001542930363552,-0.0015429270079239,0.0015429166305997,-9.0609757724472e-09,8.665845209642e-09,-0.00081641383250974,0.00081641341425337,6.1718120710138e-09,-6.799727806154e-09,-0.00095899373880615,0.00095899177881054,-0.00095899804210732,0.00095898744831738,-0.00095898784249882,0.00095899770376562,-0.00095899214570072,0.00095899337302253,-0.00093773125520305,0.00093774386965315,-0.00093774857138717,0.00093772649438319,0.7454602951209,125803,2834,0.0064072017968213,0.0064072018103856,0.0034009955698312,27.866416970755,-1.7068664233958e-05,-1.7068664233958e-05,-1.7068664233958e-05,3507220.7048645,0.01634842844263
31419200,0.99719641623464,0.016256727369257,0.0061853648542282,0.0061853648624867,0.0038859976525423,-0.0015444768845635,0.0015444779307872,9.4047304670576e-09,-8.3738734748546e-09,-6.2567852259768e-09,7.4534061747929e-09,-0.0016337160714817,0.001633718509069,-0.0016337219880591,0.0016337125763747,-0.0016337116333207,0.0016337230755266,-0.0016337175623442,0.0016337171546166,-0.001369186012211,0.0013692090443763,-0.001369203432693,0.0013691916260619,6.2640489840151e-09,-7.4497703509974e-09,-7.0614691370665e-09,6.024144924368e-09,-0.0015444779337042,0.0015444768877964,-0.0016337177351332,0.0016337169148609,-0.0016337134797887,0.0016337212711982,-0.0016337221689674,0.0016337123421193,-0.0016337179119992,0.0016337166961818,-0.0013692066848899,0.0013691881938958,-0.0013691939687824,0.0013692011994139,-0.0015443159238623,0.0015443326836372,-0.0015443293226992,0.0015443189582562,-9.1231804571971e-09,8.7282352235817e-09,-0.00081742082760248,0.00081742040935439,6.17781705438e-09,-6.8057635923283e-09,-0.00096022478668826,0.00096022278941766,-0.00096022909401564,0.00096021845493167,-0.00096021884917799,0.00096022875581862,-0.00096022315594616,0.00096022442040735,-0.00093882788096542,0.0009388406136238,-0.0009388453190905,0.00093882311606096,0.712426300303,125803,2834,0.0064129401276863,0.0064129401404035,0.00340519513529,28.434491699678,-1.2524066402577e-05,-1.2524066402577e-05,-1.2524066402577e-05,3501108.641848,0.016364363331175
31619200,0.9973213114512,0.016258675223673,0.0061861075416314,0.0061861075498948,0.0038864601321468,-0.0015458083101521,0.0015458093568397,9.4668118985124e-09,-8.4359727815869e-09,-6.2531989028306e-09,7.4519885091016e-09,-0.0016350481139174,0.0016350505939377,-0.0016350540711295,0.0016350446197513,-0.0016350436774541,0.0016350551590038,-0.0016350496473254,0.0016350491970608,-0.0013704843348975,0.0013705074863378,-0.0013705018780456,0.0013704899465735,6.2615898414932e-09,-7.4466295603701e-09,-7.0661122507694e-09,6.0291822126441e-09,-0.0015458093596721,0.0015458083144,-0.0016350498004853,0.0016350489757146,-0.0016350455410786,0.0016350533344611,-0.0016350542321322,0.0016350444046776,-0.0016350499720603,0.0016350487623573,-0.0013705050709203,0.0013704865723419,-0.0013704923455747,0.0013704995874075,-0.0015456525622312,0.0015456693201359,-0.0015456659526749,0.0015456555975878,-9.1852993567125e-09,8.7893328728846e-09,-0.00081843076664448,0.00081843034764499,6.1829886572789e-09,-6.8114996618104e-09,-0.00096138139159853,0.0009613793560152,-0.00096138570259418,0.00096137501781002,-0.00096137541285441,0.00096138536359326,-0.00096137972361297,0.00096138102502814,-0.00093994223978034,0.00093995508827773,-0.00093995979746777,0.00093993746896901,0.68057766872398,125803,2834,0.0064184470901228,0.0064184471047616,0.0034094026287569,29.003075029855,-7.9753997611619e-06,-7.9753997611619e-06,-7.9753997611619e-06,3502989.8754503,0.016379835251897
31819200,0.99744243404363,0.016260497744498,0.0061868047507138,0.0061868047589787,0.003886888234806,-0.001546485604896,0.0015464866530258,9.5292155767111e-09,-8.4973665883424e-09,-6.2619848034862e-09,7.4629765183666e-09,-0.0016357549193747,0.0016357574354144,-0.0016357609178124,0.0016357514200255,-0.0016357504764163,0.001635762007098,-0.0016357564875054,0.0016357560039566,-0.0013710990469706,0.0013711223268465,-0.0013711167118134,0.0013711046659208,6.2710330488332e-09,-7.4577154186735e-09,-7.0579532834793e-09,6.019428744308e-09,-0.001546486655927,0.0015464856091337,-0.0016357566182797,0.0016357558047432,-0.0016357523647001,0.0016357601574682,-0.0016357610566361,0.0016357512268484,-0.0016357568024337,0.0016357555785588,-0.0013711198422006,0.0013711013527706,-0.0013711071342042,0.0013711143501282,-0.0015463254436875,0.0015463422142549,-0.0015463388526307,0.0015463284698248,-9.2467720530087e-09,8.8513665333282e-09,-0.00081892655620087,0.00081892613790843,6.1744415719251e-09,-6.8019904686608e-09,-0.0009619186386194,0.00096191655654125,-0.00096192294359739,0.00096191222432354,-0.00096191261873476,0.00096192260531028,-0.00096191692345433,0.00096191827273038,-0.00094052051636897,0.00094053349230761,-0.00094053819414127,0.00094051575105537,0.65805653162954,125803,2834,0.0064212487824313,0.0064212487971928,0.0034114676450255,29.265577771794,-5.8753778256502e-06,-5.8753778256502e-06,-5.8753778256502e-06,3507314.6637071,0.01638762952827
32019200,0.99755818885201,0.016262408027583,0.0061875293481321,0.0061875293563978,0.0038873493230528,-0.0015466455734769,0.0015466466245265,9.5917563567215e-09,-8.5573838696792e-09,-6.2775745575828e-09,7.4826388422844e-09,-0.0016359577759733,0.001635960323705,-0.0016359638152321,0.0016359542675911,-0.0016359533214458,0.0016359649072076,-0.0016359593733218,0.001635958863295,-0.0013711832131729,0.0013712066267812,-0.0013712009984542,0.0013711888459464,6.2867442415729e-09,-7.4762757046803e-09,-7.040486907991e-09,5.999192356082e-09,-0.0015466466275044,0.0015466455780881,-0.0016359594798839,0.0016359586876219,-0.0016359552386463,0.0016359630277514,-0.0016359639295039,0.0016359540983625,-0.0016359596876494,0.0016359584374712,-0.001371204063805,0.0013711855971979,-0.0013711913924763,0.0013711985572693,-0.001546484869635,0.0015465016586319,-0.0015464983100955,0.0015464878783383,-9.3084426347856e-09,8.9143885831949e-09,-0.00081902073108151,0.00081902031428687,6.1564911617041e-09,-6.7821424183029e-09,-0.00096196767308751,0.00096196553833946,-0.00096197196548632,0.00096196121866601,-0.00096196161171899,0.00096197162870188,-0.00096196590382812,0.00096196730865966,-0.00094068114064696,0.00094069425250737,-0.00094069893985956,0.00094067638845533,0.71766338919028,125803,2834,0.0064219110975842,0.006421911113276,0.0034118589407969,29.280970057371,-5.7522395410295e-06,-5.7522395410295e-06,-5.7522395410295e-06,3512329.7327721,0.016389372914709
32219200,0.99766876993157,0.016264274924223,0.0061882363079958,0.0061882363162609,0.0038878022999663,-0.001546871506813,0.0015468725597212,9.6548440903757e-09,-8.618063825007e-09,-6.2905710059032e-09,7.4965609026809e-09,-0.001636174087128,0.0016361766693299,-0.0016361801677343,0.0016361705719056,-0.0016361696237812,0.0016361812617652,-0.0016361757169708,0.0016361751765267,-0.0013714100467734,0.0013714335935948,-0.0013714279528673,0.0013714156913284,6.299319342824e-09,-7.4909936447536e-09,-7.0240363566895e-09,5.9809377562806e-09,-0.0015468725626201,0.0015468715111928,-0.0016361757994574,0.001636175025712,-0.0016361715696668,0.0016361793542495,-0.0016361802580636,0.0016361704273187,-0.0016361760276438,0.0016361747548412,-0.001371430952936,0.001371412509611,-0.0013714183155854,0.0013714254355831,-0.0015467206231083,0.0015467374253579,-0.0015467340928645,0.0015467236204666,-9.3694642418533e-09,8.9767628414689e-09,-0.00081907886217495,0.00081907844661937,6.1397725709731e-09,-6.7641750906686e-09,-0.00096211554392922,0.00096211335765412,-0.00096211982475293,0.00096210904955433,-0.0009621094413371,0.00096211948914678,-0.00096211372190429,0.00096211518068447,-0.00094077814354506,0.00094079138902979,-0.00094079606432478,0.00094077340547797,0.73340852127274,125803,2834,0.0064228436091504,0.0064228436241993,0.0034121080738468,29.290203122149,-5.6783750228058e-06,-5.6783750228058e-06,-5.6783750228058e-06,3504327.329365,0.016391522622011
32419200,0.99777440382188,0.016266104111225,0.0061889276405881,0.0061889276488541,0.0038882488217828,-0.0015471086506982,0.0015471097055783,9.7174693195709e-09,-8.6786749059683e-09,-6.3009022700549e-09,7.509105564803e-09,-0.001636389474864,0.0016363920923155,-0.0016363955965285,0.0016363859538693,-0.0016363850040221,0.0016363966923989,-0.0016363911382473,0.0016363905661312,-0.0013716662685797,0.0013716899458579,-0.001371684295548,0.0013716719229448,6.3097335466772e-09,-7.5032525628496e-09,-7.0086530944511e-09,5.9638429058731e-09,-0.0015471097084824,0.0015471086553379,-0.0016363911965201,0.0016363904393665,-0.0016363869773304,0.0016363947569803,-0.0016363956625603,0.0016363858333841,-0.0016363914428277,0.0016363901500932,-0.0013716872290191,0.0013716688082967,-0.0013716746234356,0.0013716817023401,-0.0015469687322366,0.0015469855441962,-0.001546982224106,0.0015469717167699,-9.4310068360803e-09,9.0391937033959e-09,-0.0008191243011688,0.00081912388661014,6.1242353788406e-09,-6.7474587039273e-09,-0.00096228251514358,0.00096228027778263,-0.00096228678522338,0.00096227598040684,-0.00096227637122486,0.0009622864506573,-0.0009622806410591,0.0009622821529397,-0.00094085911437425,0.00094087249282545,-0.00094087715671734,0.00094085438814211,0.7510942578896,125803,2834,0.0064238217435833,0.0064238217591794,0.0034123064481402,29.299199899631,-5.6064008029547e-06,-5.6064008029547e-06,-5.6064008029547e-06,3493941.2631677,0.016393713756599
32619200,0.99787505162409,0.016267713149555,0.0061895400244851,0.0061895400327516,0.0038886330923188,-0.0015472607610749,0.0015472618182765,9.7790341109852e-09,-8.739081804579e-09,-6.3063103497829e-09,7.520396963682e-09,-0.001636510157504,0.00163651281074,-0.001636516319532,0.0016365066322329,-0.0016365056811418,0.0016365174164889,-0.0016365118556529,0.0016365112500047,-0.0013718554731211,0.0013718792743832,-0.0013718736198847,0.001371861133255,6.3175358565573e-09,-7.5129330106562e-09,-6.995057604128e-09,5.9479318904364e-09,-0.0015472618218535,0.0015472607670695,-0.0016365118887617,0.0016365111456526,-0.0016365076791458,0.001636515453598,-0.0016365163606271,0.0016365065340079,-0.0016365121503459,0.0016365108408404,-0.0013718764857029,0.0013718580855386,-0.001371863908022,0.0013718709501069,-0.0015471256449798,0.0015471424623252,-0.0015471391458206,0.0015471286099424,-9.4933929749652e-09,9.1021738678363e-09,-0.00081906777073907,0.00081906735725233,6.1093115815502e-09,-6.7306915814675e-09,-0.00096238075869728,0.0009623784701632,-0.00096238501826159,0.00096237418321759,-0.00096237457316708,0.00096238468494408,-0.00096237883228653,0.00096238039751993,-0.00094082464294186,0.00094083815545773,-0.00094084280696572,0.00094081992520282,0.6965388663956,125803,2834,0.0064244471716753,0.0064244471914624,0.0034120829044431,29.262932350789,-5.8965411936905e-06,-5.8965411936905e-06,-5.8965411936905e-06,3480611.7186197,0.016394759413337
32819200,0.99797083737784,0.01626912328317,0.0061900806144202,0.0061900806226823,0.0038889620460675,-0.0015472773586677,0.001547278416551,9.8417013284859e-09,-8.8008232892426e-09,-6.3114529729734e-09,7.5257565003636e-09,-0.0016365410593947,0.0016365437516265,-0.0016365472629075,0.0016365375313012,-0.0016365365795656,0.0016365483610109,-0.0016365427956897,0.0016365421529343,-0.0013718417822757,0.0013718657105894,-0.0013718600521253,0.0013718474468453,6.3220661178668e-09,-7.5180701599608e-09,-6.9816216919186e-09,5.934070034719e-09,-0.0015472784198956,0.001547277364543,-0.0016365428047254,0.001636542073265,-0.0016365386038254,0.0016365463716736,-0.0016365472795383,0.001636537458334,-0.001636543078414,0.0016365417561696,-0.0013718628467999,0.0013718444697648,-0.0013718502966237,0.001371857307549,-0.0015471360001781,0.0015471528174833,-0.0015471495130127,0.0015471389580796,-9.554205317966e-09,9.1640101221047e-09,-0.00081899121875751,0.00081899080619707,6.0971839389255e-09,-6.7174935166097e-09,-0.00096232778105619,0.00096232544399966,-0.00096233203219432,0.0009623211654634,-0.00096232155456663,0.00096233169955505,-0.0009623258055043,0.00096232742083343,-0.00094078625170711,0.00094079989304909,-0.00094080453538801,0.00094078154400753,0.64446135680993,125803,2834,0.0064245145534623,0.0064245145725211,0.0034117684431184,29.204480043183,-6.3641596545326e-06,-6.3641596545326e-06,-6.3641596545326e-06,3479003.3517617,0.016394576758835
33019200,0.99806200659438,0.016270578851298,0.0061906341099004,0.0061906341181598,0.0038893106232376,-0.0015472202906906,0.0015472213478029,9.9034236192064e-09,-8.8626594313085e-09,-6.3136096153248e-09,7.5248068240815e-09,-0.001636537198498,0.0016365399319357,-0.0016365434435268,0.0016365336702868,-0.0016365327183497,0.0016365445415411,-0.0016365389758671,0.0016365382919919,-0.0013716978166879,0.0013717218672972,-0.0013717162062103,0.001371703481986,6.322783489481e-09,-7.518752905058e-09,-6.9718528851942e-09,5.9246959389442e-09,-0.0015472213508321,0.0015472202954308,-0.0016365389620503,0.0016365382372778,-0.0016365347677833,0.0016365425295281,-0.0016365434374582,0.0016365336218124,-0.0016365392426178,0.001636537913113,-0.0013717189324703,0.0013717005744506,-0.0013717064007601,0.0013717133934122,-0.0015470725917578,0.0015470894041737,-0.0015470861102104,0.0015470755471826,-9.6154122936058e-09,9.2263757164081e-09,-0.00081895114531255,0.00081895073361876,6.0879234646759e-09,-6.7076513993339e-09,-0.00096218052790649,0.00096217814406488,-0.00096218477264513,0.00096217387199982,-0.00096217426011909,0.00096218444078633,-0.00096217850458387,0.0009621801683703,-0.00094079984213178,0.00094081361222525,-0.00094081824747763,0.00094079514329272,0.69524135484824,125803,2834,0.0064242799762976,0.0064242799923592,0.0034115977716707,29.145468788545,-6.8362496916383e-06,-6.8362496916383e-06,-6.8362496916383e-06,3488075.1452882,0.016393925020421
33219200,0.99814879465528,0.016272036009994,0.0061911858608977,0.0061911858691579,0.0038896642799383,-0.0015472356828502,0.0015472367395065,9.9648963793146e-09,-8.9245628491428e-09,-6.3106022104342e-09,7.52128105885e-09,-0.0016365615040865,0.0016365642803407,-0.0016365677902473,0.0016365579775842,-0.0016365570260838,0.0016365688877696,-0.0016365633247287,0.0016365625971106,-0.0013716921904057,0.0013717163593719,-0.001371710700837,0.0013716978531833,6.3197466413135e-09,-7.5151920407476e-09,-6.965905649959e-09,5.9192228263536e-09,-0.0015472367425439,0.0015472356876222,-0.0016365632880084,0.0016365625653133,-0.0016365590974923,0.0016365668537483,-0.0016365677612481,0.0016365579520422,-0.0016365635701631,0.0016365622395346,-0.0013717133585649,0.0013716950143818,-0.0013717008380108,0.0013717078221217,-0.0015470917197626,0.001547108522389,-0.0015471052318427,0.0015470946720201,-9.6771722383577e-09,9.2884204952179e-09,-0.00081889540510253,0.00081889499371778,6.082441335653e-09,-6.701807473087e-09,-0.00096213779492526,0.00096213536633297,-0.00096214203589425,0.00096213109804487,-0.00096213148585491,0.00096214170434177,-0.00096213572655335,0.00096213743570618,-0.00094077455225251,0.00094078844752911,-0.00094079307880525,0.00094076985756999,0.72922790813433,125803,2834,0.0064243428534177,0.0064243428695618,0.0034113687147956,29.086436049135,-7.3085116069221e-06,-7.3085116069221e-06,-7.3085116069221e-06,3485632.1460433,0.016393820063542
33419200,0.9982327608216,0.016273473555375,0.0061917293863733,0.0061917293946342,0.0038900147743675,-0.0015478515575615,0.0015478526116059,1.002464958766e-08,-8.9863389202203e-09,-6.2955477640431e-09,7.5025499031328e-09,-0.0016371571302571,0.0016371599557868,-0.0016371634569465,0.0016371536124315,-0.0016371526633546,0.0016371645519094,-0.0016371590025458,0.0016371582206854,-0.0013723196753279,0.0013723439507124,-0.0013723383044331,0.0013723253253837,6.3049288343991e-09,-7.4977098915358e-09,-6.975824217707e-09,5.9317637718613e-09,-0.0015478526146437,0.0015478515621973,-0.00163715894677,0.0016371582083642,-0.0016371547489007,0.001637162504294,-0.0016371634094154,0.0016371536058271,-0.0016371592109796,0.0016371579008325,-0.0013723409015671,0.001372322548685,-0.0013723283593061,0.0013723353787248,-0.0015477188187945,0.0015477355997034,-0.0015477323014918,0.0015477217834542,-9.7404256786708e-09,9.3509004715564e-09,-0.00081930807231838,0.00081930766002103,6.091550435573e-09,-6.7121481335408e-09,-0.00096266728182673,0.00096266481686959,-0.0009626715292689,0.00096266054214065,-0.00096266093073556,0.00096267119678341,-0.00096266517794922,0.00096266692172133,-0.00094123376239,0.00094124777342396,-0.0009412524129466,0.00094122906182264,0.74278652623467,125803,2834,0.0064268889058139,0.0064268889216758,0.003413091974083,29.311688130946,-5.5064949524356e-06,-5.5064949524356e-06,-5.5064949524356e-06,3480561.9146638,0.016400748279364
33619200,0.99831429534084,0.016274870043282,0.006192257505378,0.0061922575136402,0.0038903550242637,-0.0015486302091286,0.0015486312588806,1.0087962929245e-08,-9.0524777804295e-09,-6.2821976539387e-09,7.4800160418797e-09,-0.0016379084445504,0.0016379113229269,-0.0016379148138647,0.0016379049351247,-0.001637903989519,0.0016379159073885,-0.001637910371799,0.0016379095326833,-0.0013731203117008,0.0013731447022723,-0.0013731390683066,0.0013731259473802,6.2873748403674e-09,-7.4756117666393e-09,-6.9864425892691e-09,5.9473662059051e-09,-0.0015486312603497,0.0015486302118815,-0.0016379102988239,0.0016379095420884,-0.0016379060913427,0.0016379138453544,-0.0016379147477674,0.0016379049523526,-0.0016379105412542,0.0016379092567307,-0.0013731415977407,0.0013731232371863,-0.0013731290316847,0.0013731360935745,-0.0015485066525396,0.0015485234073819,-0.0015485201084571,0.0015485096419824,-9.7996594164652e-09,9.4092556072294e-09,-0.00081983660644804,0.0008198361925188,6.1080790551129e-09,-6.7312783045564e-09,-0.0009633510851197,0.00096334859052687,-0.0009633553443908,0.00096334430403274,-0.00096334469407284,0.00096335500951255,-0.00096334895406946,0.00096335072383857,-0.00094181307688215,0.00094182718937954,-0.00094183184209667,0.00094180836633917,0.74303042227177,125803,2834,0.0064301077920687,0.0064301078007958,0.0034152989395461,29.613378565423,-3.0929714766133e-06,-3.0929714766133e-06,-3.0929714766133e-06,3474877.5304055,0.016409536286178
33819200,0.99839340884453,0.016276229344944,0.0061927715343676,0.0061927715426367,0.0038906862679397,-0.001549405113465,0.0015494061621205,1.0146005978423e-08,-9.1131763847758e-09,-6.2633032463263e-09,7.4645063261615e-09,-0.0016386586886119,0.0016386616148745,-0.0016386650977987,0.001638655188726,-0.001638654244776,0.0016386661875922,-0.001638660666545,0.0016386597737203,-0.0013739135354794,0.0013739380253193,-0.0013739324079317,0.0013739191564075,6.2720914496174e-09,-7.4590241526258e-09,-7.0042050260086e-09,5.9655588676539e-09,-0.0015494061649366,0.0015494051178926,-0.0016386605748419,0.0016386597974169,-0.0016386563564038,0.001638664114052,-0.0016386650139524,0.0016386552186997,-0.0016386607950547,0.0016386595345824,-0.001373934884162,0.001373916499236,-0.0013739222812537,0.0013739293904633,-0.0015492887578681,0.0015493054946763,-0.0015493021703959,0.0015492917491281,-9.8649578314291e-09,9.4729042230726e-09,-0.00082035887086698,0.00082035845596558,6.1222438953298e-09,-6.7458472963863e-09,-0.00096402861393721,0.000964026085582,-0.00096403288283118,0.00096402178940069,-0.00096402218056184,0.00096403254768994,-0.00096402644930779,0.00096402825129244,-0.00094239077716891,0.0009424050053863,-0.00094240966850003,0.00094238605230908,0.74517768898242,125803,2834,0.0064333110437328,0.0064333110587085,0.0034174800741654,29.917038074737,-6.6369540210659e-07,-6.6369540210659e-07,-6.6369540210659e-07,3470011.9495141,0.016418266242118
34019200,0.9984701056821,0.01627750802561,0.0061932563941412,0.0061932564024114,0.0038909952290577,-0.0015501725877523,0.0015501736345703,1.0207369182466e-08,-9.1765674833389e-09,-6.2511007835738e-09,7.4507190938225e-09,-0.0016394028874976,0.0016394058620805,-0.001639409338307,0.0016393993942995,-0.0016393984521742,0.0016394104261399,-0.0016394049155889,0.0016394039706282,-0.0013746972138474,0.0013747218151675,-0.0013747162087145,0.001374702824128,6.2598505760383e-09,-7.4447433001723e-09,-7.0188341099413e-09,5.981977950757e-09,-0.0015501736374391,0.0015501725923103,-0.0016394048061807,0.001639404011652,-0.0016394005775816,0.0016394083386183,-0.0016394092365816,0.0016393994417885,-0.0016394050075223,0.0016394037679721,-0.0013747186280962,0.0013747002233063,-0.0013747059948884,0.0013747131451287,-0.001550061414389,0.001550078137349,-0.0015500748000198,0.0015500644171289,-9.9268723884779e-09,9.5334974530204e-09,-0.00082087113885178,0.00082087072266346,6.1379214402096e-09,-6.762924336949e-09,-0.00096469775569134,0.00096469519622169,-0.00096470203554304,0.00096469088912066,-0.0009646912815217,0.00096470169916546,-0.00096469556118796,0.00096469739182139,-0.00094296003282999,0.00094297436868235,-0.00094297904379303,0.00094295529533222,0.72426544940923,125803,2834,0.006436483452905,0.0064364834682586,0.0034196198057171,30.220773590171,1.7661887213722e-06,1.7661887213722e-06,1.7661887213722e-06,3465538.4810119,0.016426891452579
34219200,0.99854567519407,0.016278734252899,0.0061937224540062,0.0061937224622769,0.0038912893366163,-0.0015515093598345,0.0015515104024661,1.0269176174188e-08,-9.2399970722556e-09,-6.2388765661917e-09,7.4281615731158e-09,-0.0016407327000947,0.0016407357257832,-0.0016407391925222,0.0016407292155157,-0.0016407282763483,0.0016407402779324,-0.0016407347815507,0.0016407337802812,-0.0013760129589637,0.0013760376734938,-0.0013760320741622,0.00137601855794,6.2437749771956e-09,-7.4247199050975e-09,-7.0420933626877e-09,6.009864413069e-09,-0.0015515104043431,0.0015515093626089,-0.0016407346593327,0.0016407338389763,-0.0016407304136735,0.0016407381824457,-0.0016407390776551,0.0016407292805203,-0.0016407348321371,0.001640733623985,-0.0013760344469801,0.0013760160091723,-0.0013760217643793,0.0013760289815239,-0.0015514038778689,0.001551420586177,-0.0015514172416219,0.0015514069136564,-9.988879240887e-09,9.5934808582744e-09,-0.00082191438550427,0.00082191396671415,6.1629143262088e-09,-6.7920954290817e-09,-0.00096587676620031,0.00096587418129662,-0.00096588106397947,0.00096586985641951,-0.00096587025066386,0.00096588072492706,-0.00096587454865761,0.00096587640006527,-0.0009441006883976,0.00094411512351929,-0.00094411982152721,0.00094409593577597,0.70594348490835,125803,2834,0.0064420126535614,0.0064420126631773,0.0034239645297951,30.832071318769,6.6565705501555e-06,6.6565705501555e-06,6.6565705501555e-06,3470290.6601371,0.016442548661664
34419200,0.99862012327752,0.016279947173955,0.0061941833458322,0.0061941833541092,0.003891580474014,-0.0015528867603386,0.0015528878007019,1.0328082515522e-08,-9.30231869102e-09,-6.2257035769116e-09,7.4143363709368e-09,-0.0016421204002724,0.0016421234732065,-0.0016421269337358,0.0016421169227302,-0.0016421159852949,0.0016421280159584,-0.0016421225312989,0.0016421214776573,-0.001377345310964,0.0013773701306075,-0.0013773645441518,0.0013773508965701,6.2317910589432e-09,-7.4111418663781e-09,-7.0675690259982e-09,6.0363393898355e-09,-0.0015528878031253,0.0015528867628567,-0.0016421223942713,0.0016421215500133,-0.0016421181324265,0.0016421259116626,-0.001642126804639,0.0016421170001909,-0.0016421225418687,0.0016421213605634,-0.0013773668706157,0.0013773483916437,-0.0013773541365762,0.0013773614150752,-0.0015527831956017,0.0015527998983642,-0.0015527965295326,0.0015527862462788,-1.0052868468132e-08,9.6557977660357e-09,-0.00082302084779216,0.00082302042745068,6.1859893221015e-09,-6.8168138524407e-09,-0.00096708310886485,0.0009670804969464,-0.00096708742277605,0.00096707615602872,-0.00096707655192991,0.00096708708248974,-0.00096708086526876,0.00096708274079137,-0.00094531376747938,0.00094532830940712,-0.0009453330231081,0.00094530899522154,0.7086795829359,125803,2834,0.0064477107988184,0.006447710809038,0.0034285697318736,31.475864431714,1.1806915453713e-05,1.1806915453713e-05,1.1806915453713e-05,3479269.4846496,0.016458813957411
34619200,0.99869331555851,0.016281188484153,0.0061946535029978,0.0061946535112793,0.0038918814698755,-0.001554271427814,0.001554272467377,1.0389271467182e-08,-9.3652699962537e-09,-6.2157332147346e-09,7.4060941120263e-09,-0.0016435131569563,0.0016435162754539,-0.0016435197315378,0.0016435096838563,-0.0016435087477478,0.0016435208125442,-0.001643515335034,0.0016435142331459,-0.0013786882592649,0.001378713191117,-0.0013787076160702,0.0013786938359956,6.2230004751954e-09,-7.4012204178506e-09,-7.0893766993923e-09,6.0588001773797e-09,-0.0015542724702204,0.0015542714312083,-0.0016435151824464,0.0016435143185261,-0.0016435109059679,0.0016435186951824,-0.0016435195866263,0.0016435097754723,-0.001643515309146,0.0016435141506365,-0.001378709893494,0.0013786913775167,-0.0013786971163725,0.0013787044443054,-0.0015541721143106,0.0015541888140397,-0.0015541854243358,0.001554175175903,-1.0115021217176e-08,9.7169630079207e-09,-0.00082412868794709,0.0008241282665873,6.2088559984171e-09,-6.840246945074e-09,-0.00096829640873063,0.00096829376981755,-0.00096830073798311,0.00096828941343766,-0.0009682898106601,0.00096830039648685,-0.0009682941395883,0.00096829603953648,-0.00094652842495681,0.00094654307002444,-0.0009465477994738,0.00094652363412346,0.73613738486993,125803,2834,0.0064534388504569,0.0064534388633549,0.0034331810690746,32.120558883662,1.6964471069297e-05,1.6964471069297e-05,1.6964471069297e-05,3487373.870274,0.016475146646495
34819200,0.9987662431165,0.016282436079636,0.0061951258954263,0.0061951259037096,0.0038921842804997,-0.0015562537429862,0.0015562547775362,1.0458047869463e-08,-9.4352410533918e-09,-6.2138065358286e-09,7.3860533597281e-09,-0.00164548089555,0.0016454840688929,-0.001645487521896,0.0016454774328265,-0.0016454764927702,0.0016454885997584,-0.0016454831301774,0.0016454819718921,-0.0013806501937883,0.0013806752588886,-0.0013806696894449,0.0013806557674103,6.2108326224443e-09,-7.3900323849361e-09,-7.1121679494121e-09,6.0830489139246e-09,-0.0015562547801908,0.001556253741382,-0.0016454829626636,0.0016454820754396,-0.0016454786775239,0.0016454864753348,-0.001645487362023,0.0016454775450789,-0.0016454830678003,0.0016454819330398,-0.0013806719175509,0.0013806533635886,-0.0013806590968615,0.0013806664780791,-0.0015561659899706,0.0015561826786462,-0.0015561792975484,0.0015561690872834,-1.0165483716527e-08,9.7748369989982e-09,-0.00082570781614179,0.00082570739857865,6.2437397446911e-09,-6.8716626282251e-09,-0.00097007175096067,0.00097006909941617,-0.00097007610131747,0.00097006472217716,-0.00097006511691527,0.00097007576249385,-0.00097006946674264,0.00097007138233385,-0.00094823646597465,0.00094825119720214,-0.00094825595441206,0.00094823167235185,0.74236047072932,125803,2834,0.0064616384399324,0.0064616384421066,0.0034397561125465,33.051024862218,2.4408198897748e-05,2.4408198897748e-05,2.4408198897748e-05,3493930.7443449,0.016498501235047
35019200,0.99883905818024,0.016283644158091,0.0061955847576973,0.0061955847659941,0.0038924746343997,-0.0015584423081445,0.0015584433439715,1.0512896781808e-08,-9.4907693212767e-09,-6.202467852747e-09,7.383425475714e-09,-0.0016476537924193,0.0016476570041411,-0.0016476604510792,0.0016476503299079,-0.001647649394974,0.0016476615295166,-0.001647656065926,0.0016476548666176,-0.001382817821002,0.0013828429858699,-0.0013828374219089,0.0013828233865617,6.2063815874792e-09,-7.3820897097748e-09,-7.1408947971577e-09,6.1135400155123e-09,-0.0015584433463476,0.0015584423098403,-0.0016476558878987,0.0016476549792379,-0.0016476515780994,0.0016476593932769,-0.0016476602811898,0.0016476504493265,-0.0016476559683714,0.0016476548593986,-0.0013828396176425,0.0013828210121061,-0.0013828267378002,0.0013828341846885,-0.0015583644047071,0.0015583811060288,-0.0015583776892194,0.0015583675135858,-1.023859396043e-08,9.8393655893412e-09,-0.00082744531224466,0.00082744488833485,6.2613654837865e-09,-6.8962549866081e-09,-0.00097203805540873,0.00097203536752594,-0.00097204242047827,0.00097203097540865,-0.00097203137508918,0.00097204207640337,-0.00097203574011968,0.00097203768350897,-0.00095011644125357,0.00095013128852104,-0.00095013605984028,0.0009501116181921,0.72136487931743,125803,2834,0.006470690789275,0.0064706907976953,0.003446991294132,34.0829877244,3.2663901795201e-05,3.2663901795201e-05,3.2663901795201e-05,3500853.7082283,0.016524261421596
35219200,0.99891148277947,0.016284811588274,0.0061960294718144,0.0061960294801167,0.0038927526363432,-0.0015606057319099,0.001560606768643,1.0573088392701e-08,-9.5515007956189e-09,-6.198927043681e-09,7.3848733054838e-09,-0.0016498204705239,0.0016498237225275,-0.0016498271685501,0.001649817007673,-0.0016498160738092,0.0016498282470605,-0.0016498227844574,0.0016498215442611,-0.0013849318720906,0.0013849571522144,-0.0013849515915413,0.0013849374346532,6.2056306209501e-09,-7.3809334755536e-09,-7.1619773784008e-09,6.1343348208482e-09,-0.0015606067712423,0.0015606057350134,-0.0016498225920695,0.0016498216693166,-0.0016498182673199,0.0016498260959642,-0.001649826984159,0.0016498171392245,-0.0016498226578415,0.0016498215637493,-0.0013849537454059,0.0013849350992454,-0.0013849408241073,0.0013849483126226,-0.0015605330096546,0.001560549723953,-0.0015605462847138,0.001560536125598,-1.0303479385074e-08,9.9011705590653e-09,-0.00082918774366124,0.00082918731752099,6.2793352721747e-09,-6.9164288628541e-09,-0.0009739667852356,0.0009739640661426,-0.00097397116328354,0.00097395966103844,-0.00097396006288873,0.00097397081722504,-0.0009739644406548,0.00097396641153683,-0.00095201419591683,0.00095202915230546,-0.00095203393619719,0.0009520093535428,0.70214228949979,125803,2834,0.0064796398432793,0.0064796398550707,0.0034542446682654,35.117543730295,4.0940349842364e-05,4.0940349842364e-05,4.0940349842364e-05,3512018.7212776,0.016549830208608
35419200,0.99898238324957,0.016285918654401,0.0061964525477835,0.0061964525560874,0.0038930135505303,-0.0015623041735849,0.00156230521469,1.063651655572e-08,-9.6133528640218e-09,-6.2069264545398e-09,7.4052082831466e-09,-0.0016515398056156,0.0016515430912416,-0.0016515465451834,0.0016515363354774,-0.0016515353993773,0.0016515476254244,-0.0016515421515962,0.0016515408813948,-0.0013865641761684,0.00138658958632,-0.0013865840211246,0.0013865697474476,6.217942981463e-09,-7.3966797827604e-09,-7.165971991081e-09,6.1340393995275e-09,-0.0015623052185849,0.0015623041795411,-0.0016515419382029,0.0016515410211206,-0.0016515376121225,0.0016515454492623,-0.0016515463395243,0.0016515364820101,-0.0016515420118185,0.0016515409076226,-0.0013865861230745,0.0013865674596532,-0.0013865731973873,0.0013865806756097,-0.0015622304817484,0.0015622472216146,-0.0015622437671468,0.0015622335789277,-1.0365235165585e-08,9.9618425524893e-09,-0.0008305547931056,0.00083055436691583,6.2830281756091e-09,-6.9188788528303e-09,-0.00097545528730789,0.00097545252997033,-0.00097545966755988,0.00097544812251861,-0.00097544852494973,0.00097545932195045,-0.0009754529044361,0.00097545491342488,-0.00095352069176108,0.00095353576444704,-0.0009535405485409,0.00095351584018438,0.68162297201349,125803,2834,0.0064866657496174,0.0064866657699817,0.003459934564427,35.929790841573,4.7438326732583e-05,4.7438326732583e-05,4.7438326732583e-05,3523541.3209188,0.016569899584797
35619200,0.99905095708099,0.01628694843824,0.006196847580932,0.0061968475892298,0.0038932532680781,-0.0015636405071247,0.0015636415508907,1.0699669966192e-08,-9.6729451221663e-09,-6.2308143348991e-09,7.4292232981514e-09,-0.0016529125888287,0.0016529159032,-0.0016529193691952,0.0016529091061625,-0.0016529081669597,0.001652920453361,-0.0016529149600363,0.0016529136683253,-0.0013878164794853,0.0013878420305937,-0.0013878364440643,0.0013878220708698,6.2401900750649e-09,-7.4220788375522e-09,-7.1552374831251e-09,6.12084016738e-09,-0.0015636415541827,0.0015636405120748,-0.0016529147269529,0.0016529138303087,-0.0016529104084686,0.0016529182500606,-0.0016529191437432,0.0016529092750857,-0.0016529148240251,0.0016529136929083,-0.001387838494164,0.0013878198358931,-0.0013878255921965,0.0013878330286971,-0.001563562479757,0.0015635792554038,-0.0015635758181856,0.0015635655716719,-1.0426975001588e-08,1.0024763012018e-08,-0.00083164419976509,0.00083164377449418,6.2709789786468e-09,-6.9062529817828e-09,-0.00097659874085799,0.00097659593426184,-0.00097660311277749,0.00097659153513898,-0.00097659193649181,0.00097660276782967,-0.00097659630797332,0.00097659836801838,-0.00095473740969379,0.00095475261394102,-0.00095475738921619,0.00095473256926639,0.65729898948355,125803,2834,0.0064921944287618,0.0064921944457987,0.0034644668508903,36.574228262911,5.2593826103292e-05,5.2593826103292e-05,5.2593826103292e-05,3536255.6567726,0.016585747759021
35819200,0.99911709136937,0.016288004219587,0.0061972502363091,0.0061972502446047,0.003893503738673,-0.0015649368968773,0.0015649379438887,1.0763409473229e-08,-9.7325420478153e-09,-6.2535099994445e-09,7.4538090556616e-09,-0.0016542609783555,0.001654264321864,-0.0016542678001761,0.001654257483631,-0.0016542565409479,0.0016542688877017,-0.001654263375445,0.0016542620614675,-0.001389004801313,0.0013890304940235,-0.0013890248868704,0.0013890104139749,6.2621100201315e-09,-7.4478146108904e-09,-7.1411162983294e-09,6.103526686453e-09,-0.0015649379472616,0.0015649369016262,-0.0016542631202152,0.001654262246312,-0.0016542588123142,0.0016542666557048,-0.0016542675527006,0.0016542576752112,-0.0016542632433867,0.0016542620825256,-0.0013890268821221,0.0013890082356908,-0.0013890140115272,0.0013890213983853,-0.0015648568419638,0.0015648736505229,-0.0015648702314913,0.0015648599241513,-1.0488284856837e-08,1.0087538840083e-08,-0.00083274532074393,0.00083274489681239,6.2558078537135e-09,-6.8897726602398e-09,-0.00097769224093895,0.00097768938368484,-0.00097769660220979,0.00097768499515814,-0.00097768539512439,0.00097769625855583,-0.00097768975604475,0.00097769186937522,-0.00095597247796318,0.00095598781559119,-0.00095599258079118,0.00095596765178443,0.696192349214,125803,2834,0.0064975591867041,0.0064975592034921,0.0034690441139646,37.214450856798,5.7715606854382e-05,5.7715606854382e-05,5.7715606854382e-05,3553123.4337271,0.016601307983434
36019200,0.99918070095654,0.016289080799155,0.0061976588710903,0.0061976588793849,0.00389376304868,-0.0015662913108752,0.0015662923605983,1.0826671798255e-08,-9.7928701114814e-09,-6.2735550184358e-09,7.4756755364204e-09,-0.0016556329342491,0.0016556363082944,-0.0016556397971426,0.0016556294286786,-0.0016556284831841,0.0016556408880627,-0.0016556353587166,0.0016556340205111,-0.0013903027997382,0.001390328630739,-0.0013903230052799,0.0013903084287636,6.2815868964204e-09,-7.4702734509335e-09,-7.123724912432e-09,6.0834894861236e-09,-0.0015662923635826,0.00156629131503,-0.0016556350805031,0.0016556342299004,-0.0016556307847435,0.0016556386265407,-0.0016556395267046,0.001655629644643,-0.0016556352297197,0.0016556340394934,-0.0013903249388544,0.0013903063127686,-0.0013903121044492,0.0013903194382668,-0.0015662177376818,0.0015662345721772,-0.0015662311704174,0.0015662208060841,-1.0549482287048e-08,1.0150196764456e-08,-0.00083383258171065,0.00083383215911804,6.2376323147413e-09,-6.8703354386586e-09,-0.00097886666779413,0.00097886375794342,-0.00097887101656823,0.00097885938195951,-0.00097885978055343,0.00097887067413371,-0.00097886412901247,0.00097886629757704,-0.00095717676771708,0.00095719224076496,-0.00095719699138032,0.0009571719558083,0.73586309650564,125803,2834,0.0065031619749021,0.0065031619896589,0.003473569434163,37.854510523323,6.2836084186583e-05,6.2836084186583e-05,6.2836084186583e-05,3560716.1162923,0.016617300810497
36219200,0.99923964638803,0.016290046126185,0.0061980265135819,0.006198026521877,0.0038939930907263,-0.0015663815614401,0.0015663826187365,1.0891957967278e-08,-9.8541453214481e-09,-6.3030726473396e-09,7.5212159428981e-09,-0.0016557135139846,0.0016557169099651,-0.0016557204185765,0.0016557099890999,-0.0016557090381261,0.0016557215151752,-0.0016557159553291,0.0016557146061466,-0.0013904041245549,0.0013904301040064,-0.001390424456832,0.0013904097794329,6.3152972811795e-09,-7.5109219129324e-09,-7.0795800718916e-09,6.0316185520722e-09,-0.0015663826226736,0.0015663815679298,-0.0016557156435502,0.0016557148434855,-0.0016557113789646,0.0016557192081723,-0.0016557201141448,0.0016557102338685,-0.0016557158484119,0.0016557145966452,-0.0013904263056802,0.0013904077410937,-0.0013904135637228,0.0013904207709027,-0.0015663081283664,0.0015663249971605,-0.0015663216151627,0.0015663111397698,-1.0608247433909e-08,1.0212294743523e-08,-0.00083375205081225,0.00083375163255842,6.1948319165362e-09,-6.8210785063377e-09,-0.00097890636986268,0.00097890339363019,-0.00097891068810525,0.00097889904794736,-0.00097889944300693,0.00097891035024675,-0.00097890376062751,0.00097890600384382,-0.00095713096533858,0.00095714659059584,-0.00095715130229066,0.0009571261795184,0.71361054940719,125803,2834,0.0065035318387061,0.0065035318602595,0.0034732448669719,37.827185791022,6.261748632818e-05,6.261748632818e-05,6.261748632818e-05,3550211.7282535,0.016617724148316
36419200,0.99929342167594,0.016290914896372,0.0061983576932952,0.0061983577015855,0.0038941995014915,-0.0015658275150914,0.0015658285811915,1.0955399156841e-08,-9.9110557343447e-09,-6.331640364439e-09,7.5671501131113e-09,-0.0016551646044422,0.0016551680207292,-0.0016551715489874,0.0016551610608457,-0.0016551601039149,0.0016551726510522,-0.0016551670609877,0.0016551657027516,-0.001389843157655,0.0013898692816153,-0.0013898636107847,0.0013898488428059,6.3502138306206e-09,-7.5537027856769e-09,-7.0281904971469e-09,5.9718649893077e-09,-0.0015658285868648,0.0015658275253262,-0.0016551667129542,0.0016551659691437,-0.0016551624846841,0.0016551702970266,-0.0016551712091126,0.0016551613340616,-0.0016551669795433,0.0016551656597148,-0.0013898653762576,0.0013898468858472,-0.0013898527427124,0.001389859806638,-0.0015657516288691,0.0015657685297538,-0.0015657651757627,0.0015657545812549,-1.0669672633633e-08,1.0277861596707e-08,-0.00083316151084094,0.00083316109776959,6.1405032879113e-09,-6.7593351465246e-09,-0.00097834184299693,0.00097833879140411,-0.0009783461226933,0.00097833448399163,-0.00097833487460144,0.00097834579033782,-0.00097833915321334,0.0009783414819263,-0.00095655605956716,0.00095657185213409,-0.00095657651977726,0.00095655131232561,0.70434019803984,125803,2834,0.0065012371563286,0.0065012371892063,0.0034707958302066,37.496547226684,5.997237781347e-05,5.997237781347e-05,5.997237781347e-05,3540434.7216084,0.016610568985712
36619200,0.99934252201292,0.016291663334033,0.0061986444172107,0.0061986444254906,0.003894374491332,-0.0015652315363255,0.0015652326027828,1.1019400919219e-08,-9.9704973927957e-09,-6.3647933789901e-09,7.5889216043013e-09,-0.0016545792043089,0.001654582648886,-0.0016545861906537,0.0016545756466233,-0.0016545746861408,0.0016545872970873,-0.0016545816848785,0.0016545803065851,-0.0013892316721468,0.001389257946528,-0.0013892522424471,0.0013892373831856,6.3753669740328e-09,-7.5812091838948e-09,-6.9761717096847e-09,5.9195421875054e-09,-0.0015652326064377,0.0015652315421226,-0.0016545813075826,0.0016545806125324,-0.0016545771138849,0.0016545849050419,-0.0016545858209868,0.0016545759591867,-0.0016545816261904,0.0016545802499772,-0.0013892539234491,0.0013892355184659,-0.0013892413924734,0.0013892483366183,-0.001565152641568,0.0015651695571676,-0.0015651662659082,0.0015651555799769,-1.0728903106484e-08,1.0341828626705e-08,-0.00083256795294083,0.00083256754344283,6.0900845612956e-09,-6.7068571675475e-09,-0.00097773762713525,0.00097773450295851,-0.00097774187232925,0.00097773023031736,-0.00097773061650838,0.00097774154297703,-0.00097773486124318,0.00097773726972122,-0.00095597318148596,0.00095598913354747,-0.00095599376628691,0.00095596848158913,0.66675280695553,125803,2834,0.0064987698366247,0.0064987698561585,0.0034683317417949,37.158184046698,5.7265472373588e-05,5.7265472373588e-05,5.7265472373588e-05,3533078.263963,0.016603047174313
36819200,0.99938740975574,0.016292328965759,0.0061988999270815,0.0061988999353604,0.0038945291033167,-0.0015645763448081,0.0015645774130972,1.1082136379047e-08,-1.0030704275634e-08,-6.3801361702783e-09,7.6043031853457e-09,-0.0016539637142364,0.0016539671922687,-0.00165397074171,0.0016539601488215,-0.001653959186066,0.0016539718506644,-0.0016539662258648,0.0016539648189739,-0.0013885191605272,0.0013885455689831,-0.0013885398502183,0.0013885248844349,6.3895426536814e-09,-7.5977151575014e-09,-6.9321311929794e-09,5.8735818064201e-09,-0.0015645774164496,0.0015645763498363,-0.0016539658165063,0.0016539651590429,-0.0016539616523793,0.0016539694214119,-0.0016539703399457,0.001653960495354,-0.0016539661747615,0.0016539647561096,-0.0013885414406828,0.0013885231121096,-0.0013885289975498,0.0013885358415917,-0.0015644900108531,0.001564506924617,-0.0015645036697451,0.0015644929214087,-1.0789040292439e-08,1.0405720972014e-08,-0.00083199976733786,0.00083199936133399,6.046902697823e-09,-6.6600265970881e-09,-0.00097706474682582,0.00097706155457587,-0.00097706896202007,0.00097705731197667,-0.00097705769469026,0.00097706863589382,-0.00097706190949647,0.00097706439273439,-0.00095542209883899,0.00095543820594172,-0.00095544280558328,0.00095541743431929,0.64957833536689,125803,2834,0.0064960597158524,0.0064960597331727,0.0034659670296232,36.819521405952,5.4556171247613e-05,5.4556171247613e-05,5.4556171247613e-05,3533778.3959273,0.016595131772955
37019200,0.99942966612178,0.016292996902118,0.0061991546456252,0.0061991546539045,0.0038946876025883,-0.001564949632472,0.0015649506973834,1.1142012742159e-08,-1.0093660375722e-08,-6.3579244365963e-09,7.5782628525071e-09,-0.0016543838491104,0.0016543873806549,-0.0016543909175531,0.0016543802962626,-0.001654379336819,0.0016543920229734,-0.0016543864175767,0.001654384950331,-0.0013888030921341,0.0013888296021221,-0.0013888239019229,0.0013888087972017,6.3671726418346e-09,-7.5715601281712e-09,-6.9228570830535e-09,5.8678355163955e-09,-0.0015649507007523,0.0015649496376739,-0.0016543859818536,0.0016543853167861,-0.0016543818226424,0.0016543895741352,-0.0016543904893403,0.0016543806692642,-0.0016543863290899,0.0016543849250213,-0.0013888254063419,0.001388807112102,-0.0013888129779355,0.0013888198268352,-0.001564864757556,0.0015648816222654,-0.0015648783695591,0.0015648676677041,-1.0850908921948e-08,1.0468231781764e-08,-0.00083236507964358,0.00083236467424932,6.039522776962e-09,-6.6520213848808e-09,-0.00097733625845895,0.00097733302022688,-0.00097734046853957,0.00097732878276498,-0.00097732916483037,0.00097734014297876,-0.00097733337452884,0.0009773359049555,-0.00095586144412119,0.00095587767868763,-0.00095588227318901,0.0009558567862069,0.68961815426603,125803,2834,0.0064976061751663,0.0064976061928782,0.0034674812730762,37.016084139956,5.6128673119644e-05,5.6128673119644e-05,5.6128673119644e-05,3545230.0956468,0.016599814192127
37219200,0.9994696847906,0.016293672205055,0.0061994107665487,0.0061994107748283,0.0038948506636776,-0.0015656444337782,0.0015656454927992,1.1200950218189e-08,-1.0158063820358e-08,-6.3253821707401e-09,7.5382193518674e-09,-0.0016550925909536,0.0016550961823492,-0.0016550997005441,0.0016550890566921,-0.0016550881025293,0.0016551008004047,-0.0016550952244538,0.0016550936865637,-0.0013894579066054,0.0013894845086902,-0.0013894788369669,0.0013894635825789,6.3337086244903e-09,-7.5319556549383e-09,-6.9277525501617e-09,5.8785688294781e-09,-0.0015656454959432,0.0015656444385059,-0.0016550947658736,0.0016550940769705,-0.0016550906015281,0.0016550983394586,-0.001655099249317,0.0016550894536736,-0.0016550950839869,0.0016550937146713,-0.001389480259527,0.0013894619799677,-0.0013894678159898,0.0013894747101814,-0.0015655660204617,0.001565582824388,-0.0015655795634746,0.001565568944514,-1.0913201020908e-08,1.0529870866908e-08,-0.00083293747114603,0.00083293706499597,6.0468796757248e-09,-6.6604418060747e-09,-0.00097793763392216,0.00097793435883856,-0.00097794184925667,0.00097793011619962,-0.00097793049884239,0.00097794152287116,-0.00097793471385121,0.00097793727971532,-0.00095650107902764,0.00095651742891683,-0.00095652202979709,0.00095649641603019,0.73362542998137,125803,2834,0.0065004806704814,0.0065004806867496,0.0034698629450009,37.342741603471,5.8741932827772e-05,5.8741932827772e-05,5.8741932827772e-05,3549160.4489696,0.016608080129167
37419200,0.99950754038568,0.016294267514134,0.0061996380408972,0.0061996380491778,0.0038949914240595,-0.0015664029483296,0.0015664040016725,1.1259830557494e-08,-1.0222895390563e-08,-6.2914495462409e-09,7.4984338026415e-09,-0.0016558309580445,0.0016558346095867,-0.0016558381088304,0.0016558274426574,-0.0016558264938087,0.0016558392030921,-0.0016558336569517,0.0016558320479934,-0.0013902295636267,0.0013902562562618,-0.0013902506150464,0.0013902352087222,6.3001751672086e-09,-7.4924814877215e-09,-6.9375363198234e-09,5.8937357887886e-09,-0.0015664040047488,0.001566402952819,-0.0016558331763624,0.0016558324604463,-0.0016558290038396,0.0016558367313155,-0.0016558376358457,0.0016558278615258,-0.00165583346229,0.0016558321308489,-0.0013902519585497,0.0013902336839885,-0.0013902394904865,0.0013902464386943,-0.0015663325541659,0.0015663493002599,-0.0015663460246698,0.0015663354917832,-1.0975433413552e-08,1.0591226842172e-08,-0.00083348566959612,0.00083348526247933,6.0587654496428e-09,-6.673402425168e-09,-0.00097862393637043,0.00097862062737062,-0.00097862816002123,0.00097861637645345,-0.00097861676007665,0.0009786278325686,-0.00097862098338633,0.00097862358113727,-0.00095709938237881,0.00095711584413501,-0.00095712045345742,0.00095709470964858,0.68665558886451,125803,2834,0.0065036163498958,0.0065036163655322,0.0034721506474777,37.672794325313,6.1382354602508e-05,6.1382354602508e-05,6.1382354602508e-05,3543971.0825647,0.016616782922559
37619200,0.99954330107897,0.016294810414217,0.00619984594996,0.0061998459582415,0.0038951185060154,-0.0015670903377378,0.0015670913863636,1.1319084048223e-08,-1.0286994006336e-08,-6.2606696613099e-09,7.4634231637807e-09,-0.0016565367000201,0.001656540409335,-0.0016565438918055,0.0016565332013541,-0.0016565322573773,0.0016565449809216,-0.0016565394615532,0.001656537784811,-0.0013908714263569,0.0013908982129992,-0.0013908925990938,0.0013908770449848,6.2699224089978e-09,-7.4569250776939e-09,-6.9516684089156e-09,5.9126849182881e-09,-0.001567091389631,0.001567090342685,-0.0016565389605082,0.0016565382168318,-0.0016565347770294,0.0016565424986815,-0.001656543398356,0.0016565336398236,-0.0016565392139215,0.0016565379202119,-0.0013908938714888,0.0013908755910057,-0.0013908813712011,0.0013908883783602,-0.0015670200302682,0.0015670367277137,-0.0015670334346657,0.0015670229827294,-1.1038186616003e-08,1.0652455761053e-08,-0.00083405077771564,0.00083405036924752,6.0744900148747e-09,-6.6905454224005e-09,-0.00097921507678561,0.0009792117361619,-0.00097921931141446,0.00097920747429659,-0.00097920785918472,0.00097921898270946,-0.00097921209345519,0.00097921472033861,-0.00095773556580212,0.00095775213637397,-0.00095775675828669,0.00095773088028734,0.66415285734404,125803,2834,0.0065064601061058,0.0065064601230833,0.0034745019953167,38.002979250097,6.4023834000778e-05,6.4023834000778e-05,6.4023834000778e-05,3549263.1109532,0.016624955572134
37819200,0.99957612624,0.016295289545799,0.006200030109522,0.0062000301178038,0.0038952293184735,-0.0015667058200748,0.0015667068720643,1.1378222685754e-08,-1.0348827328252e-08,-6.2445551627733e-09,7.4667578858485e-09,-0.0016561914166161,0.0016561951678911,-0.0016561986486726,0.0016561879215522,-0.0016561869777099,0.0016561997354608,-0.0016561942220208,0.0016561925000389,-0.0013904336465639,0.0013904605366053,-0.0013904549425755,0.0013904392531522,6.2619048657518e-09,-7.4505323318304e-09,-6.952249677085e-09,5.9093574767296e-09,-0.0015667068779705,0.0015667058303412,-0.0016561936935847,0.0016561929462785,-0.0016561895113769,0.0016561972284598,-0.0016561981271189,0.0016561883749819,-0.0016561939429967,0.0016561926539228,-0.0013904561408283,0.0013904378638632,-0.0013904436410031,0.0013904506462078,-0.0015666257269709,0.0015666424079306,-0.0015666390802424,0.0015666286416771,-1.1102047334131e-08,1.0715236988601e-08,-0.00083372368181779,0.00083372327410324,6.0742447879196e-09,-6.6866285470887e-09,-0.0009788106687379,0.00097880728668027,-0.00097881490238038,0.00097880302557592,-0.00097880341089305,0.00097881457550746,-0.00097880764284029,0.00097881031255815,-0.00095742862424038,0.00095744531855263,-0.00095744993356834,0.00095742392590439,0.6401614117953,125803,2834,0.0065048698978556,0.0065048699312812,0.0034731399835918,37.804317951998,6.2434543615984e-05,6.2434543615984e-05,6.2434543615984e-05,3551323.6287382,0.016620336870708
38019200,0.99960620888262,0.016295747419362,0.006200205306941,0.0062002053152162,0.0038953367972052,-0.0015661935581984,0.001566194606176,1.1441741220013e-08,-1.0411348603153e-08,-6.2529952144061e-09,7.4576256267151e-09,-0.0016557314125809,0.0016557352071481,-0.0016557386866468,0.001655727917124,-0.0016557269743017,0.0016557397743127,-0.0016557342607385,0.0016557324960553,-0.0013898449347314,0.0013898719557225,-0.0013898663505111,0.0013898505463041,6.2638517979802e-09,-7.4499380117761e-09,-6.9504200540329e-09,5.9119390082222e-09,-0.0015661946097633,0.0015661935638299,-0.001655733715947,0.0016557329697205,-0.0016557295331046,0.0016557372510131,-0.0016557381495488,0.0016557283971923,-0.0016557339656577,0.0016557326768445,-0.0013898674934572,0.0013898492195603,-0.0013898549947775,0.0013898620046439,-0.001566107202305,0.0015661238871355,-0.0015661205880353,0.0015661101494033,-1.1161820292479e-08,1.0776144471389e-08,-0.00083333808397508,0.00083333767588568,6.0739343062446e-09,-6.6890528499057e-09,-0.00097827807230547,0.00097827464908796,-0.0009782823063021,0.00097827038782291,-0.00097827077252382,0.00097828197810937,-0.00097827500600976,0.00097827771623505,-0.00095706492848045,0.00095708174188646,-0.0009570863615565,0.00095706024122539,0.66569813459481,125803,2834,0.0065027526125546,0.0065027526316075,0.0034715306893849,37.560087703838,6.0480701630706e-05,6.0480701630706e-05,6.0480701630706e-05,3557104.1058203,0.016614394343326
38219200,0.99963380218407,0.016296170745463,0.0062003671365858,0.0062003671448607,0.0038954364640163,-0.001565716866011,0.0015657179141731,1.1503476738035e-08,-1.0472266407214e-08,-6.2574898946261e-09,7.4608959204569e-09,-0.0016552817984447,0.0016552856319777,-0.0016552891134059,0.0016552783008943,-0.0016552773576442,0.0016552902016624,-0.0016552846849978,0.0016552828824051,-0.0013893281639622,0.0013893553093728,-0.0013893496992426,0.0013893337792725,6.267316405727e-09,-7.4537071176406e-09,-6.9550240617538e-09,5.9164457220635e-09,-0.0015657179175641,0.0015657168712724,-0.0016552841223341,0.0016552833750729,-0.0016552799364913,0.0016552876593366,-0.0016552885582903,0.0016552788000315,-0.0016552843714688,0.0016552830827625,-0.0013893507907711,0.00138933250557,-0.0013893382833645,0.0013893452997024,-0.0015656301132872,0.0015656468080228,-0.001565643509455,0.0015656330662429,-1.122409082219e-08,1.0838283634375e-08,-0.0008329440272514,0.00083294361882601,6.077967804934e-09,-6.6938005358313e-09,-0.0009778047285949,0.00097780126644824,-0.00097780896549866,0.00097779700231009,-0.00097779738720693,0.00097780863692943,-0.00097780162367102,0.00097780437222644,-0.00095667920742725,0.00095669613944858,-0.0009567007629958,0.00095667451853697,0.67076171341516,125803,2834,0.0065007810970259,0.0065007811149075,0.0034698902008449,37.314550247337,5.8516401978694e-05,5.8516401978694e-05,5.8516401978694e-05,3556239.0971545,0.016608717393693
38419200,0.99965930522892,0.016296588001342,0.0062005257012754,0.0062005257095505,0.0038955365905159,-0.0015654989905867,0.0015655000368106,1.1564395122373e-08,-1.0532966272228e-08,-6.2638058904415e-09,7.4585623716276e-09,-0.0016550831948509,0.0016550870686048,-0.0016550905513364,0.0016550796968372,-0.0016550787527797,0.0016550916396342,-0.0016550861213003,0.0016550842791614,-0.0013890764969924,0.001389103766208,-0.0013890981499435,0.0013890821153844,6.2681834571804e-09,-7.4543130453578e-09,-6.9670214149635e-09,5.9297170911801e-09,-0.0015655000393858,0.0015654989932504,-0.001655085545114,0.0016550847898487,-0.0016550813522105,0.0016550890836887,-0.0016550899820675,0.0016550802148939,-0.0016550857867803,0.001655084505623,-0.0013890991980631,0.0013890808888515,-0.0013890866661676,0.0013890937079404,-0.0015654154975053,0.0015654322016029,-0.0015654289077504,0.0015654184710252,-1.1286157364098e-08,1.0901570606295e-08,-0.00083276970241357,0.00083276929406465,6.0898093314298e-09,-6.706546940714e-09,-0.00097757833270062,0.00097757483622105,-0.00097758257752932,0.00097757056431505,-0.00097757094900147,0.0009775822485895,-0.00097757519357487,0.00097757797595444,-0.00095652235144552,0.00095653939815022,-0.00095654403232845,0.00095651766049663,0.71253731963261,125803,2834,0.0064998801934896,0.0064998802043173,0.0034691642139463,37.196725295379,5.7573802363032e-05,5.7573802363032e-05,5.7573802363032e-05,3555762.0627028,0.016606147220139
38619200,0.99968302877447,0.016296978270935,0.0062006739643207,0.0062006739725982,0.0038956303340163,-0.001565565326618,0.0015655663708103,1.1626363083177e-08,-1.059588463341e-08,-6.2650681470569e-09,7.4535491849534e-09,-0.0016551333175573,0.0016551372340314,-0.0016551407151847,0.0016551298201083,-0.0016551288769776,0.0016551418035671,-0.0016551362867303,0.0016551344012578,-0.0013891590100969,0.0013891864003008,-0.0013891807814119,0.0013891646264496,6.2686554965834e-09,-7.4536567266983e-09,-6.9846639634216e-09,5.9490423599351e-09,-0.0015655663724703,0.0015655653270239,-0.0016551356970627,0.0016551349297769,-0.0016551314916598,0.0016551392354637,-0.001655140133882,0.0016551303543627,-0.001655135926531,0.0016551346576046,-0.0013891817867865,0.0013891634433756,-0.0013891692177494,0.0013891762989687,-0.0015654904049405,0.0015655071220114,-0.001565503822009,0.0015654933973723,-1.1347931272564e-08,1.096203171422e-08,-0.00083276907622291,0.00083276866611462,6.1067737295632e-09,-6.7264585331032e-09,-0.00097764163712074,0.00097763810993092,-0.00097764589411092,0.00097763382596673,-0.00097763421188158,0.0009776455632714,-0.00097763846891856,0.00097764127888502,-0.00095653287232137,0.00095655002653723,-0.00095655467327351,0.00095652816907512,0.71625965730598,125803,2834,0.0065001530059303,0.0065001530102015,0.0034691667160851,37.193729500797,5.7549836006375e-05,5.7549836006375e-05,5.7549836006375e-05,3547976.2017024,0.016606705346315
38819200,0.99970510052859,0.01629734261713,0.0062008123447343,0.0062008123530152,0.0038957179193802,-0.0015656376098721,0.001565638657379,1.1688826281851e-08,-1.0657482434404e-08,-6.2595338590667e-09,7.4598974289013e-09,-0.0016551881702688,0.0016551921272014,-0.0016551956086674,0.0016551846724384,-0.0016551837291612,0.0016551966971901,-0.0016551911799723,0.0016551892542798,-0.001389252704131,0.0013892802139501,-0.0013892746010381,0.0013892583204413,6.268813274234e-09,-7.4550869984309e-09,-7.0045674629784e-09,5.9664358218672e-09,-0.0015656386604803,0.0015656376141593,-0.0016551905726992,0.0016551897932342,-0.0016551863543229,0.0016551941108816,-0.0016551950097053,0.0016551852172765,-0.001655190790162,0.0016551895332098,-0.0013892755616821,0.0013892571784677,-0.0013892629570133,0.0013892700708283,-0.0015655684799969,0.0015655852105203,-0.0015655818831952,0.0015655714699659,-1.1411114623478e-08,1.1022223014065e-08,-0.00083276619482597,0.00083276578290352,6.1249598413503e-09,-6.7453814254611e-09,-0.00097770921682122,0.00097770566009231,-0.00097771348646367,0.00097770136328292,-0.00097770175138284,0.00097771315440972,-0.00097770602072986,0.00097770885708128,-0.00095653830116689,0.00095655556030849,-0.00095656022062433,0.00095653357806539,0.71844599345718,125803,2834,0.0065004502992864,0.0065004503145568,0.0034691600643509,37.193613421003,5.7548907368025e-05,5.7548907368025e-05,5.7548907368025e-05,3540479.1393233,0.016607303969492
38880000,0.99971166109509,0.016297451044471,0.0062008535177559,0.0062008535260369,0.0038957440006784,-0.0015656599094632,0.0015656609574282,1.17072908613e-08,-1.0675767245639e-08,-6.2605517709702e-09,7.4621580764871e-09,-0.0016552045817388,0.0016552085501055,-0.0016552120324224,0.0016552010830274,-0.0016552001395124,0.0016552131211601,-0.0016552076026372,0.0016552056660022,-0.0013892822497075,0.0013893097966098,-0.0013893041831921,0.0013892878671241,6.2692903372483e-09,-7.4557934794289e-09,-7.0100347002062e-09,5.97160163425e-09,-0.0015656609605707,0.0015656599140797,-0.0016552069912243,0.0016552062085314,-0.0016552027693103,0.0016552105296471,-0.0016552114285696,0.0016552016321336,-0.0016552072055547,0.0016552059516397,-0.0013893051312014,0.0013892867369053,-0.001389292516309,0.0013892996398193,-0.0015655917890367,0.0015656085241692,-0.0015656051922197,0.0015655947813538,-1.14305717911e-08,1.1041173623225e-08,-0.00083276225929759,0.00083276184695603,6.1304505183418e-09,-6.7511918016447e-09,-0.00097772950802453,0.00097772594198961,-0.0009777337814738,0.00097772164134562,-0.00097772202993286,0.00097773344901005,-0.00097772630301143,0.00097772914783471,-0.00095653921957505,0.0009565565118637,-0.00095656117619651,0.00095653449160874,0.71909629643963,125803,2834,0.0065005419053822,0.0065005419214186,0.0034691456133257,37.19360904864,5.7548872389116e-05,5.7548872389116e-05,5.7548872389116e-05,3538051.4661452,0.016607475822945
