time,ASR_ext,ASR_strain,ASR_strain_xx,ASR_strain_yy,ASR_strain_zz,disp_x_101,disp_x_102,disp_x_103,disp_x_104,disp_x_105,disp_x_106,disp_x_p1_neg,disp_x_p1_pos,disp_x_p2_neg,disp_x_p2_pos,disp_x_p3_neg,disp_x_p3_pos,disp_x_p4_neg,disp_x_p4_pos,disp_x_p5_neg,disp_x_p5_pos,disp_x_p6_neg,disp_x_p6_pos,disp_y_101,disp_y_102,disp_y_103,disp_y_104,disp_y_105,disp_y_106,disp_y_p1_neg,disp_y_p1_pos,disp_y_p2_neg,disp_y_p2_pos,disp_y_p3_neg,disp_y_p3_pos,disp_y_p4_neg,disp_y_p4_pos,disp_y_p5_neg,disp_y_p5_pos,disp_y_p6_neg,disp_y_p6_pos,disp_y_p7_neg,disp_y_p7_pos,disp_y_p8_neg,disp_y_p8_pos,disp_z_101,disp_z_102,disp_z_103,disp_z_104,disp_z_105,disp_z_106,disp_z_p1_neg,disp_z_p1_pos,disp_z_p2_neg,disp_z_p2_pos,disp_z_p3_neg,disp_z_p3_pos,disp_z_p4_neg,disp_z_p4_pos,disp_z_p5_neg,disp_z_p5_pos,disp_z_p6_neg,disp_z_p6_pos,humidity,ndof,nelem,strain_xx,strain_yy,strain_zz,temp,thermal_strain_xx,thermal_strain_yy,thermal_strain_zz,vonmises,vstrain
2419200,0,0,0,0,0,0,0,0,0,0,0,0,0,0,0,0,0,0,0,0,0,0,0,0,0,0,0,0,0,0,0,0,0,0,0,0,0,0,0,0,0,0,0,0,0,0,0,0,0,0,0,0,0,0,0,0,0,0,0,0,0,0,0,0,0,0,0,0,0,0,0,0,0,0,0
2619200,0.01954174513631,0.00040088099754212,0.00013362699918071,0.00013362699918071,0.00013362699918071,-3.5565090481456e-05,3.5568278357991e-05,1.5914397814802e-09,1.5772347225306e-09,-3.134181221371e-09,6.4558884123089e-09,-3.4936057806721e-05,3.4936081737576e-05,-3.4936027993003e-05,3.4936042424338e-05,-3.4932978617905e-05,3.4939267357998e-05,-3.4932981782747e-05,3.4939261370579e-05,-3.5634470465898e-05,3.5640828237382e-05,-3.5634478599177e-05,3.5640808062211e-05,3.1370240303615e-09,-6.4559793289394e-09,-8.5291307917013e-09,5.3605744661833e-09,-3.5568278392072e-05,3.5565090446737e-05,-3.4938346401181e-05,3.4933781011308e-05,-3.4933913535819e-05,3.493843891264e-05,-3.4941410950563e-05,3.4930578551952e-05,-3.4936977513499e-05,3.4935236229211e-05,-3.5647507620787e-05,3.5627531028302e-05,-3.5634082966172e-05,3.5641370395603e-05,-3.6234718802434e-05,3.6245504043591e-05,-3.6244061514059e-05,3.6235910868303e-05,-1.3813043284163e-09,-1.3669691086139e-09,-3.2484218138193e-05,3.248144509382e-05,5.370435407233e-09,-8.3771542871571e-09,-3.2282118672554e-05,3.2283966152885e-05,-3.2286669039927e-05,3.2279403116831e-05,-3.2282120436808e-05,3.2283977472059e-05,-3.2286671084854e-05,3.2279414679549e-05,-3.3941129136813e-05,3.3933812928778e-05,-3.3941114463875e-05,3.3933771088472e-05,0.81992965888364,125803,2834,0.0001481834699904,0.00014818346998948,0.00013533598183407,31.529954611147,1.223963688918e-05,1.223963688918e-05,1.223963688918e-05,620035.2238883,0.00043179634917056
2819200,0.04113709534171,0.0008373936465493,0.00028121203435497,0.00028121203722943,0.00027496957496491,-7.3904575671168e-05,7.3908159280805e-05,1.8297594994673e-09,1.7103674213501e-09,-5.8080665460759e-09,9.6173149264431e-09,-7.3351846869026e-05,7.3350375191533e-05,-7.3351848656641e-05,7.3350298468408e-05,-7.3346896955237e-05,7.3355502751185e-05,-7.3346933683793e-05,7.3355462112106e-05,-7.3400879269209e-05,7.3409641052631e-05,-7.3400999597149e-05,7.3409523427514e-05,5.8044268478434e-09,-9.567501684784e-09,-9.5170782179623e-09,5.9789802620442e-09,-7.3908150773487e-05,7.3904585802662e-05,-7.3352911083055e-05,7.3349338405633e-05,-7.3347938772371e-05,7.335452167139e-05,-7.3357827146484e-05,7.3344211894663e-05,-7.3352853520339e-05,7.3349394983316e-05,-7.3417064595446e-05,7.339319996647e-05,-7.3402051496695e-05,7.340861733296e-05,-7.4800545028692e-05,7.4817160312345e-05,-7.4815489936227e-05,7.4801730409258e-05,-8.4217106936259e-10,-6.9195773544741e-10,-6.6021555486046e-05,6.6019990105708e-05,6.7737329326392e-09,-8.5830675797829e-09,-6.6784581652114e-05,6.6788130464803e-05,-6.6789673066621e-05,6.6783015375666e-05,-6.6784547382052e-05,6.6788194731437e-05,-6.6789637918494e-05,6.6783080552634e-05,-6.8893143293945e-05,6.8886628920203e-05,-6.8893226512841e-05,6.8886410103973e-05,0.82138489552324,125803,2834,0.00030789557397705,0.00030789557736004,0.0002750490882636,32.737371457875,2.1898971662999e-05,2.1898971662999e-05,2.1898971662999e-05,904511.62745728,0.00089123761938306
3019200,0.062605824316488,0.0012686527087896,0.00043033132297628,0.00043033135633932,0.00040799002947405,-0.00010977355077339,0.00010977507957637,8.7507857413406e-10,6.2926293712201e-10,-5.2099299611939e-09,6.8914555869608e-09,-0.00010932961613038,0.00010932722764016,-0.00010932967429591,0.00010932712343212,-0.00010932571178961,0.00010933124933505,-0.00010932579579914,0.00010933117154109,-0.00010827312233496,0.00010827889774212,-0.00010827337414693,0.00010827866345562,5.2099994336782e-09,-6.8712766188319e-09,-7.9973823245434e-09,6.4857286089793e-09,-0.00010977508553029,0.00010977356097773,-0.0001093295829085,0.00010932729486779,-0.00010932490640369,0.00010933212693204,-0.00010933346999123,0.00010932326299038,-0.0001093287929551,0.00010932809509843,-0.00010828581674671,0.00010826604059159,-0.00010827176022301,0.00010828043306377,-0.00011107276275671,0.00011108788694654,-0.00011108453776998,0.00011107577045293,-5.9243490977889e-10,-3.2566638895728e-10,-9.5028342581123e-05,9.5027401561511e-05,6.594241375662e-09,-7.7610291706187e-09,-9.6630142998564e-05,9.663394430691e-05,-9.6634904292558e-05,9.6629154123536e-05,-9.6630070924101e-05,9.663404867031e-05,-9.6634832093148e-05,9.6629260163571e-05,-9.99438725511e-05,9.9938420975655e-05,-9.9944091901425e-05,9.9938111529389e-05,0.82013323933614,125803,2834,0.00045728784582161,0.00045728787946931,0.00039587241502312,32.491887022696,1.9935096181569e-05,1.9935096181569e-05,1.9935096181569e-05,1226462.4750446,0.0013113081481615
3219200,0.083847427821733,0.0016853258146242,0.00057670847135515,0.00057670850346316,0.00053190883980594,-0.00014489226134709,0.00014489293109396,5.1064759822081e-10,1.4363680637651e-10,-4.4758332979607e-09,5.2607989809082e-09,-0.00014481145570846,0.00014480902815077,-0.00014481156294775,0.0001448088921193,-0.00014480830644717,0.00014481226233772,-0.0001448084332785,0.00014481214626247,-0.00014187197672549,0.00014187624435166,-0.00014187235207494,0.00014187589620567,4.4766876076709e-09,-5.2433610938385e-09,-7.1109733489626e-09,6.4488776030149e-09,-0.00014489293720625,0.00014489227078723,-0.00014481120549299,0.00014480929738999,-0.00014480681472752,0.00014481381563091,-0.00014481434181006,0.00014480605518018,-0.00014480995047125,0.00014481057321805,-0.00014188266961217,0.00014186542466562,-0.00014186949981622,0.00014187889311479,-0.000146482525381,0.00014649589079996,-0.00014649200619448,0.00014648615176218,-4.9478168808706e-10,-1.0621334288028e-10,-0.00012184322886837,0.00012184260918434,6.3024831970263e-09,-7.1342557143448e-09,-0.00012448210460661,0.00012448588010652,-0.00012448656769809,0.00012448139918451,-0.00012448198650295,0.00012448601962086,-0.00012448644928739,0.00012448154021103,-0.00012894149084221,0.00012893678141231,-0.00012894184575334,0.00012893636912767,0.80675912952708,125803,2834,0.00060353587933864,0.00060353591171959,0.0005075531930268,32.204083173684,1.763266538947e-05,1.763266538947e-05,1.763266538947e-05,1492065.113425,0.0017160974188016
3419200,0.1048357033302,0.0020836604410408,0.00071875825630383,0.00071875828871547,0.00064614389602152,-0.0001789530635126,0.00017895328918256,3.5109154851184e-10,-1.377197625205e-10,-3.9259237064315e-09,4.2472267852107e-09,-0.00017958584539063,0.00017958352903516,-0.00017958599834871,0.00017958335760722,-0.00017958319967288,0.00017958624411045,-0.00017958336773876,0.00017958608811344,-0.00017380455308839,0.00017380798026433,-0.00017380504862286,0.00017380751373395,3.9267141195938e-09,-4.2307003355459e-09,-6.5044902387284e-09,6.2834671478978e-09,-0.00017895329550131,0.00017895307289459,-0.00017958555708593,0.00017958383108163,-0.00017958141080329,0.00017958808902812,-0.00017958819239098,0.00017958110963308,-0.00017958404583291,0.00017958536763525,-0.00017381397386102,0.00017379844638936,-0.00017380155122472,0.00017381114762918,-0.00018064739993129,0.00018065941989134,-0.00018065536140931,0.00018065125033335,-4.5579839694189e-10,5.3957053340235e-11,-0.0001464170339994,0.00014641661454178,6.0270065676196e-09,-6.6475190153492e-09,-0.00015031690928434,0.00015032058898824,-0.00015032112249348,0.00015031636576016,-0.00015031674669806,0.00015032076486052,-0.00015032095954921,0.00015031654309574,-0.00015567627626073,0.00015567213903573,-0.00015567675814083,0.00015567161665245,0.78589835976245,125803,2834,0.0007453584849646,0.00074535851764917,0.00060989040951227,31.914606386265,1.5316851090118e-05,1.5316851090118e-05,1.5316851090118e-05,1732851.0446235,0.002102817420578
3619200,0.12608880013974,0.0024754533515949,0.00086009145152046,0.00086009148476513,0.00075527041530927,-0.00021355145966251,0.00021355137935381,2.5924685045138e-10,-3.5141684215522e-10,-3.7465958743399e-09,3.7531492726454e-09,-0.00021530024984199,0.00021529789028066,-0.00021530044557566,0.00021529768042345,-0.00021529782165121,0.00021530038179976,-0.00021529803021644,0.00021530018508953,-0.00020555227371385,0.00020555528828746,-0.00020555288792683,0.0002055547018429,3.7460456052384e-09,-3.7345176603581e-09,-6.140469710023e-09,6.2265828689827e-09,-0.00021355138528845,0.00021355146984067,-0.00021529982814826,0.00021529832405117,-0.0002152958164504,0.00021530244076085,-0.00021530224603747,0.00021529582821948,-0.00021529823411446,0.00021529994502851,-0.00020556101621143,0.00020554643644952,-0.00020554900280153,0.00020555872216264,-0.0002153500540951,0.00021536158276856,-0.00021535736397168,0.00021535408930605,-4.707481626149e-10,1.5967898051234e-10,-0.00017046239767569,0.00017046206846507,5.8682152734545e-09,-6.3924565688357e-09,-0.00017559882885427,0.00017560241921681,-0.00017560290426192,0.00017559833497343,-0.00017559862528259,0.00017560263452074,-0.00017560270031268,0.00017559855170666,-0.00018204767167724,0.00018204388186236,-0.00018204827336852,0.00018204324297663,0.77011574624318,125803,2834,0.00088939881983872,0.0008893988533755,0.00071001843458902,31.993811765241,1.5950494121924e-05,1.5950494121924e-05,1.5950494121924e-05,1989942.7419868,0.0024919185433597
3819200,0.1479498815815,0.002874754603261,0.0010052995572863,0.0010052995910415,0.0008641554549333,-0.00024956948238985,0.0002495691741934,2.0657302154922e-10,-5.2646394224089e-10,-3.7880316077493e-09,3.562840560093e-09,-0.00025266544899491,0.00025266295328346,-0.00025266568652234,0.00025266270355297,-0.00025266307086237,0.00025266539564461,-0.00025266332012509,0.00025266515786449,-0.00023834814601206,0.00023835100171996,-0.00023834887846745,0.00023835029396246,3.7862181707515e-09,-3.541544115839e-09,-5.9326480143464e-09,6.2486744487168e-09,-0.00024956917934271,0.00024956949363986,-0.00025266484122204,0.0002526635759435,-0.00025266089009947,0.00025266763044423,-0.00025266720809738,0.00025266113129559,-0.00025266325677946,0.00025266518582525,-0.00023835657726139,0.00023834246235624,-0.00023834474421377,0.00023835456444946,-0.00025160478009484,0.0002516163359169,-0.00025161194933702,0.00025160899286364,-5.1151099109412e-10,2.388897723682e-10,-0.0001948993602752,0.00019489906864684,5.7992549026727e-09,-6.2820150893727e-09,-0.00020118861918235,0.00020119214590899,-0.00020119263366447,0.00020118812103092,-0.00020118837620589,0.00020119240183009,-0.00020119239037815,0.00020118837830535,-0.00020921318971916,0.00020920961619864,-0.00020921390789616,0.00020920885934831,0.77140160294022,125803,2834,0.00103932676578,0.0010393267999074,0.0008117692284504,32.324981226489,1.8599849811916e-05,1.8599849811916e-05,1.8599849811916e-05,2232489.4452498,0.0028946077450045
4019200,0.17040996679474,0.0032829269009329,0.0011548826337392,0.0011548826681795,0.0009731615990142,-0.00028668963478642,0.00028668920463936,2.05768275891e-10,-6.4796563166826e-10,-3.8730170533111e-09,3.5269807419388e-09,-0.00029126848955822,0.00029126589701106,-0.00029126876812819,0.00029126560777189,-0.00029126609811416,0.00029126835631417,-0.00029126638751354,0.00029126807816977,-0.00027200622081527,0.00027200908684213,-0.00027200707041444,0.00027200825976942,3.8725296147755e-09,-3.5064986128511e-09,-5.8090516630265e-09,6.2475679169636e-09,-0.00028668920981975,0.00028668964636459,-0.0002912677457877,0.00029126665956613,-0.00029126383576512,0.00029127067220017,-0.00029127012672251,0.00029126419816269,-0.00029126621649431,0.00029126821086558,-0.00027201454210559,0.00027200065667683,-0.00027200283003528,0.00027201263505258,-0.00028903154395656,0.00028904323760846,-0.00028903876681287,0.00028903583758928,-5.6413466981045e-10,3.0790698008694e-10,-0.00021934449388549,0.00021934421799955,5.7468707158942e-09,-6.2108242150442e-09,-0.00022689219193272,0.00022689565156738,-0.00022689616419133,0.00022689166683655,-0.0002268919094574,0.00022689594898425,-0.00022689588137025,0.00022689196560667,-0.0002366868723059,0.0002366834760571,-0.00023668770801867,0.00023668259851587,0.7729948444421,125803,2834,0.0011938181718734,0.0011938182067423,0.00091354706848481,32.66247521838,2.1299801747038e-05,2.1299801747038e-05,2.1299801747038e-05,2446012.3023064,0.0033066433487018
4219200,0.19344387893235,0.0037007715516821,0.0013091788148498,0.0013091788497445,0.0010824138870878,-0.00032498011051061,0.00032497964530451,2.485908860279e-10,-7.263084694807e-10,-3.9486239767333e-09,3.569986104228e-09,-0.00033111708536103,0.00033111446001195,-0.0003311174050513,0.00033111413106688,-0.00033111465806823,0.00033111695928978,-0.00033111498787758,0.00033111664071824,-0.00030664090513523,0.00030664389278835,-0.00030664187226018,0.00030664294584531,3.9485593993384e-09,-3.5496857990877e-09,-5.747243864773e-09,6.2214567259602e-09,-0.00032497965048445,0.00032498012231118,-0.00033111627584567,0.00033111529261363,-0.00033111239522395,0.0003311192758161,-0.00033111869313834,0.00033111279141939,-0.00033111481230974,0.00033111677467873,-0.0003066492446991,0.00030663544270007,-0.00030663761791241,0.00030664733357201,-0.00032770042926506,0.00032771225043387,-0.0003277077699878,0.00032770472609857,-6.2262240041054e-10,3.7060257025764e-10,-0.00024380532091728,0.00024380504860005,5.7069013234073e-09,-6.1649236703107e-09,-0.00025286662332734,0.00025287001652022,-0.0002528705661474,0.00025286605934044,-0.00025286630135082,0.00025287035521922,-0.00025287024381552,0.00025286639937623,-0.00026444101924837,0.00026443777486977,-0.00026444197192558,0.00026443677707758,0.7748867243388,125803,2834,0.0013531544644315,0.0013531544997559,0.0010153840109382,33.000213041986,2.4001704335887e-05,2.4001704335887e-05,2.4001704335887e-05,2636593.8838689,0.0037286339040296
4419200,0.21742065114808,0.0041352989869425,0.0014708716326559,0.0014708716678066,0.00119355568648,-0.00036559420844497,0.00036559374282307,3.081645783719e-10,-7.8542443230802e-10,-3.986384672567e-09,3.6070071742744e-09,-0.00037335495762536,0.00037335234758375,-0.00037335531733772,0.00037335197920612,-0.00037335250701146,0.00037335487167925,-0.00037335287646685,0.00037335451348056,-0.00034328052778867,0.00034328365736693,-0.00034328160893768,0.00034328259307164,3.9866786257634e-09,-3.5897076777833e-09,-5.7747498140283e-09,6.2487203346188e-09,-0.00036559374858284,0.00036559421991278,-0.00037335415367761,0.0003733531780022,-0.00037335025672011,0.00037335717947607,-0.00037335659554619,0.00037335065082296,-0.00037335269832533,0.0003733546524788,-0.00034328897764358,0.00034327509659636,-0.0003432772963214,0.00034328704129626,-0.00036879475634389,0.00036880667423726,-0.00036880217795959,0.00036879907369091,-6.8832405895669e-10,4.2855867176793e-10,-0.0002690955671708,0.00026909528609613,5.729021226204e-09,-6.1948159440845e-09,-0.0002799284222926,0.00027993178196516,-0.00027993238240613,0.00027992780730025,-0.00027992805894315,0.00027993216177726,-0.00027993201870434,0.00027992818851254,-0.00029338521260068,0.00029338206446612,-0.00029338628840934,0.00029338094848731,0.77612067444336,125803,2834,0.0015221310152254,0.0015221310510569,0.0011206679352807,33.594123217103,2.8752985736823e-05,2.8752985736823e-05,2.8752985736823e-05,2815444.4853317,0.0041736246166192
4619200,0.24247702076391,0.0045888773978536,0.0016409821157863,0.0016409821522491,0.0013069131298182,-0.00040847543655488,0.00040847497245625,3.6867488020607e-10,-8.4326196022007e-10,-4.0081017503163e-09,3.6273807616253e-09,-0.00041794289924279,0.00041794031786506,-0.00041794329855121,0.00041793990954386,-0.00041794043466777,0.00041794285545297,-0.00041794084380744,0.0004179424576992,-0.00038183206762516,0.00038183533091562,-0.0003818332611888,0.00038183414959655,4.0078865243031e-09,-3.6140185406767e-09,-5.8177779458752e-09,6.289734985296e-09,-0.00040847497905978,0.00040847544769539,-0.00041794211961538,0.0004179411289532,-0.00041793819685755,0.00041794515866719,-0.00041794457647767,0.00041793858614759,-0.00041794065362761,0.00041794261651528,-0.00038184063277189,0.0003818266528006,-0.0003818288695088,0.00038183868222465,-0.00041227672466367,0.00041228871194682,-0.00041228419713874,0.00041228107331022,-7.6300640957232e-10,4.7789334170116e-10,-0.00029501371312964,0.0002950134052222,5.7546154385569e-09,-6.2484774949184e-09,-0.00030789148452101,0.00030789480162655,-0.00030789547107783,0.00030789080106124,-0.00030789107902639,0.0003078952223668,-0.0003078950654101,0.00030789122342314,-0.00032328950094448,0.00032328642265733,-0.00032329070108669,0.00032328519009988,0.77693645985554,125803,2834,0.0017005073908366,0.0017005074277357,0.0012285605044444,34.291883070428,3.4335064563422e-05,3.4335064563422e-05,3.4335064563422e-05,2981531.159698,0.0046403207033241
4819200,0.26858018242815,0.0050608290231445,0.0018192842179275,0.0018192842580615,0.0014222605471555,-0.00045333871730718,0.00045333825668575,4.3155980242368e-10,-9.0293079458402e-10,-4.0195660195467e-09,3.6433649071442e-09,-0.00046457343871349,0.00046457089212391,-0.00046457387843055,0.00046457044300984,-0.00046457096580904,0.00046457343871958,-0.00046457141551396,0.00046457300019443,-0.00042205776591734,0.00042206116154469,-0.00042205908079232,0.00042205986026719,4.0194266873473e-09,-3.6285264853167e-09,-5.8464756467377e-09,6.3152142147778e-09,-0.00045333826361514,0.0004533387294317,-0.00046457268189051,0.00046457167955763,-0.00046456874254299,0.00046457572777311,-0.00046457514686232,0.0004645691280699,-0.00046457120735929,0.00046457317674073,-0.0004220664303913,0.00042205238426384,-0.00042205461528888,0.00042206446859351,-0.00045784622136212,0.00045785824934406,-0.00045785371625392,0.00045785058189219,-8.3251683783962e-10,5.2829389805758e-10,-0.00032137552785019,0.00032137520065803,5.7728447319145e-09,-6.2868804306866e-09,-0.00033656798252788,0.00033657125920617,-0.00033657198761127,0.00033656723981502,-0.0003365675372611,0.00033657172012057,-0.00033657154227472,0.00033656770241943,-0.00035394329811252,0.00035394029938474,-0.00035394461614404,0.00035393894899495,0.77792178853332,125803,2834,0.0018870922819991,0.0018870923216142,0.001338295981786,34.992289170552,3.993831336442e-05,3.993831336442e-05,3.993831336442e-05,3134204.0557626,0.0051255878637811
5019200,0.29567981157668,0.0055488183667174,0.0020048561640273,0.0020048562046639,0.0015391059980262,-0.00049996367868762,0.0004999632211478,4.9364211039591e-10,-9.62104051264e-10,-4.0177762061507e-09,3.645046929539e-09,-0.00051303729886801,0.00051303479589633,-0.00051303777879893,0.00051303430634304,-0.00051303482654953,0.0005130373424104,-0.00051303531655465,0.00051303686347914,-0.00046377481058665,0.00046377832738066,-0.00046377624453223,0.00046377690752333,4.0178441123115e-09,-3.6298701556087e-09,-5.8578180907081e-09,6.3235069293087e-09,-0.00049996322812814,0.00049996369099305,-0.00051303656858869,0.00051303555674391,-0.00051303262350911,0.00051303961167779,-0.00051303903282467,0.00051303300531118,-0.00051303508758536,0.0005130370606431,-0.00046378354629141,0.0004637694775493,-0.00046377171205873,0.0004637815820513,-0.00050521634030214,0.00050522837142981,-0.0005052238335796,0.00050522070315438,-8.9724529968378e-10,5.8474672547716e-10,-0.00034807622418411,0.00034807588860964,5.7785336018349e-09,-6.3013960586272e-09,-0.00036586631903519,0.00036586955358656,-0.0003658703307203,0.00036586552744054,-0.00036586583346704,0.00036587005495031,-0.00036586984511163,0.00036586603055484,-0.00038514284878741,0.00038513995378824,-0.00038514428555389,0.00038513848472264,0.77677325541864,125803,2834,0.0020809640907653,0.0020809641308542,0.0014494393763278,35.692797697604,4.5542381580829e-05,4.5542381580829e-05,4.5542381580829e-05,3274203.9008338,0.0056271618860623
5219200,0.32307804462018,0.0060420784941768,0.0021934470934699,0.0021934471342227,0.0016551842664842,-0.00054657537908662,0.00054657493275482,5.528803181652e-10,-1.012427743998e-09,-4.0232855869458e-09,3.668390591509e-09,-0.00056151632792622,0.00056151386069764,-0.00056151684428634,0.00056151333548422,-0.00056151384689527,0.00056151641713236,-0.00056151437295593,0.00056151590241483,-0.00050533194184175,0.00050533558075321,-0.00050533348866783,0.00050533405597757,4.0300384782379e-09,-3.6566257897318e-09,-5.7912534556348e-09,6.2413886652245e-09,-0.00054657494098964,0.00054657538974877,-0.00056151558776038,0.00056151462413027,-0.00056151169034814,0.00056151862902897,-0.00056151806431867,0.00056151206000446,-0.00056151416655666,0.00056151606535838,-0.00050534067949083,0.00050532672499161,-0.00050532898844449,0.00050533868107618,-0.00055266687998349,0.00055267888549213,-0.00055267439663855,0.00055267116485738,-9.5169144123459e-10,6.632795845581e-10,-0.00037393020314555,0.00037392989337692,5.7124931774072e-09,-6.2061898023979e-09,-0.00039447665896884,0.00039447982157874,-0.00039448061719571,0.00039447584827437,-0.00039447613036487,0.0003944803676629,-0.00039448008798447,0.00039447639627787,-0.00041566973123674,0.000415667045085,-0.00041567129493169,0.00041566543758963,0.77855552113599,125803,2834,0.0022747395798182,0.0022747396190917,0.0015570585132775,36.022598418519,4.8180787348153e-05,4.8180787348153e-05,4.8180787348153e-05,3388011.0650947,0.0061252474589154
5419200,0.35056865003417,0.0065300995731616,0.0023809853182299,0.0023809853530097,0.001768128901922,-0.00059282226038144,0.00059282182362848,6.2011201273897e-10,-1.0699179041542e-09,-4.0264983372985e-09,3.6806894841393e-09,-0.00060972999935536,0.00060972757918561,-0.00060973055737908,0.00060972701310373,-0.00060972751438299,0.00060973014051446,-0.00060972808174292,0.0006097295844416,-0.00054650426359098,0.00054650803923457,-0.00054650593117837,0.00054650639177323,4.0309082902245e-09,-3.6673966117885e-09,-5.7136245173415e-09,6.1542884247958e-09,-0.00059282183086055,0.00059282226986285,-0.00060972925951551,0.00060972834361943,-0.00060972541425075,0.00060973229349588,-0.00060973174001215,0.00060972577531709,-0.00060972789439079,0.00060972972551967,-0.00054651299505619,0.00054649918973064,-0.00054650146271104,0.00054651098132182,-0.00059959545441118,0.0005996074072013,-0.00059960298600824,0.00059959967805631,-9.9936432365376e-10,7.3351093183277e-10,-0.00039899593522735,0.00039899564804351,5.6465554788984e-09,-6.1148752043381e-09,-0.00042254109846525,0.00042254419106958,-0.00042254500448546,0.00042254026981949,-0.00042254053023115,0.00042254477656518,-0.00042254443576321,0.00042254085714848,-0.00044517334303128,0.00044517084721348,-0.00044517502188801,0.00044516912508465,0.7695800311934,125803,2834,0.0024669568750138,0.0024669569097409,0.0016613983458688,36.275541006447,5.0204328051577e-05,5.0204328051577e-05,5.0204328051577e-05,3487848.7438569,0.0066171424670404
5619200,0.37806968562011,0.0069950784382027,0.0025606506434694,0.0025606506769439,0.0018737771177893,-0.0006374827334032,0.0006374822965841,6.8079530402372e-10,-1.130561440977e-09,-4.0235670901991e-09,3.6763206874854e-09,-0.00065675075495262,0.00065674837788441,-0.00065675135354826,0.00065674777177904,-0.00065674827218389,0.00065675093681966,-0.00065674887978611,0.00065675034040678,-0.00058620259375419,0.00058620648630326,-0.00058620437865928,0.00058620471922885,4.0272331934374e-09,-3.6632276542889e-09,-5.6500463625541e-09,6.0911683459395e-09,-0.00063748230368618,0.00063748274258663,-0.00065675001828369,0.00065674914043202,-0.00065674621284638,0.00065675304799384,-0.00065675249672923,0.00065674657502658,-0.0006567486908644,0.0006567504828566,-0.00058621132111197,0.00058619764381027,-0.00058619991153761,0.00058620930915633,-0.00064422164120878,0.00064423354405507,-0.00064422916741194,0.00064422582580948,-1.0529610086631e-09,8.0108536921539e-10,-0.0004224139846489,0.00042241371122339,5.5925296283473e-09,-6.0448481244339e-09,-0.00044963776569628,0.00044964078970029,-0.00044964163081649,0.00044963690935869,-0.00044963715686587,0.00044964141547727,-0.00044964102155975,0.00044963753699389,-0.00047192857212736,0.00047192625012906,-0.0004719303697432,0.00047192440989249,0.7363704847715,125803,2834,0.0026525392260023,0.0026525392598321,0.0017588857204083,36.526458298359,5.221166638687e-05,5.221166638687e-05,5.221166638687e-05,3589924.9943212,0.0070890133940452
5819200,0.40549642004783,0.0074397597079692,0.0027329261204449,0.002732926153746,0.0019739074337783,-0.00068099203487768,0.0006809915962683,7.4043546099904e-10,-1.1922652296745e-09,-4.015297069666e-09,3.6652411571927e-09,-0.00070287910713443,0.00070287677510189,-0.00070287974626901,0.00070287612879703,-0.00070287662997583,0.00070287932755128,-0.00070287727791172,0.00070287869072885,-0.00062474801690039,0.0006247520201099,-0.00062474991978586,0.00062475013353801,4.0187276345411e-09,-3.6521603000069e-09,-5.6000422763868e-09,6.0434381086068e-09,-0.00068099160339317,0.00068099204404948,-0.00070287837956645,0.00070287752866939,-0.00070287460489284,0.0007028814035308,-0.0007028808525347,0.00070287497001573,-0.00070287707740676,0.00070287884511371,-0.00062475674814301,0.00062474317582237,-0.00062474543357013,0.00062475474383924,-0.0006873310911299,0.00068734294374782,-0.00068733859893781,0.00068733524673159,-1.1102146877608e-09,8.6492849105772e-10,-0.00044435514044309,0.00044435487338658,5.5488463848947e-09,-5.9930145239654e-09,-0.00047596944853278,0.00047597240631713,-0.0004759732822794,0.00047596855756873,-0.00047596879919408,0.00047597307238423,-0.00047597263247952,0.00047596922544378,-0.00049658877954516,0.00049658661421187,-0.00049659069542823,0.00049658465523265,0.71317583720946,125803,2834,0.0028332987950798,0.0028332988289253,0.0018502330744594,36.77729657566,5.421837260528e-05,5.421837260528e-05,5.421837260528e-05,3662491.8155133,0.00754520240283
6019200,0.43236586110793,0.0078653817334013,0.0028981425573892,0.0028981425907873,0.0020690965852247,-0.00072286703289548,0.00072286660194808,8.0479540452341e-10,-1.251404640359e-09,-4.0117433541414e-09,3.6749036260697e-09,-0.00074740479306233,0.00074740250564051,-0.00074740547321178,0.00074740181897107,-0.00074740231371467,0.00074740506060433,-0.00074740300254241,0.00074740438291661,-0.00066158069890721,0.00066158482668683,-0.00066158272479382,0.00066158281938707,4.0179680498341e-09,-3.6591280883052e-09,-5.5221970464179e-09,5.958229616937e-09,-0.00072286660909479,0.00072286704256912,-0.00074740406133578,0.00074740325884991,-0.00074740033838364,0.00074740707931195,-0.00074740653663575,0.00074740069835565,-0.00074740281332612,0.00074740451877425,-0.00066158941390708,0.00066157599154362,-0.0006615782575844,0.00066158739680419,-0.0007287693571612,0.00072878115392978,-0.0007287768587756,0.00072877343832125,-1.16399331935e-09,9.3007469520943e-10,-0.00046458844113868,0.00046458818611162,5.4772781489243e-09,-5.906531201029e-09,-0.00050094610362776,0.00050094898103252,-0.00050094988491659,0.00050094518442415,-0.00050094541534251,0.00050094968730272,-0.00050094919605004,0.00050094589225766,-0.00051945445791007,0.00051945247262993,-0.00051945648508204,0.00051945039056587,0.70261523068012,125803,2834,0.0030072340517292,0.0030072340866585,0.0019344774647806,36.775482517916,5.4203860143324e-05,5.4203860143324e-05,5.4203860143324e-05,3691119.72627,0.0079806829454427
6219200,0.45860971386509,0.0082832816037676,0.0030604207632557,0.0030604207932995,0.0021624400472124,-0.00076398645825036,0.00076398603442112,8.6853449872019e-10,-1.3076954694481e-09,-4.0023706716469e-09,3.6727756077263e-09,-0.00079104971662326,0.00079104748033346,-0.00079105043720209,0.00079104675379306,-0.00079104724150442,0.00079105003182896,-0.00079104797035834,0.00079104931398839,-0.00069767751095539,0.00069768176062548,-0.00069767965283454,0.00069767963506603,4.008232108231e-09,-3.6571465460244e-09,-5.4567696448123e-09,5.8862044577516e-09,-0.00076398604117812,0.00076398646764485,-0.00079104899386681,0.00079104822528214,-0.00079104531462394,0.00079105199964868,-0.00079105146537916,0.00079104566871017,-0.00079104778564897,0.00079104944302444,-0.00069768622155793,0.00069767293207052,-0.00069767519854378,0.00069768420111666,-0.00076977619821149,0.00076978793065229,-0.00076978368926977,0.00076978022672389,-1.2197899149018e-09,9.9640864919385e-10,-0.00048420343848152,0.00048420319380234,5.4152807461956e-09,-5.8322293002374e-09,-0.00052524697409385,0.00052524977557868,-0.00052525071025577,0.00052524602393293,-0.0005252462451034,0.00052525052247839,-0.00052524998063359,0.00052524677238396,-0.00054192770863108,0.00054192589878879,-0.00054192985668126,0.00054192369916319,0.70745491625306,125803,2834,0.0031779997098887,0.0031779997434198,0.0020161495704592,36.758778414352,5.4070227314818e-05,5.4070227314818e-05,5.4070227314818e-05,3703182.2402658,0.0084073671517104
6419200,0.48418691881753,0.0086877072260877,0.0032178038103545,0.0032178038396819,0.0022520995760513,-0.0008038167752302,0.00080381635522143,9.3116613871952e-10,-1.3661207919181e-09,-3.9871150051382e-09,3.6609149075331e-09,-0.00083337189545957,0.00083336971271259,-0.00083337265664182,0.00083336894597753,-0.000833369429599,0.00083337225546846,-0.000833370198749,0.00083337149715901,-0.00073260115552029,0.00073260551949606,-0.0007326034148107,0.00073260327452348,3.9923885214182e-09,-3.6458254578953e-09,-5.4022968566618e-09,5.827823095582e-09,-0.00080381636181486,0.0008038167841557,-0.00083337118869638,0.00083337044352191,-0.00083336754493606,0.00083337418004237,-0.00083337365118448,0.00083336789592162,-0.00083337000692631,0.0008333716324124,-0.00073260986612331,0.00073259669287588,-0.00073259895241322,0.00073260784971726,-0.00080949246163281,0.00080950412593249,-0.00080949992792177,0.00080949644983997,-1.2755658002232e-09,1.0617753811821e-09,-0.0005030206446464,0.00050302040937397,5.3655315368407e-09,-5.7712716176219e-09,-0.00054869364149695,0.00054869637477867,-0.00054869734105975,0.00054869265967159,-0.00054869287209731,0.0005486971621328,-0.00054869657103844,0.00054869344851474,-0.00056345559014126,0.00056345394525289,-0.00056345785739729,0.00056345162821019,0.70210892588832,125803,2834,0.0033433817288635,0.0033433817610738,0.002094502431371,36.741619653895,5.3932957231159e-05,5.3932957231159e-05,5.3932957231159e-05,3733999.9222634,0.0088200228593171
6619200,0.50947184266491,0.0091111859417352,0.0033817694669833,0.0033817694962301,0.0023476469785219,-0.00084490734333969,0.00084490691420407,9.8720926258174e-10,-1.4271693246038e-09,-3.9567603665104e-09,3.6106864419489e-09,-0.00087652637791165,0.00087652425615826,-0.00087652717891943,0.00087652344955504,-0.00087652393870705,0.00087652677186363,-0.0008765247472352,0.00087652597391921,-0.00076926958673634,0.0007692740412897,-0.00076927195695059,0.00076927167927577,3.9559375155891e-09,-3.6014260103327e-09,-5.3953447443567e-09,5.829051430469e-09,-0.00084490692035974,0.00084490734988737,-0.00087652571656339,0.00087652495276997,-0.00087652207386155,0.00087652868695894,-0.00087652815242397,0.000876522431273,-0.00087652450909502,0.00087652616598338,-0.00076927832956971,0.00076926519804918,-0.00076926742120384,0.00076927635039345,-0.00085135277911566,0.00085136437037072,-0.00085136019017075,0.00085135679831678,-1.3368339295057e-09,1.1255270198633e-09,-0.00052305272247604,0.00052305248836672,5.3620864304522e-09,-5.7666500031528e-09,-0.00057286539678808,0.00057286808636196,-0.00057286909402141,0.00057286437392623,-0.00057286458470199,0.00057286891451955,-0.00057286828146619,0.00057286520395081,-0.00058709608429697,0.00058709456756183,-0.00058709848264318,0.00058709213848669,0.74070665959892,125803,2834,0.0035139660355404,0.0035139660618936,0.0021779109137724,37.008721120211,5.6069768961684e-05,5.6069768961684e-05,5.6069768961684e-05,3744464.7406401,0.0092484499221756
6819200,0.53555853621943,0.0095820993899044,0.0035633457543398,0.0035633457883445,0.0024554078472201,-0.000890578138957,0.00089057767344486,1.04621881091e-09,-1.512039214887e-09,-3.8940679216039e-09,3.4823882958986e-09,-0.0009237155660742,0.00092371352875377,-0.00092371641500178,0.00092371267258425,-0.00092371318861869,0.00092371598055626,-0.000923714046176,0.0009237151330303,-0.00081081789038986,0.00081082242000734,-0.00081082039541245,0.0008108199084975,3.8768582569356e-09,-3.4866939756872e-09,-5.4824246632581e-09,5.9514720023031e-09,-0.00089057767942919,0.0008905781416779,-0.00092371501336232,0.00092371414669146,-0.00092371130111798,0.00092371795043079,-0.00092371738427127,0.00092371168765856,-0.00092371367348988,0.00092371549288942,-0.00081082674171687,0.00081081350872764,-0.00081081563215887,0.00081082486990409,-0.00089889812224192,0.00089890963034816,-0.00089890540612986,0.00089890230821552,-1.3935053480714e-09,1.1671029101896e-09,-0.00054669782811672,0.00054669757558843,5.4675075990613e-09,-5.8945647704721e-09,-0.00060011372027393,0.00060011643433892,-0.00060011749457754,0.00060011264576016,-0.00060011287151012,0.00060011729424303,-0.00060011664757342,0.00060011350749326,-0.00061573980469847,0.00061573829019808,-0.0006157423183174,0.00061573579346689,0.79221450290887,125803,2834,0.0037035282568056,0.0037035282748399,0.0022763533779582,38.073049795573,6.4584398364584e-05,6.4584398364584e-05,6.4584398364584e-05,3779863.8291041,0.0097305614606372
7019200,0.56234925110077,0.010029441994883,0.0037377562416747,0.0037377562871174,0.0025539294660907,-0.00093594859454321,0.0009359480950886,1.0839875327485e-09,-1.5885703390607e-09,-3.8286941714918e-09,3.3897770054629e-09,-0.00097115205311193,0.00097115006923052,-0.00097115294080244,0.00097114917408709,-0.00097114972640619,0.00097115246870244,-0.00097115062277969,0.00097115158219184,-0.00085122542944999,0.00085122997249044,-0.00085122804830457,0.00085122735030275,3.8171499950408e-09,-3.3898557111883e-09,-5.5672788495989e-09,6.0716928382604e-09,-0.00093594810383267,0.00093594860203702,-0.00097115156622832,0.00097115061726036,-0.00097114778820221,0.00097115448960666,-0.00097115388697209,0.00097114821078325,-0.00097115010973936,0.00097115208388647,-0.00085123433748194,0.00085122098826763,-0.00085122302818226,0.0008512325521127,-0.00094478327121871,0.000944794728015,-0.00094479037439832,0.0009447875358247,-1.4661097855793e-09,1.2221402205728e-09,-0.00056927113178449,0.00056927086173755,5.5573101355084e-09,-6.0031170947956e-09,-0.00062715150564693,0.00062715422735802,-0.00062715534641064,0.00062715037220876,-0.00062715061619857,0.00062715512968253,-0.00062715445839969,0.00062715127657439,-0.00064223926858675,0.00064223779529065,-0.00064224189565707,0.00064223516040871,0.73335806741736,125803,2834,0.003891800158198,0.0038918001918733,0.0023703489852757,39.157185994542,7.3257487956337e-05,7.3257487956337e-05,7.3257487956337e-05,3825546.8964309,0.010205808675653
7219200,0.58969081223211,0.010468110867148,0.0039094756273802,0.0039094756761587,0.0026491595636088,-0.00098112494417306,0.00098112441305326,1.1272443857813e-09,-1.6656254246984e-09,-3.7898391363394e-09,3.3236369870832e-09,-0.0010188318030265,0.0010188298601662,-0.0010188327303597,0.0010188289245034,-0.0010188295095946,0.0010188322246333,-0.0010188304460119,0.0010188312980142,-0.0008910439288299,0.00089104851774473,-0.00089104666762107,0.00089104577890036,3.7821733124662e-09,-3.3202459986561e-09,-5.6300420811229e-09,6.1678587916073e-09,-0.0009811244224763,0.00098112495457568,-0.0010188313600735,0.0010188303588239,-0.0010188275306127,0.0010188342841153,-0.0010188336473148,0.0010188279869037,-0.0010188298187568,0.0010188319130702,-0.00089105289994821,0.00089103946172557,-0.00089104143619736,0.00089105118286349,-0.00098996144292639,0.00098997288318146,-0.00098996843104947,0.00098996578206777,-1.5357025568412e-09,1.27484674266e-09,-0.00059150032059541,0.00059150003401668,5.6271893713377e-09,-6.0910023023962e-09,-0.00065402994844801,0.00065403266607871,-0.00065403384165962,0.000654028758213,-0.00065402901867928,0.00065403360936128,-0.00065403291325713,0.00065402970349564,-0.00066794670472455,0.00066794528120723,-0.00066794944719985,0.00066794252162455,0.70718847994023,125803,2834,0.0040792261994788,0.0040792262405953,0.0024629178462471,40.242087905049,8.1936703240395e-05,8.1936703240395e-05,8.1936703240395e-05,3889926.1505963,0.010678130979773
7419200,0.61658943973915,0.010883878132088,0.0040727181868122,0.004072718235137,0.0027384417101384,-0.0010234837117881,0.0010234831703136,1.1814989925168e-09,-1.7340445488352e-09,-3.8090697883267e-09,3.3405719156152e-09,-0.0010640429807023,0.0010640410541682,-0.0010640439485371,0.0010640400776952,-0.0010640406748164,0.0010640434308532,-0.001064041652004,0.0010640424633715,-0.00092800462969432,0.00092800933021794,-0.00092800749039359,0.00092800647215912,3.8058868365343e-09,-3.3327443750966e-09,-5.5961748340561e-09,6.1455302253491e-09,-0.0010234831792215,0.0010234837231304,-0.001064042520954,0.0010640415625044,-0.0010640387098476,0.0010640454691205,-0.0010640448206054,0.0010640391787554,-0.0010640410104831,0.0010640430860082,-0.00092801361998297,0.00092800023612123,-0.00092800221053071,0.00092801190053652,-0.0010318639370005,0.0010318754053666,-0.0010318709430759,0.0010318682500141,-1.5959987354238e-09,1.3345610473114e-09,-0.00061158147995956,0.00061158119343678,5.6004638345014e-09,-6.0637191374852e-09,-0.00067883889924496,0.00067884155922207,-0.00067884277438417,0.00067883766884187,-0.00067883793033989,0.00067884254321993,-0.00067884180681295,0.00067883865478093,-0.00069088829727077,0.00069088700788597,-0.00069089114883691,0.00069088412191733,0.68501443731221,125803,2834,0.0042549264650678,0.0042549265070692,0.0025465534911148,40.770468620373,8.6163748962981e-05,8.6163748962981e-05,8.6163748962981e-05,3949414.6010515,0.011117932768222
7619200,0.64230685166394,0.011271897155906,0.0042252283043642,0.0042252283496295,0.0028214405019119,-0.0010624848180018,0.001062484294832,1.2471466482907e-09,-1.7845277696369e-09,-3.8426291733164e-09,3.4012094246809e-09,-0.0011059473219172,0.0011059454189454,-0.0011059483284372,0.0011059444040287,-0.0011059449856957,0.0011059478271218,-0.001105946001153,0.0011059468213075,-0.00096219326779452,0.00096219812161259,-0.00096219624371775,0.0009621951515742,3.8435630781981e-09,-3.3893526296638e-09,-5.5062290519434e-09,6.0379576324967e-09,-0.0010624843029099,0.0010624848295033,-0.001105946830299,0.0011059459512396,-0.0011059430832875,0.001105949791609,-0.0011059491611105,0.0011059435366912,-0.0011059454147189,0.0011059473778586,-0.00096220225634988,0.00096218901687766,-0.00096219103814511,0.00096220048539799,-0.0010701470379781,0.0010701585145923,-0.0010701541203951,0.0010701512499633,-1.6534674288967e-09,1.4034331171993e-09,-0.00062946847655608,0.0006294682023681,5.5070518721415e-09,-5.9558327396766e-09,-0.00070168275184987,0.00070168531550904,-0.00070168656031329,0.00070168149123085,-0.00070168174193567,0.00070168634188364,-0.00070168555123636,0.00070168251991172,-0.00071117040122629,0.00071116931386572,-0.00071117336994767,0.00071116629558601,0.67223240938152,125803,2834,0.0044166684944757,0.0044166685350843,0.0026210618186104,40.851665120904,8.681332096723e-05,8.681332096723e-05,8.681332096723e-05,3990443.630915,0.011520458228169
7819200,0.66680939271528,0.0116371113096,0.0043687311394555,0.0043687311796444,0.0028996489905005,-0.0010995493370374,0.0010995488270103,1.3160522837708e-09,-1.8381997169369e-09,-3.867075466499e-09,3.4349570097741e-09,-0.0011457941247456,0.0011457922576712,-0.001145795172364,0.0011457912020948,-0.0011457917691559,0.0011457946851355,-0.0011457928255436,0.0011457936383794,-0.00099451892642092,0.00099452393804126,-0.00099452202154299,0.0009945208474405,3.8657965480985e-09,-3.4252440008831e-09,-5.4204597705502e-09,5.9389082041957e-09,-0.0010995488340169,0.0010995493468511,-0.0011457936192046,0.0011457928060738,-0.0011457899316317,0.0011457965846146,-0.0011457959695482,0.0011457903722155,-0.0011457922827793,0.0011457941516244,-0.00099452792403793,0.00099451483414458,-0.00099451688561895,0.00099452612027509,-0.0011065091771248,0.00110652063614,-0.0011065163272375,0.0011065133249648,-1.7060934290498e-09,1.4706386736157e-09,-0.00064596379833927,0.00064596353852945,5.4243045610132e-09,-5.857423164096e-09,-0.00072322630816283,0.00072322878526807,-0.00072323005652051,0.0007232250213627,-0.00072322525764329,0.00072322985146673,-0.00072322900704199,0.00072322608977302,-0.00073000832859129,0.00073000743297649,-0.00073001141955729,0.00073000430374187,0.66655083463957,125803,2834,0.0045703543013619,0.0045703543362335,0.0026897774424778,40.921571809845,8.7372574478762e-05,8.7372574478762e-05,8.7372574478762e-05,4000830.3700987,0.011900979893302
8019200,0.69009078476496,0.011980741523036,0.0045038696912793,0.0045038697308903,0.0029730021008665,-0.0011345768717151,0.0011345763693462,1.3804852152419e-09,-1.8945617197929e-09,-3.8764591611865e-09,3.4513867625035e-09,-0.0011835323804603,0.0011835305529906,-0.0011835334685629,0.001183529457415,-0.0011835300162414,0.0011835329891738,-0.0011835311128438,0.0011835319021706,-0.001024346050996,0.0010243511973622,-0.0010243492646516,0.0010243479888865,3.8746913373099e-09,-3.4422245810843e-09,-5.3478712831387e-09,5.8583858088092e-09,-0.0011345763761067,0.0011345768808865,-0.0011835318699895,0.0011835311076198,-0.0011835282315216,0.0011835348348993,-0.0011835342291101,0.0011835286650927,-0.0011835305914376,0.0011835323932534,-0.0010243550506641,0.0010243420943719,-0.0010243441605227,0.001024353229143,-0.0011408878589823,0.0011408992842636,-0.0011408950365939,0.001140891950251,-1.7611094736534e-09,1.5371708416918e-09,-0.00066122478396573,0.00066122453584013,5.3551604409748e-09,-5.7750221243489e-09,-0.00074337075954142,0.00074337315733857,-0.00074337445773021,0.00074336944394098,-0.00074336966833244,0.00074337426389685,-0.00074337336752301,0.00074337055265994,-0.00074775235343654,0.00074775163837608,-0.00074775556397507,0.00074774839088071,0.66097249121849,125803,2834,0.004715569616734,0.0047155696497559,0.0027533557238395,40.991039804469,8.7928318435749e-05,8.7928318435749e-05,8.7928318435749e-05,4006798.4433273,0.012259295296861
8219200,0.71229548843021,0.012305483424143,0.0046317023240939,0.0046317023634616,0.003042078736588,-0.0011679955475562,0.0011679950473569,1.4429632012882e-09,-1.9544157379408e-09,-3.868995886655e-09,3.4450203221116e-09,-0.0012196166160064,0.0012196148360522,-0.0012196177449111,0.0012196136999434,-0.001219614255955,0.0012196172677786,-0.0012196153933328,0.0012196161399243,-0.0010525378123805,0.0010525430776275,-0.0010525411460839,0.0010525397490668,3.8668711671519e-09,-3.4364886984676e-09,-5.3013985454787e-09,5.8096507052177e-09,-0.0011679950540936,0.0011679955565186,-0.0012196161176819,0.0012196153795243,-0.0012196125093271,0.0012196190749631,-0.0012196184726209,0.0012196129414971,-0.0012196148652618,0.0012196166377262,-0.0010525468255286,0.0010525339649442,-0.001052536027986,0.0010525450053907,-0.0011736870692036,0.0011736984473069,-0.0011736942358217,0.0011736911290162,-1.8177168609408e-09,1.600532736853e-09,-0.00067571719462326,0.00067571695328997,5.3129830183338e-09,-5.7250106428735e-09,-0.0007623870734458,0.00076238940706914,-0.00076239074091514,0.00076238572463267,-0.00076238594195511,0.00076239055354593,-0.00076238961060593,0.0007623868731262,-0.00076469003989618,0.00076468947926169,-0.00076469336868087,0.00076468611577041,0.65549139546148,125803,2834,0.0048540932969289,0.0048540933294604,0.0028137341779409,41.181356692458,8.9450853539661e-05,8.9450853539661e-05,8.9450853539661e-05,4016875.992282,0.012600945785337
8419200,0.73347567327741,0.012614369419934,0.0047533200434571,0.0047533200829407,0.0031077292935363,-0.0011998618892308,0.0011998613884553,1.5028886334309e-09,-2.0143329035713e-09,-3.8544160508825e-09,3.4279386790617e-09,-0.0012540908313158,0.0012540891018921,-0.0012540920004418,0.0012540879256983,-0.0012540884813547,0.0012540915230515,-0.0012540896587127,0.001254090355058,-0.0010793872302846,0.001079392603835,-0.0010793906805602,0.001079389157243,3.8513283330925e-09,-3.4202454051789e-09,-5.2708335360308e-09,5.7795861185562e-09,-0.0011998613950918,0.0011998618977923,-0.0012540903544234,0.0012540896257933,-0.0012540867651932,0.001254093300829,-0.0012540926993269,0.0012540871981464,-0.0012540891109893,0.0012540908740564,-0.0010793962636781,0.001079383473269,-0.0010793855250402,0.0010793944540385,-0.0012050397536175,0.001205051080626,-0.0012050468926392,0.0012050437979808,-1.876684710961e-09,1.6638897219582e-09,-0.00068949597104162,0.00068949573392121,5.2851545299199e-09,-5.6923671872295e-09,-0.00078029403615781,0.0007802963130192,-0.00078029768370647,0.00078029265068237,-0.0007802928637779,0.00078029750006473,-0.00078029651249705,0.00078029383984982,-0.00078086741845262,0.00078086700224967,-0.00078087086847392,0.00078086352070417,0.65380935066283,125803,2834,0.0049861624820829,0.0049861625135706,0.0028711422783512,41.430625060966,9.1445000487731e-05,9.1445000487731e-05,9.1445000487731e-05,4026811.6580595,0.012926626623841
8619200,0.7536167332296,0.012907571164932,0.0048687734344334,0.004868773474683,0.003170024255816,-0.0012300771494908,0.0012300766480245,1.5627632017157e-09,-2.0753024027009e-09,-3.8354081850303e-09,3.4087017596187e-09,-0.0012868296347703,0.0012868279572961,-0.0012868308441413,0.0012868267408974,-0.0012868272969689,0.001286830365775,-0.0012868285145086,0.0012868291575082,-0.0011049440220948,0.0011049494996581,-0.0011049475906808,0.0011049459345104,3.8327770434099e-09,-3.4006821556107e-09,-5.2489160054771e-09,5.7583410557235e-09,-0.0012300766547966,0.001230077158247,-0.0012868291826316,0.0012868284562258,-0.0012868256067529,0.001286832116792,-0.0012868315153257,0.0012868260411796,-0.0012868279403672,0.0012868297026426,-0.0011049530793022,0.0011049403441535,-0.0011049423823344,0.0011049512819879,-0.0012348372130454,0.0012348484888079,-0.0012348443130891,0.0012348412426874,-1.936144591773e-09,1.7258220921433e-09,-0.0007025122606354,0.00070251202604766,5.2657097087565e-09,-5.6696681525027e-09,-0.0007972296100229,0.00079723183487317,-0.00079723324367638,0.00079722818653725,-0.00079722839717962,0.00079723306235883,-0.0007972320319777,0.00079722941614276,-0.00079616113418297,0.00079616085319886,-0.00079616470220033,0.0007961572519759,0.6526087541239,125803,2834,0.0051113704235674,0.0051113704557372,0.0029253776186088,41.681398736986,9.3451189895887e-05,9.3451189895887e-05,9.3451189895887e-05,4034788.2819968,0.013235292911639
8819200,0.77271058503772,0.013174874226574,0.0049744688206271,0.0049744688609438,0.0032259365450032,-0.0012581619177594,0.0012581614156509,1.622701404586e-09,-2.1361278964649e-09,-3.8152192732583e-09,3.3876574476257e-09,-0.0013174965365317,0.0013174949121891,-0.0013174977861574,0.0013174936555493,-0.0013174942118724,0.0013174973069613,-0.0013174954695998,0.0013174960584008,-0.0011285460743509,0.0011285516556627,-0.001128549761134,0.0011285479720464,3.8126937978804e-09,-3.3795683734639e-09,-5.2314446572927e-09,5.7416592719141e-09,-0.0012581614224639,0.0012581619266438,-0.0013174961119248,0.0013174953836783,-0.0013174925464762,0.0013174990327914,-0.0013174984314261,0.0013174929822297,-0.0013174948669199,0.0013174966322756,-0.0011285551594194,0.0011285424720853,-0.0011285444955836,0.001128553376122,-0.0012622187743289,0.0012622299988694,-0.0012622258336044,0.0012622227934451,-1.9958949215964e-09,1.7874692482179e-09,-0.00071433247496457,0.00071433224222047,5.2502362978188e-09,-5.6518552167202e-09,-0.00081289199358382,0.00081289416866919,-0.00081289561628965,0.00081289053142217,-0.00081289074021092,0.00081289543658035,-0.00081289436406385,0.00081289180145594,-0.0008098340526699,0.00080983390322213,-0.00080983773910013,0.00080983018295999,0.62941992751082,125803,2834,0.0052277329100429,0.0052277329425594,0.0029746373981855,41.932231059868,9.5457848478941e-05,9.5457848478941e-05,9.5457848478941e-05,4051209.7841054,0.013521082771032
9019200,0.79035859626779,0.013422015697358,0.0050721039690693,0.0050721040094812,0.003277807718808,-0.0012832693650618,0.0012832688679346,1.6829566473591e-09,-2.1959838696708e-09,-3.8062792166062e-09,3.3931372316338e-09,-0.0013450044667291,0.0013450028854732,-0.0013450057561769,0.0013450015895289,-0.0013450021428702,0.0013450052794537,-0.0013450034401508,0.0013450039914357,-0.001149450689181,0.0011494563788722,-0.0011494544952048,0.0011494525796287,3.8091613395005e-09,-3.3801576561149e-09,-5.1918384067869e-09,5.697621270265e-09,-0.0012832688752124,0.0012832693758654,-0.0013450040483355,0.0013450033435545,-0.0013450005097403,0.0013450069649005,-0.0013450063673022,0.0013450009434583,-0.0013450028292952,0.0013450045654989,-0.0011494597811722,0.0011494471715341,-0.0011494491971223,0.0011494579917946,-0.0012867769831565,0.0012867881715719,-0.0012867840176508,0.0012867809491732,-2.0554480933101e-09,1.8500688044033e-09,-0.00072432661390345,0.00072432638507405,5.2112798637862e-09,-5.6069510494211e-09,-0.00082636618306926,0.00082636829370052,-0.00082636977817399,0.00082636468395607,-0.00082636488986647,0.0008263696025871,-0.00082636848559014,0.00082636599493831,-0.00082163829341978,0.00082163829415772,-0.00082164209040515,0.0008216344433389,0.62977530152603,125803,2834,0.0053317470892963,0.0053317471267602,0.0030162969556338,41.750173678269,9.4001389426151e-05,9.4001389426151e-05,9.4001389426151e-05,4051253.583472,0.013774208946901
9219200,0.80655492668402,0.013646259905513,0.0051607388776661,0.0051607389151756,0.003324782112671,-0.001305864236227,0.0013058637318562,1.7407402246399e-09,-2.2596378176158e-09,-3.8201517888675e-09,3.394580664185e-09,-0.001369842787958,0.0013698412363472,-0.0013698441180401,0.0013698398995314,-0.0013698404585425,0.0013698436353296,-0.0013698417966076,0.0013698423063987,-0.0011681702843054,0.0011681760979874,-0.0011681742080958,0.0011681721778612,3.8203939112355e-09,-3.3836983943549e-09,-5.1481366095635e-09,5.6615559560871e-09,-0.0013058637389118,0.0013058642464601,-0.0013698423677325,0.0013698417006199,-0.0013698388546306,0.0013698452950619,-0.0013698446917679,0.0013698392949891,-0.001369841179707,0.0013698428903872,-0.0011681794006555,0.0011681668723386,-0.0011681688954356,0.0011681776143368,-0.0013088490769621,0.0013088602611223,-0.0013088561351974,0.0013088530327798,-2.1136274348449e-09,1.9123353145865e-09,-0.00073309009390312,0.00073308986861716,5.1741532162261e-09,-5.5663761915788e-09,-0.00083831532088699,0.0008383173685101,-0.00083831889000513,0.00083831378492404,-0.0008383139869686,0.00083831871764857,-0.00083831755708677,0.00083831513609589,-0.00083206542322735,0.00083206557172994,-0.00083206934141586,0.00083206160828442,0.62300580294617,125803,2834,0.0054253413330466,0.0054253413688589,0.003052833038084,41.452434776519,9.1619478212155e-05,9.1619478212155e-05,9.1619478212155e-05,4047719.3990795,0.014001069923719
9419200,0.82140903664773,0.013849580805281,0.0052411305798372,0.0052411306175592,0.0033673196078848,-0.0013263217448117,0.0013263212390212,1.8006413309375e-09,-2.3201548893902e-09,-3.8294312038583e-09,3.4017608834224e-09,-0.0013924342230366,0.0013924327045953,-0.0013924355933127,0.0013924313276505,-0.0013924318877137,0.0013924351090831,-0.0013924332658295,0.0013924337399849,-0.0011851179376866,0.0011851238744878,-0.001185121978985,0.0011851198363307,3.8293799432478e-09,-3.3912736581219e-09,-5.1153839878749e-09,5.6299583557434e-09,-0.0013263212459274,0.0013263217546829,-0.0013924338050934,0.001392433165935,-0.0013924303127374,0.0013924367388996,-0.0013924361353477,0.0013924307549619,-0.0013924326438499,0.0013924343288049,-0.0011851270879379,0.0011851146179439,-0.0011851166452082,0.0011851252964097,-0.0013288104013423,0.0013288215811816,-0.0013288174773279,0.0013288143390339,-2.1725518302195e-09,1.974990723242e-09,-0.00074092546311311,0.00074092524151146,5.1443568538926e-09,-5.532212482787e-09,-0.00084906834048457,0.00084907032993697,-0.00084907188848669,0.00084906676760127,-0.00084906696596227,0.00084907171940636,-0.00084907051488443,0.00084906815910618,-0.00084139214254442,0.00084139243487721,-0.00084139618156041,0.00084138835422736,0.61620824084368,125803,2834,0.0055100731607705,0.0055100731955177,0.0030855033216445,41.151672310519,8.921337848415e-05,8.921337848415e-05,8.921337848415e-05,4045362.3664481,0.01420608294254
9619200,0.83502741108582,0.014033812301927,0.0053139916529782,0.0053139916906046,0.0034058289583445,-0.001344836862222,0.0013448363558924,1.8607997768441e-09,-2.3806788279548e-09,-3.8371026005612e-09,3.4083570122093e-09,-0.0014130041133414,0.0014130026298552,-0.0014130055238935,0.0014130012127252,-0.0014130017728661,0.0014130050391832,-0.0014130031911614,0.001413003629818,-0.00120044598852,0.0012004520485266,-0.0012004501478205,0.0012004478917647,3.8367840281169e-09,-3.39814941284e-09,-5.0960789902593e-09,5.6111230074666e-09,-0.0013448363627255,0.0013448368718564,-0.0014130037040823,0.0014130030826709,-0.0014130002239218,0.0014130066427998,-0.0014130060395548,0.0014130006668971,-0.0014130025602931,0.00141300422796,-0.0012004551845477,0.0012004427475271,-0.0012004447788672,0.001200453388099,-0.0013468380913174,0.0013468492727425,-0.0013468451824229,0.0013468420181924,-2.2318456007377e-09,2.0369500822203e-09,-0.0007479395085993,0.00074793928961793,5.1272218724299e-09,-5.5119337602288e-09,-0.00085874033100386,0.00085874227006153,-0.00085874386663957,0.00085873872017167,-0.00085873891595793,0.00085874369993755,-0.00085874245253826,0.00085874015209706,-0.00084975547512631,0.00084975590110414,-0.00084975963318554,0.00084975170229577,0.60938040592575,125803,2834,0.0055867526559027,0.0055867526900041,0.0031147519808643,40.850791590615,8.6806332724924e-05,8.6806332724924e-05,8.6806332724924e-05,4043406.9569726,0.014391328727174
9819200,0.8472762571596,0.01420041980983,0.0053797612366779,0.0053797612743204,0.0034408972988321,-0.0013606797692841,0.0013606792665335,1.9215600957169e-09,-2.4406800646641e-09,-3.8531342622167e-09,3.4337681559163e-09,-0.0014307206477812,0.0014307191927415,-0.0014307220986339,0.0014307177358095,-0.0014307182936586,0.0014307216162207,-0.0014307197517868,0.0014307201669721,-0.001213456145468,0.0012134623330323,-0.0012134604235815,0.0012134580595513,3.8564858429459e-09,-3.421111643752e-09,-5.0671163800002e-09,5.5788275983338e-09,-0.0013606792736284,0.0013606797799331,-0.0014307202347521,0.0014307196455342,-0.0014307167751223,0.0014307231851156,-0.0014307225845211,0.0014307172156421,-0.0014307191254638,0.0014307207562175,-0.0012134653791774,0.0012134529840688,-0.0012134550316971,0.001213463563632,-0.0013622950641718,0.0013623062631751,-0.0013623021843194,0.0013622989555615,-2.2907915303656e-09,2.0991780997853e-09,-0.00075357284144451,0.00075357262624767,5.0992586496853e-09,-5.4787054523671e-09,-0.0008666742512068,0.00086667613329603,-0.00086667776672819,0.00086667260342159,-0.0008666727962575,0.00086667760371633,-0.00086667631234858,0.00086667407611821,-0.00085662181126671,0.00085662237962997,-0.00085662608275677,0.00085661805559816,0.6121371114154,125803,2834,0.0056523594695623,0.005652359506314,0.0031382518517426,40.184800582569,8.147840466055e-05,8.147840466055e-05,8.147840466055e-05,4033272.992824,0.014548304878123
10019200,0.85828477948896,0.014351230004749,0.0054391672745942,0.0054391673110634,0.0034728954190915,-0.0013746705173284,0.0013746700176784,1.9836229021525e-09,-2.4992215946135e-09,-3.8698547183006e-09,3.4526791279638e-09,-0.0014464072619098,0.0014464058382247,-0.0014464087529942,0.0014464043411943,-0.0014464048958063,0.0014464082735773,-0.0014464063942526,0.0014464067840698,-0.0012250533126828,0.0012250596354863,-0.0012250577087988,0.0012250552432652,3.8724850914739e-09,-3.440088800158e-09,-5.0446457808306e-09,5.5537581160919e-09,-0.0013746700249625,0.001374670528485,-0.0014464068528018,0.0014464062878967,-0.0014464034081331,0.0014464098115481,-0.0014464092142079,0.0014464038461332,-0.0014464057703819,0.0014464073708019,-0.0012250625993565,0.0012250502370608,-0.00122505229888,0.0012250607695601,-0.0013760118885696,0.0013760231036522,-0.0013760190454961,0.0013760157631987,-2.3499588293585e-09,2.1611821366045e-09,-0.0007585090135081,0.00075850880112174,5.0775484957428e-09,-5.4538167852686e-09,-0.00087362882274371,0.0008736306516355,-0.0008736323227001,0.00087362713735502,-0.00087362732732655,0.00087363216255459,-0.00087363082795766,0.0008736286503567,-0.0008627105368096,0.00086271124187154,-0.00086271492837879,0.00086270680124666,0.61574676987152,125803,2834,0.0057102919851394,0.0057102920233266,0.0031588462481203,39.480677205539,7.584541764431e-05,7.584541764431e-05,7.584541764431e-05,4020678.7386713,0.014686780488187
10219200,0.86819223626973,0.014488111718334,0.0054929702746603,0.0054929703105372,0.0035021711331366,-0.0013871121226871,0.0013871116247342,2.0452468095256e-09,-2.558076318995e-09,-3.8819945612603e-09,3.4640927028752e-09,-0.0014603552685072,0.001460353879621,-0.0014603567999142,0.001460352342264,-0.0014603528946156,0.0014603563228275,-0.0014603544333542,0.001460354792956,-0.0012353533792735,0.0012353598322634,-0.0012353578928697,0.0012353553212353,3.8829892201682e-09,-3.4528773026022e-09,-5.0306045480061e-09,5.5377688421507e-09,-0.0013871116315344,0.0013871121327277,-0.0014603548699936,0.001460354320296,-0.0014603514349036,0.0014603578339007,-0.0014603572392857,0.0014603518707782,-0.00146035380501,0.0014603553853644,-0.0012353627223025,0.0012353503800813,-0.0012353524511858,0.0012353608830623,-0.0013882694304724,0.0013882806562991,-0.0013882766160578,0.0013882732984747,-2.4093242957499e-09,2.2230211649941e-09,-0.00076291969117713,0.0007629194809183,5.0639032855523e-09,-5.4380056982341e-09,-0.00087979685664596,0.00087979863726811,-0.00087980034681595,0.00087979513287581,-0.00087979532056752,0.00087980018849813,-0.0008797988115058,0.00087979668617575,-0.00086819002910932,0.00086819086490857,-0.00086819454079286,0.00086818630799263,0.62007022868703,125803,2834,0.0057618064520986,0.005761806486968,0.00317724970686,38.775481900255,7.0203855202037e-05,7.0203855202037e-05,7.0203855202037e-05,4007070.2983845,0.01481002299849
10419200,0.87713644432183,0.014612878877584,0.0055419069588675,0.0055419069947727,0.0035290649239443,-0.0013982854428199,0.0013982849450844,2.1062784426982e-09,-2.6173680888486e-09,-3.8883352621445e-09,3.4668281820141e-09,-0.0014728507300646,0.0014728493800268,-0.0014728523017234,0.001472847802261,-0.0014728483536138,0.0014728518262689,-0.0014728499325853,0.0014728502560063,-0.0012445972894473,0.0012446038677871,-0.0012446019201458,0.0012445992374159,3.8867422463394e-09,-3.4576794649085e-09,-5.0255911448648e-09,5.5321436529136e-09,-0.0013982849511889,0.0013982854511987,-0.0014728503502887,0.0014728498053055,-0.0014728469183927,0.0014728533152958,-0.0014728527221654,0.0014728473529347,-0.001472849291097,0.0014728508639567,-0.0012446066928274,0.0012445943580659,-0.0012445964320994,0.0012446048505117,-0.0013993326649711,0.0013993438948683,-0.0013993398673272,0.0013993365361198,-2.4691492801655e-09,2.2845286119838e-09,-0.00076692290191838,0.00076692269286787,5.0592306164352e-09,-5.432418814723e-09,-0.0008853472900716,0.00088534902770629,-0.00088535077674553,0.00088534552681958,-0.00088534571314084,0.00088535061934728,-0.00088534920080901,0.00088534712064965,-0.00087321428284991,0.00087321524240554,-0.00087321891526071,0.0008732105698302,0.62506142698279,125803,2834,0.005808066658521,0.0058080666885076,0.0031939543007841,38.100406545663,6.48032523653e-05,6.48032523653e-05,6.48032523653e-05,3992452.5781497,0.014920888694855
10619200,0.88548580215187,0.014727185109275,0.005586792018891,0.0055867920554689,0.0035536010349152,-0.0014096872655978,0.0014096867588343,2.1652963851523e-09,-2.6765282722515e-09,-3.8777992558946e-09,3.4259695202181e-09,-0.0014855013920433,0.0014855000970093,-0.0014855030039352,0.0014854984782066,-0.0014854990326397,0.0014855025254232,-0.0014855006520264,0.0014855009142133,-0.0012541431888509,0.0012541498818038,-0.0012541479318284,0.0012541451298508,3.8619324623201e-09,-3.4267290797233e-09,-5.0583457522753e-09,5.5724807101424e-09,-0.0014096867625919,0.0014096872674146,-0.0014855010670932,0.0014855004833458,-0.0014854976117311,0.0014855040177072,-0.0014855034208039,0.0014854980489059,-0.0014854999663037,0.0014855015842391,-0.0012541526830732,0.0012541403041074,-0.0012541423535136,0.0012541508702908,-0.001410576029981,0.001410587236329,-0.0014105832230751,0.0014105799748163,-2.5308569169005e-09,2.3462135612862e-09,-0.00077157143434641,0.0007715712229926,5.0925494094936e-09,-5.4713626818206e-09,-0.00089150741658084,0.00089150913390858,-0.00089151092685505,0.00089150560987114,-0.0008915057966117,0.00089151076613319,-0.0008915093088994,0.00089150724440104,-0.0008788179596813,0.00087881901609017,-0.00087882272771344,0.00087881424200202,0.61395112436796,125803,2834,0.005855270895298,0.005855270906829,0.0032133391395794,38.029581204525,6.42366496362e-05,6.42366496362e-05,6.42366496362e-05,3988392.6982273,0.015036403796773
10819200,0.89328233488828,0.014832073267003,0.0056280313583954,0.0056280313987651,0.0035760105098427,-0.0014202319665011,0.0014202314598647,2.2242620881435e-09,-2.7404950738743e-09,-3.8410522191972e-09,3.4053162543377e-09,-0.0014972501467295,0.0014972489048127,-0.0014972517983522,0.0014972472463379,-0.0014972478056976,0.0014972513146972,-0.0014972494648478,0.0014972496638929,-0.0012629235484645,0.0012629303264233,-0.001262928415023,0.0012629254589761,3.8363103320586e-09,-3.3990264415504e-09,-5.0982653342009e-09,5.612165592745e-09,-0.001420231465794,0.0014202319731342,-0.0014972498607974,0.0014972492362225,-0.0014972463787411,0.0014972527975274,-0.0014972521977781,0.0014972468210106,-0.001497248716395,0.0014972503831429,-0.0012629331121525,0.0012629206712465,-0.0012629227026524,0.0012629313149197,-0.0014209225755408,0.0014209337572581,-0.0014209296818877,0.0014209265172115,-2.5928279461267e-09,2.403704280896e-09,-0.00077584651381984,0.00077584629959469,5.132479471744e-09,-5.5120599461501e-09,-0.00089719406330809,0.00089719576583488,-0.00089719760090899,0.00089719221415592,-0.00089719240464566,0.00089719743775493,-0.00089719594353091,0.00089719388836032,-0.00088395147167938,0.00088395261349644,-0.0008839563488529,0.0008839477104199,0.60386753824873,125803,2834,0.0058989243309344,0.0058989243569349,0.0032311673480166,37.973723353163,6.3789786825303e-05,6.3789786825303e-05,6.3789786825303e-05,3988321.0575172,0.01514314237563
11019200,0.90055939680813,0.014928126223375,0.0056658489956105,0.0056658490359946,0.0035964281917697,-0.0014299433428617,0.0014299428328023,2.2818549789555e-09,-2.8036727293109e-09,-3.8169861294585e-09,3.3800297215886e-09,-0.0015081116928852,0.0015081105038523,-0.0015081133848174,0.0015081088051505,-0.0015081093680109,0.0015081128973625,-0.0015081110674689,0.001508111206308,-0.0012709675466877,0.0012709744188803,-0.0012709725320144,0.0012709694337386,3.8138705600488e-09,-3.3721965289466e-09,-5.1360642617432e-09,5.6541201280315e-09,-0.0014299428396867,0.0014299433512742,-0.0015081114533194,0.0015081107902659,-0.0015081079447832,0.0015081143780725,-0.0015081137734127,0.0015081083906749,-0.0015081102657143,0.0015081119794536,-0.0012709771828749,0.0012709646841024,-0.001270966695663,0.001270975406278,-0.0014304077946503,0.0014304189583452,-0.0014304148461558,0.0014304117608646,-2.6549866143783e-09,2.4625778692012e-09,-0.00077973389092555,0.0007797336735479,5.1707879142874e-09,-5.5536551204497e-09,-0.00090239234259068,0.00090239402836581,-0.00090239590690786,0.00090239045006418,-0.00090239064392388,0.00090239574094978,-0.00090239420937545,0.00090239216484811,-0.00088860620280053,0.00088860743281289,-0.00088861119404856,0.00088860240715219,0.59320719749599,125803,2834,0.0059391261674434,0.0059391261991096,0.0032473792925347,37.918443719796,6.3347549758368e-05,6.3347549758368e-05,6.3347549758368e-05,3990651.924796,0.015241242408563
11219200,0.90733956871203,0.015017555630581,0.0057010314774286,0.0057010315178227,0.0036154926353301,-0.0014388885243213,0.0014388880108314,2.3399365217808e-09,-2.8659676176566e-09,-3.799708254874e-09,3.3602803755646e-09,-0.0015181282653059,0.0015181271248155,-0.0015181299971283,0.0015181253859058,-0.0015181259524584,0.0015181295059907,-0.0015181276919367,0.0015181277748495,-0.0012783741261738,0.0012783810990112,-0.0012783792295689,0.0012783759959224,3.7972907384922e-09,-3.3514547606054e-09,-5.1700349990988e-09,5.6918937435863e-09,-0.0014388880179674,0.001438888533484,-0.0015181280658607,0.0015181273705965,-0.0015181245334759,0.0015181309822025,-0.0015181303735191,0.0015181249831452,-0.0015181268422507,0.0015181285959935,-0.0012783838383304,0.0012783712853048,-0.0012783732811491,0.0012783820780012,-0.0014391618634998,0.0014391730181918,-0.0014391688753867,0.0014391658546589,-2.7173020031307e-09,2.5217465211689e-09,-0.00078328670353686,0.00078328648303627,5.2048657199563e-09,-5.5911843958137e-09,-0.00090712920963975,0.00090713087582541,-0.00090713279787881,0.00090712727365023,-0.00090712747053596,0.00090713262897003,-0.00090713105990405,0.00090712902901084,-0.00089288075392761,0.0008928820756538,-0.00089288586268041,0.0008928769297844,0.59263236274734,125803,2834,0.0059761550486221,0.0059761550823615,0.003262195575734,37.837669207202,6.2701353657617e-05,6.2701353657617e-05,6.2701353657617e-05,3993387.4448817,0.015331490268578
11419200,0.91361310809337,0.015100884706889,0.0057337634880882,0.0057337635284267,0.0036333576903741,-0.0014469091412181,0.0014469086259642,2.3974692445485e-09,-2.9263316811053e-09,-3.7928482999703e-09,3.3536657876358e-09,-0.0015271269114438,0.0015271258122828,-0.0015271286824477,0.0015271240340867,-0.0015271246028009,0.0015271281890104,-0.0015271263816563,0.0015271264185358,-0.001285000030841,0.0012850071106726,-0.0012850052505137,0.0012850018917432,3.7904167543112e-09,-3.3421331333954e-09,-5.1939299503032e-09,5.7179401996717e-09,-0.0014469086333007,0.0014469091512234,-0.0015271267415478,0.0015271260268631,-0.0015271231926051,0.0015271296551874,-0.0015271290438332,0.0015271236447304,-0.001527125496222,0.0015271272742697,-0.0012850098154757,0.0012849972210809,-0.0012849992094785,0.0012850080622114,-0.0014470390499067,0.0014470502075619,-0.0014470460411781,0.0014470430553771,-2.7803514268525e-09,2.5826090428606e-09,-0.00078636962260522,0.00078636940003224,5.2278031734111e-09,-5.6162044448479e-09,-0.00091127475800909,0.00091127639699093,-0.00091127836226026,0.00091127277880786,-0.00091127297778316,0.00091127819148085,-0.00091127658313058,0.00091127457533595,-0.00089665030751845,0.00089665173136617,-0.0008966555352764,0.00089664646282848,0.59626238116947,125803,2834,0.0060093551684838,0.0060093552043829,0.0032750551568631,37.630735286541,6.1045882292328e-05,6.1045882292328e-05,6.1045882292328e-05,3992120.6061008,0.015411982218798
11619200,0.91941812027769,0.015178373771269,0.0057641629554388,0.0057641629955367,0.0036500478202934,-0.0014542993612753,0.0014542988439148,2.4583262724669e-09,-2.9886630153964e-09,-3.7924236381787e-09,3.3490421727664e-09,-0.0015354065244237,0.00153540546652,-0.0015354083365726,0.0015354036470738,-0.0015354042173224,0.0015354078415307,-0.0015354060372348,0.0015354060298982,-0.0012911241940584,0.0012911313923562,-0.0012911295335435,0.0012911260530301,3.7900875105458e-09,-3.3399612916772e-09,-5.2109967536384e-09,5.7369447368075e-09,-0.0014542988511969,0.0014542993707874,-0.0015354063815002,0.0015354056556251,-0.001535402820862,0.0015354092960596,-0.0015354086830084,0.001535403274215,-0.0015354051235239,0.0015354069158662,-0.001291134054995,0.0012911214276583,-0.0012911234141431,0.0012911323054029,-0.0014543186644718,0.001454329833325,-0.0014543256573556,0.0014543226882229,-2.8403162667369e-09,2.6412438422842e-09,-0.00078921259593223,0.00078921237169522,5.2457327460757e-09,-5.6363643826384e-09,-0.00091509408338872,0.00091509569370808,-0.00091509770026954,0.00091509206289724,-0.0009150922633794,0.00091509752774985,-0.00091509588139925,0.00091509389912297,-0.00090015127213632,0.00090015279878953,-0.00090015661754267,0.00090014741529139,0.59873359065821,125803,2834,0.0060399445308242,0.0060399445655872,0.0032869148037142,37.420670536403,5.9365364291228e-05,5.9365364291228e-05,5.9365364291228e-05,3988422.0359327,0.015486161520433
11819200,0.92479096243147,0.01525058275104,0.0057924516533026,0.0057924516934624,0.0036656794042747,-0.0014611212101619,0.0014611206917236,2.5182487467588e-09,-3.049429806895e-09,-3.7940416225151e-09,3.3494549353921e-09,-0.0015430361816567,0.0015430351620665,-0.001543038033889,0.0015430333023998,-0.0015430338737636,0.001543037537769,-0.0015430357337711,0.0015430356859273,-0.0012968003929814,0.0012968077094362,-0.0012968058506513,0.001296802251962,3.7916577077538e-09,-3.3404356970372e-09,-5.2247645870478e-09,5.7517108381636e-09,-0.0014611206989015,0.0014611212195206,-0.0015430360613791,0.0015430353277775,-0.001543032491414,0.0015430389778597,-0.0015430383638008,0.0015430329458192,-0.0015430347948874,0.001543036597016,-0.001296810326993,0.0012967976719913,-0.0012967996584818,0.001296808578134,-0.0014610608438523,0.0014610720253361,-0.001461067839192,0.0014610648787987,-2.9015369168216e-09,2.701190151848e-09,-0.00079184566347045,0.00079184543786731,5.2592742333577e-09,-5.6514850848427e-09,-0.00091862444369955,0.00091862602186882,-0.00091862807016996,0.00091862238154383,-0.00091862258326883,0.0009186278962871,-0.00091862621083946,0.00091862425810669,-0.00090341148902325,0.00090341312341391,-0.00090341695356306,0.00090340762175723,0.6021809219269,125803,2834,0.0060681801429512,0.0060681801771792,0.0032978996747562,37.210484832151,5.7683878657206e-05,5.7683878657206e-05,5.7683878657206e-05,3983029.3732206,0.0155546759787
12019200,0.9297726134013,0.01531964887249,0.0058194025351933,0.0058194025753853,0.0036808437619108,-0.0014675639565309,0.0014675634364719,2.5779847299832e-09,-3.1099222591274e-09,-3.7984848056025e-09,3.3496120374162e-09,-0.0015501857649866,0.0015501847835419,-0.0015501876574924,0.0015501828834983,-0.0015501834555535,0.0015501871606465,-0.0015501853557911,0.0015501852683911,-0.0013022334811036,0.0013022409179318,-0.0013022390558531,0.0013022353415979,3.7942577123843e-09,-3.3419749497702e-09,-5.2353174358403e-09,5.7635864661379e-09,-0.0014675634432411,0.0014675639647364,-0.0015501856673874,0.0015501849285667,-0.0015501820903217,0.0015501885862447,-0.0015501879713726,0.001550182545137,-0.0015501843951675,0.0015501862037458,-0.0013022434863023,0.0013022308095749,-0.001302232796055,0.0013022417378482,-0.0014675055018375,0.0014675166959069,-0.0014675125065288,0.0014675095500837,-2.9625957656086e-09,2.7616075720196e-09,-0.00079441133371604,0.00079441110708808,5.2695947493892e-09,-5.6634361462699e-09,-0.00092199895355636,0.00092200049758263,-0.00092200258745272,0.00092199684996659,-0.00092199705247473,0.0009220024124559,-0.00092200068748054,0.00092199876690925,-0.00090662559098618,0.00090662733609813,-0.000906631175376,0.00090662171745453,0.61929850205995,125803,2834,0.006094845764145,0.0060948457951411,0.0033086027143309,37.028100662893,5.6224805303143e-05,5.6224805303143e-05,5.6224805303143e-05,3975110.9788273,0.015619717973007
12219200,0.93440946599469,0.015386074098596,0.0058452264068129,0.0058452264472997,0.0036956212444829,-0.001473796831514,0.0014737963114996,2.6388060466396e-09,-3.1708811015236e-09,-3.7993969704423e-09,3.3516283855829e-09,-0.0015570211618439,0.0015570202192563,-0.0015570230947016,0.0015570182786978,-0.0015570188512965,0.0015570225974322,-0.0015570207919502,0.001557020664758,-0.0013075884629045,0.0013075960193034,-0.0013075941573813,0.0013075903243312,3.7964761467303e-09,-3.3438897675427e-09,-5.2432242396959e-09,5.7716152618306e-09,-0.0014737963185626,0.0014737968404056,-0.0015570210848053,0.0015570203424836,-0.0015570175023706,0.0015570240054666,-0.0015570233901841,0.0015570179577408,-0.0015570198087187,0.0015570216217947,-0.0013075985370564,0.0013075858431747,-0.0013075878315031,0.0013075967876016,-0.0014738111668649,0.0014738223706288,-0.0014738181737274,0.0014738152193797,-3.0230988320766e-09,2.8211636588867e-09,-0.00079700332325493,0.00079700309578138,5.277646119236e-09,-5.6722939759689e-09,-0.00092536405272481,0.00092536556156237,-0.00092536769223444,0.00092536190826637,-0.00092536211161832,0.00092536751645041,-0.00092536575224709,0.00092536386529757,-0.00090988583833707,0.00090988769439581,-0.000909891540443,0.00090988195805758,0.63789980918337,125803,2834,0.0061206413530345,0.0061206413860562,0.0033194158012571,36.914385789103,5.531508631282e-05,5.531508631282e-05,5.531508631282e-05,3962460.5488977,0.015683107257548
12419200,0.93872588158974,0.015445889715657,0.0058685606916987,0.0058685607322944,0.0037087682916635,-0.0014795336301546,0.0014795331101458,2.698565569086e-09,-3.2310555965871e-09,-3.8018605516522e-09,3.3547386261554e-09,-0.0015633221125276,0.0015633212078879,-0.0015633240853126,0.0015633192273867,-0.0015633198000543,0.001563323587958,-0.0015633217806506,0.0015633216153295,-0.0013124879950653,0.0013124956698276,-0.0013124938070707,0.0013124898573787,3.7989680451339e-09,-3.3462999877895e-09,-5.2478406441151e-09,5.7762471922236e-09,-0.0014795331172446,0.0014795336391923,-0.0015633220549112,0.0015633213112961,-0.0015633184694561,0.0015633249774672,-0.0015633243619813,0.0015633189249439,-0.0015633207774398,0.0015633225921026,-0.0013124981330576,0.001312485428427,-0.0013124874183655,0.0013124963819231,-0.0014795438475331,0.0014795550591708,-0.0014795508574216,0.0014795479015386,-3.0841558982718e-09,2.8819423395515e-09,-0.00079931670078082,0.00079931647298795,5.2819239302375e-09,-5.6768520677573e-09,-0.00092848161353727,0.00092848308438822,-0.00092848525600834,0.00092847942813057,-0.00092847963187811,0.00092848507992137,-0.00092848327541464,0.0009284814257594,-0.00091276864191345,0.00091277061386935,-0.0009127744624508,0.00091276475750369,0.61826606276921,125803,2834,0.0061443816684791,0.0061443817018771,0.003329071763304,36.802378445589,5.4419027564712e-05,5.4419027564712e-05,5.4419027564712e-05,3947373.5368145,0.015741150848392
12619200,0.94274420155145,0.015498591795139,0.0058892338917023,0.0058892339323579,0.0037201239710793,-0.0014846863352296,0.0014846858154377,2.7589724901078e-09,-3.2914318437812e-09,-3.8044876975123e-09,3.3581252239325e-09,-0.0015690561892841,0.0015690553228459,-0.0015690582022586,0.0015690533020911,-0.0015690538747705,0.0015690577049332,-0.0015690558955707,0.0015690556920694,-0.0013167860362048,0.0013167938310662,-0.0013167919667467,0.0013167879004389,3.802021912958e-09,-3.349430947557e-09,-5.2491020321563e-09,5.7774020135218e-09,-0.0014846858226403,0.0014846863445319,-0.001569056149883,0.001569055407526,-0.0015690525635877,0.0015690590744743,-0.0015690584590317,0.0015690530190709,-0.0015690548737014,0.001569056687062,-0.0013167962364327,0.0013167835272353,-0.0013167855194178,0.0013167944831425,-0.0014845916500778,0.0014846028684969,-0.0014845986649883,0.0014845957037851,-3.1448072961683e-09,2.9422511233655e-09,-0.00080133041084158,0.00080133018278874,5.2831082096523e-09,-5.6782592728196e-09,-0.00093124113324732,0.0009312425644476,-0.00093124477659877,0.00093123890730232,-0.00093123911129374,0.00093124460032117,-0.00093124275570448,0.00093124094528064,-0.00091525058707946,0.00091525267613126,-0.00091525652567843,0.00091524670098639,0.58731201982068,125803,2834,0.0061657045166936,0.0061657045508531,0.003337477338504,36.690437055258,5.3523496442061e-05,5.3523496442061e-05,5.3523496442061e-05,3940503.3228103,0.015793016641754
12819200,0.94645143308507,0.015547608516931,0.0059084286845163,0.0059084287251822,0.0037307511072322,-0.0014890389571909,0.0014890384390857,2.8200473051376e-09,-3.3520628776036e-09,-3.8112033274133e-09,3.3692580280682e-09,-0.0015739661046088,0.0015739652735184,-0.0015739681580042,0.001573963212454,-0.0015739637841411,0.0015739676617256,-0.0015739658453342,0.0015739656084683,-0.0013203402775744,0.0013203481961424,-0.0013203463280539,0.0013203421468144,3.8107211927304e-09,-3.3595844324476e-09,-5.2376835933978e-09,5.7643761450119e-09,-0.0014890384466135,0.0014890389672389,-0.0015739660753764,0.0015739653461764,-0.0015739624970237,0.0015739690050291,-0.0015739683907585,0.001573962951571,-0.0015739648133475,0.0015739666113875,-0.0013203505303028,0.0013203378370985,-0.0013203398367534,0.0013203487685493,-0.0014888647814568,0.0014888760087206,-0.0014888718088459,0.0014888688197668,-3.2045277923545e-09,3.0025918631444e-09,-0.00080290981525284,0.00080290958810307,5.2720896099707e-09,-5.6657698714863e-09,-0.00093339590175411,0.00093339728600893,-0.00093339953730885,0.00093339363660281,-0.00093339383995088,0.00093339936202434,-0.00093339747647825,0.00093339571469573,-0.00091726985207138,0.00091727206686114,-0.00091727590599704,0.00091726597165906,0.59134553307186,125803,2834,0.0061837170930016,0.0061837171293782,0.0033440704348198,36.407127026232,5.1257016209853e-05,5.1257016209853e-05,5.1257016209853e-05,3938894.1158243,0.015836316567817
13019200,0.9498288661801,0.01559241976234,0.0059259580951917,0.0059259581357119,0.0037405035314361,-0.0014924695908786,0.0014924690746905,2.8827020709599e-09,-3.4130346256644e-09,-3.8254221404501e-09,3.3855277421573e-09,-0.0015778949211681,0.0015778941230783,-0.0015778970158088,0.0015778920209816,-0.0015778925906693,0.0015778965216115,-0.0015778946929862,0.0015778944271186,-0.0013230761791441,0.0013230842305796,-0.0013230823509302,0.001323078059735,3.8260774077851e-09,-3.3771806811697e-09,-5.2114258485947e-09,5.7361170157115e-09,-0.0014924690822371,0.0014924696007719,-0.0015778948953173,0.001577894192941,-0.0015778913349394,0.0015778978337232,-0.0015778972215516,0.0015778917874316,-0.0015778936619583,0.0015778954289393,-0.0013230864774889,0.0013230738249309,-0.0013230758369786,0.0013230847022296,-0.0014922333732322,0.001492244612458,-0.0014922404326606,0.0014922373905041,-3.2625060864239e-09,3.0626938247766e-09,-0.00080389102902237,0.00080389080400824,5.2473434020496e-09,-5.638555682487e-09,-0.00093487052886411,0.00093487185834369,-0.00093487414706349,0.00093486822628151,-0.00093486842765573,0.00093487397389959,-0.00093487204685735,0.00093487034387137,-0.0009186250148742,0.00091862736433648,-0.00091863118359311,0.00091862115335047,0.59302696368206,125803,2834,0.0061979132503757,0.0061979132864715,0.0033481743405328,35.874632207207,4.6997057657654e-05,4.6997057657654e-05,4.6997057657654e-05,3931633.4581278,0.015869334741908
13219200,0.95290936151022,0.015633468291498,0.0059419955018277,0.0059419955422615,0.0037494772474084,-0.0014954962758683,0.0014954957619804,2.9428948371122e-09,-3.4704656129519e-09,-3.8380943260294e-09,3.4006263064359e-09,-0.0015813640687537,0.001581363302604,-0.0015813662026217,0.0015813611613686,-0.0015813617291525,0.0015813657102646,-0.0015813638707129,0.0015813635767011,-0.0013254859506074,0.0013254941295387,-0.0013254922377534,0.0013254878444599,3.8376156681815e-09,-3.3908069891512e-09,-5.1860671270824e-09,5.7088929598601e-09,-0.0014954957697175,0.0014954962863624,-0.0015813640466473,0.0015813633683185,-0.001581360503459,0.0015813669914242,-0.0015813663812075,0.0015813609542251,-0.0015813628389478,0.0015813645782505,-0.0013254962935787,0.0013254836824746,-0.0013254857048576,0.0013254945086473,-0.0014952159571694,0.0014952272018497,-0.0014952230420022,0.0014952199557286,-3.3236706780235e-09,3.1256071928458e-09,-0.00080470972867814,0.00080470950566609,5.2209877188006e-09,-5.6098642124991e-09,-0.00093612916364656,0.00093613043561674,-0.00093613276354031,0.00093612682186086,-0.0009361270211701,0.00093613259252882,-0.00093613062195392,0.00093612898072801,-0.00091978706255568,0.00091978955388017,-0.00091979335437086,0.00091978322205639,0.59512403253792,125803,2834,0.0062104375170658,0.0062104375547941,0.0033516005612458,35.335920472375,4.2687363779e-05,4.2687363779e-05,4.2687363779e-05,3923018.8022694,0.015898267827897
13419200,0.95572316000013,0.015670362871528,0.0059564248159687,0.0059564248562887,0.0037575131992708,-0.0014981386012075,0.0014981380881751,3.003615278615e-09,-3.5299649294651e-09,-3.8475408055047e-09,3.4095087856117e-09,-0.001584412586328,0.0015844118559003,-0.0015844147604637,0.0015844096743361,-0.001584410240732,0.0015844142696581,-0.00158441242252,0.0015844120957754,-0.0013275648171551,0.001327573121729,-0.0013275712213191,0.0013275667179459,3.8460531661864e-09,-3.4005063541132e-09,-5.1611582209978e-09,5.6829269965878e-09,-0.0014981380955526,0.0014981386109013,-0.0015844125722623,0.0015844119154496,-0.0015844090458034,0.0015844155214956,-0.0015844149127878,0.001584409495205,-0.0015844113872483,0.0015844131022119,-0.0013275752011726,0.0013275626329361,-0.0013275646619954,0.0013275734089017,-0.0014978006215822,0.0014978118660594,-0.0014978077274594,0.0014978046052127,-3.382998101756e-09,3.1876202338605e-09,-0.00080535961007338,0.00080535938943255,5.1968711100758e-09,-5.5832794121722e-09,-0.00093718857905944,0.00093718979589728,-0.00093719216206206,0.00093718619901633,-0.0009371863960526,0.00093719199313757,-0.00093718998002057,0.0009371883982836,-0.00092073193044034,0.00092073455997715,-0.00092073834087968,0.00092072811030607,0.58608287145058,125803,2834,0.0062213708204565,0.0062213708557853,0.0033543233591861,34.796968621968,3.8375748975746e-05,3.8375748975746e-05,3.8375748975746e-05,3913975.1733323,0.015923254305223
13619200,0.95831083240347,0.015703858128273,0.0059695321723979,0.0059695322127307,0.0037647937431447,-0.001500633485358,0.0015006329717284,3.063358316918e-09,-3.5890929203808e-09,-3.8498577821345e-09,3.4082780747385e-09,-0.0015872903606614,0.0015872896699959,-0.0015872925746049,0.0015872874485415,-0.0015872880147653,0.0015872920840158,-0.0015872902363145,0.0015872898702822,-0.0013295299535142,0.0013295383775058,-0.0013295364733837,0.0013295318563593,3.8459266309343e-09,-3.4001358794668e-09,-5.1435686711693e-09,5.6659197587189e-09,-0.0015006329785993,0.0015006334940592,-0.001587290361931,0.0015872897164482,-0.0015872868469069,0.0015872933108777,-0.001587292702389,0.0015872872962485,-0.0015872891882641,0.0015872908917051,-0.0013295403809425,0.001329527847552,-0.0013295298756891,0.0013295385895411,-0.0015002328348152,0.0015002440674506,-0.0015002399464283,0.0015002368129791,-3.4434010987085e-09,3.2499369575686e-09,-0.00080604252309074,0.00080604230405911,5.1796653795631e-09,-5.5647011349841e-09,-0.00093823177719784,0.00093823294263777,-0.00093823534823218,0.00093822935775939,-0.00093822955303502,0.00093823518071156,-0.00093823312516645,0.00093823159794718,-0.00092168496168776,0.00092168772509099,-0.0009216914939943,0.00092168115794827,0.57889842682551,125803,2834,0.0062316944388115,0.0062316944710377,0.0033571805529409,34.356194383226,3.4849555065807e-05,3.4849555065807e-05,3.4849555065807e-05,3908760.5628393,0.015947138639906
13819200,0.96070481153215,0.015734831957154,0.0059816439185702,0.0059816439590437,0.0037715440795404,-0.001503031215087,0.0015030306987391,3.1275629008061e-09,-3.655046490721e-09,-3.84417679592e-09,3.3962610423212e-09,-0.0015900443737888,0.0015900437314059,-0.0015900466322803,0.001590041466998,-0.0015900420334736,0.0015900461392864,-0.0015900442992421,0.001590043881697,-0.0013314374303105,0.0013314459752193,-0.0013314440755801,0.001331439328282,3.8415589196002e-09,-3.3957616201616e-09,-5.1310393027676e-09,5.6537545942405e-09,-0.001503030705985,0.0015030312215129,-0.0015900443974242,0.001590043757284,-0.0015900408920112,0.0015900473452077,-0.0015900467357422,0.0015900413406737,-0.0015900432294363,0.0015900449272579,-0.0013314479049253,0.0013314353994081,-0.0013314374238882,0.0013314461190602,-0.0015025772393091,0.0015025884560844,-0.0015025843481002,0.0015025812161217,-3.4978621691808e-09,3.3069990835363e-09,-0.00080677959908584,0.00080677938197813,5.1722970616325e-09,-5.5555528559816e-09,-0.00093928422273739,0.00093928534707825,-0.00093928778807838,0.00093928176806854,-0.00093928196136829,0.00093928762237091,-0.00093928552734777,0.00093928404444926,-0.00092267867276633,0.00092268155509157,-0.00092268531743734,0.0009226748799867,0.57842147262399,125803,2834,0.0062416164234497,0.0062416164517484,0.003360260503069,34.003877607758,3.2031020862061e-05,3.2031020862061e-05,3.2031020862061e-05,3906257.0639194,0.015970433202933
14019200,0.96292189145775,0.015763516004559,0.0059928530385792,0.0059928530793049,0.0037778098866744,-0.0015052002691369,0.0015051997535869,3.1838130312856e-09,-3.7119848880567e-09,-3.8334791009037e-09,3.3914784114272e-09,-0.001592539615949,0.0015925390145026,-0.0015925419108575,0.0015925367124313,-0.0015925372808448,0.001592541417525,-0.0015925395831983,0.0015925391229693,-0.0013331629973357,0.0013331716457163,-0.0013331697564212,0.0013331648870965,3.8313330636401e-09,-3.3835071375491e-09,-5.1262266388239e-09,5.6498214021616e-09,-0.0015051997607959,0.0015052002780642,-0.0015925396591072,0.0015925390163196,-0.0015925361553316,0.0015925426000762,-0.0015925419898767,0.0015925366070877,-0.0015925384863448,0.0015925401911714,-0.0013331735156382,0.0013331610265576,-0.0013331630429857,0.0013331717359676,-0.0015047000880941,0.0015047112811426,-0.0015047071651711,0.0015047040539511,-3.562779473966e-09,3.3707783696817e-09,-0.00080742843861368,0.00080742822121265,5.1650472654728e-09,-5.5478027197421e-09,-0.00094022017250965,0.00094022124913821,-0.00094022373323913,0.00094021767480091,-0.00094021786847826,0.00094022356727977,-0.00094022143005566,0.00094021999479675,-0.00092356248036913,0.00092356549097392,-0.00092356924778869,0.00092355868771103,0.57820996258172,125803,2834,0.0062505920077676,0.0062505920411605,0.0033629723954457,33.653776046236,2.923020836989e-05,2.923020836989e-05,2.923020836989e-05,3903246.8615046,0.015991430924592
14219200,0.96497701758164,0.015789131332977,0.0060028978056842,0.0060028978463938,0.0037833356808993,-0.0015071117070225,0.0015071111901482,3.2434448204577e-09,-3.7733096511567e-09,-3.8238245663725e-09,3.3807431146185e-09,-0.0015947643898256,0.0015947638343,-0.0015947667252274,0.0015947614917536,-0.0015947620614121,0.0015947662305666,-0.0015947644043227,0.0015947638955456,-0.0013346550463252,0.0013346638042075,-0.0013346619238168,0.0013346569268858,3.822102312398e-09,-3.3727273018135e-09,-5.1217871894899e-09,5.6470314005891e-09,-0.0015071111975199,0.0015071117163124,-0.001594764457745,0.0015947638121975,-0.0015947609561079,0.00159476739332,-0.0015947667816487,0.0015947614093266,-0.0015947632805821,0.0015947649910496,-0.001334665610888,0.0013346531370692,-0.0013346551450438,0.0013346638388947,-0.0015065390637313,0.0015065502360098,-0.0015065461202829,0.0015065430277013,-3.6227706764119e-09,3.4313001548709e-09,-0.0008079481869167,0.00080794797011613,5.1619720069676e-09,-5.5440191305404e-09,-0.00094101665094241,0.00094101768562049,-0.00094102020931262,0.00094101411349251,-0.00094101430672497,0.0009410200439671,-0.00094101786600256,0.00094101647373859,-0.00092427295380732,0.00092427608490097,-0.00092427983801885,0.0009242691631364,0.55856305273214,125803,2834,0.0062585012991622,0.006258501333643,0.0033651465608102,33.30375994649,2.6430079571922e-05,2.6430079571922e-05,2.6430079571922e-05,3900380.0196099,0.016009716181962
14419200,0.96685209404859,0.01581275511832,0.0060121429286906,0.0060121429694007,0.0037884692202283,-0.0015081688287755,0.0015081683125473,3.3028330387766e-09,-3.8335109942823e-09,-3.8221935667278e-09,3.3827765887914e-09,-0.0015961185690919,0.0015961180530363,-0.001596120944278,0.0015961156708273,-0.0015961162404937,0.0015961204495276,-0.0015961186231844,0.0015961180748299,-0.0013353296440308,0.0013353385162155,-0.0013353366394596,0.0013353315224148,3.8218935725983e-09,-3.3727264036299e-09,-5.1097520011569e-09,5.6344353223649e-09,-0.0015081683202587,0.0015081688389251,-0.0015961186517594,0.0015961180142882,-0.0015961151580264,0.0015961215871178,-0.0015961209755532,0.0015961156114932,-0.0015961174824704,0.0015961191849925,-0.0013353402524653,0.0013353278021018,-0.0013353298101352,0.001335338479233,-0.0015075386007733,0.0015075497644089,-0.0015075456503333,0.0015075425499861,-3.6834103555608e-09,3.4927979822427e-09,-0.00080786619714305,0.00080786598157468,5.1502378251833e-09,-5.530338590978e-09,-0.00094109755460428,0.00094109854142679,-0.00094110110459481,0.00094109497762995,-0.0009410951699321,0.00094110094052523,-0.00094109872068897,0.00094109737860979,-0.00092434811821766,0.00092435137815838,-0.0009243551195539,0.00092434433359119,0.56383117648165,125803,2834,0.0062628757506217,0.0062628757875863,0.0033648149532995,32.648400598232,2.1187204785858e-05,2.1187204785858e-05,2.1187204785858e-05,3897191.6687543,0.016018271591184
14619200,0.96854985629808,0.015834261617372,0.0060205475052369,0.0060205475458627,0.0037931665662728,-0.0015086810137254,0.0015086804982259,3.3654406603333e-09,-3.8955982783819e-09,-3.8254996782578e-09,3.387102381112e-09,-0.0015968867880499,0.0015968863114267,-0.001596889204767,0.0015968838879592,-0.001596884456968,0.0015968887107932,-0.0015968868810048,0.0015968862944802,-0.0013355197652064,0.0013355287626587,-0.0013355268832049,0.0013355216458537,3.8268635706507e-09,-3.3783387309745e-09,-5.0944379598385e-09,5.6185385537098e-09,-0.0015086805061037,0.0015086810241632,-0.0015968868840909,0.0015968862597039,-0.0015968834006312,0.0015968898222793,-0.0015968892113487,0.0015968838536166,-0.0015968857283132,0.0015968874164639,-0.0013355304230182,0.0013355179990724,-0.001335520010862,0.0013355286444169,-0.0015080070542683,0.0015080182168168,-0.0015080141132135,0.001508010990641,-3.7412450440113e-09,3.5519200045761e-09,-0.00080741174180476,0.00080741152754711,5.1370864770472e-09,-5.5156252574446e-09,-0.00094077162286375,0.00094077256238562,-0.00094077516351935,0.00094076900792945,-0.00094076919908204,0.00094077500074354,-0.00094077274063968,0.00094077144814961,-0.00092401449986698,0.00092401788408367,-0.00092402161487698,0.00092401072567268,0.56645232989936,125803,2834,0.00626499469046,0.0062649947283638,0.0033629341867926,31.824204638814,1.4593637110509e-05,1.4593637110509e-05,1.4593637110509e-05,3888868.1439056,0.016020669331197
14819200,0.97008979367172,0.015853897256843,0.0060282088702093,0.0060282089107719,0.0037974794758622,-0.0015089914492483,0.0015089909338238,3.4245704660171e-09,-3.9537859227305e-09,-3.8300432323965e-09,3.3900245539592e-09,-0.0015974199993449,0.0015974195600459,-0.0015974224553361,0.0015974170972394,-0.0015974176657906,0.0015974219616448,-0.0015974201291899,0.0015974195062084,-0.0013355532567245,0.0013355623735408,-0.001335560489086,0.0013355551421968,3.8292194727971e-09,-3.3809996798787e-09,-5.0841601397976e-09,5.6082698263682e-09,-0.0015089909415915,0.0015089914593857,-0.0015974201105792,0.0015974194944297,-0.0015974166338044,0.0015974230500351,-0.0015974224394361,0.0015974170863396,-0.0015974189632445,0.0015974206425028,-0.0013355639657805,0.0013355515605537,-0.001335553574251,0.0013355621866337,-0.0015082852525587,0.0015082964133822,-0.0015082923207842,0.00150828918669,-3.8027957015149e-09,3.6146617450061e-09,-0.00080687920991951,0.00080687899669889,5.1261423918172e-09,-5.5037320734e-09,-0.00094034771363793,0.00094034860521495,-0.00094035124667391,0.00094034505840018,-0.00094034524839066,0.00094035108486533,-0.00094034878224905,0.00094034753990072,-0.0009235835953299,0.00092358711044902,-0.000923590833924,0.00092357983175589,0.56961684594933,125803,2834,0.006266278669129,0.0062662787061822,0.0033607280333235,30.995747394397,7.9659791551788e-06,7.9659791551788e-06,7.9659791551788e-06,3879042.4945948,0.016021039416186
15019200,0.97146786021102,0.015871403897143,0.0060350369510672,0.0060350369916156,0.0038013299544605,-0.001508559200096,0.0015085586860709,3.483591791662e-09,-4.0119937714031e-09,-3.8382034964002e-09,3.4006266897772e-09,-0.0015971833038941,0.0015971828988023,-0.0015971857989793,0.0015971803967855,-0.0015971809642198,0.0015971853065486,-0.0015971834666956,0.001597182812075,-0.0013348912411284,0.001334900478914,-0.0013348985881884,0.001334893132991,3.8367625552435e-09,-3.389733632421e-09,-5.0703977375397e-09,5.5931896018639e-09,-0.0015085586936645,0.001508559210277,-0.0015971834250056,0.0015971828227847,-0.00159717995758,0.0015971863684805,-0.0015971857592811,0.0015971804091174,-0.0015971822925891,0.0015971839557118,-0.0013349019990743,0.0013348896152944,-0.0013348916352817,0.0013349002129414,-0.0015078187233837,0.0015078298894608,-0.0015078258053966,0.0015078226447794,-3.8643925536399e-09,3.6773608503562e-09,-0.00080579238839689,0.00080579217644366,5.1111314778866e-09,-5.4871048909253e-09,-0.00093933253325698,0.00093933337432757,-0.00093933605587126,0.00093932983789699,-0.00093933002674348,0.00093933589528584,-0.00093933355009598,0.0009393323608327,-0.00092254966038985,0.00092255330914792,-0.0009225570194564,0.0009225459068845,0.56737759181169,125803,2834,0.0062644886479328,0.006264488684718,0.0033562167644038,29.892998554574,-8.5601156340463e-07,-8.5601156340463e-07,-8.5601156340463e-07,3864054.5578619,0.016012820600512
15219200,0.97268280583457,0.015886155602877,0.0060408131970984,0.0060408132376186,0.0038045291681601,-0.001507286299465,0.0015072857868995,3.5470133721763e-09,-4.0735393116408e-09,-3.8499094192629e-09,3.4127048339746e-09,-0.0015960909875183,0.0015960906179509,-0.0015960935242798,0.0015960880743634,-0.0015960886399536,0.0015960930337257,-0.0015960911841407,0.0015960904975092,-0.0013334196262324,0.001333428997006,-0.0013334270955454,0.0013334215281544,3.8492745865389e-09,-3.4042883635705e-09,-5.0521193564272e-09,5.5732152695844e-09,-0.0015072857944469,0.0015072863091313,-0.0015960911172703,0.0015960905346043,-0.0015960876623879,0.0015960940676365,-0.0015960934603589,0.0015960881119698,-0.0015960900062365,0.0015960916457202,-0.0013334304374999,0.0013334180807899,-0.0013334201111357,0.0013334286405166,-0.0015064907252183,0.0015065019032467,-0.0015064978362606,0.0015064946338174,-3.9217814689026e-09,3.7364698456757e-09,-0.00080407536067043,0.00080407515031867,5.0946776554165e-09,-5.4689702488471e-09,-0.00093763739729701,0.00093763818929392,-0.00093764090823941,0.00093763466448095,-0.00093763485170695,0.00093764074920642,-0.00093763836358284,0.00093763722631206,-0.0009208208002797,0.00092082457593521,-0.00092082827359616,0.00092081706088135,0.54391179865404,125803,2834,0.0062592194199161,0.0062592194555418,0.0033490837322383,28.487572324712,-1.2099421402305e-05,-1.2099421402305e-05,-1.2099421402305e-05,3845412.1121799,0.015994868090264
15419200,0.97375619907949,0.015901054237631,0.0060465582127416,0.0060465582532664,0.0038079377716226,-0.0015058608873238,0.0015058603765471,3.6074870809813e-09,-4.1321329708212e-09,-3.8574055029097e-09,3.4227918424705e-09,-0.0015948112815535,0.0015948109470734,-0.0015948138580109,0.0015948083639473,-0.00159480892823,0.0015948133687429,-0.0015948115120198,0.0015948107929324,-0.0013318371855519,0.0013318466805733,-0.0013318447718672,0.0013318390953598,3.8567949122099e-09,-3.4133225034239e-09,-5.0404928949542e-09,5.5601173152712e-09,-0.0015058603842384,0.001505860897561,-0.0015948114220737,0.0015948108518154,-0.0015948079753252,0.0015948143766135,-0.0015948137707634,0.0015948084237809,-0.0015948103246591,0.0015948119492193,-0.0013318480512224,0.0013318357118406,-0.0013318377488946,0.0013318462470392,-0.0015050815884123,0.0015050927729797,-0.0015050887145169,0.0015050854860827,-3.982536943856e-09,3.7981700944226e-09,-0.00080237699156147,0.00080237678233785,5.0825219159057e-09,-5.4553548880058e-09,-0.00093583994768111,0.00093584069148617,-0.00093584345008461,0.00093583717520529,-0.00093583736136767,0.00093584329222184,-0.00093584086459908,0.00093583977781397,-0.00091915232369195,0.00091915622860497,-0.00091915991739902,0.00091914859405215,0.61487579536756,125803,2834,0.0062533205692279,0.0062533206063289,0.0033420235979633,27.0746195872,-2.3403043302402e-05,-2.3403043302402e-05,-2.3403043302402e-05,3831002.6920296,0.015975708495717
15619200,0.97472375487815,0.015914772089448,0.0060518350646568,0.0060518351051612,0.0038111019196295,-0.0015050379496629,0.0015050374373053,3.6693664131984e-09,-4.1949686568224e-09,-3.8495394290364e-09,3.4119963789115e-09,-0.0015940413843727,0.0015940410962807,-0.0015940440022785,0.0015940384715613,-0.0015940390370816,0.0015940435117749,-0.0015940416624662,0.0015940408943108,-0.0013309706437507,0.0013309802547443,-0.0013309783516354,0.0013309725467247,3.8498773117143e-09,-3.4051297003448e-09,-5.0485764669872e-09,5.5694898959692e-09,-0.0015050374449918,0.0015050379594597,-0.0015940415534243,0.0015940409733403,-0.0015940381008081,0.0015940445040049,-0.001594043897063,0.0015940385503545,-0.0015940404452723,0.001594042081634,-0.0013309815732251,0.001330969223265,-0.0013309712541913,0.0013309797756291,-0.0015042889368302,0.0015043001138141,-0.0015042960511142,0.0015042928443687,-4.0412141540385e-09,3.8563082089901e-09,-0.00080113289854509,0.00080113268852464,5.0922993778341e-09,-5.4662950136096e-09,-0.00093470728187715,0.00093470799267767,-0.00093471079110332,0.00093470446959433,-0.0009347046564028,0.00093471063242625,-0.00093470816661597,0.00093470711111781,-0.00091792698104948,0.0009179309927327,-0.00091793468984863,0.00091792324543143,0.62694796196164,125803,2834,0.006249911784739,0.0062499118209174,0.0033368617033243,25.965422725416,-3.2276618196675e-05,-3.2276618196675e-05,-3.2276618196675e-05,3801686.0717145,0.015963539322649
15819200,0.97563377549629,0.01592862222927,0.0060571261198347,0.0060571261603426,0.0038143699490927,-0.0015055586903862,0.0015055581713737,3.7282007046747e-09,-4.2573841759535e-09,-3.823957966062e-09,3.3726133372717e-09,-0.0015945809573333,0.0015945807269737,-0.0015945836159528,0.0015945780611716,-0.0015945786314607,0.0015945831205553,-0.0015945812975876,0.001594580462124,-0.0013314729330905,0.0013314826421412,-0.0013314807579153,0.0013314748136987,3.8206028552642e-09,-3.3699476436557e-09,-5.088207860047e-09,5.6155908208842e-09,-0.001505558178147,0.0015055586979697,-0.0015945811798423,0.0015945805550903,-0.001594577699337,0.0015945841143685,-0.0015945835023713,0.0015945781533533,-0.0015945800225878,0.0015945817132294,-0.0013314839416322,0.0013314715356805,-0.0013314735401289,0.0013314821734463,-0.0015048713326075,0.0015048824804191,-0.0015048783989788,0.0015048752891991,-4.1025864799835e-09,3.9152009817387e-09,-0.00080107709482989,0.00080107688140895,5.1328618635199e-09,-5.5119980771274e-09,-0.00093483540517157,0.000934836100998,-0.00093483894301357,0.00093483254947732,-0.00093483273902324,0.00093483878072363,-0.00093483627816007,0.00093483523106754,-0.00091795708830596,0.00091796118658733,-0.00091796491943788,0.00091795332820928,0.6691969907972,125803,2834,0.0062520641589183,0.0062520641886268,0.0033366412842647,25.548566137225,-3.5611470902198e-05,-3.5611470902198e-05,-3.5611470902198e-05,3780799.7964932,0.015967690531401
16019200,0.97649120765593,0.015941641294531,0.0060621027086355,0.0060621027492442,0.0038174358366514,-0.0015061140433441,0.0015061135213425,3.7851729397414e-09,-4.3202403235648e-09,-3.7939264833855e-09,3.3453910531879e-09,-0.0015951176072337,0.0015951174308398,-0.0015951203055522,0.0015951147255876,-0.0015951152999672,0.001595119805483,-0.0015951180059081,0.0015951171075366,-0.001332065208321,0.00133207500592,-0.0013320731523854,0.0013320670617282,3.793536301717e-09,-3.3387619211463e-09,-5.1311552010135e-09,5.6613612815159e-09,-0.0015061135290478,0.0015061140528429,-0.0015951178764435,0.0015951172071965,-0.0015951143667231,0.0015951207963815,-0.0015951201798951,0.0015951148251555,-0.0015951166707351,0.0015951184145972,-0.0013320762914901,0.0013320638201977,-0.0013320658025662,0.0013320745448373,-0.0015054738264455,0.0015054849504485,-0.001505480821759,0.0015054778039232,-4.1654513753697e-09,3.9743405884467e-09,-0.00080097972724446,0.00080097951072483,5.1748987250138e-09,-5.556500186738e-09,-0.00093503665588536,0.00093503733715825,-0.00093504022267815,0.00093503375657114,-0.00093503394961791,0.00093504005759262,-0.00093503751742202,0.00093503647871218,-0.0009179204842583,0.0009179246692002,-0.00091792843069544,0.00091791668553359,0.66742791879849,125803,2834,0.0062543576914162,0.0062543577270185,0.0033362535027561,25.148748413809,-3.8810012689525e-05,-3.8810012689525e-05,-3.8810012689525e-05,3752296.2590287,0.015971959678822
16219200,0.97729971347316,0.015953864421239,0.0060667772286021,0.0060667772692164,0.0038203099234203,-0.0015065887323831,0.0015065882063945,3.8416571050713e-09,-4.3810098895669e-09,-3.7716237310722e-09,3.3191735277624e-09,-0.0015955753521531,0.0015955752270785,-0.0015955780894035,0.001595572482509,-0.0015955730608851,0.0015955775854734,-0.0015955758057112,0.0015955748484832,-0.0013325703663395,0.0013325802580069,-0.0013325784250413,0.0013325721988231,3.7703215176186e-09,-3.3110209309474e-09,-5.1714453486543e-09,5.705803129495e-09,-0.001506588213859,0.0015065887418366,-0.0015955756671798,0.0015955749571904,-0.001595572129486,0.0015955785743813,-0.001595577953912,0.0015955725919545,-0.0015955744168528,0.0015955762097967,-0.0013325815265566,0.0013325689929824,-0.0013325709545654,0.001332579801046,-0.0015059828426776,0.0015059939488264,-0.0015059897870171,0.001505986851965,-4.22927946846e-09,4.0349319903621e-09,-0.0008008296909497,0.00080082947115392,5.2148315583009e-09,-5.6001549906257e-09,-0.00093517412988723,0.00093517479442037,-0.00093517772466307,0.00093517118591093,-0.00093517138220696,0.00093517755627154,-0.00093517497786828,0.00093517394965847,-0.00091783351749701,0.00091783779329684,-0.00091784158491829,0.0009178296867643,0.66425604335952,125803,2834,0.0062563175166843,0.0062563175516965,0.0033356459945045,24.749581606503,-4.2003347147978e-05,-4.2003347147978e-05,-4.2003347147978e-05,3727056.0959322,0.015975327228363
16419200,0.97806541875171,0.015964243653534,0.0060707883602391,0.0060707884008593,0.0038226668924355,-0.0015070535203679,0.0015070529894371,3.9069028398001e-09,-4.4498832626503e-09,-3.7528726431992e-09,3.2917911950974e-09,-0.0015960452523112,0.0015960451830467,-0.0015960480340551,0.0015960423943868,-0.0015960429761128,0.0015960475261076,-0.0015960457655045,0.0015960447442353,-0.0013330333106054,0.0013330433161221,-0.0013330414976713,0.0013330351253442,3.7566475151147e-09,-3.294377938005e-09,-5.2069484652159e-09,5.7446219667532e-09,-0.0015070529971177,0.0015070535278232,-0.0015960456123977,0.0015960448699592,-0.0015960420506087,0.0015960485130155,-0.0015960478894298,0.0015960425151926,-0.0015960443277173,0.0015960461574794,-0.0013330445578656,0.0013330319651661,-0.0013330339121721,0.0013330428458855,-0.0015064369482984,0.0015064480516124,-0.0015064438668941,0.001506440987121,-4.2844271007625e-09,4.0873809994044e-09,-0.00080069937580658,0.00080069915288813,5.255101878539e-09,-5.64470617701e-09,-0.00093532983253621,0.00093533048552027,-0.0009353334551058,0.0009353268493794,-0.00093532704816407,0.00093533328394462,-0.0009353306718892,0.0009353296489814,-0.00091773917397083,0.0009177435246098,-0.00091774734907855,0.00091773531456239,0.59981697328929,125803,2834,0.0062582365097484,0.0062582365410756,0.0033351194263805,24.412070543483,-4.4703435652138e-05,-4.4703435652138e-05,-4.4703435652138e-05,3706808.5682133,0.01597869437627
16619200,0.97879463013508,0.015975961711376,0.006075242772783,0.0060752428134491,0.0038254761251434,-0.0015076066413564,0.001507606110317,3.9609337621336e-09,-4.505009680929e-09,-3.7468547863935e-09,3.288658152692e-09,-0.001596632478895,0.001596632448037,-0.001596635296957,0.0015966296224242,-0.0015966302057133,0.0015966347879476,-0.0015966330314772,0.0015966319699097,-0.0013335338707628,0.0013335439781227,-0.0013335421674685,0.0013335356806406,3.7461990441907e-09,-3.2816655775326e-09,-5.2410766459454e-09,5.7803631374622e-09,-0.0015076061179185,0.001507606650817,-0.0015966328709294,0.0015966321003229,-0.0015966292858693,0.0015966357658545,-0.0015966351402344,0.0015966297529405,-0.0015966315557444,0.0015966334189282,-0.0013335451983399,0.0013335325460459,-0.0013335344857881,0.0013335434963418,-0.001507034370906,0.0015070454775384,-0.0015070412635796,0.0015070384340453,-4.3520889163857e-09,4.1522681165005e-09,-0.00080080725670924,0.00080080703130044,5.2841079149098e-09,-5.6760684077343e-09,-0.00093552531636322,0.00093552594366002,-0.00093552895947523,0.00093552228692478,-0.00093552248851151,0.00093552878572725,-0.00093552613249671,0.00093552513072947,-0.00091796200772179,0.00091796646471029,-0.00091797031097763,0.00091795812396357,0.70235631491002,125803,2834,0.0062605244795397,0.0062605245148487,0.0033355741429269,24.158166321751,-4.6734669425991e-05,-4.6734669425991e-05,-4.6734669425991e-05,3703057.4514824,0.015983805411653
16819200,0.97948948349958,0.015987181848462,0.0060795094055964,0.0060795094462661,0.0038281629965999,-0.0015082794168496,0.0015082788854159,4.0212476625266e-09,-4.5657568656736e-09,-3.7459983988497e-09,3.2873848051213e-09,-0.0015972489712653,0.0015972489811378,-0.0015972518296752,0.0015972461150547,-0.0015972466987196,0.0015972513203465,-0.0015972495649007,0.0015972484618849,-0.0013342869768302,0.0013342972017081,-0.0013342953922977,0.0013342887854657,3.7457019401416e-09,-3.2808253294076e-09,-5.2662044192031e-09,5.8058158418554e-09,-0.001508278893004,0.0015082794262234,-0.0015972493920231,0.0015972486045522,-0.0015972457903236,0.0015972522869235,-0.0015972516608818,0.0015972462576204,-0.0015972480598089,0.0015972499404817,-0.0013342983873833,0.0013342856862105,-0.001334287625554,0.0013342966862926,-0.0015077549367127,0.0015077660591205,-0.0015077618280146,0.0015077590168689,-4.4132559842107e-09,4.2117155036883e-09,-0.00080084736055701,0.00080084713338144,5.3085899252126e-09,-5.7026097704865e-09,-0.00093589504133273,0.00093589564372238,-0.00093589870144549,0.00093589196996144,-0.00093589217327339,0.00093589852598505,-0.00093589583430045,0.00093589485397699,-0.00091806058646789,0.00091806514262411,-0.0009180690075413,0.0009180566838744,0.70571571317585,125803,2834,0.0062633030503266,0.0062633030854285,0.0033357595926892,23.906324891739,-4.8749400866086e-05,-4.8749400866086e-05,-4.8749400866086e-05,3676838.4440044,0.015989642372381
17019200,0.98015189332127,0.015997669762569,0.0060835051785247,0.0060835052191988,0.0038306593648451,-0.0015088891238398,0.0015088885930092,4.0811900402104e-09,-4.6251531383347e-09,-3.7506094428678e-09,3.292781338261e-09,-0.0015978061509195,0.0015978061978351,-0.0015978090490948,0.0015978032919018,-0.0015978038750539,0.0015978085403353,-0.0015978067810095,0.0015978056420988,-0.0013349674746594,0.001334977820184,-0.0013349760069709,0.0013349692870882,3.7497435640257e-09,-3.2853688752158e-09,-5.2850868656113e-09,5.8242278549105e-09,-0.0015088886005618,0.0015088891333179,-0.0015978065950604,0.0015978057976587,-0.0015978029810997,0.0015978094924401,-0.0015978088667675,0.0015978034478228,-0.0015978052534285,0.0015978071431554,-0.0013349789652965,0.0013349662242137,-0.0013349681670021,0.0013349772610697,-0.0015083963925011,0.0015084075352223,-0.0015084032919361,0.0015084004843149,-4.475017617826e-09,4.2722898211845e-09,-0.00080083679941001,0.00080083657103561,5.3259719195263e-09,-5.7213797044299e-09,-0.00093621494775442,0.00093621552028141,-0.00093621861991552,0.00093621183441574,-0.00093621203891849,0.0009362184433016,-0.00093621571199251,0.00093621475926568,-0.00091810698377099,0.00091811164643846,-0.00091811552446471,0.00091810306778364,0.69245975547806,125803,2834,0.0062658203974664,0.0062658204327103,0.003335734568875,23.654562198501,-5.0763502411989e-05,-5.0763502411989e-05,-5.0763502411989e-05,3652643.5760344,0.015994734616736
17219200,0.98076844919485,0.016007170463966,0.0060871335245812,0.0060871335652581,0.003832903374127,-0.0015085897287947,0.0015085892013289,4.1431699299438e-09,-4.6845615564483e-09,-3.7710032153226e-09,3.3179660081219e-09,-0.0015974745772413,0.0015974746525962,-0.001597477515818,0.0015974717062881,-0.0015974722863386,0.0015974770103464,-0.0015974752327361,0.0015974740716997,-0.0013347257461987,0.0013347362275083,-0.0013347343979666,0.0013347275756056,3.7712035822604e-09,-3.3104340467029e-09,-5.2777629545836e-09,5.8133803511877e-09,-0.0015085892089933,0.001508589738381,-0.0015974750263619,0.0015974742470793,-0.0015974714182852,0.0015974779357668,-0.0015974773133181,0.0015974718817511,-0.0015974737059476,0.0015974755709985,-0.0013347373043202,0.001334724562148,-0.0013347265235202,0.001334735580814,-0.0015081063528225,0.0015081175318376,-0.0015081132950462,0.0015081104321486,-4.5348375213482e-09,4.3327533983578e-09,-0.00080008308322763,0.00080008285568035,5.3177356531827e-09,-5.7119573511587e-09,-0.00093570952272926,0.00093571005009941,-0.00093571318899867,0.00093570637005559,-0.0009357065738656,0.00093571301326993,-0.00093571024105855,0.0009357093350442,-0.00091736846018416,0.0009173732470158,-0.00091737711707498,0.00091736454886233,0.6747598677895,125803,2834,0.0062645757307812,0.0062645757664831,0.0033326172671304,22.995075672774,-5.6039394617809e-05,-5.6039394617809e-05,-5.6039394617809e-05,3627877.7623715,0.01598904007586
17419200,0.98133114565087,0.016015471390882,0.0060903151734737,0.0060903152141455,0.0038348410032632,-0.0015074816143015,0.0015074810933064,4.2083785289835e-09,-4.7457706434939e-09,-3.7958680200729e-09,3.3558338144629e-09,-0.0015963552863876,0.0015963553869602,-0.0015963582667958,0.0015963523993077,-0.0015963529746946,0.0015963577660024,-0.0015963559629738,0.0015963547855858,-0.0013336586465232,0.001333669273037,-0.0013336674241418,0.0013336604984562,3.8028807433096e-09,-3.3482966411173e-09,-5.2515546553132e-09,5.7804748183592e-09,-0.0015074811022514,0.0015074816260211,-0.001596355727194,0.0015963549851222,-0.0015963521383462,0.0015963586543265,-0.0015963580370416,0.0015963525971096,-0.0015963544489044,0.0015963562664017,-0.0013336702624038,0.0013336575484623,-0.0013336595386196,0.0013336685076764,-0.0015069885187785,0.0015069997408883,-0.0015069955161312,0.0015069925595413,-4.5917579424114e-09,4.3911610458678e-09,-0.00079870316009488,0.00079870293483237,5.2919334240775e-09,-5.6824070091072e-09,-0.00093447833035338,0.00093447880331296,-0.00093448197825927,0.00093447514149526,-0.00093447534352629,0.00093448180512173,-0.00093447899218338,0.00093447814475952,-0.00091595916419853,0.00091596408327259,-0.00091596793040935,0.00091595526777609,0.64747797668791,125803,2834,0.0062599849560578,0.0062599849988192,0.0033268925913525,21.992211756065,-6.4062305951483e-05,-6.4062305951483e-05,-6.4062305951483e-05,3603918.6404023,0.015973896588643
17619200,0.9818450940661,0.01602276198927,0.0060931177065672,0.00609311774718,0.0038365265355229,-0.0015062226806793,0.0015062221631714,4.2686431166476e-09,-4.8002841617904e-09,-3.8274382988578e-09,3.3862204346431e-09,-0.0015951089892034,0.0015951091127251,-0.0015951120080184,0.0015951060862382,-0.0015951066573957,0.0015951115121737,-0.0015951096839432,0.001595108493321,-0.001332407669558,0.0013324184376752,-0.0013324165584124,0.0013324095499566,3.8285868790636e-09,-3.377884439413e-09,-5.2227313317673e-09,5.7489635737947e-09,-0.0015062221710345,0.0015062226910982,-0.0015951094263221,0.0015951087188023,-0.0015951058572154,0.001595112367342,-0.0015951117543145,0.0015951063118833,-0.0015951081861512,0.0015951099612815,-0.0013324193387475,0.0013324066629751,-0.0013324086745793,0.0013324175638356,-0.0015057096060888,0.0015057208584414,-0.00150571666897,0.0015057136336797,-4.6537826484792e-09,4.4558629198582e-09,-0.00079728997231195,0.00079728974926373,5.261005857557e-09,-5.6497477893139e-09,-0.00093312445755534,0.00093312486898968,-0.00093312808423512,0.00093312122847102,-0.00093312142803238,0.0009331279129475,-0.00093312505563778,0.00093312427433406,-0.00091450940370224,0.00091451447093801,-0.00091451829726803,0.00091450553567434,0.62390233248092,125803,2834,0.0062547715876582,0.0062547716254895,0.0033210246041003,20.980835407407,-7.2153316740743e-05,-7.2153316740743e-05,-7.2153316740743e-05,3586988.4999257,0.015957341872901
17819200,0.98231571749387,0.016029205747422,0.006095600958183,0.0060956009987832,0.0038380037904554,-0.001504895431586,0.0015048949166269,4.3307346556761e-09,-4.8589863807132e-09,-3.8486385984385e-09,3.4077305081721e-09,-0.0015938153517219,0.0015938155048939,-0.0015938184110436,0.0015938124379805,-0.0015938130058808,0.0015938179184974,-0.0015938160729038,0.0015938148592127,-0.001331061562113,0.001331072467214,-0.0013310705681533,0.001331063460674,3.8482175071849e-09,-3.4008715277186e-09,-5.1938388664927e-09,5.717260076074e-09,-0.0015048949241118,0.0015048954409593,-0.0015938157894621,0.0015938151128192,-0.0015938122404603,0.0015938187412523,-0.0015938181314681,0.0015938126916502,-0.0015938145832844,0.0015938163208419,-0.0013310732787553,0.0013310606455751,-0.0013310626739203,0.0013310714872019,-0.0015043547052583,0.0015043659762166,-0.0015043618149084,0.0015043587142684,-4.7127471194806e-09,4.5176475900554e-09,-0.00079590243968174,0.00079590221908839,5.2319221081375e-09,-5.6183030708595e-09,-0.00093172673278381,0.00093172708604739,-0.00093173033920177,0.00093172346574008,-0.00093172366280613,0.00093173017019085,-0.00093172727027471,0.00093172655185721,-0.00091308082800585,0.00091308603673044,-0.00091308984089819,0.0009130769848541,0.60341628060262,125803,2834,0.0062492768858072,0.0062492769206948,0.0033152590487287,19.991115720395,-8.0071074236836e-05,-8.0071074236836e-05,-8.0071074236836e-05,3576070.0821578,0.015940319319076
18019200,0.98274764026225,0.016035113830006,0.0060978755526512,0.0060978755932607,0.0038393626840938,-0.0015035181872287,0.0015035176738643,4.3910223623398e-09,-4.9171874658276e-09,-3.8636066696448e-09,3.4223124632917e-09,-0.0015924859141458,0.0015924860996684,-0.0015924890129177,0.0015924829929588,-0.001592483558708,0.001592488523244,-0.0015924866651384,0.0015924854243031,-0.0013296466175788,0.0013296576512889,-0.0013296557389626,0.0013296485275381,3.8609745958176e-09,-3.4156597546639e-09,-5.1666468380926e-09,5.6885537037215e-09,-0.0015035176806943,0.0015035181955661,-0.0015924863566246,0.0015924857054438,-0.0015924828258876,0.0015924893150016,-0.0015924887076076,0.0015924832750694,-0.0015924851778006,0.0015924868856816,-0.0013296583756014,0.0013296457866381,-0.0013296478250652,0.0013296565728709,-0.0015029513136416,0.0015029625906997,-0.0015029584541038,0.001502955305507,-4.7728426798272e-09,4.5805825626411e-09,-0.00079454663183773,0.00079454641368262,5.2045092224886e-09,-5.5884138679238e-09,-0.00093030115332796,0.0009303014484032,-0.00093030474057891,0.00093029784724869,-0.0009302980419632,0.0009303045735732,-0.00093030163054811,0.00093030097475331,-0.00091168645096164,0.00091169180163313,-0.00091169558392117,0.00091168263054971,0.60265703071427,125803,2834,0.0062435764190772,0.0062435764504687,0.0033096220078131,19.019709945482,-8.7842320436144e-05,-8.7842320436144e-05,-8.7842320436144e-05,3569694.1499796,0.015923009010608
18219200,0.98314446306053,0.016040647005619,0.0060999998252938,0.00609999986593,0.0038406473143955,-0.0015020987503632,0.0015020982391522,4.4527762693297e-09,-4.9773645195776e-09,-3.8708518566623e-09,3.4338134453563e-09,-0.0015911093645761,0.001591109585852,-0.0015911125041903,0.0015911064388769,-0.0015911070029167,0.0015911120155808,-0.0015911101500919,0.0015911088760768,-0.0013281975369193,0.0013282086970111,-0.0013282067781993,0.0013281994546243,3.8698493003485e-09,-3.4268369449872e-09,-5.140929836243e-09,5.6603256361964e-09,-0.0015020982467025,0.0015020987594674,-0.0015911098128365,0.0015911091842783,-0.0015911063000597,0.0015911127761287,-0.0015911121705323,0.0015911067472906,-0.0015911086583844,0.0015911103396949,-0.0013282093369254,0.0013281967919094,-0.0013281988389513,0.0013282075248757,-0.0015015125342872,0.0015015238113551,-0.0015015196905963,0.0015015165022841,-4.831898569152e-09,4.6412580629285e-09,-0.0007931887117516,0.0007931884955742,5.1793531518036e-09,-5.5606260139992e-09,-0.00092886274882984,0.0009288629887055,-0.00092886631855258,0.00092885940510417,-0.00092885959791968,0.00092886615373939,-0.00092886316862142,0.00092886257203466,-0.0009102863637014,0.00091029185091588,-0.00091029561354648,0.0009102825613405,0.61338750905974,125803,2834,0.006237701510788,0.006237701545255,0.003303975573832,18.048757028751,-9.5609943769988e-05,-9.5609943769988e-05,-9.5609943769988e-05,3562791.7485979,0.015905334993238
18419200,0.98351862181807,0.016045901594655,0.0061020141891679,0.0061020142298127,0.0038418731756746,-0.0015014491303515,0.0015014486165255,4.5123076793919e-09,-5.0371085539678e-09,-3.8629029026738e-09,3.4179090679888e-09,-0.0015904869691211,0.0015904872371637,-0.0015904901488148,0.0015904840499943,-0.0015904846154294,0.0015904896587313,-0.001590487802621,0.0015904864791436,-0.0013275257356061,0.0013275370079913,-0.0013275350924474,0.001327527647666,3.858409179954e-09,-3.4130386691176e-09,-5.1334183118297e-09,5.655784018675e-09,-0.0015014486232746,0.0015014491381256,-0.0015904874438476,0.0015904868128712,-0.0015904839352068,0.0015904904005923,-0.0015904897932618,0.0015904843840181,-0.0015904862852579,0.0015904879724731,-0.0013275375820941,0.0013275250603691,-0.0013275270968153,0.0013275357823626,-0.0015008530641061,0.0015008643145156,-0.0015008602074068,0.0015008570415676,-4.8926467266165e-09,4.7028067878043e-09,-0.00079250580824873,0.0007925055923366,5.1725712687906e-09,-5.554475084269e-09,-0.00092815723133166,0.00092815742624375,-0.00092816079665018,0.00092815384714091,-0.0009281540392787,0.00092816063197598,-0.00092815760578689,0.00092815705491021,-0.0009095917709049,0.00090959738312741,-0.00090960114434501,0.00090958797907482,0.61738402804809,125803,2834,0.0062350125503458,0.0062350125804023,0.0033011368848667,17.475914403303,-0.00010019268477358,-0.00010019268477358,-0.00010019268477358,3558636.1545708,0.015896987358496
18619200,0.98387899057667,0.016050913961879,0.0061039365447903,0.0061039365854716,0.0038430408316172,-0.0015014324845911,0.0015014319660895,4.5711865386243e-09,-5.1000377108782e-09,-3.8390804910204e-09,3.3872893001076e-09,-0.0015904942808246,0.0015904946036428,-0.0015904975012177,0.0015904913757117,-0.0015904919450214,0.0015904970069984,-0.0015904951729312,0.0015904937866349,-0.0013274829964103,0.0013274943672168,-0.0013274924720808,0.0013274848869667,3.8338564177299e-09,-3.3840001683819e-09,-5.1412964505825e-09,5.6680752001621e-09,-0.0015014319725906,0.0015014324915722,-0.0015904947938339,0.0015904941424272,-0.0015904912786707,0.0015904977369391,-0.0015904971256258,0.001590491731365,-0.0015904936110482,0.0015904953265288,-0.0013274948908346,0.0013274823716378,-0.0013274843860967,0.0013274931136755,-0.001500828252563,0.0015008394613106,-0.0015008353470688,0.0015008322447625,-4.9528917154154e-09,4.7624832213479e-09,-0.00079237685502786,0.00079237663828732,5.1824242007738e-09,-5.5656177558055e-09,-0.00092804858401884,0.00092804874501987,-0.00092805215628868,0.00092804515903755,-0.00092804535181244,0.00092805199072316,-0.00092804892535717,0.00092804840675313,-0.00090947482582413,0.00090948054787828,-0.00090948431737555,0.00090947102781336,0.61178639785254,125803,2834,0.0062349433588929,0.0062349433867975,0.00330060197942,17.230847257817,-0.00010215322193747,-0.00010215322193747,-0.00010215322193747,3558203.8545741,0.015896303464177
18819200,0.98422635953931,0.016056064072368,0.0061058993936666,0.0061058994343916,0.0038442652443102,-0.0015014241872774,0.0015014236659451,4.6290937411285e-09,-5.1631732166024e-09,-3.810958060906e-09,3.3613922917728e-09,-0.001590511351809,0.0015905117282292,-0.0015905146124879,0.0015905084605256,-0.0015905090335314,0.0015905141137006,-0.0015905123017779,0.001590510853383,-0.0013274479745427,0.0013274594374831,-0.00132745757002,0.0013274498399025,3.8089060890629e-09,-3.3553075869147e-09,-5.1518634605506e-09,5.6811822769301e-09,-0.0015014236733749,0.0015014241959586,-0.0015905119003535,0.0015905112270816,-0.0015905083774951,0.0015905148299293,-0.0015905142145822,0.0015905088342225,-0.0015905106920349,0.0015905124372138,-0.0013274599152423,0.0013274473928648,-0.0013274493865474,0.0013274581575292,-0.0015008207302876,0.0015008318979534,-0.0015008277600075,0.0015008247229274,-5.0139066358189e-09,4.8223254477678e-09,-0.00079227197146311,0.00079227175409422,5.194273153585e-09,-5.5772550154864e-09,-0.00092794893739981,0.00092794906567105,-0.00092795251757764,0.00092794547163122,-0.00092794566543477,0.0009279523516346,-0.00092794924658072,0.00092794875935769,-0.00090939030102909,0.00090939613223753,-0.00090939990755946,0.00090938648906395,0.64922936593886,125803,2834,0.0062349089682545,0.0062349090015984,0.0033001665570715,16.993883681853,-0.00010404893054517,-0.00010404893054517,-0.00010404893054517,3558705.8726582,0.015895791139896
19019200,0.98456130048099,0.016061340295639,0.0061078998899309,0.0061078999306664,0.0038455404750419,-0.0015014741856559,0.0015014736611838,4.6872594433238e-09,-5.2248635215353e-09,-3.7883722529458e-09,3.3368582967401e-09,-0.0015905481440521,0.0015905485721997,-0.0015905514443166,0.0015905452645524,-0.0015905458413208,0.0015905509420825,-0.0015905491491746,0.0015905476419882,-0.0013275255236044,0.0013275370841278,-0.0013275352373372,0.0013275273695824,3.7870847427489e-09,-3.329475734918e-09,-5.1622423036992e-09,5.6951341727901e-09,-0.0015014736687277,0.0015014741950863,-0.0015905487277466,0.0015905480344289,-0.0015905451964938,0.0015905516449921,-0.0015905510262354,0.001590545657377,-0.0015905474956592,0.0015905492685935,-0.0013275375154426,0.0013275249882623,-0.0013275269629633,0.0013275357768337,-0.0015008841689193,0.0015008953014044,-0.0015008911491763,0.001500888171006,-5.0756302979329e-09,4.882546943013e-09,-0.00079215366379394,0.00079215344520856,5.2057159300271e-09,-5.5898030297736e-09,-0.00092792345750783,0.00092792355189887,-0.00092792704575872,0.00092791994984698,-0.0009279201448677,0.00092792687861944,-0.00092792373411025,0.00092792327850438,-0.00090928301865839,0.00090928895959235,-0.0009092927439642,0.00090927919619361,0.68719100711353,125803,2834,0.0062351141599657,0.0062351141950943,0.003299680111921,16.757228589363,-0.00010594217128509,-0.00010594217128509,-0.00010594217128509,3550285.0292153,0.01589571456359
19219200,0.98489473058842,0.016066753061349,0.0061099475908841,0.0061099476316212,0.0038468578388437,-0.0015025682411881,0.0015025677096489,4.7493492596402e-09,-5.2905655387956e-09,-3.7624877106419e-09,3.2960188711213e-09,-0.0015915933962011,0.0015915938845764,-0.0015915967393829,0.0015915905337955,-0.0015915911153912,0.001591596232036,-0.0015915944663316,0.0015915928885707,-0.0013286778433829,0.0013286895084641,-0.0013286876803362,0.0013286796664363,3.7607131435008e-09,-3.2975680523021e-09,-5.1883534033598e-09,5.7275982079865e-09,-0.0015025677164183,0.0015025682477956,-0.0015915940295637,0.0015915933021461,-0.0015915904794073,0.0015915969324861,-0.0015915963089221,0.0015915909444129,-0.0015915927593945,0.0015915945749521,-0.001328689904973,0.0013286773467956,-0.0013286792967691,0.0013286881934637,-0.0015020039748117,0.0015020150750755,-0.0015020109149213,0.0015020080174184,-5.133403673392e-09,4.9387792909769e-09,-0.00079287454689248,0.00079287432578135,5.2350829408244e-09,-5.6234907241395e-09,-0.00092886703885614,0.00092886711334436,-0.00092887064786215,0.00092886349075269,-0.00092886368747228,0.00092887047812328,-0.00092886729797203,0.00092886685723333,-0.0009100539346,0.00091005996431761,-0.00091006377611265,0.00091005009696322,0.70677987570051,125803,2834,0.0062396391327564,0.006239639160442,0.0033026876083728,17.022274151205,-0.00010382180679036,-0.00010382180679036,-0.00010382180679036,3541596.2791867,0.015907965510303
19419200,0.98523179144751,0.016072109144646,0.0061119785650505,0.0061119786058275,0.003848151973768,-0.001504181474885,0.0015041809342761,4.8148401864668e-09,-5.3633936984747e-09,-3.7339070789371e-09,3.251033412102e-09,-0.001593151112424,0.0015931516655379,-0.0015931545024171,0.0015931482694095,-0.001593148855563,0.0015931539876757,-0.0015931522535666,0.0015931505971004,-0.0013303536339409,0.0013303654051945,-0.0013303636000032,0.0013303554266707,3.7396333974726e-09,-3.2725718291782e-09,-5.2208318210839e-09,5.7646019560915e-09,-0.0015041809414168,0.0015041814761884,-0.0015931517984571,0.0015931510356073,-0.0015931482269051,0.0015931546916324,-0.0015931540632866,0.0015931486933147,-0.0015931504908086,0.0015931523459661,-0.0013303657704168,0.0013303531654407,-0.001330355092351,0.0013303640797059,-0.0015036361985348,0.0015036472812276,-0.0015036431031301,0.0015036402766319,-5.186090121544e-09,4.989835324956e-09,-0.00079399818676785,0.00079399796310886,5.271848383397e-09,-5.6647102790556e-09,-0.00093028214588616,0.00093028220844787,-0.00093028578014608,0.00093027856098202,-0.00093027875903642,0.00093028560859969,-0.00093028239467934,0.00093028196056844,-0.00091124361037373,0.00091124971526715,-0.00091125355632207,0.00091123974847766,0.69264757696358,125803,2834,0.0062463120627024,0.0062463120801964,0.0033073721427337,17.538663098722,-9.9690695210223e-05,-9.9690695210223e-05,-9.9690695210223e-05,3534438.3964683,0.015926285298451
19619200,0.98557235849437,0.016077386549233,0.0061139849063162,0.0061139849471728,0.0038494166957437,-0.0015057784594767,0.0015057779222903,4.8602693821066e-09,-5.4097023130724e-09,-3.7180030276185e-09,3.2510457800183e-09,-0.0015947150058088,0.0015947155931148,-0.0015947184252855,0.001594712165892,-0.0015947127545521,0.0015947179105646,-0.0015947161814658,0.0015947144912077,-0.0013319813851573,0.001331993233664,-0.0013319914480104,0.0013319831684767,3.7129718570232e-09,-3.2417042912717e-09,-5.2548493811483e-09,5.8006153181378e-09,-0.0015057779293948,0.0015057784684402,-0.0015947157223262,0.0015947149224705,-0.0015947121262395,0.0015947185992047,-0.001594717967946,0.0015947125990959,-0.0015947143721025,0.0015947162765143,-0.0013319935849291,0.0013319809297192,-0.0013319828389621,0.0013319919141291,-0.0015052427331345,0.0015052537850683,-0.0015052495584945,0.0015052468190445,-5.2633193883092e-09,5.0631351201976e-09,-0.00079512186081992,0.00079512163474354,5.2993294047107e-09,-5.6925477561921e-09,-0.00093166258087731,0.00093166261060445,-0.00093166623471074,0.0009316589432585,-0.0009316591453812,0.00093166606013021,-0.00093166279988776,0.00093166239478761,-0.00091244402522275,0.00091245025461294,-0.0009124541128569,0.00091244013232755,0.67638953510701,125803,2834,0.0062529181942441,0.0062529182274982,0.0033120554051849,18.061331126898,-9.5509350984813e-05,-9.5509350984813e-05,-9.5509350984813e-05,3532003.6451642,0.01594446806258
19819200,0.98591616079917,0.016082558762702,0.0061159570435425,0.0061159570844015,0.0038506446347581,-0.0015073445869939,0.0015073440479899,4.9193818181446e-09,-5.4711567974448e-09,-3.7074165479693e-09,3.2394775045977e-09,-0.0015962677683805,0.0015962684013798,-0.0015962712281657,0.0015962649338082,-0.0015962655242885,0.0015962707114501,-0.0015962689916025,0.0015962672517843,-0.0013335474127035,0.0013335593689362,-0.0013335575940094,0.0013335491855955,3.7028993216146e-09,-3.2296715933336e-09,-5.281128834941e-09,5.8286157906782e-09,-0.0015073440551578,0.0015073445960697,-0.0015962685190343,0.0015962676957495,-0.001596264905127,0.0015962713906221,-0.0015962707573502,0.0015962653797821,-0.0015962671437006,0.0015962690752991,-0.0013335596876157,0.0013335469881199,-0.0013335488884334,0.0013335580257091,-0.0015068107835558,0.0015068218336658,-0.0015068175845991,0.0015068148869285,-5.324980911478e-09,5.1229410818135e-09,-0.00079623879349359,0.00079623856560891,5.3252287894545e-09,-5.7203566989091e-09,-0.00093299790483702,0.00093299791033369,-0.00093300157654366,0.00093299422497409,-0.00093299442895872,0.00093300140020203,-0.00093299810136356,0.00093299771688462,-0.00091364886012538,0.00091365518842738,-0.00091365906552236,0.0009136449461264,0.65786894524257,125803,2834,0.0062593970936834,0.0062593971273017,0.0033167090506737,18.584238625101,-9.1326090999193e-05,-9.1326090999193e-05,-9.1326090999193e-05,3533689.6365838,0.015962362096031
20019200,0.98625367859401,0.016087823275263,0.0061179581648393,0.0061179582056977,0.0038519069047256,-0.0015080256007368,0.0015080250675781,4.9805826944998e-09,-5.5316715699953e-09,-3.7107889554152e-09,3.2623952646523e-09,-0.0015969533944605,0.0015969540592974,-0.0015969568936029,0.0015969505525352,-0.0015969511413868,0.0015969563786895,-0.0015969546483793,0.0015969528797113,-0.0013342177491359,0.0013342298264559,-0.0013342280534142,0.0013342195270012,3.7156741086477e-09,-3.2458027735684e-09,-5.2856116088908e-09,5.827875267422e-09,-0.0015080250770331,0.001508025615146,-0.0015969541526488,0.001596953335286,-0.0015969505364627,0.0015969570312294,-0.0015969564002014,0.0015969510101217,-0.001596952785053,0.0015969547070521,-0.0013342300928835,0.0013342173743476,-0.0013342192883633,0.0013342284137806,-0.0015074925200003,0.0015075035965621,-0.0015074993201348,0.0015074965930602,-5.3863880999941e-09,5.1822348911931e-09,-0.00079661799295642,0.00079661776477395,5.3277434652634e-09,-5.7208593859246e-09,-0.00093350525285489,0.00093350521947557,-0.0009335089257543,0.00093350153258236,-0.00093350173763734,0.00093350874987021,-0.00093350541089276,0.00093350506479237,-0.00091408940070482,0.00091409584347672,-0.00091409971716567,0.00091408547236272,0.68048383656809,125803,2834,0.0062622133013195,0.0062622133506956,0.0033182930512042,18.671560917002,-9.0627512663982e-05,-9.0627512663982e-05,-9.0627512663982e-05,3532964.1147952,0.015969694471345
20219200,0.98658251100685,0.01609310155733,0.006119959810061,0.0061199598508489,0.0038531818964197,-0.0015084916013604,0.0015084910703994,5.0429064239645e-09,-5.5897238793607e-09,-3.7361367507045e-09,3.2850637416165e-09,-0.0015974020918138,0.0015974027850134,-0.0015974056320734,0.0015973992381383,-0.0015973998229584,0.0015974051206112,-0.0015974033706403,0.0015974015809993,-0.0013347055076755,0.0013347177259291,-0.0013347159301062,0.0013347073077257,3.7370264664655e-09,-3.2708248188736e-09,-5.2778648088804e-09,5.8176310822682e-09,-0.001508491079223,0.0015084916140665,-0.0015974028569117,0.0015974020574998,-0.001597399247791,0.0015974057484153,-0.0015974051201922,0.0015973997176125,-0.0015974015107579,0.0015974034080697,-0.0013347179241445,0.0013347052051972,-0.0013347071382031,0.001334716227425,-0.0015079675429083,0.0015079786549123,-0.0015079743990379,0.0015079716162095,-5.4459172230952e-09,5.2442840005471e-09,-0.00079678036113003,0.00079678013459851,5.3196068026692e-09,-5.71144982495e-09,-0.000933822320436,0.00093382224174905,-0.00093382598731329,0.00093381856093837,-0.00093381876438745,0.00093382581264195,-0.00093382243174853,0.00093382213354902,-0.00091429738536541,0.00091430395455806,-0.000914307824239,0.00091429347032778,0.69908659519219,125803,2834,0.0062641387697251,0.0062641388142692,0.0033189777105262,18.638398100904,-9.0892815192767e-05,-9.0892815192767e-05,-9.0892815192767e-05,3525742.0069614,0.015974303480667
20419200,0.98690283244507,0.016098250657318,0.0061219125097817,0.0061219125505312,0.0038544255970052,-0.0015089601319329,0.0015089596024522,5.1066890957417e-09,-5.6495509182151e-09,-3.7641748733356e-09,3.3080922932277e-09,-0.001597839806389,0.0015978405281657,-0.0015978433878547,0.0015978369390612,-0.0015978375208936,0.0015978428802737,-0.0015978411100443,0.0015978392988435,-0.0013352140736481,0.0013352264378938,-0.0013352246141847,0.001335215896447,3.7628157035632e-09,-3.2997308111837e-09,-5.2636246141889e-09,5.8014932619845e-09,-0.0015089596100337,0.0015089601415895,-0.001597840576634,0.0015978398018622,-0.0015978369771925,0.0015978434818963,-0.0015978428575773,0.0015978374428485,-0.0015978392586387,0.0015978411233879,-0.0013352265572375,0.0013352138490303,-0.0013352158017853,0.001335224842221,-0.0015084463177918,0.0015084574713229,-0.0015084532430686,0.0015084503925548,-5.5044421052582e-09,5.3040011919926e-09,-0.00079692033561003,0.0007969201095714,5.3049692638525e-09,-5.6976519949045e-09,-0.00093415023028675,0.00093415010303717,-0.0009341538875881,0.00093414643193174,-0.00093414663420165,0.00093415371327435,-0.00093415029235262,0.00093415004404738,-0.00091447652610292,0.00091448322265988,-0.00091448708317324,0.00091447262661985,0.6999840074175,125803,2834,0.0062660740195516,0.0062660740552224,0.0033195711280812,18.602160661959,-9.1182714704329e-05,-9.1182714704329e-05,-9.1182714704329e-05,3515348.1270331,0.015978840008041
20619200,0.98721487423098,0.016102740935605,0.0061236327978564,0.0061236328386068,0.0038554752991417,-0.0015093869582399,0.0015093864325206,5.169547435345e-09,-5.7085580104125e-09,-3.7875053628993e-09,3.3352893913162e-09,-0.0015982465640664,0.0015982473134162,-0.0015982501861329,0.0015982436837522,-0.0015982442619447,0.001598249682399,-0.0015982478917115,0.0015982460603557,-0.0013356662717755,0.0013356787761231,-0.0013356769316847,0.0013356681152442,3.7865303920957e-09,-3.3275665884353e-09,-5.2482362408349e-09,5.782336740306e-09,-0.0015093864401442,0.0015093869678468,-0.001598247335959,0.0015982465858632,-0.0015982437478488,0.0015982502543948,-0.0015982496338325,0.0015982442096972,-0.0015982460462532,0.0015982478786953,-0.0013356788189682,0.0013356661239214,-0.0013356680973138,0.0013356770830695,-0.0015088642415072,0.0015088754303678,-0.0015088712178329,0.0015088683010986,-5.5638563760171e-09,5.3647765736994e-09,-0.00079702636092447,0.00079702613624612,5.288576203539e-09,-5.6797300304193e-09,-0.00093444615678245,0.00093444597927373,-0.00093444980262281,0.00093444231962365,-0.00093444252059218,0.00093444962966686,-0.00093444616732084,0.0009344459718545,-0.00091461035995258,0.00091461718683156,-0.00091462103471404,0.00091460647351594,0.63099124661442,125803,2834,0.0062678366347867,0.0062678366704426,0.0033200232679991,18.56580550729,-9.1473555941683e-05,-9.1473555941683e-05,-9.1473555941683e-05,3506043.9960753,0.015982882419024
20819200,0.98750432632365,0.016107229612045,0.0061253396172035,0.0061253396579554,0.0038565503368863,-0.001508150025736,0.0015081495100238,5.229734217033e-09,-5.764313822993e-09,-3.8206726682491e-09,3.3914363577708e-09,-0.0015970467406772,0.0015970475046504,-0.0015970504007122,0.0015970438374005,-0.0015970444090433,0.0015970499038066,-0.0015970480768198,0.0015970462442137,-0.001334401385456,0.0013344140294336,-0.0013344121625997,0.0013344032580349,3.8252615394152e-09,-3.374507696986e-09,-5.2042885095027e-09,5.72888566924e-09,-0.001508149519207,0.0015081500395043,-0.0015970474887549,0.0015970467924183,-0.0015970439319393,0.0015970504282283,-0.0015970498146319,0.0015970443879859,-0.0015970462587224,0.0015970480246317,-0.0013344139706672,0.0013344013324417,-0.0013344033421092,0.0013344121942438,-0.001507613624067,0.0015076248568469,-0.0015076206565983,0.0015076176169821,-5.6258556760412e-09,5.4290754931174e-09,-0.00079582037724765,0.00079582015652357,5.2417103921893e-09,-5.6260086358183e-09,-0.00093318457569199,0.00093318432696372,-0.00093318818827263,0.00093318070024277,-0.00093318089842247,0.00093318801961153,-0.00093318451134664,0.0009331843947226,-0.00091339080503694,0.00091339779119828,-0.00091340159528724,0.00091338694221812,0.67642717940959,125803,2834,0.0062627162572951,0.0062627163047873,0.0033150112115953,17.74285953757,-9.8057123699443e-05,-9.8057123699443e-05,-9.8057123699443e-05,3499712.3224127,0.015967384950881
21019200,0.98777157287362,0.016111240582412,0.0061268687623781,0.0061268688030815,0.003857503016952,-0.0015067619110472,0.0015067614004564,5.2922695140344e-09,-5.8186142731515e-09,-3.8591915492884e-09,3.4295000627742e-09,-0.001595653067826,0.0015956538516908,-0.0015956567662211,0.0015956501447016,-0.0015956507114899,0.0015956562768197,-0.001595654417464,0.0015956525782431,-0.0013330479835463,0.001333060779999,-0.0013330588751732,0.0013330498916356,3.8583523671013e-09,-3.4120425410858e-09,-5.1557048708296e-09,5.67731055894e-09,-0.0015067614079465,0.0015067619239538,-0.0015956538024952,0.0015956531580473,-0.0015956502776811,0.0015956567589269,-0.0015956561512707,0.0015956507298112,-0.0015956526284816,0.0015956543335609,-0.0013330606120531,0.0013330480454381,-0.001333050082418,0.0013330588084951,-0.0015062168682283,0.0015062281315175,-0.0015062239846376,0.0015062208356956,-5.6864810935026e-09,5.4933442251341e-09,-0.00079443494663442,0.0007944347290338,5.1928149585602e-09,-5.5744287110063e-09,-0.00093181995724349,0.00093181963567823,-0.00093182353630949,0.0009318160425089,-0.00093181623736952,0.00093182337007006,-0.00093181981767868,0.0009318197801068,-0.00091195375509782,0.0009119608996079,-0.00091196467082959,0.00091194993553175,0.65601665357385,125803,2834,0.0062569686536263,0.0062569686958266,0.0033092569736081,16.832282246382,-0.00010534174202895,-0.00010534174202895,-0.00010534174202895,3482479.5157191,0.015949860177904
21219200,0.98801848648042,0.016114970131365,0.0061282887276629,0.0061282887683463,0.0038583926353553,-0.0015053075147912,0.0015053070056954,5.3575998248853e-09,-5.8808100358196e-09,-3.8821804149943e-09,3.449297060166e-09,-0.0015942079854587,0.0015942088016136,-0.0015942117277,0.0015942050521911,-0.0015942056148676,0.0015942112403621,-0.001594209364576,0.0015942074984711,-0.0013316049594272,0.0013316179004834,-0.0013316159730931,0.0013316068869578,3.8813499006601e-09,-3.4395803628733e-09,-5.1126056317539e-09,5.630582959982e-09,-0.0015053070132989,0.0015053075249769,-0.0015942087171879,0.0015942081149548,-0.0015942052232892,0.0015942116872713,-0.0015942110829567,0.0015942056698811,-0.001594207589786,0.0015942092430031,-0.0013316176265818,0.0013316051286808,-0.0013316071849419,0.0013316158042327,-0.0015047531137213,0.001504764393749,-0.00150476028945,0.0015047570568829,-5.7414425961592e-09,5.5526482418783e-09,-0.00079305091726101,0.00079305070334352,5.1511118453447e-09,-5.5293975568472e-09,-0.00093039790478811,0.00093039752002441,-0.00093040145475716,0.00093039395604425,-0.00093039414688178,0.00093040129233055,-0.00093039769772209,0.00093039773036152,-0.00091052301731983,0.0009105303078912,-0.00091053404818214,0.00091051923505556,0.65967102369534,125803,2834,0.0062509478526879,0.0062509478894995,0.0033035052203537,15.91931296025,-0.000112645496318,-0.000112645496318,-0.000112645496318,3469920.9066388,0.015931782515863
21419200,0.98825008596737,0.016118492356445,0.0061296280972793,0.0061296281379634,0.0038592361212021,-0.0015042763350371,0.0015042758253237,5.4192974495946e-09,-5.9413884828367e-09,-3.8858681972175e-09,3.4483624346006e-09,-0.0015931806050153,0.001593181461783,-0.0015931843882138,0.0015931776713266,-0.0015931782336086,0.0015931839013625,-0.0015931820242401,0.0015931801184032,-0.001330585591795,0.0013305986571996,-0.0013305967241829,0.0013305875228635,3.8833062464833e-09,-3.441610701848e-09,-5.0854692464775e-09,5.6039863419886e-09,-0.0015042758323782,0.0015042763438695,-0.0015931813493039,0.001593180765842,-0.0015931778731903,0.0015931843201802,-0.0015931837163777,0.0015931783193035,-0.0015931802409966,0.0015931818744513,-0.0013305982961616,0.0013305858504645,-0.0013305879076297,0.0013305964734881,-0.0015037172967959,0.0015037285628361,-0.0015037244855365,0.0015037212304837,-5.8001042487569e-09,5.6135386334539e-09,-0.00079204955501368,0.0007920493428777,5.1253126172526e-09,-5.5022410399142e-09,-0.00092938025827558,0.0009293798175055,-0.00092938379050678,0.00092937627135282,-0.00092937646013201,0.00092938362967014,-0.00092937999346682,0.00092938008557763,-0.00090949127321023,0.00090949870063849,-0.00090950242339237,0.00090948751458046,0.66373454412212,125803,2834,0.0062466787634682,0.0062466787963447,0.0032993444766439,15.230716543261,-0.00011815426765391,-0.00011815426765391,-0.00011815426765391,3459971.1622216,0.015918880906836
21619200,0.98846779523258,0.016121833203541,0.0061308969351776,0.0061308969758752,0.003860039292488,-0.0015032810928741,0.0015032805825712,5.4780442029805e-09,-6.0018173705403e-09,-3.8763266238825e-09,3.4405092275106e-09,-0.0015921866049129,0.0015921875057776,-0.0015921904277321,0.0015921836758259,-0.0015921842392198,0.0015921899396339,-0.0015921880694174,0.0015921861171666,-0.0013296076881058,0.0013296208613599,-0.0013296189378234,0.0013296096107241,3.8744374310078e-09,-3.4315614060524e-09,-5.0673633359271e-09,5.5865458971058e-09,-0.0015032805899041,0.0015032811025129,-0.001592187367078,0.0015921867903288,-0.0015921839025438,0.001592190332776,-0.0015921897279421,0.0015921843501456,-0.0015921862641472,0.0015921878934513,-0.0013296204249884,0.0013296080208829,-0.0013296100706352,0.0013296186085316,-0.001502717138826,0.0015027283754906,-0.0015027243035563,0.0015027210567939,-5.8610504046946e-09,5.6754050076845e-09,-0.00079108579047589,0.00079108557957256,5.1080796584798e-09,-5.4831334932782e-09,-0.00092840877723371,0.00092840828473355,-0.00092841229744917,0.00092840475057229,-0.00092840493835861,0.00092841213785759,-0.00092840845952371,0.00092840860575305,-0.00090849370886519,0.00090850126946584,-0.00090850497763765,0.00090848996093734,0.66920855808803,125803,2834,0.0062425583464354,0.0062425583815566,0.0032953401757289,14.566367479362,-0.00012346906016511,-0.00012346906016511,-0.00012346906016511,3449772.0198243,0.015906440611495
21819200,0.98867257447227,0.016124929652109,0.0061320740623447,0.0061320741030469,0.0038607814867174,-0.0015022731402341,0.0015022726277155,5.5375862091895e-09,-6.0639530632787e-09,-3.8599257662115e-09,3.4227065481938e-09,-0.0015911762366176,0.0015911771868003,-0.0015911800999967,0.0015911733164257,-0.0015911738821174,0.0015911796093019,-0.0015911777528902,0.0015911757463455,-0.0013286234033673,0.001328636681332,-0.0013286347727139,0.0013286253119158,3.8590255003023e-09,-3.4136942565083e-09,-5.0568420218424e-09,5.5781394363861e-09,-0.0015022726352829,0.0015022731502143,-0.0015911770241901,0.0015911764450285,-0.0015911735658621,0.0015911799812167,-0.001591179374117,0.0015911740160014,-0.0015911759165152,0.0015911775529535,-0.0013286361768022,0.0013286238043077,-0.001328625840872,0.0013286343732769,-0.0015017026400472,0.001501713840111,-0.001501709770061,0.0015017065523637,-5.9209748458271e-09,5.7357503842924e-09,-0.00079011365334624,0.00079011344301267,5.0992654169822e-09,-5.4734117439649e-09,-0.00092743736598823,0.00092743682780733,-0.00092744088004138,0.00092743329979799,-0.00092743348708722,0.00092744072102936,-0.00092743700205286,0.0009274371950052,-0.00090748169265901,0.00090748937751023,-0.00090749307873926,0.00090747795057026,0.65988855319557,125803,2834,0.0062383851774018,0.0062383852137143,0.0032913013436584,13.902682462267,-0.00012877854030186,-0.00012877854030186,-0.00012877854030186,3438701.8441881,0.015893858345702
22019200,0.98887702389102,0.016127971673848,0.0061332315667255,0.0061332316074285,0.0038615084996941,-0.0015030407833595,0.0015030402638065,5.5952139791713e-09,-6.1280780451869e-09,-3.816599055754e-09,3.3714140093221e-09,-0.0015919449486344,0.0015919459636637,-0.0015919488525046,0.0015919420526367,-0.0015919426251822,0.0015919483546121,-0.0015919465365257,0.0015919444510431,-0.0013293740815516,0.0013293874414916,-0.001329385569797,0.0013293759526315,3.815899791469e-09,-3.36301094483e-09,-5.0890401202186e-09,5.6173861832264e-09,-0.0015030402714706,0.0015030407934851,-0.0015919457921316,0.0015919451652228,-0.001591942310322,0.0015919487253083,-0.0015919481112549,0.0015919427674999,-0.0015919446301881,0.0015919463283261,-0.0013293869125778,0.0013293745081225,-0.0013293765071898,0.0013293851476397,-0.0015024742408655,0.0015024853796956,-0.0015024812801194,0.0015024781858466,-5.982523944888e-09,5.794583027672e-09,-0.00079071270432931,0.00079071249110271,5.1334369678939e-09,-5.5110474940688e-09,-0.00092809594947331,0.0009280953922524,-0.00092809948746051,0.00092809184036199,-0.00092809203035475,0.00092809932557837,-0.00092809556927547,0.00092809577564157,-0.00090813279109329,0.00090814056706159,-0.0009081442960785,0.00090812902375973,0.64982379227522,125803,2834,0.0062415617831408,0.0062415618199504,0.0032937943690506,14.153312595852,-0.00012677349923319,-0.00012677349923319,-0.00012677349923319,3443025.11675,0.0159028454331
22219200,0.98908233492052,0.016131001995942,0.006134385523808,0.0061343855645116,0.0038622309076223,-0.0015039912412279,0.0015039907121995,5.6493751236443e-09,-6.1894559696629e-09,-3.7811031805992e-09,3.3185113101103e-09,-0.0015929127434518,0.0015929138201874,-0.0015929166857917,0.0015929098696661,-0.0015929104493768,0.0015929161817613,-0.0015929143990625,0.0015929122391413,-0.0013302891643715,0.0013303026050123,-0.0013303007639194,0.0013302909992481,3.7735794763843e-09,-3.3114417275615e-09,-5.1261972521596e-09,5.6642025731263e-09,-0.0015039907177186,0.0015039912479927,-0.0015929136466535,0.0015929129685082,-0.0015929101372208,0.0015929165561295,-0.0015929159349008,0.0015929106018889,-0.0015929124263539,0.0015929141909634,-0.001330302055004,0.0013302896087848,-0.00133029156786,0.00133030033079,-0.0015034214426181,0.0015034325247293,-0.0015034284043053,0.0015034254375698,-6.0467383601502e-09,5.85683185566e-09,-0.00079147846988474,0.00079147825350083,5.1716408667616e-09,-5.5542975274506e-09,-0.00092891911250454,0.00092891853632004,-0.00092892267757115,0.00092891495762002,-0.0009289151503875,0.00092892251189074,-0.00092891871695666,0.00092891893592208,-0.00090895871068609,0.00090896658083097,-0.00090897034043183,0.00090895491859699,0.64497435684824,125803,2834,0.0062454953147033,0.0062454953401305,0.0032969798296495,14.499663241555,-0.00012400269406756,-0.00012400269406756,-0.00012400269406756,3451017.8551137,0.015914074076281
22419200,0.98928844683452,0.016134177042312,0.0061355900840112,0.0061355901247445,0.0038629968335567,-0.0015049500953854,0.0015049495623053,5.7091742064116e-09,-6.2552904873459e-09,-3.7411481486686e-09,3.2803041742533e-09,-0.0015938921132508,0.0015938932511241,-0.0015938960972998,0.0015938892593141,-0.0015938898445182,0.0015938955865427,-0.0015938938361769,0.0015938916024433,-0.0013312084716551,0.0013312220001616,-0.0013312201958934,0.0013312102743405,3.7394655047192e-09,-3.2722679688679e-09,-5.1642022144529e-09,5.7059700189297e-09,-0.0015049495695317,0.0015049501047947,-0.001593893066603,0.0015938923430988,-0.0015938895308431,0.0015938959576519,-0.0015938953306966,0.0015938900009651,-0.0015938917958675,0.0015938936165629,-0.0013312214317694,0.0013312089353587,-0.0013312108667445,0.0013312197363832,-0.0015043813553796,0.0015043923978434,-0.0015043882330399,0.001504385371623,-6.1071183649143e-09,5.9131455174928e-09,-0.00079225423945371,0.00079225401987338,5.2112626790281e-09,-5.5964814106801e-09,-0.00092974297925149,0.0009297423889731,-0.00092974657165304,0.00092973878282662,-0.00092973897885836,0.00092974640335949,-0.0009297425723302,0.00092974279935139,-0.0009098021032789,0.00090981005671888,-0.0009098138461322,0.00090979827610562,0.67139354368777,125803,2834,0.0062494636922501,0.006249463726677,0.0033002066969893,14.848644944421,-0.00012121084044463,-0.00012121084044463,-0.00012121084044463,3459388.0916314,0.015925415624996
22619200,0.98949511819011,0.016137397410981,0.0061368110255452,0.0061368110662826,0.0038637753191531,-0.0015059311933007,0.0015059306570052,5.7676243468e-09,-6.3172418454803e-09,-3.7210432273895e-09,3.2576012205188e-09,-0.0015948716482658,0.0015948728369721,-0.0015948756724475,0.0015948688051031,-0.0015948693935341,0.0015948751580676,-0.0015948734253531,0.001594871133905,-0.0013321819907972,0.0013321956191975,-0.0013321938333416,0.0013321837757295,3.7196640381699e-09,-3.2489438128527e-09,-5.1980371403334e-09,5.7429674261917e-09,-0.0015059306644214,0.0015059312030166,-0.0015948726435944,0.0015948718857086,-0.0015948690846801,0.00159487552406,-0.0015948748935915,0.0015948695580011,-0.0015948713354416,0.0015948731971992,-0.0013321950266819,0.0013321824782229,-0.0013321843924671,0.0013321933489793,-0.0015053671645192,0.0015053781915317,-0.0015053739980089,0.0015053712060502,-6.1694015589196e-09,5.9726777805877e-09,-0.00079299659655706,0.00079299637432559,5.2450182411313e-09,-5.6331469742322e-09,-0.00093059615192669,0.00093059554204161,-0.00093059976780102,0.00093059191240383,-0.00093059211101985,0.00093059959701162,-0.00093059572787686,0.00093059596943611,-0.00091060311058476,0.00091061115699698,-0.00091061497234607,0.00091059925647366,0.67880268119586,125803,2834,0.0062535228551649,0.0062535228906185,0.0033032981944209,15.186826208244,-0.00011850539033405,-0.00011850539033405,-0.00011850539033405,3461521.9494342,0.015936804900799
22819200,0.98969934761892,0.016140570126197,0.0061380145566414,0.0061380145973798,0.0038645409721763,-0.0015064831208131,0.0015064825882984,5.8240048131801e-09,-6.3737668665032e-09,-3.713207075308e-09,3.2647403625406e-09,-0.0015954188352547,0.0015954200603842,-0.0015954228960314,0.001595415992137,-0.0015954165808529,0.0015954223821982,-0.0015954206488431,0.0015954183216706,-0.0013327384644559,0.0013327521973603,-0.0013327504216631,0.001332740244638,3.713861472846e-09,-3.2429694297536e-09,-5.2216565474007e-09,5.765054146634e-09,-0.0015064825968804,0.0015064831359591,-0.0015954198531366,0.0015954190769874,-0.0015954162785829,0.0015954227303817,-0.0015954220994911,0.0015954167541273,-0.0015954185256015,0.0015954204087036,-0.0013327515746857,0.0013327389825835,-0.0013327408937094,0.0013327498954161,-0.0015059204564043,0.0015059314852219,-0.0015059272528799,0.0015059244871502,-6.2356316247484e-09,6.035986545372e-09,-0.00079334727343657,0.00079334704967867,5.2658649984426e-09,-5.6537247804694e-09,-0.00093105350726988,0.00093105286685573,-0.00093105713731729,0.00093104922282726,-0.0009310494239185,0.00093105696527859,-0.00093105305464675,0.00093105332387906,-0.0009109908336906,0.0009109989882698,-0.00091100281646927,0.0009109869540307,0.67691803278149,125803,2834,0.0062558052845237,0.0062558053336116,0.0033047621657502,15.303448529276,-0.00011757241176579,-0.00011757241176579,-0.00011757241176579,3459016.2267448,0.015942930725037
23019200,0.98990106234394,0.016143485253412,0.0061391277228666,0.0061391277635686,0.0038652297669772,-0.0015070038636146,0.0015070033279807,5.8889969420681e-09,-6.4387046769918e-09,-3.7221896928364e-09,3.261396054354e-09,-0.0015959393025118,0.0015959405703712,-0.0015959434075182,0.0015959364577175,-0.0015959370460273,0.0015959428931942,-0.0015959411587691,0.0015959387882055,-0.001333254834336,0.0013332687012048,-0.0013332669156891,0.0013332566202405,3.7224296452707e-09,-3.2521407185701e-09,-5.2368642219018e-09,5.7811163854142e-09,-0.0015070033357511,0.0015070038740487,-0.0015959403482903,0.0015959395666352,-0.0015959367640407,0.0015959432307752,-0.0015959426002562,0.0015959372371026,-0.0015959390167712,0.0015959409019497,-0.0013332680284246,0.0013332554017509,-0.0013332573189266,0.0013332663479507,-0.0015064364361218,0.0015064474941693,-0.0015064432711121,0.0015064404983804,-6.2916229016925e-09,6.091902183717e-09,-0.00079367309214731,0.00079367286715615,5.282162725356e-09,-5.6731159375874e-09,-0.00093147902936736,0.00093147836210629,-0.00093148267092508,0.00093147470670284,-0.0009314749080941,0.00093148249760583,-0.00093147855059179,0.00093147884417422,-0.00091135233540813,0.00091136058912695,-0.00091136443238914,0.00091134845082668,0.63260003357263,125803,2834,0.0062579587001022,0.0062579587377713,0.0033061225095051,15.414678939979,-0.00011668256848017,-0.00011668256848017,-0.00011668256848017,3457147.0118069,0.015948689097146
23219200,0.99010026022123,0.016146493355162,0.006140271411417,0.0061402714521166,0.0038659504916285,-0.0015074609166444,0.0015074603825129,5.949397598399e-09,-6.4971798382628e-09,-3.7351151887949e-09,3.274930727526e-09,-0.0015964311896125,0.0015964324901522,-0.0015964353341899,0.0015964283377372,-0.0015964289244915,0.0015964348217263,-0.001596433076754,0.0015964306771064,-0.001333655169147,0.0013336691636394,-0.0013336673663459,0.0013336569659543,3.7337554962737e-09,-3.2650249885531e-09,-5.2491788580295e-09,5.7921484026988e-09,-0.0015074603900239,0.0015074609268376,-0.0015964322527403,0.0015964314698971,-0.001596428660842,0.0015964351417683,-0.0015964345127043,0.0015964291322119,-0.0015964309215355,0.0015964328049337,-0.0013336684430912,0.0013336557842325,-0.0013336577109153,0.001333666753786,-0.00150689027999,0.0015069013680608,-0.0015068971409975,0.0015068943508079,-6.3535657246573e-09,6.1532280926938e-09,-0.00079402281672313,0.00079402259089968,5.292837903494e-09,-5.6850165128207e-09,-0.00093182096988629,0.00093182026818389,-0.00093182461898909,0.00093181660528011,-0.00093181680746236,0.00093182444477772,-0.00093182045748395,0.00093182078396084,-0.0009117601727485,0.00091176853908565,-0.0009117723909246,0.00091175628104783,0.65900010353493,125803,2834,0.0062598505006718,0.0062598505373065,0.0033075768015712,15.525704698245,-0.00011579436241404,-0.00011579436241404,-0.00011579436241404,3464415.1510688,0.015954010196305
23419200,0.99029778921626,0.016149444500082,0.0061413946339619,0.0061413946746623,0.0038666551914583,-0.001508088837807,0.0015080883052828,6.0122357465602e-09,-6.5577183859106e-09,-3.7503890678354e-09,3.2901144163807e-09,-0.0015970710898595,0.0015970724238033,-0.0015970752757597,0.0015970682301104,-0.0015970688146832,0.0015970747654448,-0.0015970730083187,0.0015970705794714,-0.0013342585933947,0.0013342727221432,-0.0013342709110237,0.0013342604034152,3.7491488478409e-09,-3.2828947775092e-09,-5.2576446481424e-09,5.7986181706952e-09,-0.0015080883126871,0.0015080888471588,-0.0015970721685945,0.0015970713894489,-0.0015970685719856,0.0015970750664689,-0.0015970744395053,0.0015970690406658,-0.0015970708435051,0.0015970727182917,-0.0013342719483971,0.0013342592620437,-0.0013342612021514,0.0013342702468567,-0.0015075184365315,0.0015075295602126,-0.0015075253344657,0.0015075225141904,-6.4130300875193e-09,6.2124944047663e-09,-0.00079447523038219,0.00079447500409258,5.3005872164931e-09,-5.6936517716417e-09,-0.00093233513162443,0.00093233439525412,-0.00093233878609617,0.00093233072699732,-0.00093233092950108,0.00093233861142154,-0.00093233458496559,0.0009323349451294,-0.00091226244703825,0.00091227092407732,-0.00091227478251633,0.00091225855138949,0.65256368780329,125803,2834,0.0062624483809642,0.0062624484156389,0.0033094612546614,15.704335183332,-0.00011436531853334,-0.00011436531853334,-0.00011436531853334,3466526.8905986,0.015961203835028
23619200,0.99049782419341,0.016152502305166,0.0061425560335161,0.0061425560742229,0.0038673901974265,-0.0015093739461228,0.0015093734137423,6.0715717672384e-09,-6.6146725552939e-09,-3.7630840791292e-09,3.2979114612451e-09,-0.001598371230092,0.0015983725979606,-0.0015983754547854,0.0015983683648347,-0.0015983689483122,0.0015983749461976,-0.0015983731807874,0.0015983707212227,-0.0013355006584948,0.0013355149132876,-0.0013355130884072,0.0013355024794306,3.7565870861961e-09,-3.2908358448772e-09,-5.2723028199545e-09,5.8136858495792e-09,-0.0015093734201222,0.0015093739540045,-0.0015983723305925,0.0015983715459293,-0.0015983687241391,0.0015983752324683,-0.0015983746064451,0.0015983691915967,-0.0015983710008907,0.0015983728794171,-0.0013355140942986,0.0013355013742469,-0.0013355033197468,0.0013355123891645,-0.001508810132442,0.0015088212803859,-0.0015088170568614,0.0015088142302915,-6.4761687087439e-09,6.275139699672e-09,-0.00079550858646088,0.00079550835902845,5.3129640269268e-09,-5.7083262681952e-09,-0.00093344678508415,0.00093344601438602,-0.00093345044846245,0.00093344233726947,-0.00093344254051609,0.00093345027240251,-0.00093344620518411,0.00093344659767139,-0.00091338464867643,0.00091339323941436,-0.00091339711016328,0.00091338074807637,0.66669034410808,125803,2834,0.0062677665327802,0.0062677665622954,0.0033137607478685,16.218740228471,-0.00011025007817223,-0.00011025007817223,-0.00011025007817223,3474628.3632487,0.015976378637382
23819200,0.99070033610465,0.016155766370965,0.0061437905688021,0.0061437906095299,0.0038681851926329,-0.0015107118162418,0.0015107112864536,6.1333500861885e-09,-6.676019175785e-09,-3.7690825074695e-09,3.3113076629415e-09,-0.0015997129714852,0.0015997143749038,-0.0015997172371326,0.0015997101013235,-0.0015997106832013,0.0015997167297589,-0.0015997149565829,0.0015997124639825,-0.0013368138589356,0.0013368282384612,-0.0013368264102703,0.0013368156845949,3.7663699153374e-09,-3.3028933785769e-09,-5.2827382889479e-09,5.8211826487703e-09,-0.0015107112936467,0.0015107118254634,-0.0015997140882936,0.0015997133030255,-0.0015997104760895,0.0015997169959912,-0.0015997163714659,0.0015997109417808,-0.0015997127598094,0.0015997146353762,-0.0013368273696015,0.0013368146217939,-0.0013368165764915,0.0013368256532986,-0.0015101589728921,0.0015101701462039,-0.0015101659075147,0.0015101630635084,-6.5362637271211e-09,6.3342591627306e-09,-0.00079655432178755,0.00079655409388992,5.3223988324206e-09,-5.717571963126e-09,-0.0009346093582907,0.00093460855395906,-0.00093461302799145,0.00093460487042413,-0.00093460507447999,0.00093461285181049,-0.00093460874515784,0.00093460917029981,-0.0009145186780374,0.0009145273781558,-0.00091453125301921,0.00091451476573954,0.70079154883031,125803,2834,0.0062733022347009,0.0062733022686706,0.0033181139524457,16.741333799086,-0.00010606932960731,-0.00010606932960731,-0.00010606932960731,3479573.3713769,0.015992050687176
24019200,0.99090518485876,0.016159106871109,0.0061450534938845,0.0061450535346185,0.003868999842606,-0.001512103861133,0.001512103333444,6.194846606512e-09,-6.7359830176955e-09,-3.7779567413678e-09,3.3238553960287e-09,-0.0016010820632529,0.001601083501566,-0.0016010863692297,0.0016010791875759,-0.0016010797679129,0.0016010858636423,-0.0016010840816704,0.0016010815575023,-0.001338219262645,0.0013382337690725,-0.0013382319340039,0.0013382210966687,3.7764137235647e-09,-3.3148870265158e-09,-5.2879933000125e-09,5.8244562678959e-09,-0.0015121033408781,0.0015121038709312,-0.0016010831955654,0.0016010824130924,-0.0016010795803626,0.0016010861087482,-0.0016010854859249,0.0016010800445171,-0.0016010818714455,0.0016010837409787,-0.0013382328455353,0.0013382200799804,-0.0013382220441755,0.0013382311198389,-0.0015115652226365,0.0015115764185983,-0.0015115721761853,0.0015115693115975,-6.5968954713216e-09,6.3943975937781e-09,-0.00079757853111055,0.00079757830295884,5.3269709854375e-09,-5.7221152553362e-09,-0.00093583057298404,0.00093582973120223,-0.00093583424574894,0.00093582604458262,-0.0009358262489944,0.00093583406936287,-0.00093582992272506,0.0009358303847962,-0.00091562296486658,0.0009156317794129,-0.0009156356572336,0.00091561904776948,0.70866200595561,125803,2834,0.0062790604552561,0.0062790604909161,0.0033223822508193,17.264238300383,-0.00010188609359693,-0.00010188609359693,-0.00010188609359693,3477534.4826756,0.016008089665925
24219200,0.99111099142826,0.016162319192525,0.0061462730605119,0.0061462731012469,0.0038697730307667,-0.0015133103624848,0.0015133098391304,6.2577720220073e-09,-6.7968744958556e-09,-3.7838389984336e-09,3.3412292968561e-09,-0.0016022650789952,0.0016022665513353,-0.0016022694251483,0.0016022621974456,-0.0016022627759709,0.0016022689215348,-0.0016022671299299,0.0016022645751612,-0.0013394421930191,0.0013394568259343,-0.0013394549860174,0.0013394440351248,3.789648599719e-09,-3.3312810250443e-09,-5.2853599891529e-09,5.8177320448126e-09,-0.0015133098480897,0.0015133103753502,-0.0016022662202915,0.0016022654479902,-0.001602262607498,0.0016022691407484,-0.0016022685204296,0.0016022630698965,-0.0016022649085418,0.0016022667632835,-0.0013394558428786,0.0013394430719228,-0.0013394450486306,0.0013394541014891,-0.0015127789005793,0.0015127901188564,-0.0015127858663888,0.001512782966179,-6.6567351550241e-09,6.453261425499e-09,-0.00079841871667729,0.00079841848868544,5.3231409175133e-09,-5.7169356708548e-09,-0.00093687783620518,0.00093687695204544,-0.00093688150591793,0.00093687326831339,-0.00093687347273239,0.0009368813302895,-0.0009368771432853,0.00093687764838454,-0.00091653408716775,0.00091654302039594,-0.00091654689377825,0.00091653016666699,0.68010063340817,125803,2834,0.0062840501937469,0.0062840502389004,0.0033258866763246,17.692143361809,-9.8462853105531e-05,-9.8462853105531e-05,-9.8462853105531e-05,3473360.426626,0.016021791293339
24419200,0.99131460482904,0.016165494068232,0.0061474786091575,0.0061474786498701,0.0038705368092044,-0.0015140058682304,0.0015140053452397,6.3184514435867e-09,-6.8553206524245e-09,-3.8045405200751e-09,3.3562423802168e-09,-0.0016029633412259,0.0016029648453026,-0.0016029677280953,0.0016029604505382,-0.0016029610264945,0.0016029672270915,-0.0016029654211485,0.0016029628400959,-0.0013401230130779,0.0013401377807653,-0.0013401359227483,0.0013401248706399,3.8042631209612e-09,-3.347798071464e-09,-5.2651380926517e-09,5.7967781715273e-09,-0.0015140053528317,0.001514005878173,-0.0016029644902748,0.0016029637399963,-0.0016029608915844,0.0016029674187793,-0.0016029668005883,0.0016029613512038,-0.0016029632026843,0.0016029650307703,-0.0013401367142401,0.0013401239732753,-0.0013401259619916,0.0013401349631895,-0.0015134763155733,0.0015134875496281,-0.0015134833268302,0.0015134803806155,-6.7166490638487e-09,6.5160585695306e-09,-0.00079886192577383,0.00079886169971567,5.3032828745912e-09,-5.6958436032673e-09,-0.00093743632924289,0.00093743539233042,-0.00093743998535118,0.00093743172233801,-0.00093743192476716,0.0009374398110764,-0.00093743558181857,0.00093743614305725,-0.00091704084953152,0.00091704991894088,-0.00091705377748738,0.00091703694987746,0.67934589637979,125803,2834,0.0062869262533701,0.0062869262896541,0.003327736884417,17.88472110954,-9.6922231123684e-05,-9.6922231123684e-05,-9.6922231123684e-05,3472230.3528001,0.016029516228567
24619200,0.99151591454601,0.01616878133561,0.0061487219176903,0.0061487219584039,0.0038713374595162,-0.0015146888296301,0.0015146883091526,6.3795582851088e-09,-6.9139076659844e-09,-3.8169844216872e-09,3.3718526656862e-09,-0.0016036466783406,0.0016036482152139,-0.0016036511053431,0.0016036437807517,-0.0016036443543633,0.0016036506063856,-0.0016036487890443,0.0016036461795822,-0.0013407933762194,0.0013408082726993,-0.0013408064037167,0.0013407952460033,3.8161761989661e-09,-3.3622494571918e-09,-5.2433736231036e-09,5.7726526323253e-09,-0.0015146883170218,0.0015146888401123,-0.0016036478325531,0.0016036471040848,-0.001603644249203,0.001603650767842,-0.0016036501516911,0.0016036447067153,-0.0016036465687667,0.0016036483708924,-0.0013408071258431,0.0013407944186618,-0.0013407964184616,0.0013408053635826,-0.0015141678006105,0.0015141790426956,-0.0015141748365466,0.0015141718469081,-6.7768825538433e-09,6.5783043609644e-09,-0.00079930203569216,0.00079930181167445,5.2816465165781e-09,-5.6716740605779e-09,-0.00093797786824695,0.00093797687723873,-0.00093798150906765,0.00093797322244964,-0.00093797342304078,0.00093798133678364,-0.00093797706477113,0.0009379776839757,-0.00091754715707654,0.00091755636333213,-0.00091756020539916,0.00091754327493409,0.70944458295841,125803,2834,0.0062897506459266,0.0062897506838986,0.0033295735413988,18.071544159691,-9.5427646722471e-05,-9.5427646722471e-05,-9.5427646722471e-05,3471339.1921199,0.016037122270314
24819200,0.99171488444138,0.016171794851026,0.0061498695683342,0.0061498696090455,0.0038720556736465,-0.0015153972816943,0.0015153967623445,6.4408300125349e-09,-6.9738861243307e-09,-3.825772963615e-09,3.3811763829119e-09,-0.0016043363727203,0.0016043379454312,-0.0016043408400439,0.001604333470409,-0.0016043340428518,0.0016043403426112,-0.0016043385178606,0.0016043358752841,-0.00134151817791,0.0013415332008829,-0.0013415313235462,0.0013415200547352,3.8249540269271e-09,-3.3722933594854e-09,-5.2202610056479e-09,5.7484173038781e-09,-0.0015153967699507,0.001515397291746,-0.0016043375351292,0.0016043368272284,-0.0016043339671333,0.0016043404749076,-0.0016043398603513,0.0016043344233954,-0.001604336293058,0.0016043380718047,-0.0013415319707817,0.0013415193028362,-0.0013415213094858,0.0013415302009028,-0.0015148789417667,0.0015148901855599,-0.0015148859978077,0.0015148829724701,-6.8365210556034e-09,6.6395278354822e-09,-0.00079971320653625,0.00079971298408563,5.2586726472118e-09,-5.6470653724851e-09,-0.00093855761606699,0.00093855657044361,-0.00093856124106695,0.00093855293151483,-0.00093855313048349,0.00093856107029546,-0.00093855675643615,0.0009385574333769,-0.00091800549132333,0.00091801483342681,-0.000918018657689,0.00091800162684299,0.66112227366018,125803,2834,0.0062926793037215,0.0062926793402599,0.0033312931661459,18.258148588832,-9.3934811289342e-05,-9.3934811289342e-05,-9.3934811289342e-05,3464963.9051305,0.016044822143349
25019200,0.99191374925617,0.01617477115667,0.0061510039810071,0.0061510040217193,0.0038727631539436,-0.0015163949072247,0.0015163943873507,6.4997982192143e-09,-7.0324970112789e-09,-3.8256178506477e-09,3.3787144995325e-09,-0.0016053549742048,0.00160535658705,-0.0016053594807881,0.0016053520726102,-0.0016053526452898,0.0016053589831571,-0.0016053571595246,0.0016053544765756,-0.0013424644621293,0.0013424796009415,-0.0013424777220845,0.0013424663392202,3.8221131699486e-09,-3.3688014737037e-09,-5.2040756022425e-09,5.7331238869933e-09,-0.0015163943945892,0.0015163949169297,-0.0016053561529587,0.0016053554539303,-0.001605352595269,0.001605359090878,-0.0016053584760635,0.0016053530519039,-0.001605354919221,0.0016053566899199,-0.0013424782965899,0.001342465662656,-0.0013424676661068,0.0013424765299493,-0.0015158766365911,0.001515887864295,-0.0015158836904286,0.0015158806611996,-6.898262121824e-09,6.7023833874647e-09,-0.00080046046131323,0.00080046023986242,5.2426429940979e-09,-5.6302413507534e-09,-0.00093937843525496,0.00093937733817156,-0.00093938204933496,0.00093937371021762,-0.00093937390802602,0.0009393818794997,-0.00093937752303047,0.00093937825363019,-0.00091884007994918,0.0009188495562178,-0.00091885336953791,0.00091883622926004,0.65362537273316,125803,2834,0.0062968069250061,0.0062968069600665,0.0033344043228171,18.629549630948,-9.0963602952419e-05,-9.0963602952419e-05,-9.0963602952419e-05,3471486.5567393,0.016056371256014
25219200,0.99211571229734,0.016177896936497,0.0061521917156953,0.006152191756413,0.0038735134643887,-0.0015179227756916,0.0015179222513985,6.5614715627242e-09,-7.0958918985498e-09,-3.8172459642855e-09,3.3583927568183e-09,-0.0016069082808499,0.0016069099435922,-0.0016069128296555,0.0016069053867769,-0.0016069059614779,0.0016069123300387,-0.0016069105178793,0.0016069077810077,-0.0013439271187595,0.0013439423729036,-0.0013439404993528,0.0013439289867824,3.8113143277282e-09,-3.3552010181089e-09,-5.1969144377409e-09,5.7297062491829e-09,-0.0015179222575166,0.0015179227822474,-0.0016069094888207,0.0016069087872391,-0.0016069059350633,0.0016069124207891,-0.0016069118039592,0.0016069063932744,-0.0016069082507839,0.0016069100276084,-0.0013439409998467,0.0013439283884283,-0.0013439303807796,0.001343939246213,-0.001517410524317,0.0015174217272274,-0.0015174175700981,0.0015174145632379,-6.956033728192e-09,6.7616127796062e-09,-0.00080168332446635,0.00080168310345488,5.2380519998275e-09,-5.6264411775327e-09,-0.00094068068420093,0.00094067954514293,-0.0009406842952755,0.00094067592036243,-0.00094067611728227,0.00094068412546133,-0.00094067972972749,0.00094068050287991,-0.00092017847690562,0.00092018807205153,-0.00092019188423362,0.00092017463640193,0.67454673373919,125803,2834,0.0063031294921956,0.0063031295184291,0.0033394919657658,19.270297267648,-8.5837621858813e-05,-8.5837621858813e-05,-8.5837621858813e-05,3483171.7756865,0.016074389218623
25419200,0.99232065656739,0.016181335307414,0.0061534898303104,0.006153489871056,0.0038743556060474,-0.0015195151232514,0.0015195145988029,6.6195474300757e-09,-7.156670005585e-09,-3.8010561639904e-09,3.3483404178516e-09,-0.0016085074504759,0.0016085091588986,-0.0016085120385477,0.0016085045630673,-0.0016085051395873,0.0016085115367945,-0.0016085097352618,0.0016085069486874,-0.0013454827015674,0.0013454980571687,-0.0013454962002964,0.0013454845557339,3.7980299322044e-09,-3.340406251364e-09,-5.1927662263621e-09,5.7258586042e-09,-0.0015195146059169,0.0015195151321974,-0.0016085086811754,0.0016085079747293,-0.0016085051298087,0.0016085116057032,-0.0016085109870889,0.0016085055903719,-0.0016085074363137,0.0016085092220741,-0.001345496623935,0.0013454840296059,-0.0013454860117271,0.0013454948786419,-0.0015190183143873,0.0015190294885258,-0.001519025318683,0.0015190223393322,-7.0179958713269e-09,6.8232774758215e-09,-0.00080292097389878,0.00080292075329542,5.2344475540291e-09,-5.6212510365521e-09,-0.00094204913560917,0.00094204795322597,-0.00094205274396472,0.00094204433106247,-0.00094204452811478,0.00094205257474317,-0.00094204813745636,0.00094204895462968,-0.00092153027419611,0.00092153999257863,-0.000921543799047,0.00092152643108423,0.72789189706617,125803,2834,0.0063097178412921,0.0063097178745281,0.0033446440716564,19.917656735168,-8.0658746118653e-05,-8.0658746118653e-05,-8.0658746118653e-05,3490023.6133568,0.016093013657299
25619200,0.99252836658778,0.016184841959259,0.0061548140493846,0.0061548140901375,0.0038752138197374,-0.0015211868708441,0.0015211863452466,6.6797084114343e-09,-7.2185409965864e-09,-3.7889855859147e-09,3.3366572282944e-09,-0.0016101449154095,0.0016101466704767,-0.0016101495440312,0.0016101420341977,-0.0016101426122966,0.0016101490405248,-0.0016101472485475,0.0016101444119257,-0.0013471764162157,0.0013471918809708,-0.0013471900353216,0.001347178260773,3.7874255640429e-09,-3.3282422755859e-09,-5.1882594133352e-09,5.7225980290032e-09,-0.0015211863527036,0.0015211868805198,-0.0016101461703426,0.0016101454605206,-0.0016101426213972,0.0016101490888619,-0.0016101484687565,0.0016101430837985,-0.0016101449204953,0.0016101467128883,-0.0013471903852579,0.0013471778072015,-0.0013471797805118,0.0013471886484566,-0.0015207097928472,0.0015207209434316,-0.0015207167712093,0.0015207138132154,-7.0781797941038e-09,6.8833893079757e-09,-0.0008041257736664,0.00080412555333164,5.2310066485306e-09,-5.6171334937005e-09,-0.00094350957602282,0.00094350835135494,-0.0009435131818672,0.00094350473166909,-0.00094350492848524,0.00094351301305426,-0.00094350853529402,0.00094350939537955,-0.00092283468452657,0.00092284452305789,-0.00092284832658789,0.00092283084250665,0.73243473512014,125803,2834,0.0063166321853896,0.0063166322208426,0.0033496666767943,20.565258263837,-7.5477933889305e-05,-7.5477933889305e-05,-7.5477933889305e-05,3486105.1742821,0.016112170620688
25819200,0.99273345860131,0.016188211206439,0.0061560899162692,0.0061560899570232,0.0038760313331463,-0.0015220486441698,0.0015220481211894,6.7390227298932e-09,-7.2788553168488e-09,-3.7851748712706e-09,3.343983403073e-09,-0.0016109769024202,0.0016109786954473,-0.0016109815702083,0.0016109740201958,-0.0016109745979557,0.0016109810671484,-0.0016109792735385,0.0016109763994207,-0.0013480668701596,0.0013480824474853,-0.0013480806093357,0.0013480687119782,3.7911913085903e-09,-3.3336220315151e-09,-5.1719881110787e-09,5.7033427090452e-09,-0.0015220481301521,0.0015220486566459,-0.0016109781663577,0.0016109774702087,-0.0016109746284801,0.0016109810866977,-0.0016109804676626,0.0016109750908825,-0.0016109769308161,0.0016109787081455,-0.0013480808799289,0.0013480683301942,-0.0013480703088466,0.0013480791353839,-0.0015215810656765,0.0015215922120494,-0.0015215880345572,0.0015215850553231,-7.1393819163617e-09,6.9450426333619e-09,-0.00080460971799672,0.00080460949918893,5.2128067829928e-09,-5.5955690223213e-09,-0.00094422163700549,0.00094422035992906,-0.00094422522975093,0.00094421675315202,-0.00094421694908396,0.00094422506271755,-0.00094422054261015,0.00094422145782137,-0.00092338339731776,0.00092339336952553,-0.00092339715472042,0.00092337956153702,0.71386317782824,125803,2834,0.0063201939094706,0.0063201939538272,0.0033516928612345,20.804777484504,-7.3561780123967e-05,-7.3561780123967e-05,-7.3561780123967e-05,3476459.6151037,0.0161214695595
26019200,0.99293138993066,0.016191332850363,0.0061572762664393,0.0061572763071709,0.0038767802767523,-0.0015221351066236,0.0015221345871278,6.8012912956313e-09,-7.3387811355092e-09,-3.7981775767528e-09,3.3637653010437e-09,-0.0016110520334147,0.0016110538584802,-0.0016110567418312,0.0016110491428361,-0.001611049718214,0.0016110562410962,-0.0016110544342501,0.0016110515330184,-0.0013481654995246,0.0013481812081131,-0.0013481793589323,0.0013481673536412,3.8028432953359e-09,-3.3477403123966e-09,-5.1413512386548e-09,5.6699823580156e-09,-0.0015221345963629,0.0015221351206735,-0.0016110532983968,0.00161105263004,-0.0016110497814306,0.0016110562249789,-0.0016110556081953,0.0016110502420539,-0.0016110520922861,0.0016110538380115,-0.0013481795494293,0.0013481670511445,-0.0013481690398916,0.0013481777926364,-0.001521667453227,0.0015216786009325,-0.0015216744400779,0.0015216714117937,-7.1986674258355e-09,7.0057585287977e-09,-0.00080445802565175,0.00080445780881818,5.1849582154698e-09,-5.5648300804475e-09,-0.00094420913111002,0.00094420779676338,-0.00094421270449811,0.00094420420926214,-0.00094420440350958,0.00094421253953926,-0.00094420797734944,0.00094420895392855,-0.00092326764245239,0.00092327775304501,-0.00092328151582933,0.00092326382469613,0.68688290361422,125803,2834,0.0063205479077908,0.0063205479559625,0.00335107309812,20.675851049939,-7.4593191600487e-05,-7.4593191600487e-05,-7.4593191600487e-05,3466250.6858919,0.01612156015777
26219200,0.99312234317026,0.01619452441455,0.0061584827083269,0.0061584827490309,0.0038775589571925,-0.0015221574020297,0.00152215688156,6.8629871294541e-09,-7.3976154005745e-09,-3.815551614929e-09,3.3705947281741e-09,-0.0016110796957909,0.0016110815559553,-0.0016110844451861,0.0016110767992368,-0.0016110773728247,0.0016110839462992,-0.0016110821297194,0.0016110791971411,-0.0013481728432545,0.0013481886861286,-0.0013481868180391,0.0013481747112858,3.814801444905e-09,-3.3607023360575e-09,-5.1152307383542e-09,5.6445103346794e-09,-0.0015221568892545,0.0015221574123812,-0.0016110809703505,0.0016110803258159,-0.0016110774709009,0.001611083903614,-0.001611083288421,0.0016110779292023,-0.0016110797897377,0.0016110815078411,-0.0013481869398622,0.0013481744849885,-0.0013481764820711,0.0013481851768899,-0.0015216953539437,0.0015217065081754,-0.0015217023866462,0.0015216993146098,-7.2577555061116e-09,7.0680027188686e-09,-0.00080431397124134,0.00080431375634535,5.1592811466256e-09,-5.5386358174602e-09,-0.00094412280926304,0.00094412141850253,-0.00094412636513744,0.00094411784871768,-0.00094411804043191,0.00094412620163679,-0.00094412159715818,0.00094412263384957,-0.00092317090679475,0.00092318115677189,-0.00092318490381743,0.0009231671177205,0.7252465985479,125803,2834,0.0063206379316412,0.0063206379689798,0.0033504806808208,20.537821348842,-7.5697429209263e-05,-7.5697429209263e-05,-7.5697429209263e-05,3461840.2416973,0.016121141116393
26419200,0.99330660029828,0.01619769290249,0.0061596778067045,0.0061596778474092,0.0038783372483764,-0.0015222231346694,0.0015222226155679,6.924290841609e-09,-7.457227177358e-09,-3.824709643687e-09,3.3807853532105e-09,-0.0016111206662154,0.0016111225617033,-0.0016111254559612,0.0016111177646794,-0.0016111183368957,0.0016111249585002,-0.0016111231341235,0.0016111201689859,-0.001348270389528,0.0013482863592673,-0.0013482844825908,0.001348272265964,3.8240271318313e-09,-3.3715485306247e-09,-5.0940375908778e-09,5.6219037796067e-09,-0.0015222226233258,0.0015222231449334,-0.0016111219488159,0.0016111213239364,-0.0016111184637934,0.0016111248871352,-0.0016111242734947,0.0016111189206432,-0.0016111207892185,0.00161112248463,-0.0013482845324736,0.0013482721125995,-0.0013482741175963,0.0013482827614887,-0.0015217719246909,0.0015217830825859,-0.0015217789782709,0.0015217758704049,-7.3175735520416e-09,7.129382780544e-09,-0.00080415630327478,0.0008041560898847,5.1378260877504e-09,-5.5155040024742e-09,-0.00094409696552233,0.00094409552091519,-0.00094410050652615,0.00094409196600419,-0.00094409215623134,0.00094410034446764,-0.00094409569814224,0.00094409679155324,-0.00092304168768608,0.00092305207257342,-0.00092305580380922,0.00092303791580307,0.74502754238585,125803,2834,0.0063209063339826,0.0063209063712714,0.003349835482198,20.399444967675,-7.6804440258599e-05,-7.6804440258599e-05,-7.6804440258599e-05,3450434.0431008,0.016121031808566
26619200,0.99348848006705,0.016200791920565,0.0061608476954587,0.0061608477361648,0.0038790964889417,-0.0015230271489768,0.0015230266286866,6.9853170109485e-09,-7.5184331269112e-09,-3.8208340402604e-09,3.3736064553444e-09,-0.0016118858980556,0.001611887837442,-0.001611890728702,0.0016118829994803,-0.0016118835724051,0.0016118902304528,-0.0016118884105033,0.0016118854000432,-0.001349111829876,0.0013491279167465,-0.0013491260419732,0.0013491137033102,3.8185876608858e-09,-3.3649742872346e-09,-5.0925043867388e-09,5.6217818528498e-09,-0.0015230266361062,0.0015230271587278,-0.001611887204501,0.0016118865771632,-0.0016118837201464,0.0016118901397898,-0.0016118895252694,0.0016118841777816,-0.0016118860416079,0.0016118877412154,-0.0013491260285519,0.001349113615749,-0.0013491156156236,0.0013491242633294,-0.0015225911386903,0.0015226022852651,-0.0015225981851905,0.0015225950894703,-7.3775524709851e-09,7.1893393515295e-09,-0.00080461385447117,0.00080461364079814,5.137756888846e-09,-5.5161245842383e-09,-0.00094475794289193,0.00094475645813686,-0.00094476148405412,0.00094475290310682,-0.00094475309347738,0.00094476132165756,-0.00094475663561038,0.00094475776866647,-0.00092355870733118,0.00092356920941355,-0.00092357294235942,0.00092355493746282,0.73848438795821,125803,2834,0.0063242294222962,0.0063242294578237,0.0033517505473708,20.629672165615,-7.4962622675077e-05,-7.4962622675077e-05,-7.4962622675077e-05,3441609.1352173,0.016129732549661
26819200,0.99367017831207,0.016203811566311,0.0061619901611223,0.0061619902018338,0.0038798312033551,-0.001524216175838,0.0015242156543516,7.0439231135723e-09,-7.5787346453883e-09,-3.80685166653e-09,3.3602192037275e-09,-0.0016130477521223,0.0016130497379372,-0.0016130526221993,0.001613044860625,-0.001613045435403,0.0016130521219201,-0.0016130503129762,0.0016130472521283,-0.0013503165154137,0.0013503327073022,-0.0013503308449851,0.0013503183780366,3.8065304445196e-09,-3.3511104751141e-09,-5.1053747549862e-09,5.6359913457816e-09,-0.0015242156622346,0.0015242161865952,-0.001613049088665,0.0016130484455574,-0.0016130455952583,0.0016130520172561,-0.001613051400895,0.0016130460549134,-0.001613047908261,0.0016130496274226,-0.0013503307757271,0.0013503183460685,-0.0013503203364925,0.0013503290203085,-0.0015237908167982,0.0015238019486626,-0.0015237978342653,0.0015237947750618,-7.4400382956469e-09,7.2503571964469e-09,-0.00080541603360782,0.00080541581877337,5.1491158127431e-09,-5.5284538948133e-09,-0.00094576876495762,0.00094576724592324,-0.00094577231403346,0.00094576368294057,-0.00094576387451141,0.00094577215065852,-0.00094576742452239,0.00094576858967289,-0.00092444426149907,0.0009244548749597,-0.0009244586171815,0.00092444048137286,0.7212190393471,125803,2834,0.0063291461245062,0.0063291461630716,0.003355097941675,21.064153658592,-7.1486770731267e-05,-7.1486770731267e-05,-7.1486770731267e-05,3438197.3871604,0.016143127473962
27019200,0.99385159664501,0.016206742634451,0.0061631019612915,0.0061631020020022,0.0038805386711576,-0.0015253854748324,0.0015253849510999,7.1038088793385e-09,-7.6411475016007e-09,-3.7959684230645e-09,3.346729703999e-09,-0.001614209001307,0.0016142110341976,-0.0016142139121062,0.0016142061159436,-0.0016142066926255,0.0016142134100614,-0.0016142116109374,0.0016142084993985,-0.001351475233308,0.001351491534357,-0.0013514896825418,0.0013514770847843,3.795058914967e-09,-3.3374485901786e-09,-5.1189334192769e-09,5.6515907970894e-09,-0.0015253849587024,0.0015253854850541,-0.0016142103696032,0.0016142097104598,-0.0016142068665961,0.0016142132917834,-0.0016142126735676,0.0016142073281558,-0.0016142091713775,0.0016142109103895,-0.0013514895559298,0.0013514771080834,-0.0013514790880048,0.0013514878108785,-0.001524964292747,0.0015249754115902,-0.0015249712853962,0.001524968262645,-7.5005937946863e-09,7.3097725771713e-09,-0.0008062297338189,0.00080622951773472,5.1641722971216e-09,-5.5449734285996e-09,-0.00094675239521708,0.00094675084538741,-0.00094675595485111,0.00094674727190657,-0.00094674746472367,0.00094675579014061,-0.00094675102529126,0.0009467522187027,-0.00092534839716905,0.00092535911639058,-0.00092536286924808,0.00092534460462063,0.70228504541404,125803,2834,0.0063339819026396,0.0063339819395194,0.0033584911120729,21.503727748658,-6.7970178010734e-05,-6.7970178010734e-05,-6.7970178010734e-05,3438911.5386089,0.016156404225355
27219200,0.99403257807266,0.016209576334955,0.0061641798826226,0.0061641799233344,0.0038812165289984,-0.0015265229803047,0.0015265224548262,7.1632611569946e-09,-7.7024281512836e-09,-3.78597027056e-09,3.3348599654348e-09,-0.001615356327185,0.0016153584059288,-0.0016153612782537,0.0016153534474252,-0.0016153540256469,0.0016153607744581,-0.001615358984256,0.0016153558235346,-0.0013525763265132,0.0013525927366758,-0.0013525908939075,0.0013525781688139,3.7850528197639e-09,-3.3257125036033e-09,-5.1340299340987e-09,5.6682876431115e-09,-0.0015265224624302,0.0015265229903986,-0.0016153577263991,0.0016153570511086,-0.0016153542130148,0.0016153606431611,-0.0016153600232433,0.001615354676064,-0.0016153565105803,0.0016153582688944,-0.0013525907145509,0.0013525782443506,-0.0013525802155058,0.0013525889784359,-0.0015261014446824,0.0015261125544584,-0.0015261084158747,0.0015261054268691,-7.5619273800516e-09,7.3700271508766e-09,-0.00080705056188079,0.0008070503446677,5.1791487530589e-09,-5.5612487585989e-09,-0.00094769774043469,0.00094769615937884,-0.00094770131046407,0.00094769257549123,-0.00094769276940589,0.00094770114463575,-0.00094769634034378,0.00094769756274808,-0.00092626519514543,0.00092627602186945,-0.00092627978605869,0.0009262613909181,0.68191771356481,125803,2834,0.0063386869919253,0.0063386870285447,0.0033619113749457,21.943496167836,-6.4452030657312e-05,-6.4452030657312e-05,-6.4452030657312e-05,3443522.9724415,0.016169442645503
27419200,0.99421154372341,0.016212466841676,0.006165276318352,0.006165276359065,0.0038819141642589,-0.0015273761509629,0.0015273756251231,7.2230935350389e-09,-7.7627980879647e-09,-3.783794658494e-09,3.3326033956656e-09,-0.0016162355199871,0.0016162376398591,-0.0016162405111349,0.0016162326413018,-0.0016162332198782,0.0016162400069011,-0.0016162382185879,0.0016162350159236,-0.0013533743800229,0.0013533909057365,-0.0013533890653765,0.0013533762202583,3.7826483133376e-09,-3.3229017958352e-09,-5.144575838686e-09,5.679164771694e-09,-0.0015273756327629,0.0015273761611239,-0.0016162369438111,0.0016162362601097,-0.0016162334234189,0.0016162398593722,-0.0016162392389501,0.0016162338868259,-0.0016162357192366,0.0016162374867989,-0.0013533888350949,0.0013533763458993,-0.0013533783151823,0.0013533871011993,-0.0015269546693698,0.0015269657815825,-0.001526961634723,0.0015269586585283,-7.6233842037753e-09,7.4306954267965e-09,-0.00080766322557874,0.00080766300759694,5.1893282770722e-09,-5.5722518196008e-09,-0.00094837157443459,0.00094836995898761,-0.0009483751515151,0.00094836636804967,-0.00094836656273387,0.00094837498496119,-0.00094837014069435,0.00094837139598745,-0.00092696993309431,0.00092698087148369,-0.00092698464330701,0.0009269661206839,0.70214877170018,125803,2834,0.0063422163591526,0.0063422163959851,0.0033644632932351,22.251880360009,-6.1984957119925e-05,-6.1984957119925e-05,-6.1984957119925e-05,3449960.26047,0.016179208735713
27619200,0.99438796796327,0.016215360423687,0.0061663725989401,0.0061663726396536,0.003882615185093,-0.0015281743102141,0.0015281737849158,7.2839042024324e-09,-7.8233131580355e-09,-3.7845134850638e-09,3.3347721103541e-09,-0.0016170422808776,0.0016170444402837,-0.0016170473122179,0.0016170394012916,-0.001617039979839,0.0016170468083232,-0.0016170450187913,0.0016170417770157,-0.0013541424158819,0.0013541590614508,-0.0013541572202668,0.0013541442569643,3.7841218313226e-09,-3.3245817164397e-09,-5.1532118237087e-09,5.6874965472191e-09,-0.0015281737926405,0.001528174320811,-0.0016170437264898,0.0016170430380247,-0.0016170402002751,0.0016170466427205,-0.0016170460225918,0.0016170406636184,-0.0016170424973182,0.0016170442693413,-0.0013541569397595,0.0013541444326524,-0.0013541464031049,0.0013541552042989,-0.0015277572029507,0.0015277683236427,-0.0015277641695959,0.0015277611954849,-7.6843731156201e-09,7.4906908745062e-09,-0.00080820057963415,0.00080820036081017,5.19749789177e-09,-5.581276278385e-09,-0.00094900598809168,0.00094900433728532,-0.00094900957093194,0.00094900074056055,-0.00094900093606461,0.0009490094036239,-0.00094900451981829,0.00094900580895961,-0.00092758798577621,0.00092759903569161,-0.00092760281376017,0.00092758416591004,0.71252805899011,125803,2834,0.0063455172968163,0.0063455173347246,0.0033667042185523,22.518923993707,-5.9848608050347e-05,-5.9848608050347e-05,-5.9848608050347e-05,3451404.471394,0.016188195103838
27819200,0.99456178149361,0.016218258983805,0.0061674693394764,0.006167469380188,0.0038833202641401,-0.001528981394649,0.0015289808695171,7.3446705114163e-09,-7.8835661595242e-09,-3.7876837370971e-09,3.3372389032893e-09,-0.0016178497229681,0.0016178519214036,-0.0016178547948159,0.0016178468420257,-0.0016178474200521,0.0016178542912851,-0.0016178524994944,0.0016178492195386,-0.0013549302177944,0.001354946984683,-0.0013549451405949,0.0013549320616981,3.786936710683e-09,-3.3279184000891e-09,-5.1613044706797e-09,5.6952551204941e-09,-0.0015289808771901,0.0015289814048842,-0.0016178511902259,0.0016178504980632,-0.001617847658989,0.001617854108225,-0.00161785348841,0.0016178481216636,-0.0016178499579171,0.0016178517326202,-0.0013549448114868,0.001354932286422,-0.0013549342596113,0.0013549430740555,-0.00152857184804,0.0015285829796087,-0.0015285788226961,0.0015285758474523,-7.7451271146956e-09,7.5511937828015e-09,-0.00080873286918927,0.00080873264994544,5.2049568894744e-09,-5.5893637461125e-09,-0.00094965535943296,0.00094965367289988,-0.0009496589474163,0.00094965007104954,-0.00094965026694028,0.00094965877965115,-0.00094965385582779,0.00094965517979639,-0.00092819964021014,0.00092821080338883,-0.0009282145875367,0.00092819581582659,0.72383355206363,125803,2834,0.0063488547102995,0.0063488547473528,0.0033689253790849,22.784916317456,-5.7720669460348e-05,-5.7720669460348e-05,-5.7720669460348e-05,3450704.2949376,0.01619723582654
28019200,0.99473292870977,0.016221164367096,0.0061685672071332,0.0061685672478451,0.0038840299121178,-0.0015297998834667,0.0015297993588586,7.4054106213182e-09,-7.9437070091448e-09,-3.7914128969974e-09,3.3412972401923e-09,-0.0016186603769683,0.0016186626137372,-0.001618665489115,0.0016186574940339,-0.0016186580714876,0.0016186649861928,-0.0016186631912368,0.0016186598741274,-0.0013557407149641,0.0013557576035809,-0.0013557557560548,0.0013557425620578,3.7905180319231e-09,-3.3321174990637e-09,-5.1684343846929e-09,5.7018441495384e-09,-0.0015297993664882,0.0015297998935933,-0.0016186618647582,0.001618661170039,-0.0016186583290417,0.0016186647847988,-0.0016186641655106,0.0016186587910424,-0.0016186606305141,0.001618662406571,-0.0013557553777188,0.0013557428361112,-0.0013557448124771,0.0013557536372897,-0.0015294002999127,0.001529411443119,-0.0015294072826827,0.0015294043037326,-7.8060402185923e-09,7.6116899302446e-09,-0.00080925975046305,0.00080925953074423,5.211460778434e-09,-5.596476391338e-09,-0.00095032102964498,0.00095031930670443,-0.00095032462215876,0.00095031570032043,-0.00095031589666145,0.00095032445393379,-0.00095031949008557,0.00095032084954022,-0.00092880473267063,0.00092881600970106,-0.00092881979885037,0.00092880090350328,0.73612508499627,125803,2834,0.0063522388200015,0.0063522388567405,0.003371125419677,23.050868332281,-5.5593053341753e-05,-5.5593053341753e-05,-5.5593053341753e-05,3447990.3787357,0.016206350294776
28219200,0.99490069574585,0.016224067081026,0.0061696625971339,0.0061696626378467,0.0038847418460449,-0.0015304993088389,0.0015304987858659,7.4660182835604e-09,-8.0035899388801e-09,-3.7955594992039e-09,3.3494548584532e-09,-0.0016193440288785,0.0016193463023884,-0.0016193491809385,0.0016193411427387,-0.0016193417193016,0.0016193486790682,-0.0016193468790113,0.0016193435270876,-0.0013564456151054,0.0013564626251561,-0.0013564607749115,0.0013564474662235,3.7962643954933e-09,-3.3391546474719e-09,-5.1723131418573e-09,5.7041411898139e-09,-0.0015304987938604,0.0015304993198267,-0.0016193455336165,0.0016193448400019,-0.0016193419956672,0.0016193484567838,-0.0016193478385329,0.001619342456852,-0.001619344301415,0.0016193460744986,-0.0013564603443153,0.0013564477906543,-0.0013564497727454,0.0013564585977376,-0.001530110619407,0.0015301217759742,-0.0015301176096803,0.0015301146193218,-7.8671638951804e-09,7.6724143438613e-09,-0.00080966562851994,0.00080966540866709,5.2142656685682e-09,-5.5990181733547e-09,-0.00095088203397103,0.00095088027212971,-0.00095088562831023,0.000950876663858,-0.00095087686049911,0.00095088546001331,-0.00095088045569669,0.00095088185376442,-0.00092928095723941,0.0009292923513007,-0.0009292961414638,0.00092927712396133,0.74948915973151,125803,2834,0.0063551296779872,0.0063551297172608,0.0033728236915891,23.250748703383,-5.3994010372932e-05,-5.3994010372932e-05,-5.3994010372932e-05,3442407.032484,0.016213952603108
28419200,0.99506499038776,0.016226968110252,0.0061707558218772,0.0061707558625858,0.0038854564257887,-0.0015311905385044,0.0015311900157693,7.5269351932965e-09,-8.0635384127895e-09,-3.8024583245083e-09,3.3545988467197e-09,-0.0016200103533817,0.0016200126644208,-0.0016200155461133,0.001620007464308,-0.0016200080398384,0.0016200150449494,-0.001620013240168,0.0016200098524036,-0.0013571547829748,0.0013571719175641,-0.0013571700606675,0.0013571566397733,3.8016762269891e-09,-3.3454581010443e-09,-5.1737351476069e-09,5.7050689018296e-09,-0.0015311900235195,0.0015311905486238,-0.001620011876553,0.0016200111851916,-0.0016200083381831,0.0016200148029646,-0.0016200141854134,0.0016200087980941,-0.0016200106475863,0.0016200124163926,-0.0013571695778549,0.001357157017705,-0.0013571590043036,0.0013571678274121,-0.001530814394387,0.0015308255625272,-0.0015308214005577,0.0015308183985047,-7.9276517028814e-09,7.7332495011537e-09,-0.00081004600518721,0.00081004578539545,5.2153656395402e-09,-5.600395150913e-09,-0.00095143844657113,0.00095143664514147,-0.00095144204169876,0.00095143303612693,-0.00095143323259937,0.00095144187341056,-0.00095143682854452,0.0009514382662659,-0.00092972948375106,0.00092974099606103,-0.00092974478775007,0.00092972565167231,0.76402415520642,125803,2834,0.0063579861143299,0.0063579861513031,0.0033744172561725,23.441379538274,-5.2468963693811e-05,-5.2468963693811e-05,-5.2468963693811e-05,3434864.8794745,0.016221378762581
28619200,0.9952258176346,0.016229827398407,0.0061718330235828,0.0061718330642921,0.0038861613105318,-0.0015318897646667,0.0015318892426843,7.5880358266553e-09,-8.1237746194382e-09,-3.8069047248503e-09,3.359688137363e-09,-0.0016206764606004,0.0016206788096247,-0.0016206816936443,0.0016206735690253,-0.0016206741439594,0.0016206811933598,-0.0016206793846141,0.0016206759603939,-0.0013578839695648,0.0013579012272523,-0.0013578993660426,0.0013578858303657,3.8061156797198e-09,-3.3505480687276e-09,-5.1740086643216e-09,5.70476719244e-09,-0.0015318892503381,0.0015318897747961,-0.0016206780016051,0.0016206773127395,-0.0016206744631096,0.0016206809303455,-0.0016206803135632,0.0016206749224184,-0.0016206767757643,0.0016206785407574,-0.0013578988278682,0.0013578862640304,-0.0013578882543189,0.0013578970735906,-0.0015315260324481,0.0015315372092368,-0.0015315330483645,0.0015315300360433,-7.9881708191468e-09,7.7936416338626e-09,-0.00081041202622746,0.00081041180631743,5.2155585339856e-09,-5.6007757407293e-09,-0.00095200459717751,0.00095200275548051,-0.00095200819250126,0.00095199914627318,-0.00095199934281799,0.0009520080241056,-0.00095200293904177,0.00095200441687547,-0.00093016133158861,0.00093017296185399,-0.00093017675386972,0.00093015749930834,0.76896078393291,125803,2834,0.0063608750824871,0.0063608751192812,0.0033759525845631,23.631762677264,-5.0945898581887e-05,-5.0945898581887e-05,-5.0945898581887e-05,3425594.5374891,0.01622881211438
28819200,0.99538320766307,0.016232552019082,0.0061728619120089,0.006172861952719,0.0038868281543543,-0.0015325841120782,0.0015325835905469,7.6486936431889e-09,-8.1839168797217e-09,-3.8100926569906e-09,3.3631837599859e-09,-0.0016213386095504,0.0016213409971382,-0.0016213438828646,0.0016213357162708,-0.0016213362907135,0.0016213433830891,-0.0016213415716325,0.0016213381098547,-0.0013586069321741,0.0013586243110288,-0.0013586224469337,0.0013586087957483,3.8091668772137e-09,-3.354123983374e-09,-5.1736476574325e-09,5.7039515880583e-09,-0.0015325835981642,0.0015325841221233,-0.0016213401688797,0.0016213394820957,-0.0016213366307789,0.0016213430993175,-0.0016213424830284,0.0016213370895607,-0.0016213389456091,0.0016213407075058,-0.0013586218517922,0.0013586092864598,-0.0013586112793873,0.0013586200948801,-0.0015322286036646,0.0015322397860711,-0.0015322356264414,0.0015322326066809,-8.0488473719296e-09,7.8544204291709e-09,-0.00081076846164291,0.00081076824181472,5.2149536053004e-09,-5.6001102478942e-09,-0.0009525648332642,0.00095256295070741,-0.0009525684281646,0.00095255934192862,-0.00095255953839069,0.00095256825984161,-0.00095256313418837,0.00095256465303467,-0.00093058287086853,0.00093059462050572,-0.00093059841206427,0.00093057903923673,0.74978433798065,125803,2834,0.0063637437400737,0.0063637437766184,0.003377448275145,23.824356833053,-4.9405145335579e-05,-4.9405145335579e-05,-4.9405145335579e-05,3416667.7118319,0.016236163956925
29019200,0.9955382951671,0.016235091181247,0.0061738253541303,0.0061738253948414,0.0038874404322752,-0.0015334794716541,0.001533478947288,7.7043129914677e-09,-8.2403219898784e-09,-3.8131072061923e-09,3.3569513247355e-09,-0.0016222205621713,0.0016222229889367,-0.0016222258748618,0.001622217670779,-0.0016222182443952,0.0016222253728592,-0.0016222235640268,0.0016222200612599,-0.0013594985663729,0.0013595160552309,-0.0013595141870916,0.0013595004307083,3.8069539839925e-09,-3.3520380123564e-09,-5.1793871199401e-09,5.7104976081407e-09,-0.0015334789546804,0.0015334794784902,-0.0016222221458294,0.0016222214536958,-0.0016222186060613,0.0016222250770815,-0.001622224459577,0.0016222190627285,-0.0016222209178671,0.0016222226838038,-0.0013595135461698,0.0013595009714,-0.0013595029614454,0.0013595117935343,-0.0015331259864964,0.0015331371691522,-0.001533133016286,0.0015331300053675,-8.1130300576861e-09,7.9204420264329e-09,-0.00081133663524601,0.00081133641629686,5.2157494767242e-09,-5.601013590783e-09,-0.00095330032767403,0.00095329840328132,-0.0009533039230883,0.00095329479434716,-0.0009532949896304,0.00095330375569772,-0.00095329858493098,0.00095330014727957,-0.0009312336675897,0.00093124554723077,-0.00093124934094053,0.00093122984246155,0.71130252672759,125803,2834,0.0063674452131894,0.0063674452426392,0.0033798216625789,24.140085108141,-4.6879319134871e-05,-4.6879319134871e-05,-4.6879319134871e-05,3414126.3372154,0.01624610007296
29219200,0.9956910338521,0.01623753178761,0.006174753271564,0.0061747533122895,0.0038880252037564,-0.0015343229062893,0.001534322383567,7.7696745600696e-09,-8.3055970035951e-09,-3.807060350449e-09,3.3573847278482e-09,-0.001623083155131,0.0016230856262027,-0.0016230885096046,0.0016230802641439,-0.0016230808392221,0.0016230880091324,-0.0016230862012894,0.0016230826546367,-0.0013602914471339,0.0013603090608807,-0.0013603071990076,0.0013602933074307,3.8051932168416e-09,-3.3492725111519e-09,-5.1792091768145e-09,5.710479461787e-09,-0.0015343223909498,0.0015343229156508,-0.001623084759767,0.0016230840668608,-0.0016230812179492,0.0016230876881397,-0.0016230870711026,0.0016230816772696,-0.0016230835298269,0.001623085299074,-0.0013603064880066,0.0013602939148292,-0.0013602959040442,0.0013603047354449,-0.0015339650324461,0.0015339762110381,-0.0015339720496641,0.0015339690434269,-8.1697484451691e-09,7.9752951462666e-09,-0.00081192865104663,0.00081192843087162,5.2212038003961e-09,-5.607063622909e-09,-0.00095397222215753,0.00095397026309474,-0.00095397582150415,0.00095396664999863,-0.00095396684667731,0.00095397565281864,-0.00095397044691693,0.00095397204161132,-0.00093191989453465,0.00093193187628919,-0.00093193567277619,0.00093191605972724,0.69516966428595,125803,2834,0.0063709336279238,0.006370933662571,0.0033822890838057,24.45881982811,-4.432944137512e-05,-4.432944137512e-05,-4.432944137512e-05,3419263.2821602,0.016255697911907
29419200,0.99584135216634,0.016239770528305,0.0061756099596078,0.0061756100003362,0.0038885505683608,-0.0015351351982161,0.001535134675358,7.8285852642704e-09,-8.3649448885579e-09,-3.8040751807615e-09,3.3551512497853e-09,-0.001623929813575,0.0016239323251923,-0.0016239352073846,0.001623926923943,-0.0016239274993544,0.001623934706358,-0.0016239329007243,0.001623929312688,-0.0013610325274894,0.0013610502544263,-0.0013610483955788,0.0013610343855322,3.8026094878315e-09,-3.3464035755967e-09,-5.1816845609311e-09,5.713140917371e-09,-0.0015351346829094,0.0015351352079292,-0.0016239314396923,0.0016239307435832,-0.0016239278961714,0.0016239343667027,-0.0016239337492521,0.0016239283558183,-0.0016239302061755,0.0016239319794137,-0.0013610476265631,0.0013610350502414,-0.0013610370373969,0.0013610458758742,-0.0015347671455415,0.0015347783208019,-0.0015347741554352,0.0015347711567174,-8.2319328928275e-09,8.0372858857862e-09,-0.00081252729026418,0.00081252707008747,5.2222361695638e-09,-5.6079341405754e-09,-0.00095461181646121,0.00095460981665225,-0.00095461541641884,0.00095460620289522,-0.00095460639963539,0.0009546152477993,-0.00095461000036963,0.00095461163586348,-0.00093261082902184,0.00093262293149909,-0.00093262672863125,0.00093260699267063,0.65089857054089,125803,2834,0.0063742940631331,0.0063742940988559,0.0033847815351646,24.777669103999,-4.177864716801e-05,-4.177864716801e-05,-4.177864716801e-05,3427298.8303744,0.016265060903284
29619200,0.99598910060179,0.01624193833941,0.006176440388285,0.0061764404290139,0.0038890575221115,-0.0015358668141914,0.0015358662909659,7.8893713981781e-09,-8.4261339915081e-09,-3.8021083641993e-09,3.3528464881942e-09,-0.001624730025097,0.0016247325784189,-0.0016247354595656,0.0016247271365139,-0.0016247277122775,0.0016247349581853,-0.0016247331543189,0.0016247295238353,-0.0013616425955968,0.00136166044023,-0.0013616585832506,0.0013616444517103,3.80069968541e-09,-3.344116811644e-09,-5.1812845324985e-09,5.7130971458627e-09,-0.0015358662985211,0.0015358668239071,-0.0016247316724969,0.0016247309754941,-0.0016247281291254,0.00162473459848,-0.0016247339806661,0.0016247285891541,-0.0016247304377443,0.0016247322125855,-0.0013616577523595,0.0013616451782516,-0.0013616471635999,0.001361656003348,-0.0015354855576421,0.001535496728976,-0.0015354925632077,0.0015354895687554,-8.2920890710782e-09,8.0974741721047e-09,-0.00081313570797759,0.0008131354878322,5.2226486134658e-09,-5.6083179769818e-09,-0.00095515960708863,0.00095515756744491,-0.00095516320730026,0.00095515395343578,-0.00095515415013873,0.00095516303871292,-0.00095515775114352,0.00095515942651232,-0.00093332391247171,0.00093333613239634,-0.00093333992968095,0.00093332007580077,0.64191385754886,125803,2834,0.006377322801116,0.0063773228368517,0.0033873087367918,25.087298086049,-3.9301615311608e-05,-3.9301615311608e-05,-3.9301615311608e-05,3443195.3606151,0.016273784105067
29819200,0.99613373330318,0.016244188719084,0.0061772974990791,0.0061772975398086,0.0038895936801967,-0.0015364807056749,0.0015364801829062,7.9497924602385e-09,-8.4866678650046e-09,-3.8012491408598e-09,3.3539818042758e-09,-0.0016254157046483,0.0016254182979811,-0.0016254211792391,0.0016254128158706,-0.0016254133916927,0.0016254206779107,-0.0016254188739391,0.0016254152034327,-0.0013621316880391,0.0013621496502851,-0.0013621477947743,0.0013621335436976,3.8007559593379e-09,-3.3443058260846e-09,-5.178189082246e-09,5.7096591582585e-09,-0.0015364801906732,0.0015364807159973,-0.0016254173703913,0.0016254166755942,-0.0016254138289477,0.0016254202962914,-0.0016254196785344,0.0016254142891745,-0.0016254161377545,0.001625417910526,-0.0013621469005348,0.0013621343322846,-0.0013621363181157,0.0013621451509584,-0.0015360928076176,0.0015361039769681,-0.0015360998103065,0.0015360968136565,-8.3527561815246e-09,8.1581984950772e-09,-0.00081366342902022,0.0008136632091325,5.2197061913474e-09,-5.6048129678378e-09,-0.00095560110568754,0.0009555990237216,-0.00095560470374864,0.00095559541180311,-0.00095559560834018,0.00095560453546362,-0.00095559920720823,0.00095560092541527,-0.00093395313485641,0.00093396547578014,-0.00093396927009504,0.00093394929915906,0.67837703225984,125803,2834,0.0063798649017064,0.0063798649391343,0.0033894991134725,25.339593180023,-3.7283254559817e-05,-3.7283254559817e-05,-3.7283254559817e-05,3458676.6652764,0.016281175805281
30019200,0.99627522119909,0.016246425013961,0.0061781481194864,0.0061781481602133,0.0038901287342617,-0.0015371466206045,0.0015371460976534,8.0104686905036e-09,-8.5471477273275e-09,-3.8020663027196e-09,3.3537635235912e-09,-0.0016261199514051,0.0016261225850678,-0.0016261254665644,0.0016261170625561,-0.0016261176382834,0.0016261249651616,-0.0016261231610231,0.0016261194502025,-0.0013627211961501,0.0013627392781072,-0.0013627374215455,0.0013627230527467,3.8011075930075e-09,-3.3446698045626e-09,-5.1743868539888e-09,5.7060009227945e-09,-0.0015371461053737,0.0015371466306776,-0.0016261216362225,0.0016261209441281,-0.0016261180974171,0.0016261245624385,-0.0016261239446856,0.0016261185575009,-0.0016261204063624,0.0016261221762794,-0.0013627364652679,0.0013627239043033,-0.001362725890304,0.0013627347157598,-0.0015367599726324,0.001536771140173,-0.0015367669779212,0.0015367639778609,-8.4131487730893e-09,8.2189219992217e-09,-0.00081417682058688,0.00081417660097514,5.2161669942947e-09,-5.6010904028611e-09,-0.00095611912776774,0.00095611700328197,-0.00095612272339767,0.00095611339382587,-0.00095611359002549,0.00095612255540247,-0.00095611718644244,0.00095611894775808,-0.00093455266079324,0.0009345651229337,-0.00093456891520406,0.00093454882873602,0.68873089859343,125803,2834,0.0063826204662726,0.0063826205030883,0.0033916350884723,25.590483945888,-3.5276128432894e-05,-3.5276128432894e-05,-3.5276128432894e-05,3465078.3892955,0.016288947269472
30219200,0.99641355043447,0.01624851420965,0.006178946125033,0.006178946165759,0.0038906219188579,-0.0015378212993933,0.0015378207763222,8.0709722990423e-09,-8.6076039104914e-09,-3.8028218439913e-09,3.3538641673401e-09,-0.0016268240588688,0.0016268267327017,-0.0016268296143403,0.0016268211697903,-0.0016268217454923,0.0016268291130623,-0.0016268273085361,0.0016268235577178,-0.0013633320328839,0.0013633502339046,-0.0013633483764026,0.0013633338897037,3.8015539911351e-09,-3.3450753799163e-09,-5.1704203774627e-09,5.7021327889081e-09,-0.0015378207838948,0.001537821309198,-0.0016268257626322,0.0016268250733789,-0.0016268222263943,0.0016268286890378,-0.0016268280713672,0.0016268226864249,-0.0016268245356267,0.0016268263025893,-0.0013633473575796,0.0013633348041663,-0.0013633367902002,0.0013633456078463,-0.0015374339259831,0.0015374450918146,-0.0015374409331978,0.0015374379296474,-8.473584467094e-09,8.2797967613924e-09,-0.00081468080594821,0.00081468058667361,5.2123961588679e-09,-5.5970569577657e-09,-0.00095665694144458,0.00095665477419698,-0.00095666053447725,0.0009566511673618,-0.00095665136320351,0.00095666036675246,-0.00095665495704043,0.00095665676174693,-0.00093513574684952,0.00093514833075224,-0.00093515211997262,0.00093513191815397,0.66008312461322,125803,2834,0.0063854117101264,0.0063854117460817,0.0033937335637857,25.841321108945,-3.3269431128441e-05,-3.3269431128441e-05,-3.3269431128441e-05,3468779.4225907,0.016296753609971
30419200,0.9965490019018,0.01625044477781,0.0061796874621717,0.0061796875028982,0.0038910698127399,-0.0015385204469316,0.0015385199234863,8.1312923464827e-09,-8.6678789752472e-09,-3.8029582202368e-09,3.3526300931579e-09,-0.0016275764825653,0.0016275791969825,-0.0016275820783203,0.001627573593767,-0.0016275741695907,0.0016275815768645,-0.001627579772905,0.0016275759812047,-0.0013639299907512,0.001363948310391,-0.0013639464520272,0.0013639318475796,3.8009363004757e-09,-3.3441926283485e-09,-5.1678200385523e-09,5.6999368767675e-09,-0.0015385199309151,0.0015385204564189,-0.0016275782063634,0.0016275775184036,-0.0016275746717602,0.0016275811324249,-0.0016275805146105,0.0016275751318183,-0.0016275769805142,0.0016275787463565,-0.0013639453720315,0.0013639328244544,-0.0013639348093845,0.0013639436233173,-0.0015381276391492,0.0015381388022412,-0.0015381346470579,0.0015381316432571,-8.534355563962e-09,8.3407023180048e-09,-0.00081525755357553,0.00081525733437375,5.2098819284517e-09,-5.5946757034195e-09,-0.00095720654119297,0.00095720433187904,-0.00095721013259653,0.00095720072671939,-0.00095720092235278,0.00095720996498129,-0.00095720451454487,0.00095720636158869,-0.00093580443076302,0.00093581713545354,-0.00093582092339656,0.00093580060464382,0.62526527257448,125803,2834,0.0063883055457311,0.0063883055807335,0.0033961309165855,26.129241944467,-3.0966064444263e-05,-3.0966064444263e-05,-3.0966064444263e-05,3478579.0497003,0.016305071697362
30619200,0.99668235980422,0.016252469002433,0.0061804598669666,0.0061804599076955,0.0038915492277708,-0.0015393860409741,0.0015393855167117,8.1916208593704e-09,-8.72856999359e-09,-3.8003012404646e-09,3.3480789200754e-09,-0.0016285190160095,0.0016285217726318,-0.0016285246520274,0.0016285161289383,-0.0016285167053987,0.001628524150171,-0.0016285223490423,0.0016285185141801,-0.0013646554552809,0.0013646738910643,-0.0013646720349345,0.0013646573097915,3.7977490687846e-09,-3.34021440597e-09,-5.1692626809684e-09,5.7022654103934e-09,-0.0015393855239845,0.0015393860502052,-0.0016285207628192,0.0016285200718436,-0.0016285172268654,0.0016285236870257,-0.001628523068618,0.0016285176876388,-0.0016285195333172,0.0016285213035642,-0.0013646708951901,0.0013646583469609,-0.0013646603292396,0.0013646691501116,-0.0015389921274991,0.0015390032855662,-0.0015389991309634,0.00153899613657,-8.594938314741e-09,8.4014231949943e-09,-0.00081604199373651,0.00081604177448609,5.2116650952658e-09,-5.5966963308856e-09,-0.00095789265634308,0.00095789040759549,-0.00095789624893762,0.00095788680122526,-0.00095788699686396,0.00095789608112783,-0.00095789059042376,0.00095789247672374,-0.00093670407757136,0.00093671689989509,-0.00093672068961191,0.00093670025146553,0.66318230112366,125803,2834,0.0063918899297314,0.0063918899638805,0.0033993871702184,26.523393670205,-2.7812850638362e-05,-2.7812850638362e-05,-2.7812850638362e-05,3496405.64178,0.016315665597295
30819200,0.99681354586261,0.016254552883347,0.0061812519637823,0.0061812520045153,0.0038920489150494,-0.0015403233493765,0.0015403228251717,8.2519071503715e-09,-8.789550401798e-09,-3.7967911137553e-09,3.3463930855765e-09,-0.0016294966202717,0.0016294994184802,-0.0016295022966914,0.001629493734569,-0.0016294943113472,0.001629501794334,-0.0016294999953496,0.0016294961180147,-0.0013655072258506,0.0013655257771215,-0.0013655239248859,0.001365509077276,3.7953871538218e-09,-3.3376868304326e-09,-5.1709042494316e-09,5.703797773408e-09,-0.0015403228327298,0.0015403233591655,-0.0016294983883417,0.0016294976950001,-0.0016294948513913,0.0016295013113559,-0.0016295006925978,0.0016294953125343,-0.0016294971561709,0.0016294989294364,-0.001365522723956,0.0013655101741214,-0.0013655121545764,0.0013655209800166,-0.0015399367124585,0.0015399478668943,-0.0015399437069327,0.0015399407186158,-8.6556590987021e-09,8.4618307057333e-09,-0.0008168181746444,0.00081681795530458,5.2134588129432e-09,-5.5982786763677e-09,-0.00095867331796638,0.00095867103001884,-0.0009586769117396,0.00095866742245619,-0.0009586676183101,0.00095867674395138,-0.00095867121290656,0.00095867313822986,-0.00093757893130651,0.00093759187061347,-0.00093759566080001,0.0009375751021183,0.69236328046518,125803,2834,0.0063957690247977,0.0063957690606905,0.0034026148502863,26.920156723306,-2.463874621355e-05,-2.463874621355e-05,-2.463874621355e-05,3504506.6486393,0.016326830814892
31019200,0.99694246466958,0.016256662679155,0.0061820520840252,0.0061820521247588,0.0038925584703706,-0.0015413064773421,0.0015413059529177,8.3122805585935e-09,-8.8501756813844e-09,-3.7953961103717e-09,3.3447976323754e-09,-0.0016304927768537,0.0016304956161596,-0.001630498493595,0.001630489891918,-0.0016304904689081,0.0016304979910214,-0.0016304961932349,0.001630492274375,-0.0013664437890333,0.0013664624576128,-0.0013664606066753,0.0013664456391973,3.7940184025186e-09,-3.3360872848566e-09,-5.1720450572565e-09,5.7051450629183e-09,-0.001541305960466,0.0015413064871145,-0.0016304945662541,0.0016304938713118,-0.0016304910284815,0.0016304974884964,-0.0016304968695336,0.0016304914898375,-0.0016304933322896,0.0016304951075716,-0.0013664593463724,0.0013664467952695,-0.001366448774558,0.001366457603613,-0.0015409318590043,0.0015409430115659,-0.0015409388504894,0.0015409358661433,-8.7163834453574e-09,8.5224472031762e-09,-0.00081757962246849,0.00081757940302722,5.2146614664254e-09,-5.599586653568e-09,-0.00095951398626794,0.0009595116585998,-0.00095951758088008,0.0009595080502007,-0.00095950824615694,0.00095951741299334,-0.00095951184159208,0.00095951380643594,-0.00093842959482317,0.00093844265191003,-0.00093844644297041,0.00093842576460981,0.71215831984933,125803,2834,0.0063998361258378,0.0063998361616757,0.0034057856816244,27.317019599089,-2.1463843207287e-05,-2.1463843207287e-05,-2.1463843207287e-05,3505762.5509816,0.016338321355482
31219200,0.99707013211579,0.016258855758143,0.0061828807464398,0.0061828807871741,0.003893094224529,-0.0015426198123958,0.001542619286526,8.372625703679e-09,-8.9106696095129e-09,-3.7931717360896e-09,3.3380279167149e-09,-0.0016317998451361,0.0016318027273865,-0.0016318056022992,0.0016317969625401,-0.0016317975401982,0.0016318050991067,-0.0016318033049549,0.0016317993419492,-0.0013677324318343,0.0013677512173969,-0.001367749366824,0.0013677342798904,3.7893252483618e-09,-3.3302119052736e-09,-5.1777736447576e-09,5.7124793922199e-09,-0.0015426192935553,0.0015426198212134,-0.0016318016605783,0.0016318009587031,-0.0016317981186108,0.0016318045801758,-0.001631803960377,0.001631798580575,-0.0016318004189543,0.0016318022027011,-0.0013677480519197,0.001367735493269,-0.001367737467738,0.0013677463148248,-0.0015422631315495,0.001542274279169,-0.0015422701194251,0.0015422671505391,-8.7771951186345e-09,8.5830717695197e-09,-0.00081859032428658,0.00081859010427395,5.2208598994682e-09,-5.607015045427e-09,-0.00096066519050592,0.00096066282614925,-0.00096066878958611,0.00096065921334454,-0.00096065940961699,0.00096066862102004,-0.00096066300966404,0.00096066501014157,-0.00093954141588398,0.0009395545870668,-0.0009395583845038,0.00093953758364267,0.74546029487565,125803,2834,0.0064052685845936,0.0064052686173844,0.0034099958978249,27.866397536702,-1.7068819706384e-05,-1.7068819706384e-05,-1.7068819706384e-05,3505252.536805,0.01635364430344
31419200,0.99719650360982,0.016260924503518,0.0061836659969688,0.0061836660377089,0.0038935924688407,-0.0015440070863386,0.0015440065607159,8.433287898373e-09,-8.9721171648617e-09,-3.7882557321525e-09,3.3359097153657e-09,-0.0016331583529865,0.0016331612775005,-0.0016331641506216,0.00163315547219,-0.0016331560503202,0.0016331636469787,-0.0016331618555685,0.0016331578493299,-0.0013691308369141,0.0013691497376658,-0.0013691478922784,0.0013691326809035,3.7864987787085e-09,-3.327224402083e-09,-5.1836482001477e-09,5.7180666311659e-09,-0.0015440065681509,0.0015440070960031,-0.0016331601912708,0.0016331594839507,-0.0016331566453763,0.0016331631092234,-0.0016331624891531,0.0016331571078532,-0.001633158943877,0.0016331607338061,-0.0013691465189714,0.001369133950615,-0.0013691359232219,0.001369144783038,-0.0015436648836875,0.0015436760295492,-0.0015436718601889,0.0015436689012242,-8.8377836853365e-09,8.6428258230744e-09,-0.00081959801325186,0.00081959779273072,5.226964336026e-09,-5.6132623836404e-09,-0.00096189649654739,0.00096189409584528,-0.00096190009982007,0.00096189047880413,-0.00096189067574336,0.00096189993087574,-0.00096189427987791,0.00096189631571719,-0.00094063991586597,0.00094065319980832,-0.00094065700079684,0.00094063607642882,0.71242630005763,125803,2834,0.0064110051919255,0.006411005227306,0.0034141983217861,28.434471324124,-1.2524229407004e-05,-1.2524229407004e-05,-1.2524229407004e-05,3499111.4654652,0.016369578673394
31619200,0.99732139479713,0.016262872358896,0.0061844086173414,0.0061844086580824,0.0038940550834725,-0.0015453380896546,0.0015453375637571,8.493051325406e-09,-9.0323215684232e-09,-3.786372326101e-09,3.3338709670598e-09,-0.0016344901323848,0.0016344930979358,-0.0016344959700279,0.0016344872526719,-0.001634487830974,0.0016344954661246,-0.0016344936762431,0.0016344896285129,-0.0013704289242495,0.0013704479405967,-0.0013704460973199,0.001370430766404,3.7847274346454e-09,-3.3252314948071e-09,-5.1889037108905e-09,5.7234839127121e-09,-0.0015453375711871,0.0015453380992615,-0.0016344919934198,0.001634491281521,-0.0016344884440577,0.0016344949104567,-0.0016344942900821,0.0016344889067497,-0.0016344907412597,0.0016344925362562,-0.0013704446684504,0.0013704320909321,-0.0013704340623077,0.0013704429339795,-0.0015450010853135,0.0015450122312423,-0.0015450080576966,0.0015450051063743,-8.8990839853762e-09,8.7039608709112e-09,-0.00082060923917594,0.00082060901845172,5.2315472067375e-09,-5.6180273819278e-09,-0.00096305374588355,0.00096305130723749,-0.00096305735226428,0.00096304768708524,-0.00096304788427474,0.00096305718307314,-0.00096305149149461,0.0009630535647868,-0.00094175600374543,0.00094176940422004,-0.00094177320828008,0.00094175216077065,0.68057766848498,125803,2834,0.0064165104198604,0.0064165104551115,0.0034184111083049,29.003054563057,-7.975563495545e-06,-7.975563495545e-06,-7.975563495545e-06,3500933.0213943,0.01638505251995
31819200,0.99744251355914,0.016264694884072,0.0061851057628562,0.006185105803598,0.0038944833176174,-0.0015460151316021,0.0015460146071187,8.5543572029065e-09,-9.0924627804446e-09,-3.7952991909208e-09,3.3445996338358e-09,-0.0016351967375776,0.0016351997384902,-0.00163520261571,0.0016351938527789,-0.0016351944297144,0.0016352021132449,-0.0016352003154549,0.0016351962351652,-0.0013710436637343,0.0013710628066034,-0.0013710609560899,0.0013710455134456,3.7940491539909e-09,-3.3361746419821e-09,-5.180253421243e-09,5.7132963852172e-09,-0.0015460146145805,0.0015460151411376,-0.0016351986106,0.0016351979101738,-0.0016351950674252,0.0016352015327936,-0.0016352009139124,0.0016351955286314,-0.0016351973712819,0.0016351991518315,-0.0013710594658046,0.0013710468985333,-0.0013710488779758,0.0013710577229612,-0.0015456738022757,0.0015456849603162,-0.0015456807937662,0.0015456778146284,-8.9592192196499e-09,8.7647106076073e-09,-0.00082110609811162,0.00082110587809782,5.2226978680126e-09,-5.6082741834493e-09,-0.00096359165233388,0.00096358916788462,-0.00096359525251621,0.00096358555391931,-0.00096358575044886,0.00096359508404696,-0.00096358935146069,0.00096359147194546,-0.00094233529730588,0.00094234882287064,-0.00094235261965064,0.00094233146050776,0.65805653139542,125803,2834,0.0064193110759286,0.006419311111099,0.0034204805367203,29.265567717648,-5.8754582588181e-06,-5.8754582588181e-06,-5.8754582588181e-06,3505220.4089893,0.016392849210919
32019200,0.99755826476789,0.016266605176729,0.0061858302946974,0.0061858303354398,0.0038949445465922,-0.0015461749084316,0.0015461743871414,8.6156913213677e-09,-9.1515084961091e-09,-3.809456100084e-09,3.3643706726677e-09,-0.0016353994231062,0.0016354024551987,-0.0016354053412533,0.0016353965296251,-0.0016353971040725,0.0016354048413729,-0.0016354030298102,0.0016353989233639,-0.0013711280022796,0.0013711472753509,-0.0013711454133006,0.001371129864732,3.80919882512e-09,-3.3543065789412e-09,-5.162437697425e-09,5.692399332913e-09,-0.0015461743949063,0.0015461749187739,-0.0016354013003693,0.0016354006211985,-0.001635397769812,0.0016354042309143,-0.0016354036146142,0.0016353982286795,-0.0016354000846239,0.0016354018389488,-0.0013711438573097,0.0013711313138275,-0.0013711333069456,0.0013711420998197,-0.0015458331264208,0.0015458443014354,-0.0015458401455869,0.0015458371181807,-9.0195733761185e-09,8.8263014244619e-09,-0.00082120116319878,0.00082120094471751,5.2043777923713e-09,-5.587770140796e-09,-0.00096364131088343,0.00096363877443993,-0.00096364489816855,0.00096363517330612,-0.00096363536853947,0.00096364473129189,-0.00096363895655993,0.00096364113197901,-0.00094249661696455,0.00094251027597711,-0.0009425140574122,0.00094249279239476,0.71766338895855,125803,2834,0.0064199725926244,0.0064199726300887,0.0034208755453115,29.28096899091,-5.75224807272e-06,-5.75224807272e-06,-5.75224807272e-06,3510211.5056303,0.01639459475863
32219200,0.99766884241284,0.016268472084525,0.0061865371902123,0.0061865372309519,0.0038953976633606,-0.0015464007560989,0.0015464002362567,8.6775149616979e-09,-9.2109233626139e-09,-3.8224871921696e-09,3.3768400555013e-09,-0.0016356157625319,0.0016356188287483,-0.0016356217212535,0.0016356128625921,-0.0016356134351736,0.0016356212233516,-0.0016356194014398,0.0016356152647606,-0.0013713546993528,0.0013713741032805,-0.0013713722284162,0.0013713565734372,3.8212201319362e-09,-3.3682069374105e-09,-5.1456070295681e-09,5.6741615042132e-09,-0.0015464002437511,0.0015464007658031,-0.0016356176485683,0.0016356169877341,-0.0016356141296286,0.0016356205857168,-0.0016356199713521,0.0016356145864964,-0.0016356164529507,0.0016356181850505,-0.0013713706082354,0.001371358089271,-0.0013713600923808,0.0013713688409539,-0.0015460687964171,0.0015460799834908,-0.0015460758459592,0.0015460727792784,-9.079289399133e-09,8.8875168734308e-09,-0.00082125911993557,0.00082125890270583,5.1873098865176e-09,-5.5696372233655e-09,-0.00096378902773171,0.00096378644035584,-0.00096379260324756,0.00096378285101736,-0.0009637830448907,0.00096379243750959,-0.00096378662122967,0.00096378885002838,-0.00094259402869185,0.00094260781925651,-0.00094261158879602,0.00094259021947504,0.73340852104383,125803,2834,0.0064209047410157,0.0064209047766007,0.0034211239757467,29.290202753187,-5.6783779745029e-06,-5.6783779745029e-06,-5.6783779745029e-06,3502260.8364709,0.016396743020114
32419200,0.99777447302205,0.016270301281137,0.0061872284607069,0.0061872285014471,0.0038958443189826,-0.0015466378778494,0.0015466373598411,8.7388693600102e-09,-9.2703400141819e-09,-3.8323208225824e-09,3.3885959067799e-09,-0.0016358312467746,0.0016358343477674,-0.0016358372457455,0.0016358283413967,-0.0016358289123469,0.0016358367495827,-0.0016358349188374,0.0016358307507807,-0.0013716107513326,0.0013716302828622,-0.0013716283987979,0.0013716126347662,3.8309934316627e-09,-3.3796995664315e-09,-5.1299794566798e-09,5.6569596627911e-09,-0.0015466373673261,0.0015466378877758,-0.0016358331420708,0.0016358324975841,-0.0016358296338563,0.0016358360845324,-0.0016358354718263,0.0016358300892265,-0.0016358319642317,0.0016358336768564,-0.0013716267126385,0.001371614217241,-0.0013716162289072,0.0013716249366571,-0.0015463168778572,0.0015463280732499,-0.001546323948455,0.0015463208482189,-9.139554963616e-09,8.9487226576361e-09,-0.00082130408970094,0.00082130387349543,5.1717087349511e-09,-5.5528511513128e-09,-0.00096395562399275,0.00096395298632979,-0.00096395918871406,0.00096394940776826,-0.00096394960064238,0.00096395902403087,-0.00096395316621047,0.00096395544735797,-0.0009426752099566,0.00094268913111822,-0.00094269288925248,0.00094267141281049,0.75109425766386,125803,2834,0.0064218827772382,0.0064218828132623,0.0034213204198407,29.299199574739,-5.6064034020848e-06,-5.6064034020848e-06,-5.6064034020848e-06,3491944.759031,0.016398932000178
32619200,0.99787511770636,0.016271910324066,0.0061878407900826,0.0061878408308229,0.0038962287031606,-0.0015467900512608,0.0015467895345349,8.7991566689214e-09,-9.3299981771365e-09,-3.8379867967849e-09,3.3970451111331e-09,-0.0016359521208975,0.0016359552579972,-0.0016359581597761,0.0016359492118204,-0.0016359497817609,0.0016359576645989,-0.0016359558281837,0.0016359516259626,-0.0013717996952814,0.0013718193485438,-0.0013718174606961,0.0013718015834405,3.8376670613761e-09,-3.3877862217349e-09,-5.1162750443932e-09,5.6417078930678e-09,-0.0015467895423006,0.001546790061503,-0.0016359540272056,0.0016359533959854,-0.0016359505284523,0.0016359569733521,-0.0016359563618009,0.001635950982824,-0.0016359528636401,0.0016359545607922,-0.0013718157062374,0.0013718032326457,-0.0013718052505515,0.0013718139235064,-0.0015464738579513,0.0015464850568779,-0.0015464809397973,0.0015464778145169,-9.2001450424304e-09,9.0104486725957e-09,-0.00082124664644064,0.00082124643147816,5.1574180896234e-09,-5.5367961193152e-09,-0.00096405319823259,0.00096405051087466,-0.00096405675286679,0.0009640469423458,-0.00096404713419168,0.00096405658933581,-0.00096405068961611,0.00096405302268282,-0.00094264073998291,0.0009426547920783,-0.00094265853807467,0.00094263695267138,0.69653886617146,125803,2834,0.0064225084553622,0.0064225084926193,0.0034210931136651,29.262933563338,-5.8965314932991e-06,-5.8965314932991e-06,-5.8965314932991e-06,3478711.4372027,0.01639997433892
32819200,0.99797090049664,0.016273320457072,0.0061883813325088,0.0061883813732475,0.0038965577513161,-0.0015468065004929,0.0015468059845715,8.8605859731219e-09,-9.390729839473e-09,-3.8409380772136e-09,3.4014010407683e-09,-0.0016359830545733,0.0016359862305239,-0.0016359891342981,0.0016359801438027,-0.001635980713072,0.0016359886394756,-0.001635986800229,0.00163598256012,-0.001371785826202,0.0013718056020104,-0.0013718037110972,0.0013717877175973,3.841012835518e-09,-3.3919320776503e-09,-5.1039173546848e-09,5.628539020673e-09,-0.0015468059925468,0.0015468065110222,-0.0016359849749196,0.0016359843540225,-0.001635981484703,0.0016359879229911,-0.0016359873120779,0.0016359819383438,-0.0016359838222563,0.0016359855076528,-0.0013718018879368,0.0013717894361822,-0.0013717914569164,0.0013718001018023,-0.0015464843187627,0.0015464955158143,-0.0015464914065615,0.001546488264409,-9.2599044386955e-09,9.0707641826454e-09,-0.0008211701548705,0.0008211699406493,5.1457662902709e-09,-5.5241934001882e-09,-0.00096400023769391,0.00096399750314916,-0.00096400378429784,0.00096399394267758,-0.00096399413376249,0.00096400362165004,-0.00096399768097571,0.00096400006283628,-0.00094260276058272,0.00094261693902701,-0.00094262067636032,0.00094259898155931,0.64446135658527,125803,2834,0.0064225752085464,0.0064225752468301,0.0034207789591128,29.204482100908,-6.3641431927391e-06,-6.3641431927391e-06,-6.3641431927391e-06,3477119.1254544,0.016399790723594
33019200,0.99806206689202,0.016274776026583,0.0061889347799542,0.0061889348206908,0.0038969064259379,-0.0015467492737927,0.0015467487573797,8.9208955171773e-09,-9.4510044364196e-09,-3.8418958359547e-09,3.4002380584731e-09,-0.0016359789989002,0.0016359822153451,-0.0016359851188345,0.0016359760881864,-0.0016359766575147,0.0016359846242637,-0.0016359827849106,0.001635978504578,-0.0013716421667665,0.0013716620616115,-0.0013716601696182,0.0013716440582422,3.8407681248173e-09,-3.3913827606409e-09,-5.0948051162227e-09,5.6199651089714e-09,-0.0015467487649573,0.0015467492836478,-0.0016359809374256,0.0016359803222068,-0.0016359774529486,0.0016359838851132,-0.0016359832742442,0.0016359779067358,-0.0016359797902985,0.0016359814702038,-0.001371658278679,0.0013716458451459,-0.0013716478651645,0.0013716564933376,-0.0015464208491565,0.0015464320398367,-0.0015464279398682,0.0015464247927463,-9.3202048989841e-09,9.1320457690644e-09,-0.00082113090370414,0.00082113069021307,5.1372476559763e-09,-5.5150946156958e-09,-0.00096385365964892,0.00096385087918789,-0.00096385720033098,0.00096384732465839,-0.00096384751497296,0.0009638570382003,-0.00096385105646189,0.00096385348551703,-0.00094261679701032,0.00094263110099265,-0.0009426348319007,0.00094261302593002,0.69524135462534,125803,2834,0.0064223399633134,0.0064223399993814,0.0034206117373386,29.145470910397,-6.8362327168229e-06,-6.8362327168229e-06,-6.8362327168229e-06,3486139.642817,0.016399141133717
33219200,0.99814885226655,0.016276233189135,0.0061894864823854,0.0061894865231224,0.0038972601836271,-0.0015467645989083,0.0015467640819867,8.9811424508513e-09,-9.5117218621909e-09,-3.8384731878084e-09,3.3962314583426e-09,-0.0016360033033177,0.0016360065620151,-0.0016360094635805,0.0016360003945537,-0.0016360009643795,0.0016360089684665,-0.001636007132095,0.0016360028084708,-0.0013716365419865,0.0013716565525142,-0.0013716546633861,0.0013716384306022,3.837355945704e-09,-3.3873901632127e-09,-5.0895291934299e-09,5.6152290960284e-09,-0.0015467640895641,0.001546764608791,-0.0016360052622786,0.0016360046484515,-0.0016360017810818,0.0016360082080108,-0.001636007596659,0.0016360022354503,-0.0016360041160107,0.0016360057955845,-0.0013716527054439,0.0013716402847128,-0.0013716423017327,0.0013716509230313,-0.0015464399576293,0.0015464511382489,-0.0015464470411994,0.0015464438985902,-9.3807142852929e-09,9.1927917674041e-09,-0.00082107514814949,0.00082107493491222,5.1324313926576e-09,-5.5099815934098e-09,-0.00096381092483208,0.00096380810088591,-0.00096381446220794,0.00096380454966169,-0.00096380473972483,0.00096381430032818,-0.00096380827790828,0.00096381075095829,-0.00094259176726567,0.00094260619341739,-0.00094260992089986,0.00094258799986271,0.72922790791501,125803,2834,0.0064224025501047,0.0064224025862291,0.0034203826532949,29.086438174742,-7.3084946020629e-06,-7.3084946020629e-06,-7.3084946020629e-06,3483713.5075832,0.016399035558383
33419200,0.99823281578729,0.016277670737673,0.0061900299599263,0.0061900300006637,0.0038976107770829,-0.0015473803400118,0.0015473798208182,9.0413795300616e-09,-9.573927535615e-09,-3.8241956400953e-09,3.3792446536307e-09,-0.0016365988971727,0.0016366022047621,-0.0016366050982487,0.0016365959964494,-0.0016365965684976,0.0016366046007789,-0.0016366027770328,0.0016365983999447,-0.0013722638206543,0.0013722839390605,-0.0013722820617924,0.0013722656971569,3.8222776259246e-09,-3.3696898627059e-09,-5.0995242043345e-09,5.6276962973036e-09,-0.0015473798283594,0.0015473803500394,-0.0016366008883957,0.0016366002587047,-0.0016365973998476,0.0016366038257845,-0.001636603212038,0.0016365978566448,-0.001636599724008,0.0016366014242755,-0.0013722800427798,0.0013722676133307,-0.0013722696172426,0.0013722782738505,-0.0015470669187914,0.0015470780771428,-0.0015470739710314,0.0015470708707022,-9.441147994426e-09,9.2522236893585e-09,-0.00082148781537963,0.00082148760105824,5.1441443079923e-09,-5.5230148464422e-09,-0.00096434031842827,0.00096433746170836,-0.00096434386406505,0.00096433390225354,-0.00096433409332884,0.00096434370110315,-0.0009643376397693,0.00096434014349251,-0.00094305143951172,0.00094306597365053,-0.00094306971102012,0.00094304766361584,0.74278652601342,125803,2834,0.0064249480570665,0.0064249480934144,0.0034221058916573,29.311680571959,-5.506555424331e-06,-5.506555424331e-06,-5.506555424331e-06,3478651.6819017,0.016405962675482
33619200,0.99831434772469,0.016279067228236,0.0061905580325076,0.0061905580732454,0.0038979511224828,-0.0015481588570836,0.0015481583348382,9.0994220577258e-09,-9.6347026181544e-09,-3.8082318851888e-09,3.3590355444757e-09,-0.0016373502337322,0.0016373535903313,-0.0016373564744236,0.0016373473422948,-0.0016373479169483,0.0016373559742375,-0.0016373541651214,0.0016373497337296,-0.001373064145613,0.0013730843662549,-0.0013730825029447,0.0013730660076696,3.8064161423644e-09,-3.3509041416593e-09,-5.116110175563e-09,5.6471262640734e-09,-0.0015481583422305,0.0015481588665754,-0.0016373522601617,0.0016373516096511,-0.001637348759815,0.0016373551887556,-0.0016373545724225,0.0016373492190794,-0.0016373510725793,0.0016373527987478,-0.0013730804291748,0.0013730679786983,-0.0013730699686396,0.0013730786748527,-0.0015478544165845,0.0015478655556565,-0.0015478614369621,0.0015478583854371,-9.5035109002614e-09,9.313387521463e-09,-0.00082201645452223,0.00082201623886524,5.1597347375408e-09,-5.5403176610415e-09,-0.00096502406285766,0.00096502117452286,-0.00096502761943016,0.00096501760416989,-0.00096501779645635,0.00096502745510191,-0.00096502135389007,0.00096502388663157,-0.00094363144050438,0.00094364608339537,-0.00094364983318225,0.00094362765309009,0.74303042204738,125803,2834,0.0064281663879509,0.0064281664228842,0.0034243132875944,29.613367874658,-3.0930570027382e-06,-3.0930570027382e-06,-3.0930570027382e-06,3472970.1262389,0.016414750038392
33819200,0.99839345872424,0.016280426533139,0.0061910720164796,0.006191072057219,0.0038982824594409,-0.0015489335235454,0.0015489329992914,9.1588749965381e-09,-9.6965568504324e-09,-3.7937142371048e-09,3.3432884704792e-09,-0.0016381004305503,0.0016381038352848,-0.0016381067115754,0.0016380975468583,-0.0016380981236623,0.0016381062091266,-0.0016381044122192,0.0016380999282556,-0.0013738570006211,0.0013738773272206,-0.0013738754770975,0.0013738588499244,3.7924386201328e-09,-3.3346407205036e-09,-5.1328228851208e-09,5.6657836654555e-09,-0.0015489330068179,0.0015489335333181,-0.0016381024903461,0.001638101820277,-0.0016380989783317,0.0016381054111899,-0.001638104792659,0.0016380994398162,-0.0016381012811799,0.0016381030313016,-0.0013738733482344,0.0013738608749764,-0.0013738628530693,0.0013738716058726,-0.0015486359911629,0.001548647114414,-0.0015486429797116,0.0015486399720716,-9.5647775906205e-09,9.3731912865579e-09,-0.00082253884742056,0.00082253863037974,5.1768806523386e-09,-5.5588903636407e-09,-0.00096570152929747,0.00096569861120144,-0.00096570509780302,0.00096569502891311,-0.00096569522260167,0.00096570493214783,-0.00096569879193088,0.00096570135172615,-0.00094420989031884,0.00094422463828881,-0.00094422840094335,0.00094420608868794,0.74517768875507,125803,2834,0.0064313686430423,0.0064313686788338,0.0034264949730896,29.917027134257,-6.6378292594578e-07,-6.6378292594578e-07,-6.6378292594578e-07,3468100.7334584,0.016423478566727
34019200,0.99847015313623,0.01628170521646,0.0061915568333814,0.0061915568741214,0.0038985915089577,-0.0015497008137668,0.0015497002878344,9.2186730940414e-09,-9.7580747719845e-09,-3.7828145286128e-09,3.3307249023464e-09,-0.0016388446026415,0.0016388480538575,-0.0016388509240513,0.0016388417249835,-0.0016388423034457,0.0016388504198784,-0.001638848632415,0.0016388440985865,-0.0013746403142272,0.0013746607501772,-0.0013746589096374,0.0013746421540178,3.7815617038857e-09,-3.3219192578149e-09,-5.1490590178555e-09,5.6837040305485e-09,-0.0015497002953705,0.0015497008235943,-0.0016388466942196,0.0016388460067275,-0.0016388431709655,0.0016388496090418,-0.001638848988781,0.0016388436341355,-0.0016388454660736,0.0016388472370302,-0.0013746567284134,0.0013746442311387,-0.0013746461999153,0.0013746549956748,-0.0015494078753315,0.0015494189884849,-0.0015494148404407,0.0015494118691688,-9.6259563864806e-09,9.4330548885895e-09,-0.0008230513410822,0.00082305112272285,5.1934430731254e-09,-5.5769549819426e-09,-0.00096637070135218,0.00096636775315361,-0.00096637428140493,0.00096636415933069,-0.00096636435429572,0.00096637411446325,-0.00096636793516847,0.00096637052250706,-0.0009447801644316,0.00094479501795783,-0.00094479879343916,0.00094477634984044,0.72426544918315,125803,2834,0.0064345402693798,0.0064345403053043,0.0034286356887168,30.22076262759,1.7661010207178e-06,1.7661010207178e-06,1.7661010207178e-06,3463612.9512879,0.01643210323017
34219200,0.99854572021653,0.016282931446287,0.0061920228513064,0.0061920228920468,0.0038988857029334,-0.0015510372515044,0.0015510367184473,9.2783142760442e-09,-9.8198507072427e-09,-3.7767998149464e-09,3.3033282780004e-09,-0.0016401741209609,0.0016401776228925,-0.0016401804840555,0.0016401712520506,-0.0016401718330005,0.0016401799770418,-0.0016401782035256,0.0016401736137459,-0.0013759557805491,0.0013759763298024,-0.0013759744900537,0.001375957610726,3.766299704247e-09,-3.3021212006747e-09,-5.1736223171202e-09,5.7146489474966e-09,-0.0015510367236915,0.0015510372555876,-0.0016401762566328,0.0016401755423616,-0.0016401727162476,0.0016401791634465,-0.0016401785399217,0.0016401731808739,-0.0016401749994525,0.0016401768020056,-0.0013759722686312,0.0013759597360223,-0.0013759616871924,0.0013759705562006,-0.0015507490757072,0.001550760177513,-0.0015507560361237,0.0015507531202719,-9.6863003368523e-09,9.493262466701e-09,-0.0008240958696808,0.00082409564931615,5.2194971732052e-09,-5.6079039223432e-09,-0.00096755045018871,0.00096754747807473,-0.00096755404894523,0.00096754386593477,-0.00096754406186627,0.00096755387948511,-0.00096754766185003,0.0009675502691405,-0.00094592252187935,0.0009459374742679,-0.00094594127433871,0.0009459186986334,0.70594348468717,125803,2834,0.0064400680734167,0.0064400680927334,0.0034329857408592,30.832049830097,6.6563986407744e-06,6.6563986407744e-06,6.6563986407744e-06,3468255.3643632,0.016447763083598
34419200,0.99862016590225,0.016284144373275,0.0061924837004229,0.0061924837411786,0.0038991769316733,-0.0015524142545222,0.0015524137231073,9.3375439792645e-09,-9.8811556247725e-09,-3.7584373539658e-09,3.2971368114984e-09,-0.0016415614138727,0.001641564960986,-0.0016415678162843,0.0016415585511276,-0.0016415591336455,0.0016415673074419,-0.001641565543663,0.0016415609051468,-0.0013772880063706,0.0013773086573963,-0.0013773068374609,0.0013772898239029,3.7550335959483e-09,-3.2905143059489e-09,-5.2005897497214e-09,5.7402031717995e-09,-0.0015524137302878,0.0015524142629528,-0.0016415635795257,0.0016415628414021,-0.0016415600213172,0.0016415664802624,-0.0016415658552363,0.0016415604881571,-0.0016415622970774,0.0016415641270375,-0.0013773045688878,0.001377291989801,-0.0013772939355568,0.001377302861783,-0.0015521272377938,0.0015521383348321,-0.0015521341532787,0.0015521312800935,-9.74886282654e-09,9.5530328664916e-09,-0.00082520400831192,0.00082520378632336,5.2448349887148e-09,-5.6332270974398e-09,-0.0009687577315089,0.00096875473446829,-0.00096876134732547,0.00096875110498326,-0.00096875130328442,0.00096876117669699,-0.00096875491996972,0.00096875754897628,-0.00094713725055445,0.00094715230317075,-0.00094715611922454,0.00094713340026861,0.70867958271849,125803,2834,0.0064457645893255,0.0064457646216307,0.0034375978727737,31.475841232671,1.1806729861372e-05,1.1806729861372e-05,1.1806729861372e-05,3477106.6189632,0.01646403220447
34619200,0.99869335583069,0.016285385693144,0.0061929538128356,0.0061929538535936,0.0038994780267144,-0.0015537986637627,0.0015537981311526,9.3972219066742e-09,-9.9429983543431e-09,-3.7500161056409e-09,3.2895405946164e-09,-0.0016429538502698,0.0016429574416276,-0.0016429602931446,0.0016429509913056,-0.0016429515752134,0.0016429597827171,-0.0016429580257418,0.0016429533398857,-0.0013786310476005,0.0013786518093286,-0.001378649998245,0.0013786328560757,3.7474105042991e-09,-3.2817078319583e-09,-5.2231362618746e-09,5.7634939235772e-09,-0.001553798138628,0.001553798672418,-0.0016429560470483,0.0016429552894753,-0.0016429524738624,0.0016429589437328,-0.0016429583173992,0.00164295294178,-0.0016429547441202,0.0016429565957915,-0.0013786476835672,0.0013786350660737,-0.0013786370048677,0.0013786459820479,-0.001553515077824,0.0015535261752092,-0.0015535219725898,0.0015535191316349,-9.8102188288995e-09,9.6126293960939e-09,-0.00082631361171879,0.00082631338812426,5.2676809051425e-09,-5.6575682396159e-09,-0.00096997198625829,0.00096996896333875,-0.00096997561788206,0.00096996531799923,-0.00096996551794901,0.00096997544573762,-0.00096996915025888,0.00096997180196082,-0.00094835352940281,0.00094836868231299,-0.00094837251414683,0.00094834965903436,0.73613738464647,125803,2834,0.0064514915820753,0.0064514916154544,0.0034422164861191,32.120535520993,1.6964284167946e-05,1.6964284167946e-05,1.6964284167946e-05,3485094.2093259,0.016480370215842
34819200,0.99876628101152,0.016286633301291,0.0061934261593518,0.0061934262001107,0.0038997809418283,-0.0015557805315398,0.0015557799934583,9.4583250227807e-09,-1.0004536101466e-08,-3.7496099654012e-09,3.2695859539229e-09,-0.001644921154602,0.0016449247937822,-0.0016449276393078,0.0016449183013279,-0.0016449188865589,0.0016449271277968,-0.0016449253787365,0.001644920642847,-0.0013805928654683,0.0013806137476362,-0.0013806119325903,0.0013805946709422,3.7381928706562e-09,-3.2690234601139e-09,-5.2490012976272e-09,5.7948648801351e-09,-0.0015557799984924,0.0015557805350649,-0.0016449233924754,0.0016449226108721,-0.0016449198013102,0.0016449262843691,-0.0016449256558217,0.0016449202702233,-0.0016449220641224,0.0016449239432338,-0.0013806095834929,0.0013805969230901,-0.0013805988505858,0.0013806078968413,-0.0015555082178157,0.001555519315551,-0.0015555151202402,0.0015555123211182,-9.8700131806737e-09,9.6723461051129e-09,-0.00082789458395596,0.00082789435847133,5.2950739767534e-09,-5.6896283272546e-09,-0.00097174820891585,0.00097174516288001,-0.00097175185995093,0.00097174149849981,-0.00097174169944422,0.00097175168535046,-0.00097174535190907,0.00097174802286044,-0.00095006335112685,0.00095007860095246,-0.00095008245885192,0.00095005947174575,0.74236047049383,125803,2834,0.0064596893627117,0.0064596893804408,0.0034487990398473,33.050991650712,2.4407933205694e-05,2.4407933205694e-05,2.4407933205694e-05,3491535.3192732,0.016503728867811
35019200,0.99883909369444,0.016287841394191,0.006193884976622,0.0061938850173957,0.003900071400173,-0.0015579685932432,0.0015579680557131,9.5203808188422e-09,-1.0067816735051e-08,-3.7399081829604e-09,3.2649700646998e-09,-0.0016470936406987,0.0016470973249496,-0.0016471001674625,0.0016470907917487,-0.0016470913769071,0.0016470996551144,-0.0016470979110918,0.0016470931287915,-0.0013827594883457,0.0013827804843711,-0.0013827786821557,0.00138276128666,3.7311183078968e-09,-3.2624198781583e-09,-5.2749502716619e-09,5.8197152073202e-09,-0.0015579680618094,0.0015579685985188,-0.0016470959092777,0.0016470951064677,-0.0016470923021434,0.0016470987984706,-0.0016470981685069,0.0016470927720606,-0.0016470945595974,0.0016470964617601,-0.0013827762875204,0.0013827635795489,-0.0013827655055587,0.0013827746035285,-0.0015577058632369,0.0015577169630911,-0.0015577127414468,0.0015577099741015,-9.9286490396966e-09,9.73113866307e-09,-0.00082963405145952,0.00082963382588378,5.3235372577767e-09,-5.7170611077112e-09,-0.00097371545964673,0.00097371239248709,-0.00097371912914375,0.00097370870940264,-0.00097370891142771,0.00097371895420164,-0.00097371258248064,0.00097371527292008,-0.00095194530004121,0.00095196064467213,-0.00095196452093165,0.00095194139947391,0.721364879083,125803,2834,0.006468739689523,0.0064687397130643,0.0034560422393549,34.082950387166,3.2663603097329e-05,3.2663603097329e-05,3.2663603097329e-05,3498359.4312369,0.016529493214951
35219200,0.99891151593445,0.016289008840231,0.0061943296467284,0.0061943296875109,0.0039003495059916,-0.0015601315818621,0.0015601310455826,9.5770040092779e-09,-1.0125323242913e-08,-3.733658539118e-09,3.266237828794e-09,-0.0016492598313354,0.0016492635540486,-0.0016492663948604,0.0016492569827023,-0.0016492575693186,0.0016492658818637,-0.0016492641405645,0.001649259318148,-0.0013848730372537,0.0013848941393989,-0.001384892341755,0.0013848748307205,3.7293355037132e-09,-3.2602436921893e-09,-5.2991387963274e-09,5.8431141038787e-09,-0.0015601310524558,0.0015601315893265,-0.001649262125401,0.0016492613060579,-0.0016492585012611,0.0016492650124983,-0.0016492643828687,0.0016492589716055,-0.0016492607584126,0.0016492626776531,-0.0013848899109085,0.0013848771573664,-0.0013848790808757,0.0013848882273889,-0.0015598738051937,0.0015598849185738,-0.0015598806675217,0.0015598779206012,-9.9951451733405e-09,9.7934351111916e-09,-0.00083137891311776,0.00083137868462565,5.3414982076316e-09,-5.737694081206e-09,-0.00097564544368419,0.00097564234500647,-0.00097564912646817,0.00097563864854018,-0.00097563885312272,0.00097564894936697,-0.00097564253684077,0.00097564525465745,-0.00095384506341595,0.00095386051871578,-0.00095386440737008,0.00095384114026874,0.70214228927547,125803,2834,0.0064776870122386,0.0064776870419115,0.0034633055049708,35.11750600019,4.0940048001522e-05,4.0940048001522e-05,4.0940048001522e-05,3509407.3384947,0.016555068661719
35419200,0.99898241413387,0.016290115924437,0.0061947526801621,0.0061947527209468,0.0039006105233279,-0.001561829681012,0.0015618291512704,9.6382707685617e-09,-1.0186169467044e-08,-3.7318310678872e-09,3.2877196772442e-09,-0.0016509788429985,0.0016509826012175,-0.0016509854509997,0.0016509759928811,-0.0016509765738005,0.0016509849345717,-0.0016509831879535,0.001650978330077,-0.0013865052500699,0.0013865264682209,-0.001386524676702,0.0013865070505823,3.7383454731707e-09,-3.2774861340999e-09,-5.3091811545073e-09,5.842782711304e-09,-0.0015618291638086,0.0015618296944152,-0.0016509811456484,0.0016509803280053,-0.0016509775231722,0.0016509840433141,-0.0016509834143149,0.0016509779868759,-0.0016509797852827,0.0016509816933251,-0.0013865221998807,0.0013865094175142,-0.0013865113579502,0.0013865204988811,-0.00156157092933,0.0015615820657982,-0.0015615777778545,0.0015615750054032,-1.0055764278561e-08,9.853872047767e-09,-0.00083274827758853,0.00083274805092704,5.3480567744851e-09,-5.7389676304443e-09,-0.00097713513269157,0.00097713200144175,-0.00097713881896866,0.00097712830196139,-0.00097712850603527,0.00097713864595276,-0.00097713218888938,0.0009771349430395,-0.00095535322809221,0.00095536880188182,-0.00095537269154731,0.00095534929234505,0.68162297180271,125803,2834,0.0064847115622395,0.0064847116159001,0.0034690048583928,35.929760739874,4.7438085918992e-05,4.7438085918992e-05,4.7438085918992e-05,3520832.7657515,0.016575145007143
35619200,0.9990509857994,0.016291145727958,0.0061951476732633,0.0061951477140312,0.0039008503406637,-0.0015631655624231,0.0015631650345951,9.70102627113e-09,-1.0245141841479e-08,-3.7554632455286e-09,3.3082834572701e-09,-0.0016523511394418,0.0016523549260913,-0.0016523577841696,0.0016523482747625,-0.0016523488561876,0.0016523572754422,-0.0016523555085578,0.001652350631248,-0.0013877575179508,0.0013877788784219,-0.0013877770655664,0.0013877593354728,3.7587135681747e-09,-3.2967907796202e-09,-5.2976999172879e-09,5.8331427244901e-09,-0.0015631650438049,0.0015631655745747,-0.0016523534507347,0.0016523526517852,-0.0016523498303022,0.0016523563546881,-0.001652355729948,0.0016523502958202,-0.0016523521090217,0.0016523539977311,-0.0013877745316961,0.0013877617583547,-0.0013877637124699,0.0013877728176939,-0.0015629023710168,0.0015629135389007,-0.0015629092740445,0.0015629064533339,-1.0116483852231e-08,9.9134784573027e-09,-0.00083383977077132,0.00083383954264156,5.3374151639503e-09,-5.7310437520124e-09,-0.00097827969034432,0.00097827650933125,-0.00097828337000782,0.00097827281602148,-0.00097827302079923,0.00097828319426267,-0.00097827670040317,0.00097827950194245,-0.00095657121877421,0.00095658691326294,-0.00095659079555242,0.00095656728967379,0.65729898928677,125803,2834,0.0064902384146149,0.006490238458797,0.0034735456733205,36.574204337693,5.2593634701543e-05,5.2593634701543e-05,5.2593634701543e-05,3533454.4920518,0.01659099820859
35819200,0.99911711800682,0.016292201530912,0.0061955502874459,0.006195550328206,0.0039011009152603,-0.00156446151224,0.0015644609857853,9.7632329465235e-09,-1.0303435483648e-08,-3.7794999275186e-09,3.3275214296221e-09,-0.0016536990194805,0.0016537028356138,-0.0016537057044788,0.0016536961435568,-0.001653696722225,0.0016537051992594,-0.0016537034148165,0.0016536985145381,-0.0013889459296721,0.0013889674301537,-0.0013889655934122,0.0013889477670395,3.778615617769e-09,-3.3190052185853e-09,-5.2837296995844e-09,5.818226897118e-09,-0.0015644609938341,0.0015644615221925,-0.0016537013378031,0.0016537005596069,-0.001653697726912,0.0016537042525892,-0.001653703630792,0.0016536981892978,-0.0016537000195612,0.0016537018816947,-0.0013889630069038,0.0013889502474581,-0.0013889522162257,0.0013889612781346,-0.0015641961845126,0.0015642073815148,-0.0015642031420955,0.0015642002664404,-1.017633857862e-08,9.975385664933e-09,-0.00083494341316181,0.00083494318643785,5.3231254381718e-09,-5.7164076740316e-09,-0.00097937464615247,0.00097937141557899,-0.00097937831591103,0.00097936773222512,-0.00097936793517048,0.00097937814128582,-0.00097937160532618,0.00097937445918178,-0.00095780769074745,0.00095782351567309,-0.00095782738935554,0.0009578037783119,0.69619234902125,125803,2834,0.0064956013939716,0.0064956014312091,0.0034781332737362,37.214427371274,5.7715418970195e-05,5.7715418970195e-05,5.7715418970195e-05,3550199.0545503,0.016606565396025
36019200,0.99918072559863,0.016293278135464,0.0061959588798808,0.00619595892064,0.0039013603349433,-0.0015658155728929,0.0015658150489993,9.8250807334102e-09,-1.0362441849044e-08,-3.7980833019269e-09,3.3478448756959e-09,-0.0016550705969031,0.0016550744435243,-0.0016550773222543,0.0016550677109905,-0.0016550682868914,0.0016550768201153,-0.0016550750198394,0.0016550700949567,-0.0013902438414203,0.0013902654765042,-0.0013902636229875,0.0013902456942175,3.7964804475401e-09,-3.3397770280412e-09,-5.2666944937693e-09,5.7986248594799e-09,-0.0015658150567827,0.0015658155823384,-0.0016550729201152,0.0016550721640116,-0.0016550693212468,0.0016550758446857,-0.001655075225744,0.0016550697807473,-0.0016550716266053,0.0016550734609459,-0.0013902609751903,0.0013902482364542,-0.0013902502202428,0.0013902592309018,-0.0015655566160541,0.0015655678362223,-0.0015655636138662,0.0015655606851573,-1.0236182076245e-08,1.0037101984836e-08,-0.00083603251255715,0.00083603228750762,5.3057830143165e-09,-5.6974049788983e-09,-0.00098055004027471,0.00098054675861635,-0.00098055369791497,0.00098054308737391,-0.00098054328870322,0.00098055352479464,-0.0009805469467949,0.00098054985484608,-0.00095901333195206,0.0009590292897076,-0.00095903314943296,0.00095900943416616,0.73586309630337,125803,2834,0.0065012027648962,0.0065012028005378,0.0034826660968093,37.854487042258,6.2835896338062e-05,6.2835896338062e-05,6.2835896338062e-05,3557722.7745887,0.016622563046366
36219200,0.99923966925705,0.016294243487254,0.0061963264840932,0.0061963265248527,0.0039015904783079,-0.0015659059226987,0.0015659054075092,9.8890509683399e-09,-1.0422886233215e-08,-3.8238774014055e-09,3.395126356985e-09,-0.0016551513318878,0.0016551551996762,-0.0016551580978231,0.0016551484270238,-0.0016551489976177,0.0016551576011911,-0.001655155771221,0.0016551508357071,-0.0013903450180199,0.0013903667960937,-0.0013903649255607,0.0013903468942144,3.8289459826226e-09,-3.3796043207109e-09,-5.2214181675188e-09,5.7445813087453e-09,-0.0015659054170115,0.0015659059361838,-0.0016551536360965,0.0016551529308806,-0.0016551500691204,0.0016551565784228,-0.0016551559653276,0.0016551505240479,-0.0016551523984193,0.0016551541711692,-0.0013903621893236,0.0013903495148543,-0.0013903515295613,0.0013903604098343,-0.0015656470332204,0.0015656582840988,-0.0015656540738889,0.0015656510352057,-1.0294142455213e-08,1.0097313383095e-08,-0.00083595170275161,0.00083595148154516,5.2615517294361e-09,-5.6464300154334e-09,-0.00098058937264537,0.00098058602429658,-0.00098059299884789,0.00098058238417538,-0.00098058258276883,0.00098059282997504,-0.00098058620890556,0.0009805891909231,-0.00095896765167556,0.00095898375897811,-0.0009589875778622,0.00095896377643697,0.71361054920629,125803,2834,0.006501573041142,0.0065015730886866,0.0034823403757023,37.827185453587,6.2617483628696e-05,6.2617483628696e-05,6.2617483628696e-05,3547327.8455613,0.016622986054255
36419200,0.99929344296029,0.01629511227811,0.0061966576301639,0.0061966576709148,0.0039017969770311,-0.0015653520605665,0.001565351549859,9.9494956151503e-09,-1.0477415931782e-08,-3.8577660971879e-09,3.4310006212862e-09,-0.0016546026030005,0.0016546064915897,-0.0016546094067324,0.0016545996792991,-0.0016546002460887,0.0016546089156074,-0.0016546070579034,0.001654602111693,-0.0013897842682877,0.001389806189731,-0.0013898042869567,0.0013897861748947,3.864022822461e-09,-3.4194467518109e-09,-5.1668052353309e-09,5.6859936705317e-09,-0.0015653515588146,0.0015653520730968,-0.0016546048908044,0.0016546042430768,-0.0016546013596258,0.0016546078506854,-0.0016546072438653,0.0016546018095145,-0.0016546037148349,0.0016546054195774,-0.0013898014700998,0.0013897888782332,-0.0013897909220762,0.0013897996632058,-0.0015650906934909,0.0015651019777393,-0.0015650978185127,0.0015650946642466,-1.0356219898911e-08,1.0162342697465e-08,-0.00083536047198135,0.00083536025407164,5.2021265585383e-09,-5.5839605128586e-09,-0.0009800243919412,0.00098002096439454,-0.00098002797772335,0.00098001736467555,-0.0009800175594272,0.00098002781200004,-0.00098002114529423,0.00098002421400782,-0.00095839241254281,0.00095840868966692,-0.00095841246467864,0.00095838858365363,0.70434019783923,125803,2834,0.0064992790840079,0.0064992791284484,0.0034798885508618,37.496558674377,5.9972469395019e-05,5.9972469395019e-05,5.9972469395019e-05,3537664.5858457,0.01661582948238
36619200,0.99934254185045,0.016295860731677,0.0061969443252779,0.0061969443660235,0.0039019720403757,-0.0015647562147625,0.0015647557067455,1.0014089894487e-08,-1.0536820906825e-08,-3.8863774597775e-09,3.4562565024422e-09,-0.0016540173537888,0.0016540212705739,-0.0016540242001212,0.0016540144176274,-0.0016540149792565,0.0016540237129912,-0.0016540218329878,0.0016540168672393,-0.0013891727980044,0.0013891948670371,-0.001389192937007,0.0013891747297886,3.8865883621581e-09,-3.4461436250058e-09,-5.1126232624054e-09,5.6291851292105e-09,-0.0015647557149937,0.0015647562255647,-0.0016540196332404,0.0016540190345522,-0.0016540161402129,0.0016540226069589,-0.0016540220032891,0.0016540165858472,-0.0016540185103143,0.0016540201581149,-0.0013891900312782,0.0013891775292394,-0.0013891795913338,0.0013891882042802,-0.0015644918086718,0.0015645030987081,-0.0015644989921372,0.001564495746647,-1.0411992377935e-08,1.0224526202184e-08,-0.00083476626739914,0.00083476605488143,5.1521550215021e-09,-5.5286330847225e-09,-0.00097941982099895,0.00097941632302441,-0.00097942337123431,0.00097941275894744,-0.00097941294845259,0.00097942321044916,-0.00097941649910981,0.00097941964776131,-0.00095780920671518,0.00095782563910343,-0.00095782937798608,0.00095780542485973,0.66675280674987,125803,2834,0.0064968122907065,0.0064968123301121,0.0034774218663213,37.158196395081,5.7265571160651e-05,5.7265571160651e-05,5.7265571160651e-05,3530402.6898507,0.016608306074338
36819200,0.99938742826856,0.016296526376107,0.0061971998097823,0.006197199850527,0.0039021267157976,-0.0015641010838655,0.0015641005777651,1.0075420171889e-08,-1.0595786768105e-08,-3.9010482103608e-09,3.4716296955076e-09,-0.0016534018668443,0.0016534058163407,-0.0016534087533888,0.001653398923106,-0.0016533994825302,0.0016534082687367,-0.0016534063764242,0.0016534013827089,-0.0013884605204196,0.0013884827202854,-0.0013884807765655,0.0013884624644756,3.9005684658991e-09,-3.4624676369462e-09,-5.0663301092634e-09,5.5808731659608e-09,-0.0015641005857522,0.0015641010940312,-0.001653404144049,0.0016534035843874,-0.0016534006820403,0.0016534071250605,-0.0016534065239864,0.0016534011254479,-0.0016534030621446,0.0016534046661581,-0.0013884777785635,0.0013884653573927,-0.0013884674310185,0.0013884759392865,-0.0015638292694768,0.0015638405558228,-0.0015638364860171,0.0015638331770465,-1.0470990875231e-08,1.0287265945646e-08,-0.00083419803423361,0.00083419782525539,5.1066574548333e-09,-5.4792805898117e-09,-0.00097874703566782,0.0009787434688496,-0.00097875055428231,0.00097873993638204,-0.00097874012241751,0.00097875039679034,-0.00097874364153844,0.00097874686581107,-0.00095725799327032,0.00095727458004958,-0.00095727828385369,0.00095725424777448,0.64957833515517,125803,2834,0.0064941023918655,0.0064941024294164,0.0034750570420736,36.819533799959,5.4556270399672e-05,5.4556270399672e-05,5.4556270399672e-05,3531137.6385785,0.016600390975054
37019200,0.99942968334455,0.016297194324536,0.0061974545031051,0.00619745454385,0.0039022852775806,-0.001564474094254,0.0015644735850729,1.0134161707022e-08,-1.0657240280566e-08,-3.8808514766513e-09,3.4477600030633e-09,-0.0016538216485347,0.001653825649619,-0.0016538285751848,0.0016538187163155,-0.0016538192787245,0.0016538280873373,-0.0016538262127101,0.0016538211612302,-0.0013887446231797,0.0013887669238236,-0.0013887649968155,0.0013887465502022,3.8800787422578e-09,-3.4385277882712e-09,-5.0556552401635e-09,5.5734409567781e-09,-0.0015644735930589,0.0015644741045587,-0.0016538239542864,0.0016538233890783,-0.0016538204982206,0.0016538269237121,-0.0016538263196235,0.0016538209449533,-0.0016538228637324,0.0016538244796356,-0.0013887619144144,0.001388749528938,-0.0013887515846369,0.0013887600930644,-0.0015642037159908,0.0015642149559505,-0.0015642108900293,0.0015642076221451,-1.0531704143859e-08,1.0348688737663e-08,-0.00083456470798993,0.00083456449965997,5.0976686553431e-09,-5.4696273339639e-09,-0.00097901944555241,0.0009790158324276,-0.00097902295795995,0.00097901230618837,-0.00097901249154025,0.00097902280105945,-0.00097901600447483,0.00097901927631372,-0.00095769810781019,0.00095771482097147,-0.00095771851862258,0.00095769437023327,0.68961815405691,125803,2834,0.0064956477105703,0.0064956477484045,0.0034765769166139,37.016078013663,5.6128624109302e-05,5.6128624109302e-05,5.6128624109302e-05,3542501.1741192,0.01660507682557
37219200,0.99946970078105,0.016297869641208,0.0061977105983608,0.0061977106391059,0.0039024484037408,-0.0015651686598214,0.0015651681447477,1.019184075179e-08,-1.0719723766444e-08,-3.8535498116984e-09,3.4108417285383e-09,-0.001654530159367,0.0016545342174722,-0.001654537126692,0.0016545272440388,-0.001654527810638,0.0016545366338485,-0.0016545347851205,0.0016545296673059,-0.0013893993121675,0.0013894217065284,-0.0013894198035494,0.0013894012137843,3.8492744663661e-09,-3.4021566609147e-09,-5.0579804522523e-09,5.581412954239e-09,-0.0015651681521823,0.0015651686688308,-0.0016545325050485,0.0016545319191467,-0.0016545290462933,0.0016545354578422,-0.0016545348485501,0.001654529497757,-0.0016545313892288,0.0016545330356319,-0.0013894166417432,0.0013894042740647,-0.0013894063022357,0.0013894148480346,-0.0015649046301786,0.0015649158124823,-0.0015649117448588,0.0015649085515779,-1.0592465397181e-08,1.0410052533894e-08,-0.00083513809076426,0.0008351378824267,5.102919268082e-09,-5.4753269200045e-09,-0.00097962136547396,0.00097961771485742,-0.00097962488139783,0.00097961418520381,-0.00097961437050789,0.00097962472420178,-0.000979617887092,0.0009796211959592,-0.00095833855948397,0.0009583553879451,-0.00095835909081551,0.00095833482137345,0.73362542976911,125803,2834,0.0064985212460684,0.006498521280087,0.0034789626570334,37.34272994275,5.8741839541999e-05,5.8741839541999e-05,5.8741839541999e-05,3546382.485537,0.016613344985283
37419200,0.99950755521135,0.016298464962827,0.0061979378495076,0.0061979378902548,0.003902589223065,-0.0015659271092283,0.0015659265897582,1.0250420786858e-08,-1.0783658511929e-08,-3.8203476928239e-09,3.3756811750808e-09,-0.001655268435644,0.0016552725516849,-0.0016552754431365,0.0016552655373727,-0.0016552661093932,0.001655274945219,-0.0016552731242541,0.0016552679381769,-0.0013901707949575,0.0013901932797539,-0.0013901914064355,0.0013901726679424,3.8195695399489e-09,-3.3671748607965e-09,-5.0669011052624e-09,5.5947451511628e-09,-0.0015659265975853,0.0015659271191153,-0.0016552708211421,0.00165527021137,-0.001655267354343,0.0016552737568033,-0.0016552731431283,0.0016552678111376,-0.0016552696765641,0.0016552713567188,-0.0013901881670494,0.0013901758032229,-0.0013901778055559,0.0013901863993713,-0.0015656709468414,0.0015656820782323,-0.0015656779926266,0.0015656748758324,-1.0653527852753e-08,1.0468960480473e-08,-0.00083568647177581,0.0008356862617945,5.11319938005e-09,-5.4870834334136e-09,-0.00098030773023414,0.00098030404565471,-0.00098031125364639,0.00098030050849722,-0.00098030069536508,0.00098031109497007,-0.00098030421938823,0.00098030755940532,-0.0009589374569513,0.000958954394291,-0.0009589581045564,0.00095893370702439,0.68665558865647,125803,2834,0.006501656672708,0.006501656709352,0.0034812510669923,37.672782248698,6.1382257989588e-05,6.1382257989588e-05,6.1382257989588e-05,3541199.4591893,0.016622048026496
37619200,0.99954331480599,0.016299007873946,0.0061981457372866,0.0061981457780341,0.0039027163586255,-0.0015666142005796,0.0015666136766663,1.0308444586212e-08,-1.08462094431e-08,-3.7928210600966e-09,3.3437054381529e-09,-0.0016559739368492,0.0016559781082365,-0.0016559809844864,0.0016559710537752,-0.0016559716301166,0.0016559804819454,-0.0016559786851409,0.0016559734347645,-0.00139081250078,0.0013908350793739,-0.0013908332305272,0.0013908143495521,3.791885970957e-09,-3.3346160742091e-09,-5.0799536471408e-09,5.6122760108276e-09,-0.0015666136845206,0.0015666142106162,-0.0016559763624691,0.0016559757271382,-0.001655972885626,0.0016559792828138,-0.0016559786646717,0.0016559733470064,-0.0016559751880371,0.0016559769027948,-0.0013908299225305,0.0013908175530875,-0.0013908195311471,0.0013908281793314,-0.0015663583248853,0.0015663694118393,-0.0015663653108131,0.0015663622681959,-1.0715077407164e-08,1.0529266780598e-08,-0.00083625266422442,0.00083625245305143,5.1277225334696e-09,-5.502916875142e-09,-0.00098089951484067,0.0009808957986077,-0.00098090304838932,0.00098089225135653,-0.00098089243935903,0.00098090288855681,-0.00098089597348673,0.00098089934286532,-0.00095957455869931,0.00095959160392386,-0.00095959532551368,0.00095957079721132,0.66415285714185,125803,2834,0.0065044992042039,0.0065044992412132,0.0034836068932856,38.00296713496,6.4023737079684e-05,6.4023737079684e-05,6.4023737079684e-05,3546432.0017503,0.016630222778976
37819200,0.99957613899123,0.016299487016592,0.0061983298778998,0.0061983299186474,0.0039028272200444,-0.0015662296169252,0.00156622909522,1.0369517206426e-08,-1.0909654918354e-08,-3.7795138225647e-09,3.3441657873837e-09,-0.0016556285503083,0.0016556327649803,-0.001655635638395,0.0016556256701212,-0.0016556262475899,0.0016556351352589,-0.0016556333431255,0.0016556280477313,-0.0013903748471314,0.0013903975345579,-0.0013903957035917,0.0013903766852331,3.7874124637373e-09,-3.3305632168551e-09,-5.0773272078963e-09,5.6074961952779e-09,-0.0015662291045778,0.0015662296307265,-0.0016556309933418,0.0016556303578893,-0.0016556275180701,0.0016556339109337,-0.001655633292584,0.0016556279813391,-0.001655629817877,0.0016556315348416,-0.0013903923182339,0.0013903799555904,-0.0013903819330596,0.001390390573534,-0.0015659641509142,0.0015659752261298,-0.001565971103396,0.0015659680681635,-1.0774611488786e-08,1.0587929856364e-08,-0.00083592582907932,0.00083592561836795,5.1262279842943e-09,-5.4987094880342e-09,-0.00098049543120371,0.00098049167439478,-0.00098049896306317,0.00098048812850985,-0.00098048831708853,0.00098049880386111,-0.00098049184936191,0.00098049525984841,-0.00095926785653019,0.00095928501829641,-0.00095928873277081,0.00095926408624046,0.64016141159054,125803,2834,0.0065029086912403,0.0065029087391368,0.0034822460440847,37.804324174,6.2434593391998e-05,6.2434593391998e-05,6.2434593391998e-05,3548494.9343696,0.016625604615169
38019200,0.99960622074289,0.016299944900889,0.0061985050573399,0.0061985050980828,0.0039029347454666,-0.0015657172629751,0.0015657167394045,1.0428241593554e-08,-1.0967113330863e-08,-3.7857258563796e-09,3.3408060721383e-09,-0.0016551684059879,0.001655172659575,-0.0016551755337891,0.0016551655255631,-0.0016551661024139,0.0016551750304471,-0.0016551732374972,0.001655167903434,-0.0013897864149031,0.0013898092230304,-0.0013898073833978,0.0013897882577381,3.7867206594008e-09,-3.3291013986722e-09,-5.0755123535885e-09,5.6076966869287e-09,-0.0015657167477488,0.0015657172744952,-0.0016551708709577,0.0016551702357546,-0.0016551673971527,0.0016551737888788,-0.001655173169793,0.0016551678598788,-0.0016551696957877,0.0016551714125318,-0.0013898039458666,0.0013897915881193,-0.0013897935628078,0.0013898022043171,-0.0015654457076689,0.0015654567807774,-0.0015654526742353,0.0015654496399765,-1.0836799607164e-08,1.0651606765901e-08,-0.0008355407969338,0.00083554058672364,5.1240081690603e-09,-5.4971712388244e-09,-0.00097996346289884,0.00097995966290319,-0.00097996699323838,0.00097995611871799,-0.00097995630628265,0.00097996683435425,-0.00097995983720591,0.00097996329173883,-0.00095890456741805,0.00095892185377132,-0.00095892557096303,0.00095890080666385,0.66569813438888,125803,2834,0.0065007909938018,0.0065007910348886,0.0034806391966935,37.56009652456,6.0480772196482e-05,6.0480772196482e-05,6.0480772196482e-05,3554247.4594308,0.016619663721263
38219200,0.99963381322639,0.016300368237465,0.0061986668702207,0.0061986669109624,0.0039030344562824,-0.0015652405475733,0.0015652400233991,1.0489540462916e-08,-1.1027881917542e-08,-3.7897683426491e-09,3.3414309638718e-09,-0.001654718784595,0.0016547230778596,-0.0016547259530258,0.0016547159026114,-0.0016547164795958,0.0016547254499155,-0.0016547236554193,0.0016547182819577,-0.0013892697439152,0.0013892926750437,-0.0013892908297287,0.0013892715899532,3.7895855201166e-09,-3.3317632298049e-09,-5.076935221414e-09,5.6096809370429e-09,-0.001565240031329,0.0015652405580423,-0.001654721270302,0.0016547206357228,-0.0016547177951741,0.0016547241894839,-0.0016547235707974,0.0016547182574052,-0.0016547200959404,0.0016547218113475,-0.0013892873382616,0.0013892749762954,-0.0013892769523034,0.0013892855968162,-0.001564968668017,0.0015649797484701,-0.0015649756467171,0.0015649726078645,-1.0897096574425e-08,1.0711445311845e-08,-0.00083514681037747,0.00083514659949074,5.1251698994398e-09,-5.4997986958359e-09,-0.0009794901595761,0.00097948632028116,-0.00097949369121955,0.00097948277488725,-0.00097948296269921,0.00097949353168343,-0.00097948649494913,0.00097948998791385,-0.00095851897649387,0.00095853637998358,-0.00095854009920214,0.00095851521629134,0.67076171320876,125803,2834,0.0064988193571022,0.0064988193951604,0.0034789990669733,37.314559242491,5.8516473939928e-05,5.8516473939928e-05,5.8516473939928e-05,3553405.0867265,0.016613986862679
38419200,0.99965931550849,0.016300785503499,0.0061988254186015,0.0061988254593433,0.003903134625554,-0.0015650226301858,0.0015650221057032,1.0550559284244e-08,-1.108863063471e-08,-3.7914236083172e-09,3.3413268764046e-09,-0.001654520093878,0.00165452442745,-0.001654527302962,0.0016545172114561,-0.0016545177883862,0.0016545267999647,-0.0016545250048664,0.0016545195912884,-0.0013890181742772,0.0013890412262246,-0.0013890393788283,0.0013890200215258,3.7908166256836e-09,-3.3329636969707e-09,-5.0882625297904e-09,5.6212406039618e-09,-0.0015650221134706,0.0015650226401455,-0.0016545226036928,0.001654521962241,-0.0016545191211233,0.001654525523654,-0.0016545249049991,0.0016545195830672,-0.00165452142266,0.0016545231446446,-0.0013890358406576,0.0013890234557344,-0.0013890254325815,0.0013890340990209,-0.0015647539887033,0.0015647650792612,-0.0015647609731041,0.001564757939392,-1.0957709051371e-08,1.0771378451312e-08,-0.00083497265010654,0.00083497243832411,5.1361415584874e-09,-5.5120991349124e-09,-0.00097926393481701,0.00097926006212504,-0.00097926747417959,0.00097925650904544,-0.00097925669762431,0.00097926731370745,-0.00097926023765596,0.00097926376227244,-0.00095836239774972,0.000958379910778,-0.00095838363914613,0.00095835863044311,0.71253731942988,125803,2834,0.0064979182661654,0.006497918302835,0.0034782738022882,37.196729878397,5.7573839027173e-05,5.7573839027173e-05,5.7573839027173e-05,3552929.4517286,0.016611417036384
38619200,0.99968303833884,0.01630117578252,0.0061989736662848,0.006198973707027,0.0039032284092082,-0.0015650889466539,0.0015650884221907,1.0610704036452e-08,-1.1148663843031e-08,-3.7915725903541e-09,3.3413286124692e-09,-0.0016545702347503,0.0016545746083784,-0.0016545774838061,0.0016545673522379,-0.0016545679292088,0.0016545769808942,-0.0016545751857034,0.0016545697321753,-0.0013891005081747,0.0013891236781998,-0.0013891218303653,0.0013891023555754,3.7898941432178e-09,-3.3318337152999e-09,-5.106876655059e-09,5.6400721420793e-09,-0.0015650884298363,0.0015650889566792,-0.0016545727710616,0.0016545721166916,-0.0016545692761232,0.0016545756905081,-0.001654575071661,0.0016545697381163,-0.001654571577048,0.001654573312254,-0.0013891182514209,0.0013891058306997,-0.0013891078068203,0.0013891165108469,-0.0015648288019002,0.0015648399030496,-0.0015648357846603,0.0015648327655344,-1.1019563608527e-08,1.0831735981695e-08,-0.00083497170708711,0.00083497149377881,5.1539004076175e-09,-5.5316861177136e-09,-0.00097932701415628,0.00097932311168104,-0.00097933056596569,0.00097931954615739,-0.00097931973618588,0.000979330404011,-0.00097932328868082,0.00097932684019179,-0.00095837320454507,0.00095839082316584,-0.00095839456553822,0.00095836942339685,0.71625965710577,125803,2834,0.0064981909883289,0.0064981910248829,0.003478275019322,37.193729859821,5.7549838878571e-05,5.7549838878571e-05,5.7549838878571e-05,3545178.4182499,0.016611973680219
38819200,0.99970510942711,0.016301540137266,0.0061991120325545,0.0061991120732972,0.0039033160314145,-0.0015651611477534,0.0015651606234667,1.0671097151895e-08,-1.1209215729271e-08,-3.7919608631985e-09,3.3424393998295e-09,-0.0016546250995352,0.001654629512977,-0.0016546323887631,0.0016546222166158,-0.0016546227934904,0.0016546318860371,-0.001654630090168,0.0016546245970815,-0.0013891939813039,0.0013892172696552,-0.0013892154218113,0.001389195828662,3.790863267847e-09,-3.3330203506859e-09,-5.1263262001193e-09,5.6591997067637e-09,-0.0015651606311516,0.0015651611577836,-0.0016546276616931,0.0016546269950227,-0.0016546241540722,0.0016546305818004,-0.0016546299630392,0.0016546246158127,-0.0016546264556823,0.0016546282028231,-0.0013892118026103,0.0013891993429826,-0.0013892013200465,0.0013892100610098,-0.0015649068865998,0.0015649180023734,-0.0015649138696565,0.001564910861039,-1.1081005328643e-08,1.0891783275733e-08,-0.00083496852002061,0.00083496830533761,5.1721301431086e-09,-5.5514506665507e-09,-0.00097939440290272,0.00097939047119647,-0.00097939796737299,0.00097938689301053,-0.00097938708441343,0.00097939780410141,-0.00097939064955827,0.00097939422761714,-0.00095837909138897,0.00095839681499605,-0.00095840057073782,0.0009583752954334,0.71844599325936,125803,2834,0.0064984879116342,0.0064984879482798,0.0034782671628894,37.193613442922,5.7548907543374e-05,5.7548907543374e-05,5.7548907543374e-05,3537708.8851258,0.016612570318652
38880000,0.99971166979569,0.016301648567142,0.0061991532013888,0.0061991532421315,0.003903342123622,-0.0015651834221272,0.0015651828981693,1.0689669154004e-08,-1.122757021126e-08,-3.7928164184149e-09,3.3440212924449e-09,-0.0016546415044742,0.001654645929633,-0.0016546488060342,0.0016546386209259,-0.001654639197594,0.0016546483034909,-0.0016546465066463,0.0016546410022121,-0.0013892234918683,0.0013892468173793,-0.0013892449689641,0.0013892253402625,3.7922027829845e-09,-3.3346960122117e-09,-5.1322493836635e-09,5.6647676365975e-09,-0.0015651829059742,0.0015651834323182,-0.001654644073836,0.0016546434041173,-0.001654640562417,0.0016546469947013,-0.0016546463761404,0.0016546410238838,-0.0016546428650374,0.0016546446147327,-0.0013892413380756,0.0013892288658554,-0.0013892308444623,0.0013892395952668,-0.0015649302558545,0.0015649413781961,-0.0015649372414209,0.0015649342334768,-1.1099623812612e-08,1.0909919733176e-08,-0.00083496442484879,0.00083496420972794,5.1777347891166e-09,-5.5574700354407e-09,-0.00097941467875367,0.00097941073830512,-0.00097941824710107,0.0009794071562191,-0.00097940734807853,0.00097941808341182,-0.00097941091709539,0.00097941450302199,-0.00095838020181506,0.00095839795690438,-0.00095840171700551,0.00095837640130745,0.71909629624254,125803,2834,0.0064985793991877,0.0064985794364137,0.003478252086943,37.193609059783,5.7548872478263e-05,5.7548872478263e-05,5.7548872478263e-05,3535283.8887852,0.016612741297403
