time,ASR_ext,ASR_strain,ASR_strain_xx,ASR_strain_yy,ASR_strain_zz,disp_x_101,disp_x_102,disp_x_103,disp_x_104,disp_x_105,disp_x_106,disp_x_p1_neg,disp_x_p1_pos,disp_x_p2_neg,disp_x_p2_pos,disp_x_p3_neg,disp_x_p3_pos,disp_x_p4_neg,disp_x_p4_pos,disp_x_p5_neg,disp_x_p5_pos,disp_x_p6_neg,disp_x_p6_pos,disp_y_101,disp_y_102,disp_y_103,disp_y_104,disp_y_105,disp_y_106,disp_y_p1_neg,disp_y_p1_pos,disp_y_p2_neg,disp_y_p2_pos,disp_y_p3_neg,disp_y_p3_pos,disp_y_p4_neg,disp_y_p4_pos,disp_y_p5_neg,disp_y_p5_pos,disp_y_p6_neg,disp_y_p6_pos,disp_y_p7_neg,disp_y_p7_pos,disp_y_p8_neg,disp_y_p8_pos,disp_z_101,disp_z_102,disp_z_103,disp_z_104,disp_z_105,disp_z_106,disp_z_p1_neg,disp_z_p1_pos,disp_z_p2_neg,disp_z_p2_pos,disp_z_p3_neg,disp_z_p3_pos,disp_z_p4_neg,disp_z_p4_pos,disp_z_p5_neg,disp_z_p5_pos,disp_z_p6_neg,disp_z_p6_pos,humidity,ndof,nelem,strain_xx,strain_yy,strain_zz,temp,thermal_strain_xx,thermal_strain_yy,thermal_strain_zz,vonmises,vstrain
2419200,0,0,0,0,0,0,0,0,0,0,0,0,0,0,0,0,0,0,0,0,0,0,0,0,0,0,0,0,0,0,0,0,0,0,0,0,0,0,0,0,0,0,0,0,0,0,0,0,0,0,0,0,0,0,0,0,0,0,0,0,0,0,0,0,0,0,0,0,0,0,0,0,0,0,0
2619200,0.019614267329385,0.00040233924095117,0.00013411308031706,0.00013411308031706,0.00013411308031706,-3.4077416049523e-05,3.4077511669041e-05,4.0197716411989e-11,5.4632834497055e-11,-1.6800303603434e-10,2.7104368969104e-10,-3.3970428746669e-05,3.3970374475562e-05,-3.3970406770593e-05,3.3970362078185e-05,-3.3970280481543e-05,3.3970511921652e-05,-3.3970276259761e-05,3.3970517288866e-05,-3.4988807480138e-05,3.4989033228139e-05,-3.4988792472618e-05,3.4989046799587e-05,1.7519222182848e-10,-2.8161671158615e-10,-4.0106355997681e-09,3.911764650155e-09,-3.4077513575675e-05,3.407741413265e-05,-3.3971637687094e-05,3.3969094829104e-05,-3.3969104570852e-05,3.3971749699789e-05,-3.3971782633711e-05,3.3968942591566e-05,-3.3969249644914e-05,3.3971597488418e-05,-3.4992876966005e-05,3.4984851426764e-05,-3.49852117109e-05,3.4992735964453e-05,-3.4987447087558e-05,3.4990418990717e-05,-3.4987891961807e-05,3.4989960492694e-05,-8.4459997639974e-10,-8.5935562799236e-10,-3.4078322326881e-05,3.4076605373071e-05,3.0008423581797e-09,-4.8456443387014e-09,-3.3969931578445e-05,3.3970858367308e-05,-3.3972532317262e-05,3.3968256722081e-05,-3.3969937031161e-05,3.3970853889474e-05,-3.3972537744909e-05,3.3968252274796e-05,-3.4991085952904e-05,3.4986752890814e-05,-3.4991070326333e-05,3.4986765686882e-05,0.81992968516416,131329,3014,0.00014197930250235,0.00014197930248115,0.00014197930246371,31.580177101858,1.2641416814862e-05,1.2641416814862e-05,1.2641416814862e-05,557191.00384218,0.00042602887410359
2819200,0.041192126140564,0.00083409208197713,0.00027803069412808,0.00027803069397742,0.00027803069387164,-6.9598175828092e-05,6.9603878051073e-05,2.7703315953964e-09,2.8828777090208e-09,-1.0256517273202e-08,1.6396513713504e-08,-7.0453272481562e-05,7.0450137568526e-05,-7.0453215889079e-05,7.0450155872811e-05,-7.0444800908057e-05,7.0459011144656e-05,-7.0444762735003e-05,7.0459048090346e-05,-7.123512084656e-05,7.1249483575195e-05,-7.1235004570047e-05,7.1249588276498e-05,1.0261532238613e-08,-1.6401322077182e-08,-6.8961546214194e-09,1.2426327430914e-09,-6.960387794234e-05,6.9598175871993e-05,-7.0451651137787e-05,7.0452093050803e-05,-7.0449060264012e-05,7.0454818391073e-05,-7.0460115695015e-05,7.0443207679572e-05,-7.0457524762745e-05,7.0445933132284e-05,-7.1253401768111e-05,7.12309339314e-05,-7.1245529518149e-05,7.1239043520302e-05,-7.1230961652766e-05,7.125397313e-05,-7.125692971531e-05,7.1227235268545e-05,-3.2125935415166e-10,-4.3446493122914e-10,-6.9601415254474e-05,6.9600638509053e-05,3.5681487585727e-09,-4.4847514547377e-09,-7.0450816494512e-05,7.0452784636707e-05,-7.0453458538195e-05,7.045008359964e-05,-7.0450883758012e-05,7.0452776287917e-05,-7.0453525664543e-05,7.0450075361276e-05,-7.1244063971308e-05,7.1240512128522e-05,-7.1243870055126e-05,7.1240539227575e-05,0.82138492292501,131329,3014,0.00028996215341657,0.00028996215328168,0.00028996215317431,32.742726108983,2.1941808871862e-05,2.1941808871862e-05,2.1941808871862e-05,755589.03418569,0.00087026559195054
3019200,0.062588909407151,0.0012518212956185,0.00041727376533052,0.00041727376519998,0.00041727376508795,-0.00010135642357697,0.0001013634498296,3.3756616864629e-09,3.5896724216664e-09,-1.4996832391337e-08,2.2685450948123e-08,-0.00010341717358562,0.00010341169407195,-0.00010341708434992,0.00010341174706675,-0.00010340523876076,0.0001034242328621,-0.00010340516644654,0.00010342430361226,-0.00010395937318008,0.00010397859752339,-0.00010395915919292,0.0001039788041435,1.4978825364629e-08,-2.265143443029e-08,-7.3263097579463e-09,3.7541303889736e-10,-0.00010136344246852,0.00010135643087088,-0.00010341325692998,0.00010341614896442,-0.00010341080871976,0.00010341872621453,-0.00010342516622279,0.00010340361945261,-0.00010342271765027,0.00010340619711825,-0.00010398230705151,0.00010395534091066,-0.00010397485678344,0.00010396301806596,-0.00010395309826887,0.00010398535841864,-0.00010398975540317,0.00010394755838543,-1.7184361615578e-10,-3.8052557885183e-10,-0.00010136022217703,0.00010135965111099,3.4585104281065e-09,-4.1669258974046e-09,-0.00010341354816703,0.00010341561197957,-0.00010341603173462,0.00010341303693392,-0.00010341366390119,0.00010341558814056,-0.00010341614715866,0.00010341301364978,-0.00010397061274184,0.00010396731306401,-0.00010397029896999,0.00010396740632812,0.82013326527565,131329,3014,0.00042224379302289,0.00042224379288314,0.00042224379277301,32.491546914796,1.9932375318367e-05,1.9932375318367e-05,1.9932375318367e-05,1035440.8542841,0.0012675357535387
3219200,0.08373131108698,0.0016499341746364,0.00054997805833683,0.00054997805820584,0.00054997805809376,-0.00013147648771076,0.000131483393644,3.2671936931114e-09,3.5793172363595e-09,-1.6086045053505e-08,2.3757102672093e-08,-0.00013521253271975,0.00013520620956038,-0.00013521241151893,0.00013520629609285,-0.00013519999804968,0.00013521944860787,-0.00013519989289896,0.00013521955193686,-0.00013494461064761,0.00013496432546619,-0.00013494430197221,0.00013496462940312,1.6069270332088e-08,-2.3726001413442e-08,-7.0349852937017e-09,2.0109550794484e-10,-0.00013148338724337,0.00013147649404126,-0.00013520776288425,0.00013521161993286,-0.00013520546826272,0.00013521403982569,-0.00013522027314273,0.0001351983898615,-0.00013521797820838,0.00013520081012963,-0.00013496784949519,0.0001349407495249,-0.00013496085009974,0.00013494796545069,-0.00013493759406303,0.0001349719002053,-0.00013497634424208,0.00013493184093163,-6.3785229607225e-11,-3.7128972048626e-10,-0.00013148016674193,0.00013147971448359,3.2886687413097e-09,-3.8740493364649e-09,-0.0001352085123771,0.00013521057292672,-0.00013521083062548,0.00013520814233875,-0.00013520867152113,0.00013521052671349,-0.00013521098950678,0.00013520809664104,-0.00013495600301369,0.00013495287830715,-0.00013495558544986,0.0001349530614421,0.80675915440325,131329,3014,0.00054768302441758,0.00054768302427166,0.00054768302414509,32.203373817977,1.7626990543814e-05,1.7626990543814e-05,1.7626990543814e-05,1264715.5795086,0.0016444028890351
3419200,0.10459891625923,0.0020258003390321,0.00067526677980295,0.00067526677967401,0.00067526677955511,-0.00015981561466169,0.00015982060416649,2.2696954455901e-09,2.6801304064882e-09,-1.4227354682639e-08,1.9935413938641e-08,-0.00016574851901237,0.00016574212849437,-0.00016574836625198,0.00016574224903061,-0.00016573782816763,0.00016575345837003,-0.0001657376902984,0.00016575359451375,-0.00016391083850789,0.00016392667705444,-0.00016391043466525,0.00016392707832028,1.4211126186839e-08,-1.990738493407e-08,-5.9905629260663e-09,1.0508442146065e-09,-0.00015982059901753,0.00015981561974401,-0.00016574363625466,0.00016574758993943,-0.00016574140171977,0.00016574994293214,-0.00016575430420975,0.00016573626852984,-0.00016575206937445,0.00016573862188389,-0.00016393017533613,0.0001639070424175,-0.00016392336083771,0.00016391406147206,-0.00016390371935985,0.00016393431064689,-0.0001639369394636,0.00016389990013506,3.4139713290488e-11,-3.7198166838449e-10,-0.00015981828614452,0.00015981793255804,3.2429438537031e-09,-3.726103767242e-09,-0.00016574441560993,0.00016574654285174,-0.00016574667096433,0.00016574417771544,-0.00016574460632228,0.00016574646248872,-0.0001657468614197,0.00016574409784234,-0.00016392025828676,0.00016391719866626,-0.00016391976836794,0.00016391750261537,0.78589838411517,131329,3014,0.00066568740096807,0.00066568740082942,0.00066568740070404,31.913876953649,1.5311015629194e-05,1.5311015629194e-05,1.5311015629194e-05,1465606.4761208,0.0019990627468538
3619200,0.12571856345093,0.0023920841567184,0.00079736138570236,0.00079736138556881,0.00079736138544722,-0.00018804909453586,0.00018805252907539,1.4532207099651e-09,1.9587589831326e-09,-1.3056481921072e-08,1.7145883786012e-08,-0.00019657474292552,0.00019656807105291,-0.00019657455932432,0.00019656822445117,-0.00019656530185761,0.00019657806904498,-0.00019656513272141,0.00019657823702024,-0.00019264481036969,0.00019265770985113,-0.00019264431321381,0.00019265820326611,1.3054171298228e-08,-1.7143267176448e-08,-5.1998211830132e-09,1.7872926599354e-09,-0.00018805252896363,0.00018804909460991,-0.00019656954385983,0.00019657376852011,-0.00019656732543531,0.00019657610218153,-0.00019657897421807,0.00019656376624218,-0.00019657675579035,0.00019656609995969,-0.00019266125927206,0.00019264100142939,-0.00019265449344269,0.00019264796268225,-0.00019263734490998,0.00019266563368275,-0.00019266676575024,0.00019263516876924,1.0421299772475e-10,-4.0378287391625e-10,-0.00018805096926033,0.00018805065425937,3.2367055657785e-09,-3.6790781570995e-09,-0.00019657045155983,0.00019657263256388,-0.00019657269249672,0.00019657028911612,-0.00019657067204427,0.00019657251437017,-0.0001965729129163,0.00019657017098867,-0.00019265278276591,0.00019264967984442,-0.00019265221504141,0.00019265010638101,0.77011576977768,131329,3014,0.00078323905632956,0.00078323905625122,0.00078323905613713,31.993966509661,1.5951732077287e-05,1.5951732077287e-05,1.5951732077287e-05,1689785.2232434,0.0023524872352586
3819200,0.14743798948955,0.0027628583468444,0.00092095278251721,0.00092095278223807,0.0009209527820891,-0.00021705326754804,0.00021705586733244,9.9016177541391e-10,1.5988652950422e-09,-1.2507115841137e-08,1.5724107979118e-08,-0.00022841880245706,0.00022841191247708,-0.0002284185854643,0.00022841210079414,-0.00022840998062872,0.0002284212441731,-0.00022840977728542,0.00022842144684236,-0.00022226349341288,0.00022227481771652,-0.00022226289586209,0.00022227541360296,1.2484550252906e-08,-1.5696656553507e-08,-4.7943569312072e-09,2.2091939589648e-09,-0.00021705586491048,0.0002170532698655,-0.00022841338646027,0.00022841778073283,-0.0002284111615907,0.00022842011853178,-0.00022842218468766,0.00022840845890319,-0.00022841995951877,0.00022841079705426,-0.00022227842854132,0.0002222596474838,-0.00022227164362007,0.00022226662331829,-0.00022225577609281,0.00022228295658117,-0.00022228326106466,0.00022225452308064,1.5850818434554e-10,-4.4333008609224e-10,-0.00021705471717145,0.00021705441753889,3.2525719450531e-09,-3.679032324018e-09,-0.0002284143643299,0.00022841659755984,-0.0002284166147819,0.00022841425300384,-0.00022841461208194,0.00022841644361276,-0.00022841686231917,0.00022841409956021,-0.00022227071850549,0.00022226753359806,-0.00022227007603533,0.0002222680683435,0.77140162530452,131329,3014,0.00090398699000755,0.00090398698979018,0.00090398698965182,32.325784454345,1.8606275634761e-05,1.8606275634761e-05,1.8606275634761e-05,1932891.8596862,0.0027156521561618
4019200,0.16974639856024,0.0031387796346743,0.0010462598785074,0.0010462598781635,0.0010462598780035,-0.00024640795846888,0.00024641021358654,7.7250914358182e-10,1.4792999909007e-09,-1.2312706811347e-08,1.5165736440324e-08,-0.00026095306948773,0.000260946050946,-0.00026095282042506,0.00026094627271776,-0.00026094448200791,0.00026095512500274,-0.00026094424618765,0.00026095536065594,-0.00025236838461586,0.00025237902581415,-0.00025236769225005,0.00025237971889668,1.2293033392769e-08,-1.5139473397141e-08,-4.6264902316703e-09,2.3800212395335e-09,-0.0002464102104229,0.00024640796149037,-0.00026094752987043,0.00026095202102846,-0.00026094530290217,0.00026095435877119,-0.00026095609474499,0.00026094295606736,-0.00026095386752297,0.00026094529414505,-0.00025238269370171,0.00025236449660325,-0.00025237590398683,0.00025237147382202,-0.00025236049973274,0.00025238731146333,-0.00025238727890005,0.00025235963798567,2.1144790483812e-10,-4.8931165010761e-10,-0.00024640923194474,0.00024640893989665,3.2580375197894e-09,-3.6765897994995e-09,-0.00026094854069646,0.00026095081558809,-0.00026095079580828,0.00026094847403103,-0.00026094881752762,0.00026095062491094,-0.00026095107246882,0.00026094828383772,-0.00025237531199632,0.00025237203616852,-0.00025237458540739,0.00025237268059439,0.77299486570556,131329,3014,0.0010261807508819,0.0010261807505862,0.0010261807504349,32.663325585572,2.1306604684579e-05,2.1306604684579e-05,2.1306604684579e-05,2170215.801332,0.0030833008112104
4219200,0.19261831673501,0.0035199756205644,0.0011733252071386,0.0011733252067926,0.0011733252066332,-0.00027611925756555,0.0002761214402763,6.8933929615768e-10,1.4944892638788e-09,-1.249918584954e-08,1.5272620276522e-08,-0.00029421612321666,0.00029420890170899,-0.00029421584200504,0.00029420915694802,-0.0002942074327656,0.00029421806823975,-0.00029420716438201,0.00029421833693644,-0.00028296402358467,0.00028297459724521,-0.00028296323595687,0.00028297538771034,1.2480286638815e-08,-1.5247029223789e-08,-4.5796072298223e-09,2.401161258026e-09,-0.00027612143711665,0.00027611926057634,-0.00029421038812131,0.00029421505812341,-0.00029420816864167,0.00029421738631306,-0.00029421905645894,0.00029420590058616,-0.0002942168367278,0.00029420822910467,-0.00028297830556849,0.00028296010431461,-0.00028297153907561,0.00028296705475595,-0.00028295591886831,0.00028298309237544,-0.00028298300338469,0.00028295514120718,2.6399881817909e-10,-5.3541177769948e-10,-0.00027612049131854,0.00027612020630154,3.2489867085465e-09,-3.6599057202307e-09,-0.00029421147488016,0.00029421378113389,-0.00029421372421116,0.00029421145131014,-0.00029421178164593,0.000294213554675,-0.00029421403077938,0.00029421122529866,-0.00028297095551592,0.00028296759828374,-0.0002829701426057,0.00028296834956956,0.77488674459065,131329,3014,0.0011498448364862,0.0011498448361765,0.0011498448360231,33.001066664458,2.4008533315662e-05,2.4008533315662e-05,2.4008533315662e-05,2397314.5364732,0.0034555121208548
4419200,0.21642385769471,0.0039122831286636,0.0013040943764911,0.0013040943761644,0.0013040943760081,-0.00030711962885763,0.0003071217967688,6.2013075197532e-10,1.5511280425001e-09,-1.2589026789711e-08,1.5340809582695e-08,-0.00032920768015895,0.0003292003511036,-0.00032920735863599,0.00032920064854504,-0.00032919893269807,0.00032920956433048,-0.00032919862255459,0.00032920987624488,-0.00031498310238175,0.0003149935897986,-0.00031498218616288,0.00031499450230505,1.2492951075151e-08,-1.5224673490951e-08,-4.5781800814626e-09,2.425073040377e-09,-0.00030712178630595,0.0003071196393082,-0.00032920187486109,0.00032920656644159,-0.00032919964836009,0.00032920890112548,-0.00032921054690846,0.00032919741650648,-0.00032920831880459,0.00032919975264057,-0.00031499734309687,0.00031497914640349,-0.00031499054777518,0.00031498611621201,-0.00031497493708466,0.00031500213539907,-0.00031500202297394,0.00031497421138068,3.01782452165e-10,-5.6879829873477e-10,-0.00030712085367844,0.00030712057188718,3.2587497550569e-09,-3.6648281445305e-09,-0.00032920295957127,0.00032920529667541,-0.00032920521614998,0.00032920296360513,-0.0003292032884696,0.00032920504357888,-0.00032920554386541,0.00032920271239797,-0.00031499002504414,0.00031498660161019,-0.00031498914854469,0.00031498742477011,0.77612069351905,131329,3014,0.0012788587548098,0.0012788587547846,0.0012788587546819,33.595594787054,2.8764758296436e-05,2.8764758296436e-05,2.8764758296436e-05,2620570.8828608,0.003843974725472
4619200,0.24130082095823,0.0043172344520823,0.0014390781510501,0.0014390781506006,0.0014390781504316,-0.00033924559115437,0.00033924774225863,5.65018804931e-10,1.5914847890998e-09,-1.2612462178114e-08,1.5341889842988e-08,-0.00036581078011892,0.0003658033918194,-0.00036581042692062,0.00036580372218586,-0.00036580201731209,0.00036581261036261,-0.00036580167536699,0.00036581295474116,-0.00034824763481259,0.00034825801977651,-0.00034824662583373,0.00034825902646254,1.2528669212151e-08,-1.5232213991736e-08,-4.5787987484475e-09,2.4454706954215e-09,-0.00033924772911182,0.00033924560417496,-0.00036580492656322,0.00036580964683023,-0.00036580269243575,0.00036581198776877,-0.00036581361695749,0.00036580048726756,-0.00036581138165004,0.00036580282975648,-0.00034826183546936,0.00034824362293066,-0.00034825501854701,0.0003482506122876,-0.00034823937795922,0.00034826664978953,-0.00034826651434498,0.00034823869525126,3.5232287345453e-10,-6.1980122514508e-10,-0.00033924680766975,0.00033924652554552,3.2696105969053e-09,-3.6755783070984e-09,-0.00036580600767747,0.00036580838482859,-0.0003658082730924,0.00036580604686067,-0.00036580636730967,0.0003658080957631,-0.00036580863221768,0.00036580575999654,-0.00034825455900034,0.00034825102851286,-0.00034825358818559,0.00034825195627811,0.77693647775907,131329,3014,0.0014125402852321,0.0014125402849693,0.0014125402848187,34.293637248546,3.4349097988372e-05,3.4349097988372e-05,3.4349097988372e-05,2837591.2120245,0.0042466525464079
4819200,0.26722021735451,0.0047341266652639,0.0015780422221473,0.0015780422216512,0.0015780422214654,-0.00037224763672555,0.00037224977582131,5.1110907786557e-10,1.6349616521173e-09,-1.2652985819189e-08,1.5365094023895e-08,-0.00040380026133597,0.00040379280622681,-0.00040379987614927,0.00040379316985377,-0.00040379147147403,0.00040380204319945,-0.00040379109727887,0.00040380242053356,-0.00038251635193462,0.0003825266515725,-0.00038251524739291,0.00038252775346524,1.2572016491743e-08,-1.5260133093736e-08,-4.5781998424166e-09,2.4531705324807e-09,-0.00037224976335973,0.00037224764902064,-0.00040379435418409,0.00040379910703737,-0.0004037921173076,0.00040380144971607,-0.00040380307289964,0.0004037899274021,-0.00040380083484736,0.00040379227159332,-0.00038253052397943,0.00038251228933039,-0.0003825236978706,0.0003825192837522,-0.00038250800712946,0.00038253536296327,-0.00038253522042445,0.00038250734864633,4.0199794110649e-10,-6.6975820593479e-10,-0.00037224884743249,0.00037224856486502,3.2733530246797e-09,-3.6790056165361e-09,-0.00040379543616055,0.00040379784775901,-0.00040379770610236,0.00040379551010616,-0.0004037958264102,0.00040379752323216,-0.00040379809576803,0.00040379518766076,-0.00038252328207202,0.00038251965185707,-0.00038252221933814,0.00038252068282028,0.7779218053684,131329,3014,0.001549849767388,0.0015498497670411,0.0015498497668669,34.994065759202,3.995252607362e-05,3.995252607362e-05,3.995252607362e-05,3052561.1700131,0.0046604297522534
5019200,0.29413623723359,0.005160838971611,0.0017202796576293,0.0017202796570917,0.00172027965689,-0.00040595269155658,0.00040595483201824,4.6345252284355e-10,1.685426714562e-09,-1.2692138298284e-08,1.5401193110696e-08,-0.00044302877251679,0.00044302126015567,-0.00044302835512455,0.00044302165708798,-0.0004430199531922,0.00044303051988906,-0.00044301954652689,0.00044303093023835,-0.0004175682144925,0.00041757844585175,-0.00041756701513955,0.00041757964489848,1.2612087671335e-08,-1.5298035083704e-08,-4.5772624215213e-09,2.4482919033635e-09,-0.0004059548201587,0.00040595270317734,-0.00044302282114216,0.00044302759951991,-0.00044302058578808,0.00044302993962522,-0.00044303156989882,0.00044301839655932,-0.0004430293333497,0.00044302073813242,-0.00041758236628241,0.00041756410841648,-0.0004175755449344,0.00041757109652629,-0.00041755979632869,0.00041758722652318,-0.00041758709074575,0.00041755914239532,4.5098563563958e-10,-7.196735706723e-10,-0.00040595390316466,0.00040595362006966,3.2703835271458e-09,-3.6762140279055e-09,-0.00044302390202914,0.00044302634410647,-0.00044302617251033,0.00044302401136865,-0.00044302432259281,0.00044302598406999,-0.0004430265923442,0.00044302365324407,-0.000417575156457,0.00041757143030508,-0.00041757400341682,0.00041757256485397,0.77677327122231,131329,3014,0.0016900660060803,0.0016900660055825,0.0016900660053688,35.694578018254,4.5556624146032e-05,4.5556624146032e-05,4.5556624146032e-05,3264745.1078624,0.0050831459457384
5219200,0.32135469967075,0.0055882116077025,0.0018627372030058,0.0018627372024551,0.0018627372022416,-0.00043893769779384,0.00043893986313727,3.9680186584302e-10,1.7779017688508e-09,-1.2900070282796e-08,1.5631717882984e-08,-0.00048192613546087,0.00048191844842292,-0.00048192566615804,0.00048191889846925,-0.000481917167765,0.00048192785191381,-0.00048191670776053,0.00048192831570448,-0.00045198531141538,0.00045199555682491,-0.0004519839563078,0.00045199691711307,1.2703433716575e-08,-1.5400043576503e-08,-4.5483670132691e-09,2.4036866484426e-09,-0.00043893984656382,0.00043893771402313,-0.00048192005915173,0.00048192491065188,-0.00048191784797324,0.00048192722489462,-0.00048192887525493,0.00048191564319227,-0.0004819266623603,0.0004819179601484,-0.00045199947661269,0.00045198120995389,-0.00045199272478903,0.0004519881297553,-0.00045197682358071,0.0004520044049203,-0.00045200430543549,0.00045197613674867,4.7036380913497e-10,-7.3816514666441e-10,-0.00043893892087963,0.00043893863957995,3.2264632935846e-09,-3.6300062964538e-09,-0.00048192118499261,0.00048192361244372,-0.0004819234280097,0.00048192131195494,-0.00048192161487369,0.00048192323545651,-0.00048192385658347,0.00048192093804143,-0.00045199225958512,0.00045198852937212,-0.0004519910790301,0.00045198970510828,0.77855553626277,131329,3014,0.0018272693131362,0.0018272693124184,0.0018272693121513,36.023483085593,4.8187864684747e-05,4.8187864684747e-05,4.8187864684747e-05,3472628.5031167,0.005496956112253
5419200,0.3486746245695,0.0060072714994491,0.0020024238335902,0.00200242383305,0.0020024238328089,-0.00047106770299969,0.00047106995125777,3.9047449100763e-10,1.8664788322499e-09,-1.2926223032774e-08,1.5740122338214e-08,-0.00052036691644461,0.00052035923588778,-0.00052036641505234,0.00052035971882312,-0.00052035790503829,0.00052036868382341,-0.00052035741299335,0.00052036918009602,-0.00048537913330784,0.00048538940683906,-0.00048537768606605,0.00048539086198683,1.2738965469549e-08,-1.5514241125897e-08,-4.5362944360656e-09,2.3121050299836e-09,-0.00047106993336867,0.0004710677205326,-0.00052036084469873,0.00052036569616417,-0.00052035866691991,0.00052036797518531,-0.00052036970566385,0.00052035638192728,-0.00052036752701978,0.00052035866404744,-0.00048539332748044,0.00048537503179147,-0.00048538667736521,0.00048538184974591,-0.00048537064434788,0.00048539825731958,-0.00048539827091537,0.00048536984220664,5.2184223253389e-10,-7.8875983344322e-10,-0.00047106896684943,0.00047106868691244,3.176596603294e-09,-3.5778595003997e-09,-0.0005203619698674,0.0005203643976283,-0.00052036418015847,0.00052036213344522,-0.00052036243013075,0.00052036398468685,-0.00052036464030667,0.00052036172433472,-0.00048538612660704,0.00048538233156561,-0.00048538484985164,0.00048538360985107,0.76958004566166,131329,3014,0.0019608998642818,0.0019608998635388,0.0019608998632466,36.276196197889,5.0209569583109e-05,5.0209569583109e-05,5.0209569583109e-05,3657698.2008595,0.0059001588620065
5619200,0.37601887148399,0.0064029392700074,0.0021343130904004,0.0021343130899187,0.0021343130896884,-0.00050135105211888,0.00050135335526626,3.6965355208772e-10,1.941484921836e-09,-1.2896406893916e-08,1.5762685288314e-08,-0.00055740310748759,0.00055739545384312,-0.00055740257422388,0.00055739596955227,-0.00055739409987401,0.0005574048986124,-0.00055739357574556,0.00055740542734097,-0.0005162470152776,0.0005162572453293,-0.00051624547427555,0.0005162587944782,1.2714154057762e-08,-1.5542933554163e-08,-4.5095816805861e-09,2.2300051545603e-09,-0.00050135333801911,0.00050135106905378,-0.00055739706092159,0.00055740189027418,-0.00055739491887506,0.0005574041327494,-0.00055740592051003,0.00055739257715732,-0.00055740377740716,0.00055739482243636,-0.00051626116304716,0.00051624291881667,-0.00051625461815093,0.00051624962863098,-0.00051623854858098,0.00051626607379772,-0.00051626617842462,0.00051623765566955,5.7324534343943e-10,-8.3848031736951e-10,-0.00050135234255358,0.0005013520643892,3.1244505967157e-09,-3.5226240222836e-09,-0.00055739817515194,0.00055740060167535,-0.0005574003518272,0.00055739837610373,-0.00055739866689285,0.0005574001535803,-0.00055740084288849,0.0005573979311653,-0.00051625401618088,0.00051625015992722,-0.000516252643686,0.00051625154045201,0.73637049839562,131329,3014,0.0020868356037647,0.0020868356031129,0.00208683560284,36.527097858165,5.2216782865323e-05,5.2216782865323e-05,5.2216782865323e-05,3811237.6984665,0.0062802938715098
5819200,0.40330973110292,0.0067798370939278,0.0022599456983652,0.0022599456978956,0.002259945697667,-0.00053013519009166,0.00053013749465338,3.2112725484162e-10,1.9905321195219e-09,-1.2870607243401e-08,1.5735081288038e-08,-0.00059317649570104,0.00059316882787643,-0.00059317593032417,0.00059316937665418,-0.00059316750095894,0.00059317825464604,-0.00059316694439966,0.00059317881609042,-0.00054513259459677,0.00054514271255046,-0.00054513095797335,0.00054514435693805,1.2689226532419e-08,-1.5518360209665e-08,-4.4601859778476e-09,2.1779258422906e-09,-0.00053013747849362,0.00053013520594486,-0.00059317043303513,0.00059317527618174,-0.00059316832341927,0.00059317748459541,-0.00059317928122673,0.00059316598033729,-0.00059317717021354,0.00059316819117928,-0.00054514663150695,0.00054512850075217,-0.00054514018416549,0.00054513510892606,-0.00054512411201184,0.00054515155429733,-0.00054515169609495,0.00054512318853239,6.2787451517338e-10,-8.8320243547773e-10,-0.00053013647626935,0.00053013620804246,3.0797594681829e-09,-3.4666269676978e-09,-0.0005931715503638,0.00059317398600145,-0.00059317369561536,0.00059317179594719,-0.00059317207393544,0.00059317350365114,-0.00059317421769679,0.00059317131590689,-0.00054513956611505,0.0005451356560062,-0.00054513809722545,0.00054513713495251,0.71317584991555,131329,3014,0.0022065236842897,0.0022065236836492,0.0022065236833835,36.777935550194,5.422348440155e-05,5.422348440155e-05,5.422348440155e-05,3973583.447356,0.0066417067681523
6019200,0.43006142010938,0.0071387767455465,0.002379592248924,0.002379592248427,0.0023795922481955,-0.00055706263243026,0.00055706494436257,2.7644163310375e-10,2.0423980067311e-09,-1.2847944205712e-08,1.5718163842384e-08,-0.00062703615093502,0.00062702847123963,-0.00062703555354047,0.00062702905256461,-0.00062702716595413,0.00062703788410315,-0.00062702657700613,0.00062703847781682,-0.00057189643568118,0.00057190645357252,-0.00057189470617284,0.00057190819429971,1.2670721993244e-08,-1.550488335058e-08,-4.407517029749e-09,2.1184748122881e-09,-0.00055706492837496,0.00055706264800212,-0.00062703007222274,0.00062703493242503,-0.00062702799871419,0.00062703710311397,-0.00062703891331726,0.00062702564903346,-0.00062703683794553,0.00062702782177158,-0.0005719103667533,0.000571892350828,-0.00057190402933102,0.00057189884895419,-0.00057188793831638,0.00057191530730981,-0.00057191549318567,0.00057188697662197,6.8095965635581e-10,-9.3049356744259e-10,-0.00055706391896196,0.00055706365726665,3.0276581681359e-09,-3.4073369748414e-09,-0.00062703119709346,0.00062703363577157,-0.00062703330671256,0.00062703148413047,-0.00062703175381273,0.00062703311984446,-0.00062703386092378,0.00062703096960296,-0.00057190338495253,0.000571899418686,-0.00057190181812863,0.00057190099598166,0.70261524321922,131329,3014,0.0023184799033676,0.0023184799024995,0.0023184799021883,36.775509262564,5.420407410051e-05,5.420407410051e-05,5.420407410051e-05,4107121.1590275,0.0069798948623979
6219200,0.45620444217487,0.0074897440868173,0.0024965813625724,0.0024965813622198,0.0024965813620251,-0.00058328044663778,0.00058328275426914,2.2518106784354e-10,2.0891171650223e-09,-1.2805705246789e-08,1.566881918877e-08,-0.0006601317835864,0.00066012409727555,-0.00066013115380834,0.00066012471144971,-0.00066012282580773,0.00066013347797161,-0.00066012220416438,0.00066013410419033,-0.00059801748251211,0.00059802736981494,-0.00059801565685806,0.00059802920617298,1.2629323519318e-08,-1.5456789007812e-08,-4.3543364769836e-09,2.0693896911519e-09,-0.00058328273870679,0.0005832804618995,-0.00066012569553567,0.00066013056344722,-0.00066012365493799,0.00066013269977096,-0.00066013451086878,0.00066012131184709,-0.00066013246801497,0.0006601234497938,-0.0005980312835795,0.00059801340199578,-0.00059802504477207,0.00059801979817356,-0.00059800897628102,0.0005980362286336,-0.00059803644783021,0.00059800799121756,7.3367522187265e-10,-9.7671279241816e-10,-0.00058328172772084,0.00058328147276583,2.980912454656e-09,-3.3526178701783e-09,-0.00066012682213773,0.0006601292665678,-0.00066012889859457,0.00066012714927888,-0.00066012741236561,0.00066012871812187,-0.00066012948537721,0.00066012660126452,-0.00059802439588338,0.00059802037309807,-0.00059802273076887,0.00059802204597292,0.70745492866035,131329,3014,0.0024274751213682,0.0024274751207403,0.0024274751204894,36.758739105207,5.4069912841659e-05,5.4069912841659e-05,5.4069912841659e-05,4218505.3545435,0.0073092544412804
6419200,0.481698696797,0.0078278338785094,0.0026092779597279,0.0026092779594744,0.0026092779593071,-0.00060847461253631,0.00060847691569349,1.7335700459192e-10,2.1354735555723e-09,-1.2741219545577e-08,1.5599041358288e-08,-0.00069226145301311,0.00069225377395703,-0.00069226079056417,0.00069225442089613,-0.00069225253764804,0.00069226310941423,-0.00069225188323383,0.0006922637681934,-0.00062303554208897,0.00062304528351199,-0.00062303361967211,0.00062304721510764,1.2565274279407e-08,-1.5388005705218e-08,-4.3056193116732e-09,2.0255503729237e-09,-0.00060847690047587,0.00060847462754371,-0.00069225537203095,0.00069226023051485,-0.00069225336143244,0.00069226233598566,-0.0006922641458444,0.00069225102390365,-0.00069226213266165,0.00069225313056592,-0.00062304920037724,0.00062303145860515,-0.00062304305114793,0.00062303776250027,-0.00062302704094284,0.00062305413500693,-0.00062305438295628,0.00062302603053112,7.8604260029106e-10,-1.0230601531558e-09,-0.00060847588850948,0.00060847563941524,2.9384120267208e-09,-3.3032757595018e-09,-0.0006922564902795,0.00069225894260179,-0.00069225853620418,0.00069225685587812,-0.00069225711435781,0.00069225836219618,-0.00069225915598451,0.00069225627494476,-0.00062304241265268,0.00062303832982153,-0.00062304064822453,0.00062304009701976,0.70210893817109,131329,3014,0.0025322053828608,0.0025322053824212,0.0025322053822218,36.741576153297,5.3932609226379e-05,5.3932609226379e-05,5.3932609226379e-05,4305927.3099219,0.0076258327269064
6619200,0.50692126778987,0.0081839313038161,0.002727977101463,0.0027279771012532,0.0027279771010999,-0.00063510184761613,0.00063510414085372,1.1943854370506e-10,2.1779879959618e-09,-1.259528600357e-08,1.5440162467547e-08,-0.00072588511019039,0.00072587749100089,-0.00072588441603976,0.00072587817021859,-0.00072587629401253,0.00072588672383728,-0.00072587560745185,0.0007258874149727,-0.00065025197724543,0.00065026151024521,-0.0006502499546835,0.00065026353142632,1.2420306237486e-08,-1.5235209345606e-08,-4.2720418395729e-09,1.9988448113996e-09,-0.00063510412712744,0.0006351018614881,-0.00072587909240239,0.00072588388080606,-0.00072587710143878,0.00072588596620637,-0.00072588776963818,0.00072587477399818,-0.00072588577550285,0.00072587686054053,-0.00065026545197024,0.00065024787225603,-0.00065025935598015,0.00065025411208937,-0.00065024352547205,0.00065027030886756,-0.00065027057835901,0.00065024250306582,8.4011505664993e-10,-1.0695669905803e-09,-0.00063510311585588,0.00063510287276247,2.9125427691853e-09,-3.2692215359968e-09,-0.00072588016699214,0.00072588263754656,-0.0007258821928653,0.0007258805702701,-0.00072588082543153,0.00072588202420713,-0.00072588284599788,0.00072587995588509,-0.00065025877987299,0.00065025462889078,-0.00065025691345323,0.00065025649072,0.74070667129883,131329,3014,0.0026428824511422,0.0026428824514423,0.002642882451446,37.009366518841,5.6074932150726e-05,5.6074932150726e-05,5.6074932150726e-05,4402936.1848128,0.0079605041079724
6819200,0.53297222134443,0.0085831203203565,0.0028610401069693,0.0028610401067665,0.0028610401066207,-0.00066588367394155,0.00066588594278756,5.2414895731503e-11,2.2143492166808e-09,-1.2296139035246e-08,1.5105483012186e-08,-0.00076394159284477,0.00076393413104252,-0.00076394086615637,0.00076393484713179,-0.0007639329822452,0.0007639431501149,-0.00076393226355279,0.00076394387738731,-0.00068271232614144,0.00068272150817738,-0.00068271015837679,0.00068272358713946,1.2092057732836e-08,-1.4915092651886e-08,-4.2741638579845e-09,1.9929103787454e-09,-0.00066588594009514,0.00066588367965806,-0.00076393574587912,0.00076394033827865,-0.00076393375732995,0.00076394242453651,-0.00076394420878032,0.00076393144739895,-0.00076394221745796,0.00076393353421364,-0.00068272554070833,0.00068270814987268,-0.00068271940804352,0.00068271434624829,-0.00068270403148427,0.00068273013524711,-0.00068273047175029,0.00068270299557025,9.0131513511778e-10,-1.1025432495605e-09,-0.00066588492471337,0.00066588469585244,2.9243399539953e-09,-3.2542918473091e-09,-0.00076393670803168,0.0007639392110728,-0.00076393872972491,0.00076393714240448,-0.00076393739697551,0.00076393856630748,-0.00076393941407721,0.00076393649586934,-0.00068271899186674,0.00068271479828242,-0.00068271701188816,0.00068271673522017,0.79221451567909,131329,3014,0.0027708129753695,0.002770812981651,0.0027708129833377,38.075667345041,6.4605338760325e-05,6.4605338760325e-05,6.4605338760325e-05,4560917.4783962,0.0083474938286661
7019200,0.55975051669146,0.0089572418684311,0.0029857472899878,0.0029857472893508,0.0029857472890926,-0.00069552783679064,0.00069553008585118,-5.129061457752e-12,2.254105051638e-09,-1.1995102802578e-08,1.4783279563281e-08,-0.00080142642975076,0.00080141912047057,-0.00080142567068109,0.00080141986924638,-0.00080141802306019,0.00080142793108277,-0.00080141727175561,0.00080142869093743,-0.00071294076668889,0.00071294963168611,-0.0007129385211722,0.00071295182324759,1.1800875998206e-08,-1.4588626081087e-08,-4.2623851776444e-09,2.0113328441599e-09,-0.00069553007871661,0.00069552784460843,-0.00080142075075429,0.00080142515689789,-0.00080141875919661,0.00080142724515309,-0.00080142901117709,0.0008014164729534,-0.00080142701688093,0.00080141856185827,-0.00071295370033129,0.0007129365487667,-0.0007129475769349,0.00071294276638021,-0.00071293259411096,0.00071295813778471,-0.00071295842128548,0.000712931600197,9.4826938128603e-10,-1.1557868556814e-09,-0.00069552907719194,0.0006955288462983,2.9251759434123e-09,-3.2602266562253e-09,-0.00080142160205043,0.00080142414262106,-0.00080142362621101,0.00080142207140359,-0.00080142232436255,0.0008014234645091,-0.00080142434383091,0.00080142139168211,-0.00071294732491453,0.00071294301593865,-0.00071294525441129,0.0007129450568971,0.73335807818526,131329,3014,0.0028940033525302,0.0028940033539231,0.0028940033542578,39.159954328807,7.3279634630455e-05,7.3279634630455e-05,7.3279634630455e-05,4604795.4163656,0.0087202876097538
7219200,0.58710465977875,0.0093222780978382,0.0031074260333075,0.0031074260324257,0.0031074260321051,-0.0007247106654914,0.0007247128932575,-6.4526367881401e-11,2.2929472180953e-09,-1.171740422755e-08,1.4481205092037e-08,-0.00083859794080249,0.00083859076929843,-0.00083859714903558,0.00083859155093204,-0.00083858972353606,0.00083859938625281,-0.00083858893944412,0.00083860017881287,-0.00074220191440943,0.00074221047073458,-0.00074219957688463,0.00074221276244666,1.1526313270632e-08,-1.42857257473e-08,-4.2562927872629e-09,2.0291796923412e-09,-0.00072471288491092,0.00072471067402382,-0.00083859241552344,0.00083859664827192,-0.00083859041939315,0.00083859874040384,-0.00083860048729382,0.00083858815740246,-0.00083859848835417,0.00083859025003649,-0.0007422145902873,0.00074219764527824,-0.00074220845888728,0.00074220387742413,-0.00074219385402462,0.000742218862432,-0.00074221911436167,0.00074219289460194,9.9746823450072e-10,-1.2058387402777e-09,-0.0007247118947901,0.00072471166417011,2.9310126227234e-09,-3.2663515051595e-09,-0.00083859316191518,0.00083859574059589,-0.0008385951903673,0.00083859366538719,-0.00083859391743203,0.0008385950295599,-0.00083859594094956,0.00083859295246787,-0.00074220836917884,0.00074220395598365,-0.00074220620290251,0.00074220609539598,0.70718848795783,131329,3014,0.00301526449199,0.003015264492349,0.0030152644923933,40.244871168444,8.1958969347549e-05,8.1958969347549e-05,8.1958969347549e-05,4655429.5555669,0.0090873791377932
7419200,0.61403537285359,0.0096666632302706,0.0032222210775922,0.0032222210765252,0.0032222210761532,-0.00075143301293483,0.00075143523032932,-1.249228943678e-10,2.346682167353e-09,-1.1605414410703e-08,1.4360855179585e-08,-0.00087315318637931,0.00087314603883838,-0.00087315235471498,0.00087314685877521,-0.00087314504368961,0.00087315458061041,-0.00087314422220064,0.00087315540899342,-0.00076861327092587,0.00076862163933142,-0.00076861084599341,0.00076862405887011,1.1399255239118e-08,-1.4126409681133e-08,-4.2382466652011e-09,2.0391255774997e-09,-0.0007514352156834,0.00075143302631611,-0.00087314771243132,0.00087315186786734,-0.00087314571644075,0.00087315395789508,-0.00087315569115067,0.00087314347350313,-0.00087315369472878,0.00087314556134035,-0.00076862577643063,0.00076860897617779,-0.00076861967554125,0.00076861521399842,-0.00076860523632643,0.00076863000854072,-0.00076863021010513,0.00076860430919724,1.0335671771734e-09,-1.2531115549786e-09,-0.00075143423823068,0.00075143400338423,2.9214732788938e-09,-3.2665650409891e-09,-0.00087314840785777,0.00087315101131253,-0.00087315043343361,0.0008731489415168,-0.00087314919043857,0.00087315027373609,-0.00087315121320711,0.00087314819936012,-0.00076861967516249,0.000768615159513,-0.00076861743312705,0.00076861739247681,0.68501444365163,131329,3014,0.003126291986343,0.0031262919836871,0.0031262919828789,40.771895780477,8.6175166243816e-05,8.6175166243816e-05,8.6175166243816e-05,4676118.1517639,0.0094236116165255
7619200,0.6398003371543,0.0099874051436512,0.0033291350481669,0.003329135047825,0.0033291350476593,-0.00077555480030931,0.00077555701012849,-1.7448883989748e-10,2.3892016120896e-09,-1.1603966494495e-08,1.4350806048638e-08,-0.00090476153478916,0.00090475435117577,-0.00090476067217958,0.00090475520146449,-0.00090475339340585,0.0009047628902985,-0.00090475253978026,0.00090476375006106,-0.00079224248731924,0.00079225075218345,-0.00079223996926024,0.00079225326337415,1.1410274025972e-08,-1.4127764738342e-08,-4.2233837075764e-09,2.0320899742283e-09,-0.0007755569960433,0.00077555481401959,-0.00090475603276363,0.00090476020748059,-0.00090475404365147,0.0009047622892631,-0.0009047640179857,0.00090475180894487,-0.00090476202747982,0.00090475388978553,-0.0007922549306407,0.0007922381521095,-0.00079224884905707,0.00079224436970683,-0.00079223439510634,0.00079225917756516,-0.00079225937971522,0.00079223347176495,1.0867912606553e-09,-1.3052902567198e-09,-0.00077555602148065,0.00077555578845209,2.9117003342005e-09,-3.2552237976475e-09,-0.00090475672307954,0.00090475935634692,-0.00090475874274167,0.00090475729337401,-0.00090475754080429,0.00090475858353541,-0.00090475955667449,0.00090475651722977,-0.00079224888716031,0.00079224427917125,-0.00079224654304347,0.00079224661205927,0.6722324153205,131329,3014,0.0032265070459495,0.0032265070451576,0.0032265070448826,40.851933038638,8.6815464309103e-05,8.6815464309103e-05,8.6815464309103e-05,4680229.7441535,0.0097272014838174
7819200,0.6643649974175,0.010289288791902,0.0034297629305197,0.003429762930696,0.0034297629306867,-0.00079824691701116,0.00079824912233557,-2.2605904602191e-10,2.4355917078158e-09,-1.162770929011e-08,1.436864357439e-08,-0.00093475692725053,0.00093474969205918,-0.00093475603196694,0.00093475057510891,-0.0009347487694041,0.00093475824568404,-0.00093474788302242,0.0009347591381171,-0.00081435778923227,0.00081436596589463,-0.00081435516960524,0.00081436856821868,1.1433423879551e-08,-1.4149627280851e-08,-4.2155218843136e-09,2.02524321149e-09,-0.00079824910953188,0.00079824693015681,-0.00093475138625563,0.0009347555853362,-0.00093474940155507,0.00093475766227867,-0.00093475938888061,0.00093474717151934,-0.00093475740264842,0.00093474924738989,-0.0008143701912897,0.00081435341014856,-0.00081436411907156,0.00081435960862076,-0.00081434963368776,0.00081437445233034,-0.00081437466485699,0.00081434870762094,1.1387286585917e-09,-1.3528601921968e-09,-0.00079824813498625,0.00079824790478008,2.9067433051638e-09,-3.2458743104149e-09,-0.00093475207405021,0.00093475473729208,-0.00093475408923968,0.00093475267922516,-0.00093475292493745,0.0009347539314629,-0.00093475493605776,0.0009347518697483,-0.00081436419035575,0.00081435949665384,-0.00081436174649566,0.00081436192438685,0.66655084027609,131329,3014,0.0033207764066287,0.0033207764073285,0.0033207764074859,40.921755497101,8.7374043976811e-05,8.7374043976811e-05,8.7374043976811e-05,4675565.7260871,0.010012867378579
8019200,0.68772038559854,0.010573093099425,0.0035243643662444,0.0035243643665724,0.0035243643666079,-0.00081960581208039,0.00081960801556327,-2.7604910006595e-10,2.4836529258433e-09,-1.1656087125392e-08,1.4394695211383e-08,-0.00096322166141344,0.00096321437281499,-0.00096322073346281,0.00096321528859976,-0.00096321348346361,0.00096322294505278,-0.00096321256426684,0.00096322387021687,-0.00083508696666019,0.00083509506333937,-0.00083508425010971,0.0008350977611029,1.1463174629715e-08,-1.4177158689442e-08,-4.209512343008e-09,2.021068051216e-09,-0.00081960800271019,0.00081960582533818,-0.00096321608068041,0.0009632203045573,-0.00096321409895209,0.00096322237812026,-0.00096322410429024,0.00096321187142882,-0.00096322212080375,0.00096321394383932,-0.00083509933310456,0.00083508254390728,-0.0008350932701171,0.00083508873165439,-0.0008350787438204,0.00083510361616086,-0.00083510383135467,0.00083507781739582,1.1892568758423e-09,-1.4017108740773e-09,-0.00081960702842916,0.00081960679971559,2.9027467679464e-09,-3.2399693048676e-09,-0.0009632167654747,0.00096321945991659,-0.00096321877772873,0.00096321740526905,-0.00096321764953456,0.00096321862105053,-0.00096321965734263,0.00096321656251762,-0.00083509337434056,0.00083508858877121,-0.00083509083264884,0.00083509111303629,0.66097249656996,131329,3014,0.0034095017524544,0.0034095017532821,0.0034095017534777,40.991218572029,8.7929748576234e-05,8.7929748576234e-05,8.7929748576234e-05,4672299.8296775,0.01028181069964
8219200,0.71000994960114,0.0108411401907,0.0036137133966127,0.0036137133970157,0.003613713397072,-0.00084001868842231,0.00084002088916876,-3.2724312962349e-10,2.5310178897879e-09,-1.1663174698195e-08,1.4397316730063e-08,-0.00099054476103081,0.00099053743383549,-0.00099054380047015,0.00099053838282937,-0.00099053657777138,0.00099054600951327,-0.00099053562592951,0.00099054696774524,-0.00085484817183674,0.00085485616977497,-0.00085484535122828,0.00085485895678502,1.1467449113959e-08,-1.4183790110329e-08,-4.2100637584297e-09,2.0193059479018e-09,-0.00084002087789787,0.00084001870061752,-0.00099053915676025,0.00099054338698655,-0.00099053717522075,0.00099054546041142,-0.0009905471855233,0.00099053494984418,-0.00099054520218779,0.00099053702199698,-0.00085486049518285,0.00085484369696961,-0.0008548544265014,0.00085484987676245,-0.00085483989731907,0.00085486477136068,-0.00085486499931685,0.00085483896778854,1.2412858238348e-09,-1.4485087284056e-09,-0.00084001990229936,0.00084001967647138,2.9048606061054e-09,-3.2370065226874e-09,-0.00099053982816224,0.00099054255632266,-0.00099054184008953,0.00099054050186988,-0.00099054074491844,0.00099054168440674,-0.0009905427523529,0.00099053962587141,-0.00085485457727125,0.00085484970393382,-0.00085485193489934,0.00085485232159623,0.65549140024964,131329,3014,0.0034942921725854,0.0034942921744917,0.0034942921750171,41.18183080691,8.9454646455278e-05,8.9454646455278e-05,8.9454646455278e-05,4674905.4023994,0.010538896282847
8419200,0.73128401335583,0.01109623296176,0.003698744320429,0.0036987443206639,0.003698744320667,-0.00085953632171163,0.00085953852040131,-3.7750850719777e-10,2.5791360788102e-09,-1.1656739972684e-08,1.4388321688649e-08,-0.0010167415383682,0.0010167341809315,-0.0010167405450895,0.0010167351629146,-0.0010167333585698,0.0010167427517191,-0.0010167323739613,0.0010167437428505,-0.00087372900438756,0.00087373689866419,-0.00087372608722616,0.00087373978184188,1.1461976028855e-08,-1.4175495969117e-08,-4.2113400772598e-09,2.022948778188e-09,-0.0008595385087785,0.00085953633404416,-0.0010167359201789,0.0010167401467681,-0.001016733936678,0.0010167422219118,-0.0010167439456106,0.0010167317139942,-0.0010167419603211,0.0010167337878371,-0.00087374127509359,0.00087372447882181,-0.000873735201503,0.00087373066307074,-0.00087372068261654,0.00087374554667489,-0.00087374577117681,0.00087371975821128,1.291304261953e-09,-1.4974568635442e-09,-0.00085953753397903,0.00085953730903227,2.9080553867865e-09,-3.2389743249106e-09,-0.0010167365722772,0.0010167393359032,-0.0010167385859539,0.0010167372796217,-0.0010167375218255,0.0010167384309174,-0.0010167395310345,0.0010167363705345,-0.00087373540702026,0.00087373043618274,-0.00087373266741484,0.00087373315037601,0.65380935476906,131329,3014,0.003575359333429,0.0035753593348845,0.0035753593352699,41.431258162853,9.1450065302821e-05,9.1450065302821e-05,9.1450065302821e-05,4679240.3618537,0.010784757107256
8619200,0.75152583335958,0.011338544196709,0.0037795147321824,0.0037795147322838,0.0037795147322432,-0.00087805635120738,0.00087805854552047,-4.286549974723e-10,2.6259547617375e-09,-1.1649376266875e-08,1.4376349845292e-08,-0.001041652636727,0.0010416452479072,-0.001041651610772,0.0010416462625441,-0.0010416444618098,0.0010416538123523,-0.0010416434443677,0.0010416548362387,-0.00089164917425201,0.00089165696230566,-0.00089164616304052,0.00089165994365342,1.1457084049316e-08,-1.4163863121348e-08,-4.2124782452432e-09,2.0302348784172e-09,-0.00087805853331571,0.00087805636390658,-0.0010416470039194,0.001041651227203,-0.0010416450172533,0.0010416533050305,-0.0010416550252115,0.0010416428000173,-0.0010416530366798,0.0010416448767198,-0.00089166138950603,0.0008916445975188,-0.00089165530943697,0.00089165079178361,-0.00089164080212752,0.00089166566012125,-0.00089166587373951,0.00089163988873603,1.3409009418084e-09,-1.54721976491e-09,-0.00087805756090838,0.0008780573364276,2.9123428415871e-09,-3.2431827731543e-09,-0.0010416476362769,0.0010416504366616,-0.0010416496527309,0.0010416483772037,-0.0010416486190247,0.0010416494986472,-0.0010416506310301,0.0010416474353762,-0.00089165557390573,0.00089165050190137,-0.00089165273761886,0.00089165331335239,0.65260875756956,131329,3014,0.0036522785850587,0.0036522785860672,0.0036522785862968,41.682043583857,9.3456348670859e-05,9.3456348670859e-05,9.3456348670859e-05,4684441.1887835,0.011018096286929
8819200,0.7707254470702,0.011558386065326,0.0038527953550818,0.0038527953551481,0.0038527953550963,-0.00089508523014659,0.00089508741966975,-4.801111511986e-10,2.6727168378646e-09,-1.1639550412313e-08,1.4361428764503e-08,-0.0010648214473292,0.0010648140286714,-0.0010648203886142,0.0010648150760682,-0.0010648132791017,0.0010648225848974,-0.0010648122288234,0.0010648236415505,-0.00090783970025386,0.00090784737942121,-0.00090783659360678,0.00090785045789443,1.1448719119403e-08,-1.4149385945496e-08,-4.215306500433e-09,2.0386401646169e-09,-0.00089508740720193,0.00089508524305481,-0.0010648158020445,0.0010648200191642,-0.0010648138112824,0.0010648221006499,-0.001064823817125,0.0010648115996963,-0.0010648218245218,0.0010648136801619,-0.00090785186002998,0.00090783507047113,-0.00090784576967422,0.00090784127635047,-0.00090783127973731,0.00090785612486604,-0.00090785632900695,0.00090783037738109,1.3905516344844e-09,-1.5966376625801e-09,-0.000895086437153,0.00089508621320113,2.9182201162315e-09,-3.2486540972738e-09,-0.0010648164129267,0.0010648192507525,-0.0010648184330528,0.0010648171872335,-0.0010648174287179,0.0010648182797714,-0.0010648194445257,0.0010648162126564,-0.00090784609606484,0.00090784092314736,-0.00090784316280796,0.00090784383133618,0.62941993030574,131329,3014,0.003723001293495,0.0037230012943923,0.0037230012945884,41.932876913916,9.5463015311332e-05,9.5463015311332e-05,9.5463015311332e-05,4690652.7230772,0.011232686953941
9019200,0.78847839054529,0.011761815868175,0.0039206052893653,0.0039206052894315,0.003920605289378,-0.00091001230334562,0.00091001448937318,-5.2882782123189e-10,2.7203729796199e-09,-1.1705047955614e-08,1.4426618327595e-08,-0.0010854647922618,0.0010854572921395,-0.0010854637011303,0.0010854583708134,-0.0010854565801521,0.001085465891691,-0.0010854554966594,0.0010854669803328,-0.00092199659869094,0.00092200422982534,-0.00092199341483508,0.00092200742148699,1.1525999973034e-08,-1.4209735104201e-08,-4.2145863225865e-09,2.0534197953632e-09,-0.00091001447307034,0.00091001231881236,-0.0010854590835347,0.0010854633470604,-0.001085457087503,0.0010854654321219,-0.0010854671458617,0.0010854548820809,-0.0010854651475375,0.0010854569671305,-0.00092200875005461,0.00092199192422425,-0.00092200266020717,0.00092199816037805,-0.00092198807259605,0.00092201308643527,-0.00092201324788583,0.00092198719649889,1.4365235315745e-09,-1.6514714787094e-09,-0.00091001350933584,0.00091001328220815,2.9211853041324e-09,-3.2592200294771e-09,-0.0010854596981772,0.0010854625753157,-0.0010854617231318,0.0010854605064848,-0.0010854607482818,0.0010854615708548,-0.0010854627685721,0.0010854594996816,-0.00092200302412687,0.00092199773162514,-0.00092200000071148,0.00092200074338104,0.62977530457678,131329,3014,0.0037849941028911,0.0037849941011381,0.0037849941004289,41.749759620519,9.3998076964153e-05,9.3998076964153e-05,9.3998076964153e-05,4688392.1524788,0.011420830841088
9219200,0.80477760259091,0.011946219763174,0.0039820732540632,0.0039820732545193,0.0039820732545916,-0.00092331117897218,0.00092331336191187,-5.7996826351472e-10,2.767869826565e-09,-1.1777195670874e-08,1.4495738992948e-08,-0.0011040420900512,0.0011040345067942,-0.0011040409657588,0.0011040356182847,-0.0011040338296828,0.0011040431536194,-0.001104032713393,0.0011040442748571,-0.00093454436656384,0.00093455194356664,-0.0009345410822638,0.0009345552276032,1.1596881810141e-08,-1.4280691063174e-08,-4.2223464154984e-09,2.0620919940293e-09,-0.00092331334674643,0.00092331119399814,-0.0011040363170949,0.0011040406249598,-0.0011040343150214,0.001104042715554,-0.0011040444276882,0.0011040321130217,-0.0011040424237208,0.0011040342034177,-0.00093455652393338,0.00093453963378601,-0.00093455041519408,0.00093454588219079,-0.00093453574114885,0.00093456089684471,-0.00093456105846497,0.00093453487056121,1.4869901470894e-09,-1.6995282358437e-09,-0.0009233123831102,0.00092331215753189,2.93057845009e-09,-3.2664276704651e-09,-0.0011040369346054,0.0011040398507756,-0.0011040389644103,0.0011040377759867,-0.0011040380178458,0.0011040388140091,-0.0011040400436513,0.0011040367369533,-0.00093455081630374,0.00093454542578832,-0.00093454769313655,0.00093454853153754,0.62300580650502,131329,3014,0.0038402239234179,0.0038402239231205,0.0038402239229048,41.45168588144,9.1613487051521e-05,9.1613487051521e-05,9.1613487051521e-05,4681983.8075232,0.011588482578226
9419200,0.81973191798128,0.012113291141074,0.0040377637131849,0.0040377637138704,0.0040377637140186,-0.00093530191723103,0.00093530409700888,-6.3130381821935e-10,2.8152128530621e-09,-1.1830399982254e-08,1.4545339525303e-08,-0.0011208657450872,0.0011208580915119,-0.0011208645878701,0.0011208592360429,-0.0011208574492608,0.0011208667725919,-0.001120856300184,0.0011208679266848,-0.00094580719212557,0.00094581470172942,-0.0009458038059578,0.0009458180769644,1.1647864094379e-08,-1.4332626775855e-08,-4.2309866505847e-09,2.0707721317915e-09,-0.00093530408296642,0.00093530193162065,-0.0011208599207275,0.0011208642598985,-0.0011208579125549,0.0011208663563405,-0.0011208680663392,0.001120855713711,-0.0011208660565748,0.0011208578099463,-0.0009458193441235,0.0009458023998453,-0.00094581321393947,0.00094580866029577,-0.00094579848105667,0.00094582373833057,-0.0009458239025633,0.00094579761504418,1.5376976031584e-09,-1.7472516462792e-09,-0.00093530311938106,0.0009353028952739,2.9406922338855e-09,-3.2738452067321e-09,-0.0011208605346191,0.0011208634898348,-0.0011208625695759,0.0011208614086082,-0.0011208616507737,0.001120862420551,-0.0011208636822328,0.0011208603372102,-0.0009458136591824,0.00094580817190634,-0.00094581043598853,0.00094581137116516,0.61620824490706,131329,3014,0.0038900195743825,0.0038900195750945,0.0038900195752322,41.150900308506,8.920720246805e-05,8.920720246805e-05,8.920720246805e-05,4676933.4964524,0.011739664275874
9619200,0.83344714764854,0.012264571148472,0.0040881903822642,0.0040881903830195,0.0040881903831884,-0.00094610757747477,0.00094610975391774,-6.8226654766647e-10,2.862560595974e-09,-1.1862555851532e-08,1.4574252467062e-08,-0.0011360914424558,0.0011360837321802,-0.0011360902524438,0.001136084909489,-0.0011360831253469,0.0011360924334692,-0.0011360819434648,0.0011360936203528,-0.00095590948064622,0.00095591691036781,-0.00095590599650026,0.00095592038026172,1.1679890187019e-08,-1.4362767328429e-08,-4.2386010219052e-09,2.0807512746226e-09,-0.00094610974017574,0.00094610759167782,-0.0011360855801509,0.0011360899375649,-0.0011360835658427,0.0011360920397956,-0.0011360937471956,0.0011360813707499,-0.0011360917314297,0.001136083472938,-0.00095592161153877,0.0009559046306315,-0.0009559154626952,0.00095591090685656,-0.00095590069545183,0.00095592602003111,-0.00095592617905017,0.00095589983753491,1.5876999973549e-09,-1.7960130814744e-09,-0.00094610877765981,0.00094610855429385,2.9500837434814e-09,-3.2820838873843e-09,-0.0011360861837878,0.0011360891782193,-0.0011360882241039,0.0011360870905035,-0.0011360873330543,0.0011360880762363,-0.0011360893702077,0.0011360859867528,-0.0009559159590543,0.00095591037125162,-0.00095591263752098,0.00095591366557748,0.60938041047117,131329,3014,0.0039348926888365,0.0039348926897827,0.0039348926899865,40.850018700575,8.6800149604597e-05,8.6800149604597e-05,8.6800149604597e-05,4673011.3876498,0.011875921864403
9819200,0.84578639096431,0.012401622196039,0.0041338740647695,0.0041338740655474,0.0041338740657222,-0.00095508185779017,0.00095508403450654,-7.2970752752416e-10,2.9122832870976e-09,-1.1919901473692e-08,1.4634961117778e-08,-0.0011489980564955,0.0011489902731027,-0.0011489968339451,0.0011489914820417,-0.0011489897000829,0.0011489990136646,-0.0011489884851604,0.0011490002329711,-0.00096428086784799,0.00096428824572954,-0.00096427729979072,0.00096429182329727,1.1746199548706e-08,-1.4419658250581e-08,-4.2458494794583e-09,2.0969065029367e-09,-0.00095508401756451,0.00095508187424408,-0.0011489921402816,0.0011489965330861,-0.0011489901179057,0.0011489986424636,-0.0011490003494294,0.0011489879255281,-0.0011489983249887,0.0011489900355116,-0.00096429299566947,0.00096427596501737,-0.00096428683370618,0.00096428227480998,-0.00096427198566204,0.00096429745618397,-0.00096429758356272,0.00096427114708019,1.634205758577e-09,-1.8492771916453e-09,-0.00095508305886516,0.00095508283271797,2.958684262462e-09,-3.2966457163539e-09,-0.0011489927409694,0.001148995776759,-0.001148994789395,0.0011489936808927,-0.0011489939243064,0.001148994641697,-0.0011489959691148,0.0011489925449879,-0.00096428737449664,0.00096428166999854,-0.00096428396130113,0.00096428506524749,0.61213711703619,131329,3014,0.0039721612412352,0.0039721612402094,0.0039721612397366,40.183137928801,8.1465103430411e-05,8.1465103430411e-05,8.1465103430411e-05,4667436.300422,0.011989105613847
10019200,0.85687925199932,0.01252591999055,0.0041753066628043,0.0041753066637546,0.0041753066639907,-0.00096295174519516,0.00096295391955195,-7.8043449893824e-10,2.9606389528652e-09,-1.1956923231144e-08,1.4669916956107e-08,-0.0011603560593916,0.0011603482162425,-0.0011603548034884,0.0011603494584147,-0.0011603476782744,0.0011603569810304,-0.0011603464304985,0.0011603582329058,-0.00097166319675237,0.00097167049988444,-0.00097165953177796,0.0009716741731062,1.1781719719525e-08,-1.4453822548211e-08,-4.2562828792352e-09,2.1093761193451e-09,-0.00096295390293075,0.00096295176157298,-0.0011603501044605,0.0011603545147999,-0.0011603480738618,0.0011603566319271,-0.00116035833703,0.0011603458842705,-0.0011603563051646,0.0011603480016256,-0.00097167530915191,0.00097165823505557,-0.00097166912515824,0.0009716645662563,-0.00097165423807875,0.00097167978592903,-0.00097167990598783,0.0009716534087466,1.6832319493605e-09,-1.8980647285137e-09,-0.00096295294518305,0.00096295271920319,2.9702541789649e-09,-3.3081372677949e-09,-0.001160350693938,0.0011603537699733,-0.0011603527494122,0.001160351666239,-0.0011603519097252,0.0011603526027044,-0.0011603539624532,0.0011603504978332,-0.000971669718535,0.00097166391036104,-0.00097166620806818,0.0009716674015491,0.61574677668001,131329,3014,0.0040048431458189,0.0040048431453072,0.0040048431450606,39.478880461289,7.5831043690312e-05,7.5831043690312e-05,7.5831043690312e-05,4662878.5934538,0.012088372278459
10219200,0.86686522712157,0.012638963610553,0.0042129878693675,0.0042129878704545,0.0042129878707307,-0.00096990785258511,0.00096991002330742,-8.3183096319389e-10,3.0074555167984e-09,-1.1970548705072e-08,1.4679108089206e-08,-0.0011704203768317,0.0011704124900392,-0.0011704190882635,0.0011704137650516,-0.0011704119873014,0.0011704212622361,-0.0011704107068473,0.0011704225469435,-0.00097823442386977,0.00097824163227194,-0.0009782306563189,0.00097824539570657,1.1793061249824e-08,-1.4466373767256e-08,-4.2673075463142e-09,2.1199090619715e-09,-0.00096991000820527,0.00096990786804916,-0.0011704143976524,0.0011704188117104,-0.0011704123598225,0.0011704209360894,-0.0011704226386492,0.0011704101731772,-0.0011704205996161,0.0011704122978736,-0.00097824650700961,0.00097822939965585,-0.0009782402962811,0.00097823574680909,-0.00097822540469357,0.0009782509769,-0.00097825109903403,0.0009782245804539,1.73424131603e-09,-1.9457066278216e-09,-0.00096990905035394,0.00096990882597151,2.9824934792097e-09,-3.3174472186911e-09,-0.0011704149690147,0.0011704180854099,-0.0011704170311783,0.0011704159739868,-0.001170416217772,0.0011704168853908,-0.0011704182773821,0.0011704147729955,-0.00097824094983662,0.00097823504438486,-0.00097823733907071,0.00097823862875358,0.62007023670335,131329,3014,0.0040337296170361,0.0040337296177817,0.0040337296179266,38.773678768928,7.0189430151428e-05,7.0189430151428e-05,7.0189430151428e-05,4659698.6621903,0.012176120165712
10419200,0.87588253625367,0.012742206931899,0.0042474023097805,0.0042474023109148,0.0042474023112037,-0.000976137205665,0.00097613937108779,-8.8398468822751e-10,3.0536243259906e-09,-1.1944996393413e-08,1.464720819902e-08,-0.001179456917998,0.0011794490125076,-0.0011794555966934,0.0011794503204259,-0.0011794485466832,0.0011794577653352,-0.0011794472335335,0.0011794590828965,-0.00098417249061524,0.00098417957668457,-0.00098416862218644,0.00098418343201028,1.176539945965e-08,-1.4436899182234e-08,-4.275422984747e-09,2.1298921130937e-09,-0.00097613935710816,0.0009761372203667,-0.001179450938932,0.0011794553327239,-0.0011794488949919,0.0011794574632005,-0.0011794591615101,0.0011794467133885,-0.0011794571164599,0.0011794488441961,-0.00098418451324852,0.00098416740665608,-0.000984178280676,0.00098417376760906,-0.00098416343528498,0.00098418895551115,-0.00098418907604166,0.00098416261869853,1.7848216252186e-09,-1.9936549571213e-09,-0.00097613840045037,0.00097613817720532,2.9927054892692e-09,-3.3253133528861e-09,-0.001179451480946,0.0011794546362276,-0.001179453548741,0.0011794525184177,-0.0011794527626381,0.0011794534035532,-0.0011794548280662,0.0011794512848393,-0.0009841790062381,0.00098417300295348,-0.00098417529623494,0.00098417668128151,0.62506143615688,131329,3014,0.0040595975430583,0.0040595975445497,0.004059597544922,38.098678761412,6.4789430091293e-05,6.4789430091293e-05,6.4789430091293e-05,4656714.9914032,0.012254706146344
10619200,0.88430292451766,0.012836622420366,0.00427887413927,0.0042788741404041,0.0042788741406922,-0.00098288448642441,0.00098288663882684,-9.4037673010698e-10,3.0946156608217e-09,-1.179521851223e-08,1.4479864810305e-08,-0.0011888755054588,0.0011888676620324,-0.0011888741524402,0.0011888690026041,-0.0011888672382685,0.0011888763082125,-0.0011888658926915,0.0011888776590064,-0.00099064000144683,0.00099064686628209,-0.00099063602046771,0.00099065080291829,1.1611424154508e-08,-1.4281618559729e-08,-4.2749923986722e-09,2.1305555306667e-09,-0.00098288662884851,0.00098288449835187,-0.0011888696018595,0.0011888739035643,-0.0011888675584485,0.0011888760341776,-0.0011888777224965,0.0011888653869119,-0.0011888756773627,0.0011888675185863,-0.00099065186974454,0.00099063485740683,-0.00099064562131659,0.00099064120620175,-0.00099063099028345,0.00099065619438152,-0.00099065633529626,0.0009906301739191,1.8392982026142e-09,-2.038750105672e-09,-0.00098288567341357,0.00098288545437971,2.9973593833754e-09,-3.3215319241415e-09,-0.0011888700811808,0.0011888732707624,-0.0011888721487455,0.0011888711516101,-0.0011888713962135,0.0011888720045327,-0.0011888734609558,0.0011888698852084,-0.00099064645293212,0.0009906403693819,-0.00099064263797482,0.00099064413672605,0.61395113373588,131329,3014,0.0040876134444503,0.0040876134484881,0.0040876134497155,38.029324920034,6.423459936027e-05,6.423459936027e-05,6.423459936027e-05,4658302.1404424,0.012339821583295
10819200,0.89216767012039,0.012923112814469,0.0043077042707365,0.0043077042717439,0.0043077042719886,-0.00098911607631587,0.00098911821877427,-9.9385779529715e-10,3.1401214580626e-09,-1.1633488807608e-08,1.4309001042987e-08,-0.001197594915617,0.0011975871382131,-0.0011975935290722,0.0011975885116929,-0.001197586758259,0.0011975956735732,-0.0011975853796767,0.001197597056812,-0.00099656508438872,0.00099657173733989,-0.00099656101992982,0.00099657578195664,1.1453872264549e-08,-1.4102081704431e-08,-4.263973962191e-09,2.1387533356237e-09,-0.00098911820532299,0.00098911609046004,-0.0011975890946331,0.0011975932968373,-0.0011975870514756,0.0011975954264615,-0.001197597104047,0.0011975848933784,-0.0011975950597282,0.0011975870235976,-0.00099657677365232,0.00099655990300122,-0.00099657054038074,0.00099656625885226,-0.00099655611987806,0.00099658102203056,-0.00099658112860988,0.00099655532576893,1.8850674103375e-09,-2.0908997446245e-09,-0.00098911725876966,0.00098911703718074,2.9929410537347e-09,-3.3227338159833e-09,-0.0011975895086192,0.0011975927299555,-0.0011975915750936,0.0011975906121858,-0.0011975908563327,0.001197591431554,-0.0011975929205085,0.0011975893132438,-0.00099657147904862,0.00099656528795368,-0.00099656757352961,0.00099656915711164,0.60386754773418,131329,3014,0.0041134874679926,0.0041134874694153,0.0041134874697568,37.973575539404,6.3788604315233e-05,6.3788604315233e-05,6.3788604315233e-05,4660031.1303519,0.012418435667542
11019200,0.89951000597724,0.013002173832374,0.0043340579433805,0.0043340579443765,0.0043340579446169,-0.00099483844437995,0.00099484057480899,-1.0488091157191e-09,3.1835164621397e-09,-1.1475630896853e-08,1.4137763760257e-08,-0.0012056237514571,0.0012056160386185,-0.0012056223320687,0.0012056174448606,-0.0012056157025056,0.0012056244640264,-0.0012056142911102,0.0012056258799966,-0.0010019589806267,0.0010019654166165,-0.001001954821311,0.0010019695588429,1.1296915852098e-08,-1.3930430528193e-08,-4.255414707516e-09,2.1428407687372e-09,-0.00099484056122045,0.00099483845863156,-0.0012056180100006,0.0012056221162833,-0.0012056159681286,0.0012056242443746,-0.0012056259111521,0.0012056138227048,-0.0012056238682091,0.0012056159514169,-0.0010019704978824,0.0010019537544039,-0.0010019642702987,0.0010019601069461,-0.0010019500624506,0.0010019746546026,-0.001001974748366,0.0010019492819668,1.9342834436744e-09,-2.1402453933841e-09,-0.00099483962056905,0.00099483939943774,2.9907433452849e-09,-3.3204978035714e-09,-0.0012056183603962,0.0012056216137399,-0.001205620425261,0.0012056194972924,-0.0012056197410418,0.0012056202825833,-0.001205621803757,0.0012056181656913,-0.001001965314515,0.0010019590275384,-0.0010019613129914,0.0010019629936655,0.59320720708491,131329,3014,0.004137246648902,0.0041372466502675,0.0041372466505845,37.918302314703,6.3346418517628e-05,6.3346418517628e-05,6.3346418517628e-05,4661524.3155947,0.012490629209483
11219200,0.90635236129753,0.013075842809065,0.0043586142689401,0.0043586142699412,0.0043586142701837,-0.0010001093987173,0.0010001115179888,-1.1031733225475e-09,3.2274831829571e-09,-1.133626787468e-08,1.3986239911001e-08,-0.0012130060864907,0.0012129984260458,-0.0012130046341951,0.0012129998649583,-0.0012129981332546,0.0012130067542459,-0.0012129966890052,0.0012130082028503,-0.0010069277851141,0.0010069340185319,-0.0010069235328494,0.001006938260132,1.1159340561494e-08,-1.3777507842674e-08,-4.2460492031032e-09,2.1467422627178e-09,-0.0010001115036477,0.0010001094134904,-0.0012130004123862,0.001213004435216,-0.0012129983720506,0.0012130065613907,-0.0012130082180041,0.0012129962388412,-0.0012130061767053,0.0012129983656365,-0.001006939142618,0.0010069225158901,-0.0010069329231446,0.001006928865878,-0.001006918901257,0.0010069432224494,-0.0010069433010564,0.0010069181351609,1.9829628299644e-09,-2.1901254011429e-09,-0.0010001105692533,0.0010001103479645,2.987537537529e-09,-3.3182536391291e-09,-0.0012130007056216,0.0012130039905826,-0.0012130027685911,0.0012130018758638,-0.0012130021191621,0.00121300262665,-0.0012130041801377,0.0012130005115754,-0.0010069340656316,0.0010069276811842,-0.001006929968892,0.001006931745067,0.59263237245507,131329,3014,0.0041591310189774,0.0041591310198646,0.0041591310200263,37.837466221706,6.269972977365e-05,6.269972977365e-05,6.269972977365e-05,4662157.011823,0.012557130156617
11419200,0.91268450510723,0.013144608813292,0.0043815362703249,0.0043815362713576,0.0043815362716099,-0.0010047568043247,0.0010047589144893,-1.1565205375914e-09,3.2725144702234e-09,-1.1239731075637e-08,1.3880111157749e-08,-0.0012195875848277,0.001219579949419,-0.0012195860996423,0.0012195814209599,-0.0012195796980946,0.001219588209946,-0.0012195782208682,0.0012195896912582,-0.0010113182935944,0.0010113243555014,-0.0010113139484982,0.0010113286970805,1.1065427034629e-08,-1.3670061254904e-08,-4.2385680135225e-09,2.1509776090881e-09,-0.0010047588992516,0.0010047568197476,-0.0012195819509213,0.0012195859174763,-0.0012195799114503,0.0012195880423797,-0.0012195896906966,0.0012195777885793,-0.0012195876502332,0.0012195799142296,-0.0010113295229665,0.0010113129799117,-0.0010113233099711,0.0010113193296631,-0.0010113094160677,0.0010113335532309,-0.001011333616759,0.001011308663145,2.0313700016585e-09,-2.2402285254092e-09,-0.0010047579703266,0.0010047577486732,2.9853926324808e-09,-3.3174606426487e-09,-0.0012195822001132,0.0012195855174788,-0.0012195842621954,0.0012195834036748,-0.0012195836466502,0.0012195841208049,-0.0012195857067352,0.0012195820068337,-0.0010113245364704,0.0010113180534021,-0.0010113203451286,0.001011322215064,0.5962623911429,131329,3014,0.0041784268454618,0.0041784268458382,0.0041784268458364,37.630223229539,6.1041785836315e-05,6.1041785836315e-05,6.1041785836315e-05,4661426.4459925,0.012615770186805
11619200,0.91854475120953,0.013208644071524,0.0044028813563639,0.0044028813574462,0.0044028813577139,-0.001009027221477,0.0010090293231836,-1.2101413918053e-09,3.3172116471377e-09,-1.1165948715108e-08,1.3796005904284e-08,-0.0012256475885225,0.0012256399647553,-0.0012256460706177,0.001225641469195,-0.0012256397531485,0.001225648172468,-0.0012256382432359,0.0012256496865882,-0.0010153754599945,0.0010153813633902,-0.0010153710144766,0.0010153857971954,1.0989622711868e-08,-1.3588096792581e-08,-4.23388780303e-09,2.1516103861194e-09,-0.0010090293090445,0.0010090272362122,-0.0012256419812862,0.0012256459045665,-0.0012256399430807,0.001225648028198,-0.0012256496694624,0.0012256378283408,-0.001225647630366,0.0012256399527123,-0.001015386581412,0.0010153700979077,-0.0010153803687638,0.0010153764401788,-0.0010153665791843,0.0010153905622768,-0.0010153906276317,0.0010153658310599,2.0820232536482e-09,-2.2881265731862e-09,-0.0010090283827745,0.0010090281626221,2.9845932056086e-09,-3.314122805985e-09,-0.0012256421931807,0.0012256455425056,-0.0012256442536435,0.0012256434299045,-0.0012256436724685,0.0012256441129787,-0.0012256457311105,0.0012256420002366,-0.0010153816708266,0.0010153750972241,-0.0010153773807096,0.001015379353487,0.59873360091545,131329,3014,0.004196157448966,0.0041961574501978,0.0041961574504858,37.420135987385,5.9361087899082e-05,5.9361087899082e-05,5.9361087899082e-05,4660396.7596353,0.012669657493842
11819200,0.92396958924609,0.013268407241119,0.0044228024128806,0.0044228024139826,0.004422802414256,-0.0010129594812856,0.0010129615757654,-1.2629591442886e-09,3.3627142168889e-09,-1.1112250920362e-08,1.3733992272434e-08,-0.0012312366275515,0.0012312290021885,-0.0012312350768834,0.0012312305394568,-0.0012312288296311,0.0012312371711617,-0.0012312272869761,0.001231238718068,-0.0010191352512125,0.0010191410123462,-0.0010191307082468,0.0010191455412669,1.0935477775223e-08,-1.3526779470656e-08,-4.2282449685011e-09,2.152231590978e-09,-0.0010129615618934,0.0010129594958235,-0.0012312310336937,0.001231234927362,-0.0012312289970364,0.0012312370493348,-0.0012312386844068,0.0012312268897823,-0.0012312366469287,0.0012312290125033,-0.0010191462775063,0.0010191298428994,-0.0010191400687832,0.0010191361792131,-0.0010191263534545,0.0010191502270333,-0.0010191502896122,0.0010191256111783,2.131818975276e-09,-2.3368687627634e-09,-0.0010129606386761,0.0010129604191992,2.9826096877479e-09,-3.3111013786845e-09,-0.0012312312152824,0.0012312345961963,-0.0012312332739141,0.0012312324851137,-0.0012312327274435,0.0012312331338947,-0.0012312347843806,0.0012312310227308,-0.0010191414381943,0.0010191347713825,-0.0010191370506985,0.0010191391233177,0.602180932472,131329,3014,0.0042124839497609,0.0042124839511362,0.0042124839514622,37.209949183264,5.7679593466114e-05,5.7679593466114e-05,5.7679593466114e-05,4659274.6557389,0.01271928065478
12019200,0.92900022793585,0.013325829481246,0.0044419431595813,0.0044419431606939,0.0044419431609703,-0.0010167142554456,0.0010167163440487,-1.3151735358513e-09,3.4088087601735e-09,-1.1082180520551e-08,1.3697028997607e-08,-0.0012365179623559,0.0012365103206521,-0.0012365163789533,0.001236511890769,-0.0012365101857779,0.0012365184671406,-0.0012365086103817,0.0012365200468612,-0.001022798892516,0.0010228045285847,-0.0010227942511767,0.0010228091518184,1.0904657091368e-08,-1.3491120829385e-08,-4.2226070614692e-09,2.1508622982752e-09,-0.0010167163306954,0.0010167142696315,-0.001236512366806,0.0012365162463486,-0.0012365103323932,0.0012365183660081,-0.0012365199961684,0.001236508231027,-0.0012365179609831,0.0012365103514623,-0.0010228098409027,0.0010227934383418,-0.0010228036371857,0.001022799766033,-0.0010227899640761,0.0010228137727357,-0.0010228138362984,0.0010227892245432,2.1819306775744e-09,-2.3852961902211e-09,-0.0010167154094891,0.001016715191049,2.9799601903058e-09,-3.3068247860668e-09,-0.0012365125260512,0.0012365159380253,-0.0012365145821832,0.0012365138290701,-0.0012365140710487,0.0012365144429236,-0.0012365161255921,0.0012365123339532,-0.0010228050637807,0.0010227983054347,-0.0010228005785435,0.0010228027526618,0.61929851286622,131329,3014,0.0042280731990941,0.0042280732008157,0.0042280732012511,37.027632550682,5.6221060405454e-05,5.6221060405454e-05,5.6221060405454e-05,4657682.9422937,0.012766665645749
12219200,0.93368338791248,0.01338129541534,0.0044604318042767,0.0044604318053931,0.0044604318056703,-0.0010203931987453,0.0010203952827148,-1.3665764283811e-09,3.455271559208e-09,-1.106918888176e-08,1.3678509824326e-08,-0.0012416454992828,0.0012416378308055,-0.0012416438832455,0.0012416394336564,-0.001241637732264,0.0012416459666657,-0.0012416361243817,0.001241647579005,-0.0010264706310391,0.0010264761555552,-0.0010264658915248,0.0010264808720145,1.0889689561265e-08,-1.347293359511e-08,-4.2163531388302e-09,2.1475312493555e-09,-0.001020395269885,0.0010203932125923,-0.0012416398914374,0.0012416437676663,-0.0012416378600909,0.0012416458842503,-0.0012416475104486,0.0012416357635102,-0.0012416454784437,0.0012416378807268,-0.001026481513326,0.0010264651328728,-0.0010264753168786,0.0010264714488733,-0.0010264616634526,0.0010264854374993,-0.0010264855048845,0.0010264609241314,2.2324173775639e-09,-2.4338054757369e-09,-0.0010203943500126,0.0010203941327347,2.9756020986925e-09,-3.3005689211645e-09,-0.0012416400342627,0.0012416434761914,-0.001241642086597,0.0012416413706652,-0.0012416416122285,0.0012416419481996,-0.0012416436631632,0.0012416398425704,-0.0010264767930165,0.0010264699441489,-0.0010264722090812,0.0010264744870671,0.63789982010599,131329,3014,0.0042433475879554,0.0042433475900594,0.0042433475906165,36.914087461729,5.531269969383e-05,5.531269969383e-05,5.531269969383e-05,4655687.7313979,0.012813097386417
12419200,0.93804349408134,0.013431038739129,0.0044770129122095,0.0044770129133215,0.0044770129135976,-0.0010236954560491,0.0010236975365155,-1.417496650568e-09,3.5031010936956e-09,-1.1071387312453e-08,1.3677387148829e-08,-0.0012463662459788,0.0012463585402762,-0.0012463645970209,0.0012463601759666,-0.0012463584780332,0.0012463666763942,-0.0012463568371099,0.0012463683216351,-0.0010297287005185,0.0010297341261257,-0.0010297238666085,0.0010297389417937,1.0894035632814e-08,-1.3471703393174e-08,-4.2084563402677e-09,2.1446476818098e-09,-0.0010236975231446,0.001023695470207,-0.0012463606150617,0.0012463644997401,-0.0012463585871593,0.001246366612584,-0.0012463682358138,0.0012463564947119,-0.0012463662072334,0.0012463586083432,-0.0010297395252063,0.0010297231603387,-0.001029733341376,0.0010297294678709,-0.0010297196804274,0.0010297434609355,-0.0010297435239199,0.0010297189438652,2.2811157966547e-09,-2.4832015474855e-09,-0.0010236966053716,0.0010236963881733,2.9704817375425e-09,-3.2958875897936e-09,-0.0012463607472313,0.0012463642192645,-0.001246362796257,0.0012463621168242,-0.0012463623580527,0.0012463626586585,-0.0012463644056826,0.0012463605563176,-0.0010297348593785,0.001029727916109,-0.0010297301805583,0.0010297325557646,0.61826607379671,131329,3014,0.0042570589456483,0.0042570589472729,0.0042570589476708,36.802092616217,5.4416740929739e-05,5.4416740929739e-05,5.4416740929739e-05,4653606.2832924,0.01285478264229
12619200,0.94210299259205,0.013474568811964,0.0044915229364864,0.0044915229376005,0.0044915229378773,-0.0010266289811155,0.0010266310592966,-1.4677001777376e-09,3.5512458632883e-09,-1.1092768608504e-08,1.3696611160548e-08,-0.001250606008128,0.0012505982535355,-0.0012506043263657,0.0012505999219873,-0.0012505982261396,0.0012506064031484,-0.0012505965524113,0.0012506080811251,-0.0010325312935765,0.0010325366346429,-0.001032526364287,0.0010325415474961,1.0916034288001e-08,-1.3490636138385e-08,-4.2020004874418e-09,2.141074271093e-09,-0.0010266310457332,0.0010266289954112,-0.0012506003428294,0.0012506042469571,-0.001250598318109,0.0012506063564169,-0.0012506079777243,0.0012505962283956,-0.0012506059523751,0.0012505983386631,-0.0010325420762709,0.0010325257108313,-0.0010325359030666,0.001032532009248,-0.0010325222110243,0.0010325460319612,-0.0010325460945256,0.0010325214747021,2.3303792563369e-09,-2.5324189159287e-09,-0.0010266301290651,0.0010266299122567,2.9656055166695e-09,-3.2908145120962e-09,-0.0012506004698031,0.0012506039719233,-0.0012506025154194,0.001250601872699,-0.0012506021135058,0.0012506023785629,-0.0012506041578058,0.0012506002794986,-0.0010325374567757,0.0010325304200121,-0.0010325326817964,0.0010325351563446,0.58731203092315,131329,3014,0.0042692390059018,0.0042692390074139,0.0042692390077788,36.690152024758,5.3521216198065e-05,5.3521216198065e-05,5.3521216198065e-05,4652648.9991116,0.012891812654431
12819200,0.94584855213256,0.013515128691246,0.0045050428962418,0.0045050428973626,0.0045050428976412,-0.0010290408280871,0.0010290429072766,-1.5157373311179e-09,3.6018984779739e-09,-1.1149414321928e-08,1.3756626013783e-08,-0.0012541346495262,0.0012541268228402,-0.0012541329346074,0.0012541285238139,-0.0012541268287364,0.001254135011503,-0.0012541251218321,0.0012541367221356,-0.0010348066226909,0.0010348119107563,-0.0010348016064624,0.0010348169296194,1.0978249757688e-08,-1.3546180073869e-08,-4.1966104424877e-09,2.1418946056256e-09,-0.0010290428912573,0.0010290408440736,-0.0012541289279383,0.0012541328733034,-0.0012541269043925,0.0012541349809476,-0.0012541366025412,0.0012541248158046,-0.0012541345783132,0.0012541269243146,-0.0010348173888457,0.0010348009998925,-0.0010348112288859,0.0010348073020432,-0.0010347974513336,0.0010348214001369,-0.0010348214454191,0.0010347967215272,2.3768876492433e-09,-2.5839620341453e-09,-0.001029041976959,0.0010290417582924,2.9614755829391e-09,-3.2910790415003e-09,-0.0012541290595776,0.0012541325935476,-0.0012541311041827,0.0012541304957295,-0.0012541307362371,0.0012541309676591,-0.0012541327794749,0.0012541288701778,-0.0010348128078719,0.0010348056670869,-0.001034807941688,0.0010348105033341,0.59134554440121,131329,3014,0.0042792527302652,0.0042792527301895,0.0042792527300213,36.406427428086,5.1251419424688e-05,5.1251419424688e-05,5.1251419424688e-05,4650899.2941905,0.012922255682244
13019200,0.9492611303575,0.013552247604369,0.0045174158672579,0.0045174158684112,0.0045174158687004,-0.0010307365850351,0.0010307386661923,-1.5632841133611e-09,3.6517367345082e-09,-1.1245629975253e-08,1.3856002795479e-08,-0.0012568330160473,0.0012568250932587,-0.0012568312684918,0.0012568268267216,-0.0012568251300017,0.0012568333473037,-0.0012568233905918,0.0012568350902266,-0.0010363769957073,0.0010363822567109,-0.0010363718863344,0.001036387372525,1.1074791390783e-08,-1.3643879435327e-08,-4.1993782992887e-09,2.1440511614592e-09,-0.0010307386498767,0.0010307366012896,-0.0012568272158982,0.0012568312225538,-0.0012568251904673,0.0012568333317767,-0.0012568349552999,0.0012568231003998,-0.0012568329294173,0.0012568252103857,-0.0010363877824725,0.0010363713245349,-0.0010363816197058,0.0010363776328646,-0.0010363677145791,0.0010363918567713,-0.0010363918985315,0.0010363669856943,2.4261101169719e-09,-2.634088887922e-09,-0.0010307377349198,0.0010307375161568,2.9627976910937e-09,-3.2931246892277e-09,-0.0012568273609268,0.0012568309293523,-0.0012568294065803,0.0012568288304042,-0.0012568290706965,0.0012568292705557,-0.0012568311152134,0.0012568271718534,-0.0010363832169695,0.0010363759757639,-0.0010363782540729,0.0010363809102419,0.59302697549887,131329,3014,0.0042862947474727,0.0042862947473431,0.0042862947471554,35.873310659466,4.6986485275725e-05,4.6986485275725e-05,4.6986485275725e-05,4645696.6891566,0.012943667613988
13219200,0.9523739645082,0.013586290373548,0.0045287634569594,0.0045287634581448,0.0045287634584442,-0.0010321909812041,0.0010321930640467,-1.6122975415639e-09,3.7015207372588e-09,-1.1338210742268e-08,1.3949746190594e-08,-0.0012591967773089,0.0012591887617754,-0.0012591949970272,0.0012591905282995,-0.0012591888288902,0.0012591970778461,-0.0012591870566685,0.0012591988538742,-0.001037726948342,0.0010377321737841,-0.0010377217356512,0.0010377373804815,1.1164668599366e-08,-1.3741369764415e-08,-4.2045430221455e-09,2.1429577885278e-09,-0.00103219304934,0.0010321909964396,-0.0012591909011708,0.0012591949665098,-0.0012591888744917,0.0012591970771981,-0.0012591987030318,0.0012591867816501,-0.0012591966758414,0.0012591888931926,-0.0010377377568219,0.0010377212226103,-0.0010377315841013,0.0010377275296998,-0.0010377175616764,0.0010377418773634,-0.0010377419329574,0.0010377168263025,2.4768729967301e-09,-2.6812597835894e-09,-0.0010321921315318,0.0010321919143655,2.9668624790202e-09,-3.2940004198718e-09,-0.0012591910583419,0.0012591946612461,-0.0012591931053698,0.001259192560373,-0.0012591928007356,0.0012591929697472,-0.0012591948466441,0.0012591908692181,-0.0010377332000182,0.0010377258678311,-0.0010377281379551,0.0010377308951838,0.59512404490577,131329,3014,0.0042923348392003,0.0042923348402972,0.0042923348405405,35.334555053512,4.2676440428093e-05,4.2676440428093e-05,4.2676440428093e-05,4640231.7307087,0.012962034403921
13419200,0.95521754820393,0.013616841269989,0.0045389470890937,0.0045389470902954,0.0045389470905995,-0.0010334028376184,0.0010334049220807,-1.6609289961416e-09,3.7512222973808e-09,-1.1420068804149e-08,1.403335032131e-08,-0.0012612456120456,0.0012612375103869,-0.0012612437990654,0.0012612393097765,-0.001261237608319,0.0012612458815872,-0.001261235803391,0.0012612476904577,-0.0010388317620368,0.0010388369466647,-0.0010388264499402,0.0010388422466689,1.124516154472e-08,-1.382666450385e-08,-4.2086012801455e-09,2.14315863208e-09,-0.0010334049080877,0.0010334028523381,-0.0012612396667575,0.0012612437839988,-0.0012612376386628,0.001261245896159,-0.0012612475238721,0.0012612355437851,-0.0012612454952906,0.0012612376568208,-0.0010388425831057,0.0010388259839623,-0.0010388364034299,0.0010388322926184,-0.0010388222755255,0.0010388467489867,-0.0010388468110353,0.0010388215366965,2.5269894845882e-09,-2.7295247708331e-09,-0.001033403988473,0.0010334037721286,2.969861151751e-09,-3.2953088838256e-09,-0.0012612398327224,0.0012612434699892,-0.0012612418809876,0.0012612413674967,-0.0012612416079309,0.0012612417457345,-0.0012612436551406,0.0012612396436199,-0.0010388380416064,0.0010388306149529,-0.0010388328814565,0.001038835737014,0.5860828842572,131329,3014,0.0042973682230874,0.0042973682245927,0.0042973682249559,34.795602148335,3.8364817186678e-05,3.8364817186678e-05,3.8364817186678e-05,4634604.9339585,0.012977341451105
13619200,0.95783286056872,0.013644550084944,0.0045481833607407,0.0045481833619487,0.0045481833622545,-0.0010346045507798,0.0010346066343959,-1.7211198656166e-09,3.8092730011481e-09,-1.1468808183018e-08,1.4080376385578e-08,-0.0012632011459727,0.0012631929733012,-0.0012631992947007,0.0012631948124432,-0.001263193110252,0.0012632013769222,-0.0012631912655734,0.0012632032257241,-0.0010399248141208,0.0010399299051515,-0.0010399193735901,0.001039935311384,1.1297461214448e-08,-1.3886236739086e-08,-4.2041210916391e-09,2.1326424010644e-09,-0.0010346066227407,0.0010346045640069,-0.001263195143983,0.0012631993035372,-0.0012631931212331,0.0012632014103992,-0.0012632030377882,0.0012631910252761,-0.0012632010142655,0.0012631931344676,-0.0010399356049397,0.001039918971482,-0.0010399294314945,0.0010399252558607,-0.0010399152327708,0.0010399397952542,-0.0010399398804318,0.0010399144767686,2.5687172590392e-09,-2.7662658819467e-09,-0.0010346057008702,0.0010346054864287,2.9802638665876e-09,-3.3011141825953e-09,-0.0012631953150742,0.0012631989841233,-0.0012631973688554,0.0012631968756942,-0.0012631971165257,0.0012631972328612,-0.00126319916866,0.0012631951257937,-0.0010399310837532,0.0010399235860623,-0.0010399258465588,0.0010399287830802,0.57889843993379,131329,3014,0.0043023588114502,0.0043023588147094,0.004302358815854,34.355065685879,3.4840525487029e-05,3.4840525487029e-05,3.4840525487029e-05,4630610.9296447,0.012992517068603
13819200,0.96025262765998,0.013670190600863,0.0045567301993963,0.0045567302005862,0.0045567302008803,-0.001035825021651,0.0010358271052034,-1.7618895696301e-09,3.8498209801117e-09,-1.1492477836985e-08,1.4103736712289e-08,-0.001265101681735,0.0012650934657036,-0.0012650998026719,0.0012650953320166,-0.0012650936298497,0.0012651018844321,-0.0012650917584901,0.00126510376008,-0.0010410456773864,0.0010410507094364,-0.0010410401611196,0.0010410561968008,1.1314660961598e-08,-1.3902694503059e-08,-4.208974309269e-09,2.1382652928893e-09,-0.0010358270931494,0.0010358250349791,-0.0012650956537326,0.0012650998210429,-0.001265093627178,0.0012651019317502,-0.0012651035593857,0.0012650915320356,-0.0012651015325308,0.0012650936440311,-0.0010410564506408,0.0010410397974718,-0.0010410502677209,0.0010410460947432,-0.0010410360484232,0.0010410606508459,-0.0010410607308789,0.0010410353008643,2.6265501724599e-09,-2.8239238759758e-09,-0.0010358261712262,0.0010358259572676,2.9722901725461e-09,-3.2929798722547e-09,-0.0012650958122127,0.0012650995146379,-0.0012650978601143,0.0012650974116696,-0.0012650976521248,0.0012650977257192,-0.0012650996989568,0.0012650956232908,-0.0010410519741188,0.0010410443665221,-0.0010410466200778,0.0010410496748721,0.57842148600827,131329,3014,0.0043074266396819,0.0043074266423185,0.0043074266430733,34.002974363608,3.2023794908862e-05,3.2023794908862e-05,3.2023794908862e-05,4627745.225545,0.013007926392932
14019200,0.96249375312971,0.01369395069267,0.004564650230006,0.0045646502311863,0.0045646502314777,-0.0010369134851265,0.0010369155681548,-1.8106886395579e-09,3.8990621665331e-09,-1.1495582352438e-08,1.4107501844355e-08,-0.0012668147929307,0.0012668065406312,-0.0012668128809327,0.0012668084395384,-0.0012668067388165,0.0012668149616193,-0.0012668048345431,0.00126681686992,-0.0010420435804473,0.0010420485204242,-0.0010420379737453,0.0010420541094244,1.1320667775487e-08,-1.3903514465771e-08,-4.2051807165251e-09,2.1391887391492e-09,-0.0010369155546489,0.0010369134994156,-0.0012668087446028,0.0012668129166484,-0.0012668067189183,0.0012668150261731,-0.0012668166528327,0.0012668046255195,-0.0012668146268102,0.001266806736308,-0.0010420543023012,0.0010420376576076,-0.0010420481276161,0.0010420439567734,-0.0010420338987861,0.0010420585163141,-0.0010420585852485,0.0010420331562974,2.6744720149805e-09,-2.8747402514822e-09,-0.0010369146346577,0.0010369144196039,2.9693281871209e-09,-3.2925433166206e-09,-0.0012668088894615,0.0012668126239084,-0.0012668109364555,0.0012668105220426,-0.001266810762264,0.0012668108022355,-0.0012668128081971,0.0012668087009964,-0.0010420498793844,0.0010420421710074,-0.0010420444315806,0.0010420475781714,0.57820997625692,131329,3014,0.0043119464681073,0.0043119464697246,0.00431194647013,33.65288972098,2.9223117767844e-05,2.9223117767844e-05,2.9223117767844e-05,4624711.1673146,0.013021669981785
14219200,0.96457130816229,0.013715076633181,0.0045716922101752,0.004571692211357,0.0045716922116488,-0.0010378322611525,0.0010378343425307,-1.8604034639218e-09,3.9472924593367e-09,-1.1491456240194e-08,1.4101811355843e-08,-0.0012683171258977,0.0012683088424556,-0.0012683151811892,0.0012683107739953,-0.0012683090748552,0.0012683172601363,-0.0012683071379112,0.0012683192010421,-0.0010428552860461,0.0010428601256379,-0.0010428495841081,0.0010428658110847,1.1316672231391e-08,-1.3897545306154e-08,-4.2028494724356e-09,2.138643389927e-09,-0.0010378343290593,0.0010378322754126,-0.0012683110622811,0.001268315233546,-0.0012683090374588,0.001268317342078,-0.0012683189674121,0.0012683069458327,-0.0012683169422899,0.0012683090555984,-0.0010428659534962,0.0010428493171334,-0.0010428597821763,0.0010428556138852,-0.0010428455583809,0.001042870167583,-0.0010428702348387,0.0010428448171402,2.7239310964807e-09,-2.9240930766696e-09,-0.0010378334096875,0.0010378331949785,2.9677094080882e-09,-3.2907245331832e-09,-0.0012683111907308,0.001268314957311,-0.0012683132365548,0.0012683128565633,-0.001268313096457,0.0012683131027646,-0.0012683151412976,0.0012683110026532,-0.0010428615825693,0.0010428537782613,-0.0010428560382088,0.0010428592824177,0.55856306645639,131329,3014,0.0043157619999438,0.0043157620015746,0.0043157620019746,33.302875234697,2.6423001877576e-05,2.6423001877576e-05,2.6423001877576e-05,4621639.8299178,0.013033272738928
14419200,0.96646688342156,0.013734603511705,0.0045782011696807,0.0045782011708655,0.0045782011711585,-0.0010380846739003,0.0010380867576797,-1.9061029051882e-09,3.9988021868675e-09,-1.150669401869e-08,1.4123931904722e-08,-0.0012690277668909,0.0012690194383383,-0.0012690257889876,0.0012690214015494,-0.0012690197042888,0.0012690278690442,-0.0012690177342762,0.0012690298416008,-0.0010429894784333,0.0010429942466028,-0.0010429837039115,0.0010430000482485,1.1342736192912e-08,-1.39086312556e-08,-4.199729736524e-09,2.1490810154036e-09,-0.0010380867388445,0.0010380846918158,-0.0012690216768851,0.0012690258583735,-0.0012690196488928,0.0012690279686813,-0.0012690295946694,0.0012690175589503,-0.0012690275665157,0.0012690196704359,-0.0010430001020735,0.0010429834724675,-0.0010429939443455,0.0010429897952656,-0.0010429796829453,0.0010430043627155,-0.0010430043848384,0.0010429789620727,2.7676258657237e-09,-2.9797652089536e-09,-0.0010380858250248,0.0010380856052678,2.9651591668493e-09,-3.2989637964205e-09,-0.0012690217926463,0.0012690255943774,-0.0012690238411828,0.0012690234923446,-0.0012690237317415,0.0012690237069889,-0.0012690257793324,0.0012690216056624,-0.0010429957912768,0.0010429878652039,-0.0010429901606901,0.0010429934765093,0.5638311905,131329,3014,0.0043168117422452,0.0043168117403296,0.0043168117395638,32.646783953195,2.117427162556e-05,2.117427162556e-05,2.117427162556e-05,4614751.5201459,0.013036466254653
14619200,0.96818325565346,0.013752406575144,0.0045841355241303,0.0045841355253539,0.0045841355256593,-0.0010379018269887,0.0010379039094388,-1.9551012507635e-09,4.045199424199e-09,-1.1529697127549e-08,1.4144104521257e-08,-0.0012692440800948,0.0012692357050126,-0.0012692420705694,0.0012692377002525,-0.0012692360026653,0.0012692441499085,-0.0012692340010136,0.0012692461545358,-0.0010426988943297,0.0010427035789081,-0.0010426930176525,0.0010427094659699,1.1361353742964e-08,-1.3932642315185e-08,-4.2089348479654e-09,2.1537158072094e-09,-0.0010379038927752,0.0010379018435684,-0.0012692379612734,0.0012692421528183,-0.0012692359289143,0.0012692442678975,-0.0012692458934369,0.0012692338390417,-0.0012692438608335,0.0012692359552956,-0.0010427094968109,0.0010426928298406,-0.0010427033175519,0.0010426991588761,-0.0010426890385953,0.0010427137527947,-0.001042713787157,0.0010426883161931,2.8203239375985e-09,-3.0281615827423e-09,-0.0010379029770449,0.0010379027592103,2.9718174778689e-09,-3.3018099320172e-09,-0.0012692380637679,0.0012692419022872,-0.0012692401152243,0.0012692397968058,-0.0012692400365161,0.0012692399812579,-0.0012692420870378,0.0012692378764835,-0.0010427052160337,0.0010426971964651,-0.001042699481602,0.0010427029023225,0.56645234447014,131329,3014,0.0043160554786287,0.0043160554784548,0.004316055478271,31.82215036252,1.457720290016e-05,1.457720290016e-05,1.457720290016e-05,4604136.7362313,0.013034170856403
14819200,0.96974014793119,0.013768687700713,0.0045895625659702,0.0045895625672155,0.0045895625675277,-0.0010375977808895,0.0010375998611836,-2.0074012107121e-09,4.0939519340198e-09,-1.153618479162e-08,1.4146612795572e-08,-0.0012692958644709,0.0012692874515383,-0.0012692938216743,0.0012692894807348,-0.0012692877833714,0.0012692958991482,-0.0012692857484137,0.001269297937703,-0.0010423022854987,0.0010423068678925,-0.0010422962996377,0.0010423128442211,1.1363517649421e-08,-1.3940495023998e-08,-4.2157808814129e-09,2.1555400924631e-09,-0.0010375998469134,0.0010375977958741,-0.0012692897253855,0.0012692939182786,-0.0012692876903451,0.0012692960365917,-0.001269297660911,0.0012692856009087,-0.001269295625634,0.0012692877204278,-0.0010423128505799,0.0010422961607533,-0.0010423066532878,0.0010423024896827,-0.0010422923775146,0.001042317091168,-0.0010423171406715,0.0010422916507398,2.8706610494225e-09,-3.0732519541153e-09,-0.0010375989293657,0.0010375987135977,2.9806415471526e-09,-3.3059746389206e-09,-0.0012692898107538,0.0012692936852357,-0.001269291866018,0.0012692915751055,-0.0012692918152495,0.0012692917322242,-0.0012692938696479,0.0012692896227977,-0.0010423086039713,0.0010423004965621,-0.0010423027712964,0.001042306291812,0.56961686125528,131329,3014,0.0043147962022746,0.0043147962037571,0.0043147962041212,30.993665265811,7.9493221264885e-06,7.9493221264885e-06,7.9493221264885e-06,4593089.0550666,0.0130303466538
15019200,0.97113339492342,0.013783206032314,0.004594402009833,0.0045944020110834,0.0045944020113971,-0.0010366687652437,0.0010366708462266,-2.0553934339944e-09,4.1436899984384e-09,-1.155278839098e-08,1.4165482711227e-08,-0.0012686638763731,0.0012686554188506,-0.0012686618007778,0.0012686574803678,-0.0012686557836826,0.0012686638784355,-0.0012686537159496,0.0012686659493511,-0.0010412763818866,0.0010412808837591,-0.0010412703075529,0.0010412869624633,1.1383600926308e-08,-1.3955776485077e-08,-4.2226990590733e-09,2.1668712527441e-09,-0.0010366708302079,0.0010366687813855,-0.0012686577123785,0.0012686619111965,-0.0012686556710566,0.0012686640353889,-0.0012686656598446,0.0012686535822728,-0.0012686636182949,0.0012686557076821,-0.0010412869157821,0.0010412702046745,-0.0010412807072071,0.001041276557533,-0.001041266409216,0.001041291173756,-0.0010412912032702,0.0010412656940489,2.9180044161446e-09,-3.1247112260993e-09,-0.0010366699146176,0.0010366696969529,2.9875049794059e-09,-3.3165981658056e-09,-0.001268657781395,0.0012686616944214,-0.0012686598427341,0.0012686595786168,-0.001268659818959,0.0012686597085739,-0.0012686618794194,0.001268657593534,-0.0010412827121964,0.001041274494742,-0.0010412767863507,0.0010412803899057,0.56737760797197,131329,3014,0.0043109437037864,0.0043109437040391,0.0043109437039902,29.890265012674,-8.7787989860617e-07,-8.7787989860617e-07,-8.7787989860617e-07,4576900.0447162,0.013018640465671
15219200,0.97236171526851,0.013795377127588,0.0045984590415812,0.0045984590428447,0.0045984590431626,-0.0010350404712097,0.0010350425544866,-2.1004070535651e-09,4.1928306889005e-09,-1.1584811948182e-08,1.4202421546359e-08,-0.0012672598758788,0.0012672513648359,-0.0012672577683699,0.0012672534572484,-0.0012672517609028,0.0012672598477426,-0.0012672496612699,0.0012672619496649,-0.0010395260315871,0.0010395304717977,-0.0010395198782001,0.0010395366552863,1.1421697685945e-08,-1.3986424721623e-08,-4.2334294807557e-09,2.1845691989527e-09,-0.0010350425353334,0.0010350404894689,-0.0012672536794975,0.0012672578911714,-0.0012672516283913,0.0012672600243412,-0.001267261650056,0.0012672495396992,-0.0012672595986757,0.0012672516741111,-0.0010395365498787,0.0010395198026185,-0.0010395303256168,0.0010395261946838,-0.001039515982589,0.0010395408414966,-0.0010395408381358,0.0010395152868598,2.9655456306754e-09,-3.1795998142318e-09,-0.0010350416227396,0.001035041401707,2.9951160826567e-09,-3.3310036309344e-09,-0.0012672537341724,0.0012672576883791,-0.0012672558034731,0.0012672555655479,-0.001267255806055,0.0012672556686081,-0.0012672578743934,0.0012672535466575,-0.0010395323865742,0.0010395240480737,-0.0010395263665775,0.0010395300485196,0.54391181422932,131329,3014,0.0043041894072615,0.0043041894054029,0.0043041894046634,28.484094582514,-1.2127243339887e-05,-1.2127243339887e-05,-1.2127243339887e-05,4555505.1858605,0.012998113931543
15419200,0.97344695679403,0.013807892547192,0.0046026308481055,0.0046026308493822,0.0046026308497041,-0.0010334029270045,0.0010334050085225,-2.1536161226528e-09,4.2422002738407e-09,-1.160512339474e-08,1.4218318454925e-08,-0.0012657270566405,0.0012657184991499,-0.0012657249154382,0.0012657206261318,-0.0012657189287988,0.0012657269938044,-0.0012657167955009,0.0012657291301963,-0.0010378083781475,0.0010378127224711,-0.0010378021092043,0.0010378189921104,1.1434813557392e-08,-1.4009903611473e-08,-4.2479012577678e-09,2.1898221899424e-09,-0.0010334049931134,0.0010334029427662,-0.0012657208334454,0.0012657250504722,-0.0012657187760403,0.0012657271907267,-0.001265728816084,0.0012657166863876,-0.0012657267584806,0.001265718827854,-0.001037818876625,0.0010378020800276,-0.0010378126189653,0.0010378084785501,-0.001037798268586,0.0010378231487215,-0.0010378231674848,0.0010377975671385,3.016528558682e-09,-3.2226447252981e-09,-0.0010334040768822,0.0010334038590608,3.0117378790193e-09,-3.3406169722534e-09,-0.0012657208710977,0.0012657248650469,-0.0012657229484105,0.0012657227331077,-0.0012657229741683,0.0012657228137497,-0.0012657250506679,0.0012657206825893,-0.0010378147344451,0.0010378063096943,-0.0010378086149814,0.0010378123961585,0.61487581425534,131329,3014,0.0042973955634678,0.0042973955641979,0.0042973955643281,27.071098084086,-2.3431215327311e-05,-2.3431215327311e-05,-2.3431215327311e-05,4535384.2316497,0.01297746461333
15619200,0.9744252651871,0.013819446476614,0.0046064821579101,0.0046064821591903,0.0046064821595134,-0.0010321927662627,0.0010321948409678,-2.2196492251222e-09,4.2980614922011e-09,-1.1568477080378e-08,1.4170059181419e-08,-0.0012647824482047,0.0012647738735834,-0.001264780267063,0.0012647760424991,-0.00126477434626,0.0012647823394912,-0.0012647721741907,0.0012647845162681,-0.0010365939956185,0.0010365981770043,-0.0010365875826137,0.0010366045387617,1.1388009321402e-08,-1.3976140377417e-08,-4.248999457844e-09,2.1790052078623e-09,-0.0010321948321255,0.0010321927775221,-0.0012647762259349,0.0012647804209247,-0.0012647741715049,0.0012647825596258,-0.0012647841806323,0.0012647720830583,-0.0012647821274858,0.0012647742217873,-0.0010366044124602,0.0010365876265061,-0.0010365981422009,0.0010365939928429,-0.0010365838567577,0.0010366086233269,-0.0010366086901735,0.0010365831341541,3.0603107399017e-09,-3.253594038759e-09,-0.0010321939116181,0.0010321936987625,3.0306806423602e-09,-3.3481900905322e-09,-0.0012647762369444,0.0012647802633154,-0.0012647783207111,0.0012647781223134,-0.0012647783638049,0.0012647781865788,-0.001264780448284,0.0012647760449684,-0.0010366003093816,0.0010365918252948,-0.0010365941030415,0.0010365979769785,0.62694798305494,131329,3014,0.0042923773649972,0.0042923773700138,0.0042923773715338,25.96262644521,-3.2298988438321e-05,-3.2298988438321e-05,-3.2298988438321e-05,4515662.4810099,0.012962220787229
15819200,0.97534552321551,0.013831205171631,0.0046104017229145,0.0046104017241966,0.0046104017245203,-0.0010322291225429,0.001032231190912,-2.2626873398373e-09,4.3349646702461e-09,-1.1433923908414e-08,1.4028009519703e-08,-0.0012651330914429,0.0012651245762607,-0.0012651308835973,0.0012651267714883,-0.0012651250820037,0.0012651329497069,-0.0012651228822774,0.0012651351539463,-0.001036687240671,0.0010366912458726,-0.0010366807525293,0.00103669769209,1.1253799347016e-08,-1.3831006885848e-08,-4.2415548544291e-09,2.1810056002464e-09,-0.0010322311807294,0.0010322291347538,-0.0012651269399173,0.0012651310523664,-0.0012651248880165,0.0012651331883727,-0.0012651348030496,0.00126512280796,-0.0012651327512315,0.0012651249448869,-0.0010366975136904,0.0010366808376529,-0.0010366912518802,0.0010366872028283,-0.0010366771465045,0.0010367016490955,-0.0010367017039577,0.0010366764351584,3.1181041107951e-09,-3.3124896523326e-09,-0.0010322302644696,0.0010322300516268,3.0134609882324e-09,-3.3318622884677e-09,-0.0012651268951655,0.0012651309504817,-0.0012651289690846,0.0012651288203416,-0.0012651290615103,0.001265128835198,-0.0012651311350057,0.0012651267054574,-0.0010366935174885,0.0010366849291271,-0.0010366871995517,0.0010366911941876,0.66919701233315,131329,3014,0.0042925313864003,0.0042925313906084,0.0042925313918799,25.547445222256,-3.5620438221952e-05,-3.5620438221952e-05,-3.5620438221952e-05,4507748.1093724,0.012962697700642
16019200,0.97621263646448,0.013842250868727,0.0046140836219441,0.0046140836232289,0.0046140836235536,-0.0010322148638506,0.0010322169263996,-2.3115561673399e-09,4.3795073484979e-09,-1.1299929635847e-08,1.3888841374136e-08,-0.0012655131766354,0.0012655047146065,-0.0012655109374696,0.0012655069406358,-0.0012655052582661,0.0012655129969225,-0.0012655030269202,0.0012655152322461,-0.0010367480446984,0.0010367518649249,-0.0010367414741784,0.0010367584119007,1.1123265264529e-08,-1.3685780664499e-08,-4.2259275259229e-09,2.1778403998951e-09,-0.0010322169139308,0.0010322148775445,-0.0012655070910562,0.0012655111250855,-0.001265505045293,0.0012655132543392,-0.0012655148631143,0.0012655029729039,-0.0012655128172001,0.0012655051034141,-0.0010367581596435,0.0010367416110416,-0.001036751924293,0.0010367479659186,-0.001036737987827,0.0010367622333759,-0.0010367622691529,0.0010367372855884,3.1675102201194e-09,-3.3662724174236e-09,-0.001032216002979,0.001032215788831,2.9987291526769e-09,-3.3207164650385e-09,-0.0012655069938546,0.0012655110757982,-0.0012655090597644,0.0012655089544116,-0.0012655091947657,0.0012655089261233,-0.0012655112599395,0.0012655068054842,-0.0010367542753415,0.0010367455865366,-0.0010367478615859,0.001036751956188,0.66742794056839,131329,3014,0.0042924765892138,0.004292476591753,0.0042924765924459,25.147749637368,-3.8818002901057e-05,-3.8818002901057e-05,-3.8818002901057e-05,4498177.9613736,0.012962543782134
16219200,0.97703029749655,0.013852615853123,0.0046175386167418,0.0046175386180279,0.004617538618353,-0.0010321520654983,0.0010321541220114,-2.3642966923001e-09,4.4269317861845e-09,-1.1175854926156e-08,1.3758145985202e-08,-0.0012658191535322,0.0012658107364934,-0.0012658168808259,0.0012658129958612,-0.001265811319607,0.0012658189338684,-0.0012658090548766,0.0012658212023862,-0.0010367522762087,0.0010367559092666,-0.0010367456115958,0.0010367625577574,1.1001758890398e-08,-1.3554223558708e-08,-4.2095524928858e-09,2.1699045038283e-09,-0.001032154108693,0.0010321520797547,-0.0012658131253243,0.0012658170893376,-0.0012658110874149,0.0012658192104671,-0.0012658208135254,0.0012658090218115,-0.0012658187756167,0.0012658111440426,-0.0010367622376985,0.0010367458079125,-0.0010367560296689,0.0010367521418546,-0.0010367422484334,0.0010367662492921,-0.0010367662800416,0.0010367415486246,3.2149877012444e-09,-3.4152343999628e-09,-0.0010321532015928,0.0010321529870988,2.9873124778456e-09,-3.3104422388943e-09,-0.0012658129805505,0.001265817087874,-0.0012658150392979,0.0012658149739223,-0.0012658152135071,0.0012658149060828,-0.0012658172716828,0.0012658127927625,-0.001036758457446,0.001036749677902,-0.0010367519510003,0.001036756143989,0.66425606529141,131329,3014,0.0042922200849316,0.0042922200868749,0.0042922200873791,24.748590752249,-4.2011273982004e-05,-4.2011273982004e-05,-4.2011273982004e-05,4489351.2424897,0.01296177551741
16419200,0.97780470402481,0.013861306547558,0.0046204355148855,0.0046204355161732,0.0046204355164988,-0.0010321128419403,0.0010321148923759,-2.4151942873253e-09,4.4713699394823e-09,-1.1069962551302e-08,1.3644434568949e-08,-0.0012661322418233,0.0012661238606043,-0.0012661299375466,0.001266126151728,-0.0012661244806181,0.0012661319844987,-0.0012661221840521,0.001266134285009,-0.0010367434861552,0.0010367469453379,-0.001036736725002,0.0010367536849129,1.089305188339e-08,-1.3440514876599e-08,-4.1962215237021e-09,2.1605772718182e-09,-0.0010321148796983,0.0010321128557927,-0.0012661262613458,0.0012661301647729,-0.0012661242311301,0.0012661322782803,-0.001266133876076,0.0012661221713796,-0.001266131845601,0.0012661242862355,-0.0010367533123866,0.0010367369809147,-0.0010367471234994,0.0010367432904136,-0.001036733483072,0.001036757259623,-0.0010367572978042,0.0010367327804664,3.2667725540174e-09,-3.4647441675322e-09,-0.0010321139744649,0.0010321137613488,2.9748066466548e-09,-3.2956860207602e-09,-0.0012661260736891,0.001266130206497,-0.0012661281234324,0.0012661281014912,-0.0012661283405013,0.0012661279908295,-0.0012661303894399,0.0012661258867004,-0.0010367496248599,0.001036740759195,-0.0010367430180922,0.0010367473228645,0.59981699532108,131329,3014,0.004292061009965,0.0042920610124,0.0042920610130681,24.411226223686,-4.4710190210512e-05,-4.4710190210512e-05,-4.4710190210512e-05,4481968.6713503,0.012961301984402
16619200,0.97854223308871,0.013871315296873,0.0046237717646553,0.0046237717659455,0.0046237717662719,-0.0010323312828018,0.0010323333278191,-2.467934102719e-09,4.5185007386688e-09,-1.0981650628023e-08,1.354940047941e-08,-0.0012665361389768,0.0012665277802417,-0.0012665338014391,0.0012665301048118,-0.0012665284381942,0.0012665358428944,-0.0012665261085138,0.0012665381766703,-0.001036998170833,0.0010370014652979,-0.0010369913101214,0.0010370083005728,1.0804791922656e-08,-1.3347521335738e-08,-4.1802873170896e-09,2.1484811184033e-09,-0.001032333315634,0.0010323312962818,-0.0012665301924136,0.0012665340497217,-0.0012665281714339,0.0012665361540331,-0.0012665377470639,0.0012665261168198,-0.0012665357259964,0.0012665282223262,-0.0010370078698882,0.0010369916291196,-0.0010370017068321,0.0010369979093402,-0.001036988177106,0.0010370117691066,-0.0010370118152781,0.0010369874696638,3.3160322578437e-09,-3.512288889456e-09,-0.0010323324121516,0.0010323322001241,2.9629890160136e-09,-3.2821199383271e-09,-0.0012665299697083,0.0012665341268593,-0.001266532010781,0.0012665320303224,-0.0012665322685875,0.0012665318788788,-0.0012665343090667,0.001266529783088,-0.0010370042699481,0.0010369953203272,-0.0010369975672586,0.0010370019782364,0.70235633660603,131329,3014,0.0042929687061578,0.0042929687088405,0.0042929687095851,24.157526739038,-4.6739786087697e-05,-4.6739786087697e-05,-4.6739786087697e-05,4479640.1179264,0.012964063079248
16819200,0.97924503269337,0.013880895166143,0.0046269650544102,0.0046269650557029,0.0046269650560301,-0.001032453967471,0.0010324560097208,-2.5184177463019e-09,4.5667854595743e-09,-1.0916505442987e-08,1.3481493791001e-08,-0.0012670418728472,0.0012670335223799,-0.0012670395023087,0.0012670358797633,-0.0012670342162249,0.0012670415406977,-0.0012670318535675,0.0012670439072596,-0.0010372175675127,0.0010372207196197,-0.0010372106136558,0.0010372276548507,1.0741465753947e-08,-1.3278141392967e-08,-4.1649388795446e-09,2.1382101170319e-09,-0.0010324559967293,0.0010324539814572,-0.0012670359467526,0.0012670397714158,-0.0012670339341164,0.0012670418671147,-0.0012670434575034,0.0012670318829432,-0.0012670414448158,0.0012670339798174,-0.0010372271565052,0.0010372109921411,-0.0010372210217488,0.0010372172501209,-0.0010372075682443,0.0010372310295701,-0.0010372310745574,0.001037206858779,3.3643474238779e-09,-3.5618519326331e-09,-0.0010324550953222,0.0010324548831247,2.9501271898453e-09,-3.2701669165425e-09,-0.001267035695312,0.0012670398773944,-0.0012670377282221,0.0012670377892749,-0.0012670380268338,0.0012670375967884,-0.0012670400591746,0.001267035509416,-0.0010372236392792,0.0010372145991415,-0.001037216842442,0.0010372213544616,0.70571573451356,131329,3014,0.0042934821629184,0.0042934821649768,0.0042934821655148,23.905700359104,-4.8754397127165e-05,-4.8754397127165e-05,-4.8754397127165e-05,4471787.8270737,0.012965636490214
17019200,0.97991503630511,0.013889830484964,0.0046299434940162,0.0046299434953103,0.0046299434956379,-0.0010325217684921,0.0010325238081261,-2.5687678760223e-09,4.6147134004968e-09,-1.08711673443e-08,1.3433186753777e-08,-0.001267490052723,0.0012674816980175,-0.0012674876494331,0.0012674840881207,-0.001267482427077,0.0012674896850435,-0.0012674800316605,0.0012674920843176,-0.0010373759014542,0.001037378923956,-0.0010373688522568,0.0010373859562235,1.0696519556082e-08,-1.3229398792238e-08,-4.1515829857207e-09,2.1280234224721e-09,-0.0010325237949639,0.0010325217825968,-0.0012674841347538,0.0012674879386909,-0.0012674821298596,0.0012674900265175,-0.0012674916145776,0.0012674800815556,-0.0012674896096419,0.0012674821705634,-0.0010373853967011,0.0010373692901442,-0.0010373792857217,0.0010373755257302,-0.00103736588534,0.0010373892507882,-0.0010373892994646,0.001037365171952,3.4135830623806e-09,-3.6109846899258e-09,-0.0010325228947922,0.0010325226830118,2.9385180391439e-09,-3.2582649596979e-09,-0.0012674838602484,0.0012674880678726,-0.001267485885312,0.0012674859876035,-0.00126748622459,0.001267485754487,-0.0012674882490994,0.0012674836749838,-0.0010373819525863,0.0010373728236445,-0.0010373750597865,0.0010373796756794,0.69245977662912,131329,3014,0.0042937677645276,0.0042937677664787,0.0042937677669813,23.653938860634,-5.0768489114929e-05,-5.0768489114929e-05,-5.0768489114929e-05,4464486.3844397,0.012966516737931
17219200,0.9805386392828,0.013897901209982,0.0046326337356879,0.0046326337369833,0.0046326337373113,-0.0010318041046331,0.001031806147275,-2.6205828772566e-09,4.6730286847696e-09,-1.0891871628622e-08,1.3461546695489e-08,-0.00126707492825,0.0012670665201254,-0.0012670724870154,0.0012670689468797,-0.0012670672862687,0.0012670745245067,-0.0012670648544391,0.0012670769589598,-0.0010367076434087,0.0010367105876715,-0.001036700509762,0.00103671774543,1.0742306814404e-08,-1.3263020861398e-08,-4.1377948673032e-09,2.1252567804012e-09,-0.0010318061296644,0.0010318041214306,-0.0012670689703636,0.0012670728032805,-0.0012670669695015,0.0012670748858292,-0.0012670764757561,0.0012670649205956,-0.0012670744764454,0.0012670670028813,-0.0010367170873641,0.0010367009954802,-0.0010367110141628,0.0010367072313798,-0.0010366975391164,0.0010367210069659,-0.0010367210220798,0.0010366968346856,3.4510069537535e-09,-3.6599226925799e-09,-0.0010318052336852,0.0010318050170755,2.9350111815701e-09,-3.2650233185729e-09,-0.0012670686955905,0.0012670729324817,-0.0012670707214358,0.0012670708522955,-0.0012670710880406,0.0012670705908135,-0.001267073114778,0.0012670685100069,-0.0010367137010583,0.0010367044625912,-0.0010367067326817,0.0010367114111758,0.67475988899154,131329,3014,0.004290793556407,0.0042907935547135,0.004290793554017,22.993493783934,-5.6052049728527e-05,-5.6052049728527e-05,-5.6052049728527e-05,4450792.1765527,0.0129574869681
17419200,0.98110774961274,0.013904920230752,0.0046349734092755,0.0046349734105738,0.0046349734109025,-0.0010304210735823,0.0010304231219154,-2.6560355576428e-09,4.7147536888053e-09,-1.0992175111625e-08,1.3569267193907e-08,-0.0012659015267243,0.0012658930301466,-0.0012658990605025,0.0012658954812367,-0.001265893817456,0.0012659011034608,-0.0012658913582702,0.0012659035647636,-0.0010353308836186,0.0010353338269509,-0.0010353236781621,0.0010353410706082,1.082169804636e-08,-1.3342050804084e-08,-4.1504272276735e-09,2.1386021172228e-09,-0.0010304231019269,0.0010304210924034,-0.0012658955035495,0.0012658993794599,-0.0012658934951689,0.0012659014691097,-0.0012659030633257,0.0012658914436267,-0.0012659010539802,0.0012658935353686,-0.0010353403639724,0.0010353241958406,-0.0010353342685373,0.0010353304653564,-0.0010353206971419,0.0010353443322917,-0.0010353443299143,0.0010353200042337,3.5091017742613e-09,-3.7211230041583e-09,-0.0010304222057186,0.0010304219881705,2.9291159070344e-09,-3.2618923682801e-09,-0.0012658952307659,0.0012658995058795,-0.0012658972556474,0.0012658974280147,-0.0012658976647595,0.0012658971241334,-0.0012658996879977,0.0012658950480384,-0.001035336997182,0.001035327642361,-0.0010353299176081,0.0010353347059847,0.6474779983251,131329,3014,0.004285057674093,0.0042850576716747,0.0042850576707604,21.989780533123,-6.4081755735013e-05,-6.4081755735013e-05,-6.4081755735013e-05,4431928.3249103,0.012940060940347
17619200,0.98162756431536,0.013911061058337,0.0046370203517987,0.0046370203531038,0.0046370203534346,-0.0010290007161796,0.0010290027654435,-2.7075194268165e-09,4.7642826982574e-09,-1.1090208752853e-08,1.3665275169371e-08,-0.0012646051002732,0.0012645965083082,-0.0012646026009277,0.0012645989939337,-0.0012645973254835,0.0012646046456205,-0.0012645948333294,0.0012646071411637,-0.001033887126726,0.0010338900285962,-0.0010338798011166,0.0010338973510108,1.09130920662e-08,-1.3452143706229e-08,-4.1626421402811e-09,2.1343757960242e-09,-0.0010290027509854,0.001029000731302,-0.001264598998299,0.0012646029344457,-0.001264596987768,0.0012646050274226,-0.0012646066246645,0.0012645949304043,-0.0012646046133953,0.001264597025287,-0.0010338966427355,0.0010338803710014,-0.0010338905199968,0.0010338866306724,-0.0010338768331398,0.0010339006353223,-0.0010339006737449,0.0010338761207983,3.5623189903942e-09,-3.7633781214405e-09,-0.0010290018477178,0.0010290016347257,2.9403996545883e-09,-3.2633926766379e-09,-0.00126459873804,0.0012646030489003,-0.0012646007660279,0.0012646009659574,-0.001264601203162,0.0012646006349807,-0.0012646032299346,0.0012645985536146,-0.0010338932665172,0.0010338838344554,-0.0010338860832874,0.0010338909831396,0.62390235455851,131329,3014,0.0042791657561074,0.0042791657574971,0.004279165757824,20.97834852409,-7.217321180728e-05,-7.217321180728e-05,-7.217321180728e-05,4414236.3868638,0.01292215740388
17819200,0.98210356941339,0.013916470020527,0.004638823339193,0.004638823340501,0.0046388233408327,-0.0010276027051526,0.0010276047570361,-2.7602042283908e-09,4.8185124574285e-09,-1.118044761947e-08,1.3757712450711e-08,-0.0012632626785269,0.0012632539927412,-0.0012632601433866,0.0012632565146465,-0.0012632548420704,0.0012632621913183,-0.0012632523151162,0.0012632647220457,-0.0010324423289468,0.0010324451882204,-0.0010324348931557,0.0010324526069269,1.1006758873265e-08,-1.3555402217337e-08,-4.1684111955882e-09,2.1318717033017e-09,-0.0010276047445325,0.0010276027187938,-0.0012632564995941,0.0012632604954151,-0.0012632544875153,0.0012632625902723,-0.0012632641905174,0.0012632524258044,-0.0012632621787886,0.0012632545215829,-0.0010324518649648,0.0010324355133986,-0.0010324457338195,0.0010324417693341,-0.0010324319221184,0.0010324559064624,-0.0010324559601161,0.0010324312000472,3.6088875901084e-09,-3.8063659770146e-09,-0.0010276038376719,0.0010276036259555,2.9507285494006e-09,-3.2705710376528e-09,-0.0012632562517991,0.0012632605975286,-0.0012632582845482,0.0012632585089861,-0.001263258746089,0.001263258153889,-0.0012632607787624,0.0012632560659161,-0.0010324484940178,0.0010324389732235,-0.0010324412185202,0.0010324462087628,0.60341630289737,131329,3014,0.004273365637392,0.0042733656397599,0.004273365640386,19.988681930424,-8.009054455661e-05,-8.009054455661e-05,-8.009054455661e-05,4398040.3936918,0.012904530315654
18019200,0.98254043965363,0.013921434225806,0.0046404780742859,0.0046404780755942,0.004640478075926,-0.0010262310255786,0.0010262330810436,-2.8052320679683e-09,4.8670894209062e-09,-1.1265318252437e-08,1.3847007251639e-08,-0.0012618886653304,0.0012618798941668,-0.0012618860993933,0.0012618824468784,-0.0012618807714391,0.0012618881504548,-0.0012618782128892,0.0012618907127893,-0.0010310109003757,0.0010310137283829,-0.0010310033720945,0.00103102123998,1.1088492252031e-08,-1.3641193858224e-08,-4.1769069570683e-09,2.1371129439913e-09,-0.0010262330683783,0.0010262310393242,-0.0012618824197081,0.0012618864638353,-0.0012618804034623,0.0012618885628703,-0.0012618901666262,0.0012618783378924,-0.0012618881499458,0.0012618804386619,-0.0010310204575352,0.0010310040321872,-0.0010310143117924,0.0010310103031292,-0.0010310003957502,0.0010310245446709,-0.0010310245966341,0.0010309996742735,3.6602604480852e-09,-3.8578614972735e-09,-0.0010262321599115,0.0010262319480729,2.9538862522438e-09,-3.2738608291813e-09,-0.0012618821776159,0.0012618865601112,-0.0012618842128663,0.0012618844689629,-0.0012618847066218,0.0012618840818249,-0.001261886740986,0.0012618819920372,-0.0010310171006964,0.0010310074776617,-0.0010310097256477,0.001031014813006,0.60265705319347,131329,3014,0.0042676740060914,0.0042676740083382,0.0042676740089238,19.017321548494,-8.7861427612048e-05,-8.7861427612048e-05,-8.7861427612048e-05,4383177.7679435,0.012887231007797
18219200,0.98294181403803,0.013926098828098,0.0046420329417162,0.0046420329430249,0.0046420329433568,-0.001024843404223,0.0010248454632322,-2.8533126702565e-09,4.918854849802e-09,-1.1338906446044e-08,1.3925111356995e-08,-0.0012604850231555,0.0012604761713169,-0.0012604824235824,0.0012604787574744,-0.0012604770788386,0.0012604844786826,-0.0012604744871344,0.0012604870740403,-0.0010295669592307,0.0010295697453966,-0.0010295593365633,0.0010295773570392,1.1165141283627e-08,-1.3720061329261e-08,-4.1821574367478e-09,2.1407791173484e-09,-0.0010248454498593,0.0010248434184575,-0.0012604787145424,0.0012604828044357,-0.0012604766950793,0.0012604849065891,-0.0012604865130329,0.0012604746271662,-0.0012604844935466,0.0012604767305527,-0.0010295765242709,0.0010295600398509,-0.0010295703736097,0.0010295663206132,-0.0010295563557674,0.0010295806617208,-0.0010295807093857,0.0010295556363305,3.7077853286151e-09,-3.9069657419961e-09,-0.0010248445405653,0.001024844327962,2.9587332047463e-09,-3.280224088994e-09,-0.0012604784774315,0.0012604828954229,-0.0012604805164309,0.0012604808008979,-0.0012604810386636,0.0012604803854838,-0.0012604830771704,0.0012604782918368,-0.0010295731886036,0.0010295634641787,-0.001029565719122,0.0010295708950776,0.61338753186324,131329,3014,0.0042619161359799,0.004261916137773,0.0042619161382105,18.046371877822,-9.5629024977424e-05,-9.5629024977424e-05,-9.5629024977424e-05,4368389.6033876,0.012869730765707
18419200,0.98332029259837,0.013930536040367,0.0046435120124719,0.0046435120137816,0.0046435120141138,-0.0010241563456532,0.0010241584033837,-2.9029666096275e-09,4.9656388127311e-09,-1.1351273068694e-08,1.3934149421153e-08,-0.0012598285814442,0.0012598196902815,-0.0012598259500892,0.0012598223088801,-0.0012598206295713,0.0012598280044774,-0.0012598180059483,0.0012598306323522,-0.0010288524010906,0.0010288550945772,-0.0010288446733529,0.0010288627909787,1.1171812665325e-08,-1.3733664031324e-08,-4.1838253282627e-09,2.1363823058755e-09,-0.001024158392454,0.0010241563582732,-0.0012598222486359,0.0012598263464163,-0.0012598202304197,0.0012598284478867,-0.0012598300538974,0.0012598181620579,-0.0012598280355286,0.0012598202648591,-0.0010288619301,0.0010288454295414,-0.0010288557724612,0.0010288516990174,-0.0010288417476,0.0010288660578895,-0.001028866126571,0.0010288410193211,3.760738329349e-09,-3.9541193064576e-09,-0.0010241574806638,0.0010241572705476,2.9584925093787e-09,-3.2748085329208e-09,-0.0012598219997474,0.0012598264494031,-0.0012598240365196,0.0012598243563987,-0.0012598245942724,0.001259823905986,-0.0012598266304819,0.0012598218139221,-0.0010288586310783,0.0010288488213148,-0.001028851058387,0.0010288563454827,0.61738405108864,131329,3014,0.0042590654931495,0.0042590654966629,0.0042590654976688,17.474460340545,-0.00010020431727564,-0.00010020431727564,-0.00010020431727564,4360111.1365913,0.012861067301516
18619200,0.98368484658084,0.01393476628462,0.0046449220938898,0.004644922095199,0.004644922095531,-0.0010240480190028,0.0010240500745952,-2.9545197048628e-09,5.0154266181595e-09,-1.1309929478418e-08,1.3890732806207e-08,-0.0012597854010048,0.0012597765018117,-0.0012597827357763,0.0012597791541729,-0.0012597774771971,0.0012597847878401,-0.0012597748198396,0.0012597874493224,-0.0010287328103335,0.0010287353752446,-0.0010287249858821,0.001028743172875,1.1132624171821e-08,-1.3690198940544e-08,-4.1729891336921e-09,2.1292153267704e-09,-0.001024050063119,0.0010240480319587,-0.0012597790738664,0.0012597831523183,-0.001259777061442,0.0012597852478148,-0.0012597868516775,0.0012597749957076,-0.001259784839265,0.001259777092402,-0.0010287422494295,0.001028725799213,-0.0010287361117447,0.0010287320527484,-0.0010287221334032,0.0010287463624247,-0.001028746430303,0.0010287214036591,3.8079501264728e-09,-4.0022104821288e-09,-0.0010240491528955,0.0010240489425976,2.9516277065055e-09,-3.2686227241283e-09,-0.0012597788014955,0.0012597832788423,-0.0012597808338963,0.001259781190352,-0.0012597814277407,0.0012597807037086,-0.0012597834597314,0.0012597786160329,-0.0010287390206395,0.0010287291197167,-0.0010287313556151,0.0010287367384811,0.61178642100182,131329,3014,0.0042586164054626,0.0042586164085375,0.0042586164093999,17.230204578481,-0.00010215836337215,-0.00010215836337215,-0.00010215836337215,4357399.2731087,0.012859702853724
18819200,0.98403625669362,0.013939146446899,0.0046463821479822,0.0046463821492923,0.0046463821496246,-0.0010239614281077,0.0010239634817795,-3.0035128091571e-09,5.0633654654842e-09,-1.1263881284335e-08,1.3843454798135e-08,-0.0012597514479002,0.0012597425449988,-0.0012597487502264,0.0012597452294684,-0.0012597435552716,0.001259750799953,-0.0012597408654196,0.0012597534936233,-0.0010286391926749,0.0010286416317724,-0.0010286312787795,0.0010286495295628,1.1088895117252e-08,-1.3639750895719e-08,-4.1632593995731e-09,2.1252931567167e-09,-0.0010239634690086,0.0010239614419187,-0.0012597451312121,0.0012597491854145,-0.001259743123186,0.0012597512761679,-0.0012597528779341,0.0012597410603838,-0.0012597508698625,0.0012597431523996,-0.0010286485409607,0.0010286321442632,-0.0010286424215537,0.0010286383890742,-0.0010286284969278,0.0010286526391865,-0.0010286526983903,0.0010286277698556,3.8565306832231e-09,-4.0533413637919e-09,-0.0010239625611279,0.0010239623500691,2.942663044458e-09,-3.2617639269539e-09,-0.0012597448325059,0.0012597493382791,-0.0012597468598901,0.0012597472551929,-0.0012597474920733,0.001259746729932,-0.0012597495189679,0.0012597446477549,-0.0010286453864575,0.0010286353882179,-0.0010286376266855,0.0010286431069268,0.64922938914741,131329,3014,0.0042582573651521,0.0042582573673147,0.004258257367875,16.993298884394,-0.00010405360892485,-0.00010405360892485,-0.00010405360892485,4355102.8568184,0.012858611606127
19019200,0.98437509950737,0.013943662314998,0.0046478874373478,0.004647887438659,0.0046478874389916,-0.0010238499462136,0.0010238519974554,-3.0537078784675e-09,5.1113955131404e-09,-1.1218478372716e-08,1.379541528268e-08,-0.0012597661126181,0.0012597572055736,-0.001259763382195,0.0012597599227636,-0.0012597582509698,0.0012597654293334,-0.0012597555283733,0.0012597681557214,-0.0010285528548861,0.0010285551648448,-0.0010285448461614,0.0010285631601212,1.1044075974816e-08,-1.3591043085643e-08,-4.154832473486e-09,2.1201454244893e-09,-0.0010238519844256,0.0010238499602093,-0.0012597598058643,0.001259763835941,-0.0012597578023051,0.0012597659221397,-0.0012597675216262,0.0012597557421784,-0.0012597655180384,0.0012597578296435,-0.0010285621142113,0.0010285457659866,-0.0010285560092681,0.0010285519985799,-0.0010285421406754,0.0010285661910232,-0.0010285662497753,0.0010285414131419,3.9055356170972e-09,-4.1027467468149e-09,-0.0010238510779402,0.0010238508669423,2.9357198008635e-09,-3.2550590976201e-09,-0.0012597594808722,0.0012597640152202,-0.0012597615037488,0.0012597619367151,-0.0012597621732382,0.0012597613740684,-0.0012597641956308,0.0012597592964879,-0.0010285590300893,0.0010285489389905,-0.0010285511746594,0.0010285567547049,0.68719103016496,131329,3014,0.004257796225061,0.0042577962270704,0.0042577962275852,16.756647130104,-0.00010594682295917,-0.00010594682295917,-0.00010594682295917,4350822.0145825,0.012857214124817
19219200,0.98471244433095,0.013948308081357,0.0046494360261331,0.0046494360274453,0.0046494360277783,-0.0010246226548474,0.0010246247002105,-3.1062188465876e-09,5.1567075914169e-09,-1.1126330127046e-08,1.3694569861173e-08,-0.0012607755401848,0.0012607666600912,-0.0012607727774747,0.0012607694101301,-0.0012607677421492,0.0012607748191692,-0.0012607649871325,0.0012607775784507,-0.0010294017664472,0.0010294039068862,-0.0010293936526185,0.0010294119895278,1.0946643383592e-08,-1.3494157630648e-08,-4.1413540095862e-09,2.105834111691e-09,-0.0010246246894226,0.0010246226673624,-0.0012607692715567,0.0012607732509036,-0.0012607672774693,0.0012607753280299,-0.0012607769229142,0.0012607652217129,-0.0012607749286879,0.0012607673001896,-0.0010294109000853,0.001029394637821,-0.0010294048138694,0.0010294008356531,-0.0010293910698975,0.0010294149121591,-0.0010294149931948,0.0010293903316998,3.9579088093086e-09,-4.1494623960662e-09,-0.001024623782786,0.0010246235744985,2.9239941913669e-09,-3.2381216321216e-09,-0.0012607689093322,0.0012607734677789,-0.0012607709223859,0.00126077139859,-0.0012607716346088,0.0012607707934397,-0.0012607736471254,0.0012607687252208,-0.0010294078994241,0.0010293977306983,-0.0010293999425141,0.0010294056394168,0.70677989874857,131329,3014,0.0042610050335688,0.004261005037159,0.0042610050381966,17.022866019817,-0.00010381707184146,-0.00010381707184146,-0.00010381707184146,4353704.284883,0.012866973353136
19419200,0.98505348198876,0.013952893511879,0.0046509645029721,0.0046509645042864,0.0046509645046201,-0.0010258253980678,0.0010258274384229,-3.1562188724447e-09,5.2007345807167e-09,-1.1026011986608e-08,1.3586981221433e-08,-0.0012622752781892,0.0012622664320907,-0.0012622724846225,0.0012622692132776,-0.0012622675493475,0.0012622745214644,-0.0012622647626364,0.0012622773127539,-0.001030698009399,0.0010306999800837,-0.001030689796697,0.0010307081506823,1.0834750285852e-08,-1.3379314088161e-08,-4.1254848182114e-09,2.0920931732978e-09,-0.0010258274282202,0.001025825410349,-0.0012622690557318,0.0012622729755371,-0.0012622670720732,0.001262275042462,-0.0012622766325787,0.0012622650218515,-0.0012622746478651,0.0012622670909191,-0.0010307070086616,0.0010306908485222,-0.0010307009449963,0.0010306970129063,-0.0010306873455306,0.0010307109518373,-0.0010307110484914,0.0010306865995603,4.0111799816755e-09,-4.1990884779941e-09,-0.0010258265228049,0.0010258263163772,2.9074683936305e-09,-3.218037006796e-09,-0.0012622686522309,0.0012622732338393,-0.0012622706535989,0.0012622711764975,-0.0012622714123299,0.0012622705250614,-0.0012622734123175,0.0012622684695076,-0.0010307041005016,0.0010306938512277,-0.0010306960408118,0.0010307018566556,0.69264759998641,131329,3014,0.0042659987501967,0.0042659987545108,0.0042659987557822,17.539899327893,-9.9680805376854e-05,-9.9680805376854e-05,-9.9680805376854e-05,4360438.6539598,0.012882158591152
19619200,0.98539807388185,0.013957398530805,0.0046524661759463,0.0046524661772622,0.0046524661775965,-0.0010270360182972,0.0010270380552143,-3.2073084151648e-09,5.2499340800881e-09,-1.0934869139077e-08,1.3493494618119e-08,-0.0012637576096228,0.0012637487869441,-0.0012637547822407,0.0012637516014218,-0.0012637499421867,0.0012637568148093,-0.001263747122018,0.0012637596390252,-0.0010319896595865,0.0010319914712459,-0.001031981358468,0.0010319997483223,1.075111837368e-08,-1.3284607418364e-08,-4.105127001569e-09,2.0811702757002e-09,-0.0010270380430347,0.0010270360317039,-0.0012637514219408,0.0012637552962824,-0.0012637494481719,0.001263757352715,-0.0012637589395178,0.0012637474022753,-0.0012637569651126,0.0012637494605303,-0.0010319985247226,0.0010319824696994,-0.0010319925005927,0.0010319886112214,-0.0010319790008244,0.0010320024393615,-0.0010320025241941,0.0010319782563622,4.0573386782355e-09,-4.2495676006856e-09,-0.0010270371414565,0.0010270369336077,2.8916966436966e-09,-3.2058774463652e-09,-0.001263750984084,0.0012637555891442,-0.0012637529761367,0.001263753541434,-0.0012637537760994,0.0012637528481233,-0.0012637557671864,0.0012637508019685,-0.0010319957142552,0.0010319853704426,-0.0010319875644584,0.0010319934752196,0.67638955795238,131329,3014,0.0042710245912578,0.0042710245938007,0.0042710245944743,18.062612823405,-9.549909741276e-05,-9.549909741276e-05,-9.549909741276e-05,4368022.114797,0.012897439721881
19819200,0.98574594504337,0.013961798808369,0.0046539329351339,0.0046539329364506,0.004653932936785,-0.0010282486775968,0.0010282507109147,-3.2593569544118e-09,5.2989084763069e-09,-1.0857568988191e-08,1.3412348410786e-08,-0.0012652093285312,0.0012652005209034,-0.0012652064672253,0.001265203369186,-0.0012652017133836,0.0012652084961499,-0.0012651988597588,0.0012652113537018,-0.0010332689705129,0.0010332706286391,-0.0010332605735263,0.0010332790061303,1.0680429928729e-08,-1.3208231056396e-08,-4.0884816767721e-09,2.0692273931126e-09,-0.0010282506984851,0.0010282486911116,-0.0012652031665257,0.0012652070044395,-0.0012652012018985,0.001265209051532,-0.0012652106351041,0.0012651991597908,-0.0012652086703023,0.0012652012082428,-0.0010332777166593,0.001033261745277,-0.0010332717232357,0.0010332678600691,-0.0010332583083014,0.0010332816003678,-0.001033281686874,0.0010332575602612,4.1049766259583e-09,-4.297835947062e-09,-0.0010282497987769,0.0010282495910962,2.8791524737947e-09,-3.1936679133434e-09,-0.0012652026984937,0.0012652073276243,-0.00126520468212,0.001265205288488,-0.0012652055222075,0.0012652045547654,-0.0012652075053195,0.0012652025167333,-0.0010332749916017,0.0010332645595578,-0.0010332667484914,0.0010332727601355,0.65786896782274,131329,3014,0.0042760582713748,0.0042760582736234,0.0042760582741952,18.585522967188,-9.1315816262497e-05,-9.1315816262497e-05,-9.1315816262497e-05,4376142.4859387,0.012912742951832
20019200,0.98608744103719,0.013966295277297,0.0046554317581091,0.0046554317594265,0.0046554317597612,-0.0010286866497899,0.0010286886847137,-3.3063245444077e-09,5.3491088706311e-09,-1.0866280777346e-08,1.3424781287088e-08,-0.0012658102597924,0.001265801413183,-0.0012658073658623,0.0012658042934554,-0.0012658026380534,0.0012658093956969,-0.0012657997517186,0.0012658122853792,-0.0010337443432619,0.0010337459188628,-0.0010337358615885,0.001033754401599,1.0692940325347e-08,-1.3213697734858e-08,-4.0840151124225e-09,2.0711075181898e-09,-0.0010286886696044,0.001028686665159,-0.0012658040754886,0.0012658079201868,-0.0012658021114783,0.0012658099660861,-0.0012658115502193,0.0012658000698198,-0.0012658095859452,0.0012658021171883,-0.0010337530418332,0.0010337370788843,-0.0010337470603969,0.0010337432001084,-0.001033733625893,0.0010337569490565,-0.0010337570166258,0.0010337328851698,4.1520223123625e-09,-4.3507481433366e-09,-0.0010286877724487,0.0010286875623317,2.8741053244229e-09,-3.1938191940748e-09,-0.0012658035948536,0.0012658082557605,-0.0012658055772808,0.0012658062184798,-0.0012658064520937,0.0012658054496465,-0.0012658084338698,0.001265803413623,-0.0010337503724959,0.0010337398337511,-0.0010337420368343,0.0010337481366469,0.68048385899516,131329,3014,0.0042778768903183,0.0042778768908539,0.0042778768908877,18.671826785821,-9.0625385713434e-05,-9.0625385713434e-05,-9.0625385713434e-05,4377221.99301,0.012918273032002
20219200,0.98642014746423,0.013970816632699,0.0046569388765767,0.0046569388778939,0.0046569388782285,-0.0010288940102713,0.0010288960467224,-3.3546380167878e-09,5.3983481698161e-09,-1.0915418793331e-08,1.3475061108721e-08,-0.0012662011514806,0.0012661922413538,-0.0012661982252572,0.0012661951541617,-0.001266193496606,0.0012662002568272,-0.001266190577806,0.0012662031792153,-0.0010339990835264,0.0010340005963074,-0.001033990501539,0.0010340091706227,1.0736769913669e-08,-1.3262900618056e-08,-4.0901530534287e-09,2.0726135388584e-09,-0.0010288960327602,0.0010288940249407,-0.001266194921995,0.0012661987932038,-0.0012661929556271,0.0012662008416938,-0.0012662024276771,0.0012661909115305,-0.0012662004608573,0.0012661929616504,-0.0010340077743823,0.0010339917656667,-0.0010340017812131,0.0010339978910074,-0.001033988291238,0.0010340116998267,-0.0010340117753672,0.0010339875473168,4.2029450008858e-09,-4.3994031492831e-09,-0.0010288951335224,0.0010288949243433,2.8780871246934e-09,-3.195830980822e-09,-0.001266194437061,0.0012661991331023,-0.0012661964213654,0.0012661970935953,-0.0012661973275174,0.0012661962936377,-0.0012661993110209,0.0012661942555422,-0.0010340051306165,0.0010339944968489,-0.0010339966954625,0.0010340028950806,0.6990866174139,131329,3014,0.0042787391688192,0.0042787391702885,0.0042787391706306,18.638333091427,-9.0893335268582e-05,-9.0893335268582e-05,-9.0893335268582e-05,4375088.760412,0.012920898622475
20419200,0.98674424700892,0.013975227362548,0.0046584091198592,0.004658409121177,0.0046584091215118,-0.001029073789767,0.0010290758284237,-3.4038391774908e-09,5.449182572007e-09,-1.0973475017371e-08,1.353513487545e-08,-0.0012665927157537,0.0012665837353639,-0.0012665897562005,0.0012665866817311,-0.0012665850214264,0.001266591790268,-0.0012665820694553,0.0012665947460198,-0.0010342359262276,0.0010342373815036,-0.0010342272432351,0.0010342460504653,1.0796273989836e-08,-1.3327952892543e-08,-4.0973014689227e-09,2.0750333622708e-09,-0.0010290758152995,0.0010290738038337,-0.0012665864333046,0.0012665903400259,-0.0012665844637737,0.0012665923918754,-0.0012665939802297,0.001266582416769,-0.0012665920104347,0.0012665844700849,-0.0010342446176969,0.0010342285517514,-0.0010342386123574,0.0010342346834423,-0.0010342250457671,0.0010342485726536,-0.001034248654104,0.0010342242992357,4.2522288629741e-09,-4.4472139264025e-09,-0.0010290749140882,0.0010290747052865,2.8846780571978e-09,-3.2012128366452e-09,-0.0012665859481459,0.0012665906801398,-0.0012665879362062,0.0012665886365845,-0.0012665888708312,0.0012665878084038,-0.0012665908582998,0.0012665857660896,-0.0010342419940799,0.0010342312639901,-0.001034233461882,0.001034239756066,0.69998402943818,131329,3014,0.004279487462073,0.0042794874640293,0.0042794874645299,18.602072726892,-9.1183418184863e-05,-9.1183418184863e-05,-9.1183418184863e-05,4372255.0684103,0.012923179314303
20619200,0.98705997382521,0.013979025564034,0.0046596751870203,0.0046596751883391,0.0046596751886742,-0.0010292190735355,0.0010292211149696,-3.4521353382527e-09,5.5000727380533e-09,-1.1036632416838e-08,1.3601488424012e-08,-0.0012669486861959,0.001266939632355,-0.0012669456935614,0.0012669426118278,-0.0012669409487918,0.0012669477305456,-0.0012669379638199,0.0012669507193218,-0.0010344230318137,0.0010344244356536,-0.001034414251127,0.0010344332009361,1.0860206271187e-08,-1.3395792242645e-08,-4.1051144114205e-09,2.0796206885661e-09,-0.0010292211019628,0.0010292190874996,-0.0012669423486385,0.0012669462922729,-0.0012669403749553,0.001266948348313,-0.0012669499392565,0.0012669383250931,-0.0012669479653913,0.0012669403825248,-0.0010344317274427,0.0010344156019383,-0.001034425709461,0.0010344217450703,-0.0010344120607762,0.0010344357173877,-0.0010344357989133,0.0010344113145338,4.3012248653858e-09,-4.496157406654e-09,-0.0010292201993624,0.0010292199903452,2.8913635146235e-09,-3.2079527317755e-09,-0.0012669418635065,0.0012669466322441,-0.00126694385597,0.0012669445842259,-0.0012669448188284,0.0012669437279325,-0.0012669468107795,0.0012669416810744,-0.0010344291242749,0.0010344182940443,-0.0010344204956009,0.0010344268817841,0.63099126861921,131329,3014,0.0042800925467783,0.0042800925487636,0.0042800925492713,18.565716263596,-9.1474269891234e-05,-9.1474269891234e-05,-9.1474269891234e-05,4369531.0124276,0.012925024393164
20819200,0.98735281423994,0.01398285745768,0.0046609524849017,0.0046609524862213,0.0046609524865565,-0.0010279858752726,0.0010279879263129,-3.4960468481686e-09,5.5568221734264e-09,-1.1184073441057e-08,1.3764310811076e-08,-0.0012657177047309,0.0012657085209685,-0.0012657146778503,0.0012657115333168,-0.0012657098652565,0.0012657167233099,-0.001265706846222,0.0012657197449316,-0.001033157252916,0.0010331586794019,-0.0010331483953566,0.0010331675632565,1.1020320652844e-08,-1.3550119061745e-08,-4.1239071242972e-09,2.1042545356833e-09,-0.0010279879082212,0.0010279858926268,-0.0012657112621555,0.0012657152889107,-0.001265709273421,0.0012657173589037,-0.0012657189571408,0.0012657072174269,-0.0012657169683827,0.0012657092887211,-0.0010331660198473,0.0010331497649873,-0.0010331599791189,0.00103315596859,-0.001033146123758,0.0010331701262051,-0.0010331701592776,0.0010331454000887,4.3431092593757e-09,-4.5507536675992e-09,-0.0010279870077127,0.0010279867928281,2.908948768259e-09,-3.2371828957111e-09,-0.001265710794827,0.0012657156103507,-0.0012657128035798,0.0012657135473017,-0.0012657137825725,0.001265712674159,-0.0012657157908613,0.0012657106122719,-0.0010331634144931,0.0010331524514827,-0.0010331547019369,0.001033161143215,0.67642720133849,131329,3014,0.0042749756780306,0.004274975676497,0.0042749756758579,17.740930815049,-9.8072553479608e-05,-9.8072553479608e-05,-9.8072553479608e-05,4356036.7917559,0.012909471818583
21019200,0.98762318722686,0.013986269588204,0.0046620898617423,0.0046620898630629,0.0046620898633984,-0.0010265523734384,0.0010265544302889,-3.5439131459449e-09,5.6099633304123e-09,-1.1328304438134e-08,1.3914866348649e-08,-0.0012643435585822,0.0012643342490774,-0.0012643404980661,0.0012643372953271,-0.0012643356208787,0.0012643425497917,-0.0012643325685727,0.0012643456050725,-0.0010317085889157,0.0010317100188277,-0.0010316996281221,0.0010317189965252,1.1169416381825e-08,-1.3710381001915e-08,-4.151960172947e-09,2.1231203045805e-09,-0.0010265544135218,0.0010265523899866,-0.0012643370127131,0.0012643411202553,-0.0012643350084087,0.0012643432062909,-0.0012643448101668,0.0012643329455933,-0.0012643428060723,0.0012643350325545,-0.0010317174384409,0.0010317010231865,-0.0010317113480718,0.0010317072685733,-0.0010316973070985,0.0010317216158899,-0.0010317216497896,0.0010316965878129,4.391870338817e-09,-4.5981220483218e-09,-0.0010265535091958,0.0010265532941929,2.9345237163148e-09,-3.2619690535845e-09,-0.0012643365619674,0.0012643414249654,-0.0012643385870882,0.001264339345108,-0.0012643395817104,0.0012643384569195,-0.0012643416066029,0.0012643363778168,-0.001031714808246,0.0010317037370494,-0.0010317059984848,0.0010317125214751,0.65601667572553,131329,3014,0.004269028803282,0.0042690288028312,0.0042690288025832,16.83005987323,-0.00010535952101416,-0.00010535952101416,-0.00010535952101416,4338817.967359,0.012891401365312
21219200,0.98787299181239,0.013989446701381,0.0046631488994671,0.0046631489007889,0.0046631489011246,-0.001025117233421,0.0010251192947285,-3.5909028991166e-09,5.6594571700271e-09,-1.146096150067e-08,1.4050914333124e-08,-0.0012629165733352,0.0012629071478826,-0.0012629134810037,0.0012629102265782,-0.0012629085461124,0.0012629155380736,-0.0012629054617771,0.0012629186258893,-0.0010302446305727,0.0010302460554906,-0.0010302355636754,0.001030255117354,1.1292893856075e-08,-1.3848004542517e-08,-4.1825347930351e-09,2.1415876793815e-09,-0.001025119280492,0.0010251172483351,-0.0012629099364645,0.0012629141094135,-0.0012629079162539,0.001262916211934,-0.001262917820466,0.0012629058472363,-0.0012629158003525,0.0012629079508964,-0.001030253556817,0.0010302369879062,-0.0010302474079591,0.0010302432720192,-0.0010302332199128,0.0010302577798415,-0.0010302578240933,0.0010302325017159,4.4447241429049e-09,-4.6459277193914e-09,-0.0010251183712223,0.0010251181577697,2.9592991472659e-09,-3.2825757392115e-09,-0.0012629094944843,0.0012629144052651,-0.0012629115344344,0.0012629123098587,-0.0012629125477281,0.0012629114035813,-0.0012629145873626,0.0012629093090503,-0.0010302509035287,0.0010302397293961,-0.0010302419896079,0.0010302486068552,0.65967104600607,131329,3014,0.0042630743814945,0.0042630743829056,0.0042630743832486,15.917071235027,-0.00011266343011979,-0.00011266343011979,-0.00011266343011979,4322876.8312933,0.012873305904444
21419200,0.98810731328952,0.01399245117901,0.0046641503920094,0.0046641503933321,0.0046641503936682,-0.0010240804467291,0.0010240825103193,-3.6342764999064e-09,5.7021769570552e-09,-1.1546617408058e-08,1.413531728873e-08,-0.0012619024504707,0.0012618929454618,-0.0012618993310827,0.0012618960516259,-0.0012618943651726,0.001261901388806,-0.0012618912541825,0.0012619045074867,-0.0010291912388308,0.0010291926256532,-0.0010291820569718,0.0010292017469059,1.1347959053852e-08,-1.3924720721883e-08,-4.2154955839286e-09,2.1553046717401e-09,-0.0010240825014566,0.0010240804584375,-0.0012618957577856,0.0012618999560266,-0.0012618937238034,0.001261902075936,-0.0012619036886851,0.0012618916500819,-0.0012619016518662,0.0012618937710932,-0.0010292002187921,0.0010291835215795,-0.0010291939927621,0.0010291898306851,-0.0010291797552934,0.0010292044154408,-0.0010292045009252,0.0010291790302076,4.507956187974e-09,-4.6941773651037e-09,-0.00102408158398,0.0010240813766544,2.9783026270903e-09,-3.288484179845e-09,-0.0012618953065583,0.0012619002630319,-0.0012618973533343,0.0012618981581299,-0.0012618983996869,0.0012618972242974,-0.0012619004442492,0.0012618951212574,-0.0010291975505818,0.001029186287855,-0.0010291885122868,0.001029195256415,0.6637345664796,131329,3014,0.0042587728848628,0.00425877289077,0.0042587728922987,15.228998617064,-0.00011816801106349,-0.00011816801106349,-0.00011816801106349,4310802.1982868,0.012860234335097
21619200,0.98832758473388,0.013995304817158,0.0046651016047236,0.0046651016060481,0.0046651016063862,-0.0010230770230157,0.0010230790884304,-3.6775287459918e-09,5.7486663024552e-09,-1.1592816002605e-08,1.4186343883609e-08,-0.001260926864707,0.0012609172976911,-0.001260923714819,0.0012609204343404,-0.0012609187493302,0.0012609257753554,-0.0012609156058704,0.0012609289231809,-0.0010281733614581,0.0010281747017453,-0.0010281641113541,0.0010281839309006,1.138918745026e-08,-1.3955298949507e-08,-4.2292213552072e-09,2.1787882534557e-09,-0.0010230790756162,0.0010230770370129,-0.001260920137844,0.001260924347988,-0.0012609180911854,0.0012609264779449,-0.0012609280907849,0.0012609160166895,-0.0012609260421964,0.0012609181493689,-0.0010281823309806,0.0010281655955445,-0.0010281760889392,0.0010281719578069,-0.0010281618033543,0.0010281865728505,-0.0010281866082407,0.0010281611021189,4.55639495585e-09,-4.7532779726207e-09,-0.0010230781625617,0.0010230779503575,2.9854442606977e-09,-3.3051610861711e-09,-0.0012609196699898,0.0012609246701503,-0.0012609217266006,0.0012609225570693,-0.0012609227971574,0.0012609215947295,-0.0012609248517257,0.0012609194843729,-0.0010281797056274,0.0010281683113323,-0.0010281705751712,0.0010281773959435,0.6692085804231,131329,3014,0.0042546098989619,0.0042546099014138,0.0042546099020131,14.564731502849,-0.00012348214797721,-0.00012348214797721,-0.00012348214797721,4299146.6687359,0.012847584174866
21819200,0.98853477612567,0.013997946206717,0.0046659820679097,0.0046659820692344,0.0046659820695726,-0.0010220596524853,0.0010220617180995,-3.7369242448824e-09,5.8088770602638e-09,-1.1599604630688e-08,1.4194237857953e-08,-0.0012599425097293,0.0012599328968037,-0.0012599393189851,0.0012599360740274,-0.0012599343887328,0.0012599413805417,-0.0012599312061325,0.0012599445671552,-0.0010271423697712,0.001027143601582,-0.0010271330083873,0.0010271529482523,1.1426290688917e-08,-1.3991297251276e-08,-4.2338052965551e-09,2.1845942443552e-09,-0.0010220617051416,0.0010220596664285,-0.0012599357507366,0.0012599399798324,-0.0012599336995853,0.0012599421139879,-0.0012599437268905,0.0012599316251225,-0.001259941675576,0.0012599337602811,-0.0010271512983608,0.0010271345340107,-0.0010271450521233,0.0010271409064127,-0.0010271307168738,0.0010271555677039,-0.0010271555944915,0.0010271300199452,4.5937324838906e-09,-4.793710035596e-09,-0.0010220607929211,0.0010220605788893,3.0058781990138e-09,-3.3286529499814e-09,-0.0012599352729076,0.0012599403117065,-0.0012599373434532,0.0012599381850051,-0.0012599384250824,0.0012599372111564,-0.0012599404953621,0.0012599350854681,-0.0010271487071266,0.0010271372150478,-0.0010271394998202,0.0010271463801399,0.65988857560042,131329,3014,0.0042503891379948,0.0042503891400393,0.0042503891405365,13.901051869785,-0.00012879158504172,-0.00012879158504172,-0.00012879158504172,4287412.0695214,0.012834759028714
22019200,0.98874166426466,0.014000538158988,0.004666846052,0.0046668460533251,0.0046668460536634,-0.0010227051781482,0.0010227072351327,-3.7937055951335e-09,5.8531678596514e-09,-1.1492343429444e-08,1.4071964657433e-08,-0.0012606700430076,0.0012606604671979,-0.001260666819578,0.0012606636786319,-0.0012606619964733,0.0012606688734084,-0.0012606587814138,0.0012606720945386,-0.0010278121942219,0.0010278132312314,-0.0010278027058788,0.0010278226506584,1.1308733532333e-08,-1.3885512732623e-08,-4.2313903214436e-09,2.1713320534029e-09,-0.0010227072286374,0.001022705187841,-0.0012606633324785,0.0012606674975401,-0.0012606612871923,0.0012606696276326,-0.0012606712346748,0.0012606592170715,-0.0012606691889327,0.0012606613479741,-0.0010278210005343,0.001027804299074,-0.0010278147435871,0.0010278106331041,-0.0010278005684092,0.0010278251613819,-0.0010278252415608,0.0010277998522234,4.6497960323936e-09,-4.8344390925572e-09,-0.0010227063124612,0.0010227061049564,3.0070108872638e-09,-3.3161492613575e-09,-0.0012606628088016,0.0012606678763327,-0.0012606648742473,0.0012606657528568,-0.0012606659934129,0.0012606647433032,-0.001260668058504,0.0012606626206422,-0.0010278184774004,0.001027806922027,-0.0010278091607551,0.001027816169159,0.6498238145235,131329,3014,0.0042530681178989,0.0042530681245358,0.0042530681264825,14.153820411803,-0.00012676943670558,-0.00012676943670558,-0.00012676943670558,4292213.8154099,0.01284290104585
22219200,0.9889494306319,0.014003117974999,0.00466770599067,0.004667705991995,0.0046677059923336,-0.0010235278561567,0.0010235299089777,-3.8424298089657e-09,5.8998908088562e-09,-1.1363818118275e-08,1.394099830213e-08,-0.0012615731932184,0.0012615636662628,-0.0012615699376851,0.0012615669091561,-0.0012615652336939,0.0012615719862668,-0.0012615619860979,0.0012615752389615,-0.0010286534865817,0.0010286543452286,-0.0010286439207085,0.0010286638734433,1.1183946331217e-08,-1.3742305244035e-08,-4.2146037201662e-09,2.1704088092781e-09,-0.0010235298981841,0.001023527868614,-0.001261566546155,0.0012615706344423,-0.0012615645065607,0.0012615727579287,-0.0012615743597667,0.0012615624439018,-0.0012615723196397,0.0012615645686172,-0.0010286621349182,0.0010286455642886,-0.0010286559097613,0.0010286518943876,-0.0010286418943219,0.0010286662468868,-0.001028666295938,0.0010286411915521,4.6969713877482e-09,-4.8896717515315e-09,-0.0010235289889517,0.001023528778288,2.9916285113025e-09,-3.3076928270193e-09,-0.0012615659705346,0.0012615710651251,-0.0012615680289993,0.0012615689499021,-0.0012615691895985,0.0012615678982122,-0.0012615712473666,0.0012615657841224,-0.0010286597273209,0.0010286480651672,-0.0010286503191038,0.0010286574196682,0.64497437889714,131329,3014,0.0042564819874843,0.0042564819909261,0.0042564819918365,14.500498041433,-0.00012399601566854,-0.00012399601566854,-0.00012399601566854,4299075.8611469,0.012853275602499
22419200,0.9891580097183,0.014005833861983,0.0046686112863311,0.0046686112876566,0.0046686112879954,-0.0010243622808257,0.0010243643281735,-3.8938001393727e-09,5.9470113407093e-09,-1.1238170731128e-08,1.3810153014776e-08,-0.0012624821116094,0.001262472631067,-0.0012624788229007,0.001262475906614,-0.001262474237573,0.0012624808658266,-0.0012624709567494,0.0012624841509424,-0.0010295080722313,0.0010295087465645,-0.0010294984170494,0.0010295183778683,1.1060811421443e-08,-1.3606918047793e-08,-4.1984055056204e-09,2.1646442603598e-09,-0.0010243643158051,0.0010243622943656,-0.0012624755243885,0.0012624795401151,-0.0012624734917168,0.0012624816558828,-0.0012624832519955,0.0012624714357434,-0.0012624812189753,0.0012624735527697,-0.001029516565209,0.0010295001170929,-0.0010295103686586,0.0010295064315772,-0.0010294965104489,0.0010295206185443,-0.0010295206548928,0.0010294958131688,4.7449211630626e-09,-4.9410688217392e-09,-0.0010243634111021,0.0010243631993645,2.9790063636652e-09,-3.2979343433255e-09,-0.0012624748993915,0.0012624800200208,-0.0012624769507841,0.001262477912565,-0.001262478151208,0.0012624768197639,-0.0012624802020372,0.0012624747134376,-0.0010295142660409,0.0010295025071439,-0.001029504764483,0.0010295119625507,0.67139356557186,131329,3014,0.0042599444936138,0.0042599444960374,0.0042599444966476,14.849501207622,-0.00012120399033902,-0.00012120399033902,-0.00012120399033902,4306022.4494632,0.012863797814013
22619200,0.98936715659551,0.014008591086286,0.0046695303610985,0.0046695303624243,0.0046695303627632,-0.0010251569143601,0.0010251589571258,-3.9451475324215e-09,5.994552671766e-09,-1.1124512402135e-08,1.3691635953508e-08,-0.0012634056465912,0.0012633962054778,-0.0012634023248038,0.0012633995138509,-0.0012633978497332,0.0012634043628524,-0.0012633945358477,0.0012634076808939,-0.0010303405431489,0.0010303410404801,-0.0010303307956615,0.0010303507729635,1.0949518061035e-08,-1.3486132911338e-08,-4.1832417086457e-09,2.1575562885089e-09,-0.001025158943546,0.0010251569288046,-0.0012633991112398,0.0012634030625359,-0.0012633970859023,0.0012634051708029,-0.0012634067621074,0.0012633950359166,-0.0012634047363138,0.0012633971454051,-0.0010303488918272,0.0010303325535154,-0.001030342721372,0.0010303388497288,-0.0010303290048711,0.0010303528894062,-0.0010303529199223,0.0010303283102996,4.7934398577027e-09,-4.9915202059546e-09,-0.0010251580423797,0.0010251578301799,2.9671222565253e-09,-3.2876420518068e-09,-0.0012633984410244,0.0012634035877874,-0.0012634004853297,0.0012634014879422,-0.0012634017259836,0.0012634003546919,-0.0012634037696103,0.0012633982559811,-0.0010303466936377,0.0010303348413461,-0.0010303370973065,0.0010303443955468,0.67880270293914,131329,3014,0.0042632427364239,0.0042632427382132,0.0042632427386435,15.187658176369,-0.00011849873458904,-0.00011849873458904,-0.00011849873458904,4311397.7215306,0.012873823841795
22819200,0.98957382746667,0.014011305918286,0.0046704353050981,0.0046704353064245,0.0046704353067635,-0.001025536333617,0.0010255383748819,-3.9959362909186e-09,6.0456317844812e-09,-1.1052640538948e-08,1.3619559912794e-08,-0.0012639131623574,0.0012639037327281,-0.0012639098063308,0.0012639070745344,-0.0012639054131843,0.0012639118417286,-0.0012639020657496,0.001263915193649,-0.001030751742578,0.0010307520946101,-0.0010307419045888,0.0010307619349288,1.0888157467792e-08,-1.3415712450741e-08,-4.1713184957653e-09,2.1533762027989e-09,-0.0010255383592555,0.0010255363494082,-0.0012639066506378,0.0012639105654606,-0.0012639046304494,0.0012639126687026,-0.0012639142587505,0.0012639025839401,-0.0012639122379315,0.0012639046878969,-0.0010307599818218,0.0010307437156384,-0.0010307538341618,0.0010307500033522,-0.0010307401931969,0.0010307639581483,-0.0010307639746774,0.0010307395042394,4.8393770370593e-09,-5.041640602458e-09,-0.0010255374610952,0.0010255372474979,2.9595942949258e-09,-3.2838381969531e-09,-0.0012639059480868,0.0012639111235091,-0.0012639079885889,0.0012639090278507,-0.0012639092659088,0.0012639078591389,-0.0012639113056942,0.0012639057644357,-0.0010307578670408,0.0010307459157305,-0.0010307481801943,0.0010307555672499,0.67691805437379,131329,3014,0.0042648183276729,0.0042648183280091,0.0042648183278568,15.30376119252,-0.00011756991045984,-0.00011756991045984,-0.00011756991045984,4312613.9659593,0.012878615346663
23019200,0.98977795504107,0.01401378006366,0.0046712600202214,0.0046712600215491,0.004671260021889,-0.0010258925804208,0.0010258946177131,-4.0466978611287e-09,6.0907712992647e-09,-1.1013338630476e-08,1.3573887123595e-08,-0.0012643912182942,0.0012643817822052,-0.0012643878306643,0.0012643851565106,-0.0012643834972093,0.0012643898631004,-0.0012643801174332,0.0012643932469839,-0.0010311334248868,0.0010311336470086,-0.0010311234830544,0.0010311435725113,1.0837699040252e-08,-1.3368697766201e-08,-4.1678742695635e-09,2.1465869060464e-09,-0.0010258946046552,0.0010258925944916,-0.0012643847166396,0.0012643886050281,-0.0012643826999652,0.0012643907045059,-0.0012643922913945,0.0012643806547783,-0.0012643902743671,0.0012643827555354,-0.0010311415833861,0.0010311253511041,-0.0010311354377879,0.0010311316212056,-0.0010311218637194,0.0010311455186918,-0.0010311455536855,0.0010311211657655,4.8929601665726e-09,-5.0899686550397e-09,-0.0010258937053147,0.0010258934940787,2.9545101994621e-09,-3.2738381464331e-09,-0.0012643839862038,0.0012643891908315,-0.0012643860215952,0.0012643870997683,-0.0012643873369733,0.001264385891556,-0.0012643893717456,0.0012643838016328,-0.0010311395298473,0.0010311274936653,-0.0010311297397601,0.0010311372418889,0.63260005506021,131329,3014,0.0042662976464185,0.00426629764852,0.0042662976490298,15.414953951577,-0.00011668036838738,-0.00011668036838738,-0.00011668036838738,4313787.1642537,0.012883113931377
23219200,0.9899795375431,0.014016346964652,0.0046721156538851,0.0046721156552133,0.0046721156555533,-0.0010262841124926,0.001026286148134,-4.0971357199338e-09,6.1394079392135e-09,-1.0981237405117e-08,1.3539594524887e-08,-0.0012648138290164,0.0012648043803883,-0.0012648104083432,0.0012648077877687,-0.0012648061299149,0.0012648124391095,-0.0012648027171145,0.001264815856011,-0.001031526001151,0.0010315261023019,-0.0010315159619191,0.0010315361243971,1.0805658918301e-08,-1.3334941563624e-08,-4.1610663286798e-09,2.1412056949064e-09,-0.0010262861350656,0.0010262841265512,-0.0012648073291124,0.001264811201308,-0.0012648053164646,0.001264813296712,-0.0012648148820888,0.0012648032729659,-0.0012648128691399,0.0012648053696275,-0.0010315340818114,0.0010315178845148,-0.0010315279477868,0.001031524142296,-0.0010315144131194,0.0010315380004771,-0.0010315380389491,0.0010315137127034,4.9425708946166e-09,-5.1391497655906e-09,-0.0010262852364246,0.0010262850254357,2.9487716190806e-09,-3.2676568366502e-09,-0.0012648065760296,0.0012648118098349,-0.001264808607432,0.0012648097227419,-0.0012648099596301,0.0012648084776358,-0.0012648119904808,0.0012648063916696,-0.0010315320919297,0.0010315199636699,-0.0010315222048417,0.0010315298084503,0.65900012488062,131329,3014,0.0042679219756074,0.0042679219776592,0.0042679219781622,15.525977527412,-0.0001157921797807,-0.0001157921797807,-0.0001157921797807,4316931.1265537,0.012888048589678
23419200,0.99017943501828,0.014018862049005,0.0046729540153358,0.0046729540166645,0.0046729540170046,-0.0010267797528925,0.0010267817871098,-4.1496944327424e-09,6.1899703411845e-09,-1.0960744561748e-08,1.3516714048988e-08,-0.0012653966937293,0.0012653872240151,-0.0012653932386659,0.00126539066608,-0.0012653890086753,0.001265395268466,-0.0012653855616795,0.0012653987197058,-0.0010320406073492,0.0010320405901748,-0.001032030463241,0.0010320507087812,1.0789397729138e-08,-1.3320676788846e-08,-4.1536582483022e-09,2.1319042370695e-09,-0.0010267817751751,0.001026779766155,-0.0012653901850979,0.0012653940532239,-0.0012653881779249,0.0012653961432449,-0.0012653977276878,0.0012653861350977,-0.0012653957205444,0.0012653882261796,-0.0010320486183274,0.0010320324437077,-0.0010320424972208,0.0010320386807393,-0.0010320289797276,0.0010320525266944,-0.0010320525781062,0.0010320282709729,4.9911731308516e-09,-5.1852295333853e-09,-0.0010267808757384,0.0010267806659456,2.9451700568999e-09,-3.2617061902031e-09,-0.0012653894157818,0.0012653946780244,-0.0012653914437612,0.0012653925941656,-0.0012653928306614,0.0012653913143327,-0.0012653948584211,0.0012653892313596,-0.0010320466832458,0.0010320344696624,-0.0010320367010711,0.0010320444059348,0.65256370899544,131329,3014,0.0042699791118877,0.0042699791146402,0.0042699791153724,15.704766010408,-0.00011436187191673,-0.00011436187191673,-0.00011436187191673,4319751.4977055,0.012894301565348
23619200,0.99038188048425,0.014021474934898,0.0046738249772999,0.0046738249786291,0.0046738249789693,-0.00102789100373,0.0010278930360546,-4.198097647175e-09,6.2356974747225e-09,-1.0934815047436e-08,1.348761072975e-08,-0.0012666113035142,0.0012666018195642,-0.0012666078174433,0.0012666052929841,-0.0012666036365725,0.0012666098452621,-0.0012666001582721,0.0012666133281237,-0.0010331859675104,0.0010331858359421,-0.0010331757263692,0.0010331960429624,1.0754317631114e-08,-1.3286736450375e-08,-4.1445023678081e-09,2.1215605167995e-09,-0.0010278930250626,0.0010278910163545,-0.001266604794892,0.0012666086480913,-0.0012666027944336,0.001266610731647,-0.0012666123147504,0.0012666007526771,-0.0012666103140208,0.0012666028375588,-0.0010331939033616,0.0010331777666625,-0.001033187796736,0.0010331839816823,-0.0010331743214502,0.001033197789132,-0.001033197853965,0.0010331736047827,5.0445420396446e-09,-5.2354952604489e-09,-0.0010278921250267,0.0010278919168424,2.9329795569731e-09,-3.2465506885462e-09,-0.0012666040051497,0.0012666092935743,-0.0012666060238943,0.0012666072185498,-0.0012666074546822,0.0012666058950824,-0.0012666094729037,0.0012666038211683,-0.0010331920314392,0.0010331797307494,-0.0010331819458302,0.0010331897661275,0.66669036510551,131329,3014,0.0042745904686751,0.0042745904720581,0.004274590472993,16.219963885924,-0.00011024028891261,-0.00011024028891261,-0.00011024028891261,4328837.6751968,0.012908316727069
23819200,0.99058683528933,0.014024278818403,0.0046747596051339,0.0046747596064641,0.0046747596068046,-0.0010290120704321,0.0010290141029718,-4.2472348434204e-09,6.285816251893e-09,-1.0922115058206e-08,1.3476068324687e-08,-0.0012678704529925,0.0012678609436229,-0.0012678669336311,0.0012678644500193,-0.0012678627943291,0.0012678689613401,-0.0012678592827723,0.0012678724771552,-0.0010343544260088,0.001034354191545,-0.0010343440930982,0.001034364500856,1.0744475928371e-08,-1.3272759716597e-08,-4.131869000287e-09,2.1125164329968e-09,-0.0010290140906746,0.0010290120838817,-0.0012678639320865,0.0012678677849933,-0.0012678619386889,0.0012678698611524,-0.0012678714441324,0.0012678598976551,-0.001267869450493,0.0012678619751081,-0.0010343622913114,0.0010343461905038,-0.0010343562109256,0.0010343523886514,-0.0010343427405287,0.0010343661857018,-0.0010343662468705,0.0010343420213538,5.0925654875906e-09,-5.2859693030898e-09,-0.0010290131918785,0.0010290129829686,2.9215415464847e-09,-3.2371150258433e-09,-0.0012678631289868,0.0012678684437599,-0.0012678651409953,0.0012678663758263,-0.0012678666113315,0.0012678650125182,-0.0012678686228456,0.0012678629457103,-0.0010343604833466,0.0010343480884295,-0.0010343503040515,0.0010343582225091,0.70079156993052,131329,3014,0.0042792430403885,0.0042792430427728,0.0042792430433727,16.74261480511,-0.00010605908155912,-0.00010605908155912,-0.00010605908155912,4337289.2160478,0.0129224590079
24019200,0.99079415701952,0.014027150206182,0.0046757167343933,0.004675716735724,0.0046757167360646,-0.0010301055936094,0.0010301076266966,-4.2964904267843e-09,6.3359737047349e-09,-1.0923235602856e-08,1.3478136844289e-08,-0.0012691723041319,0.0012691627609056,-0.0012691687515563,0.001269166300386,-0.0012691646444807,0.001269170779787,-0.0012691610997487,0.0012691743286471,-0.0010355185576175,0.001035518228291,-0.0010355081294453,0.0010355286367954,1.0747565024357e-08,-1.3274866317564e-08,-4.121826163262e-09,2.1033285152863e-09,-0.0010301076139673,0.0010301056073719,-0.0012691657624959,0.0012691696232179,-0.0012691637753785,0.0012691716929216,-0.0012691732763025,0.0012691617342546,-0.0012691712889833,0.0012691638052119,-0.0010355263655401,0.0010355102838791,-0.0010355203058554,0.001035516464707,-0.0010355068244394,0.0010355302708242,-0.0010355303350609,0.0010355061001469,5.1413751036962e-09,-5.3354931129067e-09,-0.0010301067152761,0.0010301065063174,2.9120951516685e-09,-3.2281660902124e-09,-0.0012691649497763,0.0012691702914979,-0.0012691669557206,0.0012691682297995,-0.0012691684649243,0.0012691668275541,-0.0012691704704122,0.0012691647669548,-0.0010355246128139,0.0010355121259782,-0.0010355143381083,0.0010355223572878,0.70866202723989,131329,3014,0.0042837823586359,0.004283782360774,0.0042837823612986,17.26552261719,-0.00010187581906248,-0.00010187581906248,-0.00010187581906248,4344190.7420781,0.01293626079257
24219200,0.99100244713952,0.014029897705861,0.0046766325676195,0.0046766325689506,0.0046766325692913,-0.0010310062052754,0.0010310082404197,-4.3446983921817e-09,6.387178525051e-09,-1.0950934414382e-08,1.3509363342223e-08,-0.0012702913724191,0.0012702817776727,-0.0012702877864854,0.001270285350202,-0.0012702836933184,0.0012702898163748,-0.0012702801154484,0.0012702933980381,-0.0010364870932591,0.0010364866907672,-0.0010364765738256,0.0010364972017088,1.0782556508992e-08,-1.330813382252e-08,-4.1151645827517e-09,2.0983367430878e-09,-0.0010310082265658,0.001031006219702,-0.0012702847932139,0.0012702886784297,-0.0012702828096559,0.0012702907442215,-0.0012702923294681,0.0012702807667865,-0.0012702903459847,0.0012702828336337,-0.0010364948664195,0.0010364787785329,-0.0010364888236789,0.0010364849527894,-0.0010364752893728,0.0010364988053185,-0.001036498864165,0.0010364745634934,5.1890146717813e-09,-5.3861216682096e-09,-0.0010310073282348,0.0010310071181397,2.9054778443374e-09,-3.2241567436658e-09,-0.0012702839780285,0.001270289349067,-0.0012702859803935,0.0012702872910982,-0.0012702875257815,0.0012702858523749,-0.0012702895279246,0.0012702837953173,-0.0010364931587862,0.0010364805732096,-0.001036482790604,0.0010364909037899,0.68010065450369,131329,3014,0.0042875214041256,0.0042875214053085,0.004287521405527,17.693205689061,-9.845435448751e-05,-9.845435448751e-05,-9.845435448751e-05,4349273.9032217,0.012947631000013
24419200,0.99120851232785,0.014032612792871,0.0046775375966223,0.0046775375979537,0.0046775375982945,-0.0010314962893385,0.0010314983284785,-4.3909255868844e-09,6.4378455015038e-09,-1.1025011566494e-08,1.3588767007202e-08,-0.0012709214845609,0.0012709118102151,-0.0012709178663991,0.0012709154147739,-0.0012709137549058,0.0012709199001494,-0.00127091014443,0.0012709235142213,-0.0010370151621638,0.0010370147208417,-0.0010370045509572,0.0010370253305203,1.0849122280716e-08,-1.3376019409136e-08,-4.1174521910475e-09,2.0996915713572e-09,-0.0010314983135733,0.0010314963045927,-0.0012709148454474,0.0012709187714925,-0.0012709128608085,0.0012709208381981,-0.0012709224265984,0.001270910815037,-0.0012709204416559,0.0012709128831684,-0.0010370229390797,0.001037006803376,-0.0010370168954891,0.0010370129844759,-0.0010370032724828,0.0010370269229033,-0.0010370269769116,0.0010370025469604,5.2384492371187e-09,-5.4374764148574e-09,-0.0010314974145155,0.0010314972036847,2.9047758060489e-09,-3.2251346638498e-09,-0.0012709140336095,0.0012709194385077,-0.0012709160364628,0.0012709173803762,-0.0012709176153141,0.0012709159082585,-0.0012709196175282,0.0012709138514013,-0.0010370212578448,0.0010370085705277,-0.0010370107931242,0.0010370190007582,0.67934591728672,131329,3014,0.0042895560835911,0.0042895560843122,0.0042895560843808,17.885222416462,-9.6918220668305e-05,-9.6918220668305e-05,-9.6918220668305e-05,4351544.7833912,0.012953817900066
24619200,0.9914122474403,0.014035437683385,0.0046784792267939,0.0046784792281251,0.0046784792284658,-0.0010319862520267,0.0010319882941101,-4.4407437730025e-09,6.4897192494728e-09,-1.1094137339131e-08,1.3660340194278e-08,-0.0012715385356551,0.0012715287840174,-0.0012715348834287,0.0012715324227624,-0.0012715307590901,0.0012715369211825,-0.0012715271149251,0.0012715405691301,-0.0010375440894207,0.0010375435967391,-0.0010375333738623,0.0010375543005856,1.0925589606099e-08,-1.346016092457e-08,-4.121872404053e-09,2.097647985079e-09,-0.0010319882803582,0.0010319862665942,-0.0012715318329514,0.0012715358085387,-0.0012715298474486,0.0012715378762764,-0.0012715394674285,0.0012715277987856,-0.0012715374819019,0.0012715298675544,-0.0010375518739076,0.0010375356738159,-0.0010375458239418,0.0010375418517552,-0.0010375320997026,0.001037555898462,-0.0010375559657134,0.0010375313672598,5.2877298257482e-09,-5.4841953247444e-09,-0.0010319873785494,0.0010319871685937,2.9096501875958e-09,-3.2278306344751e-09,-0.0012715310287577,0.0012715364675595,-0.0012715330339796,0.0012715344070958,-0.0012715346424409,0.001271532905774,-0.001271536647382,0.001271530846217,-0.0010375502079468,0.0010375374286289,-0.0010375396455248,0.0010375479506404,0.70944460375899,131329,3014,0.0042915901119304,0.0042915901136224,0.0042915901140167,18.072005003952,-9.5423959968384e-05,-9.5423959968384e-05,-9.5423959968384e-05,4353611.9353048,0.012960002513824
24819200,0.99161361632413,0.014038005492826,0.0046793351632737,0.0046793351646056,0.0046793351649464,-0.0010324418146486,0.0010324438595434,-4.488161694594e-09,6.5396525725147e-09,-1.1168582530588e-08,1.3738017520171e-08,-0.0012721767200765,0.0012721668882073,-0.0012721730356756,0.0012721705593693,-0.0012721688929107,0.0012721750758756,-0.0012721652163317,0.0012721787563743,-0.0010380488206547,0.0010380482850015,-0.0010380380075704,0.0010380590826794,1.0993942279513e-08,-1.3533659316353e-08,-4.1280772180346e-09,2.0995096276932e-09,-0.0010324438463427,0.00103244182876,-0.0012721699568004,0.0012721739735191,-0.0012721679687589,0.0012721760439435,-0.0012721776381355,0.0012721659160097,-0.0012721756499365,0.001272167987709,-0.0010380566144694,0.0010380403533627,-0.0010380505545042,0.0010380465384354,-0.0010380367410849,0.0010380606754512,-0.0010380607463088,0.0010380360057763,5.3383497747258e-09,-5.5339008538334e-09,-0.001032442942487,0.0010324427328375,2.9126564814762e-09,-3.2300385262608e-09,-0.001272169155578,0.0012721746296748,-0.0012721711623371,0.0012721725671519,-0.00127217280259,0.0012721710340622,-0.0012721748089157,0.00127216897264,-0.001038054967091,0.0010380420897651,-0.0010380443060899,0.0010380527091506,0.66112229425322,131329,3014,0.0042934822492266,0.0042934822511138,0.0042934822515719,18.25860708428,-9.393114332576e-05,-9.393114332576e-05,-9.393114332576e-05,4354369.9772781,0.012965758757972
25019200,0.99181488603333,0.01404053904389,0.0046801796802949,0.0046801796816273,0.0046801796819682,-0.0010332627117003,0.0010332647569734,-4.538572587664e-09,6.5885855903505e-09,-1.1213184885105e-08,1.3781071289379e-08,-0.0012731003993943,0.0012730905068409,-0.0012730966822195,0.001273094211547,-0.0012730925425998,0.0012730987234813,-0.0012730888332386,0.0012731024374227,-0.0010388978733432,0.0010388972652705,-0.0010388869508359,0.001038908148858,1.1033957600321e-08,-1.3583835379359e-08,-4.1334865088466e-09,2.0959427882449e-09,-0.0010332647466432,0.0010332627238936,-0.0012730935913941,0.0012730976357772,-0.0012730916030184,0.0012730997071329,-0.001273101302507,0.001273089547774,-0.0012730993140248,0.0012730916203907,-0.0010389056573203,0.0010388893486345,-0.0010388995845506,0.0010388955252177,-0.0010388857207399,0.0010389097257024,-0.0010389098205284,0.0010388849743819,5.3907112206784e-09,-5.5799289331484e-09,-0.0010332638390688,0.0010332636319969,2.9168396793588e-09,-3.2285570689595e-09,-0.0012730927873204,0.0012730982949491,-0.0012730947944898,0.0012730962311855,-0.0012730964668774,0.001273094666379,-0.001273098473739,0.0012730926036596,-0.0010389040311181,0.0010388910684874,-0.0010388932676377,0.0010389017789208,0.65362539305014,131329,3014,0.0042968887472387,0.0042968887511023,0.004296888752198,18.630440168585,-9.0956478651322e-05,-9.0956478651322e-05,-9.0956478651322e-05,4360667.9415234,0.012976112619173
25219200,0.99201930134495,0.014043210205471,0.0046810700674881,0.004681070068821,0.0046810700691621,-0.0010345895316142,0.0010345915758544,-4.5899656128483e-09,6.6377627377871e-09,-1.1218196013371e-08,1.3783607553986e-08,-0.0012745342228501,0.0012745242939035,-0.0012745304724632,0.0012745280324719,-0.0012745263630445,0.001274532512833,-0.0012745226204869,0.0012745362605095,-0.001040261878044,0.0010402611697424,-0.0010402508493145,0.0010402721441297,1.103860639561e-08,-1.3593794984689e-08,-4.1322601469894e-09,2.0899579183127e-09,-0.0010345915673991,0.0010345895424561,-0.0012745273927068,0.0012745314440998,-0.0012745254069078,0.0012745335133494,-0.0012745351084943,0.0012745233509845,-0.001274533122692,0.0012745254214634,-0.0010402696174022,0.0010402533013583,-0.0010402635442459,0.0010402594642676,-0.0010402496738375,0.0010402736796648,-0.0010402737915643,0.0010402489182333,5.4414355219976e-09,-5.6263777735505e-09,-0.0010345906579484,0.0010345904526014,2.9166666028815e-09,-3.2244886118657e-09,-0.0012745265767914,0.0012745321154121,-0.001274528582088,0.0012745300527949,-0.0012745302885692,0.0012745284543363,-0.0012745322936613,0.0012745263926615,-0.0010402680316216,0.0010402549829496,-0.001040257169231,0.0010402657857401,0.67454675383244,131329,3014,0.004302394186123,0.0043023941910677,0.004302394192505,19.271838513147,-8.5825291894821e-05,-8.5825291894821e-05,-8.5825291894821e-05,4371715.1058069,0.012992845486585
25419200,0.99222673634226,0.014046172141168,0.0046820573793854,0.0046820573807205,0.0046820573810623,-0.0010359259632149,0.0010359280090993,-4.6364175638319e-09,6.6877333235435e-09,-1.1219390868369e-08,1.3789001854047e-08,-0.0012760237148221,0.001276013751758,-0.0012760199318474,0.001276017521983,-0.0012760158535463,0.0012760219732495,-0.0012760120783469,0.0012760257526322,-0.0010416551752297,0.0010416543816007,-0.0010416440656537,0.0010416654633906,1.1042079561868e-08,-1.3587995836139e-08,-4.1270536574016e-09,2.0931463139445e-09,-0.0010359279971359,0.0010359259763637,-0.0012760168683362,0.0012760209199972,-0.0012760148828425,0.0012760229880889,-0.0012760245834143,0.0012760128279376,-0.0012760225978789,0.0012760148973123,-0.0010416628590685,0.0010416465621371,-0.001041656800757,0.001041652734663,-0.0010416429218342,0.0010416669439848,-0.0010416670305722,0.0010416421767884,5.4884685455828e-09,-5.6806587554803e-09,-0.0010359270911019,0.0010359268827105,2.9102382551896e-09,-3.2245362507633e-09,-0.0012760160364531,0.0012760216068726,-0.0012760180402687,0.0012760195467735,-0.0012760197821092,0.0012760179120815,-0.0012760217855871,0.0012760158530123,-0.001041661335667,0.0010416481766262,-0.0010416503808272,0.0010416590841574,0.72789191790578,131329,3014,0.0043079402005746,0.0043079402030213,0.0043079402036655,19.919244738883,-8.0646042088937e-05,-8.0646042088937e-05,-8.0646042088937e-05,4381814.5027918,0.013009704417979
25619200,0.99243697243542,0.014049192432967,0.004683064143318,0.0046830641446535,0.0046830641449954,-0.0010372186266699,0.0010372206727247,-4.6857880930961e-09,6.7378896846246e-09,-1.1217490407927e-08,1.3787923042592e-08,-0.0012775774688058,0.0012775674734486,-0.0012775736525663,0.0012775712767358,-0.0012775696086504,0.0012775756939655,-0.0012775658002346,0.0012775795064851,-0.0010430395500069,0.0010430386595824,-0.001043028346484,0.0010430498422122,1.1042354264358e-08,-1.3585902527257e-08,-4.1243708951858e-09,2.0925616102219e-09,-0.0010372206601294,0.0010372186402909,-0.0012775706059071,0.0012775746582241,-0.0012775686214392,0.0012775767251682,-0.0012775783206134,0.0012775665670125,-0.00127757633608,0.0012775686352276,-0.001043047180932,0.0010430308919474,-0.0010430411288747,0.0010430370641026,-0.0010430272477525,0.0010430512720111,-0.0010430513532082,0.001043026504737,5.536727305399e-09,-5.7306102325263e-09,-0.0010372197547943,0.0010372195458804,2.9084867608436e-09,-3.2242630278895e-09,-0.0012775697582668,0.0012775753608354,-0.0012775717615399,0.0012775733014991,-0.0012775735368115,0.0012775716334915,-0.0012775755397502,0.0012775695752379,-0.0010430457103631,0.0010430324524352,-0.0010430346609682,0.0010430434574891,0.73243475669884,131329,3014,0.0043133062229308,0.0043133062250507,0.0043133062255751,20.566850795951,-7.5465193632389e-05,-7.5465193632389e-05,-7.5465193632389e-05,4389652.7140254,0.013026022073995
25819200,0.99264454836113,0.01405208492771,0.004684028308232,0.0046840283095679,0.0046840283099099,-0.0010377498878888,0.0010377519378666,-4.7322471143343e-09,6.7909577710193e-09,-1.1256795098813e-08,1.3835008299523e-08,-0.001278348272231,0.0012783382169563,-0.0012783444223416,0.0012783420528007,-0.0012783403842064,0.0012783464666694,-0.0012783365421082,0.0012783503118915,-0.0010436439271446,0.0010436429785995,-0.0010436326433527,0.0010436542750836,1.10855882309e-08,-1.3619688945168e-08,-4.127544280128e-09,2.1043899106741e-09,-0.0010377519210831,0.0010377499043301,-0.001278341370879,0.0012783454421914,-0.0012783393810206,0.0012783475136255,-0.0012783491112906,0.0012783373257234,-0.0012783471213079,0.0012783393985183,-0.0010436515362418,0.0010436352251901,-0.0010436454852377,0.001043641426768,-0.0010436315468905,0.0010436556739712,-0.0010436557190843,0.0010436308204024,5.5809779389549e-09,-5.7845487637707e-09,-0.0010377510191606,0.0010377508060564,2.9120447784427e-09,-3.2365809134983e-09,-0.0012783405136492,0.0012783461539798,-0.0012783425228837,0.0012783440897524,-0.0012783443251605,0.0012783423940292,-0.0012783463339322,0.0012783403310692,-0.0010436501109544,0.0010436367340857,-0.0010436389742219,0.0010436478427184,0.71386319925991,131329,3014,0.0043155131078881,0.0043155131071711,0.0043155131067608,20.805415082894,-7.355667933685e-05,-7.355667933685e-05,-7.355667933685e-05,4390483.6165684,0.013032737565686
26019200,0.99284486753618,0.014054752954501,0.004684917650496,0.0046849176518317,0.0046849176521735,-0.0010376157134288,0.001037617765852,-4.780579583987e-09,6.8411732457063e-09,-1.1326930410463e-08,1.3907523525615e-08,-0.0012783771802132,0.0012783670475542,-0.0012783732975708,0.0012783709163506,-0.0012783692447432,0.0012783753447935,-0.0012783653698996,0.0012783792229504,-0.0010435486148151,0.0010435476183223,-0.0010435372305889,0.0010435590075947,1.1153801595005e-08,-1.3694239887666e-08,-4.1458521066182e-09,2.117305813452e-09,-0.0010376177502657,0.0010376157291546,-0.0012783702229858,0.0012783743284915,-0.0012783682228594,0.0012783764104357,-0.0012783780107919,0.0012783661642515,-0.0012783760105521,0.00127836824755,-0.0010435562436177,0.0010435398468386,-0.0010435501585112,0.0010435460756966,-0.0010435361392765,0.0010435604083389,-0.0010435604535733,0.0010435354164651,5.6312939005721e-09,-5.8334252922733e-09,-0.001037616846064,0.0010376166333212,2.9278857934517e-09,-3.2513476143269e-09,-0.0012783693615082,0.0012783750444559,-0.0012783713808019,0.0012783729699111,-0.0012783732060653,0.0012783712514557,-0.0012783752249471,0.0012783691781641,-0.0010435548284449,0.001043541347457,-0.001043543592488,0.0010435525514751,0.68688292482514,131329,3014,0.0043149582225395,0.0043149582228306,0.0043149582227575,20.675579544544,-7.4595363643649e-05,-7.4595363643649e-05,-7.4595363643649e-05,4385694.5489464,0.01303105595152
26219200,0.993038125348,0.014057498567352,0.0046858328547797,0.0046858328561151,0.0046858328564568,-0.0010374965241932,0.0010374985779517,-4.8298066367814e-09,6.8903789579467e-09,-1.138299402317e-08,1.3963690809272e-08,-0.0012783503629634,0.0012783401621414,-0.0012783464476729,0.0012783440640556,-0.00127834238976,0.0012783484967558,-0.0012783384823186,0.0012783524079622,-0.0010434527667103,0.0010434517092786,-0.0010434412778039,0.0010434631872067,1.1209261354666e-08,-1.3758241353845e-08,-4.1651225562207e-09,2.1291968436083e-09,-0.0010374985644055,0.0010374965385446,-0.0012783433578579,0.0012783474902483,-0.0012783413475821,0.0012783495828357,-0.0012783511851312,0.0012783392860159,-0.0012783491747868,0.0012783413798971,-0.0010434604078733,0.0010434439289778,-0.0010434542847103,0.001043450181381,-0.0010434402026059,0.0010434645853627,-0.0010434646386227,0.0010434394812629,5.6828836209533e-09,-5.8811523952431e-09,-0.0010374976573699,0.001037497445766,2.944849249421e-09,-3.2651013902173e-09,-0.0012783424885632,0.0012783482141069,-0.0012783445177215,0.0012783461290819,-0.001278346366103,0.0012783443880418,-0.0012783483949255,0.0012783423041639,-0.0010434590032398,0.0010434454222403,-0.0010434476657845,0.0010434567198764,0.72524661927158,131329,3014,0.0043144645046786,0.0043144645063521,0.0043144645067373,20.537484948461,-7.5700120412312e-05,-7.5700120412312e-05,-7.5700120412312e-05,4381864.7801826,0.013029556958994
26419200,0.99322460775522,0.014060231452714,0.0046867438165666,0.0046867438179026,0.0046867438182444,-0.0010373543725452,0.001037356427821,-4.878677629012e-09,6.9403941353997e-09,-1.1427239944722e-08,1.4009466652057e-08,-0.0012783622535213,0.0012783519913835,-0.0012783583053169,0.001278355926311,-0.0012783542503533,0.0012783603560175,-0.0012783503099918,0.0012783643002244,-0.0010433551948188,0.0010433540712676,-0.0010433436073912,0.0010433656444047,1.1252798320368e-08,-1.3804951509213e-08,-4.181316824297e-09,2.1427637848884e-09,-0.0010373564145711,0.0010373543866581,-0.0012783552085093,0.0012783593593975,-0.001278353188424,0.0012783614619426,-0.0012783630656689,0.0012783511249913,-0.0012783610455217,0.0012783532288332,-0.001043362834589,0.0010433462928711,-0.0010433566808089,0.0010433525730751,-0.0010433425502238,0.0010433670274214,-0.0010433670756307,0.0010433418353893,5.7324364547659e-09,-5.9304569675517e-09,-0.0010373555067054,0.0010373552947286,2.9596345821216e-09,-3.2798830831614e-09,-0.0012783543273738,0.0012783600950797,-0.0012783563663268,0.0012783580001164,-0.001278358237839,0.0012783562360617,-0.0012783602764452,0.0012783541422177,-0.0010433614516407,0.0010433477650263,-0.0010433500164908,0.0010433591587111,0.74502756246011,131329,3014,0.0043138765302377,0.0043138765320274,0.004313876532451,20.399104920483,-7.6807160636137e-05,-7.6807160636137e-05,-7.6807160636137e-05,4376357.1154035,0.013027775088158
26619200,0.99340869525501,0.01406290170177,0.0046876338995851,0.0046876339009215,0.0046876339012635,-0.0010378590326615,0.0010378610853437,-4.9294563852264e-09,6.986994073186e-09,-1.1409406927744e-08,1.3986795994983e-08,-0.0012790820164419,0.0012790717338393,-0.0012790780360506,0.0012790757015804,-0.001279074026198,0.0012790800847186,-0.0012790700537001,0.0012790840616184,-0.0010439333275116,0.0010439320886011,-0.0010439216347172,0.0010439437475147,1.1235385879206e-08,-1.379308260694e-08,-4.1907070538299e-09,2.1471319410046e-09,-0.0010378610746689,0.0010378590450015,-0.0012790749672863,0.0012790791048296,-0.0012790729428519,0.001279081212277,-0.0012790828146297,0.001279070879911,-0.0012790807902099,0.00127907298858,-0.0010439409189187,0.0010439243629056,-0.0010439347425587,0.0010439306480766,-0.0010439206422087,0.0010439450823344,-0.0010439451441497,0.0010439199253187,5.7853534595995e-09,-5.9781167464311e-09,-0.0010378601650545,0.001037859955087,2.9675853508046e-09,-3.2832269791401e-09,-0.0012790740611103,0.0012790798658377,-0.0012790761033983,0.0012790777668725,-0.0012790780049143,0.0012790759732003,-0.0012790800469638,0.0012790738752135,-0.0010439395769362,0.0010439257977656,-0.0010439280380904,0.0010439372856283,0.73848440803889,131329,3014,0.0043159727671753,0.0043159727706288,0.0043159727716049,20.630194940398,-7.4958440476819e-05,-7.4958440476819e-05,-7.4958440476819e-05,4376830.6805563,0.013034153623892
26819200,0.99359260621163,0.014065496691645,0.0046884988962092,0.0046884988975468,0.0046884988978891,-0.0010387302794764,0.0010387323297622,-4.9820185243421e-09,7.0365947249495e-09,-1.1364923084636e-08,1.3938753191246e-08,-0.0012801722856393,0.0012801619977618,-0.0012801682713055,0.0012801659996032,-0.0012801643259711,0.0012801703177937,-0.0012801603193523,0.0012801743289952,-0.0010448806274685,0.0010448792538829,-0.0010448688312045,0.0010448910101058,1.1178441332287e-08,-1.3734573700764e-08,-4.1899767245679e-09,2.1475574304858e-09,-0.0010387323192215,0.0010387302918663,-0.0012801652510948,0.0012801693534791,-0.0012801632269893,0.0012801714607748,-0.0012801730602841,0.0012801611672049,-0.0012801710359635,0.0012801632758767,-0.0010448881333752,0.0010448716152671,-0.0010448819541985,0.0010448778973629,-0.0010448679320771,0.0010448922572044,-0.0010448923222973,0.0010448672161773,5.834060889621e-09,-6.0252891358175e-09,-0.001038731410544,0.0010387312010718,2.9705765623663e-09,-3.2848643372817e-09,-0.0012801643106779,0.0012801701488186,-0.0012801663546742,0.0012801680482227,-0.0012801682865759,0.0012801662243164,-0.0012801703301148,0.0012801641248352,-0.00104488685699,0.001044872985836,-0.0010448752227329,0.0010448845657879,0.72121905939451,131329,3014,0.0043195897599061,0.0043195897637373,0.0043195897648299,21.065197324004,-7.1478421407971e-05,-7.1478421407971e-05,-7.1478421407971e-05,4381354.9914201,0.01304515363067
27019200,0.99377623555089,0.014068007760705,0.0046893359192286,0.0046893359205671,0.0046893359209096,-0.00103961855319,0.001039620601653,-5.030412215301e-09,7.0847250279547e-09,-1.13045299289e-08,1.387792661825e-08,-0.0012812459561529,0.0012812356736114,-0.0012812419093758,0.0012812397073555,-0.0012812380370802,0.0012812439532543,-0.0012812339981691,0.0012812479962152,-0.0010458304789866,0.0010458289725991,-0.0010458185980599,0.001045840832176,1.1131888175667e-08,-1.3678829265286e-08,-4.1870948628053e-09,2.1527058296554e-09,-0.0010396205891271,0.0010396185667466,-0.0012812389410564,0.0012812430107271,-0.0012812369158235,0.0012812451186299,-0.0012812467163193,0.0012812348586776,-0.0012812446910737,0.0012812369678477,-0.001045837893691,0.0010458214209362,-0.0010458317212811,0.001045827713468,-0.0010458177599789,0.0010458420014751,-0.0010458420451023,0.0010458170550548,5.8822686089965e-09,-6.078601811946e-09,-0.0010396196838463,0.0010396194722848,2.9674181883819e-09,-3.286244009663e-09,-0.0012812379676452,0.0012812438391126,-0.0012812400111883,0.0012812417393822,-0.001281241977301,0.0012812398807052,-0.0012812440205552,0.0012812377820444,-0.0010458366923421,0.0010458227125637,-0.0010458249635397,0.0010458343965406,0.7022850651897,131329,3014,0.0043232767945592,0.0043232767966888,0.0043232767972192,21.504809289545,-6.7961525683642e-05,-6.7961525683642e-05,-6.7961525683642e-05,4386635.5957827,0.013056364601459
27219200,0.99395942393083,0.014070426918447,0.0046901423051421,0.0046901423064809,0.0046901423068235,-0.0010405193183371,0.0010405213643647,-5.0816899694185e-09,7.1337997329621e-09,-1.1253130307623e-08,1.3823849580973e-08,-0.0012822929087736,0.0012822826254283,-0.0012822888284917,0.0012822866925518,-0.0012822850246811,0.0012822908699586,-0.0012822809522246,0.0012822949463598,-0.0010467770778189,0.0010467754361457,-0.0010467650995807,0.0010467873950669,1.107608871628e-08,-1.3619405900234e-08,-4.1848604462017e-09,2.1534063471587e-09,-0.0010405213517572,0.0010405193319791,-0.0012822859108632,0.0012822899451491,-0.001282283886132,0.0012822920524505,-0.0012822936479128,0.001282281831664,-0.0012822916231131,0.0012822839402758,-0.0010467844029085,0.0010467679737108,-0.0010467782328519,0.0010467742655744,-0.0010467643460124,0.0010467884778642,-0.0010467885173824,0.001046763644445,5.9310060311311e-09,-6.1275652646755e-09,-0.0010405204477055,0.0010405202362831,2.9676529692242e-09,-3.2866177174377e-09,-0.0012822849033225,0.0012822908077206,-0.001282286947209,0.0012822887078343,-0.0012822889455569,0.00128228681678,-0.0012822909890791,0.0012822847179925,-0.0010467832713583,0.001046769194931,-0.0010467714476184,0.0010467809750336,0.68191773290708,131329,3014,0.0043270150126055,0.0043270150147472,0.004327015015268,21.944580851102,-6.4443353191184e-05,-6.4443353191184e-05,-6.4443353191184e-05,4392565.7783325,0.013067729181449
27419200,0.99414056981712,0.014072903273579,0.0046909677568526,0.0046909677581917,0.0046909677585344,-0.0010412033616536,0.0010412054069423,-5.1308228820594e-09,7.1834332368985e-09,-1.1216321264585e-08,1.3787457240675e-08,-0.0012830701307859,0.0012830598373164,-0.0012830660173855,0.0012830639371327,-0.0012830622712643,0.001283068057549,-0.0012830581657169,0.0012830721666414,-0.0010474884799679,0.001047486719336,-0.0010474764125875,0.0010474987820091,1.1047381265832e-08,-1.3583771946095e-08,-4.1834761130592e-09,2.1581715734854e-09,-0.0010412053925741,0.0010412033764775,-0.0012830631387306,0.0012830671518977,-0.0012830611126653,0.0012830692601508,-0.0012830708544847,0.0012830590600561,-0.0012830688283946,0.0012830611696212,-0.001047495729886,0.0010474793289359,-0.0010474895633922,0.0010474856305824,-0.0010474757146805,0.0010474997964474,-0.0010474998192437,0.0010474750218471,5.9785061978865e-09,-6.179395389389e-09,-0.0010412044912257,0.0010412042778974,2.9672040801286e-09,-3.2901216290574e-09,-0.0012830621036006,0.0012830680420353,-0.00128306414873,0.0012830659413128,-0.0012830661789842,0.0012830640180019,-0.0012830682237589,0.0012830619184205,-0.0010474946641066,0.0010474804816192,-0.0010474827469481,0.0010474923625289,0.70214879085059,131329,3014,0.0043298533761719,0.0043298533771129,0.004329853377259,22.252657161021,-6.1978742711829e-05,-6.1978742711829e-05,-6.1978742711829e-05,4396917.6611004,0.013076356487812
27619200,0.9943191433336,0.014075385918285,0.004691795305088,0.0046917953064272,0.0046917953067699,-0.0010418016348308,0.0010418036786317,-5.1812267479323e-09,7.2318032359929e-09,-1.119489775447e-08,1.3763596127174e-08,-0.0012837930331791,0.0012837827208363,-0.0012837888869452,0.0012837868536905,-0.0012837851884715,0.0012837909259166,-0.0012837810500964,0.0012837950680268,-0.0010481245472726,0.0010481226720429,-0.0010481123794197,0.0010481348279484,1.1023064782476e-08,-1.3560624632393e-08,-4.1859837157754e-09,2.1595047369103e-09,-0.0010418036652092,0.0010418016490706,-0.0012837860394382,0.0012837900365635,-0.0012837840121882,0.0012837921461915,-0.0012837937394336,0.0012837819605218,-0.0012837917121584,0.0012837840714425,-0.0010481317363064,0.0010481153442143,-0.00104812556269,0.0010481216464063,-0.0010481117488494,0.0010481357812122,-0.0010481358088145,0.0010481110557865,6.0291364704312e-09,-6.2280665559595e-09,-0.0010418027634729,0.0010418025509972,2.9697345451776e-09,-3.2909188967602e-09,-0.0012837849792687,0.0012837909518457,-0.0012837870254019,0.0012837888499484,-0.0012837890877144,0.0012837868947222,-0.0012837911334988,0.0012837847939131,-0.0010481307230332,0.0010481164458891,-0.0010481187066956,0.0010481284223342,0.71252807802389,131329,3014,0.0043323364698413,0.0043323364715365,0.0043323364719303,22.519589135791,-5.984328691367e-05,-5.984328691367e-05,-5.984328691367e-05,4399600.2230744,0.013083906162505
27819200,0.9944950754236,0.014077876820645,0.0046926256058743,0.0046926256072139,0.0046926256075567,-0.0010423890327962,0.0010423910756634,-5.2314416576366e-09,7.2807484967488e-09,-1.1178699202795e-08,1.3745857140147e-08,-0.0012845242153971,0.0012845138806045,-0.0012845200361702,0.0012845180465711,-0.0012845163818472,0.0012845220743155,-0.0012845122104651,0.0012845262495388,-0.0010487576390515,0.0010487556536854,-0.0010487453720269,0.0010487679048032,1.1004537323523e-08,-1.3542483008922e-08,-4.1874170248178e-09,2.1605008971355e-09,-0.0010423910626449,0.0010423890467767,-0.0012845172163806,0.001284521201294,-0.0012845151883815,0.0012845233117741,-0.0012845249042317,0.0012845131374477,-0.0012845228761959,0.0012845152492279,-0.0010487647693713,0.0010487483855288,-0.0010487585914927,0.0010487546883594,-0.0010487448038757,0.0010487687990098,-0.0010487688289763,0.0010487441110361,6.0791238443512e-09,-6.2769904307216e-09,-0.0010423901608761,0.0010423899487837,2.9715274464204e-09,-3.2917771181892e-09,-0.0012845161332436,0.0012845221396221,-0.0012845181802062,0.0012845200367897,-0.0012845202746359,0.0012845180495274,-0.001284522321249,0.0012845159477812,-0.0010487638084752,0.0010487494356092,-0.0010487516942233,0.0010487615079682,0.72383357106241,131329,3014,0.004334774764682,0.0043347747666763,0.0043347747671691,22.785574017202,-5.7715407862387e-05,-5.7715407862387e-05,-5.7715407862387e-05,4401972.5136227,0.01309132082221
28019200,0.99466830982041,0.014080377698619,0.0046934592318654,0.0046934592332055,0.0046934592335484,-0.0010429662684124,0.001042968310712,-5.2812365796418e-09,7.3299143297369e-09,-1.1164975823064e-08,1.3731347713753e-08,-0.0012852649194751,0.0012852545605675,-0.0012852607072758,0.0012852587595303,-0.0012852570952605,0.0012852627448381,-0.0012852528909081,0.0012852669530487,-0.0010493888360807,0.0010493867436898,-0.0010493764718069,0.0010493990913904,1.0990849558212e-08,-1.3528335277094e-08,-4.1882129463858e-09,2.1616367790008e-09,-0.0010429682977433,0.0010429662823496,-0.0012852579130429,0.0012852618885691,-0.0012852558844044,0.0012852639997031,-0.0012852655916734,0.0012852538339954,-0.0012852635630066,0.0012852559464267,-0.001049395909215,0.0010493795328804,-0.0010493897291396,0.0010493858373223,-0.0010493759605813,0.0010493999291298,-0.0010493999585894,0.0010493752688015,6.1287514666144e-09,-6.3264684449081e-09,-0.0010429673962014,0.0010429671841315,2.9724818004714e-09,-3.2926103684987e-09,-0.0012852568084395,0.0012852628484161,-0.0012852588559788,0.0012852607449775,-0.0012852609828427,0.0012852587252828,-0.0012852630300442,0.0012852566229274,-0.0010493950007916,0.0010493805305907,-0.0010493827893035,0.0010493926998504,0.73612510405963,131329,3014,0.0043371712086427,0.0043371712106495,0.0043371712111458,23.051525958644,-5.5587792330848e-05,-5.5587792330848e-05,-5.5587792330848e-05,4403974.3790157,0.013098609402564
28219200,0.99483812232829,0.014082880464228,0.0046942934870681,0.0046942934884086,0.0046942934887517,-0.0010434123649516,0.0010434144082121,-5.330523322348e-09,7.3808619723508e-09,-1.1166730463226e-08,1.373501039739e-08,-0.0012858889007855,0.001285878507131,-0.0012858846550073,0.0012858827393263,-0.0012858810750262,0.0012858866933836,-0.0012858768370727,0.0012858909349023,-0.0010498936634908,0.0010498914776499,-0.0010498812060351,0.0010499039282832,1.0990693923096e-08,-1.3524897609467e-08,-4.187844910015e-09,2.1642465326923e-09,-0.0010434143938501,0.0010434123798715,-0.0012858818781409,0.0012858858518187,-0.0012858798486764,0.0012858879635258,-0.0012858895557036,0.0012858777986975,-0.001285887526147,0.001285879911726,-0.0010499006863228,0.0010498843149002,-0.001049894508683,0.0010498906256666,-0.0010498807398785,0.0010499047126162,-0.0010499047320726,0.0010498800529538,6.1763039338015e-09,-6.3767309733048e-09,-0.001043413493533,0.001043413280292,2.9733200807007e-09,-3.2959180533629e-09,-0.001285880755569,0.0012858868294793,-0.0012858828047703,0.0012858847247943,-0.0012858849627344,0.001285882673917,-0.0012858870115109,0.0012858805703703,-0.0010498998305388,0.0010498852582485,-0.0010498875256918,0.0010498975252689,0.74948917886865,131329,3014,0.004339023850766,0.0043390238519207,0.0043390238521333,23.251251024955,-5.3989991800357e-05,-5.3989991800357e-05,-5.3989991800357e-05,4404424.1682362,0.013104246016891
28419200,0.99500442086634,0.014085386170273,0.0046951287224163,0.0046951287237568,0.0046951287240997,-0.0010438303368906,0.0010438323794884,-5.3803008734721e-09,7.429652129698e-09,-1.1172415589079e-08,1.3739678843449e-08,-0.0012865020116659,0.0012864915812193,-0.0012864977332107,0.0012864958463977,-0.0012864941821895,0.0012864997706287,-0.0012864899116035,0.0012865040449078,-0.0010503780668605,0.0010503757863362,-0.0010503655101425,0.0010503883307472,1.0996382221477e-08,-1.353321353196e-08,-4.1905097443488e-09,2.1645275585366e-09,-0.0010438323664187,0.0010438303507818,-0.0012864949693165,0.0012864989455592,-0.001286492938818,0.0012865010584115,-0.0012865026511325,0.0012864908872166,-0.0012865006207782,0.0012864930013665,-0.0010503850488356,0.0010503686656768,-0.0010503788655783,0.0010503749776364,-0.0010503650901768,0.0010503890730821,-0.0010503890968394,0.0010503644007736,6.2267908790776e-09,-6.425718026931e-09,-0.0010438314649732,0.0010438312524184,2.9749806103551e-09,-3.2962285059818e-09,-0.001286493831237,0.0012864999390353,-0.0012864958805832,0.0012864978334329,-0.0012864980711566,0.0012864957498867,-0.0012865001202937,0.0012864936453403,-0.00105038423515,0.0010503695672039,-0.0010503718319648,0.0010503819311082,0.76402417450135,131329,3014,0.004340760071751,0.0043407600734546,0.00434076007385,23.441852756127,-5.2465177950981e-05,-5.2465177950981e-05,-5.2465177950981e-05,4404221.2050269,0.013109529727471
28619200,0.99516721070141,0.014087856784529,0.0046959522605015,0.0046959522618422,0.0046959522621852,-0.0010442331331173,0.001044235176447,-5.4292784081832e-09,7.4790997754887e-09,-1.1179849803439e-08,1.374760804007e-08,-0.0012871198069827,0.0012871093396139,-0.0012871154956872,0.001287113637591,-0.0012871119724636,0.0012871175342741,-0.0012871076690287,0.0012871218414928,-0.0010508543301802,0.0010508519584844,-0.0010508416757476,0.0010508645980989,1.1005366717095e-08,-1.3543538707559e-08,-4.1920815322734e-09,2.1649658667006e-09,-0.0010442351633823,0.0010442331470981,-0.0012871127431937,0.0012871167251075,-0.0012871107121407,0.0012871188386313,-0.0012871204317017,0.0012871086605995,-0.0012871184006158,0.0012871107753957,-0.0010508612719281,0.0010508448786013,-0.0010508550855936,0.001050851190912,-0.0010508412992815,0.0010508652995275,-0.0010508653260033,0.0010508406092861,6.2769401697865e-09,-6.4751819481656e-09,-0.0010442342615087,0.0010442340491963,2.9758919553964e-09,-3.2965413422631e-09,-0.0012871115910967,0.0012871177324163,-0.0012871136410606,0.0012871156265084,-0.001287115864496,0.0012871135103824,-0.0012871179140979,0.0012871114055207,-0.0010508605019234,0.0010508457375211,-0.0010508480001333,0.0010508581979645,0.76896080338099,131329,3014,0.0043424336152095,0.0043424336171089,0.0043424336175737,23.632234119317,-5.0942127045466e-05,-5.0942127045466e-05,-5.0942127045466e-05,4403578.6042889,0.013114623878801
28819200,0.99532652237395,0.014090204308538,0.0046967347685041,0.0046967347698453,0.0046967347701884,-0.0010446284084293,0.0010446304523534,-5.4785970384153e-09,7.5287485629288e-09,-1.1189626530708e-08,1.3757774299174e-08,-0.0012877317703537,0.001287721264115,-0.0012877274261325,0.0012877255951398,-0.0012877239291458,0.0012877294654432,-0.0012877195927769,0.0012877338057833,-0.0010513219952713,0.0010513195332733,-0.0010513092424121,0.001051332268439,1.1014866060812e-08,-1.3554543493752e-08,-4.1930916639881e-09,2.1646585365251e-09,-0.0010446304394638,0.0010446284223547,-0.0012877246838738,0.0012877286720415,-0.001287722652701,0.00128773078586,-0.0012877323793023,0.0012877206008119,-0.0012877303480034,0.0012877227158968,-0.0010513288970103,0.0010513124940778,-0.0010513227086597,0.0010513188055832,-0.0010513089103046,0.0010513329283549,-0.0010513329579821,0.0010513082189072,6.3268396358038e-09,-6.5243535265077e-09,-0.0010446295370554,0.0010446293250191,2.9765914231311e-09,-3.2965807452799e-09,-0.0012877235183001,0.0012877296928149,-0.00128772556854,0.0012877275866461,-0.0012877278248598,0.0012877254378987,-0.0012877298746604,0.0012877233327715,-0.0010513281704576,0.0010513133103154,-0.0010513155707565,0.001051325866939,0.74978435735372,131329,3014,0.0043440759368162,0.0043440759389636,0.0043440759394934,23.824833591577,-4.9401331267383e-05,-4.9401331267383e-05,-4.9401331267383e-05,4402941.9487806,0.013119623036442
29019200,0.99548350698539,0.014092379097391,0.0046974596981215,0.0046974596994632,0.0046974596998064,-0.0010452537837498,0.0010452558254516,-5.5276462330843e-09,7.5744486227351e-09,-1.1184015047106e-08,1.3748471782507e-08,-0.0012885409851797,0.0012885304508438,-0.0012885366096749,0.0012885348136633,-0.0012885331484918,0.0012885386468358,-0.0012885287808021,0.00128854301883,-0.0010520081549942,0.0010520055898388,-0.0010519953016773,0.0010520184106117,1.1015404820241e-08,-1.3559914620986e-08,-4.1942583220847e-09,2.1615126629652e-09,-0.0010452558149733,0.0010452537958591,-0.0012885338830942,0.0012885378737532,-0.0012885318526597,0.0012885399871351,-0.0012885415801726,0.0012885297999562,-0.0012885395497376,0.0012885319146422,-0.0010520150112992,0.0010519985993927,-0.0010520088176522,0.0010520049030647,-0.0010519950198206,0.0010520190324965,-0.0010520190764328,0.0010519943215874,6.3806967918282e-09,-6.5737843382244e-09,-0.001045254910658,0.0010452547006347,2.9742838392439e-09,-3.2902124025784e-09,-0.0012885327029774,0.0012885389093797,-0.0012885347497523,0.0012885368057565,-0.0012885370436317,0.0012885346196389,-0.0012885390900836,0.001288532517004,-0.0010520143266179,0.0010519993759396,-0.0010520016223705,0.0010520120308341,0.7113025457275,131329,3014,0.0043466722469949,0.0043466722503767,0.0043466722513302,24.140852936476,-4.6873176508195e-05,-4.6873176508195e-05,-4.6873176508195e-05,4405266.2516092,0.013127519755522
29219200,0.99563811503823,0.014094464125119,0.0046981547073638,0.0046981547087059,0.0046981547090493,-0.0010459123145114,0.0010459143559521,-5.5793602111107e-09,7.6266484919178e-09,-1.1188770790586e-08,1.3754072275239e-08,-0.0012893073709472,0.0012892967974438,-0.0012893029604754,0.0012893011947331,-0.0012892995309505,0.0012893049971812,-0.0012892951283477,0.0012893094037017,-0.0010526998865474,0.0010526972253829,-0.0010526869380207,0.0010527101540937,1.101221038845e-08,-1.3550217704183e-08,-4.1862732369426e-09,2.1596131347411e-09,-0.0010459143433111,0.0010459123281863,-0.0012893002489229,0.0012893042407108,-0.0012892982216672,0.0012893063505655,-0.0012893079418959,0.0012892961718359,-0.0012893059145835,0.0012892982829266,-0.0010527066814065,0.0010526902935945,-0.001052700503629,0.001052696592683,-0.0010526867065972,0.0010527107145724,-0.0010527107478002,0.0010526860128001,6.4261644155588e-09,-6.6224568031376e-09,-0.0010459134415173,0.0010459132302399,2.9716986037946e-09,-3.2904919554206e-09,-0.001289299053882,0.0012893052910997,-0.001289301100224,0.0012893031883786,-0.0012893034261899,0.0012893009704489,-0.0012893054721152,0.0012892988686845,-0.0010527060563983,0.0010526910082191,-0.0010526932628555,0.0010527037576706,0.69516968282848,131329,3014,0.0043494048945664,0.0043494048967058,0.0043494048972419,24.459609342306,-4.4323125261554e-05,-4.4323125261554e-05,-4.4323125261554e-05,4409060.9096613,0.013135826813117
29419200,0.99579027385405,0.014096361000185,0.0046987869990523,0.0046987870003947,0.0046987870007381,-0.001046580527729,0.0010465825683293,-5.6286821516534e-09,7.6752853457424e-09,-1.1188701236622e-08,1.3753382040943e-08,-0.0012900495771562,0.0012900389703601,-0.0012900451340185,0.0012900434002221,-0.0012900417374714,0.0012900471697804,-0.0012900373021902,0.0012900516088812,-0.0010533844437841,0.0010533816861633,-0.0010533714006044,0.0010533947119304,1.1014886726673e-08,-1.3551142556143e-08,-4.1826557231464e-09,2.1577038813861e-09,-0.0010465825554889,0.0010465805415561,-0.0012900424365073,0.0012900464322827,-0.0012900404110182,0.001290048540262,-0.0012900501308111,0.0012900383622455,-0.001290048105269,0.0012900404714782,-0.0010533911869174,0.0010533748056544,-0.0010533850156551,0.0010533811004152,-0.0010533712135597,0.0010533952260047,-0.0010533952579281,0.0010533705199329,6.476016483877e-09,-6.672706943942e-09,-0.0010465816542578,0.0010465814430338,2.9680260334155e-09,-3.2871178805404e-09,-0.0012900412278006,0.001290047496336,-0.0012900432717639,0.0012900453959509,-0.0012900456335873,0.001290043142385,-0.001290047677129,0.0012900410429843,-0.0010533906133652,0.0010533754684999,-0.0010533777222558,0.0010533883164474,0.65089858844926,131329,3014,0.0043521771935102,0.0043521771955538,0.0043521771960634,24.778460393451,-4.1772316852394e-05,-4.1772316852394e-05,-4.1772316852394e-05,4413367.6870742,0.013144252860785
29619200,0.99593983183856,0.01409819518928,0.0046993983954172,0.0046993983967599,0.0046993983971034,-0.0010472671043966,0.0010472691449439,-5.678215825316e-09,7.7250400969748e-09,-1.119248301315e-08,1.3757513507347e-08,-0.0012907227911799,0.001290712148368,-0.0012907183148529,0.0012907166112578,-0.0012907149489395,0.0012907203505006,-0.0012907104804992,0.00129072482262,-0.0010540575630771,0.0010540547117156,-0.0010540444248906,0.0010540678368748,1.1018621456817e-08,-1.35529701173e-08,-4.1786630197223e-09,2.1555802927466e-09,-0.0010472691314889,0.0010472671186756,-0.001290715630436,0.0012907196306033,-0.0012907136069084,0.0012907217364835,-0.0012907233266544,0.0012907115588618,-0.0012907213030817,0.0012907136659591,-0.0010540642551406,0.0010540478812993,-0.0010540580920749,0.001054054171847,-0.0010540442827318,0.0010540683021563,-0.0010540683317674,0.0010540435895319,6.524900162573e-09,-6.7226151695153e-09,-0.0010472682309531,0.0010472680194059,2.9646934559882e-09,-3.284693081087e-09,-0.0012907144083044,0.0012907207080205,-0.0012907164504191,0.0012907186096061,-0.0012907188470946,0.0012907163212718,-0.0012907208887907,0.0012907142238223,-0.00105406373342,0.001054048491777,-0.0010540507464792,0.0010540614371746,0.6419138749178,131329,3014,0.004355024356674,0.0043550243583805,0.0043550243587823,25.088068171261,-3.929545462991e-05,-3.929545462991e-05,-3.929545462991e-05,4419395.2990483,0.013152902114544
29819200,0.9960862354313,0.014100113075313,0.004700037690761,0.0047000376921042,0.0047000376924478,-0.0010478648520834,0.0010478668929664,-5.7272543971919e-09,7.7747816473457e-09,-1.1203193878764e-08,1.3769179423314e-08,-0.0012912860815949,0.0012912753984505,-0.0012912815722609,0.0012912798941803,-0.0012912782320065,0.0012912836081025,-0.0012912737305749,0.0012912881130461,-0.0010546370027182,0.0010546340633685,-0.0010546237701713,0.0010546472873888,1.1030859794883e-08,-1.356389441057e-08,-4.1763933450244e-09,2.1546063050777e-09,-0.0010478668790235,0.0010478648666924,-0.0012912788965045,0.0012912829053234,-0.0012912768739617,0.0012912850100557,-0.0012912866004021,0.0012912748259045,-0.0012912845778422,0.0012912769318485,-0.0010546436512613,0.0010546272754643,-0.0010546374934571,0.0010546335648435,-0.0010546236663049,0.0010546477105627,-0.0010546477367928,0.0010546229735754,6.5740109428901e-09,-6.7727864057302e-09,-0.0010478659788553,0.0010478657670016,2.9624537593947e-09,-3.2833588770519e-09,-0.0012912776626317,0.0012912839944146,-0.0012912797035959,0.0012912818972313,-0.0012912821345311,0.0012912795746061,-0.0012912841750875,0.0012912774783847,-0.0010546431772155,0.0010546278372743,-0.0010546300942697,0.0010546408810575,0.67837704935776,131329,3014,0.0043575028096123,0.0043575028109921,0.0043575028112829,25.340227017312,-3.7278183861506e-05,-3.7278183861506e-05,-3.7278183861506e-05,4424807.7155317,0.01316043023558
30019200,0.99622945627691,0.014102022035626,0.0047006740108652,0.0047006740122087,0.0047006740125523,-0.001048429169286,0.0010484312098583,-5.7772407814363e-09,7.8239614782298e-09,-1.1214778569213e-08,1.3779947355714e-08,-0.0012918975230938,0.0012918867994857,-0.0012918929808234,0.0012918913283632,-0.0012918896659203,0.0012918950165086,-0.0012918851315142,0.001291899554614,-0.0010552109979955,0.0010552079673189,-0.0010551976650026,0.0010552212853855,1.1041208093419e-08,-1.3576583193328e-08,-4.1757582442323e-09,2.151958828946e-09,-0.001048431196718,0.0010484291833731,-0.0012918903132467,0.0012918943307678,-0.0012918882918916,0.0012918964344816,-0.0012918980247813,0.0012918862435789,-0.0012918960033795,0.0012918883485339,-0.0010552176058406,0.0010552012216168,-0.0010552114481277,0.0010552075050065,-0.0010551976071399,0.0010552216682055,-0.0010552217017753,0.0010551969105043,6.6243819786483e-09,-6.8212957943605e-09,-0.0010484302956616,0.0010484300846638,2.9617955496496e-09,-3.2810024479362e-09,-0.0012918890677256,0.0012918954315625,-0.0012918911075441,0.0012918933352548,-0.0012918935725771,0.0012918909787882,-0.0012918956119725,0.0012918888834495,-0.0010552171743843,0.0010552017420246,-0.0010552039930029,0.0010552148812138,0.68873091548889,131329,3014,0.0043598439244735,0.0043598439264363,0.0043598439269212,25.591108180669,-3.5271134554648e-05,-3.5271134554648e-05,-3.5271134554648e-05,4428526.8358103,0.013167545734052
30219200,0.99636948038495,0.014103796101105,0.0047012653660246,0.0047012653673685,0.0047012653677123,-0.0010489772741684,0.0010489793147552,-5.8268051585727e-09,7.8733976949285e-09,-1.1225420448993e-08,1.3790568604654e-08,-0.0012925177776216,0.0012925070139889,-0.001292513202367,0.0012925115758781,-0.0012925099133471,0.0012925152380898,-0.0012925053459563,0.0012925198092025,-0.0010557747696476,0.0010557716488296,-0.0010557613390541,0.0010557850632251,1.1051577986234e-08,-1.3587557742644e-08,-4.174492134651e-09,2.1502501521422e-09,-0.0010489793017373,0.0010489772881627,-0.0012925105437225,0.0012925145692743,-0.0012925085233664,0.0012925166720084,-0.0012925182623443,0.0012925064749648,-0.0012925162419393,0.0012925085789382,-0.0010557813350294,0.0010557649458237,-0.0010557751796345,0.0010557712257469,-0.001055761324106,0.001055785404177,-0.0010557854400083,0.0010557606258295,6.6741415475865e-09,-6.8705755146636e-09,-0.0010489784004473,0.0010489781896962,2.9605276666473e-09,-3.2792805620092e-09,-0.0012925092861546,0.0012925156821127,-0.0012925113249327,0.001292513586767,-0.0012925138240279,0.0012925111963553,-0.0012925158623819,0.0012925091019701,-0.0010557809487971,0.0010557654212195,-0.0010557676700676,0.0010557786570696,0.66008314121598,131329,3014,0.0043621181907655,0.0043621181927893,0.0043621181932929,25.841945099841,-3.326443920127e-05,-3.326443920127e-05,-3.326443920127e-05,4431770.2053071,0.013174459541723
30419200,0.99650659273312,0.01410542450295,0.0047018081666393,0.0047018081679836,0.0047018081683275,-0.0010496070314565,0.001049609071563,-5.8767212718756e-09,7.9224512882866e-09,-1.1230495992321e-08,1.3794763512914e-08,-0.0012931675084331,0.0012931567084763,-0.001293162900256,0.0012931613034267,-0.0012931596409593,0.0012931649356119,-0.0012931550406426,0.001293169539773,-0.0010564018176323,0.0010563986016259,-0.0010563882878717,0.001056412110825,1.1055318492611e-08,-1.3592554542059e-08,-4.1729587086101e-09,2.1476670211796e-09,-0.001049609059042,0.0010496070451249,-0.0012931602539622,0.0012931642840746,-0.0012931582350256,0.0012931663854974,-0.001293167975486,0.0012931561868141,-0.0012931659564995,0.0012931582894685,-0.0010564083365065,0.001056391946131,-0.0010564021830748,0.0010563982200802,-0.0010563883220279,0.0010564124064585,-0.0010564124476415,0.0010563876208796,6.7243697723251e-09,-6.919452411655e-09,-0.0010496081572904,0.0010496079471761,2.9590636991058e-09,-3.2765668456908e-09,-0.0012931589828161,0.0012931654105362,-0.0012931610200956,0.0012931633165029,-0.0012931635537192,0.0012931608917697,-0.001293165590581,0.0012931587986749,-0.0010564079967383,0.0010563923758962,-0.0010563946197744,0.001056405707754,0.62526528882714,131329,3014,0.0043647303556225,0.004364730358001,0.0043647303586211,26.129954138767,-3.0960366889865e-05,-3.0960366889865e-05,-3.0960366889865e-05,4436972.0370336,0.013182397671254
30619200,0.99664158833685,0.01410714548128,0.0047023818260825,0.004702381827427,0.004702381827771,-0.0010504630031246,0.0010504650417584,-5.9277316489553e-09,7.9712020851597e-09,-1.1221625343313e-08,1.3783371790924e-08,-0.0012939817608303,0.0012939709334331,-0.001293977119627,0.0012939755617718,-0.0012939738998032,0.0012939791536266,-0.0012939692663704,0.0012939837912544,-0.001057240970556,0.0010572376462973,-0.0010572273376607,0.0010572512482371,1.1045225089932e-08,-1.3585015034722e-08,-4.1698714308099e-09,2.1422762279138e-09,-0.001050465030462,0.0010504630159596,-0.0012939744933856,0.0012939785213075,-0.0012939724774475,0.0012939806200348,-0.0012939822090717,0.0012939704297963,-0.0012939801929885,0.0012939725298378,-0.001057247432206,0.0010572310504568,-0.0010572412819004,0.0010572373116444,-0.001057227433497,0.0010572514911565,-0.00105725154416,0.0010572267261217,6.7751175257808e-09,-6.967113921011e-09,-0.0010504641277879,0.0010504639190603,2.9567706941114e-09,-3.2714378470841e-09,-0.0012939732059491,0.0012939796642329,-0.001293975240548,0.0012939775724598,-0.0012939778096598,0.0012939751126088,-0.0012939798437737,0.0012939730218321,-0.0010572471417175,0.0010572314326144,-0.0010572336659002,0.0010572448585367,0.66318231706589,131329,3014,0.0043682800162324,0.0043682800194222,0.0043682800203054,26.524362576318,-2.7805099389453e-05,-2.7805099389453e-05,-2.7805099389453e-05,4445745.6966259,0.013193182397251
30819200,0.99677438598739,0.014108925725424,0.0047029752407965,0.0047029752421415,0.0047029752424856,-0.00105129226786,0.0010512943064243,-5.9765814926261e-09,8.0208411284269e-09,-1.1212207788925e-08,1.3774912166889e-08,-0.0012948605357124,0.0012948496807301,-0.0012948558614394,0.0012948543417325,-0.0012948526808744,0.0012948578951273,-0.0012948480144506,0.0012948625653377,-0.0010580848185939,0.0010580813944427,-0.0010580710954077,0.0010580950984521,1.1037726588069e-08,-1.3572668627406e-08,-4.164206509084e-09,2.1410161407569e-09,-0.0010512942936872,0.0010512922816519,-0.0012948532565672,0.001294857280966,-0.0012948512427106,0.001294859377224,-0.0012948609656845,0.0012948491962545,-0.0012948589517759,0.0012948512937497,-0.0010580912181889,0.0010580748578876,-0.0010580850804814,0.0010580811173528,-0.0010580712385318,0.0010580952837416,-0.0010580953269803,0.001058070534618,6.8234375434904e-09,-7.0184489796131e-09,-0.0010512933927298,0.0010512931828788,2.9515491711253e-09,-3.2688788674209e-09,-0.0012948519518973,0.0012948584409904,-0.0012948539841004,0.0012948563520077,-0.0012948565888326,0.0012948538562495,-0.0012948586206064,0.0012948517682094,-0.001058090987819,0.0010580751778357,-0.0010580774172873,0.001058088703967,0.69236329631103,131329,3014,0.0043717203500678,0.0043717203522529,0.0043717203528103,26.921145063175,-2.4630839494601e-05,-2.4630839494601e-05,-2.4630839494601e-05,4452518.697204,0.013203640070461
31019200,0.99690488892974,0.014110733219443,0.0047035777388028,0.0047035777401481,0.0047035777404923,-0.0010520958961185,0.0010520979340157,-6.0264032188125e-09,8.070128393823e-09,-1.1203677376464e-08,1.3765794921826e-08,-0.0012957785839281,0.0012957677010414,-0.0012957738766119,0.0012957723950521,-0.0012957707349518,0.0012957759095507,-0.0012957660354812,0.0012957806127783,-0.0010589266680944,0.0010589231407201,-0.0010589128486945,0.0010589369425936,1.1029617262832e-08,-1.3563216394792e-08,-4.16020488016e-09,2.138206394317e-09,-0.0010520979211242,0.0010520959100123,-0.0012957712922485,0.0012957753138002,-0.0012957692806371,0.0012957774077724,-0.0012957789955747,0.0012957672350015,-0.001295776983902,0.001295769330211,-0.0010589330088222,0.0010589166627481,-0.0010589268785249,0.0010589229162157,-0.0010589130453479,0.0010589370729645,-0.001058937116135,0.0010589123406538,6.8728450244493e-09,-7.0680647031221e-09,-0.001052097020587,0.0010520968107985,2.9481342280524e-09,-3.2655795010819e-09,-0.0012957699706847,0.0012957764907384,-0.0012957720006677,0.001295774404004,-0.0012957746406574,0.0012957718730276,-0.0012957766701962,0.0012957697872392,-0.0010589328330646,0.0010589169277181,-0.0010589191660052,0.0010589305511847,0.71215833580066,131329,3014,0.0043750553540286,0.0043750553561052,0.00437505535662,27.318009867356,-2.1455921061148e-05,-2.1455921061148e-05,-2.1455921061148e-05,4457737.4826206,0.013213781272996
31219200,0.99703412812749,0.014112620621034,0.0047042068726661,0.0047042068740118,0.0047042068743561,-0.0010531602967301,0.0010531623314515,-6.0781914931868e-09,8.1171361004757e-09,-1.1179054544204e-08,1.3735666041713e-08,-0.0012970086206016,0.0012969977209414,-0.0012970038807193,0.0012970024482665,-0.0012970007891578,0.0012970059108407,-0.0012969960571512,0.0012970106472298,-0.0010600534184595,0.0010600497685586,-0.0010600394912453,0.0010600636565516,1.100554396485e-08,-1.3544892441821e-08,-4.1572276650499e-09,2.129946721927e-09,-0.0010531623215012,0.0010531603085824,-0.0012970013245689,0.0012970053368264,-0.0012969993168904,0.0012970074274115,-0.0012970090136129,0.0012969972717293,-0.0012970070059837,0.0012969993635056,-0.0010600596938116,0.0010600433610349,-0.0010600535641236,0.0010600495942369,-0.0010600397625744,0.0010600637306632,-0.0010600637970038,0.0010600390465776,6.9255938584498e-09,-7.1146457704848e-09,-0.0010531614188631,0.0010531612117758,2.944916473382e-09,-3.2567233469843e-09,-0.0012969999839033,0.0012970065332416,-0.0012970020092513,0.0012970044501922,-0.001297004686709,0.0012970018821811,-0.0012970067117581,0.0012969997999451,-0.0010600595676772,0.0010600435801295,-0.0010600457978479,0.001060057296444,0.74546031180889,131329,3014,0.0043794728749022,0.0043794728788462,0.0043794728799967,27.867751632035,-1.7057986943723e-05,-1.7057986943723e-05,-1.7057986943723e-05,4464712.6979113,0.013227215744353
31419200,0.99716205609192,0.014114391413166,0.0047047971367094,0.0047047971380558,0.0047047971384003,-0.0010542199158659,0.0010542219496549,-6.1273239979872e-09,8.1662878596585e-09,-1.1160340848895e-08,1.3717061852441e-08,-0.0012983021938018,0.0012982912720544,-0.0012982974211347,0.00129829603189,-0.0012982943747017,0.0012982994492743,-0.0012982896099902,0.0012983042181744,-0.0010611941252663,0.0010611903679281,-0.001061180107231,0.001061204357487,1.0982028515232e-08,-1.3516215393653e-08,-4.1496729499244e-09,2.1269270478041e-09,-0.0010542219385537,0.0010542199283317,-0.0012982948935913,0.0012982988926392,-0.0012982928892154,0.0012983009796882,-0.0012983025650847,0.0012982908447909,-0.0012983005608199,0.0012982929329974,-0.0010612003278663,0.0010611840305138,-0.0010611942135795,0.0010611902588652,-0.0010611804386431,0.0010612043608695,-0.001061204418452,0.001061179724818,6.9741839674965e-09,-7.1658826957907e-09,-0.0010542210376411,0.0010542208296131,2.9380055342124e-09,-3.2521028130649e-09,-0.0012982935315286,0.0012983001107658,-0.0012982955528219,0.00129829803149,-0.0012982982674345,0.0012982954260574,-0.0012983002884935,0.0012982933476342,-0.0010612002677909,0.0010611841809841,-0.0010611864034511,0.0010611979976213,0.71242631701211,131329,3014,0.0043838714917164,0.0043838714945414,0.0043838714953034,28.435889190308,-1.2512886477534e-05,-1.2512886477534e-05,-1.2512886477534e-05,4470606.5266725,0.013240596146963
31619200,0.99728848572449,0.014116049846858,0.0047053499479402,0.0047053499492868,0.0047053499496314,-0.0010552962936757,0.0010552983274171,-6.1770698018165e-09,8.2164068452932e-09,-1.1141429174222e-08,1.3698460660195e-08,-0.0012995433184533,0.0012995323757763,-0.0012995385122399,0.0012995371688089,-0.0012995355122708,0.0012995405408891,-0.0012995307139158,0.0012995453431108,-0.0010623269864625,0.0010623231202905,-0.0010623128745842,0.001062337211405,1.0966437811886e-08,-1.3496546503749e-08,-4.142609679833e-09,2.1235647588787e-09,-0.0010552983149121,0.0010552963072767,-0.0012995360110126,0.0012995400038002,-0.0012995340101195,0.0012995420871003,-0.0012995436712852,0.0012995319682836,-0.0012995416703264,0.001299534052779,-0.0010623331199283,0.0010623168505555,-0.0010623270195488,0.001062323071052,-0.0010623132621738,0.0010623371531928,-0.0010623372063671,0.001062312549823,7.0223284234811e-09,-7.2159955858469e-09,-0.001055297415619,0.0010552972068522,2.9326865162929e-09,-3.2485099216635e-09,-0.0012995346307015,0.0012995412397365,-0.0012995366496828,0.0012995391637509,-0.0012995393997622,0.0012995365228749,-0.0012995414182952,0.0012995344477776,-0.0010623331217376,0.0010623169382996,-0.0010623191626228,0.0010623308523404,0.68057768498082,131329,3014,0.0043883384709549,0.0043883384732233,0.0043883384738067,29.004478336265,-7.964173309882e-06,-7.964173309882e-06,-7.964173309882e-06,4478380.8086289,0.013254180346829
31819200,0.99741109165181,0.0141175951523,0.0047058650497539,0.0047058650511007,0.0047058650514454,-0.0010558396253919,0.0010558416610554,-6.2248861865882e-09,8.2675635839311e-09,-1.116465047918e-08,1.3725651478769e-08,-0.0013001589174209,0.001300147925863,-0.0013001540779218,0.0013001527515792,-0.0013001510949143,0.0013001561080368,-0.0013001462633227,0.0013001609429486,-0.0010628872816193,0.0010628833410109,-0.0010628730821078,0.0010628975377072,1.099329491998e-08,-1.3518274548916e-08,-4.1428996935642e-09,2.1286209320354e-09,-0.00105584164639,0.0010558396404753,-0.0013001515792476,0.0013001555856529,-0.0013001495763092,0.0013001576704889,-0.0013001592557278,0.0013001475342263,-0.0013001572527658,0.0013001496202399,-0.0010628933815822,0.0010628771007836,-0.0010628872845757,0.0010628833342647,-0.0010628734908103,0.0010628974433263,-0.0010628974780813,0.0010628727865179,7.0693249796215e-09,-7.2680565117743e-09,-0.0010558407488746,0.0010558405380415,2.9330628923537e-09,-3.2534540399623e-09,-0.0013001501882487,0.0013001568320304,-0.0013001522093226,0.0013001547545091,-0.0013001549904671,0.0013001520823074,-0.0013001570110933,0.0013001500057069,-0.0010628934301088,0.0010628771385998,-0.0010628793786243,0.0010628911537307,0.65805654754295,131329,3014,0.0043905928087617,0.0043905928096249,0.004390592809728,29.266262654354,-5.8698987651668e-06,-5.8698987651668e-06,-5.8698987651668e-06,4481999.6636339,0.013261033934919
32019200,0.99752826037096,0.014119231925061,0.0047064106406742,0.0047064106420211,0.0047064106423657,-0.0010559644896184,0.0010559665271933,-6.2737606939173e-09,8.3181252182197e-09,-1.1217084584472e-08,1.3780262830841e-08,-0.0013002809068014,0.0013002698485455,-0.0013002760342011,0.0013002747074175,-0.0013002730487444,0.001300278066419,-0.0013002681840097,0.0013002829345312,-0.0010630044537013,0.0010630004526691,-0.0010629901551942,0.0010630147453822,1.1046997090247e-08,-1.3575755683262e-08,-4.1530257222693e-09,2.1356337974141e-09,-0.0010559665130726,0.0010559645043736,-0.00130027352072,0.0013002775562802,-0.0013002715121561,0.0013002796468357,-0.0013002812340946,0.0013002694677132,-0.0013002792254628,0.0013002715594928,-0.0010630105526627,0.0010629942140405,-0.0010630044374279,0.0010630004630564,-0.0010629905774343,0.0010630146403336,-0.0010630146745194,0.001062989874983,7.1188458664983e-09,-7.3171058315866e-09,-0.0010559656141549,0.0010559654034173,2.9420155487386e-09,-3.2621039435078e-09,-0.0013002721250462,0.0013002788072389,-0.0013002741519448,0.0013002767237611,-0.0013002769601634,0.0013002740246922,-0.0013002789865757,0.0013002719421673,-0.0010630106232085,0.0010629942306009,-0.0010629964744324,0.0010630083414089,0.71766340493915,131329,3014,0.0043911101972517,0.0043911101985683,0.0043911101988294,29.281039198713,-5.7516864102961e-06,-5.7516864102961e-06,-5.7516864102961e-06,4482282.0815878,0.013262604256841
32219200,0.99764019231939,0.014120834677076,0.004706944891346,0.0047069448926929,0.0047069448930376,-0.0010560305606902,0.001056032599665,-6.3227771511158e-09,8.3678068655089e-09,-1.1267476217954e-08,1.3831607696909e-08,-0.0013004616031939,0.0013004504800158,-0.0013004566978186,0.0013004553719164,-0.0013004537111833,0.0013004587317454,-0.0013004488136881,0.0013004636328486,-0.0010631032664022,0.0010630992021734,-0.0010630888668351,0.0010631135873021,1.1093869212704e-08,-1.3627968817146e-08,-4.1643117834901e-09,2.1424000204173e-09,-0.0010560325865615,0.0010560305747744,-0.0013004541719367,0.0013004582326411,-0.0013004521574864,0.0013004603293436,-0.0013004619181298,0.0013004501108862,-0.001300459903635,0.0013004522087923,-0.0010631093635099,0.0010630929672441,-0.0010631032265193,0.0010630992302486,-0.0010630893103117,0.0010631134684002,-0.0010631135069554,0.0010630886081292,7.169523463009e-09,-7.3657121048159e-09,-0.001056031685869,0.0010560314757129,2.9517354388467e-09,-3.2701104209302e-09,-0.0013004527695357,0.0013004594903255,-0.0013004548021356,0.0013004574007996,-0.0013004576377051,0.0013004546746848,-0.0013004596698595,0.0013004525860636,-0.0010631094556992,0.0010630929638714,-0.0010630952073077,0.0010631071700019,0.73340853682904,131329,3014,0.0043913856317932,0.0043913856338286,0.0043913856343383,29.290228033099,-5.6781757352055e-06,-5.6781757352055e-06,-5.6781757352055e-06,4479599.2957023,0.013263445895646
32419200,0.9977471170351,0.014122408780634,0.0047074695925317,0.004707469593879,0.0047074695942237,-0.0010560784615534,0.001056080502036,-6.3716336468775e-09,8.4179278755817e-09,-1.1310855476776e-08,1.387667103499e-08,-0.0013006513201373,0.0013006401360794,-0.0013006463817986,0.0013006450609933,-0.0013006433987366,0.001300648417289,-0.0013006384682802,0.0013006533514077,-0.0010631951091946,0.0010631909784699,-0.0010631806116334,0.0010632054595201,1.1136933199551e-08,-1.3673759280705e-08,-4.1741610052401e-09,2.150046068008e-09,-0.0010560804891163,0.0010560784754861,-0.0013006438473589,0.0013006479302677,-0.0013006418271421,0.0013006500328301,-0.0013006516230173,0.001300639778837,-0.0013006496027531,0.001300641882601,-0.0010632011979514,0.0010631847521771,-0.0010631950429048,0.0010631910314762,-0.0010631810747599,0.0010632053227912,-0.0010632053591064,0.0010631803755931,7.2191346545094e-09,-7.415094985144e-09,-0.0010560795875949,0.0010560793772644,2.9604569651307e-09,-3.2787578760946e-09,-0.0013006424368231,0.0013006491960434,-0.001300644475156,0.0013006471006671,-0.0013006473379986,0.0013006443474325,-0.0013006493758789,0.0013006422529482,-0.0010632013166011,0.0010631847227606,-0.0010631869706731,0.0010631990252933,0.7510942732323,131329,3014,0.0043915860907816,0.004391586092882,0.0043915860934138,29.299222241664,-5.6062220666859e-06,-5.6062220666859e-06,-5.6062220666859e-06,4476569.3476623,0.013264060925669
32619200,0.99784899450371,0.014123781558504,0.0047079271851548,0.0047079271865023,0.0047079271868471,-0.0010560163479404,0.0010560183900482,-6.4207044738269e-09,8.4690297698951e-09,-1.1349551021125e-08,1.3917927445576e-08,-0.001300756841925,0.0013007455991276,-0.0013007518700832,0.0013007505573066,-0.0013007488941565,0.0013007539071116,-0.0013007439301794,0.0013007588745712,-0.0010631816155971,0.0010631774162192,-0.0010631670231314,0.0010631919984413,1.1173884837134e-08,-1.3709789731197e-08,-4.1820587287513e-09,2.1590292794721e-09,-0.0010560183761567,0.0010560163625714,-0.0013007493309907,0.0013007534318383,-0.0013007473051424,0.001300755539909,-0.0013007571309894,0.0013007452562719,-0.0013007551050306,0.0013007473655673,-0.0010631876882455,0.0010631712045542,-0.0010631815196679,0.0010631775030365,-0.0010631675069815,0.0010631918358491,-0.0010631918615119,0.0010631668149238,7.2669851006229e-09,-7.4650144044341e-09,-0.0010560174751481,0.0010560172637424,2.9689077414506e-09,-3.2892008712594e-09,-0.0013007479100682,0.0013007547078545,-0.0013007499548818,0.0013007526062331,-0.0013007528439916,0.0013007498268288,-0.0013007548882804,0.0013007477261485,-0.0010631878401669,0.0010631711408446,-0.001063173399978,0.0010631855402969,0.69653888162879,131329,3014,0.0043913305355319,0.0043913305370642,0.0043913305373995,29.262848179599,-5.8972145632068e-06,-5.8972145632068e-06,-5.8972145632068e-06,4472192.1625096,0.013263290866191
32819200,0.99794595057338,0.01412497356714,0.0047083245213663,0.0047083245227142,0.0047083245230591,-0.0010559490239093,0.0010559510663641,-6.469613459985e-09,8.5182446803545e-09,-1.1376182900215e-08,1.3945137847464e-08,-0.00130074053748,0.0013007292444098,-0.0013007355329726,0.0013007342352865,-0.0013007325717947,0.0013007375702339,-0.0013007275751796,0.0013007425703385,-0.0010631218245387,0.0010631175471627,-0.0010631071355775,0.0010631322249854,1.1203507211143e-08,-1.3740748597228e-08,-4.1914507391209e-09,2.1674360839738e-09,-0.0010559510528111,0.0010559490382643,-0.0013007329947392,0.0013007371089897,-0.0013007309629471,0.0013007392230394,-0.001300740814778,0.0013007289130768,-0.0013007387829445,0.0013007310283412,-0.0010631278777132,0.0010631113550761,-0.0010631216912902,0.0010631176708583,-0.0010631076448013,0.0010631320376593,-0.0010631320588685,0.0010631069571834,7.3168943366064e-09,-7.5149476230086e-09,-0.0010559501514024,0.0010559499398586,2.9769217973325e-09,-3.2973449496987e-09,-0.0013007315613249,0.0013007383975507,-0.0013007336113487,0.0013007362904558,-0.0013007365284752,0.0013007334831636,-0.0013007385780386,0.0013007313769893,-0.0010631280617593,0.0010631112593165,-0.0010631135236215,0.0010631257565177,0.64446137208074,131329,3014,0.0043910515034249,0.0043910515050881,0.0043910515054722,29.204338576772,-6.3652913858203e-06,-6.3652913858203e-06,-6.3652913858203e-06,4470170.9657739,0.01326244293117
33019200,0.99803823401629,0.01412621646961,0.0047087388221897,0.0047087388235378,0.0047087388238827,-0.0010559360468407,0.0010559380897497,-6.5189439643249e-09,8.5677516764204e-09,-1.1396134353948e-08,1.3965425620539e-08,-0.0013006627144692,0.0013006513756509,-0.0013006576770194,0.0013006563994869,-0.0013006547353754,0.0013006597149048,-0.0013006497058251,0.0013006647479827,-0.0010630808266065,0.0010630764656541,-0.0010630660392777,0.0010630912388159,1.1222591225388e-08,-1.3761656207529e-08,-4.1999832124234e-09,2.1745053421404e-09,-0.0010559380765231,0.0010559360609984,-0.0013006551449901,0.0013006592668605,-0.0013006531080625,0.0013006613861262,-0.0013006629782851,0.0013006510576083,-0.001300660941302,0.0013006531780825,-0.00106308685382,0.0010630703002635,-0.0010630806507015,0.0010630766299444,-0.001063066584149,0.0010630910186214,-0.0010630910383054,0.0010630658997615,7.3667497302643e-09,-7.5642515871005e-09,-0.0010559371746285,0.0010559369631236,2.9847780318594e-09,-3.3048246850509e-09,-0.0013006536964302,0.0013006605705165,-0.0013006557515297,0.0013006584582569,-0.0013006586966513,0.0013006556231359,-0.0013006607512766,0.0013006535117851,-0.0010630870732426,0.0010630701698963,-0.0010630724371381,0.0010630847633954,0.69524136999926,131329,3014,0.0043909961982974,0.0043909962002286,0.0043909962007062,29.145323264815,-6.8374138814827e-06,-6.8374138814827e-06,-6.8374138814827e-06,4470382.9154297,0.01326226931636
33219200,0.99812608306336,0.01412746719347,0.0047091557301426,0.004709155731491,0.004709155731836,-0.0010558854978115,0.0010558875407244,-6.5684949089011e-09,8.6171683909501e-09,-1.1407969051435e-08,1.3977256891279e-08,-0.0013006521224551,0.0013006407428461,-0.0013006470520557,0.0013006457997046,-0.0013006441354539,0.0013006490899582,-0.0013006390729572,0.0013006541560568,-0.0010630377404606,0.0010630332901972,-0.0010630228555211,0.0010630481596267,1.1234174501023e-08,-1.3773904346977e-08,-4.2071363264126e-09,2.1811511023608e-09,-0.0010558875276732,0.0010558855118485,-0.0013006445309015,0.0013006486560384,-0.0013006424894379,0.0013006507799383,-0.0013006523721058,0.0013006404388459,-0.0013006503305833,0.0013006425639501,-0.0010630437342772,0.0010630271584049,-0.0010630375170498,0.0010630335010428,-0.0010630234398189,0.0010630479012382,-0.0010630479176456,0.001063022759277,7.4163205838499e-09,-7.6136839350644e-09,-0.0010558866256738,0.0010558864140949,2.9916557183684e-09,-3.3116669682591e-09,-0.0013006430653288,0.0013006499767511,-0.0013006451249573,0.0013006478598753,-0.0013006480985622,0.0013006449963995,-0.0013006501577195,0.0013006428804168,-0.0010630439931905,0.0010630269887688,-0.001063029259766,0.0010630416789041,0.7292279230366,131329,3014,0.0043907867838708,0.0043907867859157,0.0043907867864274,29.086290305878,-7.3096775529798e-06,-7.3096775529798e-06,-7.3096775529798e-06,4468136.1566498,0.013261633401066
33419200,0.9982110791474,0.014128703313293,0.0047095677700836,0.0047095677714323,0.0047095677717773,-0.0010563204014158,0.0010563224409191,-6.620814236758e-09,8.664354516564e-09,-1.1377226796796e-08,1.3940569793691e-08,-0.0013012155835751,0.0013012041910624,-0.0013012104803468,0.0013012092814225,-0.0013012076184299,0.0013012125154004,-0.001301202523047,0.0013012176149738,-0.001063517730955,0.0010635131529998,-0.001063502737576,0.0010635281096324,1.1195548740632e-08,-1.3740023104446e-08,-4.2083677516083e-09,2.1779719547962e-09,-0.0010563224304053,0.0010563204137721,-0.0013012079955672,0.0013012120993951,-0.0013012059550325,0.001301214222918,-0.0013012158126664,0.0013012039060923,-0.0013012137720454,0.0013012060308458,-0.0010635236556608,0.0010635070952545,-0.0010635174301467,0.0010635134267453,-0.0010635034072483,0.0010635277838358,-0.0010635278194519,0.0010635027200389,7.4686000097199e-09,-7.6599124593441e-09,-0.0010563215268878,0.0010563213178303,2.9939119697209e-09,-3.3084735186697e-09,-0.0013012065031916,0.0013012134472148,-0.0013012085621095,0.0013012113303523,-0.0013012115691283,0.0013012084339129,-0.0013012136275956,0.001301206317904,-0.0010635239668517,0.0010635068772673,-0.0010635091313751,0.0010635216589864,0.74278654129169,131329,3014,0.0043925925096345,0.0043925925134566,0.0043925925145774,29.312210590777,-5.5023152737862e-06,-5.5023152737862e-06,-5.5023152737862e-06,4469416.1021793,0.013267127810807
33619200,0.99829361486503,0.014129903899597,0.0047099679655178,0.0047099679668671,0.0047099679672124,-0.0010568756922338,0.0010568777291922,-6.6702291704304e-09,8.711846842559e-09,-1.1324279984873e-08,1.3885356824174e-08,-0.0013019324342234,0.0013019210423992,-0.0013019272986224,0.00130192616496,-0.0013019245050368,0.0013019293305914,-0.0013019193773494,0.0013019344622912,-0.0010641294482503,0.0010641247383442,-0.0010641143638676,0.0010641397933349,1.1153008680071e-08,-1.3692042031941e-08,-4.2034410623694e-09,2.1777623503139e-09,-0.0010568777179771,0.0010568757048958,-0.0013019248597472,0.0013019289373934,-0.0013019228207641,0.0013019310591706,-0.001301932646789,0.0013019207742886,-0.0013019306078162,0.001301922897243,-0.0010641352851636,0.001064118766699,-0.0010641290682479,0.0010641250965339,-0.001064115100276,0.0010641393940867,-0.0010641394215476,0.0010641144169447,7.5182629135229e-09,-7.711385863367e-09,-0.0010568768164985,0.0010568766067778,2.9885350613641e-09,-3.3046420818646e-09,-0.0013019233389017,0.0013019303138386,-0.0013019253947321,0.0013019282001169,-0.0013019284384719,0.00130192526674,-0.00130193049392,0.0013019231538331,-0.0010641356662483,0.0010641184770675,-0.0010641207338258,0.0010641333598059,0.74303043756739,131329,3014,0.0043948980606778,0.0043948980636748,0.0043948980645092,29.614113648426,-3.0870908125933e-06,-3.0870908125933e-06,-3.0870908125933e-06,4471748.1969814,0.013274142973906
33819200,0.99837369998542,0.014131072694314,0.0047103575637565,0.0047103575651062,0.0047103575654517,-0.0010574255536483,0.0010574275887291,-6.7207436701589e-09,8.761139843427e-09,-1.1276544517629e-08,1.3836095721244e-08,-0.0013026431644678,0.001302631769392,-0.0013026379954199,0.0013026369250782,-0.0013026352676223,0.0013026400254332,-0.0013026301064779,0.0013026451903378,-0.0010647364223735,0.0010647315823228,-0.0010647212445416,0.0010647467391933,1.1104211733985e-08,-1.3637153789524e-08,-4.1961113389225e-09,2.1757232182732e-09,-0.0010574275763193,0.0010574255671756,-0.0013026356027153,0.0013026396517828,-0.0013026335667794,0.0013026417702652,-0.0013026433554998,0.0013026315236378,-0.0013026413194995,0.0013026336433028,-0.001064742167553,0.0010647257006467,-0.0010647359638291,0.0010647320246913,-0.0010647220580358,0.0010647462557148,-0.0010647462755662,0.0010647213783344,7.5663467640942e-09,-7.7615362422191e-09,-0.0010574266770881,0.001057426466694,2.9837850141954e-09,-3.3016758896709e-09,-0.001302634052354,0.0013026410576751,-0.0013026361059365,0.0013026389466951,-0.0013026391848226,0.0013026359780512,-0.0013026412379256,0.0013026338679142,-0.0010647426224016,0.0010647253356871,-0.0010647275959124,0.0010647403163262,0.74517770450095,131329,3014,0.0043971810116748,0.0043971810139877,0.004397181014581,29.917788427212,-6.5769258230677e-07,-6.5769258230677e-07,-6.5769258230677e-07,4474322.3695156,0.013281089087028
34019200,0.99845133882763,0.014132168530928,0.0047107228426277,0.0047107228439776,0.0047107228443231,-0.001057968202712,0.0010579702355722,-6.7715432855302e-09,8.8099795934061e-09,-1.1230972740963e-08,1.3788102886627e-08,-0.0013033453209826,0.0013033339215359,-0.0013033401187067,0.0013033391103966,-0.0013033374551997,0.0013033421463571,-0.0013033322608164,0.0013033473444396,-0.0010653350373579,0.001065330066915,-0.0010653197631469,0.0010653453225165,1.105711834665e-08,-1.3586288048814e-08,-4.1896119631137e-09,2.1724225184011e-09,-0.0010579702228526,0.0010579682164943,-0.0013033377704677,0.0013033417926091,-0.0013033357377509,0.0013033439077911,-0.0013033454907891,0.0013033336971895,-0.0013033434580038,0.0013033358135665,-0.0010653406941478,0.001065324273274,-0.0010653345011088,0.0010653305887464,-0.0010653206555383,0.0010653447579796,-0.0010653447764665,0.0010653199764294,7.6153199976132e-09,-7.8109643232839e-09,-0.0010579693250122,0.001057969114608,2.9792717369258e-09,-3.2975094235124e-09,-0.0013033361916098,0.0013033432270867,-0.0013033382423443,0.0013033411190333,-0.0013033413568719,0.001303338114657,-0.0013033434071221,0.0013033360074643,-0.00106534121903,0.0010653238378571,-0.0010653260968283,0.0010653389154507,0.72426546484246,131329,3014,0.0043994339826084,0.0043994339848096,0.0043994339853747,30.221525297548,1.772202380385e-06,1.772202380385e-06,1.772202380385e-06,4476857.3075711,0.013287943879981
34219200,0.99852783956435,0.014133216410452,0.004711072135802,0.0047110721371521,0.0047110721374976,-0.0010590812885916,0.0010590833141146,-6.8246771322983e-09,8.8525261839899e-09,-1.1153340436164e-08,1.3698162941554e-08,-0.0013045972363741,0.0013045858558723,-0.0013045920030534,0.001304591077316,-0.0013045894250145,0.0013045940239701,-0.001304584199459,0.0013045992545001,-0.0010665043874227,0.0010664992509205,-0.0010664889967674,0.0010665145787728,1.0982733307744e-08,-1.3522815149489e-08,-4.1850287503768e-09,2.1575587993868e-09,-0.0010590833075046,0.0010590812980752,-0.0013045897122914,0.0013045936979371,-0.0013045876865227,0.0013045958072753,-0.0013045973865323,0.0013045856474669,-0.0013045953607568,0.0013045877581068,-0.0010665099458873,0.0010664935660901,-0.0010665037502625,0.0010664998438398,-0.001066490004236,0.0010665139364836,-0.0010665140000978,0.0010664893039608,7.6729771701379e-09,-7.8558235064549e-09,-0.0010590824055992,0.0010590822008737,2.9724287237693e-09,-3.2788930699939e-09,-0.001304588102444,0.001304595164232,-0.0013045901435486,0.0013045930639138,-0.0013045933013649,0.0013045900169713,-0.0013045953421259,0.0013045879174511,-0.0010665105294438,0.0010664930792413,-0.0010664952959982,0.0010665082480695,0.70594349999046,131329,3014,0.0044040528591859,0.004404052865146,0.0044040528669971,30.833549357167,6.6683948573335e-06,6.6683948573335e-06,6.6683948573335e-06,4485707.3572773,0.01330198945123
34419200,0.99860320538976,0.014134253323771,0.0047114177735749,0.0047114177749255,0.0047114177752712,-0.0010602674579285,0.0010602694826988,-6.8750899584269e-09,8.9039559420226e-09,-1.1091350508091e-08,1.3637120838319e-08,-0.0013058898972407,0.0013058785215728,-0.0013058846294209,0.0013058837766022,-0.0013058821272394,0.0013058866492124,-0.0013058768672628,0.0013058919134356,-0.0010677346582569,0.0010677293857629,-0.0010677191811731,0.0010677448260337,1.0915238984777e-08,-1.3442221856636e-08,-4.1662420257569e-09,2.1503320161071e-09,-0.0010602694719871,0.0010602674702535,-0.0013058823943788,0.0013058863433155,-0.001305880377001,0.0013058884435758,-0.0013058900197967,0.0013058783431746,-0.0013058880023069,0.00130588044463,-0.0010677400984064,0.0010677238132476,-0.0010677339410698,0.0010677300760718,-0.00106772027483,0.0010677440754397,-0.0010677441195386,0.0010677195813505,7.7178794822561e-09,-7.9073029426464e-09,-0.0010602685750148,0.0010602683676795,2.95907744423e-09,-3.2713482058079e-09,-0.0013058807532485,0.0013058878405905,-0.001305882788215,0.0013058857477615,-0.0013058859846416,0.0013058826617697,-0.0013058880191104,0.0013058805697359,-0.0010677407769282,0.0010677232270083,-0.0010677254553958,0.00106773849531,0.70867959775073,131329,3014,0.0044089743674574,0.0044089743707919,0.0044089743717283,31.477456529748,1.1819652237982e-05,1.1819652237982e-05,1.1819652237982e-05,4495749.0303195,0.01331695333235
34619200,0.99867729979814,0.014135318879429,0.0047117729587939,0.0047117729601448,0.0047117729604906,-0.0010614546585617,0.0010614566815401,-6.9256135999938e-09,8.9537574593263e-09,-1.1038746740188e-08,1.3583448687437e-08,-0.0013071890234461,0.0013071776473813,-0.0013071837220326,0.001307182935671,-0.0013071812889942,0.0013071857396382,-0.0013071759954499,0.0013071910370828,-0.001068968273667,0.0010689628685026,-0.0010689527048426,0.0010689784129707,1.0860989222032e-08,-1.3380304159192e-08,-4.1511771903762e-09,2.1419408285586e-09,-0.0010614566692605,0.0010614546720463,-0.0013071815346543,0.0013071854555025,-0.001307179524848,0.0013071875477992,-0.001307189121669,0.0013071774942895,-0.0013071871118143,0.0013071795877632,-0.0010689736102169,0.0010689573969593,-0.0010689674818004,0.001068963642184,-0.0010689538796417,0.0010689775703658,-0.0010689776075774,0.0010689531868275,7.7652785780403e-09,-7.9578006288297e-09,-0.0010614557749452,0.0010614555666792,2.9471406757283e-09,-3.2620530763853e-09,-0.0013071798664832,0.0013071869798227,-0.0013071818945715,0.0013071848942672,-0.0013071851305611,0.0013071817684184,-0.0013071871581925,0.0013071796836856,-0.001068974370976,0.0010689567261915,-0.0010689589567388,0.0010689720933017,0.73613740011218,131329,3014,0.0044139002280091,0.0044139002305004,0.0044139002311556,32.122160624137,1.6977284993095e-05,1.6977284993095e-05,1.6977284993095e-05,4505502.1040046,0.013331931100432
34819200,0.99875112868558,0.0141363903769,0.0047121301246174,0.0047121301259684,0.0047121301263142,-0.0010631332316277,0.0010631352473489,-6.983022395518e-09,8.9996453566296e-09,-1.0983047199624e-08,1.3514499834072e-08,-0.0013090585505264,0.0013090471771402,-0.0013090532154927,0.0013090525009259,-0.0013090508560753,0.001309055227137,-0.001309045528791,0.0013090605594906,-0.0010707270941445,0.0010707215292201,-0.0010707113975682,0.0010707371497367,1.0778135589873e-08,-1.3311314467181e-08,-4.1399156458696e-09,2.1175381606302e-09,-0.0010631352420297,0.0010631332403425,-0.0013090510796973,0.0013090549646609,-0.0013090490821672,0.0013090570456429,-0.0013090586156348,0.0013090470528278,-0.0013090566185513,0.0013090491350908,-0.0010707323289283,0.0010707161725722,-0.0010707262100489,0.0010707223608208,-0.0010707127145034,0.0010707362106894,-0.0010707363055771,0.0010707119921411,7.8204460095367e-09,-7.9976867588652e-09,-0.0010631343424124,0.0010631341410228,2.9400257253057e-09,-3.2408610873743e-09,-0.0013090493825324,0.001309056518789,-0.0013090513998372,0.0013090544417672,-0.0013090546773227,0.0013090512750321,-0.0013090566947141,0.0013090491986399,-0.0010707331506047,0.0010707154490819,-0.0010707176302239,0.0010707308982808,0.74236048684842,131329,3014,0.0044208655396129,0.0044208655466534,0.0044208655488566,33.053307203093,2.442645762474e-05,2.442645762474e-05,2.442645762474e-05,4518946.7428162,0.013353113318288
35019200,0.99882484436237,0.014137424105706,0.0047124747008855,0.0047124747022372,0.0047124747025832,-0.0010649776487243,0.001064979664109,-7.0331483457928e-09,9.0513996781294e-09,-1.0929249362934e-08,1.3462376647458e-08,-0.001311122103487,0.001311110729607,-0.0013111167340505,0.0013111160869332,-0.0013111144449192,0.0013111187445792,-0.0013111090832477,0.0013111241105107,-0.0010726622354414,0.0010726565408028,-0.0010726464540634,0.0010726722749425,1.0724499443772e-08,-1.3244343977491e-08,-4.1163750272776e-09,2.1059116754547e-09,-0.0010649796544966,0.0010649776603247,-0.0013111146456542,0.0013111185053791,-0.0013111126594456,0.0013111205742467,-0.0013111221419198,0.0013111106343707,-0.0013111201561397,0.0013111127044862,-0.0010726673545195,0.0010726512932273,-0.0010726612839948,0.0010726574592631,-0.0010726478457193,0.0010726712358058,-0.0010726713122324,0.0010726471272929,7.8650212910572e-09,-8.049571024513e-09,-0.0010649787598802,0.0010649785555258,2.9216234434534e-09,-3.2288968165657e-09,-0.0013111129244712,0.0013111200833163,-0.0013111149322891,0.0013111180168553,-0.0013111182517048,0.001311114807748,-0.0013111202595256,0.0013111127419993,-0.0010726682702893,0.0010726504704155,-0.0010726526624346,0.0010726660202376,0.72136489536238,131329,3014,0.0044285190983319,0.0044285191024394,0.0044285191036465,34.085549156203,3.2684393249628e-05,3.2684393249628e-05,3.2684393249628e-05,4533834.7251489,0.013376389376678
35219200,0.99889816432266,0.01413841958426,0.0047128065270702,0.004712806528422,0.004712806528768,-0.0010668414634863,0.0010668434784566,-7.0803044671763e-09,9.0997650213367e-09,-1.0886355366669e-08,1.3420612874607e-08,-0.0013131587784189,0.0013131473998485,-0.0013131533769593,0.0013131527884696,-0.0013131511484552,0.0013131553865612,-0.0013131457548087,0.0013131607841771,-0.0010746021490725,0.0010745963352466,-0.0010745862824433,0.0010746121707788,1.0698243014813e-08,-1.321053552439e-08,-4.1000469476407e-09,2.0963116452042e-09,-0.0010668434668846,0.0010668414764723,-0.0013131513232751,0.0013131551732715,-0.0013131493454807,0.0013131572333961,-0.0013131588002558,0.0013131473227638,-0.0013131568225266,0.001313149384086,-0.0010746071780084,0.0010745911735782,-0.0010746011408507,0.001074597321045,-0.0010745877273636,0.0010746110631454,-0.0010746111314303,0.0010745870091267,7.9144852977892e-09,-8.1029381584778e-09,-0.001066842574567,0.0010668423691804,2.9038261718096e-09,-3.214389136633e-09,-0.001313149585008,0.0013131567681241,-0.0013131515824736,0.0013131547128266,-0.0013131549470831,0.0013131514584976,-0.001313156944266,0.0013131494040586,-0.0010746081698271,0.0010745902725379,-0.0010745924652244,0.0010746059263167,0.70214230481979,131329,3014,0.0044362522038181,0.0044362522067386,0.0044362522075437,35.120130234798,4.0961041878383e-05,4.0961041878383e-05,4.0961041878383e-05,4546247.9368488,0.013399905664919
35419200,0.99896993883262,0.014139359988767,0.0047131199952392,0.0047131199965911,0.0047131199969371,-0.0010683163380247,0.0010683183555855,-7.125857470681e-09,9.1511730764736e-09,-1.0896831323195e-08,1.343786456355e-08,-0.0013147493734005,0.0013147379535443,-0.0013147439390676,0.0013147433738715,-0.0013147417348913,0.0013147459498375,-0.0013147363085089,0.001314751379111,-0.0010761267614781,0.0010761208723791,-0.0010761108194854,0.0010761368210668,1.0723191034759e-08,-1.3223588755648e-08,-4.0885993275741e-09,2.0957797214513e-09,-0.0010683183398137,0.0010683163537598,-0.0013147418910545,0.0013147457564097,-0.0013147399166351,0.0013147478120898,-0.0013147493804955,0.0013147378935909,-0.0013147474063089,0.0013147399503901,-0.0010761317381499,0.0010761157544787,-0.0010761257307529,0.0010761219072496,-0.0010761122749118,0.0010761356700353,-0.0010761357061548,0.0010761115667671,7.9600278736713e-09,-8.1587234982446e-09,-0.0010683174514083,0.0010683172420578,2.8914210987761e-09,-3.2111299442874e-09,-0.0013147401458567,0.0013147473579471,-0.0013147421385519,0.0013147453082655,-0.0013147455417017,0.0013147420144973,-0.0013147475341662,0.0013147399657095,-0.0010761327932909,0.0010761147825778,-0.0010761169996793,0.0010761305447138,0.68162298636268,131329,3014,0.0044423710327659,0.0044423710326799,0.0044423710324533,35.931852908066,4.7454823264528e-05,4.7454823264528e-05,4.7454823264528e-05,4555801.7263268,0.013418511668184
35619200,0.99903935611338,0.014140230677474,0.0047134102248077,0.0047134102261599,0.0047134102265061,-0.001069503945427,0.0010695059641883,-7.1748949477668e-09,9.2009036547679e-09,-1.0953923020083e-08,1.349605775317e-08,-0.0013159956385396,0.0013159841488948,-0.0013159901713409,0.0013159896023019,-0.0013159879614412,0.0013159921834887,-0.0013159825023448,0.0013159976455846,-0.0010773403361542,0.001077334389098,-0.0010773242938681,0.0010773504307022,1.0775364509578e-08,-1.3281485375511e-08,-4.090638289208e-09,2.0928217359192e-09,-0.0010695059501046,0.0010695039599717,-0.0013159881042711,0.001315992003629,-0.0013159861300955,0.0013159940591478,-0.0013159956299084,0.0013159841037517,-0.001315993656236,0.0013159861602619,-0.0010773453065992,0.0010773292798341,-0.0010773392962243,0.0010773354289533,-0.0010773257704108,0.001077349265401,-0.0010773493109742,0.0010773250557241,8.0109640166659e-09,-8.2072524080726e-09,-0.0010695050590613,0.0010695048510716,2.891989495809e-09,-3.2094656812324e-09,-0.0013159863596259,0.0013159936047208,-0.0013159883514991,0.001315991555205,-0.0013159917882861,0.0013159882279377,-0.0013159937801981,0.0013159861791225,-0.0010773463872566,0.0010773282830124,-0.0010773304942573,0.0010773441413592,0.6572990028325,131329,3014,0.004447297393898,0.0044472973948537,0.0044472973949703,36.575866787437,5.2606934299496e-05,5.2606934299496e-05,5.2606934299496e-05,4563635.6830605,0.013433489731642
35819200,0.99910630345008,0.014141129985081,0.0047137099940099,0.0047137099953623,0.0047137099957085,-0.0010707105181278,0.0010707125390329,-7.2242150418953e-09,9.2505605228729e-09,-1.1020840467712e-08,1.3563551235555e-08,-0.0013172080248491,0.001317196460924,-0.0013172025249489,0.00131720194756,-0.001317200302952,0.0013172045403877,-0.0013171948109168,0.0013172100360484,-0.0010785577792893,0.0010785517773036,-0.0010785416291884,0.001078567906379,1.0842230994434e-08,-1.3358545363311e-08,-4.0976106909633e-09,2.0909873761491e-09,-0.0010707125269559,0.0010707105314817,-0.001317200430793,0.0013172043743793,-0.0013171984554021,0.0013172064317534,-0.00131720800461,0.0013171964266486,-0.0013172060292758,0.0013171984851736,-0.00107856275784,0.001078546663797,-0.0010785567330023,0.0010785528080515,-0.0010785431219403,0.0010785667425348,-0.0010785668096958,0.0010785423979166,8.0633337663354e-09,-8.2541535440104e-09,-0.0010707116323094,0.0010707114264798,2.8966760358296e-09,-3.2092563139225e-09,-0.0013171986909113,0.0013172059704532,-0.0013172006843824,0.0013172039192812,-0.001317204153098,0.0013172005609669,-0.0013172061462548,0.0013171985106375,-0.001078563851228,0.0010785456594007,-0.0010785478554816,0.0010785616093224,0.69619236228118,131329,3014,0.0044523016433088,0.0044523016459586,0.0044523016466879,37.216060787185,5.7728486297481e-05,5.7728486297481e-05,5.7728486297481e-05,4572287.3700098,0.013448702409548
36019200,0.99917069475146,0.014142052540688,0.0047140175125455,0.0047140175138982,0.0047140175142445,-0.0010718846357853,0.0010718866597994,-7.2722625518415e-09,9.3015720557703e-09,-1.1090671964055e-08,1.3637044693057e-08,-0.0013184742726279,0.0013184626309547,-0.001318468739721,0.0013184681506071,-0.0013184665031756,0.0013184707582565,-0.0013184609781289,0.0013184762869398,-0.001079772626114,0.0010797665777078,-0.001079756378731,0.0010797828035709,1.091219055238e-08,-1.3432310419427e-08,-4.1027594503257e-09,2.0930981502286e-09,-0.0010718866475894,0.0010718846492172,-0.0013184666185614,0.0013184706046854,-0.0013184646407775,0.0013184726644784,-0.0013184742400463,0.0013184626090056,-0.0013184722623081,0.0013184646699533,-0.0010797776104853,0.0010797614583209,-0.0010797715783331,0.0010797676094987,-0.001079757875553,0.0010797816362425,-0.0010797817044801,0.0010797571502617,8.1128949907446e-09,-8.3037630895023e-09,-0.0010718857516022,0.0010718855455354,2.9001848411086e-09,-3.2128817587706e-09,-0.001318464882254,0.0013184721970422,-0.0013184668780701,0.0013184701434445,-0.001318470377532,0.0013184667545526,-0.001318472373028,0.0013184647018031,-0.0010797787246499,0.0010797604334006,-0.0010797626315436,0.001079776480208,0.73586311027227,131329,3014,0.0044571726959043,0.0044571726984368,0.0044571726991224,37.856120888567,6.2848967108533e-05,6.2848967108533e-05,6.2848967108533e-05,4579232.952448,0.013463515437252
36219200,0.9992303594866,0.014142876377867,0.0047142921249385,0.0047142921262913,0.0047142921266377,-0.0010718037956812,0.0010718058287708,-7.3134185841706e-09,9.3553005544604e-09,-1.1220982116993e-08,1.3782342680598e-08,-0.0013185213566062,0.0013185095980514,-0.0013185157913484,0.0013185151486582,-0.0013185134968583,0.0013185178179261,-0.0013185079395485,0.001318523377666,-0.0010797260177151,0.001079719986337,-0.0010797097003634,0.0010797363265251,1.1070830061029e-08,-1.3583875683501e-08,-4.1206226832463e-09,2.1181221714739e-09,-0.0010718058113144,0.001071803812558,-0.0013185136042032,0.001318517672914,-0.0013185116116736,0.0013185197464189,-0.001318521328841,0.0013185095745451,-0.0013185193363681,0.0013185116491686,-0.0010797310680583,0.0010797147906578,-0.0010797250155698,0.0010797210028767,-0.0010797111078707,0.0010797352122046,-0.0010797352296859,0.0010797104065416,8.1578531837144e-09,-8.3620202490213e-09,-0.001071804917757,0.0010718047058004,2.9113798115658e-09,-3.2362704629235e-09,-0.001318511886214,0.0013185192461712,-0.0013185138944904,0.0013185171816452,-0.0013185174163279,0.0013185137697675,-0.0013185194241586,0.0013185117061741,-0.0010797321836262,0.0010797137564853,-0.0010797160011034,0.0010797299144169,0.71361056308116,131329,3014,0.004456838866932,0.0044568388657258,0.0044568388650709,37.827198867346,6.2617590938771e-05,6.2617590938771e-05,6.2617590938771e-05,4574963.6466936,0.013462505541297
36419200,0.9992847888431,0.014143616805858,0.0047145389342687,0.0047145389356215,0.0047145389359678,-0.0010711878242155,0.0010711898628153,-7.3629984075999e-09,9.4087264002492e-09,-1.1385475336073e-08,1.3951841051127e-08,-0.0013179524742838,0.0013179405767101,-0.0013179468750083,0.0013179461619126,-0.0013179445031053,0.0013179489078286,-0.0013179389117828,0.0013179545021572,-0.0010791161921936,0.0010791101721913,-0.0010790997627263,0.0010791266027992,1.1212604877545e-08,-1.3740951233964e-08,-4.1514211716636e-09,2.1358152861806e-09,-0.0010711898480755,0.0010711878394434,-0.0013179446137582,0.0013179487592059,-0.0013179426054172,0.0013179508491507,-0.001317952437182,0.0013179405607636,-0.0013179504288974,0.0013179426518463,-0.0010791213336798,0.0010791048898756,-0.001079115223209,0.0010791111405647,-0.0010791011427976,0.001079125534328,-0.0010791255630247,0.0010791004411417,8.2077901060581e-09,-8.4070541500901e-09,-0.0010711889490196,0.0010711887385708,2.9415116113982e-09,-3.2623816198044e-09,-0.0013179429094736,0.0013179503187104,-0.0013179449359604,0.0013179482350089,-0.0013179484710983,0.0013179448104847,-0.0013179504971837,0.0013179427276433,-0.0010791224192057,0.0010791038900015,-0.0010791061380226,0.001079120136047,0.70434021169823,131329,3014,0.0044542841201226,0.004454284121141,0.0044542841212911,37.495756742773,5.9966053942188e-05,5.9966053942188e-05,5.9966053942188e-05,4566762.2626748,0.013454739092211
36619200,0.99933448645605,0.014144250589418,0.0047147501954552,0.0047147501968083,0.0047147501971547,-0.0010705693254741,0.0010705713687,-7.41033417526e-09,9.4593947436603e-09,-1.1511154053969e-08,1.4081840145685e-08,-0.0013173501148603,0.0013173381048639,-0.0013173444831133,0.0013173437229105,-0.0013173420587185,0.0013173465211063,-0.001317336434891,0.0013173521482857,-0.0010784935988685,0.0010784875697912,-0.0010784770666476,0.0010785040901147,1.1339015855532e-08,-1.3878803281776e-08,-4.1820304678583e-09,2.156816079311e-09,-0.0010705713555201,0.0010705693395978,-0.0013173421652485,0.0013173463762611,-0.0013173401399862,0.0013173484835754,-0.001317350076338,0.0013173380893863,-0.0013173480511053,0.0013173401978668,-0.0010784988131084,0.0010784822175187,-0.001078492645844,0.0010784885131457,-0.0010784784134574,0.0010785030666315,-0.0010785030966955,0.0010784777171886,8.2591105142843e-09,-8.4557100289217e-09,-0.0010705704527484,0.0010705702426035,2.9673537992018e-09,-3.2862146644272e-09,-0.0013173404692867,0.0013173479273024,-0.0013173425120738,0.0013173458268075,-0.0013173460642385,0.0013173423857697,-0.0013173481066369,0.0013173402861338,-0.001078499878559,0.001078481240516,-0.0010784834957173,0.0010784975811806,0.66675282097885,131329,3014,0.0044517184605415,0.0044517184625031,0.0044517184629892,37.157336708639,5.7258693669112e-05,5.7258693669112e-05,5.7258693669112e-05,4559021.5546733,0.01344693813657
36819200,0.99937992042327,0.014144812704766,0.0047149375672375,0.0047149375685908,0.0047149375689372,-0.0010699866928441,0.0010699887404396,-7.4581058396331e-09,9.5112064637889e-09,-1.1612797141607e-08,1.4188609616951e-08,-0.0013166999306569,0.0013166878224435,-0.0013166942657583,0.0013166934737149,-0.0013166918053472,0.0013166963081846,-0.0013166861483785,0.0013167019686042,-0.0010778785647134,0.0010778725110834,-0.0010778619335472,0.0010778891275988,1.14382081774e-08,-1.3984311559649e-08,-4.2082104916601e-09,2.1778659057502e-09,-0.0010699887274446,0.0010699867068277,-0.0013166919080124,0.0013166961671532,-0.0013166898671597,0.0013166982902578,-0.0013166998868842,0.0013166878119211,-0.0013166978460596,0.0013166899361981,-0.0010778838269671,0.0010778671110309,-0.0010778776122443,0.0010778734519029,-0.0010778632618218,0.0010778881251794,-0.0010778881464454,0.0010778625748302,8.3081741683351e-09,-8.5050638389614e-09,-0.0010699878227425,0.0010699876117778,2.9910345726234e-09,-3.3105154218498e-09,-0.0013166902121651,0.0013166977179575,-0.0013166922708456,0.0013166956013453,-0.0013166958399231,0.0013166921436334,-0.0013166978982185,0.0013166900278807,-0.0010778848885615,0.0010778661385191,-0.0010778684085434,0.0010778825747976,0.64957834982379,131329,3014,0.0044493003075622,0.0044493003096139,0.0044493003101285,36.818671347439,5.454937077951e-05,5.454937077951e-05,5.454937077951e-05,4553188.7076336,0.013439581333044
37019200,0.99942269397895,0.014145381374863,0.0047151271239365,0.0047151271252899,0.0047151271256364,-0.0010703927937618,0.0010703948387082,-7.509998940011e-09,9.5578464106471e-09,-1.1608076964864e-08,1.417798222611e-08,-0.0013170453071412,0.0013170331703375,-0.0013170396098646,0.001317038854978,-0.0013170371862122,0.0013170416505718,-0.0013170314968658,0.0013170473442889,-0.0010782694949557,0.001078263330515,-0.0010782527511681,0.0010782800282328,1.1424500533953e-08,-1.3980512395491e-08,-4.221497876792e-09,2.1822598164747e-09,-0.0010703948294194,0.0010703928052451,-0.0013170372747192,0.0013170415230488,-0.0013170352284336,0.0013170436525036,-0.0013170452476672,0.0013170331732679,-0.0013170432014108,0.0013170353038615,-0.0010782747199598,0.0010782579747003,-0.0010782684729247,0.001078264319083,-0.0010782541505372,0.0010782789811215,-0.0010782790262612,0.0010782534577512,8.3622688118985e-09,-8.5506467456996e-09,-0.0010703939215338,0.0010703937138006,3.0032933338178e-09,-3.3152490807986e-09,-0.0013170355544016,0.001317043098672,-0.0013170376181334,0.0013170409759783,-0.0013170412152164,0.0013170374910454,-0.0013170432786431,0.0013170353690846,-0.0010782758135548,0.0010782569759572,-0.0010782592273867,0.0010782735025585,0.68961816854111,131329,3014,0.0044509835566487,0.0044509835612025,0.0044509835625921,37.016512366479,5.6132098931831e-05,5.6132098931831e-05,5.6132098931831e-05,4557650.9663243,0.013444694632952
37219200,0.99946320320436,0.014145960237164,0.0047153200780365,0.0047153200793903,0.0047153200797369,-0.0010709975226309,0.0010709995646294,-7.5617293371829e-09,9.6076797999477e-09,-1.1545952674718e-08,1.4113725188237e-08,-0.0013176970678888,0.0013176849356201,-0.0013176913366402,0.0013176906541047,-0.001317688989294,0.0013176933740548,-0.0013176832656159,0.0013176991014896,-0.0010788951533966,0.0010788888467622,-0.0010788783168786,0.0010789056504352,1.1382481916609e-08,-1.3930784594668e-08,-4.2210429322656e-09,2.1885579364091e-09,-0.0010709995542924,0.0010709975346696,-0.0013176890530275,0.0013176932716688,-0.0013176870047066,0.0013176954026219,-0.0013176969952774,0.0013176849524811,-0.0013176949470949,0.0013176870849249,-0.0010789002880335,0.001078883577827,-0.0010788940417665,0.0010788899336689,-0.0010788797771099,0.0010789045314985,-0.0010789045587267,0.0010788790936113,8.4086835311666e-09,-8.6008908295126e-09,-0.0010709986493786,0.0010709984401022,3.0048264224242e-09,-3.3202121270486e-09,-0.0013176873005864,0.0013176948792897,-0.0013176893669515,0.0013176927544974,-0.0013176929934315,0.00131768923935,-0.0013176950593836,0.0013176871154584,-0.0010789014493781,0.0010788825084912,-0.0010788847730802,0.0010788991336836,0.73362544449573,131329,3014,0.0044534924007688,0.0044534924043,0.0044534924053771,37.343543724632,5.8748349797054e-05,5.8748349797054e-05,5.8748349797054e-05,4562395.5305698,0.013452323906294
37419200,0.99950152281534,0.014146466423086,0.0047154888066773,0.0047154888080312,0.0047154888083778,-0.0010715636045,0.0010715656440617,-7.6109162120576e-09,9.6555262085375e-09,-1.1484332610875e-08,1.4050277057886e-08,-0.0013184040849456,0.0013183919589085,-0.0013183983211015,0.0013183977093191,-0.0013183960479376,0.001318400355514,-0.0013183902920083,0.0013184061150494,-0.0010795114461542,0.0010795050034252,-0.0010794945208799,0.0010795219078861,1.130831145019e-08,-1.3847473275272e-08,-4.2183161485555e-09,2.1937811489692e-09,-0.0010715656317125,0.0010715636180309,-0.0013183960977964,0.0013184002671303,-0.00131839404841,0.0013184023989695,-0.0013184039881749,0.0013183920009512,-0.0013184019388257,0.0013183941339745,-0.0010795164808615,0.0010794998322956,-0.0010795102378367,0.0010795061959637,-0.0010794960727857,0.001079520686411,-0.001079520697327,0.0010794954007897,8.4576282169988e-09,-8.6531535055414e-09,-0.0010715647303412,0.0010715645197184,3.0044057435845e-09,-3.322814840464e-09,-0.0013183943035415,0.0013184019167377,-0.0013183963707221,0.0013183997915167,-0.0013184000303968,0.0013183962432212,-0.001318402097203,0.0013183941188385,-0.0010795177251229,0.0010794986780264,-0.0010795009521834,0.0010795154043786,0.6866556030801,131329,3014,0.004455842380277,0.0044558423827279,0.0044558423833835,37.673623148728,6.1388985189822e-05,6.1388985189822e-05,6.1388985189822e-05,4565023.9822844,0.013459475287078
37619200,0.99953772176828,0.014146926255083,0.0047156420840095,0.0047156420853636,0.0047156420857102,-0.0010721660429499,0.0010721680787268,-7.6624118219021e-09,9.7034291376359e-09,-1.1409539821273e-08,1.3971164578689e-08,-0.0013190460617671,0.0013190339500668,-0.0013190402647814,0.0013190397335649,-0.0013190380758427,0.0013190422952683,-0.0013190322867555,0.0013190480879242,-0.0010801314708828,0.0010801248762537,-0.0010801144492579,0.0010801418790865,1.123556896858e-08,-1.3769758417641e-08,-4.2163935065028e-09,2.1960091659849e-09,-0.0010721680662843,0.0010721660565164,-0.0013190381048777,0.0013190422277234,-0.0013190360553885,0.001319044359636,-0.0013190459454113,0.0013190340117668,-0.0013190438959377,0.0013190361448842,-0.0010801364021931,0.0010801198082144,-0.0010801301597749,0.0010801261730648,-0.0010801160927957,0.0010801405640604,-0.0010801405692599,0.0010801154260423,8.5068929523773e-09,-8.7027450878467e-09,-0.0010721671668759,0.0010721669562175,3.0044660239341e-09,-3.3231414736767e-09,-0.0013190362708685,0.0013190439172559,-0.0013190383382355,0.00131904179193,-0.0013190420306739,0.0013190382107823,-0.0013190440976262,0.0013190360863154,-0.0010801377223991,0.0010801185774921,-0.0010801208533181,0.0010801354011555,0.66415287114338,131329,3014,0.004458341490922,0.0044583414932532,0.0044583414938601,38.003810161939,6.4030481295514e-05,6.4030481295514e-05,6.4030481295514e-05,4569960.7759719,0.013467074369497
37819200,0.99957094701011,0.014147330184463,0.004715776727136,0.0047157767284902,0.0047157767288368,-0.001071830088043,0.0010718321236494,-7.7118285116091e-09,9.7543818564182e-09,-1.1388929674928e-08,1.3952362578489e-08,-0.0013186609477591,0.0013186488142878,-0.0013186551170522,0.0013186546309425,-0.0013186529753127,0.0013186571464909,-0.0013186471524485,0.0013186629722449,-0.0010797688947195,0.001079762193153,-0.0010797517855973,0.0010797793046473,1.1223619549427e-08,-1.3749702935721e-08,-4.2215538092796e-09,2.2083948300078e-09,-0.0010718321090709,0.0010718301029444,-0.0013186529885602,0.001318657095463,-0.0013186509329601,0.0013186592328697,-0.0013186608183176,0.0013186488902289,-0.0013186587628698,0.0013186510289537,-0.0010797737674101,0.0010797571797065,-0.001079767517592,0.0010797635715226,-0.0010797534702219,0.0010797779314142,-0.0010797779092431,0.001079752818382,8.5526602759523e-09,-8.7548140523814e-09,-0.0010718312127155,0.0010718309993069,3.0108915419478e-09,-3.3353612681939e-09,-0.0013186511272771,0.0013186588122513,-0.0013186532011313,0.0013186566808106,-0.001318656919569,0.0013186530730364,-0.0013186589930483,0.0013186509425694,-0.0010797751450808,0.0010797558871459,-0.001079758186101,0.0010797728114968,0.64016142578385,131329,3014,0.0044569468789596,0.0044569468796291,0.0044569468796438,37.803883009078,6.2431064072622e-05,6.2431064072622e-05,6.2431064072622e-05,4566765.484652,0.013462830495704
38019200,0.99960139611788,0.014147718334681,0.0047159061105418,0.0047159061118961,0.0047159061122428,-0.0010714366366985,0.0010714386711593,-7.7624535803715e-09,9.8030357740156e-09,-1.1371516965845e-08,1.3932532531165e-08,-0.0013181595823054,0.0013181474277488,-0.0013181537186415,0.0013181532775677,-0.0013181516221426,0.0013181557476078,-0.0013181457662028,0.0013181616067147,-0.0010793326214772,0.001079325806289,-0.0010793154096835,0.0010793430101223,1.1203671476352e-08,-1.3731758523979e-08,-4.230289030556e-09,2.2153745759691e-09,-0.0010714386573458,0.0010714366512517,-0.0013181516202841,0.0013181557110104,-0.0013181495597091,0.0013181578537275,-0.0013181594377102,0.0013181475185683,-0.0013181573770366,0.0013181496626742,-0.0010793374414856,0.0010793208467849,-0.0010793311718653,0.0010793272488179,-0.0010793171580205,0.0010793415811901,-0.001079341563085,0.0010793165087107,8.6033306389487e-09,-8.8030817934527e-09,-0.0010714377607556,0.0010714375480217,3.0197958049728e-09,-3.3422537569125e-09,-0.0013181497319521,0.0013181574547401,-0.0013181518112125,0.001318155318056,-0.0013181555574791,0.0013181516827572,-0.0013181576361476,0.0013181495470976,-0.0010793388656999,0.0010793195105919,-0.0010793218072698,0.0010793365295804,0.66569814866837,131329,3014,0.0044553129676178,0.0044553129691526,0.0044553129695261,37.559482060681,6.0475856485448e-05,6.0475856485448e-05,6.0475856485448e-05,4564001.5197818,0.013457856432946
38219200,0.99962932562937,0.014148077578049,0.0047160258583313,0.0047160258596856,0.0047160258600324,-0.0010710170566795,0.0010710190894865,-7.8124752493027e-09,9.8508455819e-09,-1.1351444383548e-08,1.3909889835531e-08,-0.0013176935114375,0.0013176813371939,-0.0013176876152358,0.0013176872197374,-0.0013176855651637,0.0013176896425865,-0.0013176796768616,0.0013176955343304,-0.0010788916385281,0.0010788847105866,-0.0010788743273338,0.0010789020064725,1.117871934435e-08,-1.3707861195088e-08,-4.2368666848811e-09,2.2208875654696e-09,-0.0010710190765656,0.0010710170706158,-0.0013176855488903,0.0013176896203809,-0.0013176834843419,0.0013176917673391,-0.0013176933500877,0.001317681444126,-0.0013176912855386,0.0013176835923125,-0.0010788964026359,0.001078879809072,-0.0010788901175186,0.0010788862200115,-0.0010788761418936,0.0010789005172991,-0.0010789005010191,0.0010788754953942,8.6544740736695e-09,-8.8523154108701e-09,-0.001071018179753,0.0010710179676889,3.0260640103511e-09,-3.3468964234058e-09,-0.0013176836326419,0.0013176913922928,-0.0013176857152314,0.0013176892518816,-0.0013176894915004,0.0013176855868074,-0.001317691573656,0.0013176834472859,-0.0010788978772407,0.001078878423509,-0.0010788807181481,0.0010788955389808,0.67076172752413,131329,3014,0.0044535716984631,0.0044535717005702,0.0044535717011107,37.313933718021,5.8511469744164e-05,5.8511469744164e-05,5.8511469744164e-05,4559953.0111095,0.01345255966859
38419200,0.99965513989591,0.014148434255105,0.0047161447506831,0.0047161447520375,0.0047161447523843,-0.0010708248714466,0.0010708269018806,-7.8631619194185e-09,9.8980822983507e-09,-1.1314000570225e-08,1.386831903455e-08,-0.0013174777392467,0.0013174655572128,-0.001317471810624,0.0013174714724445,-0.0013174698188264,0.0013174738359882,-0.0013174638981878,0.0013174797606822,-0.0010786900105637,0.0010786829547158,-0.0010786725956001,0.0010787003392043,1.1135054029614e-08,-1.3666537091958e-08,-4.2385404614634e-09,2.2202751867307e-09,-0.0010708268903324,0.0010708248845975,-0.0013174697852624,0.0013174738304781,-0.001317467720625,0.0013174759780996,-0.0013174775586029,0.0013174656826704,-0.001317475493663,0.0013174678314069,-0.0010786947020122,0.0010786781292138,-0.0010786884086396,0.0010786845342651,-0.0010786744942723,0.001078698778204,-0.0010786987741944,0.0010786738450608,8.706692537843e-09,-8.9003995217276e-09,-0.0010708259928798,0.0010708257825101,3.027908160293e-09,-3.3450013866655e-09,-0.0013174678392952,0.0013174756323051,-0.0013174699216929,0.0013174734918504,-0.0013174737318441,0.0013174697934997,-0.0013174758136625,0.0013174676539156,-0.0010786962339041,0.0010786766896891,-0.0010786789722086,0.0010786938993914,0.71253733348459,131329,3014,0.0044527740363121,0.0044527740396377,0.0044527740405916,37.196413667105,5.7571309336839e-05,5.7571309336839e-05,5.7571309336839e-05,4557936.7393241,0.013450133162359
38619200,0.99967915334724,0.014148767989803,0.0047162559955823,0.0047162559969368,0.0047162559972836,-0.0010708017215172,0.0010708037486524,-7.9147649405699e-09,9.9460897877254e-09,-1.1266104268777e-08,1.3816276233804e-08,-0.0013175309482471,0.0013175187630762,-0.0013175249865055,0.0013175247117703,-0.0013175230608965,0.0013175270084934,-0.0013175171069579,0.001317532966252,-0.0010786926045634,0.0010786854147858,-0.0010786750915202,0.0010787028963736,1.1080868697872e-08,-1.3610116303817e-08,-4.2326775237813e-09,2.21609041859e-09,-0.0010708037377788,0.0010708017340474,-0.0013175230085022,0.0013175270223133,-0.0013175209471151,0.0013175291664267,-0.0013175307446374,0.0013175189109156,-0.0013175286833551,0.0013175210563496,-0.0010786972055429,0.001078680680487,-0.0010786909212161,0.00107868707586,-0.001078677076798,0.0010787012502993,-0.0010787012477893,0.0010786764261146,8.7564248141444e-09,-8.9492774734515e-09,-0.0010708028410452,0.0010708026312606,3.0241651489041e-09,-3.3403984735019e-09,-0.0013175210317008,0.001317528855219,-0.0013175231111193,0.001317526717312,-0.0013175269565537,0.0013175229831806,-0.001317529035643,0.0013175208461478,-0.0010786988072224,0.0010786791702003,-0.0010786814492996,0.0010786964768201,0.71625967098409,131329,3014,0.0044526790887032,0.0044526790921404,0.0044526790931349,37.19370723517,5.754965788136e-05,5.754965788136e-05,5.754965788136e-05,4555849.7003713,0.013449848554858
38819200,0.99970149486296,0.014149079657075,0.0047163598846729,0.0047163598860276,0.0047163598863745,-0.0010707804246599,0.0010707824504667,-7.9646286645026e-09,9.9957379373027e-09,-1.1211626449596e-08,1.3761286222387e-08,-0.0013175878224103,0.0013175756385395,-0.0013175818272697,0.001317581620168,-0.001317579971573,0.0013175838475889,-0.0013175739844203,0.0013175898383995,-0.0010786967605848,0.001078689437808,-0.0010786791560204,0.0010787070220549,1.1043491561297e-08,-1.3566412290084e-08,-4.2242790492611e-09,2.2132671278123e-09,-0.0010707824382242,0.0010707804381043,-0.0013175798940412,0.0013175838865423,-0.0013175778362266,0.0013175860268983,-0.0013175876035655,0.001317575802693,-0.0013175855457582,0.0013175779441828,-0.0010787012701177,0.0010786847921093,-0.0010786950024897,0.0010786911808897,-0.0010786812032399,0.0010787053036224,-0.0010787052924049,0.0010786805558841,8.8043407896677e-09,-9.0000856823839e-09,-0.0010707815437021,0.0010707813329478,3.01623245811e-09,-3.3349867074306e-09,-0.0013175778921949,0.0013175857444268,-0.0013175799674366,0.0013175836113026,-0.0013175838502266,0.0013175798397654,-0.0013175859250742,0.0013175777074506,-0.001078702943409,0.0010786832086423,-0.0010786854913835,0.0010787006144213,0.71844600697064,131329,3014,0.0044525918147663,0.0044525918172597,0.004452591817926,37.193612119779,5.7548896958231e-05,5.7548896958231e-05,5.7548896958231e-05,4553763.1547849,0.013449587184801
38880000,0.99970813561465,0.014149172429852,0.0047163908089318,0.0047163908102865,0.0047163908106334,-0.0010707713264116,0.0010707733519605,-7.9797699925925e-09,1.0010716269401e-08,-1.1205908236842e-08,1.3755351945558e-08,-0.0013176044059522,0.0013175922156364,-0.0013175984007942,0.0013175982072509,-0.0013175965590668,0.0013176004208023,-0.0013175905617809,0.0013176064216463,-0.0010786966279713,0.0010786892718907,-0.0010786789947013,0.0010787068866642,1.1029247605638e-08,-1.355078295539e-08,-4.2204659076443e-09,2.2106294175858e-09,-0.0010707733393527,0.0010707713401595,-0.0013175964779548,0.0013176004633807,-0.0013175944222938,0.0013176026014879,-0.0013176041775713,0.0013175923894426,-0.0013176021218616,0.0013175945287901,-0.0010787011118061,0.0010786846516489,-0.0010786948511879,0.0010786910350222,-0.0010786810690622,0.0010787051397276,-0.0010787051282654,0.0010786804210233,8.8192362804148e-09,-9.0153310920882e-09,-0.001070772445321,0.0010707722344931,3.0138024049053e-09,-3.3328294918174e-09,-0.0013175944682221,0.0013176023291468,-0.0013175965420169,0.0013176001975163,-0.0013176004362987,0.0013175964143746,-0.0013176025096337,0.0013175942836531,-0.0010787028081172,0.0010786830447089,-0.0010786853272645,0.0010787004803898,0.71909630990347,131329,3014,0.0044525543785186,0.0044525543808839,0.0044525543815101,37.193608850893,5.7548870807147e-05,5.7548870807147e-05,5.7548870807147e-05,4553103.2620536,0.01344947460112
