time,ASR_ext,ASR_strain,ASR_strain_xx,ASR_strain_yy,ASR_strain_zz,disp_x_101,disp_x_102,disp_x_103,disp_x_104,disp_x_105,disp_x_106,disp_x_p1_neg,disp_x_p1_pos,disp_x_p2_neg,disp_x_p2_pos,disp_x_p3_neg,disp_x_p3_pos,disp_x_p4_neg,disp_x_p4_pos,disp_x_p5_neg,disp_x_p5_pos,disp_x_p6_neg,disp_x_p6_pos,disp_y_101,disp_y_102,disp_y_103,disp_y_104,disp_y_105,disp_y_106,disp_y_p1_neg,disp_y_p1_pos,disp_y_p2_neg,disp_y_p2_pos,disp_y_p3_neg,disp_y_p3_pos,disp_y_p4_neg,disp_y_p4_pos,disp_y_p5_neg,disp_y_p5_pos,disp_y_p6_neg,disp_y_p6_pos,disp_y_p7_neg,disp_y_p7_pos,disp_y_p8_neg,disp_y_p8_pos,disp_z_101,disp_z_102,disp_z_103,disp_z_104,disp_z_105,disp_z_106,disp_z_p1_neg,disp_z_p1_pos,disp_z_p2_neg,disp_z_p2_pos,disp_z_p3_neg,disp_z_p3_pos,disp_z_p4_neg,disp_z_p4_pos,disp_z_p5_neg,disp_z_p5_pos,disp_z_p6_neg,disp_z_p6_pos,humidity,ndof,nelem,strain_xx,strain_yy,strain_zz,temp,thermal_strain_xx,thermal_strain_yy,thermal_strain_zz,vonmises,vstrain
2419200,0,0,0,0,0,0,0,0,0,0,0,0,0,0,0,0,0,0,0,0,0,0,0,0,0,0,0,0,0,0,0,0,0,0,0,0,0,0,0,0,0,0,0,0,0,0,0,0,0,0,0,0,0,0,0,0,0,0,0,0,0,0,0,0,0,0,0,0,0,0,0,0,0,0,0
2619200,0.019614267329969,0.00040233924096293,0.00013411308032098,0.00013411308032098,0.00013411308032098,-3.4077396795675e-05,3.4077529223987e-05,5.8677124097519e-11,7.260774757249e-11,-2.3290240520463e-10,3.7538052593591e-10,-3.3970436318162e-05,3.3970363269718e-05,-3.3970415023103e-05,3.3970351244852e-05,-3.3970234521445e-05,3.3970557327445e-05,-3.3970230528296e-05,3.397056257635e-05,-3.4988760471844e-05,3.4989079332103e-05,-3.4988745149777e-05,3.498909133966e-05,2.334734872281e-10,-3.7594022157938e-10,-3.9169185023268e-09,3.7852426589253e-09,-3.4077529337719e-05,3.4077396679266e-05,-3.3971593322748e-05,3.3969139947197e-05,-3.3969130804572e-05,3.397172113223e-05,-3.3971786791747e-05,3.3968936873739e-05,-3.3969324266994e-05,3.3971518033514e-05,-3.4992810393648e-05,3.4984917914321e-05,-3.4985358401974e-05,3.4992583731817e-05,-3.498742596994e-05,3.4990439902317e-05,-3.4988019396399e-05,3.4989828592613e-05,-8.1980604817731e-10,-8.3375899981392e-10,-3.4078296266302e-05,3.407662974794e-05,2.9128567226181e-09,-4.7036704393505e-09,-3.3969944172207e-05,3.3970843657408e-05,-3.3972468440679e-05,3.3968318033345e-05,-3.3969949505812e-05,3.397083967932e-05,-3.3972473815586e-05,3.3968314065926e-05,-3.4991021309277e-05,3.4986816289962e-05,-3.4991005710376e-05,3.4986827927035e-05,0.81992968516416,131329,3014,0.00014197929896347,0.00014197929895802,0.0001419792989523,31.580177102258,1.2641416818062e-05,1.2641416818062e-05,1.2641416818062e-05,557191.02999473,0.00042602886352566
2819200,0.041192126063963,0.00084108558424581,0.00028036186145596,0.00028036186141053,0.00028036186137931,-7.0138236804128e-05,7.0138594380358e-05,1.293882563695e-10,2.2346839481158e-10,-8.0413786680192e-10,1.1945610711043e-09,-7.0901396757053e-05,7.0901062993833e-05,-7.0901347464216e-05,7.0901075928698e-05,-7.0900753156685e-05,7.0901721599276e-05,-7.0900718391832e-05,7.090174996801e-05,-7.1806971566328e-05,7.1807893761584e-05,-7.1806858286781e-05,7.1807966282506e-05,7.9683899117023e-10,-1.1845151819654e-09,-3.2040876541053e-09,2.8549502964296e-09,-7.0138592534553e-05,7.0138238670447e-05,-7.0902060554916e-05,7.0900371337162e-05,-7.0900108742044e-05,7.0902400564892e-05,-7.0902691416527e-05,7.0899710511758e-05,-7.0900739136563e-05,7.0901740158751e-05,-7.1810847590203e-05,7.1803897946695e-05,-7.180499241691e-05,7.1809931776728e-05,-7.1805652916501e-05,7.180923412133e-05,-7.1807582924739e-05,7.1807248597772e-05,-1.2264925062385e-10,-2.1861113189248e-10,-7.0138599133576e-05,7.0138232062965e-05,2.7588265085399e-09,-3.2301693400439e-09,-7.0900388723234e-05,7.0902066964121e-05,-7.09023765195e-05,7.0900073684655e-05,-7.0900423423136e-05,7.0902037208106e-05,-7.0902410840457e-05,7.0900044454587e-05,-7.1808642258175e-05,7.1806205753193e-05,-7.1808541014541e-05,7.1806291021477e-05,0.821384922925,131329,3014,0.00029220058929727,0.0002922005893401,0.00029220058932247,32.742726084819,2.1941808678555e-05,2.1941808678555e-05,2.1941808678555e-05,776241.40677986,0.00087698678684877
3019200,0.062587536057574,0.0012715787548862,0.00042385958493624,0.00042385958498201,0.00042385958496798,-0.00010287923693053,0.00010288025455433,4.1531598719418e-10,5.9070752051867e-10,-2.1374448501153e-09,3.2459570548541e-09,-0.00010475262522576,0.00010475180377719,-0.00010475255209915,0.00010475184717479,-0.00010475090480575,0.00010475359282239,-0.0001047508425817,0.00010475364783389,-0.00010548135446429,0.0001054839715591,-0.0001054811648358,0.00010548412657774,2.1265974073303e-09,-3.228653268261e-09,-2.7135879607605e-09,1.7140907058425e-09,-0.00010288025161532,0.00010287923989245,-0.00010475258350006,0.00010475188544852,-0.000104751151083,0.00010475336734831,-0.00010475428958894,0.00010475010023196,-0.00010475285686082,0.00010475158251872,-0.00010548616318731,0.00010547904841751,-0.00010548188915608,0.00010548345885038,-0.00010547985548421,0.00010548552993024,-0.00010548506874004,0.0001054801590031,9.9879777094311e-11,-7.7431269351402e-11,-0.00010287974554648,0.00010287974595385,2.1457421503884e-09,-2.2267249638768e-09,-0.00010475146141921,0.00010475299264747,-0.00010475290907194,0.00010475153089567,-0.00010475152780611,0.0001047529404358,-0.00010475297523565,0.00010475147916975,-0.00010548346164768,0.00010548184608124,-0.00010548326736952,0.00010548199789511,0.82013326527564,131329,3014,0.00042857354227946,0.00042857354232722,0.00042857354231167,32.491546930716,1.9932375445727e-05,1.9932375445727e-05,1.9932375445727e-05,1051550.1776926,0.0012865491458753
3219200,0.083726735556419,0.001686726722505,0.00056224224083196,0.00056224224084781,0.00056224224082524,-0.00013431113477547,0.00013431236166341,4.7670494097657e-10,7.3383868427604e-10,-2.7490427739612e-09,4.1013378198566e-09,-0.00013777709887872,0.00013777596982772,-0.00013777700278596,0.00013777604466204,-0.00013777491092349,0.00013777824972029,-0.00013777482204225,0.00013777833258365,-0.00013771909039924,0.00013772231880928,-0.00013771882402639,0.00013772255717195,2.7351874090396e-09,-4.0788971504915e-09,-2.2246832975264e-09,1.022535751307e-09,-0.00013431235787791,0.0001343111385614,-0.00013777658707975,0.00013777655504651,-0.00013777553230319,0.00013777764012101,-0.00013777875989514,0.00013777428381086,-0.00013777770472055,0.00013777536928856,-0.00013772397551126,0.00013771733310183,-0.00013772084057562,0.00013772056489801,-0.00013771750104536,0.00013772399065531,-0.00013772412793019,0.00013771714875114,2.5923166283447e-10,1.0062832440318e-12,-0.00013431162724895,0.00013431186917776,1.6947310599787e-09,-1.5134046294998e-09,-0.00013777584973512,0.00013777725807227,-0.00013777690784037,0.00013777617817993,-0.00013777594719199,0.00013777718288568,-0.000137777004989,0.00013777610351379,-0.00013772123293701,0.00013772016431731,-0.00013772094695781,0.00013772038286698,0.80675915440324,131329,3014,0.00055947549020097,0.00055947549020189,0.00055947549017555,32.203373843954,1.7626990751636e-05,1.7626990751636e-05,1.7626990751636e-05,1282079.2507125,0.0016798386614663
3419200,0.10458907970154,0.0020828982468618,0.00069429941560581,0.00069429941563874,0.00069429941561729,-0.00016421310432566,0.00016421433968002,4.3941462946411e-10,7.7781549712342e-10,-2.8070697898418e-09,4.1854391119581e-09,-0.00016985728428423,0.0001698560885539,-0.00016985716477324,0.0001698561941627,-0.00016985506001728,0.00016985841518695,-0.000169854944895,0.0001698585259875,-0.00016812812610841,0.00016813132749345,-0.00016812778233087,0.00016813164759086,2.7941291809163e-09,-4.1647727566499e-09,-1.8407758612498e-09,6.3102279655193e-10,-0.00016421433631485,0.00016421310770335,-0.00016985660075466,0.00016985686297249,-0.00016985579454259,0.00016985768711354,-0.00016985881189366,0.00016985454561599,-0.00016985800528878,0.00016985537015171,-0.0001681326516853,0.00016812671560365,-0.0001681302619369,0.00016812917082626,-0.00016812659863192,0.00016813294931574,-0.00016813335660678,0.00016812594804548,3.6544629924876e-10,2.5836555453613e-11,-0.00016421353422176,0.00016421390978499,1.3884665200472e-09,-1.056046418323e-09,-0.00016985605421203,0.00016985736513048,-0.00016985685656877,0.00016985653561793,-0.00016985618144103,0.0001698572654766,-0.00016985698349407,0.0001698564364749,-0.0001681301038895,0.00016812934227001,-0.0001681297312402,0.00016812963355072,0.78589838411516,131329,3014,0.00068398975458402,0.00068398975461007,0.00068398975458615,31.913876984544,1.531101587635e-05,1.531101587635e-05,1.531101587635e-05,1481586.7946243,0.0020540800766802
3619200,0.12570111886894,0.0024727636399694,0.00082425454664771,0.00082425454667259,0.00082425454664908,-0.00019426106465431,0.00019426199503659,2.4490136074036e-10,6.6936388847356e-10,-2.3729776886752e-09,3.4376280756676e-09,-0.00020261233071159,0.00020261119066445,-0.00020261218557022,0.00020261132767158,-0.00020261048643216,0.00020261312182752,-0.00020261034348043,0.00020261326250015,-0.00019850092372093,0.00019850334603294,-0.00019850049574343,0.00019850375148891,2.3400583390956e-09,-3.38760176826e-09,-1.550904468148e-09,6.5303661998539e-10,-0.00019426198693454,0.00019426107278974,-0.00020261167002987,0.00020261192998203,-0.00020261094843776,0.00020261266328002,-0.00020261348675973,0.00020261002495851,-0.00020261276443531,0.00020261075898555,-0.00019850457804928,0.00019849962299002,-0.00019850243912269,0.0001985018059612,-0.00019849949727103,0.0001985048589181,-0.00019850504912499,0.00019849908673317,4.2548089425515e-10,9.2234243924807e-12,-0.00019426131984134,0.00019426173987518,1.2860843652738e-09,-8.9828632555392e-10,-0.00020261113487619,0.00020261242647594,-0.00020261185146147,0.00020261168188069,-0.00020261128819734,0.0002026123014809,-0.00020261200428151,0.00020261155786257,-0.00019850248622595,0.00019850178148643,-0.0001985020386015,0.00019850214695789,0.77011576977768,131329,3014,0.00080909592321782,0.00080909592328733,0.00080909592327111,31.993966495966,1.595173196773e-05,1.595173196773e-05,1.595173196773e-05,1704620.7176954,0.0024302414796364
3819200,0.14740697542815,0.0028708670475483,0.00095695568265323,0.00095695568247744,0.00095695568241763,-0.00022537118726613,0.00022537176378973,2.8544544145535e-11,5.3600393878583e-10,-1.9703677589704e-09,2.6637377734189e-09,-0.00023672314620352,0.00023672201128643,-0.00023672297475493,0.00023672217755966,-0.00023672167374255,0.00023672354897684,-0.00023672150376021,0.00023672371820842,-0.00022999814013509,0.00022999974231357,-0.00022999763164075,0.00023000023009188,1.936168614455e-09,-2.6076882168754e-09,-1.3809055439155e-09,8.3694700258151e-10,-0.00022537175361095,0.00022537119738838,-0.00023672249628389,0.0002367227190806,-0.00023672177042355,0.00023672345647289,-0.00023672393780237,0.00023672121122293,-0.00023672321123716,0.00023672194938814,-0.00023000102491857,0.00022999680045892,-0.00022999886846979,0.00022999899542146,-0.00022999669328479,0.00023000126140869,-0.00023000109391731,0.00022999667733361,4.4596235697965e-10,-4.9999072297956e-11,-0.00022537128478245,0.00022537166619292,1.2774505599755e-09,-9.2421807621336e-10,-0.00023672195205184,0.00023672323561893,-0.00023672267581536,0.00023672248617417,-0.00023672213054998,0.00023672308291039,-0.00023672285384664,0.00023672233449129,-0.00022999935415446,0.00022999852760312,-0.00022999883351332,0.00022999897584888,0.77140162530456,131329,3014,0.00093860806493308,0.00093860806481545,0.00093860806476555,32.325784385925,1.8606275087401e-05,1.8606275087401e-05,1.8606275087401e-05,1954071.8549066,0.0028197998082272
4019200,0.16969546473064,0.003277362366872,0.0010924541225222,0.0010924541222163,0.0010924541221335,-0.00025709103535608,0.00025709140057493,-1.1565302043108e-10,4.7227643626435e-10,-1.8061431372875e-09,2.2762159458124e-09,-0.00027180053377815,0.00027179934241544,-0.0002718003360328,0.00027179953629679,-0.00027179923232567,0.00027180069485673,-0.00027179903593114,0.00027180089151327,-0.00026219621715047,0.00026219735009862,-0.00026219563029468,0.0002621979171634,1.7755015453143e-09,-2.2243722137439e-09,-1.3180932974074e-09,9.811425405166e-10,-0.00025709139083994,0.00025709104496794,-0.00027179984675831,0.00027180007306236,-0.00027179909501929,0.00027180083758989,-0.00027180111890945,0.0002717987487427,-0.00027180036652353,0.00027179951403409,-0.00026219871721063,0.0002621947989882,-0.00026219648017669,0.00026219707425111,-0.0002621946735613,0.00026219895590411,-0.00026219855248778,0.00026219491930406,4.5886862704019e-10,-1.1932678141344e-10,-0.00025709105565777,0.00025709138011444,1.2907266041588e-09,-9.9310613510912e-10,-0.00027179930975089,0.00027180059007984,-0.00027180006232128,0.00027179981475304,-0.00027179951410101,0.00027180040866247,-0.00027180026622278,0.00027179963431222,-0.00026219727823631,0.00026219628775184,-0.00026219668246478,0.00026219682184078,0.77299486570565,131329,3014,0.0010706417954155,0.0010706417951593,0.001070641795085,32.663325495205,2.1306603961639e-05,2.1306603961639e-05,2.1306603961639e-05,2200837.8502613,0.0032170994560317
4219200,0.19254308234573,0.0036922373782616,0.0012307457930171,0.0012307457926674,0.0012307457925771,-0.00028940792100009,0.00028940820130033,-1.9771503648547e-10,4.713038167125e-10,-1.773643450013e-09,2.1523824445761e-09,-0.00030784004227197,0.00030783879066446,-0.00030783981769402,0.00030783901185795,-0.00030783878637983,0.00030784008989729,-0.00030783856327782,0.00030784031395269,-0.00029508860569549,0.00029508952431986,-0.00029508793957722,0.00029509017091139,1.7435652614317e-09,-2.1025959369352e-09,-1.3264855297863e-09,1.07097802856e-09,-0.00028940819236553,0.00028940792978566,-0.0003078393210871,0.00030783954732466,-0.0003078385381736,0.00030784034481471,-0.00030784054818604,0.00030783827559785,-0.00030783976463155,0.00030783907381966,-0.00029509098186728,0.00029508709930647,-0.00029508864881668,0.00029508947212656,-0.00029508696516197,0.00029509122168633,-0.00029509070216403,0.00029508734079225,4.7303725366896e-10,-1.8677552731232e-10,-0.00028940792580133,0.00028940819630973,1.312947199107e-09,-1.0692128032975e-09,-0.0003078387836743,0.00030784006934201,-0.00030783956995816,0.00030783926263827,-0.00030783901412848,0.00030783985970641,-0.00030783979989976,0.00030783905387765,-0.00029508964197165,0.00029508848583518,-0.0002950889700888,0.00029508910365998,0.77488674459078,131329,3014,0.0012051433899901,0.0012051433896796,0.001205143389596,33.001066557172,2.4008532457374e-05,2.4008532457374e-05,2.4008532457374e-05,2441298.0168857,0.0036219879779754
4419200,0.2163219330668,0.0041220051806378,0.0013740017271461,0.0013740017267914,0.0013740017267003,-0.00032330818704197,0.00032330840987768,-2.6702679545587e-10,4.8374148226506e-10,-1.6492168063822e-09,1.9628561323866e-09,-0.00034592010959096,0.00034591887944067,-0.00034591985808969,0.00034591912831305,-0.00034591895418742,0.00034592007251929,-0.00034591870449435,0.00034592032445074,-0.00032966953158668,0.00032967020804495,-0.00032966878106578,0.00032967093051616,1.6156457579615e-09,-1.9155464941333e-09,-1.3794795299079e-09,1.175523127272e-09,-0.00032330840272082,0.00032330819417499,-0.00034591944642982,0.00034591957065275,-0.00034591861334894,0.00034592042140973,-0.00034592057159651,0.00034591840476836,-0.00034591973794336,0.00034591925619799,-0.00032967178741052,0.00032966790513267,-0.00032966929757857,0.00032967043107423,-0.00032966786683661,0.00032967192381994,-0.00032967130356033,0.00032966835934445,4.8959572264263e-10,-2.5119072344288e-10,-0.00032330818826609,0.00032330840861265,1.3663008209331e-09,-1.1726379791779e-09,-0.00034591884630486,0.00034592015935069,-0.00034591968504928,0.00034591930123965,-0.00034591910239267,0.00034591992149738,-0.00034591994071246,0.00034591906418657,-0.00032967053647314,0.0003296692029922,-0.00032966978694883,0.00032966990182108,0.77612069351926,131329,3014,0.0013462161004262,0.0013462161003769,0.0013462161003413,33.595594566563,2.8764756532505e-05,2.8764756532505e-05,2.8764756532505e-05,2681531.2390701,0.004046834302481
4619200,0.2411714694457,0.0045688041392706,0.0015229347136926,0.0015229347128794,0.0015229347126986,-0.00035867003266118,0.00035867022128147,-3.251362991916e-10,5.0849486133103e-10,-1.5751262247398e-09,1.8489767812638e-09,-0.00038602163124456,0.00038602040262281,-0.00038602135196634,0.00038602067899669,-0.0003860205359026,0.0003860215322839,-0.00038602025877477,0.00038602181205853,-0.00036580800111103,0.00036580850043981,-0.00036580717070865,0.0003658093052446,1.5391224999195e-09,-1.7992577155451e-09,-1.4386856564583e-09,1.2679889632593e-09,-0.00035867021409951,0.00035867003954438,-0.00038602100741533,0.00038602105038007,-0.00038602012563253,0.00038602195207933,-0.00038602207049929,0.00038601994936394,-0.00038602118809567,0.00038602085168325,-0.00036581019317908,0.00036580626050989,-0.00036580755727915,0.00036580893808027,-0.00036580629480417,0.00036581025394939,-0.00036580954730165,0.00036580688221057,5.0835359307315e-10,-3.1234964755032e-10,-0.00035867003809002,0.0003586702154829,1.4192215651083e-09,-1.2702676836869e-09,-0.00038602035078446,0.00038602169813505,-0.00038602124049146,0.00038602079116784,-0.00038602063245488,0.0003860214326231,-0.00038602152157602,0.00038602052629523,-0.00036580900202987,0.0003658074970085,-0.00036580817763735,0.00036580827750217,0.77693647775939,131329,3014,0.0014933506277315,0.0014933506271097,0.0014933506269619,34.293636959357,3.4349095674858e-05,3.4349095674858e-05,3.4349095674858e-05,2918827.3567193,0.004490129305272
4819200,0.26706340880503,0.0050320556422578,0.0016773518814586,0.0016773518805028,0.0016773518802964,-0.00039525235985491,0.00039525253999123,-3.6968160608364e-10,5.4504077652547e-10,-1.5576751269765e-09,1.8190794928407e-09,-0.00042796633337923,0.00042796508559948,-0.00042796602674696,0.00042796538882293,-0.00042796525251005,0.00042796619913783,-0.00042796494832225,0.0004279665060506,-0.00040326338377884,0.00040326377958693,-0.00040326247406039,0.00040326466398433,1.5224989590378e-09,-1.7704626287015e-09,-1.4972430794968e-09,1.3341565706204e-09,-0.00039525253290913,0.00039525236653335,-0.00042796572331294,0.00042796571733336,-0.00042796480115312,0.00042796666077752,-0.00042796677214825,0.00042796463186972,-0.00042796584936249,0.00042796557592531,-0.00040326557311739,0.00040326154145865,-0.00040326281652039,0.00040326434294812,-0.00040326161945208,0.00040326558842841,-0.00040326483089273,0.0004032622636063,5.3401612998262e-10,-3.6838416510192e-10,-0.0003952523764145,0.00039525252293797,1.4645246516375e-09,-1.3481617110925e-09,-0.00042796502401294,0.00042796640905189,-0.00042796595564268,0.00042796546230239,-0.00042796533185709,0.00042796611540739,-0.00042796626281889,0.00042796516920372,-0.00040326440766682,0.00040326275106733,-0.0004032635060326,0.00040326361420875,0.77792180536881,131329,3014,0.0016455416279285,0.0016455416270881,0.0016455416269007,34.994065440444,3.9952523523551e-05,3.9952523523551e-05,3.9952523523551e-05,3154696.4263949,0.0049488668310905
5019200,0.29395215091427,0.0055094325957721,0.0018364775326778,0.001836477531656,0.0018364775314383,-0.00043286986799644,0.00043287005835768,-4.0509080004824e-10,5.9086605053598e-10,-1.5656831333521e-09,1.83468460338e-09,-0.00047162563167505,0.00047162435978248,-0.0004716252976648,0.00047162468980613,-0.00047162454269909,0.0004716254809519,-0.00047162421135358,0.00047162581486919,-0.0004417930975426,0.00044179343198523,-0.00044179210850731,0.0004417943961093,1.5310668057921e-09,-1.7865912161616e-09,-1.5550854685977e-09,1.3815346720827e-09,-0.00043287005126432,0.00043286987461351,-0.00047162502802179,0.00047162498434955,-0.00047162407132763,0.00047162596288136,-0.0004716260852024,0.00047162389082643,-0.00047162512786275,0.00047162486993509,-0.00044179531628734,0.00044179116353267,-0.00044179245772016,0.00044179406933177,-0.00044179127563604,0.00044179529690163,-0.00044179451308716,0.00044179194879558,5.6578474331152e-10,-4.1817644168793e-10,-0.00043286989875062,0.00043287002702398,1.5064287281879e-09,-1.4100292240971e-09,-0.0004716242880427,0.00047162571707721,-0.00047162525517406,0.00047162473685946,-0.00047162462219215,0.00047162539540376,-0.0004716255885385,0.00047162441559682,-0.00044179415610951,0.00044179236665569,-0.0004417931769627,0.00044179331205521,0.77677327122282,131329,3014,0.0018020163226286,0.0018020163216367,0.0018020163214218,35.694577647349,4.5556621178789e-05,4.5556621178789e-05,4.5556621178789e-05,3389270.7265698,0.005420737473721
5219200,0.32114356537133,0.0059903816105919,0.0019967938709702,0.0019967938699231,0.0019967938696986,-0.00046998944026458,0.00046998965913601,-4.0971640182752e-10,6.2414699719355e-10,-1.6732553369333e-09,1.9707845256061e-09,-0.00051530788258469,0.00051530654541151,-0.0005153075355439,0.00051530688761609,-0.0005153067135043,0.00051530774817724,-0.00051530636893553,0.00051530809453174,-0.0004798708426016,0.00047987124967233,-0.00047986981937512,0.00047987225391765,1.707565680116e-09,-1.9941784965476e-09,-1.5870260692343e-09,1.3822853069831e-09,-0.00046998965382197,0.00046998944492488,-0.00051530720603444,0.00051530724531873,-0.00051530623794754,0.00051530823420472,-0.0005153083901337,0.00051530602369776,-0.00051530742118694,0.00051530701339023,-0.00047987319163835,0.00047986884917544,-0.000479870303501,0.00047987178974515,-0.00047986887742733,0.00047987325881334,-0.00047987249028821,0.00047986953072954,6.2552505281549e-10,-4.8339540327872e-10,-0.00046998948738378,0.00046998961122337,1.5163238035178e-09,-1.4262211008288e-09,-0.0005153064831586,0.00051530795959085,-0.00051530746020737,0.00051530697155775,-0.00051530685848848,0.00051530759572975,-0.00051530783431816,0.00051530660814099,-0.00047987200425508,0.00047987007665189,-0.00047987090574982,0.00047987114714755,0.77855553626332,131329,3014,0.0019563972622665,0.0019563972609049,0.0019563972606139,36.023482888182,4.8187863105453e-05,4.8187863105453e-05,4.8187863105453e-05,3617151.0605383,0.0058865150321076
5419200,0.34843727817492,0.0064646555741989,0.0021548851920372,0.0021548851911788,0.0021548851909829,-0.00050641101992191,0.00050641128039508,-4.2957140743249e-10,6.8513582443851e-10,-1.7970203417915e-09,2.1373541944436e-09,-0.00055881314292738,0.00055881172834459,-0.0005588127703361,0.00055881209591379,-0.00055881188206994,0.00055881302578084,-0.00055881151183691,0.00055881339740867,-0.00051705120209348,0.00051705167089023,-0.00051705010202081,0.00051705275265999,1.8320933460147e-09,-2.1617992745161e-09,-1.6221814818948e-09,1.3762227515529e-09,-0.00050641127530246,0.00050641102446483,-0.00055881240642851,0.00055881249179474,-0.00055881142699939,0.00055881349040257,-0.00055881368810758,0.00055881117091652,-0.00055881270722208,0.0005588121697425,-0.00051705366491289,0.00051704915795067,-0.00051705074640248,0.00051705212498553,-0.00051704913998404,0.00051705377901849,-0.00051705304044546,0.00051704975769169,6.7378322609083e-10,-5.1714972747493e-10,-0.00050641108038682,0.00050641121925974,1.5379757840426e-09,-1.433226431681e-09,-0.00055881167835408,0.00055881320872697,-0.00055881266611464,0.00055881221180012,-0.00055881208269631,0.00055881281621147,-0.00055881306832202,0.00055881181887134,-0.00051705243209487,0.00051705042670645,-0.00051705125347084,0.00051705158161328,0.76958004566227,131329,3014,0.0021078535855857,0.0021078535844409,0.0021078535841895,36.276196036654,5.0209568293231e-05,5.0209568293231e-05,5.0209568293231e-05,3826395.6591615,0.0063436822575248
5619200,0.37575547086035,0.0069151631777793,0.0023050543931098,0.0023050543924147,0.0023050543922548,-0.00054107264505918,0.00054107292129094,-4.6395515119449e-10,7.34906713722e-10,-1.9244356137542e-09,2.2820544828608e-09,-0.00060111881906421,0.00060111730163385,-0.0006011184187329,0.00060111769692703,-0.0006011174674115,0.00060111868997687,-0.00060111706935632,0.00060111908921362,-0.0005517168381578,0.00055171733019226,-0.00055171565504408,0.00055171849378732,1.954843760349e-09,-2.3025293567958e-09,-1.643766518637e-09,1.3818668703207e-09,-0.00054107291654271,0.00054107264938677,-0.00060111799949958,0.00060111814861887,-0.00060111701032761,0.00060111915591627,-0.00060111937014844,0.0006011167386625,-0.0006011183798089,0.00060111774643655,-0.00055171937790328,0.00055171473981338,-0.00055171643241178,0.00055171773319853,-0.0005517146623622,0.00055171955171594,-0.00055171882155054,0.00055171527173468,7.1443920104929e-10,-5.5517387439275e-10,-0.00054107271212037,0.0005410728537158,1.553141478616e-09,-1.4456387924478e-09,-0.00060111728392829,0.00060111885283618,-0.00060111828090636,0.00060111784678023,-0.00060111771432681,0.00060111843330383,-0.00060111870961251,0.00060111742723884,-0.00055171812170438,0.00055171603306742,-0.00055171686493853,0.00055171726389307,0.73637049839638,131329,3014,0.0022519717881386,0.0022519717872626,0.0022519717870683,36.52709768679,5.2216781494318e-05,5.2216781494318e-05,5.2216781494318e-05,4006845.679005,0.0067788955296316
5819200,0.40301792066342,0.0073464288705201,0.0024488096239575,0.0024488096233512,0.0024488096232114,-0.00057439939587234,0.000574399688166,-4.9720792972728e-10,7.8381825771379e-10,-2.0325626129015e-09,2.407509192335e-09,-0.00064255990847466,0.00064255830187232,-0.00064255948072658,0.00064255872441189,-0.00064255847922422,0.00064255976819573,-0.00064255805381251,0.00064256019469138,-0.00058441401391341,0.00058441451822291,-0.0005844127498855,0.00058441576202797,2.0614632572667e-09,-2.4271708713037e-09,-1.6629903852296e-09,1.3848561340632e-09,-0.00057439968373434,0.00057439939994185,-0.00064255901791064,0.00064255922051744,-0.00064255802096147,0.00064256023487009,-0.00064256046531757,0.00064255773278946,-0.00064255946787982,0.00064255874825116,-0.00058441661679097,0.00058441186322507,-0.00058441364981689,0.00058441487885462,-0.00058441173634858,0.00058441684191295,-0.00058441612161339,0.00058441233442608,7.5351258491365e-10,-5.9675157997239e-10,-0.00057439947230054,0.00057439961129561,1.5632152721259e-09,-1.458152625497e-09,-0.00064255831313981,0.00064255991388744,-0.00064255931692227,0.00064255890003158,-0.00064255877000369,0.00064255946695047,-0.00064255977306874,0.00064255845401041,-0.00058441534810038,0.00058441317088983,-0.00058441401102084,0.00058441447913614,0.7131758499165,131329,3014,0.0023905224915388,0.0023905224907843,0.0023905224906176,36.777935365808,5.4223482926467e-05,5.4223482926467e-05,5.4223482926467e-05,4179781.6941191,0.0071974784773514
6019200,0.42974206448667,0.0077594649898383,0.0025864883303807,0.0025864883297958,0.0025864883296618,-0.00060610777142404,0.00060610807866693,-5.3018210024195e-10,8.3158038573121e-10,-2.1567744913139e-09,2.5488694849927e-09,-0.00068288247463887,0.00068288076716068,-0.00068288201983176,0.00068288121630426,-0.0006828809574804,0.00068288232223649,-0.00068288050497915,0.00068288277540689,-0.0006152152301979,0.00061521575886984,-0.00061521389009619,0.00061521708485843,2.1877463372277e-09,-2.5680722636827e-09,-1.6663012588814e-09,1.3754856733353e-09,-0.00060610807366122,0.00060610777587992,-0.00068288149596523,0.00068288177527958,-0.0006828805009359,0.00068288278693409,-0.00068288303193255,0.00068288019779996,-0.0006828820373374,0.00068288121157907,-0.00061521789122609,0.0006152130434348,-0.00061521493328056,0.000615216056296,-0.00061521284150238,0.00061521819525715,-0.00061521748653721,0.00061521342293046,7.9329195579882e-10,-6.3903883406698e-10,-0.00060610785604246,0.00060610799337399,1.5588789661559e-09,-1.4561205915302e-09,-0.00068288081731778,0.00068288244252625,-0.00068288181821247,0.000682881430252,-0.00068288130129416,0.00068288196781461,-0.00068288230268687,0.00068288095779393,-0.00061521661669804,0.00061521435743181,-0.00061521519907659,0.00061521574540617,0.70261524322016,131329,3014,0.0025223306074645,0.0025223306063194,0.0025223306060598,36.775509256498,5.420407405198e-05,5.420407405198e-05,5.420407405198e-05,4314828.7201993,0.0075958604355035
6219200,0.45586208857606,0.0081646000626242,0.0027215333544055,0.0027215333541403,0.0027215333540784,-0.00063715638778168,0.00063715670663483,-5.654989346016e-10,8.7829203933991e-10,-2.2541501204964e-09,2.6597664058738e-09,-0.00072304329341426,0.00072304150067664,-0.00072304281117938,0.00072304197694224,-0.00072304170768892,0.00072304312526844,-0.00072304122785475,0.00072304360548004,-0.00064544106803055,0.00064544159724218,-0.00064543964876928,0.00064544300439681,2.2847696970804e-09,-2.677656136217e-09,-1.6650029676586e-09,1.3637345260772e-09,-0.00063715670156522,0.00063715639243498,-0.00072304224167124,0.00072304258296988,-0.00072304125098556,0.00072304358988304,-0.00072304384581222,0.00072304093630193,-0.00072304285629898,0.00072304194589241,-0.00064544376184845,0.0006454388481299,-0.00064544081797689,0.00064544184931747,-0.0006454385864683,0.00064544412762726,-0.00064544343369272,0.00064543915062117,8.3300961898088e-10,-6.8007858065442e-10,-0.00063715647872123,0.00063715661518252,1.5518526325114e-09,-1.4503549190351e-09,-0.00072304158294964,0.00072304323019438,-0.00072304257890651,0.0007230422218956,-0.00072304209377352,0.00072304272835274,-0.00072304309115329,0.00072304172307765,-0.00064544249318065,0.00064544015737384,-0.00064544099565877,0.00064544162383982,0.70745492866125,131329,3014,0.0026513825248841,0.0026513825240182,0.0026513825238177,36.758739123201,5.4069912985611e-05,5.4069912985611e-05,5.4069912985611e-05,4413109.172003,0.0079860726117412
6419200,0.48133826519206,0.0085559072593435,0.0028519690864593,0.0028519690864434,0.0028519690864407,-0.00066708331200252,0.0006670836405358,-6.0171273532426e-10,9.2391122829323e-10,-2.3279965771849e-09,2.7449259693958e-09,-0.00076230641840104,0.00076230455512911,-0.0007623059088384,0.0007623050585885,-0.00076230478035038,0.00076230623275489,-0.00076230427320727,0.0007623067401354,-0.00067448327053435,0.00067448378152064,-0.00067448177057582,0.00067448526819178,2.3577417299282e-09,-2.7625145010617e-09,-1.6616633631404e-09,1.3505565307049e-09,-0.00066708363579879,0.00066708331652113,-0.00076230530759192,0.00076230569720262,-0.00076230432239546,0.00076230669839529,-0.00076230696369755,0.00076230399781281,-0.00076230598000809,0.00076230500197026,-0.00067448597841163,0.00067448101814169,-0.00067448305050217,0.00067448400286332,-0.00067448071114209,0.00067448639019372,-0.00067448571356548,0.00067448125742906,8.7340050268476e-10,-7.2062467711665e-10,-0.00066708340799808,0.00066708354427397,1.5435727104721e-09,-1.4422461159006e-09,-0.00076230466233368,0.0007623063307832,-0.00076230565235801,0.00076230532770902,-0.00076230520014561,0.00076230580194854,-0.0007623061920427,0.00076230480230913,-0.00067448472386941,0.00067448231463915,-0.00067448314587306,0.00067448385923156,0.70210893817197,131329,3014,0.0027757590620057,0.0027757590615524,0.0027757590614532,36.741576170906,5.3932609367251e-05,5.3932609367251e-05,5.3932609367251e-05,4503709.7415687,0.0083622964115254
6619200,0.50654677289082,0.0089660420038279,0.0029886806678546,0.0029886806679717,0.0029886806680016,-0.0006983555110878,0.00069835584319716,-6.4086417809809e-10,9.6558461340581e-10,-2.2962572045069e-09,2.716487123036e-09,-0.00080270943787147,0.00080270757245226,-0.0008027089016798,0.00080270810302168,-0.00080270782014785,0.00080270922967747,-0.00080270728623759,0.00080270976429787,-0.00070554155816439,0.00070554196977645,-0.00070553996953713,0.00070554352694144,2.3227729810543e-09,-2.7386239312441e-09,-1.6604802008752e-09,1.3401962463297e-09,-0.00069835584082393,0.00069835551403983,-0.00080270833592326,0.00080270870482286,-0.00080270735487853,0.00080270970237284,-0.00080270997181409,0.00080270702482018,-0.00080270899212497,0.00080270802547391,-0.00070554420980309,0.0007055392657965,-0.00070554128523223,0.0007055422320262,-0.00070553898831514,0.00070554458731976,-0.00070554393646215,0.00070553951680828,9.1651791697735e-10,-7.5947189830189e-10,-0.00069835560832349,0.00069835574670286,1.5394977213131e-09,-1.4344100815507e-09,-0.00080270766865912,0.00080270936047766,-0.00080270865410311,0.00080270836082263,-0.00080270823382186,0.00080270880428097,-0.00080270922110773,0.00080270780824924,-0.00070554299899039,0.00070554052312436,-0.00070554133638846,0.00070554214364699,0.74070667129978,131329,3014,0.0029057105830494,0.0029057105842541,0.0029057105845925,37.009366317376,5.6074930539011e-05,5.6074930539011e-05,5.6074930539011e-05,4553068.2129417,0.0087555369470774
6819200,0.53258726852017,0.0094222446729169,0.0031407482242924,0.0031407482243102,0.0031407482243143,-0.00073376402507297,0.00073376434825718,-6.9373900592604e-10,1.0073475846345e-09,-2.0648869145339e-09,2.4720417438804e-09,-0.0008468939233139,0.00084689217825762,-0.00084689335592271,0.00084689274167182,-0.00084689246239407,0.00084689367625603,-0.00084689189845831,0.00084689424252245,-0.00074167501249904,0.00074167515827626,-0.00074167331103949,0.00074167678568782,2.0654535719663e-09,-2.4865448591695e-09,-1.6662391429812e-09,1.3414350535623e-09,-0.00073376435099533,0.00073376402451939,-0.00084689296242809,0.00084689316517907,-0.00084689197941126,0.00084689416657101,-0.00084689442806733,0.00084689165514009,-0.00084689344746739,0.00084689265839334,-0.00074167746180116,0.00074167266532987,-0.00074167451352956,0.0007416756191549,-0.00074167256711672,0.00074167764612442,-0.00074167702663998,0.00074167308727148,9.5599657137273e-10,-7.8851196185376e-10,-0.00073376411642041,0.00073376425970345,1.5504319673088e-09,-1.4362491917348e-09,-0.00084689219962818,0.00084689391771422,-0.00084689318741812,0.00084689291339352,-0.00084689278674086,0.00084689333893253,-0.00084689377762536,0.00084689233696466,-0.00074167635493197,0.00074167382819601,-0.00074167461386028,0.00074167550895444,0.79221451567959,131329,3014,0.0030528286909527,0.0030528286954926,0.0030528286967587,38.075666494085,6.4605331952677e-05,6.4605331952677e-05,6.4605331952677e-05,4630766.3293271,0.0092009098537976
7019200,0.55936004087279,0.0098535535791064,0.0032845178602343,0.0032845178595311,0.003284517859341,-0.00076841772914916,0.0007684180419075,-7.3804847730211e-10,1.0415223692066e-09,-1.8223185252141e-09,2.2174848010379e-09,-0.00089089441333839,0.000890892795617,-0.00089089381950663,0.00089089338581914,-0.00089089311648501,0.00089089412807415,-0.00089089252576752,0.00089089472124337,-0.0007761270601529,0.00077612695318173,-0.00077612528706062,0.00077612866481,1.8279622644999e-09,-2.2349401346884e-09,-1.6636206762252e-09,1.3506330142094e-09,-0.0007684180435945,0.00076841772847437,-0.00089089359348945,0.00089089364049178,-0.00089089260840901,0.00089089464368657,-0.0008908948958914,0.00089089229393225,-0.00089089391366937,0.00089089329989121,-0.00077612929476513,0.00077612467024196,-0.00077612634676347,0.00077612763767992,-0.0007761247184115,0.00077612933620627,-0.000776128693936,0.00077612525731352,9.9748899498414e-10,-8.3165565784347e-10,-0.00076841781506151,0.00076841795729445,1.5520853983271e-09,-1.4396008135363e-09,-0.00089089273847206,0.00089089448634185,-0.00089089372748609,0.00089089347949437,-0.00089089335276533,0.00089089387920945,-0.00089089434555674,0.00089089287584103,-0.00077612831790076,0.00077612570214858,-0.00077612649686561,0.00077612746577549,0.73335807818635,131329,3014,0.0031967941885533,0.0031967941906451,0.0031967941912388,39.159953376936,7.3279627015486e-05,7.3279627015486e-05,7.3279627015486e-05,4651988.3693868,0.0096369363673116
7219200,0.5867136941291,0.010276654496328,0.0034255514995858,0.0034255514985167,0.0034255514982259,-0.00080284562237017,0.00080284592261016,-7.8460938557479e-10,1.0760202865247e-09,-1.5974901143618e-09,1.9780868432459e-09,-0.00093495218418313,0.0009349506810458,-0.00093495156332797,0.00093495129818634,-0.00093495104060493,0.00093495185847284,-0.00093495042287272,0.00093495247862593,-0.00080989134088031,0.00080989098950209,-0.00080988949350836,0.00080989278532639,1.6053810416547e-09,-1.9947132905253e-09,-1.6573865044322e-09,1.3591451584423e-09,-0.00080284592297403,0.00080284562227586,-0.00093495149154337,0.00093495139704472,-0.00093495050574283,0.00093495240101322,-0.00093495264114789,0.00093495020490926,-0.00093495165825442,0.00093495121171906,-0.00080989336732563,0.00080988891284911,-0.00080989042176304,0.00080989188691886,-0.0008098890939754,0.00080989327803146,-0.00080989261330903,0.0008098896526867,1.0373386578396e-09,-8.7386801852012e-10,-0.00080284570240633,0.00080284584292383,1.5518736943827e-09,-1.4417361242305e-09,-0.00093495055256399,0.0009349523278215,-0.00093495154221914,0.00093495132036653,-0.00093495119411885,0.00093495169314226,-0.00093495218765175,0.00093495068932486,-0.00080989251768153,0.00080988981545871,-0.00080989061870495,0.00080989166168923,0.70718848795982,131329,3014,0.0033398045123045,0.0033398045128485,0.0033398045130112,40.244870181133,8.1958961449062e-05,8.1958961449062e-05,8.1958961449062e-05,4664215.7778927,0.010070262169792
7419200,0.61364849951662,0.010678544277562,0.0035595147602574,0.0035595147588452,0.0035595147584594,-0.00083481694280936,0.00083481722468704,-8.2699491213781e-10,1.1044438560277e-09,-1.5117779607504e-09,1.8779446728734e-09,-0.00097657645889116,0.00097657497132796,-0.00097657581366573,0.00097657561061261,-0.00097657537777367,0.00097657608746369,-0.0009765747343186,0.00097657673073375,-0.00084085484914062,0.00084085436084287,-0.00084085296953877,0.00084085626466433,1.5479548415543e-09,-1.893496829694e-09,-1.6286307862273e-09,1.3693702865e-09,-0.00083481721770446,0.0008348169470506,-0.00097657578957002,0.00097657566857609,-0.00097657480921732,0.00097657666429712,-0.00097657688801225,0.00097657452942587,-0.00097657590996799,0.00097657552960692,-0.00084085673412751,0.00084085241013723,-0.0008408538391546,0.00084085540025473,-0.00084085258406716,0.0008408566773128,-0.0008408559278857,0.00084085318811982,1.0742383598143e-09,-9.2962289992323e-10,-0.00083481701611653,0.00083481714784939,1.5318338867027e-09,-1.4385168083872e-09,-0.0009765748253338,0.00097657662438099,-0.00097657580922647,0.00097657562508946,-0.00097657549821169,0.00097657595834712,-0.00097657648516389,0.00097657496442306,-0.0008408560017872,0.00084085317897357,-0.00084085403184609,0.00084085513016599,0.68501444365421,131329,3014,0.0034725975104872,0.0034725975047702,0.0034725975031252,40.771895257892,8.6175162063134e-05,8.6175162063134e-05,8.6175162063134e-05,4677169.4792058,0.010472805140206
7619200,0.63942097909786,0.011054813882529,0.0036849379606349,0.0036849379609215,0.003684937960973,-0.00086408173544545,0.0008640820096424,-8.6941057872126e-10,1.1396767115705e-09,-1.5456385507444e-09,1.9040292768008e-09,-0.0010153225058428,0.001015320966167,-0.0010153218349185,0.0010153216297465,-0.0010153214056383,0.0010153221020465,-0.0010153207357929,0.0010153227705382,-0.00086890041010924,0.00086889985786756,-0.00086889845390703,0.00086890183828744,1.5879159729324e-09,-1.9231104907321e-09,-1.6065283722511e-09,1.3562748390553e-09,-0.00086408200300025,0.00086408174055629,-0.0010153217893004,0.0010153217117504,-0.0010153208202161,0.0010153226951398,-0.0010153229130836,0.0010153205491487,-0.0010153219450972,0.0010153215373113,-0.00086890225503783,0.00086889794934444,-0.00086889939202365,0.00086890090476068,-0.00086889808002192,0.00086890223850208,-0.00086890149219891,0.00086889868268882,1.1164231668915e-09,-9.734027081272e-10,-0.00086408180581057,0.00086408193727455,1.5126131115019e-09,-1.4203640458534e-09,-0.0010153208378786,0.0010153226539686,-0.0010153218105929,0.00101532166795,-0.001015321540983,0.0010153219589208,-0.0010153225153062,0.0010153209786158,-0.00086890156708395,0.00086889867232524,-0.00086889951403501,0.00086890070732736,0.67223241532319,131329,3014,0.0035941398321846,0.0035941398290044,0.0035941398280264,40.851932939457,8.6815463515655e-05,8.6815463515655e-05,8.6815463515655e-05,4685736.4306353,0.010841393730151
7819200,0.66399592308789,0.011410108348176,0.0038033694483938,0.0038033694497131,0.0038033694500693,-0.00089176288966264,0.00089176315989342,-9.1360746780134e-10,1.1790650413135e-09,-1.5955835473414e-09,1.9484682582793e-09,-0.0010522282348619,0.001052226633418,-0.0010522275361621,0.0010522273247134,-0.0010522271030001,0.0010522278007213,-0.0010522264056869,0.0010522284966336,-0.00089528736775812,0.0008952867586371,-0.00089528532036488,0.0008952888108605,1.631849038595e-09,-1.9692557821685e-09,-1.5881735052269e-09,1.3361016498631e-09,-0.00089176315591174,0.00089176289348767,-0.0010522274644181,0.0010522274322103,-0.0010522265078638,0.0010522284030698,-0.0010522286188461,0.0010522262394091,-0.0010522276635382,0.0010522272145917,-0.00089528918671848,0.00089528488125915,-0.00089528635274633,0.00089528778983493,-0.000895284975122,0.00089528919909516,-0.00089528848108753,0.00089528556097766,1.1590636612831e-09,-1.0107719114355e-09,-0.00089176295733893,0.00089176309200365,1.4962844708894e-09,-1.3990680130796e-09,-0.0010522265279615,0.0010522283594433,-0.0010522274879322,0.0010522273862793,-0.001052227257894,0.0010522276376678,-0.0010522282196468,0.0010522266697787,-0.00089528852849034,0.00089528557816512,-0.00089528639219506,0.00089528768830012,0.66655084027885,131329,3014,0.0037090970609312,0.003709097060615,0.0037090970605009,40.921755428982,8.7374043431859e-05,8.7374043431859e-05,8.7374043431859e-05,4685609.7790815,0.01119014472247
8019200,0.68736377708456,0.011744930883921,0.0039149769601379,0.0039149769616795,0.003914976962104,-0.000917885213502,0.00091788548316115,-9.5525355127737e-10,1.2199192863326e-09,-1.6463488577607e-09,1.9983513062099e-09,-0.0010871784289487,0.001087176766191,-0.0010871777027706,0.0010871774850066,-0.0010871772633952,0.0010871779670961,-0.0010871765386704,0.0010871786904566,-0.00092012889333325,0.00092012823585846,-0.00092012676295309,0.0009201303664951,1.6805134867262e-09,-2.0195433349624e-09,-1.5695542638853e-09,1.3161386512525e-09,-0.0009178854801036,0.00091788521665013,-0.0010871776052145,0.0010871776181323,-0.0010871766613395,0.0010871785762654,-0.0010871787928371,0.0010871763923268,-0.0010871778501805,0.001087177354622,-0.00092013068776838,0.00092012638440333,-0.00092012788966041,0.00092012925295157,-0.00092012643573089,0.00092013074038121,-0.00092013004028156,0.00092012700695309,1.2008893561251e-09,-1.0500037775465e-09,-0.00091788527998789,0.00091788541678714,1.4785184614524e-09,-1.3786707206147e-09,-0.001087176683299,0.0010871785308336,-0.0010871776304589,0.0010871775704144,-0.0010871774402979,0.0010871777820886,-0.0010871783892494,0.0010871768268026,-0.00092013006239033,0.00092012704937671,-0.00092012784549226,0.00092012923802036,0.66097249657279,131329,3014,0.0038175720020233,0.0038175720022193,0.003817572002267,40.991218503378,8.7929748027021e-05,8.7929748027021e-05,8.7929748027021e-05,4681427.4944463,0.011519345844618
8219200,0.70966753669938,0.012061749965098,0.0040205833204291,0.0040205833221021,0.0040205833225669,-0.00094283593486663,0.00094283620339965,-9.9730230812848e-10,1.2596549371416e-09,-1.6740092320494e-09,2.0234508804057e-09,-0.0011205916042529,0.001120589896672,-0.0011205908511181,0.0011205906429481,-0.0011205904207306,0.0011205911149714,-0.001120589668968,0.0011205918658147,-0.00094382604882122,0.00094382532437363,-0.00094382382924091,0.00094382752654932,1.7039260633825e-09,-2.0488927185243e-09,-1.5540165420277e-09,1.2955327273794e-09,-0.00094283620274925,0.00094283593641382,-0.0011205907429611,0.0011205907850341,-0.0011205898112177,0.0011205917313714,-0.0011205919483789,0.0011205895413933,-0.0011205910177322,0.001120590491903,-0.00094382780797064,0.00094382351212393,-0.00094382503713077,0.00094382633773779,-0.00094382354297258,0.00094382787441931,-0.00094382720372681,0.00094382409497159,1.2448959820764e-09,-1.0877639459111e-09,-0.00094283599942859,0.00094283614000197,1.4634207556769e-09,-1.3576622214393e-09,-0.0011205898272172,0.001120591691753,-0.0011205907620179,0.0011205907430672,-0.0011205906114757,0.0011205909156792,-0.0011205915480256,0.0011205899721248,-0.00094382721674522,0.00094382414665613,-0.00094382491549404,0.0009438264114242,0.65549140025265,131329,3014,0.0039211737458843,0.0039211737477548,0.0039211737483139,41.1818306207,8.9454644965602e-05,8.9454644965602e-05,8.9454644965602e-05,4679014.1050404,0.011833862842341
8419200,0.73095712804497,0.01236349063971,0.0041211635454573,0.0041211635469248,0.0041211635473275,-0.0009666597840253,0.00096666005205508,-1.0389714078426e-09,1.3003423799917e-09,-1.6892465416777e-09,2.0376226327625e-09,-0.0011525197641849,0.0011525180192745,-0.0011525189838144,0.0011525187931618,-0.0011525185705323,0.0011525192471961,-0.0011525177915626,0.0011525200255952,-0.00096647307934191,0.00096647228263965,-0.00096647077618217,0.00096647456238499,1.7165734350849e-09,-2.0642229785483e-09,-1.538045166707e-09,1.2772641806148e-09,-0.00096666005244366,0.000966659784648,-0.0011525188738106,0.0011525189359795,-0.001152517953459,0.0011525198711336,-0.0011525200887876,0.0011525176828834,-0.0011525191695155,0.0011525186221273,-0.00096647479304123,0.00096647051748937,-0.00096647205287313,0.0009664733067431,-0.00096647053137235,0.00096647487395835,-0.00096647422130193,0.00096647106906257,1.287399126811e-09,-1.1264647935091e-09,-0.0009666598469983,0.00096665999039257,1.4483886778672e-09,-1.3388248891422e-09,-0.001152517959276,0.0011525198417008,-0.0011525188825006,0.0011525189041112,-0.0011525187706361,0.0011525190385338,-0.001152519695663,0.0011525181060034,-0.00096647424400024,0.00096647111087349,-0.00096647186149635,0.00096647345387191,0.65380935477232,131329,3014,0.0040200885032004,0.0040200885053047,0.0040200885059285,41.431257904153,9.1450063233223e-05,9.1450063233223e-05,9.1450063233223e-05,4674484.3751583,0.012134245863309
8619200,0.75121536346462,0.012650202135951,0.0042167340443406,0.0042167340456298,0.0042167340459808,-0.00098925943289048,0.00098925970130117,-1.0796573755024e-09,1.3417304883487e-09,-1.7021154518649e-09,2.0513691938145e-09,-0.0011828496347374,0.0011828478535636,-0.0011828488270457,0.0011828486548823,-0.0011828484320494,0.0011828490903722,-0.0011828476257724,0.0011828498961271,-0.00098798179362558,0.00098798092712026,-0.0009879794133167,0.00098798329007018,1.7299415957232e-09,-2.0767611133533e-09,-1.5215129493454e-09,1.2614716235585e-09,-0.00098925970133094,0.00098925943348631,-0.0011828487169938,0.0011828487976887,-0.0011828478072784,0.0011828497221065,-0.0011828499408726,0.0011828475360243,-0.0011828490322852,0.001182848464492,-0.00098798345908751,0.00098797920917942,-0.00098798075331953,0.00098798196904743,-0.00098797920223462,0.00098798356263595,-0.00098798291625172,0.00098797973061498,1.3283579599879e-09,-1.1669621204318e-09,-0.0009892594951674,0.00098925963982763,1.4328045933326e-09,-1.3223490669525e-09,-0.0011828478026291,0.0011828497034037,-0.0011828487150846,0.0011828487764448,-0.0011828486412183,0.0011828488731724,-0.001182849555548,0.0011828479512564,-0.00098798295723101,0.00098797975397239,-0.00098798049627789,0.00098798217804053,0.65260875757305,131329,3014,0.0041139132972457,0.0041139132985461,0.0041139132989167,41.682043316853,9.3456346534827e-05,9.3456346534827e-05,9.3456346534827e-05,4669946.7462248,0.012419258080277
8819200,0.77043195191553,0.012911656813248,0.0043038856034347,0.0043038856047299,0.0043038856050831,-0.0010101495616723,0.0010101498305222,-1.1204406557188e-09,1.3830151593362e-09,-1.7130324676222e-09,2.0629297359126e-09,-0.0012112001112476,0.0012111982956554,-0.0012111992762671,0.0012111991243527,-0.001211198901053,0.0012111995399482,-0.0012111980674806,0.0012112003730435,-0.0010076151627723,0.001007614224335,-0.0010076127030771,0.0010076166682319,1.7404738279394e-09,-2.0879037351855e-09,-1.5068776501156e-09,1.2463547621579e-09,-0.0010101498306757,0.0010101495620952,-0.0012111991682933,0.0012111992650927,-0.0012111982682914,0.0012112001796468,-0.0012112003996017,0.0012111979962208,-0.0012111995007005,0.0012111989147663,-0.0010076167814256,0.0010076125533216,-0.0010076141054051,0.0010076152844291,-0.0010076125298074,0.001007616901637,-0.0010076162650404,0.0010076130479139,1.3698264014202e-09,-1.206916856342e-09,-0.0010101496232746,0.0010101497696593,1.4189605539791e-09,-1.3066883429504e-09,-0.0012111982523799,0.0012112001723469,-0.001211199154956,0.0012111992551758,-0.0012111991182616,0.0012111993150563,-0.0012112000226881,0.0012111984028723,-0.0010076163247052,0.0010076130526179,-0.0010076137841403,0.0010076155568193,0.62941993030951,131329,3014,0.0042006357301646,0.0042006357313637,0.0042006357317039,41.93287664184,9.5463013134722e-05,9.5463013134722e-05,9.5463013134722e-05,4677748.4264082,0.012682773141992
9019200,0.78820174366021,0.013153661091342,0.0043845536961067,0.0043845536974364,0.0043845536977988,-0.0010286076653963,0.0010286079429813,-1.1578062032564e-09,1.4308866356308e-09,-1.7941448406361e-09,2.1558696314861e-09,-0.0012366230419935,0.001236621146784,-0.0012366221778392,0.0012366220039919,-0.0012366217739496,0.0012366224500087,-0.0012366209123456,0.0012366233106043,-0.0010249702447348,0.0010249692958532,-0.0010249677175606,0.0010249718349633,1.8237129339101e-09,-2.1702364509463e-09,-1.4931391621828e-09,1.2329948907262e-09,-0.0010286079397621,0.0010286076679253,-0.0012366220318678,0.0012366221851867,-0.0012366211398304,0.0012366230910013,-0.0012366233182989,0.0012366208621104,-0.0012366224283911,0.0012366217707461,-0.0010249718639407,0.0010249676177923,-0.0010249692292226,0.0010249703312829,-0.00102496752451,0.0010249720639073,-0.0010249714172461,0.0010249680366638,1.4061928688319e-09,-1.2486556735439e-09,-0.0010286077311968,0.0010286078762548,1.4044096164708e-09,-1.2962336518341e-09,-0.0012366211344062,0.0012366230735636,-0.0012366220285873,0.0012366221657156,-0.0012366220264477,0.0012366221911159,-0.0012366229234816,0.0012366212872182,-0.0010249714364964,0.0010249680822946,-0.0010249688247199,0.00102497067088,0.62977530458037,131329,3014,0.0042772583120684,0.0042772583106345,0.0042772583101453,41.749759798111,9.3998078384891e-05,9.3998078384891e-05,9.3998078384891e-05,4677637.3420928,0.012915659862372
9219200,0.80451729901578,0.013373315671604,0.0044577718891925,0.0044577718909523,0.0044577718914591,-0.0010451027504169,0.0010451030368676,-1.1936263809746e-09,1.4754316801338e-09,-1.8772214379384e-09,2.2486507234698e-09,-0.0012596265663827,0.001259624594474,-0.0012596256754538,0.0012596254783164,-0.0012596252402966,0.0012596259565139,-0.0012596243513833,0.0012596268441039,-0.0010404656710295,0.0010404647104268,-0.0010404630635465,0.0010404673280049,1.9076794598846e-09,-2.2650708063531e-09,-1.4874015425932e-09,1.2176115207739e-09,-0.0010451030342411,0.0010451027527323,-0.001259625489841,0.0012596257002913,-0.001259624604806,0.0012596265986054,-0.0012596268356546,0.0012596243173615,-0.0012596259524296,0.0012596252190744,-0.001040467310496,0.0010404630138525,-0.0010404646942854,0.001040465706895,-0.001040462866896,0.0010404675628697,-0.0010404669347905,0.0010404633611881,1.4486546646238e-09,-1.2891077587605e-09,-0.0010451028199845,0.0010451029668717,1.3946364834451e-09,-1.2842778430317e-09,-0.0012596246096864,0.0012596265710111,-0.0012596254968737,0.0012596256700469,-0.0012596255294623,0.0012596256608702,-0.0012596264191879,0.0012596247644375,-0.0010404668931351,0.0010404634683626,-0.0010404641999547,0.0010404661366487,0.6230058065083,131329,3014,0.0043457283848038,0.0043457283841625,0.0043457283839215,41.451686211456,9.1613489691644e-05,9.1613489691644e-05,9.1613489691644e-05,4677985.3135134,0.013123816674729
9419200,0.81948731144902,0.013572514414531,0.0045241714699785,0.0045241714719849,0.0045241714725676,-0.0010599963911685,0.0010599966861627,-1.2305274400255e-09,1.520113033855e-09,-1.9439590470914e-09,2.3240606453367e-09,-0.0012805496438013,0.0012805476063941,-0.0012805487257886,0.001280548517542,-0.0012805482705776,0.0012805490159044,-0.0012805473545262,0.0012805499307774,-0.0010543641464678,0.0010543631595422,-0.0010543614537612,0.0010543658523602,1.9721637617967e-09,-2.3427976426659e-09,-1.4842813432803e-09,1.202797577048e-09,-0.0010599966849214,0.0010599963927314,-0.0012805485125897,0.0012805487670483,-0.00128054763346,0.0012805496594359,-0.0012805499055442,0.0012805473365616,-0.0012805490282196,0.001280548232386,-0.0010543657960713,0.0010543614552785,-0.0010543631924439,0.0010543641263122,-0.0010543612703445,0.001054366083302,-0.0010543654799416,0.0010543617446144,1.4913672857237e-09,-1.3280532657373e-09,-0.0010599964641936,0.0010599966135447,1.3875338281175e-09,-1.2734973767793e-09,-0.0012805476430445,0.0012805496269394,-0.0012805485240859,0.0012805487317381,-0.0012805485901163,0.0012805486896588,-0.0012805494737346,0.0012805477990314,-0.001054365391404,0.0010543618991792,-0.0010543626158602,0.0010543646448494,0.61620824491003,131329,3014,0.0044075474374231,0.0044075474380978,0.0044075474382782,41.150900646663,8.9207205173305e-05,8.9207205173305e-05,8.9207205173305e-05,4678429.2508137,0.013311792416739
9619200,0.8332175274353,0.013753055925432,0.0045843519735706,0.0045843519756322,0.0045843519762294,-0.0010734530033346,0.0010734533064755,-1.2674853418693e-09,1.5648721982579e-09,-1.9919169874798e-09,2.3807144303966e-09,-0.0012995782202372,0.0012995761290112,-0.0012995772750603,0.0012995770675081,-0.0012995768123587,0.0012995775734644,-0.0012995758691298,0.001299578515626,-0.0010668436182088,0.0010668425934484,-0.0010668408437293,0.0010668453645728,2.0190745049086e-09,-2.400208152737e-09,-1.4816172659666e-09,1.1907205662819e-09,-0.001073453305805,0.0010734530045029,-0.0012995770467011,0.0012995773322342,-0.0012995761724387,0.0012995782197568,-0.0012995784741813,0.001299575866881,-0.0012995776017688,0.0012995767578426,-0.0010668452645008,0.0010668408931769,-0.0010668426736252,0.001066843548108,-0.0010668406800418,0.0010668455791128,-0.0010668449925589,0.0010668411384443,1.5331867672849e-09,-1.3677214433429e-09,-0.0010734530796964,0.0010734532307465,1.3813697221473e-09,-1.2650683431187e-09,-0.0012995761808676,0.0012995781882788,-0.0012995770568701,0.0012995772977886,-0.0012995771551809,0.0012995772239294,-0.001299578033823,0.0012995763380191,-0.0010668448808475,0.0010668413167785,-0.0010668420243981,0.0010668441411759,0.60938041047382,131329,3014,0.0044633989719515,0.0044633989729904,0.004463398973273,40.850019049845,8.6800152398761e-05,8.6800152398761e-05,8.6800152398761e-05,4678190.9522866,0.013481653573252
9819200,0.84557070511153,0.013916379298444,0.0046387930979,0.0046387930999725,0.0046387931005718,-0.0010847899567139,0.0010847902775156,-1.3037187141117e-09,1.6230118373377e-09,-2.0712768571785e-09,2.4839671850958e-09,-0.0013159347574843,0.0013159325873437,-0.0013159337782144,0.0013159335571315,-0.0013159332888702,0.0013159340949386,-0.0013159323162563,0.0013159350661929,-0.0010773153262965,0.0010773143020115,-0.0010773124936457,0.0010773171860647,2.0961556204361e-09,-2.46937396528e-09,-1.4731440729538e-09,1.1888432186975e-09,-0.0010847902673316,0.0010847899646259,-0.0013159335251362,0.0013159338516397,-0.0013159326518919,0.001315934737756,-0.0013159350018279,0.0013159323417451,-0.0013159341325863,0.0013159332264044,-0.001077316971817,0.0010773125909944,-0.0010773144230061,0.0010773152501787,-0.0010773123030109,0.0010773173780436,-0.0010773167537111,0.0010773127716974,1.5602327924298e-09,-1.4095976626708e-09,-0.0010847900431547,0.0010847901880092,1.3733010874768e-09,-1.2698847829945e-09,-0.0013159326686079,0.0013159346970837,-0.0013159335433636,0.0013159338115001,-0.0013159336669036,0.0013159337131256,-0.0013159345469773,0.0013159328282012,-0.0010773166285067,0.0010773129638941,-0.0010773137105837,0.0010773158717682,0.61213711703822,131329,3014,0.0045104521200436,0.0045104521153236,0.0045104521136727,40.183138693502,8.1465109548015e-05,8.1465109548015e-05,8.1465109548015e-05,4674860.1508314,0.013624781189123
10019200,0.85667645353269,0.014064240694887,0.0046880802295303,0.0046880802322304,0.0046880802331258,-0.0010947715562502,0.0010947718823129,-1.3390627633165e-09,1.6610328246462e-09,-2.1158430546823e-09,2.5316252128228e-09,-0.0013304048291851,0.001330402610542,-0.0013304038263821,0.0013304036050491,-0.0013304033306389,0.0013304041486044,-0.001330402331468,0.001330405145758,-0.0010865581316646,0.001086557062125,-0.0010865552038847,0.0010865600045221,2.1427024130448e-09,-2.5389054990033e-09,-1.4834551168431e-09,1.1787737674972e-09,-0.0010947718785295,0.0010947715601553,-0.0013304035584887,0.0013304039138074,-0.0013304026862863,0.001330404797946,-0.0013304050723505,0.0013304023627999,-0.0013304042032945,0.0013304032490102,-0.0010865597960662,0.0010865553407962,-0.0010865572254756,0.0010865579902531,-0.0010865550486634,0.0010865601969391,-0.0010865596161478,0.0010865554902154,1.6105732352109e-09,-1.4490212413075e-09,-0.0010947716442407,0.0010947717944767,1.3761208992747e-09,-1.262816882017e-09,-0.0013304027014165,0.0013304047598193,-0.0013304035750784,0.0013304038730483,-0.0013304037283373,0.001330403744251,-0.0013304046064272,0.0013304028611231,-0.0010865594498959,0.0010865557234951,-0.0010865564398647,0.001086558707885,0.61574677668139,131329,3014,0.0045518788683184,0.0045518788685825,0.0045518788686526,39.478881263487,7.5831050107894e-05,7.5831050107894e-05,7.5831050107894e-05,4670342.4966811,0.013750812688464
10219200,0.86667432722993,0.014198456165574,0.0047328187197159,0.0047328187224718,0.0047328187233859,-0.0011036222296658,0.0011036225620738,-1.3769163026815e-09,1.7046961094099e-09,-2.1378609369335e-09,2.5600797072046e-09,-0.001343257413494,0.0013432551571565,-0.0013432563833901,0.0013432561790244,-0.0013432558982209,0.0013432567122432,-0.0013432548718736,0.0013432577366693,-0.0010947811520001,0.0010947800243187,-0.0010947781411067,0.0010947830439285,2.1632878468863e-09,-2.5688084039901e-09,-1.4879529451154e-09,1.1749675157556e-09,-0.0011036225590925,0.0011036222330381,-0.0013432561192255,0.0013432564840747,-0.0013432552467691,0.0013432573684374,-0.0013432576495276,0.0013432549163239,-0.0013432567803559,0.0013432558027343,-0.0010947828017168,0.0010947783189931,-0.0010947802275259,0.0010947809666598,-0.0010947780206851,0.0010947832070553,-0.0010947826387304,0.0010947784524506,1.6522799866865e-09,-1.488954423935e-09,-0.0011036223205333,0.0011036224717217,1.3773088648067e-09,-1.2623441424883e-09,-0.0013432552530501,0.0013432573390831,-0.0013432561267552,0.0013432564519125,-0.0013432563070099,0.001343256296501,-0.0013432571854787,0.0013432554130143,-0.0010947824808101,0.0010947786778445,-0.0010947793893468,0.0010947817402641,0.62007023670402,131329,3014,0.0045886110635285,0.0045886110643486,0.0045886110646087,38.773679613116,7.0189436904927e-05,7.0189436904927e-05,7.0189436904927e-05,4665316.1350794,0.013862576658715
10419200,0.87570263126773,0.014320798344474,0.0047735994460099,0.0047735994487737,0.00477359944969,-0.0011115539694534,0.0011115543044383,-1.4167598964871e-09,1.7463640913052e-09,-2.1263900295383e-09,2.5506278626579e-09,-0.0013547659107096,0.0013547636372837,-0.0013547648535581,0.0013547646864813,-0.0013547644023811,0.0013547651853254,-0.0013547633489535,0.0013547662370445,-0.0011021895570999,0.0011021883432938,-0.0011021864617309,0.0011021914384057,2.1497074740627e-09,-2.561653962682e-09,-1.4923960270138e-09,1.1736870776252e-09,-0.0011115543026788,0.0011115539720316,-0.0013547646132891,0.001354764966953,-0.0013547637398598,0.0013547658524574,-0.0013547661365013,0.0013547634059853,-0.0013547652663772,0.0013547642935799,-0.0011021911667403,0.0011021866796988,-0.0011021885852805,0.0011021893267563,-0.0011021863966622,0.0011021915539559,-0.0011021909963046,0.0011021868222026,1.6943359143773e-09,-1.528511641548e-09,-0.0011115540613074,0.0011115542136635,1.3800237018703e-09,-1.2627695946969e-09,-0.0013547637274134,0.0013547658416793,-0.0013547646019371,0.0013547649532436,-0.0013547648085346,0.0013547647718998,-0.0013547656878957,0.001354763887165,-0.001102190882734,0.0011021870034972,-0.0011021877090657,0.0011021901436403,0.6250614361569,131329,3014,0.0046215288891809,0.0046215288908879,0.0046215288914305,38.098679585612,6.4789436684894e-05,6.4789436684894e-05,6.4789436684894e-05,4659717.1846912,0.013962746612156
10619200,0.88413352979293,0.01443286903007,0.0048109563412485,0.0048109563439608,0.0048109563448605,-0.0011198956512608,0.00111989597762,-1.4642617458676e-09,1.7835401503668e-09,-2.0100858751386e-09,2.422710643147e-09,-0.001366465259293,0.0013664630314514,-0.0013664641736986,0.0013664641097652,-0.0013664638311064,0.001366464498162,-0.0013664627504041,0.0013664655777882,-0.0011100354480564,0.0011100340588384,-0.001110032259012,0.00111003722336,2.0222877996073e-09,-2.4336556372408e-09,-1.4899557342983e-09,1.1722896604624e-09,-0.0011198959786853,0.0011198956520878,-0.0013664640221075,0.0013664642989007,-0.0013664631496665,0.0013664651840708,-0.0013664654599333,0.0013664628234256,-0.0013664645919493,0.0013664637094942,-0.0011100369297087,0.0011100325278844,-0.0011100343433463,0.0011100351597832,-0.0011100323277983,0.0011100372251665,-0.0011100366847532,0.0011100327507498,1.7369319402156e-09,-1.5645906252421e-09,-0.0011198957380149,0.0011198958933613,1.3815992050338e-09,-1.2587439911469e-09,-0.0013664630855879,0.0013664652247729,-0.0013664639582072,0.0013664643373906,-0.0013664641922139,0.001366464129216,-0.0013664650709192,0.00136646324431,-0.0011100367237733,0.0011100327793243,-0.0011100334652452,0.0011100359927315,0.61395113373575,131329,3014,0.0046561451691049,0.0046561451730425,0.004656145174297,38.029325038133,6.4234600305064e-05,6.4234600305064e-05,6.4234600305064e-05,4658051.8883944,0.014068093654622
10819200,0.89200831452384,0.014535708991406,0.0048452363285057,0.0048452363310305,0.00484523633187,-0.0011276085732446,0.0011276088904788,-1.5078647067682e-09,1.819483257506e-09,-1.8770992914346e-09,2.2812136211956e-09,-0.0013773086033877,0.0013773064303815,-0.0013773074915573,0.0013773075347155,-0.0013773072667338,0.0013773078051728,-0.001377306158879,0.001377308911729,-0.0011172442306066,0.0011172426652221,-0.0011172409727609,0.0011172459187088,1.8976253069438e-09,-2.2917963946051e-09,-1.4822058461523e-09,1.179501224086e-09,-0.001127608889224,0.0011276085752669,-0.0013773074330067,0.0013773076312843,-0.0013773065609978,0.0013773085156437,-0.0013773087828899,0.0013773062446901,-0.001377307914488,0.0013773071308988,-0.0011172455682346,0.0011172412746812,-0.0011172429898641,0.001117243915485,-0.001117241143328,0.0011172458011565,-0.001117245232309,0.0011172415844307,1.7764812221887e-09,-1.608838654907e-09,-0.0011276086556563,0.0011276088090759,1.3789012926003e-09,-1.2599443947401e-09,-0.0013773064432593,0.0013773086106757,-0.0013773073160653,0.0013773077234384,-0.0013773075783517,0.0013773074868555,-0.0013773084563434,0.0013773066030871,-0.0011172454589508,0.0011172414245681,-0.001117242124639,0.0011172447231092,0.60386754773394,131329,3014,0.0046881512274633,0.0046881512290594,0.0046881512295605,37.973575612135,6.378860489708e-05,6.378860489708e-05,6.378860489708e-05,4657921.0611535,0.014165507127474
11019200,0.89936021678905,0.014629897739923,0.0048766325780271,0.0048766325805316,0.0048766325813642,-0.0011347063252101,0.0011347066306462,-1.5544455791075e-09,1.8544396168485e-09,-1.750084751818e-09,2.1412529001349e-09,-0.0013873458993739,0.0013873437763017,-0.0013873447603893,0.0013873449078349,-0.0013873446511086,0.001387345061939,-0.0013873435160562,0.0013873461957131,-0.0011238314032837,0.0011238296576663,-0.0011238280661679,0.0011238329917964,1.7710328965126e-09,-2.151948441217e-09,-1.4765804952653e-09,1.1856812490664e-09,-0.0011347066293745,0.0011347063272091,-0.0013873447922808,0.0013873449131928,-0.0013873439200766,0.0013873457977187,-0.001387346053932,0.0013873436156183,-0.0013873451853345,0.0013873445020549,-0.001123832600771,0.0011238284074603,-0.0011238300221954,0.0011238310493455,-0.001123828350224,0.0011238327591716,-0.0011238321774236,0.0011238288048884,1.8172585515281e-09,-1.6498444102681e-09,-0.0011347064017125,0.0011347065550956,1.3791011511712e-09,-1.2602299361052e-09,-0.0013873437503221,0.001387345945223,-0.001387344623314,0.0013873450577861,-0.001387344912658,0.0013873447941093,-0.0013873457908419,0.0013873439102128,-0.0011238325816522,0.001123828466564,-0.001123829167829,0.0011238318454242,0.59320720708457,131329,3014,0.0047176037533036,0.0047176037548183,0.0047176037552853,37.91830238769,6.3346419101521e-05,6.3346419101521e-05,6.3346419101521e-05,4659189.8666348,0.014255157311414
11219200,0.9062116553658,0.014717621480251,0.0049058738248074,0.0049058738273062,0.0049058738281374,-0.00114124999725,0.0011412502910495,-1.6007581405258e-09,1.8896852146491e-09,-1.6382944947572e-09,2.0171492783565e-09,-0.0013966222029303,0.0013966201192862,-0.0013966210367484,0.0013966212779012,-0.0013966210327728,0.0013966213261208,-0.0013966198704381,0.0013966224870656,-0.0011298987898986,0.0011298968754253,-0.0011298953758031,0.0011299002924445,1.6607357544545e-09,-2.0269824323134e-09,-1.4715538155415e-09,1.1938020111348e-09,-0.0011412502892316,0.0011412499995142,-0.0013966211492507,0.0013966212022955,-0.001396620275979,0.0013966220877524,-0.0013966223332302,0.0013966199833461,-0.0013966214635042,0.0013966208708148,-0.001129899857773,0.001129895754199,-0.0011298972786227,0.0011298984017191,-0.0011298957598757,0.0011298999543454,-0.0011298993548361,0.0011298962305751,1.857406163399e-09,-1.6914432819806e-09,-0.0011412500680426,0.0011412502208395,1.380022617021e-09,-1.2624030806583e-09,-0.0013966200593239,0.0013966222827148,-0.001396620933484,0.001396621394263,-0.0013966212489729,0.0013966211043158,-0.0013966221282522,0.0013966202195277,-0.0011298999246546,0.0011298957259167,-0.0011298964325461,0.0011298991861319,0.59263237245463,131329,3014,0.0047447561815887,0.0047447561825201,0.0047447561828039,37.837466318882,6.2699730551053e-05,6.2699730551053e-05,6.2699730551053e-05,4659758.1070712,0.014337812699088
11419200,0.91255234639322,0.014799389903624,0.0049331299659076,0.0049331299684379,0.0049331299692786,-0.0011470691695519,0.0011470694541137,-1.6459975017297e-09,1.9264143844217e-09,-1.5624604483764e-09,1.9319539944846e-09,-0.0014049701748146,0.0014049681075917,-0.0014049689810457,0.0014049692935757,-0.0014049690578378,0.0014049692608881,-0.0014049678682287,0.0014049704488516,-0.0011352923039913,0.001135290248816,-0.0011352888148692,0.0011352937500624,1.5856926628039e-09,-1.9385338870873e-09,-1.4693397333332e-09,1.2035080890714e-09,-0.0011470694512997,0.0011470691724115,-0.0014049691531317,0.0014049691585651,-0.0014049682770631,0.0014049700465412,-0.0014049702830929,0.0014049679944736,-0.0014049694109453,0.001404968884163,-0.0011352932698009,0.0011352892281696,-0.0011352906879433,0.0011352918862973,-0.0011352892747166,0.0011352933277887,-0.0011352927077064,0.0011352897621645,1.8967553064862e-09,-1.7334544706852e-09,-0.0011470692361109,0.001147069387608,1.382506879305e-09,-1.2671957353342e-09,-0.0014049680249204,0.0014049702775335,-0.0014049689015503,0.001404969386957,-0.0014049692415761,0.0014049690721829,-0.0014049701236579,0.0014049681849771,-0.0011352934102695,0.0011352891240409,-0.0011352898403981,0.0011352926665821,0.59626239114225,131329,3014,0.004768902334379,0.0047689023344783,0.004768902334495,37.630223483715,6.104178786972e-05,6.104178786972e-05,6.104178786972e-05,4658664.1384189,0.014411323265395
11619200,0.91842062305728,0.014875444390528,0.0049584814614882,0.0049584814640888,0.0049584814649506,-0.0011524212816778,0.0011524215572532,-1.6914901270789e-09,1.9623603156511e-09,-1.504870518768e-09,1.8637773929388e-09,-0.001412653525018,0.0014126514642438,-0.0014126523043342,0.0014126526773379,-0.0014126524494366,0.0014126525753393,-0.0014126512326417,0.0014126537906752,-0.001140272465449,0.0011402702776125,-0.0011402688911285,0.0011402738541566,1.5266815483241e-09,-1.8735063788831e-09,-1.4707854704634e-09,1.2106039014406e-09,-0.0011524215557174,0.0011524212837968,-0.0014126525238664,0.0014126524935943,-0.0014126516451867,0.0014126533844019,-0.0014126536130736,0.0014126513707241,-0.0014126527380318,0.0014126522635104,-0.0011402733484116,0.001140269342127,-0.0011402707532898,0.0011402720048934,-0.0011402694278889,0.0011402733631862,-0.0011402727414434,0.0011402699235528,1.9387234041543e-09,-1.7733571661559e-09,-0.001152421343763,0.0011524214959344,1.3876922253374e-09,-1.2706599347994e-09,-0.0014126513630767,0.0014126536455094,-0.0014126522426052,0.0014126527518362,-0.001412652607069,0.00141265241267,-0.0014126534918014,0.0014126515226136,-0.0011402735466936,0.0011402691823248,-0.0011402698946678,0.0011402728025668,0.5987336009146,131329,3014,0.0047911102632901,0.0047911102645082,0.0047911102648904,37.420136255291,5.9361090042331e-05,5.9361090042331e-05,5.9361090042331e-05,4656704.8602276,0.01447893858581
11819200,0.92385299846493,0.014946326772381,0.0049821089220953,0.0049821089247104,0.0049821089255756,-0.0011573534631781,0.0011573537319236,-1.7357822308679e-09,1.9997072072587e-09,-1.466831885881e-09,1.8181347824069e-09,-0.0014197127126192,0.0014197106457864,-0.0014197114647785,0.0014197118861462,-0.001419711664473,0.0014197117288793,-0.0014197104205302,0.0014197129714917,-0.0011448831192508,0.0011448808164574,-0.0011448794637516,0.0011448844717851,1.4880811921488e-09,-1.828537262894e-09,-1.4725180291176e-09,1.2181725760523e-09,-0.0011573537307272,0.0011573534650637,-0.0014197117202033,0.0014197116657092,-0.0014197108385124,0.0014197125597313,-0.001419712782002,0.0014197105707724,-0.0014197119038331,0.0014197114666649,-0.001144883933116,0.0011448799506775,-0.0011448813277891,0.0011448826215985,-0.0011448800607791,0.0011448839221855,-0.0011448832930421,0.0011448805659485,1.9796333418544e-09,-1.814105498087e-09,-0.0011573535220291,0.0011573536739749,1.3923548572796e-09,-1.27526050102e-09,-0.0014197105325681,0.0014197128447278,-0.0014197114152263,0.0014197119480227,-0.0014197118038117,0.0014197115846906,-0.0014197126915399,0.0014197106914574,-0.0011448841846084,0.0011448797379652,-0.0011448804521217,0.0011448834376454,0.60218093247094,131329,3014,0.0048115755277445,0.0048115755291818,0.0048115755296257,37.209949451617,5.7679595612933e-05,5.7679595612933e-05,5.7679595612933e-05,4654029.6598811,0.014541252676017
12019200,0.92889071654143,0.015014140730228,0.0050047135747087,0.0050047135773267,0.0050047135781922,-0.0011620345738138,0.0011620348375776,-1.7792071309729e-09,2.0379280732257e-09,-1.4484420807357e-09,1.7940482149409e-09,-0.0014263232578055,0.0014263211731149,-0.0014263219827949,0.0014263224407745,-0.001426322223409,0.001426322241974,-0.0014263209523392,0.0014263235118421,-0.0011493257416314,0.0011493233392748,-0.0011493220043259,0.0011493270726359,1.4685056753901e-09,-1.8051254514213e-09,-1.4752733249273e-09,1.2245111077721e-09,-0.0011620348368833,0.0011620345753747,-0.001426322262434,0.0014263221953558,-0.0014263213777751,0.0014263230925193,-0.0014263233102268,0.0014263211147709,-0.001426322429082,0.0014263220137174,-0.0011493265021881,0.0011493225277266,-0.0011493238863138,0.0011493252059314,-0.001149322651464,0.0011493264759099,-0.0011493258427138,0.0011493231634364,2.0206882447141e-09,-1.8547021174176e-09,-0.0011620346303478,0.0011620347821798,1.3969784431204e-09,-1.2795748601017e-09,-0.0014263210538311,0.0014263233955659,-0.0014263219394248,0.0014263224958924,-0.0014263223522602,0.0014263221083202,-0.0014263232429169,0.0014263212120062,-0.0011493267988426,0.0011493222705757,-0.0011493229854193,0.0011493260494665,0.61929851286497,131329,3014,0.0048309985051498,0.0048309985069557,0.0048309985075169,37.02763278895,5.6221062311601e-05,5.6221062311601e-05,5.6221062311601e-05,4649327.9201215,0.014600396215072
12219200,0.9335805453818,0.015079371113998,0.0050264570359715,0.0050264570385819,0.0050264570394444,-0.0011665819074287,0.0011665821675353,-1.8221137037947e-09,2.0766530692036e-09,-1.4424415389894e-09,1.783470647196e-09,-0.0014326570037033,0.0014326548941607,-0.0014326557016507,0.0014326561891209,-0.0014326559744873,0.0014326559573561,-0.0014326546762491,0.0014326572545923,-0.0011537213791602,0.0011537188862391,-0.0011537175578712,0.0011537226959693,1.4610994405619e-09,-1.7968781738699e-09,-1.4784994435044e-09,1.2286647553328e-09,-0.0011665821678442,0.001166581908352,-0.0014326559977195,0.0014326559262599,-0.0014326551107739,0.0014326568259456,-0.0014326570405438,0.0014326548507581,-0.0014326561570028,0.0014326557523265,-0.0011537220968087,0.0011537181190732,-0.0011537194701467,0.0011537208014763,-0.0011537182506485,0.0011537220599741,-0.0011537214283614,0.0011537187655656,2.0622643787682e-09,-1.8947630248196e-09,-0.0011665819621951,0.0011665821143873,1.4013750576304e-09,-1.2827271420369e-09,-0.001432654772456,0.001432657143336,-0.0014326556605013,0.0014326562410072,-0.0014326560980758,0.0014326558287835,-0.0014326569910813,0.001432654929871,-0.0011537224320744,0.0011537178248236,-0.0011537185370831,0.0011537216819314,0.63789982010462,131329,3014,0.0048498663271029,0.004849866329668,0.0048498663304711,36.914087608282,5.5312700866254e-05,5.5312700866254e-05,5.5312700866254e-05,4643071.5882494,0.014657853469292
12419200,0.93794692894696,0.015138084593887,0.0050460281959572,0.0050460281985389,0.0050460281993914,-0.001170700002361,0.0011707002616875,-1.8630177446161e-09,2.1173668929537e-09,-1.4517608727607e-09,1.7926618281176e-09,-0.0014385086964328,0.0014385065521815,-0.0014385073671128,0.0014385078742682,-0.0014385076609987,0.0014385076215694,-0.0014385063355176,0.0014385089459515,-0.0011576703071144,0.0011576677412403,-0.0011576664100808,0.0011576716347744,1.4720736485457e-09,-1.804150279032e-09,-1.480423862933e-09,1.2338682690038e-09,-0.0011707002610387,0.0011707000038031,-0.0014385076708155,0.0014385076041426,-0.0014385067814396,0.0014385085061664,-0.0014385087199446,0.00143850652267,-0.0014385078339621,0.0014385074265461,-0.0011576709914381,0.0011576670060029,-0.0011576683614193,0.0011576696987582,-0.0011576671292167,0.0011576709654579,-0.0011576703229635,0.0011576676509042,2.1018218890193e-09,-1.9368446285496e-09,-0.0011707000571395,0.001170700207945,1.403735088239e-09,-1.2873753347143e-09,-0.0014385064334032,0.0014385088334521,-0.0014385073238929,0.0014385079288671,-0.0014385077863259,0.0014385074917356,-0.0014385086817372,0.0014385065905568,-0.0011576713653274,0.0011576666713811,-0.0011576673923342,0.0011576706101815,0.61826607379522,131329,3014,0.0048669542309221,0.0048669542325742,0.0048669542330791,36.80209276339,5.4416742107124e-05,5.4416742107124e-05,5.4416742107124e-05,4638977.5930696,0.014709897212228
12619200,0.94201233262218,0.015189785016306,0.005063261670098,0.0050632616726785,0.0050632616735299,-0.0011743816807451,0.0011743819403937,-1.9036389224317e-09,2.1583600419352e-09,-1.4761876573039e-09,1.8175694293251e-09,-0.0014438164403617,0.0014438142527445,-0.001443815083854,0.0014438156020235,-0.0014438153884324,0.0014438153385779,-0.0014438140357448,0.0014438166901716,-0.0011611169096609,0.001161114280765,-0.0011611129329743,0.0011611182544847,1.4965838583529e-09,-1.8290206468696e-09,-1.483809892385e-09,1.236977597795e-09,-0.0011743819397549,0.0011743816821644,-0.0014438153860776,0.0014438153333236,-0.0014438144945605,0.001443816237519,-0.001443816451774,0.0014438142353697,-0.001443815563621,0.0014438151414254,-0.0011611175739651,0.001161113565517,-0.0011611149377933,0.0011611162648699,-0.0011611136750271,0.0011611175618305,-0.0011611169171528,0.0011611141986896,2.1423279095294e-09,-1.9779634479273e-09,-0.001174381735939,0.0011743818862184,1.4066622276698e-09,-1.2909105324223e-09,-0.0014438141411937,0.0014438165701501,-0.001443815033855,0.0014438156634031,-0.0014438155213613,0.0014438152012286,-0.001443816418905,0.0014438142978876,-0.0011611179776997,0.0011611132009767,-0.0011611139249237,0.0011611172197979,0.58731203092157,131329,3014,0.004882230979111,0.0048822309807375,0.0048822309812329,36.690152171366,5.3521217370929e-05,5.3521217370929e-05,5.3521217370929e-05,4638446.6118667,0.014756427127001
12819200,0.94576339138134,0.015237875569011,0.0050792918543316,0.0050792918569142,0.0050792918577656,-0.0011774649299192,0.0011774651939326,-1.9412661762979e-09,2.2015201160716e-09,-1.5299400814984e-09,1.8775850309485e-09,-0.0014483209795902,0.0014483187302491,-0.0014483195957471,0.0014483201064168,-0.0014483198899523,0.0014483198543699,-0.0014483185103493,0.0014483212325238,-0.0011639641879204,0.0011639615260671,-0.0011639601416457,0.0011639655866852,1.5526459252333e-09,-1.8834275871352e-09,-1.4884667066336e-09,1.2428913716478e-09,-0.0011774651912068,0.0011774649325901,-0.0014483198801845,0.0014483198570339,-0.0014483189847861,0.0014483207647517,-0.0014483209826488,0.0014483187226272,-0.001448320090981,0.0014483196317947,-0.0011639648545335,0.0011639608053521,-0.0011639622163683,0.0011639635216062,-0.0011639608776183,0.0011639648853727,-0.0011639642246653,0.0011639614079362,2.180991741317e-09,-2.0217054946378e-09,-0.0011774649880112,0.0011774651357534,1.4087109197013e-09,-1.2974579849903e-09,-0.0014483186351347,0.0014483210938621,-0.0014483195307823,0.0014483201846348,-0.0014483200427956,0.0014483196978213,-0.0014483209436414,0.0014483187916401,-0.0011639652828181,0.0011639604127298,-0.0011639611527651,0.0011639645164029,0.59134554439945,131329,3014,0.0048950240048886,0.0048950240047795,0.0048950240047134,36.406427791534,5.1251422332268e-05,5.1251422332268e-05,5.1251422332268e-05,4637779.2105928,0.014795391653979
13019200,0.94918101985867,0.015281845137843,0.0050939483772401,0.0050939483798686,0.0050939483807342,-0.0011797642964218,0.0011797645690261,-1.9772467627039e-09,2.2484728666973e-09,-1.6100605101684e-09,1.9699441887926e-09,-0.0014518972299155,0.0014518949022913,-0.0014518958183627,0.0014518963052967,-0.0014518960837748,0.0014518960839706,-0.0014518946760128,0.001451897489678,-0.0011660445785489,0.0011660419062541,-0.0011660404664481,0.0011660460641764,1.6425126780921e-09,-1.9709238398134e-09,-1.4940266345721e-09,1.2502218260413e-09,-0.0011797645625881,0.0011797643013517,-0.0014518960685676,0.0014518960930631,-0.0014518951688074,0.0014518970045346,-0.0014518972304801,0.0014518948997515,-0.001451896333859,0.0014518958131785,-0.0011660452682795,0.0011660411565752,-0.0011660426306209,0.0011660438991417,-0.001166041169727,0.0011660453694602,-0.0011660446819587,0.0011660417085139,2.2165878068229e-09,-2.0663976157948e-09,-0.0011797643600431,0.0011797645033956,1.4125275524588e-09,-1.309389106591e-09,-0.0014518948312813,0.0014518973219171,-0.0014518957328917,0.0014518964075058,-0.0014518962664391,0.0014518958990756,-0.0014518971726022,0.0014518949883746,-0.0011660457117563,0.0011660407421833,-0.0011660415118148,0.0011660449307358,0.59302697549678,131329,3014,0.0049045658717428,0.0049045658686165,0.0049045658675766,35.873311345808,4.698649076646e-05,4.698649076646e-05,4.698649076646e-05,4635757.6628706,0.014824457565949
13219200,0.95229849326912,0.015322124435424,0.0051073748096822,0.00510737481242,0.0051073748133214,-0.0011817640439797,0.0011817643211719,-2.0168180322994e-09,2.2900017162548e-09,-1.6923025032025e-09,2.0543696158302e-09,-0.0014550557914501,0.0014550533880533,-0.0014550543531546,0.0014550548186125,-0.0014550545894351,0.0014550546252636,-0.0014550531549714,0.0014550560582246,-0.0011678533026124,0.0011678506045105,-0.0011678490927767,0.0011678548242139,1.71566153729e-09,-2.0630920378551e-09,-1.5090857378448e-09,1.2486668106301e-09,-0.0011817643194519,0.0011817640461589,-0.001455054569636,0.0014550546379423,-0.0014550536656757,0.0014550555542895,-0.0014550557860547,0.001455053388955,-0.0014550548854281,0.0014550543071823,-0.0011678540301349,0.0011678498239512,-0.0011678513633683,0.0011678525648175,-0.0011678498107696,0.0011678541457172,-0.0011678534944444,0.0011678503327334,2.2618140075464e-09,-2.1032538313921e-09,-0.0011817641095497,0.0011817642562007,1.4223706714935e-09,-1.3120568490639e-09,-0.0014550533390489,0.0014550558600583,-0.0014550542442244,0.0014550549411439,-0.0014550548011396,0.0014550544097415,-0.0014550557111125,0.0014550534942806,-0.0011678544642724,0.0011678494269785,-0.0011678501746881,0.0011678536880575,0.59512404490331,131329,3014,0.0049128647389837,0.0049128647399492,0.004912864740242,35.334555770971,4.2676446167768e-05,4.2676446167768e-05,4.2676446167768e-05,4633287.9664682,0.014849738676288
13419200,0.95514634251168,0.015358322270967,0.0051194407548442,0.0051194407576072,0.0051194407585154,-0.0011834712847102,0.0011834715684334,-2.054622053589e-09,2.3337150531953e-09,-1.7638843311915e-09,2.1325710411833e-09,-0.0014578319520156,0.0014578294784531,-0.0014578304866278,0.0014578309362913,-0.0014578307002055,0.0014578307655889,-0.0014578292386696,0.0014578322258284,-0.0011693766916221,0.0011693739688022,-0.0011693723986709,0.0011693782651419,1.7856003285044e-09,-2.1427518273547e-09,-1.5191867110133e-09,1.2501053192101e-09,-0.0011834715674426,0.001183471286426,-0.0014578306753487,0.0014578307830857,-0.0014578297676937,0.0014578317034007,-0.0014578319413901,0.001457829484078,-0.001457831037016,0.0014578304062147,-0.0011693774429291,0.0011693731654119,-0.0011693747620056,0.0011693759149062,-0.0011693731172119,0.0011693775915849,-0.0011693769492813,0.0011693736331431,2.3031118573372e-09,-2.1436178931801e-09,-0.0011834713537928,0.0011834715002947,1.4284028775961e-09,-1.3174215804691e-09,-0.0014578294494513,0.0014578320004346,-0.0014578303583043,0.0014578310776267,-0.0014578309387681,0.0014578305229405,-0.0014578318523853,0.0014578296035002,-0.0011693778827007,0.0011693727640508,-0.0011693735113692,0.0011693771034707,0.58608288425443,131329,3014,0.0049199502797135,0.0049199502812269,0.0049199502816833,34.795602858916,3.8364822871332e-05,3.8364822871332e-05,3.8364822871332e-05,4630847.3586236,0.014871325539297
13619200,0.95776560202923,0.0153911821561,0.0051303940498828,0.0051303940526537,0.0051303940535638,-0.0011851229396145,0.0011851232274085,-2.092633493542e-09,2.3744649249617e-09,-1.8111898255706e-09,2.1827212935981e-09,-0.001460454379737,0.0014604518524632,-0.0014604528880377,0.0014604533369117,-0.0014604530950829,0.0014604531720061,-0.001460451607755,0.0014604546585951,-0.0011708499072957,0.0011708471418226,-0.0011708455287839,0.0011708515060499,1.8264055936785e-09,-2.1944784306388e-09,-1.5290999065585e-09,1.250290465159e-09,-0.0011851232284232,0.0011851229401886,-0.0014604530642151,0.0014604531949085,-0.0014604521533049,0.001460454119065,-0.0014604543608773,0.001460451865038,-0.0014604534534525,0.0014604527904722,-0.001170850666641,0.001170846334466,-0.0011708479680355,0.0011708490860191,-0.0011708462710427,0.0011708508232419,-0.0011708501996691,0.0011708467795054,2.3473056233656e-09,-2.1838539834657e-09,-0.0011851230106438,0.0011851231584474,1.4326889427774e-09,-1.3183067142819e-09,-0.0014604518355267,0.0014604544151244,-0.0014604527456194,0.0014604534905836,-0.0014604533527578,0.0014604529097198,-0.0014604542679657,0.0014604519880387,-0.0011708511194631,0.0011708459237648,-0.0011708466594434,0.001170850341683,0.57889843993079,131329,3014,0.0049268044821748,0.0049268044854808,0.0049268044864773,34.355066275338,3.4840530202703e-05,3.4840530202703e-05,3.4840530202703e-05,4629743.3418997,0.014892206754416
13819200,0.96018904231548,0.015421570632164,0.0051405235419189,0.0051405235446699,0.0051405235455757,-0.0011867553777917,0.001186755667547,-2.1368472204313e-09,2.4206436977613e-09,-1.8277073195607e-09,2.2015350703795e-09,-0.0014629714431492,0.0014629688766469,-0.0014629699223466,0.0014629703909133,-0.0014629701473298,0.001462970207732,-0.001462968629199,0.0014629717249213,-0.0011723173399754,0.0011723144947941,-0.0011723128690008,0.0011723189475104,1.8489807331874e-09,-2.2211048239598e-09,-1.5291277076283e-09,1.2467232296773e-09,-0.0011867556692824,0.0011867553777447,-0.0014629701007098,0.0014629702465404,-0.0014629691914993,0.0014629711688193,-0.0014629714136176,0.0014629688992815,-0.0014629705070664,0.0014629698245213,-0.0011723180681433,0.0011723137167439,-0.0011723153699537,0.0011723164643966,-0.0011723136441904,0.0011723182365836,-0.0011723176179104,0.001172314143914,2.3838480217852e-09,-2.2200978064771e-09,-0.0011867554500159,0.0011867555975723,1.4385056396696e-09,-1.3238686890144e-09,-0.0014629688654697,0.0014629714732286,-0.001462969779776,0.0014629705441167,-0.0014629704073092,0.0014629699425196,-0.0014629713256551,0.0014629690176406,-0.0011723185470966,0.0011723132791923,-0.0011723140197991,0.0011723177688191,0.57842148600506,131329,3014,0.0049335782636884,0.0049335782671996,0.0049335782683664,34.002974844164,3.2023798753314e-05,3.2023798753314e-05,3.2023798753314e-05,4629400.5050065,0.014912842013212
14019200,0.96243358828489,0.015449714806038,0.0051499049332309,0.0051499049359572,0.0051499049368498,-0.00118822376471,0.0011882240571632,-2.1730398938876e-09,2.4602564655597e-09,-1.8343020954477e-09,2.2119357773509e-09,-0.0014652585698424,0.0014652559738018,-0.0014652570229748,0.0014652575134535,-0.0014652572681585,0.0014652573108328,-0.0014652557251684,0.0014652588528359,-0.0011736349455361,0.0011736320400829,-0.0011736304098077,0.0011736365734726,1.8546351809687e-09,-2.2238630422459e-09,-1.5311905839094e-09,1.2511691668214e-09,-0.0011882240569276,0.0011882237658281,-0.0014652572135373,0.0014652573578856,-0.0014652563016918,0.0014652582827604,-0.0014652585292539,0.0014652560086652,-0.0014652576206925,0.0014652569353121,-0.0011736356435296,0.0011736312908012,-0.0011736329471999,0.0011736340507304,-0.001173631210408,0.0011736358230074,-0.0011736351910605,0.0011736317182016,2.4255189548256e-09,-2.2658425346541e-09,-0.0011882238386598,0.0011882239843655,1.4350347408502e-09,-1.3240859737589e-09,-0.0014652559637827,0.0014652585991026,-0.0014652568768055,0.0014652576717047,-0.0014652575346277,0.001465257040051,-0.0014652584524399,0.0014652561159274,-0.0011736361674498,0.001173630806309,-0.0011736315551562,0.00117363538402,0.57820997625349,131329,3014,0.0049396714314734,0.0049396714333088,0.0049396714338689,33.652890186691,2.9223121493526e-05,2.9223121493526e-05,2.9223121493526e-05,4628666.3214569,0.014931404566598
14219200,0.96451433024961,0.015474842309254,0.0051582807676346,0.0051582807703631,0.0051582807712561,-0.0011894928783979,0.0011894931716289,-2.2135477451652e-09,2.5016091853213e-09,-1.8327686288823e-09,2.2113075687187e-09,-0.0014672961555342,0.0014672935337575,-0.0014672945814116,0.0014672951006541,-0.0014672948547295,0.0014672948699894,-0.0014672932843114,0.0014672964393597,-0.001174744786534,0.0011747418010729,-0.0011747401710051,0.001174746415271,1.8534249164334e-09,-2.2232660031063e-09,-1.531646435903e-09,1.250973112725e-09,-0.0011894931713726,0.0011894928795216,-0.0014672947870613,0.001467294930062,-0.0014672938752037,0.0014672958549009,-0.0014672961022932,0.0014672935813502,-0.0014672951935953,0.0014672945081214,-0.0011747454444164,0.0011747410916848,-0.0011747427481574,0.0011747438523687,-0.0011747410123869,0.0011747456231026,-0.0011747449908645,0.0011747415198618,2.4660059065064e-09,-2.3066927360615e-09,-0.0011894929528509,0.0011894930983014,1.4352139507284e-09,-1.3245809725193e-09,-0.0014672935230163,0.0014672961855174,-0.0014672944364077,0.0014672952578217,-0.0014672951210576,0.0014672945993565,-0.0014672960390464,0.0014672936750561,-0.0011747460084169,0.0011747405668533,-0.0011747413168763,0.0011747452242075,0.5585630664528,131329,3014,0.0049449380550125,0.0049449380568176,0.0049449380573544,33.302875701654,2.6423005613233e-05,2.6423005613233e-05,2.6423005613233e-05,4628370.06257,0.014947450402549
14419200,0.96641282643487,0.015498019361835,0.0051660064518253,0.0051660064545577,0.0051660064554519,-0.0011900481883559,0.0011900484812116,-2.2578249455272e-09,2.5466833796885e-09,-1.849023530071e-09,2.2292919168975e-09,-0.001468491422051,0.0014684887570367,-0.001468489818606,0.0014684903541435,-0.0014684901101181,0.0014684901044377,-0.0014684885094002,0.0014684917028616,-0.0011751325961027,0.001175129539989,-0.0011751279071812,0.0011751342563078,1.8753590838458e-09,-2.2405158875166e-09,-1.5308959387783e-09,1.2539334540813e-09,-0.0011900484802518,0.0011900481889949,-0.0014684900292457,0.0014684901808171,-0.0014684891161075,0.0014684911056625,-0.0014684913556285,0.0014684888171378,-0.0014684904469931,0.0014684897450421,-0.0011751332202963,0.0011751288610981,-0.0011751305330269,0.0011751316391665,-0.0011751287642991,0.0011751334280929,-0.0011751327706031,0.0011751292771221,2.4998393497415e-09,-2.3467853850233e-09,-0.0011900482632857,0.0011900484058599,1.4395707956298e-09,-1.3343613786464e-09,-0.0014684887548799,0.0014684914472801,-0.0014684896722468,0.0014684905138803,-0.001468490376062,0.0014684898348107,-0.0014684912986308,0.0014684889052984,-0.0011751338216804,0.0011751282909007,-0.0011751290669027,0.0011751330280522,0.56383119049616,131329,3014,0.004947243654605,0.0049472436539439,0.0049472436537379,32.646784798495,2.1174278387964e-05,2.1174278387964e-05,2.1174278387964e-05,4625187.8384797,0.014954476313307
14619200,0.96813185353517,0.015519121964512,0.0051730406527062,0.0051730406554597,0.0051730406563462,-0.0011901398807237,0.0011901401782228,-2.2927294697473e-09,2.5871426809199e-09,-1.8724935453722e-09,2.2585815141792e-09,-0.0014691511729923,0.0014691484694616,-0.0014691495434712,0.0014691500907703,-0.0014691498441086,0.0014691498351447,-0.0014691482182653,0.0014691514588261,-0.0011750727800724,0.0011750696726338,-0.0011750680208962,0.0011750744648806,1.9011410902585e-09,-2.2633970182895e-09,-1.5376966628784e-09,1.2640131944398e-09,-0.0011901401739317,0.00119013988433,-0.001469149754955,0.0014691499178309,-0.0014691488362445,0.0014691508484842,-0.0014691510991464,0.0014691485400019,-0.0014691501837866,0.0014691494726952,-0.0011750733889217,0.0011750690049116,-0.0011750706901858,0.0011750717995705,-0.0011750688907804,0.0011750736145295,-0.0011750729468557,0.0011750694146239,2.541916046092e-09,-2.3927105566879e-09,-0.0011901399589027,0.0011901400991409,1.4411466390477e-09,-1.3397929089228e-09,-0.0014691484705234,0.0014691511932917,-0.0014691493914702,0.0014691502588652,-0.0014691501225179,0.001469149553091,-0.0014691510481599,0.0014691486222137,-0.0011750740264132,0.0011750684009689,-0.0011750691849264,0.0011750732240672,0.56645234446592,131329,3014,0.0049476267381655,0.0049476267367511,0.0049476267363009,31.822151457401,1.457721165921e-05,1.457721165921e-05,1.457721165921e-05,4617850.8353341,0.014955647868007
14819200,0.96969116230995,0.015538391231733,0.0051794637417516,0.0051794637445413,0.0051794637454397,-0.0011900842417413,0.0011900845381361,-2.3345281412972e-09,2.6261044091953e-09,-1.88418412688e-09,2.2670096033539e-09,-0.0014696004689703,0.0014695977324514,-0.0014695988129803,0.0014695993812149,-0.0014695991328081,0.0014695991044275,-0.0014695974804588,0.0014696007554723,-0.0011748844199026,0.0011748812340773,-0.0011748795675259,0.0011748860917782,1.9063168557234e-09,-2.2779645913483e-09,-1.5468910557478e-09,1.2648254305212e-09,-0.0011900845374343,0.0011900842431121,-0.0014695990322846,0.0014695991978932,-0.0014695981106874,0.0014696001323372,-0.0014696003829877,0.001469597813141,-0.0014695994647374,0.0014695987495532,-0.0011748850089278,0.0011748805920719,-0.0011748822874779,0.0011748833845097,-0.0011748804881544,0.0011748852149228,-0.0011748845704934,0.0011748810035992,2.5866063680686e-09,-2.4305655492438e-09,-0.0011900843187464,0.0011900844620096,1.4484704816034e-09,-1.3410512412757e-09,-0.0014695977344001,0.0014696004871452,-0.001469598657686,0.00146959954946,-0.001469599413849,0.0014695988194568,-0.0014696003417398,0.0014695978850971,-0.0011748856675578,0.0011748799718593,-0.0011748807382921,0.0011748848702168,0.56961686125063,131329,3014,0.0049473987274293,0.004947398728828,0.0049473987292659,30.993666368385,7.9493309470792e-06,7.9493309470792e-06,7.9493309470792e-06,4609520.1418098,0.014954958363741
15019200,0.97108657832807,0.015555570788922,0.0051851902608105,0.0051851902636055,0.0051851902645056,-0.0011893767083177,0.001189377008644,-2.3686147517982e-09,2.6659333348607e-09,-1.9096397072884e-09,2.2992329559526e-09,-0.0014693177885842,0.0014693150101676,-0.0014693161072177,0.0014693166832302,-0.0014693164340828,0.0014693164018644,-0.0014693147564734,0.0014693180772694,-0.0011740455115329,0.0011740422833943,-0.0011740406044447,0.0011740472306439,1.9384553341069e-09,-2.3011691378661e-09,-1.5539641674457e-09,1.2800530591871e-09,-0.0011893770033224,0.0011893767126634,-0.0014693163269047,0.0014693165025311,-0.0014693153976362,0.0014693174438681,-0.0014693176962192,0.0014693150999264,-0.001469316770248,0.0014693160430948,-0.0011740460864736,0.0011740416484803,-0.0011740433600264,0.0011740444772777,-0.0011740415188558,0.0011740463296911,-0.0011740456479926,0.0011740420546575,2.6265918057762e-09,-2.479944422459e-09,-0.0011893767884863,0.001189376927169,1.4490711484005e-09,-1.3502158217746e-09,-0.0014693150174926,0.0014693178027963,-0.0014693159449159,0.0014693168622881,-0.0014693167269391,0.0014693161058516,-0.001469317658831,0.0014693151686504,-0.0011740467859377,0.0011740409824066,-0.0011740417766972,0.0011740459739362,0.56737760796679,131329,3014,0.0049444674666367,0.004944467464617,0.0049444674639328,29.890266483303,-8.7786813357957e-07,-8.7786813357957e-07,-8.7786813357957e-07,4595949.549992,0.01494603678417
15219200,0.9723168156704,0.015570042377149,0.0051900141235263,0.0051900141263558,0.0051900141272672,-0.0011879405726721,0.0011879408747751,-2.4145244135836e-09,2.7137033352847e-09,-1.9531931909358e-09,2.3450455466447e-09,-0.0014682211635041,0.0014682183261293,-0.0014682194513433,0.0014682200301626,-0.0014682197792781,0.0014682197474757,-0.0014682180707049,0.0014682214539418,-0.0011724603239007,0.0011724570333787,-0.0011724553220043,0.0011724620687981,1.9825723450326e-09,-2.349615115724e-09,-1.5624277418246e-09,1.2848021340043e-09,-0.0011879408703175,0.001187940576495,-0.0014682196605087,0.001468219859843,-0.0014682187267422,0.0014682208057785,-0.0014682210603991,0.0014682184260488,-0.0014682201298759,0.0014682193740255,-0.0011724608934213,0.0011724564048447,-0.0011724581500437,0.0011724592442054,-0.0011724562556635,0.0011724611552348,-0.0011724604754536,0.0011724567891981,2.6616647319107e-09,-2.5143616609772e-09,-0.0011879406540497,0.0011879407925479,1.4655511727118e-09,-1.3662413554409e-09,-0.0014682183463044,0.0014682211649515,-0.001468219284203,0.0014682202135646,-0.001468220079108,0.0014682194443533,-0.0014682210213949,0.0014682184964241,-0.0011724616060535,0.0011724557250295,-0.0011724565285198,0.001172460785152,0.54391181422413,131329,3014,0.004938514599079,0.0049385145977692,0.0049385145973249,28.484096424305,-1.2127228605562e-05,-1.2127228605562e-05,-1.2127228605562e-05,4577554.3479059,0.014927913346811
15419200,0.9734037544182,0.015584673951088,0.0051948913148267,0.0051948913176724,0.0051948913185889,-0.0011864620278085,0.0011864623293201,-2.4542622443261e-09,2.7510344431979e-09,-1.9748410049629e-09,2.363986038261e-09,-0.0014669485910705,0.0014669457154731,-0.0014669468535098,0.001466947445613,-0.0014669471928768,0.0014669471500894,-0.0014669454589406,0.0014669488826573,-0.0011708701569657,0.0011708667994286,-0.0011708650660498,0.0011708718978311,1.9975330620965e-09,-2.3742195073598e-09,-1.5772850126561e-09,1.2911481041055e-09,-0.0011864623282639,0.0011864620294745,-0.0014669470656819,0.0014669472701666,-0.0014669461253067,0.0014669482235307,-0.0014669484786271,0.0014669458229387,-0.0014669475414,0.0014669467782283,-0.0011708707205269,0.001170866182206,-0.0011708679445867,0.0011708690312977,-0.001170866040011,0.0011708709661648,-0.0011708703056387,0.0011708665695724,2.7078697802605e-09,-2.5542645174429e-09,-0.0011864621083818,0.0011864622495448,1.4752699719268e-09,-1.370498943698e-09,-0.0014669457377627,0.0014669485892156,-0.0014669466799305,0.0014669476328481,-0.0014669474991051,0.00146694683994,-0.001466948445675,0.0014669458868804,-0.0011708714490503,0.0011708654920127,-0.0011708662803743,0.0011708706303277,0.61487581424862,131329,3014,0.0049323843794981,0.0049323843807739,0.0049323843811674,27.07109998206,-2.343120014352e-05,-2.343120014352e-05,-2.343120014352e-05,4558823.5879539,0.014909245914565
15619200,0.97438359566912,0.015598148889038,0.0051993829608086,0.0051993829636562,0.0051993829645734,-0.0011854263152814,0.001185426609237,-2.5284142151519e-09,2.8174017653688e-09,-1.9341123348429e-09,2.3143741441056e-09,-0.0014662361438802,0.0014662332445343,-0.0014662343606186,0.001466235022041,-0.0014662347727075,0.0014662346476118,-0.0014662329953412,0.001466236424568,-0.0011698030239174,0.0011697994860031,-0.001169797777029,0.0011698046936613,1.9546636143274e-09,-2.3412478864253e-09,-1.5588250917705e-09,1.2635833545225e-09,-0.0011854266155385,0.0011854263114861,-0.0014662346127307,0.0014662348035463,-0.0014662336855504,0.0014662357443714,-0.001466235997322,0.0014662333792645,-0.0014662350764059,0.0014662343199194,-0.0011698034764278,0.0011697989855817,-0.0011698007263152,0.0011698017748687,-0.0011697988671529,0.0011698036797676,-0.0011698030665616,0.0011697993614236,2.7241763776934e-09,-2.5609430671237e-09,-0.0011854263914928,0.0011854265363503,1.5027946743307e-09,-1.3895670675329e-09,-0.0014662332683869,0.001466236141143,-0.0014662342211084,0.0014662351693967,-0.0014662350350487,0.0014662343813404,-0.0014662359951616,0.0014662334104229,-0.0011698042428985,0.0011697982577631,-0.0011697990418884,0.0011698034215096,0.62694798304721,131329,3014,0.004928093284173,0.0049280932893876,0.0049280932910883,25.962627940006,-3.2298976479955e-05,-3.2298976479955e-05,-3.2298976479955e-05,4539238.6017712,0.014896187775527
15819200,0.97530529894621,0.015611758469796,0.0052039194877346,0.0052039194905737,0.0052039194914875,-0.0011856300248099,0.0011856303147562,-2.547454287079e-09,2.8309515524321e-09,-1.7981930889061e-09,2.171540128175e-09,-0.0014667945162029,0.0014667916964334,-0.001466792721664,0.0014667934848557,-0.0014667932394486,0.0014667930074807,-0.0014667914486865,0.0014667947976851,-0.0011700327855461,0.0011700291184274,-0.0011700275089494,0.0011700343698659,1.8146334048546e-09,-2.191248156509e-09,-1.5576508448134e-09,1.2709585950552e-09,-0.0011856303184104,0.0011856300232112,-0.0014667930679396,0.0014667931715677,-0.0014667921407351,0.0014667941124391,-0.001466794358923,0.0014667918459336,-0.0014667934354792,0.0014667927885671,-0.0011700331216639,0.001170028734549,-0.001170030370736,0.0011700315314042,-0.0011700287032574,0.0011700332437952,-0.0011700326186215,0.0011700292166455,2.7892752919662e-09,-2.6269780723878e-09,-0.0011856300984423,0.0011856302438426,1.4668807810049e-09,-1.354289378742e-09,-0.0014667916683465,0.001466794563135,-0.0014667926011686,0.0014667936148383,-0.001466793480661,0.0014667927620292,-0.0014667944182826,0.0014667918164877,-0.0011700339921725,0.0011700279078506,-0.0011700286647569,0.0011700331917587,0.66919701232516,131329,3014,0.0049289417826643,0.0049289417869418,0.0049289417883211,25.547445816149,-3.562043347081e-05,-3.562043347081e-05,-3.562043347081e-05,4530489.1749333,0.014898780568336
16019200,0.97617377737042,0.015624547639599,0.0052081825443386,0.0052081825471737,0.0052081825480863,-0.0011857858917322,0.0011857861767662,-2.5817807466057e-09,2.8612529804502e-09,-1.6634739959525e-09,2.0318942693778e-09,-0.0014673722769582,0.0014673695213322,-0.0014673704605683,0.0014673713311369,-0.0014673710919741,0.001467370740589,-0.0014673692786441,0.0014673725529627,-0.0011702388461834,0.0011702350215866,-0.0011702335140244,0.0011702403459646,1.6797957793726e-09,-2.0432805783353e-09,-1.5407799492113e-09,1.2650744307185e-09,-0.0011857861779073,0.0011857858917841,-0.0014673709004507,0.0014673709249157,-0.0014673699812917,0.0014673718572705,-0.0014673720982865,0.0014673696936067,-0.0014673711821095,0.0014673706284376,-0.0011702390362896,0.0011702347807419,-0.0011702363142432,0.0011702375630759,-0.0011702348203389,0.00117023909322,-0.0011702384525374,0.0011702353405817,2.8372260236337e-09,-2.6780997917132e-09,-0.0011857859627574,0.0011857861073089,1.4415655718966e-09,-1.3313310809846e-09,-0.0014673694521999,0.0014673723652116,-0.0014673703700563,0.0014673714326394,-0.0014673712976353,0.0014673705312599,-0.0014673722195153,0.0014673696022553,-0.0011702400140804,0.0011702338429173,-0.0011702345950225,0.001170239225843,0.66742794056021,131329,3014,0.0049295933597208,0.0049295933622049,0.004929593362985,25.147750178255,-3.8817998573963e-05,-3.8817998573963e-05,-3.8817998573963e-05,4520437.4574463,0.014900778049666
16219200,0.97699272889192,0.015636551026555,0.0052121836733245,0.0052121836761591,0.0052121836770717,-0.001185880755705,0.0011858810352332,-2.6323829403905e-09,2.9069854325317e-09,-1.5368495937116e-09,1.8991245919885e-09,-0.0014678694106337,0.0014678667030384,-0.001467867561674,0.0014678685452345,-0.0014678683113407,0.0014678678359903,-0.001467866466215,0.0014678696801133,-0.0011703758740401,0.0011703718655485,-0.0011703704516768,0.0011703772861222,1.5582703336457e-09,-1.9128346951028e-09,-1.5138953899192e-09,1.2456050342386e-09,-0.0011858810356781,0.0011858807561896,-0.0014678680896098,0.0014678680508046,-0.0014678671854614,0.0014678689680313,-0.0014678692036024,0.0014678669040027,-0.0014678683030471,0.0014678678228945,-0.0011703759021507,0.0011703717859686,-0.0011703732291217,0.0011703745243578,-0.0011703718823013,0.0011703759033768,-0.0011703752668576,0.0011703723962372,2.8703309762413e-09,-2.7123675050346e-09,-0.0011858808239494,0.0011858809682123,1.4284950648681e-09,-1.3191008806383e-09,-0.0014678666028196,0.0014678695299522,-0.0014678675119779,0.0014678686062092,-0.0014678684702609,0.0014678676738233,-0.0014678693841551,0.0014678667529681,-0.001170376979629,0.0011703707471568,-0.0011703714952214,0.0011703761986438,0.6642560652831,131329,3014,0.0049299915490555,0.0049299915509921,0.0049299915516041,24.748591276597,-4.2011269787223e-05,-4.2011269787223e-05,-4.2011269787223e-05,4511531.2205792,0.014902002618372
16419200,0.97776836045771,0.015646731882326,0.0052155772919141,0.0052155772947496,0.0052155772956626,-0.0011859871555976,0.0011859874288428,-2.6757863849156e-09,2.9436201888356e-09,-1.4270883035496e-09,1.7811663418262e-09,-0.0014683729916336,0.0014683703276785,-0.001468371116421,0.0014683721966251,-0.0014683719674504,0.0014683713843387,-0.0014683700960238,0.0014683732550716,-0.001170495184178,0.0011704910131208,-0.0011704896773579,0.0011704965058209,1.4473970271516e-09,-1.7994766222281e-09,-1.4946807619037e-09,1.2280924504657e-09,-0.0011859874311169,0.001185987154846,-0.001468371720894,0.0014683716241346,-0.0014683708288896,0.0014683725294345,-0.0014683727602841,0.0014683705517946,-0.0014683718719716,0.0014683714587731,-0.001170495078101,0.0011704910702679,-0.001170492435135,0.0011704937679205,-0.0011704912277,0.001170495013184,-0.0011704943949095,0.0011704917300872,2.9140864236012e-09,-2.7522752564096e-09,-0.0011859872199874,0.0011859873664699,1.4115619353695e-09,-1.2984382585731e-09,-0.0014683701973016,0.0014683731405803,-0.0014683710934163,0.0014683722292829,-0.001468372092495,0.001468371256088,-0.0014683729933986,0.0014683703475787,-0.0011704962420954,0.0011704899465604,-0.0011704906731302,0.0011704954783996,0.59981699531266,131329,3014,0.0049304372196639,0.004930437222833,0.0049304372238611,24.411226665026,-4.4710186679788e-05,-4.4710186679788e-05,-4.4710186679788e-05,4504990.3185627,0.014903370966209
16619200,0.97850705881393,0.015658242155332,0.0052194140495825,0.0052194140524182,0.0052194140533311,-0.0011863165311319,0.0011863168000565,-2.7188565200349e-09,2.9821709445482e-09,-1.3378849419452e-09,1.6864179838529e-09,-0.0014689493744137,0.0014689467404594,-0.001468947472011,0.0014689486366008,-0.0014689484112923,0.0014689477358168,-0.0014689465125008,0.0014689496339689,-0.0011708377404126,0.0011708334236226,-0.0011708321532196,0.0011708389966693,1.3561407853343e-09,-1.7029431649354e-09,-1.4739404803098e-09,1.2116590090674e-09,-0.0011863168021398,0.0011863165305373,-0.0014689481409861,0.001468947999,-0.0014689472614612,0.0014689488917799,-0.001468949118436,0.0014689469895714,-0.0014689482423569,0.0014689478841852,-0.0011708375101191,0.0011708336056095,-0.0011708349032858,0.0011708362663655,-0.0011708338072975,0.0011708374003259,-0.0011708367906116,0.0011708343033114,2.9556112899863e-09,-2.7928099721018e-09,-0.0011863165929017,0.001186316740251,1.3928500171822e-09,-1.2785726755412e-09,-0.0014689465871652,0.0014689495457441,-0.0014689474707387,0.0014689486473615,-0.0014689485099037,0.0014689476340813,-0.0014689493980461,0.0014689467386658,-0.0011708387587676,0.0011708323974896,-0.0011708331093925,0.0011708380087306,0.7023563365977,131329,3014,0.0049318046061282,0.0049318046092241,0.0049318046102125,24.157527075356,-4.673978339715e-05,-4.673978339715e-05,-4.673978339715e-05,4502030.1645733,0.014907537355666
16819200,0.97921097485979,0.015669262407605,0.005223087467007,0.0052230874698427,0.0052230874707558,-0.0011865847837559,0.001186585050591,-2.7599998381936e-09,3.0217660071227e-09,-1.2710965881659e-09,1.6175817961041e-09,-0.0014696156921366,0.0014696130739254,-0.0014696137627196,0.0014696149968717,-0.0014696147741847,0.0014696140240905,-0.0014696128483595,0.0014696159490702,-0.0011711813459209,0.0011711769044409,-0.0011711756839868,0.0011711825606435,1.2910561999465e-09,-1.6318184319641e-09,-1.4542142823783e-09,1.196992661181e-09,-0.0011865850515127,0.0011865847838997,-0.0014696144822849,0.0014696143090875,-0.0014696136140718,0.001469615190281,-0.0014696154146299,0.0014696133452293,-0.0014696145498364,0.0014696142282674,-0.0011711810091507,0.0011711771912474,-0.0011711784398856,0.0011711798218435,-0.00117117741907,0.0011711808756358,-0.0011711802667084,0.0011711779103897,2.9963127231737e-09,-2.8350238840252e-09,-0.0011865848443692,0.0011865849913826,1.3742784159142e-09,-1.2610980695843e-09,-0.0014696129047315,0.0014696158795946,-0.0014696137764788,0.0014696149933606,-0.0014696148551516,0.0014696139403071,-0.0014696157314254,0.001469613057081,-0.0011711823365877,0.0011711759026597,-0.0011711766080777,0.001171181596728,0.70571573450532,131329,3014,0.0049329222154354,0.0049329222176519,0.0049329222183569,23.905700688591,-4.8754394491275e-05,-4.8754394491275e-05,-4.8754394491275e-05,4494136.7619316,0.014910954162836
17019200,0.9798820450515,0.015679559349054,0.0052265197808228,0.0052265197836591,0.0052265197845724,-0.0011867880129785,0.0011867882782411,-2.8015005721394e-09,3.061884233362e-09,-1.2252912984272e-09,1.5699219178454e-09,-0.0014702216682883,0.0014702190523458,-0.0014702197116527,0.001470221002473,-0.0014702207813582,0.0014702199713288,-0.0014702188283033,0.0014702219234961,-0.0011714583546077,0.0011714538009654,-0.0011714526138516,0.0011714595381576,1.2457765826047e-09,-1.5836344562272e-09,-1.4369290822018e-09,1.1820465205568e-09,-0.0011867882788676,0.0011867880133296,-0.0014702204688523,0.0014702202769915,-0.0014702196113018,0.0014702211474136,-0.0014702213702684,0.0014702193443726,-0.0014702205161187,0.0014702202166372,-0.0011714579288395,0.0011714541765694,-0.0011714553920477,0.0011714567763948,-0.00117145442137,0.0011714577787521,-0.0011714571768438,0.0011714549050382,3.0373492955934e-09,-2.8760199476824e-09,-0.0011867880725652,0.0011867882199441,1.358195362711e-09,-1.2447425945858e-09,-0.0014702188734395,0.0014702218654169,-0.0014702197344279,0.0014702209900562,-0.0014702208512166,0.0014702198987847,-0.001470221716718,0.0014702190264461,-0.0011714593238547,0.0011714528199658,-0.0011714535155671,0.0011714585948298,0.69245977662091,131329,3014,0.0049337701355424,0.0049337701375769,0.0049337701382256,23.653939188526,-5.0768486491795e-05,-5.0768486491795e-05,-5.0768486491795e-05,4486812.6108801,0.014913549483615
17219200,0.98050664266525,0.015688882665607,0.0052296275530064,0.0052296275558436,0.0052296275567573,-0.0011861907343598,0.0011861910069445,-2.8280408416465e-09,3.0984077348882e-09,-1.2673216537228e-09,1.6234782533832e-09,-0.0014699591061056,0.0014699564429149,-0.0014699571282927,0.0014699584124589,-0.0014699581900652,0.0014699573941366,-0.0014699562137609,0.0014699593681559,-0.0011708964702223,0.0011708919009517,-0.001170890692338,0.0011708977301266,1.2773465155996e-09,-1.5997441802186e-09,-1.432355771206e-09,1.1914162466383e-09,-0.0011861909989732,0.0011861907407112,-0.0014699578764565,0.0014699577003918,-0.0014699570180575,0.001469958570359,-0.001469958795807,0.0014699567526475,-0.0014699579384335,0.0014699576265416,-0.0011708960278422,0.0011708922830506,-0.001170893509165,0.0011708949113586,-0.0011708924931157,0.0011708959325148,-0.0011708952806665,0.0011708930004263,3.0808129674551e-09,-2.9328662096564e-09,-0.0011861907988491,0.0011861909402976,1.3391597181781e-09,-1.2375373166139e-09,-0.0014699562752429,0.0014699592933449,-0.0014699571305453,0.0014699584267186,-0.0014699582884707,0.0014699572937645,-0.0014699591458852,0.001469956432522,-0.0011708974780976,0.0011708908630492,-0.0011708915864546,0.0011708967416679,0.67475988898325,131329,3014,0.0049312978256878,0.0049312978223269,0.0049312978212104,22.99349462192,-5.6052043024638e-05,-5.6052043024638e-05,-5.6052043024638e-05,4473644.1288973,0.01490603185134
17419200,0.98107666213375,0.015697024131894,0.0052323413750949,0.0052323413779411,0.0052323413788577,-0.0011849095954803,0.0011849098718846,-2.8721339954544e-09,3.1465241229656e-09,-1.3563241909917e-09,1.7173277115231e-09,-0.0014689282820232,0.0014689255301053,-0.001468926272711,0.0014689275311047,-0.0014689273044846,0.0014689265427221,-0.0014689252983295,0.0014689285466156,-0.0011696102066125,0.0011696056138143,-0.0011696043397073,0.0011696115300632,1.3805863780153e-09,-1.7091041517141e-09,-1.4344611661974e-09,1.1884604733745e-09,-0.0011849098647232,0.0011849096011825,-0.0014689269756642,0.0014689268647469,-0.0014689261167333,0.0014689277352797,-0.001468927964673,0.0014689258462852,-0.0014689271083318,0.0014689267190888,-0.0011696097890178,0.0011696059708165,-0.0011696072726962,0.0011696085959499,-0.0011696061150015,0.0011696097590614,-0.0011696091134861,0.001169606615287,3.1163147921928e-09,-2.9685303863167e-09,-0.0011849096621103,0.0011849098033174,1.3469977812306e-09,-1.2456108945304e-09,-0.0014689253931215,0.0014689284390985,-0.001468926252575,0.0014689275676695,-0.0014689274289765,0.0014689264161883,-0.0014689282922686,0.0014689255486361,-0.0011696112414181,0.0011696045490616,-0.0011696052778159,0.0011696104996547,0.64747799831654,131329,3014,0.0049259886913117,0.0049259886882915,0.0049259886873015,21.989781807553,-6.4081745539573e-05,-6.4081745539573e-05,-6.4081745539573e-05,4455752.4460418,0.014889872923631
17619200,0.98159730827273,0.015704172121977,0.0052347240384482,0.0052347240413045,0.0052347240422245,-0.0011835713070362,0.0011835715853747,-2.9140061210544e-09,3.188145019711e-09,-1.4627411491443e-09,1.8236898080576e-09,-0.0014677642435653,0.0014677613971642,-0.001467762207364,0.0014677634261111,-0.0014677631947555,0.0014677624801087,-0.0014677611612096,0.0014677645122745,-0.0011682386912422,0.0011682340818085,-0.0011682327228231,0.0011682400618099,1.478233587323e-09,-1.8241264414945e-09,-1.4462125720355e-09,1.185120179153e-09,-0.0011835715833171,0.0011835713094723,-0.0014677628577009,0.0014677628098735,-0.0014677619964257,0.0014677636835859,-0.0014677639170986,0.0014677617195178,-0.0014677630580366,0.0014677625959761,-0.0011682383223597,0.0011682343976335,-0.0011682357790918,0.0011682370163153,-0.0011682344991801,0.0011682383231633,-0.0011682377142807,0.0011682349811338,3.1608911036524e-09,-3.0038363322737e-09,-0.001183571373836,0.0011835715190752,1.3577602880905e-09,-1.2481854858784e-09,-0.0014677612914015,0.0014677643682164,-0.0014677621544979,0.0014677634916391,-0.001467763353895,0.0014677623179309,-0.0014677642205228,0.0014677614455647,-0.0011682397570314,0.0011682330002438,-0.0011682337068556,0.0011682390216627,0.62390235454967,131329,3014,0.0049204411786074,0.0049204411794065,0.0049204411796631,20.978349838894,-7.2173201288846e-05,-7.2173201288846e-05,-7.2173201288846e-05,4439157.467971,0.014872984594593
17819200,0.98207407558264,0.015710488447805,0.0052368294803887,0.0052368294832476,0.0052368294841685,-0.0011822392879677,0.0011822395685807,-2.9573635691024e-09,3.233077391705e-09,-1.5589576931479e-09,1.9222647406611e-09,-0.0014665445726737,0.0014665416339745,-0.0014665425069477,0.0014665436931791,-0.0014665434578157,0.0014665427819409,-0.0014665413960898,0.0014665448427503,-0.0011668513381363,0.0011668467084786,-0.0011668452774434,0.0011668527639732,1.5796717980796e-09,-1.9367335903646e-09,-1.4548103848704e-09,1.1840124549018e-09,-0.0011822395696376,0.0011822392879807,-0.0014665431096508,0.0014665431237107,-0.0014665422451759,0.001466544001042,-0.0014665442385485,0.0014665419615278,-0.0014665433779363,0.0014665428403122,-0.0011668510070497,0.0011668469897439,-0.0011668484495357,0.0011668496088794,-0.0011668470351766,0.0011668510575659,-0.0011668504640481,0.001166847505519,3.2004633824523e-09,-3.0393379563705e-09,-0.0011822393554986,0.0011822395024488,1.3678443032366e-09,-1.2546362931636e-09,-0.0014665415596769,0.0014665446662797,-0.0014665424264619,0.0014665437843001,-0.0014665436458928,0.0014665425906132,-0.0014665445178244,0.0014665417114139,-0.0011668524328662,0.0011668456009206,-0.0011668463042619,0.0011668516970692,0.60341630288832,131329,3014,0.0049149185310335,0.0049149185332645,0.0049149185339495,19.988683212121,-8.0090534303028e-05,-8.0090534303028e-05,-8.0090534303028e-05,4424183.6036719,0.014856169249756
18019200,0.98251164607992,0.015716281186424,0.005238760393263,0.0052387603961204,0.0052387603970406,-0.0011809200990503,0.0011809203843767,-2.9938894345564e-09,3.2741236908275e-09,-1.6514031461792e-09,2.0201928994348e-09,-0.0014652824665681,0.0014652794440204,-0.0014652803754925,0.0014652815284858,-0.0014652812893587,0.001465280655087,-0.0014652792010177,0.0014652827425368,-0.0011654641612144,0.0011654595216029,-0.0011654580228521,0.0011654656555173,1.6664580260898e-09,-2.0281322490953e-09,-1.4642338067515e-09,1.1897484337323e-09,-0.0011809203848867,0.0011809200995606,-0.0014652809359403,0.0014652810016221,-0.0014652800671837,0.0014652818833159,-0.00146528212485,0.0014652797796261,-0.0014652812585368,0.0014652806639991,-0.0011654638643,0.0011654597680708,-0.0011654612909624,0.0011654624033805,-0.0011654597662702,0.0011654639630763,-0.0011654633686518,0.0011654602377679,3.2431655654594e-09,-3.0824285238656e-09,-0.0011809201690788,0.0011809203156877,1.3727459949051e-09,-1.2599760165388e-09,-0.001465279395413,0.0014652825343273,-0.0014652802665597,0.0014652816484137,-0.0014652815111244,0.0014652804298449,-0.0014652823859906,0.0014652795479397,-0.0011654652939668,0.001165458376635,-0.0011654590829158,0.0011654645541066,0.60265705318424,131329,3014,0.0049094481605816,0.0049094481627078,0.0049094481633719,19.017322802467,-8.7861417580265e-05,-8.7861417580265e-05,-8.7861417580265e-05,4410496.4522986,0.014839510926486
18219200,0.98291366442844,0.01572170901386,0.0052405696690757,0.005240569671932,0.005240569672852,-0.0011795803340525,0.0011795806231758,-3.0339011294031e-09,3.3178041529488e-09,-1.7312564921849e-09,2.1046380422819e-09,-0.0014639791063352,0.0014639760043733,-0.0014639769867008,0.0014639781172444,-0.0014639778741603,0.0014639772710124,-0.0014639757583866,0.0014639793857908,-0.0011640605409581,0.0011640558802871,-0.0011640543236012,0.001164062096367,1.7509080354052e-09,-2.1172473064893e-09,-1.4724288576905e-09,1.1940531099665e-09,-0.0011795806237194,0.0011795803343821,-0.0014639775115536,0.0014639776264275,-0.0014639766381001,0.0014639785127707,-0.0014639787575549,0.0014639763472722,-0.0014639778876183,0.001463977235158,-0.0011640602681003,0.001164056101678,-0.0011640576861107,0.0011640587483866,-0.0011640560485633,0.0011640604194763,-0.0011640598227292,0.0011640565211151,3.2828713288873e-09,-3.1224018855304e-09,-0.0011795804059134,0.0011795805524504,1.3795929255302e-09,-1.26708099831e-09,-0.0014639759801901,0.0014639791496676,-0.0014639768556046,0.001463978259721,-0.0014639781220404,0.0014639770194114,-0.0014639790022281,0.0014639761323412,-0.0011640617051739,0.0011640547028744,-0.0011640554149573,0.0011640609596301,0.61338753185375,131329,3014,0.0049038923573914,0.0049038923592108,0.0049038923597569,18.046373112224,-9.562901510221e-05,-9.562901510221e-05,-9.562901510221e-05,4396785.3900207,0.014822592722488
18419200,0.98329275073338,0.015726865453982,0.0052422884824504,0.0052422884853057,0.0052422884862256,-0.0011789439453222,0.0011789442335609,-3.0760365464303e-09,3.357522609989e-09,-1.7482044117905e-09,2.1187118853945e-09,-0.0014634147169652,0.0014634115781703,-0.0014634125706724,0.0014634137185032,-0.0014634134742219,0.0014634128546362,-0.0014634113312954,0.0014634149973232,-0.0011633881107601,0.0011633833737724,-0.0011633817994582,0.0011633896585362,1.7612686813488e-09,-2.1354465208687e-09,-1.4748243283079e-09,1.1897108167385e-09,-0.0011789442369449,0.0011789439440157,-0.0014634130980275,0.0014634132231436,-0.0014634122258149,0.0014634141089713,-0.0014634143537091,0.0014634119339818,-0.001463413484505,0.0014634128218029,-0.0011633878140204,0.0011633836245887,-0.0011633852215859,0.0011633862592866,-0.0011633835744369,0.001163387953974,-0.0011633873826353,0.0011633840361641,3.3264899595445e-09,-3.1602429847461e-09,-0.0011789440163074,0.0011789441653097,1.3816806932797e-09,-1.2641638824553e-09,-0.0014634115584862,0.0014634147548141,-0.0014634124333965,0.0014634138645838,-0.0014634137276401,0.0014634125971435,-0.0014634146068926,0.0014634117101806,-0.0011633892753957,0.0011633822069042,-0.0011633828996857,0.0011633885372896,0.617384051079,131329,3014,0.0049012536982052,0.0049012537025274,0.0049012537038925,17.474461100513,-0.0001002043111959,-0.0001002043111959,-0.0001002043111959,4389198.4474767,0.014814558456576
18619200,0.98365789066769,0.015731784680039,0.0052439282244723,0.005243928227324,0.0052439282282428,-0.0011788872978489,0.0011788875848514,-3.1189333573739e-09,3.3998427039039e-09,-1.707550087164e-09,2.0772304807994e-09,-0.0014634595417311,0.0014634563999921,-0.0014634573667937,0.0014634585685627,-0.0014634583262794,0.0014634576492323,-0.0014634561549937,0.0014634598200782,-0.0011633116703055,0.001163306823055,-0.0011633052799657,0.0011633131949054,1.7244307449582e-09,-2.0934785465829e-09,-1.4646021015426e-09,1.1839763451047e-09,-0.0011788875869365,0.001178887297396,-0.0014634579309599,0.0014634580370634,-0.0014634570637686,0.0014634589176111,-0.0014634591604713,0.001463456774453,-0.0014634582963822,0.0014634576567296,-0.0011633112928318,0.0011633071526435,-0.0011633087202511,0.001163309774893,-0.0011633071161791,0.0011633114212818,-0.0011633108455957,0.001163307578702,3.3646818383971e-09,-3.200456567837e-09,-0.0011788873683734,0.0011788875164727,1.3756136669761e-09,-1.2598734805829e-09,-0.0014634563705126,0.0014634595895522,-0.0014634572420371,0.0014634587031038,-0.0014634585657945,0.0014634574057907,-0.0014634594418082,0.0014634565224363,-0.0011633128170442,0.0011633056708972,-0.0011633063661151,0.0011633120797487,0.6117864209921,131329,3014,0.0049010193127352,0.0049010193161303,0.0049010193171978,17.230204916198,-0.00010215836067041,-0.00010215836067041,-0.00010215836067041,4387060.7727981,0.014813845588614
18819200,0.98400986622978,0.015736842682982,0.005245614225454,0.0052456142283047,0.0052456142292234,-0.0011788487847279,0.0011788490701974,-3.1580328818515e-09,3.4382456994834e-09,-1.6620512832977e-09,2.0309251817474e-09,-0.0014635080999033,0.001463504960685,-0.0014635058990425,0.0014635071549565,-0.0014635069152904,0.0014635061793162,-0.0014635047178421,0.0014635083759422,-0.0011632569121317,0.0011632519594731,-0.001163250453441,0.0011632584145829,1.6804460519665e-09,-2.04224282481e-09,-1.4574834277365e-09,1.183076524652e-09,-0.0011788490705329,0.0011788487853253,-0.0014635065040413,0.0014635065834415,-0.0014635056394675,0.0014635074609895,-0.0014635077021224,0.0014635053526659,-0.0014635068405875,0.0014635062321777,-0.0011632564557158,0.0011632523652371,-0.0011632538974393,0.0011632549861349,-0.0011632523484656,0.0011632565696618,-0.0011632559801597,0.0011632528163235,3.4060463396812e-09,-3.245204826279e-09,-0.0011788488546945,0.0011788490014577,1.3666379536486e-09,-1.2537278342988e-09,-0.0014635049181801,0.0014635081613662,-0.0014635057850297,0.0014635072799648,-0.0014635071422785,0.0014635059489368,-0.0014635080134372,0.0014635050708329,-0.0011632580461479,0.0011632508139225,-0.0011632515150121,0.0011632573102837,0.64922938913765,131329,3014,0.0049008599315475,0.0049008599334894,0.0049008599341006,16.993299197971,-0.00010405360641623,-0.00010405360641623,-0.00010405360641623,4385191.7023552,0.014813360518249
19019200,0.98434925485269,0.015742027469404,0.0052473424875944,0.0052473424904455,0.0052473424913645,-0.0011787977552617,0.0011787980385028,-3.1998940834911e-09,3.4780026774644e-09,-1.6162659734781e-09,1.9825827001065e-09,-0.0014635983798651,0.0014635952425185,-0.0014635961517924,0.0014635974640081,-0.0014635972264607,0.0014635964297009,-0.0014635950018041,0.0014635986535593,-0.0011632218114967,0.0011632167456494,-0.001163215273582,0.0011632232813576,1.6349714943326e-09,-1.9935604672984e-09,-1.4511668407021e-09,1.1794085618412e-09,-0.0011787980386866,0.0011787977559722,-0.0014635967977055,0.0014635968513861,-0.0014635959364616,0.0014635977256091,-0.0014635979645961,0.0014635956520592,-0.0014635971063804,0.001463596528243,-0.0011632212763475,0.0011632172300419,-0.0011632187284336,0.0011632198416883,-0.0011632172375248,0.0011632213662598,-0.0011632207764919,0.0011632177053286,3.4469593645222e-09,-3.2862849328982e-09,-0.0011787978240557,0.0011787979708742,1.3614875853712e-09,-1.2486402841317e-09,-0.0014635951870038,0.0014635984542853,-0.0014635960504614,0.0014635975763028,-0.0014635974384204,0.0014635962145235,-0.0014635983061883,0.0014635953398465,-0.001163222927362,0.0011632156177637,-0.0011632163163097,0.0011632221947188,0.68719103015524,131329,3014,0.0049006500746825,0.0049006500765452,0.0049006500771093,16.756647436112,-0.0001059468205111,-0.0001059468205111,-0.0001059468205111,4381051.3371671,0.014812725908892
19219200,0.98468714361857,0.015747347704472,0.0052491158992831,0.0052491159021349,0.005249115903054,-0.0011796433738429,0.0011796436510129,-3.2459992902439e-09,3.5168834818002e-09,-1.5190372070443e-09,1.8765844799264e-09,-0.0014646811811204,0.0014646780781641,-0.0014646789248335,0.0014646803284343,-0.0014646800945312,0.0014646791974626,-0.001464677841983,0.0014646814496907,-0.0011641329049657,0.0011641276790755,-0.0011641262738761,0.0011641342876746,1.5362083557179e-09,-1.8956854146927e-09,-1.4371813138037e-09,1.1643250937663e-09,-0.0011796436539233,0.0011796433728143,-0.0014646796412088,0.001464679643328,-0.0014646787896365,0.0014646805082894,-0.0014646807426293,0.0014646785095718,-0.0014646798944346,0.0014646793761237,-0.0011641322482516,0.0011641282893631,-0.0011641297199601,0.001164130863493,-0.0011641283551059,0.0011641322721771,-0.0011641317070167,0.0011641288107753,3.4890752534401e-09,-3.322699929445e-09,-0.00117964343882,0.0011796435885179,1.3521726258486e-09,-1.2341542338177e-09,-0.0014646779956746,0.0014646812814464,-0.0014646788506803,0.0014646804113863,-0.0014646802729037,0.0014646790155501,-0.001464681132612,0.0014646781483676,-0.0011641339743023,0.0011641266058646,-0.0011641272809898,0.0011641332562482,0.70677989873884,131329,3014,0.0049041597540326,0.0049041597579474,0.0049041597591954,17.022865705145,-0.00010381707435884,-0.00010381707435884,-0.00010381707435884,4383635.8620148,0.014823420620911
19419200,0.98502873185613,0.015752610534083,0.0052508701758201,0.005250870178672,0.0052508701795912,-0.0011809239404932,0.0011809242095179,-3.2962201090324e-09,3.5572284942878e-09,-1.3991471716026e-09,1.7450732365634e-09,-0.0014662576611792,0.0014662546044689,-0.0014662553745626,0.0014662568864264,-0.0014662566563994,0.001466255640116,-0.0014662543749667,0.0014662579219957,-0.0011654964745769,0.0011654910652763,-0.0011654897426774,0.0011654977455235,1.4301944115331e-09,-1.7931468347384e-09,-1.4194212963366e-09,1.1428348849338e-09,-0.001180924217144,0.0011809239361765,-0.0014662561700602,0.0014662561189945,-0.0014662553310366,0.0014662569721713,-0.0014662572011145,0.0014662550549487,-0.0014662563673429,0.0014662559081028,-0.0011654956808846,0.0011654918189202,-0.0011654931795676,0.0011654943401295,-0.0011654919468493,0.0011654956326548,-0.0011654951030373,0.0011654923818127,3.5295309550168e-09,-3.3552348852891e-09,-0.0011809240003544,0.0011809241540272,1.3431317792167e-09,-1.2177231488937e-09,-0.0014662544905641,0.0014662577918833,-0.0014662553354885,0.0014662569306421,-0.0014662567909286,0.0014662555021111,-0.0014662576422086,0.0014662546417717,-0.0011654974828146,0.0011654900636059,-0.0011654907089774,0.0011654967832154,0.69264759997668,131329,3014,0.0049094736943606,0.004909473701238,0.0049094737034428,17.539898667297,-9.9680810661627e-05,-9.9680810661627e-05,-9.9680810661627e-05,4390171.9397638,0.014839611055418
19619200,0.98537388083735,0.015757793982304,0.0052525979918955,0.0052525979947454,0.0052525979956634,-0.0011822056595688,0.0011822059279749,-3.3305666008295e-09,3.5932171681526e-09,-1.3142976760493e-09,1.6618065344805e-09,-0.0014678211122424,0.0014678180863731,-0.0014678188024719,0.0014678203900581,-0.0014678201649615,0.001467819065666,-0.0014678178585732,0.0014678213715312,-0.0011668488135662,0.0011668432830558,-0.0011668420290587,0.0011668500536301,1.3314263999897e-09,-1.6769940890001e-09,-1.4020891263018e-09,1.1406109162738e-09,-0.0011822059297642,0.0011822056591819,-0.0014678196668217,0.0014678195566364,-0.0014678188347334,0.0014678204017731,-0.0014678206278593,0.0014678185642787,-0.001467819798916,0.0014678194113449,-0.0011668478977163,0.0011668441509664,-0.0011668454304265,0.0011668466714668,-0.0011668443216675,0.0011668478184171,-0.0011668472552035,0.0011668447721082,3.571773262308e-09,-3.4062281046578e-09,-0.0011822057196837,0.0011822058697034,1.320687179972e-09,-1.202856933664e-09,-0.0014678179473565,0.0014678212689824,-0.0014678187817915,0.0014678204199877,-0.0014678202802298,0.0014678189474924,-0.001467821118918,0.0014678181015534,-0.001166849800784,0.0011668422879539,-0.0011668429474141,0.0011668491026919,0.67638955794272,131329,3014,0.0049147917486056,0.0049147917515167,0.0049147917524315,18.062612161757,-9.5499102705947e-05,-9.5499102705947e-05,-9.5499102705947e-05,4397807.7781788,0.01485581232428
19819200,0.98572231514674,0.015762872108129,0.0052542907005039,0.0052542907033534,0.0052542907042715,-0.0011834840999765,0.0011834843649887,-3.3738434319285e-09,3.6335655287732e-09,-1.2333385568243e-09,1.5771520193237e-09,-0.0014693573417537,0.0014693543394229,-0.0014693550037821,0.0014693566711095,-0.0014693564494217,0.001469355263586,-0.0014693541152128,0.0014693575971018,-0.0011681828113256,0.0011681771420427,-0.0011681759483117,0.0011681839968014,1.2552484128462e-09,-1.5949842976591e-09,-1.3863096217699e-09,1.1295982505327e-09,-0.0011834843663137,0.0011834840998292,-0.0014693559282643,0.0014693557776291,-0.0014693551048171,0.0014693566139045,-0.0014693568368423,0.001469354838248,-0.0014693560168896,0.0014693556760603,-0.0011681817826258,0.0011681781218714,-0.0011681793446314,0.0011681806177686,-0.0011681783283453,0.0011681816690241,-0.0011681811059388,0.0011681787762371,3.611367888837e-09,-3.4465781880492e-09,-0.0011834841582304,0.0011834843082795,1.3085064807605e-09,-1.1911114497746e-09,-0.0014693541791236,0.0014693575197421,-0.0014693550055575,0.0014693566789863,-0.00146935653839,0.0014693551718178,-0.0014693573694863,0.0014693543338121,-0.0011681837646291,0.0011681761787115,-0.0011681768339482,0.0011681830734324,0.6578689678132,131329,3014,0.0049200954850901,0.0049200954875375,0.0049200954882996,18.585522293588,-9.1315821651298e-05,-9.1315821651298e-05,-9.1315821651298e-05,4405958.8623093,0.014871968240829
20019200,0.98606436472775,0.015768042311398,0.0052560141015936,0.0052560141044433,0.0052560141053615,-0.0011839793021411,0.0011839795690227,-3.4112529490934e-09,3.6740813469839e-09,-1.2437573068916e-09,1.5911315335533e-09,-0.0014700412263916,0.0014700381908414,-0.001470038862399,0.0014700405480465,-0.0014700403264886,0.0014700391231373,-0.0014700379658991,0.0014700414825827,-0.0011687033106205,0.0011686975779938,-0.0011686963806133,0.0011687045188305,1.2650412795094e-09,-1.598786355814e-09,-1.3854016955647e-09,1.1340387679982e-09,-0.0011839795676101,0.001183979303834,-0.0014700397951782,0.0014700396478479,-0.0014700389705144,0.0014700404848864,-0.0014700407085671,0.001470038703949,-0.0014700398870125,0.0014700395429053,-0.0011687022474435,0.0011686985887323,-0.0011686998141239,0.0011687010967682,-0.0011686987840068,0.0011687021515672,-0.0011687015695176,0.0011686992402771,3.6514873379801e-09,-3.4919830952546e-09,-0.0011839793619986,0.0011839795095324,1.3047325243464e-09,-1.1920232763601e-09,-0.0014700380337594,0.0014700414020728,-0.0014700388597449,0.0014700405622947,-0.0014700404218573,0.0014700390254944,-0.0014700412520886,0.0014700381889101,-0.0011687042747902,0.0011686965968454,-0.0011686972655222,0.001168703578689,0.68048385898568,131329,3014,0.0049221505651065,0.0049221505656904,0.0049221505658707,18.671826647832,-9.0625386817346e-05,-9.0625386817346e-05,-9.0625386817346e-05,4407272.1687737,0.014878229603516
20219200,0.98639761110192,0.015773227421451,0.0052577424716105,0.0052577424744611,0.0052577424753796,-0.0011842489338115,0.0011842492026702,-3.4520414259746e-09,3.7164076901785e-09,-1.2917720746616e-09,1.6409664832474e-09,-0.0014705100829796,0.0014705069894777,-0.001470507691294,0.0014705093745035,-0.0014705091504973,0.0014705079544445,-0.0014705067622769,0.0014705103416803,-0.0011690084692309,0.0011690026886275,-0.001169001454418,0.0011690097076507,1.3123882401542e-09,-1.6509917724302e-09,-1.392554920478e-09,1.137078923585e-09,-0.0011842492020931,0.0011842489350183,-0.0014705086089388,0.0014705084891234,-0.0014705077809781,0.0014705093296511,-0.0014705095553918,0.0014705075120173,-0.0014705087305547,0.001470508354388,-0.0011690074072098,0.0011690036994882,-0.0011690049610575,0.0011690062145034,-0.0011690038711805,0.0011690073329824,-0.0011690067563646,0.0011690043257061,3.6923214635256e-09,-3.5314739747765e-09,-0.0011842489946617,0.0011842491426474,1.3115914607518e-09,-1.1978315992139e-09,-0.0014705068459296,0.0014705102448747,-0.0014705076760526,0.0014705094008228,-0.0014705092607785,0.0014705078416294,-0.001470510095219,0.0014705070007192,-0.0011690094507652,0.0011690016930339,-0.0011690023610376,0.0011690087520283,0.69908661740449,131329,3014,0.0049232709194023,0.004923270920715,0.0049232709211265,18.638333125911,-9.089333499271e-05,-9.089333499271e-05,-9.089333499271e-05,4405380.2825155,0.01488164665361
20419200,0.98672223718915,0.01577828543011,0.0052594284744962,0.0052594284773477,0.0052594284782665,-0.0011844938965702,0.0011844941678459,-3.4923294877902e-09,3.7586630185425e-09,-1.352588952336e-09,1.7041900360466e-09,-0.0014709771329807,0.0014709739733768,-0.0014709747138729,0.0014709763860416,-0.0014709761591399,0.0014709749796874,-0.0014709737435751,0.0014709773944602,-0.0011692995379818,0.0011692937189839,-0.0011692924387956,0.0011693008151971,1.3733163380785e-09,-1.7177399971229e-09,-1.4023784567475e-09,1.1419642444987e-09,-0.0011844941682489,0.0011844938971346,-0.0014709756085556,0.0014709755233015,-0.0014709747757482,0.0014709763688957,-0.0014709765972472,0.0014709745034801,-0.0014709757676527,0.0014709753508317,-0.0011692984894163,0.0011692947177396,-0.0011692960256149,0.0011692972441299,-0.0011692948591644,0.0011692984432542,-0.0011692978714618,0.0011692953121416,3.7334658637689e-09,-3.5712232126999e-09,-0.0011844939586608,0.0011844941070307,1.3201612948904e-09,-1.2052960952963e-09,-0.001470973846902,0.0014709772776869,-0.0014709746821287,0.0014709764282034,-0.0014709762886249,0.0014709748474413,-0.0014709771282796,0.0014709740009961,-0.0011693005424889,0.0011692927031542,-0.0011692933716648,0.0011692998400978,0.69998402942885,131329,3014,0.0049242895412773,0.0049242895432912,0.0049242895439316,18.602072772804,-9.1183417817568e-05,-9.1183417817568e-05,-9.1183417817568e-05,4402726.6643076,0.014884755560241
20619200,0.98703847748959,0.015782690600258,0.005260896864545,0.0052608968673972,0.0052608968683162,-0.0011847009706701,0.0011847012450009,-3.5316103022001e-09,3.8008543019219e-09,-1.4189756432093e-09,1.7741496897683e-09,-0.0014714109712409,0.0014714077421519,-0.001471408525007,0.0014714101819632,-0.0014714099521499,0.0014714087939861,-0.0014714075094391,0.001471411235929,-0.0011695400442644,0.0011695341936444,-0.001169532864726,0.0011695413691446,1.4391860288763e-09,-1.7877122257032e-09,-1.4128640759052e-09,1.1490619271877e-09,-0.0011847012455198,0.0011847009711515,-0.0014714093940002,0.0014714093450993,-0.0014714085553772,0.0014714101965678,-0.0014714104277414,0.0014714082799349,-0.0014714095923104,0.0014714091331832,-0.0011695390129888,0.0011695351751652,-0.0011695365314768,0.0011695377183831,-0.0011695352820225,0.0011695390013789,-0.0011695384278358,0.0011695357367926,3.7743845244377e-09,-3.6122656144121e-09,-0.0011847010344644,0.0011847011825246,1.3286333493397e-09,-1.214007537903e-09,-0.0014714076341455,0.0014714110975498,-0.0014714084750797,0.0014714102423088,-0.0014714101032391,0.0014714086400003,-0.0014714109485682,0.0014714077878026,-0.0011695410760495,0.0011695331508973,-0.0011695338246393,0.0011695403677364,0.63099126860987,131329,3014,0.0049251510071526,0.0049251510092338,0.004925151009894,18.565716309698,-9.1474269522419e-05,-9.1474269522419e-05,-9.1474269522419e-05,4400446.2285529,0.014887385818439
20819200,0.98733179473258,0.015787097608116,0.0052623658671639,0.0052623658700165,0.0052623658709357,-0.0011834984752067,0.001183498759737,-3.5717078735997e-09,3.8533084902471e-09,-1.5689832909904e-09,1.9388427746841e-09,-0.0014702535823632,0.0014702502255961,-0.0014702511046752,0.0014702526957811,-0.0014702524596387,0.001470251383412,-0.0014702499855684,0.0014702538558264,-0.0011682979434845,0.0011682921227958,-0.0011682906917001,0.0011682994065068,1.6095015139827e-09,-1.9558207828154e-09,-1.4325346175521e-09,1.1713531065783e-09,-0.0011834987553956,0.0011834984788978,-0.0014702518965494,0.0014702519394416,-0.0014702510436035,0.0014702528044732,-0.0014702530428932,0.0014702507624324,-0.0014702521930823,0.00147025162917,-0.0011682969930005,0.0011682930153424,-0.0011682944878001,0.0011682956127693,-0.0011682930181332,0.001168297100964,-0.0011682964875417,0.0011682934916891,3.8044152738425e-09,-3.6530408946376e-09,-0.0011834985458723,0.0011834986882189,1.3544729123117e-09,-1.2497872860034e-09,-0.001470250160737,0.0014702536668015,-0.0014702510231856,0.0014702527917209,-0.0014702526541633,0.0014702511863959,-0.0014702535208272,0.0014702503143629,-0.0011682990376213,0.0011682910043236,-0.001168291725693,0.001168298297532,0.67642720132916,131329,3014,0.0049201647343249,0.0049201647329769,0.0049201647325576,17.740931814427,-9.807254548458e-05,-9.807254548458e-05,-9.807254548458e-05,4387540.8696866,0.014872201303685
21019200,0.98760260827604,0.015791034698421,0.0052636782305969,0.005263678233452,0.0052636782343721,-0.0011821079874511,0.0011821082778129,-3.6091983454092e-09,3.8969819429943e-09,-1.7212777279117e-09,2.0987033331714e-09,-0.0014689442454226,0.0014689407629326,-0.0014689417407613,0.001468943260233,-0.0014689430186829,0.0014689420244578,-0.0014689405181025,0.0014689445234501,-0.0011668871385068,0.0011668813485452,-0.0011668798063483,0.0011668887084716,1.7648139835512e-09,-2.1202433149964e-09,-1.4643305120591e-09,1.195891278381e-09,-0.0011821082744555,0.0011821079903146,-0.0014689424573789,0.0014689425798535,-0.0014689415853959,0.0014689434640808,-0.0014689437090182,0.0014689412953686,-0.0014689428407807,0.0014689421809077,-0.001166886289119,0.001166882140326,-0.0011668837269387,0.0011668847937087,-0.0011668820653761,0.0011668864716715,-0.0011668858489682,0.001166882547299,3.8450828279472e-09,-3.694590111514e-09,-0.0011821080617341,0.0011821082028955,1.3807379735497e-09,-1.2773783750557e-09,-0.0014689407394662,0.0014689442895505,-0.0014689416188722,0.0014689433962861,-0.0014689432596333,0.0014689417811116,-0.0014689441437844,0.001468940890406,-0.0011668882982568,0.0011668801640515,-0.0011668809048935,0.001166887539655,0.65601667571607,131329,3014,0.0049144002767712,0.0049144002757524,0.0049144002754617,16.830061039127,-0.00010535951168698,-0.00010535951168698,-0.00010535951168698,4371115.9859596,0.014854651929036
21219200,0.98785282018741,0.015794696149171,0.0052648987141783,0.0052648987170358,0.0052648987179564,-0.0011807046497374,0.0011807049447317,-3.6448195829107e-09,3.9349711622732e-09,-1.860345799654e-09,2.2411132657634e-09,-0.0014675772907068,0.0014675736964601,-0.0014675747618785,0.0014675762185961,-0.0014675759704617,0.0014675750517262,-0.0014675734452686,0.0014675775759212,-0.0011654504774431,0.0011654447088721,-0.001165443059489,0.0011654521296799,1.8858892404639e-09,-2.2565667756399e-09,-1.5006975056722e-09,1.219113664508e-09,-0.0011807049443618,0.001180704650831,-0.0014675754157735,0.0014675755993204,-0.0014675745246589,0.0014675765033933,-0.0014675767530931,0.0014675742287377,-0.0014675758653171,0.0014675751345468,-0.0011654497234807,0.0011654454104807,-0.0011654470911009,0.0011654481116385,-0.001165445289678,0.0011654499448009,-0.0011654493320997,0.001165445775809,3.8929675291025e-09,-3.7364714360095e-09,-0.0011807047259694,0.0011807048694568,1.4060817195804e-09,-1.2976663417722e-09,-0.0014675737060878,0.0014675773005903,-0.0014675746007639,0.001467576391643,-0.0014675762564243,0.0014675747624514,-0.0014675771554501,0.0014675738563543,-0.0011654516982047,0.0011654434741193,-0.00116544421054,0.0011654509303159,0.65967104599652,131329,3014,0.0049085816373602,0.0049085816388716,0.0049085816393583,15.917072366189,-0.00011266342107048,-0.00011266342107048,-0.00011266342107048,4355855.5384564,0.014836935336917
21419200,0.98808752396245,0.015798154873316,0.0052660516222262,0.0052660516250842,0.0052660516260051,-0.0011796992039304,0.0011796995002235,-3.6866831703598e-09,3.9765466631114e-09,-1.9305138239514e-09,2.3112365990731e-09,-0.001466618466005,0.0014666147998209,-0.0014666159095948,0.0014666173501326,-0.0014666170987599,0.0014666162016469,-0.0014666145460692,0.00146661875396,-0.0011644237813283,0.0011644179746896,-0.0011644162697997,0.0011644254659775,1.9526805191025e-09,-2.3344058261294e-09,-1.5238548275912e-09,1.2327576030062e-09,-0.0011796995029104,0.0011796992030436,-0.0014666165380549,0.0014666167546939,-0.0014666156350346,0.0014666176713598,-0.0014666179232468,0.0014666153355667,-0.0014666170235969,0.0014666162538738,-0.0011644230608707,0.0011644186475501,-0.0011644203817942,0.0011644213747599,-0.0011644185055549,0.0011644232958539,-0.0011644226958612,0.0011644189912802,3.9356201719759e-09,-3.7738379718993e-09,-0.001179699280546,0.00117969942598,1.4282125550574e-09,-1.3154007489689e-09,-0.0014666148254376,0.0014666184590417,-0.0014666157329392,0.0014666175364727,-0.0014666174022371,0.0014666158942066,-0.0014666183142529,0.0014666149744014,-0.0011644250280462,0.0011644167232215,-0.0011644174560214,0.0011644242527588,0.66373456647001,131329,3014,0.0049044129709989,0.0049044129747441,0.0049044129759331,15.228999497499,-0.00011816800402001,-0.00011816800402001,-0.00011816800402001,4344309.1514221,0.014824243302588
21619200,0.98830815501652,0.015801436106485,0.0052671453666165,0.0052671453694741,0.0052671453703949,-0.0011787264659254,0.0011787267643492,-3.7245636371375e-09,4.0176897946876e-09,-1.9637725327442e-09,2.3485176587506e-09,-0.001465694456729,0.0014656907418002,-0.0014656918738633,0.0014656933182044,-0.0014656930664514,0.0014656921672744,-0.0014656904871652,0.0014656947457075,-0.0011634323654826,0.0011634265093056,-0.0011634247846102,0.0011634340852342,1.989218317726e-09,-2.3673185890678e-09,-1.5392209419e-09,1.2515848949303e-09,-0.0011787267649691,0.0011787264663139,-0.001465692499648,0.0014656927269335,-0.0014656915851211,0.0014656936547415,-0.001465693907784,0.0014656912845584,-0.0014656929965984,0.0014656922141421,-0.0011634316428339,0.0011634271802953,-0.0011634289373144,0.0011634299478992,-0.0011634270214306,0.0011634319008017,-0.0011634312752022,0.0011634275221022,3.9754535317411e-09,-3.8184021569646e-09,-0.0011787265443795,0.0011787266872376,1.4404970256576e-09,-1.332073180961e-09,-0.0014656907736373,0.0014656944444793,-0.0014656916910653,0.0014656935123394,-0.0014656933786024,0.0014656918513453,-0.0014656943004123,0.0014656909220812,-0.0011634336342097,0.0011634252284567,-0.0011634259840608,0.0011634328447985,0.66920858041349,131329,3014,0.0049003800315831,0.0049003800336801,0.0049003800343744,14.564732362167,-0.00012348214110267,-0.00012348214110267,-0.00012348214110267,4333211.404809,0.014811965060764
21819200,0.98851568488367,0.015804477050606,0.0052681590146567,0.0052681590175142,0.0052681590184349,-0.0011777395193309,0.001177739818211,-3.7651360686776e-09,4.0586727351575e-09,-1.9779799291297e-09,2.3633090810004e-09,-0.0014647586013069,0.001464754849981,-0.0014647559911627,0.0014647574534786,-0.0014647572014805,0.0014647562851028,-0.0014647545949559,0.0014647588907861,-0.0011624283323136,0.001162422407272,-0.0011624206727294,0.0011624300646976,2.0011956838101e-09,-2.3789837503008e-09,-1.5527066473249e-09,1.2653994766549e-09,-0.0011777398184898,0.0011777395199535,-0.0014647566266295,0.0014647568526616,-0.001464755703098,0.0014647577895253,-0.0014647580428122,0.0014647554025693,-0.0014647571225071,0.0014647563412063,-0.0011624275917671,0.0011624230961003,-0.0011624248607628,0.001162425891654,-0.0011624229371565,0.0011624278503207,-0.0011624272138648,0.0011624234485741,4.0158724445005e-09,-3.8598663056162e-09,-0.0011777395982896,0.0011777397404421,1.4535623489033e-09,-1.3462618627124e-09,-0.0014647548820124,0.0014647585888024,-0.0014647558086454,0.0014647576475822,-0.0014647575144134,0.0014647559685336,-0.0014647584453709,0.0014647550302598,-0.0011624296118978,0.0011624211154486,-0.0011624218817777,0.0011624288114291,0.65988857559076,131329,3014,0.0048962883008415,0.0048962883027174,0.0048962883033169,13.901052717716,-0.00012879157825827,-0.00012879157825827,-0.00012879157825827,4322057.9598361,0.014799508446169
22019200,0.98872291109406,0.015807464698116,0.00526915489716,0.0052691549000177,0.0052691549009384,-0.0011784143213078,0.0011784146127921,-3.8120551513318e-09,4.0972093328909e-09,-1.8531797195728e-09,2.2284557936758e-09,-0.0014655343201786,0.0014655306204418,-0.0014655316816993,0.0014655332527873,-0.0014655330060104,0.0014655319688236,-0.001465530371336,0.0014655346030611,-0.0011631210829228,0.0011631149775578,-0.0011631133309284,0.0011631227099676,1.8771047710448e-09,-2.2530226191026e-09,-1.5418894502079e-09,1.2559568623386e-09,-0.0011784146153591,0.0011784143204564,-0.001465532405935,0.0014655325612948,-0.0014655314892016,0.0014655334917432,-0.0014655337389633,0.0014655311945883,-0.001465532825696,0.001465532126577,-0.0011631202040048,0.0011631158082347,-0.0011631174854879,0.0011631185764309,-0.001163115724698,0.001163120380179,-0.0011631197611227,0.0011631162298352,4.0573492965288e-09,-3.896591517745e-09,-0.0011784143959396,0.0011784145404321,1.4487068044133e-09,-1.3372112549964e-09,-0.0014655306153953,0.0014655343437921,-0.0014655315369945,0.0014655334071713,-0.0014655332735765,0.0014655316974339,-0.0014655341997581,0.0014655307634555,-0.0011631223073721,0.0011631137477357,-0.001163114496143,0.0011631215171372,0.6498238145139,131329,3014,0.0048990871361622,0.0048990871397304,0.0048990871408865,14.153820139242,-0.00012676943888607,-0.00012676943888607,-0.00012676943888607,4326750.9612172,0.01480803148234
22219200,0.98893101719379,0.01581044074294,0.0052701469121019,0.0052701469149589,0.0052701469158794,-0.0011792635105879,0.0011792637947965,-3.8545543578338e-09,4.1321195623485e-09,-1.7176469243008e-09,2.0840411153862e-09,-0.0014664872949728,0.0014664836556902,-0.0014664846307754,0.0014664863139107,-0.0014664860737816,0.0014664849107808,-0.0014664834129815,0.0014664875707014,-0.0011639824590763,0.0011639761767041,-0.0011639746294423,0.001163983983686,1.7338607513352e-09,-2.1022967411195e-09,-1.5281919676534e-09,1.248200004812e-09,-0.0011792637977597,0.0011792635094444,-0.0014664854528446,0.0014664855245672,-0.0014664845431347,0.0014664864475314,-0.0014664866877553,0.0014664842551889,-0.0014664857815476,0.0014664851800117,-0.0011639814294101,0.0011639771577045,-0.0011639787306425,0.0011639799037544,-0.0011639771567942,0.0011639815217269,-0.0011639809048876,0.0011639776615755,4.1011337374736e-09,-3.9390568770457e-09,-0.0011792635811955,0.0011792637266161,1.4351116387363e-09,-1.3220604914007e-09,-0.0014664836105986,0.001466487358767,-0.0014664845227752,0.0014664864316748,-0.0014664862968914,0.0014664846828549,-0.0014664872136216,0.0014664837585851,-0.0011639836312437,0.0011639749990372,-0.0011639757356664,0.0011639828523406,0.64497437888763,131329,3014,0.0049026088605475,0.0049026088643307,0.004902608865595,14.500497607654,-0.00012399601913876,-0.00012399601913876,-0.00012399601913876,4333675.3495814,0.014818754963395
22419200,0.98913993758622,0.015813560434451,0.0052711868092729,0.0052711868121293,0.0052711868130491,-0.0011801237929469,0.0011801240724872,-3.897206220084e-09,4.171369079185e-09,-1.5829886723121e-09,1.9447689497024e-09,-0.0014674449951761,0.0014674414144536,-0.0014674423035662,0.0014674440995946,-0.0014674438650574,0.0014674425778889,-0.0014674411769986,0.0014674452652797,-0.0011648556095699,0.0011648491540008,-0.0011648477079714,0.0011648570490724,1.6035981308732e-09,-1.9595414086234e-09,-1.5094858623625e-09,1.2400840865073e-09,-0.001180124073133,0.0011801237933691,-0.0014674432198442,0.0014674432156976,-0.0014674423191014,0.0014674441297512,-0.0014674443652367,0.0014674420383837,-0.001467443467636,0.0014674429542632,-0.0011648544267429,0.001164850286741,-0.0011648517606557,0.0011648530132024,-0.0011648503520667,0.0011648544568829,-0.0011648538285735,0.0011648508619464,4.1404165365287e-09,-3.9816220398268e-09,-0.0011801238612543,0.0011801240055874,1.4203639524445e-09,-1.3100797638448e-09,-0.001467441330306,0.0014674450976566,-0.0014674422338863,0.0014674441796738,-0.001467444044728,0.0014674423951635,-0.0014674449525965,0.0014674414802073,-0.0011648567319385,0.0011648480214907,-0.001164848759669,0.0011648559575894,0.67139356556242,131329,3014,0.0049061764553553,0.0049061764575747,0.0049061764582796,14.849500765551,-0.00012120399387559,-0.00012120399387559,-0.00012120399387559,4340605.4079881,0.014829617863301
22619200,0.98934942694658,0.015816725020241,0.0052722416712028,0.0052722416740593,0.0052722416749793,-0.0011809544820973,0.0011809547565146,-3.9406533130404e-09,4.2102150194682e-09,-1.4661814190464e-09,1.8222224178854e-09,-0.0014684157288729,0.0014684121950479,-0.0014684130097487,0.0014684149075463,-0.0014684146781951,0.0014684132786566,-0.0014684119626531,0.001468415993351,-0.0011657168503955,0.0011657102306998,-0.0011657088711722,0.0011657182090519,1.4888767831309e-09,-1.8365040590947e-09,-1.4924750543459e-09,1.2299891964169e-09,-0.0011809547565061,0.0011809544829231,-0.001468414009401,0.0014684139403029,-0.0014684131175415,0.0014684148452671,-0.0014684150758897,0.001468412842368,-0.0014684141871995,0.0014684137490973,-0.0011657155278577,0.0011657115021959,-0.0011657128909898,0.0011657142044148,-0.0011657116274807,0.0011657154993833,-0.0011657148693323,0.0011657121368709,4.1806534019083e-09,-4.0227875926592e-09,-0.0011809545477252,0.0011809546919695,1.4068524456823e-09,-1.2972038859294e-09,-0.0014684120780209,0.0014684158642904,-0.0014684129729102,0.0014684149552511,-0.0014684148194827,0.0014684131345589,-0.0014684157186719,0.0014684122284994,-0.0011657179262132,0.0011657091424758,-0.0011657098758473,0.0011657171598382,0.67880270292975,131329,3014,0.0049096223569604,0.0049096223586607,0.0049096223592123,15.18765774168,-0.00011849873806656,-0.00011849873806656,-0.00011849873806656,4345972.8238388,0.014840113379891
22819200,0.98955643652777,0.015819842416666,0.0052732808033441,0.005273280806201,0.0052732808071212,-0.0011813706220455,0.0011813708957842,-3.9765831791135e-09,4.2468884527082e-09,-1.4097235127967e-09,1.7662398990541e-09,-0.0014689700839893,0.0014689665622696,-0.001468967340933,0.0014689692977296,-0.0014689690712027,0.0014689676075917,-0.0014689663311659,0.0014689703468634,-0.0011661586131669,0.0011661518853371,-0.0011661505682793,0.0011661599427613,1.4174224453692e-09,-1.7560721442088e-09,-1.4840705226518e-09,1.2292924957978e-09,-0.0011813708929499,0.0011813706250041,-0.0014689683924114,0.0014689682795298,-0.0014689675038588,0.0014689691811394,-0.00146896940952,0.0014689672321152,-0.0014689685225765,0.001468968136115,-0.0011661571995287,0.0011661532442048,-0.0011661545767048,0.001166155945174,-0.0011661534054054,0.0011661571372257,-0.0011661564937742,0.001166153922343,4.2245419169678e-09,-4.0699445346941e-09,-0.0011813706875009,0.001181370830492,1.3931112423196e-09,-1.2861930710669e-09,-0.0014689664276709,0.0014689702369406,-0.0014689673149602,0.0014689693361021,-0.0014689692004364,0.0014689674762513,-0.0014689700907608,0.0014689665793987,-0.0011661596756903,0.0011661508053365,-0.0011661515404158,0.0011661589124245,0.67691805436447,131329,3014,0.0049113495119294,0.0049113495121905,0.0049113495122709,15.303761032461,-0.00011756991174032,-0.00011756991174032,-0.00011756991174032,4347366.2141388,0.014845376232385
23019200,0.9897608988861,0.015822704430905,0.0052742348080888,0.0052742348109474,0.0052742348118686,-0.0011817620408144,0.0011817623107408,-4.0247136081737e-09,4.289871816596e-09,-1.363741457164e-09,1.7142540804793e-09,-0.0014694960287957,0.0014694925061506,-0.0014694932550572,0.0014694952732339,-0.0014694950478915,0.0014694935194393,-0.0014694922777941,0.0014694962887412,-0.0011665698085795,0.0011665629540788,-0.0011665616686862,0.0011665710924433,1.3862510938077e-09,-1.7286322155349e-09,-1.4741385978627e-09,1.2157885485106e-09,-0.0011817623108649,0.001181762041574,-0.0014694943420972,0.0014694942181055,-0.0014694934610408,0.0014694951122452,-0.0014694953388932,0.0014694931903954,-0.0014694944609586,0.001469494086219,-0.0011665683158627,0.0011665643961915,-0.0011665657104677,0.0011665670660588,-0.0011665645746197,0.001166568233303,-0.0011665676102038,0.0011665650783263,4.2628874570673e-09,-4.1041192271513e-09,-0.001181762103815,0.0011817622489099,1.3912191610625e-09,-1.2805020994516e-09,-0.0014694923611912,0.0014694961918919,-0.0014694932452889,0.0014694952936398,-0.0014694951570436,0.001469493407568,-0.0014694960455512,0.001469492512362,-0.0011665708414119,0.0011665619093398,-0.0011665626307065,0.0011665700866664,0.63260005505093,131329,3014,0.0049129740232111,0.0049129740250522,0.0049129740256469,15.414953809233,-0.00011668036952613,-0.00011668036952613,-0.00011668036952613,4348835.540759,0.01485032622869
23219200,0.98996281223043,0.015825659200285,0.0052752197312153,0.0052752197340742,0.0052752197349955,-0.0011821728446551,0.0011821731134359,-4.0658925818314e-09,4.3298837090248e-09,-1.3398505826609e-09,1.6888831473674e-09,-0.0014699665151326,0.0014699629806929,-0.0014699637144247,0.0014699657747828,-0.0014699655504878,0.0014699639776118,-0.0014699627533251,0.0014699667739529,-0.0011669748321161,0.0011669678804384,-0.0011669666124913,0.001166976098175,1.3613505025071e-09,-1.7023240970644e-09,-1.4664873981714e-09,1.2092919348997e-09,-0.0011821731135181,0.0011821728454557,-0.0014699648281138,0.0014699646928744,-0.0014699639517241,0.0014699655822853,-0.0014699658078902,0.0014699636822977,-0.0014699649345899,0.0014699645734868,-0.0011669732750517,0.0011669693870954,-0.0011669706832013,0.0011669720431081,-0.0011669695765926,0.0011669731810284,-0.0011669725619192,0.001166970076924,4.3042882585365e-09,-4.1451801819438e-09,-0.0011821729069401,0.0011821730523221,1.3838521380318e-09,-1.2727395428277e-09,-0.001469962830202,0.0014699666836749,-0.001469963709285,0.0014699657905106,-0.0014699656536307,0.0014699638718073,-0.001469966536999,0.0014699629816979,-0.0011669758540632,0.001166966846813,-0.001166967562608,0.0011669751048332,0.65900012487139,131329,3014,0.0049146772159678,0.0049146772178054,0.004914677218405,15.525977386422,-0.00011579218090862,-0.00011579218090862,-0.00011579218090862,4352100.3724018,0.014855510805625
23419200,0.99016303798538,0.015828557919919,0.0052761859710932,0.0052761859739524,0.0052761859748738,-0.0011826986016498,0.0011826988698772,-4.1079481630034e-09,4.3710168793171e-09,-1.3319660811152e-09,1.6798646963455e-09,-0.0014705952983007,0.00147059174153,-0.0014705924699302,0.0014705945634842,-0.0014705943390971,0.0014705927327884,-0.0014705915143209,0.0014705955569434,-0.0011675129644658,0.0011675059242937,-0.0011675046607701,0.0011675142209165,1.3542247890687e-09,-1.6967826985378e-09,-1.4589896692352e-09,1.2002957439848e-09,-0.0011826988707208,0.0011826986019387,-0.0014705935992464,0.0014705934653405,-0.0014705927283893,0.0014705943493656,-0.0014705945748646,0.0014705924590539,-0.0014705937071471,0.0014705933448063,-0.0011675113550847,0.0011675074846169,-0.0011675087769516,0.0011675101219977,-0.001167507675189,0.001167511258241,-0.0011675106495353,0.0011675081682406,4.3454120755263e-09,-4.1845098645666e-09,-0.001182698663303,0.0011826988097166,1.3776838032643e-09,-1.2648665881351e-09,-0.0014705915908246,0.0014705954667384,-0.0014705924651177,0.0014705945782332,-0.0014705944410792,0.0014705926281642,-0.0014705953197098,0.0014705917426357,-0.0011675139787734,0.0011675049004788,-0.0011675056071114,0.0011675132361561,0.65256370898628,131329,3014,0.0049168580753234,0.0049168580776795,0.0049168580784278,15.704765787803,-0.00011436187369758,-0.00011436187369758,-0.00011436187369758,4355030.3276143,0.014862152977049
23619200,0.99036581610557,0.015831562275839,0.0052771874230661,0.0052771874259255,0.005277187426847,-0.0011838389432682,0.0011838392075292,-4.1535193022482e-09,4.4104716214724e-09,-1.3079972117007e-09,1.6487489456162e-09,-0.0014718556576387,0.0014718520889197,-0.0014718528015283,0.0014718549398032,-0.0014718547157667,0.0014718530613491,-0.001471851863286,0.0014718559141487,-0.0011686793897361,0.0011686722370031,-0.0011686709839802,0.0011686805982126,1.3260435307419e-09,-1.6791132777052e-09,-1.4491492183267e-09,1.1808826888334e-09,-0.0011838392135478,0.0011838389401597,-0.00147185395415,0.0014718538152301,-0.0014718530932801,0.0014718546901006,-0.0014718549141223,0.0014718528235696,-0.0014718540565906,0.0014718537000803,-0.0011686777163985,0.0011686738689415,-0.0011686751492814,0.0011686764619826,-0.0011686740811818,0.0011686775848555,-0.0011686770192426,0.0011686745500373,4.3898962480947e-09,-4.2187590866293e-09,-0.0011838390016134,0.0011838391530171,1.3705941836414e-09,-1.2484237238945e-09,-0.0014718519340723,0.0014718558288068,-0.0014718527995699,0.0014718549477065,-0.0014718548101105,0.0014718529635573,-0.0014718556801956,0.0014718520851787,-0.0011686803799059,0.0011686712508106,-0.0011686719224063,0.0011686796572158,0.66669036509644,131329,3014,0.004921587261264,0.0049215872673127,0.0049215872692301,16.219963243068,-0.00011024029405546,-0.00011024029405546,-0.00011024029405546,4363925.7061848,0.014876554380498
23819200,0.99057110793602,0.015834770841098,0.0052782569448193,0.0052782569476784,0.0052782569485999,-0.0011849949994931,0.0011849952656825,-4.1888565991298e-09,4.4496317488633e-09,-1.3036939565739e-09,1.6489718168664e-09,-0.0014731597086332,0.0014731561165651,-0.0014731568274563,0.0014731589917858,-0.0014731587687847,0.0014731570876565,-0.0014731558909921,0.001473159965065,-0.0011698742881645,0.0011698670689765,-0.001169865825587,0.0011698755194227,1.3200219898129e-09,-1.6628401392061e-09,-1.4360129518172e-09,1.1767949283334e-09,-0.001184995267532,0.0011849949989192,-0.0014731579951344,0.0014731578546497,-0.0014731571397986,0.0014731587232798,-0.0014731589478246,0.0014731568704487,-0.0014731580955938,0.0014731577409792,-0.0011698725567905,0.0011698687521422,-0.0011698700213981,0.0011698713428235,-0.0011698689506025,0.0011698724487022,-0.0011698718582085,0.0011698694269873,4.4307466080855e-09,-4.2671704846943e-09,-0.0011849950592569,0.0011849952076006,1.3520995148468e-09,-1.2364328666188e-09,-0.0014731559639204,0.001473159879265,-0.0014731568198417,0.0014731590084464,-0.0014731588698424,0.0014731569840817,-0.0014731597299949,0.0014731561163073,-0.0011698752846222,0.001169866063449,-0.0011698667480694,0.0011698745631201,0.7007915699214,131329,3014,0.0049263822040102,0.0049263822066574,0.0049263822074998,16.742614131072,-0.00010605908695143,-0.00010605908695143,-0.00010605908695143,4372224.263359,0.014891157943943
24019200,0.99077877084569,0.015838054590184,0.0052793515278483,0.0052793515307074,0.0052793515316288,-0.0011861349143122,0.0011861351817658,-4.2310820688177e-09,4.4934117427674e-09,-1.3072388703381e-09,1.654172096825e-09,-0.0014745060751138,0.0014745024525309,-0.0014745031649507,0.0014745053563786,-0.001474505132611,0.0014745034269017,-0.0014745022259931,0.0014745063328927,-0.0011710760892889,0.0011710687912871,-0.0011710675455353,0.0011710773285857,1.3288791130398e-09,-1.6704605849287e-09,-1.4229464595079e-09,1.1648542561371e-09,-0.0011861351826655,0.0011861349144769,-0.0014745043396094,0.0014745042128286,-0.0014745034924343,0.001474505073004,-0.0014745052980537,0.0014745032236207,-0.0014745044540181,0.0014745040855209,-0.0011710743068921,0.0011710705244783,-0.0011710717988901,0.001171073092062,-0.0011710707075276,0.001171074217246,-0.0011710736308001,0.0011710711777036,4.468985236451e-09,-4.3066775828384e-09,-0.0011861349747931,0.0011861351226888,1.3429145392062e-09,-1.2282571535282e-09,-0.0014745023049887,0.0014745062404396,-0.0014745031554562,0.0014745053757263,-0.0014745052370363,0.0014745033198269,-0.0014745060918245,0.0014745024580683,-0.0011710770821462,0.0011710677880844,-0.0011710684702349,0.0011710763647287,0.70866202723069,131329,3014,0.0049311114684927,0.0049311114707043,0.004931111471409,17.26552195153,-0.00010187582438776,-0.00010187582438776,-0.00010187582438776,4379060.104827,0.014905565448294
24219200,0.99098740402427,0.015841210492172,0.0052804034951772,0.0052804034980364,0.0052804034989579,-0.0011870814320158,0.0011870817018568,-4.2704595703915e-09,4.5359353391125e-09,-1.3400416971166e-09,1.6906571276441e-09,-0.0014756716444502,0.0014756679730824,-0.0014756687068325,0.0014756709041429,-0.001475670679026,0.0014756689707251,-0.001475667745139,0.0014756719037133,-0.0011720831668808,0.0011720758162468,-0.0011720745483772,0.0011720844381563,1.3678706817297e-09,-1.7085067527694e-09,-1.4164047808131e-09,1.1593131473112e-09,-0.0011870817015841,0.0011870814328742,-0.0014756698712548,0.0014756697718635,-0.0014756690278042,0.0014756706280235,-0.0014756708550709,0.0014756687570339,-0.0014756700149972,0.0014756696147479,-0.0011720813620381,0.0011720775697333,-0.001172078870642,0.001172080129701,-0.0011720777211028,0.0011720813075593,-0.0011720807174465,0.00117207818864,4.5086567509841e-09,-4.3488863350959e-09,-0.0011870814939119,0.0011870816407357,1.3357496491181e-09,-1.223284185449e-09,-0.0014756678385864,0.0014756717973982,-0.0014756686849415,0.0014756709369141,-0.0014756707978529,0.0014756688494805,-0.0014756716487095,0.0014756679917797,-0.0011720841720727,0.001172074796538,-0.00117207548236,0.0011720834561001,0.68010065449458,131329,3014,0.0049350390009454,0.0049350390021637,0.0049350390025567,17.693205139721,-9.8454358882235e-05,-9.8454358882235e-05,-9.8454358882235e-05,4384102.4668413,0.01491753242196
24419200,0.99119380889716,0.015844329202298,0.0052814430652189,0.0052814430680786,0.0052814430690002,-0.0011876031289943,0.0011876034037526,-4.3080541453148e-09,4.5796071088523e-09,-1.4141457161132e-09,1.7719703285816e-09,-0.0014763493100272,0.0014763455636026,-0.0014763463451014,0.0014763485214199,-0.0014763482934816,0.0014763466133669,-0.0014763453321871,0.0014763495732598,-0.0011726370884151,0.0011726297181284,-0.0011726283996901,0.0011726384286477,1.4442159574693e-09,-1.7831652962411e-09,-1.4171216275941e-09,1.1618454888048e-09,-0.0011876034009683,0.001187603131497,-0.0014763474770434,0.0014763474234906,-0.0014763466323424,0.0014763482804225,-0.0014763485110658,0.0014763463585113,-0.0014763476696302,0.0014763472171181,-0.0011726352949884,0.0011726314562409,-0.0011726328088165,0.0011726340273265,-0.0011726315550258,0.0011726352999296,-0.0011726346947384,0.0011726320268361,4.5474485120989e-09,-4.3926265631561e-09,-0.0011876031939424,0.0011876033384353,1.3346419988972e-09,-1.2266163216545e-09,-0.0014763454529765,0.0014763494400125,-0.0014763463005016,0.0014763485789756,-0.0014763484400017,0.0014763464646941,-0.0014763492918371,0.0014763456065873,-0.0011726381255108,0.001172628659215,-0.0011726293597107,0.0011726374033012,0.67934591727768,131329,3014,0.0049372037555477,0.0049372037549657,0.0049372037547839,17.885222160016,-9.6918222719871e-05,-9.6918222719871e-05,-9.6918222719871e-05,4386178.5740743,0.014924128037502
24619200,0.99139788008981,0.015847559829923,0.0052825199410936,0.0052825199439537,0.0052825199448754,-0.001188124167498,0.0011881244444008,-4.3483830779995e-09,4.6205463947734e-09,-1.4941936894084e-09,1.8529409305147e-09,-0.0014770123013336,0.0014770084776939,-0.0014770093096612,0.0014770114628835,-0.0014770112310164,0.0014770095809301,-0.0014770082428509,0.0014770125682754,-0.0011731905762828,0.0011731831778575,-0.0011731817961994,0.0011731919573608,1.5172017891672e-09,-1.8676309531784e-09,-1.4257889089364e-09,1.1605772211894e-09,-0.001188124444566,0.0011881241681781,-0.0014770104060508,0.0014770103990296,-0.0014770095592412,0.0014770112586523,-0.0014770114922996,0.0014770092811839,-0.0014770106486269,0.0014770101425746,-0.0011731888092556,0.00117318489431,-0.0011731863052723,0.0011731874631441,-0.0011731849587251,0.0011731888411853,-0.0011731882585276,0.0011731854200582,4.591576089914e-09,-4.4310354937308e-09,-0.0011881242329685,0.0011881243800483,1.3402610253574e-09,-1.2271750309099e-09,-0.0014770083905258,0.0014770124070486,-0.0014770092397736,0.0014770115436042,-0.0014770114050123,0.0014770094041533,-0.0014770122585166,0.0014770085436742,-0.0011731916396775,0.0011731821019168,-0.0011731827874583,0.001173190921676,0.70944460374999,131329,3014,0.0049393655675541,0.0049393655693163,0.0049393655698843,18.072004756832,-9.5423961945347e-05,-9.5423961945347e-05,-9.5423961945347e-05,4387952.9787126,0.014930714215736
24819200,0.99159958137856,0.015850518900079,0.0052835062978121,0.0052835063006727,0.0052835063015946,-0.0011886203066267,0.001188620586925,-4.3876854452803e-09,4.6630090218046e-09,-1.5697370613162e-09,1.9324061491421e-09,-0.0014776966789912,0.0014776927799647,-0.0014776936600738,0.0014776957924207,-0.0014776955572762,0.0014776939349326,-0.0014776925418501,0.0014776969495675,-0.0011737305426564,0.0011737231187352,-0.0011737216816285,0.001173731977541,1.5915782193796e-09,-1.946690253938e-09,-1.4321076746423e-09,1.1630611880725e-09,-0.0011886205872037,0.0011886203072351,-0.0014776947236377,0.0014776947615804,-0.0014776938739507,0.0014776956241463,-0.001477695860807,0.0014776935925253,-0.001477695014237,0.0014776944568568,-0.001173728794959,0.0011737248160666,-0.0011737262816149,0.0011737273928001,-0.0011737248379634,0.0011737288693534,-0.0011737282887711,0.0011737252976006,4.6327161567603e-09,-4.4719260789632e-09,-0.0011886203738561,0.0011886205208725,1.3446708566401e-09,-1.2314402735508e-09,-0.001477692715536,0.0014776967620037,-0.0014776935676614,0.0014776958956313,-0.0014776957574071,0.001477693731837,-0.0014776966137852,0.0014776928684354,-0.0011737316349373,0.001173722014646,-0.0011737227018212,0.0011737309141341,0.66112229424429,131329,3014,0.004941425167256,0.0049414251691029,0.0049414251697053,18.258606847392,-9.3931145220863e-05,-9.3931145220863e-05,-9.3931145220863e-05,4388689.1697461,0.014936992289443
25019200,0.99180118354405,0.015853441037117,0.0052844803434909,0.0052844803463519,0.0052844803472739,-0.0011894636911366,0.0011894639719334,-4.4288575985581e-09,4.70305655538e-09,-1.6170545672106e-09,1.9786066175731e-09,-0.0014786687574192,0.0014786648020905,-0.0014786657117647,0.0014786678419609,-0.0014786676042649,0.0014786659880081,-0.0014786645620347,0.0014786690300836,-0.0011745964538853,0.0011745889777527,-0.0011745875013028,0.0011745979050991,1.6316539245488e-09,-1.99659397609e-09,-1.4385356697393e-09,1.1608566636843e-09,-0.0011894639752205,0.0011894636898505,-0.001478666759996,0.0014786668246871,-0.0014786659092402,0.0014786676889286,-0.0014786679269977,0.0014786656253204,-0.0014786670792741,0.0014786664913725,-0.0011745947071955,0.0011745906789607,-0.0011745921789478,0.0011745932499218,-0.0011745906858773,0.0011745947888709,-0.0011745942308188,0.0011745911356813,4.6770127961166e-09,-4.5101599206515e-09,-0.001189463757954,0.0011894639077531,1.3489018775618e-09,-1.230247937417e-09,-0.0014786647510972,0.0014786688260336,-0.0014786656038636,0.0014786679583166,-0.0014786678204004,0.0014786657683064,-0.0014786686774184,0.0014786649035576,-0.0011745975597316,0.0011745878694329,-0.0011745885399445,0.0011745968444597,0.65362539304134,131329,3014,0.0049449228481397,0.0049449228523002,0.004944922853622,18.630439698419,-9.0956482412648e-05,-9.0956482412648e-05,-9.0956482412648e-05,4394543.4049738,0.014947644367238
25219200,0.99200593671553,0.015856511358352,0.005285503783903,0.0052855037867635,0.0052855037876854,-0.0011908135077518,0.0011908137891443,-4.4705404891156e-09,4.7458784964343e-09,-1.6167936308291e-09,1.9796305825269e-09,-0.0014801505677371,0.0014801465840493,-0.0014801474937722,0.0014801496520212,-0.0014801494144621,0.0014801477704116,-0.0014801463439774,0.0014801508405405,-0.0011759758136132,0.0011759682568943,-0.0011759667824072,0.0011759772707592,1.6396240869638e-09,-2.0022248338616e-09,-1.4338346980235e-09,1.1583943274116e-09,-0.0011908137913563,0.0011908135071148,-0.0014801485529536,0.0014801486244663,-0.001480147704459,0.0014801494862455,-0.0014801497244606,0.0014801474207758,-0.0014801488790517,0.0014801482843097,-0.0011759740221621,0.0011759700010316,-0.0011759715048295,0.0011759725680501,-0.0011759699976877,0.0011759741170493,-0.0011759735543309,0.0011759704480009,4.7156369371168e-09,-4.5508958244917e-09,-0.0011908135751002,0.0011908137238756,1.3467014480775e-09,-1.2299844109382e-09,-0.0014801465346151,0.0014801506351255,-0.0014801473867123,0.0014801497683737,-0.0014801496304122,0.0014801475510614,-0.0014801504867943,0.0014801466872507,-0.0011759769179521,0.0011759671469346,-0.001175967822376,0.0011759762014383,0.67454675382374,131329,3014,0.0049505201696227,0.0049505201728947,0.0049505201739426,19.271837720982,-8.5825298232142e-05,-8.5825298232142e-05,-8.5825298232142e-05,4405110.0861756,0.01496468979734
25419200,0.99221371481873,0.015859891482889,0.0052866304920817,0.0052866304949426,0.0052866304958646,-0.0011921821859945,0.0011921824673758,-4.5101612184942e-09,4.7857957646363e-09,-1.6179084191848e-09,1.9813166902528e-09,-0.0014816859635397,0.001481681952025,-0.0014816828630182,0.0014816850464343,-0.0014816848094565,0.0014816831393492,-0.001481681712346,0.0014816862358198,-0.0011773925198062,0.0011773848873458,-0.001177383413917,0.0011773939818525,1.6369515300262e-09,-1.9972621648243e-09,-1.4323822499739e-09,1.1589134396047e-09,-0.0011921824688844,0.0011921821857558,-0.0014816839361684,0.0014816840056017,-0.0014816830878525,0.0014816848669438,-0.0014816851049481,0.0014816828042613,-0.0014816842597867,0.0014816836674085,-0.0011773906862045,0.0011773866721073,-0.001177388172479,0.0011773892411088,-0.001177386667966,0.0011773907840989,-0.0011773902149563,0.00117738712032,4.7570055920386e-09,-4.5938337870017e-09,-0.0011921822534652,0.0011921824015834,1.3434135606085e-09,-1.2279847599085e-09,-0.0014816819035318,0.0014816860305109,-0.0014816827539176,0.0014816851655578,-0.0014816850273039,0.0014816829181219,-0.0014816858819508,0.0014816820560898,-0.0011773936266006,0.0011773837715955,-0.0011773844502358,0.0011773929102403,0.72789191789677,131329,3014,0.0049561965349068,0.0049561965375453,0.0049561965383935,19.919243918646,-8.0646048650828e-05,-8.0646048650828e-05,-8.0646048650828e-05,4414755.9125279,0.014981978736248
25619200,0.9924242989198,0.015863338554999,0.0052877795161183,0.0052877795189793,0.0052877795199012,-0.0011935249286215,0.0011935252101672,-4.5507725375522e-09,4.8269414856627e-09,-1.6145314615839e-09,1.9784663316822e-09,-0.0014832848852982,0.0014832808485197,-0.0014832817574628,0.001483283970078,-0.0014832837333692,0.0014832820337549,-0.0014832806089865,0.0014832851574961,-0.0011788184149015,0.001178810701416,-0.0011788092314543,0.0011788198784702,1.6341860505945e-09,-1.9926967320746e-09,-1.430889267566e-09,1.1590103974341e-09,-0.0011935252110045,0.0011935249288454,-0.001483282846096,0.0014832829139109,-0.0014832819982286,0.001483283774762,-0.0014832840126685,0.001483281715228,-0.0014832831678822,0.0014832825778771,-0.0011788165369461,0.0011788125297856,-0.0011788140267772,0.0011788150994821,-0.0011788125248451,0.0011788166370125,-0.0011788160636306,0.0011788129792357,4.7974953912795e-09,-4.6354379692578e-09,-0.0011935249962684,0.0011935251439187,1.3421117294079e-09,-1.2276633273751e-09,-0.0014832807992273,0.0014832849530508,-0.0014832816491714,0.0014832840886942,-0.0014832839505288,0.0014832818134565,-0.0014832848047083,0.0014832809520995,-0.0011788195215883,0.0011788095843122,-0.0011788102659497,0.0011788188041834,0.73243475668952,131329,3014,0.0049617673291084,0.004961767331314,0.004961767332014,20.566849966773,-7.5465200265814e-05,-7.5465200265814e-05,-7.5465200265814e-05,4422328.9331236,0.014998952357626
25819200,0.99263221876604,0.015866648936619,0.0052888829766583,0.0052888829795194,0.0052888829804413,-0.0011941021557733,0.0011941024412271,-4.5882037797005e-09,4.8704623299543e-09,-1.6467900919284e-09,2.0178053414319e-09,-0.001484102579635,0.0014840984937772,-0.001484099424288,0.0014841016420151,-0.0014841014043587,0.001484099703284,-0.0014840982527887,0.0014841028534604,-0.0011794624650002,0.0011794547060523,-0.0011794532184496,0.0011794639766464,1.6829343300323e-09,-2.0342035691501e-09,-1.4372729235143e-09,1.172065598034e-09,-0.0011941024382026,0.0011941021583652,-0.0014841005061958,0.0014841005951926,-0.0014840996513216,0.0014841014623146,-0.0014841017026581,0.0014840993667109,-0.001484100851174,0.0014841002353479,-0.0011794605777024,0.0011794565371365,-0.0011794580630767,0.0011794591387279,-0.0011794564971801,0.0011794607237345,-0.0011794601167789,0.0011794569670821,4.8346754325136e-09,-4.6811565640567e-09,-0.0011941022264703,0.0011941023699544,1.3470594617581e-09,-1.2403772040043e-09,-0.0014840984532365,0.0014841026401053,-0.0014840993093802,0.0014841017703212,-0.0014841016321503,0.0014840994729988,-0.0014841024927512,0.0014840986060151,-0.0011794635943967,0.0011794535536727,-0.0011794542651444,0.0011794628620348,0.71386319925064,131329,3014,0.0049641639647152,0.0049641639638173,0.0049641639635197,20.805414762945,-7.3556681896438e-05,-7.3556681896438e-05,-7.3556681896438e-05,4422999.1172905,0.015006259634916
26019200,0.99283287010811,0.015869714236401,0.0052899047432519,0.0052899047461136,0.0052899047470358,-0.0011940025281213,0.0011940028178284,-4.6280494864415e-09,4.9147267057669e-09,-1.7277392124589e-09,2.1040519947147e-09,-0.0014841792940877,0.0014841751286014,-0.001484176110752,0.0014841783045736,-0.0014841780636663,0.0014841763940235,-0.0014841748836484,0.0014841795724933,-0.0011793971754286,0.0011793893945219,-0.0011793878483282,0.0011793987507234,1.7458030790061e-09,-2.098740956e-09,-1.4547190671665e-09,1.1883430116291e-09,-0.0011940028135043,0.0011940025318309,-0.0014841771665488,0.0014841772845794,-0.0014841763007358,0.0014841781625695,-0.0014841784055873,0.0014841760137491,-0.0014841775426177,0.0014841768937209,-0.0011793953143924,0.0011793911983467,-0.0011793927685594,0.0011793938354607,-0.001179391129079,0.0011793954920368,-0.0011793948722178,0.0011793916095288,4.8733378429329e-09,-4.7219754467738e-09,-0.0011940026015405,0.001194002743596,1.364613828249e-09,-1.2601461081367e-09,-0.0014841751087558,0.0014841793339787,-0.0014841759779036,0.0014841784516434,-0.0014841783146129,0.0014841761404658,-0.0014841791876586,0.0014841752614159,-0.0011793983395739,0.0011793882061937,-0.0011793889340553,0.0011793975921061,0.68688292481596,131329,3014,0.0049637530747806,0.0049637530735094,0.0049637530730976,20.675579689043,-7.4595362487657e-05,-7.4595362487657e-05,-7.4595362487657e-05,4418152.8933076,0.015005014059432
26219200,0.99302644857091,0.015872850278367,0.0052909500905735,0.0052909500934354,0.0052909500943576,-0.001193906100249,0.0011939063906963,-4.6689012910351e-09,4.9548131175074e-09,-1.7840367711954e-09,2.1596230778798e-09,-0.00148419811038,0.0014841938828414,-0.0014841949003525,0.0014841970861806,-0.0014841968424578,0.0014841951852193,-0.0014841936358991,0.0014841983908282,-0.0011793192181657,0.001179311391612,-0.0011793097997762,0.0011793208152251,1.805785941791e-09,-2.1698210772313e-09,-1.477597276764e-09,1.2016219842451e-09,-0.0011939063898,0.0011939061017123,-0.0014841959369282,0.0014841960837417,-0.0014841950592884,0.0014841969742102,-0.0014841972193767,0.0014841947686953,-0.001484196344778,0.0014841956609828,-0.0011793173845636,0.0011793131729214,-0.0011793147924084,0.0011793158352873,-0.0011793130868478,0.0011793175712325,-0.0011793169648234,0.0011793135662722,4.9174249422199e-09,-4.7605567754348e-09,-0.0011939061737681,0.0011939063179269,1.3842659253615e-09,-1.275173862902e-09,-0.0014841938744725,0.0014841981379948,-0.0014841947545441,0.0014841972438253,-0.0014841971076194,0.001484194916815,-0.0014841979919039,0.0014841940257424,-0.0011793204051183,0.0011793101900604,-0.0011793109124539,0.0011793196523745,0.72524661926261,131329,3014,0.0049633542028654,0.0049633542040506,0.0049633542044318,20.537485123082,-7.5700119015341e-05,-7.5700119015341e-05,-7.5700119015341e-05,4414052.5958514,0.015003801441184
26419200,0.99321324055882,0.015875964577714,0.0052919881903559,0.0052919881932181,0.0052919881941404,-0.0011937991556225,0.0011937994476418,-4.709073515213e-09,4.9961964437458e-09,-1.8304097717085e-09,2.2076352852574e-09,-0.0014842520063963,0.0014842477219402,-0.0014842487692046,0.0014842509525395,-0.0014842507069971,0.0014842490558263,-0.0014842474733216,0.0014842522886648,-0.0011792514509854,0.0011792435767083,-0.0011792419505941,0.0011792530780673,1.8527030648576e-09,-2.2204933090124e-09,-1.4962139287853e-09,1.2171266959774e-09,-0.0011937994472986,0.001193799156689,-0.0014842497948509,0.0014842499608807,-0.0014842489059414,0.0014842508627986,-0.0014842511095783,0.0014842486132628,-0.0014842502237445,0.0014842495169585,-0.0011792496289165,0.0011792453470941,-0.0011792470015407,0.0011792480411601,-0.0011792452443705,0.0011792498309861,-0.0011792492190685,0.0011792457311485,4.9586701602069e-09,-4.8013492309003e-09,-0.0011937992301371,0.0011937993740833,1.4011703077677e-09,-1.2919333511465e-09,-0.0014842477230629,0.0014842520244536,-0.0014842486142611,0.0014842511189939,-0.0014842509835126,0.0014842487759439,-0.0014842518789559,0.00148424787352,-0.0011792526598135,0.0011792423546538,-0.0011792430856807,0.0011792518963668,0.74502756245142,131329,3014,0.0049629129562409,0.0049629129577481,0.0049629129582325,20.399105094456,-7.6807159244348e-05,-7.6807159244348e-05,-7.6807159244348e-05,4408588.7113293,0.015002463496573
26619200,0.99339763380112,0.015879010288504,0.0052930034272856,0.0052930034301481,0.0052930034310705,-0.0011943435062571,0.0011943437944802,-4.7513357414251e-09,5.0325331617429e-09,-1.8123554861957e-09,2.1827624533995e-09,-0.001485013605004,0.001485009306713,-0.0014850103420226,0.0014850125640668,-0.0014850123190137,0.0014850106258844,-0.0014850090597205,0.0014850138852043,-0.0011798627264214,0.0011798547511043,-0.001179853132265,0.0011798643130936,1.8376179332599e-09,-2.2152095896838e-09,-1.5096069560474e-09,1.22170428097e-09,-0.0011943437989722,0.0011943435040955,-0.0014850113918231,0.0014850115455242,-0.001485010497229,0.0014850124539962,-0.0014850126994719,0.0014850102042241,-0.0014850118081715,0.0014850111142724,-0.0011798608718897,0.0011798565608847,-0.0011798582116854,0.0011798592584323,-0.0011798564850359,0.0011798610353483,-0.0011798604480469,0.0011798569652688,5.0054985054566e-09,-4.8396410305239e-09,-0.0011943435780219,0.0011943437257958,1.4112066981923e-09,-1.2944329661673e-09,-0.0014850092979652,0.0014850136316451,-0.0014850101925278,0.0014850127216548,-0.0014850125863934,0.0014850103545526,-0.0014850134854832,0.0014850094472696,-0.0011798639268698,0.0011798535503094,-0.0011798542609999,0.0011798631688183,0.73848440803019,131329,3014,0.0049651729322156,0.0049651729370606,0.0049651729386192,20.630194668766,-7.4958442649868e-05,-7.4958442649868e-05,-7.4958442649868e-05,4408959.9557851,0.015009353782211
26819200,0.9935818503778,0.015881977048953,0.0052939923474349,0.0052939923502977,0.0052939923512203,-0.0011952499477184,0.001195250234957,-4.7950289132758e-09,5.0756066129961e-09,-1.7702567435187e-09,2.1397983415707e-09,-0.0014861482212602,0.0014861439209824,-0.001486144929235,0.0014861472070629,-0.0014861469637507,0.001486145212112,-0.0014861436750937,0.0014861485006045,-0.0011808380793571,0.0011808299911165,-0.0011808284043307,0.0011808396430558,1.7794423513655e-09,-2.1505047027046e-09,-1.5062513254126e-09,1.2239797554437e-09,-0.0011952502373682,0.0011952499471658,-0.0014861460255612,0.0014861461423642,-0.0014861451315398,0.0014861470500919,-0.0014861472927615,0.0014861448426203,-0.0014861464015804,0.0014861457522287,-0.0011808361424731,0.0011808318817205,-0.0011808334872441,0.0011808345818082,-0.0011808318382773,0.0011808362766276,-0.0011808356787403,0.0011808323259734,5.0427261931175e-09,-4.8792827141447e-09,-0.0011952500192978,0.0011952501658334,1.413706358947e-09,-1.2991471958567e-09,-0.0014861438991831,0.0014861482608054,-0.0014861447968918,0.0014861473484961,-0.0014861472136552,0.0014861449584244,-0.0014861481154096,0.0014861440491558,-0.0011808392626539,0.0011808288047222,-0.0011808295237358,0.0011808384991789,0.72121905938581,131329,3014,0.0049689340191552,0.0049689340230151,0.0049689340242546,21.06519679171,-7.1478425666316e-05,-7.1478425666316e-05,-7.1478425666316e-05,4413289.2558277,0.015020814789915
27019200,0.99376578506454,0.01588485570342,0.005294951898924,0.0052949519017867,0.0052949519027092,-0.0011961662323249,0.0011961665173145,-4.8346930752688e-09,5.1142328961073e-09,-1.7081478441971e-09,2.0763905442824e-09,-0.0014872679951581,0.0014872637074779,-0.0014872646768836,0.0014872670194937,-0.0014872667795365,0.0014872649565691,-0.0014872634648465,0.0014872682707314,-0.0011818092753816,0.0011818010695364,-0.0011817995317828,0.0011818108049409,1.73412090516e-09,-2.0977373824122e-09,-1.505000662437e-09,1.2291488001072e-09,-0.0011961665183642,0.001196166232391,-0.0014872658221464,0.0014872659067882,-0.0014872649264357,0.0014872668158417,-0.0014872670567518,0.0014872646395744,-0.001487266164194,0.0014872655503303,-0.0011818072581936,0.0011818030370381,-0.0011818046062888,0.0011818057475989,-0.0011818030170944,0.0011818073735326,-0.0011818067572289,0.0011818035140708,5.0835014286973e-09,-4.9238546960307e-09,-0.0011961663031007,0.0011961664480097,1.4109770367965e-09,-1.299761837521e-09,-0.0014872636658532,0.0014872680553575,-0.0014872645627116,0.0014872671439399,-0.0014872670085597,0.001487264724277,-0.0014872679097539,0.0014872638157836,-0.0011818104418492,0.0011817998930487,-0.0011818006233261,0.0011818096752095,0.7022850651811,131329,3014,0.0049727351877485,0.0049727351900647,0.0049727351908014,21.504808725523,-6.7961530195813e-05,-6.7961530195813e-05,-6.7961530195813e-05,4418343.8191052,0.015032395924284
27219200,0.99394927824984,0.015887637661974,0.0052958792184422,0.0052958792213048,0.0052958792222272,-0.0011970883569585,0.0011970886398574,-4.8775175080705e-09,5.1552082685731e-09,-1.6577788574056e-09,2.0236852082178e-09,-0.0014883618685226,0.0014883575849828,-0.0014883585222577,0.0014883609248472,-0.0014883606870936,0.0014883587998249,-0.0014883573443227,0.0014883621419771,-0.0011827712314296,0.0011827629076255,-0.0011827614070752,0.0011827727266574,1.677061348112e-09,-2.0366121393861e-09,-1.5024516678613e-09,1.2299670913335e-09,-0.0011970886403835,0.0011970883574478,-0.0014883597155499,0.0014883597640802,-0.0014883588204556,0.001488360672426,-0.0014883609109821,0.001488358536512,-0.0014883600189084,0.0014883594466512,-0.0011827691324394,0.0011827649565161,-0.0011827664833806,0.00118276766653,-0.0011827649704309,0.0011827692147573,-0.0011827685938168,0.0011827654712261,5.1231132994642e-09,-4.9640882538643e-09,-0.0011970884267333,0.0011970885714166,1.4115136578443e-09,-1.3008351173507e-09,-0.0014883575276063,0.001488361944322,-0.0014883584252384,0.0014883610324125,-0.0014883608970153,0.0014883585866955,-0.0014883617988342,0.0014883576778008,-0.001182772378421,0.0011827617496956,-0.0011827624825641,0.001182771610429,0.68191773289866,131329,3014,0.0049765597956957,0.0049765597978047,0.0049765597984659,21.944580304447,-6.4443357564422e-05,-6.4443357564422e-05,-6.4443357564422e-05,4424025.5546147,0.015044046383637
27419200,0.99413072573825,0.015890476518814,0.0052968255040556,0.0052968255069182,0.0052968255078407,-0.001197786832004,0.0011977871141722,-4.9181375139808e-09,5.1958997300063e-09,-1.6244294182081e-09,1.9902595318198e-09,-0.0014891848810264,0.0014891805912308,-0.0014891815074986,0.0014891839580497,-0.0014891837219564,0.0014891817838543,-0.0014891803519984,0.0014891851529026,-0.0011834913511828,0.0011834829270999,-0.0011834814531126,0.0011834928310433,1.6456551836657e-09,-1.9996177365066e-09,-1.5022084996543e-09,1.2346006953512e-09,-0.0011977871131561,0.0011977868335037,-0.0014891827365395,0.0014891827623134,-0.0014891818397973,0.0014891836720265,-0.0014891839093407,0.0014891815576661,-0.0014891830156961,0.001489182469111,-0.0011834891877007,0.0011834850382752,-0.0011834865396285,0.0011834877574915,-0.0011834850688451,0.0011834892569856,-0.0011834886224387,0.001183485577356,5.1626962756432e-09,-5.0068818816071e-09,-0.0011977869018501,0.0011977870449637,1.411704731713e-09,-1.3039458949656e-09,-0.0014891805229951,0.0014891849681506,-0.0014891814218614,0.0014891840553078,-0.001489183919883,0.0014891815830706,-0.0014891848229882,0.0014891806732185,-0.0011834924897898,0.0011834817732752,-0.0011834825160193,0.0011834917172988,0.70214879084224,131329,3014,0.0049794562505211,0.0049794562515258,0.0049794562518453,22.252656766981,-6.1978745864156e-05,-6.1978745864156e-05,-6.1978745864156e-05,4428115.2648204,0.015052867868686
27619200,0.99430959674658,0.015893318997212,0.0052977729968549,0.0052977729997175,0.00529777300064,-0.0011984074694425,0.0011984077503383,-4.9597587088936e-09,5.236018996802e-09,-1.6012833200114e-09,1.965260313117e-09,-0.0014899507881434,0.0014899464861454,-0.0014899473874279,0.0014899498802582,-0.0014899496449721,0.0014899476626574,-0.0014899462477935,0.0014899510590271,-0.0011841438793536,0.0011841353570055,-0.0011841338989025,0.0011841453388744,1.6244384046509e-09,-1.9786865237974e-09,-1.5043420475628e-09,1.2363888264537e-09,-0.0011984077499519,0.0011984074705401,-0.0014899486446143,0.0014899486559358,-0.0014899477466422,0.0014899495669849,-0.0014899498034581,0.0014899474653117,-0.0014899489085478,0.0014899483781214,-0.0011841416629856,0.0011841375220048,-0.0011841390089718,0.0011841402431393,-0.0011841375687322,0.0011841417145567,-0.0011841410820886,0.0011841380778127,5.2041986053637e-09,-5.0473178016117e-09,-0.0011984075385703,0.0011984076821506,1.414109683214e-09,-1.3054398946485e-09,-0.0014899464095951,0.0014899508833265,-0.0014899473097299,0.0014899499691335,-0.0014899498337762,0.0014899474709159,-0.0014899507381326,0.0014899465597347,-0.00118414500938,0.0011841342136088,-0.0011841349543425,0.0011841442369175,0.71252807801559,131329,3014,0.0049820306760451,0.0049820306775246,0.0049820306780002,22.5195887978,-5.9843289617603e-05,-5.9843289617603e-05,-5.9843289617603e-05,4430660.6158827,0.015060710883532
27819200,0.99448582209282,0.015896166885962,0.0052987222931047,0.0052987222959674,0.00529872229689,-0.001199019894794,0.0011990201748158,-5.0012634921863e-09,5.2764278014584e-09,-1.5845575703833e-09,1.9471775625915e-09,-0.0014907233099079,0.001490718991528,-0.0014907198819394,0.0014907224129918,-0.0014907221781954,0.0014907201564034,-0.001490718753746,0.0014907235801405,-0.0011847962795735,0.0011847876639212,-0.0011847862171261,0.001184797724428,1.6068212584946e-09,-1.9612967430506e-09,-1.5057689525779e-09,1.2375323699776e-09,-0.0011990201748377,0.0011990198956422,-0.0014907211639649,0.0014907211634646,-0.0014907202651969,0.0014907220754058,-0.0014907223111928,0.0014907199845127,-0.0014907214154617,0.0014907208982259,-0.0011847940130097,0.0011847898799032,-0.0011847913549052,0.0011847926021164,-0.0011847899396631,0.0011847940502527,-0.0011847934195439,0.0011847904491661,5.2455028913109e-09,-5.087774716916e-09,-0.0011990199634142,0.0011990201073465,1.4158262994196e-09,-1.3064277962629e-09,-0.0014907189090099,0.0014907234108575,-0.0014907198100171,0.0014907224957262,-0.0014907223604343,0.0014907199711881,-0.0014907232656453,0.0014907190590669,-0.0011847974033068,0.0011847865282923,-0.0011847872673692,0.0011847966308774,0.72383357105412,131329,3014,0.0049845714523827,0.0049845714541922,0.0049845714547754,22.785573685887,-5.7715410512902e-05,-5.7715410512902e-05,-5.7715410512902e-05,4432909.5821856,0.015068452649356
28019200,0.99465934540973,0.015899021966779,0.0052996739867103,0.0052996739895732,0.0052996739904958,-0.0011996247980155,0.0011996250775424,-5.042471800536e-09,5.3170906227078e-09,-1.5714036578146e-09,1.9333301066806e-09,-0.001491504226362,0.0014914998892457,-0.0014915007711087,0.0014915033380091,-0.0014915031035888,0.0014915010451094,-0.0014914996518524,0.0014915044961476,-0.0011854492939008,0.0011854405884794,-0.0011854391509068,0.0011854507288025,1.5927465032634e-09,-1.946799761508e-09,-1.5064925022962e-09,1.2385588791945e-09,-0.0011996250776123,0.0011996247988409,-0.001491502075784,0.001491502065711,-0.0014915011764429,0.0014915029782387,-0.0014915032135474,0.0014915008962994,-0.0014915023172384,0.0014915018105999,-0.0011854469785786,0.0011854428533788,-0.0011854443184274,0.0011854455769848,-0.0011854429227593,0.00118544700591,-0.0011854463748002,0.0011854434332066,5.2864918114216e-09,-5.1285848940166e-09,-0.0011996248663717,0.0011996250103709,1.416802018612e-09,-1.3072583673895e-09,-0.0014914998021333,0.0014915043318289,-0.001491500703749,0.001491503416101,-0.0014915032808216,0.0014915008648985,-0.0014915041866386,0.0014914999521769,-0.0011854504130502,0.001185439457714,-0.0011854401968338,0.0011854496402256,0.73612510405131,131329,3014,0.0049870814234472,0.0049870814253086,0.0049870814259097,23.051525625307,-5.558779499754e-05,-5.558779499754e-05,-5.558779499754e-05,4434830.1238464,0.015076101807741
28219200,0.99482944129175,0.015901874864305,0.0053006249525521,0.0053006249554151,0.0053006249563377,-0.0012001003892976,0.0012001006693233,-5.0823806165256e-09,5.3580010913328e-09,-1.5701494433652e-09,1.9332238628674e-09,-0.0014921675036215,0.0014921631400792,-0.0014921640213499,0.0014921666156936,-0.0014921663813992,0.001492164295507,-0.0014921629026957,0.0014921677733493,-0.0011859781633323,0.0011859693801257,-0.0011859679447918,0.0011859796027542,1.5965705745587e-09,-1.9487790560236e-09,-1.5076049033535e-09,1.2413140089496e-09,-0.0012001006686483,0.0012001003905347,-0.0014921653398939,0.0014921653300617,-0.0014921644391462,0.0014921662438393,-0.0014921664795524,0.0014921641587193,-0.0014921655819016,0.0014921650742301,-0.0011859758094305,0.0011859716820853,-0.0011859731486673,0.0011859744124569,-0.0011859717479829,0.001185975842592,-0.001185975203872,0.0011859722618931,5.3270171022253e-09,-5.1709126682851e-09,-0.0012001004580957,0.0012001006012669,1.4170823139316e-09,-1.3091500744227e-09,-0.0014921630521928,0.0014921676102169,-0.0014921639545603,0.0014921666938364,-0.0014921665584746,0.0014921641156266,-0.0014921674650823,0.0014921632022313,-0.001185979284811,0.0011859682440378,-0.0011859689892713,0.0011859785093905,0.7494891788603,131329,3014,0.0049890555825006,0.0049890555836697,0.0049890555840424,23.251250770306,-5.3989993837553e-05,-5.3989993837553e-05,-5.3989993837553e-05,4435246.826027,0.015082120216063
28419200,0.9949960174876,0.015904726573036,0.0053015755221291,0.0053015755249919,0.0053015755259145,-0.001200549092777,0.0012005493728452,-5.1230824075844e-09,5.3985751520584e-09,-1.5760991721933e-09,1.9390303814234e-09,-0.0014928194337321,0.0014928150393384,-0.0014928159244208,0.001492818542104,-0.0014928183074777,0.0014928161986271,-0.0014928148017528,0.001492819703576,-0.0011864880701956,0.001186479210831,-0.0011864777705013,0.0011864895115899,1.6032093652802e-09,-1.9569764080155e-09,-1.5095814846431e-09,1.2419068473389e-09,-0.0012005493727325,0.0012005490936069,-0.0014928172528209,0.0014928172464164,-0.0014928163512395,0.0014928181611093,-0.001492818397281,0.0014928160700186,-0.0014928174988397,0.0014928169864269,-0.001186485683416,0.0011864815463294,-0.0011864830187256,0.0011864842780793,-0.0011864816101139,0.0011864857174384,-0.0011864850811691,0.0011864821230434,5.3685993558572e-09,-5.2117143192344e-09,-0.0012005491615148,0.001200549305056,1.4182180584412e-09,-1.309603964439e-09,-0.0014928149528641,0.0014928195389043,-0.0014928158556285,0.0014928186219157,-0.0014928184865039,0.0014928160167651,-0.0014928193935483,0.0014928151027208,-0.0011864891940301,0.001186478073505,-0.0011864788171709,0.0011864884190017,0.76402417449293,131329,3014,0.004990918601695,0.0049909186031872,0.0049909186036678,23.441852515497,-5.2465179876025e-05,-5.2465179876025e-05,-5.2465179876025e-05,4435105.1331834,0.015087801205991
28619200,0.99515907926268,0.015907537275263,0.0053025124228715,0.0053025124257344,0.005302512426657,-0.0012009835921193,0.0012009838728641,-5.1642655576439e-09,5.4402134396255e-09,-1.5866759860201e-09,1.950113503724e-09,-0.0014934755443869,0.0014934711160127,-0.0014934720074575,0.0014934746464079,-0.0014934744109482,0.0014934722826203,-0.0014934708775584,0.0014934758152873,-0.001186990978667,0.0011869820455883,-0.001186980596592,0.001186992426435,1.6099469268866e-09,-1.9649171798826e-09,-1.5102204927574e-09,1.2414996706022e-09,-0.0012009838727995,0.0012009835930132,-0.0014934733440994,0.0014934733423161,-0.0014934724425305,0.0014934742570538,-0.0014934744935352,0.0014934721611613,-0.0014934735950026,0.0014934730776479,-0.0011869885586927,0.0011869844148399,-0.0011869858926761,0.0011869871455886,-0.0011869844755268,0.0011869885952645,-0.0011869879617626,0.0011869849873483,5.4093239913358e-09,-5.2518238782679e-09,-0.0012009836611384,0.0012009838049425,1.4194488429593e-09,-1.3102998140636e-09,-0.0014934710326227,0.0014934756462155,-0.0014934719361604,0.0014934747286004,-0.0014934745933232,0.0014934720972838,-0.0014934755010493,0.0014934711826451,-0.0011869921054856,0.0011869809065424,-0.0011869816487419,0.0011869913303655,0.76896080337251,131329,3014,0.004992723080163,0.0049927230818879,0.0049927230824451,23.632233881375,-5.0942128949002e-05,-5.0942128949002e-05,-5.0942128949002e-05,4434584.9463609,0.015093304980002
28819200,0.9953186571993,0.015910214625569,0.0053034048729735,0.0053034048758365,0.0053034048767592,-0.001201408096268,0.0012014083774787,-5.2053707574377e-09,5.4815346863486e-09,-1.5978422718389e-09,1.9615673546403e-09,-0.001494126600171,0.0014941221374617,-0.001494123035856,0.0014941256954207,-0.001494125459186,0.0014941233115762,-0.0014941218983738,0.0014941268718151,-0.0011874833711619,0.0011874743648297,-0.0011874729068924,0.0011874848250414,1.6187009769046e-09,-1.9750993575814e-09,-1.5106110447978e-09,1.2406359829715e-09,-0.0012014083776689,0.0012014080970499,-0.0014941243795853,0.0014941243839238,-0.0014941234782553,0.0014941252985519,-0.0014941255353424,0.0014941231964324,-0.0014941246370248,0.0014941241128344,-0.0011874809188681,0.0011874767670962,-0.0011874782519416,0.0011874794960763,-0.0011874768233898,0.0011874809591606,-0.0011874803289376,0.0011874773334311,5.4502801249187e-09,-5.292095138832e-09,-0.0012014081654661,0.0012014083095609,1.4200263856393e-09,-1.3102587363185e-09,-0.0014941220575797,0.0014941266983817,-0.0014941229612603,0.0014941257805308,-0.0014941256453922,0.0014941231223957,-0.0014941265532499,0.0014941222075397,-0.0011874845011141,0.0011874732238877,-0.001187473964053,0.0011874837265419,0.74978435734526,131329,3014,0.0049944861092983,0.0049944861113193,0.0049944861119594,23.824833353882,-4.9401333168945e-05,-4.9401333168945e-05,-4.9401333168945e-05,4434114.7645919,0.01509868252584
29019200,0.99547590430411,0.01591270799948,0.0053042359976104,0.0053042360004734,0.0053042360013961,-0.0012020536627957,0.0012020539435917,-5.2451099966076e-09,5.5205380410582e-09,-1.5920789165525e-09,1.9548831254271e-09,-0.0014949768430257,0.0014949723582142,-0.0014949732525117,0.0014949759424198,-0.0014949757061883,0.0014949735281245,-0.0014949721191484,0.0014949771146686,-0.0011881862202871,0.0011881771311104,-0.0011881756761131,0.0011881876659154,1.6190622777181e-09,-1.9772710453224e-09,-1.5092631865682e-09,1.2377003970185e-09,-0.0012020539445347,0.0012020536630675,-0.0014949746100985,0.0014949746167273,-0.0014949737102388,0.0014949755299629,-0.0014949757668209,0.0014949734283566,-0.0014949748699021,0.0014949743433836,-0.0011881837269526,0.0011881795753877,-0.001188181061823,0.0011881822977909,-0.0011881796320224,0.0011881837649974,-0.0011881831415692,0.0011881801385563,5.4935922648214e-09,-5.3337171820719e-09,-0.0012020537314978,0.0012020538764981,1.416219468585e-09,-1.3049065734411e-09,-0.0014949722764578,0.0014949769427719,-0.0014949731770794,0.0014949760279804,-0.0014949758926408,0.001494973338512,-0.0014949767973938,0.0014949724267327,-0.0011881873484173,0.0011881759942251,-0.0011881767267895,0.0011881865787231,0.71130254571918,131329,3014,0.0049971649268201,0.004997164929345,0.0049971649301628,24.140852553402,-4.6873179572787e-05,-4.6873179572787e-05,-4.6873179572787e-05,4436513.399902,0.015106846921337
29219200,0.9956307710024,0.015915103901307,0.0053050346315528,0.0053050346344158,0.0053050346353384,-0.0012027204021141,0.0012027206832898,-5.2870644729272e-09,5.5632235520451e-09,-1.5942236803256e-09,1.9579289781431e-09,-0.0014957852079518,0.0014957806930757,-0.00149578158913,0.0014957843054718,-0.0014957840693419,0.0014957818648134,-0.0014957804540305,0.0014957854794952,-0.0011888830922129,0.0011888739234016,-0.0011888724679852,0.0011888845436653,1.6159532498876e-09,-1.9723202625544e-09,-1.5035615217464e-09,1.2336141051284e-09,-0.0012027206834746,0.0012027204028669,-0.0014957829599033,0.0014957829670292,-0.0014957820632177,0.0014957838769335,-0.0014957841137821,0.0014957817814057,-0.0014957832201039,0.0014957826930756,-0.0011888805507491,0.0011888764147015,-0.0011888778976753,0.0011888791299594,-0.0011888764680868,0.0011888805937733,-0.0011888799680844,0.0011888769734934,5.5324833229616e-09,-5.373871408329e-09,-0.0012027204710719,0.00120272061557,1.4129876325507e-09,-1.3027387399316e-09,-0.0014957806141809,0.0014957853051686,-0.0014957815130245,0.0014957843921801,-0.0014957842566159,0.0014957816745273,-0.0014957851596275,0.001495780764526,-0.0011888842184433,0.0011888727859221,-0.0011888735209208,0.0011888834491617,0.69516968282033,131329,3014,0.0049999300415241,0.0049999300434719,0.0049999300440953,24.459608951073,-4.4323128391413e-05,-4.4323128391413e-05,-4.4323128391413e-05,4440248.0038984,0.015115269804165
29419200,0.99578318448443,0.015917299757397,0.0053057665835827,0.0053057665864457,0.0053057665873683,-0.0012033940829703,0.0012033943642514,-5.3277348741214e-09,5.6040855842675e-09,-1.5945134729432e-09,1.9584316397283e-09,-0.0014965691385992,0.0014965645963728,-0.0014965654926093,0.00149656823592,-0.0014965679997791,0.001496565768352,-0.0014965643573015,0.0014965694101834,-0.0011895703080584,0.0011895610600411,-0.0011895596045981,0.0011895717606568,1.6170452063548e-09,-1.973111010188e-09,-1.4996373051047e-09,1.2299659247796e-09,-0.0012033943643131,0.0012033940838038,-0.0014965668753578,0.0014965668855886,-0.0014965659811512,0.0014965677929655,-0.0014965680299068,0.0014965656993096,-0.0014965671387121,0.0014965666084571,-0.0011895677232283,0.0011895635945296,-0.0011895650780549,0.0011895663028451,-0.0011895636443961,0.0011895677701562,-0.0011895671460424,0.0011895641476699,5.5734913556649e-09,-5.4150230102935e-09,-0.0012033941519323,0.0012033942964714,1.4089562053845e-09,-1.2987760563418e-09,-0.0014965645187303,0.0014965692346177,-0.0014965654149059,0.001496568324314,-0.0014965681885724,0.0014965655765761,-0.0014965690889219,0.0014965646692728,-0.0011895714336294,0.0011895599228948,-0.0011895606558849,0.0011895706668284,0.65089858844135,131329,3014,0.0050027232871148,0.0050027232889752,0.0050027232895706,24.778459996528,-4.1772320027777e-05,-4.1772320027777e-05,-4.1772320027777e-05,4444493.7598598,0.015123776666423
29619200,0.99593299289547,0.015919425917141,0.0053064753034974,0.0053064753063604,0.0053064753072831,-0.0012040733066416,0.0012040735883809,-5.3683573141338e-09,5.6454649197454e-09,-1.5977324708992e-09,1.9625152707409e-09,-0.0014972834920645,0.0014972789202665,-0.0014972798186876,0.0014972825870821,-0.0014972823509079,0.0014972800947322,-0.0014972786810393,0.001497283763835,-0.0011902331461255,0.0011902238214395,-0.0011902223644794,0.0011902346043177,1.6209882991874e-09,-1.9758518380459e-09,-1.4953464514235e-09,1.2268127682233e-09,-0.00120407358786,0.0012040733078637,-0.0014972812118875,0.0014972812266851,-0.0014972803200966,0.0014972821315262,-0.0014972823686778,0.001497280038223,-0.0014972814798987,0.0014972809448326,-0.0011902305188746,0.0011902263974742,-0.0011902278829141,0.0011902291002774,-0.0011902264409831,0.0011902305735235,-0.0011902299482158,0.0011902269432408,5.6138399973945e-09,-5.4563814412336e-09,-0.0012040733759067,0.0012040735200441,1.4049121680741e-09,-1.2956154769248e-09,-0.0014972788450301,0.0014972835858918,-0.0014972797388729,0.0014972826780409,-0.0014972825421342,0.0014972799006273,-0.0014972834401428,0.0014972789957923,-0.0011902342723458,0.0011902226820673,-0.0011902234156207,0.0011902335069068,0.64191387491011,131329,3014,0.0050055378892266,0.0050055378906841,0.0050055378911553,25.088067783942,-3.9295457728461e-05,-3.9295457728461e-05,-3.9295457728461e-05,4450210.9263204,0.015132343845361
29819200,0.99607964174191,0.015921635153482,0.005307211715611,0.0053072117184743,0.005307211719397,-0.001204664352995,0.001204664635641,-5.408618831525e-09,5.6869101496221e-09,-1.6094244674226e-09,1.9756087539204e-09,-0.0014978842187061,0.0014978796120307,-0.0014978805179805,0.0014978833060306,-0.0014978830694209,0.0014978807948583,-0.001497879372265,0.0014978844911074,-0.0011908017697227,0.001190792375328,-0.0011907909106539,0.0011908032406319,1.6328533809333e-09,-1.9868454376291e-09,-1.4928421881173e-09,1.2251377754942e-09,-0.0012046646344791,0.0012046643546372,-0.0014978819169966,0.0014978819402738,-0.001497881026504,0.001497882843676,-0.0014978830813981,0.0014978807442802,-0.0014978821939599,0.0014978816493896,-0.0011907991075973,0.0011907949851973,-0.0011907964782406,0.0011907976859276,-0.0011907950180586,0.0011907991746136,-0.001190798546702,0.0011907955204446,5.6542599304757e-09,-5.4979622329101e-09,-0.0012046644227922,0.0012046645664789,1.402173922608e-09,-1.2938824426031e-09,-0.0014978795413645,0.0014978843081531,-0.0014978804338005,0.0014978834018898,-0.0014978832658251,0.0014978805956362,-0.0014978841624585,0.0014978796923466,-0.0011908029007922,0.0011907912293515,-0.0011907919648416,0.0011908021353775,0.67837704935018,131329,3014,0.0050079866367613,0.0050079866377601,0.0050079866380813,25.340226699792,-3.7278186401663e-05,-3.7278186401663e-05,-3.7278186401663e-05,4455248.8379127,0.015139796156955
30019200,0.99622310260775,0.015923831247539,0.005307943746963,0.0053079437498265,0.0053079437507492,-0.0012052380272867,0.0012052383099962,-5.4498077051155e-09,5.7277588137235e-09,-1.621185241786e-09,1.9870174511573e-09,-0.0014985290928459,0.0014985244515629,-0.0014985253649099,0.0014985281729782,-0.0014985279357569,0.0014985256420281,-0.0014985242113236,0.0014985293657307,-0.0011913807379726,0.0011913712696017,-0.0011913697950958,0.0011913822120083,1.6437060668011e-09,-2.0004760777555e-09,-1.4919970477188e-09,1.2218491677677e-09,-0.0012052383097348,0.0012052380283523,-0.0014985267691946,0.0014985268014576,-0.0014985258801751,0.0014985277035428,-0.0014985279417039,0.001498525597173,-0.0014985270556874,0.0014985265010258,-0.0011913780439457,0.0011913739128416,-0.0011913754152852,0.0011913766067067,-0.0011913739402827,0.0011913781142106,-0.0011913774943936,0.0011913744378134,5.6959996191804e-09,-5.5378788067215e-09,-0.0012052380968918,0.0012052382414548,1.4011362243678e-09,-1.2911763120088e-09,-0.0014985243850464,0.0014985291778949,-0.0014985252761207,0.0014985282727644,-0.0014985281367095,0.0014985254380948,-0.0014985290319499,0.0014985245359743,-0.0011913818709763,0.0011913701242421,-0.0011913708535413,0.0011913811089252,0.6887309154814,131329,3014,0.0050103650164136,0.0050103650180858,0.0050103650186247,25.591107868071,-3.527113705543e-05,-3.527113705543e-05,-3.527113705543e-05,4458747.1076661,0.015147039207837
30219200,0.99636336147573,0.015925881853843,0.0053086272823976,0.0053086272852612,0.005308627286184,-0.001205800078642,0.0012058003617803,-5.4905652658235e-09,5.7688478505404e-09,-1.632235261392e-09,1.9985034813258e-09,-0.0014991820470265,0.0014991773714461,-0.0014991782918236,0.0014991811201605,-0.0014991808824411,0.0014991785694251,-0.0014991771307397,0.001499182320422,-0.0011919544974925,0.001191944956681,-0.0011919434738716,0.0011919559786473,1.6543548601822e-09,-2.0121305282899e-09,-1.4905817087602e-09,1.2195854894341e-09,-0.0012058003616668,0.0012058000796043,-0.001499179702145,0.0014991797425623,-0.0014991788143542,0.001499180643435,-0.0014991808820482,0.0014991785308206,-0.0014991799972616,0.0014991794334584,-0.0011919517698245,0.0011919476337469,-0.0011919491442284,0.001191950323499,-0.0011919476538093,0.001191951847102,-0.0011919512300872,0.0011919481490564,5.7371261270291e-09,-5.5785942604217e-09,-0.0012058001483777,0.0012058002931675,1.3994958783027e-09,-1.2891452763497e-09,-0.0014991773089997,0.0014991821279752,-0.0014991781988279,0.0014991812240557,-0.0014991810879385,0.0014991783609001,-0.0014991819819354,0.0014991774599832,-0.00119195563358,0.0011919438086123,-0.001191944535696,0.0011919548731666,0.66008314120859,131329,3014,0.0050126957268324,0.0050126957285967,0.0050126957291658,25.841944786001,-3.3264441711993e-05,-3.3264441711993e-05,-3.3264441711993e-05,4461946.4505425,0.015154138734916
30419200,0.99650070379287,0.015927775491367,0.0053092584949058,0.0053092584977694,0.0053092584986922,-0.001206434385005,0.0012064346680749,-5.5316596438891e-09,5.8095738707414e-09,-1.6374226712143e-09,2.0033008534164e-09,-0.0014998651464259,0.0014998604404307,-0.0014998613640079,0.0014998642164852,-0.0014998639784447,0.0014998616416987,-0.0014998601995269,0.0014998654200257,-0.0011925828216976,0.0011925732032411,-0.0011925717157876,0.001192584303292,1.6581876072246e-09,-2.0175668688605e-09,-1.4889061232465e-09,1.2164906319524e-09,-0.0012064346685058,0.0012064343856195,-0.0014998627839939,0.001499862828896,-0.0014998618978384,0.0014998637282337,-0.0014998639669641,0.0014998616140141,-0.0014998630838097,0.0014998625151104,-0.0011925800561752,0.0011925759190738,-0.0011925774332789,0.0011925786023178,-0.0011925759367115,0.0011925801343976,-0.0011925795231585,0.0011925764285004,5.7786851031368e-09,-5.6189313812092e-09,-0.0012064344545272,0.0012064345999348,1.3976580260655e-09,-1.2861744935756e-09,-0.0014998603802114,0.0014998652249735,-0.0014998612683598,0.0014998643226094,-0.0014998641864271,0.0014998614305945,-0.0014998650787549,0.0014998605312148,-0.0011925839579775,0.0011925720566688,-0.0011925727787996,0.0011925832004538,0.62526528881992,131329,3014,0.005015324983438,0.0050153249856108,0.00501532498631,26.129953779855,-3.0960369761161e-05,-3.0960369761161e-05,-3.0960369761161e-05,4467019.4839142,0.015162144585576
30619200,0.99663592589627,0.015929762778448,0.0053099209239326,0.0053099209267962,0.005309920927719,-0.001207284555029,0.001207284837106,-5.573231436017e-09,5.8495372730634e-09,-1.6289005677352e-09,1.992920736463e-09,-0.0015007110489604,0.001500706321605,-0.0015007072394541,0.0015007101249895,-0.0015007098870725,0.0015007075164957,-0.0015007060810941,0.0015007113221082,-0.0011934118684875,0.0011934021614757,-0.0011934006784495,0.0011934133374159,1.6470669182815e-09,-2.0085647690375e-09,-1.485545165972e-09,1.2111896086002e-09,-0.0012072848385895,0.0012072845549674,-0.0015007086772561,0.0015007087188435,-0.00150070779407,0.0015007096154128,-0.0015007098535449,0.0015007075106184,-0.0015007089733769,0.0015007084088994,-0.0011934090540646,0.0011934049280128,-0.0011934064359376,0.0011934075991061,-0.0011934049525165,0.0011934091223316,-0.0011934085215531,0.0011934054389495,5.8209940349809e-09,-5.6588221090454e-09,-0.0012072846236914,0.001207284770321,1.3941897761358e-09,-1.2804804924352e-09,-0.0015007062596034,0.0015007111288776,-0.0015007071445576,0.0015007102294969,-0.0015007100931579,0.0015007073071253,-0.0015007109823389,0.0015007064106606,-0.0011934129986959,0.0011934010244724,-0.001193401736746,0.0011934122467102,0.66318231705881,131329,3014,0.0050188479833695,0.0050188479863242,0.0050188479872701,26.524362088983,-2.7805103288135e-05,-2.7805103288135e-05,-2.7805103288135e-05,4475362.4985329,0.015172868974632
30819200,0.99676894644496,0.015931809867056,0.0053106032868022,0.0053106032896656,0.0053106032905884,-0.001208125434983,0.0012081257173232,-5.6138233726083e-09,5.8911870071632e-09,-1.6185286651191e-09,1.9837231773245e-09,-0.0015016180295339,0.0015016132808824,-0.0015016141925082,0.001501617111499,-0.001501616874351,0.0015016144693292,-0.0015016130408174,0.00150161830222,-0.0011942626906868,0.0011942528988197,-0.0011942514257507,0.0011942641604947,1.6399488548516e-09,-1.9974412046195e-09,-1.4796776930115e-09,1.2088884081737e-09,-0.001208125717404,0.0012081254358074,-0.0015016156489433,0.0015016156875583,-0.0015016147683382,0.0015016165812562,-0.0015016168192114,0.0015016144855125,-0.0015016159416011,0.0015016153809705,-0.0011942598223879,0.0011942557169265,-0.0011942572171591,0.0011942583847674,-0.0011942557394127,0.0011942598965499,-0.0011942592875668,0.0011942562276655,5.8603632521607e-09,-5.7009283077888e-09,-0.0012081255040294,0.001208125649473,1.3892272496494e-09,-1.2779122029241e-09,-0.0015016132173585,0.0015016181114488,-0.0015016140999851,0.0015016172146868,-0.0015016170781415,0.0015016142625147,-0.0015016179649341,0.0015016133687466,-0.0011942638175537,0.0011942517605982,-0.0011942524787918,0.0011942630652334,0.69236329630401,131329,3014,0.0050223342617075,0.0050223342635883,0.0050223342641922,26.921144565287,-2.4630843477707e-05,-2.4630843477707e-05,-2.4630843477707e-05,4481859.4620041,0.015183487047497
31019200,0.99689966852004,0.015933883008628,0.0053112943339929,0.0053112943368564,0.0053112943377792,-0.0012089528369424,0.0012089531188906,-5.6549451617188e-09,5.9319265720092e-09,-1.6100378059796e-09,1.974774539111e-09,-0.0015025625462343,0.0015025577757164,-0.0015025586819237,0.0015025616336207,-0.0015025613968361,0.0015025589583424,-0.0015025575360134,0.0015025628185196,-0.0011951225980471,0.0011951127199053,-0.0011951112530854,0.0011951240618503,1.6314057128994e-09,-1.9884251211723e-09,-1.4759198417562e-09,1.2054850395068e-09,-0.0012089531189831,0.001208952837748,-0.0015025601562418,0.0015025601917531,-0.0015025592780081,0.0015025610830605,-0.0015025613206917,0.0015025589955738,-0.0015025604454501,0.0015025598886419,-0.0011951196799181,0.0011951155878023,-0.0011951170817919,0.0011951182486991,-0.0011951156131633,0.0011951197512547,-0.0011951191440005,0.0011951160995796,5.9013650005266e-09,-5.7417716943455e-09,-0.0012089529056991,0.0012089530513188,1.3857731608459e-09,-1.2742435096766e-09,-0.0015025577105842,0.0015025626297321,-0.0015025585908424,0.0015025617353527,-0.0015025615986431,0.0015025587535143,-0.001502562483069,0.0015025578621351,-0.0011951237205481,0.0011951115858688,-0.0011951123017265,0.0011951229707016,0.71215833579358,131329,3014,0.0050257659180566,0.0050257659199227,0.005025765920518,27.318009367855,-2.1455925057159e-05,-2.1455925057159e-05,-2.1455925057159e-05,4486960.2478849,0.015193942648944
31219200,0.99702912480205,0.015936038880488,0.005312012957946,0.0053120129608095,0.0053120129617323,-0.0012100480614278,0.0012100483416499,-5.6974437765329e-09,5.9715907596484e-09,-1.5906156187847e-09,1.9519761101756e-09,-0.0015038184186708,0.0015038136341243,-0.0015038145271556,0.0015038175196149,-0.0015038172830819,0.001503814802591,-0.0015038133949442,0.0015038186904535,-0.0011962737205082,0.0011962637432905,-0.0011962622872534,0.0011962751588789,1.6014543653637e-09,-1.9615967859397e-09,-1.4709123275089e-09,1.1975711708357e-09,-0.0012100483433312,0.001210048061355,-0.0015038160277261,0.0015038160502167,-0.0015038151540422,0.0015038169373131,-0.0015038171734647,0.0015038148729575,-0.0015038163026295,0.0015038157618936,-0.0011962707422762,0.0011962666746626,-0.0011962681499209,0.0011962693163282,-0.0011962667196659,0.0011962707886928,-0.0011962701988673,0.001196267198015,5.9441908788136e-09,-5.7805149131197e-09,-0.0012100481288076,0.0012100482764032,1.3817492878313e-09,-1.2665148615168e-09,-0.0015038135638568,0.0015038185064725,-0.0015038144401457,0.0015038176158718,-0.0015038174791558,0.0015038146031622,-0.0015038183595278,0.0015038137156088,-0.0011962748306927,0.001196262628153,-0.0011962633280367,0.0011962740889725,0.74546031180143,131329,3014,0.0050303087807796,0.0050303087841218,0.0050303087852113,27.867750951557,-1.705799238754e-05,-1.705799238754e-05,-1.705799238754e-05,4493789.0709882,0.01520778543511
31419200,0.99715726773283,0.015938071234709,0.005312690409353,0.0053126904122165,0.0053126904131394,-0.001211148859077,0.0012111491392536,-5.7385148224289e-09,6.0130613409271e-09,-1.5689709354855e-09,1.9306827525554e-09,-0.0015051393616071,0.001505134563466,-0.0015051354424491,0.0015051384763355,-0.0015051382405177,0.0015051357177688,-0.0015051343246922,0.0015051396331313,-0.0011974493059216,0.0011974392347099,-0.0011974377954434,0.0011974507344507,1.579630728846e-09,-1.9362291453596e-09,-1.4632236225687e-09,1.1929578475911e-09,-0.0012111491396831,0.0012111488599071,-0.0015051369690982,0.001505136981292,-0.001505136099455,0.0015051378641451,-0.0015051380994178,0.00150513582005,-0.0015051372325048,0.0015051367047843,-0.0011974462635306,0.0011974422287552,-0.0011974436863685,0.0011974448610159,-0.0011974422809623,0.0011974463056274,-0.0011974457122722,0.0011974427592088,5.9839769300241e-09,-5.8219152768376e-09,-0.0012111489265322,0.001211149073463,1.3756837151009e-09,-1.2618072075089e-09,-0.001505134488195,0.0015051394544068,-0.0015051353612168,0.0015051385675811,-0.001505138430784,0.0015051355242389,-0.0015051393077613,0.0015051346405385,-0.0011974504073088,0.0011974381256547,-0.0011974388268188,0.0011974496673678,0.71242631700464,131329,3014,0.0050348759731359,0.0050348759757513,0.0050348759765916,28.435888480966,-1.2512892152271e-05,-1.2512892152271e-05,-1.2512892152271e-05,4499914.8439307,0.015221706075967
31619200,0.9972839098983,0.015939983486361,0.0053133278265705,0.0053133278294339,0.0053133278303567,-0.001212250046225,0.0012122503253702,-5.7793445684023e-09,6.0533891422346e-09,-1.5475260671997e-09,1.9086272195133e-09,-0.0015064102674485,0.0015064054552916,-0.0015064063212493,0.0015064093951849,-0.0015064091607651,0.0015064065949014,-0.0015064052180009,0.0015064105370847,-0.0011986020526613,0.0011985918877043,-0.0011985904657247,0.0011986034693492,1.5663089921499e-09,-1.9205026054894e-09,-1.4576822014518e-09,1.189484486275e-09,-0.0012122503256094,0.0012122500469821,-0.0015064078714333,0.0015064078769888,-0.0015064070045843,0.0015064087568962,-0.0015064089918811,0.001506406725152,-0.0015064081279922,0.0015064076068575,-0.0011985989517842,0.0011985949390192,-0.0011985963860478,0.0011985975653003,-0.001198594994431,0.0011985989919727,-0.0011985983954941,0.0011985954720624,6.0246062672964e-09,-5.863868629015e-09,-0.0012122501132301,0.0012122502596801,1.36965863531e-09,-1.2568936955839e-09,-0.0015064053752692,0.0015064103655912,-0.0015064062443713,0.0015064094823733,-0.0015064093451138,0.0015064064075836,-0.001506410218375,0.0015064055274139,-0.0011986031459234,0.0011985907839974,-0.0011985914862541,0.0011986024084606,0.68057768497355,131329,3014,0.0050394433909533,0.005039443393022,0.0050394433936832,29.004477622862,-7.9641790171051e-06,-7.9641790171051e-06,-7.9641790171051e-06,4507853.8144603,0.015235623321462
31819200,0.99740672203059,0.015941771742358,0.0053139239119029,0.0053139239147663,0.0053139239156892,-0.0012128047242656,0.0012128050061125,-5.8181434911219e-09,6.0965807604073e-09,-1.5694452299373e-09,1.9356583782005e-09,-0.0015070567296812,0.0015070518750672,-0.0015070527558461,0.0015070558419197,-0.0015070556071826,0.0015070530312738,-0.0015070516367962,0.0015070570004583,-0.0011991701919239,0.0011991599700802,-0.0011991585370996,0.0011991716434799,1.5979320185253e-09,-1.9460415323148e-09,-1.4581662421151e-09,1.1955397750125e-09,-0.0012128050033721,0.0012128047268894,-0.0015070543054067,0.0015070543263856,-0.0015070534360877,0.0015070552081679,-0.0015070554448209,0.0015070531557306,-0.0015070545784766,0.0015070540393325,-0.0011991670666778,0.0011991630406903,-0.0011991645055663,0.0011991656837159,-0.0011991630703345,0.0011991671412905,-0.0011991665211347,0.0011991635576461,6.0621560874104e-09,-5.9079597780606e-09,-0.0012128047934237,0.0012128049367906,1.3699829603727e-09,-1.2630966005306e-09,-0.0015070518022018,0.0015070568217744,-0.0015070526738552,0.0015070559366244,-0.0015070557993853,0.0015070528365773,-0.0015070566751354,0.0015070519545674,-0.0011991712991549,0.0011991588426877,-0.0011991595658293,0.0011991705526238,0.65805654753583,131329,3014,0.0050417434826911,0.0050417434824481,0.0050417434823493,29.266262310582,-5.869901515341e-06,-5.869901515341e-06,-5.869901515341e-06,4511636.734107,0.01524263009242
32019200,0.99752408789235,0.015943648171041,0.0053145493881304,0.0053145493909938,0.0053145493919167,-0.0012129331704606,0.001212933455204,-5.8572416698758e-09,6.1385245716409e-09,-1.6281380484414e-09,1.9978051918933e-09,-0.0015072065449999,0.0015072016259364,-0.0015072025440157,0.0015072056198212,-0.0015072053824412,0.0015072028226193,-0.0015072013850301,0.0015072068187649,-0.0011992874635769,0.0011992772060617,-0.0011992757299831,0.0011992889594219,1.651577544946e-09,-2.0023908705025e-09,-1.4693586163198e-09,1.2045793167393e-09,-0.0012129334522001,0.0012129331733525,-0.0015072040749093,0.0015072041233491,-0.0015072031988339,0.0015072050118847,-0.0015072052508175,0.0015072029161417,-0.0015072043777887,0.0015072038063712,-0.0011992843492909,0.0011992802654868,-0.001199281769339,0.0011992829286277,-0.0011992802677981,0.0011992844517465,-0.0011992838267832,0.0011992807598025,6.1030780628604e-09,-5.9496534814055e-09,-0.0012129332413458,0.0012129333841619,1.3791157083147e-09,-1.2730891754408e-09,-0.0015072015686164,0.0015072066216302,-0.0015072024467001,0.0015072057301936,-0.001507205593372,0.0015072026090906,-0.001507206475623,0.0015072017206724,-0.001199288597215,0.001199276052555,-0.00119927678278,0.0011992878431272,0.7176634049321,131329,3014,0.0050422753172688,0.0050422753170389,0.0050422753169459,29.281039169467,-5.7516866442639e-06,-5.7516866442639e-06,-5.7516866442639e-06,4511828.197997,0.015244247523935
32219200,0.99763620822682,0.01594548245666,0.00531516081667,0.0053151608195335,0.0053151608204563,-0.0012130256154017,0.0012130259012097,-5.8985070435999e-09,6.1797105986126e-09,-1.6798804450996e-09,2.0496165108578e-09,-0.0015074106634567,0.0015074056845227,-0.0015074066352851,0.0015074097060858,-0.0015074094662419,0.0015074069155332,-0.0015074054415356,0.0015074109394196,-0.0011994083272098,0.001199398020844,-0.0011993965036164,0.0011994098463698,1.7015177180407e-09,-2.0608393401331e-09,-1.4829232552396e-09,1.2107589764095e-09,-0.0012130259005812,0.0012130256167603,-0.0015074081494817,0.0015074082251279,-0.0015074072671141,0.0015074091204291,-0.0015074093612869,0.001507406981457,-0.0015074084818798,0.0015074078785545,-0.0011994052244483,0.0011994010723765,-0.0011994026165771,0.0011994037474008,-0.0011994010568349,0.0011994053389018,-0.0011994047263891,0.0011994015454122,6.1457722142893e-09,-5.9881446179394e-09,-0.0012130256865545,0.0012130258310217,1.3912490180034e-09,-1.2816189241275e-09,-0.0015074056400683,0.001507410726606,-0.0015074065247401,0.0015074098279909,-0.0015074096918285,0.0015074066868852,-0.0015074105806285,0.0015074057913259,-0.0011994094787722,0.0011993968562513,-0.0011993975805379,0.0011994087225792,0.73340853682209,131329,3014,0.0050426602548569,0.005042660256377,0.0050426602568654,29.290228021786,-5.6781758257086e-06,-5.6781758257086e-06,-5.6781758257086e-06,4509288.2686022,0.015245424670772
32419200,0.99774331295213,0.015947280037983,0.0053157600104442,0.0053157600133078,0.0053157600142307,-0.0012131017001843,0.0012131019878203,-5.9386181494096e-09,6.2214121388944e-09,-1.7254346092747e-09,2.0972124345409e-09,-0.0015076230963212,0.0015076180610233,-0.0015076190409106,0.0015076221098873,-0.0015076218681707,0.0015076193230756,-0.00150761781623,0.0015076233742641,-0.0011995244900503,0.0011995141358938,-0.0011995125851305,0.0011995260403716,1.746624699808e-09,-2.1091813407483e-09,-1.4941163001219e-09,1.2192859609234e-09,-0.0012131019874727,0.0012131017013357,-0.0015076205428787,0.0015076206411562,-0.0015076196540102,0.0015076215430681,-0.0015076217856568,0.0015076193662372,-0.00150762089975,0.001507620269945,-0.0011995213903846,0.0011995171846072,-0.0011995187621617,0.0011995198780384,-0.0011995171483122,0.0011995215250134,-0.0011995209100911,0.001199517640105,6.1868014471096e-09,-6.0289298846834e-09,-0.0012131017723828,0.0012131019166848,1.4010682832963e-09,-1.2913746257446e-09,-0.0015076180280756,0.0015076231479843,-0.0015076189192036,0.0015076222427764,-0.0015076221070911,0.0015076190809791,-0.0015076230023647,0.0015076181788312,-0.0011995256610124,0.0011995129526384,-0.0011995136820359,0.0011995248985256,0.75109427322545,131329,3014,0.0050429778839948,0.0050429778856662,0.005042977886205,29.299222230373,-5.6062221570159e-06,-5.6062221570159e-06,-5.6062221570159e-06,4506553.6141061,0.015246398261805
32619200,0.9978453619826,0.015948859694874,0.0053162865627414,0.005316286565605,0.0053162865665279,-0.0012130689572274,0.0012130692469552,-5.9783822019392e-09,6.2637311107259e-09,-1.7648698831424e-09,2.1397722573087e-09,-0.0015077519712379,0.0015077468828724,-0.0015077478883692,0.0015077509590048,-0.0015077507160063,0.001507748172353,-0.0015077466366351,0.0015077522507926,-0.001199537758899,0.0011995273551511,-0.0011995257774231,0.0011995393435215,1.7863896281682e-09,-2.1485373969809e-09,-1.5037912204821e-09,1.2295292430734e-09,-0.0012130692456308,0.0012130689589912,-0.0015077493824577,0.0015077494988748,-0.0015077484868922,0.0015077504073503,-0.001507750651454,0.0015077481976064,-0.001507749758895,0.0015077491078701,-0.001199534655167,0.0011995304062368,-0.0011995320109459,0.0011995331224561,-0.0011995303489991,0.0011995348135282,-0.001199534186511,0.0011995308483851,6.2263747622897e-09,-6.0708971383773e-09,-0.0012130690309023,0.0012130691738561,1.4100955482548e-09,-1.3026995007774e-09,-0.0015077468599082,0.0015077520133532,-0.0015077477578986,0.0015077511014056,-0.0015077509661196,0.0015077479191803,-0.0015077518682711,0.0015077470103032,-0.0011995389489254,0.0011995261497303,-0.0011995268919816,0.0011995381770965,0.69653888162198,131329,3014,0.0050428448395667,0.0050428448404806,0.0050428448407638,29.262848223705,-5.8972142103624e-06,-5.8972142103624e-06,-5.8972142103624e-06,4502674.1731342,0.015246000632451
32819200,0.99794248136974,0.015950242557564,0.0053167475169712,0.005316747519835,0.0053167475207579,-0.001213008617128,0.0012130089079201,-6.0186906656022e-09,6.3049444248051e-09,-1.7932728165111e-09,2.1693406963661e-09,-0.0015077612743564,0.0015077561407247,-0.0015077571643438,0.0015077602440305,-0.0015077599998844,0.0015077574495089,-0.0015077558933756,0.0015077615551512,-0.0011994837683796,0.0011994733046082,-0.0011994717057941,0.0011994853715639,1.815716581265e-09,-2.1802046063341e-09,-1.5144315568264e-09,1.238239856857e-09,-0.0012130089069502,0.0012130086186718,-0.0015077586566034,0.0015077587856719,-0.0015077577546594,0.0015077597006354,-0.0015077599458515,0.0015077574640084,-0.0015077590468894,0.001507758380761,-0.0011994806558532,0.001199476364929,-0.0011994779914828,0.0011994790990394,-0.0011994762967531,0.0011994808245236,-0.0011994801947228,0.0011994767999874,6.2675523792241e-09,-6.1118307540011e-09,-0.0012130086914771,0.0012130088343285,1.4194789878325e-09,-1.3120047348912e-09,-0.0015077561237478,0.001507761310418,-0.0015077570279288,0.0015077603922027,-0.0015077602573592,0.0015077571888863,-0.0015077611656898,0.0015077562737395,-0.0011994849718071,0.0011994720868157,-0.0011994728337846,0.0011994841940536,0.64446137207392,131329,3014,0.0050425951283352,0.0050425951295295,0.0050425951299109,29.204338647543,-6.3652908196566e-06,-6.3652908196566e-06,-6.3652908196566e-06,4500723.4821242,0.015245240863996
33019200,0.9980349202957,0.015951671599263,0.0053172238642042,0.0053172238670681,0.005317223867991,-0.00121298597554,0.0012129862671231,-6.0593154705423e-09,6.3461404322366e-09,-1.8136853433342e-09,2.1905030833991e-09,-0.0015077075070641,0.0015077023332641,-0.001507703369786,0.0015077064638523,-0.0015077062187903,0.0015077036559276,-0.001507702085011,0.0015077077888578,-0.0011994315928461,0.0011994210630384,-0.00119941944867,0.0011994332087594,1.8350235925027e-09,-2.2016114204551e-09,-1.52395151942e-09,1.2460132880599e-09,-0.0012129862665019,0.0012129859768697,-0.0015077048657463,0.001507705001719,-0.0015077039581058,0.0015077059224605,-0.0015077061684793,0.0015077036664478,-0.0015077052638067,0.0015077045889714,-0.0011994284640925,0.0011994241401507,-0.0011994257815241,0.001199426889983,-0.0011994240667225,0.0011994286371892,-0.0011994280053831,0.0011994245734178,6.3086528488094e-09,-6.1525640250982e-09,-0.0012129860504067,0.0012129861931969,1.4281892894152e-09,-1.3205283182957e-09,-0.0015077023199961,0.0015077075393073,-0.0015077032299029,0.0015077066153172,-0.0015077064808863,0.0015077033905237,-0.001507707394936,0.0015077024695894,-0.001199432806296,0.0011994198365231,-0.0011994205873736,0.0011994320231792,0.69524136999249,131329,3014,0.0050424995151458,0.0050424995166195,0.0050424995171014,29.145323337721,-6.8374132982294e-06,-6.8374132982294e-06,-6.8374132982294e-06,4500552.2717481,0.015244944034325
33219200,0.99812291738637,0.01595310316779,0.0053177010537129,0.0053177010565768,0.0053177010574999,-0.0012129470467925,0.0012129473386349,-6.1001523690619e-09,6.3871168467293e-09,-1.8253544737914e-09,2.2024260589839e-09,-0.0015077164406528,0.0015077112320651,-0.0015077122761342,0.0015077153899611,-0.0015077151445037,0.0015077125625648,-0.0015077109835002,0.0015077167228083,-0.0011993975956884,0.0011993869935964,-0.0011993853706715,0.0011993992187539,1.8464175969386e-09,-2.2139584586293e-09,-1.5320146823909e-09,1.2532799801393e-09,-0.0012129473382151,0.0012129470479861,-0.0015077137806913,0.0015077139191047,-0.0015077128680021,0.0015077148449934,-0.0015077150912808,0.0015077125758962,-0.0015077141815683,0.0015077135035725,-0.0011993944429693,0.0011993900949135,-0.001199391744742,0.0011993928591984,-0.0011993900198189,0.0011993946173598,-0.0011993939820984,0.0011993905306159,6.3496051696265e-09,-6.1934325965914e-09,-0.0012129471218926,0.0012129472645581,1.4358023504297e-09,-1.3281705076262e-09,-0.0015077112201487,0.0015077164715207,-0.0015077121350967,0.0015077155424013,-0.0015077154083072,0.0015077122954624,-0.0015077163274131,0.0015077113693967,-0.0011993988156251,0.0011993857610478,-0.0011993865162048,0.0011993980274975,0.72922792302995,131329,3014,0.0050423385104281,0.0050423385120373,0.0050423385125558,29.086290379799,-7.3096769616075e-06,-7.3096769616075e-06,-7.3096769616075e-06,4498260.7368294,0.015244454470297
33419200,0.99820805672145,0.015954515784688,0.0053181719260123,0.0053181719288762,0.0053181719297993,-0.0012134056361236,0.0012134059255957,-6.1429208635725e-09,6.4269841563398e-09,-1.7908435773109e-09,2.1644644253917e-09,-0.0015082976224961,0.0015082924086738,-0.0015082934305627,0.0015082965942019,-0.001508296350224,0.0015082937148778,-0.0015082921617649,0.001508297902796,-0.0011998971910327,0.0011998864798506,-0.0011998848806803,0.0011998987819016,1.8056168522221e-09,-2.1733625630891e-09,-1.5305935894923e-09,1.2515603915789e-09,-0.0012134059261118,0.0012134056367708,-0.0015082949715959,0.0015082950860397,-0.0015082940600716,0.0015082960109711,-0.0015082962552026,0.0015082937699203,-0.0015082953465932,0.001508294696668,-0.0011998939709212,0.001199889650311,-0.0011998912717998,0.0011998924079561,-0.0011998896021623,0.0011998941149944,-0.0011998934868171,0.001199890111124,6.3912010569595e-09,-6.2327254342222e-09,-0.00121340570976,0.0012134058535041,1.4361426217993e-09,-1.3264615845679e-09,-0.0015082923858541,0.001508297663816,-0.0015082933002446,0.0015082967350605,-0.0015082966009503,0.0015082934607506,-0.0015082975194696,0.0015082925350624,-0.0011998983952929,0.0011998852663476,-0.0011998860145293,0.0011998976101008,0.74278654128498,131329,3014,0.0050442416263178,0.0050442416287359,0.0050442416295283,29.312210328244,-5.5023173740504e-06,-5.5023173740504e-06,-5.5023173740504e-06,4499562.9575917,0.015250256587557
33619200,0.99829073157108,0.015955887955838,0.0053186293163955,0.0053186293192596,0.0053186293201826,-0.0012139863226829,0.0012139866088239,-6.1842510000829e-09,6.4648364617426e-09,-1.7336543463439e-09,2.1031775578399e-09,-0.0015090327047491,0.0015090275008628,-0.0015090284865175,0.0015090317128712,-0.0015090314716206,0.0015090287673241,-0.0015090272569409,0.0015090329815706,-0.001200530575309,0.001200519743284,-0.0012005181858362,0.0012005321210016,1.7586516287166e-09,-2.124866799844e-09,-1.5270617638499e-09,1.2491170232789e-09,-0.0012139866102841,0.0012139863225309,-0.0015090300725828,0.0015090301591554,-0.0015090291629807,0.0015090310822332,-0.0015090313243953,0.001509028874628,-0.0015090304178625,0.0015090297994522,-0.0012005272763524,0.0012005229933498,-0.0012005245814475,0.0012005257438746,-0.0012005229734768,0.0012005273905607,-0.0012005267649707,0.0012005234813417,6.434011098848e-09,-6.2742851040146e-09,-0.0012139863943776,0.0012139865388652,1.4311702096737e-09,-1.3202495882813e-09,-0.0015090274607032,0.001509032763353,-0.0015090283710802,0.0015090318382624,-0.0015090317037098,0.0015090285319409,-0.0015090326183704,0.001509027609823,-0.00120053175814,0.0012005185520333,-0.0012005192940827,0.001200530978186,0.74303043756059,131329,3014,0.0050466514190875,0.0050466514218053,0.0050466514226935,29.614113277512,-3.0870937799049e-06,-3.0870937799049e-06,-3.0870937799049e-06,4502014.5952585,0.015257603484086
33819200,0.99837095172302,0.015957223517197,0.0053190745035151,0.0053190745063792,0.0053190745073024,-0.0012145580762478,0.0012145583608257,-6.2261308591525e-09,6.5056872494261e-09,-1.6827714091356e-09,2.0508967143955e-09,-0.0015097622774488,0.001509757078277,-0.0015097580314589,0.0015097613177641,-0.0015097610786724,0.0015097583105831,-0.0015097568362117,0.0015097625523944,-0.001201156140742,0.0012011451934781,-0.0012011436746513,0.0012011576565686,1.7058782800823e-09,-2.0661985658168e-09,-1.5188629351793e-09,1.2459802844275e-09,-0.0012145583608812,0.001214558077085,-0.0015097596630099,0.0015097597189715,-0.0015097587571433,0.0015097606380898,-0.0015097608779448,0.0015097584720086,-0.0015097599750663,0.0015097593928919,-0.0012011527553847,0.0012011485283262,-0.0012011500757071,0.0012011512711625,-0.0012011485342716,0.0012011528467516,-0.0012011522144436,0.0012011490451276,6.4733938782605e-09,-6.3157256166236e-09,-0.0012145581472948,0.0012145582909598,1.425647876436e-09,-1.3165043270494e-09,-0.0015097570237636,0.0015097623504547,-0.0015097579314117,0.0015097614286153,-0.0015097612938484,0.0015097580923172,-0.0015097622056697,0.0015097571734947,-0.0012011573043983,0.0012011440183451,-0.0012011447633276,0.0012011565251963,0.74517770449406,131329,3014,0.0050490241082112,0.0050490241100648,0.0050490241106634,29.917788058763,-6.5769552989384e-07,-6.5769552989384e-07,-6.5769552989384e-07,4504663.4447309,0.015264837150492
34019200,0.99844872150065,0.015958479333941,0.0053194931090966,0.0053194931119607,0.0053194931128838,-0.001215120237707,0.0012151205201767,-6.2682973364073e-09,6.5458757327543e-09,-1.634200431828e-09,1.999848571293e-09,-0.001510483909513,0.0015104787139557,-0.0015104796360808,0.0015104829808657,-0.0015104827438085,0.0015104799129945,-0.0015104784738881,0.0015104841822412,-0.0012017716399024,0.001201760576979,-0.0012017590936459,0.001201773121195,1.6555340103528e-09,-2.0127011855809e-09,-1.5117743397393e-09,1.2414778477042e-09,-0.0012151205200421,0.0012151202387006,-0.0015104813110302,0.001510481338535,-0.0015104804089903,0.0015104822537725,-0.0015104824915609,0.0015104801262214,-0.0015104815924992,0.0015104810432386,-0.0012017681723231,0.0012017639939892,-0.0012017655043815,0.0012017667258875,-0.0012017640269994,0.0012017682367224,-0.001201767605047,0.0012017645370781,6.5139713398822e-09,-6.356350534972e-09,-0.0012151203076135,0.0012151204514062,1.4204158201246e-09,-1.311232296724e-09,-0.0015104786456965,0.0015104839961992,-0.0015104795498759,0.0015104830778932,-0.0015104829428393,0.0015104797109725,-0.0015104838511787,0.0015104787957007,-0.0012017727836972,0.0012017594213853,-0.0012017601634409,0.0012017720080433,0.7242654648356,131329,3014,0.0050513569592687,0.0050513569610532,0.0050513569616281,30.221524919037,1.7721993522982e-06,1.7721993522982e-06,1.7721993522982e-06,4507189.4379258,0.015271949366517
34219200,0.99852535126544,0.015959683227624,0.0053198944069909,0.005319894409855,0.0053198944107782,-0.0012162457728259,0.0012162460502714,-6.314849255337e-09,6.5850210563622e-09,-1.5673986921635e-09,1.9242198955207e-09,-0.0015117557966538,0.0015117506170736,-0.0015117514949788,0.0015117549130511,-0.0015117546776387,0.0015117517684415,-0.0015117503794522,0.0015117560667272,-0.0012029508291528,0.0012029396242126,-0.0012029381824151,0.0012029522372401,1.5649456234289e-09,-1.9277161027948e-09,-1.4998236583915e-09,1.2240829113509e-09,-0.0012162460537637,0.0012162457717278,-0.001511753227415,0.0015117532103849,-0.0015117523355267,0.001511754116176,-0.001511754349826,0.0015117520565951,-0.0015117534608495,0.0015117529641318,-0.0012029472575701,0.0012029431524611,-0.0012029446037237,0.0012029458413897,-0.0012029432429476,0.0012029472525355,-0.001202946657732,0.0012029437364006,6.5575244347769e-09,-6.3908178475487e-09,-0.0012162458390152,0.0012162459872634,1.4134713635671e-09,-1.2960027822399e-09,-0.0015117505304213,0.0015117558999935,-0.0015117514269033,0.0015117549888646,-0.0015117548535034,0.0015117515889303,-0.0015117557542113,0.0015117506807304,-0.0012029519347811,0.0012029385205328,-0.0012029392293568,0.0012029511756183,0.70594349998373,131329,3014,0.0050560247024692,0.0050560247074435,0.0050560247090782,30.833548614404,6.6683889152339e-06,6.6683889152339e-06,6.6683889152339e-06,4514654.5031013,0.015286171872218
34419200,0.9986008442313,0.015960874113774,0.005320291369041,0.0053202913719051,0.0053202913728283,-0.0012174427122662,0.0012174429874389,-6.3537738343355e-09,6.6233133480884e-09,-1.4887148652534e-09,1.8445773498987e-09,-0.0015130679650526,0.0015130628090591,-0.0015130636375967,0.0015130671304205,-0.0015130668990355,0.0015130639073592,-0.0015130625749865,0.0015130682310479,-0.0012041878383511,0.0012041765063182,-0.0012041751268106,0.0012041892046728,1.5113857696369e-09,-1.8644146054062e-09,-1.4844435002144e-09,1.217132201715e-09,-0.0012174429887774,0.0012174427122416,-0.0015130654226325,0.0015130653763873,-0.0015130645378437,0.0015130662745585,-0.0015130665064016,0.0015130642613375,-0.0015130656245589,0.0015130651613662,-0.001204184163758,0.0012041801330117,-0.0012041815410074,0.0012041828095168,-0.0012041802425033,0.0012041841469038,-0.0012041835365771,0.0012041807386026,6.5983496994754e-09,-6.4364918157109e-09,-0.0012174427775614,0.0012174429238824,1.3959961069831e-09,-1.2826256716073e-09,-0.001513062701486,0.0015130680903185,-0.0015130635877711,0.0015130671895987,-0.0015130670533953,0.0015130637500721,-0.0015130679438632,0.001513062852451,-0.0012041889179901,0.0012041754191709,-0.0012041761339147,0.0012041881646015,0.70867959774409,131329,3014,0.0050609876672049,0.0050609876699281,0.0050609876708078,31.477455749938,1.1819645999506e-05,1.1819645999506e-05,1.1819645999506e-05,4522110.5732875,0.015301291795676
34619200,0.99867506366235,0.015962093492115,0.0053206978284879,0.005320697831352,0.0053206978322751,-0.0012186444737971,0.0012186447472698,-6.3966404287316e-09,6.6649822265445e-09,-1.438847727072e-09,1.7931071541014e-09,-0.0015143850191888,0.0015143798665384,-0.0015143806634256,0.0015143842160928,-0.0015143839866451,0.0015143809312519,-0.0015143796343902,0.0015143852830693,-0.0012054306931025,0.0012054192442362,-0.0012054179019476,0.001205432028278,1.4515646369399e-09,-1.7992927065745e-09,-1.4683103222015e-09,1.2054423925848e-09,-0.0012186447475735,0.0012186444745679,-0.0015143824934159,0.0015143824172653,-0.0015143816177945,0.001514383306128,-0.0015143835355928,0.0015143813442098,-0.0015143826629778,0.0015143822348216,-0.0012054269219499,0.0012054229664233,-0.0012054243294265,0.0012054256180313,-0.001205423101644,0.001205426880974,-0.0012054262715283,0.0012054235942649,6.6373220182507e-09,-6.4766960846745e-09,-0.0012186445382049,0.0012186446842758,1.3841040022787e-09,-1.271664526404e-09,-0.001514379747773,0.0015143851557882,-0.0015143806265437,0.0015143842627918,-0.0015143841260297,0.0015143807892291,-0.00151438500903,0.0015143798992477,-0.0012054317494923,0.0012054181780858,-0.0012054188893498,0.001205431002319,0.73613740010536,131329,3014,0.005065970683647,0.005065970685876,0.0050659706865794,32.122159815588,1.6977278524704e-05,1.6977278524704e-05,1.6977278524704e-05,4529331.841965,0.015316473361011
34819200,0.99874901713741,0.015963319188209,0.0053211063938526,0.0053211063967167,0.0053211063976398,-0.0012203515699535,0.0012203518175178,-6.4580206803718e-09,6.6961814814875e-09,-1.4095736854327e-09,1.7323263465016e-09,-0.0015162719939182,0.0015162668166725,-0.0015162676082327,0.001516271199202,-0.0015162709892688,0.0015162678500823,-0.0015162666069373,0.0015162722317958,-0.00120721039145,0.0012071987911142,-0.0012071974866029,0.0012072116424409,1.368586340381e-09,-1.7160497033007e-09,-1.4488368867138e-09,1.1866352884722e-09,-0.0012203518279413,0.001220351562938,-0.0015162694703937,0.0015162693652984,-0.0015162686069049,0.0015162702416842,-0.00151627045336,0.0015162683434916,-0.0015162695960212,0.0015162692219632,-0.0012072065115475,0.0012072026353814,-0.0012072039331819,0.0012072052349751,-0.0012072028175529,0.0012072064050842,-0.0012072058313548,0.0012072032933503,6.6810603121935e-09,-6.5039008783515e-09,-0.0012203516184143,0.0012203517735791,1.3827955378102e-09,-1.2548664114278e-09,-0.0015162667011149,0.0015162721296432,-0.0015162675703523,0.0015162712405091,-0.0015162710986367,0.0015162677364018,-0.0015162719746878,0.0015162668495276,-0.001207211398919,0.0012071977877507,-0.0012071984603005,0.0012072106765236,0.74236048684123,131329,3014,0.005073049825067,0.0050730498321454,0.0050730498344595,33.05330606556,2.4426448524481e-05,2.4426448524481e-05,2.4426448524481e-05,4539066.7147256,0.015338044339346
35019200,0.99882285723398,0.015964505573453,0.005321501855601,0.0053215018584647,0.0053215018593872,-0.0012222305952413,0.0012222308465983,-6.4798556900331e-09,6.7247416341121e-09,-1.3029619184666e-09,1.631622446466e-09,-0.0015183573422262,0.0015183522220367,-0.0015183529391922,0.0015183566183306,-0.0015183564089608,0.0015183531866327,-0.0015183520093762,0.0015183575869188,-0.0012091728679157,0.0012091611496454,-0.0012091599217755,0.0012091740604252,1.3788789898946e-09,-1.7120601436128e-09,-1.4424779599484e-09,1.1944462384831e-09,-0.0012222308492811,0.0012222305949235,-0.0015183548396673,0.0015183547461466,-0.0015183539768141,0.0015183556232956,-0.0015183558315096,0.0015183537271501,-0.0015183549697027,0.0015183546058972,-0.0012091689161351,0.0012091650569062,-0.0012091663459371,0.0012091676582145,-0.0012091652213352,0.0012091688347958,-0.0012091682430343,0.0012091657144626,6.7346060572313e-09,-6.5636274909209e-09,-0.0012222306462311,0.0012222307987697,1.3520421723338e-09,-1.2297091276126e-09,-0.0015183520650653,0.0015183575132457,-0.0015183529197848,0.0015183566455649,-0.0015183565067239,0.0015183530859751,-0.001518357364402,0.0015183522217871,-0.0012091738647961,0.0012091601550351,-0.0012091608166935,0.0012091731520209,0.72136489535518,131329,3014,0.0050808421121729,0.0050808421170734,0.0050808421187234,34.085547868925,3.2684382951403e-05,3.2684382951403e-05,3.2684382951403e-05,4549135.7430467,0.015361789275522
35219200,0.99889630097427,0.015965651592793,0.0053218838620473,0.0053218838649112,0.0053218838658342,-0.0012241276397129,0.0012241278867897,-6.5238106954143e-09,6.7654240928203e-09,-1.2800908599853e-09,1.6056900512711e-09,-0.0015204269508035,0.0015204218111035,-0.0015204225191376,0.0015204262367121,-0.0015204260323552,0.001520422760612,-0.0015204216040685,0.0015204271885616,-0.0012111446203684,0.0012111328054368,-0.0012111316022339,0.0012111458093875,1.3465780614624e-09,-1.6722701487765e-09,-1.4259263240459e-09,1.1841212803803e-09,-0.0012241278892735,0.0012241276386451,-0.0015204244474978,0.0015204243383782,-0.0015204235932336,0.0015204252058364,-0.0015204254122635,0.0015204233431574,-0.0015204245608483,0.0015204242124263,-0.001211140587867,0.0012111367911726,-0.0012111380542011,0.0012111393771396,-0.001211136960817,0.0012111405090762,-0.0012111399037136,0.0012111374538783,6.772666918204e-09,-6.6045311031672e-09,-0.0012241276879523,0.0012241278404047,1.3406319092331e-09,-1.2203976533953e-09,-0.0015204216547519,0.0015204271242533,-0.0015204225021119,0.001520426262699,-0.0015204261205075,0.001520422669993,-0.0015204269717922,0.0015204218113187,-0.0012111456031928,0.0012111318150329,-0.0012111324847295,0.001211144895754,0.70214230481287,131329,3014,0.0050887083346813,0.0050887083376137,0.0050887083385206,35.120128944109,4.0961031552875e-05,4.0961031552875e-05,4.0961031552875e-05,4558235.8079962,0.015385757358448
35419200,0.99896819669165,0.015966737925003,0.0053222459727843,0.0053222459756481,0.0053222459765711,-0.0012256252506924,0.0012256255030621,-6.5656610299153e-09,6.8163235789348e-09,-1.3052589782342e-09,1.6410856693711e-09,-0.0015220491510936,0.001522043962666,-0.0015220446879976,0.0015220484183888,-0.0015220482136244,0.0015220449329406,-0.0015220437537689,0.0015220493915859,-0.0012126911768677,0.0012126793044432,-0.0012126780916629,0.0012126924217986,1.3557070784124e-09,-1.665631010388e-09,-1.4073763686437e-09,1.1796123598878e-09,-0.0012256254983092,0.0012256252545414,-0.0015220466204039,0.0015220465195306,-0.0015220457735079,0.0015220473787252,-0.0015220475867065,0.001522045524507,-0.0015220467421733,0.0015220463856241,-0.0012126870865377,0.0012126833379633,-0.0012126845968924,0.0012126859202059,-0.0012126834789686,0.0012126870539177,-0.001212686412381,0.0012126839810935,6.8018138700199e-09,-6.6461631812181e-09,-0.0012256253025941,0.0012256254499443,1.3330337254994e-09,-1.2239204513351e-09,-0.0015220438197578,0.001522049312659,-0.0015220446670099,0.0015220484531396,-0.0015220483100488,0.0015220448353923,-0.0015220491606268,0.001522043979124,-0.0012126921670099,0.0012126782884618,-0.0012126789918639,0.0012126914492338,0.68162298635616,131329,3014,0.0050949176836447,0.0050949176817626,0.0050949176811123,35.931851872142,4.7454814977138e-05,4.7454814977138e-05,4.7454814977138e-05,4565398.727301,0.015404675716685
35619200,0.9990377312296,0.015967747955447,0.0053225826495984,0.0053225826524629,0.0053225826533861,-0.001226827423036,0.0012268276777521,-6.6076525457504e-09,6.8596139252679e-09,-1.3599207137086e-09,1.6974452594478e-09,-0.0015233251172736,0.0015233198664979,-0.0015233206258788,0.001523324351214,-0.0015233241430918,0.0015233208738791,-0.001523319654728,0.0015233253606394,-0.0012139185453703,0.0012139066287246,-0.0012139053736234,0.0012139198267598,1.397536273722e-09,-1.7145205112113e-09,-1.406832558107e-09,1.1726527530997e-09,-0.0012268276747572,0.0012268274256376,-0.0015233225414587,0.001523322469233,-0.0015233216968043,0.0015233233257907,-0.0015233235372237,0.0015233214430712,-0.0015233226958068,0.0015233223018119,-0.0012139144489746,0.0012139106696534,-0.001213911964322,0.0012139132426083,-0.0012139107863222,0.001213914439542,-0.0012139138109925,0.0012139112792366,6.8421490332202e-09,-6.6839708240441e-09,-0.0012268274756765,0.0012268276245865,1.3334806660222e-09,-1.2219873748892e-09,-0.0015233197421196,0.0015233252610414,-0.0015233205884216,0.0015233244017389,-0.0015233242576391,0.0015233207573688,-0.0015233251079314,0.0015233199012287,-0.0012139195508396,0.0012139056004132,-0.001213906297366,0.0012139188362349,0.6572990028264,131329,3014,0.0050999012907143,0.0050999012899025,0.0050999012896316,36.575865978744,5.2606927829956e-05,5.2606927829956e-05,5.2606927829956e-05,4571275.9792094,0.01541985748705
35819200,0.9991047916715,0.015968784438213,0.0053229281438534,0.0053229281467181,0.0053229281476413,-0.0012280432185302,0.0012280434766658,-6.6476032459898e-09,6.9010247153732e-09,-1.4234605569041e-09,1.7625041430024e-09,-0.0015245667435853,0.001524561427954,-0.001524562225323,0.0015245659397918,-0.0015245657260958,0.0015245624777586,-0.0015245612112178,0.0015245669918571,-0.0012151442584685,0.0012151323030868,-0.0012151309925219,0.0012151455662065,1.4506318637772e-09,-1.7821525800098e-09,-1.4134911439528e-09,1.1664962733964e-09,-0.0012280434770261,0.0012280432192115,-0.0015245641167563,0.0015245640800974,-0.0015245632721382,0.0015245649374038,-0.0015245651527502,0.001524563013452,-0.0015245643110901,0.0015245638725788,-0.001215140176457,0.0012151363358012,-0.0012151376773278,0.0012151388971373,-0.0012151364298042,0.0012151401776875,-0.0012151395805626,0.0012151369074963,6.8870325384716e-09,-6.7212074377852e-09,-0.0012280432722187,0.001228043424344,1.3370794061125e-09,-1.2187813023619e-09,-0.0015245613217729,0.0015245668677131,-0.0015245621675344,0.0015245660080924,-0.0015245658647072,0.0015245623365298,-0.0015245667145465,0.0015245614799074,-0.0012151452839597,0.0012151312661377,-0.0012151319416304,0.0012151445757392,0.6961923622752,131329,3014,0.0051049404430199,0.0051049404451887,0.0051049404458654,37.216059981254,5.7728479850035e-05,5.7728479850035e-05,5.7728479850035e-05,4577736.1847799,0.015435205928744
36019200,0.99916929177792,0.015969842171175,0.0053232807215072,0.0053232807243722,0.0053232807252954,-0.001229242514622,0.0012292427780677,-6.6859040096925e-09,6.9445527820324e-09,-1.4859632196672e-09,1.8308759782309e-09,-0.0015258584041754,0.0015258530229911,-0.0015258538586506,0.0015258575621199,-0.0015258573432657,0.0015258541164708,-0.0015258528011291,0.0015258586578672,-0.0012163825856795,0.001216370598779,-0.0012163692391308,0.0012163839416176,1.5125555546506e-09,-1.8503944949867e-09,-1.4177204758006e-09,1.165133803475e-09,-0.0012292427785063,0.0012292425152334,-0.0015258557261372,0.0015258557265902,-0.0015258548805978,0.0015258565848653,-0.0015258568052802,0.0015258546164756,-0.0015258559626893,0.0015258554765684,-0.0012163785139079,0.0012163746213591,-0.001216376011603,0.0012163771851504,-0.0012163746799506,0.0012163785505879,-0.0012163779586714,0.0012163751523658,6.9279801277862e-09,-6.7618798429182e-09,-0.0012292425709489,0.0012292427231214,1.3387035369376e-09,-1.2201923088449e-09,-0.0015258529355725,0.0015258585096701,-0.0015258537822958,0.0015258576489857,-0.0015258575057158,0.001525853951293,-0.0015258583565266,0.0015258530936245,-0.0012163836358166,0.0012163695375149,-0.0012163702132377,0.001216382926743,0.73586311026602,131329,3014,0.0051099129304483,0.0051099129326319,0.0051099129333193,37.856120082407,6.2848960659253e-05,6.2848960659253e-05,6.2848960659253e-05,4582888.6075841,0.015450356852685
36219200,0.99922905737287,0.015970790143288,0.0053235967122115,0.0053235967150767,0.0053235967159999,-0.001229187220821,0.001229187491943,-6.719808758161e-09,6.9878718047836e-09,-1.6040883535548e-09,1.9601886651112e-09,-0.0015259215124109,0.001525916029201,-0.001525916940761,0.0015259205936882,-0.0015259203701023,0.0015259172056368,-0.0015259158018484,0.001525921772577,-0.0012163590175644,0.0012163470498927,-0.0012163456087743,0.0012163604809916,1.6540865964299e-09,-1.9909302418669e-09,-1.4371727380028e-09,1.1859084689335e-09,-0.0012291874891063,0.0012291872235259,-0.001525918746748,0.0015259188220278,-0.0015259178876587,0.0015259196933884,-0.0015259199198052,0.0015259176183132,-0.0015259190635297,0.001525918491495,-0.0012163550150256,0.0012163509977869,-0.0012163524855094,0.0012163536114167,-0.0012163509732348,0.0012163551460901,-0.0012163545219924,0.0012163514618102,6.9672236938634e-09,-6.8088371958739e-09,-0.001229187282121,0.001229187430421,1.350829277034e-09,-1.2393667243738e-09,-0.00152591597407,0.0015259215865877,-0.0015259168318473,0.0015259207158124,-0.0015259205733989,0.0015259169998775,-0.0015259214350937,0.0015259161322549,-0.0012163601264716,0.0012163459198142,-0.0012163466263106,0.0012163593990885,0.71361056307495,131329,3014,0.0051096855752083,0.0051096855749361,0.005109685574749,37.827198858946,6.2617590871569e-05,6.2617590871569e-05,6.2617590871569e-05,4579329.3541909,0.015449669764633
36419200,0.99928357876085,0.015971643066595,0.0053238810199805,0.0053238810228458,0.0053238810237691,-0.0012285844316955,0.0012285847095926,-6.7605993023908e-09,7.0354840205572e-09,-1.7671645432774e-09,2.1318642661277e-09,-0.0015253678625371,0.0015253622444811,-0.0015253632613168,0.0015253668385098,-0.0015253666089127,0.0015253635326104,-0.0015253620113119,0.0015253681286836,-0.0012157621276852,0.0012157501931764,-0.0012157486346433,0.0012157637125908,1.7859326889083e-09,-2.1292617455741e-09,-1.4619653847574e-09,1.2056702675337e-09,-0.0012285847061843,0.0012285844347717,-0.0015253649958762,0.0015253651394623,-0.0015253641217792,0.0015253660257083,-0.0015253662577842,0.0015253638452469,-0.0015253653869881,0.0015253647331685,-0.001215758209663,0.0012157540554038,-0.0012157556387674,0.0012157567158867,-0.0012157539616025,0.0012157584108761,-0.0012157577741694,0.0012157544593163,7.0035999197711e-09,-6.8473469263693e-09,-0.0012285844970801,0.0012285846437229,1.3786689560215e-09,-1.2696093688935e-09,-0.0015253622357523,0.001525367891456,-0.0015253631124426,0.0015253670011108,-0.0015253668595208,0.0015253632794611,-0.0015253677405038,0.0015253623920208,-0.0012157633004506,0.0012157489970926,-0.0012157497277373,0.0012157625508206,0.70434021169203,131329,3014,0.0051071872988743,0.0051071872981874,0.0051071872978705,37.495757141412,5.9966057131296e-05,5.9966057131296e-05,5.9966057131296e-05,4571549.5681074,0.015442060423708
36619200,0.99933336041277,0.015972377320107,0.0053241257711508,0.0053241257740165,0.0053241257749398,-0.0012279751340629,0.0012279754160823,-6.8002712947916e-09,7.077730575954e-09,-1.8870784145792e-09,2.2551632274291e-09,-0.0015247789092093,0.0015247731886261,-0.0015247742810152,0.0015247778101129,-0.001524777574891,0.0015247745575647,-0.0015247729502081,0.0015247791813215,-0.0012151482550613,0.0012151363202229,-0.0012151346699157,0.0012151499087046,1.9041805335551e-09,-2.2611668936719e-09,-1.4927204857815e-09,1.2248484143044e-09,-0.0012279754153899,0.0012279751355131,-0.0015247759598236,0.0015247761655252,-0.0015247750695212,0.0015247770686969,-0.001524777305142,0.0015247747875548,-0.0015247764178522,0.0015247756924751,-0.0012151444143691,0.0012151401094416,-0.0012151417836497,0.0012151428084754,-0.0012151399668746,0.001215144657293,-0.0012151440312683,0.0012151404657201,7.0467638400253e-09,-6.8855626808454e-09,-0.0012279752014306,0.0012279753497041,1.4054538034393e-09,-1.2923385538266e-09,-0.0015247732093938,0.0015247789076564,-0.0015247741023574,0.0015247780005847,-0.0015247778605297,0.0015247742686311,-0.0015247787577028,0.0015247733646027,-0.0012151494750897,0.0012151350862905,-0.0012151358164464,0.0012151487143628,0.66675282097249,131329,3014,0.0051046614924992,0.0051046614940781,0.0051046614945613,37.157337132791,5.7258697062329e-05,5.7258697062329e-05,5.7258697062329e-05,4564129.6229685,0.015434365706772
36819200,0.99937887121545,0.01597303014494,0.0053243433794285,0.0053243433822942,0.0053243433832177,-0.0012273880230257,0.0012273883089826,-6.8382527088384e-09,7.1194005362006e-09,-1.9789151460889e-09,2.3516799316159e-09,-0.0015241418996452,0.0015241360937973,-0.0015241372449387,0.0015241407418278,-0.0015241405028717,0.0015241375255536,-0.0015241358516543,0.0015241421759061,-0.0012145284170815,0.0012145164702966,-0.0012145147528444,0.0012145301358618,2.0039875176185e-09,-2.3672463682962e-09,-1.5196476672876e-09,1.2466853664439e-09,-0.0012273883087735,0.0012273880240553,-0.0015241388838258,0.0015241391374297,-0.0015241379774238,0.0015241400568712,-0.0015241402973651,0.0015241376907032,-0.0015241393939401,0.0015241386119337,-0.0012145246314579,0.0012145202045515,-0.0012145219521368,0.0012145229507167,-0.0012145200168207,0.0012145249194753,-0.0012145242836493,0.0012145205256817,7.0884230464828e-09,-6.9275714992107e-09,-0.0012273880927587,0.0012273882403224,1.4275708198973e-09,-1.3151146182688e-09,-0.001524136136289,0.0015241418765139,-0.001524137044168,0.0015241409543668,-0.0015241408153553,0.001524137209608,-0.001524141727408,0.0015241362905343,-0.0012145296798423,0.0012145151943315,-0.0012145159386669,0.0012145289036583,0.64957834981724,131329,3014,0.0051022261116802,0.0051022261133876,0.0051022261139126,36.818671773155,5.4549374185243e-05,5.4549374185243e-05,5.4549374185243e-05,4558390.7032452,0.015426941807302
37019200,0.99942171709786,0.015973685906469,0.0053245619666046,0.0053245619694705,0.0053245619703939,-0.0012277852389944,0.0012277855221002,-6.8811946307569e-09,7.1573472639541e-09,-1.9708284968952e-09,2.3379464972217e-09,-0.0015244984122588,0.0015244925857414,-0.0015244937309704,0.0015244972612383,-0.0015244970221104,0.001524494009909,-0.0015244923443682,0.0015244986875657,-0.0012149089981498,0.001214896956083,-0.001214895238594,0.0012149106854451,1.986128803226e-09,-2.3584679549523e-09,-1.5315979631219e-09,1.2505250493137e-09,-0.0012277855258917,0.0012277852374581,-0.0015244953919527,0.0015244956322648,-0.0015244944806599,0.0015244965573994,-0.0015244967964716,0.0015244941940708,-0.0015244958882524,0.0015244951209077,-0.0012149051799334,0.0012149007293631,-0.0012149024706132,0.0012149034774813,-0.0012149005685476,0.001214905429546,-0.001214904817368,0.0012149010712633,7.1336557410668e-09,-6.9647689853236e-09,-0.0012277853065165,0.0012277854575665,1.4385113919938e-09,-1.3190068683338e-09,-0.0015244926219028,0.001524498394201,-0.0015244935341302,0.0015244974667783,-0.0015244973281726,0.0015244936997444,-0.0015244982447704,0.0015244927752004,-0.001214910254442,0.0012148956987561,-0.0012148964242798,0.0012149094820365,0.68961816853464,131329,3014,0.0051038711670057,0.0051038711716936,0.0051038711732179,37.016512154696,5.6132097237565e-05,5.6132097237565e-05,5.6132097237565e-05,4562527.1512747,0.015431948383491
37219200,0.99946229482377,0.015974349447582,0.0053247831469757,0.0053247831498417,0.0053247831507651,-0.001228397949559,0.0012283982304711,-6.9225500828468e-09,7.197202421877e-09,-1.9202210478592e-09,2.2855831268867e-09,-0.0015251589950234,0.0015251531728055,-0.0015251542864343,0.0015251578752903,-0.0015251576391945,0.0015251545626965,-0.001525152934252,0.0015251592671958,-0.001215540462729,0.0012155283080909,-0.0012155266308035,0.0012155421238711,1.9289651896361e-09,-2.2936491614308e-09,-1.5298966495903e-09,1.255340616737e-09,-0.0012283982326222,0.0012283979490339,-0.0015251559964894,0.0015251561980033,-0.0015251550839483,0.0015251571240322,-0.0015251573604746,0.0015251548006231,-0.0015251564511913,0.0015251557282814,-0.0012155365628683,0.0012155321607967,-0.0012155338571107,0.0012155349181088,-0.0012155320309089,0.0012155367858415,-0.0012155361567951,0.001215532544198,7.1730533359091e-09,-7.0075174285057e-09,-0.0012283980162815,0.0012283981658906,1.4389950469832e-09,-1.3224490720592e-09,-0.0015251531927069,0.0015251589937777,-0.0015251541063655,0.001525158065172,-0.0015251579262349,0.0015251542719367,-0.0015251588444056,0.0015251533461789,-0.001215541704547,0.0012155270603259,-0.0012155277971622,0.0012155409264862,0.73362544448917,131329,3014,0.0051064115420865,0.0051064115454662,0.0051064115465387,37.34354331673,5.8748346533842e-05,5.8748346533842e-05,5.8748346533842e-05,4567278.6862045,0.015439688635242
37419200,0.99950067923865,0.015974933877866,0.0053249779570701,0.0053249779599361,0.0053249779608596,-0.0012289880220301,0.0012289883001349,-6.9649467077767e-09,7.2378702646788e-09,-1.8460772057262e-09,2.2091671534599e-09,-0.0015258740015029,0.0015258681983016,-0.0015258692651484,0.0015258729281411,-0.0015258726959181,0.0015258695380293,-0.0015258679630679,0.0015258742701655,-0.00121617749985,0.0012161652124147,-0.0012161635923951,0.0012161791150273,1.8685395013359e-09,-2.2251830799637e-09,-1.5263222920919e-09,1.2587734067048e-09,-0.0012289883007776,0.0012289880224783,-0.0015258710322036,0.001525871194433,-0.0015258701196525,0.0015258721202083,-0.0015258723536969,0.001525869840296,-0.0015258714441385,0.0015258707678446,-0.0012161735057715,0.0012161691565582,-0.0012161708052325,0.0012161719184831,-0.0012161690599272,0.0012161736996796,-0.0012161730561911,0.0012161695811892,7.2116298374823e-09,-7.0492142925186e-09,-0.0012289880876995,0.0012289882358988,1.4377201650182e-09,-1.323964411296e-09,-0.0015258681952871,0.0015258740233026,-0.0015258691094269,0.0015258730947943,-0.0015258729558606,0.001525869274715,-0.0015258738742228,0.0015258683492574,-0.0012161787149824,0.0012161639863997,-0.0012161647324395,0.0012161779341082,0.68665560307367,131329,3014,0.0051088598375343,0.0051088598398023,0.0051088598405142,37.673622733274,6.1388981866193e-05,6.1388981866193e-05,6.1388981866193e-05,4570291.3586659,0.015447153849965
37619200,0.9995369394147,0.015975466574013,0.0053251555224526,0.0053251555253186,0.0053251555262421,-0.0012295981992537,0.0012295984812713,-7.0037506376962e-09,7.2807176181921e-09,-1.7711197969765e-09,2.1375044632353e-09,-0.0015265259152359,0.0015265201375089,-0.0015265211516537,0.001526524894559,-0.0015265246582393,0.0015265214283439,-0.0015265198981761,0.0015265261876904,-0.0012168016455453,0.0012167892336587,-0.0012167876589465,0.0012168032169669,1.7930684703545e-09,-2.1520991605906e-09,-1.527088180832e-09,1.2563182733583e-09,-0.0012295984816116,0.0012295981999458,-0.0015265229847854,0.0015265230944949,-0.0015265220727894,0.0015265240197069,-0.0015265242569989,0.001526521789986,-0.0015265233480002,0.0015265227169573,-0.001216797564911,0.0012167932641416,-0.0012167948667514,0.0012167960250274,-0.0012167932177794,0.0012167977087123,-0.0012167970678694,0.0012167937362487,7.2507826126272e-09,-7.0917722841071e-09,-0.0012295982684452,0.0012295984134277,1.4352808680665e-09,-1.3248584216023e-09,-0.0015265201098955,0.0015265259615101,-0.0015265210235711,0.0015265250335619,-0.0015265248976626,0.0015265211856657,-0.0015265258155667,0.0015265202607632,-0.0012168028398157,0.0012167880278564,-0.0012167887777451,0.0012168020560132,0.66415287113655,131329,3014,0.0051113894172765,0.0051113894194229,0.0051113894200789,38.003809742726,6.4030477941809e-05,6.4030477941809e-05,6.4030477941809e-05,4574633.8304299,0.015454860640176
37819200,0.99957022086645,0.0159759364402,0.0053253121445146,0.0053253121473807,0.0053253121483042,-0.0012292592148693,0.0012292594978654,-7.0430690029589e-09,7.3227752324785e-09,-1.752268288936e-09,2.1217770531675e-09,-0.0015261507536566,0.0015261449597237,-0.0015261459625915,0.0015261497435532,-0.0015261495085819,0.0015261462392629,-0.0015261447211338,0.0015261510253675,-0.0012164348520419,0.0012164223548401,-0.0012164207989165,0.0012164364297843,1.7793611157307e-09,-2.1293208403754e-09,-1.5316146438453e-09,1.2689079735007e-09,-0.001229259494913,0.0012292592177076,-0.0015261478242919,0.0015261479168055,-0.0015261469062806,0.0015261488474545,-0.0015261490844578,0.0015261466247576,-0.0015261481695276,0.0015261475571019,-0.0012164307209045,0.0012164264306645,-0.0012164280178357,0.0012164292191788,-0.0012164263896155,0.0012164308686506,-0.001216430197338,0.0012164269241172,7.2880465691212e-09,-7.1362782621859e-09,-0.0012292592855689,0.0012292594269805,1.4403849528461e-09,-1.3365664690765e-09,-0.0015261449245256,0.0015261508085499,-0.0015261458441822,0.0015261498753075,-0.0015261497396596,0.0015261460055116,-0.0015261506635541,0.0015261450753416,-0.0012164360483393,0.0012164211372524,-0.0012164219126443,0.0012164352513072,0.64016142577695,131329,3014,0.005109982969887,0.0051099829696513,0.0051099829695039,37.803883234475,6.2431065875797e-05,6.2431065875797e-05,6.2431065875797e-05,4571622.579542,0.015450572250941
38019200,0.99960072149151,0.015976385751028,0.0053254619147905,0.0053254619176568,0.0053254619185804,-0.0012288535832175,0.0012288538643048,-7.0847776726112e-09,7.36116027743e-09,-1.7401215158939e-09,2.1056879019741e-09,-0.0015256571110481,0.0015256512989856,-0.0015256522933776,0.0015256561098897,-0.0015256558749456,0.0015256525689471,-0.0015256510610348,0.001525657381871,-0.0012159863637125,0.001215973774741,-0.0012159722236432,0.0012159879204891,1.7590664111541e-09,-2.1139258968862e-09,-1.5419080239328e-09,1.2746862839145e-09,-0.0012288538637073,0.0012288535844811,-0.0015256541805921,0.0015256542563005,-0.0015256532573915,0.0015256551925502,-0.0015256554287428,0.0015256529759321,-0.0015256545088454,0.0015256539137213,-0.0012159821950117,0.0012159778922487,-0.0012159794690062,0.001215980689715,-0.0012159778741293,0.0012159823125862,-0.0012159816522086,0.0012159784095161,7.3316687364939e-09,-7.1757129309544e-09,-0.0012288536525993,0.0012288537957792,1.449493662993e-09,-1.3420967829234e-09,-0.0015256512564435,0.0015256571726885,-0.0015256521805888,0.0015256562343766,-0.0015256560989277,0.00152565234198,-0.001525657027573,0.0015256514065073,-0.0012159875569319,0.0012159725679858,-0.0012159733348697,0.0012159867587247,0.66569814866146,131329,3014,0.0051082992924829,0.0051082992938691,0.0051082992942651,37.55948236571,6.0475858925682e-05,6.0475858925682e-05,6.0475858925682e-05,4568790.3162516,0.015445436461369
38219200,0.99962869825972,0.015976801252735,0.0053256004153595,0.0053256004182259,0.0053256004191495,-0.0012284329050566,0.0012284331853118,-7.1269555688701e-09,7.4024745244257e-09,-1.7203381121457e-09,2.084788994892e-09,-0.0015251962728193,0.0015251904459488,-0.001525191427517,0.0015251952845531,-0.0015251950502153,0.0015251917022639,-0.001525190208456,0.001525196543193,-0.0012155444252948,0.0012155317380909,-0.0012155302006836,0.0012155459630092,1.742938903405e-09,-2.0982223053775e-09,-1.547489978447e-09,1.2798674836451e-09,-0.0012284331851636,0.0012284329060941,-0.0015251933413983,0.0015251934038198,-0.001525192414799,0.0015251943436358,-0.0015251945791625,0.0015251921340728,-0.001525193655557,0.0015251930756457,-0.0012155402089095,0.0012155359036994,-0.0012155374694741,0.0012155387093791,-0.0012155359015715,0.0012155403094814,-0.0012155396488919,0.0012155364385475,7.3719143066076e-09,-7.2151084519189e-09,-0.0012284329741025,0.0012284331174293,1.4561609577529e-09,-1.3481037383562e-09,-0.001525190395373,0.0015251963421018,-0.001525191323848,0.0015251953994942,-0.0015251952646387,0.0015251914847627,-0.0015251961973402,0.0015251905452222,-0.0012155456099352,0.0012155305409269,-0.0012155313093712,0.0012155448092424,0.67076172751724,131329,3014,0.0051065544958291,0.0051065544976788,0.005106554498249,37.313934030822,5.8511472246578e-05,5.8511472246578e-05,5.8511472246578e-05,4564852.5401664,0.015440118410944
38419200,0.99965455620378,0.015977211126894,0.0053257370400793,0.0053257370429457,0.0053257370438693,-0.0012282424565074,0.0012282427346992,-7.1686279578072e-09,7.4414316700764e-09,-1.6882330949319e-09,2.049464210981e-09,-0.0015249845546434,0.0015249787218767,-0.0015249796825637,0.0015249835874981,-0.0015249833542087,0.0015249799555822,-0.0015249784856978,0.0015249848234885,-0.0012153442493708,0.0012153314571113,-0.0012153299411263,0.0012153457565719,1.7057356114498e-09,-2.0620914253827e-09,-1.5484579499414e-09,1.2796795358263e-09,-0.0012282427357007,0.0012282424568126,-0.0015249816315419,0.0015249816708021,-0.0015249807047816,0.0015249826110015,-0.0015249828449671,0.001524980425423,-0.0015249819212187,0.0015249813673445,-0.0012153399714458,0.0012153356862345,-0.0012153372270447,0.0012153384887857,-0.0012153357104783,0.0012153400419802,-0.0012153393882624,0.0012153362461766,7.414414994829e-09,-7.2551288037364e-09,-0.0012282425242259,0.001228242668702,1.4571912604543e-09,-1.3469044472878e-09,-0.0015249786602976,0.0015249846344734,-0.0015249795885566,0.0015249836918417,-0.0015249835569785,0.0015249797495985,-0.0015249844895187,0.0015249788099762,-0.0012153454213619,0.001215330276221,-0.0012153310375236,0.0012153446232037,0.71253733347785,131329,3014,0.0051057645078088,0.0051057645105258,0.0051057645113879,37.196413823739,5.7571310589912e-05,5.7571310589912e-05,5.7571310589912e-05,4562885.6692957,0.015437710387849
38619200,0.99967861028568,0.015977594517369,0.005325864836904,0.0053258648397705,0.0053258648406941,-0.0012282369639051,0.0012282372404073,-7.2105729846507e-09,7.4811181526816e-09,-1.6475411161028e-09,2.0059610563255e-09,-0.0015250405328764,0.0015250346998001,-0.0015250356336093,0.0015250395927145,-0.0015250393604509,0.0015250359055633,-0.0015250344645609,0.001525040800974,-0.0012153633753404,0.001215350472255,-0.0012153489841805,0.0012153648497415,1.6558310710547e-09,-2.0112119069781e-09,-1.5430177056311e-09,1.2748779881203e-09,-0.001228237241583,0.0012282369642956,-0.0015250376230434,0.0015250376348912,-0.0015250366999196,0.0015250385715704,-0.001525038803346,0.0015250364234079,-0.0015250378829796,0.0015250373619636,-0.0012153590212395,0.0012153547790437,-0.0012153562844936,0.0012153575686981,-0.0012153548329239,0.0012153590606283,-0.0012153584136083,0.0012153553664399,7.455978884316e-09,-7.2950958741227e-09,-0.0012282370305243,0.0012282371758571,1.4537047058485e-09,-1.3419243192802e-09,-0.0015250346257692,0.0015250406245012,-0.001525035551544,0.0015250396847104,-0.0015250395498592,0.0015250357127532,-0.0015250404796998,0.0015250347761331,-0.0012153645301198,0.001215349311619,-0.0012153500649254,0.0012153637362178,0.71625967097746,131329,3014,0.0051057430994493,0.0051057431027053,0.005105743103751,37.193707246541,5.754965797233e-05,5.754965797233e-05,5.754965797233e-05,4561095.7776419,0.015437649423451
38819200,0.99970098960481,0.015977952428873,0.0053259841407387,0.0053259841436052,0.0053259841445288,-0.0012282332140131,0.0012282334886383,-7.2523702654196e-09,7.5220315090419e-09,-1.5972455874202e-09,1.9545064257586e-09,-0.0015251008744708,0.0015250950449978,-0.0015250959475541,0.0015250999653904,-0.0015250997356903,0.0015250962166825,-0.0015250948124345,0.0015251011392924,-0.0012153833488852,0.0012153703310589,-0.0012153688820921,0.001215384793303,1.6273845393141e-09,-1.978296234011e-09,-1.5356825041522e-09,1.2713736855224e-09,-0.001228233489382,0.00122823321437,-0.0015250979748558,0.0015250979702507,-0.0015250970549926,0.0015250989034448,-0.0015250991344923,0.0015250967790847,-0.0015250982177198,0.0015250977139131,-0.001215378917552,0.0012153747126906,-0.0012153761958688,0.0012153774962197,-0.0012153747771147,0.0012153789489088,-0.0012153782947753,0.001215375311272,7.4951128742113e-09,-7.3364132619049e-09,-0.001228233279785,0.0012282334243098,1.4461945441317e-09,-1.3362577362728e-09,-0.0015250949581368,0.0015251009795778,-0.0015250958791923,0.0015251000442731,-0.0015250999087656,0.0015250960407107,-0.001525100834167,0.0015250951083478,-0.0012153844836954,0.0012153691853918,-0.0012153699423662,0.001215383692264,0.71844600696411,131329,3014,0.0051057289115309,0.0051057289138185,0.0051057289145311,37.193612117517,5.7548896940134e-05,5.7548896940134e-05,5.7548896940134e-05,4559350.4798876,0.015437610385132
38880000,0.99970764159329,0.015978058936798,0.0053260196433805,0.005326019646247,0.0053260196471706,-0.0012282296739644,0.0012282299487838,-7.2644154696821e-09,7.5343500076614e-09,-1.5959790699349e-09,1.9535028854748e-09,-0.0015251188804207,0.0015251130437795,-0.0015251139454088,0.0015251179722007,-0.0015251177425284,0.0015251142147384,-0.00152511281101,0.0015251191455143,-0.0012153880910331,0.0012153750490463,-0.001215373601128,0.0012153895363311,1.6132975342321e-09,-1.962796414847e-09,-1.5319232941644e-09,1.2688267674127e-09,-0.0012282299488991,0.0012282296748737,-0.0015251159807306,0.0015251159691925,-0.0015251150630087,0.0015251169001495,-0.001525117130646,0.0015251147879125,-0.0015251162158684,0.0015251157206605,-0.0012153836386742,0.0012153794514614,-0.0012153809238444,0.0012153822297255,-0.0012153795221961,0.0012153836645589,-0.0012153830102168,0.0012153800558696,7.5075106484678e-09,-7.3492525330857e-09,-0.0012282297398684,0.0012282298842233,1.4439843876799e-09,-1.3344172665861e-09,-0.0015251129569233,0.0015251189855473,-0.0015251138767959,0.0015251180515671,-0.0015251179160639,0.001525114038253,-0.0015251188401458,0.0015251131073894,-0.0012153892255009,0.0012153739032225,-0.001215374660112,0.0012153884349425,0.71909630989697,131329,3014,0.005105714625032,0.0051057146271619,0.0051057146278253,37.193608851976,5.7548870815807e-05,5.7548870815807e-05,5.7548870815807e-05,4558802.7000238,0.01543756816569
