time,ASR_ext,ASR_strain,ASR_strain_xx,ASR_strain_yy,ASR_strain_zz,disp_x_101,disp_x_102,disp_x_103,disp_x_104,disp_x_105,disp_x_106,disp_x_p1_neg,disp_x_p1_pos,disp_x_p2_neg,disp_x_p2_pos,disp_x_p3_neg,disp_x_p3_pos,disp_x_p4_neg,disp_x_p4_pos,disp_x_p5_neg,disp_x_p5_pos,disp_x_p6_neg,disp_x_p6_pos,disp_y_101,disp_y_102,disp_y_103,disp_y_104,disp_y_105,disp_y_106,disp_y_p1_neg,disp_y_p1_pos,disp_y_p2_neg,disp_y_p2_pos,disp_y_p3_neg,disp_y_p3_pos,disp_y_p4_neg,disp_y_p4_pos,disp_y_p5_neg,disp_y_p5_pos,disp_y_p6_neg,disp_y_p6_pos,disp_y_p7_neg,disp_y_p7_pos,disp_y_p8_neg,disp_y_p8_pos,disp_z_101,disp_z_102,disp_z_103,disp_z_104,disp_z_105,disp_z_106,disp_z_p1_neg,disp_z_p1_pos,disp_z_p2_neg,disp_z_p2_pos,disp_z_p3_neg,disp_z_p3_pos,disp_z_p4_neg,disp_z_p4_pos,disp_z_p5_neg,disp_z_p5_pos,disp_z_p6_neg,disp_z_p6_pos,humidity,ndof,nelem,strain_xx,strain_yy,strain_zz,temp,thermal_strain_xx,thermal_strain_yy,thermal_strain_zz,vonmises,vstrain
2419200,0,0,0,0,0,0,0,0,0,0,0,0,0,0,0,0,0,0,0,0,0,0,0,0,0,0,0,0,0,0,0,0,0,0,0,0,0,0,0,0,0,0,0,0,0,0,0,0,0,0,0,0,0,0,0,0,0,0,0,0,0,0,0,0,0,0,0,0,0,0,0,0,0,0,0
2619200,0.019614267331638,0.00040233924099652,0.00013411308033217,0.00013411308033217,0.00013411308033217,-3.4077459823969e-05,3.4077463444445e-05,-4.334211059739e-12,8.0296885018369e-12,-5.6490512672732e-12,9.9730719765557e-12,-3.3970403058873e-05,3.3970397033569e-05,-3.3970381052487e-05,3.3970383308901e-05,-3.3970388844087e-05,3.3970392992897e-05,-3.3970385381963e-05,3.397039777786e-05,-3.4988918928379e-05,3.4988915835119e-05,-3.4988908092022e-05,3.498892872117e-05,2.8439390829203e-12,-2.9604920004652e-12,-4.1332379799025e-09,4.1316463915146e-09,-3.4077462174193e-05,3.4077461064303e-05,-3.3971712621246e-05,3.3969007087759e-05,-3.3969070056139e-05,3.3971776647362e-05,-3.3971714526099e-05,3.3969005230361e-05,-3.396907187133e-05,3.3971774766518e-05,-3.4992919684472e-05,3.4984804470002e-05,-3.4984921881886e-05,3.4993028916392e-05,-3.4987556006923e-05,3.4990301370781e-05,-3.4987560290917e-05,3.499029404995e-05,-8.8114976525709e-10,-8.9330645153308e-10,-3.4078355258947e-05,3.4076567958538e-05,3.123319540584e-09,-5.0433257206552e-09,-3.3969910045186e-05,3.3970873358074e-05,-3.3972617615753e-05,3.396816624145e-05,-3.3969914166391e-05,3.3970869446262e-05,-3.3972621773063e-05,3.396816233272e-05,-3.4991171067817e-05,3.4986661883344e-05,-3.4991159243475e-05,3.4986674053064e-05,0.81992968516416,131329,3014,0.00014197929323247,0.00014197929317028,0.00014197929312651,31.580177103406,1.2641416827245e-05,1.2641416827245e-05,1.2641416827245e-05,557191.21496989,0.00042602884617393
2819200,0.041192126043624,0.00083409206381734,0.00027803068826394,0.00027803068790349,0.00027803068764991,-6.9598215899206e-05,6.9603834857544e-05,2.733214873489e-09,2.8383965102879e-09,-9.9892236472583e-09,1.6035455019136e-08,-7.0453210164504e-05,7.0450201867809e-05,-7.045315440979e-05,7.0450216164435e-05,-7.0444937499609e-05,7.0458864621016e-05,-7.0444901751478e-05,7.0458899090214e-05,-7.1235259266328e-05,7.1249339580937e-05,-7.1235152774431e-05,7.124943885786e-05,9.9871897677303e-09,-1.6031101175104e-08,-7.2022128993049e-09,1.6310962908082e-09,-6.9603834388148e-05,6.9598216172169e-05,-7.0451821215773e-05,7.0451908220208e-05,-7.0449009125652e-05,7.0454865534561e-05,-7.0460082415077e-05,7.0443237046269e-05,-7.0457270204182e-05,7.0446194438274e-05,-7.1253590357574e-05,7.1230736509789e-05,-7.1245046212119e-05,7.1239537066132e-05,-7.1231113089789e-05,7.1253811465139e-05,-7.1256451946872e-05,7.1227719253659e-05,-3.7850906082639e-10,-4.8397740303579e-10,-6.9601467151959e-05,6.9600583278053e-05,3.8459713169295e-09,-4.8810097887808e-09,-7.0450755454935e-05,7.0452841601201e-05,-7.0453622559383e-05,7.0449917449311e-05,-7.0450819446935e-05,7.0452835195298e-05,-7.0453686486863e-05,7.0449911159942e-05,-7.1244223495557e-05,7.1240345692681e-05,-7.1244039819524e-05,7.124036850261e-05,0.82138492292501,131329,3014,0.00028996214691336,0.00028996214650438,0.0002899621462315,32.742726108499,2.1941808867993e-05,2.1941808867993e-05,2.1941808867993e-05,755588.90637854,0.00087026557170961
3019200,0.062588909316564,0.0012518212781043,0.00041727375970615,0.00041727375932939,0.00041727375906872,-0.00010135636761667,0.00010136350282205,3.4358468844126e-09,3.6385760801748e-09,-1.5039563120093e-08,2.2839712283762e-08,-0.0001034171494021,0.00010341171744405,-0.00010341706178222,0.00010341176442819,-0.00010340515089737,0.00010342432047556,-0.0001034050821334,0.0001034243874506,-0.00010395927647754,0.00010397868595071,-0.00010395907646646,0.00010397888411687,1.5002400459579e-08,-2.2775404914191e-08,-7.8301175224769e-09,7.7938559035695e-10,-0.00010136349097907,0.00010135637923487,-0.00010341342680755,0.00010341597183856,-0.00010341068971505,0.00010341885228854,-0.00010342538485685,0.00010340339241004,-0.00010342264715812,0.00010340627341792,-0.0001039828172392,0.00010395481132544,-0.00010397448907133,0.00010396339283469,-0.00010395292330684,0.00010398553022465,-0.00010398972223596,0.00010394758218036,-2.4646654184795e-10,-4.4086756243094e-10,-0.00010136028825512,0.00010135958182569,3.8273726936911e-09,-4.6868271973559e-09,-0.0001034134675261,0.00010341569159201,-0.00010341624653228,0.00010341282155364,-0.00010341357886143,0.00010341567275706,-0.00010341635756302,0.0001034128035707,-0.00010397081736418,0.00010396709841297,-0.00010397051749102,0.00010396717775918,0.82013326527565,131329,3014,0.0004222437868427,0.00042224378637468,0.00042224378609432,32.491546917523,1.9932375340188e-05,1.9932375340188e-05,1.9932375340188e-05,1035440.8133329,0.0012675357341463
3219200,0.083731311006725,0.0016499341576815,0.00054997805292365,0.00054997805251285,0.000549978052245,-0.00013147628349186,0.00013148359569109,3.4770855175382e-09,3.7733537521771e-09,-1.6676953617298e-08,2.4781940810903e-08,-0.00013521257920634,0.00013520613418818,-0.00013521246065728,0.00013520621275863,-0.00013519953208962,0.00013521991003609,-0.00013519943190572,0.00013522000789395,-0.0001349441298979,0.00013496479859689,-0.00013494384027898,0.00013496509043249,1.6628275168233e-08,-2.4699617758941e-08,-7.7456654973842e-09,5.2460502991487e-10,-0.00013148358114725,0.00013147629778106,-0.00013520786705146,0.00013521150270908,-0.0001352052444031,0.00013521426797535,-0.00013522086341945,0.00013519776134507,-0.0001352182403832,0.00013520052717364,-0.00013496878943693,0.0001349397803388,-0.00013496079087572,0.00013494802820019,-0.00013493687698028,0.00013497263314995,-0.00013497711667569,0.00013493103401284,-1.5085839075839e-10,-4.3820189066686e-10,-0.00013148024265308,0.00013147963612897,3.7118194085587e-09,-4.4706825573435e-09,-0.00013520841179128,0.0001352106563634,-0.00013521106680727,0.0001352078858826,-0.00013520856614452,0.00013521061874495,-0.00013521122113768,0.00013520784917483,-0.00013495623565419,0.00013495263468215,-0.00013495583346919,0.00013495279362825,0.80675915440325,131329,3014,0.00054768301989328,0.0005476830193631,0.00054768301905478,32.203373823606,1.7626990588846e-05,1.7626990588846e-05,1.7626990588846e-05,1264716.1532488,0.0016444028744966
3419200,0.1045989161863,0.0020258003214076,0.00067526677419676,0.00067526677375098,0.0006752667734599,-0.00015981548999902,0.00015982072596944,2.4030964242009e-09,2.792291801336e-09,-1.451274534357e-08,2.048940018197e-08,-0.00016574851907628,0.00016574210664488,-0.00016574837073352,0.00016574221741026,-0.00016573757029446,0.00016575371369731,-0.00016573743911718,0.00016575384253041,-0.00016391056240474,0.00016392694349242,-0.00016391018288324,0.00016392732734363,1.4467781701354e-08,-2.0415432837304e-08,-6.5956533156116e-09,1.4249432562244e-09,-0.00015982071372438,0.0001598155019814,-0.00016574378108029,0.00016574743408311,-0.00016574123703706,0.00016575011384998,-0.00016575468281991,0.00016573585853003,-0.0001657521383782,0.00016573853882854,-0.00016393088306104,0.0001639063060531,-0.00016392312295009,0.00016391430296068,-0.0001639033062148,0.00016393473381455,-0.00016393726497595,0.00016389954456184,-4.3122905367489e-11,-4.2401403188297e-10,-0.00015981834925774,0.00015981786629655,3.6502318431838e-09,-4.2822274112156e-09,-0.0001657443149551,0.00016574663071877,-0.00016574688833278,0.00016574394471233,-0.00016574449904802,0.00016574656051184,-0.00016574707239658,0.00016574387539349,-0.00016392046568147,0.00016391697835442,-0.00016391999783374,0.00016391725491994,0.78589838411517,131329,3014,0.0006656873950123,0.0006656873944654,0.00066568739414731,31.913876954002,1.531101563202e-05,1.531101563202e-05,1.531101563202e-05,1465606.7700865,0.0019990627279451
3619200,0.12571856339968,0.0023920841426394,0.00079736138131095,0.00079736138081584,0.00079736138051266,-0.00018804903464709,0.00018805258707426,1.5165898856171e-09,2.013651613296e-09,-1.3220619991002e-08,1.7443684132887e-08,-0.00019657473643388,0.00019656803568924,-0.00019657455393227,0.00019656818277602,-0.00019656515846106,0.00019657818411888,-0.00019656499088039,0.00019657834983538,-0.00019264469191782,0.0001926578681577,-0.00019264420460225,0.00019265835893725,1.3103272609397e-08,-1.7265690891983e-08,-5.6933356061545e-09,2.2175412364416e-09,-0.00018805255957875,0.00018804906188977,-0.00019656967826801,0.00019657359517779,-0.00019656716902901,0.00019657623595,-0.00019657915547747,0.00019656353655134,-0.00019657664439225,0.00019656617921255,-0.00019266178509264,0.00019264050012125,-0.00019265412524329,0.0001926483860293,-0.00019263716849793,0.00019266586247729,-0.00019266674926802,0.00019263521667737,2.8328998811179e-11,-4.3116397081018e-10,-0.00018805101969151,0.00018805060162679,3.6295098000957e-09,-4.1938588301753e-09,-0.00019657033832469,0.00019657270863395,-0.00019657288044572,0.00019657006294063,-0.00019657054553585,0.00019657260772451,-0.00019657308662538,0.0001965699647131,-0.000192652981725,0.00019264952065197,-0.00019265245992831,0.00019264989382075,0.77011576977768,131329,3014,0.00078323905239258,0.00078323905186628,0.0007832390515515,31.993966511947,1.5951732095574e-05,1.5951732095574e-05,1.5951732095574e-05,1689783.8573024,0.0023524872223287
3819200,0.14743798940504,0.002762858327685,0.00092095277646479,0.00092095277577969,0.00092095277544052,-0.00021705325510464,0.00021705587668306,1.0161202154529e-09,1.5960331350553e-09,-1.2540386567196e-08,1.5789348713559e-08,-0.0002284187827055,0.00022841189053934,-0.0002284185728654,0.0002284120669173,-0.00022840993619382,0.00022842125388281,-0.00022840974132269,0.00022842144750446,-0.00022226346055371,0.00022227486699837,-0.00022226289345537,0.00022227543843288,1.2470741938634e-08,-1.5671902479732e-08,-5.2265544108286e-09,2.6560677418674e-09,-0.00021705585542156,0.00021705327604141,-0.00022841350823648,0.00022841761542915,-0.00022841100623956,0.00022842024573677,-0.00022842228387274,0.00022840831013008,-0.00022841978075528,0.00022841094161671,-0.00022227884832073,0.0002222592319828,-0.00022227121343929,0.00022226708600229,-0.00022225565475613,0.00022228310354339,-0.00022228309790008,0.00022225469909704,9.7566184346511e-11,-4.6559951939399e-10,-0.00021705475698274,0.00021705437431722,3.6344053145153e-09,-4.16201399305e-09,-0.00022841424560576,0.0002284166759365,-0.00022841678301033,0.00022841404433954,-0.00022841448204883,0.00022841653654901,-0.00022841701865261,0.00022841390642409,-0.00022227089428491,0.00022226737481213,-0.00022227028836643,0.000222267868755,0.77140162530452,131329,3014,0.00090398698356647,0.00090398698289059,0.00090398698254952,32.325784450418,1.8606275603341e-05,1.8606275603341e-05,1.8606275603341e-05,1932892.0547266,0.0027156521356707
4019200,0.16974639845986,0.0031387796152753,0.0010462598724432,0.0010462598715998,0.0010462598712322,-0.00024640797357453,0.00024641019656865,7.7394907579876e-10,1.4475981276503e-09,-1.2260015838527e-08,1.50863775883e-08,-0.00026095303112704,0.00026094603503242,-0.00026095279093278,0.0002609462435008,-0.00026094449318923,0.00026095506365472,-0.0002609442673767,0.00026095528876944,-0.00025236842017866,0.00025237901836595,-0.00025236776250205,0.00025237968283629,1.2183950206187e-08,-1.4970433134017e-08,-5.0197881490487e-09,2.8321414926793e-09,-0.00024641017908302,0.00024640799065708,-0.00026094765556649,0.00026095183638654,-0.00026094516219036,0.00026095445518399,-0.00026095612149818,0.00026094286788243,-0.00026095362698706,0.00026094548783412,-0.00025238304205335,0.00025236416671054,-0.00025237543432293,0.00025237198825702,-0.00025236048162197,0.0002523873631558,-0.00025238698744869,0.00025235995888116,1.5372348277959e-10,-5.0223326993453e-10,-0.00024640926598338,0.00024640890358057,3.6298690451026e-09,-4.1363165892792e-09,-0.00026094841515917,0.00026095088670608,-0.00026095094669535,0.00026094826959938,-0.00026094867837235,0.00026095071218955,-0.00026095120895393,0.00026094809638797,-0.0002523754786582,0.00025237189797808,-0.00025237479607178,0.00025237249692573,0.77299486570557,131329,3014,0.001026180746893,0.0010261807460541,0.0010261807456858,32.663325573722,2.130660458978e-05,2.130660458978e-05,2.130660458978e-05,2170215.1760462,0.0030833007979072
4219200,0.19261831664052,0.0035199756033823,0.0011733252018534,0.0011733252009532,0.0011733252005757,-0.00027611931398586,0.00027612137985584,6.5136631569147e-10,1.4183359278551e-09,-1.2149447651949e-08,1.4802821368498e-08,-0.00029421601493886,0.00029420896142463,-0.00029421574445897,0.00029420920177426,-0.00029420759707562,0.00029421785314072,-0.00029420734044842,0.00029421810963166,-0.00028296420698699,0.00028297443044579,-0.00028296345920864,0.00028297518749609,1.2072044978611e-08,-1.4689500802831e-08,-4.9274769817354e-09,2.8877021985108e-09,-0.00027612136436911,0.00027611932903481,-0.00029421058568383,0.00029421480120725,-0.00029420810313138,0.00029421740659282,-0.00029421893225442,0.00029420596949459,-0.00029421644854747,0.00029420857603742,-0.00028297849006371,0.00028295992986129,-0.00028297091579508,0.00028296771338602,-0.00028295618860569,0.00028298283878659,-0.00028298233005357,0.00028295584074224,2.0665964830725e-10,-5.4250504760789e-10,-0.00027612052112932,0.00027612017209253,3.6187244465551e-09,-4.1108573499827e-09,-0.00029421135018942,0.00029421385403208,-0.00029421387298839,0.00029421125287896,-0.0002942116408989,0.00029421364483027,-0.00029421416270224,0.00029421104496839,-0.00028297110899454,0.00028296746200579,-0.00028297034716945,0.00028296816432961,0.77488674459066,131329,3014,0.0011498448281534,0.0011498448272423,0.0011498448268618,33.001066661465,2.400853329172e-05,2.400853329172e-05,2.400853329172e-05,2397314.5592705,0.0034555120943431
4419200,0.21642385759998,0.0039122831136522,0.0013040943719505,0.00130409437104,0.0013040943706617,-0.00030711971425209,0.00030712170754508,5.6982955398063e-10,1.4301856844561e-09,-1.20749399403e-08,1.4641728392954e-08,-0.00032920753662432,0.00032920045777621,-0.00032920723601025,0.00032920073019215,-0.00032919918617891,0.00032920926631534,-0.00032919889891977,0.00032920955449977,-0.00031498335410533,0.00031499333730512,-0.00031498251286872,0.00031499418381475,1.1994735479051e-08,-1.4531380096425e-08,-4.900663375801e-09,2.9253614389129e-09,-0.00030712169404618,0.00030711972739708,-0.00032920209265452,0.0003292062968435,-0.00032919960587043,0.00032920890503182,-0.00032921037181619,0.0003291975482858,-0.00032920788379216,0.00032920015767261,-0.00031499745650902,0.00031497902775094,-0.00031498986708913,0.00031498681791851,-0.0003149752857668,0.00031500178194381,-0.00031500121210381,0.00031497503577024,2.565672894866e-10,-5.8576278709894e-10,-0.00030712088212614,0.00030712053915058,3.6279044424728e-09,-4.1124685580041e-09,-0.00032920283530133,0.00032920537870203,-0.00032920536422845,0.00032920277686013,-0.00032920315414749,0.00032920513549946,-0.00032920568196159,0.00032920253493708,-0.00031499017918905,0.00031498644544939,-0.00031498933303424,0.00031498724606083,0.77612069351907,131329,3014,0.0012788587468324,0.001278858746096,0.0012788587457479,33.595594779428,2.8764758235421e-05,2.8764758235421e-05,2.8764758235421e-05,2620571.364909,0.0038439746997773
4619200,0.24130082086417,0.0043172344368772,0.0014390781464348,0.0014390781454211,0.0014390781450213,-0.00033924568340377,0.0003392476474885,5.0410190120942e-10,1.4685668854515e-09,-1.2088152589751e-08,1.4615369264295e-08,-0.00036581063482058,0.00036580349586192,-0.00036581030053814,0.00036580380360925,-0.00036580227982684,0.00036581229639166,-0.00036580195811597,0.00036581261987982,-0.00034824791007572,0.00034825775842878,-0.00034824696594627,0.00034825870737932,1.1979024102828e-08,-1.4473781736581e-08,-4.8947568192083e-09,2.9489065427243e-09,-0.00033924763253505,0.00033924569794943,-0.00036580515296864,0.00036580936086937,-0.00036580265994629,0.00036581197393064,-0.00036581341731136,0.00036580063984722,-0.00036581092272783,0.00036580325454698,-0.00034826193116912,0.00034824353866043,-0.00034825432098337,0.00034825134452476,-0.00034823978411483,0.00034826624972293,-0.0003482656494526,0.00034823959328873,2.9897606728049e-10,-6.2580771503329e-10,-0.0003392468355272,0.00033924649477926,3.6367790738883e-09,-4.1181672074289e-09,-0.00036580588327161,0.00036580846091947,-0.0003658084195561,0.00036580585676444,-0.00036580622696612,0.00036580818722073,-0.0003658087618604,0.0003658055848056,-0.00034825470821309,0.0003482508925301,-0.00034825378785001,0.00034825177904624,0.77693647775909,131329,3014,0.0014125402799745,0.0014125402791259,0.0014125402787539,34.293637245542,3.4349097964334e-05,3.4349097964334e-05,3.4349097964334e-05,2837590.8750814,0.004246652529175
4819200,0.26722021728013,0.0047341266543655,0.0015780422189837,0.0015780422178997,0.0015780422174821,-0.00037224772397017,0.00037224968680128,4.5796360012932e-10,1.5148857336189e-09,-1.2140070880741e-08,1.4658381230515e-08,-0.00040380010673328,0.00040379290268694,-0.0004037997421811,0.00040379324211813,-0.00040379171244399,0.0004038017326074,-0.00040379136017663,0.00040380208739894,-0.00038251662244755,0.00038252641064858,-0.000382515588139,0.0003825274505948,1.2034199456068e-08,-1.4519515515163e-08,-4.8959042676049e-09,2.9501140777807e-09,-0.00037224967146312,0.0003722477388325,-0.00040379457023543,0.00040379881362786,-0.0004037920757539,0.00040380142668424,-0.00040380287476884,0.00040379006190677,-0.00040380037885098,0.00040379267663194,-0.00038253063471226,0.00038251220613358,-0.00038252302025466,0.00038252001264565,-0.00038250840973293,0.00038253498061358,-0.00038253438218638,0.00038250823752956,3.4647160301565e-10,-6.7242204808565e-10,-0.00037224887495043,0.00037224853515186,3.6389393246883e-09,-4.1185479956932e-09,-0.00040379530407963,0.00040379791433802,-0.00040379784348398,0.0004037953121925,-0.00040379567615819,0.00040379760661211,-0.00040379821432873,0.00040379500627174,-0.0003825234353583,0.00038251952789212,-0.00038252242856112,0.00038252051220133,0.77792180536841,131329,3014,0.0015498497636666,0.001549849762676,0.0015498497622721,34.994065763647,3.9952526109179e-05,3.9952526109179e-05,3.9952526109179e-05,3052559.0236614,0.0046604297395129
5019200,0.29413623717723,0.0051608389640449,0.0017202796555719,0.0017202796544495,0.0017202796540235,-0.00040595276953057,0.00040595475217445,4.2200698016761e-10,1.5717349584877e-09,-1.2211772359163e-08,1.4744299391598e-08,-0.00044302861593595,0.00044302134724271,-0.00044302822102633,0.00044302171831657,-0.0004430201638271,0.00044303022804414,-0.00044301978090029,0.00044303061414317,-0.00041756846394598,0.00041757823422725,-0.00041756734000008,0.00041757936623886,1.210754266848e-08,-1.4607359666909e-08,-4.9017052212794e-09,2.9346117931974e-09,-0.00040595473706781,0.0004059527840988,-0.00044302302574317,0.00044302730612261,-0.00044302053389958,0.0004430299152204,-0.00044303138893134,0.00044301850275156,-0.00044302889565523,0.00044302111348776,-0.00041758250199034,0.00041756400867188,-0.00041757489584619,0.00041757180484323,-0.00041756017087893,0.00041758687970669,-0.00041758630648569,0.00041755998630646,3.9316437709816e-10,-7.1949590999677e-10,-0.00040595393035737,0.00040595359060262,3.6344669998221e-09,-4.1134767858578e-09,-0.00044302376550135,0.00044302640376387,-0.00044302630425019,0.00044302380788014,-0.00044302416601507,0.00044302606210653,-0.00044302670343193,0.00044302346789815,-0.00041757531060232,0.00041757131416055,-0.00041757421833341,0.00041757239668547,0.77677327122232,131329,3014,0.0016900660021591,0.0016900660010379,0.0016900660006062,35.694578022778,4.5556624182227e-05,4.5556624182227e-05,4.5556624182227e-05,3264744.2734378,0.0050831459324455
5219200,0.32135469961634,0.0055882116016212,0.0018627372014426,0.0018627372003045,0.0018627371998742,-0.00043893777126313,0.00043893978722716,4.1455483892835e-10,1.6131546541885e-09,-1.2377552586529e-08,1.4939801433351e-08,-0.00048192594713673,0.00048191857323938,-0.0004819255358201,0.00048191896178716,-0.00048191737009219,0.00048192757429549,-0.0004819169715995,0.00048192797639501,-0.00045198550898998,0.000451995387203,-0.00045198434132412,0.00045199656762826,1.2360839828018e-08,-1.4898387848619e-08,-4.8762970247819e-09,2.8677316369931e-09,-0.00043893977619345,0.00043893778166645,-0.00048192021821793,0.00048192466820401,-0.00048191775573949,0.0004819272463783,-0.00048192876531585,0.00048191568499672,-0.00048192630250961,0.00048191826359488,-0.00045199966748059,0.00045198104426848,-0.0004519921530115,0.00045198874843113,-0.00045197703493924,0.00045200421175958,-0.00045200370811972,0.00045197678489002,4.6220254044142e-10,-7.8823657186968e-10,-0.00043893894812832,0.00043893860950483,3.5956921402571e-09,-4.0729159982194e-09,-0.00048192103338287,0.00048192369183771,-0.00048192354775604,0.00048192112625158,-0.00048192147631352,0.00048192330205348,-0.00048192399015911,0.00048192073664493,-0.00045199246199456,0.00045198835516501,-0.00045199123994377,0.00045198958123189,0.77855553626278,131329,3014,0.0018272693080249,0.0018272693067118,0.0018272693062381,36.02348308371,4.8187864669679e-05,4.8187864669679e-05,4.8187864669679e-05,3472628.7573567,0.00549695609543
5419200,0.34867462450987,0.0060072714926972,0.0020024238317956,0.0020024238306661,0.0020024238302355,-0.00047106776855268,0.00047106988302854,4.1579634222187e-10,1.709511193033e-09,-1.2475202966672e-08,1.5135404367374e-08,-0.00052036674534418,0.00052035934421522,-0.00052036630344496,0.00052035976441824,-0.00052035807479419,0.0005203684407133,-0.00052035764529748,0.00052036887417925,-0.00048537929377451,0.0004853892757905,-0.00048537803463959,0.0004853905498464,1.245383598572e-08,-1.5090972092377e-08,-4.87082968965e-09,2.7633504816305e-09,-0.00047106987273095,0.00047106777821374,-0.00052036098850757,0.00052036546965556,-0.0005203585624735,0.00052036801074221,-0.00052036962951272,0.00052035639179365,-0.0005203672025412,0.00052035893282713,-0.00048539354591018,0.00048537484058264,-0.0004853861377886,0.00048538243651234,-0.00048537079921324,0.00048539812253174,-0.00048539775310322,0.0004853704112515,5.0746047416614e-10,-8.3451759363388e-10,-0.00047106899499431,0.00047106865572253,3.5409842262228e-09,-4.0177998452153e-09,-0.00052036182165145,0.00052036447382253,-0.00052036430198549,0.00052036194785393,-0.00052036229402952,0.00052036405131185,-0.00052036477261368,0.0005203615244301,-0.0004853863239744,0.00048538216275753,-0.00048538501556662,0.00048538348290659,0.76958004566167,131329,3014,0.001960899858679,0.001960899857353,0.0019608998568769,36.276196193235,5.0209569545881e-05,5.0209569545881e-05,5.0209569545881e-05,3657698.2168234,0.0059001588437424
5619200,0.37601887143396,0.0064029392640162,0.0021343130888777,0.0021343130877817,0.0021343130873568,-0.00050135111232652,0.00050135329501499,4.0183415416889e-10,1.7906963341915e-09,-1.2514519792364e-08,1.5241167578469e-08,-0.00055740294640916,0.00055739553655873,-0.0005574024735953,0.00055739598867714,-0.00055739423008571,0.0005574046798616,-0.00055739376942002,0.00055740514504148,-0.00051624715413382,0.00051625715742565,-0.00051624580231571,0.00051625852489685,1.2490193086947e-08,-1.5192723071511e-08,-4.8452557626567e-09,2.6716675943027e-09,-0.00050135328418075,0.00050135112254657,-0.00055739717800977,0.00055740167549585,-0.00055739479051177,0.00055740417692974,-0.00055740586371182,0.00055739255201956,-0.00055740347532757,0.00055739505350398,-0.00051626141566568,0.00051624271429539,-0.00051625412132947,0.00051625019455606,-0.00051623865492742,0.00051626600891513,-0.00051626574461701,0.00051623816201549,5.5340010803598e-10,-8.8005742914375e-10,-0.00050135237264268,0.00050135203386146,3.4834635322641e-09,-3.9583509798006e-09,-0.00055739802297282,0.00055740066694518,-0.0005574004660359,0.00055739818217655,-0.00055739852406001,0.00055740021157303,-0.00055740096541907,0.00055739772599062,-0.00051625421937074,0.00051625000813308,-0.0005162528229544,0.00051625141969003,0.73637049839564,131329,3014,0.0020868356036218,0.002086835602342,0.0020868356018757,36.527097862068,5.2216782896543e-05,5.2216782896543e-05,5.2216782896543e-05,3811237.0877123,0.0062802938696305
5819200,0.40330973105307,0.0067798370856103,0.0022599456960736,0.0022599456949805,0.0022599456945561,-0.00053013524144652,0.0005301374401496,3.6232965975408e-10,1.845043430175e-09,-1.2544096253249e-08,1.5284224301939e-08,-0.00059317634851212,0.00059316889880813,-0.00059317584499197,0.00059316938264422,-0.00059316760403462,0.00059317806606857,-0.00059316711236588,0.00059317856268611,-0.00054513269904659,0.00054514264931444,-0.00054513125518764,0.00054514410867913,1.2518670461315e-08,-1.5235074631431e-08,-4.7979449754936e-09,2.6092452222615e-09,-0.00053013742940833,0.00053013525157431,-0.00059317053664646,0.0005931750783751,-0.00059316818393509,0.00059317754267091,-0.00059317925030115,0.000593165931271,-0.00059317689686392,0.00059316839579469,-0.00054514690136893,0.0005451282684248,-0.00054513971314159,0.00054513563956966,-0.00054512416255494,0.00054515153546244,-0.00054515132425543,0.00054512362282559,6.0501320517365e-10,-9.2119544377329e-10,-0.00053013650453355,0.00053013617622902,3.4348139589457e-09,-3.8976947795117e-09,-0.00059317140200021,0.0005931740506707,-0.00059317381007352,0.00059317160350857,-0.00059317193246974,0.00059317356271724,-0.00059317433906999,0.00059317111498857,-0.00054513976028876,0.00054513550522353,-0.0005451382721837,0.0005451370066176,0.71317584991556,131329,3014,0.0022065236776917,0.0022065236764129,0.002206523675953,36.777935550367,5.4223484402932e-05,5.4223484402932e-05,5.4223484402932e-05,3973583.4855997,0.0066417067467592
6019200,0.43006142006519,0.0071387767386661,0.002379592247115,0.0023795922459892,0.0023795922455619,-0.0005570626788736,0.0005570648951428,3.3025661015196e-10,1.8943808406421e-09,-1.255735480896e-08,1.5314098431776e-08,-0.0006270360101117,0.00062702853709118,-0.00062703548007859,0.00062702904787357,-0.00062702724941388,0.00062703771754469,-0.00062702673009096,0.0006270382416941,-0.00057189651234934,0.00057190641368872,-0.00057189499025943,0.00057190795645268,1.2552947610991e-08,-1.5284482212808e-08,-4.745513876451e-09,2.5408791699604e-09,-0.00055706488426667,0.00055706268898369,-0.00062703016138213,0.00062703475213732,-0.0006270278476027,0.00062703717497061,-0.00062703890584123,0.00062702557781019,-0.00062703659067701,0.00062702800193049,-0.00057191065413457,0.00057189209579578,-0.00057190358395008,0.0005718993504358,-0.00057188793679494,0.00057191533670376,-0.00057191518091269,0.00057188734543425,6.6039050731743e-10,-9.7097017782169e-10,-0.00055706394734131,0.00055706362565846,3.3782473703029e-09,-3.8339759571074e-09,-0.00062703105032583,0.00062703370151325,-0.0006270334195357,0.00062703129455523,-0.00062703161558949,0.00062703317742734,-0.00062703398267046,0.00062703077099342,-0.0005719035775275,0.0005718992650259,-0.00057190198734441,0.0005719008678526,0.70261524321923,131329,3014,0.0023184798975388,0.0023184798959422,0.0023184798954187,36.775509262507,5.4204074100056e-05,5.4204074100056e-05,5.4204074100056e-05,4107121.2095212,0.0069798948431147
6219200,0.45620444213779,0.0074897440833037,0.0024965813618299,0.0024965813609229,0.0024965813605509,-0.00058328049012348,0.0005832827092364,2.8352778968535e-10,1.9434420457972e-09,-1.2547646496777e-08,1.5304891138611e-08,-0.00066013165064104,0.00066012415555308,-0.00066013108908699,0.00066012469834241,-0.0006601228939814,0.00066013332789366,-0.00066012234313263,0.00066013388351191,-0.00059801754516033,0.00059802734924763,-0.00059801592863338,0.00059802898405779,1.2538503855235e-08,-1.5271688113909e-08,-4.6923252882429e-09,2.484400959809e-09,-0.00058328269889486,0.0005832804999161,-0.0006601257772942,0.00066013039216932,-0.00066012349826523,0.00066013277788564,-0.00066013451584799,0.00066012122800494,-0.00066013223606372,0.00066012361510507,-0.00059803158423681,0.00059801313909483,-0.00059802461924384,0.00059802028329307,-0.00059800895224614,0.00059803628600094,-0.00059803617456087,0.00059800832597661,7.0952020229191e-10,-1.0126039072045e-09,-0.00058328175640498,0.00058328144220855,3.3282784727743e-09,-3.7749360646621e-09,-0.00066012667842145,0.00066012933070367,-0.00066012901095057,0.0006601269598516,-0.0006601272739149,0.00066012877602456,-0.00066012960509939,0.0006601264059458,-0.00059802458580602,0.00059802022821412,-0.00059802290403747,0.0005980219183929,0.70745492866036,131329,3014,0.002427475118091,0.0024274751169472,0.0024274751165346,36.758739103449,5.406991282759e-05,5.406991282759e-05,5.406991282759e-05,4218505.2151214,0.0073092544301819
6419200,0.48169869678013,0.0078278338802954,0.0026092779607628,0.0026092779599406,0.0026092779595921,-0.00060847465270004,0.00060847687274217,2.3640159206422e-10,1.9904660382465e-09,-1.2507820877717e-08,1.5265721280694e-08,-0.00069226132617741,0.00069225382689003,-0.00069226073328183,0.00069225440100372,-0.00069225259424345,0.00069226297238755,-0.00069225201207482,0.00069226355916002,-0.00062303559066277,0.00062304527627981,-0.00062303388169536,0.00062304700281744,1.2497246321972e-08,-1.5231291491427e-08,-4.642106026903e-09,2.4341915978713e-09,-0.00060847686255206,0.00060847466239208,-0.00069225544756444,0.00069226006745124,-0.00069225320063813,0.00069226241930323,-0.00069226416071356,0.00069225093066261,-0.0006922619135133,0.00069225328418692,-0.00062304950745973,0.00062303118797293,-0.00062304264047208,0.00062303823275619,-0.00062302699551664,0.00062305421332003,-0.00062305413806177,0.0006230263355973,7.5882486562712e-10,-1.0556841174866e-09,-0.00060847591639781,0.00060847560836428,3.2819135962189e-09,-3.7214586966531e-09,-0.00069225634969299,0.00069225900555447,-0.00069225864820691,0.00069225666714338,-0.00069225697627226,0.00069225842028328,-0.00069225927409996,0.00069225608311253,-0.00062304259799256,0.00062303818923099,-0.00062304082256066,0.0006230399669007,0.7021089381711,131329,3014,0.0025322053770118,0.0025322053759738,0.0025322053755933,36.741576158046,5.393260926437e-05,5.393260926437e-05,5.393260926437e-05,4305927.3064392,0.0076258327078555
6619200,0.50692126777784,0.0081839313084013,0.0027279771034227,0.0027279771026552,0.0027279771023234,-0.00063510188624707,0.00063510410003078,1.8531501081245e-10,2.0334866333792e-09,-1.2375390265058e-08,1.5124114597328e-08,-0.00072588498691741,0.00072587754198842,-0.00072588436299469,0.0007258781478022,-0.00072587634433283,0.00072588659521206,-0.00072587573111173,0.00072588721349165,-0.00065025201501894,0.00065026150747641,-0.00065025020640952,0.00065026331905865,1.2360106376313e-08,-1.5091957445043e-08,-4.6069408540492e-09,2.4010275887477e-09,-0.00063510409172949,0.00063510189455176,-0.00072587916616054,0.00072588372179238,-0.0007258769410558,0.00072588605083867,-0.0007258877887099,0.00072587467745858,-0.00072588556368391,0.0007258770083818,-0.00065026575850746,0.00065024759611082,-0.00065025895160803,0.00065025456691967,-0.00065024347086415,0.00065027038942429,-0.00065027034625211,0.00065024279029392,8.0966630277964e-10,-1.0973575618033e-09,-0.00063510314365169,0.00063510284258371,3.2529233973643e-09,-3.6826871959635e-09,-0.00072588003007012,0.00072588269909379,-0.00072588230497922,0.00072588038216411,-0.00072588068760189,0.0007258820831679,-0.00072588296234627,0.00072587976778902,-0.00065025895681301,0.00065025449266437,-0.00065025708518382,0.00065025635568399,0.74070667129884,131329,3014,0.0026428824465206,0.0026428824465252,0.0026428824464279,37.009366517983,5.6074932143866e-05,5.6074932143866e-05,5.6074932143866e-05,4402936.1841275,0.0079605040933107
6819200,0.53297222135729,0.0085831203276582,0.0028610401098324,0.002861040109073,0.0028610401087528,-0.00066588370394911,0.00066588589669008,1.2407315076806e-10,2.0687758093779e-09,-1.2072325246398e-08,1.4791198042818e-08,-0.00076394148023405,0.00076393419802288,-0.00076394082568369,0.00076393483819997,-0.00076393304601925,0.00076394303766608,-0.00076393240178574,0.00076394368899606,-0.00068271234340489,0.00068272149817074,-0.00068271041041535,0.00068272337436543,1.2037272315175e-08,-1.477104538546e-08,-4.6031243311255e-09,2.3950451697048e-09,-0.00066588589645301,0.0006658837060878,-0.00076393583466089,0.00076394019531796,-0.00076393361326187,0.00076394252197115,-0.00076394424348497,0.00076393136489499,-0.00076394202309917,0.00076393369358167,-0.00068272582129019,0.00068270786484854,-0.00068271899713039,0.00068271479912159,-0.00068270395605283,0.00068273021361681,-0.00068273021606034,0.00068270326728088,8.655327665387e-10,-1.1324940475254e-09,-0.00066588494653648,0.00066588465649987,3.2582112271629e-09,-3.6680110778235e-09,-0.00076393658720246,0.00076393928632312,-0.00076393885685989,0.00076393697032715,-0.00076393727394933,0.00076393863983368,-0.00076393954423084,0.00076393632501934,-0.00068271915410069,0.00068271463789806,-0.00068271717806081,0.00068271657822729,0.79221451567911,131329,3014,0.0027708129419981,0.0027708129459453,0.0027708129469733,38.075667358122,6.4605338864974e-05,6.4605338864974e-05,6.4605338864974e-05,4560917.7623678,0.0083474937223939
7019200,0.55975051668264,0.0089572418582175,0.0029857472870081,0.0029857472858549,0.0029857472853544,-0.00069552785964358,0.00069553003212058,6.7754197391072e-11,2.1047564947221e-09,-1.1763173930523e-08,1.4458232851029e-08,-0.00080142634635518,0.00080141922620767,-0.00080142566183484,0.00080141989754548,-0.0008014181223414,0.00080142785043256,-0.00080141744772059,0.00080142853305825,-0.00071294075795295,0.00071294958800335,-0.00071293873750503,0.00071295155837964,1.1731084100629e-08,-1.4440440858755e-08,-4.5925977169267e-09,2.4049808644199e-09,-0.00069553003103785,0.00069552786146421,-0.00080142087539082,0.00080142504443404,-0.00080141865363075,0.00080142737112118,-0.00080142907515685,0.00080141642683364,-0.00080142685420806,0.00080141875581329,-0.00071295395606944,0.00071293623454757,-0.0007129471347072,0.00071294317089147,-0.00071293250740285,0.00071295816250986,-0.00071295814177982,0.0007129318454246,9.1405181640326e-10,-1.1791710539278e-09,-0.00069552909043534,0.00069552880221082,3.2591455529141e-09,-3.6664098191085e-09,-0.00080142151628798,0.00080142424920116,-0.00080142378523736,0.00080142193257189,-0.00080142223506531,0.00080142357068096,-0.00080142450431895,0.00080142125567331,-0.0007129474512669,0.00071294284243588,-0.00071294538265095,0.0007129448749105,0.73335807818525,131329,3014,0.0028940032886443,0.0028940032901563,0.0028940032904495,39.159954329565,7.3279634636519e-05,7.3279634636519e-05,7.3279634636519e-05,4604797.4864478,0.0087202874167343
7219200,0.58710465977247,0.0093222780935991,0.0031074260324548,0.003107426030873,0.0031074260302712,-0.00072471069838918,0.00072471285048408,1.1056031216424e-11,2.1421830833067e-09,-1.1471234488984e-08,1.4143244578528e-08,-0.00083859783324308,0.00083859086208401,-0.00083859711745984,0.00083859156493016,-0.00083858980810593,0.00083859928342561,-0.00083858910218227,0.00083859999741879,-0.00074220193019354,0.00074221044871062,-0.00074219982489663,0.00074221251818293,1.1441724886668e-08,-1.4121906850803e-08,-4.5826847573623e-09,2.4199201301824e-09,-0.00072471284742483,0.00072471070127121,-0.00083859252628958,0.00083859651318357,-0.00083859030202784,0.00083859884144954,-0.00083860052678332,0.00083858809872343,-0.00083859830350479,0.00083859042932804,-0.00074221485876433,0.00074219736364184,-0.00074220803872206,0.0007422043103865,-0.0007421938057728,0.0007422188964489,-0.00074221884182708,0.0007421931769898,9.5983972696697e-10,-1.2267520192444e-09,-0.00072471191840188,0.00072471163019543,3.2611600123737e-09,-3.6695042538992e-09,-0.00083859305977706,0.00083859582711662,-0.00083859533041938,0.00083859350844026,-0.00083859380961872,0.00083859511740371,-0.0008385960807846,0.00083859280051194,-0.00074220851490183,0.00074220380733669,-0.00074220635786696,0.00074220593408141,0.70718848795783,131329,3014,0.0030152644716012,0.0030152644712063,0.0030152644709938,40.244871169135,8.1958969353082e-05,8.1958969353082e-05,8.1958969353082e-05,4655429.453139,0.0090873790742588
7419200,0.61403537281624,0.0096666632210584,0.0032222210750819,0.0032222210733112,0.0032222210726653,-0.00075143304522405,0.00075143518641958,-4.217106129126e-11,2.1887013341178e-09,-1.1330192064616e-08,1.3993739446101e-08,-0.00087315307134498,0.00087314614812783,-0.00087315232094723,0.00087314688373191,-0.00087314514115976,0.00087315447436415,-0.00087314440158057,0.00087315522020061,-0.00076861328277869,0.00076862160659961,-0.00076861110485314,0.00076862379503512,1.1303365863361e-08,-1.3949417806185e-08,-4.5607198578981e-09,2.4276896145729e-09,-0.00075143517696415,0.00075143305290427,-0.00087314783114245,0.00087315173469596,-0.00087314560948212,0.00087315405779024,-0.00087315573066148,0.00087314342446018,-0.00087315351113783,0.00087314574907286,-0.00076862602923911,0.00076860869450827,-0.00076861924605276,0.00076861564557223,-0.00076860519360762,0.00076863002351554,-0.00076862991513834,0.00076860459694875,9.9753011525736e-10,-1.2770663137654e-09,-0.00075143426100862,0.00075143396830603,3.2483626429569e-09,-3.6677374849463e-09,-0.00087314831016623,0.00087315110319693,-0.00087315057681943,0.00087314879069224,-0.00087314908909851,0.00087315036463185,-0.00087315135739949,0.00087314805332583,-0.00076861981389812,0.00076861500055487,-0.000768617580641,0.00076861722476903,0.68501444365168,131329,3014,0.0031262919623347,0.0031262919586192,0.0031262919574611,40.771895764325,8.61751661146e-05,8.61751661146e-05,8.61751661146e-05,4676118.3595996,0.0094236115413142
7619200,0.63980033711473,0.0099874051357934,0.0033291350459929,0.003329135045096,0.0033291350447045,-0.00077555483530419,0.00077555696793035,-9.1037242462969e-11,2.2298330592777e-09,-1.130648229458e-08,1.3960557348468e-08,-0.00090476141021338,0.00090475446637284,-0.00090476062955434,0.00090475523137145,-0.00090475349718043,0.00090476277447332,-0.00090475272655115,0.00090476355041691,-0.00079224251376333,0.00079225072183327,-0.00079224024643936,0.00079225299967964,1.128738493734e-08,-1.3922263626366e-08,-4.5431712677736e-09,2.4193234539435e-09,-0.00077555695913877,0.00077555484331602,-0.00090475615802351,0.00090476006459044,-0.00090475394418036,0.00090476237810856,-0.00090476404576806,0.00090475176849352,-0.00090476183354473,0.00090475408451441,-0.00079225517952453,0.00079223789175409,-0.00079224842017089,0.00079224481817915,-0.00079223438747167,0.00079225917480948,-0.0007922590657522,0.00079223379430681,1.0467820731439e-09,-1.32559685822e-09,-0.00077555604647506,0.00077555575571301,3.2363023903305e-09,-3.6542834895154e-09,-0.00090475662556455,0.00090475944481898,-0.00090475888464608,0.00090475714071581,-0.00090475743715541,0.00090475867338496,-0.00090475969751356,0.00090475637161588,-0.00079224902985833,0.00079224413161939,-0.00079224670244684,0.00079224645048929,0.67223241532055,131329,3014,0.0032265070311011,0.0032265070294717,0.0032265070289153,40.851933036378,8.6815464291021e-05,8.6815464291021e-05,8.6815464291021e-05,4680229.668927,0.0097272014368596
7819200,0.6643649973802,0.010289288782966,0.0034297629278751,0.0034297629276401,0.003429762927451,-0.00079824695232151,0.00079824907868077,-1.4187567917774e-10,2.2736693330508e-09,-1.1304984656832e-08,1.3951008561206e-08,-0.00093475679427438,0.00093474981615315,-0.00093475598199902,0.00093475061276275,-0.00093474888258402,0.00093475812101804,-0.00093474808050025,0.00093475892830738,-0.00081435782424936,0.00081436592845964,-0.00081435545826615,0.00081436829272316,1.1281717912474e-08,-1.3914562868954e-08,-4.5329841190501e-09,2.4108198541048e-09,-0.00079824907169621,0.00079824695940159,-0.00093475152032305,0.00093475543426815,-0.00093474931192451,0.00093475774157627,-0.00093475940599733,0.00093474714225936,-0.00093475719950177,0.00093474945194964,-0.00081437042935489,0.00081435316294115,-0.00081436368241352,0.00081436006499513,-0.00081434965565358,0.0008143744213732,-0.00081437432441046,0.00081434905882834,1.095875693691e-09,-1.3695894758052e-09,-0.00079824815926961,0.00079824787182254,3.2296345065739e-09,-3.6424884574632e-09,-0.00093475197849358,0.00093475482452896,-0.00093475423139894,0.00093475252656955,-0.00093475282092884,0.00093475402204024,-0.00093475507548959,0.00093475172631817,-0.00081436432989003,0.00081435935412959,-0.00081436190845697,0.00081436176228247,0.66655084027613,131329,3014,0.0033207763894226,0.0033207763896147,0.0033207763896016,40.921755498943,8.7374043991543e-05,8.7374043991543e-05,8.7374043991543e-05,4675565.7946489,0.010012867325258
8019200,0.68772038556005,0.010573093088429,0.003524364362858,0.0035243643628454,0.0035243643627258,-0.00081960584894891,0.00081960797148614,-1.9085811694495e-10,2.318687564863e-09,-1.1308482023813e-08,1.3949801259471e-08,-0.00096322151996395,0.0009632145054423,-0.00096322067636796,0.00096321533341247,-0.0009632136056784,0.00096322281138365,-0.00096321277222314,0.00096322364997043,-0.00083508700934995,0.0008350950183618,-0.00083508454991423,0.00083509747323548,1.1284500002754e-08,-1.3913936528987e-08,-4.5247733335554e-09,2.4054659828621e-09,-0.00081960796487502,0.0008196058557839,-0.00096321622272105,0.00096322014559171,-0.00096321401823482,0.00096322244832718,-0.0009632241109999,0.0009632118526133,-0.00096322190843795,0.00096321415774993,-0.00083509956022594,0.00083508230839531,-0.00083509282503517,0.00083508919550298,-0.00083507879301255,0.00083510355792414,-0.0008351034645016,0.00083507819558806,1.1438714103077e-09,-1.4153187312784e-09,-0.00081960705311917,0.00081960676757409,3.2241844537016e-09,-3.6345266027512e-09,-0.00096321667139598,0.00096321954586557,-0.00096321891997188,0.0009632172523175,-0.0009632175449863,0.00096321871208468,-0.00096321979526469,0.00096321642078812,-0.00083509351026441,0.00083508845008021,-0.0008350909964057,0.00083509094951403,0.66097249657,131329,3014,0.0034095017375926,0.0034095017380485,0.0034095017381176,40.991218572276,8.7929748578207e-05,8.7929748578207e-05,8.7929748578207e-05,4672299.873739,0.010281810653718
8219200,0.7100099495589,0.010841140177652,0.0036137133925202,0.0036137133926096,0.0036137133925222,-0.00084001872582283,0.00084002084357724,-2.407231495142e-10,2.362648951461e-09,-1.1293290130974e-08,1.3927699205938e-08,-0.00099054461209103,0.00099053757438467,-0.00099054373753265,0.00099053843394411,-0.00099053670824142,0.00099054586791879,-0.00099053584370368,0.00099054673802759,-0.00085484822145374,0.00085485611862561,-0.00085484566206407,0.00085485865771369,1.1265532367048e-08,-1.3895979178871e-08,-4.5234789927088e-09,2.4030127774756e-09,-0.00084002083894772,0.0008400187312332,-0.00099053930576249,0.00099054322136628,-0.00099053710227231,0.00099054552303796,-0.00099054718339263,0.00099053494031242,-0.0009905449817745,0.00099053724441539,-0.00085486071322961,0.00085484347174107,-0.00085485397405319,0.00085485034795611,-0.00085483997032048,0.00085486468992852,-0.00085486460955079,0.00085483937011933,1.1936593189095e-09,-1.4594076018937e-09,-0.00084001992634969,0.00084001964403874,3.225131342216e-09,-3.6299032312715e-09,-0.00099053973543454,0.00099054264133585,-0.00099054198269145,0.00099054034876414,-0.00099054064009459,0.00099054177607398,-0.00099054288906323,0.00099053948576081,-0.00085485471033723,0.00085484956893897,-0.00085485210078661,0.00085485215695664,0.65549140024968,131329,3014,0.0034942921557025,0.0034942921573143,0.0034942921577428,41.181830804384,8.9454646435071e-05,8.9454646435071e-05,8.9454646435071e-05,4674905.5507317,0.010538896230983
8419200,0.73128401331138,0.011096232946169,0.0036987443154825,0.0036987443154115,0.0036987443152754,-0.00085953636101333,0.00085953847453894,-2.8988644949148e-10,2.4071766007013e-09,-1.1268696977337e-08,1.389765366125e-08,-0.0010167413827768,0.0010167343277432,-0.0010167404772479,0.001016735218724,-0.0010167334954161,0.001016742603028,-0.0010167325997512,0.0010167435045584,-0.00087372906703163,0.0008737368492114,-0.00087372641333388,0.00087373947773772,1.1240006057135e-08,-1.3867541495182e-08,-4.523729617522e-09,2.4056328999557e-09,-0.00085953847035709,0.0008595363659083,-0.0010167360743315,0.0010167399750857,-0.0010167338696514,0.0010167422778239,-0.0010167439355302,0.001016731711734,-0.0010167417326004,0.0010167340169526,-0.00087374149417142,0.0008737242686343,-0.00087373474951497,0.00087373114530536,-0.00087372078369022,0.00087374545141127,-0.00087374537112635,0.00087372018756227,1.2419040210964e-09,-1.5051595190569e-09,-0.00085953755857241,0.00085953727787989,3.2278334650357e-09,-3.6300327653143e-09,-0.0010167364802414,0.0010167394194853,-0.0010167387284103,0.0010167371256998,-0.0010167374161527,0.0010167385227531,-0.0010167396659568,0.0010167362312836,-0.00087373554409969,0.00087373031345528,-0.00087373284140471,0.00087373299238005,0.6538093547691,131329,3014,0.003575359319925,0.0035753593213908,0.0035753593217749,41.431258161529,9.1450065292231e-05,9.1450065292231e-05,9.1450065292231e-05,4679240.1857488,0.010784757066336
8619200,0.75152583331267,0.011338544180255,0.0037795147269884,0.00377951472673,0.0037795147265364,-0.00087805639118626,0.00087805849911305,-3.3961114381856e-10,2.4515928643738e-09,-1.1246713744321e-08,1.3869795388095e-08,-0.0010416524736853,0.0010416453975706,-0.0010416515367615,0.0010416463199226,-0.0010416446014348,0.0010416536562104,-0.0010416436743786,0.0010416545889993,-0.00089164924295216,0.00089165691232238,-0.00089164650052758,0.00089165963603347,1.1219083714046e-08,-1.3837951221549e-08,-4.5231817407832e-09,2.4128672895416e-09,-0.00087805849420282,0.00087805639643888,-0.0010416471605407,0.0010416510483562,-0.0010416449531687,0.0010416533533245,-0.0010416550065412,0.0010416428019768,-0.0010416528009223,0.0010416451093059,-0.00089166160332245,0.00089164439783567,-0.00089165485504005,0.00089165128346732,-0.00089164092146962,0.00089166555232891,-0.00089166545841506,0.00089164033780416,1.2884171050066e-09,-1.5521659181319e-09,-0.00087805758548527,0.00087805730522209,3.2311252937961e-09,-3.6334866471388e-09,-0.001041647543064,0.0010416505167669,-0.0010416497934584,0.0010416482205723,-0.0010416485103285,0.0010416495890382,-0.0010416507623677,0.0010416472950672,-0.00089165571055883,0.00089165038370661,-0.00089165291748941,0.00089165315545765,0.6526087575696,131329,3014,0.0036522785718916,0.003652278572586,0.0036522785727179,41.682043580708,9.3456348645666e-05,9.3456348645666e-05,9.3456348645666e-05,4684441.2183579,0.011018096246296
8819200,0.7707254470229,0.011558386045099,0.0038527953486393,0.0038527953483331,0.0038527953481261,-0.00089508527120729,0.00089508737321898,-3.8945570186623e-10,2.4956949176157e-09,-1.1226307046408e-08,1.3842980572269e-08,-0.0010648212807109,0.0010648141826622,-0.0010648203124914,0.0010648151363244,-0.0010648134226328,0.0010648224254804,-0.0010648124642261,0.0010648233895237,-0.00090783976604216,0.0009078473225463,-0.0009078369327312,0.00090785013918986,1.1198980111918e-08,-1.3810635165346e-08,-4.5250025946169e-09,2.4211840314947e-09,-0.00089508736816272,0.00089508527653708,-0.0010648159623972,0.0010648198371538,-0.0010648137512788,0.0010648221454847,-0.0010648237942793,0.001064811606727,-0.0010648215848622,0.0010648139173631,-0.00090785206377564,0.0009078348712061,-0.00090784530634418,0.00090784176731586,-0.00090783140574953,0.00090785600064263,-0.00090785589635454,0.00090783083381592,1.335435480451e-09,-1.5988251992523e-09,-0.0008950864621459,0.00089508618260006,3.2364944447281e-09,-3.6382830138778e-09,-0.0010648163209819,0.0010648193301866,-0.0010648185747453,0.0010648170304368,-0.0010648173196327,0.0010648183713623,-0.0010648195750091,0.0010648160738076,-0.00090784622484897,0.00090784080259664,-0.00090784334029247,0.0009078436663747,0.62941993030579,131329,3014,0.0037230012824345,0.0037230012829874,0.0037230012830792,41.932876913793,9.5463015310344e-05,9.5463015310344e-05,9.5463015310344e-05,4690652.7925188,0.011232686919607
9019200,0.78847839049816,0.011761815846072,0.0039206052822982,0.0039206052819906,0.003920605281783,-0.0009100123434424,0.00091001444181969,-4.3732984296173e-10,2.5422352458995e-09,-1.1288278766273e-08,1.3904166916951e-08,-0.0010854646239826,0.0010854574476358,-0.0010854636236998,0.0010854584322756,-0.0010854567242241,0.0010854657316026,-0.0010854557339165,0.0010854667264305,-0.00092199665614681,0.00092200416467582,-0.00092199374773802,0.00092200708945547,1.1268113806742e-08,-1.3863063131035e-08,-4.5240839426209e-09,2.4355058308351e-09,-0.00091001443298101,0.00091001235136436,-0.0010854592460278,0.0010854631622685,-0.0010854570295136,0.0010854654746663,-0.0010854671199519,0.0010854548922991,-0.0010854649052778,0.001085457206731,-0.00092200894153564,0.00092199172005669,-0.00092200218621649,0.00092199864256663,-0.00092198819729572,0.00092201294537938,-0.00092201280042345,0.00092198765055083,1.3780477131765e-09,-1.6494074569697e-09,-0.0009100135331154,0.00091001325088246,3.2398912793836e-09,-3.6484269828983e-09,-0.0010854596071915,0.0010854626530271,-0.0010854618656281,0.0010854603488,-0.0010854606376721,0.0010854616639432,-0.0010854628977905,0.0010854593617239,-0.00092200314102445,0.00092199760646513,-0.00092200017222294,0.00092200056824134,0.62977530457682,131329,3014,0.0037849940875628,0.0037849940856443,0.0037849940849188,41.749759619171,9.399807695337e-05,9.399807695337e-05,9.399807695337e-05,4688392.5720902,0.011420830794268
9219200,0.80477760254574,0.011946219738972,0.0039820732463179,0.0039820732463721,0.0039820732462818,-0.00092331121761096,0.00092331331261683,-4.8594273695942e-10,2.5871376950428e-09,-1.135976121121e-08,1.3972366345682e-08,-0.0011040419219038,0.0011040346643869,-0.0011040408903956,0.0011040356799441,-0.0011040339746826,0.0011040429948122,-0.0011040329529338,0.0011040440206943,-0.00093454442703056,0.0009345518863983,-0.00093454142402907,0.00093455490036737,1.1338618578631e-08,-1.3933059671565e-08,-4.531873166347e-09,2.444628999767e-09,-0.00092331330493799,0.00092331122495245,-0.0011040364810433,0.0011040404410388,-0.0011040342586162,0.0011040427589047,-0.001104044403068,0.001104032124277,-0.0011040421822341,0.0011040344442821,-0.00093455672140486,0.0009345394356168,-0.00093454994630387,0.00093454637267952,-0.00093453587230154,0.00093456076206641,-0.00093456061488243,0.00093453533221941,1.4261001793831e-09,-1.6953615636327e-09,-0.00092331240519666,0.00092331212452993,3.2492716648193e-09,-3.6558343152123e-09,-0.0011040368452455,0.001104039929152,-0.0011040391090692,0.0011040376188085,-0.0011040379075924,0.0011040389091002,-0.0011040401728686,0.0011040366008795,-0.00093455093628824,0.0009345453076685,-0.0009345478732676,0.00093454835912152,0.62300580650507,131329,3014,0.0038402239015536,0.0038402239008467,0.0038402239005053,41.45168588188,9.1613487055041e-05,9.1613487055041e-05,9.1613487055041e-05,4681984.6547432,0.011588482511017
9419200,0.8197319179329,0.012113291115237,0.0040377637048971,0.0040377637051786,0.0040377637051618,-0.00093530195956861,0.00093530405131204,-5.3493743020517e-10,2.6319970585318e-09,-1.1415614265055e-08,1.4024387941487e-08,-0.0011208655764675,0.0011208582487123,-0.0011208645137553,0.0011208592956051,-0.0011208575922356,0.0011208666149676,-0.0011208565392601,0.0011208676721396,-0.00094580724976564,0.00094581464763357,-0.00094580414901848,0.00094581774784228,1.1391802925251e-08,-1.3987626233605e-08,-4.5411426249655e-09,2.4535072876254e-09,-0.00093530404498645,0.0009353019660746,-0.0011208600835052,0.0011208640760635,-0.0011208578548675,0.001120866400098,-0.001120868042514,0.0011208557234897,-0.001120865815379,0.0011208580495613,-0.00094581954321963,0.00094580220023905,-0.00094581274539803,0.00094580914986544,-0.00094579861004301,0.00094582360556844,-0.00094582346155989,0.00094579807424906,1.4745937969364e-09,-1.7404924083281e-09,-0.00093530314499352,0.00093530286608112,3.2598509418943e-09,-3.6633537695864e-09,-0.0011208604452306,0.001120863567078,-0.0011208627147044,0.0011208612502515,-0.0011208615392194,0.0011208625162225,-0.0011208638100949,0.0011208602014257,-0.00094581377666485,0.00094580805653615,-0.00094581061853631,0.00094581119661621,0.61620824490711,131329,3014,0.0038900195675118,0.0038900195678793,0.0038900195679062,41.150900302878,8.9207202423025e-05,8.9207202423025e-05,8.9207202423025e-05,4676933.5663979,0.011739664254215
9619200,0.8334471476029,0.01226457112267,0.0040881903739933,0.0040881903743375,0.0040881903743394,-0.00094610761908273,0.00094610970759348,-5.8357973277504e-10,2.6771624567305e-09,-1.1453141721029e-08,1.4058777891809e-08,-0.0011360912740496,0.0011360838876822,-0.001136090180095,0.0011360849658361,-0.0011360832650037,0.0011360922777273,-0.0011360821807368,0.0011360933661391,-0.00095590953564533,0.00095591686195809,-0.0009559063414745,0.00095592005245598,1.1428509555006e-08,-1.4022742204022e-08,-4.5493876451042e-09,2.463848684377e-09,-0.00094610970166312,0.00094610762528798,-0.0011360857408489,0.0011360897542344,-0.0011360835058229,0.0011360920844987,-0.0011360937247234,0.0011360813778816,-0.0011360914911074,0.0011360837101217,-0.00095592181434061,0.00095590443042756,-0.00095591499686992,0.00095591139679424,-0.00095590082112544,0.00095592589369404,-0.00095592574420128,0.00095590029343537,1.5220740400064e-09,-1.7866477059331e-09,-0.00094610880251993,0.00094610852447155,3.2697443362903e-09,-3.6719970605692e-09,-0.0011360860941788,0.0011360892540312,-0.0011360883695337,0.0011360869306148,-0.001136087219796,0.0011360881723379,-0.0011360894964737,0.0011360858508944,-0.00095591607555096,0.00095591025960163,-0.00095591282432788,0.00095591349004579,0.60938041047122,131329,3014,0.0039348926791713,0.0039348926797327,0.0039348926798144,40.850018700208,8.6800149601666e-05,8.6800149601666e-05,8.6800149601666e-05,4673011.440244,0.011875921834187
9819200,0.84578639092388,0.012401622169489,0.0041338740562508,0.0041338740566153,0.0041338740566226,-0.00095508189857994,0.00095508398951323,-6.2678669974363e-10,2.7268983632445e-09,-1.1520637794953e-08,1.4134370479243e-08,-0.0011489978911039,0.0011489904253112,-0.001148996765608,0.0011489915333764,-0.0011489898350392,0.0011489988632618,-0.0011489887188479,0.0011489999821533,-0.00096428091326578,0.00096428820823839,-0.00096427765377949,0.00096429151534529,1.1510492142793e-08,-1.4087045633299e-08,-4.5536090714127e-09,2.4842729375889e-09,-0.00095508397720337,0.00095508190909192,-0.0011489922985792,0.0011489963536447,-0.0011489900546466,0.0011489986912369,-0.0011490003323351,0.0011489879292457,-0.0011489980893249,0.0011489902691815,-0.00096429319326919,0.00096427576590616,-0.00096428637426686,0.00096428277862816,-0.00096427209322865,0.00096429735366773,-0.00096429714671129,0.00096427159525261,1.5622284022006e-09,-1.8409880088153e-09,-0.00095508308478771,0.00095508280085726,3.2756345643184e-09,-3.690478431976e-09,-0.0011489926525773,0.0011489958525993,-0.0011489949369642,0.0011489935211453,-0.001148993810689,0.0011489947398389,-0.0011489960958059,0.0011489924108951,-0.00096428749081097,0.00096428154866952,-0.00096428415992977,0.00096428488159464,0.61213711703624,131329,3014,0.0039721612326332,0.0039721612288888,0.0039721612275357,40.183137933121,8.1465103464969e-05,8.1465103464969e-05,8.1465103464969e-05,4667436.3965933,0.011989105581371
10019200,0.85687925193995,0.012525919963165,0.004175306653871,0.004175306654586,0.0041753066547079,-0.00096295178677213,0.00096295387391774,-6.7703894368972e-10,2.7710745749856e-09,-1.1569708731046e-08,1.4177318102575e-08,-0.0011603558928283,0.0011603483626681,-0.0011603547359075,0.001160349502557,-0.0011603478051173,0.0011603568312409,-0.0011603466578195,0.0011603579815126,-0.00097166324401582,0.00097167046807986,-0.00097165987650672,0.0009716738519083,1.1550372682296e-08,-1.4136423037346e-08,-4.5695403771322e-09,2.4925603654755e-09,-0.00096295386606084,0.00096295179455782,-0.0011603502558374,0.0011603543336626,-0.0011603480037206,0.0011603566797433,-0.0011603583197319,0.0011603458794742,-0.001160356068853,0.0011603482274983,-0.00097167552653016,0.00097165802986924,-0.00097166867007809,0.00097166505246331,-0.00097165434827204,0.0009716796837529,-0.00097167949795333,0.00097165384711332,1.6130716640915e-09,-1.8831171283879e-09,-0.00096295297014195,0.00096295269040316,3.2916438263053e-09,-3.6987589882607e-09,-0.0011603506015877,0.0011603538411678,-0.0011603528933117,0.0011603515012703,-0.001160351790702,0.0011603526977946,-0.0011603540835401,0.0011603503599407,-0.00097166983448716,0.00097166380884251,-0.00097166640376014,0.00097166722602438,0.61574677668011,131329,3014,0.0040048431374724,0.0040048431373265,0.0040048431371754,39.478880425363,7.5831043402905e-05,7.5831043402905e-05,7.5831043402905e-05,4662878.3734352,0.01208837225395
10219200,0.86686522705987,0.012638963580664,0.0042129878596218,0.0042129878604431,0.0042129878605992,-0.00096990788769311,0.00096990997183891,-7.2575406618204e-10,2.8160731301342e-09,-1.1588157008552e-08,1.4192240749934e-08,-0.0011704202318039,0.0011704126564129,-0.001170419043728,0.0011704138276211,-0.0011704121322984,0.0011704211359141,-0.0011704109538082,0.0011704223174712,-0.00097823442955805,0.00097824156805471,-0.00097823096552719,0.00097824503911662,1.1566816776155e-08,-1.415349729473e-08,-4.5808036493107e-09,2.5038892347788e-09,-0.00096990996491836,0.00096990789484832,-0.0011704145685768,0.0011704186526596,-0.0011704123088802,0.0011704210063439,-0.001170422644206,0.0011704101873356,-0.0011704203857091,0.0011704125429416,-0.00097824668838509,0.0009782291557795,-0.00097823980557053,0.00097823619656625,-0.0009782254722089,0.00097825084362837,-0.00097825065710232,0.00097822497723855,1.6611327600933e-09,-1.9287130769924e-09,-0.00096990906925993,0.000969908790533,3.3039607179004e-09,-3.7089518232295e-09,-0.001170414898145,0.0011704181766712,-0.0011704171970421,0.0011704158288903,-0.0011704161187132,0.0011704170023091,-0.0011704184187128,0.0011704146565388,-0.00097824102650368,0.00097823490644,-0.00097823750130418,0.00097823841282455,0.62007023670343,131329,3014,0.0040337295833862,0.0040337295838694,0.0040337295839235,38.77367875974,7.0189430077917e-05,7.0189430077917e-05,7.0189430077917e-05,4659702.4060372,0.012176120063225
10419200,0.87588253617653,0.012742206902658,0.0042474023002633,0.0042474023011146,0.0042474023012799,-0.00097613726629836,0.00097613934548517,-7.7588346626328e-10,2.8602621883065e-09,-1.1573626218869e-08,1.4171330610372e-08,-0.0011794567288814,0.0011794491293623,-0.0011794555093661,0.0011794503322463,-0.0011794486401052,0.0011794575966788,-0.0011794474305565,0.0011794588096155,-0.00098417267767994,0.00098417970525378,-0.00098416911458265,0.00098418326130104,1.1546652870453e-08,-1.4134330657533e-08,-4.5909579273118e-09,2.5133537405592e-09,-0.00097613934051749,0.00097613727208905,-0.0011794510607233,0.0011794551288426,-0.0011794487943552,0.0011794574894364,-0.001179459123755,0.0011794466767117,-0.0011794568588389,0.0011794490388215,-0.00098418488854879,0.00098416734519674,-0.00098417797973025,0.00098417439884285,-0.00098416368303265,0.00098418901615838,-0.00098418883334298,0.00098416319308011,1.7098558250194e-09,-1.9730316965007e-09,-0.00097613844471689,0.00097613816808664,3.3156280526625e-09,-3.7166433162744e-09,-0.001179451363758,0.0011794546799403,-0.001179453668436,0.0011794523254356,-0.0011794526153033,0.0011794534747948,-0.00117945492142,0.0011794511219095,-0.00098417926748846,0.00098417305693811,-0.00098417564655592,0.00098417665127549,0.62506143615701,131329,3014,0.0040595976159361,0.0040595976176388,0.0040595976180464,38.0986787219,6.4789429775203e-05,6.4789429775203e-05,6.4789429775203e-05,4656711.4289665,0.012254706368172
10619200,0.88430292444265,0.01283662238913,0.0042788741291101,0.0042788741299306,0.0042788741300889,-0.00098288452884303,0.00098288659600612,-8.2916112731437e-10,2.8994582723636e-09,-1.1431960168876e-08,1.4013619065322e-08,-0.0011888753419607,0.0011888678011281,-0.0011888740924306,0.0011888690349032,-0.0011888673517172,0.0011888761677552,-0.0011888661111721,0.0011888774123535,-0.00099064004806798,0.00099064686661448,-0.00099063637962404,0.00099065050204309,1.1402915114782e-08,-1.3988252677168e-08,-4.5906401811051e-09,2.5151302624193e-09,-0.00098288659430468,0.00098288453230385,-0.0011888697449946,0.0011888737265748,-0.0011888674788482,0.0011888760875583,-0.0011888777126636,0.0011888653707066,-0.0011888754470711,0.0011888677341065,-0.00099065211224892,0.00099063465808115,-0.00099064518899043,0.00099064170310387,-0.00099063109275393,0.00099065613207501,-0.00099065596491092,0.00099063060462206,1.7612580094533e-09,-2.0166140775889e-09,-0.00098288570014005,0.00098288542700112,3.3202040614862e-09,-3.7142284713109e-09,-0.0011888699885174,0.0011888733380423,-0.0011888722937227,0.0011888709817871,-0.0011888712721013,0.0011888721009021,-0.0011888735779238,0.001188869747109,-0.00099064657771111,0.00099064028862372,-0.00099064285827633,0.00099064396852225,0.61395113373602,131329,3014,0.0040876134437667,0.004087613447411,0.0040876134485149,38.029324912801,6.4234599302412e-05,6.4234599302412e-05,6.4234599302412e-05,4658302.0230008,0.012339821580392
10819200,0.89216767004818,0.012923112783079,0.0043077042605288,0.0043077042612182,0.004307704261332,-0.00098911611804365,0.00098911817577788,-8.8015838388319e-10,2.9429057601903e-09,-1.1278608835301e-08,1.3851645227158e-08,-0.001197594753845,0.00119758727543,-0.001197593472337,0.00119758854061,-0.0011975868677736,0.0011975955369728,-0.0011975855957486,0.0011975968124978,-0.00099656512436507,0.0009965717415005,-0.00099656137620504,0.00099657547978472,1.1253064883165e-08,-1.3817659151652e-08,-4.5808342012547e-09,2.5234700106579e-09,-0.00098911817084573,0.00098911612353797,-0.0011975892355283,0.0011975931219397,-0.0011975869692232,0.0011975954824276,-0.0011975970975004,0.0011975848737072,-0.0011975948322301,0.0011975872360771,-0.00099657701898354,0.00099655969828302,-0.00099657010892139,0.00099656675105949,-0.00099655621325146,0.00099658096580352,-0.00099658076568834,0.00099655574635297,1.8047684284163e-09,-2.066080102024e-09,-0.00098911728496905,0.00098911700953755,3.3166374874426e-09,-3.7158779342592e-09,-0.0011975894163941,0.0011975927965925,-0.001197591720999,0.001197590441334,-0.0011975907310744,0.0011975915289593,-0.0011975930366787,0.0011975891756549,-0.00099657159999721,0.00099656520849039,-0.0009965677945735,0.00099656898523212,0.60386754773432,131329,3014,0.0041134874655449,0.0041134874666975,0.0041134874669486,37.973575535069,6.3788604280551e-05,6.3788604280551e-05,6.3788604280551e-05,4660031.257407,0.012418435659549
11019200,0.89951000590752,0.013002173800449,0.0043340579329996,0.004334057933671,0.0043340579337786,-0.00099483848647801,0.00099484053289101,-9.323950300895e-10,2.9844446597054e-09,-1.1128120204361e-08,1.3688697645095e-08,-0.0012056235925652,0.0012056161756926,-0.0012056222797261,0.0012056174720527,-0.00120561580985,0.0012056243325116,-0.0012056145064968,0.0012056256391977,-0.0010019590118376,0.0010019654227819,-0.0010019551741598,0.0010019692550088,1.1103482075829e-08,-1.3653587563022e-08,-4.5728492865142e-09,2.5279949590085e-09,-0.00099484052763565,0.00099483849218527,-0.0012056181503599,0.0012056219448167,-0.0012056158849964,0.0012056243041004,-0.0012056259090797,0.0012056138015122,-0.0012056236447537,0.0012056161626528,-0.0010019707424981,0.0010019535433644,-0.0010019638378559,0.0010019605945119,-0.001001950144886,0.0010019746029089,-0.0010019743888129,0.0010019496917856,1.8513135357599e-09,-2.1131823506415e-09,-0.00099483964752464,0.00099483937238549,3.3147310695941e-09,-3.7143222651515e-09,-0.0012056182701744,0.0012056216811606,-0.0012056205736063,0.0012056193269808,-0.0012056196162508,0.0012056203824695,-0.0012056219206826,0.001205618030236,-0.0010019654299389,0.0010019589461927,-0.0010019615338428,0.0010019628156369,0.59320720708506,131329,3014,0.0041372466494917,0.0041372466504199,0.0041372466506028,37.91830231012,6.3346418480961e-05,6.3346418480961e-05,6.3346418480961e-05,4661524.3484842,0.012490629210385
11219200,0.90635236123076,0.01307584277758,0.0043586142587051,0.0043586142593828,0.0043586142594922,-0.0010001094455019,0.0010001114811253,-9.8441888544349e-10,3.026182803575e-09,-1.0995406466351e-08,1.3543998352206e-08,-0.0012130059217681,0.0012129985549533,-0.0012130045776199,0.0012129998824904,-0.0012129982303676,0.0012130066190511,-0.0012129968956826,0.0012130079569039,-0.0010069278425838,0.0010069340596441,-0.0010069239149394,0.0010069379854675,1.0971628267626e-08,-1.3508054109342e-08,-4.5645562600461e-09,2.5315047691151e-09,-0.0010001114755251,0.0010001094514393,-0.0012130005439354,0.0012130042584646,-0.0012129982799659,0.001213006616091,-0.0012130082114892,0.001212996207979,-0.001213005948546,0.0012129985674556,-0.0010069394214377,0.001006922332061,-0.0010069325230879,0.0010069293800028,-0.0010069190087551,0.0010069432063595,-0.0010069429800183,0.0010069185683071,1.8979594899639e-09,-2.1601932529613e-09,-0.0010001106009377,0.0010001103260794,3.3122673994163e-09,-3.7120455078519e-09,-0.0012130006089414,0.0012130040502893,-0.0012130029107898,0.0012130016976208,-0.0012130019863674,0.0012130027204925,-0.0012130042892017,0.0012130003697834,-0.0010069342089894,0.0010069276338944,-0.0010069302220229,0.0010069315957738,0.59263237245523,131329,3014,0.0041591310396949,0.0041591310403871,0.0041591310404951,37.837466217265,6.2699729738116e-05,6.2699729738116e-05,6.2699729738116e-05,4662156.1473099,0.012557130219134
11419200,0.91268450504464,0.013144608781702,0.004381536260062,0.0043815362607621,0.0043815362608782,-0.0010047568456272,0.0010047588727805,-1.0349413713692e-09,3.06935189573e-09,-1.0902105765623e-08,1.3442169634474e-08,-0.0012195874254147,0.0012195800830325,-0.0012195860497908,0.0012195814416846,-0.0012195797980939,0.0012195880820637,-0.0012195784320681,0.0012195894508477,-0.0010113183197418,0.0010113243743793,-0.0010113143064649,0.0010113283972067,1.0880700960262e-08,-1.3402717395698e-08,-4.5572081383846e-09,2.5366431273614e-09,-0.0010047588658069,0.0010047568525009,-0.0012195820872578,0.0012195857462646,-0.0012195798236386,0.0012195881030394,-0.001219589690579,0.0012195777616717,-0.0012195874281767,0.0012195801201469,-0.001011329774929,0.0010113127687248,-0.0010113228842034,0.0010113198189648,-0.0010113094931045,0.0010113335148811,-0.0010113332695092,0.0010113090672564,1.9434549416973e-09,-2.2084344052566e-09,-0.0010047579969322,0.0010047577212873,3.3098388943408e-09,-3.7118957540003e-09,-0.0012195821093037,0.0012195855815778,-0.0012195844103728,0.0012195832298914,-0.0012195835180821,0.0012195842207696,-0.0012195858202811,0.0012195818709097,-0.0010113246511338,0.0010113179794413,-0.0010113205749758,0.0010113220359338,0.59626239114306,131329,3014,0.0041784268448011,0.0041784268445867,0.004178426844402,37.63022322905,6.1041785832398e-05,6.1041785832398e-05,6.1041785832398e-05,4661426.6458574,0.012615770183507
11619200,0.91854475114908,0.013208644039542,0.0044028813459663,0.0044028813467216,0.0044028813468543,-0.0010090272636442,0.0010090292825277,-1.0863063338813e-09,3.1117800709901e-09,-1.0831382764456e-08,1.336111774823e-08,-0.0012256474264517,0.0012256400956414,-0.0012256460197336,0.0012256414856091,-0.0012256398485424,0.0012256480437813,-0.0012256384513086,0.0012256494439664,-0.0010153754893652,0.0010153813914285,-0.0010153713784677,0.0010153855009439,1.0807511865268e-08,-1.332482444728e-08,-4.5532532977124e-09,2.5367209270529e-09,-0.0010090292770737,0.0010090272695394,-0.0012256421139798,0.0012256457314498,-0.0012256398517009,0.0012256480870148,-0.0012256496680201,0.00122563779725,-0.0012256474068036,0.0012256401545772,-0.0010153868422102,0.0010153698909493,-0.0010153799500466,0.0010153769328604,-0.0010153666602357,0.0010153905319474,-0.0010153902913893,0.0010153662375971,1.9920614240086e-09,-2.2534458601287e-09,-0.0010090284102019,0.0010090281365003,3.309698316003e-09,-3.7084591427511e-09,-0.0012256421002172,0.001225645603188,-0.0012256443999401,0.0012256432524759,-0.0012256435402563,0.0012256442111353,-0.0012256458410072,0.0012256418623151,-0.0010153817890103,0.0010153750331782,-0.0010153776184429,0.0010153791785764,0.59873360091561,131329,3014,0.0041961574522804,0.0041961574531925,0.0041961574533774,37.420135982057,5.9361087856458e-05,5.9361087856458e-05,5.9361087856458e-05,4660396.5749155,0.012669657503225
11819200,0.92396958918837,0.013268407208411,0.0044228024022423,0.0044228024030153,0.0044228024031532,-0.0010129595244774,0.0010129615367994,-1.1364728443877e-09,3.1553589784785e-09,-1.0780976343573e-08,1.3303163280493e-08,-0.0012312364648919,0.0012312291322189,-0.001231235026951,0.0012312305534707,-0.0012312289220825,0.0012312370440777,-0.0012312274936105,0.0012312384755213,-0.0010191352806084,0.0010191410481004,-0.0010191310769806,0.0010191452485051,1.0756654862465e-08,-1.3267283572447e-08,-4.5478610251756e-09,2.5371551776484e-09,-0.0010129615315146,0.0010129595302378,-0.0012312311648442,0.001231234754434,-0.0012312289041108,0.0012312371083687,-0.0012312386837601,0.001231226856534,-0.0012312364240778,0.0012312292122099,-0.0010191465434896,0.0010191296384165,-0.001019139655331,0.0010191366746341,-0.0010191264351294,0.0010191502039965,-0.0010191499607114,0.0010191260177937,2.0393737010627e-09,-2.2997892135182e-09,-0.0010129606674459,0.0010129603944044,3.3077196334945e-09,-3.7055062374898e-09,-0.0012312311223713,0.0012312346554089,-0.0012312334203698,0.001231232306244,-0.0012312325937101,0.0012312332322256,-0.001231234892732,0.0012312308849364,-0.0010191415577976,0.0010191347133204,-0.0010191372949075,0.001019138949856,0.60218093247216,131329,3014,0.004212483958663,0.0042124839596451,0.0042124839598475,37.209949180296,5.7679593442364e-05,5.7679593442364e-05,5.7679593442364e-05,4659274.3546375,0.012719280680947
12019200,0.92900022788155,0.013325829448134,0.0044419431488093,0.004441943149592,0.0044419431497326,-0.0010167142956687,0.0010167163021965,-1.1864101909242e-09,3.199093248809e-09,-1.0750045636367e-08,1.3265225398146e-08,-0.0012365178012751,0.0012365104546914,-0.0012365163321847,0.0012365119072652,-0.0012365102804628,0.0012365183434053,-0.0012365088208418,0.0012365198061108,-0.001022798910768,0.0010228045568781,-0.0010227946123032,0.0010228088459624,1.0723971209342e-08,-1.3230695375869e-08,-4.5426631945462e-09,2.5353938679931e-09,-0.0010167162976972,0.0010167143008957,-0.0012365125012823,0.001236516075581,-0.0012365102428119,0.0012365184272742,-0.0012365199979313,0.0012365082008407,-0.0012365177405154,0.0012365105542297,-0.0010228100980551,0.0010227932245737,-0.0010228032138763,0.0010228002512146,-0.0010227900385195,0.0010228137381164,-0.0010228134979664,0.0010227896227615,2.0873960274842e-09,-2.3454860480112e-09,-0.0010167154352251,0.0010167151635458,3.3052761146277e-09,-3.7008468671833e-09,-0.0012365124366508,0.001236515999183,-0.0012365147321063,0.0012365136522382,-0.001236513939253,0.0012365145448207,-0.0012365162357612,0.0012365121997004,-0.0010228051715435,0.0010227982413818,-0.0010228008151221,0.0010228025681832,0.61929851286638,131329,3014,0.00422807319592,0.0042280731974254,0.0042280731977941,37.027632550294,5.6221060402356e-05,5.6221060402356e-05,5.6221060402356e-05,4657683.251336,0.012766665635702
12219200,0.9336833878611,0.013381295381545,0.00446043179328,0.0044604317940626,0.0044604317942029,-0.0010203932403972,0.0010203952422954,-1.2358276230497e-09,3.243596542058e-09,-1.0732662903398e-08,1.3242325550986e-08,-0.0012416453378768,0.0012416379688512,-0.0012416438375842,0.001241639452796,-0.001241637829695,0.0012416458439762,-0.0012416363387745,0.0012416473380642,-0.0010264706385796,0.0010264761739258,-0.0010264662459796,0.0010264805531055,1.0705891203447e-08,-1.3209259301944e-08,-4.535841904164e-09,2.5315884180233e-09,-0.0010203952382978,0.001020393245259,-0.0012416400287205,0.0012416435978731,-0.001241637773757,0.0012416459460385,-0.0012416475129512,0.0012416357363649,-0.0012416452589831,0.0012416380862826,-0.0010264817583303,0.0010264649102719,-0.0010264748826548,0.0010264719247387,-0.001026461730882,0.001026485389496,-0.0010264851527848,0.001026461315034,2.1350426268251e-09,-2.3913084742558e-09,-0.001020394377158,0.0010203941066248,3.3010952143366e-09,-3.6948907702703e-09,-0.0012416399474765,0.0012416435384839,-0.0012416422394458,0.0012416411947487,-0.0012416414813195,0.001241642053017,-0.0012416437742876,0.0012416397111506,-0.0010264768875435,0.0010264698720933,-0.0010264724385436,0.0010264742893128,0.63789982010616,131329,3014,0.0042433475905997,0.0042433475923873,0.0042433475928552,36.914087460404,5.5312699683228e-05,5.5312699683228e-05,5.5312699683228e-05,4655687.6593433,0.012813097393724
12419200,0.9380434940336,0.013431038705231,0.0044770129011813,0.0044770129019563,0.0044770129020937,-0.0010236954986514,0.0010236974972604,-1.2839830709633e-09,3.2890616406305e-09,-1.0731606040684e-08,1.3238311526435e-08,-0.0012463660803643,0.0012463586779505,-0.0012463645487715,0.0012463601930146,-0.0012463585733198,0.0012463665512988,-0.0012463570511336,0.0012463680764747,-0.0010297287106223,0.0010297341508233,-0.0010297242296047,0.0010297386246342,1.0706183188355e-08,-1.3203390627827e-08,-4.5277692217514e-09,2.5290443203584e-09,-0.0010236974924579,0.0010236955040213,-0.0012463607515887,0.0012463643261794,-0.0012463584999342,0.0012463666707378,-0.0012463682346796,0.0012463564667882,-0.0012463659840485,0.0012463588130466,-0.0010297397727171,0.0010297229440282,-0.0010297329102321,0.0010297299506625,-0.0010297197559924,0.0010297434138199,-0.0010297431712752,0.0010297193436593,2.1813921752605e-09,-2.4387167503185e-09,-0.0010236966335922,0.0010236963630127,3.295309167464e-09,-3.6898641961081e-09,-0.0012463606590454,0.0012463642783866,-0.0012463629473799,0.0012463619382182,-0.001246362224315,0.0012463627618468,-0.0012463645136642,0.0012463604235223,-0.0010297349562777,0.0010297278500421,-0.0010297304167847,0.0010297323603098,0.61826607379687,131329,3014,0.0042570589526759,0.0042570589538462,0.0042570589541055,36.802092618196,5.4416740945572e-05,5.4416740945572e-05,5.4416740945572e-05,4653606.3424295,0.012854782662565
12619200,0.94210299254728,0.013474568777789,0.0044915229253648,0.0044915229261431,0.0044915229262812,-0.0010266290229809,0.0010266310192028,-1.3319366474262e-09,3.3348117994945e-09,-1.0748502995435e-08,1.3252857204839e-08,-0.0012506058404491,0.0012505983937258,-0.0012506042776119,0.0012505999400036,-0.0012505983224452,0.0012506062774888,-0.0012505967690021,0.0012506078338549,-0.0010325313065586,0.0010325366635462,-0.0010325267344139,0.0010325412296964,1.0723319466423e-08,-1.3217646897712e-08,-4.5211415412358e-09,2.5250972259025e-09,-0.0010266310143325,0.0010266290283947,-0.0012506004810649,0.0012506040720963,-0.0012505982327966,0.001250606413106,-0.0012506079751551,0.0012505962023557,-0.0012506057279066,0.0012505985450486,-0.0010325423256793,0.00103252549984,-0.001032535474051,0.001032532496526,-0.0010325222950383,0.0010325459833848,-0.0010325457410872,0.001032521882509,2.2283799772272e-09,-2.4853861781289e-09,-0.0010266301564228,0.0010266298864223,3.2902734590808e-09,-3.6843647652443e-09,-0.0012506003826567,0.0012506040303993,-0.00125060266743,0.0012506016936714,-0.0012506019792326,0.0012506024827331,-0.001250604265019,0.001250600147841,-0.0010325375546057,0.0010325303601877,-0.0010325329236075,0.0010325349623636,0.5873120309233,131329,3014,0.0042692390097058,0.0042692390108277,0.0042692390110713,36.690152024845,5.3521216198758e-05,5.3521216198758e-05,5.3521216198758e-05,4652649.0199058,0.012891812665104
12819200,0.94584855209032,0.013515128656842,0.0045050428850443,0.004505042885829,0.0045050428859688,-0.0010290408690684,0.0010290428661151,-1.377185174703e-09,3.3826432088366e-09,-1.0799970085504e-08,1.3307733318588e-08,-0.0012541344804811,0.0012541269665573,-0.001254132886211,0.0012541285436838,-0.001254126927194,0.0012541348861415,-0.0012541253423969,0.00125413647306,-0.0010348066333583,0.0010348119403665,-0.0010348019820784,0.0010348166084533,1.0779805609203e-08,-1.3266178703126e-08,-4.515308144698e-09,2.5265668202505e-09,-0.0010290428585359,0.0010290408762811,-0.0012541290696687,0.0012541326975892,-0.0012541268223198,0.0012541350368035,-0.0012541365989494,0.0012541247931161,-0.0012541343529444,0.0012541271339284,-0.0010348176335574,0.00103480079088,-0.00103481079724,0.0010348077928685,-0.0010347975394625,0.0010348213463667,-0.0010348210828369,0.0010347971347724,2.2725616870357e-09,-2.5354541542042e-09,-0.0010290420033974,0.00102904173124,3.2849930181594e-09,-3.6841840359272e-09,-0.0012541289745945,0.0012541326524042,-0.001254131257831,0.0012541303177408,-0.0012541306025842,0.0012541310735253,-0.001254132887027,0.0012541287405925,-0.0010348129029008,0.0010348056064651,-0.0010348081853285,0.0010348103064783,0.59134554440137,131329,3014,0.004279252730051,0.0042792527292846,0.0042792527289112,36.406427427147,5.1251419417175e-05,5.1251419417175e-05,5.1251419417175e-05,4650899.5899885,0.012922255680043
13019200,0.94926113031833,0.013552247569724,0.0045174158559782,0.0045174158567984,0.0045174158569477,-0.0010307366285633,0.0010307386271144,-1.4241152358747e-09,3.4308831209051e-09,-1.0890262550484e-08,1.3399922117048e-08,-0.0012568328423268,0.0012568252375938,-0.0012568312165075,0.0012568268462576,-0.0012568252280978,0.0012568332178696,-0.0012568236115473,0.0012568348366806,-0.0010363770183064,0.0010363822933793,-0.0010363722712494,0.0010363870531324,1.0870470805628e-08,-1.3360621685543e-08,-4.5177726492561e-09,2.5260732359715e-09,-0.0010307386202087,0.001030736635419,-0.0012568273562279,0.0012568310434975,-0.0012568251083039,0.0012568333833514,-0.0012568349476127,0.0012568230773376,-0.0012568327006566,0.0012568254189707,-0.0010363880373862,0.0010363711264159,-0.0010363811965958,0.0010363781286474,-0.0010363678198271,0.0010363918037764,-0.0010363915457187,0.0010363674121943,2.3192849857886e-09,-2.5808903947171e-09,-0.0010307377634005,0.0010307374921456,3.287849196111e-09,-3.685830785679e-09,-0.0012568272744865,0.0012568309850353,-0.001256829559217,0.001256828648659,-0.0012568289335798,0.0012568293754872,-0.0012568312192125,0.001256827041093,-0.0010363833174957,0.001036375932304,-0.0010363785086787,0.0010363807207032,0.59302697549902,131329,3014,0.0042862947567842,0.0042862947566801,0.004286294756512,35.873310662564,4.6986485300508e-05,4.6986485300508e-05,4.6986485300508e-05,4645696.1982782,0.012943667642355
13219200,0.95237396447107,0.013586290338758,0.0045287634456351,0.0045287634464824,0.0045287634466403,-0.0010321910223945,0.0010321930228073,-1.4698844465097e-09,3.4779057606605e-09,-1.0977964535425e-08,1.3489292664339e-08,-0.0012591966013115,0.0012591889088221,-0.0012591949446049,0.0012591905485633,-0.001259188927823,0.0012591969481334,-0.0012591872804947,0.0012591985978942,-0.0010377269575796,0.0010377322010996,-0.0010377221152244,0.0010377370471099,1.0955094280496e-08,-1.345150127763e-08,-4.5224577205577e-09,2.5256724537738e-09,-0.0010321930169898,0.0010321910285641,-0.0012591910437531,0.0012591947857784,-0.0012591887943708,0.0012591971272125,-0.0012591986936421,0.0012591867610153,-0.0012591964453138,0.0012591891040901,-0.0010377379968821,0.0010377210158572,-0.0010377311477752,0.0010377280182986,-0.0010377176600218,0.0010377418088643,-0.0010377415609321,0.0010377172475162,2.3679474586541e-09,-2.6267582078692e-09,-0.001032192157801,0.0010321918878126,3.2905230234715e-09,-3.6859936326012e-09,-0.0012591909730803,0.0012591947162446,-0.0012591932585195,0.0012591923788372,-0.0012591926636437,0.0012591930752863,-0.001259194950092,0.0012591907396982,-0.0010377332874102,0.0010377258131272,-0.0010377283833811,0.0010377306923188,0.59512404490592,131329,3014,0.0042923348392469,0.0042923348399774,0.0042923348401024,35.334555052022,4.2676440416174e-05,4.2676440416174e-05,4.2676440416174e-05,4640231.7653915,0.012962034403233
13419200,0.95521754817254,0.013616841234802,0.0045389470776385,0.0045389470785008,0.004538947078663,-0.0010334028777329,0.0010334048798118,-1.5161563104949e-09,3.5253967788425e-09,-1.1056776892967e-08,1.3569962506313e-08,-0.0012612454334603,0.0012612376583635,-0.0012612437455976,0.0012612393294527,-0.0012612377066858,0.0012612457507781,-0.0012612360281642,0.0012612474318762,-0.0010388318055858,0.0010388370109856,-0.0010388268687738,0.0010388419463495,1.1032778552977e-08,-1.3533475039035e-08,-4.5258131496726e-09,2.5256264050689e-09,-0.0010334048745523,0.0010334028835092,-0.0012612398093876,0.0012612436016316,-0.0012612375589383,0.0012612459442258,-0.0012612475125065,0.0012612355235523,-0.0012612452630844,0.001261237867797,-0.0010388428569508,0.001038825814613,-0.0010388360022607,0.0010388328181188,-0.0010388224125088,0.0010388467135158,-0.0010388464713525,0.0010388219966438,2.4154625767763e-09,-2.6727820225792e-09,-0.0010334040137345,0.0010334037444369,3.2929195815524e-09,-3.6870301864352e-09,-0.0012612397475972,0.0012612435232875,-0.001261242034024,0.0012612411845522,-0.0012612414693764,0.001261241851183,-0.0012612437568022,0.0012612395142696,-0.0010388381622103,0.001038830598035,-0.0010388331652019,0.0010388355674849,0.58608288425734,131329,3014,0.004297368218972,0.0042973682200428,0.0042973682202713,34.795602172176,3.8364817377407e-05,3.8364817377407e-05,3.8364817377407e-05,4634604.3572453,0.012977341437832
13619200,0.95783286054005,0.0136445500496,0.0045481833492324,0.0045481833501017,0.0045481833502657,-0.0010346046039389,0.0010346066051803,-1.5685251130462e-09,3.5758097119678e-09,-1.1104149565941e-08,1.3615630858e-08,-0.0012632009612458,0.0012631931208276,-0.0012631992397334,0.0012631948265047,-0.0012631932031955,0.0012632012442405,-0.0012631914903664,0.0012632029598191,-0.0010399248827798,0.0010399300138562,-0.0010399198380812,0.0010399350440999,1.1079775185396e-08,-1.3586473860697e-08,-4.5246403298171e-09,2.5193666692699e-09,-0.0010346066020612,0.0010346046081069,-0.0012631952869312,0.0012631991140141,-0.0012631930391048,0.0012632014540656,-0.001263203023046,0.0012631910020662,-0.001263200776328,0.0012631933444348,-0.0010399359153127,0.0010399188379559,-0.0010399290618764,0.0010399258288541,-0.0010399154090035,0.0010399397948675,-0.0010399395680131,0.0010399149828921,2.4596987437153e-09,-2.7130215506127e-09,-0.001034605738959,0.0010346054715216,3.2981671329051e-09,-3.6886075487772e-09,-0.0012631952271625,0.0012631990338293,-0.0012631975155758,0.0012631966923073,-0.0012631969769813,0.0012631973331473,-0.0012631992662781,0.0012631949938306,-0.0010399312425881,0.0010399236011236,-0.0010399261613748,0.0010399286511912,0.57889843993393,131329,3014,0.0043023588613479,0.0043023588635226,0.0043023588641721,34.355065693014,3.4840525544114e-05,3.4840525544114e-05,3.4840525544114e-05,4630609.399333,0.012992517217621
13819200,0.96025262763444,0.013670190566771,0.0045567301882978,0.0045567301891579,0.0045567301893157,-0.0010358250635418,0.0010358270648071,-1.6113661333413e-09,3.618884724644e-09,-1.1121746927089e-08,1.363356580807e-08,-0.0012651014987154,0.0012650936174619,-0.001265099748225,0.0012650953516906,-0.0012650937286245,0.0012651017526108,-0.0012650919872881,0.0012651034967161,-0.0010410456848438,0.0010410507449816,-0.0010410405574888,0.0010410558595565,1.1095290321279e-08,-1.3600494593632e-08,-4.5250803895142e-09,2.5213524379111e-09,-0.0010358270609435,0.0010358250682748,-0.0012650957987433,0.0012650996358819,-0.0012650935499386,0.0012651019768715,-0.0012651035451639,0.0012650915144376,-0.0012651012974637,0.0012650938572299,-0.0010410566869731,0.0010410395997664,-0.0010410498320308,0.0010410465936768,-0.0010410361591804,0.0010410605774693,-0.0010410603478969,0.0010410357366332,2.510307661677e-09,-2.7637911710475e-09,-0.00103582619842,0.0010358259310315,3.2933202118282e-09,-3.6838323493622e-09,-0.0012650957286388,0.0012650995659802,-0.0012650980138408,0.001265097227881,-0.0012650975124094,0.0012650978319323,-0.0012650997985648,0.0012650954956413,-0.0010410520581187,0.00104104431903,-0.0010410468764509,0.0010410494682333,0.5784214860084,131329,3014,0.004307426642919,0.004307426644718,0.0043074266452013,34.00297437343,3.202379498744e-05,3.202379498744e-05,3.202379498744e-05,4627745.4495579,0.013007926400848
14019200,0.96249375310498,0.013693950658285,0.0045646502188057,0.0045646502196615,0.0045646502198175,-0.0010369135236997,0.0010369155241012,-1.65852349004e-09,3.6656232050508e-09,-1.112353453395e-08,1.3635018466898e-08,-0.0012668146144864,0.0012668066996084,-0.0012668128325871,0.0012668084650627,-0.0012668068432641,0.0012668148357851,-0.001266805070501,0.0012668166111914,-0.0010420435718043,0.0010420485415015,-0.0010420383554575,0.0010420537512196,1.1098651380962e-08,-1.3600612037765e-08,-4.5216208328042e-09,2.5208452419016e-09,-0.0010369155195167,0.0010369135288937,-0.0012668088957857,0.0012668127367569,-0.0012668066482398,0.0012668150763081,-0.0012668166437049,0.0012668046143292,-0.0012668143971873,0.0012668069556828,-0.0010420545245288,0.0010420374447491,-0.0010420476762808,0.0010420444372385,-0.0010420339978023,0.0010420584236354,-0.0010420581885544,0.0010420335778939,2.5563390631552e-09,-2.8111445419639e-09,-0.00103691465812,0.0010369143904273,3.2909367605674e-09,-3.682539555062e-09,-0.001266808812493,0.0012668126801159,-0.0012668110966021,0.0012668103432158,-0.0012668106274886,0.0012668109150913,-0.0012668129124961,0.0012668085800613,-0.0010420499451359,0.0010420421134717,-0.0010420446735147,0.0010420473549666,0.57820997625705,131329,3014,0.004311946456925,0.0043119464581843,0.0043119464584676,33.652889716468,2.9223117731748e-05,2.9223117731748e-05,2.9223117731748e-05,4624712.0273554,0.013021669947036
14219200,0.9645713081387,0.013715076598632,0.0045716921989204,0.0045716921997775,0.0045716921999339,-0.0010378323013726,0.0010378343001529,-1.7057870755816e-09,3.7114226926138e-09,-1.1118397366534e-08,1.3628310401737e-08,-0.0012683169379268,0.0012683089942335,-0.0012683151249562,0.0012683107907071,-0.0012683091704528,0.0012683171264209,-0.001268307366658,0.0012683189327959,-0.0010428552921801,0.0010428601656647,-0.001042849985369,0.0010428654669821,1.1093398317226e-08,-1.3593466649645e-08,-4.5190801384552e-09,2.5200101541985e-09,-0.0010378342955949,0.0010378323065271,-0.0012683112054499,0.0012683150449406,-0.0012683089589307,0.0012683173833491,-0.0012683189494591,0.0012683069267364,-0.0012683167040081,0.0012683092668942,-0.0010428661920192,0.0010428491217969,-0.0010428593475707,0.0010428561113424,-0.0010428456755707,0.0010428700904354,-0.0010428698539839,0.0010428452566786,2.6035413908918e-09,-2.8581501219463e-09,-0.0010378334347782,0.0010378331674713,3.2889737571829e-09,-3.6802840215112e-09,-0.001268311106268,0.0012683150042797,-0.0012683133889547,0.0012683126687777,-0.0012683129526645,0.0012683132079273,-0.0012683152362928,0.0012683108742514,-0.0010428616627641,0.0010428537400071,-0.0010428562990831,0.001042859074055,0.55856306645652,131329,3014,0.0043157619955974,0.0043157619968309,0.0043157619970952,33.302875233581,2.6423001868649e-05,2.6423001868649e-05,2.6423001868649e-05,4621639.74875,0.013033272724794
14419200,0.96646688339833,0.013734603476418,0.0045782011581806,0.0045782011590402,0.0045782011591974,-0.0010380847183779,0.0010380867179921,-1.7522999072054e-09,3.7602371845116e-09,-1.1132512522619e-08,1.3645167252683e-08,-0.0012690275801979,0.0012690195941588,-0.0012690257352514,0.0012690214219893,-0.0012690198026204,0.0012690277367712,-0.0012690179668579,0.0012690295747122,-0.0010429894912467,0.0010429942856768,-0.0010429840991918,0.0010429996882896,1.1112221622967e-08,-1.3606138433612e-08,-4.5187838108083e-09,2.525314626922e-09,-0.0010380867112414,0.0010380847251033,-0.0012690218221862,0.0012690256710652,-0.0012690195737623,0.0012690280109455,-0.0012690295770727,0.0012690175427276,-0.0012690273295385,0.0012690198843611,-0.0010430003527952,0.0010429832770711,-0.0010429935107975,0.0010429902784603,-0.0010429798142123,0.0010430042735954,-0.0010430040192565,0.0010429794042062,2.6471117509942e-09,-2.906439252423e-09,-0.001038085852779,0.0010380855834806,3.290565726314e-09,-3.6861280223927e-09,-0.001269021711078,0.001269025642243,-0.0012690239965591,0.0012690233044706,-0.0012690235884292,0.0012690238153848,-0.0012690258746983,0.0012690214795532,-0.0010429958696023,0.0010429878461945,-0.0010429904201363,0.0010429932734435,0.56383119050013,131329,3014,0.0043168117522374,0.0043168117521805,0.0043168117520032,32.646783946039,2.1174271568314e-05,2.1174271568314e-05,2.1174271568314e-05,4614751.238312,0.013036466289357
14619200,0.96818325563127,0.013752406539778,0.0045841355126212,0.0045841355134971,0.00458413551366,-0.0010379018696066,0.0010379038692656,-1.7962896639367e-09,3.8047371109224e-09,-1.115238240702e-08,1.3665845164252e-08,-0.0012692438925374,0.0012692358630556,-0.0012692420177669,0.0012692377203903,-0.0012692361016196,0.0012692440193837,-0.0012692342360962,0.0012692458866099,-0.0010426988952077,0.0010427036186046,-0.001042693421183,0.0010427091118948,1.1133095552355e-08,-1.3624312932642e-08,-4.5250689160665e-09,2.5342870125463e-09,-0.0010379038616969,0.001037901876869,-0.0012692381090395,0.0012692419661027,-0.0012692358553437,0.0012692443108189,-0.0012692458769616,0.0012692338248347,-0.0012692436243681,0.0012692361712327,-0.001042709731363,0.0010426926332717,-0.0010427028788667,0.0010426996533595,-0.0010426891582329,0.0010427136672849,-0.0010427134001364,0.0010426887569605,2.6952951262899e-09,-2.9568527932945e-09,-0.0010379030042922,0.0010379027341078,3.293352124265e-09,-3.6909656371657e-09,-0.0012692379842406,0.0012692419508387,-0.0012692402724722,0.0012692396106068,-0.0012692398942926,0.0012692400913038,-0.0012692421834607,0.0012692377529036,-0.0010427052882423,0.0010426971611497,-0.0010426997439202,0.0010427026868703,0.56645234447027,131329,3014,0.004316055483812,0.0043160554831746,0.0043160554828306,31.822150361245,1.4577202889956e-05,1.4577202889956e-05,1.4577202889956e-05,4604136.8521854,0.013034170871065
14819200,0.96974014791045,0.013768687665233,0.004589562554424,0.00458956255532,0.004589562555489,-0.0010375978231102,0.0010375998208031,-1.8466092180912e-09,3.8518107955595e-09,-1.115919256218e-08,1.3668988297055e-08,-0.0012692956716538,0.001269287605457,-0.0012692937648374,0.0012692894954505,-0.0012692878768399,0.0012692957648175,-0.0012692859791823,0.0012692976647666,-0.0010423023255246,0.001042306951017,-0.0010422967463424,0.0010423125307045,1.1135710120294e-08,-1.3632280563126e-08,-4.5313353654763e-09,2.535835138246e-09,-0.0010375998155293,0.0010375978288826,-0.0012692898682675,0.0012692937270948,-0.0012692876121903,0.0012692960747242,-0.0012692976398554,0.0012692855821094,-0.0012692953847839,0.0012692879314906,-0.0010423131257263,0.0010422960060041,-0.0010423062565075,0.0010423030255717,-0.0010422925381728,0.0010423170475685,-0.0010423167950123,0.0010422921327737,2.7425868167671e-09,-2.9992630124561e-09,-0.0010375989563495,0.0010375986881635,3.3023399475167e-09,-3.6956320749622e-09,-0.0012692897273356,0.001269293728275,-0.0012692920196998,0.0012692913832043,-0.0012692916673508,0.0012692918387124,-0.0012692939606089,0.0012692894955129,-0.0010423087148653,0.0010423005049741,-0.0010423030782017,0.001042306114402,0.56961686125541,131329,3014,0.0043147962064122,0.0043147962074471,0.004314796207658,30.993665270424,7.9493221633903e-06,7.9493221633903e-06,7.9493221633903e-06,4593088.3248391,0.013030346665529
15019200,0.97113339490381,0.013783205996606,0.004594401998211,0.0045944019991124,0.004594401999283,-0.0010366688076262,0.0010366708061077,-1.8916099912603e-09,3.8987202499196e-09,-1.1177398140748e-08,1.3689647065561e-08,-0.001268663687117,0.0012686555771552,-0.0012686617494063,0.0012686574975594,-0.0012686558795737,0.0012686637496148,-0.0012686539510869,0.0012686656799553,-0.0010412763794094,0.0010412809314482,-0.001041270717677,0.00104128660775,1.1157470297174e-08,-1.3649321893723e-08,-4.538567964604e-09,2.5473956595965e-09,-0.0010366707991104,0.0010366688145255,-0.0012686578589099,0.0012686617243827,-0.0012686555963483,0.0012686640780768,-0.0012686656435159,0.0012686535666565,-0.0012686633820195,0.0012686559220636,-0.0010412871528058,0.0010412700100354,-0.0010412802718082,0.001041277054243,-0.001041266529012,0.0010412910929086,-0.0010412908199684,0.0010412661351822,2.7880636086e-09,-3.0488515133261e-09,-0.0010366699417902,0.001036669671746,3.3086441044438e-09,-3.7056624223802e-09,-0.0012686577027815,0.0012686617406853,-0.0012686600008115,0.0012686593903239,-0.001268659674541,0.001268659819519,-0.0012686619734872,0.0012686574710242,-0.0010412827820394,0.0010412744658629,-0.0010412770559398,0.0010412801718807,0.5673776079721,131329,3014,0.0043109437086211,0.0043109437084161,0.0043109437082094,29.890265015627,-8.7787987498415e-07,-8.7787987498415e-07,-8.7787987498415e-07,4576900.2039902,0.013018640479316
15219200,0.97236171524986,0.013795377091779,0.0045984590299245,0.0045984590308397,0.0045984590310146,-0.0010350405127517,0.0010350425139158,-1.9337967390429e-09,3.9454850893741e-09,-1.1211923188737e-08,1.3729596385372e-08,-0.0012672596862169,0.0012672515229951,-0.0012672577182826,0.0012672534725236,-0.0012672518546502,0.0012672597206611,-0.0012672498959314,0.0012672616803008,-0.0010395260383984,0.001039530536371,-0.0010395203035143,0.0010395363134235,1.1198383286523e-08,-1.3682516118833e-08,-4.5492496199917e-09,2.5653239432955e-09,-0.0010350425035384,0.0010350405219515,-0.0012672538249698,0.0012672577049192,-0.0012672515525878,0.00126726006761,-0.0012672616345627,0.0012672495229662,-0.0012672593631177,0.0012672518873958,-0.001039536800371,0.0010395196204641,-0.0010395299043855,0.0010395267045601,-0.0010395161126244,0.0010395407771011,-0.0010395404700845,0.0010395157388816,2.8331944720007e-09,-3.1017462954563e-09,-0.0010350416492927,0.0010350413757449,3.315802099316e-09,-3.7199890733138e-09,-0.0012672536560602,0.0012672577335691,-0.0012672559620127,0.0012672553764048,-0.0012672556607741,0.0012672557800654,-0.0012672579674737,0.0012672534248904,-0.001039532467468,0.0010395240341145,-0.0010395266517946,0.0010395298411515,0.54391181422945,131329,3014,0.0043041894094893,0.0043041894070429,0.0043041894061045,28.484094584864,-1.2127243321087e-05,-1.2127243321087e-05,-1.2127243321087e-05,4555504.9849691,0.012998113937042
15419200,0.97344695677742,0.013807892511223,0.004602630836395,0.0046026308373242,0.0046026308375032,-0.0010334029771834,0.0010334049757273,-1.9856709286162e-09,3.9918928614132e-09,-1.1228734868034e-08,1.3740231224162e-08,-0.0012657268524597,0.0012657186468149,-0.001265724852499,0.0012657206297256,-0.0012657190106638,0.0012657268531591,-0.0012657170199228,0.0012657288460145,-0.0010378084230435,0.0010378128234777,-0.0010378025716467,0.0010378186773152,1.1205757330568e-08,-1.3702948541758e-08,-4.5641047527231e-09,2.568510832481e-09,-0.0010334049702101,0.0010334029831572,-0.0012657209671713,0.0012657248504145,-0.0012657186892213,0.001265727219814,-0.0012657287858298,0.0012657166586263,-0.0012657265089071,0.0012657190297247,-0.0010378191657992,0.0010378019355075,-0.0010378122334198,0.0010378090200541,-0.0010377984430542,0.0010378231129281,-0.0010378228374937,0.0010377980590912,2.8826645701938e-09,-3.140978469705e-09,-0.0010334041114795,0.0010334038419715,3.3329795085139e-09,-3.7281089930058e-09,-0.0012657207814594,0.001265724896418,-0.0012657230948717,0.0012657225302878,-0.0012657228155212,0.0012657229130526,-0.0012657251298486,0.0012657205487562,-0.0010378148490616,0.0010378063399748,-0.0010378089367407,0.0010378122257585,0.61487581425541,131329,3014,0.0042973955997477,0.0042973956006949,0.0042973956008694,27.071098105338,-2.3431215157292e-05,-2.3431215157292e-05,-2.3431215157292e-05,4535383.9235042,0.012977464724082
15619200,0.97442526517143,0.013819446440812,0.0046064821462565,0.0046064821471877,0.0046064821473673,-0.0010321928086689,0.0010321948007737,-2.0469668521854e-09,4.0439157700314e-09,-1.118896546008e-08,1.3689775433258e-08,-0.0012647822529214,0.0012647740348528,-0.001264780215779,0.0012647760565988,-0.001264774439082,0.0012647822106632,-0.0012647724121503,0.0012647842410129,-0.0010365939946194,0.0010365982404322,-0.0010365880109594,0.0010366041817927,1.1156878837298e-08,-1.3665081095985e-08,-4.5654603849055e-09,2.5597519196147e-09,-0.0010321948011034,0.0010321928105852,-0.0012647763725259,0.0012647802309007,-0.0012647740967614,0.00126478259926,-0.0012647841613161,0.0012647720673388,-0.0012647818878786,0.0012647744364035,-0.0010366046576297,0.0010365874413776,-0.0010365977131749,0.0010365944995591,-0.0010365839904493,0.0010366085459864,-0.0010366083113218,0.001036583588966,2.9253521476176e-09,-3.1721802251598e-09,-0.0010321939386352,0.0010321936737283,3.3495110301049e-09,-3.7344481797157e-09,-0.0012647761592256,0.0012647803055241,-0.0012647784781386,0.0012647779315522,-0.0012647782168552,0.0012647782969621,-0.0012647805380094,0.0012647759236412,-0.001036600381559,0.0010365918120973,-0.0010365943852382,0.001036597763557,0.62694798305501,131329,3014,0.0042923773697619,0.0042923773744243,0.0042923773758256,25.962626450903,-3.2298988392774e-05,-3.2298988392774e-05,-3.2298988392774e-05,4515662.4290149,0.012962220800942
15819200,0.97534552320037,0.013831205135708,0.0046104017112204,0.0046104017121537,0.0046104017123339,-0.0010322291650243,0.0010322311509029,-2.0897227576689e-09,4.08076514722e-09,-1.105308123375e-08,1.3546591449283e-08,-0.0012651328961617,0.0012651247384511,-0.0012651308323639,0.001265126786448,-0.0012651251755514,0.0012651328211049,-0.0012651231212185,0.0012651348786479,-0.0010366872352968,0.0010366913048873,-0.0010366811775041,0.0010366973304179,1.1021956310019e-08,-1.3518953096599e-08,-4.5561903631631e-09,2.5601432063111e-09,-0.0010322311497693,0.0010322291679905,-0.0012651270867738,0.0012651308630278,-0.0012651248145197,0.0012651332276942,-0.00126513478332,0.0012651227936438,-0.0012651325123914,0.0012651251596912,-0.0010366977520339,0.0010366806504235,-0.0010366908200479,0.0010366877038834,-0.0010366772766888,0.0010367015662939,-0.0010367013201491,0.0010366768856356,2.9786626059609e-09,-3.2268593959252e-09,-0.0010322302916605,0.0010322300266418,3.3336556115653e-09,-3.7196765273471e-09,-0.0012651268189471,0.0012651309921225,-0.0012651291288792,0.0012651286282115,-0.0012651289131295,0.0012651289479887,-0.0012651312243477,0.0012651265855057,-0.001036693581683,0.0010366849147174,-0.0010366874822195,0.0010366909715988,0.66919701233322,131329,3014,0.0042925313916747,0.0042925313954775,0.0042925313966041,25.547445222111,-3.562043822311e-05,-3.562043822311e-05,-3.562043822311e-05,4507748.1477943,0.012962697715745
16019200,0.97621263645067,0.013842250832732,0.0046140836102265,0.0046140836111623,0.0046140836113434,-0.0010322149051282,0.0010322168854737,-2.1348801213483e-09,4.1219643475245e-09,-1.0919854902281e-08,1.3408591494293e-08,-0.0012655129824606,0.0012655048799263,-0.0012655108897359,0.0012655069562502,-0.001265505352436,0.0012655128720604,-0.0012655032686842,0.0012655149584243,-0.0010367480216074,0.001036751914054,-0.001036741888795,0.00103675803444,1.0891232286387e-08,-1.3373030607876e-08,-4.5411067783924e-09,2.5580107560691e-09,-0.0010322168817432,0.0010322149098332,-0.0012655072403886,0.0012655109375929,-0.0012655049738329,0.0012655132958987,-0.0012655148457099,0.0012655029607042,-0.0012655125800256,0.001265505320908,-0.0010367583843366,0.0010367414095542,-0.001036751477694,0.0010367484551361,-0.0010367381042544,0.0010367621371857,-0.0010367618701166,0.0010367377234341,3.0268953610127e-09,-3.2798374873926e-09,-0.0010322160291622,0.0010322157626653,3.3178021107171e-09,-3.707780069864e-09,-0.0012655069203508,0.0012655111189732,-0.0012655092218293,0.0012655087643912,-0.001265509048574,0.0012655090410799,-0.0012655113508139,0.0012655066884703,-0.0010367543244461,0.0010367455592004,-0.0010367481317179,0.0010367517187685,0.66742794056845,131329,3014,0.0042924765900666,0.0042924765920867,0.0042924765926076,25.147749653275,-3.8818002773803e-05,-3.8818002773803e-05,-3.8818002773803e-05,4498178.583112,0.012962543783491
16219200,0.97703029748311,0.013852615817019,0.0046175386049876,0.0046175386059249,0.0046175386061065,-0.0010321521077248,0.001032154082003,-2.186805169309e-09,4.1684583599879e-09,-1.0796149668891e-08,1.3278152494291e-08,-0.0012658189569263,0.0012658108996722,-0.0012658168311667,0.0012658130088825,-0.0012658114109768,0.0012658188071419,-0.0012658092945614,0.0012658209260322,-0.0010367522632687,0.0010367559704706,-0.0010367460375486,0.0010367621895675,1.0771253762861e-08,-1.3243657557351e-08,-4.5241006254311e-09,2.548839245415e-09,-0.0010321540776723,0.0010321521128084,-0.0012658132715448,0.0012658169002897,-0.0012658110133795,0.0012658192499946,-0.0012658207941095,0.0012658090068844,-0.0012658185371657,0.0012658113581014,-0.001036762473646,0.0010367456175872,-0.0010367555957633,0.0010367526394663,-0.0010367423746613,0.0010367661650579,-0.0010367658950553,0.0010367419948574,3.0709504562186e-09,-3.3249343003924e-09,-0.0010321532286386,0.0010321529620208,3.3074712413916e-09,-3.6981837739948e-09,-0.0012658129056955,0.0012658171277716,-0.0012658152004484,0.0012658147801181,-0.0012658150634049,0.0012658150202656,-0.0012658173592821,0.0012658126742329,-0.0010367585143229,0.0010367496653803,-0.0010367522354254,0.0010367559142592,0.66425606529147,131329,3014,0.0042922200896666,0.0042922200912268,0.0042922200915979,24.748590750556,-4.2011273995553e-05,-4.2011273995553e-05,-4.2011273995553e-05,4489351.3120909,0.012961775530939
16419200,0.97780470401174,0.013861306511415,0.0046204355031186,0.0046204355040574,0.0046204355042394,-0.0010321128799083,0.0010321148476635,-2.2383246459832e-09,4.2130484013515e-09,-1.0690055482731e-08,1.316373197273e-08,-0.0012661320543184,0.0012661240322623,-0.0012661298966807,0.0012661261737029,-0.00126612458097,0.0012661318659625,-0.0012661224328525,0.0012661340167723,-0.0010367434508572,0.0010367469828494,-0.0010367371271242,0.0010367532917159,1.0664350766398e-08,-1.3132712279202e-08,-4.5089957347726e-09,2.5368518279341e-09,-0.0010321148445656,0.0010321128840951,-0.0012661264152791,0.0012661299855912,-0.0012661241659711,0.001266132326542,-0.0012661338653888,0.0012661221646792,-0.0012661316175984,0.0012661245069586,-0.0010367535246858,0.0010367367685332,-0.0010367466696181,0.0010367437605277,-0.0010367335849191,0.001036757152619,-0.0010367568936916,0.0010367331992692,3.1180645840026e-09,-3.3692584338794e-09,-0.0010321139970164,0.0010321137319362,3.2975095401559e-09,-3.6855193449874e-09,-0.0012661260087296,0.0012661302542756,-0.0012661282954611,0.0012661279141212,-0.0012661281966018,0.0012661281160325,-0.0012661304847349,0.0012661257772538,-0.0010367496547274,0.0010367407279242,-0.001036743284296,0.001036747065365,0.59981699532114,131329,3014,0.0042920609962042,0.0042920609984618,0.0042920609990677,24.41122622222,-4.4710190222243e-05,-4.4710190222243e-05,-4.4710190222243e-05,4481970.0402938,0.012961301942246
16619200,0.97854223307601,0.013871315260519,0.0046237717528178,0.0046237717537593,0.0046237717539421,-0.0010323313242843,0.0010323332872327,-2.2859086802942e-09,4.2556321063897e-09,-1.0604513383631e-08,1.3072134640436e-08,-0.0012665359433078,0.0012665279457551,-0.0012665337557468,0.001266530117195,-0.0012665285287146,0.0012665357202742,-0.0012665263503648,0.0012665379013983,-0.0010369981502144,0.0010370015295238,-0.0010369917370056,0.0010370079263855,1.0576787825433e-08,-1.3039800303289e-08,-4.4950664500835e-09,2.527342593756e-09,-0.0010323332840832,0.0010323313285471,-0.001266530339565,0.0012665338630439,-0.001266528098247,0.0012665361960268,-0.0012665377302954,0.0012665261024523,-0.0012665354901299,0.0012665284370237,-0.0010370081046824,0.0010369914353307,-0.0010370012714359,0.0010369984035349,-0.0010369882985338,0.0010370116848985,-0.0010370114307795,0.0010369879106948,3.1674161812275e-09,-3.4173233260005e-09,-0.0010323324385224,0.0010323321744058,3.2834734170822e-09,-3.6701020073147e-09,-0.001266529897931,0.0012665341669635,-0.0012665321751736,0.0012665318365785,-0.0012665321185113,0.0012665319963237,-0.0012665343967947,0.0012665296675741,-0.0010370043200144,0.0010369953098926,-0.001036997853919,0.0010370017417111,0.70235633660609,131329,3014,0.0042929687081753,0.0042929687104814,0.0042929687110992,24.157526738075,-4.6739786095403e-05,-4.6739786095403e-05,-4.6739786095403e-05,4479640.2042424,0.01296406308453
16819200,0.97924503268105,0.013880895129714,0.0046269650425475,0.0046269650434914,0.0046269650436749,-0.0010324540091408,0.0010324559695347,-2.3340342267683e-09,4.3018101700051e-09,-1.0541553516217e-08,1.3006691393183e-08,-0.001267041676646,0.0012670336874779,-0.0012670394575365,0.0012670358902621,-0.001267034304689,0.001267041419211,-0.0012670320948177,0.0012670436316611,-0.0010372175449996,0.0010372207881222,-0.0010372110431019,0.0010372272807125,1.0515764186175e-08,-1.2972749168763e-08,-4.4798667559532e-09,2.5172058074351e-09,-0.0010324559655052,0.0010324540139775,-0.0012670360927531,0.0012670395849618,-0.001267033859708,0.001267041909406,-0.0012670434411402,0.0012670318672589,-0.0012670412092662,0.0012670341932592,-0.0010372273933493,0.0010372107986479,-0.001037220588227,0.0010372177449635,-0.0010372076885374,0.0010372309489402,-0.0010372306933753,0.0010372072987351,3.2133874782477e-09,-3.4646066590859e-09,-0.0010324551219933,0.001032454857686,3.2707681434842e-09,-3.6583650757817e-09,-0.001267035623773,0.001267039916321,-0.0012670378930131,0.0012670375942191,-0.0012670378754366,0.0012670377146319,-0.0012670401457326,0.0012670353941649,-0.001037223688305,0.0010372145920183,-0.0010372171327061,0.0010372211167523,0.70571573451362,131329,3014,0.0042934821661519,0.0042934821678218,0.004293482168229,23.905700358774,-4.8754397129807e-05,-4.8754397129807e-05,-4.8754397129807e-05,4471787.8422155,0.012965636499162
17019200,0.97991503629319,0.01388983044847,0.0046299434821318,0.004629943483077,0.0046299434832608,-0.0010325218097629,0.0010325237677422,-2.381879238136e-09,4.3474294967484e-09,-1.049875968201e-08,1.2961153320192e-08,-0.0012674898569649,0.0012674818635681,-0.0012674876067007,0.0012674840974742,-0.0012674825142271,0.0012674895657929,-0.0012674802731687,0.0012674918093755,-0.0010373758747057,0.0010373789948677,-0.0010373692821253,0.0010373855798647,1.0473281052079e-08,-1.292663185302e-08,-4.4668687917899e-09,2.5072403647205e-09,-0.0010325237635083,0.0010325218147525,-0.0012674842805284,0.0012674877533791,-0.001267482055051,0.0012674900701268,-0.0012674915996769,0.0012674800653205,-0.00126748937535,0.0012674823836452,-0.0010373856338173,0.0010373690945515,-0.0010373788518788,0.0010373760190496,-0.0010373660022326,0.0010373891717601,-0.0010373889197797,0.0010373656085306,3.2604928294763e-09,-3.5115947221917e-09,-0.0010325229211555,0.0010325226572854,3.2592459965662e-09,-3.6465346126207e-09,-0.0012674837898332,0.001267488106574,-0.001267486051309,0.0012674857922652,-0.0012674860728928,0.0012674858735448,-0.0012674883354052,0.0012674835608959,-0.0010373819985683,0.0010373728176999,-0.0010373753512941,0.0010373794349134,0.69245977662918,131329,3014,0.0042937677665216,0.0042937677680853,0.0042937677684586,23.653938860705,-5.0768489114359e-05,-5.0768489114359e-05,-5.0768489114359e-05,4464486.4114604,0.012966516743122
17219200,0.98053863927156,0.013897901173447,0.0046326337237901,0.0046326337247366,0.0046326337249207,-0.0010318041456558,0.001031806109941,-2.417359924696e-09,4.3932732589588e-09,-1.0534544490485e-08,1.3008884789176e-08,-0.0012670747183312,0.0012670666740834,-0.0012670724405198,0.0012670689334272,-0.0012670673502499,0.0012670744046439,-0.0012670650802054,0.0012670766754845,-0.0010367076773388,0.0010367107611779,-0.0010367010329014,0.0010367174563192,1.0508444377862e-08,-1.2943436272616e-08,-4.4607345455242e-09,2.5178050483292e-09,-0.0010318060974298,0.0010318041564874,-0.0012670691096195,0.0012670725992494,-0.0012670668828218,0.0012670749157173,-0.0012670764477418,0.0012670648947567,-0.001267074220352,0.0012670672142612,-0.0010367174067011,0.0010367008779611,-0.00103671064595,0.0010367078324884,-0.0010366977457658,0.0010367210065104,-0.0010367206987981,0.0010366973770768,3.3060019955848e-09,-3.572318459535e-09,-0.0010318052616656,0.0010318049916256,3.2442450153653e-09,-3.6450800276749e-09,-0.001267068611178,0.0012670729590388,-0.0012670708697753,0.001267070650594,-0.0012670709312987,0.0012670706910347,-0.0012670731891335,0.0012670683859482,-0.0010367138341127,0.0010367045285631,-0.0010367070986491,0.0010367112590406,0.67475988899159,131329,3014,0.0042907935646186,0.0042907935611269,0.0042907935598269,22.9934937925,-5.6052049659997e-05,-5.6052049659997e-05,-5.6052049659997e-05,4450789.1742851,0.012957486989356
17419200,0.98110774960163,0.013904920194182,0.0046349733973655,0.0046349733983157,0.0046349733985009,-0.0010304211164477,0.0010304230820865,-2.4718048765283e-09,4.448724222617e-09,-1.0618631145578e-08,1.3094479144474e-08,-0.0012659013355809,0.0012658931989922,-0.001265899020708,0.001265895496008,-0.0012658939095786,0.0012659009862777,-0.0012658916042737,0.0012659032927472,-0.0010353308194277,0.0010353338534592,-0.0010353240624737,0.0010353406464977,1.0607519868431e-08,-1.3052466901338e-08,-4.4627962958764e-09,2.5111705866669e-09,-0.0010304230729885,0.0010304211247235,-0.0012658956485239,0.0012658992023734,-0.0012658934222711,0.001265901518555,-0.0012659030541567,0.0012658914281033,-0.0012659008293935,0.0012658937455809,-0.0010353405632337,0.0010353239585442,-0.0010353338023855,0.0010353309016586,-0.0010353207659758,0.0010353442172242,-0.0010353439275197,0.0010353203834438,3.3464799953333e-09,-3.609580472706e-09,-0.0010304222329798,0.0010304219643958,3.2568861381141e-09,-3.6548774139009e-09,-0.0012658951663275,0.0012658995464815,-0.0012658974303753,0.0012658972307872,-0.0012658975107157,0.0012658972524032,-0.0012658997761283,0.0012658949382814,-0.0010353369935027,0.0010353276075983,-0.0010353301772403,0.0010353344152811,0.64747799832515,131329,3014,0.0042850576802544,0.0042850576785573,0.0042850576778634,21.989780527564,-6.4081755779491e-05,-6.4081755779491e-05,-6.4081755779491e-05,4431929.6995693,0.012940060960506
17619200,0.98162756430478,0.013911061021734,0.0046370203398783,0.0046370203408343,0.0046370203410212,-0.0010290007523368,0.0010290027208005,-2.5134943027685e-09,4.490662557959e-09,-1.0725311764794e-08,1.3201620480645e-08,-0.0012646049085485,0.0012645966779986,-0.0012646025667146,0.0012645990028183,-0.0012645974114541,0.0012646045360592,-0.0012645950781178,0.001264606871369,-0.0010338870850389,0.0010338901042715,-0.0010338802301481,0.0010338969668965,1.0695931104572e-08,-1.3155322126121e-08,-4.4786290747382e-09,2.5144722113509e-09,-0.001029002714747,0.0010290007587754,-0.0012645991464986,0.0012646027549165,-0.0012645969148114,0.0012646050773418,-0.0012646066162838,0.0012645949162809,-0.0012646043849448,0.0012645972409893,-0.0010338968770843,0.0010338801677998,-0.0010338900825386,0.0010338871182125,-0.0010338769389447,0.0010339005582303,-0.0010339002946851,0.0010338765473045,3.4024542101241e-09,-3.6576281717054e-09,-0.0010290018694683,0.0010290016041179,3.2616501069017e-09,-3.6525881619389e-09,-0.0012645986736246,0.0012646030896111,-0.0012646009386765,0.0012646007723405,-0.0012646010533644,0.001264600760588,-0.0012646033186921,0.0012645984457923,-0.0010338933015633,0.0010338838291522,-0.0010338863767096,0.0010338907303242,0.62390235455856,131329,3014,0.0042791657388986,0.0042791657397076,0.0042791657398444,20.978348531624,-7.2173211747005e-05,-7.2173211747005e-05,-7.2173211747005e-05,4414237.5201495,0.012922157350391
17819200,0.98210356940297,0.013916469983822,0.0046388233272389,0.0046388233281976,0.0046388233283854,-0.0010276027476301,0.0010276047180776,-2.5676488296496e-09,4.5459174383427e-09,-1.0813825150359e-08,1.3291886861069e-08,-0.0012632624805265,0.0012632541555008,-0.0012632601019079,0.0012632565177529,-0.0012632549225863,0.0012632620735414,-0.0012632525540418,0.0012632644444717,-0.0010324422991811,0.0010324452720019,-0.0010324353315863,0.0010324522315052,1.0795419362686e-08,-1.3265344312865e-08,-4.4823654278286e-09,2.5090381681327e-09,-0.0010276047147742,0.0010276027518627,-0.0012632566389808,0.0012632603116102,-0.001263254407024,0.0012632626346323,-0.001263264176862,0.0012632524030368,-0.0012632619470899,0.0012632547268086,-0.0010324521097931,0.0010324353202595,-0.0010324453112967,0.0010324422613748,-0.0010324320323738,0.0010324558439421,-0.0010324555982629,0.0010324316276652,3.4435161033879e-09,-3.6948213095099e-09,-0.0010276038654115,0.0010276036014504,3.2749927547341e-09,-3.6625172480092e-09,-0.0012632561820288,0.0012632606307719,-0.0012632584530965,0.0012632583060686,-0.0012632585865464,0.0012632582756526,-0.0012632608597303,0.0012632559518068,-0.0010324485344279,0.0010324389818849,-0.0010324415279191,0.001032445960225,0.60341630289742,131329,3014,0.0042733656448826,0.0042733656468175,0.004273365647287,19.988681927012,-8.0090544583906e-05,-8.0090544583906e-05,-8.0090544583906e-05,4398040.55966,0.012904530337354
18019200,0.98254043964345,0.013921434189033,0.0046404780623092,0.004640478063268,0.0046404780634557,-0.0010262310655504,0.0010262330403319,-2.6046826996726e-09,4.5870872026053e-09,-1.0905998580641e-08,1.3389132394343e-08,-0.001261888470326,0.0012618800614379,-0.0012618860664085,0.0012618824489213,-0.0012618808506374,0.0012618880418001,-0.0012618784549483,0.0012618904399403,-0.0010310108563774,0.0010310138172961,-0.0010310038100748,0.0010310208566049,1.0873416815024e-08,-1.3347048322464e-08,-4.4952119670292e-09,2.5189831296413e-09,-0.0010262330362837,0.0010262310704579,-0.0012618825649322,0.0012618862815538,-0.001261880326512,0.0012618886111487,-0.0012618901571174,0.0012618783189549,-0.00126188791888,0.0012618806511195,-0.0010310207011131,0.0010310038309046,-0.0010310138782289,0.0010310107970177,-0.001031000504538,0.0010310244747795,-0.0010310242245558,0.0010310001042222,3.4982299448588e-09,-3.7495753122833e-09,-0.0010262321854425,0.0010262319215057,3.2740804612805e-09,-3.6616309530408e-09,-0.0012618821113904,0.0012618865970081,-0.0012618843830917,0.0012618842719873,-0.0012618845535337,0.0012618842049437,-0.0012618868253342,0.0012618818825988,-0.0010310171378925,0.0010310074813172,-0.0010310100264414,0.001031014563678,0.60265705319352,131329,3014,0.0042676740047428,0.0042676740065306,0.0042676740069614,19.017321548352,-8.7861427613184e-05,-8.7861427613184e-05,-8.7861427613184e-05,4383177.8748125,0.012887231002705
18219200,0.98294181402829,0.013926098791314,0.0046420329297361,0.0046420329306952,0.004642032930883,-0.0010248434439326,0.0010248454221649,-2.6530477653295e-09,4.6391464298787e-09,-1.0977097402592e-08,1.346474261965e-08,-0.0012604848285972,0.001260476340039,-0.0012604823906079,0.0012604787613928,-0.0012604771598378,0.001260484370153,-0.001260474731097,0.001260486801138,-0.0010295669121816,0.0010295698298565,-0.0010295597720765,0.0010295769692923,1.0952749510695e-08,-1.3428469461242e-08,-4.4986864709254e-09,2.5210075133603e-09,-0.0010248454174522,0.0010248434492532,-0.0012604788596323,0.0012604826243308,-0.0012604766187759,0.0012604849561891,-0.0012604865047351,0.0012604746089242,-0.0012604842650739,0.0012604769423113,-0.0010295767626718,0.0010295598360722,-0.0010295699393607,0.0010295668082071,-0.0010295564582024,0.0010295805907125,-0.0010295803367052,0.0010295560588417,3.5408802306866e-09,-3.7941721881441e-09,-0.0010248445658837,0.0010248443009508,3.2808099639635e-09,-3.6702410438172e-09,-0.001260478413265,0.001260482932276,-0.001260480689775,0.0012604806028155,-0.0012604808842237,0.0012604805118737,-0.0012604831617901,0.0012604781840297,-0.0010295732185809,0.0010295634671138,-0.0010295660214017,0.0010295706369716,0.61338753186329,131329,3014,0.0042619161333546,0.0042619161346203,0.0042619161348906,18.046371886065,-9.5629024911482e-05,-9.5629024911482e-05,-9.5629024911482e-05,4368389.9144361,0.012869730756565
18419200,0.98332029258857,0.013930536003557,0.0046435120004828,0.0046435120014429,0.004643512001631,-0.0010241563865102,0.0010241583617921,-2.7020519399033e-09,4.6815323734584e-09,-1.0993186405495e-08,1.3473230599201e-08,-0.0012598283850935,0.0012598198577625,-0.0012598259175199,0.0012598223102971,-0.0012598207071321,0.0012598278953591,-0.0012598182485019,0.0012598303576913,-0.0010288523618809,0.0010288551858344,-0.0010288451075013,0.0010288623920821,1.0955844136709e-08,-1.3447585076044e-08,-4.5050489782487e-09,2.51304599763e-09,-0.0010241583628931,0.0010241563879741,-0.0012598223911545,0.0012598261641443,-0.0012598201516477,0.0012598284960353,-0.00125983004366,0.0012598181405603,-0.0012598278050546,0.0012598204741997,-0.0010288621879701,0.0010288452270485,-0.001028855343567,0.0010288521773552,-0.0010288418644477,0.0010288659840231,-0.0010288657765751,0.0010288414454295,3.5956473907051e-09,-3.8357153875279e-09,-0.0010241575054396,0.0010241572461828,3.2840240385552e-09,-3.6615759498828e-09,-0.0012598219339738,0.0012598264834534,-0.0012598242078594,0.0012598241549782,-0.0012598244368745,0.0012598240306611,-0.0012598267116565,0.0012598217039217,-0.0010288586650504,0.0010288488461176,-0.0010288513617599,0.0010288560993946,0.61738405108869,131329,3014,0.0042590654918004,0.0042590654971297,0.0042590654986999,17.474460329243,-0.00010020431736605,-0.00010020431736605,-0.00010020431736605,4360111.1253519,0.012861067301736
18619200,0.98368484657124,0.013934766247783,0.0046449220818938,0.004644922082851,0.0046449220830382,-0.0010240480591402,0.001024050034094,-2.7481030842489e-09,4.7296462354952e-09,-1.0950507171023e-08,1.3432872143183e-08,-0.001259785203208,0.0012597766700058,-0.0012597827037549,0.0012597791533813,-0.0012597775534764,0.0012597846802585,-0.0012597750630211,0.0012597871734561,-0.0010287327612702,0.0010287354711284,-0.0010287254311266,0.001028742785021,1.0920981677894e-08,-1.339954282295e-08,-4.4915861548178e-09,2.5113502558936e-09,-0.0010240500312319,0.0010240480631757,-0.0012597792174017,0.0012597829699511,-0.0012597769824301,0.0012597852963464,-0.0012597868425404,0.0012597749745097,-0.001259784608515,0.0012597773026376,-0.0010287424949271,0.0010287255977023,-0.0010287356803823,0.0010287325469922,-0.0010287222393045,0.0010287462974495,-0.0010287460622281,0.00102872183081,3.6383282533928e-09,-3.8865731818866e-09,-0.0010240491786435,0.0010240489160777,3.273108134308e-09,-3.657902975972e-09,-0.0012597787364806,0.0012597833127371,-0.0012597810061004,0.0012597809896091,-0.0012597812707242,0.001259780828891,-0.0012597835412078,0.001259778507564,-0.0010287390521517,0.0010287291304232,-0.0010287316652671,0.0010287364823668,0.61178642100187,131329,3014,0.0042586164049008,0.0042586164073375,0.0042586164079897,17.230204578013,-0.00010215836337589,-0.00010215836337589,-0.00010215836337589,4357399.3327717,0.012859702850591
18819200,0.98403625668425,0.013939146410029,0.0046463821359752,0.0046463821369331,0.0046463821371205,-0.0010239614685277,0.0010239634413966,-2.7962475673209e-09,4.7764481025833e-09,-1.0904213206742e-08,1.3385008273362e-08,-0.0012597512497657,0.0012597427137064,-0.0012597487185278,0.0012597452286234,-0.0012597436313596,0.0012597506926626,-0.0012597411091888,0.0012597532173307,-0.0010286391420375,0.0010286417273238,-0.0010286317233637,0.0010286491381185,1.0877358209156e-08,-1.334995751037e-08,-4.4814999833694e-09,2.5063649199361e-09,-0.0010239634375851,0.0010239614731989,-0.0012597452744482,0.0012597490034063,-0.0012597430442899,0.0012597513247,-0.0012597528687175,0.0012597410392604,-0.0012597506395911,0.0012597433622273,-0.0010286487858475,0.0010286319419559,-0.0010286419900622,0.0010286388798917,-0.0010286286022044,0.0010286525725938,-0.0010286523314165,0.0010286281949643,3.6836910650313e-09,-3.9339631217741e-09,-0.001023962587044,0.0010239623239491,3.2656411010089e-09,-3.6520831225587e-09,-0.0012597447683261,0.001259749371414,-0.0012597470336506,0.0012597470529025,-0.0012597473335147,0.0012597468567115,-0.0012597495997442,0.0012597445399387,-0.0010286454139959,0.0010286354018694,-0.0010286379384517,0.0010286428466619,0.64922938914746,131329,3014,0.004258257365398,0.0042582573671852,0.0042582573676211,16.993298885745,-0.00010405360891404,-0.00010405360891404,-0.00010405360891404,4355102.8906365,0.01285861160605
19019200,0.98437509949822,0.013943662278099,0.0046478874253311,0.00464788742629,0.0046478874264777,-0.0010238499868505,0.0010238519573188,-2.8442624945273e-09,4.8223180174359e-09,-1.0858632284355e-08,1.3336819020863e-08,-0.0012597659132517,0.0012597573746146,-0.0012597633507094,0.0012597599208028,-0.0012597583259211,0.0012597653222769,-0.0012597557724573,0.0012597678782064,-0.0010285528024716,0.0010285552627754,-0.0010285452931696,0.0010285627667268,1.0832418698821e-08,-1.3301184431782e-08,-4.4732962088572e-09,2.5013932307449e-09,-0.0010238519532497,0.0010238499917136,-0.001259759948749,0.0012597636533755,-0.0012597577229215,0.0012597659702533,-0.0012597675119937,0.0012597557205502,-0.0012597652872076,0.0012597580391063,-0.0010285623596164,0.0010285455637751,-0.0010285555778479,0.0010285524898365,-0.0010285422463313,0.0010285661246444,-0.0010285658830128,0.0010285418386859,3.7304026858763e-09,-3.9810589426761e-09,-0.0010238511040966,0.0010238508410602,3.2589951866694e-09,-3.6456720839556e-09,-0.0012597594169091,0.0012597640472177,-0.001259761677908,0.0012597617331103,-0.0012597620133724,0.0012597615012504,-0.001259764275274,0.00125975918887,-0.0010285590557931,0.0010285489551435,-0.0010285514890615,0.0010285564924148,0.68719103016533,131329,3014,0.0042577962262599,0.0042577962279116,0.0042577962283156,16.756647131207,-0.00010594682295034,-0.00010594682295034,-0.00010594682295034,4350821.9809819,0.012857214127667
19219200,0.98471244432199,0.013948308044425,0.0046494360141058,0.0046494360150657,0.0046494360152538,-0.001024622695465,0.0010246246598599,-2.895496860882e-09,4.8659841258486e-09,-1.0765411201136e-08,1.3234484065832e-08,-0.0012607753402869,0.0012607668302754,-0.0012607727463647,0.0012607694084696,-0.0012607678172771,0.0012607747124636,-0.0012607652324885,0.0012607773002632,-0.0010294017136624,0.0010294040061081,-0.0010293941012772,0.0010294115932598,1.0735045959008e-08,-1.3205053594333e-08,-4.4596867015029e-09,2.4863291127851e-09,-0.0010246246583117,0.0010246226986517,-0.0012607694144419,0.0012607730688246,-0.0012607671983188,0.001260775376467,-0.0012607769134527,0.001260765200386,-0.0012607746984399,0.0012607675095809,-0.0010294111462983,0.0010293944361195,-0.0010294043834483,0.0010294013253404,-0.0010293911761994,0.001029414845744,-0.0010294146287004,0.0010293907567764,3.7800711671559e-09,-4.0245052633326e-09,-0.0010246238087726,0.0010246235486626,3.2482898183875e-09,-3.6292607602221e-09,-0.0012607688464257,0.0012607734992403,-0.0012607710979972,0.0012607711939839,-0.0012607714736914,0.0012607709221558,-0.0012607737263107,0.0012607686184985,-0.0010294079229134,0.0010293977507666,-0.0010294002597244,0.001029405375019,0.70677989874892,131329,3014,0.0042610050342881,0.0042610050376933,0.0042610050386747,17.022866019752,-0.00010381707184198,-0.00010381707184198,-0.00010381707184198,4353704.2912668,0.012866973354948
19419200,0.98505348198001,0.01395289347492,0.0046509644909356,0.0046509644918977,0.0046509644920865,-0.0010258254387244,0.0010258273981891,-2.9426366064128e-09,4.9074156349092e-09,-1.0664736345625e-08,1.3126854876653e-08,-0.0012622750776246,0.0012622666035446,-0.0012622724546943,0.0012622692109836,-0.0012622676240183,0.0012622744158275,-0.0012622650092882,0.0012622770338275,-0.0010306979514417,0.0010307000797047,-0.0010306902465049,0.0010307077507231,1.0622452325351e-08,-1.3088707644714e-08,-4.4437751645665e-09,2.473237079246e-09,-0.0010258273969757,0.0010258254418356,-0.0012622691994344,0.0012622727933817,-0.0012622669935539,0.0012622750909522,-0.0012622766232279,0.0012622650011033,-0.0012622744174518,0.0012622673011164,-0.0010307072516132,0.001030690644868,-0.0010307005115534,0.0010306975024102,-0.0010306874497973,0.0010307108829226,-0.0010307106789716,0.0010306870237362,3.8312720165933e-09,-4.0726248961638e-09,-0.0010258265489131,0.0010258262904512,3.2310600303928e-09,-3.6089565165175e-09,-0.0012622685904086,0.0012622732649793,-0.0012622708300335,0.0012622709718256,-0.0012622712513165,0.0012622706545528,-0.0012622734910636,0.0012622683639289,-0.0010307041196977,0.0010306938697918,-0.0010306963580032,0.0010307015876672,0.69264759998674,131329,3014,0.0042659987512296,0.0042659987551672,0.0042659987563157,17.539899328717,-9.9680805370267e-05,-9.9680805370267e-05,-9.9680805370267e-05,4360438.7635032,0.012882158593444
19619200,0.98539807387368,0.013957398493821,0.0046524661639017,0.0046524661648652,0.0046524661650545,-0.0010270360603259,0.0010270380161643,-2.9934884930402e-09,4.9563737523311e-09,-1.0569143665416e-08,1.3028868580479e-08,-0.0012637574112029,0.0012637489629742,-0.0012637547542547,0.0012637516039077,-0.0012637500215805,0.0012637567110842,-0.0012637473739235,0.0012637593614778,-0.0010319895703499,0.0010319915381984,-0.0010319817790955,0.0010319993147209,1.0543699020188e-08,-1.299870968761e-08,-4.4217980648038e-09,2.4608914278864e-09,-0.0010270380130854,0.0010270360644126,-0.0012637515673008,0.0012637551192999,-0.0012637493719587,0.0012637574057381,-0.0012637589345647,0.0012637473837954,-0.0012637567404668,0.0012637496716099,-0.0010319987348708,0.0010319822345983,-0.0010319920389821,0.0010319890658605,-0.0010319790680033,0.0010320023433519,-0.0010320021277138,0.0010319786425703,3.872917857018e-09,-4.1190604160906e-09,-0.00102703716894,0.0010270369088138,3.2165284643074e-09,-3.5984850302377e-09,-0.0012637509268413,0.0012637556225728,-0.0012637531577394,0.001263753338417,-0.0012637536163858,0.0012637529830483,-0.0012637558485156,0.0012637507004218,-0.0010319956983897,0.0010319853595538,-0.0010319878544283,0.001031993169876,0.67638955795269,131329,3014,0.0042710245973225,0.0042710245994092,0.0042710245999396,18.062612841197,-9.5499097270421e-05,-9.5499097270421e-05,-9.5499097270421e-05,4368023.1660893,0.012897439738967
19819200,0.98574594503545,0.013961798771351,0.0046539329230776,0.0046539329240417,0.0046539329242312,-0.0010282487212428,0.0010282506740643,-3.0407495113956e-09,5.0010641680696e-09,-1.0499941111418e-08,1.2956374829231e-08,-0.0012652091334316,0.0012652006987002,-0.0012652064459844,0.0012652033700205,-0.0012652017909632,0.0012652083994979,-0.0012651991124398,0.0012652110806243,-0.0010332689056745,0.0010332707338357,-0.0010332610262845,0.0010332786030945,1.0471750441883e-08,-1.2920789932481e-08,-4.4069807323873e-09,2.4510723054287e-09,-0.0010282506702962,0.0010282487258869,-0.0012652033152296,0.0012652068292145,-0.001265201128129,0.0012652091072112,-0.0012652106330243,0.0012651991437698,-0.001265208446814,0.0012652014235,-0.0010332779601741,0.0010332615396478,-0.0010332712899666,0.0010332683490835,-0.0010332584083414,0.0010332815347103,-0.0010332813194659,0.0010332579809408,3.9205059624105e-09,-4.1674168070713e-09,-0.0010282498282287,0.0010282495681699,3.2025338470687e-09,-3.5849697755165e-09,-0.0012652026440287,0.0012652073632876,-0.0012652048660726,0.0012652050882896,-0.0012652053658183,0.0012652046916508,-0.0012652075886964,0.0012652024185153,-0.0010332750062232,0.0010332645812605,-0.0010332670699234,0.0010332724861357,0.65786896782304,131329,3014,0.0042760582856982,0.0042760582875125,0.0042760582879595,18.585522970013,-9.1315816239899e-05,-9.1315816239899e-05,-9.1315816239899e-05,4376142.7995073,0.012912742994367
20019200,0.98608744102947,0.013966295240335,0.0046554317460717,0.0046554317470367,0.0046554317472264,-0.0010286866905072,0.0010286886451248,-3.0855123850087e-09,5.0494090962241e-09,-1.0510104303234e-08,1.297069829857e-08,-0.0012658100591248,0.0012658015857268,-0.0012658073402757,0.0012658042876957,-0.0012658027090223,0.0012658092949443,-0.0012657999991276,0.0012658120067675,-0.0010337442736734,0.0010337460251464,-0.0010337363146546,0.0010337539964983,1.0487139992348e-08,-1.2928871352004e-08,-4.4024606003387e-09,2.4530935321936e-09,-0.0010286886385758,0.0010286866970285,-0.0012658042180435,0.0012658077403788,-0.0012658020314505,0.0012658100172059,-0.0012658115438269,0.0012658000474105,-0.0012658093581244,0.001265802325971,-0.0010337532835937,0.0010337368707184,-0.0010337466263415,0.0010337436873346,-0.0010337337207003,0.0010337568850551,-0.0010337566489832,0.0010337333011483,3.9647354467889e-09,-4.2177901615822e-09,-0.0010286877990198,0.001028687536507,3.19789621026e-09,-3.5857416601419e-09,-0.0012658035356964,0.0012658082853342,-0.0012658057569077,0.0012658060119327,-0.001265806289164,0.0012658055823006,-0.0012658085111669,0.0012658033108254,-0.0010337503827054,0.0010337398550245,-0.0010337423595784,0.0010337478574817,0.68048385899545,131329,3014,0.004277876892801,0.00427787689274,0.004277876892579,18.671826786042,-9.0625385711667e-05,-9.0625385711667e-05,-9.0625385711667e-05,4377222.0490285,0.012918273038157
20219200,0.98642014745672,0.013970816595715,0.0046569388645322,0.0046569388654969,0.0046569388656863,-0.0010288940515295,0.0010288960077834,-3.132584766421e-09,5.0977574653616e-09,-1.0556216554948e-08,1.301832875661e-08,-0.0012662009492484,0.0012661924147073,-0.001266198198593,0.0012661951486283,-0.0012661935678222,0.0012662001552478,-0.0012661908262536,0.0012662028988637,-0.0010339990156701,0.0010340007057564,-0.0010339909606941,0.0010340087678401,1.0534102973463e-08,-1.2980291629773e-08,-4.4071498494245e-09,2.4540038219563e-09,-0.0010288960020995,0.0010288940575039,-0.0012661950631831,0.0012661986142063,-0.0012661928747142,0.0012662008930333,-0.0012662024215495,0.0012661908884106,-0.0012662002341177,0.0012661931688273,-0.0010340080170676,0.0010339915609365,-0.001034001352093,0.001033998380579,-0.0010339883852479,0.0010340116423081,-0.0010340114118475,0.0010339879630587,4.0115418296507e-09,-4.2632718777647e-09,-0.001028895160806,0.0010288948988236,3.202564177598e-09,-3.5893050894286e-09,-0.0012661943785286,0.0012661991614276,-0.0012661966023066,0.0012661968852735,-0.0012661971626573,0.001266196427711,-0.0012661993873845,0.0012661941533226,-0.0010340051405463,0.0010339945219886,-0.0010339970254425,0.0010340026138906,0.69908661741417,131329,3014,0.0042787391737628,0.0042787391743676,0.0042787391744238,18.638333093146,-9.0893335254834e-05,-9.0893335254834e-05,-9.0893335254834e-05,4375088.6778514,0.012920898635473
20419200,0.98674424700159,0.013975227325551,0.0046584091078104,0.0046584091087755,0.004658409108965,-0.001029073830698,0.0010290757888928,-3.1790040031981e-09,5.1452005829481e-09,-1.061573508461e-08,1.3079175165647e-08,-0.0012665925129557,0.001266583909551,-0.0012665897312208,0.0012665866749338,-0.0012665850912769,0.0012665916901119,-0.0012665823186084,0.0012665944651696,-0.001034235854589,0.0010342374925145,-0.0010342277018353,0.0010342456409937,1.0590876225914e-08,-1.3044082565402e-08,-4.4155873959316e-09,2.4563765231984e-09,-0.0010290757845914,0.0010290738357459,-0.0012665865752835,0.001266590160227,-0.0012665843833727,0.0012665924428342,-0.0012665939736055,0.0012665823940047,-0.001266591782726,0.0012665846782064,-0.0010342448611907,0.0010342283449112,-0.0010342381802916,0.0010342351703357,-0.0010342251417869,0.0010342485099462,-0.0010342482895516,0.0010342247155217,4.059881620021e-09,-4.3087726761877e-09,-0.0010290749407501,0.0010290746797634,3.2091455043812e-09,-3.5934344889254e-09,-0.0012665858903304,0.0012665907077966,-0.0012665881174137,0.0012665884278763,-0.0012665887056791,0.0012665879427302,-0.0012665909337227,0.0012665856645428,-0.0010342420006847,0.0010342312921802,-0.0010342337907552,0.0010342394734431,0.69998402943845,131329,3014,0.0042794874651194,0.0042794874666702,0.0042794874670375,18.602072727125,-9.1183418182997e-05,-9.1183418182997e-05,-9.1183418182997e-05,4372255.0970503,0.01292317932262
20619200,0.98705997381805,0.013979025527016,0.0046596751749646,0.0046596751759307,0.0046596751761205,-0.0010292191144342,0.0010292210754447,-3.2243974315483e-09,5.1931857648867e-09,-1.0679359506604e-08,1.3145988282552e-08,-0.0012669484825621,0.0012669398074687,-0.0012669456697472,0.0012669426039649,-0.0012669410175859,0.0012669476315234,-0.0012669382137828,0.0012669504377557,-0.0010344229572027,0.0010344245494502,-0.0010344147120664,0.0010344327886335,1.0653127790372e-08,-1.3110238241067e-08,-4.4237984903167e-09,2.4613613626284e-09,-0.0010292210711977,0.0010292191194356,-0.001266942491238,0.0012669461119194,-0.001266940294996,0.0012669483989123,-0.0012669499322329,0.001266938302802,-0.0012669477369602,0.0012669405914462,-0.0010344319708339,0.0010344153950748,-0.0010344252761755,0.0010344222327846,-0.0010344121583304,0.0010344356529021,-0.0010344354325178,0.001034411732603,4.107126168556e-09,-4.3558489641571e-09,-0.0010292202259874,0.0010292199648248,3.2154002688613e-09,-3.599636504311e-09,-0.0012669418064489,0.0012669466592179,-0.0012669440376871,0.0012669443750774,-0.0012669446532898,0.0012669438627222,-0.001266946885428,0.0012669415803678,-0.0010344291286953,0.0010344183243418,-0.0010344208259768,0.0010344265974241,0.63099126861947,131329,3014,0.0042800925497696,0.0042800925513341,0.0042800925517059,18.565716263311,-9.1474269893515e-05,-9.1474269893515e-05,-9.1474269893515e-05,4369531.0488663,0.012925024401281
20819200,0.98735281423282,0.013982857420641,0.0046609524728391,0.0046609524738059,0.0046609524739959,-0.0010279859157993,0.0010279878857356,-3.268100479156e-09,5.2483060160597e-09,-1.0825393823561e-08,1.3305710166894e-08,-0.0012657174976695,0.0012657086945465,-0.0012657146512883,0.0012657115234875,-0.0012657099318491,0.0012657166212034,-0.001265707094761,0.0012657194597293,-0.0010331571937478,0.0010331588066409,-0.0010331488683835,0.0010331671577794,1.0811853538637e-08,-1.3266517428141e-08,-4.442410556417e-09,2.4827509303891e-09,-0.0010279878776626,0.0010279859233357,-0.001265711401383,0.0012657151064545,-0.0012657091912631,0.0012657174064416,-0.0012657189467856,0.0012657071927082,-0.0012657167378688,0.0012657094941349,-0.0010331662801071,0.0010331495724592,-0.0010331595615574,0.0010331564627879,-0.0010331462388269,0.0010331700717774,-0.001033169813906,0.0010331458309899,4.1463899023406e-09,-4.4051794851435e-09,-0.0010279870333403,0.0010279867674107,3.2350177716336e-09,-3.6285274564916e-09,-0.0012657107361497,0.0012657156335203,-0.0012657129840053,0.0012657133337212,-0.0012657136126183,0.001265712807693,-0.0012657158615592,0.0012657105095566,-0.0010331634294448,0.0010331525045662,-0.0010331550477723,0.0010331608713242,0.67642720133874,131329,3014,0.0042749756781039,0.004274975676988,0.0042749756764752,17.740930808685,-9.8072553530522e-05,-9.8072553530522e-05,-9.8072553530522e-05,4356036.3212633,0.012909471819845
21019200,0.98762318722003,0.013986269551107,0.0046620898496604,0.004662089850628,0.0046620898508183,-0.0010265524158808,0.0010265543916947,-3.3120457211885e-09,5.2983525894359e-09,-1.0969706441822e-08,1.3457430983897e-08,-0.0012643433495773,0.0012643344221099,-0.0012643404718987,0.0012643372824731,-0.0012643356852964,0.0012643424474337,-0.00126433281717,0.0012643453170466,-0.0010317085119825,0.0010317101375453,-0.0010317000956505,0.0010317185806163,1.0960249222574e-08,-1.342280298875e-08,-4.4694477871508e-09,2.5035620856046e-09,-0.0010265543840418,0.0010265524230464,-0.001264337152262,0.0012643409357977,-0.0012643349261015,0.0012643432519579,-0.0012643447983654,0.0012643329201512,-0.0012643425737989,0.0012643352375256,-0.0010317176814397,0.0010317008194963,-0.0010317109167192,0.0010317077579164,-0.0010316974082289,0.0010317215502684,-0.0010317212822446,0.0010316970084101,4.1924421578581e-09,-4.4525137796133e-09,-0.0010265535370265,0.0010265532698511,3.2580251434653e-09,-3.653141682691e-09,-0.001264336503309,0.0012643414465767,-0.0012643387665498,0.0012643391307895,-0.0012643394106587,0.0012643385894946,-0.001264341675282,0.0012643362750741,-0.0010317148084018,0.0010317037733657,-0.0010317063355224,0.0010317122332705,0.65601667572578,131329,3014,0.0042690288113725,0.0042690288103629,0.0042690288099273,16.830059881647,-0.00010535952094682,-0.00010535952094682,-0.00010535952094682,4338818.0569977,0.012891401388482
21219200,0.98787299180575,0.013989446664246,0.0046631488873728,0.0046631488883415,0.0046631488885319,-0.0010251172759559,0.0010251192566808,-3.3559776497159e-09,5.3451873078145e-09,-1.1101172163016e-08,1.3592671527098e-08,-0.0012629163653219,0.0012629073250801,-0.0012629134576628,0.0012629102159435,-0.0012629086123017,0.0012629154393507,-0.0012629057139715,0.0012629183397429,-0.001030244555572,0.0010302461811219,-0.00103023603823,0.0010302547024439,1.1082917972304e-08,-1.3559547325795e-08,-4.4998908216471e-09,2.5219879456507e-09,-0.0010251192512496,0.0010251172818561,-0.0012629100784193,0.0012629139274638,-0.0012629078365269,0.0012629162600283,-0.0012629178108282,0.0012629058251763,-0.0012629155701838,0.001262908159139,-0.0010302538037707,0.0010302367889863,-0.0010302469806342,0.0010302437648938,-0.0010302333265136,0.0010302577176188,-0.001030257461133,0.0010302329278656,4.2433502118873e-09,-4.4982157861543e-09,-0.0010251183993675,0.0010251181338347,3.282067629528e-09,-3.6728527835892e-09,-0.0012629094391598,0.0012629144282545,-0.0012629117169868,0.0012629120976039,-0.0012629123789562,0.001262911539201,-0.0012629146578811,0.001262909210045,-0.0010302509059718,0.0010302397732527,-0.0010302423323288,0.0010302483215614,0.6596710460063,131329,3014,0.0042630743909435,0.004263074391921,0.0042630743921236,15.917071238403,-0.00011266343009278,-0.00011266343009278,-0.00011266343009278,4322876.8586102,0.012873305932163
21419200,0.98810731328288,0.013992451141906,0.0046641503799255,0.0046641503808951,0.0046641503810857,-0.0010240804839772,0.0010240824665104,-3.4031505218229e-09,5.3929145127223e-09,-1.1167537950087e-08,1.3659927815699e-08,-0.0012619022343734,0.0012618931206986,-0.0012618992953504,0.0012618960432933,-0.0012618944365695,0.0012619012790893,-0.001261891507027,0.0012619042114803,-0.0010291911727503,0.0010291927484433,-0.0010291825542017,0.0010292013550837,1.1145072478591e-08,-1.3630629620763e-08,-4.5198811673037e-09,2.5342835547791e-09,-0.001024082462997,0.001024080488556,-0.0012618958946628,0.0012618997746858,-0.0012618936423704,0.0012619021184137,-0.0012619036715909,0.0012618916279297,-0.0012619014203202,0.0012618939729401,-0.0010292004420768,0.001029183339099,-0.0010291935794809,0.0010291903399484,-0.0010291798539724,0.0010292043724861,-0.0010292041234458,0.0010291794568957,4.2915150281029e-09,-4.5423960729768e-09,-0.00102408160805,0.0010240813437702,3.3010835882359e-09,-3.6885728801893e-09,-0.0012618952501581,0.0012619002809701,-0.001261897539163,0.0012618979384777,-0.0012618982209814,0.0012618973612612,-0.0012619005109938,0.0012618950202439,-0.0010291975487504,0.0010291863216618,-0.0010291888802434,0.0010291949561342,0.66373456647983,131329,3014,0.0042587728712555,0.004258772873469,0.0042587728740242,15.228998608854,-0.00011816801112917,-0.00011816801112917,-0.00011816801112917,4310801.1896941,0.01286023428521
21619200,0.98832758472747,0.01399530477983,0.004665101592566,0.0046651015935363,0.0046651015937273,-0.0010230770627854,0.0010230790462861,-3.4479853877367e-09,5.4391439993256e-09,-1.1198011006186e-08,1.3692365203936e-08,-0.0012609266490809,0.0012609174845953,-0.0012609236796574,0.0012609204376422,-0.0012609188306107,0.001260925664221,-0.001260915870438,0.0012609286267882,-0.0010281732831741,0.0010281747925593,-0.0010281645787596,0.0010281834911866,1.117851857475e-08,-1.3663151095311e-08,-4.5347133197808e-09,2.550089988725e-09,-0.0010230790421854,0.0010230770676717,-0.001260920279006,0.0012609241698843,-0.001260918016457,0.0012609265235642,-0.0012609280774223,0.0012609160008317,-0.0012609258161101,0.0012609183559772,-0.0010281825428124,0.0010281653904451,-0.0010281756535494,0.0010281724241375,-0.0010281618923543,0.0010281864892767,-0.001028186224292,0.0010281615056264,4.3384357239137e-09,-4.5916248301603e-09,-0.0010230781878096,0.0010230779222444,3.3128032652813e-09,-3.7024447067821e-09,-0.0012609196197935,0.0012609246907137,-0.0012609219174824,0.0012609223396449,-0.0012609226223395,0.0012609217387412,-0.0012609249210902,0.0012609193891672,-0.00102817967731,0.001028168343729,-0.0010281709169933,0.0010281770748811,0.66920858042332,131329,3014,0.0042546098941023,0.0042546098957332,0.0042546098961432,14.564731511732,-0.00012348214790615,-0.00012348214790615,-0.00012348214790615,4299147.0106171,0.0128475841582
21819200,0.98853477611943,0.013997946169342,0.0046659820557364,0.0046659820567071,0.0046659820568981,-0.0010220596967562,0.0010220616805812,-3.4944419091689e-09,5.4859930865887e-09,-1.1211119285884e-08,1.370600923662e-08,-0.0012599422946398,0.0012599330904899,-0.0012599392940705,0.0012599360744876,-0.0012599344674221,0.0012599412789789,-0.0012599314760509,0.0012599442726852,-0.0010271422950395,0.0010271437229197,-0.0010271335004512,0.0010271525146056,1.1188152715286e-08,-1.3672064376022e-08,-4.5466832894446e-09,2.5627762770244e-09,-0.0010220616760994,0.0010220597019218,-0.0012599359056623,0.0012599397946804,-0.0012599336349789,0.0012599421564722,-0.0012599437104698,0.0012599316195303,-0.0012599414408696,0.0012599339828701,-0.0010271515282321,0.0010271343470567,-0.0010271446158797,0.0010271414062089,-0.0010271308498772,0.0010271554749491,-0.0010271551994109,0.0010271304728963,4.3848485470044e-09,-4.6391480257123e-09,-0.0010220608222123,0.0010220605559623,3.3244946816754e-09,-3.7153118791842e-09,-0.0012599352259359,0.0012599403359943,-0.0012599375319661,0.0012599379767186,-0.0012599382599487,0.0012599373528011,-0.0012599405669264,0.0012599349951561,-0.0010271486990005,0.0010271372637616,-0.0010271398472379,0.0010271460867294,0.65988857560063,131329,3014,0.0042503891520961,0.0042503891535162,0.0042503891538354,13.901051873516,-0.00012879158501187,-0.00012879158501187,-0.00012879158501187,4287412.0526863,0.0128347590701
22019200,0.98874166425847,0.014000538121682,0.0046668460398497,0.0046668460408208,0.0046668460410119,-0.0010227052189642,0.0010227071958329,-3.5448359049317e-09,5.5282889710373e-09,-1.1093168940892e-08,1.3578370844827e-08,-0.0012606698213474,0.0012606606621823,-0.0012606667901768,0.0012606636772767,-0.001260662075281,0.0012606687684086,-0.0012606590532067,0.0012606717932921,-0.0010278121069391,0.0010278133522103,-0.0010278032137978,0.0010278222277052,1.1064762291332e-08,-1.3546571139104e-08,-4.5385748993076e-09,2.5562002287291e-09,-0.0010227071930977,0.0010227052229789,-0.0012606634900556,0.0012606673072458,-0.0012606612245093,0.0012606696643283,-0.0012606712124066,0.0012606592149755,-0.0012606689478177,0.0012606615736656,-0.001027821203149,0.0010278041166826,-0.0010278142981853,0.0010278111553335,-0.0010278006957319,0.0010278250671559,-0.0010278248052405,0.0010278003153116,4.4342986797486e-09,-4.6839579005366e-09,-0.0010227063402852,0.0010227060761422,3.3186750637401e-09,-3.705324339576e-09,-0.0012606627613657,0.0012606678979786,-0.001260665061912,0.0012606655437688,-0.0012606658267493,0.0012606648832704,-0.0012606681281692,0.0012606625307355,-0.0010278184621369,0.0010278069479098,-0.0010278095142345,0.0010278158597495,0.64982381452371,131329,3014,0.0042530681211824,0.0042530681238386,0.0042530681245677,14.153820407146,-0.00012676943674283,-0.00012676943674283,-0.00012676943674283,4292213.9579194,0.012842901046545
22219200,0.98894943062597,0.014003117937683,0.0046677059785162,0.0046677059794876,0.0046677059796788,-0.0010235278963135,0.0010235298667444,-3.593291627025e-09,5.5701424586773e-09,-1.0961280642489e-08,1.3438330529021e-08,-0.0012615729632859,0.001261563858584,-0.0012615699023951,0.0012615669033948,-0.0012615653068739,0.0012615718729912,-0.0012615622553215,0.0012615749284424,-0.0010286534099169,0.0010286544673567,-0.0010286444223126,0.0010286634263065,1.0925670954236e-08,-1.3402459350648e-08,-4.5269029971905e-09,2.5482976262532e-09,-0.0010235298647189,0.0010235278999126,-0.001261566698923,0.0012615704345076,-0.0012615644401678,0.001261572785581,-0.0012615743281344,0.0012615624368067,-0.0012615720696658,0.0012615647894033,-0.0010286623579499,0.0010286453841185,-0.0010286554653211,0.0010286523999363,-0.0010286420462338,0.0010286661318784,-0.0010286658797629,0.001028641663904,4.4843007152501e-09,-4.7306264369331e-09,-0.0010235290137106,0.0010235287513161,3.3080806136874e-09,-3.6915446991081e-09,-0.0012615659174867,0.001261571078979,-0.0012615682094024,0.0012615687326454,-0.0012615690156117,0.0012615680318639,-0.0012615713080744,0.0012615656874933,-0.0010286597139775,0.0010286481193948,-0.0010286506684582,0.0010286571219846,0.64497437889734,131329,3014,0.0042564819833645,0.0042564819866269,0.0042564819874444,14.500498052439,-0.00012399601558049,-0.00012399601558049,-0.00012399601558049,4299076.2646698,0.01285327558954
22419200,0.98915800971252,0.014005833824613,0.0046686112741589,0.004668611275131,0.0046686112753229,-0.0010243623245462,0.0010243642893842,-3.6436933794919e-09,5.6160330994262e-09,-1.0829082316027e-08,1.3300685169433e-08,-0.0012624818795765,0.0012624728261776,-0.0012624787860681,0.0012624759032849,-0.0012624743133085,0.0012624807515137,-0.0012624712289459,0.0012624838385368,-0.0010295080099104,0.0010295088817571,-0.0010294989383714,0.0010295179440843,1.0802395054426e-08,-1.3265532394815e-08,-4.5083133843404e-09,2.5414179646063e-09,-0.0010243642852238,0.0010243623294877,-0.0012624756773482,0.0012624793412986,-0.0012624734266394,0.001262481683264,-0.0012624832197825,0.0012624714306278,-0.0012624809699249,0.0012624737741638,-0.0010295167975932,0.0010294999537051,-0.001029509940351,0.0010295069516275,-0.001029496676783,0.0010295205190438,-0.0010295202508281,0.0010294963001066,4.5272384269149e-09,-4.7782998971005e-09,-0.0010243634395242,0.001024363175363,3.2956122921155e-09,-3.6830938365703e-09,-0.0012624748481102,0.001262480033155,-0.001262477133803,0.0012624776942451,-0.0012624779759402,0.0012624769560126,-0.0012624802624788,0.00126247461888,-0.0010295142624094,0.0010295025768443,-0.0010295051335119,0.0010295116738326,0.67139356557205,131329,3014,0.004259944504022,0.0042599445056377,0.0042599445060011,14.849501211026,-0.00012120399031179,-0.00012120399031179,-0.00012120399031179,4306022.2139714,0.012863797843775
22619200,0.98936715658982,0.01400859104892,0.0046695303489278,0.0046695303499003,0.0046695303500923,-0.0010251569594646,0.0010251589192626,-3.6931097918839e-09,5.6611584017027e-09,-1.0713603672174e-08,1.3179851546994e-08,-0.0012634054122224,0.0012633964005528,-0.0012634022870943,0.0012633995091116,-0.001263397924396,0.0012634042471934,-0.0012633948084694,0.0012634073654998,-0.001030340465274,0.0010303411628006,-0.0010303313057349,0.0010303503216613,1.0690593208798e-08,-1.3144452636015e-08,-4.4925063523819e-09,2.5334381630844e-09,-0.0010251589142462,0.0010251569649646,-0.0012633992631902,0.0012634028625651,-0.0012633970201664,0.0012634051965316,-0.0012634067282747,0.0012633950297427,-0.0012634044862647,0.0012633973652117,-0.001030349109354,0.0010303323766767,-0.0010303422795381,0.001030339354875,-0.0010303291578157,0.0010303527750987,-0.0010303525014298,0.0010303287828458,4.5724982891689e-09,-4.8254209670841e-09,-0.0010251580719369,0.0010251578073613,3.2838226891768e-09,-3.6728106545821e-09,-0.0012633983897774,0.0012634035987612,-0.0012634006682233,0.0012634012674186,-0.00126340154829,0.0012634004907807,-0.001263403827677,0.0012633981611137,-0.0010303466724556,0.0010303348996953,-0.0010303374553274,0.0010303440895389,0.67880270293933,131329,3014,0.0042632427515292,0.0042632427525294,0.0042632427527104,15.187658174639,-0.00011849873460288,-0.00011849873460288,-0.00011849873460288,4311397.7641831,0.012873823885636
22819200,0.9895738274611,0.014011305880893,0.0046704352929185,0.0046704352938914,0.0046704352940835,-0.001025536370628,0.0010255383286969,-3.7389816945581e-09,5.7067200885891e-09,-1.0649375993668e-08,1.3115062598458e-08,-0.0012639129293038,0.0012639039275815,-0.0012639097735202,0.0012639070661965,-0.0012639054847269,0.0012639117312796,-0.0012639023379946,0.0012639148798698,-0.0010307516517983,0.0010307522183615,-0.0010307424112096,0.0010307614752841,1.0627060550341e-08,-1.3071484244282e-08,-4.4821399457464e-09,2.5311904967274e-09,-0.0010255383215401,0.0010255363775945,-0.0012639068047046,0.0012639103657832,-0.0012639045656912,0.001263912695206,-0.0012639142247382,0.0012639025786973,-0.0012639119865469,0.0012639049097997,-0.0010307601931996,0.0010307435312348,-0.001030753383531,0.0010307505046905,-0.0010307403415129,0.0010307638355792,-0.0010307635464283,0.0010307399727606,4.6179593285418e-09,-4.8751860983229e-09,-0.0010255374825357,0.0010255372164619,3.2741098261628e-09,-3.6668021648579e-09,-0.0012639058986105,0.001263911134593,-0.0012639081722739,0.001263908808704,-0.0012639090890572,0.0012639079948436,-0.0012639113634396,0.0012639056708526,-0.0010307578380726,0.0010307459692029,-0.0010307485324128,0.0010307552559146,0.67691805437398,131329,3014,0.0042648183087892,0.004264818308392,0.0042648183081077,15.303761194231,-0.00011756991044615,-0.00011756991044615,-0.00011756991044615,4312614.1171963,0.012878615287625
23019200,0.98977795503561,0.014013780026106,0.0046712600079885,0.0046712600089624,0.0046712600091548,-0.0010258926223759,0.0010258945772981,-3.788434454575e-09,5.7516260732421e-09,-1.0609364228941e-08,1.3069593437804e-08,-0.0012643909870341,0.001264381980268,-0.0012643878000304,0.0012643851507387,-0.001264383570305,0.0012643897552713,-0.0012643803924098,0.0012643929355397,-0.0010311333392731,0.0010311337784025,-0.0010311239967981,0.0010311431185402,1.0584627966786e-08,-1.3033284607831e-08,-4.4773207790086e-09,2.5223402147445e-09,-0.0010258945726442,0.0010258926276893,-0.0012643848695867,0.0012643884100912,-0.0012643826353034,0.0012643907352439,-0.0012643922627684,0.0012643806496619,-0.0012643900294322,0.0012643829764004,-0.0010311418037297,0.0010311251726464,-0.0010311349986886,0.0010311321243421,-0.0010311220116287,0.0010311454105629,-0.0010311451424385,0.0010311216328431,4.6668313002425e-09,-4.9186176945763e-09,-0.0010258937320229,0.0010258934684539,3.2706380732372e-09,-3.658366155881e-09,-0.0012643839398588,0.0012643892028203,-0.0012643862091543,0.0012643868806856,-0.0012643871608201,0.0012643860322453,-0.0012643894310066,0.0012643837118654,-0.0010311395041076,0.0010311275585843,-0.0010311301032122,0.0010311369317521,0.63260005506039,131329,3014,0.0042662976497477,0.0042662976511182,0.004266297651417,15.414953951636,-0.00011668036838691,-0.00011668036838691,-0.00011668036838691,4313787.1297352,0.012883113939787
23219200,0.98997953753775,0.014016346927083,0.0046721156416473,0.0046721156426218,0.0046721156428142,-0.0010262841538707,0.001026286107423,-3.8359875014797e-09,5.7976772804976e-09,-1.0582285090366e-08,1.3040656321283e-08,-0.0012648135993312,0.0012648045786792,-0.0012648103811449,0.0012648077803726,-0.0012648062010787,0.0012648123350137,-0.0012648029920178,0.0012648155464762,-0.0010315259090812,0.0010315262362075,-0.0010315164742315,0.0010315356672666,1.055755583717e-08,-1.3004989806799e-08,-4.4706982274512e-09,2.5167219184245e-09,-0.0010262861027874,0.0010262841591612,-0.0012648074813375,0.0012648110088424,-0.0012648052510911,0.0012648133299496,-0.0012648148561892,0.0012648032669232,-0.0012648126269166,0.001264805589585,-0.0010315343022204,0.0010315177021206,-0.0010315275085308,0.0010315246411445,-0.0010315145542288,0.0010315378951023,-0.0010315376312793,0.0010315141725378,4.7136756696204e-09,-4.9648425938197e-09,-0.0010262852626752,0.0010262849994199,3.2650841626995e-09,-3.6521949397163e-09,-0.0012648065314764,0.0012648118217702,-0.0012648087968363,0.0012648095035723,-0.0012648097834498,0.0012648086201853,-0.0012648120497189,0.001264806303707,-0.0010315320613928,0.0010315200295875,-0.0010315225688887,0.0010315294935853,0.6590001248808,131329,3014,0.0042679219771269,0.0042679219784847,0.0042679219787892,15.525977528036,-0.00011579217977571,-0.00011579217977571,-0.00011579217977571,4316931.1769236,0.012888048592687
23419200,0.99017943501302,0.014018862011423,0.0046729540030934,0.0046729540040683,0.0046729540042609,-0.0010267797943718,0.0010267817467985,-3.8852495387935e-09,5.8452135946488e-09,-1.0568776158437e-08,1.3025084115445e-08,-0.0012653964652408,0.0012653874212123,-0.0012653932148151,0.0012653906554414,-0.0012653890763185,0.0012653951679886,-0.0012653858351599,0.0012653984117035,-0.0010320405103452,0.0010320407303042,-0.0010320309765301,0.001032050251573,1.0547039399397e-08,-1.2996928707895e-08,-4.4640737699833e-09,2.5078045182396e-09,-0.0010267817433289,0.001026779798847,-0.0012653903357205,0.0012653938624736,-0.001265388110598,0.0012653961785627,-0.0012653977041765,0.0012653861267249,-0.0012653954802854,0.0012653884442251,-0.0010320488422531,0.0010320322591322,-0.001032042060061,0.0010320391785744,-0.0010320291156867,0.0010320524276832,-0.0010320521769837,0.0010320287256064,4.7599378525189e-09,-5.0084776615042e-09,-0.0010267809022251,0.0010267806402087,3.2614617280388e-09,-3.6461371631007e-09,-0.0012653893720828,0.0012653946892094,-0.00126539163399,0.0012653923742573,-0.0012653926537717,0.0012653914576808,-0.0012653949168487,0.0012653891442559,-0.0010320466508931,0.0010320345387669,-0.0010320370680041,0.0010320440893988,0.65256370899561,131329,3014,0.0042699791144453,0.004269979116531,0.0042699791170668,15.704766009907,-0.00011436187192074,-0.00011436187192074,-0.00011436187192074,4319751.5157293,0.01289430157157
23619200,0.99038188047911,0.014021474897307,0.0046738249650547,0.00467382496603,0.0046738249662227,-0.0010278910451976,0.0010278929958908,-3.9332206229275e-09,5.8904484049034e-09,-1.0546412097438e-08,1.2999448330306e-08,-0.0012666110743937,0.0012666020142577,-0.0012666077931428,0.0012666052797191,-0.0012666037010753,0.0012666097448446,-0.00126660042904,0.0012666130198225,-0.0010331858779079,0.0010331859867182,-0.00103317624696,0.0010331955939791,1.052089357697e-08,-1.2973357903577e-08,-4.4542968044198e-09,2.4956109433632e-09,-0.0010278929937218,0.0010278910487846,-0.0012666049404762,0.001266608459094,-0.0012666027228116,0.0012666107680395,-0.0012666122925067,0.0012666007398494,-0.0012666100759973,0.0012666030502187,-0.0010331941393762,0.0010331775887322,-0.0010331873733575,0.0010331844819084,-0.001033174458344,0.0010331977072622,-0.0010331974740339,0.0010331740581888,4.8086090885578e-09,-5.0534574770782e-09,-0.0010278921515632,0.0010278918913332,3.2520306777245e-09,-3.6332710990031e-09,-0.001266603960725,0.0012666093021278,-0.0012666062149957,0.0012666069944683,-0.0012666072736684,0.0012666060393608,-0.0012666095290371,0.0012666037331955,-0.0010331920042333,0.0010331798141822,-0.0010331823265424,0.0010331894536432,0.66669036510568,131329,3014,0.0042745904715164,0.0042745904744561,0.0042745904752653,16.219963886775,-0.0001102402889058,-0.0001102402889058,-0.0001102402889058,4328837.2616269,0.012908316734701
23819200,0.9905868352843,0.014024278780784,0.0046747595928795,0.0046747595938559,0.0046747595940489,-0.0010290121153786,0.0010290140663904,-3.9776097713695e-09,5.9361681274326e-09,-1.0540954137793e-08,1.2995633615725e-08,-0.0012678702187355,0.0012678611311857,-0.0012678669074449,0.0012678644264642,-0.0012678628486712,0.0012678688584993,-0.0012678595464984,0.001267872163375,-0.0010343543500553,0.001034354370003,-0.0010343446367289,0.0010343640712034,1.0515671074844e-08,-1.2963890591194e-08,-4.443939939478e-09,2.4889212025311e-09,-0.0010290140629554,0.0010290121196881,-0.0012678640711924,0.0012678675903615,-0.0012678618590795,0.0012678698934777,-0.0012678714182932,0.0012678598758104,-0.0012678692072867,0.0012678621804701,-0.0010343625517056,0.0010343460292056,-0.0010343558074724,0.0010343529114101,-0.0010343428923112,0.0010343661293919,-0.0010343658896109,0.0010343424908848,4.8556218139396e-09,-5.1031822831666e-09,-0.0010290132219276,0.0010290129609239,3.2395075533709e-09,-3.6229378530737e-09,-0.0012678630791071,0.0012678684458885,-0.0012678653257987,0.0012678661457929,-0.0012678664242067,0.0012678651505801,-0.0012678686719005,0.0012678628521089,-0.0010343604753603,0.0010343481928091,-0.0010343507065557,0.0010343579298151,0.70079156993068,131329,3014,0.0042792430578235,0.0042792430596325,0.004279243060063,16.742614805402,-0.00010605908155678,-0.00010605908155678,-0.00010605908155678,4337287.7727079,0.012922459059568
24019200,0.99079415701468,0.014027150168592,0.0046757167221484,0.0046757167231251,0.0046757167233183,-0.0010301056310064,0.0010301075830428,-4.0235739016674e-09,5.9834080666966e-09,-1.0547256946952e-08,1.3003309228888e-08,-0.0012691720866816,0.0012691629644034,-0.0012691687441823,0.0012691662906412,-0.0012691647122239,0.0012691706965572,-0.0012691613787945,0.0012691740324985,-0.0010355184321172,0.0010355183673237,-0.0010355086297087,0.0010355281620689,1.0521903185356e-08,-1.296911028012e-08,-4.4346252658217e-09,2.4805180377554e-09,-0.0010301075788893,0.001030105635906,-0.0012691659169899,0.0012691694458785,-0.0012691637107295,0.00126917174292,-0.0012691732681821,0.0012691617277798,-0.0012691710629053,0.0012691640263923,-0.0010355265830578,0.001035510076429,-0.0010355198582165,0.0010355169427447,-0.0010355069287125,0.001035530173897,-0.0010355299365145,0.0010355065230065,4.9020103610072e-09,-5.1504274849757e-09,-0.001030106738063,0.0010301064768997,3.2303144113327e-09,-3.614379954894e-09,-0.0012691649168804,0.0012691703091411,-0.0012691671579769,0.0012691680151172,-0.0012691682934145,0.0012691669829064,-0.0012691705354101,0.001269164690574,-0.0010355245582289,0.0010355121881569,-0.0010355146986511,0.0010355220174637,0.70866202724005,131329,3014,0.0042837823458603,0.0042837823474041,0.0042837823477511,17.265522622936,-0.00010187581901651,-0.00010187581901651,-0.00010187581901651,4344192.9281687,0.012936260752682
24219200,0.99100244713479,0.014029897668297,0.0046766325553833,0.0046766325563605,0.0046766325565536,-0.0010310062453871,0.0010310081997365,-4.069127332512e-09,6.0322110232116e-09,-1.0579093243728e-08,1.3038951759974e-08,-0.0012702911470323,0.0012702819723488,-0.001270287772851,0.0012702853299487,-0.0012702837503129,0.0012702897271695,-0.0012702803854179,0.0012702930942547,-0.0010364869797843,0.0010364868498262,-0.0010364770909861,0.0010364967420378,1.0560586621211e-08,-1.3006296204656e-08,-4.4284903802718e-09,2.4758756777645e-09,-0.0010310081944147,0.0010310062510045,-0.0012702849382476,0.0012702884937745,-0.0012702827352745,0.0012702907871953,-0.0012702923144645,0.0012702807504735,-0.0012702901127228,0.0012702830452689,-0.0010364951018117,0.001036478585347,-0.0010364883929762,0.0010364854458244,-0.0010364754059733,0.001036498728231,-0.0010364984855171,0.0010364749987746,4.9467918811978e-09,-5.1981625338792e-09,-0.0010310073538634,0.0010310070915798,3.2244844369197e-09,-3.6111383042183e-09,-0.001270283937436,0.0012702893576129,-0.0012702861754966,0.0012702870668015,-0.0012702873446865,0.0012702860005826,-0.0012702895838646,0.0012702837112901,-0.0010364931177326,0.0010364806541259,-0.001036483170225,0.0010364905769506,0.68010065450385,131329,3014,0.0042875214030917,0.0042875214037014,0.0042875214037508,17.693205688922,-9.845435448862e-05,-9.845435448862e-05,-9.845435448862e-05,4349273.9330103,0.012947630995589
24419200,0.99120851232328,0.014032612755301,0.0046775375843844,0.0046775375853618,0.004677537585555,-0.0010314963291426,0.0010314982882313,-4.1128898877724e-09,6.082214010037e-09,-1.0650785956182e-08,1.3118017526099e-08,-0.0012709212570592,0.0012709120045449,-0.0012709178513314,0.0012709153930181,-0.0012709138108198,0.0012709198099758,-0.0012709104143393,0.0012709232080502,-0.001037015041981,0.0010370148790067,-0.0010370050714784,0.0010370248726522,1.0635735067054e-08,-1.3078893528999e-08,-4.4284563950664e-09,2.4784827962649e-09,-0.0010314982804737,0.0010314963364268,-0.0012709149875632,0.0012709185881036,-0.001270912783492,0.0012709208820595,-0.0012709224129158,0.0012709107958369,-0.0012709202100039,0.001270913091233,-0.0010370231669496,0.0010370066071056,-0.0010370164647785,0.0010370134786238,-0.0010370033749557,0.001037026853614,-0.0010370265944499,0.0010370029726812,4.9906582331991e-09,-5.2475171078368e-09,-0.0010314974406253,0.001031497176053,3.223499917599e-09,-3.6150796472542e-09,-0.0012709139930148,0.0012709194452476,-0.0012709162325129,0.0012709171537084,-0.0012709174315766,0.0012709160573044,-0.0012709196720624,0.0012709137673911,-0.0010370212105613,0.0010370086446006,-0.0010370111768446,0.0010370186629415,0.67934591728688,131329,3014,0.0042895560827974,0.0042895560818129,0.0042895560813519,17.885222420225,-9.6918220638201e-05,-9.6918220638201e-05,-9.6918220638201e-05,4351544.8120036,0.012953817893679
24619200,0.99141224743573,0.014035437645783,0.0046784792145454,0.0046784792155222,0.0046784792157151,-0.0010319862912009,0.0010319882524257,-4.1590913865542e-09,6.1288179868469e-09,-1.0729318152637e-08,1.3197203238029e-08,-0.0012715383139743,0.0012715289814593,-0.0012715348777024,0.0012715324011673,-0.001271530814978,0.0012715368392392,-0.0012715273878282,0.0012715402686358,-0.001037543968545,0.0010375437648846,-0.0010375338955974,0.0010375538389474,1.0706275709372e-08,-1.3161041426299e-08,-4.4367031585259e-09,2.4766047811484e-09,-0.0010319882474372,0.0010319862967366,-0.0012715319812026,0.0012715356272721,-0.0012715297753758,0.0012715379236081,-0.0012715394572647,0.001271527783734,-0.0012715372524624,0.0012715300816064,-0.0010375521125277,0.0010375354789721,-0.0010375453935796,0.0010375423472343,-0.001037532213653,0.0010375558249177,-0.0010375555885559,0.0010375318006788,5.0407525942919e-09,-5.291615179818e-09,-0.0010319874031645,0.001031987141116,3.2288031532506e-09,-3.6150584699893e-09,-0.0012715309929174,0.0012715364782024,-0.0012715332338058,0.0012715341845393,-0.0012715344628814,0.0012715330588187,-0.001271536704692,0.0012715307668319,-0.0010375501628954,0.0010375375142966,-0.0010375400312323,0.0010375476196712,0.70944460375914,131329,3014,0.0042915901069258,0.0042915901080649,0.0042915901082884,18.072004995963,-9.5423960032299e-05,-9.5423960032299e-05,-9.5423960032299e-05,4353612.0043173,0.012960002497434
24819200,0.99161361631965,0.014038005455207,0.0046793351510197,0.0046793351519972,0.0046793351521904,-0.0010324418551715,0.0010324438194912,-4.2045737405701e-09,6.176946971363e-09,-1.0802898332989e-08,1.3274110724764e-08,-0.0012721764946028,0.0012721670840165,-0.0012721730271819,0.0012721705349974,-0.0012721689456173,0.001272174991974,-0.0012721654873052,0.0012721784526228,-0.0010380486963096,0.001038048453228,-0.0010380385295439,0.0010380586169071,1.0779257422027e-08,-1.3239396349401e-08,-4.4426562231405e-09,2.4780787057461e-09,-0.0010324438148707,0.0010324418604169,-0.0012721701004834,0.0012721737913054,-0.001272167892248,0.0012721760901659,-0.0012721776267137,0.0012721658971571,-0.001272175419513,0.0012721681975461,-0.0010380568525648,0.0010380401556773,-0.0010380501244747,0.001038047029454,-0.0010380368490878,0.001038060605131,-0.0010380603735662,0.0010380364329781,5.0878952592335e-09,-5.3378401016195e-09,-0.0010324429686583,0.001032442706762,3.2329405792374e-09,-3.6184461639535e-09,-0.0012721691178319,0.0012721746365003,-0.0012721713611338,0.0012721723402354,-0.0012721726188717,0.0012721711859848,-0.0012721748631113,0.0012721688913854,-0.0010380549176526,0.0010380421770743,-0.0010380446934376,0.0010380523728914,0.66112229425334,131329,3014,0.0042934822503533,0.0042934822516496,0.0042934822519259,18.258607083868,-9.3931143329057e-05,-9.3931143329057e-05,-9.3931143329057e-05,4354370.0474822,0.01296575876005
25019200,0.99181488602895,0.01404053900626,0.0046801796680371,0.004680179669015,0.0046801796692083,-0.0010332627544874,0.0010332647191198,-4.2527268443788e-09,6.2235234308371e-09,-1.0848022138752e-08,1.331757141707e-08,-0.0012731001749122,0.0012730907047974,-0.0012730966763204,0.0012730941878283,-0.0012730925958783,0.0012730986420296,-0.0012730891063948,0.0012731021346063,-0.0010388977375895,0.0010388974266005,-0.0010388874654939,0.0010389076710297,1.0821219509267e-08,-1.32919638689e-08,-4.4482305648431e-09,2.4742516817301e-09,-0.0010332647175554,0.0010332627576654,-0.0012730937359415,0.001273097455694,-0.0012730915274371,0.0012730997555187,-0.0012731012933775,0.0012730895296673,-0.00127309908596,0.0012730918309871,-0.0010389058875867,0.0010388891408167,-0.0010388991461668,0.0010388960055474,-0.0010388858179201,0.001038909647912,-0.0010389094412349,0.0010388853899348,5.1373864196949e-09,-5.3807412523718e-09,-0.0010332638674447,0.0010332636082281,3.2378244119809e-09,-3.6174140273816e-09,-0.0012730927519196,0.0012730983024902,-0.0012730949959529,0.0012730960045907,-0.0012730962835631,0.0012730948210613,-0.0012730985286353,0.0012730925247109,-0.0010389039696388,0.0010388911496557,-0.0010388936486613,0.0010389014307541,0.65362539305027,131329,3014,0.0042968887575122,0.0042968887608599,0.0042968887617984,18.630440167702,-9.0956478658388e-05,-9.0956478658388e-05,-9.0956478658388e-05,4360668.1545639,0.012976112649126
25219200,0.99201930134073,0.01404321016788,0.0046810700552431,0.0046810700562216,0.0046810700564151,-0.0010345895707814,0.0010345915360954,-4.2991685929388e-09,6.2709259757219e-09,-1.0852978885562e-08,1.3323651270276e-08,-0.0012745339942405,0.001274524489537,-0.0012745304642677,0.0012745280037434,-0.0012745264117081,0.001274532430595,-0.0012745228908223,0.001274535954398,-0.0010402617615497,0.0010402613640619,-0.0010402514005592,0.0010402717034329,1.0827723540036e-08,-1.3296664142205e-08,-4.4447559067149e-09,2.4725482002696e-09,-0.0010345915334983,0.0010345895746279,-0.0012745275353526,0.0012745312606834,-0.0012745253285099,0.0012745335586787,-0.0012745350966012,0.0012745233311365,-0.0012745328907888,0.001274525630635,-0.0010402698649879,0.0010402531233822,-0.0010402631316446,0.0010402599854575,-0.0010402497922414,0.0010402736356675,-0.0010402734255929,0.0010402493653042,5.1832899633143e-09,-5.428125000919e-09,-0.001034590684198,0.0010345904242657,3.2347698391636e-09,-3.6157066577465e-09,-0.001274526539258,0.001274532119402,-0.0012745287819266,0.001274529823212,-0.0012745301021215,0.0012745286070244,-0.0012745323457478,0.0012745263124048,-0.0010402679955184,0.001040255083025,-0.0010402575844172,0.0010402654563078,0.67454675383257,131329,3014,0.0043023941851629,0.0043023941877485,0.0043023941884475,19.271838516906,-8.5825291864755e-05,-8.5825291864755e-05,-8.5825291864755e-05,4371714.6120554,0.012992845478303
25419200,0.99222673633817,0.014046172103515,0.0046820573671205,0.0046820573681002,0.004682057368294,-0.0010359260041836,0.0010359279696983,-4.3446907910316e-09,6.3173757576835e-09,-1.0854361245244e-08,1.3326285082168e-08,-0.0012760234862985,0.0012760139492606,-0.0012760199255423,0.0012760174939621,-0.0012760159026528,0.0012760218917137,-0.0012760123509455,0.0012760254459395,-0.0010416550454198,0.0010416545611785,-0.0010416445988963,0.001041664994744,1.082900156567e-08,-1.3294548809715e-08,-4.4422394711863e-09,2.4730359640443e-09,-0.0010359279661021,0.0010359260086575,-0.0012760170113579,0.0012760207371841,-0.0012760148050042,0.0012760230343194,-0.0012760245721868,0.0012760128077859,-0.001276022366929,0.0012760151064589,-0.0010416631005128,0.0010416463665101,-0.0010416563732933,0.0010416532306369,-0.0010416430306476,0.0010416668792082,-0.0010416666603419,0.0010416426064412,5.2296239345492e-09,-5.4769400097716e-09,-0.0010359271179211,0.0010359268570546,3.231259310202e-09,-3.6143221317928e-09,-0.0012760160003609,0.0012760216107213,-0.001276018241517,0.0012760193162487,-0.0012760195947959,0.0012760180664385,-0.0012760218369204,0.0012760157735463,-0.0010416612818389,0.001041648273252,-0.0010416507801301,0.0010416587420224,0.7278919179059,131329,3014,0.0043079402039709,0.0043079402057855,0.0043079402062329,19.919244740504,-8.0646042075971e-05,-8.0646042075971e-05,-8.0646042075971e-05,4381814.4305292,0.013009704426858
25619200,0.9924369724314,0.014049192395301,0.004683064131049,0.0046830641320291,0.004683064132223,-0.0010372186670925,0.0010372206327024,-4.3913507747482e-09,6.3645288475125e-09,-1.0852759241655e-08,1.332517400614e-08,-0.0012775772411274,0.0012775676736335,-0.0012775736490499,0.0012775712495132,-0.0012775696584638,0.0012775756151784,-0.0012775660754633,0.0012775792006802,-0.0010430394146857,0.0010430388388121,-0.0010430288787865,0.001043049366697,1.0828134472137e-08,-1.3291899898152e-08,-4.4403163370704e-09,2.4726922945633e-09,-0.0010372206285731,0.0010372186719591,-0.001277570751018,0.0012775744767279,-0.0012775685453982,0.0012775767730722,-0.001277578310916,0.0012775665487291,-0.0012775761063327,0.0012775688466099,-0.0010430474203916,0.0010430306928476,-0.0010430406975248,0.0010430375567999,-0.0010430273548314,0.0010430512028234,-0.0010430509800535,0.001043026932319,5.2757086736332e-09,-5.5241619245863e-09,-0.001037219780968,0.0010372195197295,3.2299175827497e-09,-3.6139801439462e-09,-0.0012775697246597,0.0012775753656232,-0.0012775719653671,0.001277573071774,-0.0012775733503666,0.0012775717904136,-0.0012775755920086,0.0012775694982011,-0.0010430456511253,0.001043032549373,-0.0010430350591907,0.0010430431103843,0.73243475669896,131329,3014,0.0043133062239357,0.0043133062254604,0.0043133062258028,20.566850792777,-7.5465193657783e-05,-7.5465193657783e-05,-7.5465193657783e-05,4389652.9987001,0.01302602207573
25819200,0.99264454835731,0.014052084890032,0.0046840282959589,0.0046840282969395,0.0046840282971334,-0.0010377499275186,0.0010377518966281,-4.4342807022978e-09,6.4137137341833e-09,-1.0885347820449e-08,1.3365094591476e-08,-0.001278348041416,0.0012783384205224,-0.0012783444180394,0.0012783420266359,-0.0012783404353356,0.0012783463866695,-0.0012783368213215,0.0012783500022277,-0.001043643784271,0.0010436431528611,-0.0010436331757603,0.0010436537868732,1.0877173893333e-08,-1.3331764195612e-08,-4.4445387406717e-09,2.4853508539815e-09,-0.0010377518886423,0.0010377499348562,-0.0012783415147049,0.0012783452622569,-0.0012783393029038,0.0012783475639067,-0.0012783491040742,0.001278337305066,-0.0012783468935753,0.0012783396080271,-0.0010436517722455,0.001043635016982,-0.0010436450490489,0.0010436419118851,-0.001043631641352,0.001043655604551,-0.0010436553452803,0.0010436312356645,5.3183651844472e-09,-5.5765340867115e-09,-0.0010377510443352,0.0010377507788741,3.2328061550205e-09,-3.6256704355364e-09,-0.0012783404810157,0.0012783461581337,-0.0012783427270209,0.0012783438599434,-0.0012783441384353,0.0012783425514285,-0.0012783463855563,0.0012783402547319,-0.0010436500438187,0.0010436368261818,-0.0010436393673515,0.0010436474882947,0.71386319926003,131329,3014,0.0043155131046773,0.0043155131033275,0.0043155131027267,20.805415090005,-7.3556679279962e-05,-7.3556679279962e-05,-7.3556679279962e-05,4390483.7387617,0.013032737554514
26019200,0.99284486753245,0.014054752916816,0.0046849176382206,0.0046849176392009,0.0046849176393948,-0.0010376157525618,0.0010376177254968,-4.4796420113644e-09,6.4634536557805e-09,-1.0960395775697e-08,1.3445399494716e-08,-0.0012783769492009,0.0012783672484199,-0.001278373294072,0.0012783708859596,-0.0012783692918461,0.0012783752665598,-0.0012783656458404,0.0012783789138631,-0.0010435484707705,0.0010435478030783,-0.001043537772545,0.0010435585341927,1.0943029858153e-08,-1.3398715671994e-08,-4.4600079104641e-09,2.5001565096046e-09,-0.0010376177165256,0.0010376157607424,-0.0012783703670802,0.0012783741461646,-0.0012783681453027,0.0012783764576283,-0.001278378000683,0.0012783661448373,-0.0012783757799078,0.0012783684578629,-0.0010435564760238,0.0010435396481746,-0.0010435497263083,0.0010435465761547,-0.0010435362393422,0.0010435603448857,-0.001043560071474,0.0010435358433941,5.3630367136744e-09,-5.6238278280084e-09,-0.0010376168718625,0.0010376166050694,3.2477518626746e-09,-3.6431749043898e-09,-0.0012783693285302,0.0012783750465922,-0.001278371585751,0.0012783727375974,-0.0012783730168833,0.001278371409332,-0.0012783752748959,0.0012783691020863,-0.0010435547632626,0.0010435414407342,-0.0010435439988444,0.0010435521939954,0.68688292482525,131329,3014,0.0043149582201639,0.0043149582185265,0.0043149582178313,20.675579543781,-7.4595363649756e-05,-7.4595363649756e-05,-7.4595363649756e-05,4385694.4100861,0.013031055939869
26219200,0.99303812534436,0.014057498529659,0.0046858328425022,0.0046858328434815,0.004685832843675,-0.0010374965629775,0.0010374985362494,-4.5272489801807e-09,6.5089762680959e-09,-1.101798399974e-08,1.3500791611554e-08,-0.0012783501324254,0.0012783403650676,-0.0012783464467095,0.0012783440341279,-0.001278342436965,0.0012783484204708,-0.0012783387604023,0.001278352099166,-0.0010434526199378,0.0010434518931154,-0.0010434418153236,0.0010434627008544,1.0996481147795e-08,-1.3465342401807e-08,-4.4816202112314e-09,2.5101980895985e-09,-0.0010374985311724,0.0010374965685643,-0.0012783435027599,0.0012783473089176,-0.0012783412708399,0.0012783496313833,-0.0012783511761375,0.0012783392669531,-0.0012783489452921,0.0012783415909216,-0.0010434606445855,0.0010434437255357,-0.0010434538498503,0.001043450671602,-0.001043440304337,0.001043464514904,-0.0010434642625206,0.0010434399043016,5.4138128069114e-09,-5.6669938513455e-09,-0.0010374976819156,0.0010374974179157,3.2665219962747e-09,-3.6553642408669e-09,-0.0012783424573826,0.0012783482164169,-0.0012783447242438,0.0012783458966415,-0.0012783461768786,0.0012783445476999,-0.0012783484446836,0.0012783422295412,-0.0010434589331115,0.0010434455226316,-0.0010434480687427,0.0010434563613415,0.72524661927169,131329,3014,0.0043144644987738,0.0043144644998397,0.0043144645000396,20.537484947535,-7.5700120419722e-05,-7.5700120419722e-05,-7.5700120419722e-05,4381864.7691831,0.01302955693976
26419200,0.99322460775167,0.014060231415014,0.0046867438042868,0.0046867438052667,0.0046867438054604,-0.0010373544120012,0.0010373563869234,-4.5734497749546e-09,6.5563860886114e-09,-1.1063373356009e-08,1.3547768129219e-08,-0.0012783620214776,0.0012783521939243,-0.001278358304617,0.0012783558942313,-0.0012783542952701,0.0012783602801206,-0.0012783505875478,0.0012783639900918,-0.0010433550447337,0.0010433542576478,-0.00104334414644,0.0010433651552161,1.1040677375998e-08,-1.3512878107712e-08,-4.4980252810104e-09,2.5238596998005e-09,-0.0010373563820439,0.0010373544174217,-0.0012783553522034,0.0012783591773227,-0.0012783531103912,0.0012783615098547,-0.0012783630560042,0.0012783511047129,-0.0012783608152368,0.0012783534387638,-0.0010433630715093,0.0010433460885609,-0.0010433562455934,0.001043353062511,-0.0010433426509504,0.0010433669570863,-0.0010433667001619,0.0010433422574001,5.4607319536225e-09,-5.7135327904952e-09,-0.001037355531985,0.0010373552675861,3.2815668218273e-09,-3.6703043132226e-09,-0.0012783542960648,0.0012783600955611,-0.0012783565728658,0.0012783577657008,-0.0012783580467295,0.0012783563957132,-0.001278360324442,0.0012783540674719,-0.0010433613785695,0.001043347867925,-0.0010433504216019,0.0010433587971314,0.74502756246022,131329,3014,0.0043138765273837,0.0043138765285083,0.0043138765287286,20.399104920499,-7.6807160636006e-05,-7.6807160636006e-05,-7.6807160636006e-05,4376357.0083112,0.013027775078029
26619200,0.99340869525156,0.014062901664073,0.0046876338873063,0.0046876338882867,0.0046876338884805,-0.0010378590719812,0.0010378610442076,-4.6261195968101e-09,6.6028958454761e-09,-1.1062380985884e-08,1.3539578788338e-08,-0.0012790817851064,0.0012790719274616,-0.0012790780358913,0.0012790756613677,-0.0012790740612326,0.0012790800102493,-0.0012790703206918,0.0012790837542162,-0.0010439332026,0.0010439323038613,-0.0010439221852392,0.0010439432789744,1.1009954013895e-08,-1.3494227693522e-08,-4.5078804414208e-09,2.522739983816e-09,-0.0010378610435343,0.0010378590749491,-0.0012790751079608,0.0012790789161749,-0.0012790728640984,0.0012790812519029,-0.0012790827956794,0.0012790708597275,-0.0012790805523443,0.0012790731973509,-0.0010439411862559,0.0010439241876629,-0.001043934331559,0.001043931151877,-0.0010439207876175,0.0010439450198208,-0.0010439447993172,0.0010439203825495,5.5102802017223e-09,-5.7519515587105e-09,-0.001037860189599,0.0010378599295658,3.2952233707174e-09,-3.6740986005303e-09,-0.0012790740260925,0.0012790798603878,-0.0012790763084702,0.0012790775240988,-0.001279077806272,0.0012790761312594,-0.0012790800891718,0.0012790737968839,-0.0010439395248803,0.0010439259439781,-0.0010439284709601,0.0010439369489771,0.738484408039,131329,3014,0.0043159727636689,0.004315972768432,0.0043159727698476,20.630194940226,-7.4958440478191e-05,-7.4958440478191e-05,-7.4958440478191e-05,4376829.5950144,0.013034153616588
26819200,0.99359260620825,0.014065496653948,0.0046884988839297,0.0046884988849121,0.0046884988851066,-0.0010387303195831,0.0010387322881078,-4.6694413139496e-09,6.6431644667091e-09,-1.0997157394508e-08,1.3470865676506e-08,-0.0012801720533686,0.0012801622081538,-0.0012801682762297,0.0012801659700337,-0.0012801643737342,0.0012801702458179,-0.00128016060586,0.0012801740169991,-0.0010448804522499,0.0010448794248956,-0.0010448693567025,0.0010448904836489,1.098035551492e-08,-1.3460886068084e-08,-4.5115326628245e-09,2.5295663207156e-09,-0.0010387322879746,0.0010387303215768,-0.001280165394592,0.0012801691788726,-0.0012801631466777,0.0012801715184974,-0.0012801730609191,0.0012801611427936,-0.0012801708143584,0.0012801634837905,-0.0010448883629477,0.0010448713800272,-0.0010448815013253,0.0010448783574971,-0.0010448679985498,0.0010448921787083,-0.0010448919467318,0.0010448676001945,5.5613139018248e-09,-5.8045293491716e-09,-0.0010387314354149,0.0010387311746705,3.2920108570486e-09,-3.6722100735324e-09,-0.0012801642846267,0.0012801701517605,-0.0012801665644187,0.0012801678172466,-0.0012801680985982,0.0012801663875354,-0.0012801703797204,0.0012801640544266,-0.0010448867601783,0.0010448730755344,-0.0010448756062827,0.0010448841849245,0.72121905939462,131329,3014,0.0043195897567075,0.0043195897605593,0.0043195897616654,21.065197321682,-7.1478421426545e-05,-7.1478421426545e-05,-7.1478421426545e-05,4381355.8109862,0.013045153620944
27019200,0.9937762355474,0.014068007723,0.0046893359069465,0.0046893359079297,0.0046893359081243,-0.0010396185914782,0.0010396205597733,-4.7182696230724e-09,6.6935068956648e-09,-1.0952904126003e-08,1.3428216071364e-08,-0.0012812457258462,0.0012812358749245,-0.0012812419152235,0.0012812396693995,-0.00128123807548,0.0012812438842039,-0.0012812342739197,0.0012812476884103,-0.0010458303206721,0.0010458291714524,-0.0010458191395642,0.0010458403390189,1.0923127967046e-08,-1.3392210738366e-08,-4.5048063395614e-09,2.5329183612799e-09,-0.0010396205560755,0.001039618596073,-0.0012812390834543,0.0012812428301231,-0.0012812368366362,0.0012812451680584,-0.0012812467082163,0.0012812348369367,-0.0012812444623423,0.0012812371764455,-0.0010458381367858,0.0010458212160247,-0.0010458312891795,0.0010458281999614,-0.0010458178604138,0.0010458419350212,-0.0010458416790167,0.0010458174742372,5.6021531049211e-09,-5.851722514894e-09,-0.0010396197078765,0.0010396194444871,3.2916810159486e-09,-3.6776029554453e-09,-0.0012812379389698,0.001281243837182,-0.0012812402214524,0.0012812415013179,-0.0012812417827385,0.0012812400440499,-0.0012812440660342,0.001281237709808,-0.0010458366124819,0.0010458228286988,-0.0010458253785858,0.0010458340287232,0.70228506518982,131329,3014,0.0043232767872693,0.004323276789121,0.0043232767895652,21.504809270808,-6.7961525833533e-05,-6.7961525833533e-05,-6.7961525833533e-05,4386635.4651794,0.013056364578793
27219200,0.99395942392744,0.01407042688074,0.0046901422928595,0.0046901422938429,0.0046901422940375,-0.0010405193567659,0.0010405213226192,-4.7650837735204e-09,6.7383138725777e-09,-1.0898179093786e-08,1.3371005423374e-08,-0.0012822926768292,0.0012822828302011,-0.0012822888355866,0.0012822866551247,-0.0012822850637851,0.0012822908021055,-0.0012822812316819,0.0012822946366727,-0.0010467769143388,0.0010467756369403,-0.0010467656459374,0.0010467868961988,1.0875312471706e-08,-1.3340382133511e-08,-4.5039009501823e-09,2.5353542297057e-09,-0.0010405213188108,0.0010405193613996,-0.0012822860523172,0.0012822897674928,-0.0012822838048323,0.0012822921059163,-0.0012822936441595,0.0012822818075437,-0.0012822913977264,0.0012822841474816,-0.001046784647638,0.0010467677634087,-0.0010467778006918,0.0010467747506493,-0.0010467644359938,0.0010467884190094,-0.0010467881560496,0.0010467640547738,5.6495027493631e-09,-5.8999668759736e-09,-0.0010405204719576,0.0010405202084425,3.2906227740713e-09,-3.6772890997981e-09,-0.0012822848763315,0.0012822908060993,-0.0012822871583842,0.0012822884708347,-0.0012822887519444,0.001282286981111,-0.0012822910349334,0.0012822846474398,-0.0010467831888872,0.0010467693096906,-0.0010467718624093,0.001046780604548,0.68191773290721,131329,3014,0.0043270150058827,0.0043270150075906,0.0043270150079837,21.944580851463,-6.4443353188292e-05,-6.4443353188292e-05,-6.4443353188292e-05,4392565.7288252,0.013067729160149
27419200,0.99414056981387,0.014072903235869,0.0046909677445691,0.0046909677455527,0.0046909677457475,-0.0010412033992989,0.0010412053652547,-4.8116533339112e-09,6.7864305661752e-09,-1.0869086066058e-08,1.3343493852099e-08,-0.0012830698974278,0.0012830600372269,-0.0012830660242954,0.0012830638933659,-0.0012830623036337,0.0012830679905161,-0.0012830584396509,0.0012830718564014,-0.0010474883334578,0.0010474869486076,-0.0010474769822309,0.0010474983102283,1.0841809495999e-08,-1.3298096368826e-08,-4.5015779847907e-09,2.540880959229e-09,-0.001041205358669,0.0010412034059407,-0.0012830632787801,0.0012830669695641,-0.0012830610300246,0.0012830693087502,-0.0012830708456987,0.0012830590353311,-0.0012830685979211,0.0012830613760278,-0.0010474959930537,0.0010474791445861,-0.0010474891523716,0.0010474861433037,-0.0010474758316425,0.0010474997568945,-0.0010474994729471,0.0010474754620113,5.6929438215035e-09,-5.9490215871506e-09,-0.0010412045152603,0.0010412042492926,3.2902871136931e-09,-3.6820975623881e-09,-0.0012830620743967,0.0012830680363779,-0.0012830643584519,0.0012830656999273,-0.0012830659810688,0.0012830641807834,-0.0012830682659497,0.0012830618459911,-0.0010474946016471,0.0010474806204985,-0.0010474831892999,0.0010474920096808,0.70214879085071,131329,3014,0.0043298533680937,0.0043298533682065,0.0043298533680885,22.252657164159,-6.1978742686726e-05,-6.1978742686726e-05,-6.1978742686726e-05,4396917.0001846,0.013076356461586
27619200,0.99431914333044,0.014075385880549,0.0046917952927958,0.0046917952937793,0.004691795293974,-0.0010418016739099,0.0010418036377886,-4.8597336533257e-09,6.831677470178e-09,-1.0844935817008e-08,1.3316030950219e-08,-0.0012837928000089,0.0012837829244821,-0.0012837888960061,0.0012837868119221,-0.0012837852230449,0.001283790860302,-0.0012837813281617,0.0012837947574302,-0.0010481243801762,0.0010481228821761,-0.0010481129314418,0.0010481343292233,1.0820659642967e-08,-1.3279871747594e-08,-4.5050014634107e-09,2.5415220386342e-09,-0.0010418036330236,0.0010418016793089,-0.0012837861801904,0.0012837898572524,-0.0012837839302093,0.0012837921979742,-0.0012837937339679,0.0012837819358245,-0.0012837914850141,0.0012837842780915,-0.0010481319833068,0.0010481151373526,-0.0010481251327609,0.0010481221350281,-0.0010481118432805,0.0010481357236684,-0.0010481354486831,0.0010481114707698,5.7414514141298e-09,-5.9943220025481e-09,-0.0010418027885197,0.0010418025239461,3.2936695841257e-09,-3.6826014776262e-09,-0.0012837849528142,0.0012837909473183,-0.0012837872378233,0.0012837886093521,-0.0012837888905746,0.0012837870602526,-0.0012837911765012,0.001283784723953,-0.0010481306377517,0.0010481165692968,-0.0010481191307332,0.0010481280482066,0.71252807802401,131329,3014,0.0043323364663433,0.0043323364676596,0.0043323364679377,22.519589135008,-5.9843286919932e-05,-5.9843286919932e-05,-5.9843286919932e-05,4399600.1532978,0.013083906151103
27819200,0.99449507542053,0.014077876782903,0.0046926255935802,0.0046926255945641,0.0046926255947589,-0.0010423890714275,0.0010423910343527,-4.9071717454481e-09,6.8778389455649e-09,-1.0828336286553e-08,1.3297882668989e-08,-0.0012845239812112,0.0012845140853032,-0.001284520046071,0.0012845180039954,-0.0012845164156321,0.0012845220095172,-0.0012845124896009,0.0012845259379026,-0.0010487574693387,0.0010487558663509,-0.0010487459269482,0.0010487674032219,1.0802179075251e-08,-1.3261723418839e-08,-4.5065644101127e-09,2.5427027137334e-09,-0.0010423910299646,0.0010423890765729,-0.0012845173572066,0.001284521021946,-0.0012845151063731,0.0012845233636292,-0.001284524898816,0.0012845131127417,-0.0012845226489918,0.001284515455971,-0.0010487650164503,0.0010487481784876,-0.0010487581613806,0.0010487551771648,-0.0010487448981827,0.0010487687415236,-0.0010487684686706,0.0010487445260643,5.788729118799e-09,-6.040574079873e-09,-0.0010423901854692,0.001042389921243,3.295542738005e-09,-3.6835777717276e-09,-0.0012845161076728,0.0012845221342467,-0.0012845183935829,0.0012845197952858,-0.0012845200766007,0.0012845182160056,-0.0012845223634085,0.0012845158786925,-0.0010487637205491,0.0010487495614978,-0.001048752120933,0.0010487611311103,0.72383357106253,131329,3014,0.0043347747592892,0.0043347747608599,0.0043347747612233,22.785574016983,-5.7715407864134e-05,-5.7715407864134e-05,-5.7715407864134e-05,4401972.3951173,0.013091320804966
28019200,0.99466830981743,0.014080377660873,0.0046934592195697,0.0046934592205541,0.004693459220749,-0.0010429663069681,0.0010429682692783,-4.9542633619786e-09,6.9242534610157e-09,-1.0813762758971e-08,1.3282467165128e-08,-0.001285264684165,0.0012852547665042,-0.0012852607178753,0.0012852587163684,-0.0012852571285065,0.001285262680687,-0.0012852531713224,0.001285266640243,-0.0010493886637216,0.0010493869584158,-0.0010493770294129,0.0010493985865236,1.0788344433737e-08,-1.3247411636519e-08,-4.5074268652869e-09,2.5439221233839e-09,-0.0010429682649521,0.0010429663120562,-0.0012852580539845,0.0012852617092117,-0.0012852558024671,0.0012852640515967,-0.0012852655862765,0.0012852538093828,-0.0012852633357678,0.0012852561533149,-0.0010493961560218,0.001049379325531,-0.0010493892985852,0.0010493863259641,-0.0010493760547239,0.0010493998712269,-0.0010493995978088,0.0010493756837248,5.8356153195754e-09,-6.0873082717343e-09,-0.001042967420695,0.0010429671564901,3.2965926290933e-09,-3.684504986343e-09,-0.0012852567838023,0.0012852628422113,-0.0012852590703571,0.0012852605025788,-0.0012852607839215,0.0012852588927579,-0.001285263071375,0.0012852565547729,-0.0010493949099089,0.0010493806588419,-0.0010493832184423,0.0010493923199857,0.73612510405973,131329,3014,0.004337171202838,0.004337171204417,0.0043371712047845,23.051525958365,-5.5587792333082e-05,-5.5587792333082e-05,-5.5587792333082e-05,4403974.2690382,0.013098609384064
28219200,0.99483812232541,0.014082880426477,0.0046942934747709,0.0046942934757557,0.0046942934759508,-0.0010434124035049,0.0010434143666871,-5.0008022243953e-09,6.9723325242333e-09,-1.0814466397593e-08,1.3284948640232e-08,-0.0012858886643567,0.0012858787145018,-0.0012858846663752,0.001285882695728,-0.0012858811078782,0.0012858866299018,-0.0012858771189861,0.0012858906208953,-0.0010498934877868,0.0010498916935948,-0.0010498817655418,0.0010499034188989,1.0787380902522e-08,-1.3243261868275e-08,-4.5071414332627e-09,2.54651961878e-09,-0.0010434143610312,0.0010434124095316,-0.0012858820194685,0.0012858856723607,-0.0012858797671007,0.0012858880153519,-0.0012858895501783,0.001285877774467,-0.0012858872987654,0.0012858801190343,-0.0010499009320333,0.0010498841066353,-0.0010498940767281,0.001049891113266,-0.0010498808337995,0.001049904652726,-0.0010499043696659,0.001049880467521,5.8805629845139e-09,-6.1348313183791e-09,-0.0010434135179613,0.0010434132526475,3.2974046061409e-09,-3.6876600415612e-09,-0.0012858807319965,0.0012858868225113,-0.0012858830201266,0.0012858844816755,-0.0012858847630896,0.0012858828423869,-0.0012858870520479,0.0012858805032608,-0.0010498997359276,0.0010498853883012,-0.0010498879562126,0.0010498971418899,0.74948917886875,131329,3014,0.0043390238447615,0.0043390238455286,0.0043390238456245,23.251251024724,-5.3989991802206e-05,-5.3989991802206e-05,-5.3989991802206e-05,4404424.0880645,0.013104245997872
28419200,0.99500442086361,0.014085386132519,0.0046951287101181,0.0046951287111028,0.0046951287112977,-0.0010438303685392,0.0010438323326193,-5.0464895201504e-09,7.018636769141e-09,-1.0816041799053e-08,1.3287076289852e-08,-0.0012865017867084,0.0012864918063095,-0.001286497758015,0.0012864958181283,-0.0012864942291879,0.0012864997231361,-0.0012864902095797,0.0012865037450134,-0.0010503778660407,0.0010503759829847,-0.0010503660519418,0.0010503877967507,1.079415651697e-08,-1.325132680163e-08,-4.5093626554224e-09,2.5477188135553e-09,-0.0010438323268247,0.001043830374894,-0.0012864951241504,0.0012864987813381,-0.00128649287081,0.0012865011254798,-0.0012865026603684,0.0012864908789811,-0.0012865004076618,0.0012864932246734,-0.0010503852712236,0.0010503684356886,-0.0010503784112122,0.0010503754432908,-0.001050365161078,0.0010503889931293,-0.0010503887134329,0.001050364794922,5.9285275041131e-09,-6.1819580610129e-09,-0.0010438314834208,0.0010438312184095,3.2984099472079e-09,-3.6879535857112e-09,-0.0012864938226889,0.0012864999451409,-0.0012864961116269,0.0012864976040898,-0.0012864978860317,0.0012864959338638,-0.001286500175548,0.0012864935945642,-0.0010503841168193,0.0010503696776469,-0.0010503722422808,0.0010503815227546,0.76402417450146,131329,3014,0.0043407600404473,0.0043407600416095,0.0043407600418424,23.441852762014,-5.2465177903887e-05,-5.2465177903887e-05,-5.2465177903887e-05,4404222.0754814,0.013109529631472
28619200,0.99516721069878,0.014087856746733,0.0046959522481893,0.0046959522491743,0.0046959522493693,-0.0010442331712331,0.001044235134629,-5.0937901727656e-09,7.0649792698506e-09,-1.0823765765797e-08,1.3293873770223e-08,-0.0012871195691088,0.0012871095519223,-0.0012871155093699,0.0012871135951303,-0.0012871120064031,0.0012871174733167,-0.0012871079557682,0.0012871215262546,-0.0010508541476236,0.0010508521764262,-0.0010508422398349,0.0010508640799264,1.0800003420922e-08,-1.3259336709402e-08,-4.5110879235585e-09,2.5474425930986e-09,-0.0010442351299775,0.0010442331765857,-0.0012871128868398,0.0012871165468185,-0.0012871106329165,0.001287118891547,-0.0012871204270278,0.0012871086391997,-0.0012871181741018,0.0012871109855022,-0.0010508615138983,0.0010508446689799,-0.0010508546504305,0.0010508516772051,-0.0010508413928236,0.001050865235413,-0.0010508649586748,0.0010508410241538,5.9758149450142e-09,-6.2281024762445e-09,-0.001044234285603,0.0010442340211147,3.2996501760697e-09,-3.6881486117827e-09,-0.0012871115710846,0.0012871177253011,-0.0012871138599158,0.0012871153834262,-0.001287115664976,0.0012871136823218,-0.0012871179546854,0.0012871113421235,-0.0010508603997126,0.0010508458702334,-0.0010508484334612,0.0010508578068631,0.7689608033811,131329,3014,0.0043424336077085,0.0043424336091629,0.0043424336094842,23.632234120047,-5.0942127039621e-05,-5.0942127039621e-05,-5.0942127039621e-05,4403578.6182931,0.013114623855099
28819200,0.99532652237139,0.014090204270734,0.0046967347561894,0.0046967347571747,0.0046967347573698,-0.0010446284442598,0.0010446304079797,-5.140671425252e-09,7.1119802268565e-09,-1.0833034810546e-08,1.3303329331156e-08,-0.0012877315405603,0.0012877214863133,-0.0012877274495638,0.0012877255608415,-0.0012877239715732,0.0012877294139312,-0.001287719889679,0.0012877334981973,-0.0010513217836915,0.0010513197266634,-0.0010513097827702,0.0010513317209821,1.0807413926521e-08,-1.3268131722682e-08,-4.5117856097222e-09,2.5469006403704e-09,-0.0010446304036328,0.0010446284493956,-0.0012877248372618,0.0012877285021092,-0.0012877225833248,0.0012877308469176,-0.001287732382824,0.0012877205890526,-0.0012877301298682,0.0012877229354328,-0.001051329111042,0.0010513122586839,-0.0010513222462617,0.0010513192660344,-0.0010513089789602,0.0010513328353477,-0.0010513325612473,0.0010513086087878,6.022767609672e-09,-6.2743393583571e-09,-0.0010446295586898,0.0010446292945198,3.3002720940412e-09,-3.6881115115632e-09,-0.0012877235083079,0.0012877296938004,-0.0012877257972882,0.0012877273516858,-0.0012877276332576,0.001287725619765,-0.0012877299231083,0.0012877232793181,-0.001051328038439,0.001051313418727,-0.001051315980324,0.0010513254460862,0.74978435735382,131329,3014,0.0043440759192082,0.0043440759208439,0.0043440759212206,23.82483359033,-4.9401331277356e-05,-4.9401331277356e-05,-4.9401331277356e-05,4402943.1136821,0.013119622981832
29019200,0.9954835069829,0.014092379059574,0.0046974596858024,0.0046974596867881,0.0046974596869834,-0.0010452538213114,0.0010452557827409,-5.1869984507578e-09,7.1547663814159e-09,-1.0825830219141e-08,1.3292211427859e-08,-0.0012885407451801,0.00128853066592,-0.0012885366248349,0.0012885347703888,-0.0012885331818262,0.0012885385870168,-0.0012885290705536,0.0012885427011391,-0.0010520079647704,0.0010520058085673,-0.0010519958681691,0.0010520178822816,1.0806765332992e-08,-1.3272627800512e-08,-4.5129851081252e-09,2.5435077044082e-09,-0.0010452557809053,0.001045253824599,-0.0012885340279406,0.0012885376948594,-0.0012885317748836,0.0012885400392099,-0.001288541574571,0.0012885297799647,-0.001288539322566,0.0012885321259202,-0.0010520152488006,0.0010519983876267,-0.0010520083782686,0.0010520053862017,-0.0010519951133266,0.0010520189613343,-0.0010520187030045,0.0010519947358438,6.0741617398519e-09,-6.3209775504747e-09,-0.001045254933968,0.0010452546719414,3.2978749124352e-09,-3.6813657851846e-09,-0.001288532685211,0.0012885389006685,-0.0012885349705699,0.0012885365612387,-0.0012885368425933,0.0012885347936097,-0.0012885391289141,0.0012885324558144,-0.0010520142153597,0.0010519995111705,-0.0010520020573428,0.0010520116312086,0.71130254572761,131329,3014,0.004346672236474,0.0043466722394855,0.0043466722403267,24.140852935407,-4.6873176516743e-05,-4.6873176516743e-05,-4.6873176516743e-05,4405266.1989467,0.013127519722828
29219200,0.99563811503586,0.014094464087301,0.0046981546950443,0.0046981546960305,0.0046981546962259,-0.0010459123498675,0.0010459143110375,-5.2350481808127e-09,7.2033805331693e-09,-1.0827630982159e-08,1.3294918243668e-08,-0.001289307130121,0.0012892970160281,-0.0012893029772119,0.0012893011525125,-0.0012892995654534,0.0012893049389342,-0.001289295421657,0.0012893090851667,-0.0010526996980665,0.0010526974511803,-0.001052687513912,0.0010527096263164,1.0804348625277e-08,-1.3263470215277e-08,-4.505346209963e-09,2.5421743467319e-09,-0.0010459143069769,0.0010459123547306,-0.0012893003950953,0.0012893040632168,-0.0012892981449135,0.0012893064043127,-0.0012893079381049,0.0012892961528409,-0.0012893056888896,0.0012892984954945,-0.0010527069235909,0.0010526900857146,-0.0010527000685514,0.0010526970810506,-0.0010526868034932,0.0010527106490301,-0.0010527103788421,0.001052686431135,6.1176956292155e-09,-6.367945040709e-09,-0.0010459134626204,0.0010459131992739,3.2943152010202e-09,-3.6808595067099e-09,-0.0012892990383196,0.0012893052828776,-0.0012893013227128,0.0012893029449533,-0.001289303226193,0.001289301146143,-0.0012893055114294,0.001289298809854,-0.0010527059475101,0.0010526911495111,-0.0010526937040078,0.0010527033606959,0.69516968282858,131329,3014,0.0043494048750484,0.0043494048767082,0.0043494048770951,24.459609345573,-4.4323125235413e-05,-4.4323125235413e-05,-4.4323125235413e-05,4409060.9734668,0.013135826752961
29419200,0.99579027385177,0.014096360962368,0.0046987869867333,0.0046987869877197,0.0046987869879151,-0.0010465805658571,0.0010465825262073,-5.2825808147528e-09,7.2502281143314e-09,-1.0828498972378e-08,1.3295169693633e-08,-0.0012900493344033,0.0012900391875911,-0.001290045150013,0.0012900433554717,-0.0012900417693959,0.0012900471108209,-0.0012900375941191,0.0012900512884398,-0.0010533842509023,0.0010533819116283,-0.0010533719754017,0.0010533941801169,1.0804042859883e-08,-1.3261450913522e-08,-4.5008544509272e-09,2.5393384955102e-09,-0.001046582521945,0.0010465805708929,-0.0012900425817027,0.0012900462524758,-0.001290040333889,0.0012900485910937,-0.0012900501240392,0.0012900383429161,-0.0012900478772104,0.0012900406831015,-0.0010533914249745,0.0010533745972452,-0.0010533845780449,0.001053381586296,-0.0010533713113526,0.0010533951547194,-0.0010533948840848,0.001053370938456,6.1639559229659e-09,-6.4144763977962e-09,-0.0010465816781195,0.0010465814148959,3.2911411952633e-09,-3.6778683392645e-09,-0.0012900412116618,0.0012900474854119,-0.0012900434939583,0.0012900451495143,-0.0012900454305468,0.0012900433178095,-0.0012900477137015,0.001290040983564,-0.0010533904986273,0.0010533756110153,-0.0010533781646451,0.0010533879134732,0.65089858844935,131329,3014,0.0043521771854034,0.0043521771870052,0.0043521771873737,24.778460393555,-4.177231685156e-05,-4.177231685156e-05,-4.177231685156e-05,4413367.6482593,0.013144252835247
29619200,0.99593983183636,0.014098195151461,0.0046993983830974,0.0046993983840842,0.0046993983842796,-0.001047267142489,0.001047269102708,-5.3292619026482e-09,7.297029317675e-09,-1.0831268799467e-08,1.3298169730043e-08,-0.0012907225469671,0.0012907123667744,-0.0012907183313426,0.0012907165657325,-0.0012907149801358,0.0012907202919546,-0.0012907107736596,0.0012907245006581,-0.0010540573672913,0.0010540549391333,-0.00105404500232,0.0010540673011475,1.0807156844393e-08,-1.3262813133562e-08,-4.4968284841149e-09,2.537031053341e-09,-0.001047269097924,0.0010472671478953,-0.0012907157756281,0.0012907194504727,-0.0012907135298482,0.0012907217869376,-0.0012907233195587,0.0012907115395459,-0.0012907210747662,0.0012907138775407,-0.0010540644926263,0.0010540476726093,-0.0010540576539284,0.0010540546571301,-0.0010540443807142,0.0010540682296883,-0.001054067957201,0.0010540440080273,6.2103585165456e-09,-6.4617759008288e-09,-0.0010472682547117,0.0010472679912374,3.2874953081867e-09,-3.6750121539896e-09,-0.0012907143929597,0.0012907206959888,-0.0012907166731399,0.0012907183623074,-0.0012907186431766,0.0012907164972713,-0.0012907209242205,0.0012907141652345,-0.0010540636155889,0.0010540486366107,-0.0010540511906095,0.0010540610314401,0.64191387491789,131329,3014,0.0043550243482475,0.0043550243495361,0.0043550243498057,25.08806817163,-3.9295454626961e-05,-3.9295454626961e-05,-3.9295454626961e-05,4419395.1582808,0.013152902088098
29819200,0.99608623542916,0.014100113037494,0.0047000376784413,0.0047000376794284,0.0047000376796239,-0.001047864891396,0.0010478668518082,-5.3759599746718e-09,7.3442059765781e-09,-1.0841552282226e-08,1.3309158970447e-08,-0.0012912858359559,0.0012912756173725,-0.0012912815890127,0.0012912798475446,-0.0012912782621338,0.0012912835496678,-0.0012912740243045,0.0012912877895929,-0.0010546368032202,0.0010546342909532,-0.0010546243479558,0.001054646746398,1.0818692003269e-08,-1.3273514678508e-08,-4.4943332852023e-09,2.5353842363257e-09,-0.0010478668467492,0.0010478648969721,-0.0012912790412352,0.0012912827246916,-0.0012912767967704,0.0012912850597032,-0.0012912865925243,0.0012912748063315,-0.0012912843490533,0.0012912771429221,-0.0010546438869931,0.0010546270652457,-0.0010546370537121,0.0010546340471917,-0.0010546237635521,0.0010546476350938,-0.0010546473607486,0.0010546233903294,6.2566642483784e-09,-6.5087661055162e-09,-0.0010478660037166,0.0010478657400989,3.2853694254104e-09,-3.6734434056343e-09,-0.0012912776478159,0.0012912839809136,-0.0012912799267816,0.0012912816484538,-0.0012912819291368,0.0012912797510754,-0.0012912842089576,0.0012912774203049,-0.0010546430545112,0.0010546279838558,-0.0010546305391814,0.0010546404709895,0.67837704935784,131329,3014,0.0043575028058687,0.0043575028069398,0.0043575028071356,25.340227015647,-3.7278183874828e-05,-3.7278183874828e-05,-3.7278183874828e-05,4424807.4800483,0.013160430223567
30019200,0.9962294562748,0.014102021997816,0.0047006739985484,0.0047006739995359,0.0047006739997315,-0.0010484292081658,0.0010484311683181,-5.4230936013601e-09,7.3906088298263e-09,-1.0853092685233e-08,1.3319978544975e-08,-0.0012918972766607,0.0012918870195174,-0.0012918929986244,0.0012918912809552,-0.0012918896952761,0.0012918949591996,-0.0012918854263547,0.0012918992303738,-0.001055210794367,0.0010552081965704,-0.0010551982445939,0.0010552207408643,1.0828498021377e-08,-1.3285431409116e-08,-4.4934279885244e-09,2.5326754581686e-09,-0.0010484311639675,0.0010484292132772,-0.0012918904583208,0.0012918941501498,-0.0012918882151231,0.0012918964840356,-0.0012918980168184,0.0012918862244777,-0.0012918957746166,0.0012918885599329,-0.0010552178395939,0.001055201010716,-0.0010552110071748,0.0010552079866233,-0.0010551977035687,0.0010552215911136,-0.0010552213235756,0.0010551973267179,6.304326468448e-09,-6.5547227494252e-09,-0.0010484303201155,0.0010484300573035,3.2843180225447e-09,-3.670830718259e-09,-0.0012918890540579,0.0012918954172549,-0.0012918913316665,0.0012918930859197,-0.0012918933665746,0.0012918911562272,-0.0012918956450561,0.001291888826556,-0.0010552170478158,0.0010552018897397,-0.0010552044392663,0.0010552144672278,0.68873091548898,131329,3014,0.0043598439190403,0.0043598439206177,0.0043598439209803,25.591108175406,-3.5271134596748e-05,-3.5271134596748e-05,-3.5271134596748e-05,4428526.7510486,0.013167545716734
30219200,0.99636948038292,0.0141037960633,0.0047012653537097,0.0047012653546975,0.0047012653548932,-0.0010489773122663,0.001048979272463,-5.4699200099337e-09,7.4373878521711e-09,-1.0863538005989e-08,1.3330487478964e-08,-0.0012925175301698,0.001292507234909,-0.001292513220947,0.0012925115275491,-0.0012925099418099,0.001292515181564,-0.0012925056416953,0.0012925194839374,-0.0010557745670214,0.0010557718844084,-0.001055761925241,0.0010557845200519,1.0838735418466e-08,-1.3296076549865e-08,-4.4918136278305e-09,2.530799839837e-09,-0.0010489792681709,0.0010489773173276,-0.0012925106887503,0.0012925143886157,-0.0012925084467131,0.0012925167213419,-0.0012925182541859,0.0012925064559732,-0.0012925160131443,0.0012925087902706,-0.0010557815718966,0.0010557647390308,-0.0010557747425839,0.0010557717112431,-0.0010557614243644,0.0010557853306959,-0.0010557850650456,0.0010557610459339,6.3512564117116e-09,-6.6013371611223e-09,-0.0010489784241523,0.0010489781615235,3.2827511999983e-09,-3.6689561127034e-09,-0.001292509273423,0.0012925156667783,-0.0012925115498473,0.0012925133365561,-0.0012925136171313,0.0012925113745926,-0.0012925158944293,0.0012925090460346,-0.0010557808231802,0.001055765575111,-0.0010557681228198,0.0010557782440225,0.66008314121606,131329,3014,0.0043621181822277,0.004362118183822,0.0043621181841903,25.841945099596,-3.3264439203233e-05,-3.3264439203233e-05,-3.3264439203233e-05,4431770.0982875,0.01317445951491
30419200,0.99650659273116,0.014105424465145,0.0047018081543242,0.0047018081553123,0.0047018081555081,-0.0010496070704449,0.0010496090300626,-5.5172840389363e-09,7.4837223182732e-09,-1.0868469783532e-08,1.3334353001492e-08,-0.0012931672598174,0.0012931569301129,-0.0012931629194617,0.0012931612540648,-0.0012931596683948,0.0012931648796146,-0.0012931553371288,0.0012931692132996,-0.0010564016100982,0.0010563988369265,-0.0010563888737377,0.0010564115616741,1.0842591092594e-08,-1.3301618333639e-08,-4.490201090381e-09,2.5277384380672e-09,-0.0010496090264522,0.0010496070750412,-0.0012931603985653,0.0012931641033347,-0.0012931581581534,0.001293166434571,-0.0012931679671147,0.0012931561674807,-0.0012931657276873,0.0012931585003043,-0.0010564085711526,0.0010563917366388,-0.0010564017437593,0.0010563987018802,-0.0010563884198276,0.0010564123301149,-0.0010564120710636,0.0010563880377622,6.3988323340939e-09,-6.6472387355371e-09,-0.0010496081817917,0.0010496079199497,3.2812756732658e-09,-3.6659323493125e-09,-0.0012931589708159,0.0012931653939829,-0.0012931612456078,0.0012931630651496,-0.0012931633456748,0.0012931610706322,-0.0012931656213407,0.0012931587434599,-0.0010564078656302,0.0010563925304938,-0.001056395072317,0.0010564052897029,0.62526528882723,131329,3014,0.0043647303505142,0.0043647303525581,0.0043647303530732,26.129954137723,-3.0960366898214e-05,-3.0960366898214e-05,-3.0960366898214e-05,4436971.9004069,0.013182397655042
30619200,0.99664158833496,0.014107145443478,0.0047023818137684,0.0047023818147568,0.0047023818149526,-0.0010504630412618,0.0010504649994211,-5.565480150137e-09,7.5296940518683e-09,-1.0860096250102e-08,1.3323507120121e-08,-0.0012939815114954,0.0012939711558644,-0.0012939771399605,0.0012939755113478,-0.0012939739262,0.0012939790987923,-0.0012939695636742,0.0012939834640463,-0.0010572407605462,0.00105723788509,-0.0010572279268176,0.0010572506973014,1.0832396150992e-08,-1.3293850866579e-08,-4.4869151859639e-09,2.5222700211847e-09,-0.0010504649969951,0.0010504630450398,-0.0012939746380907,0.001293978340616,-0.0012939724007438,0.0012939806690527,-0.0012939822006634,0.0012939704106028,-0.0012939799642444,0.0012939727406972,-0.0010572476669242,0.0010572308417404,-0.0010572408432408,0.0010572377941356,-0.0010572275318477,0.0010572514153053,-0.00105725116772,0.0010572271436151,6.446855984622e-09,-6.6922968468075e-09,-0.0010504641514538,0.0010504638909499,3.2786926761599e-09,-3.6606135025644e-09,-0.0012939731949789,0.0012939796467818,-0.0012939754669302,0.0012939773203822,-0.0012939776008389,0.0012939752923363,-0.001293979873629,0.001293972967639,-0.0010572470084627,0.0010572315901474,-0.0010572341216198,0.0010572444383767,0.66318231706597,131329,3014,0.0043682800076688,0.0043682800104721,0.0043682800112375,26.524362576395,-2.7805099388843e-05,-2.7805099388843e-05,-2.7805099388843e-05,4445745.6376533,0.013193182370454
30819200,0.99677438598558,0.01410892568762,0.0047029752284823,0.004702975229471,0.004702975229667,-0.0010512923066436,0.001051294264915,-5.6114595947612e-09,7.5767950903462e-09,-1.0850961314433e-08,1.3315681875e-08,-0.0012948602844752,0.0012948499028558,-0.0012948558816619,0.0012948542891559,-0.0012948527051026,0.0012948578402863,-0.0012948483113844,0.0012948622363175,-0.0010580846086456,0.0010580816394468,-0.0010580716908428,0.0010580945493601,1.0825615753178e-08,-1.3281677221591e-08,-4.4809803074313e-09,2.521234239901e-09,-0.0010512942608197,0.0010512923115394,-0.0012948534000532,0.0012948570993283,-0.0012948511647978,0.0012948594252724,-0.001294860956406,0.0012948491758728,-0.0012948587221413,0.0012948515033979,-0.0010580914555169,0.001058074652531,-0.001058084645295,0.0010580816039694,-0.0010580713391549,0.0010580952122245,-0.0010580949533056,0.0010580709551287,6.4921744867906e-09,-6.7411271233407e-09,-0.0010512934171892,0.0010512931553568,3.2732500500461e-09,-3.6582895871319e-09,-0.001294851940751,0.0012948584215464,-0.0012948542103461,0.0012948560979509,-0.0012948563780597,0.0012948540358494,-0.0012948586485257,0.0012948517139212,-0.0010580908551791,0.0010580753404664,-0.0010580778794243,0.0010580882838141,0.69236329631112,131329,3014,0.0043717203445548,0.0043717203462127,0.0043717203466005,26.921145063507,-2.4630839491941e-05,-2.4630839491941e-05,-2.4630839491941e-05,4452518.3662881,0.013203640052567
31019200,0.996904888928,0.014110733181638,0.004703577726488,0.0047035777274771,0.0047035777276731,-0.0010520959342052,0.0010520978917512,-5.6586185878511e-09,7.623275820333e-09,-1.0843004446657e-08,1.3306993538011e-08,-0.0012957783325862,0.001295767924557,-0.0012957738985572,0.0012957723420538,-0.001295770758727,0.0012957758564275,-0.0012957663337933,0.00129578028365,-0.0010589264546983,0.0010589233876975,-0.0010589134455046,0.0010589363896007,1.0817749671988e-08,-1.3272848369646e-08,-4.4771589890454e-09,2.5182554259066e-09,-0.0010520978876469,0.0010520959391001,-0.0012957714362364,0.001295775132912,-0.0012957692032233,0.0012957774565778,-0.0012957789870757,0.0012957672150504,-0.0012957767550527,0.0012957695402987,-0.0010589332459776,0.0010589164562667,-0.0010589264426798,0.0010589234012687,-0.0010589131450803,0.0010589370006677,-0.0010589367426604,0.001058912759802,6.5390109410867e-09,-6.787867301931e-09,-0.0010520970442757,0.0010520967826518,3.2699650903405e-09,-3.6548396010119e-09,-0.0012957699610635,0.0012957764710188,-0.0012957722284129,0.0012957741496673,-0.001295774429577,0.0012957720541543,-0.0012957766977924,0.0012957697344722,-0.0010589326969094,0.0010589170927315,-0.0010589196296942,0.0010589301278546,0.71215833580073,131329,3014,0.0043750553455151,0.0043750553471531,0.0043750553475278,27.318009867162,-2.1455921062705e-05,-2.1455921062705e-05,-2.1455921062705e-05,4457737.3327961,0.013213781246234
31219200,0.99703412812582,0.014112620583227,0.0047042068603509,0.0047042068613403,0.0047042068615363,-0.0010531603351852,0.0010531622893862,-5.7077337269467e-09,7.6674221675159e-09,-1.0817593647998e-08,1.3275877673403e-08,-0.0012970083691332,0.0012969979465945,-0.0012970039044083,0.0012970023955795,-0.0012970008133331,0.0012970058592076,-0.0012969963577663,0.0012970103177284,-0.0010600531966122,0.0010600500115639,-0.0010600400846478,0.0010600630936539,1.079524026046e-08,-1.3256479529777e-08,-4.4744574519376e-09,2.5099021268299e-09,-0.0010531622884508,0.0010531603378438,-0.0012970014690926,0.0012970051573884,-0.00129699923993,0.0012970074777755,-0.001297009006747,0.0012969972519737,-0.0012970067787339,0.0012969995738696,-0.001060059925835,0.0010600431474049,-0.0010600531225358,0.0010600500719998,-0.0010600398545068,0.0010600636534011,-0.0010600634192986,0.001060039457412,6.5891964745707e-09,-6.831648420889e-09,-0.0010531614428036,0.0010531611839885,3.266773904829e-09,-3.6457732456887e-09,-0.0012969999762255,0.0012970065136223,-0.0012970022387778,0.0012970041959877,-0.0012970044757194,0.0012970020651167,-0.0012970067393335,0.0012969997489873,-0.0010600594225682,0.0010600437418183,-0.0010600462576664,0.0010600568645275,0.74546031180896,131329,3014,0.0043794728675228,0.0043794728710965,0.0043794728721292,27.867751631183,-1.7057986950536e-05,-1.7057986950536e-05,-1.7057986950536e-05,4464712.7827919,0.013227215721146
31419200,0.99716205609037,0.014114391375361,0.0047047971243949,0.0047047971253849,0.0047047971255812,-0.0010542199641439,0.001054221919113,-5.7541923864018e-09,7.715420685253e-09,-1.0797047141062e-08,1.32569465545e-08,-0.0012983019137904,0.0012982914732261,-0.0012982974172091,0.0012982959533916,-0.0012982943717037,0.0012982993732241,-0.0012982898841742,0.0012983038633059,-0.0010611939519799,0.0010611906645275,-0.0010611807543042,0.0010612038459077,1.077464268785e-08,-1.3229376000609e-08,-4.4655257798005e-09,2.5068875164334e-09,-0.001054221915476,0.0010542199688744,-0.0012982950095781,0.0012982986884912,-0.0012982927844192,0.0012983010045295,-0.0012983025321353,0.0012982907999675,-0.0012983003077155,0.0012982931175746,-0.0010612006095927,0.00106118386897,-0.0010611938246358,0.0010611907865709,-0.0010611805799217,0.0010612043393051,-0.0010612040955957,0.0010611801870559,6.6338317881984e-09,-6.8797783011424e-09,-0.0010542210724467,0.0010542208121877,3.2602032651311e-09,-3.6423310518013e-09,-0.0012982934979008,0.0012983000629818,-0.0012982957580556,0.0012982977491405,-0.0012982980290307,0.0012982955843664,-0.0012983002898758,0.0012982932722133,-0.0010612001712967,0.0010611843970862,-0.0010611869181951,0.0010611976123703,0.71242631701219,131329,3014,0.004383871528439,0.0043838715307021,0.0043838715312906,28.435889197409,-1.2512886420727e-05,-1.2512886420727e-05,-1.2512886420727e-05,4470604.3123397,0.013240596257053
31619200,0.99728848572301,0.014116049809056,0.0047053499356264,0.0047053499366167,0.0047053499368131,-0.0010552963316256,0.0010552982852708,-5.8011855767921e-09,7.7616726002887e-09,-1.0781641618073e-08,1.3240777711447e-08,-0.0012995430624601,0.0012995325995336,-0.0012995385348553,0.0012995371107182,-0.0012995355307619,0.001299540488789,-0.0012995310122358,0.0012995450096891,-0.0010623267691524,0.0010623233799364,-0.0010623134831807,0.0010623366554081,1.0756648916101e-08,-1.3208295152128e-08,-4.4595070087976e-09,2.5035542470826e-09,-0.0010552982814133,0.0010552963363663,-0.0012995361520655,0.0012995398214473,-0.0012995339297993,0.0012995421343622,-0.0012995436612722,0.001299531945576,-0.0012995414400014,0.0012995342600847,-0.001062333362034,0.0010623166477942,-0.0010623265888843,0.0010623235595977,-0.0010623133643624,0.0010623370874277,-0.0010623368395729,0.0010623129714691,6.6801425274665e-09,-6.9274563328172e-09,-0.0010552974393003,0.0010552971786897,3.2547179531448e-09,-3.6379891686781e-09,-0.0012995346215568,0.0012995412150607,-0.0012995368781059,0.0012995389043477,-0.0012995391836627,0.0012995367046758,-0.0012995414410959,0.0012995343956364,-0.0010623329819005,0.0010623171158678,-0.001062319638847,0.0010623304251417,0.6805776849809,131329,3014,0.0043883384623804,0.004388338464208,0.0043883384646441,29.004478336434,-7.9641733085305e-06,-7.9641733085305e-06,-7.9641733085305e-06,4478380.5796853,0.013254180319879
31819200,0.9974110916504,0.014117595114501,0.0047058650374412,0.0047058650384317,0.0047058650386281,-0.0010558396638682,0.0010558416202022,-5.8454193265697e-09,7.8111309294884e-09,-1.0802667795973e-08,1.3267928657652e-08,-0.0013001586591407,0.001300148149888,-0.0013001540997901,0.0013001526917398,-0.0013001511122045,0.0013001560555811,-0.001300146561985,0.0013001606072061,-0.0010628870591895,0.0010628836034207,-0.0010628736976965,0.0010628969859672,1.0787316949921e-08,-1.3229449546456e-08,-4.4577559116619e-09,2.510592282568e-09,-0.0010558416126427,0.0010558396710754,-0.0013001517192159,0.0013001554031713,-0.0013001494947418,0.0013001577173909,-0.0013001592457242,0.0013001475104261,-0.0013001570222662,0.0013001498262312,-0.0010628936173875,0.0010628768987527,-0.0010628868541299,0.0010628838295431,-0.0010628735862432,0.0010628973835329,-0.0010628971043488,0.0010628732067742,6.7224467699833e-09,-6.9785366118791e-09,-0.0010558407738636,0.0010558405096478,3.2534033593635e-09,-3.6446099385505e-09,-0.0013001501793421,0.0013001568057485,-0.0013001524382489,0.0013001544936794,-0.0013001547727486,0.0013001522643933,-0.0013001570324874,0.0013001499540836,-0.0010628932868782,0.0010628773114148,-0.0010628798606386,0.0010628907192316,0.65805654754303,131329,3014,0.0043905928039428,0.004390592803208,0.004390592802779,29.266262654876,-5.8698987609941e-06,-5.8698987609941e-06,-5.8698987609941e-06,4481999.4523078,0.013261033916594
32019200,0.99752826036961,0.014119231887253,0.0047064106283588,0.004706410629349,0.0047064106295453,-0.0010559645285729,0.0010559664861487,-5.8921868820294e-09,7.858047625392e-09,-1.0857550471698e-08,1.3323238017518e-08,-0.0013002806491988,0.001300270074131,-0.0013002760588377,0.0013002746474142,-0.0013002730654077,0.0013002780164504,-0.001300268484135,0.0013002825995369,-0.0010630042310386,0.0010630007186609,-0.0010629907704768,0.0010630141861497,1.0838090450377e-08,-1.3287675925035e-08,-4.4695301621477e-09,2.5158853378934e-09,-0.0010559664805341,0.0010559645345698,-0.0013002736617866,0.0013002773742612,-0.0013002714318751,0.001300279694348,-0.0013002812244798,0.0013002694450078,-0.0013002789955276,0.0013002717667095,-0.001063010794413,0.0010629940120824,-0.001063004007684,0.001063000953325,-0.0010629906789376,0.0010630145764979,-0.0010630143074991,0.0010629902967493,6.7708657023182e-09,-7.0234118772941e-09,-0.0010559656389494,0.0010559653761997,3.2636141891944e-09,-3.6517242620216e-09,-0.0013002721178997,0.0013002787808775,-0.0013002743823394,0.001300276462803,-0.0013002767424427,0.0013002742084687,-0.0013002790076876,0.0013002718921338,-0.0010630104785724,0.0010629944130267,-0.0010629969572394,0.0010630079088291,0.71766340493922,131329,3014,0.0043911101930453,0.0043911101938419,0.0043911101939383,29.281039198703,-5.7516864103726e-06,-5.7516864103726e-06,-5.7516864103726e-06,4482281.8979293,0.013262604242953
32219200,0.99764019231809,0.014120834639267,0.0047069448790301,0.0047069448800204,0.0047069448802167,-0.0010560305998365,0.0010560325586313,-5.9386136034603e-09,7.9047431805219e-09,-1.0907811771103e-08,1.3374023558114e-08,-0.00130046134511,0.0013004507071295,-0.0013004567238741,0.001300455311626,-0.0013004537275265,0.0013004586830169,-0.0013004491154025,0.0013004632972602,-0.0010631030376375,0.0010630994665968,-0.0010630894802086,0.0010631130198025,1.0884006599407e-08,-1.3339726720204e-08,-4.4811255035976e-09,2.5222235952152e-09,-0.0010560325543029,0.0010560306049606,-0.0013004543136372,0.0013004580509173,-0.0013004520779004,0.0013004603771539,-0.0013004619087516,0.0013004500887755,-0.0013004596740162,0.001300452416601,-0.001063109602192,0.0010630927611997,-0.0010631027926106,0.0010630997152986,-0.0010630894091508,0.0010631133990783,-0.0010631131367463,0.001063089026221,6.8191699863613e-09,-7.0689390168536e-09,-0.0010560317106764,0.0010560314487729,3.2735481968496e-09,-3.6593007797701e-09,-0.0013004527638184,0.0013004594635178,-0.0013004550338077,0.0013004571394234,-0.0013004574195545,0.0013004548597881,-0.0013004596904142,0.0013004525373724,-0.001063109304317,0.0010630931462035,-0.0010630956880672,0.0010631067314689,0.73340853682912,131329,3014,0.0043913856279743,0.0043913856296279,0.0043913856300154,29.290228029548,-5.6781757636197e-06,-5.6781757636197e-06,-5.6781757636197e-06,4479599.2717045,0.013263445883234
32419200,0.99774711703386,0.014122408742829,0.0047074695802171,0.0047074695812078,0.0047074695814042,-0.0010560785004296,0.0010560804607808,-5.9846531163377e-09,7.952138237106e-09,-1.095086405315e-08,1.3418849159105e-08,-0.0013006510609011,0.0013006403640823,-0.0013006464085398,0.0013006449997388,-0.0013006434141356,0.0013006483692523,-0.0013006387708921,0.0013006530146526,-0.0010631948800879,0.0010631912479887,-0.0010631812304864,0.0010632048920636,1.0926613855329e-08,-1.3384780361179e-08,-4.4907720057855e-09,2.5299230183282e-09,-0.0010560804564986,0.0010560785054886,-0.001300643989093,0.0013006477482863,-0.0013006417476295,0.001300650080325,-0.0013006516132817,0.0013006397568531,-0.0013006493728249,0.0013006420904778,-0.0010632014384435,0.0010631845489647,-0.0010631946112999,0.0010631915195456,-0.001063181176394,0.0010632052556097,-0.0010632049903597,0.0010631807967588,6.8659400660969e-09,-7.1156783328819e-09,-0.0010560796121795,0.0010560793499877,3.2820927298053e-09,-3.6679508474135e-09,-0.0013006424319397,0.0013006491681793,-0.0013006447076042,0.0013006468382912,-0.0013006471188444,0.0013006445332999,-0.0013006493953857,0.0013006422050857,-0.0010632011649567,0.0010631849098574,-0.0010631874567312,0.0010631985863467,0.75109427323237,131329,3014,0.0043915860859792,0.0043915860875903,0.0043915860879649,29.299222241546,-5.6062220676357e-06,-5.6062220676357e-06,-5.6062220676357e-06,4476569.2079647,0.013264060910041
32619200,0.99784899450252,0.0141237815207,0.0047079271728407,0.0047079271738316,0.004707927174028,-0.0010560163867396,0.0010560183487379,-6.0309752866978e-09,8.0005254866441e-09,-1.0989268804558e-08,1.3459849179788e-08,-0.0013007565817302,0.0013007458281908,-0.0013007518976817,0.0013007504952882,-0.0013007489087839,0.0013007538599584,-0.0013007442338331,0.0013007585368826,-0.0010631813842227,0.0010631776886877,-0.0010631676451323,0.0010631914286515,1.0963139989204e-08,-1.3420303781047e-08,-4.4985441979005e-09,2.5388512657994e-09,-0.0010560183434475,0.0010560163925277,-0.0013007494728823,0.0013007532498012,-0.0013007472258484,0.0013007555872804,-0.001300757121111,0.0013007452345491,-0.0013007548750169,0.0013007475736422,-0.0010631879287745,0.0010631710019703,-0.001063181088342,0.0010631779916048,-0.0010631676094004,0.0010631917685975,-0.0010631914926079,0.0010631672369047,6.9110013236535e-09,-7.1628343201224e-09,-0.0010560174996612,0.0010560172363972,3.2904820117538e-09,-3.6783523800803e-09,-0.0013007479061661,0.0013007546791034,-0.0013007501882873,0.0013007523430062,-0.0013007526239734,0.0013007500136674,-0.0013007549068984,0.0013007476793023,-0.0010631876861373,0.0010631713309878,-0.0010631738891162,0.0010631850989697,0.69653888162886,131329,3014,0.0043913305304607,0.004391330531492,0.0043913305316654,29.262848179485,-5.8972145641174e-06,-5.8972145641174e-06,-5.8972145641174e-06,4472192.0262912,0.013263290849723
32819200,0.99794595057223,0.014124973529337,0.0047083245090526,0.0047083245100438,0.0047083245102403,-0.0010559490642277,0.0010559510264694,-6.0771060954626e-09,8.0467322443829e-09,-1.1015240601961e-08,1.3486136824336e-08,-0.0013007402752856,0.0013007294739191,-0.0013007355605093,0.0013007341718115,-0.0013007325849262,0.0013007375229947,-0.0013007278792834,0.001300742230654,-0.0010631215886215,0.0010631178198971,-0.001063107758019,0.0010631316491593,1.0991489610963e-08,-1.3450418128725e-08,-4.5081188716351e-09,2.5470408276984e-09,-0.0010559510216824,0.0010559490696306,-0.0013007331361326,0.0013007369258058,-0.0013007308831817,0.0013007392692701,-0.0013007408037107,0.0013007288909156,-0.0013007385517717,0.0013007312359732,-0.0010631281162449,0.0010631111505151,-0.0010631212574199,0.0010631181567748,-0.0010631077465198,0.0010631319667215,-0.0010631316875875,0.0010631073779939,6.9584916333865e-09,-7.2099446245526e-09,-0.0010559501773245,0.0010559499141127,3.2984697433664e-09,-3.6861001973898e-09,-0.0013007315575361,0.001300738367042,-0.0013007338447134,0.0013007360256067,-0.0013007363068254,0.0013007336700101,-0.0013007385948821,0.0013007313302754,-0.0010631279029047,0.0010631114506438,-0.0010631140126637,0.001063125310873,0.64446137208081,131329,3014,0.0043910515043497,0.0043910515056278,0.004391051505887,29.204338574458,-6.3652914043337e-06,-6.3652914043337e-06,-6.3652914043337e-06,4470170.7532244,0.013262442933114
33019200,0.99803823401519,0.014126216431813,0.0047087388098779,0.0047087388108693,0.0047087388110659,-0.0010559360855678,0.0010559380482343,-6.123762657519e-09,8.0936274774421e-09,-1.1034255414365e-08,1.3505567937494e-08,-0.0013006624515514,0.0013006516067065,-0.0013006577056057,0.0013006563357808,-0.0013006547483994,0.0013006596685901,-0.0013006500115865,0.001300664407435,-0.0010630805895642,0.0010630767419611,-0.0010630666662353,0.0010630906618064,1.1009966070599e-08,-1.3470409600836e-08,-4.5163367182096e-09,2.5540625676914e-09,-0.0010559380437078,0.0010559360907926,-0.0013006552870596,0.0013006590838979,-0.0013006530290688,0.0013006614324551,-0.0013006629673591,0.0013006510361501,-0.0013006607103865,0.0013006533862977,-0.0010630870927914,0.0010630700974426,-0.0010630802180157,0.0010630771177466,-0.0010630666876131,0.0010630909484028,-0.0010630906669305,0.0010630663224614,7.0053451830133e-09,-7.2565072621254e-09,-0.0010559371989747,0.0010559369356832,3.3061695707302e-09,-3.6936651871081e-09,-0.0013006536940562,0.0013006605395042,-0.0013006559862785,0.001300658192926,-0.0013006584744857,0.0013006558113526,-0.0013006607675762,0.0013006534664677,-0.0010630869127707,0.0010630703647521,-0.0010630729305123,0.0010630843159546,0.69524136999933,131329,3014,0.0043909961926342,0.0043909961940831,0.0043909961944112,29.145323265506,-6.8374138759502e-06,-6.8374138759502e-06,-6.8374138759502e-06,4470382.6902211,0.013262269298132
33219200,0.99812608306231,0.014127467155672,0.0047091557178305,0.0047091557188222,0.0047091557190188,-0.0010558855365053,0.0010558874991483,-6.1705609448929e-09,8.140269824521e-09,-1.1045447391576e-08,1.3516719536614e-08,-0.0013006518589414,0.0013006409755568,-0.0013006470818825,0.0013006457358054,-0.00130064414832,0.0013006490448511,-0.0013006393804009,0.0013006538148758,-0.0010630375011293,0.0010630335691517,-0.0010630234856219,0.0010630475798698,1.1020826398634e-08,-1.3481910341796e-08,-4.5233845919451e-09,2.560628957922e-09,-0.0010558874948031,0.001055885541603,-0.0013006446737045,0.0013006484734,-0.0013006424112439,0.0013006508265233,-0.0013006523614297,0.001300640418187,-0.0013006500999768,0.001300642772905,-0.0010630439730946,0.0010630269561367,-0.0010630370843971,0.0010630339892306,-0.001063023544179,0.0010630478304687,-0.0010630475457565,0.0010630231828714,7.0521722393613e-09,-7.3031819311581e-09,-0.0010558866499633,0.0010558863866138,3.3129535160001e-09,-3.700393598545e-09,-0.00130064306443,0.001300649945331,-0.0013006453611004,0.001300647594193,-0.0013006478760308,0.0013006451860303,-0.0013006501735803,0.0013006428365817,-0.0010630438301914,0.001063027186546,-0.0010630297559784,0.0010630412289914,0.72922792303668,131329,3014,0.004390786778024,0.0043907867795855,0.0043907867799418,29.08629030586,-7.309677553119e-06,-7.309677553119e-06,-7.309677553119e-06,4468136.0011466,0.013261633382285
33419200,0.99821107914641,0.014128703275495,0.0047095677577716,0.0047095677587636,0.0047095677589603,-0.0010563204400177,0.0010563223992454,-6.2215977402832e-09,8.1852901544162e-09,-1.1020829892094e-08,1.3485132443696e-08,-0.0013012153187262,0.0013012044204901,-0.0013012105100884,0.0013012092132206,-0.0013012076261474,0.0013012124707935,-0.0013012028264855,0.0013012172734058,-0.0010635175051047,0.0010635134506234,-0.0010635033796326,0.0010635275408862,1.097567951164e-08,-1.3444212437073e-08,-4.5248879667414e-09,2.5552465002427e-09,-0.0010563223980582,0.0010563204432039,-0.0013012081368011,0.0013012119131037,-0.0013012058761399,0.0013012142652302,-0.0013012157971863,0.0013012038853313,-0.001301213537329,0.001301206239154,-0.0010635239115408,0.0010635069103024,-0.001063517012023,0.0010635139259149,-0.0010635035359185,0.0010635277203453,-0.001063527464403,0.0010635031642692,7.1019670315763e-09,-7.3444422891236e-09,-0.0010563215508458,0.0010563212910132,3.3173559307152e-09,-3.6971192055902e-09,-0.0013012065005849,0.0013012134122065,-0.0013012087973274,0.0013012110603295,-0.0013012113425739,0.0013012086226283,-0.0013012136400888,0.0013012062724716,-0.001063523816334,0.001063507099174,-0.0010635096446796,0.0010635212231884,0.74278654129177,131329,3014,0.0043925925034865,0.0043925925076346,0.0043925925088744,29.312210592147,-5.5023152628275e-06,-5.5023152628275e-06,-5.5023152628275e-06,4469415.396545,0.013267127793125
33619200,0.99829361486407,0.014129903861796,0.0047099679532044,0.0047099679541971,0.0047099679543941,-0.0010568757300424,0.001056877687416,-6.2690458791281e-09,8.2320401240896e-09,-1.0972128799556e-08,1.3435573707828e-08,-0.0013019321699664,0.0013019212702964,-0.0013019273297745,0.0013019260941871,-0.0013019245102256,0.0013019292877846,-0.0013019196790776,0.001301934121482,-0.0010641292142373,0.0010641250357554,-0.0010641150038025,0.0010641392248469,1.0930505725288e-08,-1.3391136913299e-08,-4.5176273373942e-09,2.5549485165096e-09,-0.0010568776844418,0.0010568757343084,-0.0013019250015555,0.0013019287500373,-0.0013019227431148,0.0013019310995225,-0.0013019326292854,0.0013019207550076,-0.0013019303717714,0.001301923106157,-0.0010641355314284,0.0010641185812669,-0.0010641286460369,0.0010641255959499,-0.0010641152266558,0.0010641393249498,-0.001064139055043,0.0010641148609313,7.1466027562208e-09,-7.3927614302129e-09,-0.0010568768402322,0.0010568765788726,3.3124461512938e-09,-3.6954747682678e-09,-0.0013019233369704,0.0013019302776231,-0.0013019256315694,0.0013019279280617,-0.0013019282098248,0.0013019254568719,-0.0013019305053056,0.0013019231090657,-0.0010641355082943,0.0010641186951157,-0.001064121249467,0.001064132913716,0.74303043756747,131329,3014,0.004394898052676,0.0043948980553505,0.0043948980560853,29.614113645545,-3.0870908356363e-06,-3.0870908356363e-06,-3.0870908356363e-06,4471747.7229149,0.013274142949026
33819200,0.99837369998455,0.0141310726565,0.0047103575514388,0.004710357552432,0.0047103575526291,-0.0010574255926229,0.0010574275477661,-6.3153809168598e-09,8.2771198188771e-09,-1.0918679690566e-08,1.3380552561481e-08,-0.001302642899647,0.0013026320029068,-0.0013026380288387,0.0013026368571023,-0.0013026352761304,0.0013026399842301,-0.0013026304144185,0.0013026448481941,-0.0010647361748296,0.001064731870833,-0.0010647218806716,0.0010647461547256,1.0888808826289e-08,-1.3342902989123e-08,-4.51150384375e-09,2.5545371490175e-09,-0.0010574275437887,0.0010574255974729,-0.0013026357456131,0.0013026394685871,-0.0013026334891605,0.0013026418157888,-0.0013026433436223,0.0013026315037117,-0.0013026410881659,0.0013026338525395,-0.0010647424055479,0.0010647255005314,-0.0010647355317969,0.0010647325136332,-0.0010647221652783,0.001064746183444,-0.0010647459026395,0.0010647218045426,7.1930929693885e-09,-7.4420103398396e-09,-0.0010574267018588,0.0010574264396125,3.3059287568369e-09,-3.6913452349516e-09,-0.0013026340539602,0.0013026410232934,-0.001302636345145,0.0013026386774414,-0.0013026389587726,0.0013026361706964,-0.0013026412508703,0.0013026338265835,-0.001064742451634,0.0010647255428096,-0.0010647281019584,0.0010647398578897,0.74517770450103,131329,3014,0.0043971810076802,0.0043971810094849,0.0043971810099192,29.917788437174,-6.5769250260832e-07,-6.5769250260832e-07,-6.5769250260832e-07,4474322.3053618,0.013281089073799
34019200,0.9984513388268,0.014132168493112,0.0047107228303094,0.0047107228313027,0.0047107228314999,-0.0010579682418649,0.0010579701946258,-6.3630702389838e-09,8.3226321857702e-09,-1.0872147042047e-08,1.3331370024503e-08,-0.0013033450553248,0.0013033341569312,-0.0013033401534242,0.001303339042174,-0.0013033374635135,0.0013033421063572,-0.0013033325707143,0.0013033470013649,-0.0010653347888641,0.0010653303597342,-0.0010653204041898,0.0010653447356446,1.0843776944524e-08,-1.3294579993678e-08,-4.5056459732949e-09,2.5514382136382e-09,-0.0010579701905984,0.0010579682467588,-0.0013033379133169,0.0013033416104378,-0.001303335659818,0.0013033439546256,-0.0013033454803478,0.0013033336767995,-0.0013033432278487,0.001303336022605,-0.0010653409354254,0.0010653240734495,-0.0010653340711293,0.0010653310783675,-0.0010653207624265,0.0010653446893118,-0.0010653444077573,0.0010653204020442,7.2400008461204e-09,-7.4890519628091e-09,-0.0010579693498177,0.001057969087748,3.3010950943991e-09,-3.686549238569e-09,-0.0013033361945861,0.001303343192314,-0.0013033384826032,0.0013033408496976,-0.0013033411306979,0.0013033383084163,-0.0013033434196194,0.0013033359675269,-0.0010653410474699,0.001065324049375,-0.0010653266062855,0.0010653384568954,0.72426546484253,131329,3014,0.004399433979042,0.0043994339808363,0.004399433981269,30.221525297886,1.7722023830897e-06,1.7722023830897e-06,1.7722023830897e-06,4476857.1875304,0.013287943868322
34219200,0.99852783956356,0.014133216372641,0.0047110721234855,0.004711072124479,0.0047110721246761,-0.0010590813268369,0.0010590832724842,-6.4138062670917e-09,8.3628861874499e-09,-1.079661279742e-08,1.3243613714574e-08,-0.0013045969692117,0.0013045860901799,-0.0013045920377935,0.0013045910064681,-0.0013045894304053,0.0013045939844123,-0.0013045845079631,0.0013045989103629,-0.0010665041443205,0.0010664995553019,-0.0010664896474191,0.0010665139986138,1.0768361754269e-08,-1.3230202614311e-08,-4.5007609492772e-09,2.5361665287956e-09,-0.0010590832744412,0.0010590813275801,-0.0013045898538984,0.001304593514335,-0.0013045876076377,0.0013045958524271,-0.001304597374284,0.0013045856264367,-0.0013045951290268,0.0013045879662359,-0.0010665101950624,0.0010664933753818,-0.00106650332868,0.0010665003413369,-0.0010664901209125,0.0010665138750763,-0.0010665136397088,0.0010664897391795,7.294691595532e-09,-7.5307737127383e-09,-0.0010590824295949,0.0010590821732649,3.2946014529077e-09,-3.6681401535862e-09,-0.0013045881049872,0.0013045951271394,-0.0013045903836721,0.0013045927921223,-0.0013045930728095,0.0013045902106002,-0.0013045953524883,0.0013045878772238,-0.0010665103634565,0.0010664933025963,-0.0010664958166686,0.0010665077949779,0.70594349999053,131329,3014,0.0044040528523836,0.0044040528579841,0.0044040528597242,30.833549357293,6.668394858344e-06,6.668394858344e-06,6.668394858344e-06,4485706.958283,0.013301989429918
34419200,0.99860320538899,0.014134253285958,0.0047114177612576,0.0047114177622516,0.0047114177624489,-0.0010602675046124,0.001060269448625,-6.4623593986798e-09,8.4117903121683e-09,-1.0735015466293e-08,1.3182364739159e-08,-0.0013058896239475,0.0013058787499693,-0.0013058846596853,0.0013058836984196,-0.0013058821261248,0.0013058866033839,-0.0013058771709953,0.0013058915613631,-0.0010677343944367,0.0010677296725339,-0.0010677198149142,0.0010677442228989,1.070091430655e-08,-1.3150363285555e-08,-4.4820912856837e-09,2.5283321274656e-09,-0.001060269447304,0.0010602675074156,-0.0013058825304011,0.0013058861534801,-0.0013058802925257,0.0013058884825008,-0.0013058900016441,0.0013058783149324,-0.0013058877649759,0.0013058806455447,-0.0010677403294283,0.0010677236027161,-0.0010677335006207,0.0010677305539347,-0.0010677203718773,0.0010677439937702,-0.001067743739219,0.0010677199948536,7.3365993481907e-09,-7.5788268384836e-09,-0.0010602686069248,0.0010602683482055,3.2816700920843e-09,-3.6605700471125e-09,-0.0013058807510234,0.0013058877968946,-0.0013058830230613,0.0013058854689524,-0.0013058857486311,0.0013058828502147,-0.0013058880217817,0.0013058805238528,-0.0010677405882377,0.0010677234337214,-0.0010677259601607,0.0010677380204305,0.7086795977508,131329,3014,0.0044089743933265,0.0044089743963894,0.0044089743972381,31.477456522756,1.1819652182047e-05,1.1819652182047e-05,1.1819652182047e-05,4495748.7204401,0.013316953410038
34619200,0.9986772997974,0.014135318841653,0.0047117729464889,0.0047117729474831,0.0047117729476805,-0.0010614546972675,0.001061456639939,-6.5092292529556e-09,8.4583164792376e-09,-1.0680344580746e-08,1.3126971757465e-08,-0.00130718875142,0.0013071778813125,-0.0013071837557532,0.0013071828606561,-0.0013071812906495,0.0013071856983247,-0.0013071763040735,0.0013071906873562,-0.0010689680274006,0.0010689631791493,-0.0010689533636275,0.0010689778280336,1.0649157346127e-08,-1.3090453529476e-08,-4.467331590017e-09,2.5207488131267e-09,-0.0010614566366025,0.001061454701617,-0.0013071816731625,0.0013071852698461,-0.0013071794426141,0.0013071875911586,-0.0013071891079271,0.0013071774691955,-0.0013071868783956,0.0013071797920873,-0.0010689738623853,0.0010689572064326,-0.0010689670625009,0.0010689641410163,-0.0010689539950548,0.0010689775129823,-0.0010689772505894,0.0010689536203852,7.381840324404e-09,-7.627613371412e-09,-0.0010614557991611,0.0010614555393175,3.2689149267605e-09,-3.650892298217e-09,-0.001307179868316,0.0013071869384373,-0.0013071821335268,0.0013071846183623,-0.0013071848977274,0.0013071819609368,-0.0013071871638571,0.0013071796425114,-0.0010689742012703,0.0010689569558525,-0.0010689594841281,0.0010689716369298,0.73613740011226,131329,3014,0.0044139002221517,0.0044139002242445,0.0044139002247805,32.122160624038,1.6977284992306e-05,1.6977284992306e-05,1.6977284992306e-05,4505501.3797816,0.01333193108192
34819200,0.99875112868494,0.014136390339133,0.0047121301123155,0.0047121301133099,0.0047121301135073,-0.0010631332738008,0.0010631352047598,-6.5701295515521e-09,8.5025501810166e-09,-1.0640637609207e-08,1.3069037469494e-08,-0.001309058283936,0.0013090474015603,-0.0013090532540887,0.0013090524182797,-0.0013090508535956,0.001309055185182,-0.0013090458325603,0.0013090602082834,-0.0010707268542851,0.0010707218522902,-0.001070712063464,0.0010707365796609,1.0552787209292e-08,-1.3008783686941e-08,-4.4534142561637e-09,2.4924337816745e-09,-0.0010631352113381,0.0010631332703012,-0.0013090512225739,0.0013090547735532,-0.0013090490054284,0.0013090570808429,-0.0013090585940779,0.0013090470281057,-0.0013090563813386,0.0013090493374671,-0.001070732584747,0.0010707159989702,-0.0010707258007979,0.0010707228756296,-0.0010707128543746,0.0010707361514665,-0.0010707359422885,0.0010707124453874,7.4306110244632e-09,-7.6610689451907e-09,-0.0010631343676808,0.0010631341148991,3.2651583635798e-09,-3.6329658125206e-09,-0.0013090493851628,0.0013090564765507,-0.0013090516399031,0.001309054161626,-0.0013090544374552,0.001309051468725,-0.0013090566958303,0.0013090491547404,-0.0010707329835402,0.0010707156885578,-0.0010707181765769,0.0010707304446368,0.74236048684849,131329,3014,0.0044208655389895,0.0044208655453723,0.0044208655473247,33.05330721509,2.442645772072e-05,2.442645772072e-05,2.442645772072e-05,4518946.7343721,0.013353113314958
35019200,0.99882484436178,0.014137424067936,0.0047124746885828,0.0047124746895777,0.0047124746897751,-0.0010649776883316,0.001064979623765,-6.6118435367773e-09,8.5514077282462e-09,-1.0574465715155e-08,1.3009902953513e-08,-0.0013111218352543,0.0013111109684413,-0.0013111167746921,0.0013111160134261,-0.0013111144479334,0.001311118710478,-0.0013111093965599,0.0013111237648451,-0.0010726619658874,0.0010726568402637,-0.0010726470993013,0.0010726716697729,1.0509752817102e-08,-1.2951225332822e-08,-4.4316906142697e-09,2.4841983847503e-09,-0.0010649796228422,0.0010649776910365,-0.0013111147891125,0.0013111183231308,-0.0013111125825924,0.0013111206207494,-0.001311122131548,0.0013111106149167,-0.0013111199262877,0.0013111129139854,-0.0010726675875591,0.0010726510873913,-0.001072660847006,0.0010726579415697,-0.00107264794653,0.0010726711579398,-0.0010726709352152,0.0010726475463259,7.4752634014226e-09,-7.7132915799427e-09,-0.0010649787852138,0.0010649785292027,3.2439925158878e-09,-3.618578309593e-09,-0.0013111129323099,0.0013111200443105,-0.0013111151777017,0.0013111177430043,-0.0013111180210729,0.0013111150069138,-0.001311120267786,0.0013111127071473,-0.0010726680780563,0.0010726506887135,-0.0010726531789007,0.0010726655400164,0.72136489536244,131329,3014,0.0044285190968922,0.0044285191005735,0.0044285191016858,34.085549161262,3.2684393290096e-05,3.2684393290096e-05,3.2684393290096e-05,4533834.8221756,0.013376389371418
35219200,0.99889816432214,0.014138419546493,0.0047128065147686,0.0047128065157636,0.004712806515961,-0.0010668415022763,0.0010668434366983,-6.6548032782691e-09,8.5949584760066e-09,-1.0527409405604e-08,1.2963337769518e-08,-0.0013131585094507,0.0013131476431596,-0.0013131534198801,0.0013131527166827,-0.0013131511536891,0.0013131553541359,-0.0013131460731542,0.0013131604370838,-0.0010746018772349,0.0010745966379588,-0.0010745869342277,0.0010746115601971,1.0489888497851e-08,-1.2924301661417e-08,-4.417201908154e-09,2.4759857024084e-09,-0.0010668434343007,0.0010668415058665,-0.0013131514674273,0.0013131549945949,-0.0013131492681851,0.0013131572843201,-0.0013131587944432,0.0013131473021203,-0.0013131565964591,0.001313149593469,-0.0010746074155344,0.0010745909641733,-0.0010746007053478,0.0010745978034259,-0.0010745878222346,0.0010746109931576,-0.0010746107605549,0.0010745874226867,7.5238310597433e-09,-7.7656469463458e-09,-0.0010668425987272,0.0010668423417618,3.2248651851705e-09,-3.6025793836433e-09,-0.0013131495957266,0.0013131567304877,-0.0013131518297768,0.0013131544411065,-0.0013131547182226,0.0013131516594296,-0.0013131569534936,0.0013131493717556,-0.0010746079761276,0.0010745904922305,-0.0010745929829066,0.0010746054462808,0.70214230481986,131329,3014,0.0044362521976894,0.004436252200151,0.0044362522008159,35.120130242454,4.0961041939634e-05,4.0961041939634e-05,4.0961041939634e-05,4546248.1075114,0.013399905645367
35419200,0.99896993883207,0.014139359951008,0.00471311998294,0.0047131199839351,0.0047131199841326,-0.0010683163779703,0.0010683183163811,-6.6958635707877e-09,8.6438493054548e-09,-1.0528607637911e-08,1.2973344572523e-08,-0.0013147490995094,0.0013147382010978,-0.0013147439793974,0.0013147433036058,-0.0013147417410681,0.0013147459164807,-0.0013147366297929,0.0013147510292649,-0.0010761264711296,0.0010761211585139,-0.0010761114609074,0.0010761361893237,1.0524648970928e-08,-1.2945468346073e-08,-4.4057332954764e-09,2.4771777444391e-09,-0.001068318308496,0.0010683163854497,-0.0013147420315112,0.0013147455803631,-0.0013147398354673,0.001314747866028,-0.0013147493778079,0.00131473787051,-0.0013147471822388,0.0013147401579907,-0.001076131959376,0.0010761155241538,-0.0010761252792689,0.0010761223707401,-0.001076112341794,0.0010761355925648,-0.0010761353244521,0.0010761119546796,7.5667187762883e-09,-7.8201728647929e-09,-0.0010683174776468,0.0010683172160911,3.2108128243869e-09,-3.5989515368098e-09,-0.0013147401567775,0.0013147473185348,-0.0013147423863212,0.0013147450357317,-0.0013147453128084,0.0013147422156139,-0.0013147475427303,0.0013147399349522,-0.0010761325797824,0.0010761149858925,-0.0010761175026015,0.0010761300443332,0.68162298636275,131329,3014,0.0044423710341718,0.0044423710333206,0.0044423710328879,35.931852890982,4.7454823127859e-05,4.7454823127859e-05,4.7454823127859e-05,4555801.6606991,0.013418511670653
35619200,0.99903935611285,0.01414023063972,0.0047134102125103,0.0047134102135058,0.0047134102137035,-0.0010695039816805,0.0010695059221456,-6.7437359971709e-09,8.6928960209348e-09,-1.0598749365423e-08,1.3044980210927e-08,-0.0013159953667222,0.0013159843914513,-0.0013159902142408,0.0013159895263748,-0.001315987960552,0.0013159921539966,-0.0013159828175465,0.0013159972989847,-0.0010773400630962,0.0010773347037621,-0.0010773249517227,0.0010773498228487,1.0563508335424e-08,-1.2990857968245e-08,-4.4062702880794e-09,2.4719697454693e-09,-0.0010695059155875,0.0010695039885529,-0.0013159882462037,0.0013159918223967,-0.0013159860516041,0.0013159941070093,-0.001315995620393,0.0013159840846284,-0.0013159934265018,0.0013159863704367,-0.0010773455460766,0.0010773290786215,-0.0010773388645662,0.0010773359148211,-0.001077325874443,0.0010773491957676,-0.0010773489434154,0.0010773254795926,7.6137344388157e-09,-7.8635570653177e-09,-0.0010695050819591,0.0010695048221892,3.2138058176001e-09,-3.5986700461297e-09,-0.0013159863697552,0.001315993562391,-0.0013159885995893,0.0013159912787261,-0.0013159915558982,0.0013159884295353,-0.0013159937865009,0.0013159861474959,-0.0010773461933826,0.0010773285159515,-0.0010773310230897,0.0010773436595254,0.65729900283258,131329,3014,0.0044472973820672,0.00444729738272,0.0044472973827372,36.575866782796,5.260693426237e-05,5.260693426237e-05,5.260693426237e-05,4563635.1627822,0.013433489695184
35819200,0.99910630344962,0.014141129947325,0.0047137099817118,0.0047137099827076,0.0047137099829055,-0.0010707105576708,0.0010707124985878,-6.7909270069002e-09,8.7387568925343e-09,-1.066069835016e-08,1.3105862406547e-08,-0.0013172077500815,0.0013171967042658,-0.0013172025669799,0.0013172018708233,-0.0013172003029305,0.0013172045076262,-0.001317195128858,0.0013172096837661,-0.0010785575034053,0.0010785520907305,-0.0010785422920679,0.0010785672928913,1.0630356939125e-08,-1.3067740612844e-08,-4.412915761624e-09,2.4698063056749e-09,-0.0010707124950255,0.0010707105622233,-0.0013172005727394,0.0013172041921334,-0.0013171983768543,0.0013172064781474,-0.0013172079939577,0.0013171964054017,-0.0013172057991942,0.0013171986930445,-0.0010785629949622,0.0010785464609246,-0.0010785563006131,0.0010785532947827,-0.0010785432239444,0.0010785666723352,-0.0010785664377555,0.0010785428189408,7.6633754751984e-09,-7.908165006458e-09,-0.001070711657604,0.0010707113999009,3.2174018260533e-09,-3.5976991014238e-09,-0.0013171987017457,0.0013172059268492,-0.0013172009319413,0.0013172036416396,-0.0013172039185094,0.001317200762047,-0.0013172061498067,0.0013171984786408,-0.0010785636521147,0.0010785458906232,-0.0010785483859124,0.0010785611234243,0.69619236228125,131329,3014,0.0044523016415434,0.0044523016435984,0.0044523016441314,37.216060797572,5.7728486380578e-05,5.7728486380578e-05,5.7728486380578e-05,4572287.2996835,0.013448702402865
36019200,0.99917069475104,0.014142052502933,0.0047140175002478,0.0047140175012438,0.0047140175014416,-0.0010718846747275,0.0010718866184728,-6.8364991669667e-09,8.7868719029185e-09,-1.0728550908693e-08,1.3176940760534e-08,-0.0013184739968348,0.0013184628763537,-0.001318468782522,0.0013184680741752,-0.0013184665035341,0.0013184707260886,-0.0013184612982724,0.0013184759334608,-0.0010797723493115,0.0010797668934672,-0.0010797570452125,0.0010797821863483,1.0696802316412e-08,-1.3138422545234e-08,-4.4176258815488e-09,2.471052937516e-09,-0.0010718866150339,0.0010718846791657,-0.0013184667618205,0.0013184704220563,-0.001318464563973,0.0013184727100956,-0.0013184742284843,0.0013184625895737,-0.0013184720317839,0.0013184648792104,-0.0010797778471037,0.0010797612576594,-0.0010797711460519,0.0010797680964291,-0.0010797579820715,0.0010797815626162,-0.0010797813308793,0.0010797575748142,7.7104172113116e-09,-7.9547277237343e-09,-0.0010718857760616,0.001071885518397,3.2206195695917e-09,-3.6005433280934e-09,-0.0013184648946525,0.0013184721528332,-0.0013184671267821,0.0013184698655509,-0.0013184701426219,0.0013184669568871,-0.0013184723758954,0.0013184646713818,-0.0010797785231935,0.0010797606689102,-0.0010797631646244,0.0010797759927994,0.73586311027228,131329,3014,0.0044571726910841,0.0044571726931552,0.0044571726936933,37.856120888535,6.2848967108281e-05,6.2848967108281e-05,6.2848967108281e-05,4579232.8624539,0.013463515421642
36219200,0.9992303594862,0.014142876340113,0.0047142921126408,0.0047142921136369,0.0047142921138349,-0.0010718038340557,0.0010718057866543,-6.8796371650129e-09,8.8416279218067e-09,-1.0874436491312e-08,1.3336792502908e-08,-0.001318521087726,0.0013185098395227,-0.0013185158403164,0.0013185150693374,-0.0013185134936734,0.0013185177915678,-0.0013185082554161,0.0013185230310958,-0.0010797257285785,0.0010797202944827,-0.0010797103460035,0.0010797356994676,1.083411786882e-08,-1.3271071973502e-08,-4.431891791406e-09,2.4901709268442e-09,-0.0010718057786244,0.0010718038416996,-0.0013185137535277,0.0013185174866263,-0.0013185115442021,0.001318519785407,-0.0013185213098095,0.0013185095645593,-0.0013185191015692,0.0013185118648976,-0.0010797312872863,0.0010797145896927,-0.0010797245698068,0.0010797214762683,-0.001079711227752,0.0010797351026509,-0.0010797348322329,0.001079710837933,7.7496890750243e-09,-8.0045536465865e-09,-0.0010718049413178,0.0010718046787666,3.2365462131466e-09,-3.6262524095222e-09,-0.0013185119012041,0.0013185192020848,-0.0013185141477309,0.0013185169012411,-0.0013185171791755,0.0013185139765824,-0.001318519426727,0.0013185116776271,-0.0010797319659923,0.0010797139922802,-0.001079716529198,0.0010797294111435,0.71361056308118,131329,3014,0.0044568388592827,0.0044568388584783,0.0044568388579815,37.827198866575,6.2617590932603e-05,6.2617590932603e-05,6.2617590932603e-05,4574964.0633664,0.01346250551909
36419200,0.99928478884273,0.014143616768101,0.0047145389219702,0.0047145389229663,0.0047145389231642,-0.0010711878629387,0.0010711898210099,-6.9222538836602e-09,8.8891440048112e-09,-1.1026609160277e-08,1.3495198593888e-08,-0.0013179521974595,0.001317940821711,-0.0013179469200767,0.0013179460817078,-0.001317944500295,0.001317948877112,-0.0013179392322392,0.0013179541464672,-0.001079115907597,0.0010791104933412,-0.0010791004338952,0.0010791259833628,1.0989586734725e-08,-1.3437714442294e-08,-4.4636331239139e-09,2.5125660999078e-09,-0.0010711898147272,0.0010711878692373,-0.0013179447588493,0.0013179485737528,-0.0013179425314231,0.0013179508907503,-0.0013179524216627,0.0013179405436308,-0.0013179501957197,0.0013179428620677,-0.0010791215626684,0.0010791046936295,-0.0010791147891087,0.0010791116312508,-0.0010791012551275,0.0010791254527277,-0.0010791251772798,0.0010791008722267,7.7985644384743e-09,-8.0524642029519e-09,-0.0010711889732145,0.0010711887106542,3.2611240367669e-09,-3.650281547375e-09,-0.0013179429236042,0.0013179502720162,-0.0013179451857955,0.0013179479547982,-0.0013179482334837,0.0013179450140152,-0.001317950497053,0.0013179426984535,-0.0010791222107503,0.0010791041276097,-0.0010791066773483,0.0010791196403565,0.70434021169824,131329,3014,0.0044542841139039,0.0044542841139408,0.0044542841137447,37.495756745405,5.9966053963242e-05,5.9966053963242e-05,5.9966053963242e-05,4566762.3533774,0.013454739071093
36619200,0.99933448645572,0.014144250551658,0.0047147501831558,0.0047147501841522,0.0047147501843502,-0.0010705693667679,0.001070571329317,-6.9667909213784e-09,8.9364681973249e-09,-1.1148253337042e-08,1.3620489282725e-08,-0.0013173498331133,0.0013173383500432,-0.0013173445253329,0.0013173436409369,-0.0013173420537965,0.0013173464878021,-0.0013173367552289,0.0013173517882656,-0.001078493324661,0.0010784879025749,-0.0010784777510436,0.001078503473587,1.1116953151248e-08,-1.3578381104644e-08,-4.4950978439099e-09,2.5327702623971e-09,-0.0010705713251919,0.0010705693716641,-0.0013173423069564,0.0013173461889617,-0.0013173400628426,0.0013173485233709,-0.0013173500588734,0.0013173380694407,-0.0013173478159572,0.0013173404053526,-0.0010784990559365,0.001078482030522,-0.001078492222947,0.0010784890097808,-0.0010784785367216,0.0010785029951938,-0.0010785027272035,0.0010784781568401,7.8482215695712e-09,-8.0978764146989e-09,-0.0010705704792652,0.0010705702177718,3.2867254700283e-09,-3.6724272353688e-09,-0.0013173404818562,0.0013173478768239,-0.0013173427599371,0.0013173455434758,-0.0013173458236663,0.0013173425874427,-0.0013173481028912,0.0013173402557687,-0.0010784996780322,0.0010784814950188,-0.001078484046171,0.0010784970958624,0.66675282097886,131329,3014,0.0044517184645549,0.004451718466159,0.0044517184665375,37.157336709689,5.7258693677512e-05,5.7258693677512e-05,5.7258693677512e-05,4559020.8149161,0.01344693814802
36819200,0.99937992042296,0.014144812667008,0.0047149375549391,0.0047149375559357,0.0047149375561337,-0.0010699867321884,0.0010699886991231,-7.011805757206e-09,8.9855071935114e-09,-1.1247963115742e-08,1.3725280791211e-08,-0.0013166996498232,0.0013166880717264,-0.0013166943107275,0.0013166933939671,-0.0013166918026866,0.001316696277737,-0.0013166864727566,0.00131670160963,-0.001077878279051,0.001077872836546,-0.0010778626119791,0.0010778884985865,1.1216326200806e-08,-1.3684023581287e-08,-4.5208629546881e-09,2.5534628863983e-09,-0.0010699886951239,0.0010699867369774,-0.0013166920520008,0.0013166959825801,-0.0013166897925808,0.001316698332465,-0.0013166998718699,0.0013166877946796,-0.001316697613575,0.0013166901461262,-0.0010778840599819,0.0010778669150486,-0.0010778771803938,0.0010778739388547,-0.0010778633757835,0.0010778880445939,-0.0010778877679449,0.0010778630051294,7.8945069787014e-09,-8.1444902731481e-09,-0.0010699878473198,0.0010699875849676,3.309987421524e-09,-3.6963473050242e-09,-0.0013166902282468,0.0013166976688981,-0.0013166925220643,0.0013166953197182,-0.0013166956011174,0.0013166923486293,-0.0013166978959988,0.001316690001168,-0.0010778846758184,0.0010778663864656,-0.0010778689522846,0.0010778820774447,0.64957834982381,131329,3014,0.0044493003035948,0.0044493003052349,0.004449300305623,36.818671347564,5.454937078051e-05,5.454937078051e-05,5.454937078051e-05,4553188.521625,0.01343958132013
37019200,0.99942269397866,0.014145381337105,0.0047151271116379,0.0047151271126346,0.0047151271128327,-0.0010703928327229,0.0010703947973332,-7.0604386272405e-09,9.0298400879366e-09,-1.1239973095331e-08,1.3712460879733e-08,-0.0013170450247072,0.001317033421596,-0.001317039654964,0.0013170387752214,-0.0013170371839467,0.0013170416203742,-0.0013170318233892,0.0013170469835725,-0.0010782692040264,0.0010782636562722,-0.0010782534337144,0.0010782793976991,1.1201538051926e-08,-1.3676487569582e-08,-4.5330197999909e-09,2.5591279236331e-09,-0.0010703947961734,0.0010703928355847,-0.0013170374199163,0.0013170413380693,-0.001317035154894,0.0013170436942452,-0.0013170452322675,0.0013170331573177,-0.001317042968394,0.0013170355150097,-0.0010782749465081,0.0010782577783741,-0.0010782680381951,0.0010782648092036,-0.001078254262104,0.0010782788989713,-0.0010782786387038,0.0010782538888258,7.9448589623652e-09,-8.1884293444867e-09,-0.0010703939461188,0.0010703936861452,3.321272135622e-09,-3.7020064162746e-09,-0.0013170355717403,0.0013170430490716,-0.001317037870739,0.0013170406939418,-0.0013170409758907,0.0013170376973123,-0.0013170432760333,0.0013170353437795,-0.001078275596041,0.0010782572204704,-0.0010782597736838,0.001078272998346,0.68961816854113,131329,3014,0.0044509835517685,0.0044509835553013,0.0044509835563525,37.016512365823,5.6132098926581e-05,5.6132098926581e-05,5.6132098926581e-05,4557650.8989773,0.01344469461582
37219200,0.99946320320409,0.014145960199405,0.0047153200657376,0.0047153200667346,0.0047153200669328,-0.0010709975615021,0.0010709995234019,-7.1080072081413e-09,9.0758059308587e-09,-1.1183109753615e-08,1.3653693933728e-08,-0.001317696785004,0.0013176851857875,-0.0013176913839408,0.0013176905703832,-0.0013176889827767,0.001317693345975,-0.0013176835909421,0.0013176987400914,-0.00107889486302,0.001078889185224,-0.0010788790075831,0.0010789050242398,1.114519265591e-08,-1.3612060707297e-08,-4.5323719928605e-09,2.5654938597637e-09,-0.0010709995209165,0.0010709975652075,-0.0013176892019692,0.0013176930809506,-0.0013176869348348,0.0013176954388886,-0.0013176969741648,0.0013176849405323,-0.0013176947082834,0.0013176872999808,-0.0010789005167113,0.0010788833935594,-0.0010788936086057,0.0010788904358716,-0.0010788799091572,0.0010789044415173,-0.0010789041636458,0.0010788795463306,7.989958093706e-09,-8.2370426926764e-09,-0.0010709986739185,0.0010709984125389,3.3227131480118e-09,-3.7066166332738e-09,-0.0013176873176392,0.0013176948282631,-0.0013176896187348,0.0013176924712177,-0.0013176927529288,0.0013176894451231,-0.0013176950552315,0.0013176870896937,-0.0010789012375187,0.0010788827615717,-0.0010788853269401,0.0010788986344025,0.73362544449574,131329,3014,0.0044534923960908,0.0044534923986229,0.0044534923993165,37.343543723046,5.8748349784369e-05,5.8748349784369e-05,5.8748349784369e-05,4562395.2829074,0.01345232388985
37419200,0.99950152281508,0.014146466385329,0.0047154887943789,0.0047154887953761,0.0047154887955743,-0.0010715636441354,0.0010715656025987,-7.1564673673637e-09,9.1213053742643e-09,-1.1109388080467e-08,1.3576375866095e-08,-0.0013184037985441,0.0013183922146565,-0.0013183983660486,0.0013183976304478,-0.0013183960465953,0.0013184003245768,-0.0013183906232734,0.0013184057500274,-0.0010795111512162,0.0010795053287788,-0.0010794952066731,0.0010795212627647,1.1076535882232e-08,-1.3536666479407e-08,-4.5306474674622e-09,2.5695510637488e-09,-0.0010715655992644,0.0010715636484447,-0.0013183962453904,0.0013184000797817,-0.0013183939774857,0.0013184024383608,-0.0013184039700546,0.0013183919877454,-0.0013184017032571,0.0013183943478765,-0.0010795167053211,0.0010794996354005,-0.001079509797834,0.0010795066821446,-0.0010794961916828,0.0010795205915978,-0.0010795203036368,0.0010794958367293,8.0357721792936e-09,-8.2844938521054e-09,-0.0010715647549807,0.0010715644929744,3.3231175152028e-09,-3.7084799002347e-09,-0.0013183943228198,0.0013184018653472,-0.0013183966250105,0.0013183995077094,-0.0013183997893879,0.001318396451315,-0.0013184020926347,0.0013183940953662,-0.0010795174996721,0.0010794989290446,-0.0010795014993056,0.0010795148942304,0.68665560308012,131329,3014,0.0044558423765804,0.004455842378604,0.004455842379116,37.673623143283,6.1388985146261e-05,6.1388985146261e-05,6.1388985146261e-05,4565023.9759856,0.013459475274909
37619200,0.99953772176803,0.014146926217326,0.004715642071711,0.0047156420727083,0.0047156420729066,-0.0010721660825274,0.0010721680371599,-7.2050707681809e-09,9.1662806481241e-09,-1.1032725572866e-08,1.3495325621742e-08,-0.0013190457733879,0.0013190342069507,-0.0013190403096765,0.0013190396538937,-0.0013190380737603,0.0013190422642331,-0.0013190326192312,0.001319047720846,-0.0010801311773721,0.0010801252074604,-0.0010801151422212,0.0010801412340674,1.1001029532035e-08,-1.3455994933613e-08,-4.5287383640593e-09,2.5719714842692e-09,-0.0010721680336602,0.0010721660869288,-0.0013190382529983,0.0013190420390235,-0.001319035984905,0.0013190443977506,-0.0013190459258892,0.0013190339991391,-0.0013190436588999,0.0013190363594219,-0.0010801366293385,0.0010801196158996,-0.0010801297223029,0.0010801266640166,-0.0010801162180263,0.0010801404701032,-0.0010801401762801,0.0010801158685481,8.0824344349996e-09,-8.3315061220305e-09,-0.0010721671914426,0.0010721669293671,3.3231136472621e-09,-3.7087779121747e-09,-0.0013190362906119,0.0013190438645695,-0.0013190385929508,0.0013190415068739,-0.0013190417883896,0.0013190384193101,-0.0013190440917738,0.0013190360633013,-0.0010801374980741,0.0010801188347028,-0.0010801214065799,0.001080134892162,0.66415287114302,131329,3014,0.0044583414869094,0.0044583414887802,0.0044583414892396,38.003810162056,6.4030481296448e-05,6.4030481296448e-05,6.4030481296448e-05,4569960.5499213,0.013467074356291
37819200,0.99957094700988,0.014147330146704,0.0047157767148369,0.0047157767158343,0.0047157767160325,-0.0010718301265495,0.0010718320817137,-7.2507987117236e-09,9.2146344449488e-09,-1.1011927354531e-08,1.3477516031872e-08,-0.0013186606599524,0.0013186490741122,-0.0013186551645227,0.0013186545519797,-0.001318652973669,0.0013186571187905,-0.0013186474874319,0.001318662606417,-0.0010797685870124,0.0010797625178203,-0.0010797524724724,0.0010797786485975,1.0988683264537e-08,-1.3433909607805e-08,-4.5335897932425e-09,2.5855733026818e-09,-0.0010718320752255,0.0010718301329896,-0.0013186531387996,0.0013186569081519,-0.0013186508642848,0.0013186592726831,-0.0013186608003757,0.0013186488801406,-0.0013186585269469,0.0013186512462494,-0.0010797739821054,0.0010797569777285,-0.0010797670688452,0.0010797640548006,-0.0010797535846801,0.0010797778276084,-0.0010797775025129,0.0010797532522069,8.1252436467663e-09,-8.3818107175537e-09,-0.0010718312367334,0.0010718309713696,3.3290268463532e-09,-3.721560460809e-09,-0.0013186511495264,0.0013186587604129,-0.0013186534585942,0.001318656396789,-0.0013186566785123,0.0013186532842311,-0.0013186589885351,0.0013186509223957,-0.0010797749083498,0.0010797561345234,-0.0010797587324149,0.001079772288891,0.64016142578351,131329,3014,0.0044569468719565,0.0044569468718573,0.0044569468716264,37.803883009221,6.2431064073771e-05,6.2431064073771e-05,6.2431064073771e-05,4566765.625985,0.01346283047271
38019200,0.99960139611767,0.014147718296921,0.0047159060982426,0.0047159060992401,0.0047159060994384,-0.0010714366748863,0.0010714386281182,-7.2991079561152e-09,9.2597073880013e-09,-1.0995839365655e-08,1.3457611350123e-08,-0.0013181592936087,0.0013181476876397,-0.0013181537672743,0.0013181531968642,-0.0013181516189368,0.0013181557201564,-0.0013181461017638,0.0013181612391286,-0.0010793323236243,0.0010793261457188,-0.00107931610952,0.0010793423604109,1.0968044237064e-08,-1.3417540416779e-08,-4.543649606196e-09,2.5917526295007e-09,-0.0010714386234914,0.0010714366800918,-0.0013181517702459,0.0013181555229564,-0.0013181494905646,0.001318157893092,-0.0013181594195278,0.0013181475071078,-0.0013181571409082,0.0013181498788351,-0.001079337672024,0.0010793206557855,-0.0010793307354253,0.0010793277418925,-0.0010793172861479,0.0010793414879358,-0.0010793411720838,0.0010793169541314,8.1742129910806e-09,-8.4266666878817e-09,-0.0010714377838136,0.0010714375198844,3.3387628714243e-09,-3.7277546172288e-09,-0.0013181497546139,0.0013181574017356,-0.0013181520687428,0.0013181550326157,-0.0013181553148079,0.0013181518942553,-0.0013181576299048,0.0013181495268823,-0.0010793386386762,0.0010793197753384,-0.0010793223665959,0.0010793360179482,0.66569814866805,131329,3014,0.0044553129577784,0.00445531295898,0.0044553129592202,37.559482062022,6.0475856496177e-05,6.0475856496177e-05,6.0475856496177e-05,4564001.5666722,0.013457856402426
38219200,0.99962932562918,0.014148077540289,0.0047160258460319,0.0047160258470295,0.0047160258472278,-0.0010710170966732,0.0010710190484314,-7.3466711047701e-09,9.3053692737091e-09,-1.0975846691888e-08,1.3435418285547e-08,-0.0013176932198492,0.0013176815956767,-0.0013176876625141,0.0013176871360605,-0.0013176855590182,0.0013176896140265,-0.0013176800108753,0.001317695164123,-0.0010788913376123,0.0010788850518651,-0.0010788750295049,0.0010789013552037,1.0946225473359e-08,-1.3396217031251e-08,-4.5500349611765e-09,2.597611201394e-09,-0.001071019044458,0.0010710171014273,-0.0013176856958623,0.0013176894312198,-0.0013176834121827,0.0013176918055266,-0.0013176933308075,0.0013176814296839,-0.0013176910482177,0.0013176838055516,-0.0010788966325329,0.0010788796166028,-0.0010788896814222,0.0010788867124598,-0.0010788762661309,0.0010789004270301,-0.0010789001111277,0.0010788759373885,8.2218402396303e-09,-8.473002957017e-09,-0.0010710182048034,0.0010710179412653,3.3452118163694e-09,-3.7331334818347e-09,-0.0013176836541057,0.0013176913362662,-0.0013176859720475,0.0013176889631335,-0.0013176892455486,0.0013176857974324,-0.0013176915645019,0.001317683426001,-0.0010788976465415,0.0010788786897037,-0.0010788812809595,0.0010788950231168,0.67076172752384,131329,3014,0.0044535716964339,0.0044535716980546,0.0044535716984371,37.313933720125,5.8511469761001e-05,5.8511469761001e-05,5.8511469761001e-05,4559952.9749245,0.013452559661342
38419200,0.99965513989573,0.014148434217343,0.0047161447383831,0.0047161447393808,0.0047161447395791,-0.001070824911667,0.0010708268607858,-7.3957046710342e-09,9.350681643565e-09,-1.0938252082613e-08,1.3393467958306e-08,-0.0013174774476954,0.001317465816717,-0.0013174718591043,0.0013174713887711,-0.0013174698129884,0.0013174738084494,-0.0013174642335058,0.0013174793902466,-0.0010786897139845,0.0010786833039278,-0.0010786733067227,0.0010786996934797,1.0907740238302e-08,-1.3359923000545e-08,-4.5514164396737e-09,2.5968343641946e-09,-0.0010708268583445,0.0010708249154022,-0.0013174699313824,0.0013174736436763,-0.0013174676477302,0.0013174760183097,-0.0013174775415733,0.0013174656670165,-0.0013174752589327,0.0013174680432665,-0.0010786949389351,0.0010786779415256,-0.0010786879811104,0.0010786850319966,-0.0010786746196848,0.0010786987000184,-0.0010786983947441,0.0010786742881345,8.2701110491078e-09,-8.5176100475068e-09,-0.0010708260180562,0.001070825756056,3.3474850551147e-09,-3.7320946816428e-09,-0.001317467862469,0.0013174755760166,-0.0013174701807185,0.0013174732023344,-0.0013174734848644,0.0013174700062635,-0.0013174758040702,0.0013174676342858,-0.0010786960056999,0.0010786769644491,-0.001078679545755,0.0010786933856435,0.71253733348432,131329,3014,0.0044527740346133,0.004452774037299,0.0044527740380595,37.196413664697,5.7571309317578e-05,5.7571309317578e-05,5.7571309317578e-05,4557936.3070473,0.013450133155816
38619200,0.99967915334707,0.01414876795204,0.0047162559832822,0.00471625598428,0.0047162559844783,-0.0010708017616004,0.0010708037092072,-7.4426430061297e-09,9.3963434254524e-09,-1.0887204358704e-08,1.3340640625998e-08,-0.0013175306527641,0.001317519023998,-0.0013175250331714,0.0013175246268248,-0.0013175230526559,0.001317526981272,-0.0013175174422463,0.0013175325940636,-0.0010786923010491,0.0010786857645433,-0.0010786758043215,0.0010787022458608,1.0862866396806e-08,-1.3311271510769e-08,-4.5458240554322e-09,2.5945161028334e-09,-0.0010708037059951,0.0010708017660157,-0.001317523150183,0.0013175268368089,-0.0013175208692311,0.0013175292088186,-0.0013175307298214,0.001317518891918,-0.0013175284496167,0.0013175212654183,-0.0010786974408634,0.0010786804866519,-0.0010786904922219,0.001078687569427,-0.0010786771886827,0.0010787011788164,-0.0010787008723693,0.001078676858772,8.3172049103345e-09,-8.5651593575551e-09,-0.0010708028671978,0.001070802605151,3.3422456108967e-09,-3.727210251947e-09,-0.0013175210542048,0.0013175287960653,-0.0013175233694616,0.0013175264260487,-0.0013175267085615,0.0013175231952386,-0.0013175290245765,0.0013175208269019,-0.0010786985744853,0.0010786794431905,-0.0010786820218285,0.0010786959570525,0.71625967098384,131329,3014,0.0044526790901381,0.0044526790926355,0.0044526790933386,37.193707234813,5.7549657878507e-05,5.7549657878507e-05,5.7549657878507e-05,4555849.2329644,0.013449848557083
38819200,0.9997014948628,0.014149079619312,0.0047163598723726,0.0047163598733705,0.0047163598735689,-0.0010707804640023,0.0010707824094992,-7.4906027230815e-09,9.4428000003242e-09,-1.0849444870965e-08,1.3301144963475e-08,-0.001317587533655,0.001317575896618,-0.0013175818826894,0.0013175815307914,-0.0013175799591591,0.0013175838278421,-0.0013175743172782,0.0013175894718761,-0.0010786964453217,0.0010786897899142,-0.0010786798591336,0.0010787063666836,1.0815297619521e-08,-1.3259151776555e-08,-4.5372112729309e-09,2.589705760234e-09,-0.0010707824058796,0.0010707804685734,-0.0013175800407583,0.0013175837001396,-0.0013175777640832,0.0013175860675644,-0.0013175875869821,0.0013175757880412,-0.0013175853112337,0.0013175781571237,-0.001078701499406,0.0010786845965411,-0.0010786945662908,0.001078691670079,-0.0010786813216331,0.0010787052156694,-0.0010787049048362,0.0010786809917715,8.362992823751e-09,-8.6121916270163e-09,-0.0010707815684961,0.0010707813061969,3.3364543945791e-09,-3.7224251625106e-09,-0.0013175779173668,0.0013175856871671,-0.001317580228836,0.0013175833204708,-0.001317583602304,0.0013175800548507,-0.0013175859146563,0.0013175776899707,-0.0010787027027148,0.0010786834810991,-0.0010786860615219,0.001078700087745,0.71844600697041,131329,3014,0.0044525918115093,0.004452591813484,0.0044525918139838,37.193612118017,5.7548896944134e-05,5.7548896944134e-05,5.7548896944134e-05,4553763.041579,0.013449587173776
38880000,0.99970813561449,0.014149172392089,0.0047163907966315,0.0047163907976294,0.0047163907978278,-0.0010707713655763,0.0010707733105388,-7.5046524037558e-09,9.4564067682644e-09,-1.0837088926843e-08,1.3288227281278e-08,-0.0013176041147279,0.0013175924762521,-0.0013175984544406,0.0013175981196922,-0.0013175965486189,0.0013176003991556,-0.0013175908975285,0.0013176060523034,-0.0010786963148044,0.0010786896239549,-0.0010786797026869,0.0010787062285479,1.0809972120737e-08,-1.3252923889998e-08,-4.5346254567062e-09,2.5879014581185e-09,-0.0010707733068909,0.0010707713701098,-0.001317596622228,0.0013176002794721,-0.0013175943469151,0.0013176026454457,-0.0013176041645647,0.0013175923713085,-0.0013176018903212,0.0013175947388167,-0.0010787013462213,0.0010786844529905,-0.0010786944184652,0.0010786915227705,-0.0010786811792168,0.0010787050622189,-0.0010787047508988,0.0010786808489234,8.3774511414123e-09,-8.6269958207289e-09,-0.0010707724697875,0.0010707722074328,3.333102885686e-09,-3.7193374980572e-09,-0.0013175944938975,0.0013176022713857,-0.0013175968032278,0.0013175999069447,-0.0013176001885232,0.0013175966294142,-0.0013176024988448,0.001317594266637,-0.0010787025679026,0.0010786833188207,-0.0010786858983688,0.0010786999547863,0.71909630990324,131329,3014,0.0044525543739785,0.0044525543758163,0.0044525543762739,37.19360885197,5.7548870815764e-05,5.7548870815764e-05,5.7548870815764e-05,4553103.1590656,0.013449474586198
