time,ASR_ext,ASR_strain,ASR_strain_xx,ASR_strain_yy,ASR_strain_zz,disp_x_101,disp_x_102,disp_x_103,disp_x_104,disp_x_105,disp_x_106,disp_x_p1_neg,disp_x_p1_pos,disp_x_p2_neg,disp_x_p2_pos,disp_x_p3_neg,disp_x_p3_pos,disp_x_p4_neg,disp_x_p4_pos,disp_x_p5_neg,disp_x_p5_pos,disp_x_p6_neg,disp_x_p6_pos,disp_y_101,disp_y_102,disp_y_103,disp_y_104,disp_y_105,disp_y_106,disp_y_p1_neg,disp_y_p1_pos,disp_y_p2_neg,disp_y_p2_pos,disp_y_p3_neg,disp_y_p3_pos,disp_y_p4_neg,disp_y_p4_pos,disp_y_p5_neg,disp_y_p5_pos,disp_y_p6_neg,disp_y_p6_pos,disp_y_p7_neg,disp_y_p7_pos,disp_y_p8_neg,disp_y_p8_pos,disp_z_101,disp_z_102,disp_z_103,disp_z_104,disp_z_105,disp_z_106,disp_z_p1_neg,disp_z_p1_pos,disp_z_p2_neg,disp_z_p2_pos,disp_z_p3_neg,disp_z_p3_pos,disp_z_p4_neg,disp_z_p4_pos,disp_z_p5_neg,disp_z_p5_pos,disp_z_p6_neg,disp_z_p6_pos,humidity,ndof,nelem,strain_xx,strain_yy,strain_zz,temp,thermal_strain_xx,thermal_strain_yy,thermal_strain_zz,vonmises,vstrain
2419200,0,0,0,0,0,0,0,0,0,0,0,0,0,0,0,0,0,0,0,0,0,0,0,0,0,0,0,0,0,0,0,0,0,0,0,0,0,0,0,0,0,0,0,0,0,0,0,0,0,0,0,0,0,0,0,0,0,0,0,0,0,0,0,0,0,0,0,0,0,0,0,0,0,0,0
2619200,0.019600044639578,0.00040205314451425,0.00013401771483808,0.00013401771483808,0.00013401771483808,-3.3128233414688e-05,3.3129760896861e-05,7.497505007159e-10,7.6180195483834e-10,-3.0231917159855e-09,4.6659601171452e-09,-3.3079672194542e-05,3.307865843585e-05,-3.307961236001e-05,3.307860811556e-05,-3.3077187186677e-05,3.3081191082629e-05,-3.3077188077422e-05,3.3081200693979e-05,-3.4039165161237e-05,3.4043213814909e-05,-3.4039131216449e-05,3.4043195510914e-05,2.5781931259072e-09,-5.300907201523e-09,-1.4555005771818e-08,1.1961139265742e-08,-3.6341321722901e-05,3.6338708088345e-05,-3.5849032141808e-05,3.5840333473535e-05,-3.5840575215257e-05,3.5849229909944e-05,-3.5851529367138e-05,3.5837701346364e-05,-3.5843072194637e-05,3.5846597652933e-05,-3.6453882211935e-05,3.64226618913e-05,-3.6428167443315e-05,3.6448999529715e-05,-3.6431639730047e-05,3.644550355258e-05,-3.6439339395323e-05,3.6437643388809e-05,-2.57264893511e-09,-2.584828392155e-09,-3.3131602220876e-05,3.3126394757404e-05,1.021113794403e-08,-1.5827553499228e-08,-3.3077368990318e-05,3.3080903217231e-05,-3.3085996195427e-05,3.3072270544021e-05,-3.3077381305432e-05,3.3080906350121e-05,-3.3086004593787e-05,3.3072270448484e-05,-3.4048162083745e-05,3.4034324444752e-05,-3.4048127364666e-05,3.4034305247088e-05,0.81992967969409,128566,2924,0.00013802794198676,0.00015140518010118,0.00013802794754413,31.570353880234,1.256283104187e-05,1.256283104187e-05,1.256283104187e-05,701435.83396572,0.0004275526911439
2819200,0.041183969477255,0.00083521489361189,0.00027624366979532,0.00028272754058077,0.0002762436832358,-6.7321141591222e-05,6.7319722347342e-05,-7.0328720543846e-10,-6.9769494111513e-10,1.0858016488442e-09,-2.5793801554678e-09,-6.8404039531262e-05,6.8403835792913e-05,-6.8404022358068e-05,6.8403823365909e-05,-6.8405218370174e-05,6.8402624132659e-05,-6.8405216510542e-05,6.8402624866657e-05,-6.8927755358693e-05,6.892515125631e-05,-6.8927812341314e-05,6.8925215917407e-05,-5.6735028538602e-10,3.0114636603597e-09,-5.3761256492392e-09,7.7790384353883e-09,-7.552267081595e-05,7.5525059581263e-05,-7.5182835206957e-05,7.517970717384e-05,-7.5178574149173e-05,7.5184084616764e-05,-7.5181713519708e-05,7.5180915153473e-05,-7.5177454734692e-05,7.5185291341492e-05,-7.5157029396639e-05,7.5147725592837e-05,-7.5144267579995e-05,7.5160775448579e-05,-7.5150750739328e-05,7.515403523514e-05,-7.5147309335622e-05,7.5157629884497e-05,-1.2305416062936e-10,-1.3139268931829e-10,-6.7320555038776e-05,6.7320313380998e-05,6.2848244986389e-09,-6.7166515905441e-09,-6.8401867431071e-05,6.840602149661e-05,-6.8406201803604e-05,6.8401683845681e-05,-6.8401858827391e-05,6.8406007750569e-05,-6.8406201068694e-05,6.8401675531259e-05,-6.8928794240461e-05,6.8924139565825e-05,-6.8928811712346e-05,6.8924178285408e-05,0.821384917267,128566,2924,0.0002804626208064,0.00031463290223632,0.00028046263013912,32.741736041609,2.1933888332873e-05,2.1933888332873e-05,2.1933888332873e-05,1104335.7760676,0.00087594222283432
3019200,0.062599430870587,0.001256424784571,0.00041098187668532,0.00043446102443827,0.00041098188344745,-9.7177853942582e-05,9.7175484164598e-05,-1.1761400695003e-09,-1.174482980791e-09,4.1919457878969e-09,-6.7573756560695e-09,-9.9447250785692e-05,9.9448506861333e-05,-9.9447266991247e-05,9.9448525218897e-05,-9.9450769827065e-05,9.9444883224672e-05,-9.9450773327462e-05,9.9444886498283e-05,-9.9527570730425e-05,9.9521601829751e-05,-9.9527643285029e-05,9.9521674435219e-05,-3.1149499602257e-09,7.7643743599173e-09,1.9617611869909e-09,2.5226021425891e-09,-0.00011260129005261,0.00011260577486706,-0.00011265956787581,0.00011266024483467,-0.00011265933231642,0.00011266039451826,-0.00011265610317728,0.00011266387714698,-0.00011265586991475,0.00011266402542207,-0.00011141230755911,0.0001114198688624,-0.00011141173254636,0.00011142037330711,-0.00011141890195119,0.00011141297759219,-0.00011140833598926,0.0001114238848943,1.0221663068358e-09,1.020299121892e-09,-9.7175631838029e-05,9.7177707472687e-05,1.2995961647954e-09,7.9098938231021e-10,-9.9446736294106e-05,9.9449012548986e-05,-9.9446936898281e-05,9.9448826349808e-05,-9.9446719835609e-05,9.9448995322351e-05,-9.944692913655e-05,9.9448815185495e-05,-9.9523699462515e-05,9.9525509047523e-05,-9.9523728012016e-05,9.9525546483107e-05,0.82013325992514,128566,2924,0.00040482148797731,0.00046907032223836,0.00040482149048046,32.491620802998,1.9932966423986e-05,1.9932966423986e-05,1.9932966423986e-05,1514792.1997653,0.0012795328394306
3219200,0.083769317073564,0.0016596059601584,0.00053740530218815,0.00058479535174469,0.00053740530622555,-0.00012500767783853,0.00012500514772005,-1.2591944375207e-09,-1.2628576380617e-09,5.8896861856811e-09,-8.6842691766371e-09,-0.00012880756355648,0.0001288098587938,-0.00012880759388004,0.00012880988773587,-0.0001288122333818,0.00012880503478477,-0.00012881223625299,0.00012880503392795,-0.0001279063307118,0.00012789898711946,-0.00012790638734262,0.00012789903327967,-4.2148915250748e-09,1.0286993379289e-08,7.3487416323258e-09,-1.5187842260447e-09,-0.00014925108926235,0.00014925692761579,-0.00015014263199961,0.00015014655522496,-0.00015014545717393,0.00015014355771088,-0.00015013798658055,0.00015015137435225,-0.00015014081395275,0.00015014837544716,-0.0001467140942475,0.00014673345690987,-0.00014672265812419,0.00014672458483967,-0.00014672914845581,0.000146717935794,-0.00014671504021481,0.00014673246402667,1.6335023243891e-09,1.6367214690384e-09,-0.00012500476433698,0.00012500806156839,-2.6662128050326e-09,6.1423076451288e-09,-0.00012880851277477,0.00012880886811855,-0.00012880562729862,0.00012881178315171,-0.00012880849697146,0.00012880885491274,-0.00012880561783977,0.00012881177375352,-0.00012789959992803,0.00012790575350861,-0.00012789961833949,0.00012790577023968,0.80675914927288,128566,2924,0.00052072619486699,0.00062169622810379,0.00052072619558494,32.203512298104,1.7628098384835e-05,1.7628098384835e-05,1.7628098384835e-05,1851218.8192899,0.001664535415576
3419200,0.10467233994031,0.0020419231965397,0.0006548282753145,0.00073226664361137,0.00065482827761383,-0.00015071072374417,0.00015070938602205,-6.7046498354726e-10,-6.7933353764572e-10,4.6178143170658e-09,-6.1663555702319e-09,-0.00015639335628543,0.00015639559056503,-0.00015639337523818,0.00015639560467981,-0.00015639680010043,0.00015639202445728,-0.0001563968005027,0.00015639201768539,-0.00015387154784879,0.00015386662976254,-0.00015387157956872,0.00015386664077108,-2.707691359167e-09,7.9944526904065e-09,6.3214344773836e-09,-1.2314726259816e-09,-0.00018519833645823,0.00018520342825143,-0.00018750917040357,0.00018751317343047,-0.00018751162788188,0.00018751063370411,-0.00018750571078813,0.00018751670674143,-0.0001875081704162,0.00018751416563295,-0.00018064104065015,0.00018065711523032,-0.00018064835714724,0.00018064957503048,-0.00018065280663634,0.00018064502181566,-0.00018064238652764,0.00018065572449947,1.1692343650381e-09,1.1776539617791e-09,-0.00015070888108114,0.00015071122840177,-2.4882246901937e-09,5.0091509458595e-09,-0.00015639453553286,0.0001563943685622,-0.00015639207950344,0.00015639685114523,-0.00015639452762569,0.00015639436674114,-0.00015639207520116,0.00015639685040987,-0.00015386669590956,0.00015387150106541,-0.00015386668703835,0.00015387148022072,0.7858983790934,128566,2924,0.00062776522167542,0.00077136882308805,0.0006277652210808,31.914018745401,1.5312149963209e-05,1.5312149963209e-05,1.5312149963209e-05,2140248.2033685,0.0020289593217119
3619200,0.1258329499167,0.0024157899008125,0.00076758806005625,0.000880613779753,0.00076758806100324,-0.00017596060824411,0.00017595991687421,-3.4531935762588e-10,-3.6269284036592e-10,3.6867618203927e-09,-4.5491019731529e-09,-0.00018376488761535,0.00018376692606455,-0.00018376490663599,0.00018376693157521,-0.00018376750926379,0.00018376420738908,-0.0001837675112185,0.00018376419952415,-0.00017914104357996,0.0001791376141383,-0.00017914107178379,0.00017913761356544,-1.8454032238968e-09,6.2980307514984e-09,5.002602869556e-09,-7.0784518670514e-10,-0.00022209461691624,0.00022209890820061,-0.00022645635019797,0.00022645979841744,-0.00022645822716093,0.00022645787935523,-0.00022645371192776,0.00022646247564323,-0.00022645558799053,0.00022646055821055,-0.00021481506332331,0.00021482768130179,-0.00021482059755642,0.00021482198570916,-0.00021482399195588,0.00021481850803616,-0.00021481605466809,0.00021482665880525,7.9372224870927e-10,8.040121747627e-10,-0.00017595946810195,0.00017596105627664,-1.9511307436039e-09,3.6909591490495e-09,-0.00018376604303429,0.00018376573750207,-0.00018376420133847,0.00018376760163179,-0.00018376603814251,0.00018376573695137,-0.00018376419618672,0.00018376760433445,-0.00017913760856653,0.00017914105709798,-0.00017913760034383,0.00017914102449996,0.77011576492648,128566,2924,0.00073290615142654,0.00092496861727588,0.00073290614988126,31.993935418877,1.5951483351019e-05,1.5951483351019e-05,1.5951483351019e-05,2433100.735231,0.0023936473705777
3819200,0.14759918290236,0.0027956387152503,0.00088051262670616,0.0010346134618544,0.00088051262668974,-0.00020163957514036,0.0002016391680417,-2.0243699940738e-10,-2.2260115128293e-10,3.1010735510288e-09,-3.6547136760353e-09,-0.00021165575500338,0.00021165758461104,-0.00021165577067784,0.0002116575871902,-0.00021165789574732,0.00021165536166211,-0.00021165790066369,0.00021165535254312,-0.0002048903631118,0.00020488771463502,-0.00020489039734009,0.00020488770721674,-1.4069464100912e-09,5.2534885166496e-09,3.7974095495684e-09,-8.4826695455622e-11,-0.00026091248224574,0.00026091618797214,-0.00026780574625896,0.00026780850064109,-0.00026780703632952,0.00026780719652113,-0.00026780358415365,0.00026781068628446,-0.00026780487536719,0.00026780938168258,-0.00025036179341946,0.00025037154932804,-0.00025036556368405,0.00025036766612937,-0.00025036858970616,0.00025036456324977,-0.0002503620928415,0.00025037124078527,5.1976440786294e-10,5.3763703849043e-10,-0.00020163884990825,0.00020163989237932,-1.3404061848935e-09,2.5093060107325e-09,-0.00021165678247132,0.00021165652788934,-0.00021165553397576,0.00021165779697728,-0.00021165677522849,0.00021165653228547,-0.00021165552822749,0.00021165780180117,-0.00020488788312191,0.0002048902004856,-0.00020488787949733,0.00020489016465977,0.77140162069588,128566,2924,0.00083982339761878,0.00108654166303,0.00083982339575145,32.325627634231,1.8605021073848e-05,1.8605021073848e-05,1.8605021073848e-05,2728435.2451438,0.0027700266676976
4019200,0.169960691309,0.0031824069429007,0.00099388272976648,0.0011946414841808,0.00099388272895342,-0.00022731684985635,0.00022731652268883,-1.5998900555967e-10,-1.8563698776808e-10,2.7657155505297e-09,-3.2242698790699e-09,-0.00023981337702299,0.00023981503229302,-0.00023981339188002,0.00023981503006351,-0.00023981527344183,0.00023981306560977,-0.00023981528005404,0.00023981305482159,-0.00023067352208593,0.00023067121113747,-0.00023067356015213,0.00023067119788627,-1.2024552687875e-09,4.6887551278082e-09,2.9418050554925e-09,4.2476506280714e-10,-0.00030136465381341,0.00030136801156128,-0.00031108931903022,0.00031109153250426,-0.00031109016885341,0.0003110906868573,-0.0003110874051496,0.00031109346273188,-0.00031108825608031,0.00031109261663959,-0.00028718309954628,0.00028719091669019,-0.00028718555426047,0.0002871883922434,-0.0002871885207305,0.00028718533994549,-0.00028718276406827,0.00028719125429186,3.6098699186449e-10,3.8374610390565e-10,-0.00022731632236289,0.0002273170488204,-8.350955408677e-10,1.6650928079784e-09,-0.00023981425155425,0.00023981413305057,-0.00023981345012157,0.00023981495286979,-0.00023981424311919,0.00023981413920376,-0.0002398134436152,0.0002398149604952,-0.00023067158835773,0.00023067314921207,-0.00023067158756673,0.00023067310571513,0.77299486132431,128566,2924,0.00094672409961508,0.0012548883026921,0.00094672409677331,32.663160338535,2.1305282708277e-05,2.1305282708277e-05,2.1305282708277e-05,2995815.4886209,0.0031533101061257
4219200,0.19289189945645,0.00357645361168,0.0011077333154943,0.0013609869822523,0.0011077333139334,-0.00025299782649891,0.00025299743289103,-1.901826456725e-10,-2.2099834873956e-10,2.6960495842068e-09,-3.2176763404318e-09,-0.00026831966171249,0.00026832122783776,-0.00026831967684296,0.00026832122243991,-0.00026832154143711,0.0002683192880079,-0.00026832154970724,0.00026831927543394,-0.00025651029505006,0.00025650794752502,-0.00025651033673788,0.00025650792781478,-1.2633365463475e-09,4.5534982142699e-09,2.4879993592539e-09,6.898196854233e-10,-0.00034351855015956,0.00034352171823347,-0.00035626524996541,0.00035626706352932,-0.00035626586572335,0.0003562664589444,-0.00035626336189841,0.00035626897075398,-0.00035626397878471,0.00035626836568966,-0.00032547660310015,0.00032548350250597,-0.00032547836467374,0.00032548169157867,-0.00032548151483287,0.00032547844774669,-0.00032547582721513,0.00032548429007132,3.0371457734211e-10,3.316774530472e-10,-0.00025299732102252,0.00025299793672913,-5.4261335854907e-10,1.2488534115e-09,-0.00026832043072359,0.00026832043903567,-0.00026831986332323,0.0002683210224173,-0.00026832041963063,0.00026832044602047,-0.00026831985566606,0.00026832103237117,-0.00025650851259013,0.00025650973360637,-0.0002565085142154,0.00025650968230897,0.77488674041817,128566,2924,0.0010536313394181,0.001430285041158,0.0010536313360002,33.000900875701,2.4007207005611e-05,2.4007207005611e-05,2.4007207005611e-05,3236657.407497,0.0035438294864899
4419200,0.21676302808564,0.0039841592273378,0.0012238344641314,0.0015364903012421,0.0012238344619643,-0.00027957041901318,0.00027956997712684,-2.1230382229981e-10,-2.464059447318e-10,2.6508098366535e-09,-3.2193233509697e-09,-0.00029806080539027,0.00029806231074528,-0.00029806081906454,0.00029806230414029,-0.0002980626772269,0.00029806038684271,-0.00029806268831757,0.00029806037255084,-0.00028331402684915,0.00028331165207231,-0.0002833140726221,0.00028331162228224,-1.3095935100819e-09,4.4690505160156e-09,2.0105315368475e-09,1.0420786148901e-09,-0.00038850175381922,0.00038850479642098,-0.00040448865099104,0.0004044900796744,-0.00040448899776266,0.00040448975437516,-0.00040448677470328,0.00040449197657051,-0.00040448712493942,0.00040449164841945,-0.00036630635214219,0.00036631230306871,-0.0003663073106511,0.00036631130864064,-0.0003663107100977,0.00036630782826563,-0.00036630506380196,0.00036631363075766,2.4643553490456e-10,2.8148687255327e-10,-0.00027956994357778,0.00027957045083079,-1.9550459740993e-10,7.7984578467191e-10,-0.00029806146340553,0.00029806163401113,-0.00029806116403535,0.00029806194748075,-0.00029806144793104,0.00029806164371591,-0.00029806115539305,0.00029806195884747,-0.00028331241616004,0.00028331326281449,-0.00028331241882935,0.0002833132055251,0.77612068958904,128566,2924,0.0011642416773098,0.0016174177257506,0.001164241673701,33.5953083189,2.8762466551204e-05,2.8762466551204e-05,2.8762466551204e-05,3469168.99138,0.0039537201444536
4619200,0.24171183449986,0.004407548181043,0.0013426879724126,0.0017221722386927,0.0013426879699377,-0.00030688863072188,0.0003068881548596,-2.2588297785655e-10,-2.6625876220695e-10,2.6236881559389e-09,-3.226179061856e-09,-0.00032887512874575,0.00032887659873791,-0.00032887514421207,0.00032887658853426,-0.00032887700023249,0.00032887468066634,-0.00032887701352189,0.000328874665788,-0.00031094937298907,0.00031094697473876,-0.00031094941920151,0.00031094693706262,-1.3490822231112e-09,4.409997869901e-09,1.5868294268326e-09,1.3714089673827e-09,-0.00043620679620313,0.00043620974461002,-0.00045571883479852,0.00045571993027849,-0.00045571893844087,0.00045571985633185,-0.00045571696543461,0.00045572182136728,-0.00045571707154731,0.00045572174551191,-0.00040948805015902,0.00040949315826796,-0.00040948826891268,0.00040949290686899,-0.00040949191434498,0.00040948920063287,-0.00040948628750556,0.00040949498902781,2.0733345431117e-10,2.4649344225846e-10,-0.00030688817559721,0.00030688860817317,1.3383944900259e-10,3.6463411475598e-10,-0.00032887568140292,0.00032887602531954,-0.00032887562782497,0.00032887609136068,-0.00032887566461215,0.00032887603516553,-0.00032887561711322,0.00032887610483724,-0.0003109479061225,0.00031094844005598,-0.00031094791335816,0.0003109483741078,0.77693647407004,128566,2924,0.001277947405225,0.0018158314652669,0.0012779474014539,34.293296309376,3.4346370475007e-05,3.4346370475007e-05,3.4346370475007e-05,3691049.1026131,0.0043813284110605
4819200,0.2677082691361,0.0048461740271823,0.0014642126525704,0.0019177487246479,0.001464212649964,-0.00033475931051176,0.00033475880574477,-2.3741976342854e-10,-2.828335425557e-10,2.6176023116905e-09,-3.2486608738315e-09,-0.00036052806327232,0.00036052951283686,-0.00036052807874968,0.00036052949943047,-0.00036052994359138,0.00036052758974806,-0.00036052995798416,0.00036052757250991,-0.00033922927837009,0.00033922685148802,-0.00033922933053047,0.00033922680957105,-1.3944040082824e-09,4.3827850890711e-09,1.2780439376203e-09,1.6098423015404e-09,-0.00048632865653809,0.00048633153415235,-0.00050969132236308,0.00050969216068763,-0.00050969124741256,0.0005096922693317,-0.00050968944733473,0.00050969405886984,-0.00050968937476196,0.00050969416568326,-0.00045467629105611,0.00045468079851037,-0.00045467598502277,0.00045468109620884,-0.00045467981068863,0.00045467718834546,-0.00045467416569328,0.00045468299462232,1.917290329273e-10,2.3620169954396e-10,-0.00033475885316783,0.00033475926056056,3.8452336283992e-10,7.5289924000569e-11,-0.00036052852818609,0.00036052902827363,-0.00036052865252794,0.00036052891579823,-0.00036052850966713,0.00036052904012745,-0.00036052864052259,0.00036052893142144,-0.00033922789662974,0.00033922822911804,-0.0003392279077297,0.00033922815756741,0.7779218018986,128566,2924,0.0013939450797361,0.0020242493353754,0.0013939450744674,34.993720869469,3.9949766955753e-05,3.9949766955753e-05,3.9949766955753e-05,3897830.2255665,0.0048237794873679
5019200,0.29470491316421,0.005298036756342,0.0015879340599755,0.0021221686396505,0.001587934056716,-0.00036307303813163,0.00036307251703717,-2.4275069217986e-10,-2.9334672890093e-10,2.6081170795433e-09,-3.255245393576e-09,-0.00039292802396161,0.00039292945713046,-0.00039292804020492,0.00039292944100361,-0.00039292990150179,0.00039292753546143,-0.00039292991722147,0.00039292751612939,-0.00036805477015771,0.00036805233390081,-0.00036805482680591,0.00036805228643919,-1.3926471798493e-09,4.3828736563066e-09,1.0919058429819e-09,1.7984234285605e-09,-0.00053861671185894,0.00053861959196721,-0.00056618759715823,0.00056618831542705,-0.00056618739910953,0.00056618854855727,-0.00056618572349556,0.0005661902129324,-0.00056618552777807,0.00056619044427198,-0.00050156832642668,0.00050157246738053,-0.00050156765826821,0.00050157313899943,-0.00050157160037082,0.00050156910656389,-0.0005015659572235,0.0005015749113185,1.9105984523266e-10,2.4070833200087e-10,-0.00036307257014324,0.00036307298228328,5.6731227470531e-10,-1.1183509252848e-10,-0.00039292841532125,0.00039292904391921,-0.00039292866197242,0.00039292880960415,-0.00039292839567082,0.00039292905808796,-0.00039292864839912,0.0003929288271508,-0.00036805344065938,0.00036805365951188,-0.00036805345598014,0.00036805358205108,0.77677326796391,128566,2924,0.0015117802482322,0.0022416206956084,0.0015117802425185,35.694232489666,4.5553859917328e-05,4.5553859917328e-05,4.5553859917328e-05,4085018.2397293,0.0052791232920405
5219200,0.32200587231361,0.0057535543758731,0.0017115053274424,0.0023305437245759,0.0017115053238548,-0.00039060420094525,0.00039060364737663,-2.603953323495e-10,-3.0762706976156e-10,2.6457023248307e-09,-3.3259022562779e-09,-0.00042470112610409,0.00042470255350916,-0.00042470113339308,0.00042470254461015,-0.00042470303177513,0.00042470060498143,-0.00042470305158038,0.00042470057770107,-0.00039624243168982,0.00039623994581511,-0.00039624250676777,0.0003962398813638,-1.4544391650583e-09,4.4434261572045e-09,1.2182278950329e-09,1.6687808029214e-09,-0.00059111191852716,0.00059111479454794,-0.00062313617406956,0.00062313692176099,-0.00062313604691708,0.00062313707549368,-0.00062313425449064,0.00062313886795464,-0.00062313414389029,0.00062313900573123,-0.00054835913771806,0.0005483635901309,-0.00054835875878052,0.00054836400363544,-0.00054836263975149,0.00054835996122615,-0.00054835689560495,0.00054836586355839,2.384497912266e-10,3.0177451465956e-10,-0.00039060366191413,0.00039060418361985,4.9881491456147e-10,6.063174390177e-11,-0.00042470150689454,0.00042470215782525,-0.00042470166718443,0.00042470201027835,-0.0004247014761373,0.00042470218417582,-0.00042470165689313,0.00042470202591553,-0.00039624099208485,0.00039624138862555,-0.0003962409978496,0.00039624131935078,0.7785555331432,128566,2924,0.0016263543619223,0.0024597955105303,0.0016263543560983,36.023312467438,4.8186499739506e-05,4.8186499739506e-05,4.8186499739506e-05,4238088.1634742,0.0057289250204597
5419200,0.34940804638142,0.0062032653812285,0.0018324516746594,0.0025383620364778,0.0018324516700914,-0.00041735319133186,0.0004173526137246,-2.6994854828656e-10,-3.2195247462015e-10,2.6828124567023e-09,-3.3886827739203e-09,-0.00045598484776639,0.0004559862846897,-0.0004559848567489,0.00045598627499383,-0.00045598678513063,0.00045598430531917,-0.00045598680616024,0.00045598427525465,-0.00042367267598669,0.00042367013881832,-0.00042367275545651,0.00042367006778337,-1.5092533699044e-09,4.4910906663512e-09,1.3667618637162e-09,1.5125113728452e-09,-0.00064344060343587,0.00064344347142324,-0.00068016153110332,0.00068016233399533,-0.00068016149803476,0.00068016238621357,-0.00068015957615649,0.00068016431728683,-0.00068015956401628,0.00068016434949173,-0.00059467458229424,0.00059467936308164,-0.00059467450405539,0.00059467947338192,-0.00059467834485022,0.00059467545996847,-0.00059467250278553,0.00059468146184169,2.7848876212694e-10,3.4742617196705e-10,-0.00041735259728491,0.00041735320580321,3.9495220248132e-10,2.5446496809618e-10,-0.0004559852418056,0.00045598587943234,-0.0004559853039431,0.00045598583009402,-0.00045598520898666,0.00045598590819078,-0.0004559852925712,0.00045598584755109,-0.00042367111759487,0.00042367170357665,-0.00042367112711935,0.00042367162893773,0.76958004267738,128566,2924,0.0017376702065139,0.0026772199195557,0.0017376702024046,36.276069383224,5.0208555065795e-05,5.0208555065795e-05,5.0208555065795e-05,4357444.7225229,0.0061716184915204
5619200,0.37683155898839,0.0066308173048988,0.0019461224899536,0.0027385723289995,0.0019461224859457,-0.00044244404739346,0.00044244345714782,-2.7319768799632e-10,-3.3116925643781e-10,2.7026101521536e-09,-3.4230426666168e-09,-0.00048628007306115,0.00048628151809109,-0.00048628008558162,0.00048628150680154,-0.00048628202884604,0.0004862795208283,-0.00048628205159599,0.00048627948995071,-0.0004490902530356,0.00044908768971392,-0.0004490903356712,0.00044908761438768,-1.5402721040974e-09,4.5136591857219e-09,1.4691192791204e-09,1.4017696489877e-09,-0.00069440507445461,0.00069440793437586,-0.00073628304175288,0.00073628388967222,-0.00073628307711437,0.00073628386873311,-0.00073628106980253,0.00073628589091433,-0.00073628112515517,0.00073628585095171,-0.00063915746949659,0.00063916246497706,-0.00063915758644812,0.00063916235985915,-0.0006391614059059,0.00063915838533124,-0.00063915550933841,0.00063916444655899,3.0169622344353e-10,3.7508166945088e-10,-0.00044244342165862,0.00044244408189335,3.1890013426098e-10,3.8905019089632e-10,-0.00048628048196789,0.00048628109881537,-0.00048628047552544,0.00048628111812632,-0.00048628044816212,0.00048628112833497,-0.00048628046173966,0.00048628113757462,-0.0004490886181029,0.00044908933217848,-0.00044908863539281,0.00044908925169295,0.73637049558442,128566,2924,0.0018420844056256,0.0028889208147395,0.0018420844035591,36.526973806625,5.2215790452999e-05,5.2215790452999e-05,5.2215790452999e-05,4447445.942126,0.0065948511551692
5819200,0.40419589924282,0.0070403574840882,0.0020540834158369,0.0029321906559626,0.0020540834122886,-0.00046619398043968,0.00046619338649214,-2.7223094251411e-10,-3.3555609087963e-10,2.7071674250644e-09,-3.4321487216095e-09,-0.00051577129910232,0.00051577274709245,-0.00051577131410976,0.00051577273454437,-0.00051577326038035,0.00051577074528956,-0.00051577328515493,0.0005157707132006,-0.0004728525023307,0.00047284993657507,-0.00047285259118119,0.00047284985781201,-1.5509075562505e-09,4.5163839857459e-09,1.5287125232641e-09,1.3341308625415e-09,-0.00074429238411989,0.00074429523624561,-0.00079177774429622,0.00079177862212573,-0.00079177782062643,0.00079177855744363,-0.0007917757683588,0.00079178062771244,-0.00079177586374743,0.00079178054486714,-0.00068219595704728,0.0006822010718778,-0.00068219619265597,0.00068220083970638,-0.00068219998373681,0.00068219689818101,-0.00068219407269754,0.00068220297539837,3.1237060757545e-10,3.9079746695573e-10,-0.00046619333947633,0.00046619402673847,2.7196225985729e-10,4.6708759458045e-10,-0.00051577171836567,0.00051577231850581,-0.00051577167111304,0.00051577237907114,-0.00051577168287892,0.00051577234950373,-0.0005157716551148,0.00051577239999917,-0.00047285082975495,0.00047285161663146,-0.00047285085478915,0.00047285153304859,0.71317584729198,128566,2924,0.00194091871483,0.0030960951604004,0.0019409187133301,36.777811592736,5.422249274189e-05,5.422249274189e-05,5.422249274189e-05,4530874.0757657,0.0070024674412264
6019200,0.43101573642574,0.0074328093623998,0.0021569133654152,0.0031189826348339,0.0021569133621506,-0.0004882247067302,0.0004882241013486,-2.7481149544837e-10,-3.4417316084011e-10,2.7312494500644e-09,-3.4679549600035e-09,-0.00054385618145559,0.00054385764158463,-0.00054385620018721,0.0005438576252894,-0.00054385816596037,0.00054385561894548,-0.00054385819008615,0.00054385558554923,-0.00049476614447567,0.00049476354830404,-0.00049476623184581,0.00049476346705352,-1.5815412452359e-09,4.5433061344398e-09,1.71156548032e-09,1.1463308677024e-09,-0.00079251532823356,0.00079251817523796,-0.00084574446728071,0.00084574544306458,-0.00084574466355607,0.00084574525225291,-0.0008457424747855,0.00084574746611714,-0.00084574268613448,0.00084574726101559,-0.0007235384251532,0.0007235439128026,-0.00072353902795316,0.00072354333149527,-0.00072354271854405,0.00072353944515433,-0.00072353674324024,0.00072354558320307,3.4402000776498e-10,4.2680063107505e-10,-0.0004882240269093,0.00048822478103767,1.1952472176356e-10,6.8735782855091e-10,-0.0005438566368931,0.00054385718158749,-0.00054385646879877,0.00054385736359742,-0.00054385660158088,0.0005438572123033,-0.00054385644964611,0.00054385738757725,-0.00049476435966647,0.00049476534804359,-0.00049476439500965,0.00049476525677995,0.70261524062899,128566,2924,0.0020326015464208,0.0032963069686333,0.0020326015461261,36.775504790457,5.4204038323659e-05,5.4204038323659e-05,5.4204038323659e-05,4588224.2200736,0.0073888292250862
6219200,0.45722014631873,0.0078180970228129,0.0022578791355183,0.0033023387541698,0.0022578791331248,-0.0005096417846004,0.00050964117368245,-2.7498345800386e-10,-3.4938956943223e-10,2.7404150736409e-09,-3.4836528590023e-09,-0.00057132808365038,0.00057132954815079,-0.00057132810464743,0.00057132953185345,-0.00057133007724765,0.00057132751802605,-0.00057133010412841,0.00057132748290872,-0.00051615206146458,0.00051614945866171,-0.00051615215632061,0.00051614937143802,-1.5967725224602e-09,4.5535043003634e-09,1.8400471873215e-09,1.0125835677965e-09,-0.0008399585458621,0.00083996138799409,-0.00089885902110981,0.00089886006996584,-0.00089885930094529,0.00089885979051329,-0.00089885702052569,0.00089886210151077,-0.00089885731512487,0.0008988618079559,-0.00076434101811888,0.00076434676684889,-0.00076434186777863,0.00076434591618363,-0.00076434549779285,0.00076434210786792,-0.00076433949932275,0.00076434827167514,3.6239000636274e-10,4.5058122553906e-10,-0.00050964108088497,0.00050964187823061,1.7243361138918e-11,8.4106699230792e-10,-0.00057132856514108,0.00057132906365394,-0.00057132831224893,0.00057132933083185,-0.00057132852728338,0.00057132909649842,-0.00057132829157943,0.00057132935580314,-0.00051615020862876,0.00051615132690243,-0.00051615024870614,0.00051615123286912,0.70745492609757,128566,2924,0.0021217326145407,0.00349323290415,0.0021217326162679,36.758746818634,5.4069974549069e-05,5.4069974549069e-05,5.4069974549069e-05,4627417.6755084,0.0077668891589505
6419200,0.48276789086747,0.0081907295232715,0.0023553890806286,0.0034799513635389,0.002355389079104,-0.00053019791449458,0.00053019730261664,-2.7278225172806e-10,-3.5245192530928e-10,2.7372693684459e-09,-3.4818305650545e-09,-0.00059800564007634,0.00059800710417829,-0.00059800566344269,0.00059800708681099,-0.0005980076337141,0.0005980050756913,-0.00059800766265403,0.00059800503905204,-0.00053665536420326,0.00053665276755801,-0.00053665546524874,0.00053665267629225,-1.5963913260173e-09,4.5485729789825e-09,1.9129450962522e-09,9.345155203688e-10,-0.00088606354209968,0.00088606637944966,-0.0009505737835792,0.00095057487905393,-0.00095057411142953,0.00095057454822986,-0.00095057178457111,0.00095057690880416,-0.00095057212703228,0.00095057656400013,-0.00080400401417583,0.00080400990443553,-0.00080400500412206,0.00080400889719537,-0.00080400858756975,0.00080400514844242,-0.00080400259513039,0.00080401130727711,3.7098751287566e-10,4.6435839814717e-10,-0.00053019719891068,0.00053019801960583,-4.1904888893233e-11,9.2952044071552e-10,-0.000598006136684,0.00059800660629073,-0.00059800583524829,0.00059800692207197,-0.00059800609691681,0.00059800664071393,-0.00059800581273208,0.00059800694858101,-0.00053665347625398,0.00053665467013584,-0.00053665352205785,0.0005366545713556,0.70210893563441,128566,2924,0.0022072837111916,0.0036845566666782,0.0022072837141149,36.741584595422,5.3932676763376e-05,5.3932676763376e-05,5.3932676763376e-05,4656021.9697378,0.0081322286699562
6619200,0.50803514278225,0.0085826953902834,0.0024593716976336,0.0036639519959102,0.0024593716967396,-0.00055225356460052,0.00055225296176887,-2.658708829171e-10,-3.5091963740885e-10,2.7000917716518e-09,-3.4372620226811e-09,-0.00062561325947082,0.00062561470865188,-0.00062561328674768,0.0006256146912106,-0.00062561522576272,0.00062561270549885,-0.00062561525914534,0.00062561267051089,-0.00055883484228274,0.00055883228712885,-0.00055883495439243,0.00055883219689884,-1.5623229440771e-09,4.4993452512675e-09,1.7789296888603e-09,1.0554805248239e-09,-0.00093336372220021,0.00093336654866705,-0.0010034101775757,0.0010034112110461,-0.001003410424611,0.0010034109627196,-0.0010034082056609,0.0010034132125735,-0.0010034084663616,0.0010034129512886,-0.00084505488219953,0.00084506047551139,-0.00084505556953845,0.00084505967184438,-0.00084505925527795,0.00084505596331014,-0.00084505334877015,0.00084506204927801,3.5069305428667e-10,4.4921170916867e-10,-0.00055225286994202,0.00055225365834458,7.7162396829979e-11,7.9749195211406e-10,-0.00062561372407927,0.00062561423562531,-0.000625613505654,0.0006256144676488,-0.00062561368268037,0.00062561427134804,-0.00062561348036015,0.00062561449600163,-0.00055883302686587,0.00055883410435654,-0.00055883308022798,0.00055883399787629,0.74070666888116,128566,2924,0.0022990713455635,0.0038807958831642,0.0022990713496005,37.009240531037,5.6073924248293e-05,5.6073924248293e-05,5.6073924248293e-05,4690370.9358172,0.0085152416299135
6819200,0.53411828708464,0.0090199162739013,0.0025767348436386,0.0038664465862029,0.0025767348440597,-0.00057829957030636,0.00057829899773792,-2.48808367134e-10,-3.3856693241904e-10,2.6033095624078e-09,-3.3098083034518e-09,-0.00065649910256487,0.00065650050746495,-0.0006564991300657,0.00065650049156485,-0.00065650098938809,0.00065649857748004,-0.00065650103061962,0.00065649854331828,-0.00058555029680541,0.00058554785860976,-0.00058555043527897,0.00058554777091803,-1.46334109164e-09,4.3740213984428e-09,1.2309168282182e-09,1.5806077249602e-09,-0.00098545127827597,0.00098545408436909,-0.0010610392232084,0.0010610399621018,-0.001061039126784,0.0010610400731885,-0.0010610373209138,0.0010610418904077,-0.001061037241666,0.0010610419849787,-0.00089073863416903,0.00089074307734219,-0.00089073822310611,0.00089074327581321,-0.00089074220047547,0.00089073945922345,-0.00089073652312229,0.00089074532569071,2.6994829113265e-10,3.7417552211284e-10,-0.00057829896540267,0.0005782996020501,5.4297705292375e-10,1.9168084597107e-10,-0.00065649944151499,0.00065650014621766,-0.0006564995744967,0.00065650002595328,-0.0006564993961622,0.00065650018611504,-0.00065649954818461,0.00065650005384968,-0.00058554878232932,0.00058554934277165,-0.0005855488385132,0.00058554923571913,0.79221451303214,128566,2924,0.0024074536940881,0.004096845298401,0.0024074536929542,38.075157362986,6.4601258903886e-05,6.4601258903886e-05,6.4601258903886e-05,4768107.9823477,0.0089518783222208
7019200,0.56091606722428,0.009432376733262,0.0026853322886412,0.0040617121550575,0.0026853322895633,-0.00060298775804254,0.0006029872079493,-2.3513042221009e-10,-3.300463345735e-10,2.5384442739721e-09,-3.2169368699927e-09,-0.00068707039049239,0.00068707176633775,-0.00068707041575302,0.00068707174349992,-0.00068707222559214,0.00068706988620228,-0.00068707226551667,0.0006870698487035,-0.00061051561248535,0.00061051324986455,-0.00061051574872959,0.00061051315593192,-1.392302366089e-09,4.2845530421691e-09,8.4509342391717e-10,1.947511550506e-09,-0.0010375223266712,0.0010375251126844,-0.0011187029236492,0.0011187034460942,-0.0011187025898268,0.0011187038126552,-0.0011187010719629,0.0011187053200331,-0.0011187007549432,0.001118705670274,-0.00093616178235863,0.00093616541655689,-0.00093616069319531,0.00093616641652486,-0.00093616474594503,0.00093616239516754,-0.00093615921708321,0.00093616809314699,2.1249641675074e-10,3.2151278438473e-10,-0.00060298722132515,0.00060298774174452,8.3901919027496e-10,-2.5367509011428e-10,-0.00068707064507382,0.00068707148680124,-0.00068707102323943,0.00068707112162278,-0.00068707059935349,0.00068707152843749,-0.00068707099503287,0.00068707115197141,-0.00061051431180938,0.0006105145273135,-0.00061051437433003,0.00061051441551405,0.73335807594366,128566,2924,0.0025101917320494,0.0043127591074724,0.002510191725994,39.159417168019,7.327533734415e-05,7.327533734415e-05,7.327533734415e-05,4782161.7360954,0.009377174956521
7219200,0.58827749256695,0.0098366051025345,0.0027911293630843,0.0042543463762269,0.0027911293632232,-0.00062728004880323,0.00062727951473513,-2.2471927643256e-10,-3.2476340390426e-10,2.4907777312221e-09,-3.1497284635163e-09,-0.00071767338720235,0.00071767474249746,-0.00071767341151288,0.00071767471517729,-0.00071767518621762,0.00071767289914567,-0.00071767522681448,0.00071767285914473,-0.0006347325088332,0.0006347302036134,-0.00063473264541647,0.00063473010096516,-1.3463077547516e-09,4.2135575581795e-09,5.6006407636809e-10,2.2078679441204e-09,-0.001089395208502,0.0010893979695088,-0.0011766034815694,0.00117660383872,-0.0011766029759474,0.0011766043900415,-0.0011766016667976,0.0011766056727674,-0.001176601177374,0.0011766062083209,-0.00098119430443198,0.00098119733919941,-0.00098119270229963,0.00098119889946895,-0.0009811968417417,0.00098119476110959,-0.00098119142302856,0.00098120034029558,1.7023248805386e-10,2.8421274716111e-10,-0.00062727956197486,0.00062727999902765,1.0563820553122e-09,-5.7230136148285e-10,-0.00071767358209135,0.00071767452098689,-0.00071767413698801,0.00071767397974545,-0.00071767353495791,0.00071767456451141,-0.00071767410704557,0.00071767401185478,-0.00063473136239783,0.00063473132914791,-0.00063473142965652,0.00063473121213882,0.70718848627334,128566,2924,0.002611281279217,0.0045277966392007,0.0026112812739673,40.24433128037,8.1954650242963e-05,8.1954650242963e-05,8.1954650242963e-05,4812600.3766241,0.0097984387920264
7419200,0.61520507854195,0.010219687716408,0.0028907599168769,0.0044381678826423,0.0028907599168885,-0.00064925927582525,0.00064925873595369,-2.2494807326835e-10,-3.2986976873651e-10,2.5141472729347e-09,-3.1756767593137e-09,-0.00074631178652599,0.000746313151351,-0.00074631180915848,0.00074631312090946,-0.00074631360150419,0.00074631129338804,-0.00074631364135486,0.00074631124737052,-0.00065633102499653,0.00065632870409097,-0.00065633116011991,0.00065632858705334,-1.3778418507008e-09,4.2315782830117e-09,7.1709505150312e-10,2.0350776001292e-09,-0.0011384256567231,0.0011384283998268,-0.0012318011538201,0.0012318015795268,-0.0012318007533766,0.0012318020249915,-0.0012317993216329,0.0012318034308248,-0.0012317989392412,0.0012318038585897,-0.0010234408752514,0.0010234442415815,-0.0010234396591734,0.0010234455308643,-0.0010234436407803,0.0010234413937742,-0.0010234381689655,0.0010234470096282,1.889924040855e-10,3.0783708243826e-10,-0.00064925876764468,0.00064925924269518,9.0138498598389e-10,-4.0352828246039e-10,-0.00074631202105763,0.00074631289634497,-0.00074631246768144,0.00074631246421333,-0.00074631197162576,0.00074631294266444,-0.00074631243775449,0.00074631249695743,-0.00065632980163672,0.00065632992255187,-0.00065632986923922,0.00065632980569501,0.68501444230451,128566,2924,0.0027027502214702,0.0047310014047684,0.0027027502184426,40.771620537448,8.6172964299587e-05,8.6172964299587e-05,8.6172964299587e-05,4835864.8826716,0.010188488365044
7619200,0.64095820724304,0.010577511738906,0.002983420855207,0.0046106700271015,0.0029834208565978,-0.00066885666876882,0.00066885611080266,-2.3119371448484e-10,-3.4111659328474e-10,2.567661754104e-09,-3.2482583545252e-09,-0.00077232503750862,0.00077232642696161,-0.00077232506214177,0.00077232639603329,-0.00077232689225078,0.00077232453005228,-0.00077232693280141,0.00077232448028753,-0.00067529347586386,0.00067529110216846,-0.0006752936117912,0.00067529097528994,-1.4466018906582e-09,4.2897835700566e-09,1.0945497826672e-09,1.6459042126973e-09,-0.0011838677042021,0.0011838704345264,-0.0012833052671687,0.0012833058870041,-0.0012833051095479,0.0012833060768523,-0.0012833033938615,0.0012833077818419,-0.001283303255603,0.0012833079525801,-0.0010623419567065,0.0010623461091927,-0.0010623415041221,0.0010623466508173,-0.0010623452922048,0.00106234265671,-0.0010623396962519,0.0010623483963902,2.4104695650631e-10,3.6470253131228e-10,-0.00066885609847842,0.00066885668246507,5.7799297594663e-10,2.9991732534647e-11,-0.00077232535912877,0.00077232609028665,-0.00077232555602463,0.00077232590870236,-0.00077232530768964,0.00077232613870415,-0.00077232552521038,0.00077232594241506,-0.00067529205076589,0.00067529253481339,-0.00067529212240719,0.00067529241539652,0.67223241405271,128566,2924,0.0027843121791023,0.0049192904127065,0.002784312181918,40.851882473682,8.6815059789455e-05,8.6815059789455e-05,8.6815059789455e-05,4849125.6067398,0.010543591930301
7819200,0.66550272748728,0.010914532600462,0.0030705335898538,0.0047734654176315,0.0030705335929765,-0.00068713621417129,0.00068713564147724,-2.3576689024437e-10,-3.5072781404616e-10,2.603203697754e-09,-3.3015209615656e-09,-0.00079661810534587,0.00079661951230614,-0.00079661813601212,0.0007966194831582,-0.00079661998954767,0.00079661758678551,-0.0007966200334412,0.00079661753778917,-0.00069291455726517,0.00069291214462746,-0.00069291469912132,0.00069291201642191,-1.4967110566811e-09,4.3284588167896e-09,1.3835388871896e-09,1.3458696363712e-09,-0.0012269509208854,0.001226953640847,-0.0013322581966778,0.0013322589714169,-0.0013322582241997,0.0013322589606419,-0.0013322562959351,0.0013322608963364,-0.0013322563420183,0.001332260867197,-0.0010991159870499,0.0010991207342128,-0.0010991160756012,0.0010991206618034,-0.001099119765419,0.0010991168318407,-0.0010991140836593,0.0010991226674314,2.8405234033716e-10,4.1271330680997e-10,-0.00068713558897263,0.00068713626887111,3.4442315902068e-10,3.8061841577675e-10,-0.00079661848887086,0.00079661911532722,-0.00079661849401542,0.00079661912565842,-0.00079661843563372,0.00079661916443575,-0.00079661846042209,0.00079661916097269,-0.00069291296719664,0.00069291374080111,-0.00069291304726241,0.00069291361511292,0.66655083906961,128566,2924,0.0028603906037865,0.0050977676239892,0.0028603906083421,40.921719993747,8.7373759949979e-05,8.7373759949979e-05,8.7373759949979e-05,4856146.3496848,0.010877814728147
8019200,0.68883068397931,0.011231313093156,0.0031522342337831,0.0049268446219381,0.0031522342374348,-0.00070422722712631,0.00070422664996293,-2.3514216502966e-10,-3.5512760425246e-10,2.6113149184067e-09,-3.3164814869142e-09,-0.00081937221434079,0.00081937362667538,-0.00081937224945718,0.00081937359857422,-0.00081937410552999,0.00081937169418916,-0.00081937415266985,0.00081937164518815,-0.00070941290466496,0.00070941048631574,-0.00070941305764878,0.00070941035952276,-1.5129839375557e-09,4.3354537265117e-09,1.5190209970689e-09,1.2014606753776e-09,-0.0012676544332971,0.0012676571444461,-0.0013786133623097,0.0013786142124275,-0.0013786134762473,0.0013786141050232,-0.0013786114548641,0.0013786161454924,-0.0013786115869929,0.0013786160201242,-0.0011337791264516,0.0011337841464548,-0.0011337794674543,0.0011337837773777,-0.0011337830977122,0.0011337800377176,-0.0011337773962312,0.0011337859020991,3.028954738817e-10,4.3649604486154e-10,-0.00070422657612807,0.00070422730290039,2.3685022253534e-10,5.4812089048709e-10,-0.00081937262634532,0.00081937320344366,-0.00081937254118097,0.0008193733040847,-0.00081937257109675,0.00081937325366935,-0.0008193725053992,0.00081937334059892,-0.00070941124324982,0.00070941215365101,-0.00070941133100685,0.00070941202516587,0.66097249542134,128566,2924,0.0029315242315575,0.0052663514633594,0.0029315242355799,40.991183904549,8.7929471236391e-05,8.7929471236391e-05,8.7929471236391e-05,4862303.6110566,0.011192143089357
8219200,0.71108634442464,0.011530427083106,0.0032292450565045,0.0050719369664375,0.0032292450601639,-0.00072051003274023,0.00072050945682508,-2.3199171510831e-10,-3.5709848754933e-10,2.5991077846828e-09,-3.3063146799443e-09,-0.0008410233681283,0.00084102477725879,-0.00084102340827187,0.00084102475036575,-0.00084102525029636,0.00084102285150825,-0.00084102530211822,0.00084102280436588,-0.00072521553270091,0.0007252131289279,-0.00072521569588962,0.00072521300234193,-1.509541069733e-09,4.3159618091529e-09,1.5210522046051e-09,1.1853383061402e-09,-0.0013064711851594,0.0013064738844062,-0.0014229098407162,0.0014229106963787,-0.0014229099583007,0.0014229105786147,-0.0014229079416121,0.0014229126219986,-0.0014229080766428,0.0014229124871431,-0.0011668131446721,0.0011668181565917,-0.0011668134493284,0.0011668177186179,-0.0011668171208879,0.0011668140582978,-0.0011668114467644,0.0011668199115832,3.0509792541634e-10,4.4374997603649e-10,-0.00072050937572185,0.00072051011596057,2.4643455700521e-10,5.7605690639324e-10,-0.00084102377781306,0.00084102435296178,-0.00084102368693629,0.00084102445875636,-0.00084102372057948,0.00084102440426473,-0.00084102364820005,0.00084102449679339,-0.00072521386801022,0.00072521479788295,-0.00072521396459813,0.0007252146638114,0.65549139921468,128566,2924,0.0029992939385895,0.0054270900263053,0.0029992939430289,41.181738489581,8.9453907916651e-05,8.9453907916651e-05,8.9453907916651e-05,4872033.8607092,0.011491828261752
8419200,0.7323210543785,0.011814835626978,0.0033024445915663,0.0052099464411136,0.0033024445942977,-0.00073603423966272,0.00073603367027847,-2.2600650731443e-10,-3.5612958472272e-10,2.5796715611649e-09,-3.2798730748054e-09,-0.00086161500722447,0.00086161640843828,-0.00086161504869824,0.00086161638042142,-0.00086161687309207,0.00086161449831734,-0.00086161692713453,0.000861614449208,-0.00074036704317837,0.00074036466755283,-0.00074036721724938,0.0007403645400025,-1.4910508069508e-09,4.2887373959576e-09,1.4587715477659e-09,1.2387780921796e-09,-0.0013435108790229,0.0013435135689077,-0.0014652322255681,0.0014652330472207,-0.0014652323044298,0.0014652329678594,-0.001465230340843,0.0014652349579329,-0.0014652304377567,0.0014652348609435,-0.0011983230025656,0.0011983278782659,-0.0011983232003812,0.0011983275586769,-0.0011983268702701,0.0011983238826856,-0.001198321241619,0.0011983296887942,2.9428792261406e-10,4.3781637883828e-10,-0.00073603359299527,0.00073603431770356,2.9736000050316e-10,5.0746053683243e-10,-0.0008616154018884,0.00086161600073532,-0.00086161535032941,0.00086161606716654,-0.00086161534268553,0.0008616160539875,-0.00086161531036188,0.0008616161061688,-0.00074036541696633,0.00074036629268003,-0.00074036551844556,0.00074036615724996,0.65380935387096,128566,2924,0.0030639064565523,0.0055804416727602,0.0030639064581454,41.43113517368,9.1449081389438e-05,9.1449081389438e-05,9.1449081389438e-05,4882965.1272898,0.011777738805601
8619200,0.75251921587282,0.012084759545166,0.0033718978001731,0.0053409639426025,0.0033718978023902,-0.00075070654376673,0.0007507059817283,-2.1989566182561e-10,-3.5495120345101e-10,2.55902112463e-09,-3.2509299281458e-09,-0.00088112045708379,0.00088112185072414,-0.00088112049973072,0.00088112182011217,-0.00088112230616007,0.00088111995674126,-0.00088112236103146,0.00088111990568268,-0.00075475335223802,0.00075475100390293,-0.00075475352877662,0.00075475087140751,-1.4709618540662e-09,4.2585649374114e-09,1.3789801616909e-09,1.3083137003263e-09,-0.0013786506736454,0.00137865335283,-0.0015054408557363,0.0015054416336197,-0.0015054408871513,0.0015054416045549,-0.0015054389871215,0.0015054435272299,-0.0015054390361108,0.0015054434809765,-0.0012282028535406,0.0012282075557141,-0.0012282029163192,0.0012282073959348,-0.0012282065885074,0.0012282036893748,-0.0012282010070895,0.0012282094442605,2.8174577069099e-10,4.3022116798211e-10,-0.00075070591159431,0.00075070661446055,3.5798460349256e-10,4.199481302364e-10,-0.00088112083432994,0.00088112146003807,-0.00088112083234444,0.00088112147709465,-0.00088112077386357,0.00088112151486796,-0.0008811207905239,0.00088112151796377,-0.00075475177123702,0.00075475258364841,-0.0007547518787798,0.00075475244344628,0.65260875680365,128566,2924,0.0031249740545135,0.0057259015207411,0.0031249740556865,41.681918513561,9.3455348108492e-05,9.3455348108492e-05,9.3455348108492e-05,4893686.3099754,0.012048566858399
8819200,0.77167191039723,0.012330290422912,0.0034344833840677,0.0054613236527444,0.0034344833861,-0.00076401287111288,0.00076401231587947,-2.1412906829071e-10,-3.5417386754663e-10,2.5401989801942e-09,-3.2246789823e-09,-0.00089921892553565,0.00089922031264759,-0.00089921896932127,0.0008992202796956,-0.00089922075925198,0.00089921843333768,-0.00089922081546891,0.00089921838046132,-0.00076766973642144,0.0007676674141193,-0.00076766991600489,0.00076766727534396,-1.4539956986648e-09,4.2299413323723e-09,1.2983006689822e-09,1.3775586681165e-09,-0.0014114177650451,0.0014114204327096,-0.0015431106226395,0.0015431113548877,-0.0015431106065226,0.0015431113763589,-0.0015431087685636,0.0015431132330703,-0.0015431087697642,0.0015431132375818,-0.0012559607869851,0.0012559653152361,-0.0012559607069491,0.0012559653079683,-0.0012559643950299,0.0012559615785723,-0.0012559588573021,0.0012559672877369,2.690582992882e-10,4.2247310835924e-10,-0.00076401225330402,0.00076401293420702,4.2023483402605e-10,3.3324318000162e-10,-0.00089921928595794,0.00089921993772541,-0.00089921933352082,0.00089921990537793,-0.00089921922404845,0.00089921999429973,-0.00089921928995176,0.00089921994796262,-0.00076766820014487,0.00076766894844475,-0.00076766831284805,0.00076766880340677,0.62941992966891,128566,2924,0.0031803602654624,0.0058615143366826,0.0031803602665495,41.932751652938,9.5462013223506e-05,9.5462013223506e-05,9.5462013223506e-05,4905256.4936816,0.012297996765511
9019200,0.78937729743149,0.012557303630392,0.0034924198910331,0.0055724638464245,0.003492419892934,-0.00077546440533733,0.00077546385339918,-2.1008198717259e-10,-3.5460575772582e-10,2.5446345638979e-09,-3.2227640261241e-09,-0.00091498874482825,0.00091499013793351,-0.00091498878931632,0.00091499009971017,-0.00091499058172983,0.00091498825731923,-0.00091499063495358,0.0009149882011128,-0.00077876677021567,0.00077876444874925,-0.00077876694168576,0.00077876430358576,-1.4549214305019e-09,4.2301335012664e-09,1.3810201434296e-09,1.2912576796113e-09,-0.0014408249885494,0.0014408276497718,-0.0015771045876172,0.0015771053650656,-0.0015771046285098,0.0015771053318404,-0.0015771027338733,0.00157710724204,-0.0015771027894926,0.0015771071944237,-0.0012806558311254,0.00128066052036,-0.0012806559762074,0.0012806604158367,-0.0012806595281413,0.0012806566518571,-0.001280653979757,0.0012806623550484,2.7045851754191e-10,4.2888766876463e-10,-0.00077546378819827,0.00077546447122374,3.2198045362992e-10,4.0852572195013e-10,-0.00091498913497505,0.00091498973805742,-0.00091498912684629,0.00091498976216899,-0.00091498907320835,0.00091498979516649,-0.00091498908101274,0.0009149898078344,-0.00077876520100477,0.00077876602777875,-0.00077876532205147,0.00077876587681161,0.62977530388993,128566,2924,0.0032280312940741,0.005983204655063,0.0032280312954188,41.749841166709,9.3998729333676e-05,9.3998729333676e-05,9.3998729333676e-05,4904948.459184,0.0125177635393
9219200,0.80562927216066,0.012763157389034,0.003544865473756,0.0056734264389574,0.0035448654763204,-0.000785554938618,0.00078555438687813,-2.0766420888516e-10,-3.5755338421999e-10,2.5461549552396e-09,-3.2259122906527e-09,-0.00092907594749591,0.00092907734380631,-0.00092907599402974,0.00092907730623266,-0.00092907778426879,0.00092907546244083,-0.00092907784182146,0.00092907540497777,-0.00078847785183038,0.00078847553798415,-0.00078847803166974,0.00078847538241382,-1.4645576542396e-09,4.2256704696678e-09,1.4637509501779e-09,1.1961097912552e-09,-0.001467372941179,0.0014673755915808,-0.0016078891861212,0.0016078900118294,-0.0016078892836586,0.0016078899191981,-0.0016078873300142,0.0016078918913761,-0.0016078874437147,0.0016078917828418,-0.00130286589974,0.0013028707558694,-0.00130286618809,0.001302870437357,-0.0013028697274311,0.0013028667756586,-0.0013028641792807,0.0013028724867208,2.7676887348362e-10,4.3989086216415e-10,-0.00078555431315491,0.00078555501360767,2.5317772182968e-10,5.1220831607917e-10,-0.00092907636158279,0.00092907691638221,-0.00092907629517343,0.00092907699868391,-0.00092907629693684,0.00092907697619016,-0.00092907624823585,0.00092907704490229,-0.00078847624781956,0.00078847714985415,-0.00078847637056818,0.00078847699574715,0.62300580571981,128566,2924,0.0032700402270126,0.0060930476841518,0.0032700402296271,41.451831523448,9.1614652187586e-05,9.1614652187586e-05,9.1614652187586e-05,4901141.423187,0.012714109565173
9419200,0.82053716548225,0.012949718664084,0.003592329626864,0.0057650594077489,0.0035923296294709,-0.00079458211199541,0.00079458156150951,-2.0447996538036e-10,-3.5932949526145e-10,2.5450134160834e-09,-3.2239231708601e-09,-0.00094178435214125,0.00094178575047164,-0.00094178440124746,0.00094178571193146,-0.00094178618798642,0.00094178387025091,-0.00094178624754939,0.00094178381177227,-0.00079712776720218,0.00079712546031069,-0.00079712795540921,0.00079712530452133,-1.4669341898733e-09,4.2197731518268e-09,1.5105275532436e-09,1.1413850141772e-09,-0.0014914733212093,0.0014914759638759,-0.0016359122427331,0.00163591309545,-0.0016359123721824,0.001635912967839,-0.0016359103879345,0.0016359149737592,-0.0016359105332032,0.0016359148306261,-0.0013229663831204,0.001322971328647,-0.0013229667589721,0.0013229708996647,-0.0013229702765877,0.0013229672852842,-0.0013229647322833,0.0013229729952397,2.7744323959543e-10,4.4553971300418e-10,-0.00079458148246621,0.00079458219179941,2.0959427624461e-10,5.6964227004393e-10,-0.00094178478121051,0.00094178530920346,-0.00094178468154255,0.00094178542481806,-0.0009417847150656,0.00094178537036537,-0.00094178463271552,0.00094178547264917,-0.00079712614253591,0.00079712708930197,-0.00079712627168866,0.0007971269302075,0.616208244025,128566,2924,0.0033076240017581,0.0061927512978908,0.0033076240033205,41.15105002777,8.9208400222157e-05,8.9208400222157e-05,8.9208400222157e-05,4897598.9841399,0.012891256366739
9619200,0.83420720896642,0.013118707681781,0.0036352615935681,0.0058481844921126,0.0036352615961002,-0.00080265793656141,0.00080265738792691,-2.0103472458966e-10,-3.6084412816334e-10,2.5408884532655e-09,-3.2180703275428e-09,-0.00095321548915675,0.00095321688772567,-0.00095321554032342,0.00095321684787776,-0.000953217321346,0.00095321501085292,-0.00095321738276869,0.00095321495101515,-0.00080482536332875,0.00080482306669441,-0.00080482555733146,0.00080482290711892,-1.4655666519448e-09,4.2109777019335e-09,1.5269875061093e-09,1.1177014632228e-09,-0.0015133371846233,0.0015133398200774,-0.001661417327668,0.001661418189649,-0.0016614174695043,0.0016614180481808,-0.0016614154761917,0.0016614200645455,-0.0016614156337425,0.0016614199076821,-0.001341125923557,0.0013411308975897,-0.0013411263347912,0.0013411304253724,-0.0013411298364982,0.0013411268338581,-0.0013411243023961,0.0013411325346946,2.7591109045852e-10,4.489179734284e-10,-0.00080265730668066,0.00080265801847048,1.9215451939957e-10,5.9157103088029e-10,-0.00095321592482198,0.00095321643986845,-0.00095321581218689,0.00095321656849132,-0.00095321585709261,0.00095321650262344,-0.00095321576159146,0.00095321661790733,-0.00080482373391461,0.0008048247002935,-0.00080482386855296,0.0008048245369375,0.60938040949716,128566,2924,0.0033412485608469,0.0062831922652527,0.0033412485622054,40.850168561267,8.6801348490138e-05,8.6801348490138e-05,8.6801348490138e-05,4894123.2763049,0.013051026286249
9819200,0.84650390357104,0.013271627387111,0.0036742273579145,0.0059231726688347,0.0036742273603622,-0.00080922327584815,0.00080922272984121,-1.9695832968323e-10,-3.6155611584102e-10,2.5499536409607e-09,-3.220073586227e-09,-0.00096269102922745,0.00096269243389492,-0.00096269107937637,0.0009626923899076,-0.00096269286629496,0.00096269055473246,-0.0009626929257519,0.00096269048925192,-0.00081105000226569,0.00081104770711992,-0.0008110501871905,0.00081104753129155,-1.4669828525632e-09,4.2210038432888e-09,1.6279921073116e-09,1.0209291586679e-09,-0.0015321783461759,0.0015321809810434,-0.0016835538784071,0.0016835547931851,-0.0016835540846249,0.0016835545899702,-0.0016835520223322,0.001683556671707,-0.0016835522447045,0.0016835564524769,-0.00135663050033,0.0013566356794534,-0.0013566311895042,0.0013566350980749,-0.0013566345265567,0.0013566314564506,-0.0013566289741558,0.0013566371515734,2.7804859654888e-10,4.555485280616e-10,-0.00080922264579218,0.00080922335993318,7.9804599406621e-11,6.7161328313202e-10,-0.00096269149759615,0.00096269195955009,-0.00096269132136378,0.00096269215278254,-0.00096269142877607,0.00096269202433228,-0.00096269127061583,0.00096269220363101,-0.00081104833420626,0.00081104938621001,-0.00081104847051865,0.00081104922190972,0.61213711585479,128566,2924,0.0033685902994043,0.0063611212357297,0.00336859029934,40.183461311813,8.1467690494504e-05,8.1467690494504e-05,8.1467690494504e-05,4881685.8127293,0.013185408671121
10019200,0.85755690331051,0.013410178608276,0.0037096658878014,0.0059908468296719,0.0037096658908026,-0.00081497424175399,0.00081497369454129,-1.9564018367595e-10,-3.6525391229707e-10,2.5480863457939e-09,-3.2228359913962e-09,-0.00097101160212429,0.00097101300924475,-0.00097101165623363,0.0009710129653638,-0.00097101343843256,0.00097101112893617,-0.00097101350175905,0.00097101106467677,-0.00081652361573304,0.00081652132438913,-0.00081652380903343,0.00081652114611992,-1.475426146097e-09,4.2128494251066e-09,1.6745269114699e-09,9.610839910732e-10,-0.0015488655003092,0.0015488681252289,-0.0017031971774247,0.0017031981234565,-0.0017031974179909,0.0017031978821049,-0.0017031953219462,0.0017032000020531,-0.0017031955779014,0.0017031997453597,-0.0013703654063379,0.0013703706759989,-0.0013703661414129,0.0013703699305586,-0.0013703695172677,0.0013703663948148,-0.0013703639683708,0.0013703721026949,2.839031338273e-10,4.6655977296883e-10,-0.00081497360278677,0.00081497433490622,4.8566817993519e-11,7.4917370535406e-10,-0.00097101208336407,0.00097101251604759,-0.00097101187141501,0.00097101274453985,-0.00097101201265566,0.00097101258229449,-0.0009710118176641,0.0009710127974782,-0.00081652192299637,0.00081652302980567,-0.00081652206629957,0.00081652285662308,0.61574677526893,128566,2924,0.0033925426949104,0.0064301339618599,0.0033925426977749,39.479228878762,7.5833831030099e-05,7.5833831030099e-05,7.5833831030099e-05,4867248.8990844,0.013303902263218
10219200,0.86750566085039,0.013536066383267,0.0037419959303484,0.0060520745195858,0.0037419959333332,-0.00082007065626525,0.00082007010999447,-1.9248619565863e-10,-3.6714489550711e-10,2.5439755969866e-09,-3.2182498716755e-09,-0.00097839352638305,0.00097839493315197,-0.00097839358298253,0.00097839488864151,-0.00097839535977949,0.00097839305608678,-0.00097839542552663,0.00097839299071974,-0.00082144272203811,0.00082144044070795,-0.00082144292669379,0.00082144026295622,-1.4739853100547e-09,4.2054915054742e-09,1.6869619705286e-09,9.4324791371783e-10,-0.0015637116313019,0.0015637142509916,-0.0017206896241906,0.0017206905779732,-0.0017206898729268,0.0017206903251871,-0.0017206877715995,0.0017206924539243,-0.0017206880359793,0.0017206921856787,-0.001382612690964,0.0013826179818213,-0.0013826134436818,0.0013826171937213,-0.0013826168177324,0.0013826136874619,-0.0013826112787585,0.001382619388802,2.8232924841394e-10,4.6987223387836e-10,-0.00082007001471533,0.0008200707520132,3.8975734906288e-11,7.6885371545944e-10,-0.00097839401144888,0.00097839443800561,-0.00097839378979014,0.00097839467614947,-0.00097839393906311,0.00097839450570349,-0.00097839373447389,0.0009783947304209,-0.00082144102520573,0.0008214421454747,-0.00082144117399869,0.00082144196880129,0.62007023505775,128566,2924,0.0034137704758121,0.0064915268953188,0.0034137704767501,38.774028218363,7.0192225746902e-05,7.0192225746902e-05,7.0192225746902e-05,4852177.1532043,0.013409162875216
10419200,0.8764882469375,0.013650940241782,0.0037716218189995,0.0061076966008691,0.0037716218219129,-0.00082466267887706,0.00082466213461372,-1.889140216905e-10,-3.6861898856362e-10,2.5353588496102e-09,-3.2080141081064e-09,-0.00098502694707822,0.00098502835121057,-0.00098502700563568,0.00098502830561222,-0.0009850287738025,0.0009850264804677,-0.00098502884186584,0.00098502641381628,-0.00082595538995661,0.00082595312284252,-0.00082595560276234,0.00082595294201921,-1.4678702581006e-09,4.1926417552606e-09,1.654350306322e-09,9.697739608947e-10,-0.0015770460622456,0.0015770486762733,-0.0017364027829126,0.0017364037182929,-0.0017364030116728,0.0017364034846143,-0.0017364009363627,0.0017364055880748,-0.0017364011810044,0.0017364053387558,-0.0013936097644093,0.0013936149852242,-0.0013936104502224,0.0013936142448803,-0.0013936138422163,0.0013936107435181,-0.0013936083230567,0.0013936164276705,2.7775906841031e-10,4.7014365645745e-10,-0.00082466203977224,0.0008246627738939,6.9251515972547e-11,7.3945413051018e-10,-0.00098502742372103,0.00098502786398635,-0.00098502722174064,0.00098502808235829,-0.00098502734953686,0.00098502793339866,-0.00098502716477598,0.00098502813805807,-0.00082595371021692,0.00082595480887036,-0.00082595386411091,0.00082595462850239,0.62506143428581,128566,2924,0.0034328985427834,0.0065466640277407,0.0034328985431212,38.09901351635,6.4792108130797e-05,6.4792108130797e-05,6.4792108130797e-05,4836385.8415736,0.013503835940082
10619200,0.8848749902477,0.013756157266654,0.0037986862640572,0.0061587847357328,0.0037986862668637,-0.00082983862396759,0.0008298380843606,-1.8450823552322e-10,-3.6880074281145e-10,2.5055776653737e-09,-3.1753802374017e-09,-0.00099219832582109,0.00099219971706417,-0.00099219838809356,0.00099219967012322,-0.00099220013181413,0.00099219786519896,-0.00099220020237651,0.00099219780030363,-0.000831077042637,0.00083107480360608,-0.00083107727007944,0.00083107463369501,-1.4444373808413e-09,4.1532075982411e-09,1.440949073289e-09,1.1707909299055e-09,-0.0015904963299011,0.0015904989341476,-0.0017520752595331,0.001752076075021,-0.0017520753546541,0.0017520759760997,-0.0017520734347394,0.0017520779228015,-0.0017520735433656,0.0017520778107245,-0.001404837736817,0.001404842514111,-0.0014048379638169,0.0014048421332926,-0.0014048415218802,0.0014048386025482,-0.0014048360638806,0.0014048442373216,2.5880574458495e-10,4.56856034961e-10,-0.000829838000588,0.00082983870715371,2.6922915688112e-10,5.3139070974806e-10,-0.00099219874286611,0.00099219928562591,-0.00099219867736492,0.00099219936701052,-0.00099219866774152,0.00099219935566859,-0.00099219861677692,0.00099219942566762,-0.00083107545432875,0.00083107638663643,-0.00083107562005137,0.00083107619670087,0.61395113182849,128566,2924,0.0034544506065102,0.0066022769037185,0.0034544506053463,38.029372857342,6.4234982858737e-05,6.4234982858737e-05,6.4234982858737e-05,4832808.7955589,0.013603914773881
10819200,0.89270733947322,0.013852663944583,0.003823435699802,0.0062057925424937,0.0038234357022876,-0.00083459172993361,0.00083459119632638,-1.7864108233609e-10,-3.6814099554928e-10,2.4847366149542e-09,-3.1458997718332e-09,-0.00099880937329893,0.00099881075403349,-0.00099880943453423,0.00099881070408012,-0.00099881116234021,0.00099880891974161,-0.00099881123352909,0.00099880885047906,-0.00083574247912065,0.00083574026900449,-0.00083574270531042,0.0008357400842617,-1.4186716712601e-09,4.1285480297505e-09,1.2617967381523e-09,1.3486262780988e-09,-0.001602958766666,0.0016029613671183,-0.0017666369348874,0.0017666376411997,-0.0017666369141891,0.0017666376639845,-0.0017666351251741,0.0017666394727896,-0.0017666351197705,0.0017666394808299,-0.0014152169591148,0.0014152213697729,-0.0014152168857769,0.0014152213879585,-0.0014152204664288,0.0014152177177943,-0.0014152150570523,0.0014152232923253,2.394163680568e-10,4.4176293710727e-10,-0.00083459112818388,0.00083459179687408,4.1722825490439e-10,3.2129773385143e-10,-0.00099880974371999,0.00099881037197708,-0.00099880979609155,0.00099881033581715,-0.00099880966676743,0.0009988104443506,-0.00099880973541546,0.00099881039509427,-0.00083574098013856,0.00083574176685951,-0.00083574114609458,0.00083574157689534,0.6038675458046,128566,2924,0.0034742421918482,0.0066538022529455,0.0034742421893224,37.973604016844,6.3788832134755e-05,6.3788832134755e-05,6.3788832134755e-05,4831628.403285,0.013696289147686
11019200,0.90001858756248,0.013940995883862,0.0038460134551947,0.0062489689710935,0.0038460134575737,-0.00083892513295902,0.0008389246033993,-1.7433892462619e-10,-3.6872084501962e-10,2.4694883573626e-09,-3.1259495501811e-09,-0.0010048658296298,0.0010048672043826,-0.0010048658914022,0.0010048671515619,-0.001004867606758,0.0010048653813659,-0.0010048676790147,0.0010048653099946,-0.00083996353164394,0.00083996134110103,-0.00083996375775575,0.00083996114712177,-1.4040497852428e-09,4.1076778925541e-09,1.1206408100748e-09,1.4835918572283e-09,-0.0016144586626885,0.0016144612568957,-0.0017801194280336,0.0017801200492723,-0.0017801193197176,0.0017801201653831,-0.0017801176296406,0.0017801218688235,-0.0017801175363617,0.0017801219703386,-0.0014247705034941,0.001424774625148,-0.0014247701689601,0.001424774924944,-0.0014247738081394,0.0014247711796675,-0.0014247684325739,0.0014247767179267,2.2489284071669e-10,4.3211458510045e-10,-0.00083892454712033,0.00083892518854172,5.3793962122559e-10,1.6786037409109e-10,-0.0010048661648172,0.0010048668556968,-0.0010048663081368,0.0010048667286765,-0.0010048660863293,0.0010048669298808,-0.0010048662457565,0.0010048667897368,-0.00083996209729149,0.00083996277626648,-0.00083996226784468,0.00083996258096243,0.59320720513595,128566,2924,0.0034922861708487,0.0067013458091552,0.0034922861693747,37.918329705803,6.3346637646424e-05,6.3346637646424e-05,6.3346637646424e-05,4832147.9328828,0.013781090250044
11219200,0.90683124456094,0.01402327094,0.0038670693309819,0.0062891322757285,0.0038670693332895,-0.00084290254063219,0.00084290201351211,-1.7068191198696e-10,-3.7004020097302e-10,2.4626546228472e-09,-3.1161833499436e-09,-0.0010104012385509,0.0010104026117831,-0.0010104013012107,0.0010104025565816,-0.0010104030100344,0.001010400794146,-0.0010104030835853,0.0010104007206917,-0.00084383816304941,0.00084383598500045,-0.00084383839216003,0.00084383578416851,-1.3978777692055e-09,4.0969049383664e-09,1.0383883023031e-09,1.5611129712468e-09,-0.0016250565880021,0.0016250591771612,-0.0017925812667164,0.0017925818357951,-0.0017925811078557,0.0017925820061102,-0.0017925794735539,0.0017925836497127,-0.0017925793298002,0.0017925838053366,-0.001433565059402,0.0014335690140388,-0.0014335645767159,0.001433569479406,-0.0014335682494333,0.001433565685799,-0.0014335628898839,0.001433571206027,2.141892271257e-10,4.2622361306101e-10,-0.00084290196502337,0.00084290258842045,6.0560761166199e-10,7.7294654957782e-11,-0.0010104015556879,0.0010104022806939,-0.0010104017514219,0.001010402101364,-0.0010104014756499,0.0010104023566013,-0.0010104016875187,0.001010402163995,-0.00084383676625293,0.00084383738226517,-0.00084383694129814,0.00084383718249232,0.59263237048401,128566,2924,0.0035088472599372,0.0067451593663583,0.0035088472584479,37.837505619977,6.2700044959813e-05,6.2700044959813e-05,6.2700044959813e-05,4833618.2790815,0.013859107771131
11419200,0.91313530795541,0.014099989950016,0.0038867605714525,0.0063264688048502,0.0038867605737135,-0.00084637238800511,0.00084637186124754,-1.6815575630817e-10,-3.7220864543671e-10,2.4663985404749e-09,-3.1192456615391e-09,-0.0010152824158176,0.0010152837934207,-0.0010152824797829,0.0010152837359188,-0.0010152841897921,0.0010152819733212,-0.0010152842642958,0.0010152818980741,-0.00084723016324286,0.00084722798662011,-0.00084723039371092,0.00084722777964751,-1.4029948432353e-09,4.0989649234941e-09,1.0419223433994e-09,1.5541229443755e-09,-0.0016345963251933,0.0016345989106462,-0.0018038419436358,0.0018038425100027,-0.0018038417892643,0.0018038426773132,-0.0018038401481694,0.001803844326115,-0.0018038400085014,0.0018038444791209,-0.00144145258597,0.0014414565489939,-0.001441452120516,0.0014414570131746,-0.0014414557859058,0.0014414532081728,-0.0014414504181382,0.0014414587350926,2.1051589612285e-10,4.2763632031416e-10,-0.0008463718144194,0.00084637243424387,5.9724361605867e-10,7.8524995763259e-11,-0.0010152827389104,0.0010152834563656,-0.0010152829316112,0.0010152832801842,-0.0010152826574109,0.0010152835337887,-0.0010152828658472,0.0010152833446912,-0.00084722876360796,0.00084722938812818,-0.00084722894434921,0.00084722918301221,0.59626238912172,128566,2924,0.0035232970173192,0.0067845961441171,0.0035232970160493,37.630322806265,6.1042582450124e-05,6.1042582450124e-05,6.1042582450124e-05,4831303.2963154,0.013928410454444
11619200,0.9189690371792,0.014171377696035,0.0039051279520312,0.0063611217897341,0.0039051279542699,-0.00084956446193875,0.00084956393479907,-1.6581417347979e-10,-3.749746876311e-10,2.4724433993877e-09,-3.1258657602702e-09,-0.0010197804486845,0.0010197818316765,-0.0010197805143554,0.0010197817727501,-0.0010197822265536,0.0010197800074298,-0.0010197823030761,0.0010197799305547,-0.00085036777218255,0.0008503655969855,-0.00085036800994114,0.00085036538586095,-1.4113759873736e-09,4.1028135419214e-09,1.0701197232241e-09,1.5218200006789e-09,-0.0016433917657201,0.0016433943474142,-0.0018142179520841,0.0018142185310844,-0.0018142178175793,0.0018142186783995,-0.0018142161524666,0.0018142203514351,-0.0018142160328973,0.0018142204841774,-0.0014487214155912,0.0014487254386334,-0.0014487210050477,0.0014487258372553,-0.0014487246662346,0.0014487220519242,-0.001448719286524,0.0014487275912538,2.0950722277904e-10,4.3142488174716e-10,-0.00084956388652431,0.00084956450945414,5.6940147491109e-10,1.1213864162291e-10,-0.0010197807839951,0.0010197814818962,-0.0010197809561661,0.0010197813261718,-0.0010197807007461,0.0010197815610509,-0.001019780888833,0.001019781392159,-0.00085036635912024,0.00085036700987615,-0.00085036654455359,0.00085036680077833,0.5987335988405,128566,2924,0.003536590856344,0.0068209539095175,0.0035365908547319,37.420239583079,5.9361916664636e-05,5.9361916664636e-05,5.9361916664636e-05,4827197.6086888,0.01399225061662
11819200,0.92436887142156,0.01423794785693,0.0039223031466184,0.0063933415614881,0.0039223031488234,-0.00085251074290869,0.00085251021481123,-1.6378769618324e-10,-3.7789644027369e-10,2.479022334505e-09,-3.1339950063391e-09,-0.0010239347726349,0.0010239361613985,-0.0010239348402491,0.0010239361011232,-0.0010239365553996,0.00102393433232,-0.0010239366337697,0.0010239342540409,-0.00085328465097016,0.00085328247504899,-0.00085328489470431,0.00085328226014974,-1.4202032003553e-09,4.1086055192746e-09,1.1222539132074e-09,1.466758272424e-09,-0.0016515128838471,0.0016515154626876,-0.0018237901410077,0.0018237907477924,-0.0018237900411574,0.001823790859033,-0.0018237883366689,0.0018237925730869,-0.0018237882517134,0.0018237926698269,-0.001455433612708,0.0014554377430939,-0.0014554333024303,0.0014554380311388,-0.0014554369427586,0.0014554342754509,-0.0014554315496515,0.0014554398307172,2.107798921131e-10,4.3762353348325e-10,-0.00085251016294408,0.00085251079392555,5.2131820876304e-10,1.7099178947537e-10,-0.0010239351257801,0.0010239357939164,-0.0010239352624529,0.0010239356737266,-0.0010239350408481,0.0010239358746261,-0.0010239351933742,0.0010239357412843,-0.00085328321390295,0.00085328391190185,-0.00085328340457613,0.0008532836982286,0.60218093034222,128566,2924,0.0035488617746238,0.0068545222889998,0.0035488617728259,37.210052965089,5.7680423720714e-05,5.7680423720714e-05,5.7680423720714e-05,4821800.7115991,0.01405119063352
12019200,0.92937592290095,0.014301737997216,0.0039388960652684,0.0064239458645154,0.0039388960674322,-0.00085536590956547,0.00085536538069641,-1.6166085848571e-10,-3.8073942935854e-10,2.4838482201455e-09,-3.1401075074299e-09,-0.0010278862758284,0.0010278876692492,-0.0010278863455327,0.0010278876077762,-0.0010278880621404,0.0010278858365603,-0.0010278881425289,0.0010278857569956,-0.00085616267905388,0.00085616050409379,-0.0008561629295133,0.00085616028583057,-1.4273617248438e-09,4.1122486236273e-09,1.1742203244928e-09,1.4115925451108e-09,-0.0016591547351566,0.0016591573111256,-0.0018327538219085,0.0018327544579464,-0.0018327537564269,0.001832754532964,-0.0018327520141092,0.0018327562869394,-0.0018327519635248,0.0018327563474859,-0.0014617786214963,0.0014617828577485,-0.0014617784093348,0.0014617830327806,-0.0014617820292225,0.0014617793122741,-0.0014617766262391,0.0014617848797475,2.1247869648785e-10,4.4424152761873e-10,-0.0008553653245924,0.00085536596473097,4.7432567979372e-10,2.3098213023903e-10,-0.0010278866457983,0.0010278872848994,-0.0010278867469483,0.0010278872001836,-0.0010278865591539,0.0010278873671779,-0.0010278866760963,0.0010278872693136,-0.0008561612185965,0.00085616196417288,-0.00085616141460374,0.00085616174598616,0.61929851068612,128566,2924,0.0035607528122473,0.006886108259139,0.0035607528102732,37.02772317042,5.6221785363359e-05,5.6221785363359e-05,5.6221785363359e-05,4815492.14877,0.014107352021732
12219200,0.93403676738488,0.014363197756736,0.0039550068814022,0.0064531839918133,0.0039550068835205,-0.0008582181005923,0.00085821757157912,-1.5923951527961e-10,-3.8329698000139e-10,2.4849007989955e-09,-3.1418977881498e-09,-0.0010317902826305,0.0010317916786801,-0.0010317903545225,0.0010317916161431,-0.0010317920697384,0.0010317898450443,-0.0010317921523039,0.0010317897643195,-0.00085910371394283,0.00085910154335019,-0.00085910397187522,0.00085910132233362,-1.4308057159263e-09,4.1114952719358e-09,1.2084431215392e-09,1.3737344110038e-09,-0.0016665149364212,0.0016665175092662,-0.0018412932804245,0.0018412939368414,-0.0018412932378157,0.0018412939871058,-0.0018412914718056,0.0018412957668385,-0.0018412914441223,0.0018412958026345,-0.0014679419411784,0.0014679462456966,-0.0014679417894736,0.0014679463389905,-0.0014679453990768,0.0014679426516627,-0.0014679399944806,0.0014679482239685,2.128293578673e-10,4.4953517174667e-10,-0.00085821751212604,0.00085821815903271,4.4414756789079e-10,2.7301795302938e-10,-0.0010317906639566,0.001031791282772,-0.0010317907411122,0.0010317912219429,-0.0010317905755583,0.001031791366624,-0.0010317906684548,0.0010317912926371,-0.00085910223908011,0.00085910301769687,-0.00085910244050925,0.00085910279480582,0.63789981790418,128566,2924,0.0035726320025239,0.0069165269814181,0.0035726320004075,36.914145059731,5.5313160477846e-05,5.5313160477846e-05,5.5313160477846e-05,4806241.3678147,0.014162308835712
12419200,0.93837579287833,0.014418468438525,0.00396939592491,0.0064796765866461,0.0039693959269693,-0.00086074519550224,0.00086074466720175,-1.5635436679392e-10,-3.8530086555279e-10,2.484764083003e-09,-3.1404874089418e-09,-0.0010354053017613,0.0010354066995186,-0.0010354053752426,0.0010354066352289,-0.0010354070886243,0.0010354048665296,-0.0010354071724923,0.0010354047839145,-0.00086170679829957,0.00086170463324786,-0.00086170705950954,0.00086170440661779,-1.4303392579998e-09,4.1105031525973e-09,1.2372355510091e-09,1.3437437344925e-09,-0.0016733309996017,0.0016733335706184,-0.0018491717598853,0.0018491724331861,-0.0018491717360312,0.0018491724640634,-0.001849169951683,0.001849174262683,-0.0018491699427229,0.0018491742791524,-0.0014736392420423,0.0014736436022965,-0.0014736391576133,0.0014736436483367,-0.0014736427344015,0.0014736399679961,-0.0014736373301959,0.0014736455368089,2.1198411404921e-10,4.5357076938748e-10,-0.00086074460584585,0.00086074525558945,4.147513978942e-10,3.0120127723935e-10,-0.0010354056927869,0.0010354062948097,-0.001035405750869,0.0010354062531901,-0.0010354056028503,0.0010354063802671,-0.0010354056766664,0.0010354063254963,-0.00086170531218928,0.0008617061190311,-0.00086170551837763,0.00086170589192029,0.61826607157566,128566,2924,0.0035831612489147,0.0069446918313876,0.0035831612462477,36.802147973539,5.4417183788315e-05,5.4417183788315e-05,5.4417183788315e-05,4793001.8804297,0.014212245618538
12619200,0.94241539930206,0.014467054742238,0.0039819011591719,0.006503252421871,0.0039819011611952,-0.00086294591697333,0.00086294538939895,-1.5352754918618e-10,-3.8739952127816e-10,2.4833231807072e-09,-3.1382662654727e-09,-0.0010386055930416,0.0010386069919698,-0.001038605668262,0.0010386069261228,-0.0010386073787791,0.0010386051602424,-0.0010386074642967,0.0010386050760097,-0.00086390541002966,0.0008639032517006,-0.00086390567570192,0.00086390301991315,-1.4297965982836e-09,4.1073637301516e-09,1.2586694842171e-09,1.3198740893408e-09,-0.0016794848037149,0.0016794873722512,-0.0018563522562974,0.0018563529431987,-0.00185635224703,0.001856352958986,-0.0018563504492633,0.0018563547714479,-0.0018563504548627,0.001856354772826,-0.0014787353600016,0.0014787397611385,-0.0014787353200437,0.001478739762634,-0.0014787388791103,0.0014787360988291,-0.0014787334784095,0.0014787416639299,2.11229063053e-10,4.5772487604579e-10,-0.00086294532607722,0.00086294597907892,3.9408996749848e-10,3.2554157695126e-10,-0.0010386059914984,0.001038606579919,-0.0010386060346509,0.0010386065532341,-0.0010386058999053,0.0010386066670159,-0.0010386059587664,0.0010386066271722,-0.00086390391588314,0.0008639047459936,-0.00086390412697897,0.00086390451418782,0.58731202868969,128566,2924,0.0035923307772577,0.0069701199690901,0.0035923307746984,36.690207249583,5.3521657996667e-05,5.3521657996667e-05,5.3521657996667e-05,4784904.4117016,0.014256649140986
12819200,0.94614240033742,0.014512281341919,0.0039935828369279,0.0065251156660706,0.003993582838921,-0.00086470879849849,0.0008647082720206,-1.5008053738525e-10,-3.8929363586914e-10,2.4878868928275e-09,-3.1397241312595e-09,-0.0010411517648607,0.0010411531682115,-0.0010411518409769,0.0010411530988382,-0.0010411535533277,0.001041151334262,-0.0010411536390133,0.0010411512472605,-0.00086562020484208,0.00086561804973634,-0.00086562046969766,0.00086561780943748,-1.4282543527511e-09,4.1114714921329e-09,1.3056733236939e-09,1.2760050660388e-09,-0.001684719892138,0.0016847224611268,-0.001862578952181,0.0018625796651022,-0.0018625789728107,0.0018625796518361,-0.0018625771442814,0.0018625814936047,-0.0018625771790082,0.0018625814665439,-0.0014830010616183,0.0014830055520413,-0.0014830011435214,0.0014830055062397,-0.0014830046320319,0.0014830018229991,-0.0014829992247513,0.0014830073842797,2.1139569758191e-10,4.6205843907616e-10,-0.00086470820683927,0.00086470886202768,3.3571415095725e-10,3.7010116395945e-10,-0.0010411521809713,0.0010411527408692,-0.001041152190351,0.0010411527482541,-0.0010411520884942,0.001041152829123,-0.0010411521130752,0.0010411528237936,-0.00086561868873517,0.00086561956649702,-0.00086561890308717,0.00086561933113752,0.59134554212693,128566,2924,0.0035996756459038,0.0069917547076212,0.0035996756423822,36.406563454113,5.1252507632906e-05,5.1252507632906e-05,5.1252507632906e-05,4780668.7286083,0.014293501513271
13019200,0.94953791459925,0.014553648634733,0.0040042893448963,0.0065450699429064,0.0040042893469303,-0.00086585414207533,0.00086585361598284,-1.4760008732858e-10,-3.9126102908682e-10,2.4958680495509e-09,-3.1455172456661e-09,-0.001042985858674,0.0010429872676879,-0.0010429859357293,0.0010429871966303,-0.0010429876524263,0.0010429854301061,-0.0010429877384726,0.0010429853400352,-0.00086671857644886,0.00086671641967548,-0.00086671883849549,0.00086671616879647,-1.4344476194922e-09,4.1216029821522e-09,1.3900640647911e-09,1.1938921324149e-09,-0.0016889353446374,0.0016889379143124,-0.0018676874128733,0.0018676881731992,-0.0018676874880251,0.0018676881063733,-0.0018676855992381,0.0018676900074476,-0.0018676856888858,0.0018676899261358,-0.0014863577907946,0.0014863624532709,-0.0014863580650021,0.0014863622717335,-0.0014863614761239,0.0014863585995382,-0.0014863560490507,0.0014863641697333,2.1409060071219e-10,4.7000906703368e-10,-0.00086585354652027,0.00086585420983362,2.5678737429257e-10,4.4625765787017e-10,-0.001042986299758,0.0010429868171312,-0.0010429862577032,0.0010429868765213,-0.0010429862054951,0.0010429869076424,-0.0010429861793894,0.0010429869537394,-0.0008667170237615,0.00086671797212192,-0.00086671724248142,0.00086671773311491,0.5930269731344,128566,2924,0.0036044530138439,0.0070091744729539,0.0036044530101737,35.873567437452,4.698853949962e-05,4.698853949962e-05,4.698853949962e-05,4770208.7361222,0.014320870234959
13219200,0.95263503580094,0.014591566150184,0.004014127887111,0.0065633103738481,0.0040141278892245,-0.00086682159079857,0.00086682106237589,-1.4666219648969e-10,-3.9536418734937e-10,2.4958480474727e-09,-3.1513244259667e-09,-0.0010445737074559,0.0010445751191074,-0.0010445737878843,0.0010445750482981,-0.0010445755020671,0.0010445732791117,-0.001044575592086,0.0010445731895605,-0.00086765325951366,0.0008676511054142,-0.00086765353359026,0.00086765085322764,-1.4435107311498e-09,4.1186525741087e-09,1.4323861464688e-09,1.1429399551454e-09,-0.0016926703747841,0.001692672939218,-0.0018722271009203,0.0018722278897619,-0.0018722272053285,0.0018722277894803,-0.0018722252856957,0.0018722297263666,-0.0018722254047296,0.0018722296115371,-0.0014893207599319,0.0014893255100533,-0.0014893210732598,0.0014893251777402,-0.0014893245191772,0.0014893215955597,-0.001489319092315,0.001489327183186,2.1850530231484e-10,4.7966460575753e-10,-0.00086682098631899,0.00086682166637739,2.3200667073782e-10,5.1356927864471e-10,-0.0010445741599685,0.0010445746534994,-0.0010445740871376,0.0010445747430094,-0.001044574063517,0.0010445747456278,-0.0010445740063245,0.0010445748219209,-0.00086765168795771,0.00086765268103554,-0.00086765191248845,0.00086765243464283,0.59512404243815,128566,2924,0.0036084897289114,0.0070246084462183,0.0036084897278734,35.33481959169,4.2678556733518e-05,4.2678556733518e-05,4.2678556733518e-05,4758981.5767945,0.014344722148564
13419200,0.95546413967697,0.014625633668329,0.0040229479521254,0.0065797377619843,0.0040229479542194,-0.00086759859792708,0.00086759807015084,-1.436604222047e-10,-3.9736432014446e-10,2.493393301344e-09,-3.1483784521406e-09,-0.001045929607551,0.0010459310196438,-0.0010459296901775,0.0010459309477261,-0.0010459314005653,0.0010459291815771,-0.0010459314926633,0.0010459290907666,-0.00086839650368,0.00086839435768953,-0.00086839678738787,0.00086839410532069,-1.4417055150038e-09,4.1150415720105e-09,1.4329537748929e-09,1.140798920729e-09,-0.0016959581346743,0.0016959606976562,-0.0018762434569462,0.001876244246891,-0.0018762435610583,0.0018762441447996,-0.0018762416435614,0.0018762460817328,-0.0018762417623457,0.0018762459652254,-0.001491906935461,0.0014919116846986,-0.0014919072456118,0.0014919113437769,-0.0014919106935998,0.0014919077724082,-0.001491905272675,0.0014919133557167,2.1543849153138e-10,4.8155692813405e-10,-0.0008675979929437,0.00086759867400233,2.3221597654955e-10,5.162342639123e-10,-0.0010459300614277,0.0010459305540135,-0.0010459299877382,0.0010459306443734,-0.0010459299633348,0.00104593064757,-0.0010459299052573,0.0010459307247678,-0.00086839493384034,0.00086839592933338,-0.00086839516428127,0.00086839567913946,0.58608288171036,128566,2924,0.0036117339808396,0.0070381933186437,0.0036117339784426,34.795866820348,3.8366934562787e-05,3.8366934562787e-05,3.8366934562787e-05,4747207.7711942,0.014365090914503
13619200,0.95806601813127,0.014656557001742,0.0040309437838885,0.0065946694318949,0.0040309437859591,-0.00086839873175058,0.00086839820486915,-1.4107830835121e-10,-3.9936943530495e-10,2.4840282239903e-09,-3.1389930191533e-09,-0.0010472431784178,0.001047244586383,-0.0010472432622297,0.0010472445142775,-0.001047244963953,0.0010472427549584,-0.0010472450592548,0.0010472426625892,-0.00086915519706828,0.00086915306503833,-0.00086915549182439,0.00086915280942032,-1.4377059643638e-09,4.1048168722505e-09,1.3925422970828e-09,1.1766869186106e-09,-0.0016990392953133,0.0016990418551599,-0.0018800067268235,0.001880007493918,-0.0018800068044426,0.0018800074168939,-0.001880004917368,0.0018800093248297,-0.0018800050113507,0.0018800092317404,-0.0014943393021302,0.0014943439704479,-0.0014943395166758,0.0014943436799211,-0.001494343004999,0.0014943401223548,-0.001494337602842,0.0014943456947083,2.0993079826373e-10,4.8152136824336e-10,-0.00086839812936427,0.00086839880638153,2.8228324976402e-10,4.7191623919551e-10,-0.0010472436188028,0.001047244132551,-0.0010472435753029,0.001047244192331,-0.0010472435178507,0.0010472442285704,-0.00104724349145,0.001047244273615,-0.00086915365231708,0.00086915461274782,-0.00086915388720681,0.00086915435896058,0.5788984373346,128566,2924,0.0036150720396142,0.0070509255564157,0.003615072037785,34.355284004937,3.4842272039494e-05,3.4842272039494e-05,3.4842272039494e-05,4739511.726374,0.014384784508237
13819200,0.9604732533614,0.014685163525338,0.0040383510092084,0.0066084615049012,0.0040383510112283,-0.00086924613697181,0.00086924561219903,-1.3738111868201e-10,-4.0084285495188e-10,2.4741888917296e-09,-3.127112654502e-09,-0.0010485464418763,0.0010485478467373,-0.0010485465279014,0.0010485477729759,-0.0010485482206862,0.0010485460224383,-0.0010485483173528,0.0010485459286647,-0.00086996621411665,0.00086996409584377,-0.00086996651394563,0.00086996383705882,-1.4271851698845e-09,4.0918343463871e-09,1.3183333398802e-09,1.2485389842852e-09,-0.0017019724013768,0.0017019749590706,-0.0018835782947362,0.0018835790199335,-0.0018835783251946,0.0018835789911768,-0.0018835764932463,0.0018835808427117,-0.0018835765394753,0.0018835807986714,-0.0014966728207621,0.0014966773352395,-0.0014966728924845,0.0014966771869788,-0.0014966764146435,0.0014966735984132,-0.0014966710348417,0.0014966791477434,2.0139065103253e-10,4.7780037191816e-10,-0.00086924554126289,0.00086924620666786,3.4520446174065e-10,3.9619083527245e-10,-0.0010485468639022,0.0010485474117783,-0.001048546866764,0.0010485474250739,-0.0010485467617254,0.0010485475091133,-0.0010485467811437,0.0010485475083117,-0.00086996470223652,0.00086996560868676,-0.00086996494280578,0.00086996534944475,0.57842148335999,128566,2924,0.0036186046086169,0.0070630470201298,0.0036186046060273,34.003149030214,3.2025192241712e-05,3.2025192241712e-05,3.2025192241712e-05,4735073.4490834,0.014404252723636
14019200,0.96270268806449,0.014711663716397,0.0040452211358141,0.0066212214427935,0.0040452211377891,-0.00086999452651862,0.00086999400398134,-1.3363229279798e-10,-4.0220193697322e-10,2.4662598596491e-09,-3.1161072462097e-09,-0.001049713724039,0.0010497151266881,-0.0010497138113627,0.0010497150499982,-0.0010497154971133,0.0010497133082779,-0.0010497155945787,0.0010497132127008,-0.00087068718791641,0.00087068508178569,-0.00087068748878516,0.00087068481674796,-1.4162002936414e-09,4.0818629978285e-09,1.246997550022e-09,1.319984210212e-09,-0.0017046329205879,0.0017046354773025,-0.0018868269825312,0.001886827665798,-0.001886826967719,0.0018868276849482,-0.0018868251879952,0.0018868294811984,-0.0018868251882316,0.0018868294857974,-0.0014987832670738,0.0014987876324134,-0.0014987832131744,0.0014987876432135,-0.0014987867512117,0.0014987840018998,-0.0014987813898073,0.0014987895288118,1.9272354679926e-10,4.7378834311386e-10,-0.00086999393886149,0.0008699945901967,4.0101525905322e-10,3.179989439783e-10,-0.0010497141294314,0.0010497147087665,-0.0010497141772667,0.0010497146773893,-0.0010497140262045,0.0010497148073511,-0.0010497140898415,0.0010497147625408,-0.00087068570688232,0.00087068656347599,-0.00087068595241106,0.00087068629915129,0.57820997355614,128566,2924,0.0036217248524466,0.0070740419195713,0.0036217248494152,33.653061331613,2.9224490652905e-05,2.9224490652905e-05,2.9224490652905e-05,4730381.7795573,0.014421741595958
14219200,0.96476933299682,0.014735293630761,0.0040513015865973,0.0066326904556159,0.0040513015885483,-0.00087059922724349,0.00087059870662739,-1.3020978567675e-10,-4.037138523912e-10,2.4598708663027e-09,-3.1071473101649e-09,-0.0010507211239306,0.0010507225248236,-0.0010507212123551,0.0010507224459067,-0.0010507228918005,0.0010507207113171,-0.001050722990698,0.0010507206138872,-0.00087125558041116,0.00087125348594748,-0.00087125588492033,0.00087125321487976,-1.4092329981934e-09,4.0733421320763e-09,1.1857834386593e-09,1.3795887271584e-09,-0.0017070008390452,0.001707003394057,-0.0018897406201,0.0018897412670716,-0.001889740567038,0.0018897413270453,-0.0018897388303736,0.0018897430772614,-0.0018897387923617,0.0018897431226135,-0.001500642960596,0.0015006472004767,-0.001500642794485,0.0015006473366033,-0.0015006463567844,0.0015006436608592,-0.0015006410092876,0.0015006491710957,1.848151697146e-10,4.7081411223146e-10,-0.00087059864645111,0.00087059928591653,4.5323251211669e-10,2.504698935051e-10,-0.0010507215146366,0.0010507221210471,-0.001050721602271,0.0010507220499524,-0.0010507214097932,0.0010507222213807,-0.0010507215131817,0.0010507221367805,-0.00087125412754044,0.00087125493897808,-0.00087125437789541,0.00087125467006085,0.55856306375443,128566,2924,0.0036242472608021,0.0070838272151817,0.0036242472576372,33.303046564243,2.6424372513944e-05,2.6424372513944e-05,2.6424372513944e-05,4725405.070162,0.014436790715367
14419200,0.96665491103253,0.014757105339161,0.0040569370911964,0.0066432311548318,0.0040569370931324,-0.00087059684626507,0.00087059632642635,-1.2712803943228e-10,-4.0564364534291e-10,2.4670392798548e-09,-3.1110923197946e-09,-0.0010509822405496,0.0010509836472602,-0.0010509823297271,0.0010509835646024,-0.0010509840133494,0.0010509818299841,-0.0010509841116476,0.0010509817295261,-0.0008711755307552,0.00087117343511956,-0.0008711758294396,0.00087117315335951,-1.4097149565875e-09,4.0819807202322e-09,1.2031765681935e-09,1.3672313393152e-09,-0.001708435567167,0.0017084381244294,-0.0018916995227519,0.0018917001751771,-0.0018916994807537,0.0018917002269689,-0.0018916977301478,0.0018917019877969,-0.0018916977022432,0.0018917020257977,-0.0015016261571931,0.0015016304299762,-0.0015016260618423,0.0015016305876471,-0.0015016295691089,0.0015016268595955,-0.0015016242067745,0.0015016323712184,1.8202581853399e-10,4.7250401476511e-10,-0.00087059626806295,0.00087059690290987,4.2206139784342e-10,2.5664288531047e-10,-0.0010509826416338,0.001050983235631,-0.0010509827174485,0.0010509831768591,-0.0010509825360503,0.001050983337177,-0.0010509826269853,0.0010509832656478,-0.0008711740660569,0.00087117490063471,-0.00087117432049161,0.00087117462720462,0.5638311877516,128566,2924,0.003624244209395,0.00708975812851,0.0036242442057131,32.647097843409,2.1176782747271e-05,2.1176782747271e-05,2.1176782747271e-05,4718357.5996235,0.014442803349384
14619200,0.96836219311701,0.014776974395426,0.0040620849566046,0.0066528044802532,0.0040620849585683,-0.00087020926558839,0.00087020874321559,-1.262878072166e-10,-4.0959990126087e-10,2.4736017055923e-09,-3.1227438379958e-09,-0.0010508194398766,0.0010508208521075,-0.0010508195312829,0.0010508207696509,-0.0010508212173328,0.0010508190288443,-0.0010508213193481,0.0010508189278466,-0.00087071292335086,0.00087071082671385,-0.00087071323413493,0.00087071054237271,-1.423879190174e-09,4.0881007905623e-09,1.2537754377269e-09,1.3112918742275e-09,-0.0017092748783556,0.0017092774328263,-0.0018929975128723,0.0018929981941332,-0.0018929975047053,0.0018929982094194,-0.0018929957134342,0.0018930000142213,-0.0018929957204247,0.0018930000146629,-0.0015020777067945,0.0015020820899167,-0.0015020776801598,0.0015020820979691,-0.001502081208937,0.0015020784391876,-0.001502075832278,0.0015020839775191,1.8540932063723e-10,4.8123728837676e-10,-0.00087020867952617,0.00087020932806815,3.8959978175881e-10,3.22190450654e-10,-0.0010508198557464,0.0010508204223567,-0.001050819898471,0.0010508203962556,-0.0010508197475301,0.0010508205262012,-0.0010508198061466,0.001050820486378,-0.00087071143679389,0.00087071231573711,-0.00087071169622726,0.00087071203715445,0.56645234162445,128566,2924,0.0036226403170973,0.0070932275261864,0.0036226403145365,31.822548621334,1.4580388970675e-05,1.4580388970675e-05,1.4580388970675e-05,4706063.6525765,0.014443070737955
14819200,0.96991080195536,0.01479512775447,0.0040668033954243,0.0066615209616698,0.0040668033973763,-0.00086973292399407,0.00086973240049201,-1.242660890504e-10,-4.1257014881803e-10,2.4803561604285e-09,-3.1308075183617e-09,-0.0010505412066302,0.0010505426243674,-0.0010505413002518,0.0010505425405677,-0.0010505429894548,0.001050540796343,-0.0010505430930742,0.001050540693894,-0.00087017187795645,0.00087016978007092,-0.00087017219580005,0.00087016949388958,-1.431277467397e-09,4.0952539641554e-09,1.2967564629802e-09,1.2681394792094e-09,-0.0017098752873495,0.0017098778416588,-0.0018940024695277,0.0018940031742507,-0.0018940024887208,0.0018940031601516,-0.0018940006656005,0.0018940049990949,-0.0018940006996718,0.0018940049705152,-0.0015023367287622,0.0015023412007551,-0.0015023367823722,0.0015023411204404,-0.0015023402974023,0.0015023374839047,-0.0015023349061258,0.0015023430374571,1.8597708254985e-10,4.8669503108351e-10,-0.00086973233351582,0.00086973298954496,3.5080363980725e-10,3.7032275768807e-10,-0.0010505416371186,0.0010505421815447,-0.0010505416511011,0.0010505421841551,-0.001050541527437,0.0010505422866651,-0.0010505415570631,0.00105054227593,-0.00087017037046213,0.00087017128829998,-0.00087017063552042,0.0008701710049072,0.56961685827389,128566,2924,0.0036206671827645,0.0070957092855742,0.0036206671797576,30.994068392301,7.9525471384074e-06,7.9525471384074e-06,7.9525471384074e-06,4692691.5127934,0.014441586945978
15019200,0.97129661709206,0.014811315258976,0.0040710140119916,0.0066692872330524,0.0040710140139324,-0.00086868362215513,0.00086868309767066,-1.2216034933702e-10,-4.1524908837547e-10,2.492089051653e-09,-3.1421457568099e-09,-0.0010496435173287,0.0010496449427794,-0.0010496436118848,0.001049644856861,-0.0010496453083801,0.0010496431076942,-0.0010496454125685,0.001049643002305,-0.0008690453261322,0.00086904322343695,-0.0008690456423646,0.00086904292717561,-1.4396836582407e-09,4.1106197685642e-09,1.3781199516756e-09,1.1912283820847e-09,-0.0017096843807617,0.0017096869375218,-0.00189416050023,0.0018941612482779,-0.0018941605704304,0.0018941611827369,-0.0018941586882807,0.0018941630811771,-0.001894158773684,0.0018941630007379,-0.0015018643124763,0.00150186894986,-0.00150186454916,0.0015018687465004,-0.0015018679902269,0.0015018651076426,-0.0015018625740082,0.001501870678473,1.8880497125538e-10,4.9429872039621e-10,-0.00086868302700798,0.00086868369136204,2.7164469799976e-10,4.4511457108021e-10,-0.0010496439735403,0.0010496444764241,-0.0010496439362776,0.0010496445305815,-0.0010496438621997,0.0010496445833231,-0.0010496438411617,0.0010496446237493,-0.00086904378222879,0.00086904477066481,-0.00086904405026783,0.00086904448380833,0.56737760483515,128566,2924,0.0036163130654324,0.0070949197913333,0.00361631306231,29.890794908712,-8.7364073030635e-07,-8.7364073030635e-07,-8.7364073030635e-07,4672737.2079981,0.01443195331321
15219200,0.97251837475952,0.014824932215843,0.0040745268500791,0.0066758785137302,0.0040745268520333,-0.00086698692006885,0.00086698639388957,-1.2034553149537e-10,-4.1864196451157e-10,2.5069455944373e-09,-3.1575845761351e-09,-0.0010480364423975,0.0010480378789582,-0.0010480365387099,0.0010480377885807,-0.0010480382443149,0.0010480360318612,-0.0010480383488254,0.0010480359258444,-0.00086723345921438,0.00086723134690172,-0.00086723377454291,0.00086723104568459,-1.4499450188808e-09,4.1257675019878e-09,1.4776915734191e-09,1.094886704198e-09,-0.0017085989100239,0.001708601468805,-0.0018933787693314,0.0018933795744558,-0.0018933789038697,0.0018933794435791,-0.0018933769501511,0.0018933814140762,-0.0018933770971376,0.0018933812711034,-0.0015005550000098,0.0015005598370649,-0.0015005554460467,0.0015005594694735,-0.0015005588174054,0.0015005558461108,-0.0015005533693033,0.0015005614409423,1.9415367472197e-10,5.0407785011512e-10,-0.00086698631712896,0.00086698699510377,1.6613802986194e-10,5.5609693958161e-10,-0.001048036932593,0.0010480373789123,-0.0010480368245246,0.0010480375041764,-0.0010480368211346,0.0010480374860715,-0.0010480367265427,0.0010480375998044,-0.0008672318623219,0.00086723294621831,-0.00086723213719528,0.00086723265352484,0.54391181124684,128566,2924,0.0036092678507865,0.007090432972352,0.0036092678470721,28.484768539661,-1.2121851682713e-05,-1.2121851682713e-05,-1.2121851682713e-05,4647138.8951164,0.014413108259555
15419200,0.97359780259436,0.014838776519889,0.0040782123789763,0.0066823517599761,0.0040782123809369,-0.00086531964395019,0.00086531911589825,-1.1914615945522e-10,-4.2224392635186e-10,2.5083451426196e-09,-3.163734114918e-09,-0.0010463129056021,0.0010463143442304,-0.0010463130046487,0.0010463142557702,-0.0010463147086554,0.0010463124960067,-0.0010463148174697,0.0010463123889449,-0.00086544918081649,0.00086544707252893,-0.00086544951026656,0.00086544676934611,-1.4602559114784e-09,4.1269911832522e-09,1.5337051431842e-09,1.0332347852689e-09,-0.0017072950738236,0.0017072976298199,-0.0018923599253666,0.0018923607660367,-0.0018923600968288,0.0018923605946154,-0.0018923581018356,0.0018923626110912,-0.0018923582879592,0.0018923624252831,-0.0014990659257305,0.0014990708824842,-0.0014990664437075,0.0014990703412339,-0.0014990698369724,0.0014990668100638,-0.0014990643855593,0.0014990724230421,1.9820915415154e-10,5.1367849295948e-10,-0.0008653190320522,0.00086531972646688,1.3620397647378e-10,6.2612711907351e-10,-0.0010463134086448,0.001046313828843,-0.001046313266818,0.0010463139875324,-0.0010463132939626,0.0010463139389767,-0.0010463131677399,0.0010463140842314,-0.00086544756401429,0.00086544869300062,-0.00086544784310402,0.00086544839492455,0.61487581060513,128566,2924,0.003602341365822,0.0070850475677267,0.003602341363004,27.071779608751,-2.3425763129994e-05,-2.3425763129994e-05,-2.3425763129994e-05,4626730.6193121,0.014393590092099
15619200,0.97457084769572,0.014851537094599,0.0040816263461367,0.006688284400374,0.0040816263480878,-0.00086407956525307,0.00086407903744123,-1.1697588508833e-10,-4.2491150463902e-10,2.4942290512903e-09,-3.1524863856461e-09,-0.0010452543907689,0.0010452558224955,-0.0010452544912919,0.0010452557355788,-0.0010452561827106,0.0010452539834021,-0.0010452562969663,0.0010452538756009,-0.00086421896916566,0.00086421688082393,-0.00086421931840594,0.00086421657602649,-1.4574873822903e-09,4.1107677187503e-09,1.4923670566226e-09,1.0655630066051e-09,-0.0017066489530466,0.0017066515037464,-0.001891845387921,0.0018918462094068,-0.0018918455330754,0.0018918460613768,-0.0018918435694362,0.001891848049768,-0.0018918437323276,0.0018918478844518,-0.0014982922732664,0.0014982971517597,-0.0014982926673229,0.001498296613495,-0.0014982961370742,0.0014982931470111,-0.001498290714863,0.0014982987489815,1.9366513173118e-10,5.1456951721356e-10,-0.00086407895363487,0.00086407964838632,2.0152360679803e-10,5.8768715124476e-10,-0.0010452548765639,0.0010452553202204,-0.0010452547673844,0.0010452554456065,-0.0010452547581802,0.0010452554335056,-0.0010452546671584,0.0010452555426106,-0.00086421738487001,0.00086421846966619,-0.00086421766695491,0.00086421816884236,0.62694797896383,128566,2924,0.0035971974921429,0.0070823710932523,0.0035971974907813,25.963166651458,-3.2294666788333e-05,-3.2294666788333e-05,-3.2294666788333e-05,4595609.6120511,0.014380442830944
15819200,0.97548612110929,0.014864460453392,0.0040851322487261,0.0066941959540002,0.0040851322506652,-0.00086404301505549,0.00086404248987744,-1.1370085323022e-10,-4.2666271950308e-10,2.4598185636045e-09,-3.1198620226215e-09,-0.0010454698888193,0.0010454713038104,-0.0010454699923571,0.0010454712181608,-0.0010454716560323,0.0010454694862588,-0.0010454717762407,0.001045469379996,-0.00086427652720889,0.00086427447384515,-0.0008642768982131,0.00086427417261284,-1.4357368888706e-09,4.0677255393652e-09,1.2992142324264e-09,1.2437732649923e-09,-0.0017073711990848,0.0017073737404652,-0.0018926669730384,0.0018926676925433,-0.0018926669962388,0.0018926676647417,-0.0018926651754976,0.0018926695122237,-0.0018926652178217,0.001892669466172,-0.0014988851110167,0.0014988895968288,-0.0014988850650093,0.0014988893310215,-0.0014988887081158,0.0014988858883657,-0.0014988833606293,0.0014988914416923,1.793066598469e-10,5.0543748868341e-10,-0.00086404241421391,0.00086404309090627,4.0116115056692e-10,4.0501745809761e-10,-0.0010454703150803,0.001045470854307,-0.0010454703320654,0.0010454708527328,-0.0010454701938607,0.001045470969758,-0.0010454702294209,0.0010454709509414,-0.00086427504029523,0.00086427596846771,-0.00086427532830581,0.00086427566103809,0.66919700815709,128566,2924,0.0035970549449971,0.0070853497389851,0.0035970549455508,25.547660121357,-3.5618719029145e-05,-3.5618719029145e-05,-3.5618719029145e-05,4577180.1262433,0.014383180158227
16019200,0.9763485216739,0.014876606329729,0.004088425172871,0.0066997559820607,0.0040884251747969,-0.00086395518602325,0.00086395466896805,-1.0644329743805e-10,-4.2404584783171e-10,2.442760396264e-09,-3.0873419527932e-09,-0.0010457512554004,0.0010457526627378,-0.0010457513588967,0.0010457525702191,-0.0010457530099631,0.0010457508610113,-0.0010457531258542,0.0010457507505652,-0.00086433809457473,0.00086433606099209,-0.00086433844845153,0.00086433575036631,-1.3968021427122e-09,4.0504487910992e-09,1.1328264522236e-09,1.4234776724989e-09,-0.0017081506783343,0.001708153225233,-0.0018934760636191,0.0018934766831353,-0.0018934759777768,0.0018934767745762,-0.0018934742849922,0.0018934784820537,-0.001893474215052,0.0018934785582238,-0.0014995724736882,0.0014995766000481,-0.0014995721985591,0.0014995768135987,-0.0014995757859747,0.0014995731484191,-0.0014995704766292,0.0014995786259347,1.5792432839885e-10,4.8793642786098e-10,-0.00086395461069038,0.00086395524193051,5.0598944448744e-10,1.9657348893433e-10,-0.0010457516433224,0.0010457522578189,-0.0010457517662954,0.0010457521517954,-0.0010457515231786,0.0010457523733985,-0.0010457516623533,0.0010457522528309,-0.00086433667444973,0.00086433748084908,-0.00086433696805815,0.00086433716976246,0.667427936349,128566,2924,0.0035967034046266,0.007088559519807,0.0035967033996775,25.147942709158,-3.8816458326736e-05,-3.8816458326736e-05,-3.8816458326736e-05,4551506.8396652,0.014385730537965
16219200,0.97716172537269,0.014888009255957,0.0040915157868914,0.0067049776802528,0.0040915157888124,-0.00086382004672539,0.00086381953306507,-1.0253386839232e-10,-4.2482751029044e-10,2.4252471821262e-09,-3.0651084581288e-09,-0.0010459574748059,0.0010459588738994,-0.001045957578805,0.0010459587780913,-0.0010459592166365,0.0010459570850511,-0.0010459593326936,0.001045956972122,-0.00086434034302159,0.00086433832827036,-0.0008643406922638,0.00086433800618533,-1.3764982553349e-09,4.0297187980921e-09,9.9316777605324e-10,1.562024847919e-09,-0.0017088355369182,0.0017088380821543,-0.0018941882387188,0.0018941887782604,-0.0018941880647312,0.0018941889636945,-0.0018941864734233,0.0018941905630794,-0.0018941863147104,0.0018941907336927,-0.0015001755600116,0.001500179396406,-0.0015001750286565,0.0015001799036477,-0.0015001786614858,0.0015001761548048,-0.001500173389677,0.0015001815896866,1.4538137295253e-10,4.8006142042602e-10,-0.00086381948543772,0.00086382009297774,6.2381728975118e-10,4.484542129728e-11,-0.0010459578252435,0.0010459585070904,-0.0010459580378734,0.0010459583113656,-0.0010459577040069,0.0010459586241063,-0.0010459579323505,0.0010459584143597,-0.00086433898405451,0.00086433969059137,-0.00086433928163288,0.00086433937321323,0.66425606104369,128566,2924,0.0035961545200122,0.0070913785547298,0.0035961545171105,24.748782432132,-4.2009740542947e-05,-4.2009740542947e-05,-4.2009740542947e-05,4528219.6008672,0.014387483098012
16419200,0.97793189678474,0.014897649224058,0.0040940771876519,0.006709494846838,0.0040940771895676,-0.00086370096921881,0.0008637004565923,-9.983460096522e-11,-4.2700836265276e-10,2.4139023633405e-09,-3.054101935547e-09,-0.0010461724772382,0.0010461738728394,-0.0010461725847425,0.0010461737758805,-0.0010461742123934,0.0010461720910157,-0.0010461743299855,0.0010461719778628,-0.00086433092618041,0.00086432892291648,-0.00086433127932224,0.00086432859868422,-1.3666298685133e-09,4.0121709244029e-09,8.8057577524981e-10,1.6690801880401e-09,-0.0017095046499308,0.0017095071913482,-0.0018948899309054,0.0018948904079389,-0.0018948896879353,0.0018948906646206,-0.0018948881753681,0.0018948921833008,-0.0018948879463502,0.0018948924266078,-0.0015007624343437,0.0015007660386964,-0.0015007616629422,0.001500766736608,-0.0015007653810796,0.0015007629634017,-0.0015007601367582,0.0015007683785601,1.3760250169097e-10,4.7719419649385e-10,-0.00086370041376683,0.00086370101129002,7.1638375176225e-10,-4.8178384932492e-11,-0.001046172800912,0.0010461735312733,-0.0010461730764563,0.0010461732724003,-0.0010461726787354,0.001046173649278,-0.0010461729685026,0.0010461733781308,-0.00086432960746639,0.00086433024766619,-0.00086432991158108,0.00086432992037546,0.59981699105986,128566,2924,0.0035956713920925,0.0070941328546761,0.0035956713905219,24.411389393397,-4.4708884852822e-05,-4.4708884852822e-05,-4.4708884852822e-05,4508624.6777821,0.014389302860603
16619200,0.97866537920972,0.014908613142433,0.0040970850545678,0.006714443031387,0.0040970850564785,-0.00086385148986419,0.00086385097837133,-9.672681254389e-11,-4.2858939413835e-10,2.4131014291486e-09,-3.0507849628782e-09,-0.0010464240415524,0.0010464254371485,-0.0010464241483357,0.0010464253379032,-0.0010464257742005,0.0010464236567692,-0.0010464258938092,0.0010464235409485,-0.00086453406202893,0.00086453206829278,-0.00086453442441483,0.00086453173967477,-1.365340200147e-09,4.0139520159918e-09,8.4841126326534e-10,1.7032944665821e-09,-0.0017101896125901,0.0017101921548292,-0.0018956919138347,0.0018956923666425,-0.0018956916485171,0.001895692647221,-0.0018956901570864,0.0018956941425764,-0.0018956899071481,0.0018956944082873,-0.0015013405000268,0.001501344044229,-0.001501339683316,0.0015013448254334,-0.0015013434039429,0.0015013410133851,-0.0015013381581563,0.0015013464230092,1.2909155851613e-10,4.7340523281026e-10,-0.00086385094067352,0.00086385152570662,7.5363378224056e-10,-1.0668043558059e-10,-0.0010464243554854,0.0010464251054515,-0.0010464246614534,0.0010464248163187,-0.0010464242310251,0.0010464252257776,-0.0010464245526939,0.0010464249225363,-0.00086453276624611,0.0008645333638822,-0.00086453307357993,0.00086453303715594,0.70235633241625,128566,2924,0.0035963012235851,0.007096961604003,0.0035963012197051,24.157650233966,-4.6738798128273e-05,-4.6738798128273e-05,-4.6738798128273e-05,4505062.1541857,0.014393450510938
16819200,0.97936431218004,0.014919109445306,0.0040999635824172,0.0067191822785659,0.0040999635843228,-0.00086390891306712,0.00086390839994766,-9.5146572469875e-11,-4.3177861254341e-10,2.4210749403666e-09,-3.0603895208185e-09,-0.0010468560616368,0.0010468574631319,-0.0010468561700881,0.0010468573621046,-0.001046857800352,0.0010468556768823,-0.0010468579212343,0.0010468555593987,-0.00086476922653681,0.00086476722942783,-0.00086476959170312,0.0008647668951573,-1.3734267957541e-09,4.0230400929455e-09,8.67744915812e-10,1.6845526470141e-09,-0.0017110713339965,0.0017110738766107,-0.0018965285393618,0.0018965289990351,-0.0018965282864163,0.0018965292671315,-0.0018965267771814,0.0018965307805503,-0.0018965265393668,0.0018965310340164,-0.001502181007975,0.0015021845951934,-0.0015021802319507,0.0015021853435629,-0.001502183946184,0.001502181526829,-0.0015021786831602,0.0015021869530706,1.2911769980577e-10,4.7815379379324e-10,-0.00086390836097897,0.00086390895027218,7.3472676674867e-10,-8.4979410154264e-11,-0.0010468563838424,0.0010468571234829,-0.0010468566764223,0.001046856847741,-0.0010468562579236,0.0010468572452467,-0.0010468565660177,0.0010468569556592,-0.0008647679173352,0.00086476853915662,-0.00086476822937747,0.00086476820743776,0.70571573039976,128566,2924,0.0035965538655983,0.0071005916825509,0.0035965538619007,23.90582115838,-4.8753430732961e-05,-4.8753430732961e-05,-4.8753430732961e-05,4481712.4713308,0.01439765297058
17019200,0.98003061996908,0.014928914510292,0.0041026447392924,0.0067236250298068,0.0041026447411928,-0.00086391025079683,0.00086390973554137,-9.3820025193513e-11,-4.3521266760362e-10,2.4323485729869e-09,-3.0740280370536e-09,-0.0010472311462297,0.0010472325553903,-0.0010472312562795,0.0010472324529056,-0.0010472328932015,0.0010472307610255,-0.0010472330156555,0.0010472306418043,-0.00086494964148521,0.00086494763882918,-0.00086495001087883,0.00086494729910238,-1.3857106689608e-09,4.0360237067756e-09,9.1941533284564e-10,1.6334303055901e-09,-0.0017118868369557,0.0017118893800878,-0.0018972928823712,0.0018972933678618,-0.0018972926626277,0.0018972936018262,-0.0018972911119443,0.0018972951578606,-0.0018972909074174,0.0018972953770597,-0.0015029618870438,0.0015029655842378,-0.0015029612117008,0.0015029662311471,-0.0015029649081564,0.0015029624307334,-0.0015029596205568,0.0015029678817643,1.313254826665e-10,4.8513297589192e-10,-0.0008639096931062,0.0008639102915362,6.8972616313328e-10,-3.0036020406407e-11,-0.0010472314853259,0.0010472321991245,-0.0010472317446503,0.0010472319566117,-0.0010472313577252,0.0010472323225169,-0.0010472316327278,0.00104723206606,-0.00086494830608066,0.00086494897493543,-0.00086494862249477,0.00086494863866055,0.69245977255617,128566,2924,0.0035965739241647,0.0071039469422972,0.003596573920607,23.654059446368,-5.0767524429054e-05,-5.0767524429054e-05,-5.0767524429054e-05,4459234.9832502,0.014401104231239
17219200,0.98065078234664,0.014937788502177,0.0041050616919945,0.0067276651162931,0.0041050616938898,-0.00086316262824004,0.00086316211267459,-9.1180937608107e-11,-4.3732096097e-10,2.4558793153356e-09,-3.0953804333996e-09,-0.001046759027966,0.0010467604513563,-0.0010467591388097,0.0010467603483811,-0.0010467607907553,0.0010467586449006,-0.0010467609134267,0.0010467585206628,-0.00086431880957103,0.00086431679575112,-0.00086431917396492,0.00086431644081026,-1.404184270605e-09,4.0681201217816e-09,1.0812295706494e-09,1.4808680027343e-09,-0.0017117509998881,0.0017117535488104,-0.0018971216912436,0.0018971222629733,-0.0018971215731043,0.001897122395294,-0.0018971199031844,0.0018971240711617,-0.0018971198024261,0.001897124186272,-0.001502810177111,0.0015028142063783,-0.0015028098603561,0.0015028145973447,-0.0015028134220562,0.0015028108041825,-0.0015028080831198,0.0015028162917059,1.3613429967956e-10,4.9428436545009e-10,-0.00086316206475373,0.00086316267391626,5.534369542633e-10,9.5045516031345e-11,-0.0010467594127234,0.0010467600543125,-0.0010467595848831,0.0010467598996316,-0.0010467592827521,0.0010467601802482,-0.0010467594734429,0.0010467600095862,-0.00086431741374875,0.00086431819216611,-0.00086431773008104,0.00086431785536231,0.6747598849147,128566,2924,0.0035934800080116,0.00710337190353,0.0035934800032229,22.993800890006,-5.604959287995e-05,-5.604959287995e-05,-5.604959287995e-05,4432628.5257535,0.01439424838686
17419200,0.98121675260302,0.014945530175924,0.0041071566691969,0.0067312168356353,0.0041071566710913,-0.00086178861805813,0.00086178809870151,-9.066097318384e-11,-4.4132330265689e-10,2.4841751798042e-09,-3.1269282594293e-09,-0.0010455453233805,0.0010455467654686,-0.0010455454364323,0.0010455466585575,-0.0010455471071251,0.0010455449371841,-0.0010455472298368,0.001045544812859,-0.00086299524187063,0.00086299320543547,-0.0008629956063572,0.00086299284942432,-1.4278013579427e-09,4.0971403473513e-09,1.257847313628e-09,1.3081910746018e-09,-0.0017107557893265,0.0017107583409971,-0.0018961104917308,0.0018961111627071,-0.0018961104872969,0.0018961111789391,-0.0018961086880712,0.0018961129864387,-0.0018961086976868,0.001896112988612,-0.0015018167542513,0.0015018211428154,-0.0015018167904892,0.0015018212121374,-0.0015018202576331,0.001501817473465,-0.0015018148604734,0.0015018230131657,1.4898059470282e-10,5.1185164447754e-10,-0.00086178803767868,0.00086178867660065,3.6025469605456e-10,3.1400374681008e-10,-0.0010455457710226,0.0010455463069424,-0.0010455458075942,0.0010455462879004,-0.0010455456410057,0.0010455464328411,-0.0010455456930315,0.0010455464005631,-0.0008629937460758,0.00086299470077234,-0.00086299407056034,0.00086299435724723,0.64747799416998,128566,2924,0.0035877803142782,0.0070992479005093,0.0035877803089717,21.99025178913,-6.4077985686959e-05,-6.4077985686959e-05,-6.4077985686959e-05,4404043.505767,0.014378503417384
17619200,0.98173369483324,0.014952321434021,0.0041089846852036,0.0067343520617163,0.0041089846871014,-0.00086039045435238,0.00086038993105917,-9.0459787916309e-11,-4.4600047594585e-10,2.5006911105553e-09,-3.1498624511878e-09,-0.0010442025657621,0.0010442040182044,-0.0010442026810542,0.0010442039124812,-0.001044204360674,0.0010442021774969,-0.0010442044877382,0.00104420205223,-0.00086159356773679,0.00086159152423451,-0.00086159395027732,0.00086159116812097,-1.4545948412437e-09,4.1148821361165e-09,1.4255778414579e-09,1.1349872896233e-09,-0.0017095686340075,0.0017095711835694,-0.0018949426082627,0.0018949433786314,-0.0018949427124703,0.0018949432793256,-0.001894940789419,0.0018949452184401,-0.0018949409097319,0.001894945102924,-0.0015006265165519,0.0015006312565255,-0.0015006268407201,0.0015006309307449,-0.0015006302830063,0.0015006273387654,-0.0015006248480758,0.001500632928682,1.599614528058e-10,5.2779842941439e-10,-0.00086038985686251,0.0008603905265481,2.4032788188347e-10,4.9078520269913e-10,-0.001044203056142,0.0010442035145842,-0.0010442029931222,0.0010442035943017,-0.001044202923086,0.0010442036429323,-0.0010442028772187,0.0010442037076693,-0.00086159200838472,0.00086159308395698,-0.00086159233724988,0.00086159273724476,0.62390235032647,128566,2924,0.0035819762127864,0.0070943350050256,0.0035819762085498,20.978829612765,-7.2169363097882e-05,-7.2169363097882e-05,-7.2169363097882e-05,4381749.1627154,0.014361744316327
17819200,0.98220706522289,0.01495831740793,0.0041105908415859,0.0067371357228625,0.0041105908434812,-0.00085902241231357,0.0008590218861541,-8.9633238891079e-11,-4.4996086771343e-10,2.5094088193713e-09,-3.163812004215e-09,-0.0010428099327412,0.0010428113932286,-0.0010428100516932,0.0010428112862156,-0.0010428117358203,0.0010428095441036,-0.0010428118646349,0.0010428094192846,-0.00086017749328979,0.00086017544224047,-0.00086017788029407,0.0008601750857186,-1.4650172651988e-09,4.1227851233915e-09,1.5201450918462e-09,1.0390809846127e-09,-0.0017082808541617,0.0017082834032876,-0.0018937042228939,0.0018937050520407,-0.0018937043889134,0.0018937048866161,-0.0018937023992384,0.0018937068972232,-0.0018937025796227,0.0018937067175618,-0.0014993288164591,0.0014993337461725,-0.0014993293003735,0.0014993332098955,-0.0014993327179192,0.0014993296880425,-0.0014993272675311,0.0014993353053415,1.6825112719245e-10,5.4086611637786e-10,-0.00085902180223958,0.00085902249470504,1.4492165868398e-10,6.2196251268816e-10,-0.0010428104552078,0.0010428108566368,-0.0010428103182719,0.001042811010102,-0.0010428103212252,0.0010428109854709,-0.001042810199504,0.0010428111258886,-0.00086017588093554,0.00086017705883401,-0.00086017621684891,0.00086017670308488,0.60341629863637,128566,2924,0.0035762938883999,0.0070890100633828,0.0035762938851878,19.989152521721,-8.0086779826235e-05,-8.0086779826235e-05,-8.0086779826235e-05,4365104.8518342,0.014344812891477
18019200,0.98264151365646,0.014963817528256,0.0041120667228822,0.0067396840806037,0.0041120667247705,-0.00085768630804363,0.00085768578178929,-8.7401332390467e-11,-4.5243501982162e-10,2.5095288637831e-09,-3.1644702330183e-09,-0.0010413844661593,0.0010413859283097,-0.0010413845866774,0.0010413858205324,-0.0010413862692131,0.0010413840794174,-0.0010413864002059,0.0010413839529105,-0.0008587630325031,0.00085876098674526,-0.00085876342404551,0.00085876062282584,-1.4663570325639e-09,4.1236676908415e-09,1.5731431612033e-09,9.8576604775919e-10,-0.0017069161081371,0.0017069186573152,-0.0018924127196775,0.0018924135830235,-0.0018924129193719,0.0018924133824036,-0.0018924108950356,0.0018924154294427,-0.0018924111098967,0.0018924152138356,-0.0014979481119119,0.0014979531489155,-0.0014979486983948,0.0014979525012026,-0.001497952083857,0.0014979490171068,-0.0014979466330092,0.0014979546360798,1.6992329708124e-10,5.4728950712333e-10,-0.00085768569396173,0.00085768639456537,1.0366677922753e-10,6.7402201587777e-10,-0.0010413850023178,0.0010413853779064,-0.0010413848339913,0.0010413855628712,-0.0010413848663916,0.0010413855087269,-0.0010413847140074,0.001041385679866,-0.00085876140214735,0.00085876262220107,-0.00085876174137565,0.00085876226283548,0.6026570489096,128566,2924,0.0035707417026204,0.0070833700376667,0.003570741699862,19.017783332595,-8.7857733339236e-05,-8.7857733339236e-05,-8.7857733339236e-05,4352833.0457252,0.014327824834728
18219200,0.98304065999049,0.014968975149215,0.0041134578954673,0.0067420593563987,0.0041134578973487,-0.00085634099059721,0.00085634046576439,-8.4283029385939e-11,-4.5397955985596e-10,2.5059356756297e-09,-3.1588854972752e-09,-0.0010399432717711,0.0010399447336696,-0.0010399433937913,0.0010399446241205,-0.0010399450720146,0.0010399428878512,-0.0010399452042283,0.0010399427595694,-0.00085733944102607,0.00085733740389591,-0.0008573398367015,0.00085733703588438,-1.4611127787134e-09,4.1196962764596e-09,1.5884347789373e-09,9.7132119674536e-10,-0.001705499268129,0.0017055018175866,-0.0018910632043287,0.0018910640799537,-0.0018910634137888,0.0018910638697584,-0.0018910613826752,0.0018910659231768,-0.0018910616071235,0.0018910656980863,-0.0014965209442292,0.0014965260074178,-0.0014965215657572,0.0014965253382218,-0.0014965249284666,0.0014965218618615,-0.0014965194854335,0.0014965274703374,1.6787877424957e-10,5.4995202249671e-10,-0.00085634037689223,0.00085634107787101,8.7183787065739e-11,6.8812825266526e-10,-0.0010399438132395,0.0010399441785938,-0.0010399436348843,0.0010399443736467,-0.0010399436758532,0.0010399443109388,-0.0010399435133659,0.0010399444922587,-0.00085733780629065,0.00085733904207621,-0.0008573381504819,0.00085733867850562,0.61338752752576,128566,2924,0.0035651509705545,0.0070775150162825,0.003565150967177,18.046833103438,-9.5625335172497e-05,-9.5625335172497e-05,-9.5625335172497e-05,4340345.0452881,0.014310540949151
18419200,0.98341703036817,0.014973876536936,0.0041147834813566,0.006744309572346,0.004114783483233,-0.00085567039191087,0.00085566986928529,-8.0490395917406e-11,-4.5597033878099e-10,2.4862558666432e-09,-3.1393824946374e-09,-0.0010392460526321,0.0010392475075945,-0.0010392461806952,0.0010392473969961,-0.0010392478411973,0.0010392456733694,-0.001039247974605,0.0010392455456541,-0.00085663499370591,0.00085663297408288,-0.00085663540045126,0.00085663261714873,-1.4415952155498e-09,4.0887026832337e-09,1.4605873037663e-09,1.0921124295973e-09,-0.0017048757500606,0.0017048782940358,-0.0018904882851331,0.0018904890963421,-0.001890488417194,0.0018904889635288,-0.0018904864820037,0.0018904909216366,-0.0018904866256137,0.0018904907765127,-0.0014958775787465,0.0014958823648075,-0.0014958778906427,0.0014958818950187,-0.001495881376414,0.0014958784296098,-0.0014958759850019,0.0014958840094088,1.6121929606705e-10,5.4741798018432e-10,-0.00085566978264165,0.00085567047742064,1.8387156655574e-10,6.1005015893603e-10,-0.0010392465666041,0.0010392469775854,-0.001039246449105,0.0010392471101622,-0.0010392464287895,0.0010392471093326,-0.0010392463240128,0.0010392472320907,-0.00085663340033084,0.00085663457682943,-0.00085663375486481,0.00085663419766148,0.61738404671011,128566,2924,0.0035623648153746,0.0070749380178268,0.0035623648130429,17.474740433269,-0.00010020207653385,-0.00010020207653385,-0.00010020207653385,4333432.0703998,0.014302273476963
18619200,0.98377954709902,0.01497855130142,0.0041160466274018,0.0067464580447499,0.0041160466292686,-0.00085555523695538,0.00085555472041265,-7.5693818543302e-11,-4.5490604268171e-10,2.4550713776076e-09,-3.1016675429209e-09,-0.0010391537264422,0.0010391551638602,-0.0010391538526149,0.0010391550538916,-0.0010391554898837,0.0010391533546735,-0.0010391556272588,0.0010391532238831,-0.00085651392222082,0.00085651194113263,-0.00085651433780675,0.00085651157006594,-1.4165542803567e-09,4.0588488584829e-09,1.3027989079759e-09,1.245557914296e-09,-0.0017049028012061,0.0017049053425235,-0.0018905593064561,0.0018905600295671,-0.0018905593349684,0.001890560004706,-0.0018905575186352,0.0018905618387846,-0.0018905575636407,0.0018905617974606,-0.0014958721187767,0.0014958765913547,-0.0014958721449749,0.0014958764138989,-0.0014958756845134,0.0014958728937676,-0.0014958703521803,0.0014958784067577,1.4089629531416e-10,5.3295149687178e-10,-0.00085555464803465,0.00085555530797223,3.6378516799518e-10,3.9017134657087e-10,-0.0010391541837185,0.0010391546895881,-0.0010391541956159,0.0010391546937575,-0.0010391540420599,0.0010391548260259,-0.0010391540711127,0.0010391548154043,-0.0008565124309019,0.00085651343478809,-0.00085651278543618,0.00085651306003884,0.61178641660481,128566,2924,0.0035618870589473,0.0070750496907285,0.003561887056147,17.230327901182,-0.00010215737679054,-0.00010215737679054,-0.00010215737679054,4332146.7635009,0.014301417225223
18819200,0.98412899020809,0.014983367815282,0.0041173633895468,0.0067486410343273,0.0041173633914075,-0.00085546453062824,0.00085546401917665,-7.0585482967094e-11,-4.5460654416227e-10,2.4349554749618e-09,-3.0737011726273e-09,-0.0010390691222216,0.0010390705507729,-0.0010390692481354,0.001039070435086,-0.0010390708704569,0.0010390687556552,-0.0010390710074722,0.001039068623206,-0.00085641501188332,0.00085641305317577,-0.00085641542231011,0.00085641267298362,-1.387123313982e-09,4.0360298693521e-09,1.1345632099904e-09,1.4173185705964e-09,-0.0017049305995788,0.0017049331415451,-0.0018906374791259,0.0018906381047827,-0.0018906373987108,0.0018906381949585,-0.0018906357086973,0.0018906398949182,-0.001890635642679,0.0018906399707559,-0.0014958655357207,0.0014958696545194,-0.0014958652707751,0.0014958698680422,-0.0014958688361739,0.001495866212926,-0.0014958635482557,0.0014958716683165,1.2366801127163e-10,5.1992641022409e-10,-0.00085546396107256,0.00085546458722203,4.9097526666027e-10,2.0481683935012e-10,-0.0010390695378444,0.001039070119087,-0.0010390696538741,0.0010390700197419,-0.0010390693960387,0.0010390702559829,-0.0010390695271611,0.0010390701433582,-0.00085641359313815,0.00085641447519138,-0.00085641395213292,0.00085641409609641,0.64922938474017,128566,2924,0.0035615103895609,0.0070751651785919,0.0035615103863833,16.993411889205,-0.00010405270488636,-0.00010405270488636,-0.00010405270488636,4331851.0663207,0.014300769589493
19019200,0.9844659335711,0.01498831332706,0.0041187284559971,0.0067508564132088,0.0041187284578537,-0.00085535017056651,0.00085534966263106,-6.6493431270582e-11,-4.5516775816836e-10,2.4205529871446e-09,-3.0544066396797e-09,-0.0010390616647921,0.0010390630865173,-0.0010390617913894,0.001039062968941,-0.0010390634016477,0.0010390613027888,-0.0010390635399465,0.0010390611679377,-0.00085634680599821,0.00085634486678818,-0.00085634721996485,0.00085634447983104,-1.371221034668e-09,4.0190672174318e-09,1.0046946165632e-09,1.5458499182285e-09,-0.0017050457545445,0.0017050482950271,-0.0018907437510922,0.001890744300507,-0.0018907435874189,0.0018907444779097,-0.0018907419909201,0.0018907460798758,-0.0018907418421851,0.0018907462423162,-0.0014959706098127,0.0014959744629202,-0.0014959701040497,0.0014959749422497,-0.0014959737215995,0.0014959712156487,-0.0014959684643812,0.0014959766347521,1.0989999315638e-10,5.1093113415733e-10,-0.00085534961459881,0.00085535021697756,6.0692690988775e-10,5.7692817816297e-11,-0.0010390620451469,0.0010390626901649,-0.0010390622481241,0.0010390625038112,-0.0010390619015974,0.0010390628290639,-0.0010390621202716,0.0010390626288424,-0.0008563454488838,0.00085634622620926,-0.00085634581164855,0.00085634584342997,0.68719102579084,128566,2924,0.0035610392333775,0.0070756372364042,0.0035610392299573,16.756759567481,-0.00010594592346015,-0.00010594592346015,-0.00010594592346015,4323831.5645207,0.014300294581622
19219200,0.9848013796411,0.014993392193731,0.004120136416266,0.0067531193593462,0.0041201364181185,-0.0008560797605918,0.00085607925259555,-6.4668695829336e-11,-4.5843065092971e-10,2.3988563088254e-09,-3.0375485270364e-09,-0.0010400414796665,0.0010400428910038,-0.0010400416086724,0.0010400427748233,-0.0010400432007388,0.0010400411198075,-0.0010400433450643,0.0010400409856634,-0.00085720883110813,0.00085720691588549,-0.00085720926720787,0.00085720653020552,-1.3649483097073e-09,3.9909231261556e-09,8.4260126116868e-10,1.6932282696857e-09,-0.0017062596325266,0.0017062621645201,-0.0018918987004258,0.0018918991595376,-0.0018918984349306,0.001891899436857,-0.0018918969510079,0.0018919009286512,-0.001891896702506,0.0018919011892531,-0.0014971724576807,0.0014971759917064,-0.0014971715666882,0.0014971766733569,-0.001497175365834,0.0014971729813013,-0.0014971701543815,0.0014971783825977,9.8281471880997e-11,5.0445257319194e-10,-0.00085607921182705,0.00085607980125371,7.936932653332e-10,-1.0319615155892e-10,-0.001040041807427,0.0010400425407616,-0.0010400421245672,0.0010400422391784,-0.0010400416606065,0.0010400426821138,-0.0010400419946609,0.0010400423649999,-0.0008572075582507,0.00085720819498388,-0.00085720792619188,0.00085720780640537,0.70677989437035,128566,2924,0.003564078385268,0.0070806465389395,0.0035640783851398,17.022750203639,-0.00010381799837089,-0.00010381799837089,-0.00010381799837089,4319261.4145903,0.014311546198567
19419200,0.98514049195049,0.014998413388824,0.0041215230747287,0.0067553672375153,0.00412152307658,-0.00085721666296619,0.00085721615754573,-6.0841045423193e-11,-4.5921295686415e-10,2.3905914736229e-09,-3.024820348697e-09,-0.0010415005091276,0.001041501917781,-0.0010415006391821,0.0010415017979226,-0.0010415022245778,0.0010415001530322,-0.0010415023684402,0.0010415000168514,-0.00085851589215438,0.00085851398776069,-0.00085851632538149,0.00085851359608966,-1.3498496746661e-09,3.9818273576722e-09,7.0453479318098e-10,1.8348609800213e-09,-0.0017080211287581,0.0017080236619511,-0.0018935840044955,0.0018935843781399,-0.001893583649879,0.0018935847498825,-0.0018935822633579,0.0018935861382888,-0.0018935819242673,0.0018935864948557,-0.0014989174368356,0.0014989206865668,-0.0014989163046494,0.0014989216857598,-0.0014989201408141,0.0014989178745951,-0.0014989149480942,0.0014989232469504,8.4702625187061e-11,4.9543742403652e-10,-0.00085721612761998,0.00085721669224159,8.9792716676495e-10,-2.5113170393798e-10,-0.0010415008045389,0.001041501601607,-0.0010415012062436,0.0010415012160209,-0.0010415006572449,0.0010415017438876,-0.0010415010746023,0.0010415013441058,-0.00085851467153672,0.00085851521246688,-0.0008585150446092,0.0008585148185774,0.69264759560788,128566,2924,0.0035688117199138,0.0070879171272099,0.0035688117186014,17.539659472899,-9.9682724216805e-05,-9.9682724216805e-05,-9.9682724216805e-05,4317398.0312197,0.014328529977016
19619200,0.98548313493161,0.015003355707208,0.0041228819739369,0.0067575917574865,0.0041228819757844,-0.0008583565214838,0.0008583560173316,-5.7602579723744e-11,-4.6053497323148e-10,2.3926418710895e-09,-3.0230492377444e-09,-0.0010429241331939,0.0010429255441139,-0.0010429242636322,0.0010429254209408,-0.0010429258497933,0.0010429237793636,-0.0010429259931507,0.0010429236401131,-0.00085980890687747,0.00085980700527181,-0.00085980933598019,0.00085980660496712,-1.3449870993909e-09,3.9859878471603e-09,6.4258749939298e-10,1.9025339266592e-09,-0.0017097561940686,0.001709758730089,-0.0018952728618911,0.0018952731916608,-0.0018952724662998,0.0018952736085806,-0.0018952711208954,0.0018952749511657,-0.0018952707402984,0.0018952753532926,-0.0015006224244266,0.001500625547925,-0.0015006212078989,0.0015006267264048,-0.0015006250346126,0.0015006228187099,-0.0015006198371856,0.0015006281822106,7.6174598177505e-11,4.9142205630343e-10,-0.00085835599421727,0.00085835654328181,9.3802716579633e-10,-3.2868842530893e-10,-0.001042924416786,0.0010429252422674,-0.0010429248577185,0.0010429248178827,-0.0010429242684801,0.0010429253859336,-0.0010429247249269,0.0010429249476828,-0.00085980770721372,0.00085980820723664,-0.00085980808430321,0.00085980780978409,0.67638955360545,128566,2924,0.0035735562049212,0.0070950795767616,0.0035735562021584,18.062364916277,-9.5501080669785e-05,-9.5501080669785e-05,-9.5501080669785e-05,4319152.6494334,0.014345425627899
19819200,0.98582903525707,0.015008193566493,0.0041242052629584,0.0067597830387335,0.0041242052648015,-0.00085949203452712,0.00085949152957507,-5.5649195014115e-11,-4.6327307381046e-10,2.3982344735996e-09,-3.0290720193408e-09,-0.0010443006860043,0.0010443021014416,-0.0010443008177698,0.0010443019763852,-0.0010443024065196,0.0010443003328194,-0.0010443025511905,0.0010443001917976,-0.00086107640493262,0.00086107450278915,-0.00086107683638355,0.0008610740960625,-1.3500063205865e-09,3.9924515078764e-09,6.240241676665e-10,1.9219663399535e-09,-0.0017114506258861,0.0017114531624949,-0.001896950279535,0.0018969505933302,-0.0018969498721624,0.0018969510232755,-0.0018969485347794,0.0018969523566309,-0.0018969481423528,0.001896952771837,-0.0015022711025611,0.0015022741928424,-0.0015022698568164,0.0015022754173507,-0.0015022736940665,0.0015022714803177,-0.0015022684843824,0.0015022768537654,7.2756086594143e-11,4.9269504776782e-10,-0.00085949150844291,0.00085949205440745,9.5220413690547e-10,-3.5002439692785e-10,-0.0010443009678881,0.0010443018015968,-0.0010443014205496,0.0010443013655056,-0.0010443008180567,0.0010443019468096,-0.001044301286239,0.0010443014968982,-0.00086107520917109,0.00086107570126889,-0.00086107559051724,0.00086107529921662,0.65786896352567,128566,2924,0.0035782813380912,0.0071020754566846,0.0035782813354527,18.585274590429,-9.1317803276571e-05,-9.1317803276571e-05,-9.1317803276571e-05,4324069.8072029,0.014362111984783
20019200,0.98616859758439,0.015013124560801,0.004125561825346,0.0067620009082698,0.0041255618271853,-0.00085988687483173,0.00085988636680018,-5.4690332350829e-11,-4.6687047917323e-10,2.4226998576511e-09,-3.055135450415e-09,-0.0010448344110512,0.0010448358410122,-0.0010448345437022,0.0010448357139627,-0.0010448361489495,0.0010448340564117,-0.0010448362939847,0.001044833912326,-0.00086154662305557,0.00086154470438604,-0.00086154705158144,0.00086154428683293,-1.3711044014664e-09,4.0230573134783e-09,7.5871997244918e-10,1.7936832890891e-09,-0.0017122207771461,0.0017122233180252,-0.0018977300642445,0.0018977304481923,-0.0018977297421052,0.0018977307920456,-0.0018977283023652,0.0018977322289042,-0.0018977279955341,0.0018977325575511,-0.0015030030667863,0.0015030064362382,-0.0015030021111459,0.0015030074385763,-0.0015030058538293,0.0015030035107111,-0.0015030005906953,0.0015030089278402,7.9675743464405e-11,5.0412517665738e-10,-0.00085988633915937,0.000859886901117,8.2758289761644e-10,-2.2333626483703e-10,-0.001044834734181,0.0010448355024635,-0.0010448351033217,0.0010448351502603,-0.0010448345827915,0.0010448356494097,-0.00104483496814,0.0010448352829529,-0.00086154536447147,0.000861545967205,-0.00086154574832816,0.0008615455621568,0.68048385472793,128566,2924,0.0035799269658912,0.0071052532368607,0.0035799269629809,18.671776534802,-9.0625787721588e-05,-9.0625787721588e-05,-9.0625787721588e-05,4323669.345775,0.014368675646354
20219200,0.98649941863275,0.015018073616284,0.0041269292921668,0.006764215030116,0.0041269292940011,-0.00086006137763865,0.00086006086554229,-5.4271892288297e-11,-4.711918180164e-10,2.4486012055316e-09,-3.0853612253324e-09,-0.001045178162584,0.0010451796084773,-0.0010451782974724,0.0010451794803825,-0.0010451799192613,0.0010451778054723,-0.0010451800658688,0.0010451776599454,-0.000861810740662,0.00086180880425776,-0.0008618111771396,0.0008618083860044,-1.3980986386345e-09,4.0520110466675e-09,9.3134698022435e-10,1.6231504866315e-09,-0.0017127828259726,0.0017127853688842,-0.001898269594693,0.0018982700751499,-0.0018982693835636,0.0018982703044601,-0.0018982678148264,0.0018982718744473,-0.0018982676187146,0.0018982720886738,-0.0015035465250601,0.001503550251949,-0.0015035459005691,0.0015035509117208,-0.0015035495746255,0.0015035470640852,-0.0015035442552909,0.0015035525363848,9.0741095017423e-11,5.1990964478543e-10,-0.00086006082563779,0.00086006141560363,6.7241631137855e-10,-3.5294356032569e-11,-0.0010451785379367,0.0010451792185357,-0.0010451787934549,0.0010451789798514,-0.0010451783850131,0.0010451793669149,-0.0010451786566425,0.0010451791142146,-0.0008618093993686,0.00086181014532836,-0.00086180978900533,0.0008618097360358,0.69908661318773,128566,2924,0.0035806586669883,0.0071075689453105,0.0035806586628705,18.638346074735,-9.0893231402116e-05,-9.0893231402116e-05,-9.0893231402116e-05,4316930.470032,0.014372511798317
20419200,0.98682167905139,0.015022901753036,0.0041282635609829,0.0067663746292398,0.004128263562813,-0.0008602083839113,0.00086020786712645,-5.4377050472846e-11,-4.7607247915016e-10,2.467644260011e-09,-3.1115875093728e-09,-0.0010455333658507,0.001045534824553,-0.0010455335036661,0.0010455346961826,-0.0010455351371328,0.0010455330063325,-0.0010455352866064,0.0010455328606209,-0.00086206695168429,0.00086206500156006,-0.00086206739749249,0.00086206458165708,-1.422382658245e-09,4.0725870636725e-09,1.0943901195448e-09,1.4581376528368e-09,-0.0017133596492119,0.0017133621918531,-0.0018987995274213,0.0018988001032465,-0.0018987994215421,0.0018988002213862,-0.0018987977333591,0.0018988019176037,-0.0018987976424165,0.0018988020208544,-0.0015041154619053,0.0015041195263474,-0.0015041151285146,0.0015041198284212,-0.0015041187575391,0.001504116091653,-0.0015041133980857,0.0015041216153212,1.0327905052641e-10,5.3731013670821e-10,-0.00086020781371313,0.00086020843586933,5.3112890202368e-10,1.5539086516757e-10,-0.0010455337893041,0.0010455343853476,-0.0010455339347191,0.0010455342564735,-0.0010455336345642,0.0010455345350803,-0.0010455337957771,0.0010455343924215,-0.00086206553424998,0.00086206642154225,-0.00086206592940545,0.00086206600647865,0.69998402525212,128566,2924,0.0035812776549619,0.0071099437688925,0.0035812776518922,18.602089764499,-9.1183281884005e-05,-9.1183281884005e-05,-9.1183281884005e-05,4307258.7221588,0.014376180219971
20619200,0.98713561178283,0.015027093292483,0.0041294006710379,0.00676829194858,0.0041294006728647,-0.00086031785207218,0.00086031733269475,-5.3271417752843e-11,-4.7968921154692e-10,2.4820883454471e-09,-3.1292056752381e-09,-0.0010458533837184,0.0010458548521991,-0.0010458535236707,0.0010458547228386,-0.0010458551657426,0.0010458530235315,-0.0010458553169599,0.0010458528764423,-0.00086227483249688,0.00086227287407442,-0.00086227528423555,0.0008622724508174,-1.4378876188732e-09,4.08917199972e-09,1.2376801010754e-09,1.3158626461229e-09,-0.0017138949600946,0.0017138975038289,-0.001899293281626,0.0018992939417725,-0.0018992932674348,0.0018992939640084,-0.0018992914772435,0.0018992957668937,-0.001899291478018,0.0018992957742954,-0.0015046400022804,0.001504644359007,-0.0015046399435651,0.0015046443745966,-0.0015046435038588,0.0015046407130332,-0.0015046381135166,0.0015046462692615,1.1216070258039e-10,5.5089921813084e-10,-0.00086031726884571,0.00086031791431853,4.0290191068202e-10,3.1151253500405e-10,-0.0010458538492146,0.0010458543713139,-0.0010458539003578,0.0010458543366782,-0.0010458536928556,0.001045854522559,-0.0010458537598132,0.0010458544741852,-0.00086227335074104,0.00086227435833787,-0.00086227375074319,0.00086227393881012,0.63099126443709,128566,2924,0.0035817405697676,0.0071121468710882,0.0035817405663961,18.565733523445,-9.147413181244e-05,-9.147413181244e-05,-9.147413181244e-05,4298075.0032292,0.014379357687224
20819200,0.98742679264025,0.015031297462583,0.004130557154943,0.0067701831508732,0.0041305571567666,-0.00085911892204402,0.00085911840232045,-5.1176639772608e-11,-4.8110347651115e-10,2.5082633879627e-09,-3.1503932257377e-09,-0.0010445853434956,0.0010445868271743,-0.0010445854805438,0.0010445866928713,-0.0010445871422319,0.0010445849833089,-0.0010445872926932,0.0010445848328481,-0.00086102981327289,0.00086102784026509,-0.00086103024849052,0.0008610273905932,-1.4543966255344e-09,4.1283049201773e-09,1.4919854587507e-09,1.0754893423035e-09,-0.0017126618449985,0.0017126643983937,-0.0018981099926926,0.001898110797472,-0.0018981101367318,0.0018981106619119,-0.0018981081690862,0.0018981126404673,-0.0018981083287257,0.0018981124907747,-0.0015033993896521,0.0015034042692167,-0.0015033999358535,0.0015034039009064,-0.0015034032318244,0.0015034002357492,-0.0015033977738491,0.0015034058141504,1.2068460853754e-10,5.6442984452122e-10,-0.0008591183302498,0.00085911899153054,1.7726046619679e-10,5.0389546870329e-10,-0.0010445858752899,0.0010445862857664,-0.0010445857861955,0.0010445863943896,-0.0010445857183499,0.0010445864396292,-0.0010445856454668,0.0010445865329913,-0.0008610282359639,0.00086102941201425,-0.00086102863597398,0.00086102899929761,0.67642719717671,128566,2924,0.0035767598511955,0.0071070490071899,0.0035767598456188,17.741305950159,-9.8069552398726e-05,-9.8069552398726e-05,-9.8069552398726e-05,4285917.2405148,0.014364078651897
21019200,0.98769563282072,0.015035049672981,0.0041315843360906,0.0067718809989768,0.0041315843379135,-0.00085773143033936,0.0008577309064988,-5.0554803631407e-11,-4.8634159620475e-10,2.5207309414129e-09,-3.1704379696787e-09,-0.0010432167424846,0.0010432182354083,-0.0010432168859472,0.0010432181029801,-0.0010432185521382,0.0010432163811246,-0.0010432187052718,0.0010432162298534,-0.00085963045638582,0.00085962847445193,-0.00085963091110528,0.00085962803807532,-1.4728852217204e-09,4.134943977241e-09,1.6378127261808e-09,9.2339650216482e-10,-0.0017112991740693,0.0017113017236403,-0.0018967298066051,0.0018967307030731,-0.0018967300481993,0.0018967304622379,-0.0018967279759462,0.0018967325550643,-0.0018967282323185,0.001896732299436,-0.0015020649323176,0.0015020700991185,-0.0015020656794568,0.0015020693679381,-0.0015020689937655,0.0015020658700616,-0.0015020635184995,0.0015020714973316,1.3638914944922e-10,5.8427449568654e-10,-0.00085773081656854,0.00085773151821027,3.7316779615645e-11,7.248314590178e-10,-0.0010432173234851,0.0010432176427907,-0.001043217116503,0.0010432178667635,-0.0010432171643269,0.001043217797063,-0.0010432169732682,0.0010432180073901,-0.00085962879840735,0.0008596301339004,-0.00085962920697776,0.00085962970709242,0.65601667152439,128566,2924,0.0035709986507127,0.0071014119202381,0.0035709986463381,16.830490038623,-0.00010535607969101,-0.00010535607969101,-0.00010535607969101,4264083.6449963,0.014346672361371
21219200,0.98794401994781,0.015038540863158,0.0041325424542506,0.0067734559528359,0.0041325424560716,-0.00085634938499946,0.00085634885981976,-4.898044822137e-11,-4.8952528648561e-10,2.5224104377415e-09,-3.1755396717369e-09,-0.0010417871431273,0.0010417886392884,-0.00104178728924,0.0010417885063501,-0.0010417889546419,0.0010417867825248,-0.0010417891105792,0.0010417866310272,-0.00085820597099814,0.00085820399153943,-0.00085820643609369,0.0008582035547695,-1.4782546859811e-09,4.1357956668107e-09,1.7273299997836e-09,8.3125912548667e-10,-0.0017098455455343,0.0017098480938228,-0.0018952844741235,0.0018952854292942,-0.001895284773746,0.0018952851261223,-0.001895282641707,0.0018952872833212,-0.0018952829560217,0.0018952869656492,-0.0015006330947739,0.0015006384416926,-0.0015006339915577,0.0015006374992638,-0.0015006372828024,0.0015006340891814,-0.0015006318052692,0.0015006397290593,1.4195210142765e-10,5.9474785901373e-10,-0.00085634876146111,0.00085634948147766,-3.9984926487943e-11,8.3577411139427e-10,-0.001041787749968,0.001041788019559,-0.0010417874806468,0.0010417883056733,-0.0010417875890481,0.0010417881752631,-0.0010417873353538,0.0010417884479193,-0.00085820427491029,0.00085820568979651,-0.00085820468901016,0.0008582052573101,0.65967104177843,128566,2924,0.0035652576275948,0.0070954016943942,0.0035652576236352,15.917504775382,-0.00011265996179694,-0.00011265996179694,-0.00011265996179694,4246513.441617,0.014328927229215
21419200,0.98817700912097,0.015041839946295,0.0041334498986621,0.0067749401471523,0.0041334499004804,-0.00085535114683445,0.00085535062398021,-4.5592163510553e-11,-4.9081085569658e-10,2.507151399106e-09,-3.1589234152051e-09,-0.0010407669912594,0.0010407684808074,-0.0010407671390665,0.0010407683470395,-0.0010407687915772,0.0010407666345835,-0.0010407689500428,0.0010407664820165,-0.00085718363572869,0.00085718167555973,-0.00085718411066336,0.00085718123680556,-1.4655201166605e-09,4.1175318014652e-09,1.6852927814035e-09,8.6948720382159e-10,-0.001708823795213,0.0017088263408604,-0.0018942663202166,0.0018942672581802,-0.0018942665934322,0.0018942669811209,-0.0018942644977095,0.0018942691021359,-0.0018942647860899,0.0018942688101223,-0.0014996264688024,0.0014996317252595,-0.0014996272681926,0.0014996308388102,-0.0014996305889038,0.0014996274485435,-0.0014996251448091,0.0014996330614037,1.3573209206967e-10,5.9341264967157e-10,-0.00085535052757867,0.00085535124140703,5.6570172702408e-12,7.9275120938351e-10,-0.0010407675846161,0.0010407678732376,-0.0010407673444187,0.0010407681299768,-0.0010407674217295,0.0010407680307792,-0.0010407671974776,0.0010407682736165,-0.00085718196674635,0.00085718334591471,-0.00085718238565014,0.00085718290886276,0.66373456224672,128566,2924,0.0035611114168381,0.0070911765516163,0.0035611114130185,15.229330252441,-0.00011816535798047,-0.00011816535798047,-0.00011816535798047,4233074.1478159,0.014316229061603
21619200,0.98839602679506,0.015044970917453,0.004134313035984,0.0067763448436688,0.0041343130377998,-0.00085438732057123,0.00085438680161691,-4.1296987572656e-11,-4.9115542567342e-10,2.4885949165619e-09,-3.1355130342879e-09,-0.0010397917890497,0.0010397932699102,-0.001039791938123,0.0010397931344063,-0.0010397935758514,0.0010397914379449,-0.0010397937352845,0.0010397912831161,-0.00085620030666872,0.00085619836768388,-0.00085620078208211,0.00085619792134742,-1.4442544958401e-09,4.0968059728015e-09,1.5862451110066e-09,9.6841222737708e-10,-0.0017078382561105,0.0017078408008955,-0.0018932782833462,0.0018932791681404,-0.0018932784930286,0.0018932789577513,-0.0018932764743065,0.0018932809982266,-0.0018932766993605,0.0018932807726403,-0.0014986593155257,0.0014986643625775,-0.001498659933219,0.0014986636847646,-0.0014986632766151,0.0014986602434089,-0.0014986578730374,0.0014986658125332,1.243928500125e-10,5.8671264451711e-10,-0.00085438671298455,0.00085438740747587,9.1005110503401e-11,6.8073257383806e-10,-0.00103979235514,0.0010397926901543,-0.0010397921804868,0.0010397928814784,-0.0010397921907532,0.001039792849429,-0.0010397920323286,0.0010397930266847,-0.00085619868718985,0.00085619998973051,-0.00085619911004598,0.0008561995480254,0.66920857619857,128566,2924,0.0035571083550293,0.0070871008556393,0.0035571083513999,14.565047799157,-0.00012347961760674,-0.00012347961760674,-0.00012347961760674,4219621.8107279,0.014303973362477
21819200,0.98860203781394,0.015047871691572,0.004135111380223,0.0067776489293125,0.0041351113820364,-0.0008534118873317,0.00085341137204606,-3.7142669956634e-11,-4.9169194662174e-10,2.4699833021523e-09,-3.1123616559584e-09,-0.0010388153024181,0.001038816774715,-0.0010388154525126,0.0010388166366896,-0.0010388170754242,0.0010388149560893,-0.0010388172360437,0.0010388147997014,-0.00085520880656081,0.00085520688884767,-0.00085520928445812,0.00085520643682218,-1.4234425826297e-09,4.0750233949501e-09,1.4650288263162e-09,1.0884238365166e-09,-0.0017068405809816,0.0017068431242293,-0.001892269954703,0.0018922707723891,-0.0018922700867547,0.001892270642775,-0.0018922681595418,0.0018922725879194,-0.0018922683065637,0.0018922724435444,-0.0014976848146107,0.0014976896083486,-0.0014976852038893,0.0014976891782865,-0.0014976885900457,0.0014976856771734,-0.0014976832268832,0.0014976912030174,1.1179135511371e-10,5.7872205344082e-10,-0.00085341129237147,0.00085341196532358,1.9338084111275e-10,5.5094850890032e-10,-0.0010388158363461,0.0010388162268576,-0.0010388157387645,0.001038816341121,-0.0010388156706927,0.001038816387538,-0.0010388155889036,0.0010388164880244,-0.00085520724347032,0.0008552084549355,-0.00085520767078594,0.00085520800826643,0.65988857136563,128566,2924,0.0035530573269185,0.0070829746031727,0.0035530573233734,13.901367222655,-0.00012878906221876,-0.00012878906221876,-0.00012878906221876,4205440.2898776,0.01429156955311
22019200,0.98880774089835,0.015050720718467,0.0041358942057443,0.0067789323051672,0.0041358942075553,-0.00085402843523464,0.00085402792581078,-3.201967144234e-11,-4.9148015053866e-10,2.4320272431029e-09,-3.0700084571431e-09,-0.001039495440153,0.001039496893306,-0.0010394955915438,0.0010394967542083,-0.0010394971849281,0.0010394951005635,-0.0010394973492609,0.0010394949440334,-0.00085586357969883,0.00085586170328535,-0.00085586407745547,0.00085586125619352,-1.3906997319013e-09,4.0284463517292e-09,1.1890588650679e-09,1.355157891739e-09,-0.0017076554741311,0.0017076580108153,-0.0018930951447978,0.0018930958078002,-0.0018930951009181,0.0018930958581748,-0.0018930933751874,0.0018930975970356,-0.0018930933467772,0.0018930976321894,-0.0014984712283646,0.0014984754593629,-0.001498471046837,0.001498475514764,-0.0014984746166308,0.0014984719500472,-0.0014984693349238,0.0014984774045155,8.7050840763187e-11,5.5913201653903e-10,-0.00085402786326067,0.00085402849551921,4.5729836467239e-10,2.6229746298061e-10,-0.0010394958939265,0.0010394964217183,-0.0010394959791764,0.0010394963527905,-0.0010394957261628,0.0010394965843544,-0.0010394958273058,0.0010394965010824,-0.00085586214936586,0.00085586312881713,-0.00085586258319451,0.0008558626777105,0.64982381031929,128566,2924,0.0035556204407785,0.0070863417037727,0.0035556204361082,14.153719747768,-0.00012677024201785,-0.00012677024201785,-0.00012677024201785,4211694.6379659,0.014300185078907
22219200,0.9890143152454,0.015053557824188,0.0041366725747864,0.0067802126728074,0.0041366725765942,-0.00085481289466621,0.00085481239043048,-2.7014929256573e-11,-4.9111466504921e-10,2.4047892927073e-09,-3.0364932543331e-09,-0.0010403403122555,0.0010403417515365,-0.0010403404654177,0.0010403416118567,-0.0010403420380978,0.0010403399807418,-0.0010403422024689,0.0010403398203655,-0.00085667974786517,0.00085667789834047,-0.00085668023900569,0.00085667743846338,-1.3598310387423e-09,3.9993571106208e-09,9.4788370580344e-10,1.5965762728084e-09,-0.0017086521785625,0.0017086547141703,-0.0018941228759933,0.0018941233972395,-0.0018941226777586,0.0018941236095308,-0.0018941211254611,0.0018941251675745,-0.0018941209438056,0.0018941253633411,-0.0014994245401885,0.0014994282753956,-0.0014994239075381,0.0014994288295856,-0.0014994275675285,0.0014994251212613,-0.0014994223460344,0.0014994305139231,6.5417489965218e-11,5.4221895240903e-10,-0.00085481234641263,0.00085481293706595,6.7284235030453e-10,-9.0257922121773e-12,-0.0010403406991907,0.0010403413483995,-0.0010403409462947,0.0010403411176514,-0.0010403405295661,0.0010403415133111,-0.0010403407940011,0.0010403412675897,-0.0008566784283014,0.00085667921875399,-0.00085667886519163,0.00085667876174483,0.64497437473107,128566,2924,0.0035588805707655,0.0070904612193849,0.0035588805673978,14.500336172234,-0.00012399731062212,-0.00012399731062212,-0.00012399731062212,4221584.428838,0.014310977643582
22419200,0.98922169644143,0.015056535261921,0.0041374948962769,0.0067815454675618,0.0041374948980823,-0.00085560768737348,0.00085560718633735,-2.3007119628068e-11,-4.9183860652207e-10,2.3929058280717e-09,-3.0191059235923e-09,-0.001041186732452,0.0010411881667668,-0.0010411868850255,0.0010411880219711,-0.0010411884482692,0.0010411864037857,-0.0010411886134482,0.0010411862421938,-0.00085750399652122,0.00085750216347195,-0.00085750448880724,0.00085750169715293,-1.3430981736845e-09,3.9850513239469e-09,7.7548733280606e-10,1.7697626280842e-09,-0.0017096548502562,0.001709657385604,-0.001895164947499,0.0018951653635235,-0.0018951646377686,0.0018951656924671,-0.0018951632071775,0.0018951671220873,-0.0018951629126262,0.0018951674361066,-0.0015003778185314,0.0015003812019749,-0.0015003768754467,0.001500382131378,-0.001500380597918,0.0015003782971208,-0.0015003754010556,0.0015003836533699,4.8447908933094e-11,5.2974869925043e-10,-0.00085560715644218,0.00085560771546704,8.1253001626575e-10,-1.9709114080792e-10,-0.0010411870765645,0.0010411878059703,-0.0010411874322154,0.0010411874670756,-0.0010411869062367,0.0010411879718112,-0.0010411872777387,0.0010411876187694,-0.00085750274978173,0.00085750341050056,-0.00085750319111736,0.00085750294976578,0.67139356143628,128566,2924,0.0035621834198119,0.0070946057681237,0.0035621834160288,14.849335576003,-0.00012120531539198,-0.00012120531539198,-0.00012120531539198,4231877.6242163,0.014321882200096
22619200,0.98942964106496,0.015059555943906,0.0041383301047502,0.0067828957326025,0.0041383301065535,-0.00085636065601941,0.00085636015440688,-2.0921161314059e-11,-4.9451262698791e-10,2.3951419160365e-09,-3.0218075933817e-09,-0.0010420654936798,0.0010420669306201,-0.0010420656474658,0.0010420667838323,-0.0010420672110073,0.0010420651658395,-0.0010420673776851,0.0010420650026071,-0.00085832138615032,0.00085831955546265,-0.00085832188248188,0.00085831908388309,-1.3453972061565e-09,3.9876139618954e-09,7.0957542595781e-10,1.8357931674848e-09,-0.0017107036275665,0.0017107061629847,-0.0018962152129464,0.0018962155841213,-0.0018962148608327,0.0018962159572521,-0.001896213471005,0.0018962173443126,-0.0018962131340611,0.0018962177025061,-0.0015013907375917,0.0015013939930741,-0.0015013896686369,0.0015013950560036,-0.0015013934344836,0.0015013911725816,-0.0015013882324767,0.0015013965332867,4.1392400701969e-11,5.2741797372547e-10,-0.00085636012968164,0.00085636067897397,8.7176651451374e-10,-2.6870317895123e-10,-0.0010420658226118,0.001042066584733,-0.0010420662216286,0.0010420662025044,-0.0010420656507198,0.0010420667521298,-0.0010420660655491,0.0010420663557695,-0.00085832016442161,0.00085832077767238,-0.00085832061020859,0.00085832031224912,0.67880269882905,128566,2924,0.003565315247045,0.0070989375815403,0.0035653152433239,15.187497295138,-0.0001185000216389,-0.0001185000216389,-0.0001185000216389,4236535.2119572,0.014332631796121
22819200,0.98963512406481,0.015062531139684,0.0041391519681245,0.0067842272016338,0.0041391519699257,-0.00085671487857488,0.00085671437403568,-1.992390285315e-11,-4.9818658458547e-10,2.413441826632e-09,-3.0424556906847e-09,-0.0010425430208126,0.0010425444692886,-0.001042543175999,0.0010425443203048,-0.0010425447515343,0.0010425426915982,-0.0010425449189431,0.0010425425263683,-0.00085873308719341,0.00085873124379324,-0.00085873358336255,0.00085873076518375,-1.3617878600215e-09,4.0095197276893e-09,7.6469363789898e-10,1.7844776938431e-09,-0.0017113189895744,0.0017113215276655,-0.0018968206944671,0.00189682108911,-0.0018968203770944,0.0018968214272573,-0.0018968189401964,0.0018968228618609,-0.0018968186376351,0.0018968231854357,-0.0015019842420811,0.0015019876162088,-0.0015019832936397,0.0015019885947702,-0.0015019870278771,0.0015019846972358,-0.0015019817863493,0.0015019900929986,4.3931659763538e-11,5.3456272723941e-10,-0.00085671434656868,0.00085671490424939,8.1453553823372e-10,-2.1055007867878e-10,-0.0010425433707948,0.0010425441035587,-0.0010425437317161,0.0010425437595749,-0.0010425431976018,0.0010425442722983,-0.0010425435741092,0.0010425439145306,-0.00085873183176972,0.00085873250082677,-0.00085873228194687,0.00085873203080148,0.67691805029273,128566,2924,0.0035667910337355,0.0071014768526136,0.0035667910299386,15.303701321266,-0.00011757038942987,-0.00011757038942987,-0.00011757038942987,4235308.4182585,0.014338203609298
23019200,0.98983807738213,0.015065256808235,0.0041398959150766,0.0067854649762821,0.0041398959168764,-0.00085704447648558,0.00085704396822922,-1.9416822697042e-11,-5.0246510088178e-10,2.4333344273348e-09,-3.0668578477744e-09,-0.0010429885830697,0.0010429900440654,-0.0010429887404657,0.0010429898943263,-0.0010429903282314,0.0010429882518521,-0.0010429904977017,0.0010429880853037,-0.00085911363083091,0.00085911177486998,-0.0008591141355478,0.00085911129421584,-1.3845762427344e-09,4.0312127007485e-09,8.5681415091583e-10,1.692067218508e-09,-0.0017119016133546,0.0017119041520386,-0.0018973983519717,0.0018973987945195,-0.001897398094268,0.0018973990705611,-0.0018973965833415,0.0018974005823126,-0.0018973963405676,0.0018974008435578,-0.0015025425568082,0.0015025461281407,-0.0015025417773308,0.0015025469102878,-0.0015025454958724,0.0015025430596396,-0.0015025402111338,0.0015025485011791,4.9549106841886e-11,5.4498708590235e-10,-0.0008570439338923,0.00085704450890374,7.3613635351029e-10,-1.0743969126545e-10,-0.0010429889622632,0.0010429896489124,-0.0010429892629281,0.0010429893649115,-0.0010429887872941,0.0010429898192839,-0.0010429891036921,0.0010429895214405,-0.00085911232908653,0.00085911307647724,-0.00085911278452424,0.00085911260194777,0.6326000509997,128566,2924,0.0035681642883458,0.0071038809551022,0.0035681642843055,15.414900823275,-0.0001166807934138,-0.0001166807934138,-0.0001166807934138,4234451.8893037,0.014343430083716
23219200,0.99003849921114,0.015068074927816,0.0041406712104166,0.0067867325051843,0.0041406712122145,-0.00085741011747215,0.00085740960528904,-1.899084739228e-11,-5.0678749376108e-10,2.4519047408498e-09,-3.0906027699422e-09,-0.0010433474303065,0.0010433489033439,-0.0010433475897437,0.0010433487525673,-0.0010433491894107,0.0010433470972045,-0.0010433493608932,0.0010433469294704,-0.00085947636499293,0.0008594744962386,-0.00085947687551788,0.00085947401156784,-1.405168424128e-09,4.0532318287264e-09,9.7074760809163e-10,1.5796590373831e-09,-0.0017123824859311,0.0017123850263011,-0.0018979387772335,0.0018979392820403,-0.0018979385922925,0.0018979394820933,-0.0018979369948711,0.0018979410841697,-0.001897936824933,0.0018979412694103,-0.0015029724396627,0.0015029762495421,-0.0015029718735394,0.0015029767995158,-0.0015029755528979,0.001502973001496,-0.0015029702283639,0.0015029784874944,5.6779449781564e-11,5.5697820060133e-10,-0.00085740956297333,0.00085741015795379,6.3778828077052e-10,1.6558682405567e-11,-0.0010433478440665,0.0010433484736254,-0.0010433480709467,0.0010433482634705,-0.0010433476673457,0.0010433486454771,-0.0010433479099978,0.0010433484214557,-0.00085947500904988,0.00085947585297857,-0.00085947546913815,0.00085947537378713,0.65900012084765,128566,2924,0.003569683030107,0.007105869710001,0.0035696830262508,15.525924767271,-0.00011579260186183,-0.00011579260186183,-0.00011579260186183,4241754.3209233,0.014348527308594
23419200,0.99023724430244,0.015070838270191,0.0041414298619673,0.0067879785444608,0.0041414298637631,-0.00085787302797034,0.00085787251270048,-1.8194095006416e-11,-5.1081448037132e-10,2.4652233380604e-09,-3.1083225774083e-09,-0.0010438829749685,0.0010438844575652,-0.0010438831364498,0.0010438843049517,-0.0010438847439397,0.0010438826401695,-0.0010438849176463,0.0010438824721301,-0.00085997092453133,0.00085996904784396,-0.00085997144306603,0.00085996856161655,-1.4210006924043e-09,4.0672170900745e-09,1.0714223162543e-09,1.47793878122e-09,-0.0017130600845044,0.0017130626247571,-0.0018986392271554,0.0018986397900898,-0.0018986391070568,0.0018986399213881,-0.0018986374355198,0.0018986416016244,-0.0018986373296961,0.0018986417190132,-0.0015036097687627,0.0015036137864716,-0.0015036093841269,0.0015036141209207,-0.0015036130340937,0.0015036103848155,-0.0015036076815736,0.0015036159046716,6.3885444486906e-11,5.6880657498791e-10,-0.00085787246195553,0.0008578730771302,5.4504918300395e-10,1.3862799697492e-10,-0.0010438834205822,0.0010438839950008,-0.0010438835762159,0.0010438838557875,-0.0010438832424589,0.0010438841679088,-0.0010438834129279,0.001043884015497,-0.00085996951874379,0.00085997045619812,-0.00085996998447238,0.00085996997161541,0.65256370499211,128566,2924,0.0035716083399574,0.0071086688030977,0.0035716083366413,15.704682506793,-0.00011436253994565,-0.00011436253994565,-0.00011436253994565,4245116.3559893,0.014355273515579
23619200,0.99043851970937,0.015073704196054,0.004142219620445,0.00678926495337,0.0041422196222386,-0.00085892417716827,0.0008589236614565,-1.6135911171122e-11,-5.1348526207311e-10,2.4647473759996e-09,-3.1096077525589e-09,-0.0010450265828597,0.0010450280667479,-0.0010450267468111,0.0010450279144314,-0.0010450283518163,0.001045026249877,-0.0010450285280649,0.0010450260804766,-0.00086107327353846,0.00086107140258513,-0.0008610738028906,0.00086107091535751,-1.4244098670798e-09,4.0659227324985e-09,1.1119200121951e-09,1.4346707112063e-09,-0.0017144083269532,0.0017144108659155,-0.0019000211972683,0.0019000217876707,-0.0019000211039012,0.0019000218901148,-0.0019000194047738,0.0019000236006516,-0.0019000193265528,0.0019000236882662,-0.001504895805861,0.0015048999072292,-0.0015048954806012,0.001504900129427,-0.001504899134,0.0015048964516697,-0.0015048937824109,0.0015049019772695,6.4951159152481e-11,5.7481717143495e-10,-0.00085892360621352,0.00085892423062017,5.212069476914e-10,1.841808575538e-10,-0.0010450270380648,0.001045027593866,-0.0010450271706063,0.0010450274775947,-0.0010450268578102,0.0010450277688073,-0.0010450270059686,0.0010450276387225,-0.00086107185420791,0.00086107282138185,-0.00086107232527141,0.00086107233229819,0.66669036113791,128566,2924,0.0035759775343437,0.0071142403633148,0.0035759775306378,16.2197263204,-0.0001102421894368,-0.0001102421894368,-0.0001102421894368,4256247.9583508,0.014369790443561
23819200,0.99064228869309,0.015076769007185,0.0041430705744639,0.0067906278564648,0.0041430705762565,-0.00085998081770912,0.00085998030247816,-1.3469714185948e-11,-5.154533690563e-10,2.4635218774874e-09,-3.1071808326408e-09,-0.0010462225413916,0.0010462240261582,-0.0010462227064521,0.0010462238716928,-0.0010462243097397,0.0010462222107748,-0.0010462244866032,0.0010462220389691,-0.00086220603974987,0.00086220417327581,-0.0008622065666524,0.00086220367639679,-1.4198543250721e-09,4.0669124803801e-09,1.1467056026957e-09,1.4034464533801e-09,-0.0017158253603584,0.0017158279010304,-0.0019014520133603,0.0019014526254651,-0.0019014519411438,0.0019014527066763,-0.0019014502219775,0.0019014544372164,-0.0019014501648859,0.0019014545036667,-0.0015062554207571,0.0015062595867258,-0.0015062551805838,0.0015062597696751,-0.0015062587805381,0.0015062560849296,-0.0015062534319183,0.0015062616037341,6.4809301076221e-11,5.7920702148383e-10,-0.00085998024586437,0.00085998087265309,4.8510320048904e-10,2.1268323003453e-10,-0.0010462230069992,0.0010462235442802,-0.0010462231181101,0.0010462234497282,-0.0010462228253503,0.0010462237207321,-0.0010462229522261,0.0010462236123196,-0.00086220460691973,0.00086220560867016,-0.00086220508105414,0.00086220511515729,0.70079156593637,128566,2924,0.0035803713266552,0.0071200941464316,0.0035803713231602,16.742366980151,-0.00010606106415879,-0.00010606106415879,-0.00010606106415879,4264495.5493929,0.014384644879463
24019200,0.99084840974534,0.015079906116623,0.0041439423314045,0.006792021452024,0.0041439423331948,-0.00086100638586355,0.00086100587205917,-1.0367889361847e-11,-5.1702149147365e-10,2.4612543759915e-09,-3.102197589199e-09,-0.0010474803276885,0.0010474818125685,-0.0010474804941513,0.0010474816562148,-0.0010474820938756,0.0010474799996471,-0.0010474822718865,0.0010474798259524,-0.00086335526782265,0.00086335340934246,-0.00086335579829191,0.00086335290756344,-1.415761802684e-09,4.0634624405411e-09,1.1705745873969e-09,1.3796778753762e-09,-0.0017173274047097,0.0017173299452483,-0.0019029191517168,0.0019029197813932,-0.0019029190952051,0.0019029198473,-0.0019029173627126,0.0019029215904455,-0.0019029173211603,0.0019029216416727,-0.0015077193208206,0.0015077235303361,-0.0015077191371608,0.0015077236772841,-0.0015077227067139,0.0015077200026209,-0.0015077173625995,0.0015077255106824,6.3673265079135e-11,5.8271448440632e-10,-0.00086100581373392,0.00086100644235212,4.5880193826866e-10,2.3650270752025e-10,-0.0010474808011131,0.0010474813235534,-0.0010474808957077,0.0010474812456098,-0.0010474806180834,0.0010474815015951,-0.0010474807283651,0.0010474814098797,-0.00086335382636189,0.0008633548523036,-0.00086335430519456,0.00086335435460789,0.70866202320248,128566,2924,0.0035846395769508,0.0071262948618029,0.0035846395730956,17.265274238501,-0.00010187780609199,-0.00010187780609199,-0.00010187780609199,4266339.8449377,0.014399599023499
24219200,0.99105549295996,0.015082917409081,0.0041447730324042,0.0067933713424841,0.0041447730341923,-0.00086184206213791,0.00086184154957912,-7.2603123531766e-12,-5.1859637501323e-10,2.4605395552901e-09,-3.098794374106e-09,-0.0010485602747656,0.0010485617603664,-0.0010485604426013,0.0010485616025394,-0.0010485620403037,0.0010485599496878,-0.0010485622189376,0.0010485597731629,-0.0008643185113839,0.00086431665887169,-0.00086431904251651,0.00086431615001142,-1.4116257968597e-09,4.0638604550879e-09,1.2074069702517e-09,1.3458543858959e-09,-0.0017186488232243,0.0017186513652506,-0.0019041968656146,0.0019041975188883,-0.0019041968323924,0.0019041975623645,-0.0019041950775433,0.0019041993269489,-0.0019041950596118,0.0019041993552095,-0.0015090092534293,0.0015090135323335,-0.0015090091587494,0.0015090136324007,-0.001509012679188,0.0015090099591093,-0.0015090073363164,0.0015090154583449,6.2263380732855e-11,5.8582373392364e-10,-0.00086184149017277,0.00086184211928361,4.2681380939581e-10,2.5984157288596e-10,-0.0010485607577577,0.0010485612636128,-0.0010485608341211,0.0010485612041837,-0.0010485605732094,0.0010485614434419,-0.0010485606658889,0.0010485613698957,-0.00086431705866208,0.00086431811104398,-0.00086431754126028,0.00086431760969763,0.68010065050147,128566,2924,0.003588119793991,0.0071317475774654,0.0035881197892203,17.693000490486,-9.8455996076114e-05,-9.8455996076114e-05,-9.8455996076114e-05,4265184.9323766,0.014412195861841
24419200,0.9912603643738,0.015085893509967,0.0041455939089886,0.006794705690204,0.0041455939107746,-0.00086228460437537,0.00086228409159979,-5.0263732970107e-12,-5.2094341257092e-10,2.4647139277586e-09,-3.1021989118644e-09,-0.0010491410235963,0.0010491425133781,-0.0010491411919399,0.0010491423516743,-0.0010491427914881,0.0010491406985868,-0.0010491429711649,0.0010491405210975,-0.00086483348817311,0.00086483163660635,-0.00086483402074392,0.00086483112180113,-1.4126574889893e-09,4.0686770960605e-09,1.2560707936053e-09,1.2993584337271e-09,-0.0017194237581976,0.0017194263011096,-0.0019049701360889,0.001904970817735,-0.0019049701331907,0.0019049708301971,-0.0019049683464028,0.0019049726265609,-0.0019049683574918,0.0019049726251807,-0.0015097456969109,0.0015097500702809,-0.0015097457114499,0.0015097501004412,-0.0015097491823022,0.0015097464280315,-0.0015097438306205,0.0015097519308502,6.426820958046e-11,5.9239020711283e-10,-0.00086228402874752,0.00086228466509933,3.6086345725144e-10,3.2519453884808e-10,-0.0010491415267717,0.0010491419966856,-0.0010491415594089,0.00104914198098,-0.0010491413413045,0.0010491421773643,-0.0010491413889108,0.0010491421483718,-0.00086483200703892,0.00086483311986172,-0.00086483249384824,0.00086483261415201,0.67934591332085,128566,2924,0.0035899636511612,0.0071349448656674,0.0035899636466364,17.885126108629,-9.6918991130965e-05,-9.6918991130965e-05,-9.6918991130965e-05,4264846.2907679,0.014419182183104
24619200,0.99146291823648,0.015088980426313,0.004146451445607,0.0067960775333167,0.0041464514473896,-0.00086272947642288,0.00086272896314262,-3.0388229656767e-12,-5.2372653077659e-10,2.4658184724842e-09,-3.1049638972784e-09,-0.0010497060068835,0.0010497074989696,-0.0010497061783771,0.0010497073378202,-0.0010497077761585,0.0010497056837964,-0.0010497079582458,0.0010497055051651,-0.00086534478730122,0.00086534293973979,-0.00086534532922333,0.00086534242333813,-1.4178062624625e-09,4.0677150216865e-09,1.2951632784156e-09,1.2563603712295e-09,-0.0017201804304118,0.0017201829715285,-0.0019057286462104,0.0019057293553224,-0.0019057286705786,0.0019057293390466,-0.0019057268551333,0.0019057311661724,-0.0019057268940282,0.0019057311354487,-0.0015104636507658,0.0015104681057266,-0.0015104637215376,0.0015104680220237,-0.0015104672005216,0.0015104644090276,-0.0015104618467015,0.0015104699198122,6.5774312547989e-11,5.9884125686168e-10,-0.00086272889567019,0.00086272954195688,3.3433015535501e-10,3.7502934997384e-10,-0.0010497065210415,0.001049706970816,-0.0010497065286759,0.001049706979974,-0.0010497063336513,0.0010497071533946,-0.0010497063566644,0.0010497071491411,-0.00086534329074542,0.00086534443723673,-0.00086534378340833,0.00086534392585845,0.70944459981169,128566,2924,0.0035918165847248,0.0071380674629233,0.0035918165806367,18.071915932511,-9.5424672539908e-05,-9.5424672539908e-05,-9.5424672539908e-05,4264905.0216659,0.014426110920368
24819200,0.9916631185597,0.015091801653989,0.004147225574167,0.0067973505038746,0.0041472255759478,-0.00086313772967653,0.00086313721582398,-9.7333248227255e-13,-5.2641741068563e-10,2.4653283486336e-09,-3.1059479119527e-09,-0.0010503116082017,0.0010503131017382,-0.0010503117813747,0.0010503129394365,-0.0010503133773284,0.0010503112864282,-0.001050313561508,0.0010503111064401,-0.00086584995653514,0.00086584811344008,-0.00086585050467843,0.00086584759294462,-1.4189160969696e-09,4.0678513496394e-09,1.3169528942872e-09,1.2340670804507e-09,-0.0017209865137576,0.0017209890545319,-0.0019064959867694,0.0019064967096882,-0.0019064960247502,0.0019064966781288,-0.0019064941952524,0.0019064985211928,-0.0019064942480898,0.0019064984749501,-0.0015112481975611,0.0015112526965609,-0.0015112483028282,0.0015112525598576,-0.0015112517766684,0.0015112489694803,-0.0015112464240007,0.0015112544837052,6.4620190369968e-11,6.0242309995767e-10,-0.00086313714711108,0.00086313779648808,3.2300462934206e-10,3.9381418666053e-10,-0.0010503121279048,0.0010503125675106,-0.0010503121253565,0.001050312586742,-0.0010503119386745,0.0010503127517303,-0.0010503119517668,0.0010503127572567,-0.00086584845461087,0.00086584961715776,-0.00086584895162916,0.00086584910117297,0.66112229034665,128566,2924,0.0035935199949705,0.0071413909773724,0.0035935199909708,18.258518414677,-9.3931852682584e-05,-9.3931852682584e-05,-9.3931852682584e-05,4259903.4720534,0.014432942131513
25019200,0.99186321822405,0.015094587265064,0.0041479888495009,0.0067986095642836,0.0041479888512794,-0.00086389747516014,0.00086389696118027,1.1857353317466e-12,-5.2908752794233e-10,2.458985928495e-09,-3.1015939776095e-09,-0.0010511596201629,0.0010511611124088,-0.001051159795748,0.0010511609492426,-0.0010511613851436,0.001051159300122,-0.0010511615721094,0.0010511591199142,-0.00086665881609145,0.00086665698246072,-0.00086665937423732,0.0008666564610192,-1.4168110319837e-09,4.0584780470462e-09,1.2771416051418e-09,1.2689838520614e-09,-0.0017220514720961,0.001722054010066,-0.0019075949175068,0.0019075956199621,-0.0019075949308058,0.0019075956117293,-0.0019075931300323,0.0019075974276302,-0.0019075931580397,0.0019075974050351,-0.0015122522268883,0.0015122566463205,-0.0015122522297133,0.0015122565493535,-0.0015122557558233,0.0015122529783247,-0.00151225041777,0.0015122584881951,6.0999442049358e-11,6.0361983613993e-10,-0.00086389689298594,0.00086389754184302,3.6167180146884e-10,3.6848766169201e-10,-0.001051160130614,0.0010511605853345,-0.0010511601493456,0.0010511605829562,-0.0010511599396925,0.0010511607709736,-0.0010511599735983,0.0010511607551668,-0.00086665733085815,0.00086665847103719,-0.00086665783365272,0.00086665794903876,0.65362538919771,128566,2924,0.0035966794202058,0.0071457898402208,0.003596679417065,18.630267433638,-9.0957860530898e-05,-9.0957860530898e-05,-9.0957860530898e-05,4267597.5775023,0.014443815311802
25219200,0.99206644257357,0.015097516830021,0.0041487959593957,0.0067999249094531,0.004148795961172,-0.00086514258672752,0.00086514207459658,4.3762804969731e-12,-5.3049888147184e-10,2.4482044479225e-09,-3.0892047730029e-09,-0.0010524976413312,0.0010524991292395,-0.0010524978181278,0.001052498964653,-0.0010524993982174,0.0010524973245886,-0.0010524995872254,0.0010524971430656,-0.00086796112588792,0.00086795930714999,-0.00086796169131578,0.00086795878243059,-1.4072636377089e-09,4.0460523241141e-09,1.1932302716343e-09,1.350774605116e-09,-0.0017236523395297,0.001723654876095,-0.0019092447189654,0.001909245373438,-0.0019092446783245,0.0019092454202886,-0.0019092429384115,0.0019092471739433,-0.0019092429128856,0.0019092472062418,-0.0015137713416735,0.0015137755910371,-0.0015137711775027,0.001513775648453,-0.001513774751614,0.0015137720481675,-0.0015137694361787,0.0015137775366144,5.0890917210795e-11,5.9835918022849e-10,-0.00086514201273169,0.00086514264684497,4.4636478468575e-10,2.706526107761e-10,-0.00105249812729,0.0010524986257005,-0.0010524982063288,0.0010524985631009,-0.0010524979346114,0.001052498813159,-0.0010524980290479,0.0010524987367592,-0.00086795968377974,0.00086796075048874,-0.00086796019151585,0.00086796022464237,0.67454675002156,128566,2924,0.0036018546487647,0.0071524049725822,0.0036018546451472,19.271539669306,-8.5827682645555e-05,-8.5827682645555e-05,-8.5827682645555e-05,4282029.0401012,0.014461027073793
25419200,0.99227266778393,0.015100748394441,0.0041496965389427,0.0068013553147802,0.0041496965407184,-0.00086639468370628,0.00086639417334542,7.7039375488931e-12,-5.3181438654095e-10,2.4409170323826e-09,-3.0789493533578e-09,-0.0010539044091981,0.0010539058944233,-0.0010539045867827,0.0010539057273294,-0.0010539061608363,0.0010539040957653,-0.0010539063502154,0.0010539039115999,-0.00086930288791737,0.00086930107954768,-0.00086930345111568,0.00086930054577054,-1.3956801121071e-09,4.0396854305007e-09,1.1142389244716e-09,1.4330274591713e-09,-0.0017253378535859,0.0017253403913395,-0.0019109486124288,0.0019109492179645,-0.0019109485199869,0.0019109493198127,-0.001910946837625,0.0019109510124086,-0.001910946760201,0.0019109510996906,-0.0015153844900593,0.0015153885749224,-0.0015153841912458,0.0015153888216795,-0.0015153877756174,0.001515385148028,-0.0015153824765519,0.0015153906152516,4.1558625493401e-11,5.9348777801753e-10,-0.00086639411882538,0.00086639473646715,5.0904452077461e-10,1.7816798064656e-10,-0.0010539048760461,0.0010539054112336,-0.0010539050065998,0.0010539052973182,-0.0010539046820084,0.001053905600165,-0.0010539048281172,0.0010539054724506,-0.00086930147990194,0.00086930249047287,-0.00086930199080541,0.00086930196008915,0.72789191393464,128566,2924,0.0036070612084203,0.0071593672609088,0.0036070612047366,19.918937545284,-8.0648499637731e-05,-8.0648499637731e-05,-8.0648499637731e-05,4292253.6551511,0.014478656531758
25619200,0.99248167659852,0.015104043725476,0.004150614610009,0.0068028145036848,0.0041506146117826,-0.00086759687945935,0.00086759637069352,1.088429483969e-11,-5.3328577567906e-10,2.436881431013e-09,-3.0720813391709e-09,-0.001055406884013,0.0010554083682591,-0.0010554070626359,0.0010554081989697,-0.0010554086321338,0.001055406573177,-0.0010554088225844,0.0010554063870026,-0.00087066793004929,0.00087066613111616,-0.00087066849674397,0.00087066559228448,-1.3899189288132e-09,4.0342912066435e-09,1.0509052570364e-09,1.4962465462245e-09,-0.0017271513480717,0.0017271538854615,-0.0019127040198503,0.001912704586781,-0.0019127038871847,0.001912704731627,-0.0019127022485394,0.0019127063773375,-0.0019127021307726,0.0019127065076245,-0.0015171552787391,0.0015171592347599,-0.0015171548670606,0.0015171596182041,-0.0015171584754506,0.0015171559003574,-0.0015171531846553,0.0015171613535007,3.3750436224914e-11,5.9030170579471e-10,-0.00086759632121862,0.00086759692701572,5.6163542536445e-10,1.0756638170948e-10,-0.0010554073357287,0.0010554079005896,-0.0010554075072154,0.001055407745818,-0.0010554071402887,0.0010554080911274,-0.0010554073273003,0.0010554079225911,-0.00087066654924837,0.00087066751331843,-0.00087066706486809,0.00087066697886351,0.73243475256955,128566,2924,0.0036120659712844,0.0071668516339238,0.0036120659672573,20.566542783255,-7.5467657733959e-05,-7.5467657733959e-05,-7.5467657733959e-05,4292621.2316686,0.014496410105997
25819200,0.99268804195577,0.015107206214889,0.0041514915970671,0.0068042230189835,0.0041514915988385,-0.00086806448942154,0.00086806398011731,1.3178794273719e-11,-5.3573372222083e-10,2.4466724554389e-09,-3.0804876473934e-09,-0.0010561460535692,0.0010561475445455,-0.0010561462334424,0.0010561473726898,-0.001056147808973,0.0010561457439221,-0.0010561479991607,0.0010561455547993,-0.00087127676528256,0.00087127496131426,-0.00087127732651131,0.00087127441184235,-1.3940361436821e-09,4.0471242774255e-09,1.0927786334217e-09,1.4599833104532e-09,-0.0017281419393395,0.0017281444799476,-0.0019136311311663,0.0019136317182874,-0.0019136310248367,0.0019136318384682,-0.0019136293543832,0.0019136335143133,-0.0019136292624951,0.0019136336202443,-0.0015181238138231,0.0015181278531935,-0.0015181235130199,0.0015181282015991,-0.001518127062868,0.0015181244511876,-0.0015181217512492,0.0015181299141726,3.2657153403366e-11,5.9339991563687e-10,-0.00086806393122859,0.000868064536225,5.2602763321689e-10,1.2526016557818e-10,-0.001056146517377,0.0010561470672723,-0.0010561466716627,0.0010561469301623,-0.0010561463209874,0.0010561472590987,-0.0010561464906874,0.0010561471086439,-0.00087127536743813,0.00087127636172629,-0.00087127588629712,0.00087127582285047,0.71386319515828,128566,2924,0.003614019249065,0.0071709336891882,0.0036140192446278,20.805292856277,-7.355765714978e-05,-7.355765714978e-05,-7.355765714978e-05,4284351.2827286,0.01450451971621
26019200,0.99288719399507,0.015110131816319,0.004152297896499,0.0068055360215527,0.0041522978982677,-0.00086789795015243,0.00086789743821175,1.4069331186075e-11,-5.3925257115996e-10,2.4617672289547e-09,-3.0984134806538e-09,-0.0010561484113827,0.0010561499120487,-0.0010561485925665,0.0010561497387528,-0.0010561501774567,0.0010561481004765,-0.0010561503694155,0.001056147909923,-0.00087119245104496,0.00087119063849688,-0.00087119301632056,0.00087119008307865,-1.4102228990702e-09,4.0651024734393e-09,1.1890499859274e-09,1.3650705696782e-09,-0.0017283179840744,0.001728320525962,-0.0019137713002083,0.0019137719395723,-0.00191377125519,0.0019137719968716,-0.001913769512223,0.0019137737470615,-0.0019137694818193,0.001913773789884,-0.001518286091061,0.0015182903312914,-0.0015182859798082,0.0015182904927205,-0.0015182894857888,0.0015182867791112,-0.0015182841406077,0.001518292274886,3.8724472705338e-11,6.0425048695578e-10,-0.00086789738237393,0.00086789800408976,4.3164992959683e-10,2.3714803235565e-10,-0.0010561489071084,0.0010561494032571,-0.0010561489926011,0.0010561493349716,-0.0010561487090033,0.0010561495967513,-0.0010561488100889,0.0010561495148156,-0.00087119100437235,0.00087119208831006,-0.00087119152717215,0.00087119154571137,0.68688292076774,128566,2924,0.0036133352570714,0.0071716518922607,0.0036133352530144,20.675633124363,-7.4594935005093e-05,-7.4594935005093e-05,-7.4594935005093e-05,4272794.2001742,0.014503863062274
26219200,0.99307932507316,0.015113130320499,0.0041531323279955,0.0068068656627424,0.0041531323297608,-0.00086775478507957,0.00086775427055642,1.5019070530646e-11,-5.4301470357686e-10,2.4733883655876e-09,-3.113967944858e-09,-0.0010560770133518,0.0010560785221325,-0.0010560771970755,0.0010560783485555,-0.0010560787879016,0.0010560767015411,-0.0010560789824384,0.001056076510231,-0.00087108934115532,0.00087108752340434,-0.00087108991856435,0.00087108696901929,-1.4263464438599e-09,4.0763087056848e-09,1.273810188032e-09,1.2775541733028e-09,-0.0017283967052171,0.0017283992460911,-0.0019138542766676,0.0019138549653296,-0.001913854287026,0.0019138549637237,-0.001913852479978,0.0019138567821163,-0.0019138525050677,0.0019138567658301,-0.0015183390757795,0.0015183434943698,-0.0015183391066433,0.0015183434548893,-0.0015183426084807,0.0015183398144845,-0.0015183372381137,0.0015183453419962,4.4079268373682e-11,6.1441860654178e-10,-0.00086775420695109,0.0008677548466722,3.6032173156549e-10,3.4121893277432e-10,-0.0010560775353267,0.0010560779860448,-0.0010560775626188,0.0010560779754472,-0.0010560773353291,0.0010560781811192,-0.0010560773782646,0.0010560781568557,-0.00087108785401414,0.00087108901180868,-0.00087108838281997,0.00087108846410406,0.72524661531229,128566,2924,0.0036127448721538,0.0071719721487356,0.003612744867908,20.537550113179,-7.5699599094568e-05,-7.5699599094568e-05,-7.5699599094568e-05,4266749.7256538,0.014502990367479
26419200,0.99326471944225,0.015116110071949,0.0041539648276297,0.0068081804149269,0.0041539648293928,-0.00086759181811969,0.00086759130163356,1.6355907761039e-11,-5.4633339151976e-10,2.4817375481582e-09,-3.1253695092539e-09,-0.0010560693877666,0.0010560709030455,-0.0010560695734705,0.0010560707283965,-0.0010560711687644,0.0010560690758996,-0.0010560713652931,0.0010560688835005,-0.00087100678497648,0.00087100496384165,-0.00087100736906261,0.00087100440659371,-1.4363225712137e-09,4.086085792825e-09,1.3431339402389e-09,1.2084374639473e-09,-0.0017285432423633,0.0017285457836694,-0.0019139527455426,0.0019139534739826,-0.0019139528000642,0.0019139534254149,-0.0019139509425598,0.00191395529742,-0.0019139510118556,0.001913955234252,-0.0015184839303304,0.0015184884922276,-0.0015184840872024,0.0015184883059058,-0.0015184875659696,0.0015184847068803,-0.0015184821781628,0.001518490256423,4.7408680813153e-11,6.2242149054906e-10,-0.00086759123280729,0.00086759188485973,2.997457329442e-10,4.1981422284602e-10,-0.0010560699313928,0.0010560703450238,-0.0010560699125296,0.0010560703805781,-0.0010560697297705,0.0010560705415692,-0.0010560697265059,0.001056070563489,-0.00087100526600268,0.00087100648443219,-0.00087100579963342,0.00087100593207559,0.74502755863157,128566,2924,0.0036120751090441,0.0071725691854677,0.003612075104657,20.399170695445,-7.680663443644e-05,-7.680663443644e-05,-7.680663443644e-05,4254685.2553337,0.014502239827405
26619200,0.99344773024194,0.015119023743708,0.0041547778594892,0.006809468022969,0.0041547778612501,-0.00086804537536266,0.00086804485715997,1.7540864701124e-11,-5.5014055883166e-10,2.4747331376639e-09,-3.1242271565049e-09,-0.0010567597848662,0.0010567612990991,-0.0010567599741821,0.0010567611245972,-0.0010567615619658,0.0010567594736644,-0.0010567617626423,0.0010567592825557,-0.00087159157928637,0.00087158976630244,-0.00087159217888664,0.00087158921204926,-1.43938836485e-09,4.0731951507429e-09,1.3175854505513e-09,1.2232867414886e-09,-0.0017294619680515,0.0017294645035512,-0.0019147997910784,0.0019148005112743,-0.0019147998317995,0.0019148004720289,-0.0019147979918874,0.0019148023314781,-0.0019147980471456,0.0019148022782733,-0.001519395491682,0.0015194000056114,-0.0015193955414513,0.0015193997813144,-0.0015193991073572,0.001519396258178,-0.001519393736831,0.0015194018138016,4.6438776325422e-11,6.2630518645628e-10,-0.00086804478625763,0.0008680454454109,3.4310499655434e-10,4.1587750388306e-10,-0.0010567603198682,0.0010567607453335,-0.0010567603168924,0.0010567607642004,-0.0010567601163216,0.0010567609430464,-0.0010567601280003,0.0010567609489529,-0.00087159007413408,0.00087159127809533,-0.00087159061507449,0.00087159071753985,0.73848440420484,128566,2924,0.0036139688881067,0.0071763552950177,0.0036139688863896,20.630092828535,-7.4959257371722e-05,-7.4959257371722e-05,-7.4959257371722e-05,4247414.9104455,0.014509927925833
26819200,0.99363056361018,0.015121860348325,0.0041555664925063,0.0068107273615511,0.0041555664942674,-0.00086884621510899,0.00086884569907897,2.0936852147215e-11,-5.5115572002177e-10,2.4636304105688e-09,-3.1104072582816e-09,-0.0010578027240141,0.0010578042333272,-0.0010578029137496,0.0010578040570077,-0.001057804492454,0.0010578024161813,-0.0010578046948515,0.0010578022232137,-0.00087252893275843,0.00087252713580366,-0.0008725295374794,0.00087252657552005,-1.4272404159615e-09,4.0625457243697e-09,1.2453212566434e-09,1.296211638683e-09,-0.0017307724651373,0.0017307750006367,-0.0019160537058471,0.0019160543835523,-0.0019160536982495,0.0019160543935651,-0.0019160519136323,0.0019160561963637,-0.0019160519213227,0.0019160561918899,-0.0015206814122862,0.0015206857775273,-0.0015206813329229,0.0015206857085957,-0.0015206849158998,0.0015206821395677,-0.0015206795680685,0.0015206876696896,3.790741932936e-11,6.2257892136649e-10,-0.00086884563313412,0.00086884627973176,3.9717733918139e-10,3.4276365904723e-10,-0.0010578032421138,0.0010578036963796,-0.001057803280648,0.0010578036739905,-0.0010578030367607,0.0010578038960478,-0.0010578030905804,0.0010578038598388,-0.00087252746053679,0.00087252861405748,-0.00087252800468228,0.00087252805125682,0.72121905556446,128566,2924,0.00361730523982,0.0071817609849572,0.0036173052371121,21.064994817459,-7.1480041460325e-05,-7.1480041460325e-05,-7.1480041460325e-05,4246069.7089218,0.014522185997281
27019200,0.99381311610555,0.015124610820214,0.0041563278288831,0.0068119551606884,0.0041563278306426,-0.00086966211676528,0.00086966160390402,2.5032207207885e-11,-5.5158867479716e-10,2.4552162864528e-09,-3.0962536681052e-09,-0.0010588159733368,0.001058817479037,-0.0010588161636089,0.001058817300044,-0.001058817735397,0.0010588156700289,-0.0010588179372402,0.0010588154735292,-0.00087345578762237,0.00087345400305885,-0.00087345638854301,0.00087345343388502,-1.4119177890572e-09,4.05518927581e-09,1.1828983478557e-09,1.3636606908078e-09,-0.001732049477542,0.001732052015027,-0.0019173028218176,0.0019173034622707,-0.0019173027733797,0.0019173035172278,-0.0019173010367471,0.0019173052674363,-0.0019173010034966,0.0019173053077953,-0.0015219195869142,0.0015219238176101,-0.001521919418806,0.0015219239234088,-0.0015219229827712,0.0015219202781359,-0.0015219176531001,0.001521925777671,2.817907263213e-11,6.1723389427978e-10,-0.00086966154507723,0.00086966217370994,4.4547712103856e-10,2.5608341879977e-10,-0.0010588164752354,0.0010588169608322,-0.001058816558822,0.001058816893695,-0.0010588162687005,0.001058817162136,-0.0010588163679648,0.0010588170811605,-0.00087345434521286,0.00087345544904341,-0.00087345489267593,0.00087345488249776,0.70228506141346,128566,2924,0.0036207024787143,0.0071870302622651,0.0036207024747795,21.504599992491,-6.7963200060072e-05,-6.7963200060072e-05,-6.7963200060072e-05,4248226.0691012,0.014534428064282
27219200,0.99399522940617,0.015127266665915,0.0041570592775612,0.0068131481090355,0.0041570592793186,-0.00087049151022316,0.00087049099949247,2.843750165458e-11,-5.5281301518404e-10,2.4472946348656e-09,-3.0850288006643e-09,-0.0010597896745594,0.0010597911772421,-0.0010597898659244,0.0010597909959561,-0.0010597914304752,0.0010597893744804,-0.0010597916334261,0.0010597891761469,-0.000874366579743,0.00087436480750378,-0.00087436718282554,0.00087436423229542,-1.4017860698096e-09,4.0456639156856e-09,1.1244398368995e-09,1.4221715252244e-09,-0.0017332769267979,0.0017332794639328,-0.001918533669808,0.001918534277626,-0.0019185335844333,0.0019185343725735,-0.0019185318910355,0.0019185360760056,-0.0019185318205913,0.0019185361564851,-0.0015230934070055,0.0015230975154135,-0.0015230931357587,0.0015230977489876,-0.0015230967136178,0.0015230940665376,-0.0015230914008399,0.0015230995438985,2.062043517383e-11,6.1422278850045e-10,-0.00087049094545986,0.00087049156245708,4.9599884339933e-10,1.8745206961225e-10,-0.0010597901608907,0.0010597906750778,-0.0010597902841344,0.0010597905685283,-0.0010597899530571,0.0010597908778786,-0.0010597900917949,0.0010597907576272,-0.00087436516545581,0.0008743662250212,-0.00087436571733661,0.00087436565409999,0.68191772921815,128566,2924,0.0036241536880961,0.0071920972072417,0.0036241536843199,21.944371014345,-6.4445031885238e-05,-6.4445031885238e-05,-6.4445031885238e-05,4253898.4643594,0.014546573187565
27419200,0.99417531204502,0.015129979150323,0.0041578100289358,0.0068143590906957,0.0041578100306915,-0.00087111738999576,0.00087111688049691,3.1423094211483e-11,-5.5438427551377e-10,2.4460578841787e-09,-3.0811389625844e-09,-0.0010604876830834,0.001060489186313,-0.0010604878754052,0.0010604890028219,-0.0010604894377011,0.0010604873854353,-0.0010604896413331,0.001060487184777,-0.00087503466699763,0.00087503290098021,-0.00087503527092894,0.00087503231911947,-1.397332969437e-09,4.0449519269658e-09,1.1084788439087e-09,1.4405531819127e-09,-0.0017341928668979,0.0017341954051027,-0.0019194848179904,0.0019194854154283,-0.0019194847220698,0.0019194855230614,-0.0019194830407295,0.0019194872119714,-0.0019194829596376,0.0019194873051008,-0.0015239468244924,0.0015239508979717,-0.0015239465386186,0.0015239511878519,-0.0015239501027288,0.0015239474748158,-0.001523944792185,0.0015239529425702,1.5820506949887e-11,6.1395167220934e-10,-0.0008711168289172,0.00087111743950105,5.0703309945744e-10,1.6030051323175e-10,-0.0010604881663901,0.0010604886882752,-0.0010604883023437,0.0010604885692369,-0.0010604879572066,0.0010604888926514,-0.0010604881087545,0.001060488759879,-0.0008750332604905,0.00087503430930762,-0.00087503381637358,0.00087503373448645,0.70214878719887,128566,2924,0.0036267570092359,0.0071958795950779,0.0036267570048561,22.252507237977,-6.1979942096185e-05,-6.1979942096185e-05,-6.1979942096185e-05,4260469.3502188,0.014555693068698
27619200,0.99435283688568,0.015132695879989,0.0041585634844152,0.0068155689094049,0.0041585634861687,-0.00087166248916806,0.00087166197977024,3.3791037278697e-11,-5.5666622466418e-10,2.4470687860684e-09,-3.0819533608521e-09,-0.0010611483795887,0.0010611498850537,-0.0010611485732671,0.0010611496996892,-0.0010611501346074,0.0010611480832002,-0.0010611503400126,0.0010611478813438,-0.00087564147309577,0.00087563971149751,-0.00087564208336867,0.00087563912638022,-1.398394527713e-09,4.0454481572769e-09,1.1102050222928e-09,1.4385006896737e-09,-0.0017350653817188,0.0017350679198362,-0.0019203645006071,0.0019203650988785,-0.001920364405862,0.0019203652055741,-0.0019203627229054,0.0019203668957411,-0.0019203626427512,0.0019203669881114,-0.0015247699487,0.0015247740270583,-0.0015247696657975,0.001524774311448,-0.0015247732327354,0.001524770601391,-0.001524767919536,0.0015247760704131,1.3145599622352e-11,6.1590093649153e-10,-0.00087166192821543,0.00087166253844103,5.067155524524e-10,1.6091698568019e-10,-0.0010611488649324,0.0010611493847347,-0.0010611490004459,0.0010611492662105,-0.0010611486543213,0.0010611495905615,-0.0010611488051471,0.0010611494583662,-0.00087564006629836,0.00087564111770904,-0.00087564062744934,0.00087564053919275,0.71252807439372,128566,2924,0.0036290263116202,0.0071994806239414,0.0036290263068133,22.51946058981,-5.9844315281523e-05,-5.9844315281523e-05,-5.9844315281523e-05,4262475.2661617,0.014563952661855
27819200,0.99452773510395,0.01513541886186,0.0041593204172753,0.0068167780255585,0.0041593204190267,-0.00087219711893302,0.00087219660906002,3.5835456051048e-11,-5.592550165084e-10,2.4484340324383e-09,-3.084541850305e-09,-0.0010618250306501,0.0010618265385036,-0.0010618252263015,0.001061826352267,-0.0010618267867869,0.0010618247355242,-0.0010618269941442,0.0010618245323246,-0.0008762521816528,0.00087625042362292,-0.00087625279867316,0.00087624983531709,-1.4017583095988e-09,4.0463637835992e-09,1.1150393506074e-09,1.4320240468836e-09,-0.0017359549974194,0.0017359575345712,-0.0019212465462411,0.001921247146977,-0.001921246455062,0.0019212472493062,-0.0019212447670815,0.0019212489454538,-0.0019212446907521,0.001921249033219,-0.0015256159049358,0.0015256199946489,-0.0015256156214142,0.0015256202547606,-0.0015256192008725,0.0015256165598676,-0.0015256138853665,0.0015256220356286,1.2338020569073e-11,6.1980133040381e-10,-0.00087219655591181,0.00087219716997821,5.0158539252821e-10,1.756514117613e-10,-0.001061825519949,0.0010618260337709,-0.0010618256488797,0.0010618259216012,-0.0010618253075221,0.0010618262412116,-0.0010618254519777,0.001061826115282,-0.00087625077075542,0.00087625183552789,-0.00087625133641061,0.00087625125173145,0.72383356743665,128566,2924,0.0036312531630942,0.0072031510668579,0.0036312531586759,22.785446781906,-5.7716425744749e-05,-5.7716425744749e-05,-5.7716425744749e-05,4262576.2100747,0.014572197331557
28019200,0.99469995078761,0.015138149916484,0.0041600814240863,0.006817987066562,0.004160081425836,-0.00087272121920763,0.00087272070845292,3.7694320537911e-11,-5.6205560150199e-10,2.4508021945411e-09,-3.0882679499164e-09,-0.0010625184843486,0.0010625199951519,-0.0010625186818287,0.0010625198076163,-0.0010625202425272,0.0010625181901634,-0.0010625204515632,0.001062517985605,-0.00087686762177223,0.00087686586531199,-0.00087686824315652,0.0008768652723212,-1.4048157425493e-09,4.0492413671028e-09,1.1294770464868e-09,1.4175430069165e-09,-0.0017368651371246,0.0017368676743572,-0.0019221335366583,0.001922134145363,-0.0019221334548295,0.0019221342375819,-0.0019221317556765,0.0019221359458874,-0.0019221316886833,0.0019221360236135,-0.001526488835156,0.0015264929554171,-0.0015264885766082,0.0015264931831825,-0.001526492153309,0.0015264894966547,-0.0015264868329158,0.0015264949795265,1.1532516110505e-11,6.2361687447851e-10,-0.00087272065419351,0.00087272127143204,4.9073922372416e-10,1.9149514566431e-10,-0.0010625189789649,0.0010625194849785,-0.0010625190991251,0.0010625193815478,-0.0010625187649936,0.0010625196939151,-0.0010625189006269,0.0010625195767841,-0.0008768662038055,0.00087686728495609,-0.00087686677393887,0.00087686669624436,0.73612510041744,128566,2924,0.0036334373738873,0.0072069049652441,0.0036334373696135,23.051398722041,-5.5588810223672e-05,-5.5588810223672e-05,-5.5588810223672e-05,4260804.2154814,0.014580440900765
28219200,0.99486876433709,0.015140880177123,0.0041608441056438,0.0068191919640876,0.0041608441073917,-0.00087311807867843,0.00087311756742625,3.9806218024569e-11,-5.6453106426833e-10,2.4555120879806e-09,-3.093112344747e-09,-0.0010631048454898,0.001063106360323,-0.0010631050443683,0.0010631061712025,-0.0010631066069687,0.0010631045523578,-0.00106310681728,0.0010631043458981,-0.00087736648139913,0.00087736472548478,-0.00087736710581,0.00087736412688179,-1.4086596997661e-09,4.0552164400978e-09,1.1587079284446e-09,1.3897512611118e-09,-0.0017376620889789,0.0017376646270808,-0.0019228912039073,0.0019228918280119,-0.0019228911404244,0.0019228919015527,-0.0019228894196606,0.0019228936318715,-0.0019228893711218,0.001922893690768,-0.0015272587013993,0.0015272628815372,-0.0015272585056623,0.0015272630617174,-0.001527262060766,0.0015272593776451,-0.0015272567302097,0.0015272648687207,1.1250538698986e-11,6.2793070308647e-10,-0.00087311751159541,0.00087311813240791,4.6187529476208e-10,2.2090055830226e-10,-0.0010631053507244,0.0010631058401417,-0.001063105451511,0.0010631057561288,-0.001063105135173,0.0010631060506572,-0.0010631052516301,0.0010631059528237,-0.00087736504940392,0.00087736615949012,-0.00087736562366354,0.00087736556657719,0.7494891752081,128566,2924,0.0036350940430995,0.0072101896231497,0.0036350940386747,23.251154012247,-5.399076790202e-05,-5.399076790202e-05,-5.399076790202e-05,4255835.6235731,0.014587138456983
28419200,0.99503408401064,0.015143610717636,0.0041616088849911,0.0068203929459079,0.0041616088867368,-0.00087348686814466,0.00087348635621929,4.176388267514e-11,-5.6718558066252e-10,2.4592911884728e-09,-3.0978620270592e-09,-0.0010636869133088,0.0010636884318917,-0.0010636871139141,0.0010636882414573,-0.001063688677557,0.0010636866211297,-0.001063688889694,0.0010636864133936,-0.000877852143362,0.0008778503890195,-0.00087785277342986,0.00087784978624049,-1.4133590426749e-09,4.0593302951871e-09,1.1860911307889e-09,1.3620245983776e-09,-0.001738458967668,0.0017384615057796,-0.0019236321695869,0.0019236328094603,-0.001923632123879,0.0019236328645384,-0.0019236303824873,0.0019236346162902,-0.0019236303517733,0.0019236346567441,-0.0015280370807647,0.0015280413183428,-0.0015280369359401,0.0015280414390171,-0.0015280404828816,0.0015280377719304,-0.0015280351440376,0.0015280432719597,1.1304883391734e-11,6.3266789152578e-10,-0.00087348629814508,0.00087348692411084,4.3684485851296e-10,2.5332029661934e-10,-0.0010636874283641,0.0010636879018533,-0.0010636875101084,0.0010636878369761,-0.0010636872112526,0.0010636881139487,-0.0010636873086435,0.0010636880352293,-0.00087785069836124,0.00087785183555932,-0.00087785127713408,0.00087785123834088,0.7640241708046,128566,2924,0.0036366351193279,0.0072134726466707,0.0036366351148959,23.441761230099,-5.2465910159209e-05,-5.2465910159209e-05,-5.2465910159209e-05,4248976.2619777,0.014593600383618
28619200,0.99519591503601,0.015146302532771,0.0041623633687139,0.006821575793599,0.0041623633704577,-0.00087383891862337,0.00087383840611974,4.3830303512476e-11,-5.6980203534089e-10,2.4625847089242e-09,-3.1018925031074e-09,-0.001064278644174,0.0010642801662492,-0.0010642788465511,0.0010642799743216,-0.00106428041091,0.0010642783529719,-0.0010642806245202,0.0010642781437565,-0.00087833646378763,0.0008783347107955,-0.00087833709900461,0.00087833410464638,-1.4169365870893e-09,4.0625467148689e-09,1.211639801824e-09,1.336274978599e-09,-0.0017392735575614,0.0017392760955774,-0.0019243737935301,0.0019243744481304,-0.0019243737643855,0.0019243744857332,-0.0019243720043453,0.0019243762571449,-0.0019243719900133,0.0019243762802423,-0.0015288416021009,0.0015288458920014,-0.0015288415040756,0.0015288459595902,-0.0015288450424891,0.0015288423077654,-0.0015288396968501,0.001528847815411,1.0788748458934e-11,6.3675213689322e-10,-0.00087383834635318,0.00087383897623256,4.1615801295248e-10,2.7974772357003e-10,-0.0010642791678012,0.0010642796276431,-0.0010642792339876,0.0010642795781681,-0.0010642789491744,0.0010642798411403,-0.0010642790308516,0.0010642797780174,-0.00087833500757984,0.00087833616851297,-0.0008783355914596,0.00087833556646243,0.76896079964918,128566,2924,0.0036381077801162,0.0072168273642302,0.0036381077755851,23.632142904798,-5.0942856761617e-05,-5.0942856761617e-05,-5.0942856761617e-05,4240415.1894576,0.014599996820035
28819200,0.99535428780248,0.015148865178942,0.0041630789074977,0.0068227073622045,0.0041630789092397,-0.00087418144874616,0.00087418093548614,4.5708730818987e-11,-5.7256954936282e-10,2.4643853946094e-09,-3.104824376423e-09,-0.0010648634951078,0.0010648650197973,-0.0010648636991962,0.0010648648264533,-0.0010648652633535,0.0010648632048746,-0.001064865478692,0.0010648629943439,-0.00087881232279424,0.00087881057191478,-0.00087881296184934,0.00087880996042739,-1.4194861346141e-09,4.0645934809886e-09,1.2301281410767e-09,1.3174321465875e-09,-0.0017400851164805,0.0017400876543502,-0.0019251101076236,0.0019251107730455,-0.0019251100902478,0.0019251107979113,-0.0019251083170037,0.0019251125836392,-0.0019251083144692,0.0019251125940263,-0.0015296454743844,0.0015296498022619,-0.0015296454094089,0.0015296498294877,-0.0015296489415196,0.0015296461896678,-0.0015296435920623,0.0015296517029755,1.0272702475623e-11,6.4086934218528e-10,-0.0008741808744049,0.00087418150791683,4.0044913293622e-10,3.0103114225487e-10,-0.0010648640254384,0.0010648644742241,-0.0010648640793379,0.0010648644369984,-0.0010648638052513,0.0010648646892099,-0.0010648638745688,0.0010648646383826,-0.00087881085795394,0.00087881203980553,-0.00087881144618033,0.00087881143270764,0.74978435363501,128566,2924,0.0036395410633144,0.0072201691714396,0.0036395410593004,23.82474132379,-4.940206940968e-05,-4.940206940968e-05,-4.940206940968e-05,4231951.2998329,0.014606300187228
29019200,0.9955103461653,0.015151248609621,0.0041637389992403,0.0068237706094003,0.0041637390009806,-0.00087474462681236,0.0008747441129309,4.7507611004139e-11,-5.7540546870445e-10,2.4603531973104e-09,-3.1033638705699e-09,-0.0010656251168471,0.0010656266410526,-0.001065625323042,0.0010656264475114,-0.0010656268823455,0.0010656248280197,-0.0010656271007994,0.0010656246168227,-0.0008794864372522,0.00087948469453342,-0.00087948708634069,0.00087948407996803,-1.4212571185118e-09,4.0590923026341e-09,1.2151691680631e-09,1.3273856635733e-09,-0.001741084955327,0.0017410874904792,-0.0019260684430054,0.0019260691017666,-0.0019260684167892,0.0019260691335346,-0.0019260666534607,0.0019260709116348,-0.0019260666428919,0.0019260709283019,-0.0015306171866373,0.0015306214876375,-0.0015306170686504,0.0015306215034183,-0.0015306206400582,0.001530617895411,-0.0015306152992075,0.001530623411069,8.9568584384612e-12,6.44450025904e-10,-0.00087474405051041,0.00087474468801767,4.183803732962e-10,3.0157272670433e-10,-0.001065625644334,0.0010656260964106,-0.0010656257036408,0.0010656260534227,-0.0010656254219572,0.001065626313279,-0.001065625497153,0.0010656262561276,-0.00087948497964914,0.0008794861588939,-0.0008794855720696,0.00087948554650537,0.71130254208476,128566,2924,0.0036418890202579,0.0072242915657509,0.0036418890177374,24.140704011972,-4.6874367904221e-05,-4.6874367904221e-05,-4.6874367904221e-05,4229986.9351852,0.014615250379994
29219200,0.99566404142878,0.015153537601197,0.0041643706865687,0.0068247962263211,0.0041643706883071,-0.00087534403695696,0.00087534352475794,5.093902974099e-11,-5.7662972634538e-10,2.4597526627758e-09,-3.0991183493853e-09,-0.0010663196151761,0.001066321140604,-0.0010663198223829,0.0010663209442383,-0.0010663213799566,0.0010663193290869,-0.001066321598489,0.0010663191155618,-0.0008801417491463,0.00088014001226603,-0.00088014239928569,0.00088013939345824,-1.4148557772449e-09,4.0589617315053e-09,1.2043195444528e-09,1.342474936724e-09,-0.0017419973741697,0.0017419999114896,-0.0019269992794022,0.0019269999310833,-0.0019269992453624,0.0019269999725172,-0.0019269974921162,0.001927001738241,-0.0019269974729855,0.001927001765233,-0.0015314741894,0.0015314784635191,-0.00153147407305,0.0015314785385674,-0.0015314776176226,0.0015314748918158,-0.0015314722784853,0.0015314803951906,3.2062063430382e-12,6.4308857076023e-10,-0.0008753434652213,0.00087534409440766,4.2300627565452e-10,2.7458817888635e-10,-0.0010663201414443,0.0010663205988287,-0.0010663202116388,0.0010663205453409,-0.0010663199181563,0.0010663208169369,-0.0010663200037652,0.0010663207498326,-0.00088014029744834,0.00088014146611295,-0.00088014089513716,0.00088014085032272,0.69516967927899,128566,2924,0.0036443834940834,0.0072280576142848,0.003644383489713,24.459456535251,-4.4324347717995e-05,-4.4324347717995e-05,-4.4324347717995e-05,4235001.7322169,0.014624133747471
29419200,0.99581530140896,0.015155631197195,0.0041649416795299,0.0068257478363988,0.0041649416812668,-0.00087595636387864,0.00087595585229096,5.3529052352871e-11,-5.7862636935557e-10,2.4573147487028e-09,-3.0958801083701e-09,-0.0010669818511275,0.0010669833766844,-0.0010669820597327,0.0010669831787459,-0.0010669836140101,0.0010669815671418,-0.0010669838340512,0.00106698135192,-0.0008807797133989,0.00088077798347616,-0.00088078036702444,0.00088077735893303,-1.4120851192395e-09,4.0562988958531e-09,1.189153796756e-09,1.3575782814448e-09,-0.0017428613734368,0.0017428639105583,-0.0019279089743019,0.0019279096174164,-0.0019279089305993,0.0019279096693222,-0.0019279071886544,0.001927911422845,-0.0019279071599925,0.0019279114601238,-0.0015322700426359,0.0015322742850534,-0.0015322698991786,0.0015322743925725,-0.0015322734470282,0.0015322707367244,-0.0015322681130915,0.0015322762341593,-3.1630048061979e-13,6.4420127398252e-10,-0.00087595579396917,0.00087595642029845,4.3567188346419e-10,2.5764872776098e-10,-0.0010669823746642,0.0010669828378055,-0.0010669824546142,0.0010669827746077,-0.0010669821497771,0.0010669830575358,-0.0010669822452736,0.0010669829805799,-0.00088077826900314,0.0008807794305043,-0.00088077887089524,0.00088077881028421,0.65089858502951,128566,2924,0.0036469295363388,0.0072316261828777,0.0036469295323494,24.778307258584,-4.1773541931329e-05,-4.1773541931329e-05,-4.1773541931329e-05,4242843.3036108,0.014632920539809
29619200,0.995963975476,0.015157657453064,0.0041654930558277,0.0068266713396726,0.0041654930575634,-0.00087659118334875,0.00087659067224393,5.608181332182e-11,-5.8070284891819e-10,2.4556212237054e-09,-3.0935583327988e-09,-0.0010675497374866,0.0010675512637136,-0.0010675499475974,0.001067551064156,-0.0010675514990707,0.0010675494554975,-0.001067551720586,0.0010675492387022,-0.00088137745755961,0.00088137573381549,-0.00088137811531,0.00088137510454052,-1.4099512638979e-09,4.0543371414304e-09,1.1775311264088e-09,1.3692991822029e-09,-0.0017436042011558,0.0017436067382562,-0.0019287647962143,0.0019287654328998,-0.0019287647450861,0.0019287654926945,-0.0019287630118996,0.0019287672369558,-0.0019287629757706,0.0019287672821464,-0.0015329151930826,0.0015329194111902,-0.0015329150284371,0.0015329195435811,-0.0015329185796638,0.0015329158810808,-0.0015329132493996,0.0015329213741419,-3.7093342687813e-12,6.4543897973396e-10,-0.00087659061482286,0.00087659123885218,4.4591791727842e-10,2.4412629448428e-10,-0.0010675502591973,0.0010675507266652,-0.001067550347059,0.001067550655595,-0.0010675500328037,0.0010675509479401,-0.0010675501361817,0.0010675508631298,-0.0008813760187246,0.00088137717501837,-0.00088137662518387,0.00088137655025598,0.64191387160794,128566,2924,0.0036495644133244,0.0072346997948632,0.0036495644093009,25.087919149272,-3.9296646805823e-05,-3.9296646805823e-05,-3.9296646805823e-05,4258019.8824654,0.014641382626767
29819200,0.99610951355804,0.015159766072364,0.0041660725844751,0.0068276209016791,0.0041660725862097,-0.00087714385815992,0.00087714334738054,5.8603642287191e-11,-5.8282803065835e-10,2.4560547688469e-09,-3.0931668149065e-09,-0.0010680109672746,0.0010680124952956,-0.0010680111785409,0.001068012293667,-0.0010680127288631,0.0010680106868922,-0.0010680129517356,0.0010680104684264,-0.00088188024755155,0.0008818785285591,-0.00088188090861406,0.00088187789354657,-1.409049044166e-09,4.0551674323009e-09,1.1781169298071e-09,1.3698168697996e-09,-0.0017442172998923,0.0017442198375766,-0.0019295053586169,0.0019295059951483,-0.0019295053075026,0.0019295060553837,-0.0019295035742759,0.0019295077990225,-0.0019295035380525,0.0019295078447685,-0.0015334291618596,0.001533433380476,-0.0015334290052653,0.0015334335222339,-0.0015334325468614,0.0015334298497196,-0.0015334272156107,0.0015334353409822,-6.369515823752e-12,6.4731221084949e-10,-0.00087714329041577,0.00087714391315337,4.4229269173246e-10,2.4247063282096e-10,-0.0010680114912243,0.0010680119562536,-0.0010680115783611,0.0010680118860377,-0.0010680112634162,0.0010680121790144,-0.0010680113659638,0.0010680120950485,-0.00088187880845031,0.00088187996979044,-0.00088187941904828,0.00088187934113801,0.67837704610197,128566,2924,0.0036518570778881,0.0072372386556924,0.0036518570737409,25.340104505476,-3.7279163956188e-05,-3.7279163956188e-05,-3.7279163956188e-05,4272731.3310116,0.014648607464663
30019200,0.99625188729205,0.015161862487841,0.0041666499079595,0.0068285626701884,0.0041666499096929,-0.00087766518286105,0.00087766467233912,6.1068390825373e-11,-5.8498879564458e-10,2.4563709054465e-09,-3.0932526021387e-09,-0.0010685530854957,0.0010685546152554,-0.0010685532985733,0.0010685544124613,-0.0010685548472286,0.0010685528069092,-0.0010685550716939,0.0010685525868707,-0.00088240704469927,0.00088240533060468,-0.00088240771200963,0.00088240469283047,-1.4099676532796e-09,4.0547126591939e-09,1.1791595049571e-09,1.3678265745429e-09,-0.0017449161115579,0.0017449186487356,-0.001930272317204,0.001930272954707,-0.0019302722672345,0.001930273013731,-0.0019302705326738,0.001930274758829,-0.0019302704976833,0.0019302748032093,-0.0015340532264558,0.0015340574476271,-0.0015340530683622,0.0015340575809704,-0.0015340566157965,0.001534053915956,-0.0015340512840171,0.0015340594081806,-8.6622669582493e-12,6.4971568075877e-10,-0.00087766461489762,0.00087766523822498,4.4274348046117e-10,2.4490129478649e-10,-0.0010685536113015,0.0010685540743131,-0.0010685536978598,0.001068554004577,-0.001068553381852,0.0010685542986919,-0.0010685534839275,0.0010685542151968,-0.00088240560545147,0.00088240677122398,-0.00088240622123531,0.00088240613793318,0.68873091227284,128566,2924,0.0036540236044255,0.0072401268982949,0.0036540236000658,25.590987382699,-3.5272100938406e-05,-3.5272100938406e-05,-3.5272100938406e-05,4279446.8963889,0.014655934107584
30219200,0.99639108278709,0.015163817344287,0.0041671840997773,0.0068294491429998,0.0041671841015098,-0.00087816972838376,0.00087816921739762,6.3115125515945e-11,-5.875858485026e-10,2.4562715520534e-09,-3.0940958834064e-09,-0.0010691154364823,0.0010691169678309,-0.0010691156512422,0.0010691167636406,-0.0010691171983986,0.0010691151591988,-0.0010691174246036,0.0010691149378207,-0.00088293224763512,0.0008829305373896,-0.00088293291935588,0.00088292989476369,-1.4105085853427e-09,4.0549036269482e-09,1.1806754505284e-09,1.3661503696322e-09,-0.0017456360325123,0.001745638569603,-0.0019310390111064,0.0019310396495266,-0.0019310389620312,0.0019310397072177,-0.0019310372264072,0.0019310414539695,-0.0019310371923341,0.0019310414970317,-0.0015347049178982,0.0015347091425415,-0.0015347047592046,0.0015347092686162,-0.0015347083094318,0.0015347056076181,-0.0015347029780024,0.0015347111018585,-1.0481273135183e-11,6.5254769233606e-10,-0.00087816915970838,0.00087816978417444,4.4260985369044e-10,2.4793032466347e-10,-0.0010691159640522,0.0010691164248861,-0.0010691160495579,0.001069116356196,-0.0010691157330201,0.0010691166507798,-0.0010691158340195,0.0010691165683324,-0.00088293080739653,0.00088293197981651,-0.00088293142755816,0.00088293134162586,0.66008313805858,128566,2924,0.0036561216825902,0.0072431008176739,0.0036561216786083,25.84182433357,-3.3265405331443e-05,-3.3265405331443e-05,-3.3265405331443e-05,4283744.8809034,0.014663209872553
30419200,0.99652738323377,0.015165619551711,0.0041676717099648,0.0068302761300496,0.0041676717116961,-0.00087875413609154,0.00087875362512181,6.5442755820202e-11,-5.8992169589728e-10,2.4557473231638e-09,-3.0938290252352e-09,-0.0010696879089127,0.0010696894416316,-0.0010696881253213,0.0010696892360138,-0.0010696896704553,0.0010696876332104,-0.0010696898983873,0.0010696874104486,-0.00088349984128039,0.00088349813618892,-0.00088350051874231,0.00088349748991209,-1.410567642068e-09,4.0539951997588e-09,1.1757143466161e-09,1.3704956253582e-09,-0.0017463583433499,0.0017463608801079,-0.0019318501919117,0.0019318508276268,-0.0019318501397708,0.0019318508881918,-0.0019318484075093,0.0019318526318102,-0.0019318483703848,0.0019318526777401,-0.0015353365591895,0.0015353407741795,-0.0015353363870388,0.0015353409044838,-0.0015353399451397,0.0015353372464836,-0.0015353346150313,0.001535342740893,-1.3035747375322e-11,6.5465317388958e-10,-0.00087875356747504,0.00087875419183534,4.4782042601103e-10,2.4467783436306e-10,-0.0010696884367215,0.0010696888981705,-0.0010696885250294,0.0010696888266241,-0.0010696882041032,0.0010696891256041,-0.0010696883078765,0.0010696890403036,-0.00088349840322414,0.00088349957622323,-0.00088349902819007,0.00088349893343149,0.62526528574012,128566,2924,0.0036585487146118,0.0072460881420484,0.0036585487106281,26.129816196991,-3.0961470424068e-05,-3.0961470424068e-05,-3.0961470424068e-05,4293938.4331653,0.014671165041535
30619200,0.99666157872955,0.015167514367019,0.0041681901833128,0.0068311339986632,0.0041681901850431,-0.00087955857876132,0.00087955806813917,6.7908345665404e-11,-5.9208580638917e-10,2.4530141393813e-09,-3.0911364587854e-09,-0.0010703983616995,0.001070399894618,-0.0010703985796894,0.0010703996875245,-0.0010704001212173,0.0010703980878278,-0.0010704003509907,0.0010703978638415,-0.00088425096564708,0.00088424926772607,-0.00088425164959273,0.00088424861836782,-1.4086918272552e-09,4.0504803715462e-09,1.1553202107606e-09,1.3897893173021e-09,-0.0017472210667217,0.0017472236028399,-0.0019328548747278,0.0019328554991621,-0.001932854809644,0.0019328555726645,-0.0019328530920948,0.0019328573015342,-0.0019328530420198,0.0019328573604562,-0.0015360817489288,0.0015360859227298,-0.0015360815317552,0.0015360860848615,-0.0015360851071917,0.0015360824255833,-0.0015360797830836,0.0015360879160372,-1.6912223084003e-11,6.554723572538e-10,-0.00087955801157103,0.00087955863338496,4.681591218543e-10,2.2453322425879e-10,-0.0010703988850171,0.0010703993551019,-0.001070398986714,0.0010703992701125,-0.0010703986508102,0.0010703995840709,-0.0010703987678771,0.0010703994853366,-0.00088424953742963,0.00088425069737629,-0.00088425016736452,0.00088425005002138,0.66318231404024,128566,2924,0.0036618864438036,0.0072496602354602,0.0036618864397451,26.524174748227,-2.7806602014186e-05,-2.7806602014186e-05,-2.7806602014186e-05,4312345.7106099,0.014681559752792
30819200,0.99679358892772,0.015169468076059,0.0041687283269912,0.0068320114203474,0.0041687283287206,-0.00088033674318028,0.00088033623321265,7.0594834981029e-11,-5.9401423018682e-10,2.4520500108568e-09,-3.0888273005639e-09,-0.0010712076247217,0.0010712091585388,-0.0010712078440054,0.0010712089496137,-0.001071209383385,0.0010712073529703,-0.0010712096142484,0.001071207127002,-0.00088503854756768,0.00088503685529489,-0.00088503923362225,0.00088503619974307,-1.4060203643371e-09,4.0498172957439e-09,1.1420272232052e-09,1.4043439190808e-09,-0.0017481937538787,0.0017481962905726,-0.0019339039516228,0.0019339045675783,-0.001933903877752,0.0019339046508865,-0.0019339021699998,0.0019339063688235,-0.0019339021111451,0.0019339064375094,-0.0015369656570884,0.0015369698026678,-0.0015369654227193,0.0015369700039952,-0.0015369689930874,0.0015369663254746,-0.0015369636710764,0.0015369718104902,-2.0716144290424e-11,6.5622138043094e-10,-0.00088033617821674,0.00088033679620239,4.7718971459354e-10,2.0647441535386e-10,-0.0010712081462545,0.0010712086213788,-0.0010712082569708,0.0010712085274784,-0.0010712079105985,0.0010712088519123,-0.0010712080367691,0.0010712087442421,-0.00088503712527021,0.00088503827919012,-0.00088503775933649,0.00088503762758199,0.69236329330211,128566,2924,0.0036651195890917,0.0072536812839681,0.0036651195849552,26.920953733583,-2.4632370131335e-05,-2.4632370131335e-05,-2.4632370131335e-05,4322038.7375402,0.014692201338308
31019200,0.99692331769394,0.015171447915377,0.0041692758536702,0.0068328962063078,0.0041692758553987,-0.00088108796853421,0.00088108745867594,7.2946997355701e-11,-5.9628141914043e-10,2.4514030083282e-09,-3.0880272396817e-09,-0.0010720789007595,0.0010720804357548,-0.0010720791215331,0.0010720802252364,-0.0010720806589437,0.0010720786306645,-0.0010720808913234,0.0010720784031261,-0.00088584525038807,0.00088584356313211,-0.00088584594045754,0.00088584290256325,-1.4053448901489e-09,4.0490519029496e-09,1.1342587786435e-09,1.4119647359759e-09,-0.0017492420979606,0.0017492446344919,-0.0019349769978991,0.0019349776091213,-0.0019349769191154,0.0019349776975995,-0.0019349752167337,0.0019349794098993,-0.0019349751529759,0.0019349794837398,-0.0015379448178128,0.0015379489476193,-0.0015379445692283,0.0015379491650241,-0.0015379481425508,0.001537945481354,-0.0015379428219122,0.0015379509648217,-2.3533834013408e-11,6.5802784159359e-10,-0.00088108740425719,0.00088108802104987,4.8410368037663e-10,1.9784223714737e-10,-0.0010720794216327,0.0010720798992427,-0.0010720795375118,0.0010720798001978,-0.0010720791844382,0.0010720801313249,-0.0010720793157741,0.0010720800185025,-0.00088584383143281,0.00088584498402906,-0.00088584446991351,0.00088584432781489,0.71215833276657,128566,2924,0.0036682442108081,0.0072580108119067,0.0036682442068178,27.317818178396,-2.1457454572831e-05,-2.1457454572831e-05,-2.1457454572831e-05,4325570.0865107,0.014702938179514
31219200,0.99705178940126,0.015173509166849,0.004169849681371,0.0068338098023798,0.0041698496830986,-0.00088208438001769,0.00088208387011982,7.5229823758465e-11,-5.9872269004752e-10,2.4475230157343e-09,-3.0851855824629e-09,-0.0010732657557165,0.0010732672896626,-0.0010732659790238,0.0010732670794423,-0.0010732675114798,0.0010732654877748,-0.0010732677457943,0.0010732652580891,-0.00088694008371217,0.00088693840450283,-0.00088694078270996,0.00088693774294153,-1.4046089508666e-09,4.0440244788281e-09,1.1008711134373e-09,1.4427552382884e-09,-0.0017506477907753,0.0017506503253217,-0.0019363734516212,0.0019363740429653,-0.0019363733523401,0.0019363741515921,-0.0019363716721611,0.0019363758426804,-0.0019363715887702,0.0019363759353444,-0.0015392900213789,0.0015392940834839,-0.0015392896869185,0.0015392943427283,-0.0015392933037922,0.0015392906685572,-0.0015392879926343,0.0015392961523747,-2.6071379827684e-11,6.6028344343972e-10,-0.00088208381538442,0.00088208443305001,5.0852786949913e-10,1.8456512516028e-10,-0.0010732662714806,0.0010732667578643,-0.0010732663999883,0.0010732666453463,-0.0010732660318984,0.0010732669918298,-0.0010732661770186,0.0010732668650431,-0.00088693867419116,0.00088693981826499,-0.00088693931709144,0.00088693915524276,0.74546030856692,128566,2924,0.0036723898768752,0.0072638142044927,0.0036723898733332,27.867489074623,-1.7060087403012e-05,-1.7060087403012e-05,-1.7060087403012e-05,4328516.5735933,0.014717244575076
31419200,0.99717895728939,0.015175449824937,0.0041703857109299,0.0068346784013497,0.004170385712657,-0.00088306713853192,0.00088306662903383,7.7763330067469e-11,-6.0081382140492e-10,2.4460682457831e-09,-3.0830937922186e-09,-0.0010745323324491,0.0010745338677783,-0.0010745325565332,0.0010745336544409,-0.0010745340869872,0.0010745320660727,-0.0010745343231099,0.0010745318359557,-0.00088806741651342,0.00088806574289421,-0.00088806811773115,0.00088806507424001,-1.4016030062256e-09,4.0425378874189e-09,1.0913256108694e-09,1.4529288931373e-09,-0.0017521615000876,0.0017521640353922,-0.0019378256726957,0.0019378262600351,-0.0019378255671825,0.0019378263755037,-0.0019378238948621,0.0019378280575102,-0.0019378238045541,0.0019378281583518,-0.0015407608473961,0.0015407648904911,-0.0015407605078104,0.0015407651784837,-0.001540764112737,0.0015407614864401,-0.0015407588042143,0.0015407669621156,-3.1114639384566e-11,6.5986644683079e-10,-0.00088306657706841,0.00088306718867292,5.2872379899793e-10,1.5190850587663e-10,-0.0010745328425954,0.0010745333411861,-0.0010745329888779,0.0010745332119145,-0.0010745326022128,0.0010745335764623,-0.0010745327639698,0.0010745334333302,-0.00088806601906398,0.00088806714317209,-0.00088806666665817,0.00088806647745316,0.71242631376296,128566,2924,0.0036764823280339,0.0072700593939357,0.0036764823242208,28.435614623739,-1.2515083010089e-05,-1.2515083010089e-05,-1.2515083010089e-05,4326152.602161,0.014731893640031
31619200,0.99730463546897,0.015177273742808,0.004170885653986,0.0068355024331095,0.004170885655712,-0.00088406215061327,0.0008840616414302,8.0272469639242e-11,-6.0292698168357e-10,2.4457650763903e-09,-3.0818191364526e-09,-0.0010757199163872,0.0010757214528226,-0.0010757201416988,0.001075721237606,-0.0010757216705171,0.001075719651605,-0.0010757219076837,0.0010757194194672,-0.00088916034403578,0.00088915867512388,-0.0008891610481807,0.00088915800123023,-1.4001022524843e-09,4.0424914465435e-09,1.0790030638441e-09,1.4661651161915e-09,-0.0017535910651803,0.0017535936007487,-0.0019392453627105,0.0019392459410579,-0.0019392452486753,0.0019392460659324,-0.0019392435853387,0.0019392477379479,-0.001939243486404,0.0019392478481232,-0.0015421246679425,0.0015421286852911,-0.0015421243101758,0.0015421290084982,-0.0015421279141166,0.0015421252996897,-0.0015421226057729,0.0015421307723805,-3.4241240181558e-11,6.6130956564708e-10,-0.00088406159043529,0.00088406219976342,5.3256141543785e-10,1.4202560141022e-10,-0.0010757204265939,0.0010757209266802,-0.0010757205771084,0.0010757207929713,-0.0010757201846724,0.0010757211634407,-0.0010757203506952,0.0010757210159002,-0.00088915894866372,0.00088916007297138,-0.00088915960081085,0.00088915940283048,0.68057768182393,128566,2924,0.0036806224110917,0.0072759605920519,0.0036806224072265,29.00420267179,-7.9663786256772e-06,-7.9663786256772e-06,-7.9663786256772e-06,4330642.8242145,0.014746287731122
31819200,0.99742651334885,0.015178977827564,0.0041713499468582,0.0068362779321229,0.0041713499485832,-0.00088454908465722,0.00088454857532616,8.2628199743157e-11,-6.05112007538e-10,2.4543120040467e-09,-3.0885004266673e-09,-0.0010762764320442,0.0010762779743329,-0.0010762766581976,0.0010762777567046,-0.0010762781920257,0.0010762761685096,-0.0010762784293036,0.0010762759334914,-0.00088968225170293,0.00088968058000606,-0.00088968295188617,0.00088967989542468,-1.4036503811502e-09,4.0542631952776e-09,1.1359039466789e-09,1.414674438314e-09,-0.0017543196096772,0.0017543221482408,-0.0019400151333505,0.0019400157418988,-0.0019400150548152,0.0019400158322047,-0.0019400133508007,0.0019400175438072,-0.0019400132873489,0.0019400176193337,-0.0015427827297896,0.0015427868605934,-0.0015427825113171,0.0015427871162571,-0.0015427860482714,0.0015427833894393,-0.0015427807212527,0.0015427888699242,-3.3418075620949e-11,6.6655743758968e-10,-0.00088454852261171,0.00088454913549209,4.7370814180614e-10,1.8870281803601e-10,-0.0010762769607125,0.0010762774319253,-0.001076277076294,0.001076277333534,-0.0010762767175296,0.0010762776702414,-0.0010762768488586,0.0010762775579687,-0.00088968082995762,0.00088968200513723,-0.00088968148499238,0.00088968133129069,0.65805654445584,128566,2924,0.0036826479252939,0.0072789691698449,0.0036826479212988,29.2661289491,-5.8709684071982e-06,-5.8709684071982e-06,-5.8709684071982e-06,4335030.5160043,0.014753452034537
32019200,0.99754298681593,0.015180770558195,0.0041718458868859,0.0068370787826994,0.0041718458886096,-0.00088464366206721,0.00088464315062695,8.3839396657364e-11,-6.0855789829023e-10,2.4648580423817e-09,-3.101691350223e-09,-0.0010763388536034,0.0010763404034218,-0.001076339081687,0.0010763401845153,-0.0010763406213844,0.00107633858967,-0.0010763408605269,0.0010763383534791,-0.00088975511209527,0.00088975343525433,-0.00088975581723684,0.00088975274590003,-1.4155362048112e-09,4.0659190673752e-09,1.2239195177459e-09,1.3266547500786e-09,-0.0017544931412307,0.0017544956802625,-0.0019402620951698,0.0019402627550395,-0.0019402620734169,0.0019402627864405,-0.0019402603051001,0.0019402645647676,-0.001940260298321,0.0019402645814752,-0.0015428877281099,0.0015428920406005,-0.0015428876762229,0.0015428921152704,-0.0015428911770727,0.0015428884366561,-0.0015428858271105,0.0015428939414893,-2.7986406777131e-11,6.7661610856614e-10,-0.00088464309121548,0.00088464371990874,3.953413340348e-10,2.8744005531906e-10,-0.0010763394089453,0.001076339834413,-0.0010763394657526,0.0010763397947904,-0.0010763391642219,0.0010763400741934,-0.0010763392366121,0.0010763400207719,-0.00088975364928371,0.00088975490223883,-0.000889754308953,0.00088975422387118,0.71766340188455,128566,2924,0.0036830401905589,0.0072796879775591,0.0036830401872188,29.281026349472,-5.7517892042244e-06,-5.7517892042244e-06,-5.7517892042244e-06,4338748.9471651,0.014754975785284
32219200,0.99765425439184,0.015182523736593,0.0041723322919514,0.0068378591509677,0.0041723322936738,-0.00088468422750468,0.0008846837141947,8.5178566619803e-11,-6.1191505634426e-10,2.471302848148e-09,-3.1115188777047e-09,-0.0010765053065472,0.0010765068617324,-0.0010765055370785,0.001076506642389,-0.001076507079389,0.00107650504265,-0.0010765073209442,0.0010765048056475,-0.00088985244101516,0.00088985076290398,-0.00088985315658662,0.00088985007350215,-1.4258014423917e-09,4.0721074972641e-09,1.2916051596431e-09,1.256541685514e-09,-0.0017547812617145,0.0017547837997359,-0.0019405300667507,0.0019405307675644,-0.0019405300891286,0.0019405307517625,-0.0019405282714764,0.0019405325829916,-0.0019405283089473,0.0019405325523668,-0.0015431524427328,0.0015431568955776,-0.0015431525026926,0.0015431568078368,-0.0015431559969599,0.0015431531917058,-0.0015431506332493,0.0015431587174605,-2.4440567925441e-11,6.8496832841477e-10,-0.00088468364874017,0.00088468429134587,3.4159401409617e-10,3.6754537847352e-10,-0.0010765058818057,0.0010765062719851,-0.0010765058942316,0.0010765062764225,-0.0010765056352508,0.0010765065133107,-0.0010765056632814,0.0010765065039704,-0.00088985094840261,0.00088985225876238,-0.00088985161369298,0.00088985157515058,0.73340853381216,128566,2924,0.0036832140457341,0.0072808729957507,0.003683214042342,29.290223198089,-5.6782144152912e-06,-5.6782144152912e-06,-5.6782144152912e-06,4330920.1405076,0.014756533864634
32419200,0.99776054423374,0.015184243033154,0.0041728110411784,0.0068386209490757,0.0041728110429002,-0.00088470566809994,0.00088470515402177,8.7188610251114e-11,-6.1457092878131e-10,2.4764936092319e-09,-3.1177816465579e-09,-0.0010766899408757,0.0010766915006253,-0.0010766901732672,0.0010766912800959,-0.0010766917175008,0.0010766896778073,-0.00107669196078,0.0010766894394285,-0.00088995564695859,0.00088995396935745,-0.00088995636957943,0.00088995327767077,-1.431643981612e-09,4.0777432362138e-09,1.3447333120851e-09,1.2034602410569e-09,-0.0017550927722248,0.0017550953104785,-0.0019407961878439,0.0019407969200087,-0.0019407962440301,0.0019407968684404,-0.0019407943888779,0.0019407987392644,-0.0019407944601799,0.0019407986728823,-0.00154345180801,0.0015434563693424,-0.0015434519673247,0.0015434561718756,-0.0015434554399387,0.0015434525882094,-0.0015434500652456,0.001543458125963,-2.3173902288486e-11,6.9091121671931e-10,-0.00088470508471477,0.00088470573549053,2.9460468526438e-10,4.2582522296317e-10,-0.0010766905329602,0.001076690894093,-0.0010766905104756,0.0010766909333954,-0.0010766902848023,0.0010766911369435,-0.0010766902779245,0.0010766911624707,-0.00088995413145344,0.00088995548693396,-0.00088995480183994,0.00088995479912454,0.75109427025696,128566,2924,0.0036833100532627,0.0072821525719058,0.0036833100492455,29.299217856347,-5.6062571492258e-06,-5.6062571492258e-06,-5.6062571492258e-06,4320854.6962315,0.014758030741154
32619200,0.99786181670696,0.015185750941932,0.0041732258723109,0.0068392991955897,0.0041732258740319,-0.00088461844815778,0.00088461793398645,8.959107705777e-11,-6.1686514878439e-10,2.4803807207756e-09,-3.1207365636401e-09,-0.001076802233665,0.0010768037970875,-0.001076802467317,0.001076803574085,-0.0010768040130624,0.0010768019716566,-0.0010768042569314,0.001076801731301,-0.00088996782929421,0.00088996615197831,-0.00088996855352208,0.00088996545594364,-1.4319360581011e-09,4.0819087593717e-09,1.383446069084e-09,1.1674427827185e-09,-0.0017553312263816,0.0017553337659953,-0.0019409640839836,0.0019409648383838,-0.0019409641642484,0.0019409647624559,-0.0019409622838091,0.0019409666586947,-0.0019409623784783,0.0019409665683252,-0.0015436933796166,0.0015436980163237,-0.0015436936250555,0.0015436977650412,-0.0015436970597518,0.0015436941823985,-0.0015436916774043,0.0015436997223557,-2.4495102893627e-11,6.9402476860841e-10,-0.00088461786400643,0.0008846185158883,2.6042480223047e-10,4.5455557001895e-10,-0.0010768028377392,0.0010768031795645,-0.0010768027944355,0.0010768032396709,-0.0010768025884035,0.001076803423549,-0.0010768025602368,0.0010768034703609,-0.00088996629827892,0.00088996768357563,-0.00088996697422174,0.00088996699146082,0.69653887867496,128566,2924,0.0036829562497861,0.0072831279804017,0.0036829562450505,29.262864837948,-5.8970812964153e-06,-5.8970812964153e-06,-5.8970812964153e-06,4307523.324946,0.014758306789596
32819200,0.99795819687651,0.015187068356514,0.0041735836165763,0.006839901121641,0.0041735836182969,-0.00088453105068567,0.00088453053653657,9.1769309830431e-11,-6.1922921241336e-10,2.4781185023499e-09,-3.1192980411743e-09,-0.0010767573020215,0.0010767588658037,-0.0010767575375956,0.0010767586422555,-0.0010767590799139,0.0010767570421361,-0.0010767593261067,0.0010767568004677,-0.00088989861694394,0.00088989694678957,-0.00088989934651272,0.00088989624434396,-1.4325528791399e-09,4.0798544161893e-09,1.3852061949604e-09,1.1636943757591e-09,-0.0017553820498228,0.0017553845884149,-0.0019410292345912,0.0019410299914827,-0.001941029316202,0.001941029913561,-0.0019410274345631,0.0019410318117995,-0.00194102753135,0.0019410317189638,-0.0015437132158635,0.0015437178569632,-0.0015437134576112,0.0015437175860042,-0.001543716899542,0.0015437140194626,-0.0015437115214971,0.0015437195594573,-2.5450704895494e-11,6.9788472638972e-10,-0.00088453046520115,0.00088453112029282,2.5686090834027e-10,4.6647218923636e-10,-0.0010767579087917,0.0010767582452057,-0.0010767578602237,0.0010767583106845,-0.0010767576575553,0.0010767584911325,-0.0010767576246603,0.0010767585428115,-0.00088989708523862,0.00088989848175451,-0.00088989776435573,0.00088989778482939,0.64446136911895,128566,2924,0.0036825958285047,0.0072833350311975,0.0036825958248694,29.204366431356,-6.36506854915e-06,-6.36506854915e-06,-6.36506854915e-06,4304497.7087205,0.014757785365007
33019200,0.99804993200565,0.015188433122455,0.004173959663191,0.0068405137943526,0.0041739596649109,-0.0008845056084362,0.00088450509488929,9.4400231374863e-11,-6.2127632026754e-10,2.474652967363e-09,-3.1153051407723e-09,-0.0010766161802215,0.0010766177437852,-0.0010766164174214,0.0010766175186745,-0.0010766179555905,0.0010766159224548,-0.0010766182034048,0.0010766156794076,-0.00088981106787408,0.0008898094054749,-0.00088981180278859,0.00088980869927023,-1.4291012479967e-09,4.0756450351359e-09,1.3699085076472e-09,1.1784943775116e-09,-0.0017553057954471,0.0017553083336995,-0.0019410482260376,0.0019410489756242,-0.0019410482979802,0.0019410489074325,-0.0019410464286144,0.0019410507933233,-0.0019410465156,0.0019410507103576,-0.0015435737295992,0.0015435783383163,-0.0015435739395203,0.0015435780942253,-0.0015435773895554,0.0015435745261468,-0.0015435720191201,0.0015435800591285,-2.8999473839657e-11,6.9897863821825e-10,-0.00088450502433659,0.00088450567722229,2.7119028941105e-10,4.5087068518524e-10,-0.0010766167837697,0.0010766171261448,-0.0010766167452121,0.0010766171815541,-0.0010766165310377,0.0010766173735678,-0.0010766165080158,0.0010766174152786,-0.00088980954400055,0.00088981093228175,-0.00088981022796436,0.00088981023069063,0.69524136706113,128566,2924,0.0036824865538188,0.007283024714631,0.003682486550108,29.145351855884,-6.837185152928e-06,-6.837185152928e-06,-6.837185152928e-06,4311548.8797721,0.014757244802918
33219200,0.99813725893089,0.015189801788115,0.0041743395565703,0.0068411226732547,0.0041743395582896,-0.00088444426348995,0.00088444375092783,9.7210612225539e-11,-6.2310282236334e-10,2.4697610883378e-09,-3.1093136088095e-09,-0.0010765839014706,0.0010765854639067,-0.0010765841400966,0.0010765852371658,-0.0010765856731926,0.00107658364616,-0.0010765859225603,0.0010765834015377,-0.00088975903414453,0.00088975738091495,-0.0008897597737917,0.00088975667025328,-1.4239834635179e-09,4.0699333060959e-09,1.3376829288812e-09,1.2102138735028e-09,-0.0017553456020351,0.0017553481397989,-0.0019411040001604,0.001941104731814,-0.0019411040514626,0.0019411046850393,-0.0019411022061927,0.0019411065459002,-0.0019411022725863,0.0019411064843028,-0.0015435867469645,0.0015435912888531,-0.0015435868946031,0.0015435911079328,-0.0015435903585904,0.0015435875264931,-0.0015435849987951,0.0015435930487015,-3.4182604465486e-11,6.9844495227291e-10,-0.00088444368273884,0.00088444432988683,2.9961364989101e-10,4.1603463851285e-10,-0.0010765844974735,0.0010765848537137,-0.0010765844798659,0.0010765848881847,-0.0010765842431842,0.0010765851027178,-0.0010765842411378,0.0010765851234412,-0.00088975752593405,0.00088975889198363,-0.00088975821439975,0.00088975818591086,0.72922792014826,128566,2924,0.0036822334352819,0.0072831876658479,0.0036822334315184,29.086318938923,-7.3094484886172e-06,-7.3094484886172e-06,-7.3094484886172e-06,4308423.1646816,0.01475689670686
33419200,0.99822174910849,0.015191152926025,0.0041747155853414,0.0068417217536233,0.0041747155870601,-0.00088484547715942,0.00088484496536338,9.9867931768678e-11,-6.2541092115386e-10,2.4578079980976e-09,-3.0989269969368e-09,-0.0010771338960262,0.0010771354541066,-0.0010771341386577,0.0010771352282962,-0.001077135660686,0.0010771336446961,-0.0010771359125126,0.0010771333992426,-0.0008902386955251,0.00089023705566067,-0.00089023944547834,0.00089023634596326,-1.4168379835722e-09,4.0521905710655e-09,1.2503337059283e-09,1.2905387534564e-09,-0.0017560298762264,0.001756032410182,-0.0019417521247247,0.0019417528109025,-0.0019417521229302,0.0019417528176708,-0.0019417503392605,0.0019417546174905,-0.0019417503527608,0.0019417546091542,-0.001544254443368,0.0015442588087426,-0.0015442543859596,0.0015442587434773,-0.0015442579409877,0.0015442551784469,-0.00154425260949,0.0015442606852722,-4.219656534485e-11,6.9538704381813e-10,-0.0008848449011852,0.00088484553981851,3.9885924165337e-10,3.271737348032e-10,-0.0010771344650611,0.0010771348693163,-0.001077134510745,0.0010771348402184,-0.0010771342089502,0.0010771351200599,-0.0010771342702842,0.0010771350776096,-0.00089023723025887,0.00089023852282359,-0.00089023792623824,0.00089023780890593,0.74278653836741,128566,2924,0.0036839057665093,0.0072860094021632,0.0036839057633828,29.312107185583,-5.5031425153356e-06,-5.5031425153356e-06,-5.5031425153356e-06,4304972.612392,0.014763157491788
33619200,0.99830379326505,0.015192465427624,0.0041750807949451,0.0068423038360148,0.0041750807966641,-0.00088535710094499,0.0008853565906005,1.0287963561797e-10,-6.2701092441161e-10,2.447363495341e-09,-3.0865221572785e-09,-0.0010778388361265,0.0010778403899429,-0.0010778390781081,0.0010778401600729,-0.0010778405920246,0.0010778385863323,-0.001077840845733,0.0010778383399181,-0.00089085390945991,0.00089085228331487,-0.00089085466241169,0.00089085156649962,-1.4052805775253e-09,4.0419256264172e-09,1.154706325985e-09,1.3865700867062e-09,-0.0017568942028032,0.0017568967363418,-0.001942558852455,0.0019425594802407,-0.0019425587873185,0.001942559551854,-0.0019425570738747,0.0019425612788126,-0.0019425570237503,0.0019425613359294,-0.0015451058755059,0.0015451100448665,-0.0015451056424829,0.0015451101849627,-0.0015451092292124,0.001545106553885,-0.0015451039188144,0.0015451120376869,-5.1963809894218e-11,6.9023020803009e-10,-0.00088535653393385,0.0008853571563515,4.7593221365639e-10,2.2609805631087e-10,-0.0010778393811656,0.0010778398276506,-0.0010778394850948,0.0010778397403523,-0.0010778391236465,0.0010778400796846,-0.0010778392426008,0.0010778399788494,-0.00089085248651094,0.00089085371202517,-0.00089085318573098,0.00089085299480054,0.74303043459055,128566,2924,0.0036860383926414,0.0072895731560662,0.0036860383900313,29.613968972202,-3.0882482223855e-06,-3.0882482223855e-06,-3.0882482223855e-06,4301208.7118661,0.014771106409467
33819200,0.99838340130471,0.015193743103806,0.0041754364319573,0.0068428702381726,0.0041754364336761,-0.00088585903200487,0.00088585852398568,1.0647827075934e-10,-6.2796447759443e-10,2.4421681258887e-09,-3.0769227324461e-09,-0.0010785351340514,0.0010785366858817,-0.0010785353766142,0.0010785364537342,-0.0010785368855021,0.0010785348875826,-0.0010785371396558,0.0010785346383566,-0.00089146401011235,0.00089146239513529,-0.0008914647645335,0.00089146167152947,-1.3960663116031e-09,4.0373214990113e-09,1.0839757721078e-09,1.4601754229961e-09,-0.001757756383009,0.001757758917653,-0.0019433655917189,0.0019433661752935,-0.0019433654806178,0.0019433662966387,-0.0019433638172643,0.0019433679691855,-0.001943363721341,0.0019433680757836,-0.0015459534369571,0.0015459574607087,-0.0015459530891748,0.0015459577730097,-0.0015459566847112,0.0015459540742744,-0.0015459513846439,0.0015459595378439,-6.1215726482459e-11,6.8552550626561e-10,-0.0008858584736425,0.00088585908047588,5.2964004700718e-10,1.4278673624447e-10,-0.0010785356625475,0.0010785361415892,-0.0010785358118533,0.0010785360091447,-0.0010785354036173,0.0010785363953962,-0.0010785355683847,0.0010785362491572,-0.00089146261729962,0.00089146379004318,-0.00089146331999741,0.00089146306983041,0.74517770147529,128566,2924,0.0036881310821738,0.0072931274763563,0.0036881310782536,29.917641000733,-6.5887199413168e-07,-6.5887199413168e-07,-6.5887199413168e-07,4297801.6347801,0.01477896446349
34019200,0.99846057754424,0.015194943666196,0.0041757690785979,0.0068434055072822,0.0041757690803161,-0.00088635142238592,0.00088635091501092,1.0910192270968e-10,-6.2999650977385e-10,2.4390228721321e-09,-3.0728806334589e-09,-0.0010792214576872,0.0010792230092525,-0.001079221701456,0.0010792227751439,-0.0010792232067721,0.0010792212132697,-0.0010792234622384,0.0010792209622654,-0.00089206447418616,0.00089206286654274,-0.00089206523172231,0.00089206213702642,-1.392538050389e-09,4.0336334799719e-09,1.03601118504e-09,1.5078765555239e-09,-0.0017586125993449,0.0017586151335975,-0.0019441665449071,0.0019441670992486,-0.0019441664035656,0.0019441672528001,-0.0019441647727627,0.0019441688906702,-0.0019441646465416,0.0019441690294718,-0.0015467956674893,0.0015467995946184,-0.0015467952294098,0.0015468000045026,-0.0015467988484063,0.0015467962764407,-0.0015467935550394,0.001546801732306,-6.6572011574052e-11,6.8483160048188e-10,-0.00088635086781641,0.0008863514679026,5.7265997889544e-10,9.073088417035e-11,-0.0010792219739811,0.0010792224771403,-0.0010792221548539,0.0010792223131533,-0.0010792217135399,0.0010792227324977,-0.0010792219098414,0.001079222554741,-0.00089206310114095,0.00089206424160912,-0.00089206380818038,0.00089206351669033,0.72426546183323,128566,2924,0.0036901842306112,0.0072966569005255,0.003690184227094,30.221377609205,1.7710208736428e-06,1.7710208736428e-06,1.7710208736428e-06,4294543.5595859,0.014786716881729
34219200,0.99853662180134,0.015196093919784,0.0041760865132109,0.0068439208916445,0.0041760865149286,-0.00088739020198787,0.00088738969256691,1.099807532848e-10,-6.3405833368694e-10,2.4287690412472e-09,-3.0696354152157e-09,-0.0010804251418805,0.0010804266904083,-0.0010804253885518,0.0010804264563387,-0.0010804268844175,0.0010804248976462,-0.0010804271448884,0.0010804246481556,-0.00089320400525744,0.00089320240909526,-0.00089320477974041,0.00089320168017878,-1.3952297379833e-09,4.0177471481708e-09,9.5511805326968e-10,1.5759116006882e-09,-0.0017600340888357,0.0017600366162663,-0.0019455685653405,0.0019455690766007,-0.0019455683747523,0.001945569276026,-0.0019455667978971,0.0019455708638927,-0.0019455666227608,0.0019455710486413,-0.0015481729309526,0.0015481767037005,-0.0015481722762749,0.0015481771740968,-0.001548176020235,0.0015481734970441,-0.0015481707490837,0.0015481789565912,-6.9570081939105e-11,6.8699514631167e-10,-0.00088738964568155,0.00088739024881211,6.6136691657703e-10,3.9815181405156e-11,-0.001080425635465,0.0010804261755288,-0.0010804258621339,0.0010804259648863,-0.0010804253727358,0.0010804264324132,-0.0010804256142632,0.001080426207978,-0.0008932026669918,0.00089320375698766,-0.00089320338033676,0.00089320302464038,0.70594349705402,128566,2924,0.0036945054036561,0.0073025247760883,0.0036945054036211,30.83325808136,6.6660646508824e-06,6.6660646508824e-06,6.6660646508824e-06,4301644.9697847,0.014801444658649
34419200,0.9986115377784,0.015197231846263,0.0041764006797173,0.0068444304851104,0.0041764006814349,-0.00088849855995508,0.00088849805310844,1.1406814448031e-10,-6.3457324608388e-10,2.4296319530568e-09,-3.0642798262959e-09,-0.0010816549681561,0.0010816565180129,-0.0010816552151728,0.0010816562809935,-0.0010816567106738,0.0010816547275201,-0.0010816569701131,0.0010816544742098,-0.0008943886014863,0.00089438701107494,-0.00089438937366209,0.00089438627598203,-1.3861453550344e-09,4.0220521507735e-09,9.2146882864216e-10,1.6188695292354e-09,-0.0017614822614186,0.0017614847936055,-0.0019470269501348,0.0019470274362163,-0.0019470267355836,0.0019470276635289,-0.0019470251839168,0.0019470292217021,-0.0019470249846482,0.0019470294344397,-0.0015495605125726,0.0015495642110172,-0.0015495598361922,0.0015495648214782,-0.0015495635394071,0.0015495610557071,-0.0015495582666471,0.0015495664984973,-7.8719650082328e-11,6.8222310086093e-10,-0.00088849801215435,0.00088849859900292,6.7948951209124e-10,-2.2503088443154e-11,-0.0010816554553872,0.0010816560128418,-0.0010816557091347,0.0010816557757714,-0.0010816551916538,0.0010816562713165,-0.0010816554606583,0.0010816560205038,-0.00089438727765279,0.00089438833663906,-0.00089438799473397,0.00089438760221085,0.70867959486919,128566,2924,0.0036991137916208,0.0073085052106269,0.0036991137876561,31.477143552469,1.1817148419749e-05,1.1817148419749e-05,1.1817148419749e-05,4312666.8995538,0.014816868627437
34619200,0.99868518987648,0.01519839803887,0.0041767244775275,0.0068449490820979,0.0041767244792446,-0.00088960753324998,0.00088960702634288,1.1628464276781e-10,-6.3694865982064e-10,2.4302799437759e-09,-3.0643055067173e-09,-0.0010828929735662,0.0010828945250266,-0.0010828932216231,0.001082894285857,-0.0010828947165539,0.0010828927344429,-0.0010828949770089,0.001082892479008,-0.00089557741302533,0.00089557582571749,-0.00089557818389403,0.00089557508108672,-1.3850398323368e-09,4.0239465503715e-09,9.056368234167e-10,1.6365313340323e-09,-0.0017629398595555,0.0017629423925747,-0.0019484912024691,0.0019484916769822,-0.0019484909777053,0.0019484919164937,-0.0019484894359294,0.0019484934627825,-0.0019484892264425,0.0019484936876128,-0.001550959268415,0.0015509629346207,-0.0015509585733907,0.0015509635945773,-0.0015509622697373,0.0015509597985959,-0.0015509569951762,0.0015509652395453,-8.1828607993666e-11,6.8373357317384e-10,-0.00088960698744031,0.00088960757075597,6.9147196335911e-10,-4.5221463721207e-11,-0.0010828934578032,0.0010828940236155,-0.0010828937230635,0.0010828937752837,-0.0010828931926443,0.0010828942837175,-0.0010828934732716,0.0010828940215569,-0.00089557609430168,0.00089557714802172,-0.00089557681479767,0.00089557640881695,0.73613739713967,128566,2924,0.0037037249697513,0.0073145242950139,0.0037037249668262,32.121845849559,1.6974766796476e-05,1.6974766796476e-05,1.6974766796476e-05,4322936.1407258,0.01483233803675
34819200,0.99875857749916,0.01519957031457,0.004177050149662,0.0068454700135296,0.0041770501513786,-0.0008911822337241,0.00089118172273717,1.1591865453857e-10,-6.4232635014969e-10,2.4227617438469e-09,-3.0669327563978e-09,-0.0010847039348427,0.0010847054846458,-0.0010847041869723,0.0010847052469683,-0.0010847056741079,0.0010847036950212,-0.0010847059400312,0.0010847034411947,-0.00089729423993403,0.00089729265830985,-0.00089729502406279,0.00089729191049101,-1.3938671594327e-09,4.010513645267e-09,8.6164779078086e-10,1.6649782418223e-09,-0.0017650352964413,0.0017650378213042,-0.0019505533815444,0.0019505538360101,-0.0019505531322005,0.0019505540944495,-0.0019505516170132,0.0019505556211356,-0.0019505513837508,0.0019505558644639,-0.001552998117594,0.0015530017054974,-0.0015529972642376,0.0015530023324345,-0.0015530010822916,0.001552998624399,-0.0015529958243599,0.0015530040819475,-7.932135178899e-11,6.9149400298498e-10,-0.0008911816803226,0.00089118227765052,7.5257291782571e-10,-4.8903338540253e-11,-0.0010847044054717,0.001084704990732,-0.001084704691876,0.0010847047199092,-0.0010847041375566,0.0010847052524376,-0.0010847044392008,0.0010847049676769,-0.00089729293791561,0.00089729398033619,-0.00089729366352262,0.0008972932303719,0.74236048369083,128566,2924,0.003710274315352,0.0073231751533764,0.0037102743186146,33.052857838284,2.4422862706276e-05,2.4422862706276e-05,2.4422862706276e-05,4333673.2710365,0.014854415246827
35019200,0.9988318523874,0.015200703965376,0.0041773633981777,0.0068459771673041,0.0041773633998946,-0.00089290906531451,0.00089290855747379,1.2048279830564e-10,-6.4236614097079e-10,2.4251441434008e-09,-3.0628950523645e-09,-0.0010867064549028,0.0010867080074283,-0.001086706706969,0.001086707766404,-0.0010867081945331,0.0010867062185944,-0.0010867084605408,0.0010867059620918,-0.00089918494861173,0.00089918337599887,-0.00089918573968959,0.00089918262713412,-1.387877025486e-09,4.0166265414633e-09,8.5008799704227e-10,1.6850660489771e-09,-0.0017673537246411,0.0017673562544559,-0.0019528305565429,0.0019528310000606,-0.0019528302973018,0.0019528312719561,-0.0019528287915477,0.0019528327846854,-0.0019528285481799,0.0019528330421299,-0.0015552544497872,0.0015552580116611,-0.0015552536177046,0.0015552587239814,-0.0015552573902708,0.0015552549485262,-0.001555252125779,0.001555260392158,-8.7449779061189e-11,6.879281518067e-10,-0.00089290851803766,0.00089290910319027,7.4629502096409e-10,-8.0256504409138e-11,-0.0010867069265254,0.0010867075153654,-0.001086707221528,0.0010867072373575,-0.0010867066578904,0.0010867077788852,-0.0010867069680929,0.001086707486764,-0.00089918365294733,0.00089918467617992,-0.00089918438323281,0.00089918392803439,0.72136489222014,128566,2924,0.0037174571381925,0.007332745644607,0.0037174571349845,34.085045326568,3.2680362612543e-05,3.2680362612543e-05,3.2680362612543e-05,4344993.1512917,0.014878712771536
35219200,0.9989047339324,0.015201798128683,0.0041776642018336,0.0068464697232999,0.0041776642035498,-0.00089464547277548,0.0008946449652179,1.2307222486036e-10,-6.444109685111e-10,2.4290799196049e-09,-3.0646768639314e-09,-0.0010886688005743,0.0010886703562531,-0.0010886690535277,0.0010886701125103,-0.0010886705429649,0.0010886685656423,-0.0010886708085494,0.0010886683059674,-0.00090105902210367,0.00090105744917091,-0.00090105981011174,0.00090105669302789,-1.3862528816319e-09,4.021775862861e-09,8.6665196461267e-10,1.6731300913771e-09,-0.001769632438404,0.0017696349701704,-0.0019551008860853,0.0019551013365345,-0.0019551006371079,0.0019551016001311,-0.0019550991200372,0.0019551031219908,-0.0019550988862955,0.001955103371135,-0.0015574541008728,0.0015574576919898,-0.0015574533205292,0.0015574584116281,-0.0015574570552411,0.0015574546073049,-0.0015574517834548,0.0015574600502671,-8.98974582348e-11,6.8994265241261e-10,-0.00089464492702864,0.00089464550946141,7.305956479221e-10,-8.017460503335e-11,-0.0010886692775723,0.0010886698609892,-0.001088669567468,0.0010886695877955,-0.0010886690075871,0.0010886701257368,-0.0010886693126739,0.0010886698388275,-0.00090105771802159,0.00090105875742385,-0.00090105845312936,0.00090105800406922,0.70214230182892,128566,2924,0.0037246779463907,0.0073421540456423,0.0037246779432583,35.11962174695,4.09569739756e-05,4.09569739756e-05,4.09569739756e-05,4359874.1672565,0.014902921928343
35419200,0.99897607966659,0.015202834245563,0.0041779473945901,0.0068469394546667,0.0041779473963057,-0.00089600935967536,0.00089600885314919,1.2623411060516e-10,-6.4576925623463e-10,2.4410784714066e-09,-3.0717308691128e-09,-0.0010901837563952,0.0010901853192723,-0.0010901840094663,0.0010901850724597,-0.0010901855062855,0.0010901835231307,-0.001090185771153,0.0010901832595879,-0.00090251469622339,0.00090251312022646,-0.00090251548017665,0.00090251235437141,-1.3893626075731e-09,4.0384510047998e-09,9.4772038632215e-10,1.6013777045398e-09,-0.0017714178246315,0.001771420361336,-0.0019569078268686,0.0019569083197335,-0.0019569076281095,0.0019569085359592,-0.0019569060538383,0.0019569101115433,-0.0019569058702502,0.0019569103129934,-0.0015591571721532,0.001559160923191,-0.001559156595053,0.0015591615565391,-0.0015591602298572,0.0015591577220635,-0.0015591549311695,0.0015591631711824,-8.9145718356188e-11,6.9506018448039e-10,-0.00089600881261276,0.00089600939778172,6.4246345015319e-10,-1.4784308331147e-11,-0.0010901842598385,0.0010901848016227,-0.0010901844988805,0.0010901845799942,-0.0010901839887219,0.0010901850680753,-0.0010901842434777,0.0010901848324693,-0.00090251335441525,0.0009025144603966,-0.00090251409239151,0.00090251370534061,0.68162298357345,128566,2924,0.0037303488639732,0.0073495265034135,0.0037303488588276,35.931448144382,4.7451585155058e-05,4.7451585155058e-05,4.7451585155058e-05,4373492.6189938,0.01492191737091
35619200,0.99904508255069,0.015203796408343,0.0041782085262772,0.0068473793540724,0.0041782085279929,-0.00089710236269496,0.00089710185387926,1.273162445945e-10,-6.4936445977159e-10,2.4526892249248e-09,-3.0861128050781e-09,-0.0010913498680803,0.0010913514389376,-0.0010913501231713,0.001091351190922,-0.0010913516266238,0.0010913496343029,-0.0010913518932177,0.0010913493693471,-0.00090365424455227,0.00090365266210964,-0.00090365503153123,0.00090365188974325,-1.4023822930659e-09,4.051299177944e-09,1.0600145996934e-09,1.489078886721e-09,-0.001772811620482,0.0017728141575042,-0.0019583543805625,0.0019583549399112,-0.0019583542546096,0.0019583550811946,-0.0019583525992296,0.0019583567403383,-0.0019583524883407,0.0019583568667956,-0.0015604635153512,0.0015604674961518,-0.0015604631525973,0.001560467901683,-0.0015604667362479,0.0015604641288207,-0.0015604614123327,0.0015604696044368,-8.1465147832418e-11,7.0744168882308e-10,-0.00089710180494055,0.00089710240995991,5.4338479102645e-10,1.0904243317594e-10,-0.0010913504041474,0.0010913508891097,-0.0010913505692818,0.001091350741324,-0.0010913501314176,0.0010913511570669,-0.0010913503121996,0.001091350995382,-0.00090365285105051,0.00090365405612378,-0.00090365359338049,0.00090365329571028,0.65729900025031,128566,2924,0.0037348917287243,0.0073552840187737,0.0037348917251629,36.575545162888,5.2604361303107e-05,5.2604361303107e-05,5.2604361303107e-05,4387265.6316288,0.014936982450874
35819200,0.99911163025461,0.015204785342243,0.0041784797086158,0.0068478259232962,0.0041784797103314,-0.00089821861360132,0.00089821810208184,1.282055097038e-10,-6.5328470146116e-10,2.4609365338318e-09,-3.0992388877323e-09,-0.0010924673426493,0.0010924689201179,-0.001092467600655,0.0010924686719442,-0.0010924691077453,0.001092467108286,-0.0010924693773129,0.0010924668430871,-0.00090478049854864,0.00090477891270732,-0.00090478129640388,0.00090477813977547,-1.4161722403219e-09,4.0586213464332e-09,1.1600659221353e-09,1.3848436218015e-09,-0.0017741404131966,0.0017741429485856,-0.0019597728651625,0.0019597734865486,-0.0019597728044898,0.0019597735578495,-0.0019597710772363,0.001959775294183,-0.0019597710316944,0.0019597753507121,-0.001561689580242,0.0015616937680537,-0.0015616893856166,0.0015616939336834,-0.0015616929537833,0.0015616902529143,-0.0015616876122911,0.0015616957561853,-7.3913466766385e-11,7.1990310404579e-10,-0.00089821804348716,0.00089821867091966,4.6170241677868e-10,2.3097788619589e-10,-0.0010924679071988,0.0010924683403753,-0.0010924680048097,0.0010924682597686,-0.0010924676326062,0.0010924686098329,-0.0010924677456404,0.0010924685154564,-0.00090477906043458,0.00090478035342206,-0.00090477980870524,0.00090477958721461,0.69619235975612,128566,2924,0.0037395282103537,0.0073607766568159,0.0037395282076698,37.21574428609,5.7725954288719e-05,5.7725954288719e-05,5.7725954288719e-05,4405178.0131392,0.014951967313278
36019200,0.9991756371879,0.015205795747707,0.004178759085889,0.0068482775742139,0.0041787590876043,-0.00089930361644346,0.00089930310346109,1.2984180513338e-10,-6.5637815235949e-10,2.4667528367342e-09,-3.1073922237712e-09,-0.001093670115176,0.0010936716976782,-0.0010936703752846,0.0010936714485465,-0.0010936718848675,0.0010936698812925,-0.0010936721563249,0.0010936696148266,-0.00090593406706355,0.00090593248008345,-0.00090593487123732,0.00090593170397309,-1.4232572129397e-09,4.0656804454885e-09,1.2415909687188e-09,1.3035822558098e-09,-0.0017755638278054,0.0017755663636233,-0.0019612208334354,0.0019612215040124,-0.0019612208246829,0.001961221520398,-0.0019612190410182,0.0019612233164862,-0.0019612190474642,0.0019612233180712,-0.0015630396848295,0.0015630440377752,-0.0015630396413795,0.0015630440346615,-0.0015630431729599,0.0015630404050261,-0.0015630378192102,0.0015630459243306,-6.9942803144639e-11,7.286373388574e-10,-0.00089930303870338,0.00089930367978832,3.9086329683576e-10,3.2048759749576e-10,-0.0010936707035608,0.001093671094111,-0.0010936707479315,0.0010936710666069,-0.001093670427282,0.001093671365086,-0.0010936704871125,0.0010936713237922,-0.00090593259391682,0.00090593395650232,-0.00090593334702072,0.00090593318561694,0.73586310759826,128566,2924,0.0037440392557709,0.007366654981406,0.0037440392528061,37.855804227052,6.2846433816416e-05,6.2846433816416e-05,6.2846433816416e-05,4414794.7774576,0.01496709265126
36219200,0.99923494668593,0.015206700351586,0.0041790077183752,0.0068486849131205,0.0041790077200902,-0.00089918712922287,0.00089918661516541,1.3177797368696e-10,-6.5885580746881e-10,2.4822028311353e-09,-3.1214239123774e-09,-0.001093718519692,0.0010937201116401,-0.0010937187805292,0.001093719860415,-0.0010937203001655,0.0010937182864133,-0.0010937205715504,0.0010937180165196,-0.00090589568490349,0.00090589408895128,-0.00090589648081943,0.00090589329791458,-1.4326254540993e-09,4.0879286759968e-09,1.3963015448286e-09,1.1572838415377e-09,-0.0017757267651954,0.0017757293058679,-0.0019613399906676,0.0019613407490365,-0.0019613400787372,0.0019613406672324,-0.0019613381875595,0.0019613425722027,-0.0019613382913072,0.0019613424751001,-0.0015631900815904,0.0015631947438203,-0.0015631903789279,0.001563194498706,-0.0015631937698807,0.0015631908824086,-0.00156318838237,0.0015631964226589,-6.1695850701023e-11,7.4116502127765e-10,-0.00089918654230246,0.00089918720086769,2.3481770618614e-10,4.7319315414436e-10,-0.0010937191555886,0.0010937194639477,-0.001093719097334,0.0010937195396043,-0.0010937188778714,0.0010937197366534,-0.0010937188358999,0.0010937197979885,-0.00090589414214715,0.00090589563996338,-0.00090589489614009,0.00090589486626324,0.71361056042511,128566,2924,0.0037435628698463,0.0073673195274469,0.0037435628671925,37.827198164481,6.2617585315846e-05,6.2617585315846e-05,6.2617585315846e-05,4403208.3016177,0.014966803529723
36419200,0.99928905234467,0.015207514176972,0.0041792310618403,0.006849052051577,0.0041792310635546,-0.00089856724151496,0.00089856672690779,1.3398270191675e-10,-6.6122875695362e-10,2.496676676609e-09,-3.1346505154314e-09,-0.0010931529986085,0.001093154600008,-0.0010931532610658,0.0010931543468009,-0.0010931547891452,0.0010931527658631,-0.0010931550608629,0.0010931524937386,-0.00090529692966308,0.00090529532724305,-0.00090529772977709,0.00090529453422694,-1.442912796181e-09,4.1037361527951e-09,1.5470909577861e-09,1.0107258779006e-09,-0.0017752024229907,0.0017752049661944,-0.0019608070377652,0.0019608078859216,-0.0019608072224102,0.001960807705821,-0.0019608052263749,0.0019608097173487,-0.0019608054259405,0.0019608095223135,-0.0015626542008689,0.0015626591655658,-0.0015626548060155,0.0015626586490356,-0.0015626580998296,0.0015626550917381,-0.0015626526813115,0.0015626606522329,-5.5129505493214e-11,7.5224830306095e-10,-0.00089856664507022,0.00089856732118811,9.954871809029e-11,6.1979703058756e-10,-0.0010931536775719,0.0010931539115977,-0.0010931535262802,0.0010931540804978,-0.0010931533987391,0.00109315418561,-0.0010931532634131,0.0010931543406765,-0.00090529532189027,0.00090529693571442,-0.00090529608160353,0.00090529615847037,0.70434020904403,128566,2924,0.0037409921033107,0.0073651477231643,0.0037409920986704,37.49591317802,5.9967305424164e-05,5.9967305424164e-05,5.9967305424164e-05,4390445.5874573,0.014959381278255
36619200,0.99933845436062,0.01520821380791,0.0041794213604661,0.0068493710852638,0.0041794213621804,-0.00089795457367907,0.00089795405684651,1.3501133666913e-10,-6.65006339392e-10,2.5003859766361e-09,-3.1436067900587e-09,-0.0010925487481575,0.0010925503539379,-0.0010925490139524,0.0010925501010232,-0.0010925505420527,0.0010925485153305,-0.0010925508173988,0.0010925482436047,-0.00090468132780157,0.00090467972648345,-0.00090468214234731,0.00090467893513611,-1.4545667465138e-09,4.1042293679042e-09,1.6310883819578e-09,9.1928710376295e-10,-0.0017746190597915,0.0017746215994832,-0.0019602308468331,0.001960231750476,-0.0019602310871952,0.0019602315094635,-0.0019602290318127,0.0019602335861253,-0.0019602292871494,0.0019602333302536,-0.0015620579989697,0.001562063137885,-0.0015620587277421,0.0015620623902556,-0.0015620620303877,0.0015620589432857,-0.0015620566042808,0.0015620645259388,-4.855883921153e-11,7.6376299267697e-10,-0.00089795396565288,0.00089795466332451,3.442128386517e-11,7.3234082252734e-10,-0.0010925494512201,0.0010925496391493,-0.0010925492409834,0.0010925498664917,-0.0010925491704561,0.0010925499146395,-0.0010925489757906,0.0010925501283355,-0.00090467968450716,0.0009046813732129,-0.00090468045080813,0.00090468058970172,0.66675281824828,128566,2924,0.0037384493260324,0.0073627344162564,0.0037384493227543,37.157503412952,5.7260027303618e-05,5.7260027303618e-05,5.7260027303618e-05,4380198.5517544,0.014951769800466
36819200,0.99938361803369,0.01520883551291,0.0041795898298093,0.0068496558515772,0.0041795898315234,-0.00089738514037361,0.00089738462297856,1.3703313575199e-10,-6.6768132643982e-10,2.4984386811394e-09,-3.1435499230018e-09,-0.0010918729154521,0.0010918745220745,-0.0010918731831943,0.0010918742681824,-0.0010918747084501,0.0010918726840982,-0.0010918749858586,0.0010918724112555,-0.00090404780083308,0.00090404620478348,-0.00090404862227439,0.00090404541044431,-1.4544743203961e-09,4.1026493973477e-09,1.6585779586995e-09,8.9107258052079e-10,-0.0017739367046945,0.0017739392440412,-0.0019596152288184,0.0019596161512331,-0.0019596154862639,0.0019596158907167,-0.0019596134144412,0.0019596179865134,-0.0019596136870133,0.0019596177110757,-0.0015613399281943,0.0015613451215052,-0.0015613406980863,0.0015613443046427,-0.0015613439947324,0.0015613408905828,-0.0015613385731381,0.001561346475254,-4.8449296727095e-11,7.6857418608251e-10,-0.00089738452910693,0.00089738523279779,1.310233414445e-11,7.6657063785111e-10,-0.0010918736267941,0.001091873798368,-0.0010918733980405,0.0010918740440615,-0.0010918733442989,0.0010918740753774,-0.0010918731311652,0.0010918743073367,-0.0009040461474943,0.00090404786259942,-0.00090404691848989,0.0009040470741902,0.64957834700336,128566,2924,0.0037360814161322,0.0073599178855536,0.0037360814130818,36.818838486531,5.4550707892247e-05,5.4550707892247e-05,5.4550707892247e-05,4377603.7173304,0.014944101188408
37019200,0.99942613654288,0.015209461168307,0.0041797613619085,0.0068499384427758,0.0041797613636223,-0.00089776591266198,0.0008977653974061,1.4031126145492e-10,-6.6921221973464e-10,2.478536098782e-09,-3.1239949613336e-09,-0.0010921566622189,0.0010921582600494,-0.0010921569321781,0.0010921580056089,-0.0010921584409967,0.001092156434591,-0.0010921587218037,0.0010921561617957,-0.00090438142933333,0.00090437985627714,-0.00090438226790337,0.00090437906635508,-1.440886727076e-09,4.0767781218739e-09,1.5188611404818e-09,1.0225509316533e-09,-0.00177429249132,0.0017742950257895,-0.0019600659712785,0.001960066817313,-0.0019600661406551,0.0019600666452748,-0.001960064169853,0.001960068639619,-0.0019600643545112,0.0019600684525811,-0.0015616232578816,0.0015616281689217,-0.0015616237193265,0.0015616275673645,-0.0015616271348812,0.0015616241496287,-0.0015616217564154,0.0015616297046585,-6.0891072119176e-11,7.6117711075799e-10,-0.00089776531065761,0.00089776599777864,1.5071985899412e-10,6.3213640485884e-10,-0.001092157334037,0.0010921575727744,-0.0010921571953764,0.0010921577278778,-0.0010921570495883,0.0010921578514348,-0.001092156926324,0.0010921579927464,-0.00090437984256955,0.00090438144452411,-0.00090438062077522,0.00090438065081352,0.68961816575742,128566,2924,0.0037376595644669,0.0073613932970068,0.0037376595611149,37.016426671275,5.6131413370202e-05,5.6131413370202e-05,5.6131413370202e-05,4388791.6594168,0.01494879908524
37219200,0.99946640406585,0.015210095164313,0.0041799368511114,0.0068502214603765,0.0041799368528253,-0.00089833287916312,0.00089833236741463,1.4440874555166e-10,-6.6986805946406e-10,2.4583832522391e-09,-3.1003428352722e-09,-0.0010927755394452,0.0010927771287373,-0.0010927758109935,0.0010927768716291,-0.0010927773042973,0.0010927753172042,-0.0010927775863086,0.0010927750435407,-0.00090497723465934,0.00090497568336724,-0.00090497807122129,0.00090497488331808,-1.4185941740982e-09,4.0542213575558e-09,1.3340500799211e-09,1.2063722686847e-09,-0.0017750182262649,0.0017750207594609,-0.0019608175891652,0.0019608183284312,-0.0019608176406624,0.001960818279607,-0.0019608158026855,0.0019608201352843,-0.0019608158686452,0.001960820072832,-0.0015623011621104,0.0015623056943368,-0.0015623012760146,0.0015623054655485,-0.0015623047669576,0.0015623019425358,-0.0015622994327802,0.0015623074525522,-7.6547627684283e-11,7.5002050153419e-10,-0.00089833229343041,0.00089833295209902,2.995931893396e-10,4.4605107070241e-10,-0.0010927761650997,0.0010927764873677,-0.0010927761381352,0.0010927765314009,-0.0010927758799521,0.0010927767672339,-0.0010927758672344,0.0010927767983667,-0.00090497572651759,0.00090497719732868,-0.00090497650778962,0.00090497639781368,0.73362544165887,128566,2924,0.0037400163890052,0.0073643911865551,0.0037400163868461,37.343385518317,5.8747084146534e-05,5.8747084146534e-05,5.8747084146534e-05,4393896.8518665,0.014956626908386
37419200,0.99950449502804,0.015210652478726,0.0041800893145306,0.0068504738479516,0.0041800893162441,-0.0008988575887228,0.00089885708077168,1.4861750591442e-10,-6.7012356475845e-10,2.4425002392594e-09,-3.077955748447e-09,-0.0010934806704713,0.0010934822511513,-0.0010934809414885,0.0010934819912742,-0.0010934824225483,0.0010934804526384,-0.0010934827047702,0.001093480175296,-0.00090559630725613,0.00090559477478741,-0.00090559714267306,0.00090559396623476,-1.3972924066173e-09,4.0379855730772e-09,1.1762795211151e-09,1.3673744468845e-09,-0.001775850313765,0.0017758528476829,-0.0019616034372021,0.0019616040805025,-0.0019616033857993,0.0019616041398495,-0.0019616016621953,0.0019616058751201,-0.0019616016260154,0.0019616059195988,-0.0015631186151944,0.0015631228217398,-0.0015631184448413,0.0015631229452623,-0.0015631219825808,0.001563119308327,-0.001563116682439,0.0015631247748795,-9.4426071956774e-11,7.3670646986569e-10,-0.00089885702173837,0.00089885764656852,4.4773819096443e-10,2.4658546368372e-10,-0.0010934812502556,0.0010934816566034,-0.0010934813380386,0.0010934815856955,-0.0010934809631633,0.0010934819384288,-0.0010934810663662,0.0010934818536821,-0.00090559487610432,0.00090559621082906,-0.0009055956607577,0.00090559540797314,0.68665560030421,128566,2924,0.0037422026701766,0.0073678222883498,0.0037422026676825,37.673460117879,6.1387680943034e-05,6.1387680943034e-05,6.1387680943034e-05,4390596.7418117,0.014964551713074
37619200,0.99954047798608,0.015211160073682,0.0041802274115332,0.0068507052489022,0.0041802274132463,-0.0008994161066965,0.00089941560150704,1.5233262687223e-10,-6.7107907679213e-10,2.4314717436613e-09,-3.0629980500709e-09,-0.0010940859968514,0.001094087572836,-0.0010940862686281,0.0010940873104604,-0.0010940877402239,0.0010940857826637,-0.0010940880236296,0.0010940855034472,-0.000906182783291,0.00090618126640852,-0.00090618362257976,0.0009061804530585,-1.3845820416161e-09,4.0245123034411e-09,1.0373387439546e-09,1.5053883367726e-09,-0.0017765702258087,0.0017765727586987,-0.0019623474661528,0.0019623480258726,-0.0019623473260533,0.0019623481784418,-0.0019623456994992,0.0019623498115516,-0.0019623455744868,0.0019623499493322,-0.0015637881295627,0.0015637920540122,-0.0015637876975253,0.001563792460996,-0.0015637913015028,0.0015637887434354,-0.00156378602482,0.0015637941817208,-1.0819045214088e-10,7.2757514319415e-10,-0.00089941555287109,0.00089941615388413,5.6743427912522e-10,9.630587508155e-11,-0.001094086540871,0.0010940870136173,-0.0010940867181863,0.001094086853281,-0.0010940862524067,0.0010940872970536,-0.0010940864450338,0.0010940871229168,-0.00090618141256152,0.00090618264031195,-0.00090618220197001,0.00090618183316737,0.66415286845301,128566,2924,0.0037445242814462,0.0073707960532008,0.003744524278399,38.003646763956,6.4029174111648e-05,6.4029174111648e-05,6.4029174111648e-05,4396759.4708404,0.014972283285971
37819200,0.99957350537839,0.015211607310572,0.0041803482532509,0.0068509108023576,0.0041803482549638,-0.0008990811690837,0.00089908066359602,1.5455154244066e-10,-6.7335789588217e-10,2.4396558432272e-09,-3.0693356140215e-09,-0.001093678268679,0.0010936798501263,-0.0010936785408663,0.0010936795850263,-0.0010936800175022,0.0010936780554984,-0.0010936803009702,0.0010936777732488,-0.00090579967460616,0.00090579815449133,-0.00090580050762666,0.00090579732829801,-1.3875029754424e-09,4.036509940098e-09,1.0490618212932e-09,1.4995522590019e-09,-0.0017761686957149,0.0017761712318781,-0.0019620050572268,0.0019620056174755,-0.0019620049235595,0.0019620057660959,-0.0019620032854196,0.0019620074080879,-0.0019620031669502,0.0019620075417353,-0.0015633472792236,0.0015633512277247,-0.0015633469011295,0.0015633516611586,-0.0015633504620011,0.001563347891023,-0.0015633451676389,0.0015633533363253,-1.1079467296791e-10,7.2941717261076e-10,-0.00089908061729768,0.00089908121420578,5.5089277045695e-10,9.0223725972508e-11,-0.0010936788187022,0.001093679286817,-0.0010936789924993,0.0010936791303959,-0.0010936785288701,0.0010936795718926,-0.0010936787183544,0.0010936794014733,-0.00090579829671931,0.00090579953857017,-0.00090579908842584,0.00090579872751395,0.6401614230534,128566,2924,0.0037431309934185,0.0073691395705466,0.0037431309908691,37.803970017552,6.2431760140418e-05,6.2431760140418e-05,6.2431760140418e-05,4396418.6799502,0.014967771308636
38019200,0.99960377319231,0.015212035530877,0.0041804648926005,0.0068511057439628,0.0041804648943133,-0.00089870079845376,0.00089870029105365,1.5587481350277e-10,-6.7676565033925e-10,2.4486237489459e-09,-3.0811606325988e-09,-0.0010931425795687,0.0010931441675495,-0.0010931428537265,0.0010931439015839,-0.0010931443347004,0.0010931423659607,-0.001093144620609,0.0010931420827403,-0.00090532891229928,0.00090532738967872,-0.00090532975679451,0.00090532656368059,-1.4002132061536e-09,4.0451253331389e-09,1.0857452888738e-09,1.4605485607146e-09,-0.0017756095014419,0.0017756120369638,-0.0019615426270192,0.0019615432065024,-0.001961542517498,0.0019615433291518,-0.0019615408483265,0.0019615450043557,-0.0019615407541659,0.0019615451118368,-0.0015627383713693,0.0015627424019259,-0.0015627380482832,0.001562742737322,-0.001562741625112,0.0015627390055751,-0.0015627363102529,0.0015627444749856,-1.0969686599045e-10,7.3539721533127e-10,-0.00089870024116626,0.000898700846891,5.2461563194079e-10,1.3608650639789e-10,-0.0010931431419074,0.0010931435909075,-0.0010931432916363,0.0010931434582967,-0.0010931428502414,0.0010931438776399,-0.0010931430157194,0.001093143730897,-0.00090532751569239,0.00090532878876973,-0.00090532831351573,0.00090532797336467,0.66569814591997,128566,2924,0.003741545841165,0.0073668354842943,0.0037415458380892,37.559601389778,6.0476811118227e-05,6.0476811118227e-05,6.0476811118227e-05,4399636.8355985,0.01496221071908
38219200,0.99963153639036,0.015212431576086,0.0041805729205933,0.0068512857331863,0.0041805729223059,-0.00089829585778916,0.00089829534812526,1.5713500094608e-10,-6.803065715802e-10,2.4571870126602e-09,-3.0934551137462e-09,-0.0010926680396669,0.0010926696344001,-0.0010926683160676,0.001092669367321,-0.0010926698016208,0.0010926678257372,-0.001092670089548,0.0010926675416244,-0.00090487721435776,0.00090487568803005,-0.00090487806628518,0.00090487485994915,-1.411001928742e-09,4.054488188169e-09,1.1307412903945e-09,1.4149000960086e-09,-0.0017751115999396,0.0017751141354483,-0.0019610931508587,0.0019610937548079,-0.0019610930705843,0.0019610938462617,-0.001961091365893,0.0019610955593722,-0.0019610913007539,0.00196109563594,-0.0015622129914397,0.0015622171178028,-0.0015622127429522,0.0015622173479008,-0.0015622163188144,0.0015622136476862,-0.0015622109863354,0.001562219140973,-1.0729250459094e-10,7.4251155420082e-10,-0.00089829529405058,0.00089829591044403,4.8506085172394e-10,1.9379030285857e-10,-0.0010926686176089,0.0010926690416668,-0.001092668735259,0.0010926689409928,-0.0010926683243891,0.0010926693297587,-0.0010926684574778,0.0010926692152518,-0.00090487579392715,0.00090487711139931,-0.00090487659693264,0.00090487629068909,0.67076172476808,128566,2924,0.003739861843049,0.0073647807757899,0.0037398618400568,37.314054958642,5.8512439669136e-05,5.8512439669136e-05,5.8512439669136e-05,4396952.0189196,0.014956705102899
38419200,0.9996571968423,0.015212822928996,0.004180680810493,0.006851461306298,0.0041806808122054,-0.00089811032842121,0.00089810981698032,1.5852000682812e-10,-6.8369934593746e-10,2.4608195665871e-09,-3.10070775733e-09,-0.0010924441747936,0.0010924457735343,-0.0010924444535049,0.0010924455056702,-0.0010924459398755,0.0010924439610398,-0.001092446230362,0.0010924436763294,-0.00090466498912879,0.00090466346344707,-0.00090466585043749,0.00090466263393597,-1.4188359003019e-09,4.0573779391244e-09,1.1557968251415e-09,1.3866631702155e-09,-0.001774883757355,0.0017748862914999,-0.0019609018802783,0.0019609024994158,-0.0019609018169136,0.0019609025717119,-0.0019609000920479,0.0019609043076804,-0.0019609000438353,0.0019609043651642,-0.0015619574883021,0.0015619616700023,-0.0015619572680154,0.0015619618189786,-0.0015619608615523,0.0015619581584959,-0.001561955521549,0.0015619636681362,-1.0602295126463e-10,7.4861501357888e-10,-0.00089810975944779,0.00089811038481564,4.68159665073e-10,2.3206864106342e-10,-0.0010924447612523,0.0010924451709322,-0.0010924448605986,0.0010924450882881,-0.0010924444662699,0.0010924454605221,-0.0010924445808607,0.0010924453641476,-0.00090466355618878,0.00090466490070862,-0.00090466436478946,0.00090466407458436,0.71253733078047,128566,2924,0.0037390901428198,0.007363841085657,0.0037390901404517,37.196474575356,5.7571796602845e-05,5.7571796602845e-05,5.7571796602845e-05,4395638.5679004,0.014954183985273
38619200,0.9996810671285,0.015213189016261,0.0041807817952549,0.0068516254240391,0.0041807817969672,-0.00089808335672385,0.0008980828448512,1.6066114405571e-10,-6.8629779906236e-10,2.4616513118047e-09,-3.101888514141e-09,-0.0010925151862939,0.0010925167863659,-0.0010925154662766,0.0010925165173631,-0.0010925169517172,0.0010925149735717,-0.0010925172436525,0.0010925146864608,-0.00090468415886179,0.00090468263642911,-0.0009046850257987,0.00090468180356668,-1.4200234981392e-09,4.0580712802374e-09,1.1688103489403e-09,1.37349118714e-09,-0.0017749855621538,0.0017749880959388,-0.0019609706352926,0.0019609712612218,-0.001960970579948,0.0019609713245601,-0.0019609688461719,0.0019609730705066,-0.0019609688065438,0.0019609731179401,-0.0015620587853041,0.0015620629928094,-0.001562058583543,0.0015620631137187,-0.0015620621761645,0.0015620594659872,-0.0015620568351647,0.0015620649792166,-1.0784975443131e-10,7.5144243489474e-10,-0.00089808278700549,0.00089808341357476,4.6726220251928e-10,2.3666122577138e-10,-0.0010925157751492,0.001092516181295,-0.0010925158722927,0.0010925161002672,-0.0010925154779766,0.0010925164725951,-0.0010925155912285,0.0010925163772723,-0.00090468272384897,0.00090468407728102,-0.00090468353733766,0.00090468324616715,0.71625966831426,128566,2924,0.0037389820750056,0.007364257482555,0.0037389820729383,37.193711258338,5.7549690066701e-05,5.7549690066701e-05,5.7549690066701e-05,4388391.9757342,0.014954389967425
38819200,0.99970327543428,0.015213530838376,0.0041808761477014,0.0068517785412615,0.0041808761494136,-0.00089805701460819,0.00089805650353383,1.6345904309285e-10,-6.880760608296e-10,2.462151226483e-09,-3.1008839640352e-09,-0.0010925893565651,0.0010925909589599,-0.0010925896383348,0.0010925906880979,-0.0010925911225918,0.0010925891464463,-0.0010925914151977,0.0010925888574846,-0.00090470628013746,0.00090470476218829,-0.00090470714683997,0.00090470392135311,-1.4180517957851e-09,4.0599112968497e-09,1.1713947752819e-09,1.373174984388e-09,-0.0017750949051343,0.0017750974399769,-0.0019610427277173,0.0019610433544513,-0.0019610426739685,0.0019610434175692,-0.0019610409388273,0.0019610451635379,-0.0019610409004122,0.0019610452114558,-0.0015621723480014,0.0015621765588149,-0.001562172168523,0.0015621766960757,-0.001562175737081,0.0015621730261553,-0.0015621703947078,0.0015621785351069,-1.0973285849201e-10,7.5418080214161e-10,-0.00089805644527466,0.0008980570716145,4.4743970640646e-10,2.4719002009637e-10,-0.0010925899516312,0.0010925903490265,-0.0010925900390643,0.001092590277949,-0.0010925896535192,0.0010925906418673,-0.0010925897566539,0.0010925905569004,-0.00090470483801231,0.00090470620830594,-0.00090470565505706,0.00090470537313921,0.71844600433334,128566,2924,0.00373887670736,0.0073647047744336,0.003738876704725,37.193612339514,5.7548898716113e-05,5.7548898716113e-05,5.7548898716113e-05,4381329.0581637,0.014954632722787
38880000,0.99970987659009,0.015213632576333,0.0041809042443042,0.0068518240860121,0.0041809042460164,-0.0008980450607703,0.00089804455001451,1.6433939018782e-10,-6.8859417579933e-10,2.4618915022428e-09,-3.0998461729449e-09,-0.0010926115483144,0.0010926131509577,-0.0010926118301399,0.0010926128790359,-0.001092613313869,0.0010926113386345,-0.0010926136071399,0.0010926110495249,-0.00090471449619371,0.0009047129804642,-0.00090471536443496,0.00090471213837271,-1.4168650772151e-09,4.0597585339282e-09,1.1755894826659e-09,1.369747844673e-09,-0.0017751300110573,0.0017751325465206,-0.0019610643468624,0.0019610649769935,-0.0019610642954928,0.0019610650379334,-0.0019610625583526,0.0019610667853447,-0.0019610625221502,0.0019610668313459,-0.0015622097727777,0.0015622139912543,-0.0015622096055678,0.001562214125605,-0.0015622131660111,0.0015622104541255,-0.0015622078237101,0.0015622159602316,-1.1051820433296e-10,7.5478941858924e-10,-0.00089804449174814,0.00089804511773217,4.4399942212243e-10,2.482599231827e-10,-0.0010926121443236,0.0010926125400328,-0.0010926122303435,0.0010926124708701,-0.0010926118458504,0.0010926128332511,-0.001092611947336,0.0010926127502557,-0.00090471305379479,0.00090471442650613,-0.00090471387227735,0.00090471359045559,0.71909630727597,128566,2924,0.0037388284396611,0.0073648482591422,0.003738828436915,37.193608881751,5.7548871054007e-05,5.7548871054007e-05,5.7548871054007e-05,4379026.6648939,0.014954681214225
