time,ASR_ext,ASR_strain,ASR_strain_xx,ASR_strain_yy,ASR_strain_zz,disp_x_101,disp_x_102,disp_x_103,disp_x_104,disp_x_105,disp_x_106,disp_x_p1_neg,disp_x_p1_pos,disp_x_p2_neg,disp_x_p2_pos,disp_x_p3_neg,disp_x_p3_pos,disp_x_p4_neg,disp_x_p4_pos,disp_x_p5_neg,disp_x_p5_pos,disp_x_p6_neg,disp_x_p6_pos,disp_y_101,disp_y_102,disp_y_103,disp_y_104,disp_y_105,disp_y_106,disp_y_p1_neg,disp_y_p1_pos,disp_y_p2_neg,disp_y_p2_pos,disp_y_p3_neg,disp_y_p3_pos,disp_y_p4_neg,disp_y_p4_pos,disp_y_p5_neg,disp_y_p5_pos,disp_y_p6_neg,disp_y_p6_pos,disp_y_p7_neg,disp_y_p7_pos,disp_y_p8_neg,disp_y_p8_pos,disp_z_101,disp_z_102,disp_z_103,disp_z_104,disp_z_105,disp_z_106,disp_z_p1_neg,disp_z_p1_pos,disp_z_p2_neg,disp_z_p2_pos,disp_z_p3_neg,disp_z_p3_pos,disp_z_p4_neg,disp_z_p4_pos,disp_z_p5_neg,disp_z_p5_pos,disp_z_p6_neg,disp_z_p6_pos,humidity,ndof,nelem,strain_xx,strain_yy,strain_zz,temp,thermal_strain_xx,thermal_strain_yy,thermal_strain_zz,vonmises,vstrain
2419200,0,0,0,0,0,0,0,0,0,0,0,0,0,0,0,0,0,0,0,0,0,0,0,0,0,0,0,0,0,0,0,0,0,0,0,0,0,0,0,0,0,0,0,0,0,0,0,0,0,0,0,0,0,0,0,0,0,0,0,0,0,0,0,0,0,0,0,0,0,0,0,0,0,0,0
2619200,0.019598382220706,0.00040201972804922,0.00013400657601641,0.00013400657601641,0.00013400657601641,-3.3156388579967e-05,3.3155869924044e-05,-2.6684331917509e-10,-2.509992031472e-10,1.0131316528357e-09,-1.5700323654658e-09,-3.309595133443e-05,3.3096281958952e-05,-3.3095931018598e-05,3.30962720265e-05,-3.3096769220115e-05,3.3095414369025e-05,-3.309676194601e-05,3.309541762776e-05,-3.4066447187725e-05,3.4065051804356e-05,-3.4066408966289e-05,3.4065046162925e-05,-8.4116968725338e-10,1.7305185995266e-09,-2.3280243189643e-09,3.1738935976318e-09,-3.6316642997473e-05,3.6317496076961e-05,-3.5817428569802e-05,3.5815634782403e-05,-3.581567247749e-05,3.5817480665419e-05,-3.5816612471332e-05,3.5816492849589e-05,-3.5814856288844e-05,3.5818338587297e-05,-3.6426068143712e-05,3.6422361473275e-05,-3.6420779934636e-05,3.6427872490919e-05,-3.642416036225e-05,3.6424326112915e-05,-3.6421645203218e-05,3.6426889987978e-05,-5.3356871167633e-10,-5.4930213836927e-10,-3.3156679233975e-05,3.3155578787408e-05,2.1228424348883e-09,-3.3273935968835e-09,-3.3095735277956e-05,3.3096475710414e-05,-3.309754278805e-05,3.3094670630629e-05,-3.3095737695193e-05,3.3096467733092e-05,-3.309754603953e-05,3.3094663279542e-05,-3.406718328023e-05,3.4064279724125e-05,-3.4067165640771e-05,3.4064294525546e-05,0.81992967912199,128566,2924,0.00013814097585851,0.00015130958989566,0.00013814097485301,31.569203274554,1.255362619643e-05,1.255362619643e-05,1.255362619643e-05,694639.77270088,0.00042768321683221
2819200,0.04118274620862,0.00084143026389178,0.00027831281258943,0.00028480464170875,0.0002783128095936,-6.7847611959132e-05,6.7844269660912e-05,-1.6612405309368e-09,-1.6466633359289e-09,7.1204936680396e-09,-1.0756931784938e-08,-6.8820500881939e-05,6.8823070545009e-05,-6.8820544438919e-05,6.882312386937e-05,-6.8826238251404e-05,6.8817138440303e-05,-6.8826230418815e-05,6.8817139491502e-05,-6.9475499536865e-05,6.9466249523414e-05,-6.9475499737004e-05,6.9466280254647e-05,-6.060729122415e-09,1.1833974761705e-08,1.3887915942808e-08,-8.4042199378167e-09,-7.6001311232896e-05,7.6006832236528e-05,-7.5589185651896e-05,7.5596087843671e-05,-7.5596270503865e-05,7.5588607350397e-05,-7.5583491974748e-05,7.5602061009508e-05,-7.559057790319e-05,7.5594579700143e-05,-7.5715059462369e-05,7.5748348875746e-05,-7.5736645307016e-05,7.5726165174784e-05,-7.5740999952053e-05,7.5721663510841e-05,-7.5723581418685e-05,7.5739583069181e-05,2.4134243206981e-09,2.3976382468508e-09,-6.7843514362516e-05,6.7848364185573e-05,-8.3923186801567e-09,1.3604884082164e-08,-6.8823034559663e-05,6.8820500858054e-05,-6.8815760814058e-05,6.8827798375735e-05,-6.8823016052731e-05,6.8820472648845e-05,-6.8815747857618e-05,6.8827774001881e-05,-6.9464796754106e-05,6.9476904446978e-05,-6.9464834557766e-05,6.947697950611e-05,0.82138491666859,128566,2924,0.00028265158427913,0.0003166330993432,0.00028265157787995,32.74161325022,2.1932906001762e-05,2.1932906001762e-05,2.1932906001762e-05,1110113.5376418,0.00088232595050091
3019200,0.062598520998344,0.0012736600070785,0.00041680806204161,0.00044004388908594,0.00041680805595099,-9.8574604458378e-05,9.8570451904546e-05,-2.0647269568943e-09,-2.0472514704661e-09,1.0833615973529e-08,-1.5422852114793e-08,-0.00010063063918101,0.00010063519126909,-0.0001006307248654,0.00010063528945702,-0.00010063910801579,0.00010062648863065,-0.00010063910132132,0.00010062649198506,-0.00010089697134689,0.00010088411553013,-0.00010089699246339,0.00010088417097353,-9.364655906341e-09,1.6942750009779e-08,2.5683421454299e-08,-1.8549914047944e-08,-0.00011393858153271,0.0001139457805426,-0.00011387149494146,0.00011388450370058,-0.00011388574680654,0.00011386969017808,-0.00011386302813018,0.00011389326614341,-0.00011387728189566,0.00011387845095671,-0.00011288363395343,0.00011294289399382,-0.00011292646269587,0.00011289890485173,-0.00011292922539665,0.00011289611850088,-0.00011290361423437,0.00011292242943785,3.9104570684478e-09,3.8988058185522e-09,-9.8568588585502e-05,9.8576463052274e-05,-1.7601042712797e-08,2.6204303096369e-08,-0.00010063632284725,0.00010062946263494,-0.00010062182479325,0.00010064402332431,-0.00010063629521563,0.00010062942888316,-0.00010062180470627,0.0001006439937317,-0.00010087932473753,0.00010090172909042,-0.00010087939073864,0.00010090182676172,0.82013325935839,128566,2924,0.00041063508348116,0.00047464526790893,0.00041063507364098,32.491628689442,1.9933029515536e-05,1.9933029515536e-05,1.9933029515536e-05,1518297.7236142,0.0012967570079658
3219200,0.0837678014079,0.0016913950163191,0.00054794865223325,0.0005954977193807,0.00054794864470515,-0.00012748595939958,0.00012748193371274,-2.0050837304496e-09,-1.9891118000122e-09,1.2351769921133e-08,-1.6878935028706e-08,-0.00013096631837716,0.00013097199738983,-0.00013096642409067,0.00013097211445479,-0.00013097575449112,0.00013096231413362,-0.00013097574518344,0.00013096231416955,-0.00013026407380346,0.00013025033474312,-0.00013026407979863,0.00013025037265394,-1.0404229327789e-08,1.8863199535533e-08,3.334450734463e-08,-2.5408728102732e-08,-0.00015185194175872,0.00015185995830977,-0.00015260961399345,0.00015262725023339,-0.00015262869954358,0.00015260760616191,-0.00015260012180388,0.00015263697554933,-0.00015261920902189,0.00015261732992067,-0.00014943889430335,0.00014951417597381,-0.00014949579014711,0.00014945578836212,-0.00014949581116638,0.00014945588152625,-0.00014946732013127,0.00014948511545934,4.6065588575346e-09,4.5946464411797e-09,-0.00012747931250206,0.00012748857550927,-2.3924576805998e-08,3.4184357462843e-08,-0.00013097428647711,0.00013096397007122,-0.00013095504482136,0.00013098329609405,-0.00013097426112013,0.00013096393821843,-0.00013095502464675,0.00013098326649643,-0.00013024289119041,0.00013027148267079,-0.00013024295104282,0.0001302715735083,0.80675914872925,128566,2924,0.0005310436070965,0.00063253054872534,0.00053104359647706,32.203528594174,1.7628228753392e-05,1.7628228753392e-05,1.7628228753392e-05,1857360.3834397,0.0016960570013195
3419200,0.10466919192959,0.0020909445736515,0.0006706907858536,0.00074956301051534,0.00067069077728259,-0.0001543973006733,0.00015439462398548,-1.3397274262091e-09,-1.3244752998817e-09,1.0987008359586e-08,-1.4113491016567e-08,-0.00015969709626054,0.00015970276983861,-0.00015969718580979,0.00015970287026914,-0.00015970520931463,0.0001596944548344,-0.0001597051958181,0.00015969445023101,-0.00015730990152811,0.00015729884754977,-0.00015730987259918,0.00015729884918824,-8.7619510471673e-09,1.6366357834341e-08,3.1928861636128e-08,-2.4800422525336e-08,-0.00018944039069395,0.00018944759904316,-0.00019167794135798,0.00019169551099947,-0.00019169654511243,0.0001916765821765,-0.00019166971534477,0.00019170383470219,-0.00019168832072437,0.00019168490438044,-0.0001848778889583,0.00018494899365202,-0.00018493285965209,0.00018489268423073,-0.00018493083627733,0.00018489486437426,-0.00018490637837061,0.00018491990877412,3.7653809001883e-09,3.7539909074299e-09,-0.00015439218596122,0.00015439973320375,-2.3756867303011e-08,3.2312514779904e-08,-0.0001597055976908,0.00015969421699222,-0.00015968701990212,0.00015971286966084,-0.00015970558048917,0.00015969419362602,-0.00015968700684826,0.00015971284755621,-0.00015729121665574,0.0001573174700963,-0.00015729124667148,0.0001573175298559,0.7858983785611,128566,2924,0.00064311309117396,0.0007890340818643,0.000643113079737,31.914035485347,1.5312283882773e-05,1.5312283882773e-05,1.5312283882773e-05,2148775.6026205,0.002077418643477
3619200,0.12582673451715,0.0024848896073686,0.00078934724005875,0.00090619513728773,0.00078934723002213,-0.0001809750000449,0.00018097323426791,-8.8677626511587e-10,-8.769535136695e-10,9.8865434663458e-09,-1.2054885019383e-08,-0.00018842034127106,0.00018842588431108,-0.00018842042874543,0.00018842597402978,-0.00018842744245471,0.00018841861814239,-0.00018842743090286,0.00018841861716996,-0.00018378929338629,0.00018378018298992,-0.00018378923802971,0.00018378016080912,-7.7217955112858e-09,1.4231812007684e-08,2.9892150514725e-08,-2.3805818898419e-08,-0.00022839798709606,0.00022840414663505,-0.00023288105303397,0.0002328976526138,-0.00023289874137253,0.00023287975585301,-0.00023287384369386,0.00023290490789107,-0.0002328915283253,0.00023288701484622,-0.00022082217514991,0.00022088819668103,-0.0002208742149614,0.00022083493048371,-0.00022087113757978,0.00022083820911284,-0.00022084975902,0.0002208600824877,3.0063154170504e-09,2.9907109155355e-09,-0.00018097111350415,0.0001809771151083,-2.3009534838704e-08,2.999687529064e-08,-0.00018842904412902,0.00018841713887473,-0.00018841147790846,0.00018843477069347,-0.00018842903419633,0.00018841711480761,-0.00018841146580765,0.00018843475205006,-0.00018377283660941,0.0001837965626947,-0.00018377285423516,0.00018379660325347,0.77011576441193,128566,2924,0.00075378126748423,0.00095121097323034,0.0007537812556196,31.993931861585,1.5951454892677e-05,1.5951454892677e-05,1.5951454892677e-05,2452633.7845672,0.0024618033359343
3819200,0.14758496391508,0.0028879748625805,0.00090894820363621,0.0010700784676374,0.00090894819130686,-0.00020817435641738,0.00020817308130537,-6.4494715394686e-10,-6.333790210165e-10,9.1860202625442e-09,-1.0828423432009e-08,-0.00021784279627973,0.00021784818274856,-0.00021784287362526,0.00021784826558158,-0.00021784927046665,0.00021784156079076,-0.00021784926110744,0.00021784156073657,-0.00021092816871089,0.00021092018788769,-0.00021092810842038,0.00021092015626067,-7.1188622062418e-09,1.2903667085328e-08,2.8015694717169e-08,-2.2621372136484e-08,-0.00026965091815064,0.00026965637751734,-0.00027701964958425,0.00027703518756583,-0.00027703636092414,0.00027701832872326,-0.00027701306792298,0.00027704179555815,-0.00027702977707381,0.00027702493916737,-0.0002583801981062,0.00025844189236489,-0.00025842930598462,0.0002583916871527,-0.00025842595486579,0.00025839521091503,-0.00025840643999295,0.00025841515820429,2.4233278865544e-09,2.4106609442342e-09,-0.00020817130362372,0.00020817612710385,-2.2114030721519e-08,2.7879183631676e-08,-0.00021785150628614,0.00021783943563975,-0.00021783493754598,0.00021785606528128,-0.00021785149815439,0.00021783941715085,-0.00021783492727098,0.00021785604806721,-0.00021091335263891,0.00021093491333997,-0.00021091336357741,0.0002109349497201,0.77140162020682,128566,2924,0.00086702610364418,0.00112291381354,0.00086702608908324,32.325609174075,1.8604873392604e-05,1.8604873392604e-05,1.8604873392604e-05,2767268.0661189,0.0028610571203121
4019200,0.16993305941709,0.0033005011695691,0.0010296075675629,0.0012412860483001,0.0010296075537061,-0.00023549381610948,0.00023549274932059,-5.4206685928055e-10,-5.3119942465228e-10,8.7866668326226e-09,-1.0194729511144e-08,-0.00024781610269591,0.00024782135076672,-0.00024781617297845,0.00024782142589526,-0.00024782225170894,0.00024781507261334,-0.00024782224514191,0.00024781507498197,-0.00023823262601397,0.00023822519079617,-0.00023823256216556,0.00023822515498622,-6.805396479206e-09,1.2176613799719e-08,2.6611821360698e-08,-2.1610533265558e-08,-0.00031306760975882,0.00031307267088669,-0.00032368200968849,0.0003236967023321,-0.00032369794344877,0.0003236806595568,-0.0003236757679772,0.0003237029603079,-0.00032369169990795,0.00032368691963637,-0.00029771845436706,0.00029777704943864,-0.00029776524248412,0.00029772924753635,-0.00029776199662407,0.00029773265861947,-0.00029774347267959,0.00029775156317212,2.0401528936303e-09,2.0279769935157e-09,-0.00023549125536206,0.00023549530212893,-2.1331412847877e-08,2.6280760314074e-08,-0.00024782473387055,0.00024781268990888,-0.00024780895443896,0.00024782852344015,-0.00024782472675419,0.00024781267262279,-0.00024780894568075,0.00024782850816492,-0.00023821886057758,0.0002382388610442,-0.00023821886378136,0.00023823888816036,0.77299486085926,128566,2924,0.00098075995781907,0.0013035895178139,0.00098075994129258,32.663140784919,2.1305126279355e-05,2.1305126279355e-05,2.1305126279355e-05,3050692.3129799,0.0032704541590217
4219200,0.19284868040824,0.003722733365868,0.001151215836094,0.0014203017086342,0.0011512158211398,-0.0002628982736807,0.00026289726053739,-5.155711021526e-10,-5.052768432695e-10,8.5697849765039e-09,-9.9076142295685e-09,-0.00027838388481388,0.0002783890196463,-0.00027838394826205,0.00027838908760143,-0.00027838988452941,0.00027838290805174,-0.00027838987951685,0.00027838291154639,-0.00026565037409804,0.00026564315529318,-0.0002656503044784,0.00026564311264098,-6.6748703987617e-09,1.1799160132654e-08,2.5587362907627e-08,-2.0818593167637e-08,-0.00035876975996197,0.00035877458509363,-0.00037283988558646,0.00037285391391206,-0.00037285523272576,0.00037283848568249,-0.00037283381165005,0.00037286000102426,-0.00037284915704752,0.00037284457480667,-0.0003390750752052,0.00033913149397407,-0.00033912012966428,0.00033908550807279,-0.00033911713506359,0.00033908865296994,-0.00033909909103635,0.00033910704365501,1.807397331953e-09,1.7958437880271e-09,-0.00026289597592135,0.00026289954988008,-2.0694023839556e-08,2.5132299187137e-08,-0.00027839239495224,0.00027838048655266,-0.000278377204963,0.00027839572421763,-0.0002783923880362,0.00027838046993206,-0.0002783771978215,0.00027839571091765,-0.000265637243623,0.000265656184617,-0.00026563724034549,0.00026565620400722,0.77488673997521,128566,2924,0.0010948375001558,0.0014937387347699,0.0010948374826355,33.00088123891,2.4007049911278e-05,2.4007049911278e-05,2.4007049911278e-05,3303266.473899,0.0036902177184207
4419200,0.21670433126096,0.0041615356357187,0.0012756103260677,0.001610314999285,0.001275610310366,-0.00029130478695785,0.00029130377290888,-5.1610866822619e-10,-5.0484686216805e-10,8.4166479738702e-09,-9.7460778623936e-09,-0.00031032381743891,0.00031032884773497,-0.00031032387275681,0.00031032891083434,-0.00031032972580069,0.00031032284061702,-0.00031032972255633,0.00031032284398388,-0.00029407572702984,0.00029406861397392,-0.00029407565512975,0.00029406856270336,-6.5966696210653e-09,1.1564141662013e-08,2.4696487740325e-08,-2.0073219853295e-08,-0.00040778818831149,0.0004077928653978,-0.0004256352456838,0.00042564869096721,-0.00042565006115493,0.0004256338153803,-0.00042562927588248,0.00042565467530321,-0.0004256440921976,0.00042563979912115,-0.00038328181353363,0.00038333638588131,-0.00038332530176237,0.00038329202438574,-0.00038332263217497,0.00038329484934943,-0.00038330489412382,0.00038331292423573,1.6496806770247e-09,1.6403123160123e-09,-0.0002913026473441,0.00029130590381303,-2.0066427274406e-08,2.4152363539537e-08,-0.00031033216218457,0.00031032048158888,-0.00031031750041289,0.00031033518616708,-0.0003103321532832,0.00031032046699847,-0.00031031749475194,0.0003103351732845,-0.00029406306811485,0.00029408115991999,-0.00029406305960063,0.00029408117717091,0.77612068917183,128566,2924,0.0012130762384483,0.0016976429238084,0.0012130762203227,33.595274452026,2.8762195616211e-05,2.8762195616211e-05,2.8762195616211e-05,3549524.3837034,0.0041323265244154
4619200,0.24163801355943,0.0046191813277732,0.0014034076131725,0.0018123661177707,0.00140340759683,-0.00032057501873936,0.00032057398364336,-5.2443161352015e-10,-5.1598428918245e-10,8.2978258325808e-09,-9.6431486256641e-09,-0.00034341527993115,0.00034342022043858,-0.00034341533147333,0.00034342027424228,-0.00034342112392976,0.00034341428427336,-0.00034342111933295,0.00034341428819783,-0.00032334309844352,0.00032333603718017,-0.00032334301891532,0.00032333598435021,-6.5284629629084e-09,1.1404761457498e-08,2.3976694003912e-08,-1.9435697956313e-08,-0.00046000757150132,0.00046001216433254,-0.00048206025568092,0.00048207324737307,-0.00048207462905545,0.00048205882467441,-0.00048205436509475,0.00048207915527138,-0.00048206873619971,0.00048206473510164,-0.00043006079724262,0.00043011387626212,-0.00043010296848661,0.00043007086501775,-0.00043010059877289,0.00043007339470591,-0.0004300830793847,0.00043009125394565,1.5621126062932e-09,1.5511390805388e-09,-0.0003205729576843,0.00032057603564635,-1.9505167214119e-08,2.3383443044237e-08,-0.00034342344032673,0.00034341203485491,-0.00034340921864991,0.00034342629635661,-0.00034342343435594,0.00034341201841065,-0.00034340921202086,0.00034342628527207,-0.00032333076791013,0.00032334824610273,-0.00032333076310486,0.00032334825775621,0.77693647367855,128566,2924,0.00133490028797,0.0019148128194218,0.001334900269136,34.293255921447,3.4346047371578e-05,3.4346047371578e-05,3.4346047371578e-05,3787526.179456,0.0045951615503353
4819200,0.26761932776665,0.0050951351729434,0.001534486795094,0.0020261615998354,0.001534486778014,-0.00035048344729329,0.00035048238213152,-5.3850492627944e-10,-5.3025120761721e-10,8.2087155397334e-09,-9.5798035289457e-09,-0.00037738506145207,0.00037738992194193,-0.00037738510585907,0.00037738996915571,-0.00037739085789492,0.0003773840369658,-0.00037739085133824,0.00037738403804775,-0.00035323608220765,0.00035322904567988,-0.00035323600118311,0.00035322898843454,-6.4810826282716e-09,1.1299599753954e-08,2.3455166907663e-08,-1.8965387435212e-08,-0.00051516410342629,0.000515168643183,-0.00054191811422806,0.00054193077531432,-0.0005419321570455,0.00054191668187632,-0.00054191227747327,0.00054193663296953,-0.00054192631773748,0.00054192254223011,-0.00047908820573176,0.00047914021336566,-0.00047912942702923,0.00047909818860398,-0.0004791272615176,0.00047910048419091,-0.00047910989381282,0.00047911819112823,1.5336502168631e-09,1.5236648551756e-09,-0.00035048139824148,0.00035048442123478,-1.9060708968013e-08,2.2856752080806e-08,-0.00037739304269206,0.00037738191318285,-0.00037737914082359,0.0003773958528467,-0.0003773930373502,0.00037738189873832,-0.00037737913533198,0.00037739584281081,-0.0003532239516472,0.00035324104891772,-0.00035322394534382,0.00035324106016875,0.77792180153059,128566,2924,0.0014593714502501,0.0021441410998519,0.001459371429547,34.993679945866,3.9949439566927e-05,3.9949439566927e-05,3.9949439566927e-05,4011090.6751177,0.0050757526214167
5019200,0.29460076279623,0.0055871372018335,0.0016682477699283,0.0022506416798261,0.0016682477520791,-0.00038087689086624,0.00038087578992541,-5.5537331051795e-10,-5.4766952947981e-10,8.1420114884155e-09,-9.5461070285271e-09,-0.00041209254199033,0.00041209733651298,-0.00041209258000342,0.00041209737692673,-0.00041209831113978,0.00041209148543951,-0.00041209830152554,0.00041209148307942,-0.0003836166220189,0.00038360958559558,-0.0003836165371063,0.00038360952344307,-6.4573736588437e-09,1.1216192052355e-08,2.3078350531851e-08,-1.8649588439081e-08,-0.00057306265176947,0.00057306712904706,-0.00060505604299973,0.00060506844570147,-0.00060506985402451,0.00060505457979644,-0.00060505024146764,0.00060507427117151,-0.00060506405023553,0.0006050604076727,-0.00053014994274148,0.0005302011788272,-0.00053019049524137,0.00053015983744843,-0.00053018847757788,0.00053016197023385,-0.00053017121361435,0.00053017957592904,1.548493982967e-09,1.5391469493226e-09,-0.00038087480729663,0.00038087786318805,-1.87161682061e-08,2.2525004917633e-08,-0.00041210035822861,0.000412089491546,-0.00041208667897224,0.00041210320550868,-0.00041210035383066,0.00041208947844701,-0.0004120866747726,0.00041210319716889,-0.00038360458721391,0.00038362148926288,-0.00038360457985146,0.00038362149827922,0.7767732676186,128566,2924,0.0015858532138567,0.0023848057027304,0.0015858531924077,35.694191460721,4.5553531685767e-05,4.5553531685767e-05,4.5553531685767e-05,4215328.6292838,0.0055720185398921
5219200,0.32188669315861,0.0060844746627296,0.0018020202430875,0.0024804341947613,0.0018020202248808,-0.00041045380169403,0.00041045264712269,-5.7835573020481e-10,-5.7706312420794e-10,8.1465234761482e-09,-9.6044376653015e-09,-0.00044613532105129,0.00044614009268996,-0.00044613536514533,0.00044614012173761,-0.00044614112226549,0.00044613421628003,-0.00044614110662525,0.00044613421661484,-0.00041328667731685,0.0004132795546743,-0.00041328657718514,0.000413279503782,-6.5039820200785e-09,1.1216839169322e-08,2.3056457366436e-08,-1.8673896358579e-08,-0.0006316144360508,0.00063161886543102,-0.00066927224330228,0.00066928458472091,-0.00066928604971048,0.00066927070687927,-0.00066926643455844,0.00066929042184965,-0.0006692802257259,0.00066927655946413,-0.00058136130331069,0.00058141249642154,-0.00058140185201284,0.00058137117738312,-0.00058139985024885,0.00058137323067081,-0.00058138251937729,0.00058139090331898,1.6292436004515e-09,1.6146708623381e-09,-0.00041045161236359,0.00041045482639441,-1.8658274123489e-08,2.2617604451156e-08,-0.00044614304924896,0.000446132343269,-0.00044612936517134,0.00044614605984055,-0.00044614305330249,0.00044613232208293,-0.00044612935700651,0.00044614605698392,-0.00041327451692299,0.00041329159931261,-0.00041327452319007,0.00041329159458678,0.77855553281273,128566,2924,0.0017089316355733,0.002628117116622,0.0017089316146256,36.023292068121,4.8186336544972e-05,4.8186336544972e-05,4.8186336544972e-05,4384916.4502175,0.0060643465407007
5419200,0.34927426694508,0.0065766345535153,0.0019330585440135,0.0027105174842261,0.0019330585252758,-0.00043918824455225,0.00043918705067568,-5.9724578167817e-10,-5.9649650035101e-10,8.1530458654571e-09,-9.6513064405367e-09,-0.00047967545138893,0.00047968020232216,-0.00047967549485981,0.00047968023019078,-0.00047968127340239,0.00047967430975734,-0.000479681258068,0.00047967430980985,-0.00044214624571659,0.00044213906912567,-0.00044214614947289,0.00044213901911708,-6.5614213169651e-09,1.1209362373615e-08,2.3073428235253e-08,-1.8755362101268e-08,-0.00069033704077918,0.00069034140451141,-0.00073405114549582,0.00073406343714473,-0.00073406498078371,0.00073404952156489,-0.00073404532292867,0.00073406929062409,-0.00073405913903451,0.00073405539404161,-0.00063227213153526,0.00063232337602537,-0.00063231277676166,0.00063228195591236,-0.00063231076912575,0.00063228400216701,-0.00063229338984932,0.00063230172592442,1.6877630501508e-09,1.6738653735841e-09,-0.00043918597562025,0.00043918931034288,-1.8651785843451e-08,2.2730870973346e-08,-0.00047968312779499,0.00047967250970153,-0.00047966940832185,0.00047968626022221,-0.00047968313158849,0.00047967248856544,-0.0004796694003095,0.0004796862577051,-0.0004421339869856,0.00044215122015819,-0.00044213399357857,0.00044215121659918,0.76958004236135,128566,2924,0.001828500630392,0.0028720679138987,0.0018285006110977,36.276054267715,5.0208434141718e-05,5.0208434141718e-05,5.0208434141718e-05,4521029.2552532,0.0065504965089945
5619200,0.37668380393157,0.0070461709421295,0.0020564298212401,0.0029333113177106,0.0020564298031789,-0.00046619246867934,0.00046619125405044,-6.0704595997052e-10,-6.0651484322567e-10,8.1528721845579e-09,-9.6729393271375e-09,-0.00051232427142707,0.00051232900940078,-0.00051232431588873,0.00051232903838678,-0.00051233010342382,0.00051232311077019,-0.00051233009023335,0.0005123231122525,-0.00046895872594399,0.00046895152447719,-0.00046895863822699,0.00046895147991599,-6.6045232363781e-09,1.1187267260576e-08,2.3064013135378e-08,-1.8810278819129e-08,-0.00074803083902175,0.00074803513785491,-0.0007983255390132,0.00079833777314398,-0.00079833938756691,0.00079832384071704,-0.00079831970798033,0.00079834363542422,-0.00079833353861114,0.00079832972067436,-0.00068156049247342,0.00068161172977505,-0.00068160118028802,0.00068157025178959,-0.000681599175229,0.00068157230930528,-0.00068158177944148,0.00068159005288502,1.7181035864328e-09,1.7052211656758e-09,-0.00046619015723568,0.00046619355722027,-1.8640970908811e-08,2.2787990004821e-08,-0.00051233191849986,0.00051232135085714,-0.00051231818333868,0.00051233511615467,-0.0005123319213087,0.00051232132968334,-0.00051231817491565,0.00051233511335,-0.00046894641958735,0.0004689637283226,-0.00046894642862516,0.00046896372760538,0.73637049528699,128566,2924,0.0019408694360221,0.0031116756863733,0.0019408694187969,36.526959057039,5.2215672456316e-05,5.2215672456316e-05,5.2215672456316e-05,4627128.9986658,0.0070180085826766
5819200,0.40403487878825,0.0074979132185235,0.0021739679178707,0.0031499774001682,0.0021739679004846,-0.00049179743408993,0.00049179621248006,-6.0999649152223e-10,-6.0996671995373e-10,8.1376428293309e-09,-9.6650174777916e-09,-0.00054434688010167,0.00054435160457763,-0.00054434692542456,0.00054435163430144,-0.00054435270828033,0.00054434571404908,-0.00054435269715365,0.00054434571700031,-0.00049406364953748,0.00049405645053614,-0.00049406356869615,0.0004940564112533,-6.6276585581687e-09,1.1139733832749e-08,2.30064497489e-08,-1.882233628487e-08,-0.00080515353539727,0.00080515776428848,-0.000862493436562,0.00086250559452059,-0.00086250727226263,0.00086249167578206,-0.00086248761135789,0.00086251144967474,-0.00086250142978343,0.00086249754801617,-0.0007298323369687,0.00072988345449101,-0.0007298729789769,0.00072984201492872,-0.00072987097603653,0.00072984407856985,-0.00072985360491949,0.00072986179854556,1.7316465563294e-09,1.7194982007658e-09,-0.00049179510441614,0.00049179853437717,-1.8604093381394e-08,2.2782664818504e-08,-0.00054435450040749,0.00054434397699356,-0.00054434077869817,0.00054435772822866,-0.00054435450229897,0.00054434395558271,-0.0005443407697895,0.00054435772516658,-0.00049405133981802,0.00049406866178874,-0.0004940513517811,0.00049406866300921,0.71317584701485,128566,2924,0.0020474161629672,0.0033488463613276,0.0020474161467786,36.77779685277,5.4222374822161e-05,5.4222374822161e-05,5.4222374822161e-05,4716857.5129614,0.0074715549145682
6019200,0.43084174377028,0.0079323456533517,0.0022861103656764,0.0033601249390607,0.0022861103486146,-0.0005156492329676,0.00051564800809743,-6.1150444371451e-10,-6.1167415132903e-10,8.1400496518915e-09,-9.66686747804e-09,-0.00057510282284179,0.00057510754410343,-0.00057510286571206,0.00057510757298318,-0.00057510865723934,0.0005751016545612,-0.00057510864565319,0.00057510165460688,-0.00051728063562548,0.00051727343333287,-0.0005172805485794,0.00051727338199668,-6.6553041532618e-09,1.1116619187915e-08,2.3109361014325e-08,-1.8976961185421e-08,-0.00086098642549731,0.00086099060024126,-0.00092556621452486,0.00092557839669355,-0.00092558013464428,0.00092556439432604,-0.00092556038462448,0.0009255842544147,-0.00092557428988674,0.00092557026666899,-0.00077665945356703,0.00077671078439236,-0.0007767004054397,0.00077666913503171,-0.00077669824473954,0.00077667121309865,-0.00077668086212247,0.00077668892239046,1.7556487145569e-09,1.7444877640898e-09,-0.00051564687948031,0.00051565035417678,-1.8716796115903e-08,2.2921788710248e-08,-0.00057511046340241,0.00057509990806387,-0.00057509665777918,0.00057511374404807,-0.00057511046400282,0.00057509988788008,-0.00057509665028869,0.00057511374052582,-0.00051726826875789,0.0005172857302797,-0.00051726827829596,0.00051728573479629,0.7026152403555,128566,2924,0.0021466712837555,0.0035805981793171,0.0021466712682877,36.7755041859,5.4204033487197e-05,5.4204033487197e-05,5.4204033487197e-05,4781565.7648596,0.007905150194989
6219200,0.45703477927589,0.0083591851552673,0.0023961199511,0.0035669452684428,0.0023961199357245,-0.00053876725790319,0.00053876603171514,-6.1197623971875e-10,-6.1284894523912e-10,8.128672088687e-09,-9.657785956739e-09,-0.00060507429026356,0.00060507900327115,-0.00060507433427812,0.00060507903280961,-0.00060508011478781,0.00060507312163238,-0.00060508010320161,0.00060507312145388,-0.00053978097706189,0.00053977378140658,-0.00053978089313657,0.00053977373240676,-6.6528455114893e-09,1.1095962233941e-08,2.3179649901048e-08,-1.9065304896405e-08,-0.00091626053706944,0.00091626469456572,-0.00098814282454409,0.00098815505149066,-0.00098815679756164,0.00098814099483838,-0.00098813700041722,0.00098816090235664,-0.00098815095954438,0.00098814685951143,-0.00082296150037858,0.00082301296073716,-0.00082300259009098,0.00082297113648682,-0.00082300038531588,0.00082297330249887,-0.00082298302660652,0.00082299099407245,1.7728589391107e-09,1.7622563408892e-09,-0.00053876488685566,0.00053876839743402,-1.8775288039397e-08,2.302511922963e-08,-0.00060508193592751,0.00060507135883787,-0.00060506807735032,0.00060508524816835,-0.00060508193676822,0.00060507133927381,-0.00060506806964862,0.00060508524513156,-0.00053976857170921,0.00053978612024828,-0.00053976858205561,0.00053978612292556,0.70745492582691,128566,2924,0.0022428753485653,0.0038099694255821,0.0022428753374575,36.758747726882,5.4069981815059e-05,5.4069981815059e-05,5.4069981815059e-05,4825228.4686426,0.0083303831333066
6419200,0.48257271302039,0.0087719515212348,0.0025021286020623,0.0037676943306079,0.0025021285885646,-0.0005608551982049,0.00056085397196374,-6.1158765642426e-10,-6.1309274711599e-10,8.1076446156767e-09,-9.6370111978642e-09,-0.00063364994146417,0.00063365464248271,-0.00063364998662994,0.00063365467258196,-0.00063365575650493,0.00063364877406593,-0.00063365574596148,0.00063364877461671,-0.00056102557741982,0.00056101839733526,-0.00056102549951471,0.00056101835316275,-6.648854239714e-09,1.1055532380133e-08,2.3190788553976e-08,-1.9112942503961e-08,-0.00097011315013149,0.00097011727177628,-0.0010494620518797,0.0010494742777342,-0.0010494760441221,0.0010494601999997,-0.0010494562412798,0.0010494801141687,-0.0010494702199809,0.0010494660500513,-0.00086774634665565,0.00086779781341055,-0.0008677874839551,0.00086775592090983,-0.00086778524392859,0.00086775814757017,-0.00086776792928197,0.00086777579753524,1.783862206962e-09,1.7738742740116e-09,-0.00056085281531283,0.00056085635078796,-1.879139052086e-08,2.3071744165498e-08,-0.00063365758149436,0.00063364700770169,-0.00063364370126889,0.00063366091820668,-0.0006336575819604,0.00063364698795259,-0.00063364369319842,0.00063366091534844,-0.0005610131586049,0.00056103074835274,-0.00056101317049872,0.00056103075105068,0.7021089353664,128566,2924,0.0023347968946165,0.0040333799165204,0.0023347968861385,36.741585602227,5.3932684817819e-05,5.3932684817819e-05,5.3932684817819e-05,4860514.6835743,0.0087411459344527
6619200,0.50783183238773,0.0092039691610555,0.0026145807903458,0.0039748075927731,0.0026145807779366,-0.00058422885486921,0.00058422762966978,-6.106104275169e-10,-6.1266905241909e-10,8.0672782782634e-09,-9.5983167388063e-09,-0.00066290367405375,0.00066290834829388,-0.00066290371991662,0.00066290838075651,-0.00066290945527817,0.00066290250672815,-0.00066290944850375,0.0006629025090752,-0.00058379328037297,0.00058378613464,-0.00058379322716388,0.00058378610877181,-6.6318183635013e-09,1.0992521384458e-08,2.3006522418003e-08,-1.8973472638317e-08,-0.0010249545019486,0.0010249585812066,-0.001111678047064,0.0011116901538513,-0.0011116919332396,0.0011116761816159,-0.0011116722612355,0.0011116959652503,-0.0011116861359116,0.001111682004852,-0.00091401865355115,0.0009140697271994,-0.00091405942143001,0.00091402809969259,-0.00091405730744626,0.00091403034871192,-0.00091404008021209,0.00091404792882487,1.7781277973566e-09,1.7688105784131e-09,-0.00058422647448151,0.00058423000675813,-1.8620749359742e-08,2.2917722104231e-08,-0.00066291124840598,0.00066290077044184,-0.00066289747462282,0.00066291457423668,-0.00066291124789754,0.00066290075211081,-0.00066289746659265,0.00066291457053287,-0.00058378093286677,0.00058379838765859,-0.0005837809470549,0.00058379839446655,0.74070666862605,128566,2924,0.0024320637350012,0.004260829890144,0.0024320637281762,37.009225660195,5.6073805281563e-05,5.6073805281563e-05,5.6073805281563e-05,4888787.4710435,0.0091669408661539
6819200,0.53390871512949,0.0096831560743847,0.0027411458777382,0.0042008643301174,0.0027411458665291,-0.00061153632627259,0.00061153510480775,-6.0743693987654e-10,-6.109788045681e-10,8.0034336788817e-09,-9.5338930589937e-09,-0.00069568361750668,0.0006956882608907,-0.00069568367290639,0.00069568828869269,-0.00069568936045909,0.0006956824533751,-0.0006956893521245,0.00069568246688423,-0.0006111284725225,0.00061112136069789,-0.00061112844099451,0.00061112139345725,-6.5859180101373e-09,1.0893725605572e-08,2.2389653572688e-08,-1.8406549176822e-08,-0.0010844786660053,0.0010844826983597,-0.0011785453636304,0.0011785570944749,-0.0011785588734767,0.0011785435057442,-0.0011785396305754,0.0011785628521845,-0.0011785531159942,0.0011785492884703,-0.00096545881039689,0.00096550859589965,-0.00096549832365148,0.00096546808349549,-0.00096549663466955,0.00096547013128499,-0.00096547953678162,0.00096548760478644,1.7404736070358e-09,1.7306913685194e-09,-0.00061153397881874,0.00061153744826426,-1.8088453896356e-08,2.2345066291428e-08,-0.00069569102073951,0.00069568084681871,-0.00069567761930775,0.00069569427724422,-0.00069569102671898,0.000695680821293,-0.00069567760331348,0.00069569427944756,-0.00061111633804935,0.00061113334690207,-0.00061111638141384,0.00061113334087501,0.79221451275418,128566,2924,0.0025456857554341,0.0045076310928357,0.0025456857472443,38.075097009115,6.4600776072923e-05,6.4600776072923e-05,6.4600776072923e-05,4950906.7940393,0.0096454776848207
7019200,0.5607035889635,0.010137590459182,0.0028590615046459,0.0044194674610111,0.0028590614935249,-0.0006377561199359,0.00063775490534716,-6.0356676483567e-10,-6.0729573052428e-10,7.9404730812204e-09,-9.4658023472947e-09,-0.00072824588633818,0.00072825049353586,-0.00072824593824591,0.00072825052007045,-0.00072825158207826,0.00072824472797902,-0.00072825157681853,0.00072824474217894,-0.00063690411764773,0.00063689706564696,-0.00063690409183741,0.00063689709051618,-6.5415382993776e-09,1.0805911860634e-08,2.18461154052e-08,-1.7905450771123e-08,-0.0011439466201555,0.0011439506090234,-0.0012459950958754,0.0012460064800525,-0.0012460082667712,0.001245993242667,-0.0012459894061109,0.0012460121932984,-0.001246002551549,0.0012459989820458,-0.001015755065308,0.0010158037458821,-0.0010157935805082,0.0010157642806471,-0.0010157921082076,0.0010157660448066,-0.0010157751480706,0.0010157833897185,1.7020537033928e-09,1.6930163267721e-09,-0.00063775381528489,0.00063775720598322,-1.7615232346655e-08,2.1779300284754e-08,-0.00072825313764611,0.00072824322721137,-0.00072824007771337,0.0007282563165281,-0.00072825314210147,0.00072824320298759,-0.00072824006169368,0.0007282563168294,-0.0006368922334947,0.00063690881947134,-0.00063689227388209,0.00063690882285107,0.7333580757104,128566,2924,0.0026547920993446,0.004754119519758,0.0026547920910867,39.159353366753,7.3274826934021e-05,7.3274826934021e-05,7.3274826934021e-05,4990675.152723,0.010114811606113
7219200,0.58806436920606,0.010583980660684,0.0029741273905225,0.0046357258924851,0.0029741273776769,-0.00066361925600308,0.00066361805177509,-5.9812589078961e-10,-6.0220504047944e-10,7.8890693408671e-09,-9.4008931587553e-09,-0.00076072868164013,0.00076073325973869,-0.00076072873016395,0.00076073328284274,-0.00076073433764064,0.00076072753177414,-0.0007607343315821,0.00076072754460716,-0.00066193263287521,0.00066192563051344,-0.00066193260572238,0.00066192565127373,-6.5052945914215e-09,1.0724171988672e-08,2.1396068780256e-08,-1.7500448648012e-08,-0.0012033256104138,0.0012033295535441,-0.001314151094357,0.0013141621884078,-0.001314163990691,0.0013141492408985,-0.0013141454401943,0.0013141678634932,-0.0013141583136317,0.0013141549395712,-0.0010652898457869,0.0010653376128196,-0.0010653275716423,0.0010652990212481,-0.0010653262556039,0.0010653005491196,-0.0010653094077362,0.0010653177671814,1.6639230343431e-09,1.6554381706431e-09,-0.00066361699577402,0.0006636203057271,-1.7243187540427e-08,2.1303230092912e-08,-0.00076073581422383,0.00076072611065874,-0.0007607230345109,0.00076073892019828,-0.00076073581874051,0.00076072608710558,-0.00076072301859948,0.00076073892052624,-0.00066192095219213,0.00066193718542186,-0.00066192099363126,0.0006619371919242,0.70718848610141,128566,2924,0.0027624172271909,0.0050001676183996,0.0027624172142038,40.244267174488,8.1954137395907e-05,8.1954137395907e-05,8.1954137395907e-05,5032098.6937052,0.010580930507815
7419200,0.61499306405278,0.011008316201905,0.0030827617742271,0.0048427926670156,0.0030827617606623,-0.00068717385548645,0.00068717266211738,-5.9296482554668e-10,-5.9726789239595e-10,7.8648350467137e-09,-9.3562475668828e-09,-0.00079084242137727,0.00079084698131858,-0.0007908424582159,0.00079084699902322,-0.00079084805288628,0.00079084128079466,-0.00079084804247508,0.00079084128178258,-0.00068428669219178,0.00068427972708776,-0.00068428662954976,0.00068427969259979,-6.4876279206556e-09,1.0677704805154e-08,2.1356752261819e-08,-1.7491693606473e-08,-0.0012597974697545,0.0012598013743885,-0.0013797107760286,0.0013797218224187,-0.0013797236591847,0.001379708904804,-0.0013797051361881,0.0013797274791136,-0.0013797180044396,0.0013797145767007,-0.0011117286347012,0.0011117763387995,-0.0011117665019487,0.0011117379367698,-0.001111764934386,0.0011117392977694,-0.0011117481408234,0.0011117564099926,1.652315767189e-09,1.6442598950573e-09,-0.00068717162214907,0.00068717488913497,-1.7262157706284e-08,2.1207906386883e-08,-0.0007908495490774,0.00079083984590117,-0.00079083679215959,0.00079085263515552,-0.00079084955156679,0.00079083982716144,-0.00079083678176001,0.00079085263279935,-0.00068427507586448,0.00068429128496778,-0.00068427510126791,0.00068429130153558,0.68501444217009,128566,2924,0.0028604427674064,0.0052341053358376,0.0028604427541417,40.77158768422,8.6172701473763e-05,8.6172701473763e-05,8.6172701473763e-05,5063071.0410019,0.011015612352633
7619200,0.64074860673983,0.011405638290021,0.003184021848649,0.0050375946053062,0.003184021836066,-0.0007082703385809,0.00070826915224253,-5.901123040183e-10,-5.9453240469808e-10,7.8551816336593e-09,-9.3360362399132e-09,-0.00081822965127052,0.00081823420988611,-0.00081822968874058,0.00081823422323613,-0.00081823527649859,0.00081822851867676,-0.00081823526070652,0.00081822851891308,-0.00070412211474684,0.00070411515431254,-0.0007041220196947,0.00070411510491601,-6.4899118865879e-09,1.0639092564143e-08,2.1552007704253e-08,-1.7727788300648e-08,-0.0013126364628541,0.0013126403249067,-0.0014416013548164,0.0014416125150566,-0.0014416143866295,0.0014415994548015,-0.0014415957253238,0.0014416181585932,-0.0014416087400782,0.0014416051155031,-0.0011547540883027,0.0011548021607988,-0.0011547924140492,0.0011547633778198,-0.001154790636089,0.0011547648443958,-0.0011547738635103,0.0011547819203124,1.6627844017764e-09,1.6552797594701e-09,-0.00070826810412612,0.0007082713816461,-1.7494823755143e-08,2.1433293793043e-08,-0.00081823684582408,0.00081822700746976,-0.00081822394078636,0.00081823994623263,-0.0008182368508667,0.00081822698714294,-0.0008182239285562,0.00081823994689904,-0.00070411041766766,0.00070412681918463,-0.00070411044879055,0.00070412682385911,0.67223241392723,128566,2924,0.002948244814154,0.0054529378393571,0.0029482448034954,40.851876313307,8.6815010506457e-05,8.6815010506457e-05,8.6815010506457e-05,5081341.8769373,0.011414523259166
7819200,0.6652969994584,0.011780575823854,0.0032793353830057,0.0052219050683057,0.0032793353725422,-0.0007279555616627,0.00072795438284575,-5.8620981535797e-10,-5.9109615858182e-10,7.8435016816135e-09,-9.3196759774432e-09,-0.00084396253049753,0.0008439670872784,-0.00084396257192227,0.00084396710495666,-0.00084396814434119,0.00084396140548022,-0.00084396813376607,0.00084396141007018,-0.00072265118494237,0.00072264424605921,-0.00072265111063038,0.00072264421152163,-6.4980012592867e-09,1.0600795486328e-08,2.1730878351289e-08,-1.7951556723735e-08,-0.0013629851854317,0.0013629890049723,-0.0015006525084868,0.0015006637746888,-0.0015006656730358,0.0015006505776402,-0.0015006468880297,0.0015006694083534,-0.0015006600350946,0.0015006562290064,-0.0011955029686781,0.0011955513750858,-0.001195541622518,0.0011955121336569,-0.0011955397752389,0.0011955138290822,-0.0011955230387106,0.0011955308871291,1.664894103378e-09,1.6577463085139e-09,-0.00072795332556199,0.00072795661442012,-1.7678573792676e-08,2.1655618566905e-08,-0.0008439697893401,0.00084395981882983,-0.00084395674875694,0.00084397289319299,-0.00084396979327928,0.0008439597983863,-0.00084395673557322,0.00084397289304391,-0.00072263942623339,0.00072265595286851,-0.00072263945893164,0.00072265596011976,0.66655083895084,128566,2924,0.003030174392365,0.0056614099823709,0.0030301743828674,40.921715772533,8.7373726180267e-05,8.7373726180267e-05,8.7373726180267e-05,5091558.920949,0.011791225538015
8019200,0.68863023251283,0.012133601698328,0.0033687886678205,0.0053960243721892,0.0033687886583187,-0.00074630070748446,0.00074629953505062,-5.8256967798263e-10,-5.8783410275561e-10,7.8324070129506e-09,-9.3027901009128e-09,-0.00086813236003973,0.00086813691437002,-0.00086813240357507,0.00086813693425424,-0.00086813796553523,0.00086813124228448,-0.00086813795723042,0.0008681312484113,-0.00073994779121785,0.00073994087000472,-0.00073994772734222,0.00073994084418063,-6.5017724390209e-09,1.0567483651217e-08,2.1880590720326e-08,-1.8137587117634e-08,-0.0014108070792972,0.0014108108628942,-0.0015568204945423,0.0015568318463546,-0.0015568337689749,0.0015568185361088,-0.0015568148824179,0.0015568374706732,-0.0015568281400658,0.0015568241775194,-0.0012340230216806,0.0012340717102837,-0.001234061983903,0.001234032117515,-0.0012340600315211,0.0012340339652989,-0.0012340433263843,0.0012340509966136,1.666043099446e-09,1.6592862181385e-09,-0.00074629847076721,0.00074630176767496,-1.7838287115191e-08,2.1833285717599e-08,-0.00086813967273228,0.0008681295969423,-0.00086812651956494,0.00086814278343941,-0.00086813967617787,0.00086812957639502,-0.00086812650623384,0.00086814278296861,-0.00073993598287531,0.00073995262074227,-0.00073993601759973,0.00073995262967133,0.66097249530892,128566,2924,0.0031065293328116,0.0058593750221959,0.003106529324218,40.991179787746,8.7929438301967e-05,8.7929438301967e-05,8.7929438301967e-05,5099748.2354119,0.012146148667514
8219200,0.71089235894914,0.012467371113454,0.0034531212380355,0.0055611286467916,0.0034531212286269,-0.00076368643742937,0.00076368527110277,-5.7923039148451e-10,-5.8481059682858e-10,7.8188795458856e-09,-9.2841485916334e-09,-0.00089113938837813,0.00089114393940495,-0.00089113943485587,0.00089114396095397,-0.00089114498372965,0.00089113827724003,-0.00089114497705168,0.00089113828593838,-0.00075636220651597,0.00075635530231405,-0.00075636215122375,0.00075635528716921,-6.5021098878885e-09,1.0532030933626e-08,2.1933673746558e-08,-1.8225821225496e-08,-0.0014565673959228,0.001456571145299,-0.0016106570567315,0.0016106684348758,-0.0016106703785352,0.0016106550755647,-0.001610651455408,0.0016106740473543,-0.0016106647597173,0.0016106607059391,-0.0012707449429977,0.0012707937196445,-0.0012707840144542,0.0012707539631855,-0.0012707820296664,0.0012707559113605,-0.001270765359508,0.0012707729143069,1.6623394529098e-09,1.6560463861857e-09,-0.0007636842050188,0.00076368749941317,-1.7908335935983e-08,2.1913277705512e-08,-0.00089114672734692,0.00089113659616767,-0.00089113352446829,0.00089114983188766,-0.00089114673101269,0.00089113657499088,-0.00089113351003674,0.00089114983194378,-0.00075635038199375,0.00075636705944639,-0.00075635042057833,0.00075636706745746,0.65549139911488,128566,2924,0.0031788925103448,0.0060487654732009,0.0031788925017717,41.18172758966,8.9453820717282e-05,8.9453820717282e-05,8.9453820717282e-05,5109928.7230947,0.012484431761849
8419200,0.73213450137024,0.012784927073087,0.0035332649876906,0.0057183971072363,0.0035332649781598,-0.00078018053889544,0.00078017937807112,-5.7613301135734e-10,-5.8215134883829e-10,7.8034128749976e-09,-9.264292539134e-09,-0.00091295430700521,0.00091295885234736,-0.0009129543549268,0.00091295887594231,-0.00091295989017099,0.00091295320187756,-0.000912959885881,0.00091295321187697,-0.00077194128749052,0.00077193440429905,-0.00077194124095356,0.00077193439328076,-6.5008445494261e-09,1.0496884621145e-08,2.1936277490663e-08,-1.8261496549051e-08,-0.0015003353309948,0.0015003390481101,-0.001662215357242,0.001662226728996,-0.0016622286916654,0.001662213356166,-0.0016622097664112,0.0016622323301333,-0.0016622230844638,0.0016622189742345,-0.0013057632235304,0.0013058119920076,-0.0013058023114862,0.0013057721750664,-0.001305800314889,0.0013057741847932,-0.0013057836845286,0.0013057911554169,1.6566187671305e-09,1.6506682544302e-09,-0.00078017831329524,0.00078018159997111,-1.7926214279488e-08,2.1932990497968e-08,-0.00091296165542464,0.00091295150013541,-0.00091294843892002,0.00091296474905996,-0.00091296165838158,0.0009129514792795,-0.00091294842436596,0.00091296474856303,-0.00077192947314781,0.0007719461475783,-0.0007719295120903,0.00077194615800459,0.65380935378653,128566,2924,0.0032475459115338,0.0062298733883631,0.0032475459038154,41.431120593021,9.1448964744165e-05,9.1448964744165e-05,9.1448964744165e-05,5119482.7536722,0.012806924504475
8619200,0.75234082936435,0.013086398744241,0.0036092821252467,0.0058678345035755,0.0036092821154188,-0.00079571430119256,0.00079571314657597,-5.7277356186674e-10,-5.7909609749533e-10,7.7894097154187e-09,-9.2430758249665e-09,-0.00093352350832975,0.00093352804843286,-0.00093352355680148,0.00093352807227434,-0.0009335290803518,0.00093352240952588,-0.00093352907640033,0.0009335224196931,-0.00078667123097951,0.00078666436587558,-0.00078667118370539,0.00078666435399239,-6.4964357941105e-09,1.0464333609615e-08,2.19086058766e-08,-1.826199891841e-08,-0.0015420093969079,0.0015420130851614,-0.0017113361337264,0.0017113474792175,-0.0017113494607937,0.0017113341161677,-0.0017113305535141,0.0017113530683485,-0.001711343864802,0.0017113397217127,-0.0013390424089645,0.0013390911123034,-0.0013390814820603,0.001339051331598,-0.0013390794571587,0.0013390533432068,-0.0013390628613208,0.001339070275069,1.6486300442191e-09,1.6430888718423e-09,-0.00079571208636864,0.00079571535738361,-1.7924137098886e-08,2.1911320555188e-08,-0.00093353085828465,0.00093352069622195,-0.00093351764947592,0.00093353393737503,-0.00093353086118628,0.00093352067544894,-0.00093351763473157,0.00093353393689749,-0.00078665943718648,0.00078667609056618,-0.00078665947711685,0.00078667610156375,0.65260875673415,128566,2924,0.0033122040790328,0.0064022829735386,0.003312204070637,41.681903658711,9.3455229269686e-05,9.3455229269686e-05,9.3455229269686e-05,5127221.5634777,0.01311261156838
8819200,0.77150223727552,0.01336151648235,0.0036779476025628,0.0060056212872502,0.0036779475925372,-0.00080981338957351,0.00080981224090828,-5.696739756691e-10,-5.7633912251458e-10,7.7751880047388e-09,-9.2226195649794e-09,-0.00095250320255508,0.00095250773773002,-0.00095250325160598,0.0009525077619047,-0.00095250876347109,0.00095250210996773,-0.00095250876022204,0.00095250212068673,-0.00079977769456518,0.00079977084722764,-0.0007997776496854,0.00079977083701641,-6.4923680571418e-09,1.043203267868e-08,2.1856202439489e-08,-1.8237442647999e-08,-0.0015810873655498,0.0015810910258443,-0.0017576635955676,0.0017576749001236,-0.0017576768993062,0.0017576615633534,-0.0017576580259506,0.0017576804774586,-0.0017576713144125,0.0017576671566376,-0.0013698776559442,0.0013699262448385,-0.0013699166554229,0.0013698865400944,-0.0013699146316668,0.0013698885497391,-0.0013698980710745,0.0013699054457325,1.6398148588405e-09,1.6346660255865e-09,-0.00080981118654051,0.00080981443977635,-1.7896397698364e-08,2.1865692243706e-08,-0.00095251054699199,0.00095250039059741,-0.00095249736224873,0.00095251360763091,-0.00095251054976247,0.00095250036998822,-0.00095249734715422,0.00095251360716904,-0.00079976593045963,0.00079978254347175,-0.0007997659721292,0.00079978255541008,0.62941992961423,128566,2924,0.003370896524573,0.0065639202374136,0.0033708965158708,41.932736785801,9.5461894286407e-05,9.5461894286407e-05,9.5461894286407e-05,5136905.314659,0.013395385221613
9019200,0.78921653722001,0.013616013971994,0.0037415052812131,0.0061330034196901,0.0037415052710907,-0.00082195783099484,0.00082195668837581,-5.6636048749131e-10,-5.7376099547263e-10,7.767856376987e-09,-9.2063973032349e-09,-0.00096899262931999,0.00096899716042313,-0.00096899267490097,0.00096899718541413,-0.0009689981812061,0.00096899154313365,-0.00096899817894849,0.00096899154928481,-0.00081101486405083,0.00081100803524232,-0.00081101480929183,0.00081100799972616,-6.4910008837904e-09,1.0412474741221e-08,2.1946568774448e-08,-1.8347653298551e-08,-0.0016163363993901,0.0016163400371958,-0.0017997379043162,0.0017997492533493,-0.0017997512734739,0.0017997358556002,-0.0017997323374896,0.0017997548265627,-0.0017997456971538,0.0017997414389134,-0.001397426638914,0.0013974754124789,-0.0013974659043805,0.0013974355578316,-0.0013974637155539,0.0013974375783041,-0.001397447178172,0.0013974544351698,1.6380858056288e-09,1.6326984068131e-09,-0.00082195563650938,0.00082195887865517,-1.8003049604075e-08,2.1938440883233e-08,-0.0009690000071838,0.00096898978269129,-0.00096898676014211,0.00096900306252008,-0.00096900000780623,0.00096898976474688,-0.00096898674805636,0.00096900305946869,-0.00081100308870649,0.00081101976535496,-0.00081100312114143,0.00081101978555708,0.62977530382923,128566,2924,0.0034214587549128,0.0067096972581185,0.0034214587460194,41.749850692528,9.3998805540224e-05,9.3998805540224e-05,9.3998805540224e-05,5136211.2587247,0.01364567439117
9219200,0.80547734777288,0.01384701338268,0.0037990691829134,0.0062488750268778,0.0037990691728885,-0.00083265501440761,0.00083265387504537,-5.6487869809536e-10,-5.72193822588e-10,7.7580211777912e-09,-9.1945764956171e-09,-0.00098367741775401,0.00098368194741259,-0.00098367746701,0.00098368197292613,-0.00098368296443099,0.00098367633580467,-0.00098368296213287,0.00098367634519482,-0.000820930713177,0.00082092389012587,-0.00082093065992357,0.00082092386776903,-6.4921100422005e-09,1.0386255045567e-08,2.2022351310578e-08,-1.844928356211e-08,-0.0016482741365636,0.0016482777498694,-0.0018380426585226,0.0018380540546288,-0.0018380560887118,0.0018380405954127,-0.0018380371009392,0.0018380596183169,-0.0018380505191084,0.0018380461716202,-0.0014221809456726,0.0014222298527147,-0.0014222203537096,0.0014221898030207,-0.0014222181281769,0.0014221919243257,-0.0014222016127871,0.0014222087661449,1.638236608941e-09,1.6336242616171e-09,-0.00083265282020303,0.00083265606465401,-1.8092781297804e-08,2.2044157778733e-08,-0.00098368482655757,0.00098367453594473,-0.00098367151654535,0.00098368787880035,-0.0009836848281596,0.00098367451653549,-0.00098367150206499,0.00098368787739454,-0.00082091890369283,0.0008209356461027,-0.00082091894527828,0.00082093566063613,0.62300580564726,128566,2924,0.0034660010341018,0.0068417598470574,0.0034660010244486,41.451848759741,9.1614790077928e-05,9.1614790077928e-05,9.1614790077928e-05,5130990.5054395,0.013869911731993
9419200,0.82039388759821,0.014056530708122,0.0038511858435235,0.006354159031048,0.0038511858335506,-0.00084221216314775,0.00084221102796697,-5.6243015422574e-10,-5.7011043210335e-10,7.7463661953834e-09,-9.1792906487951e-09,-0.00099689046397962,0.00099689498967609,-0.00099689051444739,0.00099689501612589,-0.00099689600255839,0.00099688938673891,-0.00099689600145285,0.00099688939715867,-0.00082972256490399,0.00082971575763639,-0.00082972251956281,0.00082971574044307,-6.4894024191518e-09,1.0361054240905e-08,2.2066187101072e-08,-1.8514804894478e-08,-0.0016773113411057,0.0016773149329592,-0.001873030364074,0.0018730417852678,-0.0018730438311914,0.0018730282890015,-0.0018730248147747,0.0018730473400313,-0.0018730382704018,0.0018730338558014,-0.0014445591792461,0.0014446081627789,-0.0014445986805706,0.0014445679902555,-0.0014445964191673,0.0014445701825284,-0.0014445799323451,0.001444586999671,1.6348232160891e-09,1.6305212341992e-09,-0.00084220997254924,0.0008422132136889,-1.8146466085947e-08,2.2100961323499e-08,-0.00099689789212031,0.00099688756029236,-0.00099688454503496,0.00099690094016004,-0.00099689789357396,0.00099688754076526,-0.00099688453020601,0.00099690093869447,-0.00082971074775239,0.00082972751669722,-0.00082971079033007,0.00082972753323422,0.6162082439406,128566,2924,0.0035057996924025,0.0069618123980841,0.0035057996821767,41.151067801884,8.9208542415073e-05,8.9208542415073e-05,8.9208542415073e-05,5125772.6030027,0.014072396589297
9619200,0.83407230750292,0.014246459935232,0.0038983520568154,0.0064497558316293,0.0038983520467871,-0.00085074516032891,0.00085074402784204,-5.6080666777802e-10,-5.6877934496677e-10,7.7313527298672e-09,-9.1619116668876e-09,-0.0010087723426551,0.0010087768610795,-0.0010087723941838,0.0010087768883815,-0.0010087778714498,0.0010087712688591,-0.0010087778711455,0.0010087712799284,-0.0008374887187023,0.00083748192595229,-0.00083748867643721,0.00083748191103779,-6.4828806787982e-09,1.0334272115904e-08,2.2072931776203e-08,-1.8541391587097e-08,-0.0017036827910772,0.0017036863631137,-0.0019049006261014,0.001904912049599,-0.0019049141035305,0.0019048985418082,-0.0019048950875536,0.0019049175934342,-0.0019049085535939,0.0019049040976174,-0.001464755001521,0.0014648039872279,-0.0014647945302714,0.0014647637753689,-0.0014647922419374,0.0014647660057423,-0.0014647757882117,0.0014647827918106,1.6327817758692e-09,1.6288194886992e-09,-0.0008507429722005,0.00085074621111291,-1.8163587124175e-08,2.2119043353082e-08,-0.0010087797751901,0.0010087694284701,-0.001008766416336,0.0010087828201348,-0.0010087797764522,0.0010087694089138,-0.001008766401169,0.0010087828186063,-0.000837476904779,0.00083749368135744,-0.00083747694881403,0.00083749369883446,0.60938040940139,128566,2924,0.0035413363923409,0.0070708302705623,0.0035413363821571,40.850186354051,8.6801490832408e-05,8.6801490832408e-05,8.6801490832408e-05,5120830.6109638,0.014255082075392
9819200,0.84637689177742,0.014418206703103,0.0039411287201089,0.0065359492729869,0.003941128710007,-0.00085768780213209,0.0008576866739379,-5.5889696564017e-10,-5.6646376995197e-10,7.7224473637913e-09,-9.1462921506413e-09,-0.0010186668656641,0.0010186713821734,-0.0010186669185842,0.001018671406708,-0.001018672389869,0.0010186657963195,-0.0010186723861609,0.0010186658083624,-0.00084377005349479,0.00084376326438143,-0.00084376998931302,0.00084376324132977,-6.4746280025001e-09,1.0314268930576e-08,2.2140829521974e-08,-1.8622445235846e-08,-0.0017265759739665,0.0017265795304465,-0.0019327684503557,0.0019327799156554,-0.0019327819794863,0.0019327663580016,-0.0019327629224336,0.001932785448192,-0.0019327764364476,0.0019327719062179,-0.0014821283582558,0.0014821774654674,-0.0014821680749398,0.0014821371597747,-0.0014821656645861,0.001482139389889,-0.0014821492277903,0.0014821561455438,1.6325875926653e-09,1.6294705623039e-09,-0.00085768561857647,0.0008576888523469,-1.8258585516922e-08,2.2190986721511e-08,-0.0010186743256645,0.00101866392485,-0.0010186609137565,0.001018677370116,-0.001018674328895,0.0010186639035682,-0.0010186608965057,0.0010186773708259,-0.0008437582119915,0.00084377506255476,-0.00084375826104167,0.00084377507312352,0.61213711573386,128566,2924,0.0035702578172647,0.0071654581650771,0.0035702578063848,40.183499569518,8.1467996556147e-05,8.1467996556147e-05,8.1467996556147e-05,5106817.5826828,0.014409776575974
10019200,0.85743725010946,0.014573636815417,0.003979990466836,0.0066136558918264,0.0039799904567549,-0.00086375122054186,0.00086375009538834,-5.5708481152413e-10,-5.6536796822926e-10,7.7077451510864e-09,-9.130224476586e-09,-0.0010273878981984,0.0010273924078024,-0.0010273879519441,0.0010273924348123,-0.0010273934111734,0.0010273868325399,-0.0010273934107757,0.0010273868455868,-0.00084929560871531,0.00084928884003884,-0.00084929556004641,0.00084928882180546,-6.4706254940093e-09,1.028830700993e-08,2.2168534402021e-08,-1.8670408163729e-08,-0.0017469351396438,0.0017469386774304,-0.0019575863069797,0.0019575977901869,-0.0019575998597056,0.0019575842074537,-0.0019575807877174,0.0019576033139351,-0.0019575943275078,0.0019575897446552,-0.001497578399609,0.0014976275523425,-0.0014976181591415,0.0014975871342045,-0.0014976157438483,0.0014975894531918,-0.0014975993424435,0.0014976061828848,1.6314142301449e-09,1.6282572478436e-09,-0.00086374903835685,0.00086375227245881,-1.8284455027803e-08,2.2233392275423e-08,-0.0010273953678661,0.0010273849378093,-0.0010273819317299,0.0010273984070646,-0.0010273953699206,0.0010273849175488,-0.0010273819148724,0.0010273984066499,-0.00084928376973787,0.00084930062773013,-0.00084928381668481,0.0008493006433942,0.61574677512036,128566,2924,0.0035955195505505,0.007249602450259,0.0035955195398086,39.479270254773,7.5834162038183e-05,7.5834162038183e-05,7.5834162038183e-05,5089677.7896053,0.014546428688991
10219200,0.86739284384978,0.014714668488915,0.0040153959713172,0.0066838765563751,0.0040153959612228,-0.00086910262688758,0.00086910150524247,-5.5501885610456e-10,-5.6363920730442e-10,7.6928865893361e-09,-9.1120666312957e-09,-0.0010351807029228,0.0010351852058566,-0.0010351807571855,0.0010351852334628,-0.0010351862064415,0.0010351796421039,-0.0010351862067652,0.0010351796552741,-0.00085422602405172,0.00085421927178296,-0.00085422598099166,0.00085421925703695,-6.4620415964179e-09,1.0263488866225e-08,2.2151325842554e-08,-1.8668820932335e-08,-0.0017651274559708,0.0017651309781787,-0.0019797641085373,0.0019797755811511,-0.0019797776547941,0.0019797620044059,-0.0019797585998125,0.0019797810939273,-0.0019797721334164,0.0019797675304206,-0.0015114350531611,0.0015114841610326,-0.0015114747858308,0.0015114437512388,-0.0015114723654069,0.0015114460973273,-0.0015114559983169,0.0015114627952475,1.6270807267106e-09,1.6241905305234e-09,-0.0008691004496571,0.00086910367756659,-1.8276352958021e-08,2.2222394114823e-08,-0.0010351881709077,0.0010351777404019,-0.0010351747410112,0.0010351912036907,-0.0010351881727609,0.0010351777202614,-0.0010351747240822,0.0010351912029902,-0.00085421420061756,0.00085423104180986,-0.00085421424848649,0.00085423105911176,0.62007023488117,128566,2924,0.0036178174401124,0.0073247825072992,0.0036178174298158,38.774069775106,7.019255820085e-05,7.019255820085e-05,7.019255820085e-05,5070547.1498816,0.014667985551155
10419200,0.87638177749998,0.01484317405234,0.0040477955275316,0.0067475830073902,0.0040477955174186,-0.00087389704172884,0.00087389592364311,-5.5306968667057e-10,-5.6186433655663e-10,7.6774053807911e-09,-9.0930320492303e-09,-0.0010422086886341,0.0010422131843908,-0.0010422087438105,0.0010422132120365,-0.0010422141815298,0.0010422076316051,-0.0010422141820787,0.0010422076456897,-0.00085870590103876,0.0008586991637706,-0.00085870586067737,0.00085869915329252,-6.4519695049957e-09,1.0238025485996e-08,2.2087003211742e-08,-1.8619284693986e-08,-0.0017815096444708,0.0017815131520745,-0.0019997130991329,0.001999724531949,-0.0019997266084716,0.0019997109926242,-0.0019997076021243,0.0019997300325499,-0.0019997210982298,0.0019997165070714,-0.0015239897489963,0.0015240387173906,-0.0015240293627302,0.0015239984137711,-0.0015240269657805,0.0015240007533538,-0.0015240106329476,0.0015240174184559,1.6208536875913e-09,1.6183860424394e-09,-0.00087389487170712,0.00087389808871416,-1.8225899703892e-08,2.2163373019342e-08,-0.001042216140621,0.0010422057352551,-0.0010422027474455,0.0010422191618786,-0.0010422161427192,0.0010422057148394,-0.0010422027298096,0.0010422191616083,-0.0008586941084853,0.00085871090086586,-0.00085869415900107,0.00085871091778694,0.6250614340825,128566,2924,0.0036377964583456,0.0073924747350562,0.0036377964479682,38.099053319934,6.4792426559473e-05,6.4792426559473e-05,6.4792426559473e-05,5049850.3606701,0.014777249289888
10619200,0.88477460228916,0.014960968630931,0.0040774167498829,0.0068061351412984,0.0040774167397498,-0.00087924622813947,0.00087924511301822,-5.509861882134e-10,-5.6085637421e-10,7.651380401307e-09,-9.0667713154777e-09,-0.0010497450008506,0.0010497494816433,-0.0010497450556533,0.0010497495126899,-0.0010497504738631,0.0010497439475972,-0.0010497504791329,0.0010497439616217,-0.00086377599372126,0.00086376928848763,-0.00086377598018521,0.00086376928749208,-6.4385873919278e-09,1.0201499873534e-08,2.1845515883956e-08,-1.8398349630166e-08,-0.0017978195347458,0.0017978230248399,-0.0020193515614482,0.0020193628426855,-0.0020193649165877,0.0020193494574473,-0.0020193460788969,0.0020193683288948,-0.0020193594250396,0.0020193549533902,-0.0015367014009433,0.0015367498811939,-0.0015367405093637,0.0015367099668396,-0.00153673829766,0.0015367122688349,-0.0015367220256598,0.0015367288901703,1.6071110985135e-09,1.604230017791e-09,-0.0008792440704987,0.00087924726641175,-1.7986388829021e-08,2.1924568070424e-08,-0.0010497523793087,0.0010497421036019,-0.0010497391424319,0.001049755373466,-0.0010497523792581,0.001049742084985,-0.0010497391263322,0.0010497553708799,-0.00086376431361609,0.00086378089879009,-0.0008637643600896,0.00086378092365305,0.61395113162067,128566,2924,0.0036600775511065,0.0074598621736806,0.0036600775423067,38.029378759566,6.4235030076526e-05,6.4235030076526e-05,6.4235030076526e-05,5040931.1358905,0.01489088894952
10819200,0.89261278462443,0.015069117840323,0.0041045298387717,0.0068600581730372,0.0041045298285138,-0.0008841412797607,0.00088414016857526,-5.4903661199772e-10,-5.5855236133297e-10,7.6319677163383e-09,-9.0422911619178e-09,-0.0010566680245408,0.0010566724961175,-0.0010566680793741,0.0010566725244235,-0.0010566734855152,0.0010566669754865,-0.0010566734878598,0.0010566669895709,-0.00086837756276009,0.00086837086926264,-0.00086837753411909,0.00086837086471143,-6.4192867188442e-09,1.0174611392371e-08,2.1607548624398e-08,-1.8169035708372e-08,-0.0018129391405087,0.0018129426193782,-0.0020376361710401,0.0020376473000356,-0.0020376493752667,0.0020376340705039,-0.0020376307046077,0.0020376527695689,-0.0020376438972144,0.0020376395524523,-0.001548418831396,0.0015484668277374,-0.0015484575150392,0.0015484274142007,-0.0015484553831898,0.0015484295446574,-0.0015484391521101,0.0015484461196317,1.5926525434716e-09,1.59046380695e-09,-0.00088413913980317,0.00088414230401163,-1.7784377652823e-08,2.1672801240472e-08,-0.0010566753368889,0.0010566651871675,-0.0010566622525149,0.0010566783048129,-0.0010566753381548,0.0010566651672533,-0.0010566622351039,0.0010566783037122,-0.00086836597525903,0.0008683823958563,-0.00086836602647702,0.00086838241602065,0.60386754559402,128566,2924,0.0036804681596476,0.0075223272554935,0.0036804681501992,37.973607408756,6.378885927005e-05,6.378885927005e-05,6.378885927005e-05,5034715.5539667,0.014995706120388
11019200,0.89992961379723,0.015168227314787,0.0041292928701543,0.0069096415848308,0.004129292859802,-0.00088859476921534,0.00088859366207154,-5.4698829332061e-10,-5.5668630058945e-10,7.6165699817487e-09,-9.0212912457743e-09,-0.0010629940046318,0.0010629984682959,-0.0010629940587494,0.0010629984953717,-0.0010629994537809,0.0010629929590591,-0.001062999455704,0.0010629929729828,-0.0008725297608186,0.00087252308294201,-0.00087252972779494,0.00087252307397461,-6.4069593811418e-09,1.0149977860673e-08,2.1395067238911e-08,-1.7968800500303e-08,-0.0018269061448847,0.0018269096112486,-0.002054610741763,0.0020546217338155,-0.0020546238123526,0.0020546086434363,-0.002054605286889,0.0020546271910875,-0.0020546183461523,0.002054614112778,-0.0015591637599525,0.0015592113281916,-0.0015592020580163,0.00155917233736,-0.0015592000197979,0.0015591743411513,-0.0015591838212736,0.0015591908757403,1.5801445681203e-09,1.5781897904799e-09,-0.00088859264506321,0.00088859578154827,-1.7597557098328e-08,2.1449529528608e-08,-0.0010630012570787,0.001062991217685,-0.0010629883091348,0.0010630041988693,-0.0010630012585347,0.0010629911978874,-0.0010629882914515,0.0010630041980656,-0.00087251826098491,0.00087253452298731,-0.00087251831259456,0.00087253454327203,0.59320720492291,128566,2924,0.0036990202489093,0.0075800273313381,0.0036990202391224,37.918332960972,6.3346663687775e-05,6.3346663687775e-05,6.3346663687775e-05,5030538.1161149,0.015091963239217
11219200,0.90674759006158,0.015260520156316,0.0041523833487693,0.0069557534691627,0.0041523833383838,-0.00089267390726352,0.00089267280319206,-5.4532825055216e-10,-5.5534960977008e-10,7.6051011319102e-09,-9.0062546846604e-09,-0.0010687771290807,0.0010687815871838,-0.0010687771826121,0.0010687816136331,-0.0010687825695368,0.0010687760866522,-0.0010687825715492,0.0010687761002366,-0.00087633452387962,0.0008763278586147,-0.00087633448882474,0.00087632784587362,-6.3989937476629e-09,1.0131117927772e-08,2.1225233261282e-08,-1.7809782632072e-08,-0.0018397947708227,0.0018397982258153,-0.0020703317156313,0.0020703425959137,-0.0020703446794919,0.002070329616529,-0.0020703262690703,0.0020703480444601,-0.0020703392220791,0.002070335076625,-0.0015690394909702,0.0015690867182336,-0.0015690774780921,0.0015690480598085,-0.001569075519436,0.0015690499653658,-0.0015690593468198,0.0015690664714721,1.569502392737e-09,1.5676606425632e-09,-0.00089267179613182,0.00089267490965982,-1.7447804045798e-08,2.1271088712707e-08,-0.0010687843348247,0.0010687743828423,-0.0010687714958835,0.0010687872551849,-0.0010687843361705,0.0010687743632372,-0.0010687714782541,0.0010687872542496,-0.0008763230952326,0.00087633922809942,-0.00087632314619222,0.00087633924901263,0.59263237026812,128566,2924,0.0037160129142988,0.0076332704286538,0.0037160129045253,37.837510295998,6.270008236798e-05,6.270008236798e-05,6.270008236798e-05,5027459.4007543,0.015180536285818
11419200,0.91305667640127,0.015346509713016,0.0041739636277703,0.0069985824678758,0.0041739636173703,-0.0008962359620783,0.00089623486035189,-5.4425874823207e-10,-5.5410011727733e-10,7.6001384595881e-09,-8.9982709908214e-09,-0.0010739037459699,0.0010739082027249,-0.001073903799438,0.0010739082279856,-0.0010739091829635,0.0010739027057852,-0.0010739091840233,0.0010739027196513,-0.0008796684223969,0.00087966176110815,-0.00087966838145884,0.0008796617466038,-6.3967012560499e-09,1.0119810573851e-08,2.1127869932429e-08,-1.7721636690281e-08,-0.0018514581408797,0.0018514615859933,-0.0020846110622606,0.0020846218756352,-0.002084623966903,0.0020846089587159,-0.0020846056204111,0.0020846273191505,-0.0020846185132514,0.002084614414693,-0.001577934397776,0.0015779814283716,-0.0015779722147811,0.0015779429676147,-0.0015779702949153,0.0015779448055899,-0.0015779541329914,0.0015779612978129,1.5623367012855e-09,1.5610823712947e-09,-0.00089623386001178,0.0008962369576992,-1.7368801921141e-08,2.1169859200907e-08,-0.0010739109279652,0.0010739010220577,-0.0010738981495807,0.0010739138340482,-0.0010739109297117,0.0010739010021079,-0.0010738981312077,0.0010739138338077,-0.00087965703098595,0.00087967309534022,-0.00087965708430428,0.00087967311446329,0.59626238889951,128566,2924,0.0037308543389394,0.0076814491151739,0.0037308543290296,37.630334599421,6.1042676795366e-05,6.1042676795366e-05,6.1042676795366e-05,5020736.6150034,0.015259605069135
11619200,0.91889513695106,0.015426465439372,0.0041940824728934,0.0070383005039799,0.0041940824624983,-0.00089951071894987,0.00089950961940032,-5.4293197164654e-10,-5.5324720333367e-10,7.5984086329019e-09,-8.9948425510285e-09,-0.0010786524039377,0.0010786568617251,-0.0010786524575088,0.0010786568872948,-0.0010786578399237,0.0010786513668585,-0.0010786578419046,0.0010786513808803,-0.00088276515383877,0.00088275849907578,-0.00088276511793727,0.00088275848583855,-6.3996231166126e-09,1.0111283089713e-08,2.1069172257838e-08,-1.7673749672903e-08,-0.0018622238397307,0.0018622272747146,-0.0020977817243402,0.0020977924950068,-0.0020977945944213,0.0020977796139777,-0.0020977762837647,0.0020977979370896,-0.0020977891428091,0.0020977850677543,-0.0015861681043489,0.0015862150182957,-0.0015862058071652,0.0015861766498859,-0.0015862039319763,0.001586178472191,-0.0015861877772729,0.0015861949603841,1.5570597531452e-09,1.5558327565036e-09,-0.0008995086229735,0.00089951171084849,-1.7318481530689e-08,2.1113651238759e-08,-0.0010786595744265,0.0010786496929286,-0.0010786468313521,0.0010786624696245,-0.0010786595758548,0.001078649673146,-0.0010786468129426,0.0010786624690392,-0.00088275378926786,0.00088276980376588,-0.00088275384232886,0.00088276982443955,0.59873359861159,128566,2924,0.003744499856445,0.0077259165431745,0.0037444998469583,37.420251899474,5.9362015195789e-05,5.9362015195789e-05,5.9362015195789e-05,5012146.8628672,0.015332481956057
11819200,0.92429942127569,0.015500957474056,0.0042128828683647,0.0070751917477313,0.0042128828579605,-0.00090253082275367,0.00090252972455538,-5.4210087095521e-10,-5.5261809514463e-10,7.5992913296365e-09,-8.9945077135811e-09,-0.0010830489216384,0.0010830533813718,-0.0010830489753608,0.0010830534068216,-0.0010830543582253,0.0010830478861792,-0.0010830543603038,0.0010830479003063,-0.00088565245252878,0.00088564579935294,-0.00088565241779827,0.00088564578714277,-6.4039595361967e-09,1.0107124852685e-08,2.1046812189158e-08,-1.765973927944e-08,-0.0018721703866885,0.0018721738133283,-0.0021099413719228,0.0021099521222952,-0.0021099542304635,0.0021099392535352,-0.0021099359312564,0.0021099575643633,-0.0021099487786462,0.002109944707449,-0.0015938085929197,0.0015938554627442,-0.0015938462585776,0.0015938171285053,-0.001593844397757,0.0015938189408696,-0.0015938282431527,0.0015938354300062,1.553753706911e-09,1.5527867333241e-09,-0.00090252873048315,0.00090253181231307,-1.7304000561573e-08,2.1093105709881e-08,-0.0010830560903799,0.0010830462145917,-0.0010830433589445,0.001083058979678,-0.0010830560917716,0.0010830461947675,-0.0010830433403202,0.0010830589791835,-0.00088564109741987,0.00088565709405662,-0.0008856411514855,0.00088565711491385,0.60218093010657,128566,2924,0.0037570851747316,0.0077669976131808,0.003757085165278,37.210065300442,5.7680522403535e-05,5.7680522403535e-05,5.7680522403535e-05,5002292.1922072,0.015399771082001
12019200,0.92931065932365,0.015572137217379,0.0042310025837685,0.0071101320602593,0.0042310025733514,-0.00090544973193626,0.00090544863487374,-5.4137018828442e-10,-5.521286048091e-10,7.6006353721357e-09,-8.9949235521128e-09,-0.0010872481744943,0.0010872526362886,-0.00108724822844,0.0010872526618043,-0.0010872536119376,0.0010872471404179,-0.0010872536143172,0.001087247154717,-0.00088851591813762,0.00088850926637259,-0.00088851588554612,0.0008885092554949,-6.4087915301709e-09,1.0103675879931e-08,2.1041286793191e-08,-1.7662180911379e-08,-0.0018815132175772,0.0018815166364498,-0.0021212936478723,0.0021213043892983,-0.00212130650561,0.002121291521658,-0.0021212882066138,0.0021213098318579,-0.0021213010532817,0.0021212969759998,-0.0016010908387549,0.0016011376981254,-0.0016011284972525,0.0016010993621858,-0.0016011266440368,0.0016011011781903,-0.0016011104884753,0.0016011176696635,1.5516471069849e-09,1.550901780614e-09,-0.00090544764199416,0.00090545072034108,-1.7303900829384e-08,2.1091166256373e-08,-0.0010872553458941,0.0010872454668053,-0.001087242615099,0.0010872582312476,-0.0010872553471974,0.0010872454470224,-0.0010872425962949,0.0010872582307984,-0.0008885045660376,0.0008885205570188,-0.00088850462095057,0.00088852057828639,0.61929851044443,128566,2924,0.0037692480089985,0.0078055827398346,0.0037692479996327,37.027733954495,5.6221871635958e-05,5.6221871635958e-05,5.6221871635958e-05,4991271.4986867,0.015463670019622
12219200,0.93397545210297,0.015640522666439,0.004248555648666,0.0071434113795344,0.0042485556382387,-0.00090836249180759,0.00090836139579907,-5.4082525777542e-10,-5.5164234504555e-10,7.6011149130743e-09,-8.9952095896687e-09,-0.0010914208773083,0.0010914253412273,-0.0010914209318799,0.0010914253670715,-0.0010914263152876,0.0010914198447253,-0.001091426318188,0.0010914198598641,-0.0008914496197714,0.00089144296926993,-0.00089144959028437,0.00089144296158837,-6.4139619073959e-09,1.0098930839772e-08,2.1036184885874e-08,-1.7666264343516e-08,-0.0018904899689611,0.0018904933798585,-0.0021320486726411,0.0021320594073709,-0.0021320615303662,0.0021320465391899,-0.0021320432312799,0.0021320648500525,-0.0021320560776963,0.0021320519939968,-0.0016082291373139,0.0016082759851549,-0.0016082667774727,0.0016082376340284,-0.0016082649441255,0.0016082394674083,-0.00160824878924,0.0016082559637605,1.5498635874555e-09,1.5495570817933e-09,-0.00090836040352445,0.00090836348015968,-1.7301898504318e-08,2.1094265798945e-08,-0.0010914280517442,0.0010914181682023,-0.0010914153205143,0.0010914309329829,-0.0010914280529658,0.0010914181482952,-0.0010914153011146,0.0010914309327783,-0.0008914382701229,0.0008914542566527,-0.00089143832667573,0.0008914542769848,0.63789981765976,128566,2924,0.0037813851134784,0.0078426515911557,0.0037813851052893,36.914151924287,5.5313215394297e-05,5.5313215394297e-05,5.5313215394297e-05,4976897.2446227,0.015525980071643
12419200,0.93831819831549,0.015702152770157,0.00426426628818,0.0071736202042546,0.0042642662777225,-0.00091094936563476,0.000910948271406,-5.3963629393569e-10,-5.5078863094004e-10,7.6027964822605e-09,-8.9943022573282e-09,-0.0010952846243811,0.001095289090302,-0.0010952846788659,0.0010952891159486,-0.0010952900633386,0.0010952835938029,-0.0010952900660953,0.0010952836083817,-0.00089404378023096,0.00089403713172595,-0.00089404374920103,0.00089403712188708,-6.4158123407488e-09,1.0097392550412e-08,2.104654609217e-08,-1.7680546604144e-08,-0.0018988305366161,0.0018988339423205,-0.0021420076462295,0.0021420183820633,-0.0021420205120488,0.0021420055064922,-0.0021420022044429,0.0021420238249549,-0.0021420150592092,0.00214201096125,-0.0016148285740467,0.0016148754440735,-0.0016148662548652,0.001614837083704,-0.0016148643959903,0.0016148389074506,-0.0016148482396303,0.0016148554005677,1.5476241126218e-09,1.5473790052429e-09,-0.00091094728054517,0.00091095035210041,-1.7320133863035e-08,2.1100698650757e-08,-0.001095291806076,0.0010952819114733,-0.0010952790666565,0.0010952946845978,-0.0010952918072311,0.0010952818916293,-0.0010952790474941,0.0010952946842539,-0.00089403242932373,0.00089404842172697,-0.00089403248543479,0.00089404844293766,0.61826607132873,128566,2924,0.0037921693557964,0.007877087567868,0.0037921693465956,36.802154558339,5.4417236466713e-05,5.4417236466713e-05,5.4417236466713e-05,4958818.1032226,0.015582873724078
12619200,0.94236130911649,0.015756535741428,0.0042779685511513,0.0072005986496035,0.0042779685406729,-0.00091319122513062,0.00091319013214771,-5.3889915144937e-10,-5.5026753070736e-10,7.6033333666495e-09,-8.9934905515665e-09,-0.0010986610663317,0.0010986655337092,-0.0010986611209802,0.0010986655593835,-0.0010986665055808,0.0010986600372092,-0.0010986665085133,0.0010986600518447,-0.00089620912976131,0.00089620248282713,-0.00089620909809473,0.00089620247196341,-6.4183963260451e-09,1.0094213274949e-08,2.1062225706462e-08,-1.7701965357933e-08,-0.0019063642380993,0.001906367637988,-0.0021511350533027,0.0021511457956824,-0.0021511479315316,0.002151132908021,-0.0021511296115661,0.0021511512383928,-0.0021511424787674,0.0021511383625318,-0.0016206507788329,0.001620697679717,-0.0016206884976709,0.0016206592840235,-0.0016206866247058,0.0016206611185186,-0.0016206704686823,0.0016206776107568,1.5467458816019e-09,1.546718560437e-09,-0.00091318914163293,0.00091319221127417,-1.7340094152262e-08,2.1118488028933e-08,-0.0010986682561345,0.0010986583466884,-0.0010986555040968,0.0010986711324275,-0.001098668257156,0.0010986583269295,-0.0010986554847722,0.0010986711321145,-0.00089619777418154,0.00089621377812666,-0.00089619783060353,0.00089621379924244,0.58731202844083,128566,2924,0.0038015165413974,0.0079081919998397,0.0038015165322441,36.690213808172,5.3521710465378e-05,5.3521710465378e-05,5.3521710465378e-05,4946940.9549467,0.015633466802135
12819200,0.94609157940681,0.015807101704647,0.0042907562634749,0.0072255891881909,0.0042907562529812,-0.00091498091242437,0.00091497982105407,-5.3805353020347e-10,-5.4944023708039e-10,7.6059866572716e-09,-8.9931275348034e-09,-0.0011013406918065,0.0011013451613644,-0.0011013407460771,0.0011013451864317,-0.0011013461325533,0.0011013396642703,-0.0011013461347736,0.0011013396782361,-0.00089788710066346,0.00089788045314696,-0.00089788706211173,0.00089788043655672,-6.4200320277814e-09,1.0095129213614e-08,2.111867018224e-08,-1.7760075690055e-08,-0.0019128252513697,0.0019128286477174,-0.0021591442836655,0.0021591550568777,-0.0021591571991181,0.0021591421323719,-0.0021591388409836,0.0021591605004062,-0.0021591517454631,0.0021591475875641,-0.00162553201097,0.0016255790254667,-0.0016255698686502,0.00162554054319,-0.0016255679300963,0.0016255423830441,-0.0016255517690725,0.0016255588722485,1.5471126560461e-09,1.5473822020648e-09,-0.00091497883022785,0.00091498189843112,-1.7402483762067e-08,2.1169185709291e-08,-0.0011013479013653,0.0011013379557814,-0.0011013351119024,0.0011013507791972,-0.0011013479024209,0.0011013379361587,-0.0011013350926901,0.0011013507789576,-0.00089787572472025,0.0008978917726231,-0.00089787578067543,0.00089789179380805,0.5913455418725,128566,2924,0.0038089788146822,0.0079348707080651,0.0038089788045478,36.406579555815,5.1252636446522e-05,5.1252636446522e-05,5.1252636446522e-05,4939788.107079,0.0156757340484
13019200,0.94949010133029,0.015853325940604,0.0043024723626704,0.0072483812257493,0.004302472352184,-0.00091616008502861,0.00091615899471381,-5.375036207179e-10,-5.4901350578287e-10,7.6096543825633e-09,-8.9950899223244e-09,-0.0011033062394217,0.0011033107120052,-0.0011033062937928,0.0011033107370421,-0.0011033116825047,0.00110330521311,-0.001103311684619,0.0011033052268638,-0.00089896095070265,0.00089895430185027,-0.00089896090770043,0.0008989542808255,-6.4241777818373e-09,1.0096611589505e-08,2.1215386186397e-08,-1.7859852436473e-08,-0.001918160540624,0.0019181639330336,-0.0021658764057288,0.0021658872369502,-0.0021658893855895,0.0021658742476605,-0.0021658709609748,0.0021658926824223,-0.0021658839299653,0.002165879704595,-0.0016294618000534,0.001629509007353,-0.0016294998627767,0.0016294703434659,-0.0016294978492726,0.0016294722289003,-0.001629481681421,0.0016294887207976,1.5502377683463e-09,1.5507096444717e-09,-0.00091615800091793,0.00091616107394306,-1.7499602927672e-08,2.1267476406866e-08,-0.0011033134804746,0.001103303475027,-0.0011033006260666,0.0011033163634395,-0.0011033134814429,0.0011033034555921,-0.001103300606852,0.0011033163632416,-0.00089894953844148,0.00089896566036088,-0.00089894959386766,0.00089896568134032,0.59302697286828,128566,2924,0.0038139023407865,0.0079569000733945,0.0038139023305014,35.873597838947,4.6988782711574e-05,4.6988782711574e-05,4.6988782711574e-05,4926928.0618701,0.01570812195181
13219200,0.9525899878102,0.015895663141568,0.0043132329570928,0.0072691972378541,0.0043132329466214,-0.00091716100877767,0.00091715991886471,-5.3717996327086e-10,-5.4904515466063e-10,7.6102393864437e-09,-8.9962825332145e-09,-0.0011050198026662,0.0011050242767754,-0.0011050198580681,0.0011050243026824,-0.0011050252462577,0.0011050187771145,-0.001105025249487,0.001105018791804,-0.00089987100137885,0.00089986435430805,-0.00089987096604898,0.00089986433916175,-6.4291779106751e-09,1.0092544930327e-08,2.1292848574621e-08,-1.7945183142738e-08,-0.0019229171286373,0.0019229205149817,-0.0021718924808034,0.0021719033617536,-0.0021719055134838,0.0021718903170204,-0.0021718870358653,0.0021719088075476,-0.0021719000575726,0.0021718957743943,-0.001632954951941,0.0016330023100781,-0.0016329931475613,0.0016329634592082,-0.0016329911127649,0.0016329654275045,-0.0016329749450004,0.0016329819250331,1.553438927963e-09,1.5540357299636e-09,-0.00091715892054866,0.00091716200263882,-1.7571225362921e-08,2.1360524685491e-08,-0.001105027068696,0.0011050170138275,-0.0011050141594433,0.0011050299568178,-0.0011050270695455,0.0011050169943986,-0.0011050141398451,0.0011050299567086,-0.00089985956030251,0.00089987573798644,-0.00089985961723742,0.00089987575894819,0.59512404215895,128566,2924,0.0038180832460879,0.0079765394299027,0.0038180832367409,35.33485104738,4.2678808379042e-05,4.2678808379042e-05,4.2678808379042e-05,4913524.6007622,0.015736573606837
13419200,0.95542163583499,0.015933733708041,0.0043228885382994,0.0072879566419124,0.0043228885278288,-0.00091796987269428,0.00091796878352419,-5.3662639950906e-10,-5.4870090622974e-10,7.6073770673121e-09,-8.9933858558237e-09,-0.0011064894457391,0.0011064939191642,-0.001106489501711,0.0011064939455228,-0.0011064948878877,0.0011064884215411,-0.0011064948915233,0.0011064884365314,-0.00090059073378017,0.00090058409032983,-0.00090059070169535,0.00090058407775486,-6.4286279563581e-09,1.0087087992856e-08,2.1334302379589e-08,-1.7991241263106e-08,-0.0019271385358844,0.0019271419177757,-0.0021772598521055,0.0021772707598353,-0.0021772729130556,0.0021772576852396,-0.0021772544091955,0.0021772762037006,-0.0021772674592163,0.0021772631407189,-0.0016360218728316,0.001636069310049,-0.0016360601451564,0.0016360303640003,-0.0016360580865012,0.001636032373032,-0.0016360419263922,0.001636048867205,1.5542430904919e-09,1.5550496625801e-09,-0.00091796778321681,0.00091797086862595,-1.7611734987379e-08,2.140825237089e-08,-0.001106496725268,0.0011064866435643,-0.0011064837866937,0.0011064996159368,-0.0011064967260276,0.0011064866240768,-0.0011064837669179,0.0011064996158109,-0.00090057927954138,0.00090059548710169,-0.0009005793372405,0.000900595508292,0.58608288142046,128566,2924,0.0038214647392943,0.007993968072459,0.0038214647301208,34.795898295579,3.8367186364636e-05,3.8367186364636e-05,3.8367186364636e-05,4899736.5574037,0.015761156081504
13619200,0.9580258690753,0.015968309254392,0.0043316470550013,0.0073050151548697,0.0043316470445212,-0.00091879614126899,0.00091879505208632,-5.3613016846821e-10,-5.494449677293e-10,7.601504124311e-09,-8.9903057736828e-09,-0.0011078956367484,0.0011079001101144,-0.0011078956958234,0.0011079001363308,-0.0011079010771764,0.0011078946141813,-0.0011079010812782,0.0011078946318246,-0.00090132260422942,0.00090131596423108,-0.00090132257576161,0.00090131595760396,-6.4266540110138e-09,1.0073162327452e-08,2.1323854978985e-08,-1.7991354169656e-08,-0.0019310630203929,0.0019310663948025,-0.0021822627452697,0.0021822736538134,-0.0021822758045217,0.0021822605791033,-0.0021822573090929,0.002182279091547,-0.0021822703547693,0.0021822660315887,-0.0016388689548547,0.001638916364252,-0.0016389071864788,0.0016388773888882,-0.0016389051581916,0.0016388794405232,-0.0016388890117303,0.0016388959286052,1.5557122421324e-09,1.5559038360776e-09,-0.00091879404982619,0.00091879714027251,-1.7608829545315e-08,2.1424801349822e-08,-0.001107902916692,0.0011078928332576,-0.0011078899752067,0.0011079058083977,-0.0011079029191566,0.00110789281226,-0.0011078899539449,0.0011079058097267,-0.00090131115005936,0.00090132735986235,-0.00090131121060295,0.00090132737692374,0.57889843703716,128566,2924,0.0038249158173312,0.008010171848669,0.0038249158105515,34.355309996661,3.4842479973288e-05,3.4842479973288e-05,3.4842479973288e-05,4890295.505872,0.015784635218252
13819200,0.96043529600417,0.016000282010882,0.0043397586455499,0.0073207647303088,0.004339758635023,-0.00091966795134654,0.00091966686375183,-5.3558020787942e-10,-5.4809498150101e-10,7.5930880010502e-09,-8.9792095730758e-09,-0.0011092807660147,0.0011092852326736,-0.0011092808230188,0.0011092852597835,-0.0011092861992953,0.0011092797445202,-0.0011092862046173,0.0011092797609715,-0.00090210533587778,0.0009020987061953,-0.00090210531359701,0.00090209870062206,-6.4212839881231e-09,1.0065683816269e-08,2.1293502408765e-08,-1.79629198476e-08,-0.001934765254481,0.0019347686259992,-0.0021869734244909,0.0021869843116595,-0.002186986462692,0.0021869712578891,-0.0021869679908708,0.0021869897463316,-0.0021869810182944,0.0021869767042652,-0.0016415728459277,0.0016416201913267,-0.0016416110169643,0.0016415812794958,-0.0016416089978044,0.0016415833205913,-0.0016415928695107,0.0016415997944063,1.5514930819035e-09,1.5527874774512e-09,-0.00091966586380486,0.00091966894767319,-1.757179598893e-08,2.1380194508271e-08,-0.0011092880336275,0.0011092779687877,-0.0011092751176914,0.0011092909192521,-0.0011092880341665,0.0011092779492193,-0.0011092750972372,0.0011092909192111,-0.0009020939041973,0.00090211007921592,-0.00090209396408308,0.00090211010048564,0.57842148305577,128566,2924,0.0038285536581135,0.0080254590386269,0.0038285536505655,34.003169834233,3.2025358673868e-05,3.2025358673868e-05,3.2025358673868e-05,4884354.3934445,0.01580756220499
14019200,0.96266677232914,0.016029890656317,0.0043472804401886,0.0073353297864943,0.0043472804296342,-0.00092044279563708,0.00092044171023489,-5.3427873476169e-10,-5.4700763583385e-10,7.5868856888188e-09,-8.9696733189901e-09,-0.0011105281469196,0.0011105326103447,-0.0011105282036546,0.0011105326370731,-0.0011105335754181,0.0011105271274913,-0.0011105335799643,0.0011105271430076,-0.00090279981479192,0.00090279319182107,-0.00090279978842953,0.00090279318289402,-6.4133810699636e-09,1.005767004526e-08,2.1247671773448e-08,-1.7918013930327e-08,-0.0019381372957069,0.001938140664842,-0.0021912739123511,0.0021912847702595,-0.0021912869210194,0.0021912717479425,-0.0021912684837915,0.0021912901993756,-0.0021912814815014,0.0021912771888938,-0.0016440265417379,0.0016440737938755,-0.0016440646459874,0.0016440349922133,-0.0016440626229604,0.001644036991438,-0.0016440465083561,0.0016440534446542,1.5470289963739e-09,1.5485287109759e-09,-0.00092044071390166,0.00092044378769104,-1.7536221325505e-08,2.1324946256039e-08,-0.0011105354018506,0.0011105253603806,-0.0011105225160262,0.0011105382802604,-0.0011105354023927,0.0011105253409335,-0.0011105224958343,0.0011105382802516,-0.00090278840470682,0.00090280454402761,-0.00090278846421421,0.0009028045656406,0.57820997324483,128566,2924,0.0038317873613739,0.0080393827481055,0.0038317873524166,33.653081768363,2.9224654146904e-05,2.9224654146904e-05,2.9224654146904e-05,4878322.3865884,0.015828283030795
14219200,0.96473532000779,0.016056362412409,0.0043539545998412,0.007348453223295,0.0043539545892727,-0.00092107486179769,0.000921073778052,-5.3332868775005e-10,-5.4634158744427e-10,7.5810479054845e-09,-8.9616577808593e-09,-0.0011116043728711,0.0011116088334737,-0.001111604429624,0.0011116088598188,-0.0011116097969787,0.0011116033549877,-0.0011116098014579,0.001111603370453,-0.00090334038645266,0.00090333376946938,-0.00090334035843204,0.00090333375924646,-6.407773462978e-09,1.0048700111521e-08,2.1194457654102e-08,-1.786815490678e-08,-0.0019411616278605,0.0019411649934487,-0.0021951671060787,0.0021951779311788,-0.0021951800816313,0.0021951649435854,-0.0021951616822657,0.0021951833552539,-0.0021951746466013,0.0021951703796914,-0.0016461845985762,0.0016462317413608,-0.0016462226071435,0.0016461930466663,-0.0016462206035544,0.0016461950167215,-0.0016462045019496,0.0016462114543658,1.5433978515198e-09,1.5450197391271e-09,-0.00092107278485078,0.00092107585066225,-1.7491343063947e-08,2.1269575946743e-08,-0.0011116116132309,0.0011116015976559,-0.0011115987608682,0.0011116144839871,-0.0011116116138258,0.0011116015782474,-0.0011115987405294,0.0011116144841513,-0.00090332899905191,0.00090334509911208,-0.00090332905899108,0.00090334512022414,0.55856306344113,128566,2924,0.0038344269147427,0.0080518703767272,0.0038344269056603,33.303066947313,2.6424535578506e-05,2.6424535578506e-05,2.6424535578506e-05,4872248.1341259,0.015846338381897
14419200,0.96662264414868,0.016080765457351,0.0043601328730631,0.0073604997217999,0.0043601328624879,-0.00092109675558108,0.00092109567557043,-5.310720090007e-10,-5.4429242980336e-10,7.5845869178517e-09,-8.9565281048027e-09,-0.0011119112964354,0.0011119157589853,-0.0011119113518184,0.0011119157826242,-0.0011119167217856,0.0011119102811209,-0.0011119167235478,0.0011119102945181,-0.00090323246376177,0.00090322584666678,-0.00090323241743898,0.00090322582358214,-6.3998012869343e-09,1.0053641090578e-08,2.1202874600676e-08,-1.786711728742e-08,-0.0019431593183423,0.0019431626870026,-0.0021980095444236,0.0021980203682762,-0.0021980225239372,0.0021980073821916,-0.0021980041211642,0.002198025790835,-0.0021980170888337,0.0021980128171087,-0.0016473952772873,0.0016474424405732,-0.0016474333790234,0.0016474038251381,-0.0016474312813362,0.001647405707077,-0.0016474151724615,0.0016474221230227,1.5385085376717e-09,1.539959887697e-09,-0.00092109468745506,0.00092109773700573,-1.7523147565694e-08,2.1248863936467e-08,-0.0011119185432119,0.0011119085200296,-0.0011119056881892,0.001111921409863,-0.0011119185447057,0.0011119085005102,-0.0011119056685368,0.0011119214102757,-0.00090322107414211,0.00090323718163466,-0.00090322113216209,0.0009032372037464,0.56383118743048,128566,2924,0.0038345279930744,0.0080601216766539,0.0038345279789507,32.647135110888,2.1177080887107e-05,2.1177080887107e-05,2.1177080887107e-05,4864842.9667729,0.015854930123884
14619200,0.96833151450957,0.016102976812305,0.0043657727214614,0.0073714313799166,0.0043657727109266,-0.00092074287269704,0.00092074179105391,-5.3231950519937e-10,-5.4552616031888e-10,7.583354278315e-09,-8.9601162423052e-09,-0.001111804423688,0.001111808885977,-0.0011118044795191,0.0011118089116685,-0.001111809847648,0.0011118034075311,-0.0011118098516542,0.001111803421729,-0.00090275027414224,0.00090274365814463,-0.0009027502360853,0.00090274363752341,-6.4084203984499e-09,1.0049723319851e-08,2.1225736270915e-08,-1.7900246437759e-08,-0.0019445146957716,0.001944518057826,-0.0022001047293854,0.0022001155678459,-0.0022001177260654,0.0022001025612338,-0.0022000993043367,0.0022001209927216,-0.0022001122904504,0.0022001079972179,-0.0016480629384875,0.0016481101435974,-0.0016481010405705,0.0016480714203965,-0.0016480989803731,0.0016480733729963,-0.0016480828758105,0.0016480898044045,1.5426244151679e-09,1.5445772448844e-09,-0.00092074079982605,0.0009207438593747,-1.7529812423822e-08,2.1289524273677e-08,-0.0011118116768356,0.0011118016362295,-0.0011117988047804,0.0011118145421082,-0.0011118116768961,0.0011118016176106,-0.001111798784881,0.001111814542192,-0.00090273887752141,0.00090275500350132,-0.000902738934274,0.00090275502332959,0.56645234128966,128566,2924,0.0038330671535067,0.0080657201891107,0.0038330671439295,31.822595964738,1.4580767717904e-05,1.4580767717904e-05,1.4580767717904e-05,4852373.9026353,0.015857653155272
14819200,0.96988156918129,0.016123250243556,0.0043709378264434,0.0073813746011977,0.0043709378159144,-0.00092030078543489,0.00092029970361126,-5.322025610973e-10,-5.4572820595575e-10,7.5844511399444e-09,-8.9624419672559e-09,-0.001111585537917,0.0011115900018334,-0.0011115855945139,0.0011115900277111,-0.0011115909631884,0.0011115845218706,-0.001111590967588,0.0011115845368747,-0.00090219019868911,0.00090218358231373,-0.00090219016710004,0.00090218356803723,-6.4125062296305e-09,1.0047695892964e-08,2.1236307596498e-08,-1.7915867173732e-08,-0.0019455866520392,0.001945590010706,-0.0022018286138,0.0022018394594315,-0.0022018416197499,0.0022018264428274,-0.0022018231882235,0.0022018448847441,-0.0022018361828913,0.0022018318801378,-0.0016485300270701,0.001648577254272,-0.0016485681350314,0.0016485384827242,-0.0016485660930636,0.0016485404669298,-0.0016485499862457,0.001648556905594,1.5425941641858e-09,1.5447033285754e-09,-0.00092029871105188,0.00092030177367611,-1.7539598241313e-08,2.1311125885831e-08,-0.0011115927963829,0.0011115827474603,-0.0011115799139602,0.0011115956635543,-0.0011115927967264,0.0011115827283938,-0.0011115798934696,0.0011115956638338,-0.00090217879685606,0.00090219492789341,-0.00090217885649388,0.00090219494797509,0.56961685792156,128566,2924,0.0038312391322179,0.0080701480140483,0.0038312391231622,30.994116384461,7.9529310756884e-06,7.9529310756884e-06,7.9529310756884e-06,4838788.8609984,0.015858440570505
15019200,0.97126868329315,0.016141325452117,0.0043755467577106,0.0073902319472275,0.0043755467471787,-0.00091928824697755,0.00091928716875449,-5.2987233335217e-10,-5.4332811861702e-10,7.593646818361e-09,-8.9628599403988e-09,-0.0011107467984021,0.0011107512668167,-0.0011107468531447,0.0011107512905427,-0.0011107522284066,0.0011107457844639,-0.0011107522302962,0.0011107457968529,-0.00090105134691342,0.00090104472831533,-0.0009010513030174,0.00090104470569872,-6.4101496775628e-09,1.0060615864385e-08,2.1295713883971e-08,-1.796374934373e-08,-0.0019458162676868,0.0019458196310883,-0.0022026279882784,0.002202638861618,-0.0022026410298325,0.0022026258135443,-0.0022026225582176,0.0022026442901981,-0.0022026355887746,0.0022026312536506,-0.0016482490752511,0.0016482964283427,-0.0016482873746506,0.001648257636134,-0.0016482852155939,0.0016482595591854,-0.0016482690894763,0.0016482759871598,1.5385937195548e-09,1.5407683868573e-09,-0.00091928617918158,0.00091928922920536,-1.7614841325806e-08,2.1337444310046e-08,-0.0011107540781231,0.0011107439957689,-0.0011107411625041,0.0011107569460923,-0.0011107540788259,0.0011107439770143,-0.0011107411432297,0.0011107569462204,-0.00090103992502494,0.00090105609324427,-0.00090103998274368,0.00090105611700715,0.56737760446217,128566,2924,0.0038270407317658,0.0080710968802331,0.0038270407162696,29.890857978883,-8.7313616893313e-07,-8.7313616893313e-07,-8.7313616893313e-07,4818888.3571487,0.01585087725208
15219200,0.97249159015194,0.016156576389261,0.0043794029768504,0.0073977704460481,0.0043794029663625,-0.00091763016950276,0.0009176290899533,-5.3097961648315e-10,-5.4439429466165e-10,7.5993578694677e-09,-8.9712187663071e-09,-0.0011091853052823,0.0011091897774451,-0.0011091853599407,0.0011091898024993,-0.0011091907387545,0.0011091842905982,-0.0011091907419398,0.0011091843031493,-0.00089923401114048,0.00089922738740108,-0.00089923396465306,0.00089922735769014,-6.420846188674e-09,1.0066015531253e-08,2.1378427040199e-08,-1.8051011459814e-08,-0.0019450880808391,0.0019450914415117,-0.0022024098611555,0.0022024207841145,-0.002202422957799,0.0022024076794124,-0.0022024044254061,0.0022024262187733,-0.0022024175122687,0.0022024131243781,-0.0016470875281395,0.0016471350496414,-0.0016471259786795,0.0016470960713523,-0.0016471237878269,0.0016470980565578,-0.0016471076498505,0.0016471145033776,1.544434962039e-09,1.5469101182845e-09,-0.00091762809639013,0.00091763115696759,-1.7685387447553e-08,2.1428193559964e-08,-0.0011091926102278,0.0011091824780272,-0.0011091796398903,0.001109195482621,-0.0011091926099641,0.0011091824601988,-0.0011091796206963,0.0011091954823864,-0.00089922255696304,0.00089923878928083,-0.00089922261250736,0.0008992388120977,0.54391181088336,128566,2924,0.0038201591370664,0.0080680909085157,0.0038201591241885,28.48484876466,-1.2121209882723e-05,-1.2121209882723e-05,-1.2121209882723e-05,4793858.4852779,0.015833844182439
15419200,0.97357203540712,0.016171912855797,0.0043834085182332,0.0074050958298127,0.0043834085077508,-0.00091599440512731,0.00091599332358134,-5.3192323116924e-10,-5.4575703612085e-10,7.6006981241801e-09,-8.9780691120338e-09,-0.0011074949072009,0.0011074993819343,-0.0011074949639675,0.0011074994080886,-0.0011075003433193,0.0011074938917492,-0.0011075003479003,0.0011074939063889,-0.00089744499452298,0.00089743836795918,-0.00089744495987495,0.00089743835002842,-6.4293640565178e-09,1.006297572194e-08,2.1417080425424e-08,-1.809868532641e-08,-0.0019440621482851,0.0019440655038293,-0.0022018633706079,0.0022018743210653,-0.0022018764954229,0.0022018611839694,-0.0022018579340337,0.0022018797571501,-0.0022018710478322,0.0022018666317853,-0.0016457148072855,0.0016457624012707,-0.0016457532810892,0.0016457232806774,-0.001645751130205,0.0016457253507982,-0.0016457349913525,0.0016457418183633,1.5487319437526e-09,1.5512244409091e-09,-0.00091599232507129,0.00091599539904981,-1.7714972892503e-08,2.1496683102205e-08,-0.0011075022257725,0.0011074920673811,-0.0011074892232324,0.0011075051035978,-0.0011075022257388,0.0011074920488021,-0.0011074892028902,0.0011075051038938,-0.00089743352110453,0.00089744978650031,-0.00089743358045726,0.00089744980654841,0.61487581016811,128566,2924,0.0038133658379586,0.0080638596676064,0.0038133658283256,27.071860849269,-2.3425113205844e-05,-2.3425113205844e-05,-2.3425113205844e-05,4774327.3948442,0.015815742516522
15619200,0.97454599828513,0.016186025378028,0.0043871146728342,0.0074117960428449,0.0043871146623488,-0.00091480359700321,0.00091480251233322,-5.3375433152266e-10,-5.4799634552703e-10,7.5937870796478e-09,-8.9797694147966e-09,-0.0011065599797315,0.0011065644534395,-0.0011065600394205,0.0011065644797209,-0.0011065654138377,0.0011065589624009,-0.0011065654201906,0.0011065589814476,-0.00089624706157143,0.00089624043453256,-0.00089624704076154,0.00089624043263774,-6.433575467568e-09,1.0047438955519e-08,2.136521221655e-08,-1.8062325466179e-08,-0.0019437797598439,0.0019437831067086,-0.0022017909445029,0.0022018018716797,-0.0022018040410144,0.0022017887577267,-0.0022017855137586,0.0022018073025457,-0.0022017985960817,0.0022017942038175,-0.0016452265666541,0.0016452740440282,-0.0016452648537704,0.0016452349219301,-0.0016452628275766,0.0016452370641724,-0.0016452467056771,0.0016452535476132,1.5517914514209e-09,1.5542818386593e-09,-0.00091480151074449,0.00091480459722727,-1.7660029468899e-08,2.149340282333e-08,-0.0011065672857052,0.0011065571474695,-0.0011065543032363,0.0011065701626686,-0.0011065672866832,0.0011065571270043,-0.0011065542800278,0.0011065701643151,-0.00089623559939848,0.00089625184234515,-0.00089623566537966,0.00089625185562105,0.62694797847761,128566,2924,0.0038084294777696,0.0080626874314445,0.0038084294750005,25.963231152357,-3.2294150781141e-05,-3.2294150781141e-05,-3.2294150781141e-05,4742159.0262861,0.015804527201412
15819200,0.97546213485897,0.016200244244008,0.0043909041716813,0.0074184359111308,0.0043909041611959,-0.00091479992662085,0.00091479884497031,-5.3193062065305e-10,-5.4592055031638e-10,7.5767925788568e-09,-8.9594488350175e-09,-0.0011069009990306,0.0011069054580848,-0.0011069010557179,0.0011069054904015,-0.0011069064180619,0.0011068999854545,-0.0011069064280077,0.0011068999993813,-0.00089631907906437,0.00089631248102068,-0.00089631908200623,0.00089631247993552,-6.4241188134623e-09,1.0034603010237e-08,2.1209271178442e-08,-1.7908672901159e-08,-0.001944875809613,0.0019448791541956,-0.00220302827292,0.0022030390990431,-0.0022030412643221,0.002203026091856,-0.0022030228452912,0.0022030445273182,-0.0022030358312982,0.0022030315263449,-0.0016461464081192,0.0016461935839111,-0.0016461843919261,0.0016461547385628,-0.0016461824603123,0.0016461568296383,-0.0016461663732638,0.0016461732793085,1.5397372421448e-09,1.5428649001421e-09,-0.00091479785095691,0.00091480091811195,-1.7477435561252e-08,2.1294055021746e-08,-0.0011069082462914,0.0011068982137389,-0.0011068953872546,0.0011069111056505,-0.0011069082426722,0.0011068981978471,-0.0011068953688424,0.0011069111035393,-0.00089630770969213,0.00089632378607501,-0.00089630776614562,0.0008963238123288,0.66919700766081,128566,2924,0.0038084254977811,0.0080672058767529,0.0038084254926366,25.547686007104,-3.5618511943165e-05,-3.5618511943165e-05,-3.5618511943165e-05,4721765.7814262,0.015809114390784
16019200,0.97632535059407,0.016213608936967,0.0043944643870052,0.0074246801734294,0.0043944643765326,-0.00091474221897934,0.00091474113996908,-5.3031195627861e-10,-5.4445514953884e-10,7.568207895521e-09,-8.9449143810939e-09,-0.0011073335674915,0.0011073380232763,-0.0011073336241392,0.0011073380505071,-0.0011073389819973,0.0011073325556633,-0.0011073389877824,0.0011073325701184,-0.00089639702279109,0.00089639042514159,-0.00089639700237967,0.00089639041612517,-6.4033267958206e-09,1.0024586120246e-08,2.1037994119838e-08,-1.7730085643054e-08,-0.0019460644235047,0.0019460677705582,-0.0022042446644399,0.0022042553831517,-0.0022042575439917,0.0022042424941398,-0.0022042392486701,0.0022042607984188,-0.002204252118206,0.0022042479202817,-0.0016472189260772,0.0016472657547612,-0.0016472566378853,0.0016472273371006,-0.0016472547214584,0.0016472292431097,-0.0016472386532848,0.0016472456539059,1.5293420479921e-09,1.5321922501084e-09,-0.00091474015748444,0.00091474319762548,-1.7351739969255e-08,2.1106965608055e-08,-0.0011073407698265,0.0011073308266644,-0.0011073280167691,0.0011073436131853,-0.0011073407690292,0.0011073308082585,-0.0011073279966963,0.0011073436128634,-0.00089638571031919,0.00089640167967011,-0.00089638577032912,0.00089640170191471,0.66742793584726,128566,2924,0.0038082018344293,0.0080721000926689,0.0038082018264079,25.147965746426,-3.8816274028593e-05,-3.8816274028593e-05,-3.8816274028593e-05,4693402.035402,0.015813639867071
16219200,0.97713932486916,0.016226155412696,0.0043978058347318,0.007430543753706,0.0043978058242585,-0.00091462084049359,0.00091461976321449,-5.2954733850113e-10,-5.4376310793754e-10,7.5584698619672e-09,-8.9321360466103e-09,-0.0011076605351243,0.0011076649855607,-0.0011076605914617,0.0011076650111503,-0.0011076659425903,0.0011076595244874,-0.0011076659475499,0.0011076595391267,-0.00089639905514542,0.0008963924636208,-0.00089639902555476,0.00089639244931439,-6.3915328929398e-09,1.0012440429994e-08,2.0885828314929e-08,-1.7578702040013e-08,-0.0019471222913974,0.0019471256369871,-0.0022053384219566,0.0022053490465468,-0.002205351203637,0.0022053362592761,-0.0022053330144028,0.0022053544532063,-0.0022053457850603,0.0022053416778127,-0.0016481614054256,0.0016482079257681,-0.0016481988371103,0.0016481698277338,-0.0016481969859106,0.0016481716296052,-0.0016481809370257,0.0016481880143469,1.5221240967456e-09,1.5250023641074e-09,-0.00091461878858817,0.00091462181132341,-1.7217738201799e-08,2.09462876185e-08,-0.0011076676927933,0.0011076578326834,-0.0011076550383343,0.0011076705207396,-0.0011076676926264,0.0011076578139413,-0.00110765501778,0.0011076705210304,-0.0008963877998678,0.00089640366325849,-0.00089638786059104,0.00089640368308221,0.66425606053801,128566,2924,0.0038077130571527,0.0080764545633373,0.0038077130491899,24.748805292459,-4.2009557660326e-05,-4.2009557660326e-05,-4.2009557660326e-05,4667547.2108844,0.015817077462735
16419200,0.97791022765046,0.016236839227295,0.0044005931910565,0.007435652855658,0.0044005931805806,-0.00091451202509579,0.00091451094782417,-5.2974433943325e-10,-5.4408656696768e-10,7.5492480750633e-09,-8.9245407791994e-09,-0.0011079674465805,0.0011079718927738,-0.0011079675047829,0.0011079719191438,-0.0011079728491415,0.0011079664372504,-0.0011079728541214,0.0011079664527942,-0.00089638437161959,0.00089637778443299,-0.00089638434215283,0.00089637777296963,-6.3856381874308e-09,9.9980979377357e-09,2.074665846959e-08,-1.7446280329288e-08,-0.0019481292307014,0.0019481325717574,-0.0022064015109149,0.0022064120526078,-0.0022064142057668,0.0022063993536105,-0.0022063961106609,0.0022064174524528,-0.0022064087936236,0.002206404766274,-0.0016490214706344,0.001649067704498,-0.001649058603949,0.0016490298453382,-0.0016490568615035,0.0016490316032993,-0.001649040834296,0.0016490479769562,1.5184498251354e-09,1.5215496440112e-09,-0.00091450997703143,0.00091451299341692,-1.709150680164e-08,2.0824816408031e-08,-0.0011079745650184,0.0011079647777599,-0.0011079619939934,0.0011079773819594,-0.0011079745651366,0.0011079647585998,-0.0011079619727585,0.0011079773832337,-0.00089637316406819,0.00089638893874747,-0.000896373226189,0.00089638895300217,0.59981699055136,128566,2924,0.0038072755632479,0.0080805990972123,0.0038072755580923,24.411408876157,-4.4708728990741e-05,-4.4708728990741e-05,-4.4708728990741e-05,4645913.4140224,0.015820405771595
16619200,0.97864440800901,0.016248845600726,0.0044038317564808,0.0074411820982378,0.0044038317460074,-0.00091465106284658,0.00091464998709862,-5.2871769485536e-10,-5.431289608968e-10,7.5439607685299e-09,-8.9165493284504e-09,-0.0011082477378133,0.0011082521800111,-0.0011082477938229,0.0011082522054691,-0.0011082531350852,0.0011082467286976,-0.0011082531406002,0.0011082467435684,-0.00089656544276697,0.00089655886445602,-0.00089656541956625,0.00089655885453918,-6.3803404860366e-09,9.9935714252528e-09,2.0655859896482e-08,-1.7355039599689e-08,-0.0019490470586438,0.0019490503992884,-0.0022075149336844,0.0022075254157707,-0.0022075275681869,0.0022075127791155,-0.0022075095356307,0.0022075308126762,-0.0022075221595693,0.0022075181875607,-0.0016497576307689,0.0016498036894566,-0.0016497946035663,0.0016497660207767,-0.0016497929008632,0.0016497677163405,-0.0016497768822146,0.0016497840745984,1.5111679723852e-09,1.5143318743983e-09,-0.00091464902211485,0.00091465202429393,-1.7000138878427e-08,2.0712243313787e-08,-0.0011082548265118,0.0011082450949947,-0.0011082423219005,0.0011082576329722,-0.00110825482616,0.001108245076388,-0.0011082423011804,0.0011082576333083,-0.00089655428047541,0.00089656996783448,-0.00089655434217354,0.00089656998786219,0.70235633191497,128566,2924,0.0038078594339435,0.0080843854701391,0.0038078594265629,24.157664990548,-4.6738680075617e-05,-4.6738680075617e-05,-4.6738680075617e-05,4641237.1377571,0.015825438901384
16819200,0.97934400734106,0.016260341677139,0.0044069326719315,0.0074464763437475,0.0044069326614602,-0.00091473800504736,0.0009147369300914,-5.2825554095363e-10,-5.4274796535547e-10,7.5432266629048e-09,-8.9141738974887e-09,-0.0011088229147083,0.0011088273563158,-0.0011088229703005,0.0011088273813521,-0.0011088283112851,0.0011088219061772,-0.0011088283163345,0.001108821920393,-0.00089683725551053,0.00089683067863039,-0.00089683722932356,0.00089683066578863,-6.3782661219953e-09,9.9927666384856e-09,2.0606863483113e-08,-1.73052452814e-08,-0.0019502846884389,0.0019502880288737,-0.0022086725419718,0.0022086829906993,-0.002208685144327,0.0022086703880246,-0.0022086671447305,0.0022086883865366,-0.0022086797365637,0.0022086757953148,-0.0016509537219423,0.0016509996842433,-0.0016509906124849,0.0016509621273075,-0.0016509889248869,0.0016509637778569,-0.0016509729080154,0.0016509801298282,1.5083926102478e-09,1.5116035595861e-09,-0.00091473596794917,0.00091473896338404,-1.6956463291333e-08,2.065508109545e-08,-0.001108829988962,0.0011088202863614,-0.0011088175177605,0.0011088327909931,-0.0011088299886144,0.0011088202678615,-0.0011088174972746,0.0011088327912895,-0.00089682611250502,0.00089684176326884,-0.0008968261735645,0.00089684178359161,0.70571572990621,128566,2924,0.0038082372969363,0.0080894789581172,0.0038082372889723,23.905835569429,-4.8753315444564e-05,-4.8753315444564e-05,-4.8753315444564e-05,4615437.6326223,0.015831388750566
17019200,0.98001095174056,0.01627109129951,0.0044098236145108,0.0074514440809593,0.0044098236040398,-0.00091474968241746,0.0009147486075183,-5.2821271803206e-10,-5.4279743487902e-10,7.5447542637376e-09,-8.9156151086078e-09,-0.001109322506396,0.0011093269492649,-0.001109322562009,0.001109326974034,-0.0011093279042528,0.0011093214979316,-0.0011093279092202,0.001109321512228,-0.00089703091159206,0.00089702433335681,-0.00089703088399362,0.00089702431965951,-6.3799216734781e-09,9.9936999517382e-09,2.0592045859957e-08,-1.7291088225241e-08,-0.001951431519006,0.0019514348586989,-0.0022097433053392,0.0022097537429315,-0.0022097558985399,0.0022097411501167,-0.0022097379073632,0.0022097591394169,-0.0022097504897403,0.0022097465583167,-0.0016520523220551,0.0016520982556936,-0.0016520891852089,0.0016520607291533,-0.0016520875076658,0.0016520623668982,-0.0016520714878813,0.0016520787213588,1.5079847851716e-09,1.5112860784554e-09,-0.00091474764597049,0.00091475064023809,-1.6944425139384e-08,2.064124268178e-08,-0.0011093295774264,0.0011093198824848,-0.0011093171148719,0.00110933237845,-0.0011093295771228,0.0011093198639236,-0.0011093170942163,0.00110933237888,-0.00089701977214706,0.00089703541468088,-0.00089701983355092,0.00089703543441083,0.69245977206659,128566,2924,0.0038083036115878,0.0080941957008252,0.0038083036037853,23.654073832839,-5.076740933729e-05,-5.076740933729e-05,-5.076740933729e-05,4590308.4298284,0.015836322545838
17219200,0.980631708628,0.016280834186937,0.0044124330515868,0.0074559680942342,0.0044124330411158,-0.00091400756979623,0.0009140064999318,-5.2483183115223e-10,-5.3938093088075e-10,7.5596911500418e-09,-8.9179709484032e-09,-0.0011089414904702,0.0011089459399306,-0.0011089415445012,0.0011089459641407,-0.0011089468967261,0.0011089404860624,-0.0011089468978278,0.0011089404949127,-0.00089640713682153,0.00089640055328269,-0.00089640708894417,0.00089640052522804,-6.3766309178908e-09,1.0016785743542e-08,2.0697292326633e-08,-1.7375794685047e-08,-0.0019515701738546,0.0019515735237098,-0.0022098501279522,0.0022098606178723,-0.0022098627849606,0.0022098479687488,-0.0022098447218091,0.0022098660221267,-0.0022098573697838,0.0022098533820229,-0.0016521415898901,0.0016521877451182,-0.0016521787697308,0.00165215015805,-0.0016521769100947,0.0016521517143406,-0.0016521608590368,0.001652168055831,1.5039442333853e-09,1.5070401539058e-09,-0.00091400554119926,0.00091400851960577,-1.7061701211563e-08,2.0689245187682e-08,-0.0011089485941195,0.00110893884737,-0.0011089360777383,0.0011089513984327,-0.0011089485936866,0.0011089388301552,-0.001108936060211,0.0011089513982895,-0.00089639596192798,0.00089641166642247,-0.00089639601852423,0.00089641169127056,0.67475988442346,128566,2924,0.0038052362744221,0.008094751581672,0.0038052362555911,22.993837424046,-5.6049300607629e-05,-5.6049300607629e-05,-5.6049300607629e-05,4561909.905676,0.015830660638595
17419200,0.98119822295517,0.016289355050554,0.0044146999854021,0.0074599550902166,0.0044146999749351,-0.00091264246244608,0.00091264139187077,-5.2541512672449e-10,-5.3986612899222e-10,7.5732649051174e-09,-8.9318286452365e-09,-0.0011077887085968,0.0011077931663587,-0.0011077887627047,0.0011077931903155,-0.0011077941239923,0.001107787703114,-0.0011077941246351,0.0011077877118893,-0.00089509092074655,0.00089508432576584,-0.0008950908672614,0.00089508429392737,-6.3898732961099e-09,1.0030577547388e-08,2.0856106475969e-08,-1.7534227616206e-08,-0.0019507902681476,0.0019507936181641,-0.00220908442934,0.0022090950153191,-0.0022090971909832,0.0022090822615725,-0.0022090790145196,0.0022091004282805,-0.0022090917665218,0.00220908768367,-0.0016513097323757,0.0016513562067268,-0.0016513472242324,0.0016513183111017,-0.0016513452772267,0.0016513199493287,-0.0016513291974495,0.001651336316622,1.5117653984596e-09,1.5149876201461e-09,-0.00091264042665377,0.00091264341906279,-1.7214625965876e-08,2.0857413796059e-08,-0.0011077958626736,0.0011077860225665,-0.0011077832395443,0.0011077986800899,-0.0011077958623707,0.0011077860053469,-0.0011077832217414,0.0011077986802723,-0.00089507967864415,0.00089509550766837,-0.0008950797353778,0.00089509553088937,0.64747799366821,128566,2924,0.0037995770692817,0.0080915184116678,0.0037995770511109,21.990307931194,-6.4077536550451e-05,-6.4077536550451e-05,-6.4077536550451e-05,4532536.735381,0.015815881423643
17619200,0.98171566276548,0.016296845837122,0.0044166819440968,0.007463481959388,0.0044166819336374,-0.00091125290058916,0.00091125182525566,-5.2836325846073e-10,-5.4294704944126e-10,7.5802697473853e-09,-8.9490177039167e-09,-0.0011064718204146,0.0011064762843291,-0.0011064718761162,0.0011064763091768,-0.0011064772420021,0.0011064708108332,-0.0011064772458793,0.001106470823796,-0.00089369565703401,0.00089368905305447,-0.00089369561989203,0.00089368903260583,-6.4106810102721e-09,1.0032177493452e-08,2.0999458686305e-08,-1.7692568613526e-08,-0.0019497592845949,0.0019497626273997,-0.0022081316079304,0.0022081422892832,-0.0022081444667923,0.0022081294299417,-0.0022081261868594,0.002208147708853,-0.0022081390348491,0.0022081348605182,-0.001650202122535,0.0016502488801556,-0.001650239813181,0.0016502105923732,-0.0016502378819348,0.0016502124113459,-0.0016502217878058,0.0016502288232302,1.5244659688262e-09,1.5278982447753e-09,-0.0009112508482471,0.00091125387246656,-1.7335983605189e-08,2.1053178434796e-08,-0.0011064790192952,0.0011064690911073,-0.0011064662898965,0.0011064818539833,-0.0011064790190202,0.0011064690729894,-0.0011064662698307,0.0011064818545083,-0.00089368435227706,0.00089370029926576,-0.00089368441263648,0.00089370031927408,0.6239023498138,128566,2924,0.0037938114083018,0.0080872539306935,0.0037938113975071,20.978887037079,-7.2168903703365e-05,-7.2168903703365e-05,-7.2168903703365e-05,4510291.1515075,0.015799836054747
17819200,0.98218948923264,0.016303472529773,0.0044184265696178,0.0074666194009978,0.0044184265591572,-0.0009098932992582,0.0009098922210774,-5.300080577886e-10,-5.4457615506544e-10,7.5856563233824e-09,-8.9599685620814e-09,-0.0011050783345926,0.0011050828022407,-0.0011050783905682,0.001105082828052,-0.0011050837608168,0.0011050773231196,-0.0011050837660022,0.0011050773369498,-0.00089228280583142,0.00089227619532785,-0.00089228277427582,0.00089227617720877,-6.421914221517e-09,1.003832518688e-08,2.1133211395192e-08,-1.7830127714484e-08,-0.0019485809978084,0.0019485843388777,-0.0022070833772808,0.0022070941426212,-0.0022070963229017,0.0022070811907058,-0.002207077950549,0.0022070995682406,-0.0022070908858633,0.0022070866271185,-0.0016489266711024,0.0016489736966367,-0.0016489645922084,0.0016489351086509,-0.0016489626158393,0.0016489370366595,-0.0016489465114146,0.0016489534747076,1.5328089524298e-09,1.536413959906e-09,-0.0009098912365461,0.00090989427982215,-1.7450579289928e-08,2.120336980805e-08,-0.0011050855724477,0.0011050755683749,-0.0011050727541965,0.0011050884197596,-0.0011050855715898,0.0011050755502894,-0.0011050727337217,0.0011050884198952,-0.00089227144859396,0.00089228749645489,-0.00089227150894391,0.00089228751600919,0.60341629811752,128566,2924,0.0037881660770613,0.0080823860277944,0.0037881660687384,19.989208728817,-8.0086330169466e-05,-8.0086330169466e-05,-8.0086330169466e-05,4494367.6313261,0.015783420652433
18019200,0.98262435660091,0.016309548391043,0.0044200290269345,0.0074694903476395,0.0044200290164686,-0.00090856547292506,0.00090856439476458,-5.2979037182663e-10,-5.4456740092771e-10,7.5907080095385e-09,-8.9651094789123e-09,-0.0011036349123236,0.0011036393837271,-0.001103634969238,0.0011036394095212,-0.0011036403426683,0.0011036339012072,-0.0011036403473328,0.0011036339152469,-0.00089086711440731,0.0008908604999177,-0.00089086708164832,0.00089086048300234,-6.4256290273263e-09,1.0042866191802e-08,2.123531054931e-08,-1.7931726217838e-08,-0.001947287751725,0.0019472910929558,-0.002205958557988,0.0022059693882982,-0.0022059715709086,0.0022059563680058,-0.0022059531289024,0.0022059748164084,-0.0022059661307143,0.0022059618077294,-0.0016475262864465,0.0016475735145355,-0.0016475644095475,0.0016475347277804,-0.0016475623697636,0.0016475367126683,-0.0016475462557354,0.0016475531589261,1.5373375670985e-09,1.5408105935031e-09,-0.00090856340556846,0.00090856645783082,-1.7552712752968e-08,2.1314663400486e-08,-0.001103642182816,0.0011036321178863,-0.0011036292943703,0.0011036450394729,-0.0011036421824852,0.0011036320994351,-0.0011036292736947,0.0011036450401221,-0.00089085571467406,0.00089087184288006,-0.00089085577592942,0.00089087186144738,0.60265704838532,128566,2924,0.0037826496217706,0.0080770471560256,0.0037826496127697,19.017838528224,-8.7857291774209e-05,-8.7857291774209e-05,-8.7857291774209e-05,4483250.5809272,0.015766787476417
18219200,0.98302388814275,0.016315235848954,0.004421537153027,0.0074721615533689,0.0044215371425576,-0.0009072316098739,0.00090723053231596,-5.2945633785283e-10,-5.441850572338e-10,7.5912399141991e-09,-8.964406891317e-09,-0.0011021828433148,0.0011021873148221,-0.0011021829000736,0.001102187340771,-0.0011021882736996,0.0011021818326731,-0.0011021882782315,0.0011021818462949,-0.00088944548857186,0.00088943887468431,-0.0008894454548492,0.00088943885664073,-6.4252251169008e-09,1.0043757187348e-08,2.1300155031414e-08,-1.7995640255719e-08,-0.0019459335626792,0.0019459369042066,-0.0022047589293396,0.002204769801218,-0.0022047719842576,0.0022047567386123,-0.0022047534998691,0.0022047752296383,-0.0022047665439744,0.0022047621782587,-0.0016460828273388,0.0016461301840042,-0.0016461210849045,0.0016460912779711,-0.0016461189950143,0.0016460932966361,-0.0016461028796762,0.0016461097407878,1.539345857537e-09,1.5429158667055e-09,-0.00090722954078534,0.00090723259672882,-1.7614311581813e-08,2.1377464399417e-08,-0.0011021901325439,0.0011021800307373,-0.001102177202646,0.00110219299383,-0.0011021901320706,0.0011021800125229,-0.0011021771822261,0.0011021929943696,-0.00088943406590172,0.0008894502400524,-0.00088943412691135,0.00088945025941003,0.61338752699317,128566,2924,0.0037771077556365,0.0080714569904423,0.0037771077458186,18.046888208794,-9.5624894329651e-05,-9.5624894329651e-05,-9.5624894329651e-05,4471840.6042741,0.015749847812604
18419200,0.98340062151374,0.016320636210605,0.0044229731999843,0.0074746898211077,0.0044229731895126,-0.00090657223570146,0.00090657115685697,-5.3015241534733e-10,-5.4517516183737e-10,7.5807274369565e-09,-8.9588809817768e-09,-0.0011014913369086,0.00110149580356,-0.001101491395528,0.0011014958304121,-0.0011014967614417,0.0011014903257344,-0.0011014967673539,0.001101490341521,-0.0008887446794249,0.00088873807191919,-0.00088874466032895,0.00088873806866613,-6.4225713123256e-09,1.0027431741196e-08,2.1250279326965e-08,-1.795607206103e-08,-0.0019453912716298,0.0019453946073627,-0.0022043285300348,0.0022043393794615,-0.0022043415557509,0.0022043263425775,-0.0022043231078479,0.0022043448010479,-0.0022043361214718,0.0022043317766672,-0.001645458736716,0.0016455059816215,-0.0016454968314208,0.0016454670980944,-0.0016454948360332,0.0016454691715316,-0.0016454787455641,0.0016454856160434,1.5403382449611e-09,1.5437400154557e-09,-0.00090657016322547,0.00090657322630489,-1.7561043210743e-08,2.1360914660349e-08,-0.0011014986115299,0.0011014885314258,-0.0011014857051143,0.0011015014701115,-0.0011014986112248,0.0011014885123736,-0.0011014856833833,0.0011015014711935,-0.00088873327365008,0.00088874941727459,-0.00088873333895417,0.00088874943333414,0.61738404617168,128566,2924,0.0037743692014151,0.0080692180201712,0.0037743691951438,17.474774037073,-0.00010020180770342,-0.00010020180770342,-0.00010020180770342,4465310.9249868,0.015742009011253
18619200,0.9837634877731,0.016325789084806,0.0044243422002837,0.0074771046947134,0.0044243421898085,-0.00090646673251691,0.00090646565628121,-5.2885449053481e-10,-5.4360184349411e-10,7.5681413932585e-09,-8.9420229907769e-09,-0.0011014111470705,0.0011014156056832,-0.0011014112044963,0.0011014156320803,-0.0011014165619639,0.0011014101379687,-0.001101416567407,0.0011014101529889,-0.00088862643524996,0.00088861983949731,-0.00088862641191433,0.00088861983143555,-6.4072180746506e-09,1.001525235021e-08,2.1138361002875e-08,-1.7841913091802e-08,-0.0019455095779552,0.001945512914087,-0.002204542566387,0.002204553348008,-0.0022045555182825,0.0022045403887128,-0.0022045371526395,0.0022045587606629,-0.0022045500931199,0.0022045458132926,-0.0016454885974377,0.0016455356189729,-0.0016455265045027,0.0016454969826521,-0.001645524534205,0.0016454989747816,-0.001645508467666,0.0016455153830348,1.5325542668702e-09,1.5360664358861e-09,-0.0009064646695148,0.00090646771535171,-1.7457662484042e-08,2.1226634237274e-08,-0.0011014183850217,0.0011014083709675,-0.0011014055573393,0.0011014212313852,-0.0011014183846769,0.0011014083524233,-0.0011014055362341,0.0011014212322012,-0.00088861508091683,0.00088863113170146,-0.00088861514486326,0.00088863115037987,0.61178641606368,128566,2924,0.0037739321909739,0.0080697063419296,0.0037739321827811,17.230342748253,-0.00010215725801398,-0.00010215725801398,-0.00010215725801398,4463994.1830446,0.015741617207919
18819200,0.98411326814212,0.016331074650405,0.0044257637098772,0.0074795472411266,0.0044257636994012,-0.00090638525811213,0.00090638418285484,-5.2852555591074e-10,-5.4311574012663e-10,7.5558019087286e-09,-8.9282455876965e-09,-0.0011013379496593,0.0011013424006196,-0.0011013380061934,0.0011013424265434,-0.0011013433559852,0.0011013369418132,-0.0011013433609994,0.0011013369560663,-0.0008885303976299,0.00088852381006697,-0.00088853036496324,0.00088852379266906,-6.3929553514259e-09,1.0004347426877e-08,2.1023137996742e-08,-1.772452328898e-08,-0.0019456198039502,0.0019456231403383,-0.002204755712833,0.0022047664236536,-0.0022047685887462,0.0022047535432292,-0.0022047503070079,0.0022047718282458,-0.0022047631720497,0.0022047589591376,-0.0016455142523081,0.0016455610402349,-0.0016455519545912,0.0016455226564237,-0.0016455500138996,0.0016455245614662,-0.0016455339735893,0.0016455409412189,1.5269384392498e-09,1.5303815935895e-09,-0.00090638320290419,0.00090638623424027,-1.7351051167032e-08,2.1094171951095e-08,-0.0011013451504669,0.0011013352033367,-0.0011013324019887,0.0011013479847483,-0.0011013451499236,0.0011013351849992,-0.0011013323813112,0.0011013479852088,-0.00088851909269973,0.0008885350588012,-0.0008885191535942,0.00088853507722442,0.64922938419763,128566,2924,0.0037735943609887,0.0080701621023292,0.0037735943529738,16.993425385246,-0.00010405259691803,-0.00010405259691803,-0.00010405259691803,4463726.0412222,0.015741393400448
19019200,0.98445053703779,0.01633648180691,0.0044272328459725,0.0074820161254432,0.0044272328354947,-0.00090628952986219,0.00090628845685978,-5.2735683456842e-10,-5.4189807870736e-10,7.5477829325135e-09,-8.9162906679111e-09,-0.0011013852159168,0.0011013896618066,-0.0011013852719982,0.0011013896870539,-0.0011013906157918,0.0011013842094666,-0.0011013906202804,0.0011013842234076,-0.00088848006395775,0.0008884734847726,-0.00088848003062387,0.00088847346778756,-6.3831893932398e-09,9.9939121192566e-09,2.0913845924598e-08,-1.7616059101016e-08,-0.0019458675421086,0.0019458708774488,-0.0022049996638023,0.002205010308023,-0.0022050124691666,0.0022049975009646,-0.0022049942644645,0.002205015705563,-0.0022050070587288,0.0022050029100106,-0.0016457370424577,0.0016457836090832,-0.0016457745444511,0.0016457454525388,-0.0016457726520928,0.0016457472901826,-0.0016457566275717,0.0016457636457787,1.5205073448385e-09,1.5238709896687e-09,-0.00090628748230596,0.0009062905000229,-1.7253909385353e-08,2.0976658246678e-08,-0.0011013923840188,0.0011013824973714,-0.0011013797070693,0.0011013952072916,-0.0011013923837342,0.0011013824790267,-0.0011013796864712,0.0011013952079056,-0.00088846880394379,0.00088848468659665,-0.00088846886539379,0.00088848470553859,0.68719102525175,128566,2924,0.0037732016251491,0.0080711803854096,0.0037732016159333,16.756772995765,-0.00010594581603388,-0.00010594581603388,-0.00010594581603388,4454971.3540636,0.01574163211835
19219200,0.98478630695333,0.016342025251056,0.0044287461236314,0.0074845330142722,0.0044287461131522,-0.00090703742901072,0.00090703635613904,-5.2733090275584e-10,-5.4195484387063e-10,7.53527955336e-09,-8.9056457925753e-09,-0.0011024525475168,0.0011024569857679,-0.0011024526033572,0.0011024570123226,-0.0011024579383799,0.0011024515413989,-0.0011024579447031,0.0011024515557845,-0.00088936492553751,0.00088935835897373,-0.00088936490605246,0.00088935834938101,-6.3773275640793e-09,9.9784637756047e-09,2.0752785758052e-08,-1.746208494835e-08,-0.0019472706729535,0.0019472740041303,-0.0022063025518648,0.0022063130982857,-0.0022063152534521,0.0022063003953563,-0.0022062971590841,0.0022063184893737,-0.0022063098507941,0.0022063057968879,-0.0016471403437241,0.0016471865877775,-0.0016471774987215,0.0016471486969052,-0.0016471757408587,0.0016471504961684,-0.0016471597425647,0.0016471668371899,1.513708707591e-09,1.5170260709702e-09,-0.00090703538688919,0.00090703839461889,-1.7084337745062e-08,2.0812602286213e-08,-0.0011024596628796,0.0011024498722278,-0.0011024470959464,0.0011024624717635,-0.0011024596618267,0.001102449854488,-0.0011024470756004,0.0011024624717925,-0.0008893537364651,0.00088936948397547,-0.00088935379795537,0.00088936950502401,0.70677989383175,128566,2924,0.0037763177355964,0.0080769646036248,0.0037763177280282,17.022736550314,-0.00010381810759749,-0.00010381810759749,-0.00010381810759749,4448572.9304138,0.015753843369361
19419200,0.9851257467647,0.016347513283395,0.0044302383371923,0.0074870366194877,0.0044302383267149,-0.00090818598200812,0.00090818490773461,-5.2846137095978e-10,-5.4288114018229e-10,7.524583863163e-09,-8.8988594743927e-09,-0.0011040054789987,0.0011040099122247,-0.0011040055358082,0.0011040099383509,-0.0011040108641727,0.001104004472162,-0.0011040108707644,0.0011040044886063,-0.00089069493448558,0.00089068837060415,-0.00089069491423699,0.00089068836328569,-6.3714452273101e-09,9.9643668051398e-09,2.0576131266432e-08,-1.7292074712046e-08,-0.0019492432149562,0.0019492465422547,-0.0022081462560347,0.0022081566949547,-0.0022081588446761,0.002208144105136,-0.0022081408710441,0.0022081620785438,-0.002208153448099,0.0022081495010827,-0.001649108532115,0.0016491544181516,-0.0016491453105511,0.0016491168378395,-0.0016491436869289,0.0016491185673116,-0.0016491277112864,0.0016491349016316,1.5097490185862e-09,1.5132153598127e-09,-0.00090818394364137,0.00090818694448181,-1.692432190323e-08,2.0658491633155e-08,-0.0011040125444641,0.0011040028463887,-0.0011040000822201,0.0011040153409075,-0.0011040125439833,0.0011040028276759,-0.0011040000603524,0.0011040153417404,-0.00089068380523892,0.00089069944097302,-0.0008906838696066,0.00089069945754805,0.69264759507032,128566,2924,0.0037811005122925,0.0080850972525987,0.0037811005089793,17.539630935154,-9.9682952518766e-05,-9.9682952518766e-05,-9.9682952518766e-05,4444423.1645942,0.015771827698709
19619200,0.98546872113194,0.01635292355899,0.0044317026351553,0.0074895182991563,0.0044317026246789,-0.00090932201823896,0.00090932094667818,-5.2676004364188e-10,-5.4113006124473e-10,7.5230341609318e-09,-8.8909874616714e-09,-0.0011054981449605,0.0011055025760681,-0.0011054982000493,0.0011055026009321,-0.001105503527702,0.0011054971399255,-0.0011055035327011,0.0011054971541732,-0.00089199741827146,0.0008919908585062,-0.00089199738893821,0.00089199084389329,-6.3619282913401e-09,9.9654657750376e-09,2.046255228278e-08,-1.7170658119357e-08,-0.0019511596289466,0.0019511629597365,-0.0022099917400608,0.002210002101691,-0.0022100042525161,0.002209989593022,-0.0022099863567942,0.002210007482752,-0.0022099988585873,0.002209994985505,-0.0016509841280697,0.0016510297925441,-0.0016510207401916,0.0016509925050143,-0.0016510191224904,0.0016509941008093,-0.0016510031498519,0.0016510104112647,1.5007475377443e-09,1.5039020643403e-09,-0.00090931999121464,0.00090932296979392,-1.6824819830391e-08,2.0508524573615e-08,-0.0011055051754918,0.0011054955471705,-0.001105492796396,0.0011055079591897,-0.0011055051750411,0.00110549552891,-0.001105492775795,0.0011055079595772,-0.00089198633762036,0.00089200187959505,-0.00089198639912225,0.00089200189911759,0.67638955307223,128566,2924,0.003785830715941,0.0080929987090553,0.003785830707768,18.062335319398,-9.5501317444819e-05,-9.5501317444819e-05,-9.5501317444819e-05,4443837.0336354,0.015789469440319
19819200,0.98581495649098,0.016358229686367,0.0044331309878568,0.0074919677211315,0.0044331309773785,-0.00091044909461692,0.00091044802360191,-5.2657553828391e-10,-5.4081889641134e-10,7.5228972051451e-09,-8.8894471711085e-09,-0.0011069200505912,0.0011069244815129,-0.0011069201054417,0.0011069245058284,-0.0011069254330569,0.0011069190457278,-0.0011069254374559,0.0011069190598041,-0.00089326617847526,0.00089325961837106,-0.00089326614498414,0.00089325960130246,-6.360483414833e-09,9.9648281590458e-09,2.0378096952009e-08,-1.708582288778e-08,-0.0019530042206982,0.0019530075514054,-0.0022118214440097,0.0022118317500153,-0.0022118339020011,0.0022118192984378,-0.0022118160615211,0.0022118371301961,-0.0022118285084432,0.0022118246902908,-0.0016527530209668,0.0016527985185178,-0.0016527894788273,0.0016527614101707,-0.0016527879033726,0.0016527629400235,-0.0016527719305533,0.0016527792460321,1.4969239166416e-09,1.5000076795368e-09,-0.00091044707241858,0.00091045004178196,-1.6750003308014e-08,2.0418487102453e-08,-0.0011069270572903,0.0011069174766581,-0.0011069147331666,0.0011069298337013,-0.001106927057081,0.0011069174582463,-0.0011069147125074,0.0011069298342621,-0.00089325512781783,0.00089327061017493,-0.00089325518924938,0.00089327062908649,0.65786896299867,128566,2924,0.003790522240536,0.0081006052910268,0.0037905222321226,18.58524493174,-9.131804054608e-05,-9.131804054608e-05,-9.131804054608e-05,4446800.9411935,0.015806731979213
20019200,0.98615484869331,0.016363625612644,0.0044345923044184,0.0074944410142873,0.0044345922939388,-0.00091083797854546,0.00091083690933652,-5.255074201311e-10,-5.3955443895692e-10,7.5348447920498e-09,-8.8952571489412e-09,-0.0011074802115112,0.0011074846483829,-0.0011074802646663,0.0011074846710916,-0.0011074856008849,0.0011074792074246,-0.0011074856031734,0.0011074792191507,-0.00089373694583501,0.00089373037804944,-0.00089373689542229,0.00089373034707054,-6.3621399435801e-09,9.9820375128412e-09,2.0433294620405e-08,-1.712929343002e-08,-0.0019538862076195,0.0019538895441111,-0.0022127411557946,0.0022127514861214,-0.0022127536467522,0.0022127390057284,-0.0022127357662712,0.0022127568727007,-0.0022127482466831,0.002212744403176,-0.0016535555259936,0.0016536011426005,-0.0016535921614131,0.0016535640171207,-0.00165359048052,0.0016535654822756,-0.0016535744818062,0.001653581787839,1.4954882247547e-09,1.4983934444562e-09,-0.00091083596074991,0.00091083892101657,-1.681445920146e-08,2.0440134744685e-08,-0.0011074872362341,0.0011074776284368,-0.0011074748837369,0.0011074900145895,-0.0011074872362366,0.0011074776103557,-0.0011074748642723,0.001107490014786,-0.00089372587428754,0.00089374139472838,-0.00089372593170635,0.00089374141570151,0.68048385420446,128566,2924,0.0037921446063537,0.0081042399707102,0.0037921445934393,18.671770397118,-9.0625836823055e-05,-9.0625836823055e-05,-9.0625836823055e-05,4445335.7799093,0.015813722171742
20219200,0.9864859916569,0.016369032267335,0.0044360633812103,0.0074969055154011,0.0044360633707239,-0.00091101582450005,0.00091101475173817,-5.2756028454066e-10,-5.417324612089e-10,7.5438543854177e-09,-8.9117882081934e-09,-0.0011078728153093,0.0011078772587808,-0.0011078728703375,0.0011078772831838,-0.0011078782125158,0.0011078718088528,-0.0011078782165563,0.001107871822626,-0.00089401246334393,0.00089400588578133,-0.00089401242416215,0.00089400586381373,-6.3802119950208e-09,9.9883058916407e-09,2.0533851093062e-08,-1.723869893164e-08,-0.0019545826980178,0.0019545860304199,-0.0022134182697264,0.0022134286640562,-0.0022134308293421,0.0022134161106593,-0.0022134128730866,0.002213434058725,-0.0022134254215392,0.0022134215168091,-0.0016542122957069,0.0016542581135288,-0.0016542490682889,0.0016542207140719,-0.0016542474052092,0.0016542223005071,-0.0016542313888229,0.0016542386463513,1.5046962221901e-09,1.5077263826957e-09,-0.00091101379442648,0.00091101677777411,-1.6899770569521e-08,2.0578614877691e-08,-0.0011078798727154,0.0011078702041049,-0.0011078674456084,0.0011078826641807,-0.0011078798725734,0.0011078701856713,-0.0011078674251022,0.0011078826647163,-0.00089400134437602,0.00089401694873705,-0.00089400140465901,0.00089401696707783,0.69908661266891,128566,2924,0.0037928917966917,0.0081071066885741,0.0037928917882021,18.638347568004,-9.0893219455968e-05,-9.0893219455968e-05,-9.0893219455968e-05,4437410.5212816,0.015818155299384
20419200,0.98680856601375,0.016374306509364,0.0044374988134758,0.007499308892901,0.0044374988029869,-0.00091116768643849,0.00091116661275598,-5.278809900834e-10,-5.4210332951274e-10,7.5552618921651e-09,-8.9243649041017e-09,-0.0011082901939703,0.0011082946443,-0.001108290249196,0.0011082946691429,-0.0011082955990485,0.0011082891865101,-0.0011082956035156,0.0011082892004832,-0.00089428264634014,0.00089427606130242,-0.00089428261301541,0.00089427604427448,-6.3925753906216e-09,1.000008711185e-08,2.0659435739243e-08,-1.7364514813286e-08,-0.0019553091124747,0.0019553124451575,-0.0022140848621129,0.0022140953320142,-0.0022140975031614,0.0022140826940841,-0.0022140794574656,0.0022141007347833,-0.0022140920875685,0.0022140881082532,-0.0016549205585758,0.0016549666316231,-0.0016549575694204,0.0016549289755764,-0.0016549558508988,0.0016549306387053,-0.0016549398108108,0.0016549470089176,1.5099332581416e-09,1.5129959902923e-09,-0.00091116564943504,0.00091116864519821,-1.701402720256e-08,2.0710405896719e-08,-0.001108297289996,0.0011082875511811,-0.0011082847810277,0.0011083000931045,-0.0011082972897236,0.0011082875328214,-0.0011082847605556,0.0011083000935191,-0.00089427147767137,0.00089428717067279,-0.00089427153885787,0.00089428719020847,0.69998402473786,128566,2924,0.0037935329153024,0.0081100945548004,0.0037935329057405,18.602091796951,-9.1183265624388e-05,-9.1183265624388e-05,-9.1183265624388e-05,4426220.5863538,0.01582249701979
20619200,0.9871228049037,0.01637891821092,0.0044387300380677,0.0075014581452759,0.0044387300275766,-0.00091128023879927,0.00091127916401457,-5.2841429090907e-10,-5.426517439735e-10,7.5649725650622e-09,-8.9355990354066e-09,-0.0011086624402958,0.0011086668966925,-0.0011086624958558,0.0011086669218213,-0.0011086678525699,0.0011086614320561,-0.0011086678570639,0.001108661446118,-0.00089450127700779,0.00089449468394906,-0.00089450124389801,0.00089449466726067,-6.4028374468287e-09,1.0010710246791e-08,2.0786483629194e-08,-1.7491161383026e-08,-0.0019559837966682,0.0019559871297924,-0.0022147119367166,0.0022147224839158,-0.0022147246602178,0.0022147097610151,-0.0022147065253465,0.0022147278936008,-0.0022147192378367,0.0022147151822303,-0.0016555622178737,0.0016556085471722,-0.0016555994739658,0.0016555706384763,-0.0016555976882574,0.0016555723716861,-0.0016555816282626,0.0016555887634535,1.516148368493e-09,1.5192173798742e-09,-0.0009112781948795,0.00091128120341162,-1.713353063193e-08,2.0845475243574e-08,-0.0011086695759081,0.0011086597643536,-0.001108656982257,0.0011086723908842,-0.0011086695756166,0.0011086597459244,-0.0011086569617473,0.0011086723913321,-0.00089449005625795,0.00089450584603102,-0.00089449011754045,0.00089450586543319,0.63099126392315,128566,2924,0.0037940107382975,0.0081128686582664,0.0037940107288192,18.565735584504,-9.147411532397e-05,-9.147411532397e-05,-9.147411532397e-05,4415661.5885142,0.015826289871068
20819200,0.98741427083877,0.016383519088514,0.004439976136585,0.0075035668258366,0.0044399761260921,-0.00091007748493519,0.00091007641539334,-5.2514473623658e-10,-5.3906647897607e-10,7.5921606989154e-09,-8.9469608451053e-09,-0.0011073791777493,0.0011073836486963,-0.0011073792310672,0.0011073836700299,-0.0011073846064399,0.0011073781724243,-0.0011073846054684,0.0011073781820284,-0.00089325225088615,0.00089324564031061,-0.00089325217993821,0.00089324559690776,-6.4028502110859e-09,1.0047741521747e-08,2.1043767656696e-08,-1.7720056360206e-08,-0.0019547753427,0.0019547786907514,-0.0022136273762636,0.0022136380692395,-0.002213640260958,0.0022136251933714,-0.0022136219519735,0.0022136434908164,-0.0022136348249345,0.0022136306262691,-0.001654284033543,0.0016543308932558,-0.0016543219529934,0.0016542926881771,-0.0016543198430487,0.0016542943642117,-0.0016543037231187,0.0016543107501533,1.5181893924297e-09,1.5206094100311e-09,-0.00091007544511965,0.00091007844509151,-1.7423377606892e-08,2.1051833681928e-08,-0.0011073863984241,0.0011073764390968,-0.0011073736415084,0.001107389231127,-0.0011073863998776,0.0011073764207085,-0.001107373623145,0.0011073892315903,-0.00089324092579651,0.00089325690784282,-0.00089324098253425,0.00089325693258552,0.67642719666407,128566,2924,0.0037890160402976,0.0081078769130662,0.0037890160188684,17.741350474561,-9.8069196203511e-05,-9.8069196203511e-05,-9.8069196203511e-05,4404049.4315889,0.015811068805931
21019200,0.98768337450288,0.016387633872216,0.0044410851285703,0.007505463625572,0.0044410851180738,-0.00090870764018931,0.00090870656397956,-5.2925563763114e-10,-5.4314907550831e-10,7.5977029908264e-09,-8.9675619903427e-09,-0.0011060418252832,0.0011060463011836,-0.0011060418811344,0.0011060463259909,-0.001106047260041,0.0011060408152146,-0.0011060472634278,0.0011060408289537,-0.00089187165862091,0.00089186503953951,-0.00089187161567517,0.00089186501656768,-6.430103086941e-09,1.0047444511761e-08,2.1249670565798e-08,-1.7947153634129e-08,-0.0019534911695662,0.0019534945073128,-0.0022123462532157,0.0022123570841326,-0.002212359276993,0.0022123440558425,-0.0022123408209114,0.0022123625147866,-0.0022123538330994,0.0022123494984432,-0.0016530011198788,0.0016530483809187,-0.001653039310936,0.001653009604035,-0.0016530372278943,0.0016530115522098,-0.0016530210989531,0.0016530279984174,1.5362152638197e-09,1.5388042277016e-09,-0.00090870557647911,0.00090870862221503,-1.7583224263804e-08,2.1322653735565e-08,-0.0011060491056858,0.0011060390263657,-0.0011060362042847,0.0011060519610193,-0.0011060491059955,0.0011060390075398,-0.0011060361840057,0.0011060519614877,-0.00089186024974049,0.00089187639329497,-0.00089186030960771,0.00089187641302861,0.65601667100635,128566,2924,0.0037833300494276,0.0081025688076089,0.0037833300379034,16.830541336767,-0.00010535566930587,-0.00010535566930587,-0.00010535566930587,4382488.0650214,0.015794125101938
21219200,0.98793200522255,0.016391459108245,0.0044421187768629,0.0075072215650179,0.004442118766364,-0.00090733894642004,0.00090733786902633,-5.2981840735803e-10,-5.4360718122064e-10,7.6043116255144e-09,-8.977009741985e-09,-0.0011046215803731,0.0011046260604653,-0.0011046216370836,0.0011046260868973,-0.0011046270201825,0.0011046205696602,-0.0011046270244055,0.0011046205838366,-0.00089045945647593,0.00089045283332696,-0.00089045942320108,0.00089045281802714,-6.4403185420423e-09,1.0053596933632e-08,2.1425606851888e-08,-1.8125765494071e-08,-0.0019520805560664,0.0019520838927467,-0.0022109849992468,0.0022109959426458,-0.0022109981381042,0.0022109827948574,-0.0022109795615613,0.0022110013791428,-0.0022109926892869,0.0022109882428774,-0.0016515753961383,0.0016516230082702,-0.0016516139049344,0.0016515838504091,-0.0016516117502791,0.001651585937319,-0.0016515956085983,0.0016516024050468,1.5442980288839e-09,1.5468279447309e-09,-0.0009073368724469,0.00090733993773753,-1.7738256778667e-08,2.1512440417568e-08,-0.0011046289122837,0.0011046187339335,-0.0011046158960309,0.0011046317831108,-0.0011046289122558,0.0011046187152892,-0.0011046158758388,0.0011046317834063,-0.00089044798187342,0.00089046424867222,-0.00089044804290204,0.00089046426944123,0.65967104125641,128566,2924,0.003777645978478,0.0080967419216416,0.0037776459674489,15.917556547471,-0.00011265954762023,-0.00011265954762023,-0.00011265954762023,4365589.8539233,0.01577665689537
21419200,0.98816522281543,0.016395071129666,0.0044430971586284,0.0075088768229097,0.0044430971481283,-0.00090635354856498,0.00090635246882251,-5.314794256316e-10,-5.4500940180655e-10,7.5989015428953e-09,-8.9782287698328e-09,-0.0011036152135749,0.0011036196898448,-0.0011036152726752,0.0011036197229999,-0.0011036206514251,0.0011036142043662,-0.0011036206581821,0.0011036142174798,-0.00088944868717482,0.0008894420665881,-0.00088944866332669,0.00088944205215875,-6.4467990354206e-09,1.0047020602005e-08,2.1510040236683e-08,-1.8219917418324e-08,-0.0019511064736029,0.0019511098060905,-0.0022100464985266,0.0022100575023848,-0.0022100596950771,0.0022100442932371,-0.0022100410602161,0.0022100629422233,-0.0022100542495724,0.0022100497404393,-0.0016505859640561,0.0016506337441732,-0.0016506245823533,0.0016505943300049,-0.0016506224373876,0.0016505965554608,-0.0016506063079704,0.0016506130357835,1.5519610534272e-09,1.5547914591799e-09,-0.00090635146484832,0.00090635454972193,-1.7778298540301e-08,2.1604528579601e-08,-0.0011036225615056,0.0011036123467023,-0.001103609500356,0.0011036254404352,-0.0011036225592243,0.0011036123301911,-0.0011036094818761,0.0011036254397659,-0.00088943719005198,0.00088945350448549,-0.00088943724947667,0.00088945352521626,0.66373456172334,128566,2924,0.003773554307363,0.0080927175175984,0.003773554301523,15.22936988285,-0.0001181650409372,-0.0001181650409372,-0.0001181650409372,4352535.283488,0.015764255556272
21619200,0.9883844553079,0.016398496373157,0.0044440271630298,0.0075104420575967,0.0044440271525307,-0.00090540376205057,0.00090540268474647,-5.2999849599431e-10,-5.4343261593055e-10,7.5966523099699e-09,-8.9705478073633e-09,-0.0011026581734791,0.0011026626498116,-0.0011026582312893,0.0011026626768983,-0.0011026636091826,0.0011026571635805,-0.0011026636132812,0.0011026571786514,-0.00088847839326859,0.00088847177377024,-0.00088847835993618,0.00088847176114496,-6.4343555540898e-09,1.0044483404044e-08,2.1513667234292e-08,-1.8216320729788e-08,-0.0019501703020185,0.0019501736371226,-0.0022091339473261,0.0022091449547564,-0.0022091471448425,0.0022091317459955,-0.0022091285151824,0.0022091503859979,-0.002209141700803,0.002209137189591,-0.0016496425053339,0.0016496902836206,-0.0016496811715664,0.001649650934405,-0.0016496789644299,0.0016496531028223,-0.0016496628393926,0.0016496695613028,1.5490273349767e-09,1.5511448421087e-09,-0.00090540168339269,0.00090540475868559,-1.7826436212904e-08,2.161895379458e-08,-0.0011026655318944,0.0011026552967372,-0.001102652451404,0.0011026684100337,-0.0011026655323153,0.0011026552775174,-0.0011026524308651,0.0011026684106238,-0.00088846688471393,0.00088848322412905,-0.00088846694682804,0.00088848324345546,0.66920857567541,128566,2924,0.0037696107667928,0.0080888493853901,0.0037696107569121,14.565085568301,-0.00012347931545359,-0.00012347931545359,-0.00012347931545359,4339390.003466,0.015752314376721
21819200,0.98859066850172,0.016401672119676,0.0044448879529086,0.0075118962243591,0.0044448879424084,-0.00090444395315058,0.00090444287688006,-5.2970000216824e-10,-5.4277665274034e-10,7.5886190175911e-09,-8.9608375983271e-09,-0.001101704109717,0.0011017085801175,-0.0011017041662851,0.0011017086079567,-0.0011017095387962,0.0011017031006861,-0.0011017095433495,0.001101703114656,-0.00088750178284154,0.00088749517159638,-0.00088750174806948,0.00088749515346265,-6.4262933201503e-09,1.003711731825e-08,2.1505538497267e-08,-1.8207892067043e-08,-0.001949224220923,0.001949227555713,-0.002208197405266,0.0022082084103639,-0.0022082105965682,0.0022081952083688,-0.0022081919771765,0.0022082138373708,-0.0022082051584349,0.0022082006458624,-0.0016486979237445,0.0016487456835856,-0.0016487365857072,0.0016487063580598,-0.0016487343599116,0.001648708522647,-0.0016487182520167,0.0016487249613117,1.5472400953625e-09,1.5492287076604e-09,-0.0009044418774475,0.00090444494780632,-1.7807284015844e-08,2.159039850874e-08,-0.0011017114597732,0.0011017012356125,-0.0011016983941839,0.001101714333979,-0.0011017114593489,0.0011017012172952,-0.0011016983746612,0.0011017143336376,-0.00088749028906058,0.00088750660892462,-0.00088749034770137,0.00088750663064311,0.65988857084062,128566,2924,0.0037656258863664,0.0080849398821753,0.0037656258763445,13.901404871577,-0.00012878876102739,-0.00012878876102739,-0.00012878876102739,4325453.5902813,0.015740247698578
22019200,0.98879657285365,0.016404793426126,0.0044457325595165,0.0075133283175942,0.0044457325490148,-0.00090506068018603,0.00090505960617378,-5.2866336711798e-10,-5.4144690797463e-10,7.5689649476087e-09,-8.9387400064521e-09,-0.0011023945043994,0.0011023989630328,-0.0011023945605573,0.0011023989904792,-0.0011023999195427,0.0011023934971045,-0.0011023999240515,0.0011023935114955,-0.00088815726088884,0.00088815066595672,-0.00088815723027623,0.00088815065287331,-6.4069098785364e-09,1.0014520184283e-08,2.1285086551217e-08,-1.7989780108684e-08,-0.0019500956892089,0.0019500990218372,-0.0022090976329786,0.0022091085054453,-0.0022091106810545,0.0022090954497491,-0.0022090922187043,0.002209113918176,-0.0022091052564357,0.0022091008732997,-0.0016495139198019,0.0016495612330557,-0.001649552147929,0.0016495223345103,-0.0016495500478538,0.0016495243937461,-0.0016495339803475,0.0016495407916093,1.5359646247119e-09,1.5376506723945e-09,-0.00090505861635518,0.00090506166495206,-1.7601369484127e-08,2.1362338462817e-08,-0.0011024017865281,0.0011023916857487,-0.0011023888653094,0.0011024046397798,-0.0011024017863607,0.0011023916672064,-0.0011023888457242,0.0011024046394419,-0.00088814585821057,0.00088816200829113,-0.00088814591771647,0.00088816203060889,0.64982380979789,128566,2924,0.003768189830996,0.0080885368216607,0.0037681898204238,14.15370802459,-0.00012677033580328,-0.00012677033580328,-0.00012677033580328,4331142.0081762,0.015749110678458
22219200,0.98900334936166,0.016407903385108,0.0044465727698589,0.0075147578558924,0.0044465727593563,-0.00090584107719619,0.00090584000446958,-5.282263306787e-10,-5.4068542424451e-10,7.5504550454595e-09,-8.919715173883e-09,-0.0011032406177233,0.0011032450654691,-0.0011032406734665,0.0011032450925322,-0.0011032460201843,0.0011032396115946,-0.0011032460246306,0.0011032396263525,-0.00088896997747765,0.00088896339632413,-0.0008889699474833,0.00088896338485926,-6.3901164889747e-09,9.9936262336373e-09,2.1049918550908e-08,-1.7758154805678e-08,-0.0019511406914146,0.0019511440213227,-0.0022102019616908,0.0022102126909937,-0.0022102148575125,0.0022101997903532,-0.0022101965598605,0.0022102180909723,-0.0022102094451177,0.002210205201487,-0.0016504792251162,0.0016505260617458,-0.0016505169847711,0.0016504876142912,-0.0016505150213798,0.0016504895549889,-0.0016504989934605,0.0016505059197976,1.525669794245e-09,1.5270161526634e-09,-0.00090583902475898,0.00090584205231391,-1.7379183631723e-08,2.1120216652603e-08,-0.0011032478275921,0.0011032378595134,-0.0011032350607193,0.00110325065902,-0.0011032478275411,0.0011032378407169,-0.0011032350409471,0.0011032506587179,-0.00088895866970621,0.00088897464446983,-0.00088895872968171,0.00088897466644968,0.64497437421432,128566,2924,0.0037714330535837,0.0080928512738236,0.003771433043982,14.500316892915,-0.00012399746485668,-0.00012399746485668,-0.00012399746485668,4340518.2756196,0.015760082385905
22419200,0.98921093365575,0.016411158560899,0.0044474583549134,0.0075162418615761,0.00444745834441,-0.00090663055326919,0.00090662948232647,-5.2753253881658e-10,-5.3966999897898e-10,7.5374313087118e-09,-8.9038114177318e-09,-0.0011040871138543,0.0011040915536227,-0.0011040871689278,0.0011040915798453,-0.0011040925069471,0.0011040861090634,-0.0011040925107821,0.0011040861237435,-0.00088978975163768,0.00088978318014195,-0.00088978971688644,0.0008897831657315,-6.3752496524993e-09,9.9791475073642e-09,2.0836480126541e-08,-1.7544706585963e-08,-0.0019521881734178,0.0019521915027108,-0.002211320295101,0.0022113308917939,-0.0022113330520732,0.0022113181343728,-0.0022113149029233,0.0022113362817927,-0.0022113276490276,0.0022113235358036,-0.001651440971286,0.0016514873797918,-0.0016514783294974,0.0016514493689197,-0.0016514764707378,0.0016514511744695,-0.0016514604689622,0.0016514675072354,1.5153924717947e-09,1.5163649273593e-09,-0.00090662851291035,0.00090663151788199,-1.7185763898386e-08,2.0894971474938e-08,-0.0011040942598757,0.0011040844113991,-0.0011040816323904,0.0011040970717592,-0.0011040942602422,0.0011040843923827,-0.0011040816127274,0.0011040970714755,-0.00088977852780509,0.00088979434500375,-0.0008897785871177,0.00088979436690923,0.67139356092345,128566,2924,0.0037747137556718,0.0080971764027875,0.0037747137456096,14.849315804146,-0.00012120547356683,-0.00012120547356683,-0.00012120547356683,4350310.3615965,0.015771140978331
22619200,0.98941908209214,0.016414459489377,0.0044483575141127,0.0075177444716561,0.0044483575036081,-0.0009073849595868,0.00090738388946479,-5.2731363377236e-10,-5.391235301939e-10,7.5309209606021e-09,-8.8960311839126e-09,-0.0011049947593639,0.0011049991950018,-0.0011049948139645,0.0011049992209457,-0.0011050001476706,0.0011049937550537,-0.0011050001511949,0.0011049937696657,-0.00089061201010975,0.00089060544350907,-0.00089061197385403,0.00089060542842649,-6.3684930427914e-09,9.9715767616453e-09,2.0678110797674e-08,-1.738713973764e-08,-0.0019533182172175,0.0019533215456671,-0.0022124550332077,0.0022124655295301,-0.0022124676874364,0.002212452877769,-0.0022124496456945,0.002212470914753,-0.0022124622890388,0.0022124582744026,-0.0016525185729306,0.0016525646657329,-0.0016525556267929,0.0016525269708015,-0.0016525538577013,0.0016525286792916,-0.0016525378691217,0.0016525449969539,1.5081518270557e-09,1.5087906937723e-09,-0.00090738292735415,0.00090738591684595,-1.7038118261271e-08,2.0727799738423e-08,-0.0011050018579431,0.0011049920999076,-0.0011049893351201,0.0011050046555478,-0.0011050018584707,0.0011049920808201,-0.0011049893156081,0.0011050046552041,-0.00089060084804527,0.00089061654649587,-0.00089060090690243,0.0008906165685506,0.67880269831962,128566,2924,0.0037778519448937,0.0081018385875906,0.0037778519347267,15.187478085842,-0.00011850017531326,-0.00011850017531326,-0.00011850017531326,4353972.1110391,0.015782254561424
22819200,0.98962476682262,0.016417711747445,0.0044492425756258,0.007519226606699,0.0044492425651201,-0.00090774253407755,0.00090774146422612,-5.273650080724e-10,-5.3875325972267e-10,7.5335787855195e-09,-8.8973552871093e-09,-0.001105507108223,0.001105511544943,-0.0011055071620145,0.0011055115704462,-0.0011055124979978,0.0011055061037987,-0.0011055125008915,0.001105506117864,-0.0008910328167373,0.00089102624771309,-0.00089103277447821,0.00089102622775088,-6.3687636862881e-09,9.9755748701529e-09,2.0615125153548e-08,-1.7321516897431e-08,-0.0019540161710188,0.001954019500732,-0.0022131448843992,0.0022131553362475,-0.002213157496956,0.0022131427285441,-0.0022131394952244,0.0022131607229742,-0.0022131520971328,0.0022131481263685,-0.0016531818853832,0.0016532278567876,-0.0016532188352854,0.0016531903102742,-0.0016532170867203,0.0016531919508725,-0.0016532010925061,0.0016532082679999,1.5048732716362e-09,1.5050731752944e-09,-0.00090774050632515,0.00090774348673156,-1.6980720191007e-08,2.0651097386644e-08,-0.0011055141883784,0.001105504468776,-0.0011055017100769,0.0011055169800784,-0.0011055141890222,0.0011055044496789,-0.0011055016910175,0.001105516979449,-0.00089102167852306,0.00089103732904739,-0.00089102173552506,0.00089103735184885,0.67691804978681,128566,2924,0.0037793425953685,0.0081047151863447,0.0037793425843393,15.303694099474,-0.00011757044720421,-0.00011757044720421,-0.00011757044720421,4351786.7366429,0.015788207441998
23019200,0.98982791954669,0.016420705204527,0.004450047085255,0.0075206110445243,0.0044500470747476,-0.00090807355382942,0.00090807248364868,-5.2771977714437e-10,-5.3874771814575e-10,7.5381423172685e-09,-8.9024312851587e-09,-0.0011059808784998,0.001105985317876,-0.0011059809325106,0.0011059853438972,-0.0011059862713755,0.0011059798735289,-0.0011059862742049,0.0011059798877559,-0.00089142015474893,0.00089141358252096,-0.0008914201160381,0.00089141356660019,-6.3750577773021e-09,9.9788725038242e-09,2.0581644814996e-08,-1.7290334351507e-08,-0.0019546738676084,0.0019546771960747,-0.0022138054800848,0.0022138159076012,-0.0022138180718507,0.0022138033210098,-0.0022138000878907,0.0022138212975532,-0.0022138126689144,0.0022138087220971,-0.0016537956753318,0.0016538415834488,-0.0016538325505151,0.0016538040890325,-0.0016538308441953,0.0016538057168469,-0.0016538148402209,0.0016538220452253,1.5039640506898e-09,1.5038218766581e-09,-0.0009080715264335,0.00090807450587831,-1.6949070625174e-08,2.0622886084273e-08,-0.0011059879507159,0.0011059782493764,-0.0011059754923345,0.0011059907403176,-0.0011059879514755,0.0011059782302127,-0.001105975473365,0.0011059907397365,-0.00089140902591691,0.00089142465173271,-0.00089140908360696,0.000891424674748,0.63260005049617,128566,2924,0.003780722724499,0.0081074257590874,0.0037807227136632,15.414894476126,-0.00011668084419099,-0.00011668084419099,-0.00011668084419099,4350027.7960782,0.015793766947399
23219200,0.99002853843851,0.016423790582677,0.0044508831173211,0.0075220243585433,0.0044508831068128,-0.00090842996956807,0.00090842889813408,-5.2853153291197e-10,-5.3918604649622e-10,7.5438322627314e-09,-8.9103411199304e-09,-0.0011063239284685,0.0011063283714328,-0.001106323982332,0.0011063283974554,-0.0011063293257304,0.0011063229223459,-0.0011063293288282,0.0011063229372551,-0.00089177370714369,0.00089176712907787,-0.00089177366930391,0.00089176711466598,-6.3817113720982e-09,9.9855146532052e-09,2.0584586908059e-08,-1.7293062313758e-08,-0.0019551700362407,0.0019551733651307,-0.0022144150976901,0.0022144255235439,-0.0022144276912093,0.0022144129346799,-0.0022144097012418,0.0022144309178476,-0.0022144222838632,0.0022144183403619,-0.0016541940182891,0.0016542399365372,-0.0016542308914792,0.0016542024291412,-0.0016542291988719,0.0016542040565152,-0.0016542131835038,0.0016542204007039,1.5048740091228e-09,1.5043624033853e-09,-0.00090842794067241,0.00090843092207551,-1.6949439034537e-08,2.062853452968e-08,-0.0011063310027774,0.0011063213004264,-0.0011063185423854,0.0011063337935818,-0.0011063310036357,0.0011063212809516,-0.0011063185232724,0.0011063337928132,-0.00089176257453373,0.00089177820231084,-0.00089176263217028,0.00089177822557285,0.6590001203474,128566,2924,0.003782203410075,0.0081094754614453,0.0037822033996933,15.525918468581,-0.00011579265225135,-0.00011579265225135,-0.00011579265225135,4357186.5001291,0.015798856099541
23419200,0.99022747902076,0.016426818566483,0.0044517018835535,0.0075234148098858,0.0044517018730441,-0.00090889335763297,0.00090889228552805,-5.2899906518065e-10,-5.3933693702356e-10,7.5506723640412e-09,-8.918094408661e-09,-0.0011068733967135,0.0011068778440404,-0.0011068734508334,0.001106877869988,-0.0011068787990495,0.0011068723897957,-0.0011068788018665,0.0011068724052204,-0.00089227015299657,0.00089226356857735,-0.00089227011549213,0.00089226355678414,-6.3885867345312e-09,9.9924276469004e-09,2.0617533614677e-08,-1.7325911659292e-08,-0.0019559042410237,0.0019559075701515,-0.0022151925367536,0.0022152029804204,-0.0022152051519889,0.0022151903691591,-0.0022151871360723,0.0022152083790148,-0.0022151997398423,0.002215195779751,-0.0016548629016814,0.0016549088883199,-0.0016548998356536,0.0016548713142459,-0.0016548981346665,0.0016548729559691,-0.0016548821051649,0.0016548893152276,1.507014013692e-09,1.5060864419896e-09,-0.00090889132612793,0.00090889431186358,-1.6984916022063e-08,2.0669988471058e-08,-0.0011068804837209,0.0011068707603068,-0.0011068679980171,0.0011068832787041,-0.0011068804849831,0.0011068707403912,-0.0011068679787338,0.0011068832780741,-0.00089225900233239,0.00089227465917414,-0.00089225906068589,0.00089227468217039,0.65256370449541,128566,2924,0.0037841310428826,0.0081125050177019,0.0037841310320536,15.704672562501,-0.00011436261949999,-0.00011436261949999,-0.00011436261949999,4359990.8233997,0.015805850879469
23619200,0.99042895229429,0.016429954306436,0.0044525531119118,0.0075248480931237,0.0044525531014009,-0.00090993776311988,0.0009099366898074,-5.2989901911047e-10,-5.3972862395842e-10,7.5515211158348e-09,-8.9222564803361e-09,-0.0011080252516236,0.0011080296991314,-0.0011080253058864,0.0011080297269849,-0.0011080306546709,0.0011080242438899,-0.0011080306587063,0.0011080242596564,-0.00089336875500973,0.00089336217124006,-0.00089336872862811,0.00089336216678269,-6.3953506326634e-09,9.9921541454321e-09,2.0629787632972e-08,-1.7343372691634e-08,-0.0019573081397458,0.0019573114662739,-0.0022166531833557,0.0022166636349844,-0.0022166658074634,0.0022166510123195,-0.0022166477802306,0.0022166690364883,-0.0022166603940401,0.0022166564247016,-0.0016561765357292,0.0016562225477731,-0.0016562134603186,0.0016561849034831,-0.0016562117948736,0.0016561865943769,-0.0016561957646351,0.0016562029671851,1.5088131043248e-09,1.5075827731339e-09,-0.00090993572802475,0.00090993872041797,-1.6978219563547e-08,2.0686645937003e-08,-0.0011080323391652,0.0011080226138172,-0.0011080198494856,0.0011080351357301,-0.0011080323397151,0.001108022594295,-0.0011080198305603,0.0011080351345304,-0.00089335760407462,0.00089337325901677,-0.0008933576622155,0.00089337328340823,0.66669036064586,128566,2924,0.0037884721730244,0.0081183003097534,0.0037884721636887,16.219698069644,-0.00011024241544285,-0.00011024241544285,-0.00011024241544285,4370251.2816604,0.015820558792926
23819200,0.99063292173755,0.016433297544154,0.0044534679283531,0.0075263616979582,0.0044534679178427,-0.00091099114445936,0.00091099007052979,-5.3047581900801e-10,-5.3979971136113e-10,7.5543079574947e-09,-8.9254424070964e-09,-0.0011092465051952,0.0011092509543893,-0.0011092465587767,0.0011092509815498,-0.0011092519105288,0.00110924549691,-0.0011092519139111,0.001109245512646,-0.00089450312011307,0.00089449653123417,-0.00089450308493868,0.00089449652041798,-6.3955209984e-09,9.9974745367802e-09,2.0658103543588e-08,-1.7367841663594e-08,-0.0019588009317839,0.0019588042603021,-0.0022181675238483,0.0022181779903527,-0.0022181801647766,0.0022181653509147,-0.002218162119016,0.0022181833935872,-0.0022181747494402,0.0022181707653152,-0.00165759673845,0.0016576428097476,-0.0016576337367921,0.0016576051363104,-0.0016576320306925,0.0016576068133523,-0.001657615994953,0.0016576231887062,1.5105326662124e-09,1.5087410565745e-09,-0.00091098910872148,0.00091099210158455,-1.7009547302123e-08,2.0709504459717e-08,-0.0011092536014334,0.0011092438606921,-0.0011092410937687,0.0011092564010093,-0.0011092536023889,0.0011092438408825,-0.0011092410750148,0.0011092563995018,-0.00089449195602961,0.00089450763654877,-0.00089449201237725,0.00089450766132483,0.70079156544255,128566,2924,0.003792852650516,0.0081244601600064,0.0037928526407204,16.74233739927,-0.00010606130080584,-0.00010606130080584,-0.00010606130080584,4377309.8962987,0.015835718363308
24019200,0.99083924573002,0.01643671833379,0.0044544048775041,0.0075279085892937,0.0044544048669923,-0.00091201812902792,0.00091201705591829,-5.3025448230646e-10,-5.3909427526225e-10,7.558085871411e-09,-8.9269604674266e-09,-0.0011105615808786,0.0011105660320399,-0.0011105616343795,0.0011105660589583,-0.0011105669884113,0.0011105605727267,-0.0011105669910778,0.0011105605884684,-0.00089566277312861,0.000895656181928,-0.00089566273553153,0.00089565617122364,-6.3974145286716e-09,1.0000568474615e-08,2.0700080996558e-08,-1.7409111334599e-08,-0.0019604213388098,0.0019604246676946,-0.0022197285724767,0.0022197390648642,-0.002219741241118,0.0022197263982144,-0.0022197231660507,0.002219744469432,-0.0022197358237517,0.0022197318143194,-0.0016591841118013,0.0016592302669158,-0.0016592212044518,0.0016591925245966,-0.00165921946305,0.0016591942130586,-0.0016592034184913,0.0016592105894337,1.5122429930587e-09,1.5099023980274e-09,-0.00091201609235275,0.00091201908744864,-1.7056294599143e-08,2.0753489633319e-08,-0.0011105686912255,0.0011105589249182,-0.001110556153718,0.0011105714951814,-0.0011105686926849,0.0011105589048185,-0.0011105561350987,0.0011105714937719,-0.00089565159040764,0.00089566730510738,-0.00089565164682179,0.00089566733036736,0.70866202270509,128566,2924,0.003797127734465,0.0081311416379582,0.0037971277236898,17.265244589086,-0.00010187804328731,-0.00010187804328731,-0.00010187804328731,4377317.2119617,0.015851196333018
24219200,0.99104653308129,0.016440011129914,0.0044552999079943,0.0075294113244389,0.0044552998974807,-0.00091285286537037,0.00091285179376921,-5.2954787403992e-10,-5.3779259348764e-10,7.5631112807761e-09,-8.9281669804214e-09,-0.0011116989042349,0.0011117033578455,-0.0011116989567698,0.0011117033837772,-0.0011117043144026,0.0011116978963505,-0.0011117043158458,0.001111697911547,-0.00089663507939812,0.00089662848595461,-0.00089663503715869,0.00089662847367277,-6.3969142842479e-09,1.0007456697303e-08,2.0771360312377e-08,-1.7474612339235e-08,-0.0019618608438149,0.0019618641755138,-0.0022211011646861,0.002221111699145,-0.0022211138783374,0.0022210989888241,-0.0022210957559257,0.0022211171054836,-0.0022211084583269,0.0022211044067939,-0.0016605940481532,0.0016606403479271,-0.0016606313117522,0.0016606025077559,-0.0016606294937168,0.0016606041992361,-0.0016606134375901,0.0016606205727575,1.513092923445e-09,1.5102207538629e-09,-0.00091285082892303,0.00091285382348985,-1.7133736610725e-08,2.0815655178981e-08,-0.0011117060371835,0.0011116962296435,-0.0011116934534559,0.0011117088465166,-0.0011117060391905,0.0011116962093312,-0.001111693435288,0.001111708844929,-0.00089662386921906,0.00089663963418364,-0.00089662392493136,0.00089663966188759,0.68010065000853,128566,2924,0.0038006055787378,0.0081370742202778,0.0038006055646137,17.6929759694,-9.8456192244798e-05,-9.8456192244798e-05,-9.8456192244798e-05,4374224.950763,0.015864294158589
24419200,0.99125160679987,0.016443265411098,0.004456184315936,0.0075308967897421,0.0044561843054201,-0.00091328782898581,0.00091328675554913,-5.3095945982503e-10,-5.3879903385141e-10,7.5663029475615e-09,-8.9345463173312e-09,-0.0011123027672778,0.0011123072226126,-0.0011123028203505,0.0011123072498743,-0.0011123081804622,0.0011123017585028,-0.0011123081823123,0.0011123017738323,-0.00089714916556991,0.00089714256672481,-0.0008971491205374,0.00089714255068025,-6.4033176528647e-09,1.0010566948698e-08,2.0881241815278e-08,-1.7587292293646e-08,-0.0019627052544574,0.001962708584777,-0.0022219583960843,0.0022219690015933,-0.0022219711824556,0.0022219562161212,-0.0022219529841405,0.0022219744116127,-0.0022219657598546,0.0022219616371777,-0.0016613798085614,0.0016614263253233,-0.0016614172718014,0.0016613882478235,-0.0016614154010561,0.0016613900208706,-0.0016613993394726,0.0016614064081853,1.5211264626583e-09,1.5177863749627e-09,-0.00091328578466006,0.00091328879462147,-1.7226333602804e-08,2.0932593848413e-08,-0.0011123099300002,0.0011123000641503,-0.0011122972763925,0.0011123127506589,-0.0011123099317377,0.001112300043907,-0.0011122972584379,0.0011123127487981,-0.00089713791274664,0.00089715376325641,-0.00089713796638147,0.00089715378937458,0.67934591283227,128566,2924,0.0038024194354716,0.0081405533829103,0.0038024194244299,17.885114536128,-9.6919083710972e-05,-9.6919083710972e-05,-9.6919083710972e-05,4372634.6896079,0.015871516116223
24619200,0.99145436083592,0.016446631406889,0.0044571059946266,0.0075324194281539,0.0044571059841083,-0.00091372812803005,0.00091372705447738,-5.3118477914021e-10,-5.3859502761543e-10,7.5696243545488e-09,-8.9379815364464e-09,-0.0011128906686868,0.0011128951260243,-0.001112890721999,0.0011128951535057,-0.0011128960841338,0.0011128896593695,-0.0011128960861367,0.001112889675522,-0.00089766305642131,0.00089765645540287,-0.00089766301620075,0.00089765644540163,-6.4075434974739e-09,1.0012803027446e-08,2.0978034791378e-08,-1.7685412806896e-08,-0.0019635280845116,0.0019635314143997,-0.0022227961276656,0.0022228067958478,-0.0022228089772375,0.0022227939449443,-0.0022227907138076,0.0022228122076757,-0.0022228035522488,0.0022227993683521,-0.0016621473793878,0.0016621940880746,-0.0016621850229444,0.0016621558080684,-0.0016621831075095,0.0016621576533447,-0.001662167038005,0.0016621740482247,1.5257957924179e-09,1.5220516726534e-09,-0.00091372607815222,0.00091372909885927,-1.7320402995784e-08,2.1043305489252e-08,-0.0011128978614612,0.001112887937333,-0.0011128851398826,0.0011129006918669,-0.0011128978635478,0.0011128879167573,-0.0011128851217421,0.001112900690047,-0.00089765176420568,0.00089766768774019,-0.00089765181929052,0.00089766771467788,0.70944459932574,128566,2924,0.0038042544739196,0.0081439446176255,0.0038042544623989,18.07190529183,-9.5424757665356e-05,-9.5424757665356e-05,-9.5424757665356e-05,4371672.8673019,0.015878691447795
24819200,0.99165475914506,0.016449722663568,0.0044579416860982,0.0075338393018914,0.0044579416755785,-0.00091413881788132,0.00091413774365915,-5.3174903570219e-10,-5.3873296316354e-10,7.570537865967e-09,-8.9403514192246e-09,-0.0011135435879466,0.0011135480458361,-0.001113543641477,0.0011135480740314,-0.0011135490045089,0.0011135425782872,-0.0011135490065728,0.0011135425946358,-0.00089817942179959,0.0008981728189027,-0.00089817938196576,0.00089817280962289,-6.4096166260236e-09,1.0014083143516e-08,2.106208966056e-08,-1.7770049389307e-08,-0.0019644354758517,0.0019644388053389,-0.0022236509464155,0.0022236616690052,-0.0022236638507375,0.0022236487612046,-0.0022236455314617,0.0022236670821436,-0.0022236584248667,0.0022236541857596,-0.0016630303815222,0.0016630772563549,-0.0016630681826385,0.0016630388025656,-0.0016630662203446,0.0016630407068282,-0.0016630501497068,0.00166305710717,1.5302269982737e-09,1.5260418597513e-09,-0.0009141367632356,0.00091413979299388,-1.7396749563801e-08,2.1132879467129e-08,-0.0011135508047662,0.0011135408331816,-0.0011135380279469,0.0011135536428236,-0.0011135508068707,0.0011135408125038,-0.0011135380099916,0.0011135536407691,-0.00089816809784548,0.00089818408388332,-0.00089816815217937,0.00089818411105034,0.66112228986557,128566,2924,0.003805969484247,0.0081476812507591,0.0038059694731182,18.258507829697,-9.3931937362427e-05,-9.3931937362427e-05,-9.3931937362427e-05,4365283.8964987,0.015885975989059
25019200,0.99185505670501,0.016452776479453,0.0044587660029504,0.007535244484074,0.004458765992429,-0.00091488368754138,0.00091488261307988,-5.3207685241372e-10,-5.3862806293383e-10,7.5675350850032e-09,-8.9386735090424e-09,-0.0011143861160467,0.0011143905722044,-0.0011143861698847,0.0011143906011272,-0.0011143915307963,0.0011143851061168,-0.0011143915333868,0.001114385123245,-0.00089897858586794,0.00089897198545911,-0.0008989785523833,0.00089897198233935,-6.4094267765881e-09,1.0009534815523e-08,2.1088179622588e-08,-1.7799464183764e-08,-0.0019655395918367,0.0019655429195318,-0.0022248250295035,0.0022248357719491,-0.0022248379514184,0.0022248228445435,-0.0022248196162363,0.0022248411835301,-0.0022248325271973,0.0022248282676539,-0.0016640358998901,0.0016640828236386,-0.0016640737330318,0.0016640442926507,-0.0016640717740356,0.0016640462423605,-0.0016640557099298,0.001664062642669,1.5320531031529e-09,1.5274614212648e-09,-0.00091488163013347,0.00091488466541268,-1.7416911762389e-08,2.1168376349336e-08,-0.0011143933394483,0.0011143833525589,-0.0011143805440347,0.0011143961806087,-0.0011143933415929,0.0011143833317012,-0.0011143805260036,0.0011143961784111,-0.00089896725345838,0.00089898325607329,-0.0008989673087315,0.00089898328398866,0.65362538872291,128566,2924,0.0038090678457269,0.0081522362508531,0.0038090678351293,18.630246888485,-9.0958024892118e-05,-9.0958024892118e-05,-9.0958024892118e-05,4372078.1219455,0.01589689936102
25219200,0.99205848198361,0.016455981295723,0.0044596360334692,0.0075367092393066,0.004459636022947,-0.00091611196490307,0.00091611089007324,-5.3253236180336e-10,-5.3874588109904e-10,7.5602873375989e-09,-8.9332945548952e-09,-0.0011157157260864,0.0011157201785151,-0.0011157157800647,0.0011157202074153,-0.001115721136207,0.0011157147157153,-0.0011157211394972,0.0011157147343155,-0.00090027004657833,0.00090026345057006,-0.00090027001769819,0.00090026345191641,-6.4055678825923e-09,9.9999738504278e-09,2.1047007956589e-08,-1.7762736505063e-08,-0.0019671794106564,0.0019671827359682,-0.0022265523923865,0.0022265631136995,-0.0022265652883448,0.0022265502109178,-0.0022265469839433,0.0022265685204369,-0.0022265598683706,0.0022265556300203,-0.0016655548924044,0.0016656017307658,-0.0016655926258652,0.00166556325239,-0.001665590708933,0.0016655652098906,-0.0016655746595857,0.0016655816033576,1.5316954904049e-09,1.5266004813761e-09,-0.00091610990726733,0.00091611294323707,-1.7379514067216e-08,2.1141634167958e-08,-0.001115722937383,0.001115712969536,-0.0011157101631228,0.0011157257763437,-0.0011157229399422,0.0011157129481587,-0.0011157101445622,0.001115725774115,-0.00090025872952378,0.00090027470457346,-0.00090025878599808,0.000900274732816,0.67454674955205,128566,2924,0.0038141731712032,0.0081590048635138,0.0038141731619025,19.271504103017,-8.5827967175865e-05,-8.5827967175865e-05,-8.5827967175865e-05,4385577.6847959,0.015914149587414
25419200,0.9922649112395,0.016459500456544,0.0044606030633862,0.0075382943402933,0.0044606030528647,-0.00091735399216548,0.00091735291812178,-5.3236411353147e-10,-5.3801362238856e-10,7.5550634227999e-09,-8.9263429798199e-09,-0.0011171402121272,0.0011171446608146,-0.0011171402655735,0.001117144689784,-0.0011171456188513,0.0011171392028302,-0.0011171456209882,0.0011171392203348,-0.00090161020263789,0.00090160360899003,-0.00090161016452069,0.00090160360378053,-6.3969928109078e-09,9.9968518445677e-09,2.1008817940209e-08,-1.7720521458998e-08,-0.0019689353090715,0.001968938635893,-0.0022283409979198,0.0022283516949757,-0.0022283538678444,0.0022283388198753,-0.0022283355929857,0.0022283570982118,-0.0022283484519003,0.0022283442348795,-0.0016672201427351,0.0016672669026621,-0.0016672578241357,0.0016672285315246,-0.0016672558935881,0.0016672304393937,-0.0016672398559216,0.0016672468163808,1.5291709032977e-09,1.5235939739471e-09,-0.0009173519388246,0.00091735496652564,-1.7344949542933e-08,2.1086553411583e-08,-0.0011171474097214,0.0011171374666795,-0.0011171346654929,0.0011171502436609,-0.0011171474122614,0.0011171374453406,-0.0011171346476752,0.0011171502411103,-0.00090159890328334,0.00090161484978566,-0.00090159895692772,0.0009016148777838,0.72789191344931,128566,2924,0.0038193382032641,0.0081662496643795,0.0038193381929403,19.918900883479,-8.0648792932172e-05,-8.0648792932172e-05,-8.0648792932172e-05,4394469.5497204,0.015932006887633
25619200,0.99247412702483,0.016463089368478,0.0044615890882278,0.0075399112025456,0.0044615890777046,-0.00091855588028592,0.00091855480763903,-5.3188346865969e-10,-5.3703054218259e-10,7.5518131532239e-09,-8.9202208359942e-09,-0.0011187101949433,0.0011187146411073,-0.0011187102478033,0.0011187146697815,-0.0011187155986688,0.0011187091862505,-0.0011187156002786,0.0011187092034897,-0.00090298854980595,0.00090298195988608,-0.00090298850989049,0.00090298195414536,-6.3921351758346e-09,9.9924404596854e-09,2.0964348860945e-08,-1.7675949492288e-08,-0.001970884155322,0.001970887481853,-0.002230195552563,0.0022302062224056,-0.002230208393833,0.0022301933779101,-0.0022301901504742,0.0022302116224449,-0.0022302029807205,0.0022301987896169,-0.0016691413570044,0.001669188026817,-0.0016691789643858,0.0016691497560421,-0.0016691770455002,0.0016691516299946,-0.001669161013786,0.0016691679935121,1.526383020234e-09,1.5203197689295e-09,-0.00091855383091098,0.00091855685168855,-1.7306777429359e-08,2.1035393367377e-08,-0.0011187173788866,0.0011187074609846,-0.0011187046644084,0.0011187202083002,-0.0011187173816862,0.0011187074396248,-0.0011187046469217,0.0011187202056394,-0.00090297726939954,0.00090299318079299,-0.00090297732260031,0.00090299320982898,0.7324347520685,128566,2924,0.0038243430260826,0.0081742829738529,0.0038243430149348,20.566506017294,-7.5467951861649e-05,-7.5467951861649e-05,-7.5467951861649e-05,4392564.302473,0.015950343895522
25819200,0.99268069721128,0.016466539624397,0.0044625324378175,0.0075414747592868,0.0044625324272924,-0.00091902208937953,0.00091902101827335,-5.3129760138842e-10,-5.3578570694951e-10,7.5554402337151e-09,-8.9190832800105e-09,-0.0011195085862443,0.0011195130334486,-0.0011195086377293,0.0011195130611261,-0.0011195139915983,0.0011195075782154,-0.0011195139915369,0.0011195075939633,-0.00090360885378505,0.00090360226073309,-0.00090360879920941,0.00090360224396031,-6.3886103680445e-09,1.0000305267597e-08,2.0989645740436e-08,-1.7692710054029e-08,-0.0019719942958651,0.0019719976264569,-0.0022312163659834,0.0022312270465252,-0.0022312292215205,0.0022312141910816,-0.0022312109619055,0.0022312324480585,-0.0022312238067422,0.0022312196036458,-0.0016702380265727,0.0016702847502332,-0.0016702757344633,0.0016702464979818,-0.0016702737402466,0.0016702483187042,-0.001670257699144,0.0016702646731825,1.5253238652449e-09,1.5188355068802e-09,-0.00091902004376516,0.00091902305723664,-1.7346353337489e-08,2.1042799498527e-08,-0.0011195157795187,0.0011195058461705,-0.0011195030495391,0.0011195186095075,-0.0011195157825461,0.001119505824916,-0.0011195030329643,0.0011195186064584,-0.00090359756275076,0.00090361349710989,-0.0009035976124519,0.00090361352727771,0.71386319466069,128566,2924,0.0038262928087455,0.0081788516575636,0.0038262927947309,20.805278139231,-7.3557774886149e-05,-7.3557774886149e-05,-7.3557774886149e-05,4382264.7864441,0.015958952809732
26019200,0.99288004733826,0.016469739130345,0.0044634016005302,0.0075429359398138,0.0044634015900012,-0.00091885252450938,0.00091885145370107,-5.3120948833021e-10,-5.3550459164274e-10,7.563261882497e-09,-8.9251300266394e-09,-0.0011195440773142,0.0011195485290866,-0.0011195441287238,0.0011195485561033,-0.0011195494878565,0.0011195430690616,-0.0011195494869132,0.0011195430846842,-0.0009035310189653,0.00090352441920108,-0.00090353095868906,0.00090352439989176,-6.3916834039889e-09,1.0007709657575e-08,2.1070818365786e-08,-1.7770623361419e-08,-0.0019722480845999,0.0019722514168876,-0.0022314376982668,0.0022314484282611,-0.0022314506068233,0.0022314355209086,-0.0022314322909014,0.0022314538328735,-0.0022314451880652,0.00223144093699,-0.0016704678974393,0.0016705147844917,-0.0016705057823869,0.0016704763973538,-0.0016705037221513,0.0016704782408657,-0.0016704876663646,0.001670494600122,1.5278026957021e-09,1.5206969895215e-09,-0.00091885047738374,0.00091885349360137,-1.7419342095233e-08,2.1110330207569e-08,-0.0011195512935733,0.001119541319372,-0.0011195385173863,0.0011195541291971,-0.0011195512972018,0.0011195412977669,-0.0011195385009292,0.0011195541262653,-0.00090351969727146,0.00090353568557824,-0.00090351974662318,0.00090353571603446,0.6868829202751,128566,2924,0.0038255985920067,0.0081798878163362,0.0038255985767628,20.675639396087,-7.4594884831302e-05,-7.4594884831302e-05,-7.4594884831302e-05,4369492.8474597,0.015958597848387
26219200,0.99307236964864,0.016473005978999,0.004464298108318,0.0075444097728967,0.0044642980977838,-0.00091870223668573,0.0009187011635485,-5.3277610618618e-10,-5.3672033301101e-10,7.5650753519038e-09,-8.9327251919653e-09,-0.0011194799327495,0.0011194843861119,-0.0011194799852133,0.00111948441507,-0.001119485345341,0.0011194789228411,-0.0011194853461463,0.0011194789400511,-0.00090342836116745,0.00090342175958697,-0.00090342831415246,0.0009034217499115,-6.4029867861489e-09,1.0007386556857e-08,2.1123699323427e-08,-1.7832173285053e-08,-0.0019723660266912,0.0019723693547791,-0.0022315892660422,0.0022316000314754,-0.0022316022110739,0.0022315870835236,-0.0022315838552887,0.0022316054401188,-0.0022315967892284,0.0022315925034861,-0.0016705353618694,0.0016705823534709,-0.0016705732966293,0.0016705437907624,-0.0016705712717994,0.0016705457301063,-0.001670555211753,0.001670562113824,1.5337141181177e-09,1.5264946558888e-09,-0.00091870018109398,0.00091870321358686,-1.7460665662738e-08,2.1195217580943e-08,-0.0011194871659877,0.0011194771572468,-0.0011194743473114,0.001119490008872,-0.0011194871691947,0.0011194771356598,-0.001119474330352,0.0011194900058354,-0.00090341701566457,0.0009034330472585,-0.00090341706660142,0.00090343307712379,0.72524661483054,128566,2924,0.0038249801383569,0.0081803682899728,0.0038249801266987,20.53755787863,-7.5699536970962e-05,-7.5699536970962e-05,-7.5699536970962e-05,4362850.6228099,0.015957829759992
26419200,0.99325794864079,0.016476247489199,0.0044651915022783,0.0075458644951777,0.0044651914917425,-0.00091854387711811,0.0009185428032515,-5.3325625834691e-10,-5.3687546963951e-10,7.5682578018402e-09,-8.9374366641507e-09,-0.0011195159885696,0.0011195204439692,-0.001119516041156,0.0011195204733608,-0.0011195214036945,0.0011195149780477,-0.0011195214047299,0.0011195149956976,-0.00090336136351235,0.00090335475906178,-0.00090336131960276,0.00090335475275894,-6.4075506330794e-09,1.0010917651632e-08,2.1168488511265e-08,-1.7877564326093e-08,-0.0019725973304929,0.001972600658469,-0.0022317625876948,0.0022317733805375,-0.0022317755615986,0.0022317604016185,-0.0022317571743889,0.0022317787918742,-0.0022317701372428,0.0022317658244253,-0.0016707675745403,0.001670814656856,-0.0016708055877148,0.0016707759951387,-0.0016708035493709,0.0016707779690312,-0.0016707874829568,0.0016707943631839,1.5358478687787e-09,1.5283166210866e-09,-0.00091854181848841,0.00091854485622873,-1.7501646351659e-08,2.1246284142855e-08,-0.0011195232359735,0.0011195132006697,-0.0011195103866581,0.0011195260829022,-0.0011195232392326,0.001119513178929,-0.0011195103697309,0.0011195260797146,-0.0009033500000288,0.0009033660636601,-0.00090335005123026,0.00090336609414755,0.74502755816434,128566,2924,0.0038243312734531,0.0081813129303856,0.003824331261606,20.399178545421,-7.6806571636631e-05,-7.6806571636631e-05,-7.6806571636631e-05,4349767.1668831,0.015957473980262
26619200,0.99344114154437,0.016479418736806,0.0044660644703582,0.0075472898066272,0.0044660644598208,-0.00091899692989351,0.00091899585340135,-5.3502696289097e-10,-5.3835971846125e-10,7.5628722218439e-09,-8.9391710015797e-09,-0.0011202610067013,0.0011202654597129,-0.0011202610601524,0.001120265490904,-0.0011202664190758,0.0011202599943791,-0.0011202664225414,0.0011202600143004,-0.00090395910744302,0.00090395250597012,-0.00090395907941388,0.00090395251047816,-6.4142548029187e-09,1.0001658725191e-08,2.1127129056004e-08,-1.7848456466377e-08,-0.0019736240153753,0.0019736273373741,-0.0022326892582185,0.0022327000302004,-0.0022327022078364,0.0022326870709226,-0.0022326838461738,0.0022327054408989,-0.0022326967849996,0.0022326924932552,-0.0016717976247831,0.0016718446221112,-0.0016718354914933,0.001671805950932,-0.001671833554916,0.0016718079853786,-0.0016718174996709,0.0016718243947556,1.5381170417953e-09,1.5304635928598e-09,-0.00091899486624632,0.00091899791377266,-1.7447359730842e-08,2.1234498029462e-08,-0.0011202682410042,0.0011202582262399,-0.0011202554127861,0.0011202710866341,-0.0011202682437504,0.0011202582043859,-0.001120255395025,0.0011202710832431,-0.00090394775964092,0.00090396379354057,-0.00090394781296279,0.00090396382333466,0.73848440373779,128566,2924,0.0038262248000978,0.0081855384911245,0.0038262247933314,20.630080767719,-7.4959353858247e-05,-7.4959353858247e-05,-7.4959353858247e-05,4340744.8087129,0.015965619263855
26819200,0.99362415681045,0.016482510520299,0.0044669123312247,0.007548685868385,0.0044669123206893,-0.0009197870181346,0.00091978594413828,-5.334719703747e-10,-5.3658815786274e-10,7.5624515681891e-09,-8.9330895783041e-09,-0.0011213439549693,0.0011213484074602,-0.0011213440080834,0.0011213484372009,-0.001121349366815,0.0011213429443636,-0.0011213493680713,0.0011213429633116,-0.0009048989580453,0.00090489235764385,-0.00090489892283926,0.00090489236166028,-6.4039802873863e-09,1.00011383605e-08,2.1057616846083e-08,-1.7771471456216e-08,-0.0019750297567742,0.0019750330822165,-0.0022340224835291,0.0022340332092879,-0.0022340353859883,0.0022340203003132,-0.0022340170751459,0.002234038615726,-0.0022340299658774,0.0022340257193546,-0.0016731771747128,0.0016732240332373,-0.0016732149489246,0.0016731855598812,-0.0016732130024453,0.0016731875001565,-0.0016731969508189,0.0016732038879491,1.5307192769003e-09,1.5223856637535e-09,-0.0009197849633904,0.00091978799324434,-1.7389447433288e-08,2.1135453329834e-08,-0.0011213511683787,0.0011213411974368,-0.0011213383934545,0.0011213540050985,-0.0011213511721457,0.0011213411749319,-0.001121338376155,0.0011213540019693,-0.00090488764011157,0.00090490361329256,-0.00090488769360427,0.00090490364448874,0.72121905509835,128566,2924,0.0038295182854834,0.0081913293215552,0.0038295182737189,21.064970742774,-7.1480234057804e-05,-7.1480234057804e-05,-7.1480234057804e-05,4337460.6150156,0.015978199312321
27019200,0.99380689103735,0.016485513571108,0.0044677321067135,0.0075500493682177,0.0044677320961768,-0.00092058659922274,0.00092058552565556,-5.3358581456412e-10,-5.361524572553e-10,7.5580177011223e-09,-8.9277563138199e-09,-0.0011223751871975,0.001122379636328,-0.0011223752391945,0.0011223796659413,-0.0011223805956674,0.0011223741768702,-0.0011223805966082,0.0011223741951188,-0.00090582213217729,0.00090581553476686,-0.00090582209111836,0.00090581553234383,-6.3995146729254e-09,9.99899570678e-09,2.0981883334396e-08,-1.7694218988285e-08,-0.0019763752994214,0.0019763786252804,-0.0022353473733474,0.0022353580494474,-0.002235360225825,0.0022353451929946,-0.0022353419665531,0.0022353634542027,-0.0022353548081362,0.0022353506093781,-0.0016744659973776,0.0016745127062125,-0.0016745036375976,0.0016744743981835,-0.0016745017171533,0.0016744762755906,-0.0016744856727429,0.0016744926538218,1.5277537354772e-09,1.5191287164257e-09,-0.00092058454902101,0.00092058757049816,-1.7324472666105e-08,2.1054740767434e-08,-0.0011223823783659,0.0011223724490961,-0.0011223696514698,0.0011223852089517,-0.0011223823819326,0.0011223724268819,-0.0011223696347481,0.0011223852052997,-0.00090581084349797,0.00090582676494546,-0.00090581089430577,0.0009058267970164,0.70228506095348,128566,2924,0.00383284928751,0.0081968738982362,0.0038328492762943,21.504575061383,-6.7963399508935e-05,-6.7963399508935e-05,-6.7963399508935e-05,4337975.6905171,0.015990604227129
27219200,0.99398918575071,0.016488419077359,0.004468521118871,0.0075513768501555,0.0044685211083326,-0.0009213972295396,0.00092139615661368,-5.3343618344958e-10,-5.3560807345059e-10,7.5548588946529e-09,-8.9235178693603e-09,-0.0011233477256578,0.0011233521727095,-0.0011233477774808,0.0011233522024499,-0.0011233531316409,0.0011233467156802,-0.0011233531325463,0.0011233467340793,-0.00090672618215402,0.00090671958732828,-0.00090672613999505,0.00090671958453447,-6.3959450466809e-09,9.9953689613393e-09,2.0912641434924e-08,-1.7625167191182e-08,-0.0019776458723895,0.001977649197879,-0.002236649773171,0.0022366604056619,-0.0022366625809267,0.0022366475956047,-0.0022366443687544,0.0022366658080236,-0.002236657165601,0.0022366530095284,-0.0016756506216005,0.001675697192336,-0.0016756881313432,0.0016756590249361,-0.0016756862467366,0.0016756608579675,-0.0016756702086981,0.0016756772278413,1.5242532724471e-09,1.5152544208025e-09,-0.00092139518349937,0.00092139819729039,-1.726100744713e-08,2.0980682000017e-08,-0.0011233548964394,0.0011233450061072,-0.0011233422152457,0.0011233577202012,-0.0011233549000508,0.0011233449837709,-0.0011233421986738,0.0011233577163672,-0.00090671492135039,0.00090673079013344,-0.00090671497167746,0.00090673082271105,0.68191772876776,128566,2924,0.0038362236984194,0.0082021120036039,0.0038362236871873,21.944345991658,-6.4445232066736e-05,-6.4445232066736e-05,-6.4445232066736e-05,4342380.1374912,0.016002784710604
27419200,0.99416944797682,0.016491380808282,0.0044693295597498,0.0075527216993225,0.0044693295492097,-0.00092200352839617,0.00092200245606814,-5.3330273525428e-10,-5.3509599853048e-10,7.5549500962399e-09,-8.922091705311e-09,-0.0011240275668855,0.0011240320138519,-0.0011240276183594,0.0011240320431196,-0.0011240329727538,0.0011240265571672,-0.0011240329729955,0.0011240265754753,-0.00090738462520939,0.00090737802982391,-0.00090738457862861,0.00090737802469115,-6.3936249851455e-09,9.9954876258907e-09,2.0883094740202e-08,-1.7593882004158e-08,-0.0019785784688265,0.0019785817949959,-0.0022376670962231,0.002237677709003,-0.0022376798846258,0.0022376649199607,-0.0022376616925493,0.0022376831104586,-0.0022376744697694,0.0022376703332372,-0.0016764770580557,0.0016765235707201,-0.0016765145244122,0.0016764854789241,-0.0016765126418527,0.0016764872771132,-0.0016764966037263,0.0016765036412353,1.5224074420234e-09,1.5130064735925e-09,-0.00092200148519153,0.00092200449357331,-1.7235073741357e-08,2.0942139740388e-08,-0.001124034728541,0.001124024856775,-0.0011240220690322,0.0011240375493793,-0.0011240347325375,0.0011240248342167,-0.0011240220526152,0.0011240375455558,-0.00090737337607785,0.00090738922181797,-0.00090737342574082,0.00090738925465916,0.70214878675288,128566,2924,0.0038387464502746,0.0082059582629705,0.0038387464383165,22.252489314601,-6.1980085483193e-05,-6.1980085483193e-05,-6.1980085483193e-05,4348183.6907928,0.016011818847024
27619200,0.99434714998507,0.01649434491744,0.0044701404336623,0.0075540640606574,0.00447014042312,-0.00092253861617834,0.00092253754436717,-5.3313576148389e-10,-5.3457586578955e-10,7.555604846837e-09,-8.9216151013709e-09,-0.0011246947525014,0.0011246991994707,-0.001124694803666,0.0011246992287563,-0.0011247001584277,0.0011246937428079,-0.0011247001584237,0.0011246937609762,-0.00090799162243979,0.00090798502751965,-0.00090799157681134,0.00090798502406743,-6.3934463738372e-09,9.9961977286093e-09,2.0869870830125e-08,-1.7579943765962e-08,-0.0019794944592341,0.001979497785624,-0.0022386153821282,0.0022386259852833,-0.002238628161801,0.0022386132058877,-0.0022386099781501,0.0022386313869359,-0.0022386227466969,0.0022386186191586,-0.0016773192773555,0.0016773657644853,-0.0016773567218997,0.0016773277045109,-0.001677354845412,0.00167732949012,-0.0016773388054791,0.0016773458530161,1.5213076647072e-09,1.5115128725426e-09,-0.0009225365742284,0.00092253958016554,-1.7225109979949e-08,2.092742969866e-08,-0.0011247019107917,0.0011246920460624,-0.0011246892594943,0.0011247047304435,-0.0011247019148987,0.0011246920234627,-0.0011246892433548,0.0011247047264429,-0.00090798037827413,0.00090799621233737,-0.00090798042776211,0.00090799624630264,0.7125280739505,128566,2924,0.0038409750573863,0.0082097339655887,0.0038409750444834,22.519445253962,-5.98444379683e-05,-5.98444379683e-05,-5.98444379683e-05,4349283.8710108,0.016020185130991
27819200,0.99452222284965,0.016497313171728,0.0044709544549043,0.0075554042724638,0.0044709544443598,-0.00092306555083329,0.00092306447864549,-5.3353217479653e-10,-5.3463764401434e-10,7.5555702578937e-09,-8.9227037241143e-09,-0.001125388819817,0.001125393266866,-0.0011253888710985,0.001125393296569,-0.0011253942259021,0.0011253878097881,-0.0011253942261493,0.0011253878284012,-0.00090860471537846,0.00090859812001398,-0.00090860467189572,0.0009085981186792,-6.3953694774995e-09,9.9952050069951e-09,2.0863232178284e-08,-1.7575595426624e-08,-0.0019804387061918,0.0019804420313778,-0.0022395670765109,0.0022395776759693,-0.0022395798525964,0.0022395648996066,-0.0022395616722743,0.0022395830779351,-0.00223957443725,0.0022395703132152,-0.0016782030232774,0.0016782494968614,-0.0016782404438434,0.0016782114345796,-0.0016782385850761,0.001678213229564,-0.0016782225456265,0.0016782295964863,1.5221044010679e-09,1.5119685370985e-09,-0.00092306350785858,0.00092306651590019,-1.7215983188737e-08,2.0925940665998e-08,-0.0011253959759495,0.0011253861151677,-0.0011253833280903,0.0011253987959776,-0.0011253959800659,0.0011253860924081,-0.0011253833118818,0.0011253987918502,-0.00090859347328045,0.00090860930297209,-0.00090859352295183,0.00090860933699921,0.72383356699445,128566,2924,0.0038431710908754,0.0082136247703651,0.0038431710788916,22.785431622046,-5.7716547023632e-05,-5.7716547023632e-05,-5.7716547023632e-05,4348270.0146873,0.016028602988584
28019200,0.99469461059678,0.016500287385772,0.0044717722274951,0.0075567429413278,0.0044717722169491,-0.00092358381186092,0.00092358273913594,-5.3400635226294e-10,-5.3476006281825e-10,7.5558619520837e-09,-8.9240358984173e-09,-0.0011261093832904,0.0011261138304946,-0.001126109434566,0.001126113860443,-0.0011261147898873,0.0011261083728375,-0.0011261147901756,0.0011261083917499,-0.00090922503302008,0.00090921843630499,-0.00090922498945562,0.00090921843545614,-6.3964089148042e-09,9.995663187998e-09,2.0866299369054e-08,-1.7579083531418e-08,-0.0019814139947249,0.0019814173196792,-0.0022405249332293,0.0022405355343507,-0.002240537711296,0.002240522755464,-0.0022405195285812,0.0022405409368819,-0.0022405322955409,0.0022405281696857,-0.0016791310360342,0.0016791775160352,-0.0016791684586086,0.0016791394430235,-0.0016791666024074,0.001679141242799,-0.0016791505625612,0.0016791576127162,1.5229361914072e-09,1.5124473396304e-09,-0.00092358176792699,0.00092358477752063,-1.7217404618813e-08,2.0930797243735e-08,-0.0011261165399959,0.0011261066780778,-0.0011261038900255,0.00112611936098,-0.0011261165442061,0.0011261066551583,-0.0011261038738745,0.0011261193567131,-0.00090921378907446,0.00090922962170049,-0.00090921383834957,0.0009092296558082,0.73612509997411,128566,2924,0.0038453324271284,0.0082176421032564,0.0038453324155057,23.051383555315,-5.5588931557479e-05,-5.5588931557479e-05,-5.5588931557479e-05,4345199.5747426,0.016037079683865
28219200,0.99486359294291,0.016503257770088,0.0044725911444094,0.0075580754918162,0.004472591133862,-0.00092397752000604,0.00092397644781558,-5.3383805486019e-10,-5.3418835077378e-10,7.5581034072779e-09,-8.9247062180571e-09,-0.001126732102998,0.0011267365511038,-0.0011267321537762,0.0011267365808561,-0.0011267375108213,0.0011267310926685,-0.0011267375105196,0.0011267311111477,-0.00090973208844933,0.00090972549032135,-0.00090973204180338,0.00090972548786695,-6.396346016961e-09,9.9991530765607e-09,2.0889532202072e-08,-1.7599570231328e-08,-0.0019822840745098,0.0019822874007641,-0.0022413535887103,0.0022413642024811,-0.0022413663810908,0.0022413514099132,-0.0022413481827652,0.0022413696061673,-0.0022413609641237,0.0022413568250917,-0.0016799701602551,0.0016800166879999,-0.0016800076430826,0.001679978589562,-0.0016800057569406,0.001679980383319,-0.0016799897119613,0.0016799967524546,1.5232219772208e-09,1.512347113809e-09,-0.00092397547643728,0.00092397848521306,-1.7243330426709e-08,2.0948790166592e-08,-0.0011267392669966,0.0011267293921789,-0.0011267266024607,0.0011267420897852,-0.0011267392713458,0.0011267293692221,-0.0011267265867027,0.0011267420852974,-0.00090972083547324,0.00090973668470919,-0.00090972088379662,0.00090973671990977,0.74948917476343,128566,2924,0.0038469776643792,0.0082212233980549,0.0038469776514338,23.251142430807,-5.3990860553547e-05,-5.3990860553547e-05,-5.3990860553547e-05,4338863.448298,0.016044065188782
28419200,0.99502907801333,0.016506225301283,0.0044734116189769,0.0075594020738797,0.0044734116084269,-0.00092434322287032,0.0009243421504549,-5.3416535032845e-10,-5.3414447924362e-10,7.5592101098568e-09,-8.9263844248479e-09,-0.0011273573874886,0.0011273618361993,-0.0011273574384286,0.0011273618665002,-0.0011273627961885,0.0011273563769631,-0.0011273627960445,0.0011273563957224,-0.00091022724595276,0.00091022064691427,-0.00091022720069441,0.00091022064582171,-6.3988558401111e-09,9.9998705625832e-09,2.0915003669347e-08,-1.7626432757814e-08,-0.0019831629979397,0.0019831663235315,-0.0022421657134513,0.002242176343844,-0.0022421785230458,0.002242163533548,-0.0022421603064435,0.0022421817486877,-0.0022421731051234,0.0022421689498378,-0.0016808331103625,0.0016808796889001,-0.001680870637046,0.0016808415300696,-0.0016808687440436,0.0016808433476844,-0.0016808526965412,0.0016808597210506,1.5251623851228e-09,1.5139682377177e-09,-0.00092434117724881,0.00092434419015587,-1.7265887970915e-08,2.0979205892534e-08,-0.0011273645589604,0.0011273546696642,-0.0011273518767993,0.0011273673848531,-0.0011273645633588,0.0011273546467053,-0.0011273518611508,0.0011273673802872,-0.00091021598265275,0.00091023185109483,-0.0009102160308127,0.00091023188657898,0.76402417035681,128566,2924,0.0038485078818769,0.0082248394847499,0.0038485078694683,23.441750318124,-5.246599745501e-05,-5.246599745501e-05,-5.246599745501e-05,4330427.2523537,0.016050852948716
28619200,0.99519107102862,0.016509149871019,0.0044742209047421,0.007560708072087,0.0044742208941904,-0.0009246912495291,0.00092469017664032,-5.3457613125731e-10,-5.342539338153e-10,7.5603286092444e-09,-8.928426833689e-09,-0.0011279976995461,0.0011280021490554,-0.0011279977505909,0.0011280021794625,-0.0011280031093316,0.0011279966885253,-0.0011280031091745,0.0011279967077376,-0.00091072099122361,0.00091071439020575,-0.00091072094660057,0.00091071439076026,-6.4005687521946e-09,1.0000155665991e-08,2.0941480149215e-08,-1.7653996194005e-08,-0.0019840682850246,0.001984071610035,-0.0022429787761354,0.0022429894237692,-0.0022429916032303,0.0022429765948916,-0.0022429733686743,0.002242994829113,-0.0022429861845773,0.0022429820119482,-0.001681736338443,0.0016817829690269,-0.0016817739101058,0.0016817447503918,-0.0016817720085915,0.001681746591131,-0.0016817559595915,0.0016817629685772,1.5270224133848e-09,1.5154379682081e-09,-0.0009246892018404,0.00092469221863869,-1.7288644522954e-08,2.100933230776e-08,-0.0011280048786477,0.0011279949746582,-0.0011279921788892,0.0011280077073481,-0.0011280048832233,0.0011279949513677,-0.0011279921630971,0.0011280077027236,-0.00091070971705113,0.00091072560569179,-0.00091070976546764,0.00091072564102398,0.76896079919833,128566,2924,0.0038499661031567,0.0082285624999627,0.0038499660912387,23.632132031978,-5.0942943744174e-05,-5.0942943744174e-05,-5.0942943744174e-05,4320072.5416785,0.016057603711443
28819200,0.99534960240189,0.016511938364828,0.0044749894909392,0.0075619593935032,0.004474989480386,-0.00092502591656992,0.00092502484342516,-5.3491913930071e-10,-5.3423347312148e-10,7.5607869531945e-09,-8.9294824916746e-09,-0.0011286261162313,0.0011286305659578,-0.0011286261673662,0.001128630596914,-0.0011286315265087,0.0011286251051101,-0.0011286315265012,0.0011286251245105,-0.0009112026188384,0.00091119601692634,-0.00091120257402004,0.00091119601740384,-6.4019264277186e-09,1.0000884775835e-08,2.096599661143e-08,-1.7678983029027e-08,-0.0019849667178025,0.0019849700425954,-0.0022437848542555,0.0022437955175152,-0.0022437976972366,0.0022437826718894,-0.0022437794460633,0.0022438009237371,-0.0022437922780706,0.002243788089656,-0.0016826320364718,0.0016826787158895,-0.0016826696528404,0.001682640444288,-0.0016826677396041,0.0016826423033247,-0.0016826516895458,0.0016826586837557,1.5285590550113e-09,1.5166387284214e-09,-0.00092502386736065,0.00092502688716259,-1.7311229201154e-08,2.1036904952733e-08,-0.0011286333026901,0.0011286233842922,-0.0011286205861691,0.0011286361337451,-0.0011286333072399,0.0011286233609519,-0.0011286205705443,0.0011286361288889,-0.0009111913352262,0.0009112072428212,-0.0009111913829226,0.00091120727830173,0.74978435318602,128566,2924,0.0038513691437736,0.0082322566795378,0.0038513691323147,23.824730340967,-4.9402157272264e-05,-4.9402157272264e-05,-4.9402157272264e-05,4309757.3899678,0.016064213012599
29019200,0.99550581706236,0.016514540313524,0.0044757006039792,0.0075631391161198,0.0044757005934247,-0.0009255718047944,0.00092557073150662,-5.3518378972502e-10,-5.3410544438159e-10,7.5586421776626e-09,-8.9282279349417e-09,-0.001129406562768,0.0011294110109534,-0.0011294066131427,0.0011294110421952,-0.00112941197098,0.0011294055509726,-0.001129411971874,0.0011294055708689,-0.00091187111701064,0.00091186451836789,-0.00091187107863403,0.000911864522387,-6.4033499174672e-09,9.999046217237e-09,2.0965664181115e-08,-1.7681141529616e-08,-0.0019860264538453,0.0019860297773746,-0.002244808860171,0.0022448195237021,-0.0022448217027195,0.0022448066772281,-0.0022448034518705,0.0022448249298797,-0.0022448162839741,0.0022448120945119,-0.0016836501282061,0.0016836968081335,-0.0016836877325043,0.0016836585184866,-0.0016836858342419,0.0016836603959933,-0.0016836697865581,0.0016836767781536,1.5288668366253e-09,1.5166529747477e-09,-0.00092556975463704,0.00092557277636862,-1.7308591339445e-08,2.1042628328015e-08,-0.0011294137487265,0.0011294038289642,-0.0011294010303813,0.0011294165801008,-0.0011294137529907,0.0011294038057653,-0.0011294010148776,0.0011294165746547,-0.00091185983599215,0.00091187573950395,-0.00091185988342241,0.0009118757773664,0.711302541644,128566,2924,0.0038536472868694,0.0082366196683648,0.0038536472758081,24.140686321886,-4.687450942491e-05,-4.687450942491e-05,-4.687450942491e-05,4306133.1779745,0.016073278874507
29219200,0.99565966632868,0.016517042713053,0.0044763819955488,0.0075642787325111,0.0044763819849934,-0.00092614866488846,0.00092614759204032,-5.3508120519346e-10,-5.3366169704588e-10,7.5587716006941e-09,-8.9273540961662e-09,-0.0011300839422697,0.001130088390665,-0.0011300839931323,0.001130088421918,-0.0011300893511472,0.0011300829311479,-0.0011300893510419,0.0011300829509027,-0.00091251364908578,0.00091250704872002,-0.0009125136056932,0.00091250705165482,-6.4003791721626e-09,9.9985020087445e-09,2.0966134352752e-08,-1.767983925587e-08,-0.0019869501793077,0.0019869535035371,-0.0022457940360342,0.0022458047004174,-0.0022458068789325,0.0022457918541818,-0.0022457886292289,0.0022458101051561,-0.0022458014610816,0.0022457972706262,-0.001684480041869,0.0016845267207649,-0.0016845176566993,0.0016844884450395,-0.0016845157434674,0.0016844903102973,-0.001684499697868,0.0016845066873268,1.5285332639683e-09,1.5158772933867e-09,-0.00092614661579638,0.00092614963550647,-1.7311198439624e-08,2.103792657552e-08,-0.0011300911283088,0.0011300812095303,-0.0011300784113467,0.0011300939594179,-0.0011300911330553,0.0011300811859139,-0.0011300783959405,0.0011300939542441,-0.00091250236699511,0.00091251827233029,-0.0009125024144215,0.00091251830915512,0.69516967884831,128566,2924,0.0038560492542886,0.0082404270419037,0.0038560492425136,24.459438335814,-4.4324493313486e-05,-4.4324493313486e-05,-4.4324493313486e-05,4310205.6727513,0.016082029037276
29419200,0.99581107794246,0.016519342202893,0.0044770005783929,0.0075653410566636,0.0044770005678362,-0.00092673988802368,0.00092673881538064,-5.351679864339e-10,-5.3337996771663e-10,7.5579907537782e-09,-8.9261540112986e-09,-0.0011307164062517,0.0011307208540204,-0.0011307164569426,0.0011307208852979,-0.0011307218144654,0.0011307153951556,-0.001130721814189,0.0011307154150054,-0.00091313849603947,0.00091313189598083,-0.00091313845134201,0.00091313189851249,-6.3992630743175e-09,9.9974191889416e-09,2.0964361371092e-08,-1.7678136873406e-08,-0.0019878085489335,0.0019878118729849,-0.0022467552823236,0.0022467659459898,-0.0022467681241945,0.0022467531010284,-0.0022467498761697,0.0022467713500699,-0.0022467627070044,0.0022467585167647,-0.001685221484848,0.0016852681594675,-0.0016852590986659,0.0016852298897169,-0.0016852571825464,0.0016852317524326,-0.0016852411385229,0.0016852481268284,1.5286031075736e-09,1.5155627602161e-09,-0.00092673783932219,0.00092674085847855,-1.7310336898149e-08,2.1035438910083e-08,-0.0011307235915148,0.0011307136737051,-0.0011307108757295,0.001130726422442,-0.0011307235964104,0.0011307136499648,-0.0011307108604401,0.0011307264171433,-0.00091312721489665,0.00091314311905798,-0.00091312726186597,0.00091314315617536,0.6508985846128,128566,2924,0.0038585082188393,0.0082439679812714,0.003858508207107,24.778289018644,-4.1773687850848e-05,-4.1773687850848e-05,-4.1773687850848e-05,4317542.8612585,0.016090623410962
29619200,0.99595990112329,0.016521569758674,0.0044775983947335,0.0075663729797653,0.0044775983841755,-0.0009273471459305,0.00092734607350012,-5.352394548425e-10,-5.3307020022755e-10,7.5574085191809e-09,-8.9252010202353e-09,-0.0011312179653632,0.0011312224126554,-0.001131218015906,0.0011312224439969,-0.0011312233730778,0.0011312169543233,-0.0011312233726009,0.0011312169742584,-0.00091371163324745,0.00091370503341392,-0.00091371158772411,0.00091370503609952,-6.3982505385439e-09,9.996711986252e-09,2.0963532785993e-08,-1.7677149901969e-08,-0.0019884960199325,0.0019884993439293,-0.0022476520147922,0.0022476626781279,-0.0022476648561072,0.0022476498338755,-0.0022476466091869,0.0022476680816508,-0.0022476594394284,0.0022476552490693,-0.0016857373753462,0.0016857840479055,-0.0016857749897881,0.0016857457824087,-0.0016857730707932,0.0016857476430801,-0.0016857570280291,0.0016857640153275,1.5285227182243e-09,1.5151123356321e-09,-0.00092734509762823,0.00092734811611212,-1.7310108417952e-08,2.1033505146519e-08,-0.0011312251501574,0.0011312152328697,-0.0011312124351671,0.0011312279808381,-0.0011312251552017,0.0011312152090016,-0.00113121242001,0.0011312279754242,-0.00091370035284028,0.00091371625574531,-0.00091370039949079,0.00091371629328802,0.64191387120313,128566,2924,0.0038610282455071,0.0082468103570527,0.0038610282335903,25.087901402017,-3.9296788783867e-05,-3.9296788783867e-05,-3.9296788783867e-05,4332970.078885,0.016098629068953
29819200,0.99610558526542,0.016523879005716,0.004478224540708,0.0075674299348595,0.0044782245301488,-0.0009278768734918,0.00092787580175684,-5.3501838686987e-10,-5.324422035979e-10,7.5582673033831e-09,-8.9244093934778e-09,-0.0011316159305603,0.0011316203780416,-0.0011316159807012,0.0011316204091212,-0.0011316213384891,0.0011316149197812,-0.0011316213374219,0.0011316149394545,-0.00091418945071084,0.00091418285047865,-0.00091418940225855,0.00091418285206004,-6.3968405960284e-09,9.9981774212487e-09,2.097239176071e-08,-1.7683881403327e-08,-0.0019890506778163,0.0019890540026926,-0.0022484307234547,0.0022484413913107,-0.00224844357001,0.0022484285425461,-0.0022484253176981,0.0022484467947644,-0.0022484381531255,0.0022484339576818,-0.0016861202862392,0.0016861669766999,-0.0016861579305869,0.00168612871091,-0.0016861559916672,0.0016861305613873,-0.0016861399470414,0.0016861469301998,1.5280638606171e-09,1.5142708946904e-09,-0.00092787482642322,0.00092787784267265,-1.7321695886787e-08,2.1036594614083e-08,-0.0011316231181248,0.001131613196037,-0.0011316103984524,0.0011316259488253,-0.0011316231233808,0.0011316131720549,-0.0011316103835629,0.001131625943296,-0.00091417816741958,0.00091419407585374,-0.0009141782134561,0.0009141941140956,0.67837704570324,128566,2924,0.0038632249261767,0.0082491062209952,0.0038632249132746,25.340089899117,-3.7279280807064e-05,-3.7279280807064e-05,-3.7279280807064e-05,4348150.4966104,0.01610542199162
30019200,0.99624810194322,0.016526173214498,0.0044788479489172,0.007568477327224,0.0044788479383565,-0.00092838790033491,0.00092838682793445,-5.3559951411132e-10,-5.3270467508923e-10,7.5575093581389e-09,-8.9253467122551e-09,-0.0011321415008048,0.0011321459479835,-0.0011321415512072,0.0011321459796592,-0.0011321469085515,0.0011321404896352,-0.0011321469078875,0.0011321405098597,-0.00091470503524476,0.0009146984347196,-0.0009147049888231,0.00091469843787312,-6.3985190253418e-09,9.9965610905677e-09,2.0976291186762e-08,-1.7690400418822e-08,-0.0019897480193018,0.0019897513428811,-0.0022492465823843,0.0022492572539464,-0.0022492594321376,0.0022492444008943,-0.002249241176741,0.0022492626575521,-0.0022492540154106,0.002249249816194,-0.0016867027883141,0.0016867494860133,-0.0016867404274537,0.0016867111940467,-0.0016867385005389,0.0016867130634542,-0.0016867224577112,0.0016867294361492,1.5294679122206e-09,1.515328631943e-09,-0.00092838585152303,0.00092838887114573,-1.73223587903e-08,2.1047452002803e-08,-0.0011321486893161,0.0011321387644755,-0.0011321359656983,0.0011321515210815,-0.0011321486945914,0.0011321387403565,-0.0011321359507526,0.0011321515154102,-0.00091469375011634,0.00091470966223893,-0.00091469379606339,0.00091470970041604,0.68873091187871,128566,2924,0.0038653487415245,0.0082519854943774,0.0038653487297971,25.590972989691,-3.5272216082474e-05,-3.5272216082474e-05,-3.5272216082474e-05,4354605.2548182,0.01611266310148
30219200,0.99638743724896,0.016528318987577,0.0044794263823262,0.0075694662334865,0.0044794263717644,-0.00092888696640323,0.00092888589401077,-5.3575092169548e-10,-5.3250070420557e-10,7.5575657740111e-09,-8.9254865706884e-09,-0.0011327002760613,0.0011327047231981,-0.0011327003263728,0.0011327047550326,-0.0011327056838638,0.0011326992647918,-0.0011327056831177,0.0011326992851772,-0.00091522430493504,0.00091521770416902,-0.00091522425881476,0.00091521770830091,-6.3987282331859e-09,9.996488899126e-09,2.0979679966119e-08,-1.7694006329664e-08,-0.0019904810617447,0.0019904843851583,-0.0022500672543486,0.002250077928065,-0.0022500801063472,0.0022500650726021,-0.0022500618486664,0.0022500833317242,-0.0022500746895712,0.0022500704879673,-0.0016873343653131,0.0016873810697166,-0.0016873720098805,0.0016873427693584,-0.0016873700824507,0.0016873446425658,-0.0016873540396364,0.0016873610157539,1.5296769320668e-09,1.5151802396555e-09,-0.00092888491743044,0.00092888793735977,-1.7325386579274e-08,2.1051410828509e-08,-0.001132707465558,0.0011326975387249,-0.0011326947396323,0.0011327102976372,-0.0011327074709451,0.0011326975144733,-0.001132694724788,0.0011327102918335,-0.00091521301873685,0.0009152289324978,-0.00091521306451134,0.00091522897114899,0.660083137671,128566,2924,0.0038674243672107,0.0082550104182457,0.0038674243554373,25.841809952097,-3.3265520383222e-05,-3.3265520383222e-05,-3.3265520383222e-05,4358476.14236,0.016119955463565
30419200,0.99652387463677,0.016530304753559,0.0044799562061063,0.0075703923519098,0.0044799561955434,-0.00092945889333815,0.00092945782078293,-5.36002160024e-10,-5.324363571202e-10,7.5569682874311e-09,-8.9254883448695e-09,-0.0011332424132394,0.0011332468600142,-0.0011332424635741,0.0011332468921501,-0.0011332478207191,0.0011332414018161,-0.0011332478200466,0.0011332414224338,-0.0009157771890906,0.0009157705885133,-0.00091577714425537,0.00091577059425665,-6.3991655344737e-09,9.9954496728148e-09,2.0973682275227e-08,-1.7689168911914e-08,-0.0019911818759519,0.001991185198695,-0.0022509252730949,0.0022509359433397,-0.0022509381214495,0.0022509230910833,-0.0022509198676584,0.0022509413468511,-0.0022509327049376,0.0022509285062672,-0.0016878928487012,0.0016879395404647,-0.0016879304749685,0.0016879012439001,-0.0016879285582198,0.0016879031212004,-0.0016879125169801,0.001687919495738,1.5298700967907e-09,1.5149988768509e-09,-0.00092945684409621,0.00092945986456119,-1.7318970187055e-08,2.1048544593004e-08,-0.0011332496010566,0.0011332396769966,-0.0011332368781969,0.0011332524327382,-0.0011332496064943,0.0011332396526048,-0.0011332368634134,0.0011332524267874,-0.00091576590515381,0.00091578181448026,-0.00091576595082305,0.00091578185332225,0.62526528536038,128566,2924,0.0038697993407501,0.0082579064247454,0.0038697993293209,26.12979977971,-3.0961601762322e-05,-3.0961601762322e-05,-3.0961601762322e-05,4368679.4092918,0.016127723322318
30619200,0.99665820496205,0.016532383479155,0.0044805172853419,0.0075713489190352,0.004480517274778,-0.00093024293063579,0.00093024185746084,-5.3653270221519e-10,-5.3263462420362e-10,7.5545227593039e-09,-8.9250341689796e-09,-0.0011338949896067,0.0011338994350011,-0.00113389504051,0.0011338994682849,-0.0011339003959719,0.0011338939781874,-0.0011339003956021,0.0011338939990724,-0.00091650198013638,0.00091649538038345,-0.00091650193848599,0.00091649538939334,-6.3998520617949e-09,9.9919182078751e-09,2.0949158501353e-08,-1.7667934082271e-08,-0.0019919859787549,0.0019919892997569,-0.0022519676880744,0.002251978344297,-0.0022519805214153,0.0022519655060935,-0.0022519622836977,0.0022519837472484,-0.0022519751062318,0.0022519709204291,-0.001688510326983,0.0016885569680205,-0.0016885478866058,0.0016885186949654,-0.0016885460045191,0.0016885205812144,-0.001688529969165,0.0016885369582934,1.5300530752487e-09,1.5149299051891e-09,-0.00093024088068325,0.00093024390254642,-1.7290045228634e-08,2.1029961438343e-08,-0.00113390216933,0.0011338922596111,-0.0011338894623082,0.0011339049992161,-0.0011339021745741,0.001133892235203,-0.0011338894476025,0.0011339049931889,-0.00091649070587809,0.0009165065971264,-0.00091649075175216,0.00091650663518198,0.66318231366753,128566,2924,0.0038730512846958,0.0082612341216459,0.0038730512745416,26.52415240929,-2.7806780725683e-05,-2.7806780725683e-05,-2.7806780725683e-05,4387519.1636073,0.016137709908068
30819200,0.99679034784473,0.016534521311189,0.0044810983539429,0.0075723246138675,0.0044810983433786,-0.00093101418024512,0.00093101310818542,-5.36062529904e-10,-5.3177540304914e-10,7.5548762159565e-09,-8.9227522876895e-09,-0.0011346957612256,0.001134700206563,-0.0011346958111492,0.0011347002387521,-0.0011347011670721,0.0011346947499614,-0.0011347011660621,0.0011346947707681,-0.00091727837652602,0.0009172717773362,-0.00091727833073323,0.00091727178378218,-6.3966096708477e-09,9.9930822603141e-09,2.0930090702037e-08,-1.7645551401694e-08,-0.001992961835299,0.0019929651578567,-0.002253066665983,0.0022530773085857,-0.0022530794859723,0.0022530644855763,-0.0022530612621261,0.0022530827104774,-0.002253074071026,0.0022530698991533,-0.0016893618822364,0.0016894084872748,-0.0016893994269583,0.0016893702795673,-0.0016893975321228,0.001689372128653,-0.0016893814953651,0.0016893884976684,1.5276606793788e-09,1.5121145417921e-09,-0.0009310121337929,0.00093101514900115,-1.7278556845361e-08,2.1000856391133e-08,-0.0011347029358132,0.0011346930367957,-0.0011346902423377,0.0011347057632206,-0.0011347029415134,0.0011346930121704,-0.0011346902277927,0.0011347057570331,-0.00091726711062303,0.00091728298500625,-0.00091726715581234,0.00091728302486043,0.69236329293179,128566,2924,0.0038762555004007,0.0082652644854793,0.0038762554886056,26.92093095921,-2.4632552326322e-05,-2.4632552326322e-05,-2.4632552326322e-05,4396853.5010097,0.016148317257529
31019200,0.99692020705686,0.016536684279351,0.0044816887504003,0.0075733067891159,0.004481688739835,-0.00093176722007448,0.00093176614811631,-5.3622477463871e-10,-5.3157072670088e-10,7.5543663622031e-09,-8.9220356324652e-09,-0.0011355911428045,0.001135595587713,-0.0011355911925705,0.0011355956199863,-0.001135596548269,0.0011355901315304,-0.0011355965471031,0.0011355901524044,-0.00091808536426258,0.00091807876503125,-0.00091808531716369,0.00091807877090268,-6.3960140446319e-09,9.9924208018742e-09,2.0913496905613e-08,-1.7629087859938e-08,-0.0019940551581017,0.0019940584804764,-0.002254199016842,0.002254209648703,-0.002254211826072,0.0022541968368025,-0.0022541936133955,0.0022542150501694,-0.0022542064115397,0.0022542022499673,-0.0016903753336691,0.0016904219057774,-0.001690412847983,0.0016903837325328,-0.0016904109608085,0.0016903855695202,-0.0016903949250991,0.0016904019368947,1.5271121926347e-09,1.5112118584121e-09,-0.00093176517459829,0.00093176818801598,-1.7263310271545e-08,2.0982852575534e-08,-0.001135598312419,0.0011355884229554,-0.0011355856299872,0.001135601138341,-0.0011355983182312,0.001135588398229,-0.0011355856155763,0.0011356011320335,-0.00091807410468541,0.00091808996688158,-0.00091807414932481,0.00091809000691451,0.71215833239418,128566,2924,0.0038793880139067,0.008269774919308,0.0038793880022334,27.317795362081,-2.1457637103354e-05,-2.1457637103354e-05,-2.1457637103354e-05,4399482.312323,0.016159269319441
31219200,0.99704880793263,0.016538930197215,0.0044823060914124,0.0075743180249563,0.0044823060808461,-0.00093276557735905,0.00093276450402228,-5.3721343255354e-10,-5.3231812608617e-10,7.551020658265e-09,-8.9224740923058e-09,-0.0011368200028445,0.0011368244462882,-0.0011368200532973,0.001136824479587,-0.0011368254068255,0.001136818990862,-0.0011368254066927,0.001136819012966,-0.00091918598292259,0.00091917938477759,-0.00091918594256736,0.00091917939585968,-6.3982638969593e-09,9.9862104150678e-09,2.0875255623094e-08,-1.7597378060768e-08,-0.0019955332472773,0.001995536566461,-0.0022556606380304,0.0022556712491366,-0.0022556734241454,0.0022556584585089,-0.0022556552362171,0.0022556766493996,-0.0022556680112223,0.002255663870759,-0.0016917992205673,0.0016918457146212,-0.0016918366275637,0.0016918075699457,-0.0016918348009817,0.0016918094278596,-0.0016918187732041,0.001691825800492,1.5278558378875e-09,1.5116886692655e-09,-0.00093276352997678,0.00093276654711305,-1.7217241581559e-08,2.0956809849764e-08,-0.0011368271597964,0.001136817292736,-0.0011368145011397,0.0011368299840371,-0.0011368271655582,0.0011368172678121,-0.0011368144863369,0.0011368299777238,-0.0009191747380012,0.00091919057167056,-0.00091917478368253,0.00091919061094834,0.74546030817349,128566,2924,0.0038835424317296,0.008275870301084,0.0038835424227993,27.867457878734,-1.7060336970126e-05,-1.7060336970126e-05,-1.7060336970126e-05,4400965.0442647,0.016173910742712
31419200,0.99717610372551,0.016541051134092,0.004482884322265,0.0075752825001282,0.0044828843116988,-0.00093375386261744,0.00093375279040476,-5.3666982110535e-10,-5.3139977533365e-10,7.5512848496224e-09,-8.9200008542145e-09,-0.0011381534057277,0.0011381578488326,-0.0011381534553767,0.0011381578814072,-0.0011381588093916,0.0011381523941598,-0.0011381588082882,0.0011381524155968,-0.00092032847268163,0.0009203218747885,-0.00092032842765865,0.00092032188376511,-6.3943846078219e-09,9.9878365994478e-09,2.0848646302637e-08,-1.7566440431774e-08,-0.0019971541351901,0.001997157456318,-0.0022571859307188,0.0022571965222833,-0.0022571986981225,0.0022571837522231,-0.0022571805294476,0.002257201921658,-0.002257193285678,0.0022571891634787,-0.0016933981252992,0.0016934445674474,-0.0016934355025594,0.0016934065077971,-0.0016934336662032,0.0016934083205269,-0.0016934176379262,0.0016934246850743,1.5249248010573e-09,1.5083466349561e-09,-0.00093375181921003,0.00093375482850672,-1.7198656014217e-08,2.091843416353e-08,-0.0011381605552872,0.001138150703615,-0.0011381479156821,0.0011381633760841,-0.001138160561304,0.001138150678567,-0.0011381479013049,0.0011381633695627,-0.00092031723864602,0.00092033305057901,-0.00092031728341541,0.00092033309105908,0.71242631336931,128566,2924,0.0038876593365099,0.0082825496508814,0.0038876593254218,28.43558196084,-1.2515344313283e-05,-1.2515344313283e-05,-1.2515344313283e-05,4396616.1412041,0.01618907193545
31619200,0.99730190836936,0.016543050264914,0.0044834249891054,0.0075762002972704,0.0044834249785383,-0.00093474224816921,0.00093474117629735,-5.3668074179195e-10,-5.3100723666959e-10,7.5508686832882e-09,-8.9187262786813e-09,-0.0011393663680421,0.0011393708105805,-0.0011393664173689,0.0011393708431386,-0.0011393717712424,0.0011393653565744,-0.0011393717698764,0.0011393653779337,-0.0009214250772467,0.00092141847936466,-0.00092142502954992,0.00092141848668902,-6.3933371795848e-09,9.9880955921828e-09,2.08275358339e-08,-1.7544437325718e-08,-0.0019986370991054,0.0019986404205648,-0.0022586662236489,0.0022586768009613,-0.0022586789772098,0.0022586640458001,-0.0022586608224975,0.0022586822000781,-0.0022586735650016,0.0022586694566695,-0.0016948056931777,0.0016948520940093,-0.001694843037439,0.0016948140856616,-0.0016948412046026,0.0016948158753397,-0.0016948251764608,0.0016948322370247,1.5239048133533e-09,1.5069885017117e-09,-0.00093474020647171,0.00093474321258098,-1.7181811626567e-08,2.0894264078783e-08,-0.0011393735116253,0.0011393636717264,-0.0011393608856829,0.001139376330651,-0.001139373517704,0.0011393636465953,-0.0011393608715102,0.0011393763239393,-0.00092141385096903,0.00092142964828608,-0.00092141389476495,0.00092142968915586,0.68057768144056,128566,2924,0.0038917729167705,0.0082886639826013,0.0038917729054419,29.004169881937,-7.9666409445015e-06,-7.9666409445015e-06,-7.9666409445015e-06,4399711.0012659,0.016203649546629
31819200,0.99742390907178,0.016544922312166,0.0044839281173816,0.0075770660879712,0.0044839281068134,-0.00093522080941874,0.00093521973916998,-5.3603131181174e-10,-5.2982888778797e-10,7.5568948164863e-09,-8.919683864663e-09,-0.0011399152851934,0.0011399197304415,-0.0011399153334904,0.0011399197619551,-0.0011399206916632,0.0011399142745094,-0.0011399206885156,0.0011399142945071,-0.0009219355970995,0.0009219289943535,-0.00092193553570489,0.00092192899221383,-6.3909750878039e-09,9.9969512697068e-09,2.0875067531251e-08,-1.758345684711e-08,-0.0019993700888147,0.0019993734143282,-0.0022594849452192,0.0022594955477322,-0.0022594977277403,0.0022594827665152,-0.0022594795415858,0.0022595009489349,-0.0022594923130499,0.0022594881792001,-0.0016954343294416,0.0016954808284554,-0.0016954718152579,0.0016954427920209,-0.0016954698987948,0.0016954445458241,-0.0016954538580234,0.0016954609003231,1.5236004040737e-09,1.5062257527154e-09,-0.0009352187705455,0.00093522177131083,-1.7235786309206e-08,2.0919280629997e-08,-0.0011399224431942,0.0011399125791876,-0.0011399097914023,0.0011399252645404,-0.0011399224497102,0.0011399125540718,-0.0011399097780193,0.0011399252576961,-0.00092192435275861,0.00092194018456413,-0.00092192439383806,0.00092194022630949,0.65805654408025,128566,2924,0.0038937642159995,0.0082916874498134,0.0038937642018256,29.266112950979,-5.8710963921667e-06,-5.8710963921667e-06,-5.8710963921667e-06,4403740.8099003,0.016210769764219
32019200,0.99754050006016,0.016546880113372,0.0044844626695013,0.0075779547849397,0.0044844626589305,-0.00093530831978057,0.00093530724817387,-5.3699100384491e-10,-5.3050480884947e-10,7.5606845685851e-09,-8.9262715661191e-09,-0.0011399517451487,0.001139956193017,-0.0011399517938616,0.0011399562251412,-0.0011399571546753,0.0011399507334072,-0.0011399571521626,0.0011399507542909,-0.00092199804917284,0.00092199144236116,-0.00092199799012541,0.00092199144162818,-6.3983362693366e-09,1.0000342879331e-08,2.0953872895802e-08,-1.7665437284311e-08,-0.001999517553357,0.0019995208775493,-0.0022597691974457,0.0022597798506803,-0.0022597820324618,0.0022597670150526,-0.0022597637905266,0.0022597852555282,-0.0022597766143724,0.0022597724315489,-0.0016954729641101,0.0016955196210407,-0.0016955105869718,0.0016954814041535,-0.0016955086453825,0.0016954832238994,-0.0016954925959434,0.0016954995940154,1.5296352955998e-09,1.5118409074042e-09,-0.00093530627436024,0.00093530928784405,-1.7308511537559e-08,2.1014956929138e-08,-0.00113995892755,0.0011399490166672,-0.0011399462195734,0.0011399617580324,-0.0011399589341884,0.0011399489913581,-0.0011399462059818,0.0011399617511011,-0.00092198677096936,0.00092200266666856,-0.00092198681226227,0.00092200270835635,0.71766340151281,128566,2924,0.0038941271946632,0.0082922982759738,0.0038941271825711,29.281024733194,-5.7518021344485e-06,-5.7518021344485e-06,-5.7518021344485e-06,4407782.0658575,0.016212126327331
32219200,0.99765187994106,0.016548792647077,0.0044849865138823,0.0075788196298851,0.0044849865033098,-0.00093535898660479,0.00093535791394343,-5.376859836836e-10,-5.3086950086733e-10,7.5634181295547e-09,-8.9315361417017e-09,-0.0011401555793239,0.0011401600289521,-0.0011401556285139,0.0011401600620302,-0.0011401609911784,0.0011401545667045,-0.0011401609892322,0.0011401545882716,-0.0009221064701815,0.00092209986125278,-0.00092210641857463,0.00092209986731007,-6.4045827418641e-09,1.00019969478e-08,2.1025906120354e-08,-1.7740751201934e-08,-0.0019998625947313,0.0019998659173999,-0.0022600890461736,0.0022600997460555,-0.0022601019288619,0.0022600868598604,-0.00226008363683,0.0022601051536074,-0.0022600965083566,0.0022600922790534,-0.0016958009968574,0.0016958477960795,-0.0016958387357054,0.0016958094070562,-0.0016958367811375,0.0016958112986983,-0.0016958207266727,0.0016958276824625,1.5338309146159e-09,1.5157363626691e-09,-0.00093535693548333,0.00093535995967046,-1.7369596720037e-08,2.1099223728886e-08,-0.0011401627828741,0.0011401528309192,-0.001140150026433,0.0011401656203881,-0.0011401627894028,0.0011401528054413,-0.0011401500127309,0.0011401656133198,-0.00092209516417403,0.00092211111110377,-0.00092209520630107,0.0009221111529086,0.73340853344493,128566,2924,0.0038943440266428,0.0082937162602439,0.0038943440153403,29.290222616006,-5.6782190719487e-06,-5.6782190719487e-06,-5.6782190719487e-06,4399308.7852301,0.016214010824429
32419200,0.99775827709225,0.016550665491408,0.0044855014796234,0.0075796625427342,0.00448550146905,-0.00093539043897161,0.00093538936619196,-5.3785074234519e-10,-5.3067106543612e-10,7.5663390092025e-09,-8.934775418097e-09,-0.0011403878508733,0.0011403923022546,-0.0011403879001728,0.0011403923357373,-0.0011403932648106,0.0011403868380287,-0.0011403932628874,0.0011403868598483,-0.00092222184315465,0.00092221523230918,-0.00092222179399689,0.00092221524139482,-6.4079493927211e-09,1.0004829151749e-08,2.1090133636953e-08,-1.7805262595156e-08,-0.0020002425516348,0.0020002458742927,-0.0022604073593715,0.0022604180997832,-0.0022604202836543,0.0022604051702512,-0.0022604019480106,0.0022604235093409,-0.0022604148611301,0.0022604105915222,-0.0016961819267006,0.0016962288541118,-0.0016962197866296,0.0016961903331966,-0.0016962178002989,0.001696192268667,-0.0016962017399567,0.0016962086592788,1.5364849821352e-09,1.5180342766013e-09,-0.00093538838469935,0.00093539141485548,-1.7429450942885e-08,2.1168005244761e-08,-0.0011403950739709,0.0011403850848167,-0.0011403822747557,0.0011403979170575,-0.0011403950805999,0.0011403850592036,-0.0011403822611471,0.0011403979098437,-0.00092221051273777,0.00092222650526942,-0.00092221055520629,0.00092222654794669,0.75109426989473,128566,2924,0.0038944830421961,0.0082952758252857,0.0038944830304562,29.29921733579,-5.6062613136818e-06,-5.6062613136818e-06,-5.6062613136818e-06,4388319.8351222,0.016215881957101
32619200,0.99785965185088,0.016552315916349,0.0044859496009783,0.0075804167249669,0.0044859495904042,-0.00093531291897299,0.00093531184647528,-5.3778231226289e-10,-5.3029276865189e-10,7.5701643402328e-09,-8.9370896908093e-09,-0.0011405557115812,0.0011405601653325,-0.0011405557601136,0.0011405601971592,-0.0011405611278646,0.0011405546977909,-0.0011405611252027,0.0011405547202839,-0.00092224747065952,0.00092224085571776,-0.00092224741777271,0.00092224086473342,-6.406993547451e-09,1.0008029474452e-08,2.1147047656269e-08,-1.7858944584267e-08,-0.0020005591905378,0.0020005625148895,-0.0022606272458931,0.0022606380216447,-0.0022606402060343,0.0022606250560693,-0.0022606218341765,0.0022606434309974,-0.0022606347819091,0.0022606304782867,-0.0016965187769374,0.0016965658183874,-0.0016965567651176,0.0016965272110056,-0.0016965547244116,0.0016965291577388,-0.0016965386573042,0.0016965455465077,1.5375029793467e-09,1.5184974434762e-09,-0.00093531086418401,0.00093531389488827,-1.7487332202005e-08,2.1218419220527e-08,-0.0011405629521997,0.0011405529306011,-0.0011405501169891,0.0011405657991254,-0.0011405629596887,0.0011405529042428,-0.0011405501029667,0.0011405657919745,-0.00092223611788025,0.00092225215007828,-0.00092223616121275,0.00092225219396739,0.69653887831529,128566,2924,0.0038941715388345,0.0082965710913538,0.003894171525464,29.262866806979,-5.8970655441687e-06,-5.8970655441687e-06,-5.8970655441687e-06,4373858.4250471,0.016216569744703
32819200,0.99795612939531,0.016553765110314,0.0044863378181409,0.0075810894846075,0.0044863378075659,-0.00093521910028535,0.00093521802727525,-5.3838684304857e-10,-5.3045891003025e-10,7.5686028290701e-09,-8.9372497688602e-09,-0.0011405064995357,0.0011405109521368,-0.0011405065488572,0.0011405109859278,-0.0011405119153538,0.0011405054863345,-0.0011405119130067,0.0011405055084342,-0.00092217207635584,0.00092216546237565,-0.00092217202435639,0.00092216547057947,-6.4095972024993e-09,1.0007232527916e-08,2.1174539393062e-08,-1.7889155819922e-08,-0.0020006120201986,0.0020006153431013,-0.002260726534714,0.0022607373290895,-0.0022607395135708,0.0022607243434952,-0.0022607211220464,0.0022607427399368,-0.0022607340895918,0.0022607297662219,-0.0016965153618634,0.0016965624563959,-0.0016965533890701,0.0016965237729657,-0.0016965513462725,0.0016965257556745,-0.0016965352815897,0.0016965421500295,1.5405638906872e-09,1.5213021864693e-09,-0.00093521704240431,0.00093522007964221,-1.7510131849433e-08,2.1255731564666e-08,-0.0011405137479022,0.0011405037098658,-0.0011405008926344,0.0011405165981804,-0.0011405137549098,0.001140503683872,-0.0011405008791924,0.0011405165907703,-0.00092216071303241,0.00092217676946252,-0.00092216075453647,0.0009221768125162,0.64446136875845,128566,2924,0.0038937855455251,0.0082967854106307,0.0038937855339722,29.204369738984,-6.3650420881258e-06,-6.3650420881258e-06,-6.3650420881258e-06,4370606.9983868,0.016216003093753
33019200,0.99804795722577,0.016555257953473,0.0044867437786283,0.0075817704067918,0.0044867437680526,-0.00093517846920057,0.00093517739628074,-5.3850990290682e-10,-5.3021384769103e-10,7.5675410679804e-09,-8.9361391376128e-09,-0.0011403131841937,0.0011403176360329,-0.0011403132333999,0.0011403176700159,-0.0011403185991893,0.0011403121709829,-0.0011403185968282,0.0011403121932393,-0.00092206743141987,0.00092206081808758,-0.00092206737993434,0.00092206082743212,-6.4087646904614e-09,1.0006108259085e-08,2.1186525351605e-08,-1.7901391756299e-08,-0.0020004756889766,0.0020004790117184,-0.0022607642888896,0.0022607750918155,-0.002260777275515,0.0022607620979216,-0.0022607588769205,0.0022607805020421,-0.0022607718522384,0.0022607675200066,-0.0016962624131099,0.0016963095306331,-0.0016963004626216,0.0016962708216772,-0.0016962984124781,0.0016962728153843,-0.001696282349841,0.0016962892079757,1.5411478645164e-09,1.5215385399685e-09,-0.00093517641080279,0.00093517944909295,-1.7521074191269e-08,2.1268575841732e-08,-0.0011403204356035,0.0011403103906398,-0.0011403075724875,0.0011403232868062,-0.0011403204426931,0.0011403103645785,-0.0011403075591997,0.0011403232792562,-0.00092205606442337,0.00092207212858513,-0.00092205610566788,0.00092207217214853,0.69524136670343,128566,2924,0.0038936128348983,0.008296228162021,0.0038936128231992,29.145355255847,-6.8371579532211e-06,-6.8371579532211e-06,-6.8371579532211e-06,4378374.218227,0.016215081675114
33219200,0.99813537241386,0.016556750862691,0.0044871529161515,0.0075824450409646,0.004487152905575,-0.00093512012513403,0.00093511905246503,-5.3855928277698e-10,-5.2989301622446e-10,7.5656884055265e-09,-8.9340267600268e-09,-0.0011402876694103,0.0011402921200298,-0.0011402877184701,0.0011402921541465,-0.0011402930830931,0.0011402866563194,-0.0011402930806071,0.001140286678683,-0.00092201725421424,0.00092201064217215,-0.00092201720254758,0.00092201065199898,-6.4069652031992e-09,1.0004015549898e-08,2.118033621515e-08,-1.7895463712279e-08,-0.0020005289568706,0.0020005322793726,-0.0022608519544246,0.0022608627543922,-0.0022608649370501,0.0022608497645565,-0.0022608465437008,0.0022608681633143,-0.002260859515048,0.0022608551853257,-0.0016962783678386,0.001696325471865,-0.0016963164051171,0.0016962867744336,-0.0016963143567175,0.0016962887672514,-0.0016962982980222,0.0016963051560774,1.540798234905e-09,1.5208180678709e-09,-0.00093511806736464,0.00093512110464333,-1.7515625076912e-08,2.1262130452523e-08,-0.0011402949187044,0.0011402848767963,-0.001140282059532,0.0011402977690212,-0.0011402949259063,0.0011402848506109,-0.0011402820463661,0.0011402977613202,-0.00092200589058439,0.00092202194924712,-0.00092200593150909,0.00092202199325467,0.72922791979635,128566,2924,0.0038933726589018,0.0082964462997962,0.0038933726471916,29.086322343931,-7.3094212485493e-06,-7.3094212485493e-06,-7.3094212485493e-06,4375143.9595347,0.016214815456272
33419200,0.99821994791952,0.016558223127298,0.0044875575551079,0.0075831080276591,0.0044875575445307,-0.00093552741384288,0.00093552634087276,-5.3891506598525e-10,-5.2991517820379e-10,7.5589202665697e-09,-8.9291902511906e-09,-0.0011408758259567,0.0011408802724298,-0.0011408758750981,0.0011408803075512,-0.0011408812350981,0.0011408748126662,-0.0011408812334217,0.0011408748355016,-0.00092250547522243,0.00092249886906219,-0.00092250543270912,0.00092249888623851,-6.4055764116847e-09,9.9956852259718e-09,2.110754256524e-08,-1.7827801016034e-08,-0.0020012740877408,0.0020012774074575,-0.00226154222932,0.0022615529858539,-0.002261555165548,0.0022615400414989,-0.0022615368217927,0.0022615583918033,-0.0022615497471419,0.002261545458844,-0.0016970194272075,0.0016970663837263,-0.0016970572933943,0.0016970277918158,-0.0016970553212178,0.0016970297823436,-0.0016970392756983,0.0016970461689713,1.538553831413e-09,1.5182981347212e-09,-0.0009355253572468,0.0009355283924937,-1.7442069658686e-08,2.1199815062966e-08,-0.0011408830530643,0.0011408730502812,-0.0011408702386492,0.0011408858972854,-0.0011408830599025,0.0011408730241476,-0.0011408702255107,0.0011408858892729,-0.00092249414112598,0.0009225101434976,-0.00092249418296203,0.00092251018796368,0.74278653801236,128566,2924,0.0038950710731156,0.0082995153373043,0.0038950710627509,29.312094977725,-5.5032401781987e-06,-5.5032401781987e-06,-5.5032401781987e-06,4370707.9509393,0.016221389631482
33619200,0.99830207492875,0.016559653343865,0.0044879505760589,0.0075837522023245,0.004487950565482,-0.00093604313783654,0.00093604206407169,-5.3971981302946e-10,-5.3030907511915e-10,7.5515349985761e-09,-8.9242616261685e-09,-0.0011416258172438,0.0011416302593723,-0.0011416258674504,0.0011416302964707,-0.0011416312226254,0.0011416248051028,-0.0011416312210923,0.0011416248275114,-0.00092313171993029,0.00092312511650236,-0.00092313167245531,0.00092312512820438,-6.4021685577334e-09,9.9892774549601e-09,2.1022290780918e-08,-1.7745173781592e-08,-0.0020022090318218,0.0020022123498612,-0.0022623942015997,0.0022624049061875,-0.0022624070835091,0.0022623920163849,-0.002262388797198,0.0022624103098631,-0.0022624016693131,0.0022623974307115,-0.0016979578806283,0.0016980046642759,-0.0016979955702969,0.0016979662234397,-0.0016979936528316,0.0016979681761174,-0.0016979776233094,0.0016979845575083,1.5371816504462e-09,1.5166743455562e-09,-0.00093604108339948,0.00093604411483733,-1.7358480998556e-08,2.1116572665736e-08,-0.0011416330174626,0.0011416230643014,-0.0011416202589349,0.0011416358552363,-0.0011416330238918,0.0011416230384385,-0.00114162024644,0.0011416358470803,-0.00092312041884787,0.00092313636540207,-0.00092312045746619,0.00092313640709896,0.74303043423044,128566,2924,0.0038972219105218,0.0083033654649986,0.0038972219028756,29.613951794167,-3.0883856466669e-06,-3.0883856466669e-06,-3.0883856466669e-06,4365643.6118132,0.016229678173527
33819200,0.99838176338007,0.016561045374936,0.0044883332403664,0.0075843789047802,0.0044883332297898,-0.0009365448234266,0.00093654375181032,-5.3855070894515e-10,-5.2878589139597e-10,7.5508664076942e-09,-8.9184772504066e-09,-0.0011423608983862,0.0011423653398395,-0.0011423609466644,0.0011423653740807,-0.0011423663016843,0.0011423598860096,-0.0011423662991872,0.0011423599089336,-0.00092374717610814,0.00092374057468475,-0.00092374712593009,0.00092374058784467,-6.3938622798963e-09,9.9872615669558e-09,2.0948978600201e-08,-1.7667067947378e-08,-0.0020031326349115,0.0020031359553562,-0.0022632421143176,0.0022632527714374,-0.0022632549470454,0.0022632399341726,-0.0022632367135106,0.0022632581704459,-0.0022632495350682,0.0022632453450225,-0.00169887844059,0.0016989250798865,-0.0016989160211043,0.00169888682845,-0.0016989141112225,0.0016988887002683,-0.0016988980834161,0.0016989050617968,1.530427376053e-09,1.5093703288681e-09,-0.00093654277699569,0.00093654579274753,-1.7297843161589e-08,2.1022686178696e-08,-0.0011423680771456,0.0011423581662591,-0.0011423553700953,0.0011423709063835,-0.0011423680846083,0.0011423581397719,-0.0011423553573021,0.0011423708982445,-0.00092373590562676,0.0009237517883768,-0.00092373594586741,0.0009237518334642,0.74517770111044,128566,2924,0.0038993150163477,0.0083071679064722,0.0038993150048583,29.917623472656,-6.5901221875189e-07,-6.5901221875189e-07,-6.5901221875189e-07,4360926.8533109,0.016237800707167
34019200,0.99845901759442,0.016562355740112,0.0044886917453519,0.0075849722599858,0.0044886917347746,-0.00093703360455162,0.00093703253331719,-5.3862811918326e-10,-5.2843293210172e-10,7.548207209815e-09,-8.9151879711859e-09,-0.0011430788658126,0.0011430833053605,-0.0011430789137367,0.0011430833396091,-0.0011430842671908,0.0011430778535699,-0.001143084264373,0.0011430778763616,-0.00092435044131744,0.0009243438416985,-0.00092435038917641,0.00092434385338788,-6.3911285465276e-09,9.9845188726256e-09,2.0883685590329e-08,-1.7601840149278e-08,-0.002004045797831,0.0020040491180159,-0.002264082773922,0.0022640933892928,-0.002264095564313,0.0022640805961612,-0.0022640773747356,0.0022640987865206,-0.0022640901540621,0.002264086005078,-0.0016997869212508,0.0016998334307183,-0.0016998243778371,0.0016997953114035,-0.001699822503109,0.001699797140963,-0.0016998064802509,0.0016998134961788,1.5277898250383e-09,1.5063512162001e-09,-0.00093703156152279,0.00093703457100295,-1.7237193001645e-08,2.0953431647135e-08,-0.0011430860248298,0.0011430761515713,-0.001143073360825,0.0011430888486458,-0.001143086032404,0.0011430761250233,-0.001143073348235,0.0011430888403603,-0.00092433919593159,0.00092435503045332,-0.00092433923529728,0.0009243550758073,0.72426546147039,128566,2924,0.0039013547354457,0.008310926846904,0.0039013547242645,30.221360051269,1.770880410152e-06,1.770880410152e-06,1.770880410152e-06,4356331.2283599,0.01624577044747
34219200,0.99853513862119,0.016563613155241,0.004489034336292,0.0075855444932352,0.004489034325714,-0.00093805754787675,0.00093805647331417,-5.4084000608406e-10,-5.3047656194062e-10,7.5392059603908e-09,-8.915100830848e-09,-0.0011442906116165,0.0011442950471326,-0.001144290659917,0.001144295082252,-0.0011442960078738,0.0011442895966352,-0.001144296008088,0.0011442896226791,-0.00092548136708779,0.00092547477268914,-0.00092548133244451,0.00092547479434444,-6.3967744915773e-09,9.9707203450435e-09,2.0776123576392e-08,-1.7509394703305e-08,-0.0020055008768874,0.0020055041898563,-0.0022655196139897,0.0022655301679677,-0.0022655323376641,0.0022655174374852,-0.0022655142181673,0.0022655355622608,-0.0022655269305067,0.0022655228442955,-0.0017011902171147,0.0017012365106082,-0.0017012273907414,0.0017011984983151,-0.0017012256660503,0.0017012003595771,-0.0017012096605391,0.0017012167276331,1.528707533343e-09,1.5070973658777e-09,-0.0009380555011765,0.00093805851770906,-1.7118561081416e-08,2.0878322554258e-08,-0.0011442977371164,0.0011442879224216,-0.001144285136114,0.0011443005557247,-0.0011442977445074,0.0011442878954235,-0.001144285122121,0.0011443005471967,-0.00092547016288399,0.00092548591983111,-0.00092547020447297,0.0009254859649066,0.70594349669902,128566,2924,0.0039056151413116,0.0083169257865437,0.0039056151366095,30.833223571843,6.6657885747447e-06,6.6657885747447e-06,6.6657885747447e-06,4362102.9898568,0.016260529104107
34419200,0.99861013024039,0.016564856844531,0.0044893733390097,0.0075861101770887,0.0044893733284322,-0.00093914784152963,0.00093914676966605,-5.3928012404989e-10,-5.2849365081373e-10,7.5397981099039e-09,-8.9096745319707e-09,-0.001145511860683,0.001145516295681,-0.0011455119089853,0.0011455163307588,-0.0011455172572978,0.0011455108484231,-0.001145517255023,0.001145510872202,-0.00092665247487336,0.00092664588072822,-0.00092665242896469,0.00092664589818013,-6.3877171178032e-09,9.9745316316702e-09,2.0702867812835e-08,-1.7426058290116e-08,-0.0020069606722477,0.0020069639896509,-0.0022670090746796,0.0022670195768796,-0.0022670217482781,0.0022670069006035,-0.0022670036801947,0.002267024969613,-0.0022670163427275,0.0022670123055598,-0.0017025692589002,0.0017026154076361,-0.0017026063376388,0.0017025776090525,-0.0017026046004244,0.0017025793626597,-0.0017025885956576,0.001702595712718,1.5214371101903e-09,1.4993796443956e-09,-0.00093914580397871,0.00093914880239807,-1.706196181219e-08,2.0777098663386e-08,-0.0011455189653489,0.0011455091955953,-0.00114550641821,0.0011455217755422,-0.0011455189730416,0.0011455091685858,-0.0011455064055178,0.0011455217670779,-0.00092664129919769,0.00092665699877102,-0.0009266413388553,0.00092665704406173,0.70867959452019,128566,2924,0.0039101488911404,0.0083229469727535,0.0039101488811028,31.477106374348,1.1816850994782e-05,1.1816850994782e-05,1.1816850994782e-05,4372119.9243844,0.016275864891695
34619200,0.9986838567272,0.01656612855958,0.0044897220400045,0.0075866844901489,0.0044897220294267,-0.00094024173480905,0.00094024066323977,-5.3940024305864e-10,-5.2820185638657e-10,7.5395610786046e-09,-8.9078706306669e-09,-0.001146746637809,0.0011467510720178,-0.0011467466849928,0.0011467511061404,-0.0011467520337445,0.0011467456252046,-0.001146752030918,0.0011467456487004,-0.00092783108408711,0.00092782448889115,-0.00092783103115156,0.00092782450101321,-6.3843784116808e-09,9.9751106731573e-09,2.0645190556071e-08,-1.7365503585433e-08,-0.0020084345427191,0.0020084378614359,-0.0022685052999749,0.002268515763556,-0.0022685179355716,0.0022685031282175,-0.0022684999062957,0.0022685211554694,-0.0022685125308223,0.0022685085320607,-0.0017039678817725,0.0017040139175326,-0.0017040048673081,0.001703976258821,-0.0017040031426964,0.0017039779511832,-0.0017039871380819,0.0017039942936863,1.5186831210084e-09,1.4962291437244e-09,-0.00094023970153331,0.00094024269163091,-1.7010481006835e-08,2.0706927757519e-08,-0.0011467537245944,0.00114674398996,-0.0011467412178886,0.0011467565298441,-0.0011467537325596,0.001146743962944,-0.0011467412055023,0.0011467565211663,-0.00092781993004261,0.0009278355870113,-0.00092781996831367,0.00092783563297558,0.73613739678133,128566,2924,0.003914697758979,0.008329026054613,0.0039146977487642,32.121808451014,1.6974467608114e-05,1.6974467608114e-05,1.6974467608114e-05,4381393.9396238,0.016291290793431
34819200,0.9987573184242,0.01656740660278,0.0044900727084204,0.0075872611965181,0.0044900726978419,-0.00094180321163969,0.00094180213814818,-5.4068940899352e-10,-5.2926781096657e-10,7.5345686056194e-09,-8.9086195640227e-09,-0.0011485804007193,0.001148584832615,-0.0011485804487532,0.0011485848683988,-0.0011485857939448,0.0011485793868853,-0.0011485857929878,0.0011485794120132,-0.00092954157927468,0.00092953498782187,-0.00092954154095541,0.00092953501002138,-6.3904792800681e-09,9.9659508368076e-09,2.0565622810752e-08,-1.729775808507e-08,-0.0020105863724064,0.0020105896853582,-0.002270608610202,0.0022706190275787,-0.0022706211973405,0.0022706064382401,-0.0022706032177855,0.0022706244186979,-0.0022706157940938,0.0022706118413184,-0.0017060666428425,0.0017061125181399,-0.0017061034151201,0.0017060749342278,-0.0017061018096524,0.001706076654958,-0.0017060858148228,0.0017060930098956,1.5193953447137e-09,1.4967532166454e-09,-0.00094180117558686,0.00094180417139542,-1.6921821957837e-08,2.0652614679907e-08,-0.0011485874630546,0.0011485777722869,-0.0011485750032358,0.0011485902644481,-0.0011485874705819,0.001148577745186,-0.0011485749902349,0.0011485902556446,-0.00092953045478243,0.00092954605416121,-0.00092953049512294,0.00092954609947039,0.74236048331316,128566,2924,0.0039211928004926,0.0083378991222915,0.0039211927947303,33.052804567518,2.4422436540143e-05,2.4422436540143e-05,2.4422436540143e-05,4390386.892401,0.016313515157336
35019200,0.99883066727431,0.016568645092969,0.0044904106306761,0.0075878238421945,0.0044904106200982,-0.00094351226253253,0.00094351118994133,-5.4016987954678e-10,-5.2845035652874e-10,7.536950876146e-09,-8.9080094868955e-09,-0.0011506057140912,0.0011506101470858,-0.0011506057615455,0.001150610181533,-0.0011506111092084,0.0011506047004398,-0.0011506111063309,0.0011506047248633,-0.00093142113062953,0.00093141453543867,-0.00093142108620048,0.0009314145582684,-6.3851229014077e-09,9.9674108749103e-09,2.0519365225948e-08,-1.7246143266691e-08,-0.002012966116481,0.0020129694318107,-0.0022729294094523,0.0022729397942231,-0.0022729419647469,0.0022729272383623,-0.0022729240186217,0.002272945183347,-0.0022729365620736,0.0022729326400565,-0.0017083880650795,0.0017084338477458,-0.001708424769839,0.001708396397199,-0.0017084231642047,0.0017083980537765,-0.0017084071683388,0.0017084143998744,1.5150342652854e-09,1.4919094450155e-09,-0.00094351023150545,0.00094351321667426,-1.6883297284092e-08,2.0588971806235e-08,-0.001150612763217,0.0011506031014548,-0.0011506003378563,0.0011506155592954,-0.0011506127713607,0.0011506030736032,-0.0011506003248675,0.0011506155506297,-0.00093141002236117,0.00093142558531379,-0.00093141006390171,0.0009314256305943,0.72136489184409,128566,2924,0.0039283027243534,0.0083477106754147,0.0039283027154338,34.084985561646,3.267988449317e-05,3.267988449317e-05,3.267988449317e-05,4399679.459689,0.016337944448322
35219200,0.9989036224141,0.016569842747147,0.0044907356885841,0.0075883713805568,0.0044907356780059,-0.00094522301863236,0.00094522194682609,-5.3997136871776e-10,-5.2777652908154e-10,7.5375644475434e-09,-8.9066871072933e-09,-0.0011525663058457,0.001152570738618,-0.0011525663525725,0.001152570773187,-0.0011525717007837,0.001152565292807,-0.0011525716975937,0.0011525653165339,-0.00093327462629542,0.00093326803177602,-0.00093327457564526,0.00093326804745047,-6.3844249405535e-09,9.9721307107225e-09,2.049811132524e-08,-1.7220844041859e-08,-0.0020152770393037,0.0020152803567163,-0.0022752372457266,0.0022752476134697,-0.0022752497861678,0.0022752350750774,-0.0022752318528147,0.0022752530044886,-0.0022752443823789,0.0022752404779575,-0.0017106068877482,0.0017106526333401,-0.0017106435776459,0.0017106152524836,-0.0017106419579113,0.0017106168634664,-0.0017106259572747,0.0017106332060569,1.5137415216143e-09,1.4902828594055e-09,-0.00094522099038338,0.0009452239702795,-1.6869753398437e-08,2.0558266249866e-08,-0.0011525733487189,0.0011525636999469,-0.0011525609380434,0.0011525761435324,-0.0011525733569026,0.0011525636725493,-0.0011525609259028,0.0011525761344378,-0.00093326352690916,0.00093327907412305,-0.00093326356486893,0.00093327912132652,0.70214230146893,128566,2924,0.0039354177061381,0.0083572404367236,0.0039354176961283,35.119561397475,4.0956491179801e-05,4.0956491179801e-05,4.0956491179801e-05,4412849.7164143,0.01636209656216
35419200,0.99897504027565,0.016570979378821,0.0044910423334615,0.0075888947224766,0.0044910423228826,-0.00094656191480031,0.00094656084512761,-5.3895443666485e-10,-5.2626146854626e-10,7.545271759219e-09,-8.9083410031796e-09,-0.0011540634496052,0.0011540678861653,-0.0011540634952735,0.0011540679193057,-0.0011540688487083,0.0011540624374009,-0.0011540688435743,0.0011540624599239,-0.00093470909921268,0.00093470249975439,-0.00093470903583526,0.00093470250768187,-6.3825771139445e-09,9.9822684606683e-09,2.0554269015367e-08,-1.7267819279504e-08,-0.0020170656541123,0.0020170689758415,-0.0022770751918489,0.0022770855900052,-0.0022770877672422,0.0022770730204144,-0.0022770697960042,0.0022770909833372,-0.0022770823600748,0.0022770784257345,-0.0017122863944735,0.0017123322558887,-0.0017123232459877,0.0017122948338674,-0.0017123215371793,0.0017122964113909,-0.0017123055205981,0.0017123127472119,1.5133623808218e-09,1.4894370977797e-09,-0.00094655988939573,0.00094656286402955,-1.6934622353088e-08,2.0592969122318e-08,-0.0011540705102305,0.0011540608315547,-0.0011540580670956,0.0011540733083164,-0.0011540705190518,0.0011540608040794,-0.0011540580556117,0.0011540732992886,-0.00093469797722543,0.00093471356468292,-0.00093469801342481,0.00093471361337156,0.68162298323507,128566,2924,0.0039409852914161,0.0083646173182094,0.0039409852777515,35.931400006105,4.7451200048837e-05,4.7451200048837e-05,4.7451200048837e-05,4425368.7337315,0.016380913649651
35619200,0.99904411298471,0.016572037730313,0.0044913257911153,0.0075893861586615,0.0044913257805358,-0.00094763092151041,0.000947629850914,-5.3975540133564e-10,-5.2661689744677e-10,7.5510444604423e-09,-8.9153069324341e-09,-0.0011551969263317,0.0011552013660695,-0.0011551969719663,0.001155201399612,-0.001155202329438,0.0011551959130738,-0.0011552023243585,0.0011551959357822,-0.00093582681188856,0.00093582020664702,-0.00093582674785246,0.00093582021435454,-6.3891512165807e-09,9.9877651741592e-09,2.0656242632967e-08,-1.7370656501662e-08,-0.0020184362902362,0.0020184396116068,-0.0022785457214183,0.0022785561834452,-0.0022785583637167,0.0022785435456319,-0.0022785403215852,0.0022785615808961,-0.0022785529526209,0.0022785489547347,-0.0017135317841958,0.001713577848807,-0.0017135688269761,0.0017135402186862,-0.0017135670670589,0.0017135418617405,-0.0017135510389921,0.0017135582109994,1.519348543421e-09,1.495112739719e-09,-0.0009476288901496,0.00094763187644473,-1.7026045019071e-08,2.070094003981e-08,-0.0011552040167336,0.0011551942813406,-0.0011551915070596,0.0011552068244528,-0.0011552040254446,0.0011551942538291,-0.0011551914955575,0.0011552068152361,-0.00093581564876289,0.00093583131393697,-0.00093581568472385,0.0009358313624354,0.65729899993426,128566,2924,0.0039454284947699,0.0083702727523778,0.0039454284825161,36.575506931452,5.2604055451618e-05,5.2604055451618e-05,5.2604055451618e-05,4438619.3322547,0.016395693847137
35819200,0.99911072805313,0.016573121197199,0.0044916190758802,0.0075898830560188,0.0044916190653,-0.00094872090292748,0.00094871983123589,-5.4044248047452e-10,-5.2709158666254e-10,7.5551087130983e-09,-8.9220937159849e-09,-0.0011562640106025,0.0011562684531496,-0.0011562640570915,0.0011562684878233,-0.0011562694169642,0.0011562629965707,-0.0011562694126562,0.0011562630201902,-0.00093692742649433,0.00093692081867272,-0.00093692736983632,0.00093692083227507,-6.3978187597344e-09,9.990591658165e-09,2.0759521464516e-08,-1.7478476577479e-08,-0.0020197171250634,0.0020197204444674,-0.0022799818380862,0.0022799923670908,-0.0022799945489416,0.0022799796573857,-0.0022799764346654,0.0022799977684198,-0.0022799891342164,0.0022799850706015,-0.0017146614530242,0.0017147077231438,-0.0017146986732184,0.0017146698533716,-0.0017146968838881,0.0017146715898908,-0.0017146808465823,0.0017146879565927,1.525860973627e-09,1.5012797152505e-09,-0.0009487188636619,0.00094872186522777,-1.7119231469877e-08,2.0823638704881e-08,-0.0011562711323224,0.0011562613364795,-0.0011562585508235,0.0011562739510926,-0.0011562711410886,0.0011562613087947,-0.0011562585391443,0.0011562739418629,-0.0009369162221353,0.00093693196520802,-0.00093691625895362,0.00093693201385427,0.69619235944647,128566,2924,0.0039499551702286,0.0083755620499367,0.0039499551591876,37.215706756051,5.7725654048412e-05,5.7725654048412e-05,5.7725654048412e-05,4456415.8115029,0.016410269985495
36019200,0.99917479979898,0.016574224628198,0.0044919203783231,0.0075903838821324,0.0044919203677424,-0.00094979362378219,0.00094979255108244,-5.4112234684478e-10,-5.2744225571386e-10,7.558592650637e-09,-8.9275395549124e-09,-0.0011574626953358,0.0011574671401317,-0.0011574627421216,0.0011574671753864,-0.001157468104686,0.0011574616806573,-0.0011574681005675,0.0011574617046901,-0.00093807092024361,0.00093806430846361,-0.00093807086456432,0.00093806432340035,-6.4024247181432e-09,9.9949328367215e-09,2.0862545004924e-08,-1.7581539623974e-08,-0.0020211503568267,0.0020211536764058,-0.0022814604077426,0.0022814710021541,-0.0022814731853613,0.0022814582230386,-0.0022814550015256,0.0022814764065574,-0.0022814677678628,0.0022814636393771,-0.0017160063741521,0.0017160528494379,-0.0017160437872881,0.0017160147679596,-0.0017160419440493,0.0017160165730098,-0.0017160258999387,0.0017160329511369,1.5312530320155e-09,1.5063304209581e-09,-0.00094979157845719,0.00094979459128365,-1.7214234479424e-08,2.0934943493385e-08,-0.0011574698475983,0.0011574599929465,-0.0011574571974855,0.0011574726761479,-0.0011574698564177,0.001157459965083,-0.0011574571858406,0.0011574726667355,-0.00093805967548234,0.00093807549614326,-0.00093805971197912,0.00093807554497304,0.73586310727333,128566,2924,0.0039544152337709,0.0083814743261454,0.0039544152230502,37.855766679605,6.2846133436844e-05,6.2846133436844e-05,6.2846133436844e-05,4465263.6484742,0.016425347733014
36219200,0.99923416950012,0.01657521480834,0.0044921890941539,0.0075908366306131,0.0044921890835727,-0.0009496848466993,0.00094968377603063,-5.4025987084724e-10,-5.2587810481768e-10,7.5712209376309e-09,-8.9328749256852e-09,-0.0011575474682397,0.00115755191993,-0.0011575475141287,0.0011575519531474,-0.0011575528856802,0.0011575464545541,-0.0011575528785653,0.001157546477246,-0.00093804044844879,0.000938033824555,-0.00093804036663431,0.00093803382233152,-6.3991704820873e-09,1.001187379301e-08,2.1067947897771e-08,-1.7771792834399e-08,-0.0020213560452111,0.0020213593723,-0.0022816136724913,0.002281624391969,-0.0022816265803033,0.0022816114850129,-0.0022816082616032,0.0022816298003038,-0.0022816211573117,0.002281616905976,-0.0017162107896953,0.0017162576767641,-0.0017162486871782,0.0017162193029786,-0.0017162466187921,0.0017162211213637,-0.0017162305513437,0.0017162374912912,1.5367435615721e-09,1.5110692145975e-09,-0.00094968279974829,0.00094968581568007,-1.7425887951849e-08,2.1111002138984e-08,-0.0011575546824833,0.0011575447142989,-0.0011575419045315,0.0011575575265473,-0.0011575546925509,0.0011575446859373,-0.0011575418935845,0.0011575575173008,-0.00093802912307353,0.00093804509983298,-0.00093802915559375,0.00093804514931228,0.71361056010239,128566,2924,0.0039539724399068,0.0083823133049313,0.003953972424467,37.82719785957,6.261758287656e-05,6.261758287656e-05,6.261758287656e-05,4453018.5905849,0.016425304029777
36419200,0.99928833014501,0.016576106157783,0.0044924306042997,0.0075912449597669,0.0044924305937169,-0.0009490675424511,0.00094906647143349,-5.4066658696278e-10,-5.2585483006576e-10,7.577506939188e-09,-8.9395233400512e-09,-0.0011569928848418,0.0011569973395148,-0.0011569929311247,0.0011569973743596,-0.0011569983063459,0.0011569918707833,-0.001156998299455,0.001156991893011,-0.000937441313881,0.00093743468664206,-0.00093744123675009,0.00093743468785795,-6.4080851925137e-09,1.0018825564991e-08,2.1272123681459e-08,-1.7977206915316e-08,-0.0020208331888117,0.0020208365152988,-0.0022810987364833,0.0022811095858301,-0.0022811117776381,0.0022810965423836,-0.0022810933199962,0.0022811150001192,-0.0022811063497991,0.0022811019680418,-0.0017156703725285,0.0017157176650574,-0.0017157086553117,0.001715678872829,-0.0017157064816406,0.0017156808321659,-0.001715690398774,0.0017156972188629,1.5468184715534e-09,1.5206938814023e-09,-0.00094906548484895,0.00094906852202591,-1.761542875239e-08,2.133103334223e-08,-0.0011570001597494,0.0011569900738012,-0.0011569872452754,0.0011570030221106,-0.001157000169365,0.0011569900457797,-0.0011569872348897,0.0011570030124385,-0.00093742990964303,0.00093744603816115,-0.00093742994161938,0.00093744608842518,0.7043402087218,128566,2924,0.0039514138912633,0.0083801488970603,0.003951413876465,37.495931616135,5.9967452929078e-05,5.9967452929078e-05,5.9967452929078e-05,4440202.4609077,0.016417903624959
36619200,0.99933778237134,0.016576875125705,0.0044926370491394,0.0075916010380094,0.004492637038556,-0.00094845639242747,0.0009484553188051,-5.4228472847084e-10,-5.2719361944751e-10,7.577623218825e-09,-8.9462803439824e-09,-0.0011563889309065,0.001156393386502,-0.0011563889783435,0.0011563934230666,-0.0011563943536678,0.0011563879150493,-0.0011563943487382,0.0011563879393565,-0.00093682451839266,0.0009368178900761,-0.00093682445589381,0.00093681790240535,-6.4179561548449e-09,1.0016412938578e-08,2.1417696307138e-08,-1.8132035969218e-08,-0.0020202391834093,0.0020202425057451,-0.0022805356242569,0.0022805465720269,-0.002280548762072,0.0022805334249419,-0.0022805302058467,0.0022805519887919,-0.0022805433322034,0.0022805388534913,-0.0017150525712042,0.0017151001494324,-0.0017150910820504,0.0017150609948975,-0.0017150888832379,0.0017150631147781,-0.001715072799679,0.0017150795238755,1.5569046070888e-09,1.530489617704e-09,-0.00094845432191115,0.00094845738397648,-1.7739786868571e-08,2.151045986416e-08,-0.0011563962481842,0.0011563860764072,-0.0011563832321713,0.0011563991256466,-0.0011563962575918,0.0011563860480811,-0.0011563832210965,0.0011563991158057,-0.00093681305825214,0.0009368292959686,-0.00093681309234152,0.00093682934598241,0.66675281791798,128566,2924,0.0039488784552221,0.008377693659944,0.003948878444004,37.157523166505,5.726018533204e-05,5.726018533204e-05,5.726018533204e-05,4430107.1908476,0.016410253595919
36819200,0.99938299194743,0.01657755945784,0.0044928200618297,0.0075919193447645,0.0044928200512459,-0.00094788055013583,0.00094787947622206,-5.4258310202485e-10,-5.2707356657385e-10,7.5782052199129e-09,-8.947829576125e-09,-0.0011556774127347,0.0011556818687527,-0.0011556774604626,0.0011556819059939,-0.0011556828362488,0.001155676396758,-0.0011556828314198,0.0011556764214103,-0.00093618005858157,0.00093617342974811,-0.00093617999923144,0.00093617344564899,-6.4196979881037e-09,1.0017075113702e-08,2.1523602146788e-08,-1.8238614812543e-08,-0.0020195005587794,0.0020195038809192,-0.0022799219588649,0.0022799329759055,-0.0022799351651187,0.0022799197571174,-0.0022799165397455,0.0022799383934704,-0.002279929734585,0.002279925186578,-0.0017142432078812,0.0017142909947731,-0.0017142819161076,0.0017142516200913,-0.0017142796607767,0.0017142538185951,-0.0017142635761746,0.0017142702323257,1.561688114467e-09,1.5348756717843e-09,-0.00094787847414471,0.00094788154681067,-1.7837671626435e-08,2.1624839012303e-08,-0.001155684760925,0.0011556745278611,-0.0011556716743414,0.0011556876476264,-0.0011556847704315,0.0011556744993782,-0.0011556716633931,0.0011556876376171,-0.00093616855922943,0.00093618487360548,-0.00093616859355741,0.00093618492445629,0.64957834666337,128566,2924,0.0039464840151802,0.0083746483157213,0.0039464840038594,36.818858314964,5.4550866519711e-05,5.4550866519711e-05,5.4550866519711e-05,4428315.3244816,0.016402287335461
37019200,0.99942555359569,0.016578245083043,0.0044930056444791,0.0075922338046685,0.004493005633895,-0.0009482452890429,0.00094824421479669,-5.4288141063416e-10,-5.2707270355231e-10,7.5686775663935e-09,-8.9411574590124e-09,-0.001155913528514,0.00115591797933,-0.0011559135767928,0.0011559180175839,-0.0011559189459771,0.0011559125124232,-0.0011559189421891,0.0011559125383576,-0.00093649350146686,0.00093648688063776,-0.00093649345500764,0.00093648690785804,-6.4162832736562e-09,1.0004160772873e-08,2.1459342899746e-08,-1.818147377428e-08,-0.0020197955442646,0.0020197988627531,-0.0022803736437739,0.0022803846264484,-0.0022803868098567,0.0022803714460288,-0.0022803682303387,0.0022803900385794,-0.0022803813848371,0.0022803768703494,-0.0017144236626346,0.0017144713164706,-0.0017144622065555,0.001714432014987,-0.0017144600307011,0.0017144342348498,-0.0017144439659415,0.0017144506429077,1.5598681650781e-09,1.532681495114e-09,-0.00094824321317603,0.00094824628588642,-1.7769741183899e-08,2.1575642121735e-08,-0.0011559208563687,0.0011559106573395,-0.0011559078085313,0.0011559237378961,-0.0011559208658711,0.0011559106285969,-0.0011559077972488,0.0011559237277939,-0.00093648202976399,0.00093649829135041,-0.00093648206638476,0.00093649834289971,0.6896181654216,128566,2924,0.0039479947582284,0.0083758721591647,0.0039479947482988,37.016416688604,5.6131333508831e-05,5.6131333508831e-05,5.6131333508831e-05,4439924.6263985,0.016406598884154
37219200,0.99946586195849,0.016578937270694,0.0044931948957325,0.0075925474898125,0.0044931948851487,-0.00094880815261163,0.00094880707851949,-5.4311952206774e-10,-5.2684643484426e-10,7.5599813412374e-09,-8.9319472799065e-09,-0.0011565326401251,0.0011565370845255,-0.0011565326870794,0.0011565371228404,-0.0011565380511886,0.0011565316240061,-0.0011565380469118,0.0011565316486247,-0.00093708283591622,0.00093707621943569,-0.00093708278520507,0.00093707624342646,-6.4058854316561e-09,9.9943337154948e-09,2.1345133932751e-08,-1.8066987426818e-08,-0.0020205223220805,0.002020525639934,-0.0022811409160167,0.0022811518268021,-0.0022811540065214,0.0022811387231742,-0.0022811355087841,0.0022811572327613,-0.0022811485886405,0.002281144139576,-0.0017150925990734,0.0017151400189084,-0.0017151309170631,0.0017151009541257,-0.0017151287964318,0.0017151031043332,-0.0017151127546693,0.0017151194939193,1.5542901133201e-09,1.5265607299788e-09,-0.00094880608368775,0.00094880914314518,-1.7653784088073e-08,2.1442886631899e-08,-0.0011565399304456,0.001156529799849,-0.0011565269644342,0.0011565427981187,-0.0011565399391449,0.0011565297712918,-0.0011565269537158,0.0011565427871591,-0.00093707141371017,0.00093708758631213,-0.0009370714490206,0.00093708763788693,0.73362544131803,128566,2924,0.0039503345508341,0.0083788711709818,0.0039503345418723,37.343366814785,5.8746934518278e-05,5.8746934518278e-05,5.8746934518278e-05,4444591.4548805,0.016414404338568
37419200,0.99950399155802,0.016579548524216,0.0044933600010165,0.0075928285327665,0.0044933599904327,-0.00094933912028227,0.00094933804831688,-5.4228559338376e-10,-5.2543907824279e-10,7.552590717764e-09,-8.9208835803655e-09,-0.0011572797505234,0.0011572841907943,-0.0011572797971727,0.0011572842281179,-0.0011572851562806,0.0011572787360676,-0.0011572851510797,0.0011572787611196,-0.00093770897015666,0.00093770235994502,-0.00093770891109364,0.00093770237817751,-6.3953129340504e-09,9.9883597721711e-09,2.1209316115187e-08,-1.7927878667789e-08,-0.0020214102746489,0.0020214135939951,-0.0022819560298496,0.0022819668557687,-0.0022819690319229,0.0022819538453539,-0.0022819506280653,0.0022819722557361,-0.0022819636188406,0.0022819592570578,-0.0017159859344554,0.0017160330858634,-0.0017160240217756,0.0017159943192234,-0.0017160219445081,0.0017159963585376,-0.0017160059144944,0.0017160127235238,1.5466837954232e-09,1.5185125341774e-09,-0.00094933706105736,0.00094934010249376,-1.7539998127803e-08,2.1295224715504e-08,-0.0011572870017069,0.0011572769460458,-0.0011572741234177,0.0011572898573872,-0.0011572870115035,0.0011572769171382,-0.0011572741128525,0.0011572898467972,-0.00093769760103267,0.00093771367355871,-0.00093769763431034,0.00093771372571755,0.68665559997014,128566,2924,0.0039525478023161,0.0083825281030801,0.0039525477917475,37.673440801913,6.1387526415304e-05,6.1387526415304e-05,6.1387526415304e-05,4440132.7137268,0.016422625043224
37619200,0.99954001102105,0.016580106398285,0.0044935098214832,0.0075930867659024,0.004493509810899,-0.0009498893838239,0.00094988831297636,-5.4199453020017e-10,-5.2466402317668e-10,7.5464531505658e-09,-8.9128842253285e-09,-0.0011578764566574,0.0011578808929642,-0.0011578765027819,0.001157880929978,-0.0011578818576855,0.0011578754427627,-0.0011578818521682,0.0011578754678525,-0.00093828632520034,0.0009382797200204,-0.00093828626453997,0.00093827973786491,-6.3885335486854e-09,9.9813762493365e-09,2.1072729900096e-08,-1.7791623503173e-08,-0.0020221202791086,0.0020221235979589,-0.0022827151614603,0.0022827259012032,-0.0022827280747862,0.0022827129821673,-0.0022827097641343,0.002282731296475,-0.0022827226661115,0.0022827183892495,-0.0017166310362642,0.0017166779149966,-0.0017166688643074,0.0017166394245482,-0.0017166668607511,0.0017166413781688,-0.0017166508426882,0.0017166577274607,1.5399116445982e-09,1.5112784663975e-09,-0.00094988733241278,0.00094989035910528,-1.7414708761072e-08,2.1150384983737e-08,-0.001157883667288,0.001157873688468,-0.0011578708788786,0.0011578865099535,-0.0011578836773438,0.0011578736594411,-0.0011578708685244,0.0011578864992802,-0.00093827500990924,0.00093829097927991,-0.00093827504266285,0.00093829103193093,0.6641528681283,128566,2924,0.0039548351828889,0.0083854576965831,0.0039548351718216,38.003627392357,6.4029019138857e-05,6.4029019138857e-05,6.4029019138857e-05,4445924.6603246,0.016430253136276
37819200,0.99957307198228,0.016580599217265,0.0044936412324121,0.0075933167630253,0.0044936412218276,-0.00094955020612418,0.00094954913631348,-5.4181796340667e-10,-5.2384481279181e-10,7.549196542678e-09,-8.911970848408e-09,-0.0011574406967996,0.0011574451338839,-0.0011574407417861,0.0011574451700086,-0.0011574460990347,0.0011574396833568,-0.0011574460921104,0.0011574397073473,-0.00093789378153176,0.00093788717282504,-0.00093789370635692,0.00093788717945729,-6.3850022152711e-09,9.9869286020689e-09,2.1040631209101e-08,-1.7752916864576e-08,-0.002021671364191,0.0020216746861205,-0.0022823772885006,0.0022823880032908,-0.0022823901794956,0.0022823751101795,-0.0022823718901029,0.0022823933992641,-0.0022823847700006,0.0022823805175678,-0.0017161135006316,0.0017161603186932,-0.0017161513071292,0.001716121946242,-0.0017161492748645,0.0017161238233766,-0.0017161332513842,0.0017161401639678,1.5371697748053e-09,1.5079777797321e-09,-0.00094954816022722,0.00094955117632283,-1.739236643832e-08,2.1096697429041e-08,-0.0011574478981771,0.0011574379399203,-0.0011574351352416,0.0011574507363334,-0.0011574479084948,0.0011574379108879,-0.0011574351255887,0.0011574507254186,-0.00093788247823559,0.00093789842568213,-0.00093788250754318,0.00093789847856967,0.64016142272449,128566,2924,0.0039534242793059,0.0083836078282201,0.0039534242668845,37.803980156357,6.2431841250854e-05,6.2431841250854e-05,6.2431841250854e-05,4446218.7715237,0.016425502245431
38019200,0.99960337056761,0.016581069647721,0.0044937677121795,0.0075935342339468,0.0044937677015946,-0.00094916226069214,0.00094916119047998,-5.4225299549909e-10,-5.2384075985875e-10,7.5509222708424e-09,-8.9147929697824e-09,-0.0011568577653147,0.0011568622032022,-0.0011568578101911,0.00115686223994,-0.0011568631683712,0.0011568567510447,-0.0011568631620286,0.0011568567755623,-0.00093740860783742,0.00093740199880167,-0.0009374085412007,0.00093740201287107,-6.3899198721577e-09,9.9867265207129e-09,2.1014578616519e-08,-1.7730526468058e-08,-0.0020210386607534,0.002021041981106,-0.0022819091420331,0.0022819198395395,-0.0022819220166725,0.0022819069618034,-0.0022819037421255,0.0022819252371229,-0.0022819166058065,0.0022819123706203,-0.0017153902992067,0.0017154370665846,-0.0017154280335654,0.0017153987188231,-0.0017154260500975,0.0017154006061364,-0.0017154100223313,0.0017154169554435,1.536372748926e-09,1.5068181868384e-09,-0.00094916021447708,0.00094916323091514,-1.7362019322698e-08,2.1076836090536e-08,-0.0011568649593767,0.0011568550155548,-0.001156852212777,0.0011568677952624,-0.0011568649695719,0.0011568549865027,-0.0011568522031413,0.0011568677840883,-0.00093739731436365,0.00093741323697524,-0.00093739734504984,0.00093741329118941,0.66569814558919,128566,2924,0.0039518070545521,0.0083810039355949,0.0039518070424081,37.559615515659,6.0476924125274e-05,6.0476924125274e-05,6.0476924125274e-05,4450496.0718922,0.016419563498916
38219200,0.99963116199091,0.016581504518068,0.0044938848070329,0.0075937349145872,0.0044938847964478,-0.00094875934463777,0.00094875827356206,-5.4285104006747e-10,-5.2407132682147e-10,7.5525396135642e-09,-8.9187277044025e-09,-0.0011563696544055,0.0011563740937345,-0.0011563696997113,0.0011563741308953,-0.0011563750592857,0.0011563686395473,-0.0011563750531411,0.0011563686648877,-0.00093695201078427,0.00093694539975879,-0.00093695194723346,0.00093694541754227,-6.3939140285507e-09,9.9881938912387e-09,2.0991224889959e-08,-1.770900935492e-08,-0.0020205077973274,0.0020205111168619,-0.0022814613602232,0.0022814720421014,-0.0022814742203952,0.0022814591783237,-0.0022814559588094,0.0022814774414139,-0.0022814688076893,0.0022814645893876,-0.0017148142272198,0.0017148609503439,-0.0017148519026044,0.0017148226290592,-0.0017148499537454,0.001714824514672,-0.0017148339225608,0.0017148408739834,1.5364296834017e-09,1.5064098272152e-09,-0.00094875729768835,0.00094876031508358,-1.7339019745025e-08,2.1061383789533e-08,-0.0011563768428057,0.0011563669113353,-0.0011563641092096,0.0011563796779475,-0.0011563768533039,0.0011563668819005,-0.0011563640994151,0.0011563796668104,-0.0009369407241897,0.00093695663004687,-0.00093694075524857,0.00093695668415901,0.67076172443654,128566,2924,0.0039501315065278,0.0083788158662498,0.0039501314951501,37.31406933988,5.8512554719038e-05,5.8512554719038e-05,5.8512554719038e-05,4448321.1599199,0.016413931521663
38419200,0.9996568485192,0.016581932477883,0.0044940013245555,0.007593929839357,0.0044940013139701,-0.00094857633752192,0.00094857526486368,-5.4394755684905e-10,-5.2477963259319e-10,7.5523941027741e-09,-8.9225298280149e-09,-0.0011561403817188,0.0011561448214514,-0.0011561404274563,0.0011561448594096,-0.0011561457873037,0.0011561393657846,-0.0011561457819357,0.0011561393922084,-0.0009367361160165,0.00093672950356878,-0.00093673605824884,0.00093672952623098,-6.3989527358569e-09,9.9866806108801e-09,2.0951414951302e-08,-1.7674249749155e-08,-0.002020259335847,0.0020202626530873,-0.0022812736600358,0.0022812843171729,-0.0022812864955679,0.0022812714764608,-0.0022812682577949,0.0022812897177422,-0.0022812810819418,0.0022812768890301,-0.0017145280091312,0.0017145746535268,-0.0017145655776756,0.0017145363719267,-0.0017145636894593,0.0017145382648867,-0.0017145476589457,0.001714554636449,1.5369378280823e-09,1.5065064276809e-09,-0.00094857428896705,0.00094857730902196,-1.7295155186587e-08,2.103397416453e-08,-0.0011561475587265,0.0011561376491322,-0.0011561348486385,0.0011561503919091,-0.0011561475692244,0.0011561376194013,-0.0011561348385416,0.0011561503806644,-0.00093672484281366,0.00093674072047967,-0.00093672487460563,0.00093674077416528,0.7125373304548,128566,2924,0.0039493703425857,0.0083777924220738,0.0039493703334125,37.196481842292,5.7571854738335e-05,5.7571854738335e-05,5.7571854738335e-05,4447226.9935082,0.016411342993219
38619200,0.99968074305343,0.016582332724812,0.0044941103722795,0.007594111990838,0.004494110361694,-0.00094856136865579,0.00094856029559312,-5.4422711870936e-10,-5.2481833746766e-10,7.5539954627452e-09,-8.9241541897447e-09,-0.0011562485938175,0.0011562530332885,-0.0011562486388065,0.0011562530717176,-0.0011562540001666,0.0011562475771573,-0.0011562539943901,0.0011562476023273,-0.00093676409312732,0.00093675747860894,-0.00093676403617756,0.00093675750326658,-6.3989111503626e-09,9.9870544645768e-09,2.0910088112161e-08,-1.7632346977433e-08,-0.0020203984780931,0.0020204017952447,-0.0022813588201261,0.0022813694476148,-0.0022813716277335,0.0022813566348095,-0.0022813534174686,0.0022813748487525,-0.0022813662143952,0.0022813620462998,-0.0017146867983665,0.0017147333590743,-0.0017147242767135,0.0017146951625639,-0.0017147224217395,0.001714697030664,-0.0017147063923213,0.0017147134047376,1.5348704062112e-09,1.5037264941483e-09,-0.00094855932226652,0.00094856233761608,-1.7247770596859e-08,2.0982611638331e-08,-0.0011562557571771,0.0011562458746242,-0.0011562430793326,0.0011562585845996,-0.0011562557669405,0.0011562458449582,-0.0011562430698279,0.0011562585725641,-0.00093675283718678,0.00093676867913487,-0.0009367528687301,0.00093676873310208,0.71625966799264,128566,2924,0.0039493130062007,0.0083783618316919,0.0039493129970884,37.193711778009,5.7549694224073e-05,5.7549694224073e-05,5.7549694224073e-05,4439355.0167973,0.016411808049742
38819200,0.99970297391929,0.016582706339156,0.0044942122328045,0.0075942818841327,0.0044942122222191,-0.00094854586623932,0.00094854479389324,-5.4414500296059e-10,-5.2408421834946e-10,7.5553993702079e-09,-8.9241307185794e-09,-0.0011563576201227,0.0011563620609181,-0.0011563576647112,0.0011563620984413,-0.001156363027469,0.0011563566038316,-0.0011563630212408,0.0011563566298679,-0.00093679531243224,0.00093678869681016,-0.00093679524965304,0.00093678871723735,-6.3975748597148e-09,9.9902965348279e-09,2.0875700887609e-08,-1.7594507304291e-08,-0.0020205456173236,0.002020548936569,-0.0022814473908846,0.0022814579952976,-0.002281460175681,0.0022814452077978,-0.0022814419876635,0.002281463396626,-0.0022814547612283,0.0022814506207855,-0.0017148586574401,0.0017149051550791,-0.0017148960952266,0.0017148670493617,-0.0017148942367009,0.0017148688676404,-0.0017148782026272,0.0017148852367704,1.5326678349633e-09,1.5011251911499e-09,-0.00094854382309542,0.00094854683209581,-1.7221950646759e-08,2.0939098909316e-08,-0.0011563647738432,0.0011563549124821,-0.0011563521195912,0.0011563675997679,-0.0011563647846418,0.0011563548824723,-0.0011563521101395,0.0011563675879628,-0.00093678406936702,0.00093679988401563,-0.00093678409923214,0.00093679993949136,0.71844600401556,128566,2924,0.0039492535281031,0.0083789639218256,0.0039492535177555,37.193612367708,5.7548898941663e-05,5.7548898941663e-05,5.7548898941663e-05,4431702.9061621,0.016412301924245
38880000,0.9997095817809,0.016582817514897,0.0044942425582727,0.0075943324089367,0.0044942425476872,-0.00094853739467322,0.00094853632274616,-5.4402483615734e-10,-5.2375423103667e-10,7.5557535090969e-09,-8.9235469691772e-09,-0.001156390151641,0.0011563945925327,-0.0011563901962418,0.0011563946300984,-0.001156395559045,0.0011563891355784,-0.0011563955525227,0.0011563891614847,-0.00093680379970621,0.00093679718412216,-0.00093680373570728,0.00093679720408471,-6.3978935810369e-09,9.9911329327471e-09,2.0870856659067e-08,-1.758934761421e-08,-0.0020205917396058,0.0020205950589335,-0.0022814745607994,0.0022814851614332,-0.0022814873425943,0.0022814723774828,-0.0022814691571889,0.002281490563131,-0.0022814819277226,0.002281477790876,-0.001714912947127,0.0017149594356074,-0.0017149503805414,0.0017149213447135,-0.0017149485211959,0.0017149231542609,-0.0017149324849081,0.0017149395229974,1.5323777747987e-09,1.5007306847771e-09,-0.00094853535218184,0.00094853836012432,-1.7221621579517e-08,2.0935474716596e-08,-0.0011563973048959,0.0011563874447967,-0.0011563846520614,0.0011564001305908,-0.0011563973158223,0.0011563874147892,-0.0011563846427343,0.0011564001188525,-0.00093679255721492,0.00093680837049326,-0.00093679258687353,0.0009368084260274,0.71909630695935,128566,2924,0.003949219987799,0.0083791524756658,0.0039492199770868,37.193608884262,5.7548871074097e-05,5.7548871074097e-05,5.7548871074097e-05,4429239.3367486,0.016412426271694
