time,ASR_ext,ASR_strain,ASR_strain_xx,ASR_strain_yy,ASR_strain_zz,disp_x_101,disp_x_102,disp_x_103,disp_x_104,disp_x_105,disp_x_106,disp_x_p1_neg,disp_x_p1_pos,disp_x_p2_neg,disp_x_p2_pos,disp_x_p3_neg,disp_x_p3_pos,disp_x_p4_neg,disp_x_p4_pos,disp_x_p5_neg,disp_x_p5_pos,disp_x_p6_neg,disp_x_p6_pos,disp_y_101,disp_y_102,disp_y_103,disp_y_104,disp_y_105,disp_y_106,disp_y_p1_neg,disp_y_p1_pos,disp_y_p2_neg,disp_y_p2_pos,disp_y_p3_neg,disp_y_p3_pos,disp_y_p4_neg,disp_y_p4_pos,disp_y_p5_neg,disp_y_p5_pos,disp_y_p6_neg,disp_y_p6_pos,disp_y_p7_neg,disp_y_p7_pos,disp_y_p8_neg,disp_y_p8_pos,disp_z_101,disp_z_102,disp_z_103,disp_z_104,disp_z_105,disp_z_106,disp_z_p1_neg,disp_z_p1_pos,disp_z_p2_neg,disp_z_p2_pos,disp_z_p3_neg,disp_z_p3_pos,disp_z_p4_neg,disp_z_p4_pos,disp_z_p5_neg,disp_z_p5_pos,disp_z_p6_neg,disp_z_p6_pos,humidity,ndof,nelem,strain_xx,strain_yy,strain_zz,temp,thermal_strain_xx,thermal_strain_yy,thermal_strain_zz,vonmises,vstrain
2419200,0,0,0,0,0,0,0,0,0,0,0,0,0,0,0,0,0,0,0,0,0,0,0,0,0,0,0,0,0,0,0,0,0,0,0,0,0,0,0,0,0,0,0,0,0,0,0,0,0,0,0,0,0,0,0,0,0,0,0,0,0,0,0,0,0,0,0,0,0,0,0,0,0,0,0
2619200,0.019598382203787,0.00040201972770966,0.00013400657590322,0.00013400657590322,0.00013400657590322,-3.3155385970979e-05,3.3156873871607e-05,7.2921525224068e-10,7.4389317884725e-10,-2.9278408608139e-09,4.5225242788204e-09,-3.3096615405177e-05,3.3095643059882e-05,-3.3096550296e-05,3.3095589153814e-05,-3.3094204769709e-05,3.3098093748638e-05,-3.3094205515733e-05,3.3098104791468e-05,-3.4063759850096e-05,3.4067690747874e-05,-3.4063730909839e-05,3.4067681764721e-05,2.4072763118593e-09,-4.9463533919095e-09,-1.530564270528e-08,1.2887930535672e-08,-3.6318290874174e-05,3.6315852165009e-05,-3.582108594878e-05,3.5811837877415e-05,-3.5812092958789e-05,3.5821297580186e-05,-3.5823416373065e-05,3.5809380640933e-05,-3.5814422966106e-05,3.5818840020011e-05,-3.6440343487644e-05,3.6407831564272e-05,-3.6412993412977e-05,3.6435826011241e-05,-3.6417351234239e-05,3.6431434512769e-05,-3.6424549696054e-05,3.6424111176705e-05,-2.7839981873833e-09,-2.798448168405e-09,-3.3158947457441e-05,3.3153315286485e-05,1.0964126728725e-08,-1.7031782962438e-08,-3.3094211159298e-05,3.3097977666212e-05,-3.3103487332985e-05,3.3088697385754e-05,-3.3094223331778e-05,3.309797901106e-05,-3.3103495950186e-05,3.3088695954456e-05,-3.4073252527548e-05,3.4058329850743e-05,-3.407321474785e-05,3.4058311191351e-05,0.81992967912198,128566,2924,0.00013814097864554,0.00015130959815542,0.00013814098469194,31.569203262775,1.2553626102204e-05,1.2553626102204e-05,1.2553626102204e-05,694639.03473004,0.00042768323772719
2819200,0.041182746396099,0.00083529636854059,0.00027631723053662,0.00028266189146591,0.00027631724653806,-6.7401666886786e-05,6.7400103550795e-05,-7.792706694536e-10,-7.6220703190333e-10,1.3955102973815e-09,-3.0454062027324e-09,-6.8458950518172e-05,6.845886733693e-05,-6.8458927682624e-05,6.8458849447987e-05,-6.8460386768453e-05,6.8457381503958e-05,-6.8460377644533e-05,6.8457389558883e-05,-6.9002527492071e-05,6.899950197997e-05,-6.9002593824301e-05,6.8999619558929e-05,-9.162967035735e-10,3.6301619659078e-09,-6.3271337860677e-09,8.9830535943164e-09,-7.5470999250471e-05,7.5473640458859e-05,-7.5119707518762e-05,7.5115805274218e-05,-7.5114748917013e-05,7.5120905671419e-05,-7.5118287524151e-05,7.5117326697429e-05,-7.5113324340419e-05,7.5122432850695e-05,-7.5126654108073e-05,7.5115791470177e-05,-7.5111791140688e-05,7.5131003007976e-05,-7.5119581738231e-05,7.5122895494314e-05,-7.5115194293247e-05,7.5127461788611e-05,-2.2828719571472e-10,-2.3524975213047e-10,-6.7401110350973e-05,6.7400665102995e-05,7.1530681721848e-09,-7.8201709466872e-09,-6.8456609698013e-05,6.8461221395688e-05,-6.8461593689493e-05,6.8456237396708e-05,-6.8456604508768e-05,6.8461204756964e-05,-6.8461589059495e-05,6.8456232879802e-05,-6.9003790819177e-05,6.8998269657529e-05,-6.9003827222057e-05,6.8998305631143e-05,0.82138491666861,128566,2924,0.00028079774161342,0.00031441820508525,0.00028079775206044,32.741613309662,2.1932906477295e-05,2.1932906477295e-05,2.1932906477295e-05,1089349.1748879,0.00087639815934711
3019200,0.062599736341672,0.001256789105507,0.0004112451719132,0.00043429875402205,0.00041124517957179,-9.7329449897743e-05,9.7327008588597e-05,-1.2175694475404e-09,-1.2037537011974e-09,4.4292105699752e-09,-7.0763541256653e-09,-9.9557647196701e-05,9.9559023697935e-05,-9.9557658395869e-05,9.9559038982387e-05,-9.9561350544067e-05,9.9555199383086e-05,-9.9561349752277e-05,9.9555212514626e-05,-9.9672088031886e-05,9.9665841191647e-05,-9.9672163182196e-05,9.9665956052615e-05,-3.4024866619305e-09,8.2030739698608e-09,7.7529555624927e-10,3.8475357252592e-09,-0.00011251246206397,0.00011251708562443,-0.00011254481801443,0.00011254456483447,-0.0001125437626569,0.00011254555983369,-0.00011254112799317,0.000112548429846,-0.00011254006964333,0.00011254942869174,-0.00011136400343586,0.00011136946209072,-0.00011136097101764,0.00011137246862524,-0.00011136942128357,0.00011136376691698,-0.00011135815003206,0.00011137540488455,9.0728760598068e-10,9.022409123948e-10,-9.7327307055228e-05,9.7329152971493e-05,2.3786940745472e-09,-5.5317846022514e-10,-9.9556898035774e-05,9.9559755332607e-05,-9.9557897045721e-05,9.9558772577841e-05,-9.9556885787691e-05,9.9559734049424e-05,-9.9557887560802e-05,9.9558763458089e-05,-9.9668607046595e-05,9.9669374225696e-05,-9.9668643879448e-05,9.9669410125745e-05,0.82013325935841,128566,2924,0.00040545271069791,0.00046870069055155,0.0004054527139024,32.491628688047,1.9933029504375e-05,1.9933029504375e-05,1.9933029504375e-05,1494536.4657857,0.0012804267725582
3219200,0.083771565370861,0.001660327308688,0.000537910212245,0.00058450687908421,0.00053791021735875,-0.00012524053941293,0.00012523796868807,-1.2864627888879e-09,-1.2753244554708e-09,6.0756588560013e-09,-8.9183086986219e-09,-0.00012898166052508,0.00012898406026748,-0.00012898168481729,0.00012898408691075,-0.00012898647066165,0.00012897908156574,-0.00012898646835318,0.00012897909138513,-0.00012813065582434,0.00012812310841693,-0.00012813071609743,0.00012812320299889,-4.4559034006362e-09,1.0632972879551e-08,6.0119025582756e-09,-8.7908364665685e-11,-0.00014911931490843,0.00014912524707583,-0.0001499663496462,0.00014996925786181,-0.00014996826863192,0.00014996718986056,-0.00014996152302751,0.00014997426355107,-0.00014996343921219,0.00014997219920763,-0.00014664649378819,0.00014666341223618,-0.00014665235422565,0.00014665729859104,-0.00014666011380251,0.00014664934885501,-0.00014664543531288,0.00014666446617137,1.521409776563e-09,1.5188505634199e-09,-0.00012523771830434,0.00012524079044494,-1.461210979276e-09,4.6702480329601e-09,-0.00012898232217346,0.000128983351175,-0.00012898031900366,0.00012898538585879,-0.00012898231167753,0.00012898333334846,-0.00012898030909359,0.00012898537797074,-0.00012812439502238,0.00012812942108489,-0.00012812441914719,0.00012812943930039,0.80675914872926,128566,2924,0.00052169580787561,0.00062114775614472,0.00052169580922095,32.203528570437,1.7628228563499e-05,1.7628228563499e-05,1.7628228563499e-05,1826937.294471,0.0016659284374106
3419200,0.1046767738238,0.0020430441985844,0.00065560658827197,0.00073183101884635,0.00065560659146608,-0.00015103183700224,0.00015102947485899,-1.1862275125371e-09,-1.1777324719633e-09,6.7484725370643e-09,-9.4143982090088e-09,-0.00015663618114993,0.00015663918139418,-0.00015663621151518,0.0001566392123604,-0.00015664136582216,0.00015663381884407,-0.00015664136119269,0.0001566338246141,-0.00015418214275009,0.00015417440194167,-0.00015418218014732,0.0001541744683567,-4.6960020776541e-09,1.1564424459572e-08,9.4335414280495e-09,-2.8405860322378e-09,-0.00018501820515951,0.00018502480760776,-0.00018726272066741,0.00018726794003218,-0.00018726665934231,0.00018726381706215,-0.00018725750148715,0.00018727332141653,-0.00018726143740769,0.00018726920202459,-0.00018054799315847,0.00018057202781806,-0.00018055984260528,0.00018055978137416,-0.0001805663764148,0.00018055311197494,-0.00018055055696073,0.00018056938869203,1.8088165501669e-09,1.8087790795455e-09,-0.00015102883736663,0.00015103247442683,-4.1642687778223e-09,8.0586115699048e-09,-0.00015663788759754,0.00015663742057917,-0.00015663386164902,0.00015664147692981,-0.00015663787782645,0.00015663740517621,-0.00015663385276857,0.00015664147179503,-0.00015417447285276,0.00015418211354184,-0.00015417448042784,0.0001541821102076,0.78589837856112,128566,2924,0.00062910011124643,0.00077062209956857,0.00062910011110009,31.914035463406,1.5312283707246e-05,1.5312283707246e-05,1.5312283707246e-05,2113009.8028301,0.0020308862025299
3619200,0.12583962999088,0.0024173337807691,0.00076866101853389,0.00088001174203699,0.00076866102019823,-0.00017637414947173,0.00017637213959557,-1.0134225084124e-09,-1.0051236146115e-09,6.8417856896813e-09,-9.1614595200533e-09,-0.00018407850506825,0.00018408180700365,-0.00018407853757306,0.00018408184265961,-0.00018408364013337,0.00018407650249645,-0.00018408363625878,0.00018407650623592,-0.00017954196087069,0.00017953461744275,-0.00017954198569357,0.00017953466338486,-4.5880550992426e-09,1.1519859830293e-08,1.103317636144e-08,-4.3724716322063e-09,-0.00022186207152647,0.00022186874029454,-0.00022613345094082,0.0002261398172005,-0.00022613841849476,0.00022613465620079,-0.00022612827205939,0.00022614514181444,-0.00022613323949864,0.00022613998170744,-0.00021469675117134,0.00021472387335375,-0.00021471163916535,0.0002147085254273,-0.00021471706940808,0.000214702999624,-0.00021470140834168,0.00021471910628115,1.8053228107092e-09,1.8101555964018e-09,-0.00017637133230854,0.00017637495619232,-5.6885139593768e-09,9.6393017785496e-09,-0.00018408089947993,0.00018407936406931,-0.00018407583901223,0.00018408444897683,-0.00018408088702901,0.00018407935187755,-0.00018407583071541,0.0001840844450146,-0.00017953396465617,0.00017954264494712,-0.0001795339633947,0.00017954263044439,0.77011576441194,128566,2924,0.00073462503369174,0.00092400570101211,0.00073462503250699,31.993931871731,1.5951454973851e-05,1.5951454973851e-05,1.5951454973851e-05,2403714.7088393,0.002396128029376
3819200,0.14760807484897,0.0027976221601021,0.00088190068756962,0.0010338207844807,0.00088190068805179,-0.00020215120258201,0.00020214950649867,-8.5813362808925e-10,-8.5078727644663e-10,6.7426335608674e-09,-8.7459421267141e-09,-0.00021204183157321,0.00021204527548101,-0.00021204186612469,0.00021204531508388,-0.00021204679606311,0.00021204014712628,-0.00021204679580432,0.00021204015150332,-0.0002053892349516,0.00020538237682589,-0.00020538925981071,0.00020538241280804,-4.4123920849653e-09,1.1183866221615e-08,1.1690718306272e-08,-5.1801786081729e-09,-0.00026061915921621,0.00026062567567801,-0.00026739781849311,0.00026740468298386,-0.00026740326634605,0.00026739903841372,-0.00026739279959656,0.000267409835781,-0.00026739824976896,0.00026740418958242,-0.00025021274351267,0.00025024098126315,-0.00025022904581825,0.00025022417823551,-0.00025023368988486,0.00025021948207731,-0.00025021853171751,0.00025023507334009,1.6762469330127e-09,1.6851776371245e-09,-0.00020214867313196,0.00020215203526209,-6.5244771229451e-09,1.0254355896679e-08,-0.00021204467782842,0.00021204238118572,-0.00021203913442249,0.00021204794804452,-0.00021204466360133,0.00021204237242815,-0.00021203912521535,0.0002120479436128,-0.00020538136461705,0.0002053902791949,-0.00020538136481279,0.00020539026527437,0.77140162020681,128566,2924,0.00084195037110776,0.0010853269568696,0.00084195036967408,32.325609217901,1.8604873743208e-05,1.8604873743208e-05,1.8604873743208e-05,2697530.1187548,0.0027730741602571
4019200,0.16997176779185,0.0031848486201077,0.00099560668633546,0.001193635248029,0.00099560668574325,-0.00022793206209274,0.00022793058026978,-7.5052851237097e-10,-7.4640993088587e-10,6.6161831226288e-09,-8.4003208113698e-09,-0.0002402725500219,0.00024027605131584,-0.00024027258660467,0.00024027609008161,-0.00024027735834992,0.00024027108441058,-0.00024027735984332,0.0002402710892183,-0.00023127460866958,0.0002312681235594,-0.0002312746363256,0.00023126815871331,-4.2601079624789e-09,1.0860146536081e-08,1.2037410355156e-08,-5.6889319645923e-09,-0.00030100313243394,0.0003010094841677,-0.00031058818806379,0.00031059532615997,-0.0003105939153852,0.0003105893975308,-0.00031058332084277,0.00031060031903125,-0.00031058905002865,0.00031059438926941,-0.00028699519280845,0.00028702394673305,-0.0002870123155054,0.00028700629498631,-0.00028701638449675,0.00028700218620095,-0.0002870016847114,0.00028701730564554,1.5453549058131e-09,1.5561000897221e-09,-0.00022792977138959,0.0002279328694501,-7.0598876606825e-09,1.0552324294961e-08,-0.00024027570354263,0.00024027285241356,-0.00024026988641421,0.00024027869295101,-0.00024027569020737,0.00024027284506791,-0.00024026987603348,0.00024027868938558,-0.0002312669163873,0.00023127584710418,-0.00023126692041314,0.00023127583104992,0.77299486085921,128566,2924,0.00094928213126815,0.0012533905443435,0.00094928212809164,32.663140864518,2.1305126916146e-05,2.1305126916146e-05,2.1305126916146e-05,2964098.3017406,0.0031569395812387
4219200,0.19290509787258,0.0035793690272987,0.0011098100716717,0.0013597488855506,0.0011098100700764,-0.00025372069427241,0.00025371934094165,-6.8576974450191e-10,-6.8427657800208e-10,6.5047844869359e-09,-8.1563011044235e-09,-0.00026885480886824,0.00026885832021604,-0.00026885484533664,0.0002688583570145,-0.00026885950046067,0.00026885347525761,-0.00026885950311644,0.00026885347962756,-0.00025721699233097,0.000257210756188,-0.0002572170241187,0.00025721079066163,-4.1500114203674e-09,1.0611910173414e-08,1.2145182046055e-08,-5.9267398447543e-09,-0.00034308381744651,0.00034309003711599,-0.00035566688418266,0.00035567412361893,-0.00035567272628694,0.00035566808065932,-0.0003556621318865,0.00035567899642237,-0.00035566797565998,0.00035567295251342,-0.00032524580119694,0.00032527464420134,-0.00032526324873349,0.00032525664247056,-0.0003252669824189,0.00032525288080536,-0.00032525262915559,0.00032526764594405,1.4219425636326e-09,1.4351051145574e-09,-0.00025371859183555,0.00025372144138739,-7.3440691683751e-09,1.0605056672546e-08,-0.00026885815264934,0.00026885493224634,-0.00026885222662514,0.00026886088087331,-0.00026885813954646,0.00026885492667209,-0.00026885221567982,0.00026886087851256,-0.00025720949158908,0.00025721828848095,-0.00025720949841887,0.00025721827025597,0.77488673997512,128566,2924,0.0010566373452702,0.0014284832831459,0.001056637341118,33.000881309472,2.4007050475776e-05,2.4007050475776e-05,2.4007050475776e-05,3204445.696963,0.0035480543269558
4419200,0.21677822887011,0.0039875653919902,0.0012262791132558,0.001535007167836,0.0012262791108983,-0.00028040391658623,0.00028040265893938,-6.3670317727447e-10,-6.3960953195329e-10,6.3630187470256e-09,-7.9153184659248e-09,-0.000298673962317,0.00029867744580949,-0.00029867400058051,0.00029867747892989,-0.00029867852982854,0.00029867272805591,-0.00029867853451632,0.00029867273445731,-0.00028412747289932,0.00028412145862528,-0.00028412749519307,0.00028412148197535,-4.019769316689e-09,1.0353041670595e-08,1.1961684034028e-08,-5.8624648648696e-09,-0.00038799202555802,0.00038799812584717,-0.00040378866038408,0.00040379583391539,-0.00040379442936599,0.00040378987400345,-0.00040378403438444,0.00040380057487584,-0.0004037898020087,0.00040379461683675,-0.0003660352643255,0.00036606360902954,-0.00036605243817669,0.00036604583132751,-0.00036605604746428,0.00036604227612526,-0.00036604207398069,0.00036605666503927,1.2925307510135e-09,1.3063709895868e-09,-0.00028040199417001,0.00028040457986864,-7.344295019152e-09,1.0353816137489e-08,-0.00029867738157564,0.00029867397189366,-0.00029867154142628,0.00029867983237488,-0.00029867737004566,0.00029867396559908,-0.00029867152862494,0.0002986798316672,-0.00028412025036102,0.00028412871300771,-0.00028412025939615,0.00028412868535709,0.77612068917171,128566,2924,0.0011677077390914,0.0016153046643351,0.0011677077359989,33.595274554059,2.8762196432473e-05,2.8762196432473e-05,2.8762196432473e-05,3436538.4595889,0.0039585578060772
4619200,0.24172889327987,0.0044114595931019,0.0013455098250038,0.0017204399454629,0.0013455098226352,-0.00030783480924811,0.00030783360905116,-6.0597806772717e-10,-6.1329988602886e-10,6.2324080911613e-09,-7.7208656805445e-09,-0.00032956728192826,0.00032957071798336,-0.00032956731925787,0.00032957074415727,-0.00032957174781002,0.00032956610766882,-0.00032957175100799,0.00032956611281185,-0.00031186872533306,0.00031186287599767,-0.00031186874576181,0.00031186289805709,-3.9077602174166e-09,1.0134218217193e-08,1.1700515364243e-08,-5.7009909029206e-09,-0.00043562267529772,0.00043562867484388,-0.00045491530014333,0.00045492234653724,-0.00045492093805339,0.00045491652827541,-0.00045491078272659,0.00045492697467621,-0.00045491641567287,0.00045492116184947,-0.00040918135820563,0.00040920907481641,-0.00040919812198044,0.00040919172566464,-0.0004092016554292,0.00040918824246036,-0.00040918799881129,0.000409202302864,1.1917138258692e-09,1.2061645347951e-09,-0.00030783301693951,0.00030783539841013,-7.2382604382739e-09,1.0038264468439e-08,-0.00032957070772589,0.00032956723499237,-0.00032956500931134,0.00032957295211538,-0.00032957069861183,0.00032956722845402,-0.00032956499572734,0.00032957295421562,-0.00031186174997422,0.00031186987285205,-0.00031186176226042,0.00031186983826342,0.77693647367836,128566,2924,0.001281881730878,0.0018134098607539,0.0012818817247355,34.29325610554,3.4346048844321e-05,3.4346048844321e-05,3.4346048844321e-05,3658548.1660133,0.0043867987090458
4819200,0.26772699261171,0.0048505928518858,0.0014674102836899,0.0019157722878322,0.0014674102803637,-0.00033581652679456,0.0003358153487005,-5.9390219546122e-10,-6.0319679286778e-10,6.1249716806899e-09,-7.5848890702424e-09,-0.00036129728469472,0.00036130066278448,-0.0003612973178691,0.00036130068432002,-0.00036130167560183,0.00036129613446204,-0.00036130167751733,0.00036129613612266,-0.0003402512179817,0.00034024547422924,-0.00034025123732108,0.00034024548869395,-3.8280544311383e-09,9.9695307146506e-09,1.1474998623272e-08,-5.5546735744028e-09,-0.00048567364736156,0.00048567956666555,-0.00050878536030492,0.00050879228566876,-0.00050879087964982,0.00050878659302733,-0.00050878092242981,0.00050879683215747,-0.00050878643707957,0.00050879114459004,-0.00045434127550969,0.00045436846894622,-0.00045435769067522,0.00045435149703979,-0.00045436117317544,0.00045434804563005,-0.0004543477552772,0.00045436185595017,1.1352221515449e-09,1.152716758031e-09,-0.00033581480119898,0.00033581707046231,-7.116763456291e-09,9.794239164456e-09,-0.00036130067575448,0.00036129721390303,-0.00036129509747027,0.0003613028095277,-0.00036130066645323,0.00036129721011355,-0.00036129508472505,0.00036130281361686,-0.00034024440811594,0.00034025230000459,-0.00034024441875393,0.00034025226103287,0.77792180153035,128566,2924,0.0013983404960772,0.0020215341122565,0.0013983404880909,34.993680145732,3.9949441165859e-05,3.9949441165859e-05,3.9949441165859e-05,3865941.4545468,0.0048298835927167
5019200,0.29472504968742,0.0053029481096463,0.001591493929519,0.0021199602548232,0.0015914939253041,-0.00036423899781051,0.0003642378252712,-5.8956473858612e-10,-6.0134381533475e-10,6.0297057626886e-09,-7.4783250674937e-09,-0.0003937702466379,0.00039377356321724,-0.00039377027697655,0.00039377358034729,-0.00039377457416778,0.00039376910242841,-0.00039377457506792,0.00039376910126049,-0.0003691717432047,0.00036916607489284,-0.00036917176130899,0.00036916608311356,-3.7422091136539e-09,9.852217278672e-09,1.1311106729674e-08,-5.4181257696092e-09,-0.00053789406954914,0.00053789996094313,-0.00056518166589697,0.00056518853245567,-0.00056518708812268,0.00056518294034842,-0.00056517729492275,0.00056519301084738,-0.00056518271275965,0.00056518742350322,-0.00050121067483051,0.0005012374791225,-0.00050122680633601,0.00050122081119037,-0.00050123024708992,0.00050121739300947,-0.00050121702754945,0.00050123099655453,1.1103417257397e-09,1.1303765031207e-09,-0.00036423729858203,0.00036423952028766,-6.9978587043378e-09,9.6179503208787e-09,-0.00039377357914547,0.00039377017115793,-0.00039376809775963,0.00039377566941886,-0.00039377357023388,0.0003937701695694,-0.00039376808528426,0.00039377567531742,-0.00036916504092596,0.00036917279023271,-0.00036916505177022,0.00036917274680704,0.7767732676183,128566,2924,0.0015166268750496,0.0022386257591929,0.0015166268662757,35.694191682433,4.5553533459465e-05,4.5553533459465e-05,4.5553533459465e-05,4054427.23603,0.0052858559147865
5219200,0.32202716650241,0.0057589202446336,0.0017153959262461,0.0023281283969074,0.00171539592148,-0.00039187061630013,0.00039186941695705,-6.0504862163214e-10,-6.1150470905408e-10,6.0027404441085e-09,-7.4744463556033e-09,-0.00042560880819502,0.00042561207883765,-0.00042560882685403,0.00042561210314482,-0.00042561312573347,0.00042560763772793,-0.00042561313061025,0.00042560762843699,-0.0003974442941591,0.000397438628439,-0.00039744433192848,0.0003974386192699,-3.7564767857716e-09,9.8183857656427e-09,1.1425051914154e-08,-5.5821580331391e-09,-0.00059032807900655,0.00059033391906593,-0.00062203768799878,0.00062204458946985,-0.00062204318832905,0.00062203891127651,-0.00062203331574662,0.00062204907142953,-0.00062203882742974,0.00062204338241627,-0.00054798369380972,0.00054801074210121,-0.00054800014401641,0.00054799379386183,-0.00054800342019924,0.0005479904671532,-0.00054799023770505,0.00054800402293224,1.1444137825199e-09,1.1747889326111e-09,-0.00039186886352548,0.00039187116528336,-7.0944215594529e-09,9.7871064373761e-09,-0.00042561212921438,0.00042560870959188,-0.00042560655118085,0.00042561430364873,-0.0004256121097154,0.00042560871983373,-0.0004256065443942,0.00042561430641231,-0.00039743752195929,0.00039744542032166,-0.00039743751687057,0.00039744539082302,0.77855553281239,128566,2924,0.0016316174920235,0.002456547889202,0.0016316174827404,36.023292196429,4.8186337571431e-05,4.8186337571431e-05,4.8186337571431e-05,4209531.0000077,0.0057362440191268
5419200,0.34943021323698,0.0062090358132127,0.0018366360897763,0.0025357636396502,0.0018366360837863,-0.0004187122859343,0.00041871106098106,-6.150543517838e-10,-6.2637357713631e-10,5.9900287776002e-09,-7.4866844797076e-09,-0.00045695010286414,0.00045695335253982,-0.00045695012531284,0.00045695337245179,-0.0004569544278869,0.00045694891056698,-0.00045695443153884,0.00045694890169237,-0.00042495321203733,0.00042494751799661,-0.00042495324429175,0.00042494750995133,-3.7784965573768e-09,9.7906407694392e-09,1.1536652488891e-08,-5.7425546640145e-09,-0.00064259878593252,0.00064260457668415,-0.00067897635307026,0.00067898329631136,-0.00067898194012371,0.00067897752402922,-0.00067897198268399,0.00067898777781694,-0.00067897758018817,0.0006789819958382,-0.00059427978594606,0.00059430704544065,-0.0005942964906721,0.00059428982888974,-0.00059429968685507,0.00059428659318582,-0.00059428650366455,0.00059430015109264,1.1796716153529e-09,1.2102677697844e-09,-0.00041871048456312,0.00041871285871601,-7.1919578593742e-09,9.9615343949428e-09,-0.00045695342224302,0.00045694998925365,-0.00045694775614974,0.00045695567018789,-0.00045695340516259,0.00045694999710211,-0.00045694774729983,0.00045695567592169,-0.00042494634158527,0.00042495441084792,-0.00042494634395759,0.00042495437166439,0.76958004236099,128566,2924,0.001743317311633,0.0026737332380573,0.0017433173040527,36.276054355984,5.020843484787e-05,5.020843484787e-05,5.020843484787e-05,4330714.9804658,0.006179472563547
5619200,0.37685433014062,0.0066369389616589,0.0019505614216996,0.0027358161238905,0.0019505614160688,-0.0004438899153422,0.00044388867691118,-6.2020390712283e-10,-6.3411483835733e-10,5.9740422371224e-09,-7.4839942474071e-09,-0.0004873005708544,0.00048730380215521,-0.00048730059423387,0.00048730382144586,-0.0004873048931033,0.00048729936720081,-0.00048730489799751,0.00048729935785326,-0.00045045103215979,0.00045044533420602,-0.00045045106660692,0.00045044532295458,-3.7900404419543e-09,9.7575260373656e-09,1.1593877516059e-08,-5.8432791497741e-09,-0.00069350747578084,0.00069351322283874,-0.00073501237060353,0.00073501932958261,-0.00073501800842534,0.00073501350219837,-0.00073500800737473,0.00073502380451689,-0.00073501365452567,0.00073501796846415,-0.00063874087332189,0.00063876823605099,-0.00063875772469382,0.00063875085925053,-0.00063876086400758,0.00063874769127845,-0.00063874769917203,0.00063876123192684,1.1983159509559e-09,1.2314089289948e-09,-0.00044388808701155,0.00044389050206507,-7.2476741879845e-09,1.0063222595513e-08,-0.00048730388818133,0.00048730044380533,-0.00048729816995384,0.00048730617639481,-0.00048730387004176,0.00048730045239453,-0.00048729816018388,0.00048730618288045,-0.00045044411233196,0.00045045227547608,-0.00045044411775748,0.00045045223448357,0.73637049528653,128566,2924,0.0018480909395424,0.0028852040306491,0.0018480909329186,36.526959151082,5.2215673208653e-05,5.2215673208653e-05,5.2215673208653e-05,4422135.5522828,0.0066032002395253
5819200,0.40421904114767,0.0070467891415161,0.0020587499983969,0.0029292891502084,0.0020587499929109,-0.00046771917216368,0.00046771792669046,-6.2236420987247e-10,-6.3889359669397e-10,5.952598151911e-09,-7.4690279447644e-09,-0.00051684080396882,0.00051684401669734,-0.00051684082804967,0.00051684403476715,-0.00051684511624122,0.00051683959426502,-0.00051684512198103,0.00051683958425672,-0.00047428419541993,0.00047427850477237,-0.00047428423058065,0.0004742784896629,-3.7921113631009e-09,9.7165813850202e-09,1.1596425052704e-08,-5.8880609947783e-09,-0.00074334215126778,0.00074334785597557,-0.00079042463013616,0.00079043157503665,-0.00079043028331101,0.00079042573084434,-0.0007904202790291,0.00079043603746194,-0.00079042594112848,0.00079043018497549,-0.00068175578259315,0.00068178313678921,-0.00068177267832034,0.00068176571186095,-0.00068177577997597,0.00068176258480453,-0.00068176265072089,0.00068177608819526,1.2094114732637e-09,1.2449640603923e-09,-0.00046771732834051,0.00046771976748808,-7.2577940542854e-09,1.010046527154e-08,-0.00051684410798829,0.00051684067292291,-0.00051683837484644,0.00051684642045321,-0.00051684408908118,0.00051684068220201,-0.00051683836396318,0.00051684642770646,-0.00047427725689037,0.00047428546291053,-0.00047427726606093,0.00047428542020979,0.71317584701429,128566,2924,0.001947253390887,0.0030921618428408,0.001947253384577,36.77779694639,5.422237557112e-05,5.422237557112e-05,5.422237557112e-05,4507538.733148,0.0070112623961361
6019200,0.43103898380907,0.007439476404772,0.0021617562132853,0.003115963983656,0.0021617562078307,-0.00048981654167967,0.00048981528027384,-6.2909751030252e-10,-6.4797764536117e-10,5.9581907939889e-09,-7.4880128398183e-09,-0.00054496496898977,0.00054496817267329,-0.00054496499115947,0.00054496818830114,-0.00054496929103788,0.00054496374424095,-0.00054496929529633,0.00054496372983689,-0.00049625829871482,0.00049625258658423,-0.00049625833246704,0.00049625256300379,-3.8205623545603e-09,9.7121888832963e-09,1.1730688244938e-08,-6.056385710015e-09,-0.00079152106109521,0.00079152673062266,-0.00084431751960371,0.00084432451709948,-0.00084432326904656,0.00084431857317034,-0.00084431315965676,0.00084432898827466,-0.00084431891901287,0.00084432303495944,-0.00072308099903325,0.00072310862841481,-0.0007230982245848,0.00072309093343474,-0.00072310119445921,0.00072308784466649,-0.00072308803497557,0.00072310136299702,1.2432668250446e-09,1.2814696964813e-09,-0.00048981465618309,0.00048981716310312,-7.3760640674088e-09,1.0278351143004e-08,-0.00054496828539646,0.00054496482413028,-0.00054496245502536,0.00054497066946365,-0.00054496826531103,0.00054496483518271,-0.00054496244453655,0.00054497067735687,-0.00049625126769398,0.00049625964462563,-0.00049625127690071,0.00049625960214871,0.70261524035494,128566,2924,0.0020392114842666,0.003292193112518,0.0020392114786744,36.775504191197,5.4204033529576e-05,5.4204033529576e-05,5.4204033529576e-05,4567613.5787371,0.0073979998915626
6219200,0.45724325565201,0.00782493083501,0.0022628431198379,0.0032992445994762,0.0022628431156959,-0.00051128833883219,0.0005112870668609,-6.3301584980307e-10,-6.5458792095671e-10,5.9519314962751e-09,-7.4931333488315e-09,-0.00057246443880024,0.00057246763274111,-0.00057246446248252,0.00057246764789748,-0.00057246876140007,0.0005724632053377,-0.00057246876661843,0.00057246319032381,-0.00051768794838063,0.00051768222848584,-0.00051768798218702,0.00051768220016104,-3.8363064887936e-09,9.6933770335148e-09,1.1803475983382e-08,-6.1631416396652e-09,-0.00083893434167243,0.00083893997764553,-0.00089737285079253,0.00089737987585326,-0.00089737865845233,0.00089737387079277,-0.00089736849121275,0.00089738434638204,-0.00089737430872431,0.00089737833196453,-0.00076387075784468,0.00076389852798751,-0.00076388814355015,0.00076388064041565,-0.00076389107160176,0.00076387762822396,-0.00076387791555571,0.00076389114744875,1.2650809973241e-09,1.3057185472489e-09,-0.00051128642572395,0.00051128897914474,-7.4371294358596e-09,1.0395257521974e-08,-0.00057246775842129,0.00057246428102789,-0.00057246187036272,0.00057247018408685,-0.00057246773742036,0.00057246429256403,-0.0005724618588012,0.00057247019281056,-0.00051768086013126,0.00051768934456065,-0.00051768087257864,0.00051768929892077,0.70745492582635,128566,2924,0.002128568062296,0.0034889973773404,0.0021285680605647,36.758747724711,5.4069981797692e-05,5.4069981797692e-05,5.4069981797692e-05,4609583.6385895,0.0077763947274829
6419200,0.48279068051805,0.0081976794521932,0.0023604271174608,0.0034768252203,0.0023604271144325,-0.00053188719546079,0.00053188591784111,-6.3447910043724e-10,-6.5865946260347e-10,5.9357001034556e-09,-7.4826681256545e-09,-0.00059916021670903,0.00059916339697522,-0.00059916024075709,0.00059916341067487,-0.00059916453036489,0.00059915897866219,-0.00059916453601854,0.00059915896241002,-0.00053823779545172,0.00053823208149411,-0.00053823783325328,0.00053823205246797,-3.8375777974855e-09,9.6633490514667e-09,1.182128040938e-08,-6.2123460833562e-09,-0.00088502248534743,0.00088502809009338,-0.00094904440085323,0.00094905142669943,-0.00094905023031013,0.00094904539803783,-0.00094904005005868,0.00094905588781084,-0.00094904588905042,0.00094904985011667,-0.00080353165895985,0.00080355945354286,-0.00080354910172264,0.00080354149221489,-0.00080355199871478,0.00080353852760563,-0.00080353886995549,0.00080355202081296,1.2766155734718e-09,1.3197429600462e-09,-0.00053188526669025,0.0005318878464328,-7.4546005955983e-09,1.0444337541952e-08,-0.00059916352897054,0.00059916005257588,-0.00059915761989542,0.00059916597656193,-0.00059916350728807,0.00059916006495356,-0.00059915760744995,0.00059916598613431,-0.00053823068454405,0.00053823921887942,-0.00053823070066028,0.00053823917126232,0.70210893536586,128566,2924,0.0022142947932626,0.0036802536705944,0.0022142947928772,36.741585593679,5.3932684749435e-05,5.3932684749435e-05,5.3932684749435e-05,4641161.5163246,0.0081420233195441
6619200,0.50805744683976,0.0085897236031567,0.0024644574798926,0.0036608086457905,0.0024644574774735,-0.00055397199686993,0.00055397072274409,-6.3167976763325e-10,-6.5835230085222e-10,5.8867631486344e-09,-7.4302050660708e-09,-0.00062678053290273,0.00062678368263163,-0.00062678055580801,0.00062678369565745,-0.00062678481042366,0.00062677929832724,-0.00062678481826943,0.00062677928064832,-0.00056045158912489,0.00056044591819436,-0.00056045163833957,0.000560445889314,-3.8043508339876e-09,9.5940091401064e-09,1.1631793862505e-08,-6.0572373393513e-09,-0.00093231369989784,0.00093231927096265,-0.0010018511179561,0.0010018580321893,-0.0010018568370093,0.0010018521184636,-0.0010018467986291,0.0010018624600276,-0.0010018525288859,0.0010018565356068,-0.00084457670738414,0.0008446040962909,-0.00084459379224496,0.00084458644936258,-0.00084459677038402,0.00084458347817154,-0.0008445837462447,0.00084459687147197,1.2614006720312e-09,1.3071406503942e-09,-0.00055397008317138,0.00055397263631655,-7.2920266621203e-09,1.0262088463683e-08,-0.00062678378603237,0.00062678039182892,-0.00062677799065283,0.00062678620182881,-0.00062678376282154,0.00062678040643753,-0.0006267779782595,0.00062678621142627,-0.00056044456651211,0.00056045295573509,-0.00056044458403175,0.00056045290843167,0.74070666862547,128566,2924,0.0023062015594172,0.0038764584980659,0.0023062015591678,37.009225755001,5.607380604001e-05,5.607380604001e-05,5.607380604001e-05,4677866.0027976,0.0085252451741446
6819200,0.53413992231458,0.0090270114215297,0.0025818587524114,0.0038632939183226,0.0025818587507957,-0.00058004545556354,0.00058004420528885,-6.1843177559296e-10,-6.4806221967523e-10,5.7844959646382e-09,-7.3025380852095e-09,-0.00065767990670751,0.0006576830085604,-0.00065767993341312,0.00065768301617311,-0.00065768410920649,0.00065767869452218,-0.00065768411673854,0.000657678682064,-0.0005872001590148,0.00058719458139787,-0.00058720021347239,0.00058719457254452,-3.7069802020641e-09,9.4526622543332e-09,1.1018300988292e-08,-5.4849399952893e-09,-0.00098438667086861,0.00098439220190345,-0.0010594572011512,0.0010594637721975,-0.0010594625464621,0.0010594582510955,-0.0010594529612627,0.0010594681164626,-0.0010594583103506,0.0010594625920618,-0.00089025059074903,0.00089027668071811,-0.00089026647765436,0.00089026019033167,-0.0008902697566772,0.00089025703350589,-0.00089025695634524,0.00089027020626197,1.1867476151502e-09,1.2342842898206e-09,-0.00058004362551716,0.00058004603360454,-6.7876020026533e-09,9.6116789964652e-09,-0.00065768301165482,0.00065767985641243,-0.00065767760185697,0.00065768528066555,-0.00065768299170422,0.00065767986810429,-0.00065767758441654,0.00065768529432886,-0.00058719343070329,0.00058720129905289,-0.00058719346488735,0.00058720124009716,0.79221451275383,128566,2924,0.00241469586576,0.0040924502005816,0.0024146958622089,38.075097375193,6.4600779001545e-05,6.4600779001545e-05,6.4600779001545e-05,4757296.6548084,0.0089620534792884
7019200,0.56093693967461,0.0094395496436093,0.0026905001402227,0.0040585493643796,0.002690500139007,-0.00060476297129952,0.00060476174070942,-6.0779444586674e-10,-6.39446862779e-10,5.7076158073616e-09,-7.2007674323507e-09,-0.00068826568145112,0.00068826874116438,-0.00068826570207977,0.00068826874478705,-0.0006882698218024,0.00068826448609142,-0.00068826983006051,0.00068826446953206,-0.00061219364773854,0.00061218815506383,-0.00061219370621088,0.00061218813595777,-3.6368838124313e-09,9.3420105077269e-09,1.0563872410655e-08,-5.0706390024591e-09,-0.0010364411401868,0.0010364466303669,-0.0011170975190659,0.0011171038222962,-0.0011171025887703,0.0011170985959869,-0.0011170933355335,0.0011171081060355,-0.0011170984100227,0.001117102875246,-0.00093566359192047,0.00093568873297613,-0.00093567867354916,0.00093567313797313,-0.0009356820743686,0.00093566978017305,-0.00093566944752892,0.00093568276286997,1.128746227504e-09,1.1787356964469e-09,-0.00060476121010227,0.00060476349933041,-6.4299202397621e-09,9.1068841545736e-09,-0.00068826867788924,0.0006882656932102,-0.00068826355066781,0.00068827083516881,-0.00068826865617059,0.00068826570832626,-0.00068826353451144,0.0006882708481494,-0.00061218716440879,0.0006121946335342,-0.00061218719549199,0.00061219457940447,0.73335807570984,128566,2924,0.0025175537849672,0.0043082977732303,0.0025175537796171,39.159353714128,7.3274829713027e-05,7.3274829713027e-05,7.3274829713027e-05,4772190.0183037,0.0093875292295336
7219200,0.58829751078069,0.0098438578197628,0.002796349934503,0.0042511579523426,0.0027963499329172,-0.00062908511317906,0.00062908389529556,-6.0048590564314e-10,-6.3449402663285e-10,5.6554288201842e-09,-7.1326592101278e-09,-0.00071888413291859,0.00071888716546589,-0.00071888415168611,0.00071888716519707,-0.00071888823256538,0.0007188829492091,-0.00071888824066644,0.00071888293143074,-0.00063643896538613,0.00063643352578337,-0.00063643902236307,0.00063643350225882,-3.5974099786239e-09,9.258055745752e-09,1.0258928194139e-08,-4.8091464274366e-09,-0.0010882977752678,0.0010883032215921,-0.0011749760913567,0.0011749822060659,-0.0011749809823843,0.0011749771708997,-0.0011749719462735,0.0011749864485688,-0.0011749768423106,0.0011749814086814,-0.00098067461251479,0.00098069911452754,-0.00098068915857143,0.00098068409388044,-0.00098069265195534,0.00098068062174872,-0.00098068014321515,0.00098069347938204,1.0906687760069e-09,1.1428679896343e-09,-0.0006290833972364,0.00062908560901423,-6.1995791467009e-09,8.7824039191058e-09,-0.00071888705970914,0.0007188841840636,-0.00071888211620559,0.00071888914264965,-0.00071888703781912,0.00071888420008982,-0.00071888209905855,0.00071888915658097,-0.00063643263581235,0.00063643985279872,-0.00063643266987858,0.00063643979603758,0.70718848610054,128566,2924,0.0026187656304881,0.0045232699586543,0.0026187656258692,40.2442675256,8.19541402048e-05,8.19541402048e-05,8.19541402048e-05,4802999.9581115,0.0098089781619746
7419200,0.61522424816032,0.010227029622706,0.0028960508474096,0.0044349279295491,0.0028960508457475,-0.00065109141862158,0.00065109019849651,-6.0031685476157e-10,-6.3635984039056e-10,5.6757746757499e-09,-7.147730575002e-09,-0.00074753397298275,0.00074753701319071,-0.00074753398883607,0.00074753700746471,-0.0007475380864218,0.00074753278620089,-0.00074753808909872,0.00074753276243291,-0.00065806040341278,0.00065805494648743,-0.00065806045230598,0.0006580549174089,-3.627381373136e-09,9.2613847201129e-09,1.0400852529183e-08,-4.981042892147e-09,-0.0011373073002285,0.0011373127125101,-0.0012301530993483,0.001230159265014,-0.0012301580933859,0.00123015413012,-0.0012301489426905,0.0012301635174283,-0.0012301539406193,0.0012301583787642,-0.0010229025783669,0.0010229273751962,-0.0010229175376336,0.0010229121494399,-0.0010229208169231,0.0010229086249978,-0.0010229082579247,0.0010229214958267,1.1073124445717e-09,1.161505416714e-09,-0.00065108968755409,0.00065109192811314,-6.365367885057e-09,8.9325282949289e-09,-0.00074753694072613,0.00074753400342245,-0.00074753189313608,0.00074753906770742,-0.00074753691924589,0.00074753401986396,-0.00074753187617435,0.00074753908277026,-0.00065805400029925,0.00065806136600431,-0.00065805403538348,0.00065806131003538,0.68501444216899,128566,2924,0.00271034539666,0.0047263899919478,0.0027103453935481,40.771587877901,8.6172703023208e-05,8.6172703023208e-05,8.6172703023208e-05,4826016.5585074,0.010199169986982
7619200,0.64097654329807,0.010584939520736,0.0029887834051477,0.0046073727094789,0.0029887834061095,-0.00067071597746707,0.00067071474310291,-6.0648413458151e-10,-6.4463675966541e-10,5.7209846536896e-09,-7.2084267725396e-09,-0.00077357251673485,0.00077357558151357,-0.00077357253730133,0.00077357557575265,-0.00077357667033208,0.00077357131892441,-0.00077357667274061,0.00077357129649391,-0.00067703893405084,0.00067703342426723,-0.00067703897190887,0.00067703338920021,-3.694188693483e-09,9.298005600076e-09,1.0761934924099e-08,-5.372908369808e-09,-0.0011827345487601,0.0011827399302885,-0.0012816418395939,0.0012816481892345,-0.0012816470763525,0.0012816428014422,-0.0012816376511643,0.0012816524746343,-0.0012816428882989,0.0012816470865787,-0.0010617943150984,0.0010618198486272,-0.0010618100002127,0.0010618038800086,-0.0010618131082279,0.0010618005298447,-0.0010618004435113,0.0010618135094623,1.1585851403612e-09,1.2150389231863e-09,-0.00067071418985841,0.00067071653429917,-6.6875344678243e-09,9.3653343394655e-09,-0.00077357557279618,0.00077357249064661,-0.00077357027575733,0.00077357780442837,-0.00077357555151655,0.00077357250567605,-0.00077357025633708,0.00077357782159944,-0.00067703232980971,0.00067704006143072,-0.00067703237089103,0.00067703999752148,0.67223241392611,128566,2924,0.0027920184856925,0.0049146198117642,0.0027920184930951,40.851876342599,8.681501074079e-05,8.681501074079e-05,8.681501074079e-05,4839550.674133,0.010554441941796
7819200,0.66552020375908,0.010922033320563,0.0030759558411659,0.0047701216351089,0.003075955844288,-0.00068902050646915,0.00068901926461857,-6.0884851222272e-10,-6.4938665985813e-10,5.738280366062e-09,-7.2369080757788e-09,-0.0007978832830356,0.00079788635755748,-0.00079788330831589,0.0007978863563678,-0.00079788745282896,0.00079788208103853,-0.00079788745988157,0.00079788206017905,-0.00069466841435484,0.00069466288818656,-0.0006946684603205,0.00069466285017828,-3.7306087854624e-09,9.3067914947318e-09,1.0991730441768e-08,-5.6297065745638e-09,-0.0012258019556331,0.0012258073111247,-0.0013305795330303,0.0013305860024776,-0.0013305849225815,0.0013305804494089,-0.0013305753300345,0.0013305903038242,-0.0013305807204705,0.001330584750004,-0.0010985603816682,0.0010985863815397,-0.0010985765009616,0.0010985698875157,-0.0010985795271596,0.0010985667158596,-0.0010985668260638,0.0010985797467449,1.1939833936729e-09,1.2526237754282e-09,-0.00068901867624678,0.0006890210988396,-6.876048069922e-09,9.6564716970836e-09,-0.00079788638943845,0.00079788321848296,-0.00079788093248359,0.0007978886913906,-0.00079788636571704,0.00079788323398954,-0.00079788091235789,0.0007978887081514,-0.00069466168317511,0.00069466964477071,-0.00069466172489515,0.00069466958026021,0.6665508389497,128566,2924,0.0028681989675612,0.005093033575137,0.002868198975848,40.921715794911,8.7373726359289e-05,8.7373726359289e-05,8.7373726359289e-05,4847062.1775032,0.010888810311526
8019200,0.68884727867446,0.0112388693039,0.0031577038528024,0.0049234615948083,0.0031577038562891,-0.00070613269075019,0.00070613145135439,-6.0624726565042e-10,-6.4903552456049e-10,5.7366273103466e-09,-7.2339773295464e-09,-0.00082065265831517,0.0008206557359253,-0.00082065268734594,0.00082065573714665,-0.00082065682878829,0.00082065146114922,-0.00082065683863329,0.00082065144147098,-0.00071118634043264,0.00071118082146834,-0.00071118639289954,0.00071118078469453,-3.7385546330752e-09,9.2928922493442e-09,1.1102585844094e-08,-5.7627762993163e-09,-0.0012664909198178,0.00126649625323,-0.0013769236270669,0.0013769301561008,-0.0013769290927287,0.0013769245197072,-0.001376919425708,0.0013769344559252,-0.0013769248924321,0.0013769288186875,-0.0011332103871081,0.0011332366024637,-0.0011332267308775,0.0011332198526618,-0.0011332296859728,0.0011332167775604,-0.0011332169930534,0.0011332298046124,1.2072063790083e-09,1.2680124427989e-09,-0.00070613084535385,0.00070613330013336,-6.975015649795e-09,9.7977430353099e-09,-0.00082065579362792,0.00082065257236136,-0.00082065025646928,0.0008206581247337,-0.00082065576843685,0.00082065258785464,-0.00082065023525884,0.00082065814174018,-0.00071117955695855,0.00071118762623646,-0.00071117960130611,0.00071118756042336,0.66097249530776,128566,2924,0.0029394189290787,0.0052615591728601,0.0029394189360781,40.991179809077,8.792943847262e-05,8.792943847262e-05,8.792943847262e-05,4853826.6966053,0.011203257634415
8219200,0.71110203799044,0.011538030601494,0.0032347548597349,0.0050685208786496,0.0032347548631093,-0.00072243472438078,0.0007224334926697,-6.0134427844618e-10,-6.4652382879437e-10,5.7147293080122e-09,-7.2068585630944e-09,-0.00084231839295633,0.00084232146410202,-0.00084231842541773,0.00084232146789323,-0.00084232254737426,0.0008423172052099,-0.00084232256138252,0.0008423171875316,-0.00072700557127667,0.00072700008066318,-0.00072700562880655,0.00072700004078856,-3.7269059404641e-09,9.2543087698077e-09,1.1079326009666e-08,-5.7650890161938e-09,-0.0013052934284576,0.0013052987377957,-0.0014212098529697,0.0014212163698418,-0.0014212153103591,0.0014212107381112,-0.0014212056673941,0.0014212206535698,-0.0014212111264454,0.0014212150205,-0.0011662356129915,0.0011662617645405,-0.0011662518963488,0.0011662449934574,-0.0011662548742237,0.0011662419948901,-0.0011662422363093,0.001166254979111,1.2040208856906e-09,1.2670327080416e-09,-0.00072243288349575,0.00072243533671405,-6.9548889772981e-09,9.7952572958565e-09,-0.00084232152480426,0.00084231830267717,-0.00084231599404743,0.00084232384782947,-0.00084232149794521,0.00084231831874572,-0.0008423159715782,0.00084232386491862,-0.00072699880514633,0.00072700686159087,-0.00072699885150786,0.00072700679312664,0.65549139911369,128566,2924,0.0030072670526304,0.0054222404877829,0.0030072670592037,41.181727630093,8.9453821040744e-05,8.9453821040744e-05,8.9453821040744e-05,4863869.9113405,0.011503046712544
8419200,0.73233584161514,0.011822484440401,0.0033079951788657,0.0052064940801468,0.0033079951813883,-0.00073797743581264,0.00073797621592469,-5.943535400213e-10,-6.4165029696916e-10,5.6862803066851e-09,-7.1654311085276e-09,-0.00086292351050227,0.00086292657127401,-0.00086292354421922,0.00086292657424393,-0.00086292764259301,0.00086292233483316,-0.00086292765720976,0.00086292231703126,-0.00074217278178507,0.00074216732651487,-0.00074217284185607,0.00074216728753605,-3.7018590159834e-09,9.207507459438e-09,1.0987904199187e-08,-5.6956380528142e-09,-0.0013423185000482,0.0013423237870152,-0.0014635220689406,0.0014635285335423,-0.001463527474958,0.0014635229552642,-0.0014635179061601,0.0014635327929295,-0.0014635233132771,0.0014635272139451,-0.0011977334749459,0.0011977594223351,-0.0011977496079921,0.0011977428186666,-0.0011977525834634,0.001197739805368,-0.0011977400136104,0.001197752717113,1.1893372571992e-09,1.2545710953319e-09,-0.00073797561378004,0.00073797803992239,-6.8910585872433e-09,9.7010338819949e-09,-0.00086292662486874,0.00086292342942549,-0.00086292114621802,0.00086292892212306,-0.00086292659756015,0.00086292344567233,-0.0008629211226703,0.000862928940126,-0.00074216606869522,0.00074217404797341,-0.00074216611839684,0.0007421739771023,0.65380935378526,128566,2924,0.0030719550508101,0.0055755331565506,0.0030719550548835,41.431120677787,9.1448965422299e-05,9.1448965422299e-05,9.1448965422299e-05,4875032.9301957,0.011789053394159
8619200,0.75253310326814,0.012092453475522,0.0033774893709964,0.0053374747314811,0.0033774893730446,-0.00075266951331641,0.00075266830528454,-5.8752447440744e-10,-6.3704324777109e-10,5.6566769216677e-09,-7.1226921705552e-09,-0.00088244026540231,0.00088244331497732,-0.00088244029919989,0.00088244331674628,-0.00088244437403165,0.00088243910214643,-0.00088244438928859,0.00088243908335556,-0.00075658121716184,0.00075657579916003,-0.00075658127669739,0.0007565757548986,-3.6762109625727e-09,9.1591567016969e-09,1.0881752748747e-08,-5.6122234489554e-09,-0.0013774446897292,0.0013774499537274,-0.0015037219094704,0.0015037283128478,-0.0015037272557855,0.0015037227988996,-0.0015037177696328,0.0015037325474542,-0.0015037231171483,0.0015037270327035,-0.0012276046545647,0.0012276303694906,-0.0012276206121635,0.0012276139619015,-0.0012276235916947,0.0012276109268421,-0.0012276110928477,0.0012276237628303,1.1736140073352e-09,1.2409794821111e-09,-0.00075266771287647,0.00075267010757237,-6.8149152418703e-09,9.5889441089871e-09,-0.00088244335887319,0.00088244019400175,-0.00088243794193899,0.0008824456247501,-0.00088244333080562,0.00088244021113511,-0.00088243791782258,0.00088244564341048,-0.00075657456678913,0.00075658245685192,-0.00075657461747399,0.00075658238378661,0.65260875673282,128566,2924,0.0031331033125733,0.0057209385078665,0.0031331033163978,41.681903732353,9.3455229858825e-05,9.3455229858825e-05,9.3455229858825e-05,4885992.1080091,0.012059992456962
8819200,0.77168490840695,0.012338023013925,0.0034401098410504,0.0054578033300165,0.0034401098428581,-0.0007659948759081,0.00076599367878993,-5.8116144311537e-10,-6.3289713420028e-10,5.6303707921989e-09,-7.0843839514626e-09,-0.00090055055169752,0.00090055359196878,-0.00090055058573339,0.00090055359251605,-0.00090055463980253,0.00090054940008576,-0.00090055465578049,0.00090054938053099,-0.00076951556585693,0.000769510181451,-0.00076951562515475,0.000769510132591,-3.6543498834725e-09,9.1145913264327e-09,1.0778370713409e-08,-5.5315896829087e-09,-0.0014101993817176,0.0014102046229305,-0.0015413839573007,0.001541390299357,-0.0015413892458914,0.0015413848478401,-0.0015413798379842,0.0015413945117123,-0.0015413851277935,0.0015413890593693,-0.0012553541095811,0.0012553795994193,-0.0012553698920655,0.0012553633779651,-0.0012553728861858,0.0012553603247001,-0.0012553604510694,0.0012553730936145,1.158051689904e-09,1.2275849535088e-09,-0.00076599309618717,0.00076599546022465,-6.7409333708774e-09,9.4812084197748e-09,-0.00090055362574157,0.00090055049008673,-0.00090054826855001,0.00090055586103231,-0.00090055359701202,0.00090055050805167,-0.00090054824369481,0.00090055588040635,-0.00076950897421573,0.00076951677846803,-0.00076950902655608,0.00076951670282101,0.62941992961283,128566,2924,0.0031885673368602,0.0058565015116316,0.0031885673404056,41.932736861525,9.5461894892198e-05,9.5461894892198e-05,9.5461894892198e-05,4897845.5613989,0.012309532169909
9019200,0.78938946598422,0.012565071261512,0.0034980790740262,0.005568913111834,0.0034980790756513,-0.00077746034698285,0.00077745915709957,-5.7673615885072e-10,-6.3010865383879e-10,5.6265574139487e-09,-7.0695692969519e-09,-0.00091633080901693,0.00091633385186726,-0.00091633084329513,0.00091633384826591,-0.00091633489452296,0.00091632966523252,-0.00091633490673906,0.00091632964385663,-0.00078063221832783,0.00078062684170246,-0.00078063226489359,0.00078062678840612,-3.6499651299531e-09,9.0977919075846e-09,1.0843048963062e-08,-5.6113579806302e-09,-0.0014395984519374,0.0014396036757509,-0.0015753681924282,0.0015753745690137,-0.0015753735311158,0.0015753690708114,-0.0015753640803417,0.0015753787725392,-0.0015753694173523,0.0015753732763839,-0.0012800462748095,0.0012800718818162,-0.0012800622536124,0.0012800555831821,-0.0012800651134171,0.0012800525094995,-0.0012800526878404,0.0012800652500298,1.1576447896801e-09,1.2295148471553e-09,-0.00077745857304535,0.00077746093301129,-6.8298783354933e-09,9.542664498132e-09,-0.00091633391020758,0.00091633072780612,-0.00091632850460571,0.00091633614746091,-0.00091633388258699,0.00091633074518867,-0.00091632847823744,0.00091633616928263,-0.00078062560508999,0.000780633471635,-0.00078062566243361,0.00078063339049238,0.62977530382787,128566,2924,0.0032362951397692,0.0059781593331437,0.0032362951437755,41.749850647707,9.3998805181656e-05,9.3998805181656e-05,9.3998805181656e-05,4897657.4086489,0.012529383392363
9219200,0.8056406602112,0.012770956174047,0.0035505547703775,0.0056698466311108,0.0035505547725588,-0.00078756355857991,0.00078756237252587,-5.7396690581899e-10,-6.2986815272164e-10,5.6205961907952e-09,-7.0611612163718e-09,-0.00093042770307669,0.0009304307461161,-0.00093042773860142,0.00093043074364035,-0.0009304317834048,0.00093042656456347,-0.0009304317986852,0.000930426543096,-0.0007903640401424,0.00079035867701825,-0.0007903640912693,0.000790358616708,-3.6535416305758e-09,9.0790193003689e-09,1.0910865221733e-08,-5.7002275309617e-09,-0.0014661362978825,0.0014661415018165,-0.0016061440130383,0.0016061504281106,-0.0016061494025187,0.0016061448777732,-0.0016061399049247,0.0016061546270824,-0.0016061452936,0.0016061490778481,-0.0013022504525645,0.0013022761898235,-0.0013022665592366,0.0013022597052458,-0.0013022693945721,0.0013022567329387,-0.0013022569874362,0.0013022694614138,1.1618774836794e-09,1.2357218106154e-09,-0.0007875617817543,0.00078756415163459,-6.894581048811e-09,9.631971928434e-09,-0.00093043082682029,0.00093042759688133,-0.00093042536896086,0.00093043306855315,-0.00093043079752896,0.00093042761572086,-0.00093042534215918,0.00093043309030323,-0.00079035740150252,0.00079036532924974,-0.00079035745833835,0.00079036524685649,0.62300580564597,128566,2924,0.003278355817427,0.0060879615578832,0.0032783558221273,41.451848678765,9.1614789430122e-05,9.1614789430122e-05,9.1614789430122e-05,4894000.735178,0.012725795093482
9419200,0.82054781656401,0.012957545658998,0.0035980479068549,0.0057614498430763,0.0035980479090663,-0.00079660304086125,0.00079660185912686,-5.7068407652996e-10,-6.288506331008e-10,5.6123197087795e-09,-7.0487336666426e-09,-0.00094314471910192,0.00094314776064662,-0.00094314475604017,0.00094314775845074,-0.00094314879327588,0.00094314358611145,-0.00094314881011768,0.00094314356440646,-0.00079902744938865,0.00079902210013654,-0.00079902750630244,0.00079902204003667,-3.6512096886974e-09,9.0595154770797e-09,1.0940793383566e-08,-5.7471105930105e-09,-0.0014902266256457,0.0014902318129058,-0.001634158502941,0.0016341649338363,-0.0016341639167635,0.0016341593573017,-0.0016341544013618,0.0016341691257035,-0.0016341598145673,0.0016341635501478,-0.0013223463678729,0.0013223721566859,-0.0013223625391439,0.0013223555843545,-0.0013223653494013,0.0013223526664766,-0.0013223529647316,0.0013223653744995,1.1610606798178e-09,1.2370654876869e-09,-0.00079660126463244,0.00079660363713223,-6.9289233711178e-09,9.6739495931114e-09,-0.00094314785495137,0.00094314460053806,-0.00094314237131649,0.00094315009787307,-0.00094314782476581,0.00094314462009579,-0.00094314234385838,0.00094315012006631,-0.00079902080190915,0.00079902875718765,-0.00079902086087786,0.00079902867308444,0.61620824393939,128566,2924,0.0033159898812857,0.0061876245208976,0.0033159898849355,41.151067712999,8.920854170399e-05,8.920854170399e-05,8.920854170399e-05,4890679.0617937,0.012903004609674
9619200,0.83421716571877,0.013126559475067,0.0036410066395562,0.0058445461938496,0.003641006641661,-0.00080468853995471,0.00080468736283104,-5.6733845403423e-10,-6.2770624318727e-10,5.6018512902167e-09,-7.0334309178958e-09,-0.00095458327801791,0.00095458631682197,-0.00095458331608786,0.00095458631434977,-0.00095458734440208,0.00095458215067217,-0.00095458736235074,0.0009545821285898,-0.00080673895550606,0.00080673362141295,-0.00080673901490831,0.00080673355926967,-3.6455989380431e-09,9.0384030289329e-09,1.0940677406051e-08,-5.7623053372921e-09,-0.00151208166572,0.0015120868376654,-0.0016596561088687,0.0016596625380953,-0.0016596615275478,0.0016596569563496,-0.0016596520154888,0.0016596667210739,-0.0016596574336307,0.0016596611402587,-0.0013404996620357,0.0013405254415561,-0.0013405158453888,0.0013405088512332,-0.001340518637199,0.0013405059600025,-0.0013405062789256,0.0013405186415304,1.1582000204903e-09,1.2363532193759e-09,-0.00080468676763298,0.00080468913677774,-6.9374725470934e-09,9.6806747430469e-09,-0.00095458641760624,0.0009545831533834,-0.00095458092843576,0.00095458865611048,-0.00095458638666396,0.00095458317363848,-0.00095458090023664,0.00095458867897488,-0.00080673231321214,0.00080674027238766,-0.00080673237421038,0.00080674018624175,0.60938040940026,128566,2924,0.0033496538742862,0.0062780298592556,0.0033496538776208,40.85018626766,8.6801490141278e-05,8.6801490141278e-05,8.6801490141278e-05,4887368.9260489,0.013062820162399
9819200,0.84651323418431,0.013279501716052,0.0036799966806565,0.0059195083527461,0.0036799966826499,-0.0008112624590723,0.000811261285022,-5.6491863588448e-10,-6.2717092181364e-10,5.6007288674342e-09,-7.0282124476694e-09,-0.00096406510756697,0.00096406814903344,-0.00096406514692641,0.00096406814492055,-0.00096406917376935,0.00096406398433472,-0.00096406919092997,0.00096406396177678,-0.00081297430839316,0.00081296897769116,-0.00081297436091307,0.00081296891056493,-3.6473060750677e-09,9.0293122570615e-09,1.1010391422335e-08,-5.8438211501576e-09,-0.0015309151600392,0.0015309203195266,-0.0016817855662929,0.0016817920348099,-0.0016817910350144,0.0016817864023432,-0.001681781475573,0.0016817962145517,-0.0016817869422777,0.0016817905845107,-0.001356001129165,0.001356027040479,-0.0013560174746234,0.0013560103207699,-0.0013560201901821,0.0013560074567291,-0.0013560078353293,0.0013560201299247,1.1618923906339e-09,1.2422688349355e-09,-0.00081126068490904,0.00081126306123719,-7.0126629724893e-09,9.7573950208387e-09,-0.00096406827049065,0.00096406496398949,-0.00096406273133694,0.00096407051659353,-0.00096406823962828,0.00096406498424751,-0.00096406270183863,0.00096407054107884,-0.00081296763718919,0.00081297566439288,-0.00081296770154152,0.00081297557344305,0.61213711573288,128566,2924,0.0033770305754686,0.0063559279096446,0.0033770305796587,40.183499383248,8.1467995065981e-05,8.1467995065981e-05,8.1467995065981e-05,4875170.6226425,0.013197243603058
10019200,0.85756565983311,0.013418072197753,0.0037154566425586,0.0059871589106213,0.0037154566445733,-0.00081702015714221,0.00081701898628446,-5.622728294069e-10,-6.2690758949828e-10,5.5962575630479e-09,-7.0201237396562e-09,-0.0009723911362318,0.00097239417712926,-0.00097239117617038,0.00097239417327611,-0.00097239519820632,0.00097239001708087,-0.0009723952171396,0.00097238999348553,-0.0008184535167214,0.00081844819761958,-0.00081845357468762,0.00081844812651571,-3.6469899845476e-09,9.0164480172905e-09,1.104781010022e-08,-5.8934745394571e-09,-0.0015475956176808,0.0015476007649456,-0.0017014231354211,0.0017014296241184,-0.0017014286316729,0.0017014239632618,-0.0017014190479835,0.0017014337999777,-0.001701424543338,0.001701428140375,-0.001369733425626,0.0013697594083433,-0.0013697498555259,0.0013697425975963,-0.0013697525390049,0.0013697397787015,-0.0013697401974238,0.001369752436362,1.1630917270226e-09,1.2454049466795e-09,-0.00081701838218859,0.00081702076286729,-7.0516124132283e-09,9.8035975660959e-09,-0.00097239431180718,0.00097239097920959,-0.00097238874350678,0.00097239656085545,-0.00097239427964353,0.00097239100076999,-0.00097238871393083,0.00097239658541288,-0.00081844683338427,0.00081845489216712,-0.00081844689722875,0.00081845480107477,0.61574677511951,128566,2924,0.003401010428358,0.0064249134482184,0.0034010104316836,39.479270064828,7.5834160518628e-05,7.5834160518628e-05,7.5834160518628e-05,4861026.098908,0.013315766649226
10219200,0.86751389014321,0.013543977465362,0.0037478065397312,0.0060483643838879,0.0037478065417429,-0.00082212157446355,0.0008221204066831,-5.5975033538281e-10,-6.2655114645022e-10,5.5868896867576e-09,-7.0082316599511e-09,-0.00097977832230693,0.00097978136049563,-0.00097977836339974,0.00097978135638441,-0.00097978237778438,0.00097977720740148,-0.00097978239794121,0.00097977718363906,-0.00082337681390255,0.00082337150708395,-0.00082337687546782,0.00082337143519749,-3.642325399224e-09,8.9990534489767e-09,1.103975390492e-08,-5.8974404017145e-09,-0.001562436816719,0.0015624419522549,-0.0017189102396424,0.0017189167232006,-0.0017189157344034,0.0017189110630456,-0.0017189061591213,0.0017189208917071,-0.00171891165289,0.0017189152329234,-0.0013819809115707,0.0013820068711958,-0.0013819973263033,0.0013819900523626,-0.0013820000107894,0.0013819872607061,-0.0013819876920555,0.0013819998989661,1.1614750344923e-09,1.2459764210274e-09,-0.00082211980113452,0.00082212218151827,-7.0474066883867e-09,9.8044112503983e-09,-0.00097978149715608,0.00097977816327081,-0.00097977592975209,0.00097978374375219,-0.00097978146423647,0.00097977818550172,-0.00097977589934683,0.00097978376904874,-0.00082337013614983,0.00082337819367258,-0.0008233702024802,0.00082337809998382,0.62007023488048,128566,2924,0.0034222585850377,0.0064862863708017,0.0034222585881202,38.774069578687,7.0192556629494e-05,7.0192556629494e-05,7.0192556629494e-05,4846110.0772523,0.01342104951499
10419200,0.87649599059619,0.013658867430193,0.003777450799357,0.0061039658295395,0.0037774508012961,-0.00082671608861133,0.00082671492440937,-5.5684449347046e-10,-6.2595303699095e-10,5.5739889301114e-09,-6.9921253198123e-09,-0.00098641595191408,0.00098641898502292,-0.00098641599392168,0.00098641898079,-0.00098641999788696,0.00098641484157552,-0.00098642001960191,0.00098641481739411,-0.00082789073905962,0.00082788544893778,-0.00082789080472613,0.0008278853746976,-3.6336937269156e-09,8.9779946019571e-09,1.099049313145e-08,-5.8599103876424e-09,-0.0015757674298604,0.0015757725540746,-0.0017346191225972,0.0017346255766216,-0.0017346245889025,0.001734619944949,-0.0017346150512129,0.001734629735572,-0.0017346205170216,0.001734624104824,-0.0013929781217408,0.0013930039755349,-0.0013929944421349,0.0013929872300249,-0.0013929971481802,0.0013929844439725,-0.0013929848603134,0.0013929970543996,1.1563417328075e-09,1.2428942090872e-09,-0.00082671432065628,0.00082671669368066,-7.0056962587588e-09,9.7594593294271e-09,-0.00098641911443465,0.00098641579987173,-0.00098641357532642,0.00098642135181138,-0.00098641908053901,0.00098641582295196,-0.00098641354433067,0.00098642137754705,-0.00082788408721765,0.00082789210664378,-0.00082788415499851,0.0008278920113107,0.62506143408198,128566,2924,0.0034413966878189,0.0065414078927201,0.0034413966905186,38.099053117361,6.4792424938886e-05,6.4792424938886e-05,6.4792424938886e-05,4830348.0124427,0.013515728201977
10619200,0.88488225749998,0.013764099199893,0.0038045325652124,0.0061550340676487,0.003804532567032,-0.00083189617854755,0.0008318950201583,-5.5320564484802e-10,-6.2413819062958e-10,5.5422136869703e-09,-6.9566384417061e-09,-0.00099359115263757,0.00099359417171712,-0.00099359119717684,0.00099359416702228,-0.00099359517668731,0.00099359004870011,-0.00099359520015469,0.00099359002714447,-0.00083301737101408,0.00083301210964917,-0.00083301744862135,0.00083301204824378,-3.6096925491351e-09,8.9336109178482e-09,1.0760860443629e-08,-5.6471417502841e-09,-0.0015892129249889,0.0015892180346805,-0.0017502871222314,0.0017502934438197,-0.0017502924461553,0.0017502879565988,-0.0017502830740237,0.0017502975790521,-0.0017502883952921,0.0017502920950195,-0.0014042050104965,0.0014042303879346,-0.0014042208464725,0.0014042140298276,-0.0014042237231682,0.0014042112092045,-0.0014042115028185,0.0014042237652174,1.1364278767945e-09,1.225830824247e-09,-0.00083189442930244,0.00083189676984946,-6.7948390523311e-09,9.534853022867e-09,-0.00099359425248419,0.00099359104563685,-0.00099358885860144,0.00099359645182211,-0.00099359421844963,0.00099359106845944,-0.00099358882500201,0.00099359647943807,-0.00083301081836151,0.0008330186542151,-0.00083301089505044,0.00083301855256474,0.61395113162019,128566,2924,0.0034629655246359,0.0065970014801658,0.0034629655256079,38.029378732924,6.4235029863391e-05,6.4235029863391e-05,6.4235029863391e-05,4826705.3523225,0.013615822634178
10819200,0.89271415455261,0.013860619478956,0.0038292980265423,0.0062020234243839,0.0038292980280298,-0.00083665417785064,0.00083665302656464,-5.4833771555073e-10,-6.2159322447748e-10,5.5214258883027e-09,-6.9253682200194e-09,-0.0010002058755231,0.0010002088839532,-0.0010002059181085,0.0010002088769115,-0.0010002098827636,0.00100020477883,-0.001000209905586,0.0010002047538818,-0.0008376908158484,0.00083768558088238,-0.00083769088654538,0.00083768550600363,-3.5851734817052e-09,8.90552046011e-09,1.0575890454924e-08,-5.468324122687e-09,-0.0016016683362056,0.0016016734375024,-0.0017648448235262,0.0017648510300746,-0.0017648500301237,0.001764845666848,-0.0017648407909704,0.0017648551483015,-0.0017648459964191,0.0017648497869417,-0.0014145801977104,0.0014146051957979,-0.0014145957295802,0.0014145892473883,-0.0014145986270441,0.001414586282874,-0.00141458645558,0.0014145987751983,1.1172555983915e-09,1.2082062387556e-09,-0.00083665245236646,0.00083665475204975,-6.6461687615476e-09,9.3194912373967e-09,-0.0010002089286511,0.0010002058075412,-0.001000203654555,0.0010002110941406,-0.0010002088938683,0.0010002058316442,-0.0010002036217215,0.0010002111216945,-0.00083768435455418,0.00083769203936823,-0.00083768442830781,0.00083769193879951,0.60386754559356,128566,2924,0.0034827770562705,0.0066484982160775,0.0034827770562303,37.973607404228,6.3788859233827e-05,6.3788859233827e-05,6.3788859233827e-05,4825478.6481062,0.013708209519017
11019200,0.90002497512257,0.013948963972395,0.0038518906129067,0.0062451827452017,0.0038518906142864,-0.00084099187886483,0.00084099073246038,-5.450398139409e-10,-6.2039729662226e-10,5.5062841215093e-09,-6.9046512092039e-09,-0.0010062661317849,0.0010062691340372,-0.001006266173961,0.0010062691253246,-0.0010062701271956,0.0010062650404852,-0.001006270150397,0.0010062650143091,-0.00084191738783529,0.00084191217116798,-0.00084191745602989,0.00084191208911348,-3.5719924288479e-09,8.882080420893e-09,1.043773015545e-08,-5.3403590299327e-09,-0.0016131628570463,0.0016131679480839,-0.0017783231811942,0.0017783293022181,-0.0017783283036531,0.0017783240291835,-0.0017783191599703,0.001778333408227,-0.0017783242813323,0.0017783281368839,-0.0014241313404703,0.0014241560556976,-0.0014241466209199,0.0014241403776271,-0.0014241495740046,0.0014241373440506,-0.001424137437783,0.0014241497984928,1.1034493432991e-09,1.1964593826236e-09,-0.00084099017037408,0.00084099244141827,-6.5311878375183e-09,9.1707728501413e-09,-0.0010062691517806,0.0010062660890763,-0.0010062639648453,0.0010062712885231,-0.0010062691162165,0.0010062661141678,-0.0010062639313935,0.0010062713167945,-0.00084191099075489,0.00084191856638436,-0.00084191106557327,0.00084191846337315,0.59320720492247,128566,2924,0.0035008385581062,0.006696019830775,0.0035008385590379,37.918332945354,6.3346663562829e-05,6.3346663562829e-05,6.3346663562829e-05,4825905.7665092,0.013793024907715
11219200,0.90683722962248,0.014031251028899,0.0038729604727005,0.0062853300821931,0.0038729604740049,-0.00084497376748725,0.00084497262476066,-5.4226128989827e-10,-6.1962467317787e-10,5.4981195062507e-09,-6.891886600154e-09,-0.0010118051954371,0.0010118081952041,-0.0010118052375678,0.0010118081848824,-0.0010118091844287,0.0010118041083267,-0.0010118092076607,0.0010118040810278,-0.0008457971885031,0.00084579198322758,-0.00084579725529361,0.00084579189693673,-3.5652671779468e-09,8.8673907963568e-09,1.0354239394447e-08,-5.2651364237552e-09,-0.0016237569872702,0.0016237620696411,-0.0017907810297157,0.0017907870966854,-0.0017907861025049,0.0017907818775581,-0.0017907770150595,0.0017907911954568,-0.0017907820865617,0.001790785978158,-0.0014329254030943,0.0014329499470959,-0.0014329405388206,0.0014329344369214,-0.001432943520102,0.0014329313554036,-0.001432931403127,0.0014329437869117,1.0930458911763e-09,1.1882178064115e-09,-0.00084497207095294,0.0008449743216839,-6.4657859236783e-09,9.0788763386656e-09,-0.0010118081977318,0.0010118051678934,-0.001011803062862,0.0010118103153332,-0.0010118081616333,0.0010118051936823,-0.0010118030287274,0.0010118103444545,-0.00084579082975802,0.00084579833871267,-0.00084579090672095,0.00084579823319746,0.5926323702677,128566,2924,0.0035174179494766,0.0067398179707002,0.0035174179502354,37.83751027951,6.2700082236077e-05,6.2700082236077e-05,6.2700082236077e-05,4827300.0986667,0.013871064816965
11419200,0.91314091892429,0.014107981537024,0.0038926648384189,0.0063226518589192,0.0038926648396855,-0.00084844777009,0.00084844662890003,-5.4056601593221e-10,-6.1992442693156e-10,5.4989068660081e-09,-6.890771280138e-09,-0.0010166897315159,0.0010166927336981,-0.0010166897739477,0.001016692722083,-0.0010166937208297,0.0010166886466652,-0.0010166937443107,0.0010166886184891,-0.00084919349641684,0.00084918829385355,-0.00084919356162298,0.00084918820281465,-3.5684801804976e-09,8.8635537136947e-09,1.035481001725e-08,-5.2731414240903e-09,-0.0016332931467726,0.0016332982216034,-0.0018020380088247,0.0018020440712965,-0.0018020430856773,0.0018020388499254,-0.001802033994072,0.0018020481697825,-0.0018020390694544,0.0018020429504167,-0.0014408132561463,0.0014408378006755,-0.0014408284066836,0.0014408222893063,-0.001440831377625,0.0014408192032083,-0.0014408192603236,0.0014408316334206,1.0902460680913e-09,1.1875459807064e-09,-0.00084844607693581,0.00084844832266337,-6.474078393202e-09,9.0790703880656e-09,-0.0010166927390015,0.001016689701102,-0.0010166876011608,0.0010166948514861,-0.0010166927023072,0.001016689727527,-0.0010166875662317,0.0010166948814343,-0.00084918713799954,0.00084919465032958,-0.0008491872168752,0.00084919454222322,0.59626238889915,128566,2924,0.003531884646888,0.0067792402534855,0.0035318846480963,37.630334546965,6.1042676375718e-05,6.1042676375718e-05,6.1042676375718e-05,4824997.6925601,0.013940387953429
11619200,0.91897429845381,0.014179379892718,0.0039110444024628,0.006357291086551,0.0039110444037037,-0.00085164315928678,0.00085164201868499,-5.3918650479592e-10,-6.208143619078e-10,5.5017288937769e-09,-6.8934461507461e-09,-0.0010211908827257,0.0010211938882246,-0.0010211909260366,0.0010211938763323,-0.0010211948738975,0.0010211897994347,-0.0010211948986364,0.0010211897706969,-0.00085233947184042,0.0008523342712804,-0.00085233954103689,0.00085233417822571,-3.5747785821446e-09,8.8618165469404e-09,1.0384960738284e-08,-5.3108660182181e-09,-0.001642084409062,0.0016420894767022,-0.0018124103687518,0.0018124164454442,-0.0018124154680428,0.0018124112014795,-0.0018124063521466,0.0018124205457097,-0.001812411450254,0.0018124153034431,-0.001448082713189,0.0014481073193859,-0.0014480979235362,0.0014480917321356,-0.0014481008854003,0.0014480886761319,-0.0014480887644085,0.0014481011120228,1.0905573491278e-09,1.1898469027374e-09,-0.00085164146488919,0.00085164371358656,-6.5054086898477e-09,9.1172356013697e-09,-0.0010211939026286,0.001021190842783,-0.0010211887414539,0.0010211960164121,-0.0010211938650341,0.0010211908700057,-0.001021188705901,0.0010211960468659,-0.00085233310057474,0.00085234063863092,-0.00085233318096401,0.0008523405287481,0.59873359861127,128566,2924,0.003545191979914,0.0068155810170033,0.0035451919809169,37.420251843546,5.9362014748368e-05,5.9362014748368e-05,5.9362014748368e-05,4820879.3827109,0.014004239009987
11819200,0.92437380585104,0.014245959939314,0.0039282309961171,0.006389497945885,0.0039282309973116,-0.00085459287550631,0.00085459173529995,-5.3792360979378e-10,-6.2166451525171e-10,5.5048050973726e-09,-6.8963123523621e-09,-0.0010253477884713,0.0010253507972819,-0.0010253478327138,0.0010253507849509,-0.0010253517819531,0.0010253467065404,-0.0010253518075678,0.0010253466772611,-0.00085526023933694,0.0008552550394439,-0.00085526031101693,0.00085525494467508,-3.5805596468312e-09,8.8615450937626e-09,1.0428668736976e-08,-5.3606372587997e-09,-0.001650201880075,0.0016502069416667,-0.0018219794711982,0.0018219855708153,-0.0018219846008859,0.0018219802954685,-0.0018219754526166,0.0018219896730476,-0.0018219805811453,0.0018219843994049,-0.0014547934965186,0.0014548181906896,-0.0014548087963949,0.0014548025086322,-0.0014548117338348,0.0014547994819707,-0.0014547996076782,0.0014548119238826,1.0920263351392e-09,1.1934069703245e-09,-0.00085459117850702,0.00085459343265457,-6.5486722901156e-09,9.1674203464679e-09,-0.0010253508235672,0.0010253477370436,-0.0010253456312121,0.001025352941819,-0.001025350785242,0.0010253477649088,-0.0010253455949473,0.0010253529729154,-0.0008552538492079,0.00085526142476213,-0.00085525393171952,0.00085526131288784,0.6021809301063,128566,2924,0.003557476899491,0.0068491345910983,0.0035574769001853,37.21006524744,5.7680521979522e-05,5.7680521979522e-05,5.7680521979522e-05,4815535.9946444,0.014063193092859
12019200,0.92938055106731,0.014309759495195,0.003944834636858,0.0064200902203341,0.0039448346380033,-0.00085745127509926,0.00085745013535068,-5.3661646931609e-10,-6.2250195331535e-10,5.5059111594159e-09,-6.8973168249702e-09,-0.0010293016348268,0.0010293046457558,-0.001029301680145,0.0010293046331569,-0.0010293056291989,0.0010293005543074,-0.0010293056559144,0.0010293005246462,-0.00085814130093487,0.00085813610337066,-0.00085814137584017,0.0008581360071409,-3.5845834064963e-09,8.8591004056814e-09,1.046996556368e-08,-5.4081429849441e-09,-0.0016578405747962,0.0016578456304767,-0.0018309400510465,0.0018309461738104,-0.0018309452094208,0.0018309408684858,-0.0018309360317684,0.0018309502767022,-0.001830941189058,0.0018309449730274,-0.0014611380254767,0.0014611628017869,-0.0014611534066546,0.0014611470253243,-0.0014611563229808,0.0014611440337243,-0.0014611441958696,0.0014611564784465,1.09392536257e-09,1.1973892804682e-09,-0.00085744957504478,0.00085745183569309,-6.588362302407e-09,9.2169499634953e-09,-0.0010293046834495,0.0010293015720363,-0.0010292994613314,0.0010293068064925,-0.0010293046443142,0.0010293016005572,-0.0010292994242793,0.0010293068382077,-0.00085813489351734,0.00085814250536012,-0.00085813497820173,0.00085814239150895,0.61929851044421,128566,2924,0.0035693811010636,0.0068807077649675,0.0035693811016247,37.027733902908,5.6221871223263e-05,5.6221871223263e-05,5.6221871223263e-05,4809271.7897107,0.0141193688453
12219200,0.93404110709192,0.014371228305154,0.0039609556178861,0.0064493170682903,0.003960955618978,-0.0008603062101014,0.00086030507119847,-5.3512674247512e-10,-6.2318420568823e-10,5.5034931115411e-09,-6.8946231417898e-09,-0.0010332074481474,0.0010332104592858,-0.0010332074945763,0.0010332104464222,-0.0010332114409059,0.0010332063694439,-0.0010332114688371,0.0010332063395341,-0.00086108446139296,0.00086107926914982,-0.00086108454026506,0.00086107917199379,-3.5851975183827e-09,8.8526337779971e-09,1.0491991333749e-08,-5.4367214073635e-09,-0.0016651979124297,0.0016652029620603,-0.0018394768139511,0.0018394829499571,-0.0018394819885158,0.001839477627119,-0.0018394727964579,0.0018394870510231,-0.0018394779699816,0.0018394817298382,-0.001467300802815,0.0014673256209443,-0.001467316224162,0.0014673097837996,-0.0014673191314308,0.0014673068242301,-0.0014673070110977,0.0014673192653282,1.0951615770692e-09,1.2007138960974e-09,-0.00086030450772096,0.0008603067738177,-6.6093398369989e-09,9.2481779530614e-09,-0.0010332105037211,0.0010332073783082,-0.0010332052641495,0.0010332126301025,-0.0010332104637908,0.0010332074074564,-0.0010332052262431,0.0010332126624423,-0.00086107804514729,0.00086108567922115,-0.00086107813213261,0.00086108556319331,0.63789981765958,128566,2924,0.0035812714216792,0.0069111149077667,0.0035812714221486,36.914151897342,5.5313215178739e-05,5.5313215178739e-05,5.5313215178739e-05,4800089.2877593,0.014174337109432
12419200,0.93837986191666,0.014426506837772,0.0039753537377093,0.0064757993613296,0.003975353738733,-0.00086283559359894,0.00086283445650854,-5.3314724779475e-10,-6.232390952171e-10,5.500440571318e-09,-6.8889041352956e-09,-0.0010368238004687,0.0010368268110892,-0.0010368238474598,0.0010368267974045,-0.0010368277908126,0.0010368227242885,-0.0010368278190687,0.001036822693344,-0.00086368957913307,0.00086368439295995,-0.00086368965786943,0.00086368429241764,-3.5824807892592e-09,8.8466096673825e-09,1.0509596198697e-08,-5.4582869419042e-09,-0.0016720114238359,0.0016720164688744,-0.0018473530176419,0.0018473591637148,-0.0018473582048485,0.0018473538281113,-0.0018473490027483,0.0018473632619151,-0.001847354188966,0.0018473579279223,-0.0014729973709798,0.0014730222205395,-0.0014730128411945,0.0014730063561913,-0.0014730157170425,0.0014730034018533,-0.001473003603895,0.0014730158317862,1.0946845039376e-09,1.2023050851274e-09,-0.00086283389169924,0.0008628361583948,-6.6300949675322e-09,9.264978212688e-09,-0.0010368268619797,0.0010368237251183,-0.0010368216098536,0.0010368289895563,-0.0010368268214113,0.001036823754968,-0.0010368215714067,0.0010368290225608,-0.00086368315740647,0.00086369080831614,-0.00086368324614044,0.00086369069058321,0.61826607132857,128566,2924,0.0035918099223623,0.0069392694635262,0.0035918099222876,36.802154528896,5.4417236231165e-05,5.4417236231165e-05,5.4417236231165e-05,4786980.3236731,0.014224282784456
12619200,0.94241921453382,0.014475099596869,0.0039878667710722,0.0064993660537438,0.0039878667720534,-0.00086503662887317,0.00086503549353736,-5.3126609281973e-10,-6.2344940486096e-10,5.4963549783856e-09,-6.8828746629919e-09,-0.0010400257049787,0.0010400287147552,-0.0010400257526546,0.0010400287003777,-0.0010400296922668,0.001040024631337,-0.0010400297211903,0.0010400245996537,-0.00086589092524497,0.00086588574599139,-0.00086589100504959,0.00086588564241183,-3.5800350322696e-09,8.838809945541e-09,1.0520366585375e-08,-5.4740324494191e-09,-0.0016781627972647,0.0016781678373071,-0.0018545318235398,0.0018545379767928,-0.0018545370195535,0.0018545326324419,-0.0018545278118249,0.0018545420715068,-0.001854533006866,0.0018545367287082,-0.0014780919039585,0.0014781167714536,-0.0014781074010223,0.0014781008813603,-0.0014781102607091,0.0014780979418683,-0.0014780981574762,0.0014781103612004,1.0943086021693e-09,1.2040093973247e-09,-0.00086503492745126,0.00086503719500364,-6.642937260856e-09,9.2787913212264e-09,-0.001040028770548,0.0010400256248514,-0.0010400235094515,0.0010400308981639,-0.0010400287292362,0.0010400256554048,-0.0010400234703161,0.001040030931881,-0.00086588450084477,0.00086589216400658,-0.00086588459137776,0.000865892044058,0.58731202844075,128566,2924,0.0036009805324491,0.0069646877083348,0.0036009805324931,36.690213785399,5.3521710283189e-05,5.3521710283189e-05,5.3521710283189e-05,4778964.2846914,0.014268678977445
12819200,0.9461459817978,0.014520332195999,0.0039995556369694,0.0065212209211164,0.0039995556379136,-0.00086680023894666,0.00086679910568219,-5.2924557383748e-10,-6.2327052146569e-10,5.497277224912e-09,-6.8797150418103e-09,-0.0010425732544003,0.0010425762657857,-0.001042573302112,0.0010425762500156,-0.0010425772419639,0.0010425721834602,-0.0010425772703276,0.0010425721501735,-0.00086760848138,0.0008676033047382,-0.00086760855583293,0.00086760319394462,-3.5790531568534e-09,8.8385993067994e-09,1.056214295743e-08,-5.5168831636534e-09,-0.0016833965931988,0.0016834016308194,-0.0018607566540879,0.0018607628308542,-0.0018607618778827,0.0018607574598196,-0.001860752642448,0.0018607669250425,-0.0018607578652214,0.0018607615557187,-0.0014823580290204,0.0014823829786083,-0.0014823736404308,0.0014823670352229,-0.0014823764352289,0.0014823640883378,-0.0014823643289174,0.0014823764987066,1.0948902187598e-09,1.2066850181263e-09,-0.00086679853793276,0.00086680080652789,-6.6881073265003e-09,9.3121132426092e-09,-0.001042576332887,0.0010425731650608,-0.0010425710456886,0.001042578464893,-0.0010425762912157,0.001042573196418,-0.0010425710062972,0.0010425784994707,-0.00086760204080073,0.00086760973873753,-0.0008676021323691,0.00086760961754114,0.59134554187244,128566,2924,0.0036083282907126,0.0069863172325648,0.003608328290269,36.406579493111,5.1252635944885e-05,5.1252635944885e-05,5.1252635944885e-05,4774745.8686065,0.01430553236792
13019200,0.9495412843503,0.014561705008706,0.0040102687302275,0.0065411675472907,0.0040102687311879,-0.00086794586647804,0.00086794473442695,-5.2763943532486e-10,-6.2356871857728e-10,5.5030008465593e-09,-6.8821174994168e-09,-0.0010444083152315,0.0010444113302103,-0.0010444083626236,0.0010444113132918,-0.0010444123059431,0.001044407245826,-0.0010444123340523,0.00104440721023,-0.00086870800726048,0.00086870283011538,-0.00086870807860889,0.00086870271253667,-3.5829170441084e-09,8.8443650863647e-09,1.0639022907388e-08,-5.5934571982515e-09,-0.0016876112409163,0.0016876162769605,-0.0018658636965145,0.0018658699156618,-0.0018658689700718,0.0018658644954116,-0.0018658596810505,0.0018658740132379,-0.0018658649541716,0.0018658685937112,-0.0014857150960567,0.0014857401981157,-0.0014857308809878,0.001485724133696,-0.0014857336021706,0.0014857211992999,-0.0014857214841591,0.0014857336126413,1.0985192913757e-09,1.2123008662254e-09,-0.00086794416264522,0.00086794643806719,-6.762696663759e-09,9.3832439541488e-09,-0.0010444114164238,0.0010444082082942,-0.0010444060805194,0.001044413556991,-0.0010444113737804,0.0010444082407578,-0.0010444060411591,0.0010444135919304,-0.00086870153504718,0.00086870929628999,-0.00086870162689908,0.00086870917436716,0.59302697286827,128566,2924,0.0036131067556353,0.0070037337359696,0.0036131067551035,35.873597729034,4.6988781832274e-05,4.6988781832274e-05,4.6988781832274e-05,4764376.8159174,0.01433290033543
13219200,0.95263821135843,0.014599627495834,0.0040201132198121,0.0065594010551933,0.0040201132208288,-0.00086891351471168,0.00086891238126363,-5.2746892711098e-10,-6.2582235785687e-10,5.5018698738138e-09,-6.8857886675593e-09,-0.0010459969045484,0.0010459999213472,-0.0010459969545089,0.0010459999051069,-0.0010460008955758,0.0010459958354764,-0.0010460009261683,0.0010459958012473,-0.00086964270329018,0.00086963752775447,-0.00086964278211556,0.00086963741125141,-3.5887974715242e-09,8.8384035297215e-09,1.0674523163115e-08,-5.6379658851887e-09,-0.0016913453552527,0.0016913503849058,-0.0018704022888196,0.0018704085324652,-0.0018704075882074,0.0018704030831744,-0.001870398273888,0.0018704126300081,-0.001870403572299,0.0018704071820028,-0.0014886779796017,0.0014887031528899,-0.0014886937981587,0.001488686959525,-0.0014886965461326,0.0014886841048623,-0.0014886844329947,0.0014886965292798,1.1034504805511e-09,1.2193605676763e-09,-0.00086891180346529,0.00086891409321036,-6.7894013958302e-09,9.4463167913178e-09,-0.0010460000164883,0.0010459967857612,-0.0010459946510447,0.0010460021633611,-0.001045999973036,0.0010459968186025,-0.0010459946100359,0.001046002199268,-0.00086963621333859,0.00086964401391926,-0.00086963630820224,0.0008696438868762,0.59512404215902,128566,2924,0.0036171442308285,0.0070191639773162,0.003617144232224,35.334850909905,4.267880727924e-05,4.267880727924e-05,4.267880727924e-05,4753249.6941195,0.014356750290702
13419200,0.95546713677003,0.014633699355816,0.0040289385530545,0.006575822248715,0.0040289385540464,-0.00086969052697706,0.00086968939447105,-5.2577844379636e-10,-6.2626765559679e-10,5.4997190993291e-09,-6.8828542269103e-09,-0.0010473534017203,0.0010473564184661,-0.0010473534528297,0.0010473564020266,-0.0010473573913133,0.0010473523343831,-0.0010473574230765,0.0010473522998584,-0.00087038607651305,0.0008703809065282,-0.00087038616149099,0.00087038079177709,-3.5877934057272e-09,8.8340539121875e-09,1.0686098457792e-08,-5.6526458713135e-09,-0.0016946323446673,0.0016946373713017,-0.0018744177808875,0.0018744240319209,-0.0018744230879927,0.0018744185729243,-0.001874413767593,0.0018744281278478,-0.0018744190738522,0.0018744226701486,-0.0014912643102202,0.0014912895045975,-0.001491280149045,0.0014912732791764,-0.0014912828914167,0.0014912704431603,-0.001491270784141,0.0014912828633217,1.102614433305e-09,1.2206307920828e-09,-0.00086968881471825,0.00086969110680525,-6.8003306084796e-09,9.461709276269e-09,-0.0010473565176205,0.0010473532800683,-0.0010473511433772,0.001047358666462,-0.0010473564734486,0.0010473533134304,-0.0010473511016544,0.0010473587028877,-0.0008703795835876,0.00087038739318582,-0.0008703796812597,0.00087038726494406,0.58608288142057,128566,2924,0.0036203884533896,0.0070327456966426,0.0036203884534865,34.795898179604,3.8367185436831e-05,3.8367185436831e-05,3.8367185436831e-05,4741574.0371502,0.014377116046796
13619200,0.95806884937634,0.014664626502067,0.0040369390876387,0.0065907483258273,0.004036939088601,-0.00087049095675584,0.0008704898251145,-5.2443049570319e-10,-6.270553741042e-10,5.4912100523335e-09,-6.8750971524424e-09,-0.0010486676887813,0.0010486707023356,-0.0010486677411744,0.0010486706861515,-0.0010486716725249,0.0010486666235164,-0.0010486717062149,0.0010486665892135,-0.00087114524955081,0.00087114008917464,-0.00087114534065622,0.00087113997430197,-3.583867097085e-09,8.8220412012264e-09,1.06493420125e-08,-5.6223041839371e-09,-0.0016977129514766,0.0016977179732559,-0.0018781800327663,0.0018781862642605,-0.0018781853175222,0.001878180826274,-0.0018781760245869,0.0018781903551908,-0.0018781813088364,0.0018781849182865,-0.0014936971280113,0.0014937222467734,-0.0014937128776027,0.0014937060596144,-0.0014937156594885,0.0014937032423694,-0.0014937035713927,0.0014937156523884,1.0998092704494e-09,1.2200587513882e-09,-0.00087048924603544,0.00087049153624176,-6.761528469476e-09,9.4319374386827e-09,-0.0010486707940482,0.0010486675728717,-0.0010486654423185,0.0010486729364569,-0.0010486707488146,0.0010486676070208,-0.0010486653996185,0.001048672973472,-0.00087113877550667,0.0008711465582752,-0.00087113887563422,0.0008711464271945,0.57889843703731,128566,2924,0.0036237276884789,0.0070454756720658,0.0036237276893004,34.355309884171,3.4842479073371e-05,3.4842479073371e-05,3.4842479073371e-05,4733928.7013373,0.014396809967089
13819200,0.96047592970222,0.01469323649761,0.0040443506094223,0.0066045352778655,0.0040443506103218,-0.00087133884011863,0.00087133771053148,-5.2214950889864e-10,-6.2714475582666e-10,5.4821569693989e-09,-6.8642791566895e-09,-0.0010499717956307,0.0010499748063378,-0.0010499718494802,0.001049974788533,-0.001049975773462,0.001049970733108,-0.0010499758075726,0.0010499706992536,-0.00087195560665545,0.00087195045639471,-0.00087195570008718,0.00087195034272406,-3.5736175207319e-09,8.80777989737e-09,1.0576313534881e-08,-5.5531108412168e-09,-0.0017006454711154,0.0017006504892016,-0.0018817505465821,0.0018817567369804,-0.0018817557859894,0.0018817513450325,-0.0018817465469944,0.001881760818956,-0.0018817517843469,0.001881755429864,-0.0014960308572058,0.0014960558221792,-0.0014960464629293,0.0014960397734817,-0.0014960492807933,0.0014960369272012,-0.0014960372153299,0.0014960493160324,1.0932892000228e-09,1.2153670248243e-09,-0.00087133713550885,0.00087133941527001,-6.7051688797816e-09,9.3650652553779e-09,-0.0010499748839897,0.0010499716938566,-0.0010499695739376,0.0010499770157176,-0.0010499748389516,0.0010499717277555,-0.0010499695297387,0.0010499770540219,-0.00087194916225073,0.00087195689479156,-0.00087194926595462,0.00087195675988857,0.57842148305596,128566,2924,0.0036272621871652,0.0070575947423438,0.0036272621874132,34.003169742207,3.2025357937659e-05,3.2025357937659e-05,3.2025357937659e-05,4729506.6901736,0.014416279899478
14019200,0.9627052202477,0.014719739897657,0.0040512247042554,0.0066172904883053,0.0040512247050961,-0.00087208754848861,0.0008720864220058,-5.1956485255113e-10,-6.2646505734218e-10,5.4739000105956e-09,-6.8511797314562e-09,-0.0010511399214454,0.0010511429280147,-0.001051139974718,0.0010511429089979,-0.0010511438923927,0.0010511388623367,-0.0010511439266251,0.001051138826616,-0.00087267594117675,0.00087267080249039,-0.00087267603349685,0.00087267068350438,-3.5636062325699e-09,8.7984964714429e-09,1.0510811086289e-08,-5.487920109396e-09,-0.0017033055534882,0.0017033105700086,-0.0018849982419958,0.0018850043919349,-0.0018850034394074,0.0018849990448443,-0.0018849942479544,0.0018850084678776,-0.0018849994441073,0.0018850031227376,-0.0014981417202851,0.0014981665504792,-0.0014981572187329,0.0014981506524329,-0.0014981600436403,0.0014981477541554,-0.0014981479952979,0.0014981601186505,1.0850688091978e-09,1.2092402823423e-09,-0.00087208585316834,0.00087208811706429,-6.6485370940202e-09,9.2821992855299e-09,-0.0010511429921413,0.0010511398340581,-0.0010511377279904,0.0010511451103762,-0.0010511429461809,0.001051139869116,-0.0010511376837448,0.001051145149025,-0.00087266953005883,0.00087267720539139,-0.0008726696346921,0.00087267707024909,0.57820997324508,128566,2924,0.0036303837170716,0.0070685878415363,0.0036303837164773,33.653081677092,2.922465341674e-05,2.922465341674e-05,2.922465341674e-05,4724828.1177283,0.014433769762151
14219200,0.96477173097901,0.014743372622525,0.0040573087253501,0.0066287551710112,0.0040573087261642,-0.00087269221117927,0.00087269108704509,-5.174406206104e-10,-6.2634753850759e-10,5.4668661777078e-09,-6.8410819484071e-09,-0.0010521482120268,0.0010521512155915,-0.0010521482652984,0.0010521511956576,-0.0010521521771548,0.0010521471556893,-0.0010521522118552,0.0010521471186764,-0.00087324391361559,0.00087323878502774,-0.00087324400610994,0.00087323866130967,-3.5566994616258e-09,8.7888671966695e-09,1.0448391197703e-08,-5.4282998224019e-09,-0.0017056730054816,0.0017056780191747,-0.0018879111241215,0.0018879172362164,-0.0018879162826054,0.0018879119308299,-0.0018879071350224,0.0018879213067512,-0.0018879122926398,0.0018879160028234,-0.0015000016967645,0.0015000263995357,-0.001500017082756,0.0015000106275441,-0.0015000199306519,0.0015000076957198,-0.0015000078979079,0.0015000200416188,1.0782387721927e-09,1.2045399005207e-09,-0.00087269052340805,0.0008726927745437,-6.5944721067273e-09,9.2118250640216e-09,-0.001052151266858,0.0010521481370133,-0.0010521460436532,0.0010521533722439,-0.0010521512199928,0.0010521481730911,-0.0010521459989724,0.0010521534114802,-0.00087323753252725,0.00087324515733075,-0.00087323763835085,0.00087324502049935,0.55856306344108,128566,2924,0.0036329059704821,0.0070783711431242,0.0036329059698593,33.303066863951,2.6424534911605e-05,2.6424534911605e-05,2.6424534911605e-05,4719845.8678064,0.014448816724883
14419200,0.96665718785476,0.014765187021434,0.0040629475690803,0.0066392918824782,0.004062947569876,-0.00087268920322399,0.0008726880818383,-5.1498376354989e-10,-6.2560087739509e-10,5.4723721692094e-09,-6.8392228786122e-09,-0.0010524101557332,0.0010524131616478,-0.001052410206962,0.0010524131397212,-0.0010524141227101,0.0010524091018335,-0.0010524141559743,0.0010524090607242,-0.00087316742838852,0.00087316230157737,-0.00087316751305467,0.00087316216623787,-3.5557313892586e-09,8.7976369527595e-09,1.0468934371182e-08,-5.4430246575094e-09,-0.0017071077935992,0.0017071128095917,-0.0018898696322083,0.0018898757489691,-0.0018898748022491,0.0018898704360415,-0.0018898656392635,0.0018898798224957,-0.0018898708098669,0.0018898745093324,-0.001500985860138,0.0015010106045317,-0.0015010013410705,0.0015009948636746,-0.0015010041116286,0.0015009918688329,-0.0015009920654319,0.0015010042057708,1.0743638524898e-09,1.2027109846401e-09,-0.00087268752150543,0.00087268976262065,-6.6218722694947e-09,9.2012552870681e-09,-0.0010524132182414,0.0010524100791117,-0.0010524079884564,0.0010524153214523,-0.0010524131703438,0.0010524101168302,-0.0010524079447864,0.0010524153606705,-0.00087316104302973,0.00087316867550785,-0.00087316114730787,0.00087316854090121,0.5638311874305,128566,2924,0.0036329003917366,0.007084302170058,0.0036329003896418,32.647134968745,2.1177079749962e-05,2.1177079749962e-05,2.1177079749962e-05,4712815.9986599,0.014454824437351
14619200,0.96836436073497,0.01478505858392,0.0040680985078116,0.0066488615674571,0.0040680985086511,-0.00087230057488321,0.00087229945130284,-5.1524270207883e-10,-6.2827893591551e-10,5.4778340331933e-09,-6.8497317807783e-09,-0.001052247663627,0.0010522506754003,-0.0010522477174243,0.0010522506530646,-0.0010522516357856,0.0010522466091223,-0.0010522516705169,0.0010522465693579,-0.00087270656434086,0.00087270143139591,-0.00087270665202663,0.00087270129617878,-3.5656988883466e-09,8.799561365617e-09,1.0507517125035e-08,-5.4875294306839e-09,-0.0017079473924202,0.0017079524046724,-0.0018911675514296,0.0018911736921779,-0.0018911727494685,0.0018911683495651,-0.0018911635555492,0.0018911777690662,-0.0018911687526353,0.0018911724278017,-0.0015014380970586,0.0015014629209432,-0.0015014536266549,0.0015014470638169,-0.0015014564155713,0.0015014441236153,-0.0015014443598443,0.0015014564822306,1.0795121702141e-09,1.20993152633e-09,-0.00087229888618739,0.00087230113997031,-6.6570523799723e-09,9.2656355986835e-09,-0.0010522507404308,0.0010522475751062,-0.0010522454784891,0.0010522528490813,-0.0010522506922664,0.0010522476128638,-0.0010522454328057,0.00105225288989,-0.00087270015475833,0.00087270783529351,-0.00087270026299833,0.00087270769415023,0.56645234128977,128566,2924,0.00363129223154,0.0070877726318944,0.0036312922313874,31.822595781825,1.4580766254602e-05,1.4580766254602e-05,1.4580766254602e-05,4700606.3893212,0.014455084273124
14819200,0.96991287015135,0.014803214214857,0.0040728197328861,0.0066575747482457,0.0040728197337256,-0.00087182305812177,0.00087182193351302,-5.1463070180995e-10,-6.298595344107e-10,5.4815373051105e-09,-6.8558167755624e-09,-0.0010519695453822,0.0010519725602862,-0.0010519696005378,0.0010519725381319,-0.0010519735206407,0.0010519684908743,-0.0010519735571125,0.0010519684511638,-0.00087216545965993,0.0008721603263844,-0.00087216555591744,0.00087216019361943,-3.5728982075299e-09,8.8023555851379e-09,1.0542471011924e-08,-5.5256182693313e-09,-0.0017085481468105,0.0017085531568537,-0.001892172460418,0.0018921786211434,-0.0018921776814555,0.0018921732529868,-0.0018921684612701,0.0018921827016646,-0.0018921736816407,0.0018921773346628,-0.0015016979314786,0.0015017228289922,-0.0015017135131029,0.0015017068766708,-0.0015017163085822,0.0015017039787089,-0.0015017042456235,0.0015017163513767,1.0812937083628e-09,1.2139427582492e-09,-0.00087182136477759,0.00087182362674956,-6.6839819104407e-09,9.3103803994609e-09,-0.0010519726328847,0.0010519694496379,-0.0010519673470716,0.001051974747432,-0.0010519725837999,0.0010519694879895,-0.0010519673005096,0.0010519747887373,-0.00087215903497417,0.00087216674324514,-0.00087215914619254,0.00087216660034433,0.56961685792177,128566,2924,0.003629314292198,0.0070902557046758,0.0036293142919099,30.99411619715,7.9529295771996e-06,7.9529295771996e-06,7.9529295771996e-06,4687326.4262989,0.014453592066854
15019200,0.97129859714928,0.014819403718653,0.004077032801859,0.0066653381141087,0.0040770328026848,-0.00087077193594408,0.00087077081115841,-5.1352405192801e-10,-6.3071229969381e-10,5.4908107088273e-09,-6.8635747703257e-09,-0.0010510715289696,0.0010510745487635,-0.0010510715841729,0.0010510745264864,-0.0010510755104303,0.0010510704752437,-0.0010510755466278,0.0010510704326602,-0.00087103821314529,0.00087103307550576,-0.00087103830629901,0.0008710329358822,-3.5798043412582e-09,8.8149281344669e-09,1.0618127811778e-08,-5.5979091479534e-09,-0.0017083579134564,0.001708362924843,-0.0018923309521801,0.0018923371528168,-0.0018923362205886,0.0018923317365562,-0.0018923269459173,0.0018923412406527,-0.0018923322149919,0.0018923358239648,-0.0015012262532642,0.0015012513031583,-0.0015012420039787,0.0015012352341014,-0.001501244729908,0.0015012323388366,-0.0015012326479963,0.0015012447235819,1.084653875087e-09,1.2192721238015e-09,-0.00087077023899111,0.00087077250796673,-6.7542371865726e-09,9.3761419470643e-09,-0.0010510746386063,0.0010510714188726,-0.001051069307149,0.0010510767622708,-0.0010510745882116,0.0010510714584862,-0.0010510692611013,0.0010510768036826,-0.00087103175778913,0.00087103952622997,-0.00087103186798186,0.00087103938243431,0.56737760446252,128566,2924,0.0036249527405764,0.0070894688365344,0.0036249527401617,29.89085768225,-8.7313854199785e-07,-8.7313854199785e-07,-8.7313854199785e-07,4667547.0680926,0.014443945927434
15219200,0.97252027801395,0.014833022257598,0.0040805476499475,0.0066719269568665,0.0040805476507843,-0.00086907243611,0.00086907130996091,-5.1321227952229e-10,-6.3250982227542e-10,5.5019197473637e-09,-6.8758145401738e-09,-0.0010494637237368,0.0010494667515316,-0.0010494637801256,0.0010494667275364,-0.001049467713497,0.0010494626691446,-0.0010494677497338,0.0010494626267732,-0.00086922788365151,0.00086922273683634,-0.0008692279748661,0.00086922259415742,-3.5898586799874e-09,8.8254990720026e-09,1.0709539357277e-08,-5.6893107929312e-09,-0.0017072737910293,0.0017072788025546,-0.0018915502321685,0.0018915564866269,-0.0018915555603049,0.001891551009275,-0.0018915462198499,0.0018915605804374,-0.0018915515471418,0.0018915551043322,-0.001499918124849,0.0014999433607606,-0.0014999340611842,0.0014999271197673,-0.00149993673341,0.0014999242595294,-0.0014999246272348,0.0014999366645793,1.0911454503217e-09,1.2277473037173e-09,-0.00086907073139014,0.00086907301458297,-6.8443995081462e-09,9.4792888882129e-09,-0.0010494668623173,0.0010494635924917,-0.0010494614671939,0.0010494689995675,-0.0010494668120396,0.0010494636320609,-0.0010494614195653,0.0010494690422726,-0.00086922138268184,0.00086922923331953,-0.00086922149640054,0.00086922908672991,0.54391181088373,128566,2924,0.0036178960976975,0.007084987366167,0.0036178960973701,28.48484842848,-1.2121212572163e-05,-1.2121212572163e-05,-1.2121212572163e-05,4642178.5777113,0.014425082936024
15419200,0.97359963779271,0.014846868204909,0.0040842350978798,0.006678398008315,0.0040842350987141,-0.00086740223213905,0.00086740110494914,-5.1276472494478e-10,-6.3424327987261e-10,5.5024945565481e-09,-6.8797968405467e-09,-0.0010477395336511,0.0010477425632439,-0.0010477395917535,0.0010477425398665,-0.0010477435242804,0.0010477384792426,-0.0010477435629875,0.0010477384375978,-0.00086744559201959,0.00086744044725244,-0.00086744569344792,0.00086744030762966,-3.5955583501017e-09,8.8245902288848e-09,1.0750254860034e-08,-5.7343050764455e-09,-0.0017059712119786,0.0017059762209337,-0.0018905323398034,0.0018905386209441,-0.0018905376949947,0.0018905331135118,-0.0018905283259902,0.0018905427166069,-0.0018905336805828,0.0018905372102281,-0.0014984303181423,0.0014984556384123,-0.0014984463058271,0.0014984392744779,-0.0014984489926531,0.001498436480368,-0.0014984368860103,0.001498448897393,1.0945604626277e-09,1.2334322794441e-09,-0.00086740052108232,0.00086740281593094,-6.8724135496894e-09,9.5357215899211e-09,-0.0010477426830122,0.0010477393916467,-0.0010477372599024,0.0010477448266092,-0.0010477426316822,0.0010477394320013,-0.0010477372112235,0.0010477448699328,-0.00086743907439091,0.00086744695882188,-0.00086743919146436,0.00086744680984785,0.61487581016879,128566,2924,0.0036109576638871,0.0070796069164603,0.003610957663661,27.071860528149,-2.342511577481e-05,-2.342511577481e-05,-2.342511577481e-05,4621926.522649,0.014405545371833
15619200,0.97457262036908,0.014859630254472,0.004087650779624,0.0066843286944023,0.0040876507804458,-0.00086615900376711,0.0008661578780755,-5.1103319679765e-10,-6.3469485268988e-10,5.4895807493245e-09,-6.8671320597117e-09,-0.0010466796046201,0.0010466826280768,-0.001046679663759,0.00104668260517,-0.001046683585771,0.0010466785525002,-0.0010466836268632,0.0010466785110795,-0.00086621512200064,0.0008662099923663,-0.00086621523591479,0.00086620985693109,-3.5874265342878e-09,8.8082489273356e-09,1.0690224327161e-08,-5.6799155809484e-09,-0.0017053262652719,0.0017053312701786,-0.0018900189850074,0.0018900252349761,-0.0018900243025307,0.0018900197647848,-0.0018900149789502,0.0018900293228808,-0.0018900202965437,0.0018900238531022,-0.0014976574756589,0.0014976826732716,-0.0014976733223261,0.0014976663861453,-0.0014976760685127,0.0014976636119844,-0.0014976639900498,0.0014976760104053,1.0889029797908e-09,1.2300042455198e-09,-0.00086615729663875,0.00086615958500331,-6.8092179725062e-09,9.4797261045759e-09,-0.0010466827356192,0.0010466794727195,-0.0010466773516809,0.0010466848682208,-0.001046682683034,0.0010466795140993,-0.0010466773021748,0.0010466849119416,-0.00086620863673439,0.00086621646930803,-0.00086620875676926,0.00086621631895233,0.62694797847847,128566,2924,0.0036058008461918,0.0070769351388849,0.0036058008457581,25.963230929726,-3.2294152562191e-05,-3.2294152562191e-05,-3.2294152562191e-05,4591056.9520411,0.014392376479529
15819200,0.97548783268887,0.014872555046984,0.0040911583322788,0.0066902383816175,0.004091158333088,-0.00086612074652528,0.00086611962483596,-5.0812214276328e-10,-6.3404283332062e-10,5.4574103410881e-09,-6.8337110069667e-09,-0.001046894076782,0.0010468970825027,-0.0010468941366831,0.0010468970623306,-0.00104689803408,0.0010468930302189,-0.0010468980791017,0.0010468929880518,-0.0008662729307714,0.0008662678356006,-0.00086627306117551,0.00086626770161921,-3.5642675233679e-09,8.7715247524692e-09,1.04921094362e-08,-5.4912980539668e-09,-0.0017060486612617,0.0017060536593305,-0.0018908412728589,0.0018908474118546,-0.0018908464637498,0.001890842069734,-0.0018908372849995,0.0018908514818666,-0.0018908424792595,0.0018908461368299,-0.001498249914367,0.0014982747101061,-0.0014982653393365,0.0014982587447253,-0.0014982682285738,0.0014982559513471,-0.0014982562196773,0.0014982682974786,1.0724858021773e-09,1.2158290122665e-09,-0.00086611905503415,0.00086612131616062,-6.6058124313176e-09,9.2685131293826e-09,-0.0010468971458372,0.001046893985542,-0.0010468918981746,0.0010468992442406,-0.0010468970905831,0.0010468940292036,-0.0010468918490248,0.0010468992873763,-0.00086626654976273,0.00086627420651464,-0.00086626666942384,0.00086627405601803,0.66919700766175,128566,2924,0.0036056512388881,0.0070799143738022,0.0036056512386047,25.547685903583,-3.5618512771339e-05,-3.5618512771339e-05,-3.5618512771339e-05,4572736.276073,0.014395100109391
16019200,0.97635017541417,0.01488470222871,0.0040944527811475,0.0066957966656168,0.0040944527819455,-0.0008660307680522,0.00086602965200909,-5.0414532022491e-10,-6.3178556540823e-10,5.4401425172333e-09,-6.8057835942182e-09,-0.0010471737788175,0.0010471767760563,-0.0010471738379426,0.0010471767505164,-0.001047177723228,0.0010471727368366,-0.0010471777652332,0.0010471726936442,-0.00086633391668363,0.00086632883589731,-0.0008663340317353,0.00086632869522231,-3.5341650791534e-09,8.7507916250874e-09,1.0318925161625e-08,-5.3135911161447e-09,-0.0017068287904916,0.0017068337894894,-0.001891651563593,0.0018916576001318,-0.0018916566428241,0.0018916523770274,-0.0018916475930738,0.0018916616510922,-0.0018916526726694,0.0018916564282344,-0.0014989371027946,0.0014989615329818,-0.0014989522505127,0.0014989459988162,-0.001498955140651,0.001498943032935,-0.001498943169275,0.0014989553170741,1.0554506277078e-09,1.2003867038585e-09,-0.00086602909771603,0.0008660313214703,-6.4815548153613e-09,9.0705638670489e-09,-0.0010471768049461,0.0010471737243624,-0.0010471716654412,0.0010471788758044,-0.0010471767511958,0.0010471737672909,-0.0010471716149068,0.0010471789207589,-0.00086632760562067,0.00086633513784907,-0.00086632772870867,0.0008663349843419,0.66742793584825,128566,2924,0.0036052907778552,0.0070831268175554,0.0036052907759853,25.147965664304,-3.8816274685566e-05,-3.8816274685566e-05,-3.8816274685566e-05,4547255.1212498,0.014397635117983
16219200,0.97716332444718,0.014896106308419,0.0040975447861268,0.0067010167353757,0.0040975447869163,-0.00086589339361873,0.00086589227982837,-5.021566131734e-10,-6.3174373470431e-10,5.4281982926212e-09,-6.7908121379682e-09,-0.0010473789502761,0.0010473819414183,-0.0010473790093606,0.0010473819142322,-0.0010473828859395,0.0010473779109077,-0.0010473829278347,0.0010473778665531,-0.00086633517842223,0.0008663301096095,-0.00086633529102029,0.00086632996364227,-3.5213874805591e-09,8.7358836774561e-09,1.0202783611494e-08,-5.1995610051569e-09,-0.0017075146166303,0.0017075196133916,-0.0018923649449627,0.0018923709129018,-0.0018923699509789,0.0018923657672221,-0.0018923609833872,0.0018923749543746,-0.0018923659894292,0.0018923698091899,-0.0014995406067125,0.0014995647988757,-0.0014995555362683,0.0014995494997893,-0.0014995584769825,0.0014995464699608,-0.0014995465310203,0.0014995587257739,1.0458510915351e-09,1.192782542813e-09,-0.00086589173414797,0.00086589393894151,-6.3814041021615e-09,8.9462642287302e-09,-0.0010473819450654,0.0010473789211564,-0.0010473768800951,0.001047383997983,-0.0010473818909068,0.0010473789646931,-0.0010473768288788,0.0010473840438381,-0.00086632891744696,0.0008663363625257,-0.00086632904225798,0.00086633620600352,0.66425606053904,128566,2924,0.0036047326390931,0.0070859498091238,0.0036047326382933,24.748805216217,-4.2009558270264e-05,-4.2009558270264e-05,-4.2009558270264e-05,4524155.6753206,0.014399372931817
16419200,0.97793344382638,0.014905747123333,0.0041001073304539,0.0067055324616435,0.0041001073312352,-0.00086577206371355,0.00086577095043684,-5.0097054542534e-10,-6.3256280304872e-10,5.4227972082603e-09,-6.7852814117222e-09,-0.0010475928677303,0.0010475958568251,-0.0010475929276226,0.0010475958285722,-0.001047596799828,0.0010475918294481,-0.0010475968423313,0.0010475917849312,-0.00086632484321832,0.00086631978009057,-0.00086632495834306,0.00086631963373129,-3.5168418053087e-09,8.7279888585786e-09,1.0129248583997e-08,-5.1286179331837e-09,-0.0017081847834718,0.0017081897780721,-0.0018930678239041,0.0018930737475286,-0.0018930727839852,0.0018930686496131,-0.0018930638666227,0.0018930777845537,-0.0018930688261467,0.0018930726877315,-0.0015001273457633,0.0015001513892301,-0.0015001421271788,0.0015001362258224,-0.001500145116677,0.0015001331656823,-0.001500133182712,0.0015001454117358,1.0400233324754e-09,1.1890337791431e-09,-0.00086577040925218,0.00086577260457099,-6.3179337769305e-09,8.8753059825009e-09,-0.0010475958438564,0.0010475928544216,-0.0010475908237541,0.0010475978862768,-0.001047595789286,0.0010475928983699,-0.0010475907714724,0.0010475979331406,-0.00086631861080688,0.00086632600373549,-0.00086631873865013,0.00086632584403232,0.59981699055241,128566,2924,0.0036042402068024,0.0070887083972947,0.0036042402060794,24.411408811945,-4.4708729504441e-05,-4.4708729504441e-05,-4.4708729504441e-05,4504713.7583274,0.014401178187377
16619200,0.97866687639992,0.014916712086528,0.0041031164507509,0.0067104791842536,0.0041031164515239,-0.0008659208424788,0.00086591972937637,-4.9984395143392e-10,-6.3346444991186e-10,5.4237006399938e-09,-6.785887626644e-09,-0.0010478441305643,0.0010478471207575,-0.0010478441907849,0.0010478470918628,-0.0010478480630072,0.0010478430930255,-0.0010478481063083,0.0010478430475971,-0.00086652721706391,0.00086652215613155,-0.00086652733501646,0.00086652200766948,-3.5182375347877e-09,8.7289180525453e-09,1.0105942159816e-08,-5.1058520474895e-09,-0.0017088705155673,0.001708875509486,-0.0018938707426348,0.0018938766494047,-0.0018938756880448,0.0018938715671431,-0.0018938667843096,0.0018938806873968,-0.0018938717295313,0.0018938756058556,-0.0015007051161059,0.0015007291151032,-0.0015007198551316,0.0015007139989227,-0.0015007228591298,0.0015007109209519,-0.0015007109230477,0.0015007231684934,1.0364042298802e-09,1.187380620708e-09,-0.00086591919066966,0.00086592138063026,-6.2955975219348e-09,8.8461500467187e-09,-0.0010478471014666,0.0010478441235008,-0.0010478420982005,0.0010478491385237,-0.0010478470460578,0.0010478441682882,-0.001047842045459,0.0010478491858446,-0.00086652099555105,0.00086652836753893,-0.00086652112491937,0.00086652820670456,0.70235633191603,128566,2924,0.0036048628501085,0.0070915402664974,0.0036048628489096,24.157664941451,-4.6738680468391e-05,-4.6738680468391e-05,-4.6738680468391e-05,4501140.7472891,0.014405314478062
16819200,0.97936576177886,0.014927209410851,0.004105996184365,0.0067152170413562,0.0041059961851301,-0.00086597659796042,0.00086597548365587,-4.9941373199411e-10,-6.3501910700756e-10,5.4295664804453e-09,-6.7927652985358e-09,-0.0010482747096119,0.001048277703372,-0.0010482747703584,0.0010482776737448,-0.0010482786463563,0.0010482736715533,-0.0010482786901274,0.0010482736251725,-0.00086676172620767,0.00086675666163603,-0.00086676184481415,0.00086675650998066,-3.524552060648e-09,8.7356732806483e-09,1.0125886684936e-08,-5.1258025146634e-09,-0.0017097528086911,0.0017097578023489,-0.0018947081282087,0.0018947140430268,-0.0018947130865384,0.0018947089477279,-0.0018947041655727,0.0018947180854312,-0.0018947091238206,0.0018947129907367,-0.0015015455820819,0.0015015696243641,-0.0015015603653143,0.0015015544743412,-0.0015015633578621,0.0015015513940172,-0.0015015514086785,0.0015015636532857,1.0375560964543e-09,1.1904911048112e-09,-0.00086597494364565,0.00086597713743212,-6.3134243038389e-09,8.8656736813273e-09,-0.0010482776868508,0.0010482747001634,-0.0010482726711336,0.0010482797276771,-0.0010482776307506,0.0010482747456599,-0.0010482726178571,0.0010482797756021,-0.00086675549353866,0.00086676288481301,-0.00086675562445307,0.0008667627223573,0.70571572990727,128566,2924,0.0036051085577979,0.0070951727189083,0.003605108556624,23.905835516844,-4.8753315865246e-05,-4.8753315865246e-05,-4.8753315865246e-05,4478000.750982,0.014409505317171
17019200,0.98003202412103,0.014937015349484,0.0041086784145921,0.0067196585195421,0.0041086784153494,-0.00086597502034471,0.00086597390431971,-4.9927614140696e-10,-6.3687010644983e-10,5.4376091760387e-09,-6.8027346721254e-09,-0.0010486481999452,0.0010486511987448,-0.0010486482615016,0.0010486511684766,-0.0010486521427242,0.0010486471609274,-0.0010486521871368,0.0010486471139714,-0.00086694106063129,0.00086693599012363,-0.00086694118069069,0.00086693583635988,-3.533516227093e-09,8.7444619657482e-09,1.0171089300262e-08,-5.1712642980136e-09,-0.0017105694151971,0.0017105744085788,-0.0018954742870679,0.0018954802255703,-0.0018954792747117,0.0018954750999674,-0.0018954703187668,0.0018954842738505,-0.0018954753061887,0.0018954791489782,-0.0015023263317623,0.0015023504685369,-0.0015023412032225,0.0015023352289597,-0.0015023441774739,0.001502332165815,-0.0015023322108286,0.0015023444429141,1.0409247990796e-09,1.1958613999729e-09,-0.00086597336084819,0.00086597556334745,-6.3547606380128e-09,8.9166204782152e-09,-0.0010486511911979,0.0010486481816922,-0.0010486461449079,0.0010486532397749,-0.0010486511344608,0.00104864822777,-0.001048646090885,0.0010486532884016,-0.00086693480443248,0.00086694223736147,-0.00086693493739573,0.00086694207274734,0.69245977206761,128566,2924,0.0036051165480918,0.0070985324742034,0.0036051165470618,23.654073779052,-5.0767409767583e-05,-5.0767409767583e-05,-5.0767409767583e-05,4455700.8732003,0.014412936689993
17219200,0.98065214495644,0.014945890083142,0.0041110962994336,0.0067236974835251,0.0041110963001837,-0.00086522438581441,0.0008652232676808,-4.9916195962308e-10,-6.3870352149765e-10,5.4562788072807e-09,-6.8215383608326e-09,-0.0010481745096508,0.0010481775187457,-0.0010481745712015,0.0010481774872877,-0.0010481784656047,0.0010481734692147,-0.0010481785094082,0.0010481734200579,-0.00086630867301674,0.00086630358808922,-0.00086630878672352,0.00086630342570144,-3.5486267972402e-09,8.7679846619107e-09,1.0313071265105e-08,-5.3079284715464e-09,-0.0017104348368897,0.0017104398334722,-0.0018953046397799,0.001895310656614,-0.001895309717454,0.0018953054396599,-0.0018953006585815,0.001895314717923,-0.001895305736373,0.0018953095012773,-0.0015021749561497,0.0015021993818994,-0.0015021901347382,0.0015021839074618,-0.0015021929974972,0.0015021808631017,-0.0015021809898256,0.0015021931700065,1.0498195492757e-09,1.2065072763333e-09,-0.0008652227167114,0.00086522493624392,-6.4869542403243e-09,9.0511362108969e-09,-0.0010481775417224,0.0010481744635975,-0.0010481724067567,0.001048179610681,-0.0010481774844001,0.0010481745104797,-0.0010481723528016,0.0010481796596937,-0.00086630235376253,0.0008663099013328,-0.0008663024862265,0.00086630973628053,0.67475988442452,128566,2924,0.0036020102078464,0.0070979625266744,0.0036020102066049,22.993837267354,-5.604930186117e-05,-5.604930186117e-05,-5.604930186117e-05,4429362.3565075,0.014406060742555
17419200,0.98121807790298,0.01495363233522,0.0041131920411956,0.0067272482520832,0.0041131920419416,-0.00086384629764439,0.00086384517609856,-4.9986868528494e-10,-6.4136565220154e-10,5.4773149494186e-09,-6.8460038085182e-09,-0.0010469590424407,0.0010469620641142,-0.0010469591053911,0.0010469620320643,-0.001046963014076,0.0010469579995013,-0.0010469630580618,0.0010469579498368,-0.00086498256646109,0.00086497746377054,-0.00086498267957746,0.00086497729906465,-3.5695133603465e-09,8.7910663252523e-09,1.0490823228846e-08,-5.483936567561e-09,-0.0017094416801282,0.0017094466781305,-0.0018942955619949,0.0018943016818815,-0.0018943007543667,0.0018942963469553,-0.0018942915669031,0.0018943057575424,-0.0018942967586542,0.0018943004234977,-0.0015011820782568,0.0015012068664333,-0.0015011976047139,0.0015011910473841,-0.0015012003769361,0.0015011880831947,-0.0015011883243423,0.0015012004332702,1.0635230668375e-09,1.2223061676517e-09,-0.00086384461221346,0.00086384686112376,-6.6544355166804e-09,9.2496537226762e-09,-0.0010469621277665,0.0010469589568466,-0.0010469568717678,0.0010469642249636,-0.001046962070057,0.0010469590040847,-0.001046956816865,0.0010469642749883,-0.00086497616152649,0.00086498386358527,-0.00086497629663886,0.00086498369555929,0.64747799366934,128566,2924,0.0035962937410021,0.0070938468382915,0.0035962937400279,21.990307701231,-6.4077538390154e-05,-6.4077538390154e-05,-6.4077538390154e-05,4401067.0601204,0.014390290025598
17619200,0.98173498602945,0.014960424026593,0.004115020676751,0.0067303826723467,0.0041150206774953,-0.00086244477658824,0.00086244365231735,-5.0019963232914e-10,-6.4385723743131e-10,5.4912207860552e-09,-6.8641561922401e-09,-0.0010456146598668,0.0010456176902673,-0.0010456147251121,0.0010456176592833,-0.0010456186417609,0.0010456136151436,-0.0010456186875483,0.0010456135657333,-0.00086357884238522,0.00086357373047313,-0.00086357896617528,0.00086357357054629,-3.5880261476171e-09,8.8042712160873e-09,1.0635831183482e-08,-5.6321522613792e-09,-0.0017082560047479,0.0017082610012944,-0.0018931293524692,0.0018931355596526,-0.0018931346394919,0.0018931301253097,-0.0018931253472614,0.0018931396460921,-0.0018931306336884,0.0018931342125105,-0.0014999924548842,0.0015000175407043,-0.0015000082395673,0.0015000013989399,-0.0015000109737689,0.001499998547238,-0.0014999988915523,0.0015000109338406,1.0738797726071e-09,1.2349023252802e-09,-0.00086244307661875,0.00086244535147136,-6.780707181256e-09,9.4182725799086e-09,-0.0010456177872618,0.0010456145400222,-0.0010456124335932,0.0010456199052379,-0.0010456177286079,0.0010456145879737,-0.0010456123776803,0.0010456199561033,-0.00086357237244504,0.00086358019215444,-0.0008635725116084,0.00086358002169202,0.62390234981499,128566,2924,0.0035904758601595,0.0070889398858716,0.0035904758583696,20.978886814046,-7.2168905487635e-05,-7.2168905487635e-05,-7.2168905487635e-05,4379001.9331335,0.014373508836794
17819200,0.98220832509872,0.014966420325128,0.0041166273464468,0.0067331656314955,0.0041166273471856,-0.00086107367558386,0.00086107254913893,-5.0032361263906e-10,-6.4611812459524e-10,5.4960512525172e-09,-6.8732188071775e-09,-0.001044220878042,0.0010442239124507,-0.0010442209445057,0.0010442238811847,-0.0010442248641888,0.0010442198323635,-0.0010442249116673,0.0010442197833483,-0.00086216097151008,0.00086215585572178,-0.00086216110004544,0.00086215569559698,-3.5958278305751e-09,8.810357424099e-09,1.0728980869705e-08,-5.7261001629823e-09,-0.0017069696723301,0.0017069746685857,-0.0018918925506486,0.0018918988154443,-0.0018918978971616,0.001891893317354,-0.0018918885410986,0.0018919029064709,-0.0018918938869343,0.0018918974094,-0.0014986955130082,0.0014987207865605,-0.0014987114598244,0.0014987044398613,-0.0014987141614544,0.0014987016588533,-0.0014987020699897,0.0014987140651978,1.0813912406112e-09,1.2444558691521e-09,-0.00086107196562546,0.00086107425870276,-6.8582730953764e-09,9.5250017908521e-09,-0.0010442240305486,0.0010442207359606,-0.0010442186156841,0.0010442261623551,-0.0010442239710098,0.0010442207843178,-0.0010442185586068,0.0010442262137645,-0.00086215446180472,0.00086216236060121,-0.00086215460297017,0.00086216218700516,0.60341629811874,128566,2924,0.0035847809972622,0.0070836207560368,0.0035847809963733,19.989208525247,-8.0086331798021e-05,-8.0086331798021e-05,-8.0086331798021e-05,4362524.6247937,0.014356557709524
18019200,0.98264274471365,0.014971920715086,0.0041181036805216,0.0067357133533131,0.0041181036812516,-0.0008597349630072,0.00085973383693467,-4.9914061267411e-10,-6.4697684067998e-10,5.4949620212998e-09,-6.8719739515305e-09,-0.0010427944558048,0.0010427974906396,-0.0010427945232182,0.0010427974590422,-0.001042798441333,0.0010427934114717,-0.0010427984896813,0.0010427933619443,-0.00086074496467517,0.00086073985215711,-0.00086074509495838,0.00086073968917046,-3.5949225244669e-09,8.8090256056086e-09,1.0767550762774e-08,-5.7650394637664e-09,-0.0017056062266128,0.0017056112227232,-0.0018906024161603,0.0018906087071667,-0.0018906077876197,0.0018906031832767,-0.001890598407344,0.0018906127975514,-0.00189060377819,0.0018906072746426,-0.0014973156860376,0.0014973410358562,-0.001497331708365,0.0014973246096252,-0.0014973343838672,0.0014973218570375,-0.0014973222946988,0.0014973342610549,1.0832469908752e-09,1.2483825804745e-09,-0.00085973325029068,0.00085973554925635,-6.8926234487908e-09,9.5667834511404e-09,-0.0010427976188178,0.0010427943037306,-0.0010427921786874,0.0010427997555591,-0.0010427975586151,0.0010427943528378,-0.0010427921209578,0.001042799807648,-0.00086073844046804,0.00086074637130952,-0.00086073858351627,0.00086074619603496,0.60265704838658,128566,2924,0.0035792181372011,0.0070779859385675,0.0035792181363114,19.017838327429,-8.7857293380565e-05,-8.7857293380565e-05,-8.7857293380565e-05,4350373.4600313,0.014339553120963
18219200,0.98304186453015,0.014977078579399,0.0041194952657806,0.0067380880471162,0.0041194952665023,-0.00085838708190287,0.00085838595745523,-4.9728889728135e-10,-6.4713285126113e-10,5.4897430066948e-09,-6.8644746236299e-09,-0.0010413523074318,0.0010413553400445,-0.001041352375314,0.00104135530774,-0.0010413562888693,0.0010413512652732,-0.0010413563377259,0.0010413512147312,-0.00085931984813994,0.00085931474325271,-0.00085931997979806,0.00085931457774495,-3.5884579058977e-09,8.8032070738902e-09,1.0766647264081e-08,-5.7638313677317e-09,-0.0017041907005236,0.0017041956965359,-0.0018892542022832,0.0018892604957648,-0.001889259573059,0.0018892549730425,-0.0018892501972794,0.0018892645821076,-0.0018892555676029,0.0018892590601458,-0.0014958894950478,0.001495914838827,-0.0014959055213439,0.0014958984213256,-0.0014959081828029,0.0014958956695873,-0.001495896104853,0.0014959080595749,1.0811507642922e-09,1.2483197911252e-09,-0.00085838537116872,0.00085838766760411,-6.8926505231108e-09,9.5615003596823e-09,-0.001041355469884,0.0010413521541226,-0.0010413500314132,0.0010413576043535,-0.0010413554089622,0.001041352204038,-0.0010413499732055,0.0010413576570426,-0.00085931332801741,0.00085932125728385,-0.00085931347285487,0.0008593210805932,0.61338752699448,128566,2924,0.0035736169134121,0.0070721361794715,0.0035736169121166,18.046888005643,-9.5624895954858e-05,-9.5624895954858e-05,-9.5624895954858e-05,4338001.1368077,0.014322253123613
18419200,0.98341820935944,0.014981980179456,0.0041208212286797,0.0067403377213812,0.0041208212293947,-0.00085771467024865,0.00085771354777735,-4.954353524408e-10,-6.4752888914421e-10,5.4699264168575e-09,-6.8454612384757e-09,-0.0010406543372841,0.0010406573613712,-0.001040654407153,0.0010406573284286,-0.0010406583052506,0.0010406532978088,-0.0010406583564118,0.0010406532494395,-0.00085861437629354,0.00085860928967994,-0.00085861451914321,0.00085860913066701,-3.5731497487867e-09,8.7762388516332e-09,1.0638489519271e-08,-5.6435183177422e-09,-0.0017035680194123,0.0017035730104717,-0.0018886801650257,0.0018886863910531,-0.0018886854557414,0.001888680948755,-0.001888676174645,0.0018886904625692,-0.0018886814635012,0.00188868502267,-0.0014952467832979,0.0014952718648923,-0.0014952625230492,0.0014952556425922,-0.0014952652942635,0.001495252892703,-0.0014952532603511,0.0014952652528618,1.0718806349055e-09,1.2412842522018e-09,-0.00085771296711327,0.00085771525045336,-6.776306695776e-09,9.4515945052775e-09,-0.0010406574652587,0.0010406542064161,-0.0010406521024335,0.0010406595807564,-0.0010406574041406,0.0010406542562885,-0.0010406520420341,0.0010406596347801,-0.00085860791174792,0.0008586157454117,-0.00085860806266163,0.00085861556456884,0.61738404617302,128566,2924,0.003570823319937,0.0070695625394262,0.0035708233189791,17.474773920757,-0.00010020180863394,-0.00010020180863394,-0.00010020180863394,4331126.7347659,0.014313973892726
18619200,0.98378070102638,0.014986655132529,0.0041220847286189,0.0067424856745873,0.0041220847293226,-0.00085759839652098,0.00085759727864103,-4.9211734399853e-10,-6.4623249225675e-10,5.4463011914393e-09,-6.8165764268281e-09,-0.0010405615770731,0.0010405645885917,-0.0010405616471575,0.0010405645547937,-0.0010405655276145,0.001040560542633,-0.0010405655790436,0.0010405604928453,-0.00085849263271142,0.00085848756976735,-0.00085849277714234,0.00085848740931026,-3.5477702008204e-09,8.7489586127317e-09,1.0452835575048e-08,-5.4595195961886e-09,-0.0017035955109555,0.0017036004996638,-0.0018887517190803,0.0018887578379926,-0.0018887568908252,0.0018887525191957,-0.0018887477455632,0.0018887618921682,-0.0018887529157239,0.0018887565751897,-0.0014952415335527,0.0014952662305408,-0.0014952569120146,0.0014952503785425,-0.0014952597687496,0.0014952475408267,-0.0014952477875614,0.0014952598493662,1.0553517814334e-09,1.2267512307234e-09,-0.00085759671156368,0.00085759896311966,-6.6111023506554e-09,9.2501663408469e-09,-0.0010405646535487,0.0010405614847542,-0.0010405594123138,0.001040566737176,-0.0010405645915107,0.0010405615354675,-0.0010405593515071,0.0010405667918137,-0.00085848625467916,0.00085849394026556,-0.00085848640705846,0.00085849375634921,0.61178641606505,128566,2924,0.0035703409526775,0.0070696759848637,0.0035703409516758,17.23034269265,-0.0001021572584588,-0.0001021572584588,-0.0001021572584588,4329812.7987491,0.014313110086528
18819200,0.9841301199255,0.014991471873665,0.004123401865442,0.0067446681420852,0.0041234018661378,-0.00085750674620957,0.0008575056328197,-4.888726901646e-10,-6.4482966896006e-10,5.4281592901583e-09,-6.7916033829139e-09,-0.0010404766522492,0.0010404796537688,-0.0010404767210658,0.0010404796182048,-0.001040480588672,0.0010404756226108,-0.0010404806398205,0.0010404755705075,-0.00085839326718356,0.00085838822375003,-0.00085839340546191,0.0008583880526483,-3.5253381980438e-09,8.7309106009684e-09,1.0293793081099e-08,-5.2985175821014e-09,-0.0017036237516176,0.0017036287404998,-0.0018888303369431,0.0018888363607694,-0.0018888354053659,0.0018888311513047,-0.0018888263758185,0.0018888404017469,-0.0018888314435733,0.0018888351932658,-0.0014952353204583,0.001495259691022,-0.0014952504238985,0.0014952441930031,-0.0014952533136766,0.0014952412355642,-0.0014952413702712,0.0014952534947145,1.0390816384567e-09,1.2123762646041e-09,-0.00085750508042205,0.00085750729813489,-6.4701749507142e-09,9.0551059985142e-09,-0.0010404796836137,0.0010404765962861,-0.0010404745531325,0.0010404817384946,-0.0010404796208079,0.0010404766482547,-0.001040474492609,0.0010404817933292,-0.00085838696745926,0.00085839451709775,-0.00085838711855701,0.00085839433341999,0.64922938419901,128566,2924,0.0035699603991008,0.0070697932520186,0.0035699603980563,16.993425345224,-0.00010405259723821,-0.00010405259723821,-0.00010405259723821,4329478.0926107,0.014312456379611
19019200,0.9844670399244,0.014996417651724,0.0041247673286088,0.0067468829938172,0.0041247673292983,-0.0008573910975287,0.00085738998696007,-4.8644150118208e-10,-6.4440785946385e-10,5.417047857524e-09,-6.7762446185254e-09,-0.0010404684526678,0.0010404714484688,-0.0010404685215044,0.0010404714114022,-0.0010404723803652,0.001040467425878,-0.001040472431704,0.001040467372743,-0.00085832441241532,0.00085831938193124,-0.00085832455120527,0.00085831920816563,-3.5124540771743e-09,8.717133824663e-09,1.0166536859336e-08,-5.1724297052936e-09,-0.0017037394498959,0.001703744437472,-0.0018889373145458,0.0018889432623054,-0.0018889423016022,0.0018889381380649,-0.0018889333619867,0.001888947294176,-0.0018889383482063,0.0018889421710351,-0.0014953405130942,0.0014953646240683,-0.0014953553797582,0.0014953493881723,-0.0014953583252901,0.0014953463557436,-0.0014953464051408,0.0014953585854598,1.0271887584966e-09,1.2024673828481e-09,-0.00085738944443497,0.00085739163942545,-6.359560679669e-09,8.9144608154984e-09,-0.0010404714500598,0.0010404684249004,-0.0010404664029535,0.0010404734838045,-0.0010404713867869,0.0010404684775749,-0.0010404663418287,0.0010404735394413,-0.00085831816952237,0.00085832561732464,-0.00085831832274896,0.0008583254318684,0.68719102525311,128566,2924,0.0035694839168657,0.0070702675239369,0.0035694839154856,16.756772947661,-0.00010594581641872,-0.00010594581641872,-0.00010594581641872,4321497.5358382,0.014311972810592
19219200,0.98480246214374,0.015001496789932,0.0041261756915389,0.0067491454061711,0.0041261756922221,-0.00085812008825986,0.00085811897825506,-4.853424565439e-10,-6.4534093688357e-10,5.4034822922883e-09,-6.7643833537612e-09,-0.0010414475872274,0.0010414505770046,-0.0010414476580571,0.0010414505394939,-0.0010414515061717,0.0010414465616228,-0.0010414515589541,0.0010414465098127,-0.00085918622454506,0.00085918120537046,-0.0008591863736723,0.00085918103992405,-3.5027747351068e-09,8.6974246149423e-09,1.0006207606285e-08,-5.0185549385915e-09,-0.0017049534809212,0.0017049584640028,-0.0018900925916396,0.0018900984455098,-0.0018900974777294,0.0018900934236295,-0.0018900886495278,0.0018901024670244,-0.0018900935334184,0.0018900974474834,-0.0014965420158084,0.0014965658030757,-0.0014965565336435,0.0014965508352158,-0.0014965596162289,0.0014965477700607,-0.0014965477270501,0.0014965599826494,1.0168233092201e-09,1.1945784106986e-09,-0.00085811844313979,0.00085812062275035,-6.221575769925e-09,8.7781417571028e-09,-0.0010414505445586,0.0010414475906592,-0.0010414455891915,0.0010414525571692,-0.0010414504808061,0.0010414476433407,-0.0010414455260332,0.0010414526142801,-0.00085918004089155,0.00085918737902431,-0.00085918020069514,0.00085918718763098,0.70677989383312,128566,2924,0.0035725205205486,0.0070752775292476,0.0035725205192471,17.022736597753,-0.00010381810721798,-0.00010381810721798,-0.00010381810721798,4316919.2755781,0.014323220080076
19419200,0.98514155001816,0.015006518238757,0.0041275627439193,0.0067513927502401,0.004127562744598,-0.0008592567464187,0.00085925563602506,-4.8469864393068e-10,-6.4687174756919e-10,5.3924214733523e-09,-6.7557626308831e-09,-0.0010429061221764,0.0010429091064769,-0.0010429061930688,0.0010429090685304,-0.0010429100332566,0.0010429050972365,-0.001042910088529,0.0010429050456038,-0.0008604933625683,0.00086048835427648,-0.00086049351549846,0.00086048818221918,-3.4972998825951e-09,8.6855619801023e-09,9.8869953417849e-09,-4.9043880659582e-09,-0.0017067149300669,0.0017067199100597,-0.001891778054198,0.0018917838361735,-0.0018917828637864,0.0018917788916731,-0.0018917741174104,0.0018917878523436,-0.0018917789258123,0.0018917829095865,-0.0014982864189778,0.0014983099712567,-0.0014983006919946,0.0014982952067356,-0.0014983038575049,0.0014982921017148,-0.0014982919911813,0.001498304301345,1.0085848599469e-09,1.1884103364181e-09,-0.00085925510875862,0.00085925727432922,-6.0989968262452e-09,8.648802371585e-09,-0.0010429090430141,0.0010429061540992,-0.0010429041702691,0.0010429110381065,-0.0010429089780598,0.0010429062078608,-0.0010429041063612,0.0010429110952959,-0.00086048723718018,0.00086049447640772,-0.00086048739690194,0.00086049428384671,0.6926475950717,128566,2924,0.0035772527424694,0.0070825480141494,0.0035772527438338,17.53963103547,-9.9682951716242e-05,-9.9682951716242e-05,-9.9682951716242e-05,4315021.9387986,0.014340201674051
19619200,0.98548416828655,0.015011460798781,0.0041289220322308,0.0067536167336471,0.0041289220329032,-0.0008603963103968,0.00086039520183949,-4.8241339114248e-10,-6.4655172566629e-10,5.3955859173278e-09,-6.7532197293023e-09,-0.0010443295951003,0.0010443325803476,-0.0010443296650499,0.001044332540592,-0.0010443335073918,0.0010443285720683,-0.0010443335611733,0.0010443285170588,-0.00086178650792797,0.00086178150119663,-0.00086178665472751,0.00086178132186115,-3.4933485700697e-09,8.6919379262627e-09,9.848524585746e-09,-4.8593016839044e-09,-0.0017084499205465,0.0017084549039105,-0.0018934672993024,0.0018934730511662,-0.0018934720826643,0.0018934681372256,-0.0018934633609373,0.0018934770683574,-0.0018934681437761,0.0018934721554136,-0.0014999906490081,0.0015000141226058,-0.0015000048930647,0.0014999995003379,-0.0015000080260098,0.0014999963035831,-0.0014999961511342,0.0015000084920536,1.0013005952427e-09,1.1827958684859e-09,-0.00086039468110024,0.00086039683062602,-6.0688388628444e-09,8.5763391165156e-09,-0.0010443325055117,0.0010443296417788,-0.0010443276667487,0.001044334492413,-0.0010443324400547,0.0010443296966613,-0.0010443276035023,0.0010443345500092,-0.00086178040094806,0.00086178759983293,-0.0008617805603432,0.00086178740827377,0.6763895530736,128566,2924,0.0035819959354202,0.0070897102297795,0.0035819959343069,18.062335424438,-9.5501316604493e-05,-9.5501316604493e-05,-9.5501316604493e-05,4316703.0051611,0.014357094640991
19819200,0.98583004366383,0.015016298892383,0.0041302457074756,0.0067558074767658,0.0041302457081416,-0.00086153195956079,0.00086153085635867,-4.7857060212896e-10,-6.4472604052396e-10,5.4037436098824e-09,-6.7555720003244e-09,-0.0010457061988189,0.001045709193631,-0.0010457062705313,0.0010457091541308,-0.0010457101146871,0.0010457051817675,-0.001045710170015,0.0010457051270331,-0.00086305427584907,0.00086304927244698,-0.00086305442417591,0.00086304909144012,-3.4979863046842e-09,8.6975970759678e-09,9.8420440192522e-09,-4.8524446460293e-09,-0.0017101442091532,0.0017101491926518,-0.0018951447008081,0.001895150444596,-0.0018951494805797,0.0018951455360152,-0.0018951407590184,0.0018951544650266,-0.001895145538144,0.0018951495574933,-0.0015016387840349,0.0015016622473872,-0.0015016530230844,0.0015016476478602,-0.0015016561576378,0.001501644430168,-0.0015016442716149,0.0015016566272556,9.9177617214483e-10,1.1752522717087e-09,-0.00086153034169995,0.00086153247400038,-6.0734302650509e-09,8.5595563914268e-09,-0.0010457091216982,0.0010457062449431,-0.0010457042868025,0.0010457110915172,-0.0010457090551618,0.0010457062999627,-0.0010457042224527,0.0010457111493417,-0.00086304818051415,0.00086305536246364,-0.00086304834234578,0.00086305516962746,0.65786896300005,128566,2924,0.0035867215534466,0.0070967056223408,0.0035867215529322,18.585245036161,-9.1318039710708e-05,-9.1318039710708e-05,-9.1318039710708e-05,4321541.1654634,0.01437378166426
20019200,0.98616958199294,0.015021230155868,0.004131602674035,0.0067580248071372,0.0041316026746962,-0.00086192634927531,0.0008619252446209,-4.7816936123954e-10,-6.4618109157008e-10,5.4259601401956e-09,-6.7768689012187e-09,-0.0010462397996975,0.0010462428081054,-0.0010462398716765,0.0010462427660799,-0.0010462437311614,0.0010462387812136,-0.0010462437854027,0.0010462387254979,-0.0008635242552932,0.00086351923422506,-0.00086352439581913,0.00086351904682692,-3.5136807965812e-09,8.7227942192712e-09,9.9735107522691e-09,-4.9777667214082e-09,-0.0017109145253826,0.0017109195128235,-0.0018959250671402,0.0018959308825879,-0.0018959299307384,0.0018959258898224,-0.0018959211124188,0.0018959349156533,-0.0018959259740036,0.0018959299253264,-0.0015023705547044,0.0015023942856075,-0.0015023850832834,0.0015023794801836,-0.0015023881128724,0.0015023762664182,-0.0015023761796643,0.0015023884959783,9.9971595551085e-10,1.1850443270599e-09,-0.00086192472303693,0.00086192687045639,-6.2142606959249e-09,8.6986476464196e-09,-0.0010462427673416,0.0010462398173041,-0.0010462378399873,0.0010462447568131,-0.0010462427010662,0.001046239872306,-0.0010462377747438,0.0010462448156857,-0.00086351809243258,0.00086352539313395,-0.00086351825614615,0.0008635251987505,0.68048385420584,128566,2924,0.0035883652860787,0.0070998841191391,0.0035883652851164,18.671770416401,-9.0625836668791e-05,-9.0625836668791e-05,-9.0625836668791e-05,4321144.8664025,0.01438034228244
20219200,0.98650037980601,0.01502617949365,0.0041329705488786,0.0067602383952384,0.0041329705495331,-0.00086209992946265,0.00086209882231051,-4.7828649297007e-10,-6.484560451109e-10,5.4464891256061e-09,-6.8004593522231e-09,-0.0010465830401921,0.00104658606046,-0.0010465831135703,0.0010465860198787,-0.0010465869861368,0.0010465820204907,-0.0010465870416848,0.0010465819632107,-0.00086378774225876,0.00086378270837307,-0.00086378789013209,0.00086378252117233,-3.5372091991576e-09,8.7465406401285e-09,1.0153927498426e-08,-5.1572845002045e-09,-0.0017114770600106,0.0017114820485021,-0.0018964652315197,0.0018964711510792,-0.001896470211495,0.0018964660382318,-0.0018964612608495,0.0018964752009146,-0.0018964662401897,0.0018964700887827,-0.0015029140999751,0.0015029382025192,-0.0015029289706024,0.0015029230278115,-0.0015029319267507,0.001502919916246,-0.0015029199490711,0.0015029321922604,1.0110828958579e-09,1.1985008884307e-09,-0.00086209828866671,0.00086210046227609,-6.3619264817777e-09,8.8805009543174e-09,-0.0010465860571349,0.0010465830214984,-0.0010465810201559,0.0010465880702741,-0.001046585989278,0.0010465830778091,-0.001046580955012,0.0010465881293424,-0.00086378150483961,0.00086378893809084,-0.0008637816698115,0.00086378874287719,0.69908661267029,128566,2924,0.0035890931441887,0.0071022018552092,0.0035890931423524,18.638347573467,-9.089321941226e-05,-9.089321941226e-05,-9.089321941226e-05,4314470.2861426,0.014384172735339
20419200,0.98682261758658,0.015031007894052,0.0041343052067485,0.0067623974799059,0.0041343052073978,-0.00086224520582075,0.00086224409498802,-4.7919104882915e-10,-6.5150323778714e-10,5.4615293993751e-09,-6.8217916942994e-09,-0.00104693733142,0.001046940361705,-0.0010469374067499,0.0010469403216463,-0.0010469412889467,0.001046936309417,-0.0010469413465476,0.0010469362528435,-0.00086404239964604,0.00086403735360925,-0.00086404255482609,0.00086403716769933,-3.5572763122975e-09,8.7625055178242e-09,1.0313866953974e-08,-5.3195851518545e-09,-0.0017120544794832,0.0017120594672088,-0.0018969964914861,0.0018970025065915,-0.0018970015746278,0.0018969972847513,-0.001896992509491,0.0018970065684545,-0.0018969975918871,0.0018970013475707,-0.0015034826391885,0.001503507070034,-0.0015034977951204,0.0015034915435692,-0.0015035007023144,0.0015034885468904,-0.0015034886935194,0.0015035008657948,1.0240656127742e-09,1.213711813179e-09,-0.00086224354817188,0.00086224575223718,-6.5006283134143e-09,9.0668290800751e-09,-0.0010469403943041,0.0010469372756004,-0.0010469352494805,0.0010469424319222,-0.0010469403255081,0.001046937332408,-0.0010469351830655,0.0010469424916728,-0.00086403609009332,0.0008640436578532,-0.00086403625811825,0.00086404345962155,0.69998402473923,128566,2924,0.0035897049616343,0.0071045791313797,0.0035897049607355,18.602091790793,-9.1183265673657e-05,-9.1183265673657e-05,-9.1183265673657e-05,4304859.3001471,0.014387829138012
20619200,0.98713652825164,0.015035199618495,0.0041354426383503,0.0067643143411494,0.0041354426389956,-0.0008623536795624,0.0008623525672539,-4.7885331518896e-10,-6.5324327500411e-10,5.4728470444523e-09,-6.8352038735077e-09,-0.0010472565691147,0.0010472596070688,-0.0010472566458411,0.0010472595669459,-0.0010472605350109,0.0010472555467097,-0.0010472605935641,0.0010472554898313,-0.00086425005985451,0.00086424500632399,-0.00086425021837012,0.00086424481991147,-3.5693584149035e-09,8.7750661379882e-09,1.0450437062733e-08,-5.4556470864323e-09,-0.0017125905302817,0.0017125955186183,-0.0018974905013172,0.0018974965985597,-0.0018974956720061,0.0018974912851437,-0.0018974865114591,0.0018975006686337,-0.0018974916813349,0.0018974953563383,-0.0015040075124378,0.0015040322197622,-0.0015040229295519,0.0015040164188761,-0.0015040257681531,0.0015040134986721,-0.0015040137358828,0.0015040258431308,1.0330296761672e-09,1.2247562258464e-09,-0.00086235201067892,0.00086235423562844,-6.6239794822972e-09,9.2158830970809e-09,-0.0010472596718456,0.0010472564815429,-0.0010472544367681,0.0010472617281113,-0.0010472596023231,0.0010472565389039,-0.0010472543695294,0.0010472617885574,-0.00086424369093627,0.00086425137017637,-0.000864243861425,0.00086425116990477,0.63099126392452,128566,2924,0.0035901637282161,0.0071067853320968,0.0035901637270952,18.565735577348,-9.1474115381212e-05,-9.1474115381212e-05,-9.1474115381212e-05,4295800.1600357,0.014391001365202
20819200,0.98742768939928,0.015039403988492,0.0041365994365191,0.0067662051148125,0.0041365994371602,-0.00086115261141615,0.00086115149915081,-4.7750386934927e-10,-6.537710019207e-10,5.4984548345655e-09,-6.8553921513873e-09,-0.0010459880152368,0.0010459910677867,-0.0010459880916211,0.0010459910252285,-0.0010459919984953,0.0010459869932672,-0.0010459920544015,0.0010459869328698,-0.00086300344104402,0.00086299836848251,-0.00086300358093858,0.0008629981663744,-3.5825416006956e-09,8.807412726881e-09,1.0674429140341e-08,-5.6674135952873e-09,-0.0017113586156092,0.001711363611417,-0.0018963086253385,0.0018963148504606,-0.001896313937481,0.0018963093950324,-0.0018963046203671,0.0018963189353172,-0.0018963099313607,0.0018963134811863,-0.0015027676740213,0.0015027928281091,-0.00150278359689,0.0015027766923034,-0.0015027862214525,0.0015027737784691,-0.0015027741341688,0.0015027861493295,1.0453591012268e-09,1.2386964976925e-09,-0.00086115093229518,0.00086115317768877,-6.8497026018462e-09,9.4262367333592e-09,-0.0010459911861805,0.0010459878801643,-0.0010459858066722,0.001045993271971,-0.0010459911166568,0.0010459879380604,-0.0010459857398166,0.0010459933330648,-0.00086299697249242,0.00086300483743258,-0.0008629971411616,0.00086300463686768,0.67642719666546,128566,2924,0.0035851742613282,0.0071016922982932,0.0035851742599125,17.741350303672,-9.8069197570627e-05,-9.8069197570627e-05,-9.8069197570627e-05,4283807.655544,0.014375709337116
21019200,0.98769651147787,0.015043156353673,0.0041376268796937,0.0067679025936467,0.0041376268803329,-0.00085976237003334,0.0008597612556654,-4.7754237643945e-10,-6.5613763392186e-10,5.5089990158781e-09,-6.8708492950939e-09,-0.0010446181021102,0.0010446211624518,-0.0010446181805121,0.0010446211205648,-0.0010446220927511,0.0010446170785476,-0.0010446221518214,0.0010446170197502,-0.00086160230890075,0.00086159723206073,-0.00086160246665862,0.00086159703891078,-3.6001349891708e-09,8.8158275066388e-09,1.0829552314552e-08,-5.8278378110259e-09,-0.0017099973296878,0.0017100023231516,-0.0018949299615663,0.0018949362839315,-0.0018949353746487,0.0018949307212736,-0.0018949259484455,0.0018949403772879,-0.0018949313601638,0.0018949348161943,-0.0015014338175208,0.0015014592900181,-0.0015014500015935,0.0015014427866209,-0.0015014526010101,0.0015014400205374,-0.0015014404915045,0.0015014524260523,1.0562607934082e-09,1.2520838961243e-09,-0.00085976067526842,0.00085976294941997,-6.9799083262095e-09,9.6115018407053e-09,-0.0010446213173077,0.0010446179282569,-0.0010446158329857,0.0010446234244232,-0.0010446212467007,0.0010446179867116,-0.0010446157644395,0.0010446234862299,-0.00086159577468877,0.00086160376090982,-0.00086159594871481,0.00086160355843571,0.65601667100775,128566,2924,0.0035794017806104,0.0070960608080542,0.0035794017783917,16.830541176198,-0.00010535567059041,-0.00010535567059041,-0.00010535567059041,4262219.0765391,0.014358285661384
21219200,0.98794488186878,0.015046647663945,0.0041385852219476,0.0067694772194131,0.0041385852225842,-0.00085837774222922,0.00085837662694929,-4.7696248993583e-10,-6.5785235060675e-10,5.5105015420321e-09,-6.8757628610761e-09,-0.0010431874107872,0.0010431904737133,-0.0010431874915098,0.0010431904332092,-0.0010431914033699,0.0010431863882416,-0.0010431914643502,0.0010431863294227,-0.00086017614105795,0.00086017106480428,-0.00086017630608649,0.00086017087262914,-3.6059496273612e-09,8.8170341154836e-09,1.0919019461098e-08,-5.9199493549049e-09,-0.0017085449997005,0.0017085499918246,-0.00189348596656,0.0018934923471472,-0.0018934914378735,0.0018934867222608,-0.0018934819512467,0.0018934964434733,-0.0018934874217475,0.0018934908196285,-0.0015000027347314,0.0015000283879099,-0.0015000190663389,0.0015000116699451,-0.0015000216450167,0.0015000089944812,-0.0015000095339737,0.0015000214141454,1.0620401802067e-09,1.2602113844128e-09,-0.0008583760390357,0.00085837832939105,-7.0507078345684e-09,9.7148593140042e-09,-0.0010431906503037,0.0010431872144379,-0.00104318510828,0.0010431927678861,-0.0010431905784626,0.0010431872737554,-0.0010431850389133,0.0010431928303264,-0.00086016957257442,0.00086017762894135,-0.0008601697493871,0.00086017742314102,0.65967104125784,128566,2924,0.0035736501744809,0.0070900558066951,0.0035736501728435,15.917556361869,-0.00011265954910505,-0.00011265954910505,-0.00011265954910505,4244845.0835661,0.014340524183775
21419200,0.98817785514663,0.015049946841,0.0041394928626523,0.0067709611150619,0.0041394928632856,-0.00085737737486463,0.00085737626214526,-4.7462919763543e-10,-6.5776722236415e-10,5.4972674734617e-09,-6.8609637427672e-09,-0.0010421662952897,0.001042169352641,-0.0010421663771875,0.0010421693117096,-0.0010421702784042,0.0010421652761777,-0.0010421703407494,0.001042165217443,-0.00085915238873148,0.00085914732701037,-0.00085915255943896,0.00085914713599552,-3.5936608539512e-09,8.80058278059e-09,1.0863111271878e-08,-5.8668626846663e-09,-0.0017075242761549,0.001707529266204,-0.0018924689549058,0.0018924753085054,-0.0018924743910082,0.001892469719174,-0.0018924649490497,0.0018924793951464,-0.0018924703841508,0.0018924738071184,-0.0014989966641868,0.0014990221989185,-0.0014990128733771,0.0014990055709624,-0.0014990154882635,0.0014990028983044,-0.0014990034073809,0.0014990152937173,1.0556552203143e-09,1.2561273821326e-09,-0.00085737567764808,0.00085737795860655,-7.0012429766564e-09,9.6627751178199e-09,-0.0010421695205605,0.0010421661066361,-0.0010421640124066,0.0010421716261432,-0.0010421694479399,0.0010421661665505,-0.001042163941927,0.0010421716894202,-0.0008591458488932,0.00085915386150896,-0.00085914602906132,0.00085915365278043,0.66373456172478,128566,2924,0.0035694952296777,0.0070858348018707,0.0035694952280595,15.229369782531,-0.00011816504173975,-0.00011816504173975,-0.00011816504173975,4231544.135402,0.014327812371841
21619200,0.98839685783852,0.015053077891755,0.0041403561778866,0.0067723655353517,0.0041403561785167,-0.00085641143226735,0.00085641032311856,-4.7180003982161e-10,-6.5709658971469e-10,5.4803290052916e-09,-6.8402203469049e-09,-0.0010411901168254,0.0010411931662761,-0.0010411901989139,0.0010411931236639,-0.0010411940873045,0.001041189101648,-0.0010411941503981,0.0010411890425915,-0.00085816763706696,0.0008581625931912,-0.00085816780785825,0.00085816239847994,-3.5750210896185e-09,8.7807837274963e-09,1.0755321963003e-08,-5.7604715336076e-09,-0.0017065397719443,0.0017065447603288,-0.0018914820326456,0.001891488326837,-0.0018914873995887,0.0018914828089844,-0.0018914780392401,0.0018914924002431,-0.0018914834048814,0.0018914868842605,-0.0014980300521103,0.001498055360905,-0.0014980460558209,0.0014980389502838,-0.0014980487085863,0.0014980362257443,-0.0014980366661089,0.0014980485831805,1.0448908422101e-09,1.2474974183299e-09,-0.00085640974719708,0.00085641200780461,-6.9103387453066e-09,9.5472421010968e-09,-0.0010411933138181,0.0010411899480476,-0.0010411878741466,0.0010411953991334,-0.0010411932406539,0.001041190008491,-0.0010411878026509,0.0010411954631958,-0.0008581611495447,0.00085816907862534,-0.0008581613311464,0.0008581688671895,0.66920857567686,128566,2924,0.0035654834826476,0.0070817632772017,0.0035654834817942,14.565085420829,-0.00012347931663337,-0.00012347931663337,-0.00012347931663337,4218226.2319765,0.014315543165971
21819200,0.98860285475204,0.015055978724227,0.0041411546776621,0.0067736693682757,0.0041411546782889,-0.00085543387598777,0.00085543277104879,-4.685993377038e-10,-6.5609471011376e-10,5.4633605891798e-09,-6.8178606450667e-09,-0.0010402126418034,0.0010402156826106,-0.0010402127241732,0.0010402156393968,-0.0010402165993562,0.0010402116315241,-0.0010402166628055,0.0010402115707758,-0.00085717470896894,0.00085716968403015,-0.00085717487997812,0.00085716948472156,-3.5562743166725e-09,8.761486287961e-09,1.0634566858694e-08,-5.6404902328952e-09,-0.0017055431864464,0.0017055481737252,-0.0018904748923858,0.0018904811179096,-0.0018904801818644,0.0018904756813393,-0.0018904709110352,0.0018904851790315,-0.0018904761997634,0.0018904797435228,-0.0014970561024765,0.0014970811620792,-0.0014970718812359,0.0014970649989221,-0.0014970745781233,0.0014970622126261,-0.0014970625716893,0.0014970745295072,1.0317017548115e-09,1.2364826721303e-09,-0.00085543220551887,0.00085543444100819,-6.7996951014233e-09,9.4049512790472e-09,-0.0010402158048648,0.0010402124987421,-0.0010402104488361,0.0010402178661403,-0.0010402157307942,0.0010402125603004,-0.0010402103771403,0.0010402179307319,-0.00085716828291204,0.00085717610676479,-0.00085716846598741,0.00085717589393173,0.65988857084208,128566,2924,0.0035614237411461,0.0070776414260604,0.0035614237400194,13.901404743426,-0.00012878876205259,-0.00012878876205259,-0.00012878876205259,4204186.1922776,0.01430312602203
22019200,0.98880854308644,0.015058827783709,0.0041419376432452,0.0067749524965945,0.0041419376438691,-0.00085605028946429,0.00085604919062471,-4.6438625358343e-10,-6.5431390167335e-10,5.4338678373083e-09,-6.7816278652474e-09,-0.0010408926750132,0.0010408957005563,-0.0010408927571954,0.0010408956559059,-0.0010408966102596,0.0010408916709408,-0.0010408966748515,0.0010408916094315,-0.00085782939860825,0.00085782440478623,-0.0008578295757943,0.00085782420544569,-3.5257608956013e-09,8.7266080792898e-09,1.0357538160613e-08,-5.3667408168696e-09,-0.0017063579750167,0.0017063629591606,-0.0018913000104801,0.0018913060737615,-0.0018913051221476,0.0018913008215372,-0.0018912960500597,0.0018913101130449,-0.0018913011612382,0.0018913048616305,-0.0014978424333637,0.0014978669283146,-0.0014978576731243,0.0014978513060236,-0.0014978605145573,0.0014978483916778,-0.0014978485719163,0.0014978606432876,1.0063592775178e-09,1.2135916077027e-09,-0.00085604864577587,0.00085605083333831,-6.5490104087569e-09,9.1025366946594e-09,-0.0010408957617265,0.0010408925917135,-0.0010408905889396,0.001040897775965,-0.0010408956867718,0.0010408926542771,-0.0010408905165298,0.0010408978412076,-0.00085782310153722,0.00085783069432095,-0.00085782328704469,0.00085783047970083,0.64982380979935,128566,2924,0.0035639862621998,0.0070810081383764,0.0035639862601227,14.153708064545,-0.00012677033548364,-0.00012677033548364,-0.00012677033548364,4210337.7905863,0.014311740045679
22219200,0.98901510251906,0.015061664927127,0.0041427161579188,0.006776232610668,0.0041427161585397,-0.00085683506962965,0.00085683397474474,-4.612847635763e-10,-6.5356776840192e-10,5.4117800719071e-09,-6.7559355290718e-09,-0.0010417377935008,0.0010417408084482,-0.0010417378761893,0.0010417407622256,-0.0010417417128301,0.001041736794006,-0.0010417417781739,0.0010417367321549,-0.00085864585019683,0.00085864087797627,-0.0008586460282408,0.00085864067600557,-3.5030005241503e-09,8.7002094661611e-09,1.0115841872504e-08,-5.1281388204085e-09,-0.0017073544918255,0.0017073594733045,-0.0018923275132935,0.0018923334332957,-0.0018923324705078,0.0018923283411129,-0.0018923235690253,0.0018923374559315,-0.0018923285252854,0.0018923323650731,-0.0014987957729643,0.0014988197764317,-0.0014988105395315,0.0014988046251839,-0.0014988135096378,0.001498801590138,-0.0014988016163735,0.0014988137962118,9.8626048628679e-10,1.1958672783196e-09,-0.00085683344741167,0.00085683559640381,-6.3373100950561e-09,8.8496131355799e-09,-0.0010417408166831,0.0010417377619856,-0.0010417357981908,0.00104174279191,-0.0010417407411494,0.001041737825118,-0.0010417357246095,0.0010417428581929,-0.00085863965905557,0.00085864706357057,-0.00085863984776636,0.00085864684564566,0.64497437421576,128566,2924,0.0035672476722804,0.0070851269245932,0.0035672476710738,14.500316954073,-0.00012399746436742,-0.00012399746436742,-0.00012399746436742,4220090.8106124,0.014322534584614
22419200,0.98922246873601,0.015064642429526,0.0041435386463838,0.0067775651361401,0.0041435386470017,-0.0008576302705066,0.00085762917868872,-4.5858803163424e-10,-6.5318618804331e-10,5.4003923114608e-09,-6.7401469851068e-09,-0.0010425845955719,0.0010425876048919,-0.0010425846779529,0.0010425875569889,-0.0010425885057775,0.0010425835993815,-0.0010425885715371,0.0010425835361738,-0.0008594704721407,0.00085946551378506,-0.00085947065000478,0.0008594653069863,-3.4894650415324e-09,8.6871622390979e-09,9.9481365667272e-09,-4.9606005442938e-09,-0.001708357013159,0.0017083619939647,-0.0018933692249201,0.0018933750418722,-0.0018933740741677,0.0018933700625886,-0.0018933652889648,0.0018933790556116,-0.0018933701374843,0.0018933740774294,-0.001499749200753,0.0014997728653518,-0.0014997636547291,0.0014997580611719,-0.0014997667013122,0.0014997549192343,-0.001499754832328,0.00149976709529,9.7028608133801e-10,1.1821886322378e-09,-0.0008576286653358,0.00085763078325993,-6.1878263535642e-09,8.6590450718375e-09,-0.0010425875742082,0.0010425846029522,-0.0010425826682746,0.0010425895205024,-0.001042587497887,0.0010425846670226,-0.0010425825941661,0.0010425895874266,-0.0008594643569737,0.00085947162337442,-0.00085946454703143,0.00085947140369048,0.67139356092489,128566,2924,0.0035705521697875,0.007089270894474,0.0035705521684787,14.849315871923,-0.00012120547302461,-0.00012120547302461,-0.00012120547302461,4230242.4523704,0.014333442017958
22619200,0.9894303983475,0.015067663194198,0.0041443740361032,0.0067789151213763,0.0041443740367181,-0.00085838338164291,0.00085838229028048,-4.57186706407e-10,-6.5413510892799e-10,5.4000919621014e-09,-6.7390192806751e-09,-0.0010434634290686,0.0010434664390729,-0.0010434635119811,0.0010434663900875,-0.0010434673387962,0.001043462433957,-0.0010434674051028,0.0010434623697748,-0.00086028803472916,0.00086028307923772,-0.00086028821375519,0.00086028286933338,-3.488721292724e-09,8.6863993718147e-09,9.870995172932e-09,-4.8836634390225e-09,-0.0017094056707353,0.0017094106512601,-0.001894419365001,0.0018944251314606,-0.0018944241648316,0.0018944202038619,-0.0018944154295297,0.0018944291446894,-0.0018944202285855,0.0018944242182004,-0.0015007619604654,0.0015007854728362,-0.0015007762687509,0.0015007708259539,-0.0015007793601574,0.0015007676301699,-0.0015007674917801,0.0015007798038121,9.6295946000685e-10,1.1772091826149e-09,-0.00085838178308781,0.00085838388822597,-6.1199142825254e-09,8.5747245803496e-09,-0.0010434663890515,0.0010434634557487,-0.001043461533604,0.0010434683227616,-0.0010434663120002,0.0010434635206048,-0.0010434614587501,0.0010434683905109,-0.00086028195068998,0.00086028915753029,-0.00086028214296572,0.000860288935461,0.67880269832105,128566,2924,0.0035736845397674,0.0070936022672033,0.0035736845384329,15.187478151127,-0.00011850017479098,-0.00011850017479098,-0.00011850017479098,4234817.5617846,0.014344192382007
22819200,0.98963586666875,0.015070638479359,0.0041451960846574,0.0067802463094318,0.0041451960852694,-0.00085873721141782,0.00085873611820837,-4.5686762509957e-10,-6.5610417984262e-10,5.4143572520602e-09,-6.7543985513195e-09,-0.001043940788781,0.0010439438075453,-0.0010439408724333,0.0010439437572067,-0.0010439447088457,0.0010439397925249,-0.0010439447751414,0.0010439397272926,-0.00086069956972504,0.00086069460309796,-0.00086069974633359,0.00086069438888772,-3.5009030082868e-09,8.7029758605908e-09,9.9189153718852e-09,-4.9286446049375e-09,-0.0017100212349809,0.0017100262174885,-0.0018950250971871,0.0018950308854613,-0.0018950299275017,0.0018950259272673,-0.0018950211525029,0.0018950349080025,-0.0018950259816027,0.00189502995139,-0.0015013554632895,0.0015013790770344,-0.0015013698773434,0.0015013643576474,-0.0015013729373409,0.0015013611512704,-0.0015013610385979,0.0015013733506815,9.6598594436969e-10,1.1825479108618e-09,-0.00085873560838608,0.00085873772067024,-6.1726078284797e-09,8.6277150829793e-09,-0.0010439437671016,0.0010439408070416,-0.0010439388768134,0.0010439457089977,-0.0010439436895412,0.0010439408724332,-0.0010439388011284,0.0010439457777194,-0.00086069345640027,0.00086070071232085,-0.00086069365088814,0.00086070048762536,0.67691804978823,128566,2924,0.0035751586778088,0.0070961423958526,0.0035751586765284,15.303694126538,-0.00011757044698769,-0.00011757044698769,-0.00011757044698769,4233583.090848,0.014349761779643
23019200,0.98983880549576,0.015073364211894,0.004145940197145,0.0067814838169944,0.004145940197755,-0.00085906633898265,0.00085906524295823,-4.5707465377683e-10,-6.5879891318753e-10,5.4296169632854e-09,-6.773463107381e-09,-0.0010443862116116,0.0010443892396383,-0.0010443862965573,0.001044389189594,-0.0010443901426309,0.0010443852136294,-0.0010443902105401,0.0010443851477471,-0.00086108009612596,0.00086107511952215,-0.00086108027947431,0.00086107490455385,-3.5194507850179e-09,8.7200082318518e-09,1.0014268335976e-08,-5.0246254012019e-09,-0.0017106040385712,0.0017106090213476,-0.0018956029433952,0.0018956087842668,-0.0018956078353346,0.0018956037618387,-0.0018955989870355,0.0018956128190978,-0.0018956038782994,0.0018956077976117,-0.0015019138165579,0.0015019376317999,-0.0015019284052159,0.0015019227064378,-0.0015019314423297,0.0015019195574834,-0.0015019195102109,0.0015019317938557,9.7230621135604e-10,1.1913061106619e-09,-0.00085906472631323,0.00085906685499293,-6.2473571735855e-09,8.7270438524754e-09,-0.0010443892165834,0.0010443862122077,-0.0010443842682881,0.0010443911719787,-0.0010443891378104,0.0010443862786242,-0.0010443841919256,0.0010443912412401,-0.00086107394106717,0.00086108126887629,-0.00086107413791204,0.00086108104250568,0.63260005049759,128566,2924,0.0035765299743777,0.0070985472486243,0.0035765299729841,15.41489449428,-0.00011668084404576,-0.00011668084404576,-0.00011668084404576,4232712.0178831,0.014354985099054
23219200,0.99003921301222,0.015076182410144,0.0041467156668572,0.0067827510758215,0.0041467156674647,-0.00085943163947846,0.00085943054067697,-4.5724106969661e-10,-6.6136256275904e-10,5.4447640047945e-09,-6.7923748437875e-09,-0.0010447451566097,0.0010447481943017,-0.0010447452429121,0.0010447481439029,-0.0010447490989915,0.001044744157016,-0.0010447491679716,0.0010447440907602,-0.00086144299071929,0.00086143800256851,-0.00086144317749477,0.00086143778652674,-3.5358350337256e-09,8.7374685922145e-09,1.012795922421e-08,-5.137177319818e-09,-0.0017110851023286,0.0017110900863375,-0.0018961437798114,0.0018961496852889,-0.0018961487446302,0.0018961445869729,-0.0018961398126146,0.0018961537313803,-0.0018961447766261,0.0018961486341893,-0.0015023436541464,0.0015023677039591,-0.0015023584570149,0.001502352548507,-0.0015023614484786,0.0015023494565504,-0.0015023494844891,0.0015023617284384,9.8044954088806e-10,1.201870122429e-09,-0.00085943001572644,0.00085943216380719,-6.3494433437761e-09,8.8536022520947e-09,-0.001044748195775,0.0010447451328475,-0.0010447431717122,0.0010447501683713,-0.0010447481161487,0.0010447451998872,-0.0010447430943575,0.0010447502384295,-0.00086143678202853,0.00086144420603579,-0.00086143698161325,0.00086144397709017,0.65900012034881,128566,2924,0.0035780473023402,0.0071005367971282,0.0035780473009799,15.525918489696,-0.00011579265208243,-0.00011579265208243,-0.00011579265208243,4239925.5162002,0.014360080321248
23419200,0.99023794386192,0.015078945836614,0.0041474744950788,0.0067839968458521,0.0041474744956836,-0.00085989450212416,0.00085989340164262,-4.5686484799691e-10,-6.6340518180202e-10,5.454987782353e-09,-6.8049167258181e-09,-0.0010452808007255,0.0010452838451123,-0.0010452808881986,0.001045283794504,-0.001045284750513,0.0010452798004391,-0.0010452848207201,0.001045279733597,-0.0008619378992331,0.00086193290507818,-0.0008619380906181,0.00086193268787072,-3.5475478999056e-09,8.7490939370094e-09,1.0238232728077e-08,-5.2472813820968e-09,-0.0017117626689932,0.0017117676534654,-0.001896844150219,0.0018968501211642,-0.0018968491858271,0.0018968449489999,-0.0018968401753993,0.0018968541751553,-0.0018968452103961,0.0018968490039445,-0.0015029809125122,0.0015030051874765,-0.0015029959241423,0.0015029898064183,-0.0015029988659716,0.0015029867786085,-0.0015029868801631,0.0015029990745901,9.8780495251433e-10,1.2116504385101e-09,-0.00085989286853678,0.00085989503456283,-6.44439328415e-09,8.9716944037078e-09,-0.0010452838707665,0.0010452807528935,-0.0010452787759226,0.0010452858591296,-0.0010452837901502,0.0010452808207707,-0.00104527869775,0.0010452859298572,-0.00086193164311543,0.00086193915568057,-0.00086193184513505,0.00086193892477892,0.65256370449681,128566,2924,0.0035799723982348,0.0071033357793577,0.0035799723967887,15.704672596358,-0.00011436261922913,-0.00011436261922913,-0.00011436261922913,4243223.8060949,0.014366826055469
23619200,0.99043920461195,0.015081811858257,0.0041482644422547,0.0067852829731458,0.0041482644428567,-0.00086094600598478,0.00086094490462248,-4.5620838541169e-10,-6.6535765322162e-10,5.4524083146227e-09,-6.805864873941e-09,-0.0010464249053815,0.0010464279506487,-0.0010464249947976,0.0010464278993918,-0.0010464288539858,0.0010464239050763,-0.0010464289265956,0.0010464238399273,-0.00086304120069084,0.00086303621021485,-0.00086304140257012,0.00086303599735275,-3.5495249682134e-09,8.7431110790757e-09,1.0271891879283e-08,-5.2860683034183e-09,-0.0017131106472419,0.0017131156289554,-0.0018982259601522,0.0018982319573169,-0.0018982310186132,0.001898226758893,-0.0018982219873451,0.0018982360093128,-0.0018982270441452,0.0018982308131927,-0.0015042664917689,0.0015042908348226,-0.0015042815377396,0.0015042753405297,-0.0015042844978138,0.0015042723827473,-0.001504272518708,0.0015042846842976,9.9149932835957e-10,1.2180207857818e-09,-0.00086094436555862,0.00086094654459037,-6.4763438636699e-09,9.0353913339748e-09,-0.0010464279867425,0.001046424844603,-0.0010464228603942,0.0010464299821293,-0.0010464279055905,0.0010464249126992,-0.0010464227801011,0.001046430054058,-0.0008630349266596,0.00086304247796522,-0.00086303513403363,0.00086304224341948,0.66669036064726,128566,2924,0.003584343009632,0.007108906312516,0.0035843430086797,16.219698162998,-0.00011024241469602,-0.00011024241469602,-0.00011024241469602,4254199.6224942,0.014381344969037
23819200,0.99064295874379,0.015084876799291,0.0041491156127818,0.0067866455731272,0.0041491156133821,-0.00086200402441314,0.00086200292426292,-4.5426302115189e-10,-6.658134215076e-10,5.4505078106193e-09,-6.8014231899255e-09,-0.001047621317887,0.0010476243624917,-0.0010476214078294,0.0010476243106598,-0.0010476252652743,0.0010476203202501,-0.0010476253372689,0.0010476202523643,-0.00086417571569396,0.00086417072884311,-0.0008641759121697,0.00086417050800487,-3.5440940186546e-09,8.7436861070972e-09,1.0313580129207e-08,-5.3239531642971e-09,-0.0017145263525187,0.0017145313358879,-0.0018996557028643,0.0018996617261223,-0.0018996607872479,0.0018996565018339,-0.0018996517312458,0.0018996657771101,-0.0018996568146715,0.0018996605542061,-0.0015056255327533,0.0015056499529411,-0.0015056406796323,0.0015056344095418,-0.0015056435781246,0.0015056314480122,-0.0015056316032792,0.0015056437397932,9.920216238174e-10,1.2208401262062e-09,-0.00086200238393309,0.00086200456425714,-6.5139725911087e-09,9.0629124644851e-09,-0.0010476244093846,0.0010476212485002,-0.0010476192613983,0.0010476264076735,-0.0010476243272215,0.0010476213177069,-0.0010476191811909,0.001047626480212,-0.00086416942842172,0.00086417701251386,-0.00086416963598903,0.00086417677544828,0.70079156544395,128566,2924,0.0035887424353724,0.0071147546980914,0.0035887424343154,16.742337494699,-0.00010606130004241,-0.00010606130004241,-0.00010606130004241,4262330.9205426,0.014396205517167
24019200,0.99084906477596,0.015088014054324,0.0041499875999267,0.0067880388538732,0.0041499876005239,-0.0008630300928621,0.00086302899426702,-4.5220993788504e-10,-6.6618190889771e-10,5.4486083647362e-09,-6.7966125995034e-09,-0.0010488790336632,0.0010488820777394,-0.0010488791241595,0.0010488820249992,-0.0010488829789303,0.0010488780380077,-0.0010488830515908,0.0010488779688892,-0.00086532658473928,0.00086532160415087,-0.00086532678277105,0.00086532137976629,-3.5405174445636e-09,8.7407316350014e-09,1.0343560352802e-08,-5.3539106655866e-09,-0.0017160273702804,0.0017160323534988,-0.0019011229536745,0.0019011289980839,-0.0019011280575619,0.0019011237546964,-0.0019011189839111,0.0019011330468432,-0.0019011240870388,0.0019011278046194,-0.0015070880301155,0.0015071125066853,-0.00150710324687,0.0015070969149042,-0.0015071061098613,0.0015070939662405,-0.0015070941390442,0.0015071062475197,9.9210105228062e-10,1.2233582940605e-09,-0.00086302845210209,0.00086303063441328,-6.5436568285403e-09,9.0900181603586e-09,-0.0010488821334348,0.0010488789562738,-0.001048876966564,0.001048884134555,-0.0010488820504513,0.001048879026516,-0.001048876885809,0.0010488842078451,-0.00086532028826471,0.00086532789620983,-0.00086532049777705,0.0008653276577181,0.7086620227065,128566,2924,0.0035930126855899,0.0071209512755568,0.0035930126842524,17.265244689999,-0.00010187804248001,-0.00010187804248001,-0.00010187804248001,4264127.2666543,0.014411159673445
24219200,0.99105613297007,0.015091025480619,0.00415081852229,0.0067893884354445,0.0041508185228844,-0.00086386572576675,0.00086386462904202,-4.499125705276e-10,-6.6621755570529e-10,5.4495416766285e-09,-6.7934732763194e-09,-0.00104995879285,0.0010499618380858,-0.0010499588832997,0.0010499617834113,-0.0010499627378308,0.0010499577989626,-0.0010499628103186,0.0010499577283385,-0.0008662914204653,0.00086628644395288,-0.00086629161866725,0.00086628621660343,-3.5368603894017e-09,8.7422287907937e-09,1.038005999094e-08,-5.3871491958194e-09,-0.0017173481999462,0.0017173531846535,-0.0019024009104342,0.001902406977078,-0.0019024060370376,0.0019024017120863,-0.0019023969412219,0.001902411024666,-0.001902402066681,0.0019024057610749,-0.0015083770594773,0.0015084016048715,-0.001508392370989,0.0015083859758289,-0.0015083951796574,0.0015083830188237,-0.0015083832062498,0.0015083952908431,9.9119233644384e-10,1.2247819085508e-09,-0.00086386408589575,0.0008638662675332,-6.5869865997868e-09,9.1203186841947e-09,-0.0010499619050537,0.0010499587059961,-0.0010499567136809,0.0010499639090811,-0.0010499618216259,0.0010499587769652,-0.001049956632353,0.0010499639831385,-0.00086628510972272,0.00086629274653117,-0.00086628532116797,0.00086629250754562,0.68010065000994,128566,2924,0.0035964926645361,0.0071264016437164,0.0035964926615653,17.692976053589,-9.8456191571288e-05,-9.8456191571288e-05,-9.8456191571288e-05,4262954.3381214,0.014423753774146
24419200,0.99126098969009,0.015094001716534,0.0041516396184,0.0067907224791425,0.0041516396189916,-0.00086430769675851,0.00086430659924388,-4.4920163128491e-10,-6.6792288521331e-10,5.4530290769953e-09,-6.7979407242831e-09,-0.0010505390267277,0.0010505420747808,-0.0010505391185456,0.0010505420199354,-0.0010505429746729,0.0010505380335147,-0.0010505430478557,0.0010505379618405,-0.00086680661395156,0.00086680163529128,-0.00086680681002218,0.00086680140156395,-3.5406939699355e-09,8.7463409753458e-09,1.0438554553794e-08,-5.4456442510121e-09,-0.0017181229838569,0.001718127968607,-0.00190317534448,0.0019031814473146,-0.0019031805092108,0.0019031761431065,-0.0019031713726458,0.0019031854978241,-0.0019031765364627,0.001903180194751,-0.0015091125705218,0.0015091372330082,-0.0015091279965229,0.0015091214884528,-0.0015091307690873,0.0015091185621927,-0.0015091187887077,0.0015091308424123,9.9512567215997e-10,1.231111165177e-09,-0.00086430605213028,0.00086430824324705,-6.6386392495396e-09,9.1822779722578e-09,-0.0010505421554897,0.001050538926604,-0.0010505369265474,0.0010505441672001,-0.0010505420711338,0.0010505389984283,-0.0010505368445476,0.0010505442420764,-0.00086680027824325,0.000866807967864,-0.0008668004910421,0.00086680772510908,0.67934591283366,128566,2924,0.0035983341229071,0.0071295983600467,0.0035983341214984,17.885114577355,-9.6919083381157e-05,-9.6919083381157e-05,-9.6919083381157e-05,4262599.6470602,0.014430734718866
24619200,0.99146352903497,0.015097088783682,0.0041524973836571,0.0067920940157797,0.0041524973842451,-0.00086475282161554,0.0008647517237379,-4.481578114909e-10,-6.693852610852e-10,5.4551396450078e-09,-6.8013721438673e-09,-0.001051104730809,0.0010511077812796,-0.0010511048240463,0.001051107726347,-0.0010511086801148,0.0010511037380072,-0.0010511087552505,0.0010511036665091,-0.00086731838872702,0.00086731341201039,-0.00086731859352481,0.00086731318044332,-3.54553777449e-09,8.7472344596387e-09,1.0476939110702e-08,-5.4864516896669e-09,-0.0017188793219164,0.0017188843055276,-0.0019039334380876,0.0019039395657437,-0.0019039386279939,0.0019039342343888,-0.0019039294644456,0.0019039436182079,-0.0019039346534735,0.0019039382879793,-0.0015098311103072,0.0015098558521619,-0.0015098465957458,0.0015098400073773,-0.0015098493699494,0.0015098371278112,-0.0015098373850862,0.0015098494169793,9.9650018333872e-10,1.2350282978311e-09,-0.00086475117316202,0.0008647533714706,-6.6674462988864e-09,9.2280593848288e-09,-0.0010511078707852,0.0010511046210984,-0.0010511026170902,0.0010511098863898,-0.0010511077853872,0.0010511046936933,-0.0010511025339276,0.0010511099620038,-0.00086731203894955,0.00086731975713179,-0.00086731225551066,0.00086731951220843,0.70944459932713,128566,2924,0.0036001880947932,0.0071327195963162,0.0036001880932177,18.071905327645,-9.5424757378838e-05,-9.5424757378838e-05,-9.5424757378838e-05,4262680.1354662,0.014437664242728
24819200,0.99166371500774,0.015099910134188,0.0041532717220314,0.0067933666895397,0.0041532717226168,-0.00086516108312664,0.00086515998475217,-4.4719294091189e-10,-6.7087283181807e-10,5.4557989294149e-09,-6.8033216950746e-09,-0.0010517101485994,0.0010517132005592,-0.0010517102430518,0.0010517131452849,-0.001051714098762,0.0010517091564909,-0.0010517141748858,0.0010517090843481,-0.00086782377141679,0.00086781879586298,-0.00086782397931054,0.00086781856251304,-3.5472405367071e-09,8.7479928235888e-09,1.0492586814205e-08,-5.5027107128473e-09,-0.0017196855099314,0.0017196904930514,-0.0019047011307448,0.0019047072677426,-0.001904706330651,0.0019047019252229,-0.0019046971563848,0.0019047113211576,-0.0019047023554829,0.0019047059797467,-0.0015106158515655,0.0015106406252,-0.0015106313614057,0.0015106247419539,-0.0015106341331147,0.0015106218775397,-0.0015106221476603,0.0015106341713466,9.9633627117333e-10,1.2373184725692e-09,-0.00086515943310831,0.00086516163407602,-6.6811269237468e-09,9.2477560124652e-09,-0.0010517132944101,0.0010517100344048,-0.0010517080296535,0.0010517153105803,-0.0010517132081068,0.0010517101077684,-0.0010517079456178,0.0010517153869759,-0.00086781741492419,0.00086782514840223,-0.00086781763391919,0.00086782490071319,0.66112228986693,128566,2924,0.0036018914904572,0.0071360436033959,0.0036018914889441,18.258507864381,-9.3931937084948e-05,-9.3931937084948e-05,-9.3931937084948e-05,4257739.5096561,0.014444495982159
25019200,0.99186380020386,0.015102695855502,0.004154035199577,0.0067946254557653,0.0041540352001596,-0.00086592179455673,0.00086592069689429,-4.4564356712471e-10,-6.7183705146913e-10,5.4509865739438e-09,-6.7989515892254e-09,-0.0010525582820333,0.00105256133314,-0.001052558377496,0.0010525612768523,-0.0010525622286101,0.0010525572911661,-0.0010525623065538,0.0010525572196118,-0.00086863392246304,0.00086862895450227,-0.00086863413814177,0.00086862872260039,-3.5442754185247e-09,8.7406797742327e-09,1.0447743159618e-08,-5.460792603652e-09,-0.0017207500768974,0.0017207550583338,-0.0019057997356902,0.0019058058476577,-0.0019058049071727,0.001905800533328,-0.0019057957649494,0.001905809897258,-0.0019058009351418,0.001905804584712,-0.001511619719583,0.0015116444041882,-0.0015116351288705,0.0015116285869781,-0.0015116379433862,0.001511625722452,-0.0015116259689846,0.0015116380101663,9.9174718250654e-10,1.2352594183887e-09,-0.00086592014740351,0.00086592234325544,-6.6436489723196e-09,9.2127495184419e-09,-0.0010525614185479,0.0010525581748125,-0.0010525561777781,0.0010525634269931,-0.0010525613315713,0.0010525582487137,-0.0010525560922699,0.001052563504266,-0.00086862758481485,0.00086863528610617,-0.00086862780777135,0.00086863503640301,0.65362538872425,128566,2924,0.0036050548463497,0.0071404409390057,0.0036050548446644,18.630246956267,-9.095802434986e-05,-9.095802434986e-05,-9.095802434986e-05,4265364.7741162,0.014455375700635
25219200,0.99206700967401,0.015105625546231,0.004154842526787,0.0067959404920776,0.0041548425273668,-0.00086716856911039,0.0008671674726144,-4.437339033809e-10,-6.726217637756e-10,5.441124972481e-09,-6.7891964769726e-09,-0.0010538970846631,0.0010539001312561,-0.0010538971826088,0.0010539000759609,-0.001053901025096,0.0010538960967999,-0.0010539011035607,0.001053896023585,-0.00086993760506355,0.0008699326472993,-0.00086993782528781,0.00086993241739236,-3.5354199688174e-09,8.7276342592349e-09,1.0345579633644e-08,-5.3611395501021e-09,-0.0017223501576125,0.0017223551365093,-0.0019074488379711,0.0019074548897,-0.0019074539453522,0.0019074496404179,-0.0019074448744694,0.0019074589328294,-0.0019074499808935,0.0019074536842833,-0.0015131386020125,0.0015131630744678,-0.001513153786177,0.0015131474376694,-0.001513156680742,0.0015131445467459,-0.001513144732582,0.0015131568218639,9.8462796715913e-10,1.2305321003114e-09,-0.00086716692818834,0.00086716911302213,-6.5591734536652e-09,9.1264688414899e-09,-0.0010539001976021,0.0010538969961803,-0.0010538950142381,0.001053902189738,-0.001053900109155,0.0010538970708211,-0.0010538949280721,0.0010539022680121,-0.00086993130629589,0.00086993894436064,-0.00086993153201421,0.00086993868749124,0.67454674955337,128566,2924,0.0036102368561017,0.0071470529517417,0.0036102368550228,19.271504204617,-8.5827966363064e-05,-8.5827966363064e-05,-8.5827966363064e-05,4279659.5041358,0.01447259823317
25419200,0.99227321977984,0.015108857280303,0.0041557433603512,0.0067973705590223,0.0041557433609298,-0.00086842216143957,0.0008684210667513,-4.4171322981881e-10,-6.7283470031103e-10,5.4337340767604e-09,-6.778714986822e-09,-0.001055304336231,0.0010553073796358,-0.0010553044330022,0.0010553073216767,-0.0010553082704201,0.0010553033504213,-0.0010553083497492,0.0010553032766572,-0.00087128078641299,0.00087127583742075,-0.00087128100335675,0.00087127559861373,-3.5257937383627e-09,8.7217992746073e-09,1.0270423969304e-08,-5.2841519628436e-09,-0.0017240347947137,0.001724039774811,-0.0019091523198457,0.0019091583261176,-0.0019091573777583,0.0019091531290855,-0.0019091483609688,0.0019091623637442,-0.0019091534180983,0.0019091571679793,-0.001514751241835,0.0015147755640541,-0.0015147663086983,0.0015147601028905,-0.0015147692071621,0.0015147571402668,-0.0015147572715499,0.0015147693922088,9.7449948277958e-10,1.2228655986878e-09,-0.00086842053130144,0.00086842269629498,-6.4838642628975e-09,9.0167228494543e-09,-0.0010553074254942,0.0010553042682221,-0.0010553023029502,0.0010553094021173,-0.001055307336636,0.0010553043439039,-0.0010553022161188,0.0010553094809175,-0.0008712745297073,0.00087128209164869,-0.00087127475641498,0.00087128183563718,0.72789191345068,128566,2924,0.0036154494944031,0.0071540117638793,0.0036154494931181,19.918901001097,-8.0648791991226e-05,-8.0648791991226e-05,-8.0648791991226e-05,4289791.6370384,0.014490236674092
25619200,0.99248221329367,0.01511215279303,0.0041566616982924,0.0067988293958703,0.0041566616988679,-0.00086962509605931,0.00086962400293322,-4.3968138873943e-10,-6.7318683492641e-10,5.4312551975547e-09,-6.7733023104403e-09,-0.0010568067182059,0.0010568097606553,-0.0010568068152285,0.0010568097014828,-0.0010568106498735,0.0010568057342192,-0.0010568107294772,0.0010568056589619,-0.00087264670169294,0.00087264175928324,-0.00087264691996131,0.00087264151691644,-3.5220050436929e-09,8.7182285704546e-09,1.02150659501e-08,-5.2290421919975e-09,-0.0017258478121558,0.0017258527917815,-0.0019109083535923,0.0019109143248265,-0.0019109133760281,0.0019109091659427,-0.0019109043969271,0.0019109183599059,-0.0019109094186593,0.00191091320212,-0.0015165211885163,0.001516545399178,-0.001516536158933,0.0015165300587329,-0.0015165390781741,0.0015165270548796,-0.0015165271471171,0.0015165392955603,9.6789124768971e-10,1.2186825643967e-09,-0.00086962347244317,0.00086962562580466,-6.4343247185318e-09,8.94923200487e-09,-0.0010568097930859,0.0010568066641863,-0.0010568047091712,0.0010568117594566,-0.0010568097034401,0.001056806740839,-0.001056804621777,0.0010568118390706,-0.00087264047066787,0.00087264798591307,-0.00087264069953221,0.00087264772837871,0.73243475206992,128566,2924,0.0036204571806905,0.007161494329695,0.0036204571790816,20.566506138914,-7.5467950888686e-05,-7.5467950888686e-05,-7.5467950888686e-05,4290167.87286,0.014507994515362
25819200,0.99268856382643,0.015115315449969,0.0041575389403086,0.006800237568779,0.0041575389408812,-0.00087009277748847,0.00087009168517324,-4.3777238882461e-10,-6.73640186233e-10,5.4419298013058e-09,-6.7790584391827e-09,-0.001057545060173,0.0010575481086303,-0.0010575451566945,0.0010575480465507,-0.0010575489988226,0.0010575440770723,-0.0010575490764578,0.0010575439989042,-0.0008732556468078,0.00087325069760402,-0.00087325585410028,0.00087325044538087,-3.5230610497856e-09,8.7323547750263e-09,1.0262410402524e-08,-5.2679689478706e-09,-0.0017268382247389,0.0017268432089407,-0.0019118362603167,0.0019118422536812,-0.001911841311574,0.0019118370690105,-0.0019118322985786,0.0019118462932732,-0.0019118373484638,0.00191184111011,-0.0015174887587927,0.0015175130612162,-0.0015175038722072,0.0015174977066,-0.0015175067015942,0.0015174946440679,-0.0015174947471044,0.0015175068858707,9.665455658876e-10,1.2192650254255e-09,-0.00087009115636793,0.00087009330487899,-6.482508140532e-09,8.9637483152881e-09,-0.0010575481489725,0.0010575450020515,-0.0010575430444932,0.0010575501185372,-0.0010575480593476,0.0010575450792269,-0.0010575429569964,0.0010575501990327,-0.00087324939651137,0.00087325694238484,-0.00087324962599487,0.00087325668407642,0.7138631946621,128566,2924,0.0036224106698987,0.0071655757741683,0.0036224106667966,20.805278193441,-7.3557774452474e-05,-7.3557774452474e-05,-7.3557774452474e-05,4282044.4911441,0.014516104003471
26019200,0.99288770181169,0.015118241185819,0.00415834546318,0.0068015502588897,0.0041583454637491,-0.00086992577608354,0.00086992468035496,-4.3853342977202e-10,-6.7674078961277e-10,5.4534930313052e-09,-6.7964241334962e-09,-0.0010575470450887,0.0010575501009538,-0.0010575471433527,0.0010575500396557,-0.0010575509925788,0.0010575460600141,-0.0010575510724716,0.0010575459818762,-0.0008731711156878,0.00087316615805328,-0.00087317132914461,0.0008731659037226,-3.5407577452225e-09,8.74502254327e-09,1.0357779672294e-08,-5.3664887768633e-09,-0.0017270144681375,0.0017270194510369,-0.0019119771637944,0.0019119832121243,-0.0019119822772381,0.0019119779622132,-0.0019119731921559,0.0019119872623494,-0.001911978304804,0.0019119820132819,-0.0015176512371181,0.0015176757398503,-0.0015176665112155,0.0015176601589925,-0.0015176693295228,0.0015176571754447,-0.001517657350226,0.0015176694540545,9.7618171355035e-10,1.2316335934635e-09,-0.00086992414212225,0.00086992631394302,-6.571660744187e-09,9.0924160673845e-09,-0.0010575501645246,0.0010575469627009,-0.0010575449874282,0.0010575521513708,-0.0010575500734309,0.0010575470409317,-0.001057544898872,0.0010575522324936,-0.00087316481640714,0.00087317245615685,-0.00087316504810047,0.00087317219439302,0.6868829202765,128566,2924,0.0036217247530603,0.0071662948277299,0.0036217247521674,20.675639371657,-7.4594885026742e-05,-7.4594885026742e-05,-7.4594885026742e-05,4270656.228736,0.014515444299827
26219200,0.99307981934195,0.015121239823718,0.0041591801114448,0.0068028796002632,0.0041591801120103,-0.00086978192056937,0.0008697808229024,-4.3824021981578e-10,-6.79015624141e-10,5.4639225129105e-09,-6.8097673196063e-09,-0.0010574753004501,0.0010574783632754,-0.0010574754003489,0.0010574783018928,-0.0010574792554905,0.0010574743142681,-0.001057479337172,0.001057474236346,-0.00087306792490723,0.0008730629614933,-0.0008730681480605,0.00087306271067655,-3.5540839252345e-09,8.7553700057504e-09,1.0449084657048e-08,-5.4592717214081e-09,-0.0017270934603876,0.0017270984430705,-0.0019120608244133,0.0019120669273227,-0.0019120659970204,0.0019120616146918,-0.0019120568453113,0.0019120709853417,-0.0019120620169486,0.0019120656738199,-0.00151770433387,0.0015177290259365,-0.0015177197697369,0.0015177132408736,-0.0015177225687136,0.0015177103274891,-0.0015177105664673,0.0015177226325047,9.8180111592374e-10,1.2397962977676e-09,-0.00086978027730323,0.00086978246529364,-6.6454281084094e-09,9.1932902734351e-09,-0.0010574784454241,0.0010574751986283,-0.0010574732105904,0.0010574804449874,-0.0010574783534494,0.0010574752775479,-0.0010574731208414,0.0010574805270044,-0.00087306158609514,0.00087306929543772,-0.00087306182188153,0.00087306903134353,0.72524661483191,128566,2924,0.0036211315184983,0.0071666162075185,0.0036211315165962,20.53755786054,-7.5699537115684e-05,-7.5699537115684e-05,-7.5699537115684e-05,4264710.39499,0.014514566952118
26419200,0.99326520063251,0.01512421970599,0.0041600128218439,0.0068041940617396,0.0041600128224065,-0.00086961786206488,0.00086961676271938,-4.3786598291574e-10,-6.810908057543e-10,5.4708739574953e-09,-6.819549173101e-09,-0.0010574669336138,0.00105747000147,-0.0010574670348884,0.0010574699399926,-0.0010574708941758,0.0010574659470978,-0.00105747097696,0.0010574658685549,-0.00087298500308343,0.00087298003532893,-0.0008729852299536,0.00087297978299663,-3.5627125048726e-09,8.7635643884176e-09,1.0519009802824e-08,-5.5293050538202e-09,-0.0017272403579757,0.0017272453407166,-0.0019121602694668,0.0019121664130178,-0.0019121654866924,0.0019121610530342,-0.0019121562850036,0.0019121704768529,-0.0019121615014261,0.0019121651178913,-0.0015178490158716,0.0015178738513518,-0.0015178645795887,0.0015178579184701,-0.0015178673519401,0.0015178550480598,-0.00151785533559,0.0015178673723043,9.8641738988871e-10,1.2469005805257e-09,-0.00086961621171118,0.00086961841223326,-6.7083859955891e-09,9.2742247816713e-09,-0.0010574700999641,0.001057466815407,-0.001057464817355,0.0010574721093633,-0.0010574700070258,0.0010574668951532,-0.0010574647267722,0.0010574721921396,-0.00087297863202271,0.00087298640227467,-0.00087297887025269,0.00087298613559349,0.74502755816573,128566,2924,0.0036204572355952,0.0071672147400633,0.0036204572337759,20.399178519092,-7.6806571847266e-05,-7.6806571847266e-05,-7.6806571847266e-05,4252793.1634493,0.014513808746575
26619200,0.99344819829409,0.01512713348658,0.00416082604858,0.0068054813888606,0.0041608260491398,-0.00087007082426779,0.00087006972410793,-4.372710280379e-10,-6.8299373941082e-10,5.4627817957586e-09,-6.8160181492066e-09,-0.0010581567426274,0.001058159807394,-0.0010581568457914,0.0010581597472071,-0.0010581606978013,0.0010581557567614,-0.0010581607840832,0.0010581556791922,-0.0008735697987036,0.00087356484097495,-0.00087357004045323,0.00087356459259062,-3.5639582575805e-09,8.7528175693138e-09,1.0486322096117e-08,-5.5045206365554e-09,-0.0017281591251787,0.0017281641034775,-0.0019130080480794,0.0019130141763786,-0.0019130132456225,0.0019130088330805,-0.0019130040666766,0.0019130182376685,-0.0019130092643324,0.0019130128947236,-0.0015187601432153,0.0015187849174509,-0.0015187755987771,0.0015187689772325,-0.0015187784465065,0.0015187661628366,-0.001518766447694,0.0015187784897565,9.8548768846141e-10,1.2488453169421e-09,-0.00087006917144803,0.00087007137669138,-6.6731381014469e-09,9.26961198e-09,-0.0010581599011615,0.0010581566259479,-0.0010581546313916,0.001058161906516,-0.0010581598064762,0.0010581567068732,-0.0010581545394695,0.0010581619898305,-0.00087356344215125,0.00087357119467751,-0.00087356368397951,0.00087357092487135,0.73848440373918,128566,2924,0.0036223485023205,0.0071710010916176,0.0036223485018441,20.630080804796,-7.4959353561635e-05,-7.4959353561635e-05,-7.4959353561635e-05,4245606.0392362,0.014521492063437
26819200,0.99363101840388,0.015129970180211,0.004161614863294,0.0068067404530644,0.0041616148638529,-0.00087087142576175,0.00087087032634124,-4.3575139393962e-10,-6.8400610734796e-10,5.4517238713702e-09,-6.805148099485e-09,-0.001059199345211,0.0010592024054605,-0.0010591994489033,0.0010592023434292,-0.0010592032927057,0.0010591983607876,-0.0010592033803388,0.0010591982836812,-0.00087450747092196,0.00087450252316973,-0.00087450771443872,0.00087450227175374,-3.5537945791327e-09,8.7396301612389e-09,1.0414571737806e-08,-5.4353146831027e-09,-0.0017294695152947,0.0017294744917659,-0.0019142625461706,0.0019142686350872,-0.0019142676973732,0.0019142633373768,-0.001914258572746,0.0019142726879937,-0.0019142637234246,0.0019142673917496,-0.0015200456987032,0.0015200703249753,-0.0015200610093645,0.0015200545167275,-0.0015200638930242,0.001520051676533,-0.0015200519190276,0.0015200639836966,9.7897883386127e-10,1.2446700656522e-09,-0.00087086977887126,0.00087087197352385,-6.6037630346017e-09,9.1915867639753e-09,-0.001059202482646,0.0010591992433018,-0.0010591972617089,0.0010592044750661,-0.0010592023874574,0.0010591993245187,-0.0010591971682059,0.001059204559257,-0.00087450114995283,0.00087450884643019,-0.00087450139437872,0.00087450857330026,0.72121905509973,128566,2924,0.0036256837970196,0.0071764064268041,0.0036256837976505,21.064970801236,-7.1480233590108e-05,-7.1480233590108e-05,-7.1480233590108e-05,4244275.9864612,0.014533747752678
27019200,0.9938135576559,0.015132720728217,0.0041623763719848,0.0068079679836907,0.0041623763725416,-0.00087168730563017,0.0008716862101251,-4.3231587328212e-10,-6.8288181346077e-10,5.44516551724e-09,-6.7909799955168e-09,-0.0010602124681081,0.001060215524796,-0.0010602125718009,0.001060215461108,-0.001060216410265,0.0010602114880951,-0.0010602164961554,0.0010602114077308,-0.00087543493539556,0.00087542999780033,-0.00087543517317295,0.0008754297405548,-3.5388536533324e-09,8.7332775758942e-09,1.0349014112134e-08,-5.3643344784404e-09,-0.0017307462476724,0.0017307512264744,-0.0019155123415518,0.0019155183903758,-0.0019155174498212,0.001915513140535,-0.0019155083746741,0.0019155224362242,-0.0019155134824327,0.0019155171875423,-0.0015212831896477,0.0015213076751989,-0.0015212984117527,0.0015212920552427,-0.001521301274513,0.0015212891298675,-0.0015212893148263,0.0015213014048859,9.6909338309398e-10,1.2369301831448e-09,-0.0008716856703496,0.00087168784462588,-6.5543058694253e-09,9.0981813202526e-09,-0.0010602155886084,0.0010602123829148,-0.0010602104154129,0.0010602175673298,-0.0010602154930593,0.0010602124651232,-0.0010602103221557,0.0010602176524877,-0.00087542864556651,0.00087543628436447,-0.00087542889140515,0.00087543601030954,0.70228506095484,128566,2924,0.0036290808910201,0.0071816746383189,0.0036290808893519,21.504575121119,-6.7963399031044e-05,-6.7963399031044e-05,-6.7963399031044e-05,4246418.9629329,0.014545988565516
27219200,0.99399565774903,0.015135376640456,0.0041631079849046,0.0068091606700924,0.0041631079854589,-0.00087251684384684,0.00087251575024419,-4.3019803184285e-10,-6.8314017924951e-10,5.4377058083496e-09,-6.7806103817425e-09,-0.0010611862722078,0.0010611893254097,-0.0010611863761629,0.0010611892602208,-0.0010611902085272,0.001061185294507,-0.0010611902948492,0.0010611852130059,-0.0008763466964814,0.00087634176822848,-0.00087634693355617,0.00087634150627063,-3.5296289543759e-09,8.7244623258411e-09,1.0287006470543e-08,-5.302435762286e-09,-0.0017319733182761,0.0017319782965984,-0.0019167436058889,0.0019167496190028,-0.0019167486748302,0.0019167444114769,-0.0019167396447387,0.0019167536587211,-0.0019167447130406,0.0019167484523269,-0.0015224564389246,0.0015224807958331,-0.0015224715496913,0.0015224653093909,-0.0015224744306614,0.0015224623445715,-0.0015224624867669,0.0015224745993946,9.6253866986722e-10,1.2327464671838e-09,-0.00087251521564772,0.00087251737793034,-6.5002822087523e-09,9.0262574019707e-09,-0.0010611893757187,0.0010611862008203,-0.0010611842443159,0.0010611913435812,-0.0010611892795022,0.0010611862838541,-0.0010611841503365,0.0010611914295641,-0.0008763404358338,0.00087634802623355,-0.00087634068357376,0.00087634774974619,0.68191772876914,128566,2924,0.0036325326530358,0.007186740098236,0.0036325326519091,21.944346067739,-6.4445231458088e-05,-6.4445231458088e-05,-6.4445231458088e-05,4252035.454664,0.014558133430299
27419200,0.99417572740891,0.015138089205929,0.0041638589097585,0.0068103713858599,0.0041638589103105,-0.00087314258844547,0.00087314149668767,-4.280377218223e-10,-6.8333692820154e-10,5.436928781442e-09,-6.7764087569228e-09,-0.0010618844028073,0.0010618874567469,-0.0010618845062821,0.0010618873890777,-0.0010618883372813,0.0010618834266067,-0.0010618884241346,0.0010618833444069,-0.00087701557204479,0.00087701064934772,-0.0008770158091684,0.00087701038260591,-3.5255010925381e-09,8.7236715298229e-09,1.0265485972627e-08,-5.2790055121817e-09,-0.0017328888692702,0.0017328938484024,-0.0019176951252197,0.0019177011241486,-0.0019177001795512,0.0019176959330815,-0.0019176911655284,0.0019177051615576,-0.0019176962187704,0.0019176999721838,-0.0015233093802791,0.0015233336922234,-0.0015233244682095,0.0015233182742687,-0.0015233273368315,0.0015233152728631,-0.0015233153942685,0.0015233275175525,9.5772614230943e-10,1.2302193380665e-09,-0.00087314096536025,0.00087314311904686,-6.4913294789285e-09,8.9981114057628e-09,-0.0010618875040324,0.0010618843348997,-0.0010618823845599,0.0010618894660286,-0.0010618874073818,0.0010618844185335,-0.0010618822896394,0.0010618895526434,-0.00087700932154767,0.00087701689618572,-0.00087700957071729,0.00087701661917405,0.70214878675425,128566,2924,0.0036351354143461,0.0071905208946263,0.003635135412746,22.252489368977,-6.1980085048181e-05,-6.1980085048181e-05,-6.1980085048181e-05,4258521.9354131,0.014567250661974
27619200,0.99435323948502,0.015140806029892,0.0041646125476169,0.0068115809341088,0.0041646125481661,-0.00087368762096854,0.00087368652950192,-4.2664735678229e-10,-6.8439841884247e-10,5.437772513696e-09,-6.7770294900775e-09,-0.0010625452869837,0.0010625483421216,-0.0010625453921412,0.0010625482748923,-0.0010625492224605,0.0010625443124928,-0.0010625493098487,0.0010625442288558,-0.00087762312286658,0.00087761820221591,-0.0008776233630415,0.00087761793435913,-3.5267064810672e-09,8.724025003554e-09,1.0266608602566e-08,-5.2805487686834e-09,-0.0017337611425622,0.0017337661213796,-0.0019185749764619,0.0019185809760395,-0.0019185800324748,0.0019185757839268,-0.0019185710161708,0.0019185850145058,-0.0019185760714585,0.0019185798234224,-0.0015241322489981,0.0015241565637076,-0.0015241473347976,0.0015241411373026,-0.0015241502106187,0.0015241381434549,-0.0015241382668509,0.0015241503903128,9.5629947774231e-10,1.2312971458677e-09,-0.00087368599791052,0.00087368815166283,-6.4886561691257e-09,8.99783627687e-09,-0.0010625483891383,0.0010625452201183,-0.0010625432709228,0.001062550349798,-0.001062548291424,0.0010625453047728,-0.0010625431755465,0.0010625504373548,-0.00087761687211727,0.00087762444755892,-0.00087761712414047,0.00087762416730738,0.71252807395186,128566,2924,0.0036374044147799,0.0071941209690963,0.0036374044128309,22.51944530005,-5.9844437599598e-05,-5.9844437599598e-05,-5.9844437599598e-05,4260518.8767145,0.014575508770572
27819200,0.99452812513109,0.015143529113033,0.0041653696667506,0.0068127897789854,0.0041653696672972,-0.00087422203410892,0.00087422094238424,-4.2552355201449e-10,-6.8576029589861e-10,5.4391728591314e-09,-6.7793313147583e-09,-0.001063221981679,0.0010632250386912,-0.0010632220879101,0.0010632249709257,-0.0010632259180946,0.001063221007702,-0.0010632260067838,0.0010632209236767,-0.00087823425810739,0.00087822933894487,-0.00087823450332844,0.00087822907083441,-3.5296811009005e-09,8.7246746373552e-09,1.0272865908763e-08,-5.2883648676128e-09,-0.0017346505416541,0.001734655519655,-0.0019194573073972,0.0019194633105736,-0.0019194623678701,0.0019194581132968,-0.0019194533459323,0.0019194673502538,-0.0019194584057029,0.0019194621539914,-0.0015249780528179,0.0015250023819117,-0.0015249931422428,0.0015249869299018,-0.0015249960285083,0.0015249839513511,-0.0015249840821782,0.0015249962040182,9.5579065514127e-10,1.2332943016455e-09,-0.00087422040978442,0.00087422256583453,-6.4913093075447e-09,9.007912307238e-09,-0.0010632250864607,0.0010632219134624,-0.0010632199640436,0.0010632270472306,-0.0010632249877733,0.001063221998901,-0.0010632198676324,0.001063227135567,-0.00087822800494018,0.00087823558697961,-0.00087822826015752,0.000878235304165,0.7238335669958,128566,2924,0.0036396303443765,0.0071977905503937,0.0036396303424907,22.785431661689,-5.7716546706485e-05,-5.7716546706485e-05,-5.7716546706485e-05,4260617.741809,0.014583750790982
28019200,0.99470032843709,0.015146260274513,0.0041661308618679,0.0068139985502326,0.0041661308624121,-0.00087474584148159,0.00087474474885396,-4.2481256052156e-10,-6.8750128012083e-10,5.4411174332646e-09,-6.7827899579521e-09,-0.001063915378123,0.0010639184371665,-0.0010639154853812,0.001063918368818,-0.0010639193162839,0.0010639144043826,-0.0010639194060295,0.0010639143197815,-0.0008788500117104,0.00087884509224506,-0.00087885025887198,0.00087884482110803,-3.5324855090513e-09,8.7272387923161e-09,1.0286241562499e-08,-5.3018395529704e-09,-0.0017355605287512,0.0017355655067406,-0.0019203446488366,0.0019203506592027,-0.0019203497177433,0.0019203454526523,-0.0019203406857133,0.0019203547007889,-0.0019203457539713,0.0019203494952853,-0.0015258507780034,0.0015258751353668,-0.0015258658900518,0.0015258596527228,-0.0015258687738321,0.0015258566822985,-0.0015258568234891,0.0015258689417096,9.5612259452281e-10,1.2360837523662e-09,-0.00087474421518652,0.00087474637443675,-6.5018646632035e-09,9.0236576629323e-09,-0.0010639184873872,0.0010639153072299,-0.0010639133562557,0.0010639204497176,-0.0010639183878557,0.0010639153934668,-0.0010639132589927,0.0010639205388464,-0.00087884375174297,0.0008788513481773,-0.00087884400906907,0.00087885106252588,0.73612509997545,128566,2924,0.0036418133113297,0.0072015438563684,0.0036418133097842,23.051383600548,-5.5588931195617e-05,-5.5588931195617e-05,-5.5588931195617e-05,4258867.2616011,0.014591991329412
28219200,0.99486912989098,0.015148990645161,0.0041668937323981,0.0068152031798227,0.0041668937329399,-0.00087514214508098,0.00087514105223455,-4.2365589782004e-10,-6.8877786916775e-10,5.4458527138771e-09,-6.7872990183799e-09,-0.0010645014027536,0.0010645044658308,-0.0010645015107318,0.0010645043957559,-0.0010645053442868,0.0010645004293515,-0.001064505434546,0.001064500344479,-0.00087934890402174,0.00087934398257356,-0.00087934915131809,0.00087934370835396,-3.5354643759313e-09,8.7320143440145e-09,1.0318112449806e-08,-5.3326653571456e-09,-0.0017363574309286,0.0017363624097208,-0.0019211028934207,0.0019211089222706,-0.0019211079826128,0.0019211036950641,-0.0019210989280932,0.0019211129658638,-0.0019211040158412,0.001921107740712,-0.0015266204491817,0.0015266448710885,-0.0015266356317163,0.0015266293365863,-0.0015266384892348,0.0015266263691223,-0.0015266265289951,0.001526638634136,9.5622590759277e-10,1.238544159003e-09,-0.00087514051755244,0.00087514267895813,-6.5292244664979e-09,9.0491111882637e-09,-0.0010645045215992,0.0010645013266321,-0.0010644993731292,0.001064506486821,-0.0010645044218053,0.0010645014132862,-0.0010644992746789,0.001064506577006,-0.00087934263120063,0.00087935025082932,-0.00087934289151572,0.00087934996320017,0.74948917476477,128566,2924,0.0036434676508641,0.0072048283433523,0.003643467649112,23.25114246418,-5.3990860286559e-05,-5.3990860286559e-05,-5.3990860286559e-05,4253955.5026124,0.014598684059456
28419200,0.9950344377264,0.015151721294807,0.0041676586982723,0.0068164038977236,0.0041676586988112,-0.00087551010911696,0.00087550901579115,-4.2266603719012e-10,-6.9023976039452e-10,5.4489589199258e-09,-6.7912176109049e-09,-0.0010650832253621,0.0010650862907671,-0.0010650833346327,0.0010650862209421,-0.0010650871692518,0.0010650822527241,-0.0010650872603877,0.0010650821664658,-0.00087983432239706,0.00087982940131109,-0.00087983457315958,0.00087982912488683,-3.5398212155388e-09,8.7356473383232e-09,1.0345152757861e-08,-5.360064233717e-09,-0.0017371546793366,0.0017371596577932,-0.0019218443131263,0.0019218503568811,-0.0019218494197959,0.0019218451114711,-0.0019218403449868,0.0019218544036777,-0.0019218454508217,0.0019218491595171,-0.0015273991718018,0.0015274236494093,-0.0015274144014617,0.001527408055124,-0.0015274172529793,0.0015274051074086,-0.0015274052863778,0.0015274173816956,9.5754880835369e-10,1.2423492268909e-09,-0.00087550847863896,0.00087551064553638,-6.5543719011434e-09,9.0830763416754e-09,-0.0010650863535989,0.0010650831426412,-0.0010650811854342,0.0010650883221873,-0.001065086252545,0.0010650832303493,-0.0010650810864942,0.001065088413025,-0.00087982803650363,0.00087983568307697,-0.00087982829867068,0.00087983539261205,0.76402417035815,128566,2924,0.0036450053074946,0.0072081128875163,0.0036450053059005,23.441750350237,-5.24659971981e-05,-5.24659971981e-05,-5.24659971981e-05,4247170.9107573,0.014605140664322
28619200,0.9951962571643,0.015154413214551,0.0041684133643586,0.0068175864852974,0.004168413364895,-0.00087586104871055,0.00087585995497312,-4.216243712237e-10,-6.9164531440676e-10,5.4515913870609e-09,-6.7944588933565e-09,-0.0010656745389404,0.0010656776066681,-0.0010656746490549,0.0010656775361866,-0.001065678484594,0.00106567356665,-0.0010656785767849,0.0010656734797084,-0.00088031813360072,0.00088031321285802,-0.00088031838815201,0.00088031293510752,-3.5431616862544e-09,8.7384248955883e-09,1.0369500195887e-08,-5.3847829490478e-09,-0.0017379698484897,0.0017379748267573,-0.0019225862262959,0.0019225922840873,-0.0019225913486117,0.0019225870220885,-0.001922582256146,0.0019225963329723,-0.0019225873777127,0.0019225910721004,-0.0015282041716501,0.0015282286995902,-0.0015282194463021,0.0015282130534229,-0.0015282222893432,0.0015282101214464,-0.0015282103170512,0.0015282224022571,9.580927397241e-10,1.2453754755872e-09,-0.00087585941598839,0.00087586158688663,-6.5765827977334e-09,9.1112608868169e-09,-0.001065677675337,0.0010656744502613,-0.0010656724904117,0.00106567964653,-0.0010656775733525,0.0010656745388226,-0.0010656723906182,0.0010656797380922,-0.00088031183684571,0.00088031950534198,-0.0008803121016934,0.00088031921273921,0.76896079919968,128566,2924,0.0036464733631628,0.0072114699880713,0.0036464733614145,23.632132066728,-5.0942943466178e-05,-5.0942943466178e-05,-5.0942943466178e-05,4238700.3669289,0.014611530254296
28819200,0.99535461859043,0.01515697595134,0.0041691290746076,0.006818717801591,0.0041691290751417,-0.00087620235229116,0.00087620125827972,-4.2054943000727e-10,-6.9302014424339e-10,5.452783859106e-09,-6.7961255472649e-09,-0.0010662590380465,0.0010662621073393,-0.0010662591490834,0.0010662620361982,-0.0010662629846298,0.0010662580664165,-0.0010662630777729,0.0010662579787481,-0.00088079339180646,0.00088078847233239,-0.00088079364873647,0.00088078819199008,-3.544777144962e-09,8.7398139116843e-09,1.0385679378153e-08,-5.401141557127e-09,-0.0017387823633411,0.0017387873414808,-0.0019233224642702,0.0019233285316917,-0.0019233275969604,0.0019233232586974,-0.0019233184931531,0.0019233325816253,-0.0019233236251549,0.0019233273097253,-0.0015290087959154,0.0015290333568067,-0.0015290241010781,0.0015290176768409,-0.0015290269363842,0.0015290147546817,-0.0015290149616185,0.0015290270388426,9.5809982307388e-10,1.2478314605103e-09,-0.00087620071819425,0.00087620289165041,-6.5912989321656e-09,9.129514768245e-09,-0.0010662621800233,0.0010662589453579,-0.0010662569841602,0.0010662641525942,-0.0010662620771853,0.0010662590347425,-0.0010662568835536,0.0010662642449325,-0.00088078708811034,0.00088079477225481,-0.0008807873552208,0.00088079447719718,0.74978435318736,128566,2924,0.0036479015729036,0.0072148157249931,0.0036479015713284,23.824730375149,-4.9402156998806e-05,-4.9402156998806e-05,-4.9402156998806e-05,4230321.6031977,0.014617827397702
29019200,0.99551066571792,0.015159359454421,0.0041697893247487,0.006819780804392,0.0041697893252806,-0.00087676443347307,0.00087676333975088,-4.1919350193362e-10,-6.9415329917977e-10,5.4499526436969e-09,-6.7936503960261e-09,-0.0010670205694975,0.0010670236382669,-0.001067020681561,0.0010670235666516,-0.0010670245140763,0.0010670195990508,-0.0010670246085133,0.0010670195109148,-0.00088146718041095,0.00088146226627464,-0.00088146744268799,0.00088146198545864,-3.543478426637e-09,8.7359882516732e-09,1.0370653190017e-08,-5.3877917304257e-09,-0.0017397830363555,0.0017397880134391,-0.0019242804261509,0.0019242864857951,-0.001924285549513,0.001924281221797,-0.0019242764567197,0.0019242905340904,-0.0019242815794909,0.0019242852711195,-0.0015299806055181,0.0015300051364107,-0.0015299958731764,0.0015299894724636,-0.0015299987269526,0.0015299865577637,-0.0015299867584425,0.0015299988390133,9.5580572024538e-10,1.248063549825e-09,-0.00087676280011539,0.00087676497234556,-6.5759313789279e-09,9.1176741610235e-09,-0.0010670237080478,0.001067020479125,-0.001067018521178,0.0010670256772795,-0.0010670236042592,0.0010670205693658,-0.0010670184196417,0.001067025770408,-0.00088146088418848,0.00088146855780903,-0.00088146115421744,0.00088146826030044,0.71130254164532,128566,2924,0.0036502449993229,0.0072189415573321,0.0036502449976891,24.140686372023,-4.6874509023817e-05,-4.6874509023817e-05,-4.6874509023817e-05,4228354.8123788,0.014626772001337
29219200,0.99566434991483,0.015161648514595,0.0041704211664993,0.0068208061810667,0.0041704211670292,-0.00087736347431975,0.00087736238151077,-4.1748265815092e-10,-6.9487047927764e-10,5.4478790931675e-09,-6.7900361033814e-09,-0.0010677152672634,0.0010677183357792,-0.0010677153799295,0.0010677182630139,-0.0010677192101814,0.0010677142984445,-0.0010677193050662,0.0010677142092479,-0.00088212265977533,0.00088211775009028,-0.00088212292221727,0.00088211746556796,-3.5397034175492e-09,8.7337930150303e-09,1.0354447937958e-08,-5.3706938639302e-09,-0.0017406962750185,0.0017407012524529,-0.0019252114963942,0.0019252175465751,-0.001925216609097,0.0019252122940101,-0.0019252075288663,0.0019252215927967,-0.0019252126409007,0.0019252163413529,-0.0015308380944818,0.0015308625905461,-0.0015308533383097,0.0015308469700904,-0.0015308561881481,0.0015308440369261,-0.0015308442244782,0.0015308563104268,9.5263158595565e-10,1.2472781589841e-09,-0.00087736184369886,0.00087736401130194,-6.56368391955e-09,9.0961065865718e-09,-0.0010677184023969,0.001067715180446,-0.0010677132267772,0.0010677203674522,-0.001067718297907,0.0010677152714621,-0.0010677131245064,0.0010677204614141,-0.00088211637166662,0.00088212403399597,-0.00088211664374115,0.00088212373418473,0.6951696788496,128566,2924,0.0036527379232465,0.0072227110077652,0.0036527379214581,24.459438386191,-4.4324492910472e-05,-4.4324492910472e-05,-4.4324492910472e-05,4233321.9981842,0.014635655776792
29419200,0.99581559900698,0.015163742166644,0.004170992301491,0.0068217575631344,0.0041709923020188,-0.00087797578243853,0.0008779746903365,-4.1592302749878e-10,-6.9575002754333e-10,5.4456195851535e-09,-6.7868999132193e-09,-0.001068378082147,0.0010683811503543,-0.0010683781955635,0.0010683810767232,-0.0010683820233045,0.0010683771148192,-0.0010683821189566,0.0010683770247377,-0.00088276093127858,0.00088275602632544,-0.00088276119545954,0.00088275573880645,-3.5370870719473e-09,8.731043109038e-09,1.0338108989455e-08,-5.3545717876251e-09,-0.0017415607779853,0.0017415657551743,-0.0019261205785971,0.0019261266195866,-0.0019261256809445,0.0019261213779943,-0.0019261166127593,0.0019261306640302,-0.0019261217144576,0.0019261254235184,-0.0015316346604301,0.0015316591225498,-0.0015316498740385,0.0015316435357471,-0.0015316527293648,0.0015316405940052,-0.0015316407707393,0.0015316528618475,9.498848634893e-10,1.246976847006e-09,-0.00087797415386363,0.00087797631814567,-6.5494496903077e-09,9.077566770899e-09,-0.0010683812136532,0.0010683779986853,-0.0010683760488874,0.001068383174837,-0.0010683811083405,0.0010683780905391,-0.0010683759458252,0.0010683832696119,-0.00088275465119967,0.0008827623023895,-0.00088275492552605,0.0008827620001138,0.65089858461404,128566,2924,0.0036552838828971,0.0072262816557324,0.0036552838812402,24.778289070733,-4.1773687434139e-05,-4.1773687434139e-05,-4.1773687434139e-05,4241075.9501637,0.014644444613808
29619200,0.9959642623801,0.01516576848144,0.0041715438210024,0.0068226808389094,0.0041715438215283,-0.00087861080418163,0.00087860971289672,-4.1428335730097e-10,-6.9654136824861e-10,5.4443025656743e-09,-6.7843724540785e-09,-0.0010689469865115,0.00106895005493,-0.0010689471005945,0.0010689499803455,-0.0010689509264791,0.0010689460206886,-0.0010689510227963,0.0010689459296376,-0.00088335920183132,0.00088335430114691,-0.00088335946797597,0.00088335401110151,-3.5348065064406e-09,8.7294611361897e-09,1.0326280329048e-08,-5.3422899852375e-09,-0.001742303972795,0.0017423089501744,-0.0019269755436138,0.0019269815777464,-0.0019269806383253,0.0019269763444931,-0.0019269715789497,0.0019269856208839,-0.0019269766730093,0.00192698038868,-0.0015322811053268,0.001532305542572,-0.0015322962991565,0.001532289984178,-0.0015322991560185,0.0015322870330022,-0.0015322872004586,0.0015322992959714,9.4710727160753e-10,1.2466425631414e-09,-0.00087860917763461,0.00087861133855787,-6.5397135335641e-09,9.0623747296929e-09,-0.0010689501158217,0.0010689469056407,-0.0010689449593066,0.0010689520735669,-0.001068950009718,0.0010689469983354,-0.0010689448555006,0.0010689521691558,-0.00088335292777884,0.00088336057034071,-0.00088335320450604,0.00088336026586554,0.64191387120434,128566,2924,0.0036579196061555,0.007229356759237,0.0036579196042435,25.087901454359,-3.9296788365124e-05,-3.9296788365124e-05,-3.9296788365124e-05,4256077.307374,0.014652910033218
29819200,0.99610979002398,0.015167877186008,0.0041721235122284,0.0068236301610271,0.0041721235127525,-0.00087916432514772,0.00087916323426436,-4.1293139037837e-10,-6.9753997897086e-10,5.4445851948949e-09,-6.7840490553405e-09,-0.0010694092354873,0.001069412305349,-0.0010694093502769,0.0010694122295594,-0.0010694131756105,0.0010694082708253,-0.0010694132726984,0.0010694081793938,-0.00088386282657746,0.00088385792812519,-0.00088386309323411,0.00088385763406927,-3.5345581429103e-09,8.7298098433605e-09,1.0328829059598e-08,-5.3446341732712e-09,-0.0017429167634055,0.001742921741117,-0.0019277147660665,0.0019277208022282,-0.0019277198624267,0.0019277155676891,-0.0019277108014688,0.0019277248451247,-0.0019277158968572,0.0019277196122279,-0.0015327956561708,0.0015328200997215,-0.0015328108618822,0.001532804539959,-0.0015328137104514,0.0015328015846197,-0.0015328017535268,0.0015328138459279,9.4557957726652e-10,1.2476359029532e-09,-0.00087916269930704,0.00087916485927577,-6.5417274445405e-09,9.0610419454499e-09,-0.001069412366199,0.0010694091546739,-0.0010694072094615,0.0010694143231477,-0.0010694122595659,0.0010694092480988,-0.001069407104653,0.0010694144197312,-0.00088385655244567,0.00088386419717905,-0.00088385683160664,0.00088386389062957,0.67837704570443,128566,2924,0.0036602157775406,0.0072318943497431,0.0036602157757398,25.340089942478,-3.7279280460179e-05,-3.7279280460179e-05,-3.7279280460179e-05,4270628.1351351,0.014660140790362
30019200,0.99625215355117,0.015169973700621,0.0041727010070451,0.0068245716860085,0.0041727010075672,-0.00087968600206341,0.00087968491116002,-4.1167719635674e-10,-6.9883288869828e-10,5.4448404304212e-09,-6.7845548127723e-09,-0.0010699519721547,0.0010699550428985,-0.0010699520879905,0.0010699549667714,-0.0010699559124041,0.0010699510083989,-0.001069956010443,0.0010699509158377,-0.00088439023733078,0.00088438534157695,-0.00088439050794035,0.00088438504626804,-3.5353122908715e-09,8.7296402980106e-09,1.033029748515e-08,-5.3466294042006e-09,-0.0017436157173398,0.0017436206945949,-0.0019284809803417,0.0019284870171342,-0.0019284860778314,0.0019284817811391,-0.00192847701544,0.0019284910605225,-0.0019284821122564,0.0019284858256109,-0.0015334204752805,0.0015334449209184,-0.0015334356768906,0.0015334293531437,-0.001533438532299,0.0015334264053384,-0.0015334265759355,0.0015334386689989,9.4475035809859e-10,1.2491956427192e-09,-0.00087968437567956,0.00087968653673783,-6.5434797090395e-09,9.0666773977448e-09,-0.0010699551047925,0.0010699518902217,-0.0010699499455741,0.0010699570608404,-0.0010699549970572,0.0010699519845362,-0.0010699498400888,0.0010699571580902,-0.00088438396202944,0.00088439161235747,-0.00088438424344748,0.00088439130289549,0.6887309118799,128566,2924,0.0036623837454342,0.0072347831927998,0.0036623837436896,25.590973032244,-3.5272215742045e-05,-3.5272215742045e-05,-3.5272215742045e-05,4277251.9493135,0.014667471052534
30219200,0.99639133906984,0.015171928649767,0.0041732353634217,0.0068254579224029,0.0041732353639421,-0.00088019090059396,0.00088018980961902,-4.1048035594329e-10,-7.0010340712034e-10,5.4451734678261e-09,-6.78520708164e-09,-0.0010705147454714,0.0010705178173889,-0.0010705148621955,0.0010705177405301,-0.0010705186860254,0.0010705137825572,-0.0010705187849904,0.0010705136892763,-0.00088491594631736,0.00088491105265188,-0.00088491621963465,0.00088491075514926,-3.5359046362464e-09,8.7300239361142e-09,1.0333478399799e-08,-5.3499214265139e-09,-0.0017443353823112,0.0017443403594953,-0.0019292470962079,0.0019292531348091,-0.0019292521957436,0.0019292478964965,-0.0019292431309948,0.0019292571785475,-0.0019292482298752,0.0019292519413142,-0.0015340718381251,0.0015340962904632,-0.001534087044018,0.0015340807140993,-0.0015340898999987,0.0015340777698552,-0.0015340779432276,0.0015340900351534,9.4374918075005e-10,1.250653587526e-09,-0.00088018927389231,0.00088019143554744,-6.5458977736987e-09,9.0707107140196e-09,-0.0010705178799991,0.0010705146627412,-0.0010705127186527,0.0010705198354942,-0.0010705177714093,0.0010705147578569,-0.0010705126123131,0.0010705199335342,-0.00088490966975065,0.00088491732485407,-0.00088490995360187,0.00088491701291894,0.66008313767217,128566,2924,0.003664483276551,0.0072377560744851,0.0036644832748772,25.841809993806,-3.3265520049551e-05,-3.3265520049551e-05,-3.3265520049551e-05,4281489.3601871,0.014674748796868
30419200,0.99652762973421,0.015173730939322,0.0041737231280189,0.0068262846827651,0.0041737231285376,-0.0008807760315879,0.00088077494074719,-4.09192484331e-10,-7.0128088592525e-10,5.4448744746422e-09,-6.7850581948061e-09,-0.0010710880278011,0.001071091100606,-0.0010710881454475,0.0010710910230599,-0.0010710919681395,0.0010710870658855,-0.0010710920681028,0.0010710869719533,-0.00088548436744956,0.00088547947674338,-0.00088548464416996,0.00088547917755573,-3.536072215774e-09,8.7293953413762e-09,1.0330259151909e-08,-5.3472117272934e-09,-0.0017450573713307,0.0017450623482616,-0.0019300574826161,0.0019300635194932,-0.0019300625801861,0.0019300582829866,-0.0019300535175638,0.0019300675630892,-0.0019300586144971,0.0019300623276671,-0.0015347036794995,0.0015347281257792,-0.0015347188758707,0.0015347125507346,-0.0015347217381924,0.0015347096097956,-0.0015347097823551,0.0015347218755133,9.4220540191695e-10,1.2515863248399e-09,-0.00088077440510826,0.00088077656643731,-6.5420429160501e-09,9.0683839379153e-09,-0.0010710911624386,0.0010710879456252,-0.0010710860031301,0.0010710931163027,-0.0010710910529901,0.0010710880415531,-0.0010710858959148,0.0010710932151602,-0.00088547809267264,0.00088548574685534,-0.00088547837915881,0.00088548543247548,0.62526528536153,128566,2924,0.00366691329075,0.0072407420860083,0.0036669132890487,26.129799830664,-3.0961601354685e-05,-3.0961601354685e-05,-3.0961601354685e-05,4291559.6696589,0.014682708778648
30619200,0.99666181555649,0.015175625856353,0.0041742417690523,0.0068271423177317,0.0041742417695691,-0.00088158189122747,0.00088158080063611,-4.0789326058206e-10,-7.0244469368965e-10,5.4422524533332e-09,-6.7829735105506e-09,-0.0010717997247252,0.0010718027973191,-0.0010717998434133,0.0010718027192525,-0.0010718036633023,0.0010717987640323,-0.0010718037645429,0.0010717986697348,-0.0008862367733367,0.0008862318874273,-0.00088623705451385,0.00088623158714719,-3.5348801463674e-09,8.7259467878448e-09,1.0309942647329e-08,-5.3283878095864e-09,-0.0017459194318344,0.0017459244079727,-0.0019310610042308,0.0019310670299512,-0.0019310660890112,0.0019310618060274,-0.0019310570407306,0.0019310710720587,-0.0019310621249173,0.0019310658492571,-0.0015354491590768,0.0015354735651469,-0.0015354643076893,0.0015354580168042,-0.0015354671914347,0.0015354550786515,-0.001535455241592,0.001535467342169,9.3957030102593e-10,1.2514925157613e-09,-0.00088158026595231,0.00088158242517456,-6.520885237785e-09,9.0496937298479e-09,-0.0010718028543967,0.0010717996465881,-0.0010717977082621,0.0010718048040047,-0.0010718027440393,0.001071799743331,-0.0010717976000608,0.0010718049036977,-0.00088623050839,0.00088623814766911,-0.00088623079774254,0.00088623783057872,0.66318231366866,128566,2924,0.0036702568622739,0.0072443114710745,0.0036702568606983,26.524152474589,-2.7806780203289e-05,-2.7806780203289e-05,-2.7806780203289e-05,4309758.5345418,0.014693112717379
30819200,0.99679381624088,0.015177579689985,0.0041747800950801,0.0068280194993095,0.0041747800955952,-0.00088236105779375,0.00088235996806329,-4.0618879672579e-10,-7.0317551979204e-10,5.4419260172082e-09,-6.7807373832157e-09,-0.0010726098081997,0.0010726128812965,-0.0010726099273268,0.00107261280197,-0.0010726137461809,0.0010726088489572,-0.0010726138476734,0.0010726087532937,-0.00088702537115458,0.0008870204885613,-0.00088702565197486,0.00088702018407989,-3.5322655388301e-09,8.7258554719874e-09,1.0297730157001e-08,-5.314602566422e-09,-0.00174689154021,0.00174689651708,-0.0019321092007769,0.0019321152182767,-0.0019321142773947,0.0019321100036922,-0.0019321052380434,0.0019321192594138,-0.0019321103140449,0.0019321140459064,-0.0015363330980659,0.0015363574776944,-0.0015363482337448,0.0015363419705194,-0.0015363511093853,0.0015363390099189,-0.0015363391604215,0.0015363512677615,9.3664791556934e-10,1.2509089872215e-09,-0.00088235943512657,0.00088236158990159,-6.5141985829989e-09,9.0319640581197e-09,-0.0010726129361435,0.0010726097330105,-0.0010726077981153,0.0010726148824029,-0.0010726128250779,0.0010726098305736,-0.0010726076893119,0.0010726149828847,-0.00088701911151391,0.00088702674345387,-0.00088701940264685,0.00088702642428392,0.69236329293291,128566,2924,0.0036734941190364,0.0072483301722628,0.0036734941172477,26.920931023248,-2.4632551814017e-05,-2.4632551814017e-05,-2.4632551814017e-05,4319321.0725413,0.014703760380103
31019200,0.99692353566312,0.015179559667062,0.0041753278123513,0.0068289040418458,0.0041753278128645,-0.0008831129802288,0.00088311189067947,-4.0488339085504e-10,-7.0430936111453e-10,5.4414329063827e-09,-6.7800284421969e-09,-0.0010734815239574,0.0010734845976393,-0.0010734816438556,0.0010734845174611,-0.0010734854615336,0.0010734805657011,-0.0010734855638332,0.0010734804691999,-0.00088783294344897,0.00088782806378385,-0.000887833226365,0.00088782775661414,-3.5317756616778e-09,8.7251715152347e-09,1.0290701268611e-08,-5.3078078258202e-09,-0.0017479395379546,0.0017479445145819,-0.0019331816561939,0.0019331876693107,-0.0019331867284154,0.0019331824593852,-0.0019331776938206,0.0019331917100629,-0.0019331827654413,0.001933186501187,-0.0015373120353186,0.001537336400752,-0.0015373271580706,0.0015373209078152,-0.0015373300366583,0.0015373179427647,-0.0015373180888359,0.0015373301993567,9.3485399394043e-10,1.2515609158211e-09,-0.00088311135831177,0.00088311351180948,-6.5079476680189e-09,9.0240458969865e-09,-0.0010734846508703,0.0010734814504025,-0.0010734795175427,0.0010734865951055,-0.0010734845389781,0.0010734815487887,-0.0010734794079288,0.0010734866963958,-0.00088782668702453,0.00088783431567626,-0.00088782698048767,0.00088783399409303,0.71215833239536,128566,2924,0.0036766215772743,0.0072526583331825,0.0036766215755719,27.317795428591,-2.1457636571272e-05,-2.1457636571272e-05,-2.1457636571272e-05,4322792.3988143,0.014714501701641
31219200,0.99705199806178,0.015181621069121,0.004175901840542,0.0068298173875251,0.0041759018410534,-0.00088411019470824,0.00088410910315163,-4.0495071237194e-10,-7.069945381929e-10,5.4357500703001e-09,-6.780239113761e-09,-0.0010746687948447,0.0010746718671469,-0.0010746689168912,0.0010746717876289,-0.0010746727295688,0.0010746678365613,-0.0010746728348161,0.0010746677411692,-0.00088892876487979,0.00088892388924187,-0.00088892905555298,0.0008889235815605,-3.5344142818933e-09,8.7164809882538e-09,1.0260468684489e-08,-5.285404552519e-09,-0.0017493446743657,0.00174934964681,-0.001934577491507,0.001934583490341,-0.0019345825459468,0.0019345782951749,-0.0019345735314686,0.0019345875294285,-0.001934578585549,0.001934582335353,-0.0015386568287713,0.0015386811378909,-0.0015386718525619,0.0015386656397625,-0.0015386747984537,0.0015386627197058,-0.001538662863904,0.0015386749828504,9.3473284747225e-10,1.2541689656451e-09,-0.00088410857007532,0.00088411072836673,-6.464480197538e-09,9.0085981094876e-09,-0.0010746719114509,0.001074668726874,-0.0010746667975865,0.001074673851651,-0.0010746717982152,0.0010746688259895,-0.0010746666862867,0.0010746739537655,-0.00088892252313995,0.00088893013362069,-0.00088892282015475,0.00088892980673586,0.74546030817472,128566,2924,0.0036807704965668,0.007258459500879,0.003680770497786,27.867457962268,-1.7060336301858e-05,-1.7060336301858e-05,-1.7060336301858e-05,4325671.9962763,0.01472881259223
31419200,0.99717915673426,0.015183561867607,0.0041764380621043,0.0068306857428881,0.0041764380626146,-0.00088509340540054,0.0008850923159919,-4.0239407818492e-10,-7.0676869974669e-10,5.4359775453582e-09,-6.7756790725377e-09,-0.0010759355025684,0.0010759385752142,-0.0010759356245317,0.0010759384940013,-0.0010759394365834,0.0010759345465657,-0.0010759395413688,0.0010759344491023,-0.00089005684991702,0.00089005197979657,-0.00089005714053857,0.00089005166877472,-3.529100081415e-09,8.7187434373728e-09,1.0238106842334e-08,-5.2578290756367e-09,-0.0017508580500939,0.0017508630251872,-0.00193602940433,0.0019360353865308,-0.0019360344430343,0.0019360302102353,-0.0019360254449098,0.0019360394244321,-0.001936030483321,0.0019360342492588,-0.0015401271433333,0.0015401514042629,-0.0015401421537502,0.0015401359953412,-0.0015401450746233,0.0015401330199569,-0.0015401331386537,0.0015401452707832,9.2968181374478e-10,1.2514242299738e-09,-0.00088509178578284,0.00088509393489808,-6.4629841458884e-09,8.9805094537275e-09,-0.0010759386176432,0.0010759354388737,-0.0010759335136826,0.001075940554321,-0.001075938503986,0.0010759355389871,-0.0010759334023267,0.0010759406572214,-0.00089005061472924,0.00089005821112755,-0.00089005091293414,0.00089005788454826,0.71242631337053,128566,2924,0.0036848647404858,0.0072647034141113,0.0036848647389585,28.435582053823,-1.2515343569416e-05,-1.2515343569416e-05,-1.2515343569416e-05,4323302.0038377,0.014743464145294
31619200,0.99730482581499,0.015185385912219,0.0041769381860675,0.0068315095395755,0.0041769381865758,-0.00088608916699331,0.00088608807787271,-4.010182893816e-10,-7.0781711802533e-10,5.4359122733136e-09,-6.7744820663113e-09,-0.0010771235053096,0.0010771265784821,-0.0010771236276337,0.0010771264957877,-0.0010771274390599,0.0010771225500591,-0.0010771275439893,0.0010771224513216,-0.00089115318223026,0.00089114831387203,-0.00089115347220195,0.00089114799927049,-3.5271447657956e-09,8.718444977667e-09,1.023090176368e-08,-5.2497168036376e-09,-0.0017522870503053,0.0017522920255355,-0.0019374485595426,0.0019374545368857,-0.0019374535938724,0.0019374493658062,-0.0019374446009294,0.0019374585738783,-0.0019374496346456,0.0019374534039582,-0.0015414907926199,0.0015415150373513,-0.0015415057968153,0.00154149965618,-0.001541508710199,0.0015414966644954,-0.0015414967745472,0.0015415089113919,9.269714838707e-10,1.2510535525895e-09,-0.00088608754959064,0.00088608969466846,-6.4517994922483e-09,8.9601667031542e-09,-0.0010771266173712,0.0010771234455897,-0.0010771215239521,0.0010771285503587,-0.001077126503006,0.00107712354638,-0.0010771214117756,0.001077128654097,-0.0008911469525218,0.00089115454023335,-0.00089114725318433,0.00089115421103195,0.68057768144169,128566,2924,0.0036890078342397,0.007270602373997,0.0036890078329159,29.004169973879,-7.9666402089683e-06,-7.9666402089683e-06,-7.9666402089683e-06,4327738.5235173,0.014757862216204
31819200,0.99742669499514,0.015187090114656,0.0041774026496253,0.0068322848148982,0.0041774026501321,-0.00088657717694794,0.00088657608820063,-3.9951877905642e-10,-7.086361139396e-10,5.4441081632124e-09,-6.7796414334315e-09,-0.0010776804156229,0.0010776834934462,-0.001077680537975,0.0010776834091524,-0.001077684354555,0.0010776794611338,-0.0010776844587843,0.0010776793599846,-0.00089167431274153,0.00089166944050619,-0.00089167459703903,0.00089166911791906,-3.5299623160743e-09,8.7292623496743e-09,1.0285497516935e-08,-5.2991173896012e-09,-0.0017530154772113,0.0017530204551965,-0.0019382179697125,0.0019382239756935,-0.0019382230379508,0.0019382187718668,-0.0019382140063262,0.0019382280171804,-0.001938219074048,0.0019382228141512,-0.0015421486112379,0.0015421729634931,-0.0015421637501589,0.0015421575213719,-0.0015421665972778,0.0015421545107188,-0.0015421546438074,0.0015421667629034,9.2904560253721e-10,1.2552904889206e-09,-0.00088657555788994,0.00088657770673148,-6.5149050465934e-09,9.0110167537348e-09,-0.0010776835465759,0.001077680344096,-0.0010776784152832,0.0010776854869374,-0.001077683431561,0.0010776804457642,-0.0010776783029561,0.0010776855913483,-0.00089166805580495,0.00089167569541216,-0.00089166835679703,0.00089167536456685,0.65805654408136,128566,2924,0.0036910377534577,0.0072736105213987,0.0036910377522484,29.266112997881,-5.8710960169528e-06,-5.8710960169528e-06,-5.8710960169528e-06,4332115.517087,0.014765035083594
32019200,0.99754316024564,0.015188882977907,0.0041778987680141,0.0068330854413735,0.004177898768519,-0.00088667222937332,0.00088667113910158,-3.9911605785928e-10,-7.1060625405676e-10,5.4537004429965e-09,-6.7909291455408e-09,-0.001077743290576,0.0010777463743813,-0.0010777434143897,0.001077746290252,-0.0010777472367902,0.0010777423359765,-0.0010777473416352,0.0010777422335665,-0.00089174747029533,0.00089174259139177,-0.00089174775558791,0.00089174226581131,-3.5404055218063e-09,8.7403868191235e-09,1.0381265513994e-08,-5.3942852883461e-09,-0.0017531889904591,0.0017531939690745,-0.0019384645131104,0.0019384705757593,-0.001938469643454,0.0019384653079893,-0.0019384605426399,0.0019384746248513,-0.0019384656727661,0.0019384693573943,-0.0015422538819288,0.0015422784292613,-0.001542269205165,0.0015422627954948,-0.0015422720059948,0.0015422598356069,-0.0015422600318507,0.0015422721089366,9.3517483444596e-10,1.2639458198403e-09,-0.00088667060231792,0.0008866727658573,-6.5926582444043e-09,9.1061170007238e-09,-0.0010777464469798,0.0010777432004119,-0.0010777412585618,0.0010777484002912,-0.0010777463309084,0.0010777433030828,-0.0010777411456783,0.0010777485055898,-0.00089174117264621,0.00089174888775749,-0.0008917414759484,0.00089174855358683,0.71766340151391,128566,2924,0.003691431988127,0.0072743292535247,0.0036914319873955,29.281024739889,-5.7518020808858e-06,-5.7518020808858e-06,-5.7518020808858e-06,4335816.4901527,0.01476656277255
32219200,0.99765441997785,0.015190636289583,0.0041783853486025,0.0068338655918751,0.0041783853491056,-0.00088671240523176,0.00088671131280334,-3.9900117600303e-10,-7.1307763846527e-10,5.4588887901891e-09,-6.8005069110055e-09,-0.0010779095344095,0.0010779126227024,-0.0010779096597305,0.0010779125381648,-0.001077913484781,0.0010779085785693,-0.0010779135919868,0.0010779084771191,-0.00089184479923608,0.00089183991806787,-0.00089184509438142,0.00089183959469074,-3.550099669539e-09,8.7448309815339e-09,1.0447385392371e-08,-5.463648257002e-09,-0.0017534773244655,0.0017534823017335,-0.0019387325508476,0.0019387386546203,-0.0019387377240939,0.0019387333404205,-0.0019387285761625,0.001938742708144,-0.0019387337488267,0.001938737394878,-0.0015425184973936,0.0015425431829454,-0.0015425339267922,0.0015425273829879,-0.0015425367247203,0.0015425244911835,-0.0015425247393953,0.0015425367848635,9.4052357453275e-10,1.2718654234413e-09,-0.00088671076933074,0.00088671294849706,-6.6495450404046e-09,9.1934706886984e-09,-0.0010779127107262,0.0010779094271247,-0.00107790747435,0.0010779146749162,-0.0010779125938467,0.0010779095303516,-0.0010779073598891,0.0010779147810226,-0.00089183847099316,0.00089184624400681,-0.00089183877827962,0.00089184590770857,0.73340853344602,128566,2924,0.0036916042229332,0.0072755151578722,0.0036916042224407,29.290222619432,-5.6782190445456e-06,-5.6782190445456e-06,-5.6782190445456e-06,4328068.0441671,0.014768118477366
32419200,0.9977607023262,0.015192355714759,0.004178864266619,0.0068346271810184,0.0041788642671211,-0.00088673312256344,0.00088673202946074,-3.9803846264304e-10,-7.145948852522e-10,5.4633289673113e-09,-6.8059950877866e-09,-0.0010780937535597,0.0010780968453056,-0.0010780938800839,0.0010780967603604,-0.0010780977072401,0.0010780927979507,-0.0010780978154258,0.0010780926958654,-0.00089194774858469,0.00089194286643744,-0.00089194804869735,0.00089194254300924,-3.555246482778e-09,8.7495504680038e-09,1.0501277794407e-08,-5.517663034123e-09,-0.0017537892972432,0.0017537942745698,-0.0019389989626771,0.0019390050987701,-0.0019390041702741,0.0019389997481657,-0.0019389949848444,0.0019390091555979,-0.001939000191868,0.0019390038059633,-0.0015428178876117,0.0015428426826648,-0.0015428334175571,0.0015428267707285,-0.0015428361927193,0.0015428239135109,-0.001542824198064,0.0015428362178126,9.4305039068952e-10,1.2768602269335e-09,-0.00088673148189467,0.00088673366962219,-6.6978282887669e-09,9.2536916019155e-09,-0.001078096946167,0.0010780936335032,-0.0010780916738206,0.0010780989171867,-0.001078096828434,0.0010780937375005,-0.001078091558487,0.0010780990241086,-0.00089194139707581,0.00089194921439256,-0.00089194170737013,0.00089194887604721,0.75109426989589,128566,2924,0.0036916972272756,0.0072767966487517,0.0036916972261655,29.299217336233,-5.6062613101342e-06,-5.6062613101342e-06,-5.6062613101342e-06,4318104.4371188,0.014769611214836
32619200,0.99786196767272,0.015193863726546,0.004179279243616,0.0068353052388124,0.004179279244117,-0.00088664482091979,0.00088664372764388,-3.9691236584968e-10,-7.1586527077755e-10,5.4651601983592e-09,-6.8076940390025e-09,-0.0010782054568613,0.0010782085506351,-0.0010782055841955,0.0010782084644339,-0.0010782094119818,0.0010782045018405,-0.0010782095206818,0.0010782043991306,-0.00089195937616024,0.00089195449409275,-0.00089195967632059,0.00089195416718875,-3.5557873401376e-09,8.7514478838626e-09,1.0532509146193e-08,-5.5481305972422e-09,-0.0017540283880082,0.0017540333657772,-0.0019391673126523,0.0019391734681518,-0.0019391725400672,0.0019391680970404,-0.0019391633342129,0.0019391775255018,-0.0019391685606353,0.0019391721558794,-0.0015430595213974,0.0015430843778032,-0.0015430751180507,0.0015430684127709,-0.0015430778658911,0.0015430655641926,-0.0015430658676922,0.0015430778696698,9.4327259743986e-10,1.2795028852991e-09,-0.00088664317896385,0.0008866453691574,-6.7249620138502e-09,9.2804574585108e-09,-0.0010782086584408,0.0010782053302281,-0.0010782033683316,0.0010782106318592,-0.0010782085401875,0.0010782054348299,-0.0010782032520036,0.001078210739745,-0.00089195301287632,0.00089196085451247,-0.00089195332570277,0.00089196051371561,0.69653887831644,128566,2924,0.0036913389429319,0.0072777746821793,0.0036913389419445,29.262866798501,-5.8970656119901e-06,-5.8970656119901e-06,-5.8970656119901e-06,4304912.058658,0.01476988083413
32819200,0.99795834106558,0.015195181219808,0.0041796371115278,0.0068359069962527,0.004179637112028,-0.00088655691411749,0.00088655582134704,-3.954301435515e-10,-7.1683580909938e-10,5.4638338973658e-09,-6.8056822890777e-09,-0.001078160482111,0.0010781635757378,-0.00107816061023,0.0010781634891687,-0.0010781644360684,0.0010781595284976,-0.0010781645455939,0.0010781594244635,-0.00089188995558092,0.00089188507797414,-0.0008918902584927,0.00089188474820925,-3.5546934441436e-09,8.7503723722482e-09,1.053664186353e-08,-5.5522366378055e-09,-0.0017540796640628,0.0017540846416923,-0.0019392325275824,0.0019392386857956,-0.0019392377573382,0.0019392333122557,-0.0019392285495858,0.0019392427427422,-0.0019392337788288,0.0019392373700865,-0.0015430797402151,0.001543104604025,-0.0015430953449008,0.0015430886312172,-0.0015430980885251,0.0015430857872502,-0.0015430860928354,0.0015430980902136,9.4220531710888e-10,1.2808762467464e-09,-0.00088655527228852,0.00088655746276225,-6.7307927874594e-09,9.2867064771664e-09,-0.0010781636862058,0.001078160353148,-0.0010781583918649,0.0010781656588527,-0.0010781635668467,0.0010781604587872,-0.0010781582750187,0.0010781657673533,-0.00089188359112801,0.00089189143952083,-0.00089188390579068,0.00089189109659136,0.6444613687596,128566,2924,0.0036909764282367,0.0072779835866667,0.0036909764273093,29.204369732659,-6.3650421387312e-06,-6.3650421387312e-06,-6.3650421387312e-06,4301931.657298,0.014769357039486
33019200,0.99805006974339,0.015196546070848,0.0041800132837252,0.006836519502898,0.0041800132842244,-0.00088653168751082,0.0008865305952657,-3.9397374194247e-10,-7.1785326379458e-10,5.4604839899715e-09,-6.8021296346088e-09,-0.0010780198642498,0.0010780229571292,-0.0010780199933585,0.0010780228698432,-0.0010780238158832,0.0010780189120868,-0.0010780239264426,0.0010780188075087,-0.00089180267860201,0.00089179780640405,-0.0008918029845604,0.00089179747463784,-3.5517516048383e-09,8.7462387685269e-09,1.0520764330577e-08,-5.5371960867546e-09,-0.0017540033896823,0.0017540083668095,-0.0019392511236325,0.0019392572741111,-0.0019392563433995,0.0019392519105539,-0.0019392471479982,0.0019392613286805,-0.0019392523671897,0.001939255966106,-0.001542940609728,0.0015429654404725,-0.0015429561797488,0.0015429494926397,-0.001542958934278,0.0015429466489728,-0.0015429469461266,0.0015429589461335,9.3986220417834e-10,1.2810218903155e-09,-0.00088653004697924,0.00088653223548642,-6.7158722103316e-09,9.271841993882e-09,-0.0010780230645303,0.001078019738002,-0.0010780177801425,0.0010780250337386,-0.0010780229443716,0.0010780198444331,-0.0010780176623776,0.0010780251431137,-0.0008917963221194,0.00089180416033414,-0.00089179663929772,0.00089180381462287,0.69524136670456,128566,2924,0.0036908680732327,0.0072776731579207,0.0036908680725271,29.145355246676,-6.8371580265881e-06,-6.8371580265881e-06,-6.8371580265881e-06,4308925.179963,0.014768818234408
33219200,0.99813739052579,0.015197914828206,0.0041803933049239,0.0068371282178597,0.0041803933054222,-0.0008864700108529,0.00088646891953307,-3.9227460238678e-10,-7.1861315531129e-10,5.4561468908934e-09,-6.7967924256569e-09,-0.0010779875230648,0.0010779906144468,-0.0010779876528915,0.001077990526266,-0.0010779914714519,0.001077986572568,-0.0010779915828449,0.0010779864671693,-0.00089175061255526,0.00089174574696247,-0.00089175092122904,0.00089174541301686,-3.5472163663279e-09,8.7411100655582e-09,1.0488684514182e-08,-5.5056057135247e-09,-0.0017540433776751,0.0017540483543335,-0.0019393069452978,0.0019393130775844,-0.0019393121445292,0.0019393077353377,-0.0019393029727646,0.0019393171289225,-0.0019393081714356,0.0019393117876412,-0.0015429537610343,0.0015429785256135,-0.0015429692687212,0.0015429626403825,-0.0015429720382936,0.0015429597830431,-0.0015429600596754,0.0015429720706895,9.3570103139122e-10,1.2793164498755e-09,-0.00088646837369006,0.00088647055635072,-6.6874650139461e-09,9.2370402926374e-09,-0.0010779907153175,0.0010779874032459,-0.0010779854518723,0.0010779926780446,-0.0010779905943314,0.0010779875105079,-0.0010779853332871,0.0010779927882215,-0.00089174427154616,0.00089175208522758,-0.00089174459118195,0.00089175173719359,0.72922791979742,128566,2924,0.0036906135914159,0.0072778368419433,0.0036906135906398,29.086322334857,-7.3094213211451e-06,-7.3094213211451e-06,-7.3094213211451e-06,4305829.2661134,0.014768468113658
33419200,0.99822187468459,0.015199266056005,0.0041807694588516,0.0068377271378046,0.004180769459349,-0.00088687101720439,0.00088686992633758,-3.9092299391463e-10,-7.19883110203e-10,5.4443098260775e-09,-6.7870387295374e-09,-0.0010785373415505,0.001078540427731,-0.0010785374727944,0.001078540339656,-0.0010785412817399,0.0010785363925884,-0.0010785413956876,0.0010785362877131,-0.00089223032844555,0.00089222547593699,-0.00089223064884622,0.00089222514501145,-3.5414352176439e-09,8.7257811146707e-09,1.0393467118949e-08,-5.4167755961061e-09,-0.0017547277103878,0.0017547326833103,-0.0019399549854961,0.0019399610642566,-0.0019399601248349,0.0019399557817851,-0.0019399510199453,0.001939965108787,-0.0019399561589952,0.0019399598271225,-0.0015436213013541,0.0015436458765296,-0.0015436365929485,0.0015436301282424,-0.0015436394547031,0.0015436272739603,-0.0015436275014258,0.0015436395493735,9.2878709000261e-10,1.2751437046823e-09,-0.00088686938469124,0.00088687155874764,-6.5958079770644e-09,9.1537474347423e-09,-0.0010785405079278,0.0010785372397923,-0.0010785353023372,0.0010785424563792,-0.001078540385722,0.0010785373479982,-0.0010785351824262,0.0010785425673336,-0.00089222402995527,0.00089223177097003,-0.00089222435370083,0.00089223141990946,0.74278653801343,128566,2924,0.0036922850315862,0.0072806588546872,0.0036922850313798,29.312095011689,-5.503239906489e-06,-5.503239906489e-06,-5.503239906489e-06,4302396.9778448,0.014774727434744
33619200,0.99830391297588,0.015200578644416,0.004181134789908,0.0068383090641025,0.0041811347904054,-0.00088738244023195,0.00088738135138443,-3.886257758449e-10,-7.1999955567095e-10,5.4365128647877e-09,-6.7758128776853e-09,-0.001079242112403,0.0010792451948839,-0.0010792422437469,0.0010792451049503,-0.0010792460467299,0.0010792411659783,-0.0010792461604655,0.001079241059609,-0.00089284563238658,0.00089284078876841,-0.00089284595016653,0.0008928404529305,-3.5299437756407e-09,8.7174633249499e-09,1.0304227163757e-08,-5.3257064727347e-09,-0.0017555922078768,0.0017555971813013,-0.0019407616085245,0.0019407676333512,-0.0019407666901341,0.0019407624116311,-0.0019407576493556,0.0019407716710438,-0.0019407627304458,0.001940766450448,-0.0015444725985451,0.0015444969892297,-0.0015444877333624,0.0015444814429553,-0.0015444906172787,0.0015444785174466,-0.0015444786813704,0.001544490769391,9.1917249098671e-10,1.2678800562123e-09,-0.00088738081785625,0.00088738297346515,-6.5174911502662e-09,9.045321409525e-09,-0.0010792452542621,0.0010792420321098,-0.0010792401108148,0.0010792471867593,-0.0010792451315441,0.001079242141043,-0.0010792399902708,0.001079247298659,-0.00089283937497083,0.00089284704314998,-0.00089283970050619,0.00089284668963914,0.74303043423152,128566,2924,0.0036944167854853,0.0072842233647847,0.003694416784844,29.61395184503,-3.0883852397557e-06,-3.0883852397557e-06,-3.0883852397557e-06,4298654.7572813,0.01478267542872
33819200,0.99838351532605,0.015201856403854,0.0041814905439779,0.0068388753154019,0.0041814905444745,-0.00088788419609651,0.000887883108748,-3.8662180905736e-10,-7.2040422266167e-10,5.4314820316526e-09,-6.7679974585587e-09,-0.0010799382419665,0.0010799413220942,-0.0010799383734085,0.0010799412306132,-0.0010799421721971,0.0010799372974565,-0.0010799422861479,0.0010799371896676,-0.00089345574075887,0.00089345090439128,-0.00089345605759716,0.00089345056370183,-3.5225118720332e-09,8.7121622651878e-09,1.0233122485074e-08,-5.2534648056093e-09,-0.001756454603637,0.0017564595772902,-0.0019415683300038,0.001941574310834,-0.0019415733657667,0.0019415691379842,-0.0019415643747881,0.0019415783442126,-0.0019415694100441,0.0019415731724061,-0.0015453200780714,0.0015453443234953,-0.0015453350882544,0.0015453289367773,-0.0015453379929021,0.0015453259544284,-0.0015453260674491,0.0015453381901491,9.1182161030291e-10,1.2628983849761e-09,-0.00088788258129315,0.00088788472318578,-6.4575808955422e-09,8.9627548418421e-09,-0.0010799413653103,0.0010799381783485,-0.0010799362690665,0.0010799432859688,-0.0010799412418986,0.0010799382881622,-0.0010799361479392,0.0010799433986489,-0.00089344951422071,0.00089345712740271,-0.00089344984142661,0.00089345677198339,0.74517770111153,128566,2924,0.0036965087022501,0.0072877786284661,0.0036965087014401,29.91762351916,-6.5901184671741e-07,-6.5901184671741e-07,-6.5901184671741e-07,4295280.7212265,0.01479053295243
34019200,0.99846068605302,0.015203057041196,0.0041818232996318,0.0068394104414368,0.0041818233001276,-0.00088837640512961,0.00088837531864146,-3.8496361912201e-10,-7.2120430910472e-10,5.4288680868212e-09,-6.76424947341e-09,-0.001080624343558,0.0010806274231506,-0.001080624475568,0.0010806273305982,-0.001080628271623,0.001080623400557,-0.0010806283863093,0.0010806232918381,-0.00089405616109619,0.00089405132998522,-0.00089405647954762,0.00089405098611417,-3.5194849968551e-09,8.7088269264919e-09,1.0184405591224e-08,-5.205111106311e-09,-0.0017573110777147,0.0017573160509244,-0.001942369351882,0.0019423753025023,-0.0019423743567054,0.0019423701623839,-0.0019423653986783,0.0019423793337422,-0.0019423704029954,0.0019423741946187,-0.0015461622793273,0.0015461864268877,-0.001546177197365,0.0015461711388244,-0.0015461801272595,0.0015461681267736,-0.0015461682076025,0.0015461803556224,9.0692283495162e-10,1.2604536405754e-09,-0.00088837479471413,0.00088837692879077,-6.414568693359e-09,8.9098036366213e-09,-0.0010806274546881,0.0010806242916504,-0.0010806223902484,0.0010806293674648,-0.0010806273304336,0.0010806244022729,-0.0010806222682943,0.0010806294809231,-0.00089404995517671,0.00089405753213116,-0.00089405028468567,0.00089405717433197,0.72426546147147,128566,2924,0.0036985610494554,0.0072913091795016,0.0036985610488514,30.221360099633,1.7708807970628e-06,1.7708807970628e-06,1.7708807970628e-06,4292064.2573694,0.014798284966553
34219200,0.99853672481076,0.015204207362151,0.0041821408371516,0.0068399256873522,0.0041821408376467,-0.00088941581132783,0.00088941472326967,-3.8475314353903e-10,-7.2362498389503e-10,5.4210450728861e-09,-6.762275745059e-09,-0.001081828279488,0.001081831356781,-0.0010818284137239,0.0010818312645191,-0.0010818322031618,0.0010818273364172,-0.0010818323208587,0.0010818272294304,-0.00089519613669291,0.00089519131220827,-0.00089519646771203,0.00089519097333991,-3.5203165123941e-09,8.6960664621976e-09,1.0110783916139e-08,-5.1406049249894e-09,-0.0017587323692451,0.001758737337583,-0.0019437709292944,0.0019437768399661,-0.0019437758892259,0.0019437717427453,-0.0019437669805949,0.0019437808672258,-0.0019437719396316,0.0019437757716174,-0.0015475394351543,0.0015475634398714,-0.0015475541618039,0.0015475482215682,-0.001547557197062,0.0015475452430742,-0.0015475452956638,0.001547557474836,9.0309604621401e-10,1.2594546661155e-09,-0.00088941420130219,0.00088941633385965,-6.3287282975771e-09,8.8492016272725e-09,-0.0010818313680836,0.0010818282438719,-0.001081826352344,0.0010818332704329,-0.0010818312427497,0.0010818283549882,-0.0010818262283086,0.0010818333850031,-0.0008951899638371,0.00089519748359364,-0.00089519029928467,0.00089519712075333,0.70594349670008,128566,2924,0.0037028847349295,0.0072971763466417,0.0037028847361486,30.833223670899,6.6657893671962e-06,6.6657893671962e-06,6.6657893671962e-06,4299086.0015144,0.014813017274947
34419200,0.99861163536668,0.015205345357409,0.0041824551071665,0.0068404351425812,0.0041824551076611,-0.00089052524950455,0.00089052416337856,-3.8230016269098e-10,-7.235886422968e-10,5.4203195872606e-09,-6.757298438524e-09,-0.0010830586652026,0.0010830617421244,-0.0010830587993727,0.0010830616490765,-0.0010830625876018,0.0010830577249527,-0.0010830627049314,0.0010830576150496,-0.00089638147339073,0.00089637665470203,-0.0008963818013911,0.00089637630817011,-3.5148037415701e-09,8.6989581934455e-09,1.0065260398086e-08,-5.0895002544373e-09,-0.0017601801672907,0.0017601851383133,-0.0019452286623687,0.0019452345402995,-0.0019452335910895,0.0019452294773462,-0.0019452247137669,0.0019452385673199,-0.001945229642746,0.0019452335049349,-0.0015489270177772,0.0015489509287247,-0.0015489416866712,0.0015489358465512,-0.0015489447072187,0.0015489327941966,-0.0015489328069497,0.001548945014312,8.9738283868056e-10,1.2559134373513e-09,-0.00089052364561661,0.00089052576695084,-6.3081820495156e-09,8.7986957334613e-09,-0.0010830617465481,0.0010830586387406,-0.0010830567541911,0.0010830636422397,-0.0010830616202289,0.001083058751254,-0.0010830566306604,0.0010830637571978,-0.0008963753162253,0.00089638280853992,-0.00089637565036651,0.0008963824454039,0.70867959452124,128566,2924,0.0037074975065967,0.0073031553392334,0.0037074975059212,31.477106472497,1.1816851779977e-05,1.1816851779977e-05,1.1816851779977e-05,4309998.7560715,0.014828448839321
34619200,0.99868528214265,0.015206511626092,0.0041827790133317,0.0068409535989346,0.0041827790138257,-0.0008916352987156,0.00089163421260732,-3.8119187249701e-10,-7.2477674798071e-10,5.4216932189864e-09,-6.757514137317e-09,-0.0010842972217567,0.0010843003002602,-0.0010842973560348,0.0010843002047761,-0.0010843011449981,0.0010842962817497,-0.001084301262316,0.0010842961711302,-0.00089757112779486,0.0008975663085446,-0.00089757145276946,0.00089756595752681,-3.5130923713807e-09,8.7002475813497e-09,1.005300124436e-08,-5.075400447412e-09,-0.0017616372579495,0.0017616422299161,-0.0019466923052784,0.0019466981749925,-0.001946697226463,0.0019466931211759,-0.0019466883572213,0.0019467022012297,-0.0019466932776363,0.0019466971488481,-0.0015503254112618,0.0015503492960571,-0.0015503400689343,0.0015503342596916,-0.0015503430800771,0.0015503311780519,-0.0015503311766825,0.0015503433952131,8.9422371351687e-10,1.2551445547758e-09,-0.0008916336977537,0.00089163581349662,-6.2904462810076e-09,8.7672625353397e-09,-0.0010843002978214,0.001084297202425,-0.0010842953220585,0.0010843021896081,-0.0010843001712633,0.001084297315342,-0.0010842951973839,0.0010843023056679,-0.00089756497770483,0.00089757245592822,-0.00089756531488207,0.00089757208989708,0.7361373967824,128566,2924,0.0037121130516281,0.007309172442012,0.0037121130514354,32.12180855399,1.6974468431922e-05,1.6974468431922e-05,1.6974468431922e-05,4320158.0513983,0.014843925264347
34819200,0.99875866440848,0.015207683981126,0.0041831047969557,0.0068414743867214,0.0041831047974489,-0.00089321132996523,0.00089321024181006,-3.8121318923551e-10,-7.2745391974579e-10,5.4164852295024e-09,-6.7587008097414e-09,-0.0010861086871792,0.0010861117644716,-0.0010861088237355,0.0010861116699138,-0.0010861126076763,0.0010861077467293,-0.0010861127283208,0.0010861076374686,-0.0008992889675229,0.0008992841536379,-0.00089928930614468,0.00089928380651803,-3.5181114136407e-09,8.6906159214726e-09,1.0013271297318e-08,-5.0456473171732e-09,-0.0017637319952645,0.001763736961919,-0.001948753753345,0.0019487596027421,-0.0019487586512618,0.0019487545692541,-0.0019487498070652,0.0019487636277659,-0.0019487547044695,0.0019487585956215,-0.0015523636106346,0.0015523874224213,-0.0015523781403919,0.0015523723828857,-0.0015523812434903,0.0015523693585803,-0.0015523693519188,0.0015523815857998,8.9427834603539e-10,1.2580144337629e-09,-0.00089320972531635,0.0008932118474799,-6.2400875547262e-09,8.7529346427097e-09,-0.0010861117515048,0.0010861086745982,-0.0010861067969963,0.0010861136397701,-0.0010861116234654,0.0010861087882732,-0.0010861066704811,0.0010861137566681,-0.00089928283360673,0.00089929028883514,-0.00089928317572591,0.00089928991798363,0.74236048331425,128566,2924,0.003718667776052,0.0073178205843939,0.0037186677782358,33.052804698335,2.4422437586683e-05,2.4422437586683e-05,2.4422437586683e-05,4330771.256155,0.014866010857804
35019200,0.99883193393665,0.015208817709884,0.0041834181557783,0.0068419813978341,0.0041834181562715,-0.00089493932119471,0.00089493823434012,-3.7909079672756e-10,-7.2770247968801e-10,5.4184525121495e-09,-6.7568280465118e-09,-0.0010881117550746,0.0010881148336916,-0.0010881118914437,0.0010881147370727,-0.0010881156762594,0.0010881108158898,-0.0010881157961293,0.0010881107046751,-0.0009011806450625,0.0009011758326334,-0.0009011809827344,0.00090117548378148,-3.5139631213093e-09,8.6937528265835e-09,1.0005778478395e-08,-5.0331575367274e-09,-0.001766049763378,0.001766054732501,-0.0019510302487191,0.0019510360902654,-0.0019510351401179,0.0019510310646819,-0.0019510263026474,0.0019510401145888,-0.0019510311931764,0.0019510350905434,-0.0015546199814094,0.0015546437739151,-0.0015546345213656,0.0015546287935709,-0.0015546375952037,0.0015546257236094,-0.0015546256996686,0.0015546379428254,8.8991050980986e-10,1.255927950561e-09,-0.00089493772028762,0.00089493983498271,-6.2387099299e-09,8.7279050856571e-09,-0.0010881148182668,0.0010881117465571,-0.0010881098725661,0.0010881167031254,-0.00108811468976,0.0010881118608957,-0.0010881097455748,0.0010881168208403,-0.00090117451434416,0.00090118196022878,-0.00090117485914037,0.00090118158855228,0.72136489184518,128566,2924,0.003725855219497,0.0073273885301848,0.0037258552189478,34.084985720556,3.2679885764452e-05,3.2679885764452e-05,3.2679885764452e-05,4341962.5766117,0.014890315423322
35219200,0.99890481016456,0.015209911951011,0.0041837190692534,0.0068424738120117,0.0041837190697457,-0.00089667720951498,0.00089667612305538,-3.776473844956e-10,-7.2862885834763e-10,5.4207047451468e-09,-6.7574928169977e-09,-0.0010900748857524,0.0010900779659582,-0.0010900750223922,0.0010900778684021,-0.0010900788082861,0.0010900739479076,-0.0010900789285055,0.0010900738349122,-0.00090305576575537,0.00090305095484822,-0.0009030561007952,0.00090305059788691,-3.5141738747533e-09,8.6987079997358e-09,1.001814516113e-08,-5.0424551312217e-09,-0.0017683276421597,0.0017683326129154,-0.0019532997731243,0.0019533056195786,-0.0019533046717423,0.001953300588393,-0.0019532958249154,0.0019533096459032,-0.0019533007232606,0.0019533046157736,-0.0015568193898943,0.0015568432072439,-0.0015568339731503,0.0015568282280654,-0.0015568370162202,0.0015568251357237,-0.0015568251147465,0.0015568373544471,8.8992492222067e-10,1.2582189098054e-09,-0.00089667560862659,0.00089667772379779,-6.2592101643672e-09,8.7389488063176e-09,-0.001090077954617,0.0010900748747869,-0.001090072998284,0.001090079842452,-0.0010900778252949,0.0010900749902646,-0.0010900728711822,0.0010900799607255,-0.00090304962747675,0.00090305709022977,-0.0009030499719112,0.00090305671742603,0.70214230146998,128566,2924,0.0037330820065417,0.0073367936637464,0.0037330820062067,35.119561567326,4.0956492538608e-05,4.0956492538608e-05,4.0956492538608e-05,4356691.8543837,0.014914533646144
35419200,0.998976150756,0.015210948145606,0.0041840023701915,0.0068429434047311,0.0041840023706831,-0.00089804246973864,0.00089804138456814,-3.7560540144112e-10,-7.2880043892219e-10,5.4317434692615e-09,-6.7629945514529e-09,-0.0010915906503447,0.0010915937365244,-0.0010915907865075,0.0010915936367019,-0.0010915945795603,0.0010915897135578,-0.0010915946982896,0.0010915895976478,-0.00090451268946347,0.00090450787383708,-0.00090451301764024,0.0009045075090536,-3.5166811953328e-09,8.7131546865759e-09,1.0101927086591e-08,-5.1182001907327e-09,-0.0017701123137012,0.0017701172887107,-0.0019551060354923,0.0019551119279678,-0.0019551109867845,0.0019551068465404,-0.0019551020814147,0.0019551159595661,-0.0019551070321848,0.0019551108791045,-0.0015585222845451,0.0015585462669603,-0.0015585370753966,0.0015585311915102,-0.0015585400179115,0.0015585280765994,-0.0015585280918606,0.0015585402981941,8.9243587284558e-10,1.2627988647921e-09,-0.0008980408671022,0.00089804298631691,-6.3487181706943e-09,8.8082939613229e-09,-0.0010915937449761,0.0010915906232953,-0.0010915887360481,0.0010915956440367,-0.0010915936153587,0.0010915907396392,-0.0010915886090324,0.0010915957630921,-0.0009045065127991,0.00090451404319932,-0.00090450685769097,0.00090451367031596,0.68162298323606,128566,2924,0.0037387585033265,0.0073441633135875,0.0037387585013679,35.931400159535,4.7451201276278e-05,4.7451201276278e-05,4.7451201276278e-05,4370186.9834424,0.014933537764508
35619200,0.99904514871475,0.015211910383126,0.0041842636056348,0.0068433831713647,0.0041842636061264,-0.00089913668607659,0.00089913559918375,-3.7535084749514e-10,-7.3092502043502e-10,5.4420814009797e-09,-6.7752778622944e-09,-0.0010927576870877,0.0010927607798447,-0.0010927578245194,0.0010927606795404,-0.0010927616239777,0.0010927567495337,-0.0010927617435385,0.0010927566329111,-0.00090565351959123,0.00090564869687401,-0.00090565384869928,0.00090564832833021,-3.5277222068611e-09,8.7245529826599e-09,1.0217057492966e-08,-5.2329930334784e-09,-0.0017715055030374,0.0017715104784927,-0.0019565518022695,0.0019565577639752,-0.0019565568282199,0.0019565526059168,-0.0019565478409694,0.0019565618029808,-0.001956552866231,0.0019565566459066,-0.001559828702246,0.0015598529185545,-0.0015598437150635,0.0015598376125048,-0.0015598466000255,0.0015598345607455,-0.0015598346516008,0.0015598468046812,9.0117441909854e-10,1.2739309861045e-09,-0.0008991350730324,0.00089913721192623,-6.4512881014592e-09,8.9342910370094e-09,-0.0010927608141555,0.0010927576348795,-0.0010927557295043,0.0010927627312966,-0.0010927606837409,0.0010927577519524,-0.0010927556016002,0.0010927628512188,-0.0009056472908542,0.00090565491955902,-0.00090564763787369,0.00090565454369715,0.65729899993517,128566,2924,0.0037433063232041,0.0073499184212031,0.0037433063224729,36.575507068128,5.2604056545028e-05,5.2604056545028e-05,5.2604056545028e-05,4383834.0453417,0.014948610623208
35819200,0.99911169168089,0.015212899400714,0.0041845348968654,0.0068438296064918,0.0041845348973566,-0.00090025455096849,0.00090025346159685,-3.754799292834e-10,-7.3357386148999e-10,5.448846980136e-09,-6.7869781997395e-09,-0.0010938763428484,0.0010938794407724,-0.0010938764824264,0.0010938793411118,-0.0010938802853262,0.0010938754042684,-0.0010938804070495,0.0010938752880266,-0.00090678125986676,0.00090677643284244,-0.00090678159766812,0.00090677606593808,-3.5399854082875e-09,8.7304910592557e-09,1.0318922801286e-08,-5.3389776569562e-09,-0.0017728334781416,0.0017728384518326,-0.001957969216497,0.0019579752419756,-0.0019579743088954,0.0019579700127054,-0.0019579652495307,0.001957979287273,-0.0019579703413428,0.0019579740589451,-0.001561054876003,0.0015610793017475,-0.0015610700598092,0.0015610637521793,-0.0015610729263451,0.001561060795922,-0.0015610609637688,0.0015610730653701,9.099574479926e-10,1.2853307671275e-09,-0.00090025292563725,0.00090025508704087,-6.5343120283117e-09,9.0578608538479e-09,-0.0010938794977732,0.0010938762665656,-0.0010938743445872,0.0010938814310474,-0.0010938793662152,0.0010938763843983,-0.0010938742153795,0.0010938815518213,-0.00090677498643202,0.00090678270211139,-0.00090677533725683,0.00090678232272348,0.69619235944736,128566,2924,0.0037479494203981,0.0073554077743352,0.0037479494205801,37.215706854769,5.7725654838156e-05,5.7725654838156e-05,5.7725654838156e-05,4401574.4534168,0.014963605744187
36019200,0.99917569406699,0.015213909899807,0.004184814389064,0.0068442811211881,0.0041848143895547,-0.00090134088432992,0.00090133979362401,-3.7492980952301e-10,-7.3546802878584e-10,5.4536304655221e-09,-6.794059115393e-09,-0.001095079838301,0.0010950829399921,-0.0010950799792105,0.001095082840096,-0.0010950837846948,0.0010950788996071,-0.001095083907654,0.0010950787829978,-0.00090793593972856,0.00090793111023883,-0.0009079362816197,0.00090793074227804,-3.5460361554413e-09,8.7364576236871e-09,1.0400533102794e-08,-5.4203629761024e-09,-0.0017742561885856,0.0017742611626813,-0.001959416399036,0.0019594224745099,-0.0019594215433833,0.0019594171902833,-0.0019594124282736,0.0019594265239037,-0.0019594175720831,0.0019594212406512,-0.0015624047696714,0.0015624293601514,-0.0015624201047736,0.0015624136410639,-0.001562422933308,0.0015624107375884,-0.0015624109607016,0.0015624230211812,9.1515616536837e-10,1.2930030866093e-09,-0.00090133925137703,0.0009013414265867,-6.6051906400188e-09,9.1477507819322e-09,-0.0010950830160464,0.0010950797429149,-0.0010950778095046,0.0010950849607535,-0.0010950828835785,0.0010950798614808,-0.0010950776793705,0.001095085082254,-0.0009079296317215,0.00090793741485628,-0.00090792998508654,0.00090793703301293,0.73586310727436,128566,2924,0.0037524658830091,0.0073612833073211,0.0037524658829805,37.855766780731,6.2846134245852e-05,6.2846134245852e-05,6.2846134245852e-05,4411098.4176323,0.014978739401385
36219200,0.99923499947394,0.015214814590525,0.0041850631274358,0.0068446883351636,0.0041850631279259,-0.00090122386407725,0.00090122277304591,-3.7386583627482e-10,-7.3633866962425e-10,5.4694080943941e-09,-6.8059403470765e-09,-0.0010951279962131,0.0010951311068174,-0.0010951281371219,0.0010951310044674,-0.0010951319536722,0.0010951270575983,-0.0010951320744121,0.001095126938419,-0.00090789752567206,0.00090789268247858,-0.00090789785200965,0.00090789230241262,-3.5510190555113e-09,8.7562621953181e-09,1.0568139210484e-08,-5.5783965977543e-09,-0.001774419556072,0.001774424535501,-0.0019595359660433,0.0019595421395174,-0.0019595412158659,0.0019595367490006,-0.0019595319872885,0.0019595461965662,-0.0019595372357199,0.0019595408077068,-0.0015625554384569,0.0015625803581923,-0.0015625711499448,0.0015625643915367,-0.001562573811956,0.0015625614948999,-0.001562561807362,0.0015625737894756,9.2338899014982e-10,1.3031283784917e-09,-0.00090122222381818,0.00090122441331686,-6.762645545703e-09,9.2916694726395e-09,-0.00109513122028,0.001095127867534,-0.0010951259141185,0.0010951331856147,-0.0010951310878621,0.0010951279864639,-0.0010951257837019,0.001095133308137,-0.00090789114695655,0.00090789906204983,-0.00090789150037461,0.00090789867810864,0.71361056010341,128566,2924,0.0037519872857604,0.0073619496391864,0.0037519872856198,37.827197862167,6.2617582897338e-05,6.2617582897338e-05,6.2617582897338e-05,4399660.6086255,0.014978447598274
36419200,0.9992891014528,0.015215628490567,0.0041852865636347,0.0068450553628082,0.004185286564124,-0.00090060287541244,0.00090060178244925,-3.737235639796e-10,-7.3865465292241e-10,5.4765865179731e-09,-6.8172690190522e-09,-0.0010945620333087,0.0010945651490525,-0.0010945621760898,0.0010945650478315,-0.001094565996168,0.001094561094233,-0.0010945661193903,0.0010945609749531,-0.00090729821188719,0.00090729336666845,-0.00090729854850034,0.0009072929871171,-3.5646637470871e-09,8.7641495166012e-09,1.0696188100502e-08,-5.7100146025616e-09,-0.0017738957763811,0.0017739007542347,-0.001959003606317,0.0019590098587961,-0.0019590089388373,0.0019590043809477,-0.0019589996203719,0.0019590139236514,-0.0019590049523098,0.001959008446636,-0.0015620199349219,0.0015620451173733,-0.0015620358704781,0.0015620288564206,-0.0015620384978835,0.0015620260702135,-0.0015620264761805,0.0015620383920309,9.3451262163383e-10,1.3166539599213e-09,-0.00090060122096145,0.00090060343734616,-6.8804517227169e-09,9.454464437241e-09,-0.0010945652957785,0.001094561870829,-0.0010945598961449,0.0010945672820501,-0.0010945651619641,0.0010945619908444,-0.0010945597649601,0.001094567404981,-0.00090729177512368,0.00090729980424593,-0.0009072921306913,0.00090729941840701,0.70434020872281,128566,2924,0.0037494120029458,0.007359780094227,0.0037494120037669,37.4959315477,5.9967452381598e-05,5.9967452381598e-05,5.9967452381598e-05,4387067.9686375,0.014971018400658
36619200,0.99933850010857,0.015216328180874,0.004185476940003,0.0068453743003788,0.0041854769404921,-0.00089998921268602,0.00089998811949185,-3.7258023743501e-10,-7.3995110766375e-10,5.4802543827551e-09,-6.8218707115325e-09,-0.0010939574136641,0.0010939605325264,-0.0010939575580601,0.0010939604315862,-0.0010939613789259,0.0010939564750422,-0.0010939615038467,0.0010939563557109,-0.00090668232155668,0.00090667747796605,-0.00090668266950268,0.00090667710320555,-3.5710190104087e-09,8.7663127727505e-09,1.0774034097125e-08,-5.7903894863406e-09,-0.001773312961255,0.0017733179381005,-0.0019584278954464,0.0019584341981932,-0.0019584332785383,0.0019584286662662,-0.001958423906809,0.00195843826588,-0.0019584292894055,0.0019584327347429,-0.0015614241027222,0.0015614494436385,-0.0015614401747886,0.0015614330027264,-0.0015614427820563,0.0015614302900467,-0.0015614307522043,0.001561442622697,9.389248822706e-10,1.3235126833906e-09,-0.00089998755078984,0.00089998978114279,-6.9488399683559e-09,9.5480380957439e-09,-0.0010939606988699,0.0010939572309411,-0.0010939552456403,0.0010939626955739,-0.0010939605641132,0.001093957351794,-0.0010939551134956,0.0010939628192937,-0.00090667585266549,0.0009066839432405,-0.00090667621240769,0.00090668355590985,0.666752817919,128566,2924,0.0037468651637676,0.0073573689861747,0.0037468651631883,37.157523123484,5.7260184987874e-05,5.7260184987874e-05,5.7260184987874e-05,4376954.4666715,0.014963400835297
36819200,0.99938366070642,0.015216949935882,0.0041856454772223,0.0068456589809485,0.0041856454777111,-0.00089941921472014,0.00089941812103129,-3.7172505433049e-10,-7.4141166959646e-10,5.4790333213261e-09,-6.8223445802032e-09,-0.001093281669984,0.0010932847894803,-0.0010932818155596,0.0010932846881143,-0.0010932856349736,0.0010932807321208,-0.0010932857609575,0.0010932806124665,-0.00090604883936062,0.00090604399779551,-0.0009060491902408,0.00090604362151726,-3.570845091016e-09,8.7654036439355e-09,1.0807459493649e-08,-5.824104824419e-09,-0.0017726309722761,0.001772635949001,-0.0019578122988224,0.0019578186240975,-0.0019578177029716,0.0019578130688523,-0.0019578083107473,0.0019578226914845,-0.0019578137143112,0.0019578171371698,-0.0015607067697419,0.0015607321763881,-0.0015607228971733,0.0015607156589431,-0.0015607254909581,0.0015607129779428,-0.0015607134645436,0.0015607253128398,9.4031466795515e-10,1.3272562329799e-09,-0.0008994175497901,0.00089941978592767,-6.973786986771e-09,9.5840709872818e-09,-0.0010932849638408,0.0010932814788099,-0.0010932794904166,0.0010932869635269,-0.0010932848282562,0.0010932816002971,-0.0010932793572845,0.0010932870880103,-0.00090604235871987,0.000906050476502,-0.00090604272094243,0.0009060500862067,0.64957834666441,128566,2924,0.0037444949784377,0.0073545538873507,0.0037444949783104,36.818858268575,5.4550866148599e-05,5.4550866148599e-05,5.4550866148599e-05,4374410.6339488,0.014955728989819
37019200,0.99942617625107,0.015217575642023,0.0041858170767842,0.0068459414879668,0.0041858170772725,-0.00089980083652152,0.00089979974408447,-3.7002557922255e-10,-7.4221697281388e-10,5.4612656827954e-09,-6.8069592540967e-09,-0.0010935659958517,0.0010935691074789,-0.0010935661432319,0.0010935690064426,-0.0010935699487366,0.0010935650603698,-0.0010935700775596,0.0010935649419834,-0.00090638319207553,0.00090637836877508,-0.00090638355850294,0.000906377999923,-3.5600644321812e-09,8.7422036525028e-09,1.0667239076933e-08,-5.6920855885748e-09,-0.0017729860561939,0.001772991028156,-0.0019582624620053,0.0019582687093483,-0.0019582677778516,0.0019582632424057,-0.0019582584853264,0.0019582727655159,-0.0019582638004804,0.0019582672997188,-0.0015609897240689,0.001561014849355,-0.0015610055356253,0.0015609985412677,-0.0015610082586027,0.0015609958589567,-0.0015609962714148,0.001561008172957,9.2975506827712e-10,1.3192615217717e-09,-0.00089979917965779,0.00089980140082099,-6.8388102666584e-09,9.4570228218194e-09,-0.001093569251332,0.0010935658318097,-0.0010935638648769,0.0010935712290401,-0.001093569114686,0.0010935659539324,-0.001093563730126,0.0010935713543894,-0.00090637677504419,0.00090638478113154,-0.00090637714248638,0.00090638438750642,0.68961816542264,128566,2924,0.0037460766337745,0.0073560264106495,0.0037460766335434,37.016416707763,5.6131333662101e-05,5.6131333662101e-05,5.6131333662101e-05,4385486.3438214,0.014960431131475
37219200,0.99946644094971,0.015218209693573,0.0041859926358483,0.0068462244213885,0.0041859926363366,-0.00090036844197528,0.0009003673532687,-3.670589371529e-10,-7.4135932177222e-10,5.4452425897053e-09,-6.7853892895149e-09,-0.0010941852502449,0.0010941883534768,-0.0010941853971027,0.001094188250472,-0.0010941891909759,0.0010941843188436,-0.0010941893194771,0.0010941841986948,-0.00090697971418895,0.00090697490737442,-0.00090698007561252,0.0009069745307672,-3.5398314356971e-09,8.7252848861831e-09,1.049304352537e-08,-5.5162020773424e-09,-0.0017737113844585,0.0017737163565038,-0.0019590136361174,0.0019590197784881,-0.0019590188394232,0.0019590144298226,-0.0019590096712238,0.0019590238222221,-0.0019590148739507,0.0019590184745801,-0.0015616675027142,0.0015616922710683,-0.0015616829972308,0.0015616763377514,-0.0015616857796833,0.0015616735349161,-0.001561673827371,0.001561685807074,9.1309782162436e-10,1.3047255337222e-09,-0.00090036680386817,0.00090036899145429,-6.6872968588184e-09,9.2560234480726e-09,-0.001094188458666,0.0010941851254961,-0.0010941831889815,0.0010941904062207,-0.0010941883214464,0.0010941852484795,-0.0010941830538911,0.0010941905322514,-0.00090697337708988,0.00090698124225468,-0.0009069737451045,0.00090698084675959,0.73362544131907,128566,2924,0.0037484360641026,0.0073590226699913,0.0037484360642533,37.343366861045,5.8746934888359e-05,5.8746934888359e-05,5.8746934888359e-05,4390525.2234745,0.014968262672134
37419200,0.99950452924178,0.01521876705657,0.0041861451623219,0.0068464767314386,0.0041861451628098,-0.00090089325523111,0.00090089216947465,-3.6451517223082e-10,-7.4096032578343e-10,5.4316090057112e-09,-6.7671280457657e-09,-0.0010948902714404,0.0010948933674581,-0.0010948904179287,0.0010948932625609,-0.0010948942018158,0.0010948893433402,-0.0010948943301476,0.0010948892215755,-0.00090759906361804,0.00090759427062004,-0.00090759942067791,0.00090759388680604,-3.5225064132588e-09,8.7107224982893e-09,1.0327087445744e-08,-5.3488388249396e-09,-0.00177454338458,0.0017745483566312,-0.0019597994029456,0.0019598054442967,-0.0019598044990338,0.0019598002080457,-0.0019597954482046,0.0019598094773167,-0.0019598005437707,0.0019598042420618,-0.0015624847102107,0.0015625091397633,-0.0015624999007675,0.001562493561432,-0.0015625027453225,0.0015624906440829,-0.0015624908223362,0.0015625028801548,8.9787969795222e-10,1.2916056170404e-09,-0.00090089163405002,0.00090089379093669,-6.5424979961772e-09,9.066673801066e-09,-0.0010948934350767,0.0010948901847309,-0.0010948882761542,0.0010948953548814,-0.0010948932972712,0.001094890308528,-0.0010948881406289,0.0010948954816122,-0.00090759280024429,0.00090760053287467,-0.00090759316895757,0.00090760013515165,0.68665559997116,128566,2924,0.0037506227211411,0.0073624534693961,0.0037506227216808,37.67344084418,6.1387526753443e-05,6.1387526753443e-05,6.1387526753443e-05,4387244.0971737,0.014976188012447
37619200,0.99954050968014,0.015219274694554,0.0041862833165031,0.0068467080610607,0.0041862833169905,-0.00090145245333154,0.00090145137006668,-3.6215524457131e-10,-7.4081702070685e-10,5.4225261607171e-09,-6.7544593501386e-09,-0.0010954960221141,0.0010954991137122,-0.0010954961684766,0.00109549900718,-0.0010954999450987,0.001095495096548,-0.0010955000738783,0.0010954949737161,-0.00090818620922344,0.00090818142798531,-0.00090818656823284,0.00090818104193177,-3.5120048410746e-09,8.6994511392687e-09,1.0189225588329e-08,-5.2118518599738e-09,-0.0017752629124363,0.0017752678835743,-0.0019605430593906,0.0019605490167131,-0.0019605480675497,0.0019605438728845,-0.0019605391115184,0.0019605530423334,-0.0019605441191194,0.001960547899483,-0.0015631542048506,0.001563178356214,-0.0015631691349232,0.0015631630576643,-0.0015631720492508,0.0015631600591696,-0.0015631601455026,0.0015631722713766,8.8509561042011e-10,1.2810488804992e-09,-0.0009014508453608,0.00090145297806655,-6.4209593090712e-09,8.9146931885457e-09,-0.0010954991493387,0.0010954959669046,-0.0010954940811169,0.0010955010464273,-0.001095499010899,0.0010954960915457,-0.0010954939449481,0.0010955011739547,-0.00090818000646351,0.00090818762763775,-0.00090818037751634,0.0009081872281615,0.66415286812935,128566,2924,0.0037529471059978,0.0073654256969272,0.0037529471060063,38.003627442743,6.4029019541942e-05,6.4029019541942e-05,6.4029019541942e-05,4393340.2673241,0.014983923738136
37819200,0.9995735348124,0.015219721970222,0.0041864042097958,0.0068469135501434,0.004186404210283,-0.00090111750917561,0.00090111642594871,-3.610302197838e-10,-7.4175531740513e-10,5.4300171501556e-09,-6.7594350734278e-09,-0.0010950885126772,0.0010950916085508,-0.0010950886586727,0.0010950915001152,-0.0010950924404403,0.0010950875875648,-0.0010950925684834,0.0010950874625476,-0.00090780321886452,0.00090779843276961,-0.00090780356900196,0.00090779803607704,-3.5142729232568e-09,8.7100365932432e-09,1.0202769734917e-08,-5.2201107839047e-09,-0.0017748614909069,0.0017748664650144,-0.0019602006825171,0.0019602066424271,-0.0019602056984758,0.0019602014932417,-0.0019601967301637,0.0019602106722765,-0.0019602017456595,0.0019602055239002,-0.0015627137720517,0.0015627379504585,-0.0015627287595253,0.0015627226734292,-0.0015627316292338,0.0015627196260614,-0.001562719709354,0.0015627318426193,8.8395795703677e-10,1.2818871914372e-09,-0.00090111590322144,0.00090111803228195,-6.4399668819912e-09,8.9118944987763e-09,-0.0010950916456729,0.0010950884578316,-0.0010950865719772,0.0010950935431596,-0.001095091506699,0.0010950885832921,-0.0010950864356413,0.0010950936713358,-0.00090779700839669,0.00090780464371602,-0.00090779737910489,0.00090780424249797,0.64016142272554,128566,2924,0.0037515538227914,0.0073637696265233,0.0037515538234614,37.80398012949,6.2431841035922e-05,6.2431841035922e-05,6.2431841035922e-05,4393025.8317985,0.014979412147395
38019200,0.99960380056009,0.015220150228102,0.0041865208980075,0.0068471084316003,0.0041865208984945,-0.00090073727884712,0.00090073619390531,-3.6077532881687e-10,-7.4385607346681e-10,5.4377582094877e-09,-6.7702860058216e-09,-0.0010945531821257,0.0010945562835766,-0.0010945533297073,0.0010945561749873,-0.0010945571157641,0.0010945522561505,-0.0010945572453663,0.0010945521313915,-0.00090733260617708,0.00090732781617728,-0.00090733296490931,0.00090732742237368,-3.5251696331345e-09,8.7168986532003e-09,1.0238812791533e-08,-5.2584869444805e-09,-0.0017743022597059,0.0017743072330213,-0.0019597380353757,0.0019597440156318,-0.0019597430754964,0.0019597388405031,-0.0019597340775468,0.0019597480512904,-0.0019597391168732,0.0019597428773656,-0.0015621052364177,0.0015621294938099,-0.0015621202764573,0.0015621141183207,-0.0015621231612591,0.001562111111574,-0.001562111224617,0.0015621233500257,8.8685977177803e-10,1.2871626563185e-09,-0.00090073566692759,0.00090073780593117,-6.4713804208291e-09,8.9646386395525e-09,-0.0010945563278733,0.0010945531191171,-0.0010945512265095,0.0010945582319128,-0.001094556188172,0.0010945532451675,-0.0010945510889705,0.0010945583610598,-0.00090732637505065,0.00090733404423276,-0.00090732674958108,0.00090733364013994,0.66569814559024,128566,2924,0.0037499692970879,0.0073614653331865,0.003749969297237,37.55961547392,6.047692379136e-05,6.047692379136e-05,6.047692379136e-05,4396229.4882032,0.014973852567962
38219200,0.99963156186169,0.015220546308633,0.004186628971596,0.0068472883649543,0.0041866289720827,-0.00090033210374542,0.00090033101698833,-3.6054510516438e-10,-7.4589598235562e-10,5.4450588745732e-09,-6.7805400284212e-09,-0.0010940786647655,0.0010940817711789,-0.0010940788134168,0.001094081662381,-0.0010940826039777,0.0010940777379882,-0.0010940827348176,0.0010940776127921,-0.00090688081706147,0.00090687602253592,-0.00090688118136617,0.0009068756289841,-3.5346564069084e-09,8.7253380064426e-09,1.0287233411198e-08,-5.3072385080949e-09,-0.0017738044380933,0.0017738094116054,-0.00195928862448,0.0019592946316182,-0.0019592936956438,0.001959289423525,-0.0019592846608654,0.001959298673421,-0.0019592897313992,0.001959293466345,-0.0015615800236612,0.0015616043832575,-0.0015615951467216,0.0015615888985004,-0.0015615980249942,0.0015615859257172,-0.0015615860727663,0.0015615981848295,8.8999237054988e-10,1.2926134386488e-09,-0.00090033048604889,0.0009003326347417,-6.5102228076032e-09,9.0197349719498e-09,-0.0010940818248012,0.0010940785920451,-0.0010940766921705,0.0010940837359679,-0.001094081684133,0.001094078718844,-0.0010940765537945,0.0010940838657447,-0.00090687456347451,0.00090688227260379,-0.0009068749408911,0.0009068818665336,0.67076172443759,128566,2924,0.0037482843672233,0.0073594109078387,0.0037482843672866,37.3140693027,5.8512554421597e-05,5.8512554421597e-05,5.8512554421597e-05,4393580.8935818,0.014968345292636
38419200,0.99965722054987,0.015220937697042,0.0041867369059368,0.0068474638846823,0.0041867369064233,-0.00090014650750723,0.00090014541955225,-3.6003369912939e-10,-7.4767320812389e-10,5.4482507730703e-09,-6.78625314336e-09,-0.0010938548730634,0.001093857982397,-0.0010938550229329,0.001093857873305,-0.0010938588149857,0.001093853946109,-0.0010938589471463,0.001093853820777,-0.00090666870267341,0.00090666390724473,-0.00090666907257994,0.00090666351401317,-3.5402750315573e-09,8.7285385142576e-09,1.0312694595788e-08,-5.3341074627961e-09,-0.0017735766053803,0.0017735815783656,-0.0019590972364959,0.0019591032587257,-0.0019591023243866,0.0019590980323543,-0.0019590932701847,0.0019591073035177,-0.0019590983573831,0.0019591020782655,-0.0015613248037545,0.0015613492176642,-0.0015613399632886,0.0015613336641457,-0.0015613428473224,0.0015613307202607,-0.0015613308884825,0.0015613429920093,8.9176027609121e-10,1.2967102112328e-09,-0.00090014488575477,0.00090014704140758,-6.5302899132434e-09,9.0544621627969e-09,-0.0010938580411916,0.0010938547944507,-0.0010938528904212,0.001093859956373,-0.0010938578996816,0.0010938549219162,-0.0010938527510327,0.0010938600869277,-0.00090666243658923,0.00090667016968528,-0.00090666281702377,0.00090666976108549,0.71253733045584,128566,2924,0.0037475124099868,0.0073584712321265,0.0037475124101689,37.1964818344,5.7571854675201e-05,5.7571854675201e-05,5.7571854675201e-05,4392276.599042,0.014965823642643
38619200,0.99968108918625,0.01522130381755,0.0041868379322685,0.0068476279525271,0.0041868379327548,-0.00090011912324429,0.00090011803477153,-3.592094907845e-10,-7.4912221603416e-10,5.4478615317922e-09,-6.7872389510678e-09,-0.0010939255691875,0.0010939286792442,-0.0010939257200643,0.0010939285697516,-0.00109392951108,0.0010939246427328,-0.0010939296444475,0.0010939245170041,-0.00090668773124446,0.00090668293801795,-0.00090668810480089,0.00090668254298733,-3.5418319921697e-09,8.7278816886172e-09,1.0317665582811e-08,-5.3406012407098e-09,-0.0017736785770752,0.0017736835492532,-0.0019591661522849,0.0019591721782031,-0.0019591712437078,0.0019591669474845,-0.0019591621857334,0.0019591762234047,-0.0019591672765836,0.0019591709937702,-0.0015614260813753,0.0015614505065183,-0.0015614412428159,0.0015614349298768,-0.0015614441340366,0.0015614320007514,-0.0015614321760844,0.0015614442758686,8.9192061034936e-10,1.299180278807e-09,-0.00090011749980192,0.0009001196585923,-6.532850005152e-09,9.0649407281306e-09,-0.0010939287391466,0.0010939254889035,-0.0010939235840169,0.0010939306551179,-0.0010939285967737,0.0010939256171409,-0.0010939234437641,0.0010939307863972,-0.00090668146296241,0.00090668920414912,-0.00090668184571627,0.00090668879302983,0.71625966799366,128566,2924,0.0037474026299649,0.0073588883155319,0.0037474026307339,37.193711773921,5.7549694191372e-05,5.7549694191372e-05,5.7549694191372e-05,4385088.3692425,0.014966026844909
38819200,0.99970329595642,0.015221645670105,0.0041869323229015,0.0068477810238158,0.0041869323233877,-0.00090009224381571,0.00090009115584179,-3.5779903967612e-10,-7.4989538719625e-10,5.448104920844e-09,-6.785936557855e-09,-0.001093999404243,0.0010940025149013,-0.0010939995552035,0.0010940024039611,-0.0010940033460168,0.0010939984787446,-0.001094003479703,0.0010939983519241,-0.00090670971367445,0.00090670492246406,-0.0009067100864207,0.00090670452337724,-3.5394097715199e-09,8.7294889466343e-09,1.0326879490273e-08,-5.3469983549882e-09,-0.0017737880881285,0.0017737930618112,-0.0019592384753105,0.0019592445061803,-0.0019592435716308,0.001959239271149,-0.0019592345088867,0.0019592485509457,-0.0019592396045875,0.001959243317022,-0.001561539494027,0.0015615639353359,-0.0015615546856224,0.0015615483616683,-0.0015615575525065,0.0015615454181582,-0.0015615455937068,0.0015615576888518,8.905808473407e-10,1.2999682117725e-09,-0.00090009062131997,0.00090009277860821,-6.5425464745197e-09,9.0657045646185e-09,-0.0010940025768275,0.0010939993226733,-0.0010939974181853,0.0010940044928406,-0.0010940024338104,0.0010939994516109,-0.0010939972773416,0.0010940046247286,-0.00090670344275985,0.00090671119099534,-0.00090670382694823,0.00090671077840771,0.71844600401657,128566,2924,0.0037472950363646,0.0073593362986468,0.0037472950368836,37.193612368774,5.7548898950196e-05,5.7548898950196e-05,5.7548898950196e-05,4378081.6192352,0.014966265785167
38880000,0.99970989665577,0.015221747416933,0.0041869604306797,0.0068478265550875,0.0041869604311658,-0.00090008011838191,0.00090007903082714,-3.5723335323502e-10,-7.5000203460593e-10,5.4479845868804e-09,-6.7849179897363e-09,-0.0010940214941095,0.0010940246048105,-0.0010940216454097,0.0010940244938105,-0.0010940254356409,0.0010940205692296,-0.0010940255691898,0.001094020441746,-0.00090671793276225,0.00090671314270585,-0.00090671830526701,0.00090671274241339,-3.5387546419454e-09,8.7289191574527e-09,1.032937741061e-08,-5.3496370297903e-09,-0.0017738232310181,0.0017738282044637,-0.0019592601687919,0.0019592662013204,-0.0019592652669792,0.0019592609646596,-0.001959256202731,0.0019592702457717,-0.0019592613003716,0.0019592650100753,-0.0015615768321899,0.0015616012776232,-0.0015615920323228,0.0015615857029372,-0.001561594893165,0.0015615827582656,-0.001561582934741,0.0015615950265712,8.9016067695235e-10,1.3002141424603e-09,-0.00090007849625485,0.00090008065315985,-6.5457318180332e-09,9.0667625509871e-09,-0.0010940246676099,0.0010940214120906,-0.0010940195075659,0.0010940265834012,-0.00109402452438,0.0010940215413442,-0.001094019366665,0.0010940267155791,-0.00090671166097102,0.00090671941168091,-0.00090671204573014,0.00090671899842387,0.71909630696035,128566,2924,0.0037472460560662,0.0073594799345319,0.0037472460564447,37.193608884235,5.754887107388e-05,5.754887107388e-05,5.754887107388e-05,4375799.9143759,0.014966312984429
