time,ASR_ext,ASR_strain,ASR_strain_xx,ASR_strain_yy,ASR_strain_zz,disp_x_101,disp_x_102,disp_x_103,disp_x_104,disp_x_105,disp_x_106,disp_x_p10_neg,disp_x_p10_pos,disp_x_p11_neg,disp_x_p11_pos,disp_x_p12_neg,disp_x_p12_pos,disp_x_p13_neg,disp_x_p13_pos,disp_x_p14_neg,disp_x_p14_pos,disp_x_p15_neg,disp_x_p15_pos,disp_x_p16_neg,disp_x_p16_pos,disp_x_p1_neg,disp_x_p1_pos,disp_x_p2_neg,disp_x_p2_pos,disp_x_p3_neg,disp_x_p3_pos,disp_x_p4_neg,disp_x_p4_pos,disp_x_p5_neg,disp_x_p5_pos,disp_x_p6_neg,disp_x_p6_pos,disp_x_p7_neg,disp_x_p7_pos,disp_x_p8_neg,disp_x_p8_pos,disp_x_p9_neg,disp_x_p9_pos,disp_y_101,disp_y_102,disp_y_103,disp_y_104,disp_y_105,disp_y_106,disp_y_p10_neg,disp_y_p10_pos,disp_y_p11_neg,disp_y_p11_pos,disp_y_p12_neg,disp_y_p12_pos,disp_y_p1_neg,disp_y_p1_pos,disp_y_p2_neg,disp_y_p2_pos,disp_y_p3_neg,disp_y_p3_pos,disp_y_p4_neg,disp_y_p4_pos,disp_y_p5_neg,disp_y_p5_pos,disp_y_p6_neg,disp_y_p6_pos,disp_y_p7_neg,disp_y_p7_pos,disp_y_p8_neg,disp_y_p8_pos,disp_y_p9_neg,disp_y_p9_pos,disp_z_101,disp_z_102,disp_z_103,disp_z_104,disp_z_105,disp_z_106,disp_z_p10_neg,disp_z_p10_pos,disp_z_p11_neg,disp_z_p11_pos,disp_z_p12_neg,disp_z_p12_pos,disp_z_p13_neg,disp_z_p13_pos,disp_z_p14_neg,disp_z_p14_pos,disp_z_p15_neg,disp_z_p15_pos,disp_z_p16_neg,disp_z_p16_pos,disp_z_p1_neg,disp_z_p1_pos,disp_z_p2_neg,disp_z_p2_pos,disp_z_p3_neg,disp_z_p3_pos,disp_z_p4_neg,disp_z_p4_pos,disp_z_p5_neg,disp_z_p5_pos,disp_z_p6_neg,disp_z_p6_pos,disp_z_p7_neg,disp_z_p7_pos,disp_z_p8_neg,disp_z_p8_pos,disp_z_p9_neg,disp_z_p9_pos,humidity,ndof,nelem,strain_xx,strain_yy,strain_zz,temp,thermal_strain_xx,thermal_strain_yy,thermal_strain_zz,vonmises,vstrain
14391759,0,0,0,0,0,0,0,0,0,0,0,0,0,0,0,0,0,0,0,0,0,0,0,0,0,0,0,0,0,0,0,0,0,0,0,0,0,0,0,0,0,0,0,0,0,0,0,0,0,0,0,0,0,0,0,0,0,0,0,0,0,0,0,0,0,0,0,0,0,0,0,0,0,0,0,0,0,0,0,0,0,0,0,0,0,0,0,0,0,0,0,0,0,0,0,0,0,0,0,0,0,0,0,0,0,0,0,0,0,0,0,0,0,0,0,0,0,0,0,0,0,0,0
14591759,0.019278780930324,0.0003389213918399,0.00011297379727997,0.00011297379727997,0.00011297379727997,-2.9150821904013e-05,2.9150111711648e-05,-3.4751226310701e-10,-3.5815263183506e-10,6.9054660206392e-10,-1.4303583443892e-09,-2.5487512890974e-05,2.5484669094551e-05,-2.8088590234007e-05,2.8085768114784e-05,-2.8088607339526e-05,2.808577820587e-05,-2.5485427447108e-05,2.548683252282e-05,-2.5485370316852e-05,2.5486754235978e-05,-2.8086544991783e-05,2.808790824391e-05,-2.8086517483329e-05,2.8087873576902e-05,-3.0292626992e-05,3.0292621152715e-05,-3.0292613873937e-05,3.0292600952397e-05,-3.0293294635413e-05,3.0291903366378e-05,-3.0293301377365e-05,3.0291903015048e-05,-2.8401564071862e-05,2.8400166690989e-05,-2.8401567502513e-05,2.8400149356371e-05,-2.8400884235032e-05,2.8400899150524e-05,-2.8400845872742e-05,2.8400839852186e-05,-2.5487481348629e-05,2.548465802389e-05,-6.9423771705289e-10,1.4281969906147e-09,-4.8365654717044e-09,5.5378973867715e-09,-3.0128875943792e-05,3.0129581290304e-05,-2.917293375966e-05,2.9183102374207e-05,-2.9312086311773e-05,2.9307277288009e-05,-2.93100195802e-05,2.9309399767702e-05,-3.0459215385968e-05,3.0455814387543e-05,-3.0455884138248e-05,3.0459294228814e-05,-3.0458537758409e-05,3.0456523221049e-05,-3.0455206544154e-05,3.0460003060911e-05,-2.918228089563e-05,2.9173507617132e-05,-2.9172232259474e-05,2.9183814387557e-05,-2.9308671695758e-05,2.9310743521825e-05,-2.9306604886783e-05,2.9312866061949e-05,-2.9182982326606e-05,2.9172795680501e-05,-1.7108493323303e-09,-1.7002597771266e-09,-2.8758415365076e-05,2.8754983746239e-05,3.3520597370332e-09,-6.9249669198065e-09,-2.69199901194e-05,2.6906304864622e-05,-2.732810489378e-05,2.7314450830505e-05,-2.7328109765842e-05,2.7314448580729e-05,-2.6909771289001e-05,2.6916503679766e-05,-2.6909786270685e-05,2.6916498178198e-05,-2.7317979004679e-05,2.7324565201534e-05,-2.7317984440334e-05,2.7324563627564e-05,-2.9854890376017e-05,2.9854903441371e-05,-2.9858301507173e-05,2.985149503102e-05,-2.9854885474179e-05,2.9854905605433e-05,-2.9858296487373e-05,2.985149707286e-05,-2.844582039626e-05,2.8438997830978e-05,-2.8445837495591e-05,2.8438994150303e-05,-2.8442394616832e-05,2.8442431706531e-05,-2.8442378614559e-05,2.8442436390177e-05,-2.6919974649882e-05,2.6906310417229e-05,0.7064200497207,128566,2924,0.0001214528327265,0.00012553047290611,0.00011981231821373,31.348758508022,1.0790068064178e-05,1.0790068064178e-05,1.0790068064178e-05,592615.21424002,0.00036686328304493
14791759,0.038360791735861,0.00066483633003741,0.00022135406107684,0.00022310973568855,0.00022037253327201,-5.4101657724198e-05,5.4102430825495e-05,3.9946370536848e-10,3.7013304351588e-10,-6.7102053354985e-10,1.462735250455e-09,-4.5512767816794e-05,4.5515643492095e-05,-5.1422857982783e-05,5.1425756573225e-05,-5.1422850596374e-05,5.1425733052918e-05,-4.5514831825597e-05,4.5513522691103e-05,-4.5514921691966e-05,4.5513544097629e-05,-5.1424922878776e-05,5.1423614876212e-05,-5.1424958432799e-05,5.1423627543527e-05,-5.7498716221017e-05,5.7498796148674e-05,-5.7498744509029e-05,5.7498803797326e-05,-5.7498036840177e-05,5.7499515270224e-05,-5.749804554589e-05,5.7499505507044e-05,-5.2159495208472e-05,5.2160998947085e-05,-5.2159531976196e-05,5.2160981608104e-05,-5.2160179959976e-05,5.2160267942422e-05,-5.2160258342392e-05,5.2160285470331e-05,-4.5512767063627e-05,4.5515689199384e-05,7.0224750179513e-10,-1.4243219244374e-09,5.8362542682931e-09,-6.5348677951312e-09,-5.6342949501644e-05,5.6342247533916e-05,-5.3928418408337e-05,5.3916289883682e-05,-5.4314875074868e-05,5.4320364642435e-05,-5.4316956653321e-05,5.4318246315867e-05,-5.7922028666618e-05,5.7926101848882e-05,-5.7926033604195e-05,5.7921960836798e-05,-5.7922715692145e-05,5.7925392317202e-05,-5.7926719539374e-05,5.792125238119e-05,-5.3917098816727e-05,5.3927831354938e-05,-5.3929120437197e-05,5.3915580508665e-05,-5.4318961215392e-05,5.431623728412e-05,-5.4321039480256e-05,5.4314122245987e-05,-5.3916393409056e-05,5.3928544119924e-05,2.1348867959211e-09,2.1634232542452e-09,-5.3100066707753e-05,5.3104384742589e-05,-3.9235606871039e-09,8.3605414398631e-09,-4.8400503607758e-05,4.8416982358714e-05,-4.9595024801117e-05,4.9611528906944e-05,-4.959503519582e-05,4.9611517003841e-05,-4.84126429091e-05,4.8404855140175e-05,-4.8412663887486e-05,4.8404830916402e-05,-4.9607123219572e-05,4.9599438637126e-05,-4.9607130668713e-05,4.959943028805e-05,-5.6385703321805e-05,5.6385906055878e-05,-5.6381623384076e-05,5.6389983426317e-05,-5.6385695096325e-05,5.6385915763943e-05,-5.6381614287434e-05,5.6389994440936e-05,-5.2263507085616e-05,5.2271925694805e-05,-5.2263531705617e-05,5.2271891195978e-05,-5.226763767075e-05,5.2267788947516e-05,-5.2267615501392e-05,5.2267819372732e-05,-4.8400473902854e-05,4.8417019140807e-05,0.70581020537712,128566,2924,0.00022539938593986,0.00023473266888571,0.0002212343401885,31.086531070542,8.6922485643327e-06,8.6922485643327e-06,8.6922485643327e-06,1208044.8469946,0.00068160096546085
14991759,0.05623161505679,0.00096125351321105,0.00031988228559195,0.00032421524685483,0.00031715598076427,-7.5747306468253e-05,7.5748556475533e-05,6.5501831551876e-10,5.9109419943291e-10,-1.1220048504117e-09,2.4095362859124e-09,-6.1464945236535e-05,6.1469624824789e-05,-7.0599564932308e-05,7.0604352010525e-05,-7.059956357448e-05,7.0604295301575e-05,-6.146832411935e-05,6.1466130539964e-05,-6.1468516918196e-05,6.1466238891878e-05,-7.0602988417503e-05,7.0600797102388e-05,-7.0603065411811e-05,7.0600844507359e-05,-8.1754093252994e-05,8.1754198542029e-05,-8.1754154947826e-05,8.1754221913915e-05,-8.1752984392602e-05,8.1755401210091e-05,-8.1752997947139e-05,8.1755368365311e-05,-7.3175424790954e-05,7.3177910431759e-05,-7.3175483311504e-05,7.3177830406795e-05,-7.317654671587e-05,7.3176667142402e-05,-7.3176702223648e-05,7.3176710595541e-05,-6.1464918274598e-05,6.1469768621948e-05,1.2414140706486e-09,-2.2930643124483e-09,1.5107004476894e-08,-1.612462800115e-08,-7.9924611097637e-05,7.9923587999824e-05,-7.6784318814728e-05,7.6753846708719e-05,-7.7771594659675e-05,7.7784408366786e-05,-7.7775039867193e-05,7.7780889139051e-05,-8.2001700485655e-05,8.201208215871e-05,-8.2011724903525e-05,8.2001615213571e-05,-8.2002828194631e-05,8.2010904868248e-05,-8.2012856800961e-05,8.2000434376966e-05,-7.6755197780345e-05,7.678366128144e-05,-7.6785493507756e-05,7.6752655703105e-05,-7.7781882797124e-05,7.7773970974288e-05,-7.7785339490677e-05,7.7770439496942e-05,-7.6754035610092e-05,7.6784839127224e-05,5.2147670164979e-09,5.2456146870994e-09,-7.3986518115437e-05,7.3997019040548e-05,-1.0041278930367e-08,2.0915632327494e-08,-6.6183126075701e-05,6.6224404988781e-05,-6.7506448639577e-05,6.7547695281122e-05,-6.7506452515431e-05,6.7547689760616e-05,-6.6213756885706e-05,6.6193796806572e-05,-6.6213799682523e-05,6.6193742883266e-05,-6.7536923082679e-05,6.7517240480212e-05,-6.7536938508626e-05,6.7517223648766e-05,-7.9779373395835e-05,7.9779490541163e-05,-7.9769105595861e-05,7.9789758438831e-05,-7.9779362211801e-05,7.9779504032681e-05,-7.9769097697238e-05,7.9789767485744e-05,-7.3424761423481e-05,7.3445543598684e-05,-7.3424785832891e-05,7.3445519009623e-05,-7.3435134724786e-05,7.343516314207e-05,-7.3435105813618e-05,7.3435205774887e-05,-6.6183116585318e-05,6.6224414746555e-05,0.70496390457443,128566,2924,0.0003155659868441,0.0003329603047735,0.00030825075269096,30.085696615303,6.855729224214e-07,6.855729224214e-07,6.855729224214e-07,1328270.5790373,0.00095724039860517
15191759,0.072481197066484,0.0012117336706575,0.0004029715895762,0.00041066254564962,0.0003980995354317,-9.361898407555e-05,9.3620245479426e-05,6.6550627681176e-10,5.9572688218981e-10,-1.292389741921e-09,2.5909506088073e-09,-7.1528279568925e-05,7.1533332960571e-05,-8.4854847226666e-05,8.4859985022882e-05,-8.4854845453397e-05,8.4859939491502e-05,-7.1531984183036e-05,7.1529499400124e-05,-7.1532230842527e-05,7.152960468604e-05,-8.4858622037667e-05,8.4856103755783e-05,-8.4858696922141e-05,8.4856130577866e-05,-0.00010274683413729,0.00010274684109992,-0.00010274690356675,0.00010274686233341,-0.0001027456241578,0.00010274816486713,-0.00010274562451403,0.00010274811808714,-9.0365171167827e-05,9.0367787114956e-05,-9.0365160000388e-05,9.03676412029e-05,-9.0366378356875e-05,9.0366407748236e-05,-9.0366530820858e-05,9.0366421417044e-05,-7.1528285123992e-05,7.1533465567725e-05,1.4426114918268e-09,-2.4437703068108e-09,2.2203369582183e-08,-2.3177251446021e-08,-0.00010028308483283,0.00010028210817757,-9.6490509322667e-05,9.644629471539e-05,-9.8398315548554e-05,9.8416248548919e-05,-9.8402116321921e-05,9.8412377326554e-05,-0.00010251245517933,0.0001025276209024,-0.00010252699609202,0.00010251241713377,-0.00010251369206276,0.00010252632552981,-0.00010252823277589,0.00010251112347306,-9.6447747728018e-05,9.6490026284387e-05,-9.6491793750324e-05,9.6444991409075e-05,-9.8413294091803e-05,9.8401056803402e-05,-9.8417091397196e-05,9.8397186799334e-05,-9.6446460371101e-05,9.6491330387725e-05,6.8851426083648e-09,6.9472192980239e-09,-9.1055755553773e-05,9.1069616458536e-05,-1.5325772075936e-08,2.970929994978e-08,-7.905723032846e-05,7.9115778654243e-05,-8.0363023337395e-05,8.0421604525528e-05,-8.0363044081718e-05,8.0421578301512e-05,-7.9101695797561e-05,7.907132278069e-05,-7.9101748982704e-05,7.9071264475275e-05,-8.0407341645866e-05,8.0377290768499e-05,-8.0407363282407e-05,8.0377273577268e-05,-9.9833202050764e-05,9.9831954147232e-05,-9.9818275747124e-05,9.9846883134003e-05,-9.9833182133907e-05,9.9831973653131e-05,-9.9818254057058e-05,9.9846902590732e-05,-9.0991526854234e-05,9.1020386343247e-05,-9.0991601077759e-05,9.1020336216868e-05,-9.1006634039201e-05,9.1005283292771e-05,-9.1006578268678e-05,9.1005346170686e-05,-7.9057160074441e-05,7.9115845975372e-05,0.66036288246466,128566,2924,0.00039000503654449,0.00041775450928419,0.00037935485303952,28.683892476467,-1.052886018826e-05,-1.052886018826e-05,-1.052886018826e-05,1397749.4080909,0.0011878304398008
15391759,0.087214842302413,0.0014657370279566,0.00048713993798448,0.00049868936868875,0.00047990772128335,-0.00011135776433548,0.00011135905083265,6.8868204707627e-10,5.9810846036621e-10,-1.3396735068462e-09,2.6627587102588e-09,-8.3065770993164e-05,8.3070938164623e-05,-0.00010072755257995,0.00010073283863056,-0.00010072756169854,0.00010073278631707,-8.306956293177e-05,8.3067001845308e-05,-8.3069844919475e-05,8.3067113948727e-05,-0.00010073144349621,0.00010072884024792,-0.00010073152141068,0.00010072886016034,-0.00012265800945485,0.00012265800873275,-0.00012265808934322,0.00012265802783468,-0.00012265676682612,0.00012265937884732,-0.00012265676772225,0.0001226593179796,-0.00010828965538253,0.00010829235927753,-0.00010828965428802,0.00010829217843558,-0.00010829089016349,0.00010829092434488,-0.00010829107561708,0.0001082909340452,-8.3065757001351e-05,8.307110450491e-05,1.4717373418095e-09,-2.5328825029172e-09,2.7391111770742e-08,-2.8423350891277e-08,-0.00012048363407227,0.00012048259897031,-0.00011661390203341,0.00011655944387652,-0.00011917923954616,0.00011920069846338,-0.00011918315400619,0.00011919671725022,-0.00012226530641449,0.00012228389260656,-0.00012228324346231,0.00012226520579705,-0.00012226658080183,0.00012228255920461,-0.00012228451865406,0.0001222638726824,-0.00011656101064705,0.00011661341854046,-0.00011661522871795,0.00011655809909367,-0.0001191976809858,0.00011918202378194,-0.00011920159589663,0.00011917804019983,-0.00011655968479636,0.00011661476022932,7.9849385325894e-09,8.0632658739235e-09,-0.00010788440767505,0.00010790048815181,-1.9361568140731e-08,3.604701817955e-08,-9.3876648906502e-05,9.3947664279435e-05,-9.4435215677198e-05,9.4506263619166e-05,-9.4435238598963e-05,9.450623357512e-05,-9.3931325051822e-05,9.3892995622861e-05,-9.3931402451326e-05,9.3892915724215e-05,-9.4489716416165e-05,9.4451763382611e-05,-9.4489746490387e-05,9.4451739270968e-05,-0.00011874606625557,0.00011874355902369,-0.00011872769367696,0.00011876193418811,-0.00011874603982166,0.00011874358431473,-0.00011872766676991,0.00011876195826074,-0.00010924455694221,0.00010927910719888,-0.00010924464464392,0.00010927904278119,-0.00010926315103806,0.0001092605181398,-0.00010926307664262,0.00010926059775887,-9.3876571328028e-05,9.3947741068351e-05,0.73442856776357,128566,2924,0.0004638859082098,0.00050188435339565,0.00044945024871049,27.271107695512,-2.1831138435904e-05,-2.1831138435904e-05,-2.1831138435904e-05,1141620.1366063,0.0014162367347954
15591759,0.10074063450096,0.0017055753499458,0.00056669397032865,0.00058203493973867,0.00055684643987849,-0.00012758722975051,0.00012758838777461,6.3472770792517e-10,5.2491680595337e-10,-9.6115335045432e-10,2.147751577454e-09,-9.4190137246917e-05,9.4194265842783e-05,-0.00011534327580584,0.00011534755506605,-0.00011534330760449,0.00011534751005451,-9.4193048289775e-05,9.4191257676745e-05,-9.4193295892621e-05,9.4191304160881e-05,-0.0001153463119581,0.00011534446022828,-0.00011534636616873,0.00011534444591567,-0.00014081632142088,0.00014081649496745,-0.00014081638905157,0.00014081648954428,-0.00014081536355809,0.00014081756135271,-0.00014081536746369,0.00014081749002034,-0.00012473244983653,0.00012473474889877,-0.0001247324407293,0.00012473452102632,-0.00012473339832902,0.00012473362146841,-0.00012473355534318,0.00012473356665141,-9.4190092067343e-05,9.4194445403441e-05,1.0571019155783e-09,-2.0519896957263e-09,2.0998699810069e-08,-2.1968611717389e-08,-0.00013890592583603,0.00013890495276031,-0.00013508174214827,0.00013503965657768,-0.00013823840329359,0.00013825478207523,-0.00013824144255512,0.00013825169157491,-0.00014025725239997,0.00014027135352518,-0.00014027098372218,0.0001402569609527,-0.00014025823384339,0.00014027031987478,-0.0001402719665503,0.00014025592702613,-0.00013504106295883,0.00013508122687408,-0.00013508277459609,0.00013503860958003,-0.00013825260167888,0.00013824038626078,-0.00013825564271011,0.00013823729261399,-0.00013504003380102,0.00013508226770542,7.4709600399187e-09,7.5671307501093e-09,-0.00012314918276034,0.00012316423155276,-1.3525669234284e-08,2.9089311405037e-08,-0.00010752233524655,0.00010757964532086,-0.00010733782689567,0.00010739519730052,-0.00010733785549948,0.00010739516139129,-0.00010756436389628,0.00010753762345056,-0.00010756446351122,0.00010753752712843,-0.00010737973691789,0.0001073532881234,-0.00010737977519396,0.00010735325925393,-0.00013589201895985,0.00013589274527504,-0.00013587789952848,0.0001359068678044,-0.00013589198551721,0.00013589277594619,-0.00013587786655807,0.00013590689716002,-0.00012589250683756,0.00012592180809154,-0.0001258926121374,0.0001259217282109,-0.00012590685421476,0.00012590746721901,-0.00012590675918635,0.00012590756279708,-0.00010752224084143,0.00010757973665338,0.74589762236815,128566,2924,0.00053147570231668,0.00057860226026639,0.00051302129507194,26.025933792342,-3.1792529661263e-05,-3.1792529661263e-05,-3.1792529661263e-05,1144736.1835748,0.00162443452374
15791759,0.11394400861968,0.0019526081974789,0.00064863092914473,0.00066811889868962,0.00063585836964454,-0.0001455809666723,0.00014558215683644,6.5062094110553e-10,5.4112614112408e-10,-9.3757876039554e-10,2.1572973067136e-09,-0.00010810641345642,0.00010811059534278,-0.00013258304338013,0.00013258732951077,-0.00013258307256514,0.00013258730549813,-0.00010810932555997,0.00010810761432182,-0.00010810955585124,0.00010810757490009,-0.00013258607283605,0.00013258427885813,-0.00013258610968863,0.00013258422446878,-0.00016042139600465,0.00016042160924572,-0.00016042144922656,0.00016042158230906,-0.00016042043716507,0.00016042265838912,-0.0001604204358468,0.00016042258932351,-0.00014321963220906,0.0001432219475199,-0.00014321960165134,0.00014322172038026,-0.00014322057806125,0.0001432208489714,-0.00014322070757807,0.00014322074539221,-0.00010810638424956,0.00010811072132214,1.052823880034e-09,-2.0507097568569e-09,1.3943450691101e-08,-1.4919906156925e-08,-0.00015910884028965,0.00015910786405269,-0.00015552515649443,0.00015549688655084,-0.00015898569933001,0.00015899740014381,-0.00015898874246602,0.00015899430436551,-0.00015991020624545,0.00015991965459188,-0.00015991934647693,0.00015990997009887,-0.00015991118854303,0.00015991861863352,-0.00015992032342976,0.00015990894172991,-0.00015549822634521,0.00015552453131888,-0.00015552617342021,0.00015549585306288,-0.00015899525002429,0.00015898769628944,-0.00015899827423014,0.00015898461719495,-0.00015549718967348,0.00015552558322421,6.5887419972032e-09,6.7224757132011e-09,-0.00014003404391671,0.0001400473493032,-7.4367912094716e-09,2.1157598405624e-08,-0.00012375026046977,0.00012379188904134,-0.00012259561722918,0.00012263741113623,-0.00012259566800822,0.00012263735387548,-0.00012377840145903,0.00012376373415792,-0.00012377850673819,0.0001237636314582,-0.00012262373252966,0.0001226092851925,-0.00012262377148569,0.00012260925168355,-0.00015436442415153,0.00015436808015815,-0.00015435496904509,0.00015437753801363,-0.0001543643819704,0.00015436811997703,-0.000154354919735,0.00015437758313574,-0.00014447842392211,0.00014450137006066,-0.00014447857776481,0.00014450124343287,-0.0001444881300822,0.00014449167452014,-0.00014448800808443,0.00014449179566903,-0.00012375009882026,0.00012379204583701,0.78512883042395,128566,2924,0.00060640830082009,0.00066272874898588,0.00058333357821623,25.604319314395,-3.5165445484843e-05,-3.5165445484843e-05,-3.5165445484843e-05,1145989.5020629,0.0018542063451864
15991759,0.12684793283932,0.0021924078249991,0.00072809698091365,0.00075218249266244,0.00071212835142306,-0.00016313193461958,0.00016313316573157,6.8455784287118e-10,5.4782684308216e-10,-9.0103792141e-10,2.1634193094957e-09,-0.00012101507348355,0.00012101922717284,-0.00014934661370611,0.00014935092638082,-0.00014934666791182,0.0001493508994083,-0.00012101794523304,0.00012101631704554,-0.00012101814194469,0.00012101621920543,-0.00014934963424312,0.00014934791748315,-0.00014934965363293,0.00014934783752101,-0.00017963719447667,0.0001796374650055,-0.00017963723835362,0.00017963741494977,-0.00017963623574698,0.00017963849758065,-0.00017963624469677,0.00017963841800685,-0.00016124468130179,0.000161247058951,-0.00016124467143932,0.00016124678820421,-0.00016124563527055,0.00016124597775815,-0.00016124575027161,0.00016124581698916,-0.00012101498421164,0.00012101937577268,1.0384682128619e-09,-2.0326861604802e-09,7.8175554805169e-09,-8.7907478865833e-09,-0.00017901493451904,0.00017901396141222,-0.00017556232715245,0.00017554608132133,-0.00017935949918058,0.00017936709858154,-0.00017936250274835,0.0001793640376121,-0.00017925028895848,0.00017925568992227,-0.00017925544706666,0.00017925010263845,-0.00017925125884436,0.00017925466582287,-0.00017925641440641,0.00017924908242099,-0.00017554732703858,0.00017556162670815,-0.00017556333838126,0.00017554505363988,-0.00017936499256806,0.0001793614829653,-0.00017936798866464,0.00017935842881907,-0.00017554630765835,0.00017556266161292,5.6188453540027e-09,5.7625591904143e-09,-0.00015639808705488,0.00015640944786399,-2.3595795045311e-09,1.4037286849173e-08,-0.00013945053146911,0.00013947813866108,-0.00013726123771977,0.00013728902008172,-0.00013726128846561,0.00013728896491772,-0.00013946661482419,0.00013946204310079,-0.0001394667423941,0.00013946191407734,-0.00013727734342563,0.00013727290763239,-0.00013727738899771,0.00013727286496558,-0.00017235691510205,0.00017236269549361,-0.00017235151295988,0.00017236810090512,-0.00017235686770642,0.00017236274087766,-0.00017235146133454,0.00017236814803974,-0.0001625504693769,0.00016256742852819,-0.0001625506275237,0.00016256729732622,-0.00016255611162974,0.00016256179536071,-0.00016255597546935,0.00016256193210074,-0.00013945037434956,0.00013947828959219,0.77894718980431,128566,2924,0.00067949195176194,0.00074561231532318,0.0006514719959116,25.204254526376,-3.836596378899e-05,-3.836596378899e-05,-3.836596378899e-05,1187601.4626094,0.0020787545301199
16191759,0.13944941938438,0.0024244015333112,0.00080491188842238,0.00083395290514445,0.00078553673974439,-0.00018013797947881,0.000180139248735,7.1322499340353e-10,5.5709438210124e-10,-8.4399019170839e-10,2.1459838690115e-09,-0.00013293196299563,0.00013293606288117,-0.00016554080323026,0.00016554508889946,-0.00016554087401712,0.00016554506467325,-0.00013293475520588,0.00013293325564678,-0.00013293493152576,0.00013293310215743,-0.0001655437665831,0.00016554216932789,-0.00016554377299153,0.00016554206438862,-0.00019836818871343,0.00019836852760447,-0.00019836822602849,0.00019836845860064,-0.00019836724710106,0.0001983695281985,-0.00019836726419114,0.00019836944362366,-0.0001786551416626,0.00017865755176077,-0.00017865514430189,0.0001786572546273,-0.00017865608264478,0.00017865650587113,-0.00017865618728042,0.00017865629797354,-0.00013293183434554,0.00013293621322901,1.0079691261101e-09,-1.989524267289e-09,2.6339504751504e-09,-3.5955895227523e-09,-0.0001984682872575,0.00019846732559634,-0.00019496792416662,0.00019496184979732,-0.00019919759037612,0.00019920168517477,-0.00019920051909183,0.00019919869556778,-0.00019815452081022,0.00019815649293543,-0.00019815631539755,0.00019815437317572,-0.00019815546631914,0.00019815549297935,-0.00019815725864554,0.00019815337667065,-0.00019496301359738,0.00019496716689046,-0.00019496891019803,0.00019496084634096,-0.00019919965226205,0.00019919952736125,-0.00019920257455278,0.0001991965437766,-0.00019496202074188,0.00019496817628577,4.6318445380532e-09,4.7933886539765e-09,-0.00017216042237007,0.00017216981674452,1.772077387826e-09,7.8511721678884e-09,-0.00015447227172445,0.00015448766956279,-0.00015131797045837,0.00015133358249976,-0.00015131802779968,0.00015133352265654,-0.00015447814177663,0.00015448179010888,-0.00015447828543611,0.00015448164052566,-0.00015132391967252,0.00015132763139181,-0.00015132396977632,0.0001513275808145,-0.00018979000983616,0.00018979726513928,-0.0001897880372212,0.00018979924168928,-0.00018978995641644,0.0001897973168494,-0.00018978797949413,0.00018979929450292,-0.00017998426501448,0.00017999584789507,-0.00017998444056907,0.00017999569982845,-0.00017998647829198,0.00017999364350964,-0.00017998632463621,0.00017999379864169,-0.00015447209726265,0.00015448783540416,0.77198525226183,128566,2924,0.00075030173346911,0.0008266041368564,0.00071710057028665,24.805074226902,-4.1559406184782e-05,-4.1559406184782e-05,-4.1559406184782e-05,1251441.4660883,0.0022966626330312
16391759,0.1517866259126,0.0026523295733147,0.00088033146390896,0.00091470299307475,0.000857295116331,-0.00019687918629002,0.0001968804950607,7.4168418238087e-10,5.6789065224583e-10,-7.6796361288584e-10,2.1109366434154e-09,-0.00014432203096779,0.00014432604751077,-0.00018160848492024,0.00018161270743935,-0.00018160856731008,0.0001816126839415,-0.00014432470407996,0.00014432337152073,-0.00014432487504059,0.00014432317476303,-0.00018161134893971,0.00018160990916473,-0.00018161134970895,0.00018160978584883,-0.00021683304683488,0.0002168334672593,-0.00021683308263155,0.00021683338475573,-0.00021683213662536,0.00021683442537135,-0.00021683216199928,0.00021683433766976,-0.0001958157617589,0.00019581819098846,-0.00019581578107244,0.00019581787692464,-0.00019581667353916,0.00019581719035518,-0.00019581678025898,0.00019581694914096,-0.00014432187098965,0.00014432619783827,9.6365082379058e-10,-1.9248742813091e-09,-9.1639214933417e-10,-2.6469027757018e-11,-0.00021774800812814,0.00021774706530457,-0.00021416869484922,0.00021416958870382,-0.00021881251332974,0.00021881415833722,-0.0002188153332191,0.00021881127400461,-0.00021686232965646,0.00021686194597709,-0.00021686182390721,0.00021686220283768,-0.00021686323991805,0.00021686098151145,-0.00021686273157422,0.00021686124201878,-0.00021417069346598,0.00021416791536935,-0.00021416964294242,0.00021416862214669,-0.00021881222045163,0.00021881437079751,-0.00021881503308359,0.00021881149343887,-0.00021416973784886,0.00021416888862126,3.8600318214471e-09,4.041145166222e-09,-0.00018759316995055,0.00018760103617704,4.5157303383428e-09,3.5195741358925e-09,-0.00016924267517591,0.0001692495078424,-0.00016510431323394,0.00016511140525622,-0.00016510437853845,0.00016511133929928,-0.00016924153194753,0.00016925064286586,-0.00016924169067499,0.00016925047329196,-0.00016510329770062,0.00016511242275759,-0.00016510335195981,0.00016511236446127,-0.00020688693477963,0.00020689501871165,-0.00020688731411005,0.0002068946439424,-0.00020688687509736,0.00020689507696722,-0.00020688724938725,0.00020689470320606,-0.00019716267691879,0.00019717039670484,-0.00019716287268323,0.00019717022939779,-0.00019716254541699,0.00019717053731297,-0.00019716237346535,0.00019717071156656,-0.0001692424788805,0.00016924969285165,0.77561770573184,128566,2924,0.0008200042710641,0.0009068666241455,0.00078135375968299,24.44776971261,-4.4417842299122e-05,-4.4417842299122e-05,-4.4417842299122e-05,1319171.5205247,0.0025113981215169
16591759,0.163954524869,0.0028848480088507,0.00095718994607194,0.00099751190893341,0.0009301461538453,-0.00021398229831387,0.00021398367585356,7.881766673431e-10,5.8959859463824e-10,-6.8292506043171e-10,2.0974424577859e-09,-0.00015606991188178,0.00015607387015047,-0.00019847748940808,0.0001984816976409,-0.00019847758478027,0.00019848166422894,-0.00015607246331963,0.00015607130943728,-0.00015607264133293,0.00015607108939849,-0.00019848026111894,0.00019847899540089,-0.00019848026482993,0.00019847886489597,-0.0002355378385457,0.00023553836639063,-0.00023553787906072,0.00023553827456471,-0.00023553695674373,0.00023553928962217,-0.00023553699440767,0.00023553919550635,-0.00021354630067313,0.00021354879280091,-0.0002135463553929,0.00021354845877204,-0.00021354718835234,0.00021354782652866,-0.00021354731410333,0.00021354756265582,-0.00015606970414496,0.00015607403979176,9.2140900369036e-10,-1.8672422154659e-09,-3.5059252023402e-09,2.5766800730895e-09,-0.00023752473500722,0.00023752380694775,-0.00023402956882875,0.00023403554204229,-0.00023896845552211,0.00023896828688072,-0.00023897117019817,0.00023896550183173,-0.00023593606558938,0.00023593395939914,-0.00023593387933533,0.00023593594667092,-0.00023593694227088,0.00023593302835339,-0.00023593475579984,0.00023593501690935,-0.00023403662182265,0.00023402879594018,-0.00023403048530738,0.00023403460562219,-0.0002389664346295,0.00023897023132907,-0.00023896914954884,0.00023896744577038,-0.00023403570458971,0.00023402973274248,3.3886870877086e-09,3.5822499971476e-09,-0.00020329258166856,0.00020329952034863,6.6255752534556e-09,4.5368174371007e-10,-0.00018473840647931,0.00018473919074653,-0.00017941505749229,0.00017941611920805,-0.00017941512413827,0.00017941605394254,-0.00018473214082422,0.00018474544119217,-0.00018473231970052,0.00018474524625162,-0.00017940894298484,0.00017942223475113,-0.00017940900283215,0.00017942216661527,-0.00022413656589839,0.00022414544246096,-0.00022413866526616,0.0002241433478414,-0.00022413650104798,0.00022414550638077,-0.00022413859720879,0.00022414340983684,-0.00021489192459618,0.00021489699566233,-0.00021489212916242,0.00021489681965723,-0.00021489007588675,0.00021489885306163,-0.00021488988902296,0.00021489904392975,-0.00018473820820422,0.00018473937554581,0.80315413309525,128566,2924,0.00089120910327999,0.00098919158537757,0.00084671456021281,24.193202714326,-4.6454378285394e-05,-4.6454378285394e-05,-4.6454378285394e-05,1379288.7053346,0.0027308639352726
16791759,0.17595206369955,0.0031146033850724,0.0010330124401925,0.0010799211316048,0.0010016698132752,-0.00023087662685602,0.00023087805081241,8.1936204446374e-10,6.044951190817e-10,-5.8017627716004e-10,2.0428450528241e-09,-0.00016708850623305,0.00016709234546855,-0.00021507760837462,0.00021508171421278,-0.00021507770977231,0.00021508167807881,-0.00016709088521142,0.00016708995045708,-0.00016709108099287,0.000167089710448,-0.00021508022455346,0.00021507916923339,-0.00021508023816448,0.00021507903546271,-0.00025408950277584,0.00025409013424032,-0.00025408954931266,0.0002540900365028,-0.00025408867168243,0.00025409100311038,-0.00025408871688498,0.00025409090639177,-0.00023110545329215,0.00023110795341779,-0.00023110552961767,0.00023110761212252,-0.00023110629058585,0.00023110704398075,-0.00023110643511455,0.00023110676440799,-0.00016708827341607,0.00016709251612162,8.5727985464478e-10,-1.7775608431188e-09,-5.483450222992e-09,4.5784987152424e-09,-0.00025726869285437,0.00025726778884691,-0.00025390560555741,0.00025391545668535,-0.00025915938705767,0.00025915776917475,-0.00025916194965936,0.00025915513220532,-0.00025489225021542,0.00025488881058546,-0.00025488877342284,0.0002548921205263,-0.00025489307763256,0.00025488792971542,-0.00025488959979619,0.00025489124155495,-0.00025391651489823,0.00025390485775054,-0.00025390646864382,0.0002539145729433,-0.00025915604086162,0.00025916103413131,-0.00025915860066102,0.00025915839973659,-0.00025391564866015,0.00025390574410465,3.0894871232557e-09,3.3039941824097e-09,-0.00021870473964938,0.00021871110473013,8.3139540870316e-09,-1.8222013062141e-09,-0.00019990286175788,0.0001998991350236,-0.00019325539809554,0.00019325199307501,-0.00019325547387647,0.00019325192047024,-0.00019989267210563,0.00019990931282591,-0.00019989286495836,0.00019990909912266,-0.00019324538626274,0.00019326201036448,-0.00019324545022308,0.00019326193508446,-0.00024116373650564,0.00024117335320537,-0.00024116715594723,0.00024116993918377,-0.00024116366533251,0.00024117342364646,-0.00024116708023425,0.0002411700082418,-0.00023244965804811,0.00023245284995027,-0.0002324498846543,0.00023245265226544,-0.00023244650483062,0.00023245601124523,-0.0002324462992244,0.00023245622196413,-0.00019990263798319,0.00019989934335662,0.80668161200039,128566,2924,0.00096154025926633,0.0010713734149817,0.00091087631624199,23.94132768561,-4.8469378515118e-05,-4.8469378515118e-05,-4.8469378515118e-05,1445357.6258014,0.002948155674913
16991759,0.18777588997734,0.0033361864911361,0.0011060685264348,0.001159905464235,0.0010702125004663,-0.00024726039108451,0.00024726183849926,8.4018961733907e-10,6.0706137204473e-10,-4.7879993748322e-10,1.9655185101264e-09,-0.0001770545713076,0.00017705824193074,-0.00023083878247748,0.0002308427425044,-0.00023083889240397,0.00023084270298247,-0.0001770567545466,0.0001770560373309,-0.00017705696758609,0.00017705577750559,-0.00023084122513431,0.00023084037691176,-0.00023084124620055,0.00023084023803921,-0.00027227942371844,0.00027228014325866,-0.00027227947635828,0.000272280039292,-0.00027227864981642,0.00027228095123987,-0.00027227870293754,0.00027228085039631,-0.0002480331199002,0.00024803560166665,-0.00024803321846964,0.00024803524729643,-0.00024803390005156,0.00024803475407945,-0.00024803406327044,0.00024803445707153,-0.00017705431080554,0.0001770584193021,7.8660027598975e-10,-1.6709968432082e-09,-7.0814120176061e-09,6.2104677047688e-09,-0.00027661431010348,0.00027661344005812,-0.00027331667682127,0.00027332967270385,-0.00027896797109914,0.00027896514054021,-0.00027897035863729,0.00027896267730028,-0.00027346860294755,0.00027346407826944,-0.00027346407952154,0.00027346846233347,-0.0002734693733049,0.00027346325586428,-0.00027346484869793,0.00027346764187213,-0.00027333069814759,0.00027331596385514,-0.00027331748001712,0.0002733288483913,-0.00027896354984374,0.00027896947764634,-0.00027896593410633,0.00027896701742993,-0.00027332989147609,0.00027331679107931,2.8222203303236e-09,3.0557030124684e-09,-0.00023355263066932,0.00023355848290086,9.6606911766255e-09,-3.6942108019951e-09,-0.00021413287950632,0.00021412544305972,-0.00020619500617053,0.00020618792602751,-0.00020619508911854,0.00020618784757648,-0.00021411950036608,0.00021413881188329,-0.00021411970940507,0.00021413857871086,-0.0002061818279397,0.00020620111291685,-0.00020618189667842,0.00020620103028227,-0.00025777550770421,0.00025778567749914,-0.00025777999869779,0.00025778119237348,-0.00025777543024982,0.00025778575414901,-0.00025777991629335,0.00025778126750654,-0.00024939739046642,0.00024939901078254,-0.00024939763634636,0.00024939879476235,-0.00024939318008294,0.00024940322966311,-0.00024939295624694,0.00024940345888306,-0.00021413263547617,0.00021412566939748,0.79134033401302,128566,2924,0.001029741732153,0.0011518906291524,0.0009726854966808,23.689563061047,-5.0483495511626e-05,-5.0483495511626e-05,-5.0483495511626e-05,1518229.6020458,0.0031593291246062
17191759,0.19915164559567,0.0035438659607557,0.0011745361126513,0.0012352470303202,0.0011340828177841,-0.00026211793105976,0.00026211934294053,8.5174918214347e-10,5.6029294991292e-10,-3.0355502666113e-10,1.752610029871e-09,-0.00018532231841311,0.00018532545403709,-0.0002447788969589,0.00024478247834527,-0.0002447790500651,0.00024478240178868,-0.00018532406118253,0.00018532368935389,-0.00018532427353143,0.00018532343558413,-0.0002447809831006,0.00024478048000499,-0.00024478100540409,0.00024478034514055,-0.0002890419543581,0.00028904277899317,-0.00028904202036359,0.00028904266326844,-0.00028904129978014,0.00028904346450379,-0.00028904138033968,0.00028904333840501,-0.00026327776885327,0.00026328016395933,-0.00026327794578744,0.0002632797330107,-0.00026327844126237,0.00026327942544447,-0.00026327864198655,0.0002632790931032,-0.00018532193383961,0.00018532573973272,6.1981706292595e-10,-1.4233116101161e-09,-7.7006685296712e-09,6.907634081241e-09,-0.00029440487972665,0.00029440408631274,-0.00029107180453047,0.00029108605451103,-0.00029717550262163,0.00029717188635938,-0.00029717746368642,0.00029716985289941,-0.00029056675823156,0.0002905617341291,-0.0002905618028516,0.000290566561344,-0.00029056738769307,0.00029056105667054,-0.00029056244491189,0.00029056587192145,-0.00029108698857076,0.00029107120019912,-0.00029107249101014,0.00029108534797809,-0.00029717061902684,0.00029717667619606,-0.0002971726173377,0.00029717460643593,-0.00029108634035045,0.00029107186767565,2.7061478546751e-09,2.9185435182457e-09,-0.00024687336328471,0.00024687896471106,1.0206815757513e-08,-4.4922692151612e-09,-0.00022648056034779,0.00022647162699488,-0.00021737457563915,0.00021736589849731,-0.00021737463235298,0.00021736584741858,-0.00022646588538618,0.0002264863042644,-0.00022646613041186,0.00022648603172837,-0.00021736005787423,0.00021738043344727,-0.00021736013924466,0.0002173803376106,-0.00027295636660506,0.00027296673221465,-0.00027296129945575,0.00027296180635127,-0.00027295628916132,0.00027296680855738,-0.00027296123084651,0.00027296186735663,-0.00026467645157403,0.00026467732846268,-0.00026467665717257,0.00026467715402477,-0.00026467177074908,0.00026468201829586,-0.00026467154683505,0.00026468224716409,-0.00022648039307327,0.00022647177514669,0.77293681518982,128566,2924,0.0010915864286561,0.0012259299922024,0.0010281349682395,23.132288813993,-5.4941689488055e-05,-5.4941689488055e-05,-5.4941689488055e-05,1588907.9045424,0.003351289097161
17391759,0.20972105235507,0.0037290830116137,0.0012356493221253,0.0013026988973206,0.0011907347921678,-0.0002745628365017,0.00027456414892573,8.566256756148e-10,4.5602742997651e-10,-7.4327630430146e-11,1.4201506606516e-09,-0.00019128592143879,0.00019128813746764,-0.00025597672368036,0.00025597973608459,-0.00025597696999372,0.00025597958022454,-0.00019128700091199,0.00019128704544589,-0.00019128718615726,0.00019128682732172,-0.0002559783166244,0.00025597825449778,-0.00025597833501315,0.00025597813890018,-0.00030345139140181,0.00030345232245836,-0.00030345148030064,0.00030345218800983,-0.00030345090536643,0.00030345283807985,-0.00030345103882862,0.00030345265904504,-0.00027588091592943,0.00027588317800119,-0.00027588123874839,0.00027588259082316,-0.00027588144593239,0.00027588257810654,-0.00027588170411965,0.00027588218651733,-0.00019128527013292,0.00019128868418579,3.7583151669338e-10,-1.0489326761209e-09,-7.3945720633405e-09,6.727701278447e-09,-0.00030960828401547,0.00030960761462799,-0.00030607745297972,0.00030609119327646,-0.00031269807481543,0.00031269409567243,-0.00031269938546524,0.00031269272197469,-0.00030522806176377,0.00030522310112345,-0.00030522325066385,0.00030522777907014,-0.00030522847111404,0.00030522264336273,-0.00030522370808876,0.00030522727865436,-0.00030609196718516,0.00030607704051681,-0.00030607797956256,0.00030609064396404,-0.00031269330733442,0.00031269876737037,-0.00031269474374112,0.00031269726208662,-0.00030609157138984,0.00030607745277094,2.7293279550116e-09,2.8697463219192e-09,-0.0002578547996223,0.0002578603773837,1.0003819032562e-08,-4.305099382749e-09,-0.00023608955038773,0.00023608120775945,-0.00022602721208014,0.00022601882866354,-0.00022602719915932,0.00022601884836712,-0.00023607534899808,0.00023609542214586,-0.00023607566687137,0.00023609509535413,-0.00022601304035962,0.00022603304034574,-0.00022601314572899,0.00022603292199312,-0.0002858500708351,0.00028586028990813,-0.00028585486153154,0.00028585550960065,-0.00028584999968864,0.00028586035564392,-0.00028585483097421,0.00028585552756217,-0.00027732613102796,0.00027732699430426,-0.00027732622150186,0.00027732693548573,-0.00027732150914968,0.00027733162280127,-0.00027732130632375,0.00027733183003993,-0.00023608960571302,0.00023608112696217,0.7441137393925,128566,2924,0.0011433861138558,0.0012891979965708,0.0010738453115456,22.132691407251,-6.2938468741988e-05,-6.2938468741988e-05,-6.2938468741988e-05,1654055.8420352,0.0035126235403902
17591759,0.21952224805869,0.0038942452516238,0.0012902176159517,0.0013629819581347,0.0012410456775374,-0.00028554359848555,0.00028554482976484,7.7768405921964e-10,4.5496036225485e-10,5.1853383988242e-11,1.2082379043305e-09,-0.00019609689507313,0.0001960989295981,-0.00026551481203104,0.00026551732977645,-0.00026551497982973,0.00026551725122365,-0.00019609771176625,0.00019609808591035,-0.00019609797517456,0.00019609780472603,-0.00026551602152946,0.00026551623248031,-0.00026551606000023,0.00026551608620797,-0.00031640084196836,0.00031640179994102,-0.00031640092702626,0.00031640167049264,-0.00031640048291393,0.00031640218342078,-0.00031640057482969,0.00031640204662951,-0.00028683722706794,0.0002868391638243,-0.00028683742047436,0.00028683870846264,-0.00028683758565673,0.00028683873162605,-0.00028683783130152,0.00028683836452603,-0.0001960964799441,0.00019609923599242,2.8607711931979e-10,-8.6107033599524e-10,-6.9813689319272e-09,6.4064395914327e-09,-0.00032314222981504,0.00032314165576764,-0.00031927876144272,0.00031929171887505,-0.00032645631042628,0.00032645245684723,-0.00032645740851247,0.0003264513064402,-0.0003183649634448,0.00031836026887831,-0.00031836041203078,0.00031836468161504,-0.00031836530014125,0.00031835989021923,-0.00031836076119947,0.00031836429354259,-0.00031929247824355,0.00031927840088517,-0.00031927913914314,0.00031929131918437,-0.00032645184102084,0.00032645682216715,-0.00032645295187328,0.00032645564934033,-0.00031929211825509,0.00031927877436392,2.6811483699001e-09,2.936689785642e-09,-0.00026745292195951,0.00026745852030967,9.6070172655454e-09,-3.8748011457536e-09,-0.0002440580126242,0.00024405023387323,-0.00023324539876043,0.00023323795130118,-0.00023324547208939,0.00023323788243895,-0.00024404450099335,0.00024406374193587,-0.00024404477403656,0.00024406345208641,-0.00023323207687161,0.0002332512918492,-0.00023323217052207,0.00023325118414025,-0.00029735485248125,0.00029736479629813,-0.00029735938770098,0.00029736027003936,-0.00029735476492741,0.00029736488021156,-0.00029735930380807,0.00029736034302003,-0.00028834087773104,0.00028834219671999,-0.00028834113437155,0.00028834197570995,-0.00028833664588042,0.0002883464418577,-0.00028833638174499,0.00028834670451998,-0.00024405778374874,0.00024405044156699,0.71798589797645,128566,2924,0.0011890897539506,0.0013455151608765,0.0011137962676565,21.121470290934,-7.1028237672528e-05,-7.1028237672528e-05,-7.1028237672528e-05,1718494.1742564,0.0036551095206071
17791759,0.22861331640917,0.0040423277005753,0.0013392084086155,0.0014171096272119,0.0012860096647479,-0.00029528946763049,0.00029529066582677,7.8150399045719e-10,4.1825537419571e-10,4.24921012043e-11,1.1834499912901e-09,-0.00020005453297376,0.00020005643841521,-0.0002737481267504,0.00027375062320352,-0.0002737483252642,0.00027375052076682,-0.0002000552892556,0.00020005564659669,-0.0002000555553723,0.00020005537013244,-0.00027374933944467,0.0002737495305038,-0.00027374937584663,0.00027374938430292,-0.00032808221897461,0.00032808315714553,-0.00032808231259829,0.00032808301973801,-0.000328081859162,0.0003280835402256,-0.00032808196888207,0.00032808338473313,-0.00029642959309286,0.00029643154740024,-0.00029642983611705,0.00029643103071697,-0.00029642995908401,0.00029643110243145,-0.00029643022954129,0.00029643071065488,-0.00020005403389645,0.00020005681829214,3.0846771756709e-10,-8.1450791468054e-10,-6.4794618335504e-09,5.9706736947818e-09,-0.00033523801462344,0.00033523750768123,-0.00033094632315962,0.00033095843013709,-0.0003386803769898,0.00033867686574785,-0.00033868143624164,0.0003386757558981,-0.00033019689859319,0.00033019256767046,-0.00033019264735411,0.00033019667145266,-0.00033019722262539,0.00033019220184541,-0.00033019299364739,0.00033019628664395,-0.00033095912490798,0.00033094605920728,-0.00033094670761389,0.00033095802360988,-0.0003386762006817,0.00033868092909106,-0.00033867730436809,0.00033867976469761,-0.00033095878885225,0.00033094640926886,2.6928716394426e-09,2.9451489222083e-09,-0.00027590007625617,0.00027590569492528,9.1645918344977e-09,-3.4012421970483e-09,-0.00025074204057857,0.00025073524506277,-0.00023935773958188,0.0002393512076338,-0.00023935779669625,0.00023935115510609,-0.00025072943296411,0.0002507478460696,-0.00025072975112191,0.00025074750999097,-0.00023934530135171,0.00023936366198994,-0.00023934540814103,0.00023936354032007,-0.0003076680691874,0.00030767772130002,-0.00030767229627378,0.00030767350312939,-0.00030766797743544,0.00030767780952505,-0.00030767221867264,0.00030767356978259,-0.00029799956709231,0.00029800119081962,-0.00029799980518142,0.00029800098901807,-0.0002979956369797,0.0002980051351728,-0.00029799536180862,0.00029800540841918,-0.00025074186345018,0.00025073539990057,0.6966920750057,128566,2924,0.0012296522283595,0.0013958450331164,0.0011489553940256,20.12627227806,-7.8989821775516e-05,-7.8989821775516e-05,-7.8989821775516e-05,1781371.8448159,0.0037816357030189
17991759,0.23705361096371,0.0041778576629298,0.0013840832225334,0.0014666900666083,0.0013270843737881,-0.00030408424056554,0.00030408544792477,7.9200685209462e-10,4.1680411220357e-10,-4.0087941487964e-11,1.2761943255879e-09,-0.00020357685542486,0.00020357894477048,-0.00028114029165239,0.00028114297123893,-0.00028114049329196,0.00028114287137468,-0.00020357776787185,0.00020357798616089,-0.00020357806130885,0.00020357769057775,-0.00028114167482561,0.00028114171077263,-0.00028114171856919,0.0002811415561334,-0.00033871112932808,0.00033871202431481,-0.0003387112290925,0.00033871188144976,-0.00033871071342093,0.00033871246412917,-0.00033871082543408,0.00033871230510488,-0.00030504199866582,0.00030504402708725,-0.00030504224318494,0.00030504349727009,-0.0003050424152644,0.00030504352596048,-0.00030504270218762,0.00030504311776934,-0.00020357635232321,0.00020357931846393,4.1486395280866e-10,-8.875836690017e-10,-5.9938000456406e-09,5.5172760259752e-09,-0.0003461954868663,0.00034619501323906,-0.0003414575357396,0.00034146880503398,-0.00034970321153072,0.00034970022942514,-0.00034970445157515,0.00034969893621021,-0.0003409737310678,0.00034096980352908,-0.00034096978572607,0.00034097359163181,-0.00034097411430082,0.00034096937657878,-0.00034097018830808,0.00034097314842932,-0.00034146948942954,0.00034145731444681,-0.00034145797413421,0.00034146834368967,-0.00034969934880318,0.00034970396920982,-0.00034970062356804,0.00034970263117751,-0.00034146908948828,0.00034145772938434,2.7119522198657e-09,2.9894530688086e-09,-0.00028347266163963,0.00028347834354441,8.7304734170952e-09,-2.8916778168618e-09,-0.00025661983518958,0.00025661400669456,-0.00024478405121596,0.0002447785341384,-0.00024478412006536,0.00024477846977486,-0.00025660813350029,0.00025662569898262,-0.00025660846262616,0.0002566253495782,-0.00024477254206877,0.00024479005588086,-0.00024477265321038,0.00024478992883816,-0.00031700322244427,0.00031701261387109,-0.00031700713896197,0.00031700870598215,-0.00031700312419285,0.0003170127090074,-0.00031700705194861,0.00031700878216602,-0.00030667671897755,0.0003066787473359,-0.00030667698601882,0.00030667851692116,-0.0003066731283873,0.0003066823526174,-0.00030667283263361,0.00030668264654317,-0.00025661962124316,0.00025661420035657,0.68920301016676,128566,2924,0.0012662551393985,0.0014414360587367,0.0011804735755414,19.15468876067,-8.676248991464e-05,-8.676248991464e-05,-8.676248991464e-05,1837542.6686746,0.0038957904073293
18191759,0.24488336880137,0.0043054759296941,0.0014263376486267,0.0015133914243054,0.001365746856762,-0.00031216321122962,0.00031216446454392,8.2311149217069e-10,4.3116838572678e-10,-1.4789803222105e-10,1.4328201682465e-09,-0.00020697380765117,0.00020697619391387,-0.00028810830503185,0.00028811129810762,-0.00028810851311737,0.0002881111957786,-0.00020697496140755,0.0002069749860985,-0.00020697528179967,0.00020697467535484,-0.0002881099488537,0.00028810977927155,-0.00028811000161925,0.00028810961992538,-0.00034844480169048,0.00034844566086835,-0.00034844490866722,0.00034844551298045,-0.0003484443004602,0.00034844618861828,-0.0003484444173063,0.00034844602383701,-0.00031302773231181,0.00031302990870345,-0.00031302798715575,0.00031302935913699,-0.00031302823219934,0.00031302931818799,-0.00031302853817356,0.00031302889313543,-0.00020697328844555,0.00020697657518384,5.5246641213328e-10,-1.0170207278472e-09,-5.5529074807823e-09,5.0852618378003e-09,-0.00035628440596508,0.00035628394065832,-0.00035117642201744,0.00035118692934088,-0.00035984029030918,0.00035983787360393,-0.00035984179239499,0.00035983631188064,-0.00035088996423097,0.00035088641995343,-0.00035088630073155,0.00035088991395512,-0.00035089043394977,0.00035088590301184,-0.0003508867888807,0.00035088938209776,-0.0003511876251662,0.00035117622778958,-0.00035117694625451,0.00035118638048032,-0.00035983671434915,0.00035984131464015,-0.00035983824733367,0.00035983971166917,-0.00035118713595345,0.00035117673369457,2.7815620310626e-09,3.0795285375161e-09,-0.00029039387358499,0.00029039971595251,8.3845945253375e-09,-2.3696922791778e-09,-0.00026213575222022,0.00026213092926488,-0.00024988261524727,0.00024987813484109,-0.00024988269234006,0.00024987806264913,-0.00026212489369523,0.00026214178395394,-0.0002621252368054,0.00026214141824325,-0.0002498719637154,0.00024988880398705,-0.0002498720793177,0.00024988867060352,-0.00032551136195617,0.00032552061532838,-0.00032551499242106,0.00032551699373568,-0.0003255112576882,0.00032552071708856,-0.0003255148984809,0.00032551707704732,-0.00031470555917985,0.00031470805598462,-0.00031470584732495,0.00031470780376519,-0.00031470227749036,0.00031471135136985,-0.00031470196417065,0.00031471166441784,-0.00026213551339645,0.00026213114741309,0.70094115376243,128566,2924,0.0012998780722349,0.0014834112754781,0.0012092801633305,18.183727264135,-9.4530181886919e-05,-9.4530181886919e-05,-9.4530181886919e-05,1879376.7749134,0.0040006128208765
18391759,0.25232044159999,0.0044269370257263,0.0014665561555798,0.0015578797296891,0.0014025011404574,-0.00032028527467748,0.00032028662838458,8.7675896851976e-10,4.769275309891e-10,-3.2901041124454e-10,1.7194664373115e-09,-0.00021059947100543,0.00021060243735298,-0.00029525177480004,0.00029525532734262,-0.00029525197590847,0.00029525523033233,-0.00021060107416487,0.00021060076738929,-0.00021060142951875,0.00021060042720152,-0.00029525386814272,0.00029525335133311,-0.00029525393030969,0.00029525317992514,-0.00035814401750281,0.00035814482711731,-0.00035814412898545,0.00035814467415364,-0.00035814336593784,0.00035814550622086,-0.00035814348091789,0.00035814534039314,-0.00032110800781332,0.00032111043995351,-0.000321108262562,0.00032110988672238,-0.00032110865335734,0.0003211096983361,-0.00032110897844107,0.00032110925849364,-0.00021059896620252,0.0002106028013106,7.6740681576325e-10,-1.272320917587e-09,-5.5581938823451e-09,5.0506309919107e-09,-0.00036636443749957,0.00036636393540782,-0.00036092838699626,0.00036093897074608,-0.00036996255828236,0.00036996058394795,-0.00036996452599856,0.00036995854744467,-0.00036078710371152,0.00036078369340417,-0.00036078344684884,0.00036078716879779,-0.00036078772915268,0.00036078301678181,-0.00036078408857055,0.00036078648717937,-0.00036093973326878,0.00036092815956637,-0.00036092905674184,0.00036093827172818,-0.0003699589977918,0.00036996400510928,-0.00036996097940321,0.00036996193883231,-0.00036093908239844,0.00036092883247676,2.7976747419801e-09,3.1249621830669e-09,-0.00029739040760037,0.00029739631243871,8.3939530621171e-09,-2.3053237095529e-09,-0.00026786165338964,0.00026785691092683,-0.00025518324271125,0.00025517890885314,-0.00025518333519508,0.00025517881980674,-0.00026785082006138,0.00026786772761566,-0.00026785116780343,0.00026786735410522,-0.00025517264706412,0.00025518951413184,-0.00025517276242793,0.00025518937289235,-0.00033402091632429,0.00033403020312598,-0.00033402453220061,0.00033402659398029,-0.00033402080699606,0.00033403031472096,-0.00033402442605766,0.00033402669164909,-0.00032281753932641,0.00032282014766279,-0.00032281786186713,0.00032281986126123,-0.00032281430301949,0.00032282339924053,-0.00032281397097614,0.00032282373222401,-0.00026786136361538,0.00026785718156759,0.70344890961793,128566,2924,0.0013336793926138,0.0015253476288218,0.001238399226506,17.512110249098,-9.9903118007218e-05,-9.9903118007218e-05,-9.9903118007218e-05,1917088.6040866,0.004105899886788
18591759,0.25962982627223,0.0045436431154256,0.0015052206045739,0.0016006996904219,0.0014377228204299,-0.0003288718136055,0.00032887329545083,9.5159292923186e-10,5.294884178195e-10,-5.4620337214132e-10,2.071332559918e-09,-0.0002145918275166,0.00021459545991879,-0.00030278425708385,0.00030278851378818,-0.0003027844735841,0.00030278841099338,-0.00021459397011429,0.00021459324528467,-0.00021459433744652,0.00021459289174471,-0.0003027869156648,0.00030278597681247,-0.00030278698227504,0.00030278580065283,-0.00036834687444748,0.00036834762945919,-0.00036834699217198,0.00036834746952465,-0.00036834603656869,0.00036834849935897,-0.00036834616118198,0.00036834832556735,-0.00032961187498187,0.0003296146466269,-0.00032961214702033,0.00032961406270542,-0.00032961271135176,0.0003296137122902,-0.00032961304818695,0.00032961325023104,-0.0002145912861554,0.00021459584789548,1.0232754491963e-09,-1.588214605384e-09,-6.0258116549138e-09,5.4625960771895e-09,-0.00037691989513668,0.00037691933543028,-0.00037111316309733,0.00037112474625721,-0.00038054248560046,0.00038054072330076,-0.00038054500769805,0.00038053811818616,-0.00037118748153477,0.00037118390831657,-0.00037118353821926,0.00037118768053298,-0.00037118828908011,0.00037118304134042,-0.00037118436151842,0.00037118680329731,-0.00037112556347823,0.00037111288672569,-0.00037111402504499,0.00037112385428559,-0.00038053862708127,0.00038054443276114,-0.00038054117135104,0.0003805417954864,-0.00037112472660121,0.0003711137473396,2.7167935217761e-09,3.0589429527041e-09,-0.00030485415145507,0.00030485990739991,8.7628190901212e-09,-2.8240367915548e-09,-0.00027395686217869,0.00027395109422416,-0.0002608819792723,0.00026087662780047,-0.00026088207482216,0.00026087653703712,-0.00027394514438111,0.00027396280659373,-0.00027394551404562,0.00027396240695358,-0.0002608705112726,0.00026088811211481,-0.00026087063442478,0.00026088796499694,-0.00034303684975485,0.00034304627740186,-0.0003430407610158,0.00034304237388743,-0.00034303673359091,0.00034304639387464,-0.00034304065114558,0.00034304247415285,-0.00033135201678542,0.00033135419487611,-0.00033135235075009,0.0003313538934904,-0.00033134849891091,0.00033135772410608,-0.00033134814945102,0.00033135807794807,-0.00027395656881932,0.00027395136977949,0.68932006800119,128566,2924,0.0013694124731561,0.0015692599487239,0.0012694613297084,17.263903176538,-0.00010188877458769,-0.00010188877458769,-0.00010188877458769,1962020.5855181,0.0042170740042644
18791759,0.26681860579434,0.0046653833617975,0.0015454942272155,0.0016453814177737,0.0014745077168083,-0.0003376921456913,0.00033769373838851,1.0163935254564e-09,5.7458307591821e-10,-6.4869139268794e-10,2.2900188167177e-09,-0.00021929374650143,0.00021929778722301,-0.00031100746558446,0.00031101216193753,-0.00031100769022161,0.00031101205158421,-0.00021929618493194,0.00021929526943933,-0.00021929657157762,0.00021929490372267,-0.00031101043814945,0.0003110093034863,-0.00031101051386675,0.00031100912557125,-0.00037859126254716,0.00037859202768583,-0.00037859138695294,0.00037859186223394,-0.00037859032025476,0.00037859300494686,-0.00037859045192066,0.00037859282425414,-0.00033855539495669,0.00033855840274573,-0.00033855568482415,0.00033855779589225,-0.00033855633759798,0.00033855735925936,-0.00033855669323334,0.00033855687906609,-0.00021929317859264,0.00021929819537441,1.161850726302e-09,-1.7731854710628e-09,-6.4748011846065e-09,5.8678771082352e-09,-0.00038767708482672,0.00038767648101027,-0.00038165901854052,0.00038167150476801,-0.00039134270661867,0.00039134093241711,-0.00039134554111704,0.00039133800295411,-0.00038171614812487,0.0003817123560102,-0.00038171192470868,0.0003817164108104,-0.0003817170592305,0.00038171138071446,-0.00038171285209763,0.00038171542476437,-0.00038167237609679,0.00038165871187887,-0.00038165998735159,0.00038167050333091,-0.00039133855850352,0.00039134492294345,-0.0003913414169802,0.00039134196005142,-0.00038167143448411,0.0003816596802077,2.7137920790142e-09,3.0733824379554e-09,-0.00031253304837998,0.00031253881634065,9.2022541240727e-09,-3.2443883915463e-09,-0.00028075506080148,0.00028074845475287,-0.00026719233316234,0.00026718616332708,-0.00026719243366612,0.00026718606817705,-0.00028074248705849,0.00028076102684641,-0.00028074287470308,0.00028076060472173,-0.0002671800211398,0.00026719849536325,-0.00026718014970153,0.00026719834007471,-0.00035208440768867,0.00035209412497111,-0.00035208860598112,0.00035208993450485,-0.00035208428576251,0.00035209424818343,-0.00035208849084444,0.00035209004034991,-0.00034028685090293,0.00034028876841842,-0.00034028719962902,0.00034028845036354,-0.00034028306184144,0.00034029256615615,-0.00034028269560039,0.00034029293945324,-0.00028075475501428,0.00028074874486892,0.73043486267583,128566,2924,0.0014061171750695,0.0016140094848209,0.0013014182348848,17.026787339699,-0.00010378570128241,-0.00010378570128241,-0.00010378570128241,1991152.5478658,0.0043309743867961
18991759,0.27388844511354,0.0047871597129738,0.0015857363150777,0.0016901864891872,0.0015112369087088,-0.00034645415563992,0.00034645582796703,1.0648481557521e-09,6.0520014674947e-10,-6.7438767291951e-10,2.3988416453285e-09,-0.00022377201927287,0.00022377625894533,-0.00031928843738483,0.00031929335446468,-0.00031928866662958,0.00031929323763853,-0.00022377457250396,0.00022377362169294,-0.0002237749811149,0.00022377324118684,-0.00031929153911025,0.00031929036100023,-0.00031929162551933,0.00031929018095293,-0.00038875710319064,0.00038875790916474,-0.00038875723429118,0.00038875773820162,-0.00038875611847527,0.00038875893141719,-0.00038875625572595,0.00038875874452495,-0.00034754643923481,0.00034754958757224,-0.00034754674776603,0.00034754896513102,-0.00034754742522072,0.00034754849860552,-0.00034754780229106,0.00034754800400761,-0.00022377143264749,0.00022377668180673,1.2172888046038e-09,-1.8541379819309e-09,-6.9121522229355e-09,6.2809918130557e-09,-0.00039845447789249,0.00039845384932344,-0.0003923105222526,0.00039232386398917,-0.00040219870711665,0.00040219675912405,-0.00040220167301266,0.00040219369085829,-0.00039217562528529,0.00039217157364544,-0.00039217112425127,0.0003921759094683,-0.0003921765801012,0.0003921705521366,-0.00039217209490639,0.00039217487751568,-0.00039232477064661,0.00039231020233901,-0.00039231153459253,0.00039232281728282,-0.00040219427274616,0.00040220103009981,-0.00040219726166051,0.00040219792962034,-0.00039232378455958,0.00039231121718523,2.7339393936428e-09,3.1128422380766e-09,-0.00032014041318071,0.00032014624222923,9.6630930193435e-09,-3.6368655575046e-09,-0.00028760707060258,0.00028759967432302,-0.00027346185820495,0.00027345492758839,-0.00027346196569779,0.00027345482619277,-0.00028759364654998,0.00028761310053506,-0.00028759404991143,0.00028761265886947,-0.0002734487104435,0.00027346809939307,-0.00027344884387424,0.00027346793691501,-0.00036105442762734,0.00036106448102447,-0.00036105891138723,0.00036106000543641,-0.00036105429960131,0.00036106461071931,-0.00036105878969138,0.00036106011766123,-0.00034925576908062,0.00034925747915053,-0.00034925613678243,0.00034925714156645,-0.00034925171344414,0.00034926154217359,-0.00034925132958691,0.00034926193480354,-0.00028760674489234,0.00028759998429208,0.74318762172929,128566,2924,0.0014425782419315,0.00165884116259,0.0013330768079328,16.790124644761,-0.00010567900284192,-0.00010567900284192,-0.00010567900284192,2014763.3259253,0.0044444256194748
19191759,0.28106825023096,0.0049179904098591,0.0016288661235997,0.0017384463042765,0.0015506779819829,-0.00035650388480262,0.00035650563987092,1.107096415788e-09,6.4516898961846e-10,-6.6923912946869e-10,2.4799388312475e-09,-0.00022952128673407,0.00022952571643571,-0.00032920199021424,0.00032920705822506,-0.00032920220769742,0.00032920694879627,-0.0002295239105516,0.00022952299889852,-0.00022952435611074,0.00022952259008699,-0.00032920515164716,0.0003292039955707,-0.00032920525505498,0.0003292038102459,-0.00040011853966326,0.00040011940709272,-0.00040011867580528,0.0004001192325875,-0.00040011753476732,0.00040012045122115,-0.00040011766948974,0.00040012026703878,-0.00035805581508084,0.00035805906255618,-0.00035805611945082,0.00035805845171634,-0.0003580568154303,0.00035805795775481,-0.0003580572096229,0.00035805745545448,-0.00022952072441682,0.00022952610664909,1.2471986012477e-09,-1.9095949947719e-09,-7.8544820123778e-09,7.1981518760483e-09,-0.00041065918363224,0.0004106585302746,-0.00040456666912661,0.00040458182837801,-0.00041456163195083,0.00041455913308688,-0.00041456468878524,0.00041455596687681,-0.00040390258779924,0.00040389793246243,-0.00040389748460344,0.00040390288127862,-0.00040390357351045,0.00040389687835453,-0.00040389847921351,0.0004039018237558,-0.000404582782736,0.00040456632416536,-0.00040456769797661,0.00040458076366291,-0.00041455658513113,0.0004145640115754,-0.00041455964481277,0.00041456083392299,-0.00040458175936831,0.00040456737874272,2.7277253187964e-09,3.1415415241006e-09,-0.00032896500903205,0.00032897086304701,1.0598057437639e-08,-4.5408882683646e-09,-0.00029606613963892,0.00029605690270502,-0.00028116020017259,0.00028115151966963,-0.00028116032948545,0.0002811513973678,-0.0002960508782571,0.0002960721646905,-0.0002960512833045,0.00029607171654626,-0.00028114525541452,0.00028116648854682,-0.00028114538875746,0.00028116632290609,-0.00037116384420645,0.00037117452377603,-0.00037116894430721,0.00037116943193285,-0.00037116370825489,0.0003711746617954,-0.00037116880746736,0.00037116955897025,-0.00035972614056576,0.00035972730289479,-0.00035972655253558,0.00035972692068579,-0.00035972150539251,0.00035973194503021,-0.00035972109845377,0.00035973236249034,-0.0002960657495506,0.00029605727682528,0.78534703601698,128566,2924,0.0014843961432143,0.001709607854801,0.001369799525125,16.952844246753,-0.00010437724602597,-0.00010437724602597,-0.00010437724602597,2034284.5688897,0.0045743191654172
19391759,0.28856405445724,0.0050516260043303,0.0016728751495216,0.0017879933251769,0.0015907575296317,-0.00036747346800065,0.00036747528979691,1.1645602185362e-09,6.543099539271e-10,-6.5611796284073e-10,2.5360834641998e-09,-0.00023539081726321,0.00023539526512322,-0.00033976264746343,0.00033976786010087,-0.00033976289862333,0.00033976771763609,-0.00023539343589219,0.00023539254620465,-0.00023539387852226,0.00023539214071929,-0.00033976586661051,0.00033976473592886,-0.00033976597105471,0.00033976455408819,-0.00041260038871056,0.00041260131830373,-0.00041260053391831,0.00041260113280813,-0.00041259936431795,0.00041260238229448,-0.00041259952101888,0.00041260217619017,-0.00036946588169364,0.00036946927544933,-0.00036946625278573,0.00036946859988021,-0.00036946691534881,0.00036946813861447,-0.00036946733860065,0.00036946760684234,-0.00023539015429706,0.00023539574439211,1.2545525509719e-09,-1.9306675059624e-09,-9.1154310126779e-09,8.4455112252528e-09,-0.00042405371951622,0.0004240530525452,-0.00041799042546966,0.00041800805982997,-0.00042818132538712,0.00042817798862159,-0.00042818438971861,0.00042817480994858,-0.0004167410997712,0.00041673560939891,-0.0004167351765193,0.00041674139994389,-0.00041674208882367,0.00041673455147509,-0.00041673618525688,0.00041674032558914,-0.00041800901071385,0.00041799008471707,-0.00041799148116473,0.00041800696840535,-0.00042817542486754,0.00042818371823313,-0.0004281785295858,0.00042818049276708,-0.0004180079965964,0.00041799113096991,2.6436370485983e-09,3.046331729256e-09,-0.00033862761105293,0.00033863328574243,1.1773083254201e-08,-5.8999190948529e-09,-0.00030505515979159,0.00030504330921756,-0.0002893535749174,0.00028934220444907,-0.00028935368271901,0.00028934210403847,-0.00030503741610324,0.00030506105543785,-0.00030503785940878,0.00030506056266621,-0.00028933612016887,0.00028935968197523,-0.00028933626632528,0.00028935950198448,-0.00038231839757534,0.00038232973771057,-0.00038232433539711,0.00038232380840179,-0.00038231825892302,0.00038232987809252,-0.00038232420820139,0.00038232392551274,-0.00037110977213406,0.00037110988050593,-0.00037111015518503,0.00037110952739528,-0.00037110428015669,0.0003711153794859,-0.00037110386669413,0.00037111580414235,-0.00030505483107638,0.00030504362402583,0.7695138823796,128566,2924,0.0015300400173594,0.0017653209544796,0.0014100076987139,17.466125290543,-0.00010027099767566,-0.00010027099767566,-0.00010027099767566,2066990.8154036,0.0047165462792954
19591759,0.29638837948135,0.0051877194683651,0.0017176880015208,0.0018386556472291,0.0016313758196152,-0.0003787380738432,0.00037873991622588,1.1784467943255e-09,6.6093708287727e-10,-5.6562397613461e-10,2.466656198964e-09,-0.0002412336386863,0.00024123795633424,-0.00035038164375414,0.00035038671751922,-0.00035038189407074,0.0003503865798023,-0.00024123609275943,0.0002412354027397,-0.0002412365572186,0.00024123497348333,-0.00035038470144173,0.00035038375769123,-0.00035038481585637,0.0003503835696862,-0.00042551213620979,0.00042551314403351,-0.00042551228487261,0.0004255129523966,-0.00042551116647242,0.00042551415188043,-0.000425511323186,0.00042551394465683,-0.00038107576972489,0.00038107913101418,-0.00038107613849722,0.0003810784529161,-0.00038107674393311,0.00038107805470091,-0.00038107717838208,0.00038107750613506,-0.0002412329786413,0.00024123842570684,1.1876177671954e-09,-1.8460057749672e-09,-1.0225247653953e-08,9.5722907922046e-09,-0.00043784851398293,0.00043784786359954,-0.00043172871811418,0.00043174850729083,-0.00044220063965109,0.00044219643507112,-0.00044220356168159,0.00044219339819538,-0.00043001528442991,0.00043000902748021,-0.00043000863777414,0.00043001556016318,-0.00043001622634173,0.00043000801766222,-0.00043000959576736,0.00043001453896116,-0.00043174944515964,0.00043172838644042,-0.00043172971579864,0.00043174747215394,-0.00044219400372881,0.00044220290082143,-0.00044219695045091,0.00044219983061397,-0.00043174847537979,0.0004317293888532,2.5254083921053e-09,2.9579907538955e-09,-0.00034851481042906,0.00034852027754789,1.2777653689442e-08,-7.1183863751159e-09,-0.00031402834725959,0.00031401405503849,-0.0002975453444824,0.00029753159563547,-0.00029754546874334,0.00029753147943826,-0.00031400838914689,0.00031403401726628,-0.00031400884363037,0.00031403351358209,-0.00029752571121299,0.00029755125672067,-0.00029752586067839,0.00029755107161421,-0.00039383105221423,0.00039384291706951,-0.00039383773296286,0.00039383624537879,-0.00039383090612985,0.00039384306498439,-0.00039383759335851,0.00039383637420631,-0.00038269255395146,0.00038269175015249,-0.00038269297320125,0.00038269136188122,-0.00038268634894872,0.00038269796137984,-0.00038268591272636,0.0003826984094879,-0.00031402797294943,0.00031401441294344,0.75193872216271,128566,2924,0.0015769095153784,0.0018226956476658,0.0014511489373567,17.988647676402,-9.6090818588781e-05,-9.6090818588781e-05,-9.6090818588781e-05,2109778.3529435,0.0048626333735168
19791759,0.30454820558316,0.0053257923307375,0.0017631763940895,0.0018902180416418,0.0016723978950062,-0.00039025049017612,0.00039025233197043,1.1859903492354e-09,6.5309089318328e-10,-4.5980997201804e-10,2.3595427318539e-09,-0.00024706359538781,0.00024706769261231,-0.00036102333513416,0.00036102820165274,-0.00036102359114844,0.00036102806320458,-0.00024706582379274,0.00024706536371526,-0.00024706630678197,0.00024706491179665,-0.00036102618382423,0.00036102545614074,-0.00036102630480437,0.00036102526063344,-0.0004388049451763,0.00043880602871366,-0.00043880509815021,0.00043880582969703,-0.0004388040453073,0.00043880696418456,-0.00043880420634896,0.00043880675209397,-0.00039282203872592,0.00039282534230757,-0.00039282241772948,0.00039282464806548,-0.00039282294087482,0.00039282433905527,-0.00039282338907253,0.00039282377010979,-0.0002470629206161,0.00024706816685739,1.1003405435723e-09,-1.7225355990875e-09,-1.1198823379324e-08,1.0579918448798e-08,-0.00045197119912308,0.00045197058326849,-0.00044569494144542,0.00044571663564872,-0.00045652332985944,0.00045651829786926,-0.00045652604696321,0.00045651546745327,-0.00044367498581471,0.00044366804381861,-0.00044366769841223,0.00044367523578172,-0.00044367585994986,0.00044366710356784,-0.00044366858743607,0.0004436742854449,-0.00044571754097218,0.00044569464122239,-0.00044569586689328,0.00044571567289484,-0.00045651603825044,0.00045652541874256,-0.00045651877632758,0.00045652255867665,-0.0004457166395966,0.00044569557528212,2.3925115553492e-09,2.8469178867175e-09,-0.00035857906581633,0.00035858428769365,1.3638207650785e-08,-8.2307341645465e-09,-0.00032293408484426,0.00032291757600147,-0.0003057020558322,0.00030568612980998,-0.00030570218923297,0.00030568600495051,-0.00032291216109574,0.00032293950186813,-0.0003229126306697,0.00032293898187139,-0.00030568048272917,0.00030570773069605,-0.00030568063699636,0.00030570753960376,-0.00040564892357513,0.0004056611931976,-0.00040565626244539,0.00040565386392104,-0.00040564877069385,0.00040566134756582,-0.0004056561147852,0.00040565400008112,-0.00039441068943709,0.00039440900629065,-0.00039441113289989,0.00039440859585566,-0.00039440384719909,0.00039441585549959,-0.0003944033914498,0.00039441632275491,-0.00032293368268498,0.00032291795964892,0.73294777098906,128566,2924,0.0016248080814783,0.0018814306283852,0.0014930253058644,18.511548048543,-9.1907615611656e-05,-9.1907615611656e-05,-9.1907615611656e-05,2160252.6649939,0.0050118829315496
19991759,0.31281741430735,0.0054685540789222,0.0018101608150739,0.0019436666832151,0.0017147265806332,-0.00040138648805458,0.00040138827613986,1.1593643120617e-09,6.265607492639e-10,-2.449082251336e-10,2.0878252866942e-09,-0.00025270228008556,0.00025270587685829,-0.0003714493683797,0.0003714536889576,-0.00037144961428011,0.00037145356239784,-0.00025270402700261,0.00025270402798159,-0.00025270454825575,0.00025270354606067,-0.00037145172884396,0.00037145143643524,-0.000371451865215,0.00037145123403817,-0.00045165957148217,0.00045166076624429,-0.00045165972884656,0.00045166056393875,-0.00045165883467937,0.00045166153613181,-0.0004516589918027,0.00045166132756633,-0.00040426417738389,0.00040426725506058,-0.00040426454459539,0.00040426657188255,-0.00040426490650626,0.0004042664243737,-0.00040426536756439,0.00040426584612644,-0.00025270163510238,0.00025270631287309,9.0397503958011e-10,-1.4431663091422e-09,-1.1527030487749e-08,1.0987626673768e-08,-0.00046572283903586,0.00046572230197423,-0.00045934939956287,0.0004593717265881,-0.0004704810729106,0.00047047542024824,-0.00047048333532846,0.00047047304937804,-0.00045695102353295,0.00045694376579326,-0.0004569435021683,0.00045695119649109,-0.00045695174747156,0.0004569429802284,-0.00045694423337015,0.00045695040841485,-0.0004593725766652,0.00045934918255713,-0.00045935015613706,0.00045937093424396,-0.00047047354319252,0.00047048277060067,-0.00047047580399814,0.00047048039325543,-0.00045937182205135,0.00045934996860343,2.3982803002037e-09,2.8899212431333e-09,-0.0003682206697136,0.00036822594172923,1.4022998499153e-08,-8.5569978140391e-09,-0.00033159983431894,0.00033158261483235,-0.00031357118434842,0.00031355464400055,-0.00031357134212196,0.00031355449589578,-0.000331577183896,0.00033160527346662,-0.00033157765358689,0.00033160474995812,-0.00031354892677801,0.00031357693523726,-0.00031354908138733,0.00031357674272035,-0.0004169861315977,0.0004169986765277,-0.00041699371306186,0.00041699110561745,-0.00041698596983811,0.00041699883913916,-0.00041699354884223,0.00041699125738448,-0.00040579501527026,0.00040579318943107,-0.0004057955079332,0.00040579273282766,-0.00040578797203643,0.0004058002405631,-0.00040578749058589,0.00040580073272533,-0.00033159936040932,0.00033158306828678,0.74869675956785,128566,2924,0.001671138790798,0.0019386190801303,0.0015331423964794,18.674326754948,-9.0605385960412e-05,-9.0605385960412e-05,-9.0605385960412e-05,2203047.3999568,0.0051562553664023
20191759,0.3210705740905,0.0056141364920253,0.0018580104311555,0.0019983262397659,0.0017577998211039,-0.00041229041224626,0.00041229215153284,1.154247349124e-09,5.8341919626021e-10,-4.8296919003453e-11,1.839471711843e-09,-0.00025804942275911,0.00025805246006012,-0.00038179457044974,0.00038179842568814,-0.00038179483882226,0.00038179827458583,-0.00025805068845926,0.00025805108327221,-0.00025805122151531,0.0002580506052865,-0.00038179650301324,0.00038179660000856,-0.00038179664710649,0.0003817964019964,-0.00046424160360529,0.00046424290542175,-0.00046424177125894,0.00046424269620944,-0.00046424100880572,0.00046424353135989,-0.00046424118196416,0.00046424330672544,-0.00041559126304928,0.00041559419486939,-0.0004155916831606,0.00041559346503163,-0.00041559185588547,0.0004155934986434,-0.00041559234804602,0.0004155929011456,-0.0002580487030954,0.00025805296180553,7.2039500125074e-10,-1.1710897751583e-09,-1.1594615821666e-08,1.1138863343194e-08,-0.00047931470789725,0.00047931425546637,-0.00047294437321548,0.00047296685832927,-0.00048430933586369,0.00048430323460048,-0.00048431113953457,0.0004843013279142,-0.0004699864860856,0.00046997908910144,-0.00046997888999852,0.00046998659269163,-0.0004699870591902,0.0004699784589796,-0.00046997947776984,0.00046998595229328,-0.00047296763758791,0.00047294427447351,-0.00047294499035056,0.00047296620714038,-0.00048430171382226,0.00048431066667212,-0.00048430354178994,0.00048430872903927,-0.00047296704648579,0.00047294489651655,2.5070790160459e-09,2.9978709659895e-09,-0.00037759401085163,0.00037759950336522,1.4269249355593e-08,-8.5658149628007e-09,-0.00034014568945386,0.00034012848987071,-0.00032125371865646,0.00032123715584206,-0.00032125386508511,0.00032123702028011,-0.00034012279537997,0.00034015138768414,-0.00034012329863319,0.00034015082846074,-0.00032123119948674,0.00032125970688228,-0.00032123136425129,0.00032125950275117,-0.00042802642845693,0.00042803926983292,-0.00042803409311568,0.00042803161633662,-0.00042802626269288,0.00042803943612973,-0.00042803393236123,0.00042803176393791,-0.00041704482844517,0.00041704312003411,-0.00041704530967049,0.0004170426772171,-0.00041703770025718,0.00041705025825881,-0.00041703720794479,0.00041705076015438,-0.000340145249416,0.0003401289053624,0.76566000885614,128566,2924,0.0017165026659329,0.0019951398616231,0.0015721425299877,18.643349168174,-9.0853206654608e-05,-9.0853206654608e-05,-9.0853206654608e-05,2237916.6251919,0.00529788209132
20391759,0.32930249831366,0.0057603289582924,0.001906016456645,0.0020533901329102,0.0018009223687372,-0.00042320051892163,0.00042320223241604,1.1505454136715e-09,5.6147574269853e-10,9.0693187488318e-11,1.6732064259863e-09,-0.00026322039681864,0.00026322308718551,-0.00039215847025384,0.0003921620051449,-0.00039215874438656,0.00039216184628695,-0.00026322133992045,0.00026322202635015,-0.00026322189787512,0.00026322153920142,-0.00039216010261164,0.00039216047952016,-0.00039216025877173,0.00039216028206752,-0.00047684377765233,0.0004768451606065,-0.00047684395306923,0.00047684494689621,-0.00047684328301065,0.00047684568560278,-0.00047684346200984,0.00047684545417906,-0.00042698225919281,0.00042698508173257,-0.00042698270059144,0.00042698433813753,-0.00042698275026307,0.0004269844870953,-0.00042698326508177,0.00042698387603603,-0.00026321965488794,0.00026322360471303,6.0597811699037e-10,-9.8202950834908e-10,-1.1750084419045e-08,1.1365518167045e-08,-0.00049300152076846,0.00049300113970658,-0.00048668607645121,0.00048670890648404,-0.00049826040015158,0.0004982539462361,-0.00049826190716741,0.00049825233879894,-0.00048305481487991,0.00048304726532097,-0.00048304709518575,0.00048305489205487,-0.0004830552901126,0.00048304673595476,-0.00048304758503448,0.00048305435266793,-0.00048670963593708,0.00048668606942544,-0.00048668659183324,0.00048670835704976,-0.00049825264562403,0.00049826150179502,-0.00049825417499412,0.00049825986498362,-0.00048670914590483,0.00048668659014026,2.6103578292379e-09,3.1199944002374e-09,-0.00038693740536707,0.00038694312693791,1.4587407606219e-08,-8.6393203695037e-09,-0.00034865982256376,0.00034864246292399,-0.00032887060357975,0.00032885390888639,-0.00032887075682066,0.00032885376780704,-0.00034863653505024,0.00034866575398772,-0.00034863705586302,0.00034866517576941,-0.00032884770177341,0.00032887684523898,-0.000328847872152,0.00032887663363532,-0.00043906317494692,0.00043907636430481,-0.00043907097180614,0.00043906857923125,-0.00043906300284776,0.00043907653686768,-0.00043907080467257,0.00043906873271787,-0.00042835588791561,0.00042835429192157,-0.0004283563879888,0.00042835383109265,-0.00042834864928197,0.00042836154153537,-0.00042834813790476,0.00042836206203454,-0.00034865936290154,0.0003486428942102,0.77157339556704,128566,2924,0.0017618909203895,0.0020520522127299,0.0016110169032826,18.607210201266,-9.1142318389872e-05,-9.1142318389872e-05,-9.1142318389872e-05,2271154.3273842,0.0054398206607932
20591759,0.33751091208395,0.0058936782691056,0.0019499640347322,0.0021037440784775,0.0018399701558959,-0.00043340013159397,0.00043340181149156,1.1415038562378e-09,5.3723114113388e-10,1.652445238197e-10,1.5633703176246e-09,-0.00026720389928699,0.00026720636304789,-0.00040115704479532,0.00040116036683036,-0.00040115732479769,0.00040116020743279,-0.00026720464356197,0.00026720549879974,-0.00026720522311048,0.00026720499317039,-0.00040115849795657,0.00040115902869626,-0.00040115866007589,0.00040115882336444,-0.00048899710210234,0.00048899851820684,-0.00048899728266731,0.00048899829797364,-0.00048899666749352,0.00048899898067348,-0.00048899685030268,0.00048899874399726,-0.00043729615717061,0.00043729889825509,-0.00043729661063417,0.00043729814106957,-0.00043729658441993,0.00043729836652016,-0.00043729711711887,0.00043729773931874,-0.00026720314472285,0.00026720688780275,5.5069115858664e-10,-8.5587701619171e-10,-1.1941610732754e-08,1.162470924023e-08,-0.00050596330267377,0.00050596299000887,-0.00049940545448626,0.00049942872967925,-0.00051139908752859,0.00051139237946415,-0.00051140041965188,0.00051139095001153,-0.00049557874981893,0.00049557106241363,-0.00049557088611692,0.0004955788373535,-0.00049557916694403,0.0004955705929437,-0.00049557131665494,0.0004955783591914,-0.0004994294037042,0.00049940552231187,-0.00049940590722902,0.00049942824311899,-0.00051139118492595,0.00051140007875487,-0.00051139253505009,0.0005113986239221,-0.00049942897210277,0.00049940598416198,2.5976544164291e-09,3.1292253337111e-09,-0.0003955787878955,0.00039558450594991,1.4811914719702e-08,-8.8630911678509e-09,-0.0003556914408954,0.00035567361313139,-0.00033525643156755,0.00033523930863288,-0.00033525659404588,0.00033523915869333,-0.00035566769071225,0.00035569736440554,-0.00035566822661738,0.00035569677009684,-0.00033523308904131,0.00033526268475922,-0.00033523326446488,0.00033526246719233,-0.00044965293616485,0.00044966626180191,-0.00044966088419889,0.00044965832582991,-0.000449652757412,0.00044966644086893,-0.00044966070904899,0.00044965848693306,-0.00043861280423872,0.00043861107605511,-0.00043861332854357,0.00043861059270564,-0.00043860543893572,0.00043861845382546,-0.00043860490744023,0.00043861899334905,-0.00035569095331561,0.00035567407052397,0.70761958528615,128566,2924,0.0018043222841711,0.0021059467375408,0.0016469691520665,18.570859709567,-9.1433122323464e-05,-9.1433122323464e-05,-9.1433122323464e-05,2317530.3029442,0.0055728358031993
20791759,0.34528645915809,0.0060269123840865,0.0019937820735162,0.0021541105587975,0.0018790197517728,-0.00044221324893942,0.00044221486831889,1.1188694859008e-09,4.9971126184044e-10,3.3067800232284e-10,1.3343972129635e-09,-0.00027091343047667,0.00027091543619434,-0.00040925897339506,0.00040926184720799,-0.00040925925461966,0.00040926168432635,-0.00027091376755393,0.00027091497382716,-0.00027091437858226,0.00027091445491199,-0.00040926003529794,0.00040926089980914,-0.000409260210762,0.00040926069272035,-0.00049942035545414,0.00049942184734103,-0.00049942054377065,0.00049942162317821,-0.0004994200509118,0.00049942217847059,-0.00049942023725123,0.00049942193702105,-0.00044639961421894,0.00044640217652315,-0.00044640008220189,0.00044640140976658,-0.00044639990649962,0.00044640177699023,-0.0004464004634891,0.0004464011394615,-0.00027091266907271,0.00027091596590978,4.045539473899e-10,-6.0968821129659e-10,-1.1520366241396e-08,1.1299534503389e-08,-0.00051724402373952,0.00051724380735362,-0.00051058197870653,0.00051060448374923,-0.00052284282649426,0.0005228360800081,-0.00052284377741712,0.00052283503674184,-0.00050645048003467,0.00050644300821929,-0.00050644286067539,0.00050645052918967,-0.00050645077136896,0.00050644266847692,-0.00050644316376984,0.00050645018271588,-0.00051060508943349,0.0005105821655118,-0.00051058229860653,0.00051060413142084,-0.00052283516769716,0.00052284352438136,-0.00052283613133053,0.00052284246132946,-0.00051060478566373,0.00051058249839845,2.7679726445301e-09,3.3216916467189e-09,-0.00040289047779319,0.0004028965621203,1.4635112038989e-08,-8.298806857409e-09,-0.00036196115822725,0.00036194441188189,-0.00034086310409285,0.00034084710741655,-0.00034086327723376,0.00034084694808592,-0.00036193812567843,0.00036196744516005,-0.00036193867440256,0.0003619668365602,-0.00034084049580016,0.00034086975187552,-0.00034084067523478,0.00034086952910291,-0.00045857073456535,0.00045858416751263,-0.00045857843943455,0.00045857647532954,-0.00045857054933689,0.00045858435302917,-0.00045857825583621,0.00045857664444496,-0.00044757922644325,0.00044757813017364,-0.00044757977566485,0.00044757762346087,-0.00044757213109064,0.0004475852385132,-0.00044757158023301,0.00044758579664152,-0.00036196063784336,0.00036194489806868,0.7468907352726,128566,2924,0.0018409847446682,0.00215284891371,0.0016773894721591,17.866373994294,-9.706900804565e-05,-9.706900804565e-05,-9.706900804565e-05,2346185.0550237,0.0056874688238605
20991759,0.35253613786224,0.0061466594834371,0.0020332257983822,0.0021994490867251,0.0019139845983298,-0.00044967313119998,0.00044967470742199,1.0967007347659e-09,4.7903961429361e-10,4.2463655057133e-10,1.1952020715001e-09,-0.00027316481980979,0.00027316658563375,-0.00041581150635456,0.0004158140946817,-0.00041581177644188,0.00041581394345232,-0.00027316492652207,0.0002731663518495,-0.00027316557433951,0.0002731658082885,-0.00041581232991984,0.00041581338995339,-0.00041581251864284,0.00041581317523476,-0.0005085167408397,0.00050851826989463,-0.00050851693367024,0.00050851804371617,-0.00050851651619541,0.00050851852030262,-0.00050851669795939,0.00050851828258326,-0.00045405643006693,0.00045405886008755,-0.00045405688707205,0.0004540581068336,-0.00045405663381843,0.00045405854823046,-0.00045405720324054,0.00045405790418678,-0.00027316409122898,0.0002731670803955,3.3625728948239e-10,-4.6137332024412e-10,-1.11445586895e-08,1.100091603539e-08,-0.00052709250698344,0.00052709236737003,-0.00052026981380257,0.0005202916507194,-0.00053282397651958,0.0005328173312743,-0.00053282472637072,0.00053281649150083,-0.00051591498679063,0.00051590774644502,-0.00051590759098697,0.00051591503611816,-0.00051591521197688,0.00051590747529423,-0.00051590781997227,0.00051591476510857,-0.00052029221006712,0.00052027008819502,-0.00052027005113426,0.00052029138244555,-0.00053281654734987,0.00053282453563667,-0.00053281728846665,0.00053282369827518,-0.00052029196737389,0.00052027035887071,2.8909677112571e-09,3.4831595653295e-09,-0.00040893605913539,0.00040894243028028,1.4440330625283e-08,-7.800285952454e-09,-0.00036669161814369,0.00036667578356964,-0.00034505743948566,0.00034504245226984,-0.0003450576370723,0.0003450422695441,-0.00036666924041796,0.00036669816809274,-0.00036666979224839,0.00036669755197018,-0.00034503552674787,0.00034506440491338,-0.00034503570730528,0.00034506418000224,-0.00046625803049074,0.00046627150499364,-0.00046626551051001,0.00046626403833205,-0.00046625783605692,0.00046627169943516,-0.00046626531025249,0.00046626422373196,-0.00045512685326924,0.00045512632040366,-0.00045512745186763,0.00045512576607,-0.0004551200283483,0.00045513315952357,-0.00045511945035008,0.00045513374371397,-0.00036669102708292,0.00036667633967716,0.72120224794448,128566,2924,0.0018720180825246,0.002193794533568,0.0017025422171954,16.95906053136,-0.00010432751574912,-0.00010432751574912,-0.00010432751574912,2370729.0366983,0.0057851650676192
21191759,0.35928944709572,0.0062585287610906,0.0020700803540426,0.0022418276233867,0.0019466207836612,-0.00045651921387727,0.00045652079548807,1.1157949952288e-09,4.6520817616543e-10,4.2393556008905e-10,1.2017499643341e-09,-0.00027536818136358,0.00027536990397815,-0.00042187495127198,0.00042187757111302,-0.00042187523964502,0.00042187740171395,-0.00027536825989907,0.00027536969222504,-0.00027536892235437,0.00027536914416406,-0.00042187578972893,0.00042187685175148,-0.00042187598432358,0.00042187663593424,-0.00051683949346071,0.0005168410331326,-0.00051683969493924,0.00051684079962928,-0.00051683926356665,0.00051684128845015,-0.00051683945811698,0.00051684103726201,-0.00046109195535641,0.0004610944344655,-0.00046109245058261,0.00046109363739351,-0.0004610921686982,0.0004610941092122,-0.0004610927624118,0.00046109344278025,-0.00027536739646327,0.00027537045361651,3.578110021195e-10,-4.3765074609953e-10,-1.101630660166e-08,1.091573919866e-08,-0.00053611133643282,0.00053611124104349,-0.00052913285562506,0.00052915453146927,-0.00054194592089738,0.00054193938058575,-0.00054194665882721,0.00054193855158161,-0.00052460640236903,0.00052459927526036,-0.00052459907316177,0.0005246064933099,-0.00052460662440213,0.00052459900682394,-0.00052459930470632,0.00052460622014778,-0.00052915505899298,0.00052913319877017,-0.00052913309956697,0.0005291542559803,-0.0005419385501119,0.000541946519938,-0.00054193929818864,0.00054194567510379,-0.00052915482659551,0.00052913346069404,2.9928053284618e-09,3.5890947899358e-09,-0.00041444866654101,0.0004144552474989,1.4459879934686e-08,-7.5966927439075e-09,-0.00037102455003826,0.00037100913628033,-0.00034892308973047,0.00034890850178804,-0.00034892328112768,0.000348908326421,-0.00037100235098736,0.00037103133613901,-0.00037100293063149,0.00037103069113904,-0.00034890134976167,0.0003489302801853,-0.0003489015384913,0.00034893004503042,-0.00047325232629665,0.00047326594067002,-0.00047325974394449,0.00047325853659111,-0.00047325212777181,0.00047326613969218,-0.00047325954448008,0.00047325872093823,-0.00046203976428365,0.00046203949482955,-0.00046204035899562,0.00046203894451378,-0.00046203300584984,0.00046204626778417,-0.00046203241645948,0.00046204686422538,-0.00037102397791235,0.00037100966980051,0.72387547212921,128566,2924,0.0019004974246105,0.0022312891684593,0.0017254769709073,16.046231902092,-0.00011163014478326,-0.00011163014478326,-0.00011163014478326,2391922.8531661,0.0058745988239577
21391759,0.36567190716933,0.0063646285519905,0.002105032840407,0.0022820483887207,0.0019775473228628,-0.00046326209982802,0.00046326375112282,1.1655501804185e-09,4.8451477715614e-10,3.1154033378901e-10,1.3875201381093e-09,-0.00027766903721826,0.00027767107103682,-0.00042791943551759,0.00042792244041738,-0.00042791974190522,0.00042792225234013,-0.00027766937854421,0.00027767059113667,-0.00027767004874288,0.00027767003957196,-0.00042792057444614,0.00042792141732722,-0.00042792077171508,0.00042792119987567,-0.00052497621921933,0.00052497773647776,-0.00052497642742364,0.00052497749531393,-0.00052497588887926,0.00052497809329466,-0.00052497609563036,0.00052497782866727,-0.00046804601151701,0.00046804869608661,-0.00046804654003045,0.00046804785638533,-0.00046804633095862,0.00046804826278751,-0.00046804694307079,0.00046804757117216,-0.00027766819731048,0.00027767167598835,5.0235503142803e-10,-5.8844393776516e-10,-1.1384483404053e-08,1.1277821093072e-08,-0.00054494175732321,0.00054494165700626,-0.00053783582996333,0.00053785831978264,-0.0005508692559488,0.00055086275128135,-0.00055087027426719,0.00055086163520414,-0.00053310102522117,0.00053309374999015,-0.00053309345696936,0.00053310121218784,-0.00053310134035751,0.00053309338502383,-0.00053309378692652,0.00053310083754491,-0.00053785885564439,0.0005378361822857,-0.00053783617864942,0.0005378579381595,-0.00055086163410246,0.00055087014009796,-0.00055086267774494,0.0005508689929262,-0.00053785853390476,0.00053783653469023,3.0053639552935e-09,3.6081213456564e-09,-0.00041990968283077,0.00041991629588285,1.4858703180979e-08,-7.9594580216479e-09,-0.00037537555818152,0.0003753594497052,-0.00035283799906961,0.00035282269594909,-0.00035283818384589,0.00035282252647842,-0.00037535260309813,0.00037538240086512,-0.00037535321246647,0.00037538172428466,-0.00035281549948514,0.00035284523007658,-0.00035281569701573,0.00035284498286195,-0.00048011660526906,0.00048013049705535,-0.0004801242739901,0.00048012284151283,-0.00048011640194443,0.00048013070159444,-0.00048012407505738,0.00048012302552938,-0.00046888817956371,0.000468887687725,-0.00046888877133357,0.00046888713798427,-0.00046888117403558,0.00046889470694866,-0.00046888057085396,0.00046889531883163,-0.00037537500684657,0.00037535996399167,0.72692810839413,128566,2924,0.0019285469179509,0.0022679990870276,0.0017481961688904,15.323940891095,-0.00011740847287124,-0.00011740847287124,-0.00011740847287124,2411512.1945603,0.0059626016124277
21591759,0.37172933009596,0.0064661599695038,0.0021384686212344,0.0023205732874268,0.0020071180608426,-0.00046973553694597,0.0004697372730467,1.2127887588639e-09,5.2120189491194e-10,1.944238666461e-10,1.5939263729964e-09,-0.00027989312448497,0.0002798955723146,-0.00043378829762222,0.00043379170834614,-0.00043378860277631,0.00043379152197048,-0.00027989377561201,0.00027989478074312,-0.00027989447284059,0.0002798942030405,-0.00043378974914267,0.00043379036989017,-0.00043378995613724,0.00043379014487568,-0.00053276408247454,0.00053276558233741,-0.00053276429556877,0.00053276533512609,-0.00053276364809256,0.00053276604480368,-0.00053276385663142,0.00053276577775568,-0.00047476344010192,0.00047476631930982,-0.00047476396984287,0.00047476547236218,-0.00047476386093591,0.00047476578456333,-0.0004747644859499,0.00047476507351483,-0.00027989229081093,0.00027989617005071,6.5554977972775e-10,-7.6300602268976e-10,-1.1976570033624e-08,1.1850496323001e-08,-0.00055342805891475,0.00055342793883849,-0.00054623214939264,0.00054625586513374,-0.0005594434931737,0.00055943691058735,-0.000559444836138,0.00055943545983615,-0.00054124119519852,0.00054123362835342,-0.00054123325271953,0.00054124147600662,-0.00054124161805169,0.00054123315160686,-0.00054123368641767,0.00054124099315244,-0.0005462564272128,0.00054623247799267,-0.00054623259930831,0.00054625537931306,-0.00055943549053951,0.0005594446796773,-0.0005594368460236,0.00055944321079829,-0.0005462559926743,0.00054623294622299,2.9698569378546e-09,3.5990018546329e-09,-0.00042514486840083,0.00042515143642742,1.5407903141519e-08,-8.554567697817e-09,-0.00037958295343793,0.00037956563155633,-0.00035663054515772,0.00035661408899442,-0.00035663074502001,0.000356613905796,-0.00037955884864819,0.00037958973547878,-0.00037955946480967,0.00037958904743103,-0.00035660692699937,0.00035663774515116,-0.00035660712703733,0.00035663749358206,-0.00048668309710775,0.00048669731672627,-0.00048669114880922,0.00048668927821478,-0.00048668288727918,0.00048669752848442,-0.00048669093974185,0.00048668947269464,-0.0004754974137084,0.00047549652660039,-0.0004754980359353,0.00047549594424238,-0.00047549005177318,0.00047550389996345,-0.00047548942899774,0.00047550453344644,-0.00037958235927119,0.00037956618863619,0.73328393316879,128566,2924,0.00195547515574,0.0023032770878449,0.0017699753271299,14.658664717479,-0.00012273068226016,-0.00012273068226016,-0.00012273068226016,2428385.8518025,0.0060470974175263
21791759,0.3774777856283,0.0065611056914698,0.0021697564007113,0.0023566355095311,0.0020347137812273,-0.00047573028145282,0.00047573208734798,1.2562234660957e-09,5.4687411490794e-10,1.1317538142273e-10,1.7486830529625e-09,-0.00028174348259482,0.00028174621886422,-0.00043914136002288,0.00043914508195155,-0.00043914167178761,0.00043914489103384,-0.00028174435164476,0.00028174521178807,-0.00028174506547438,0.00028174461489956,-0.00043914304456906,0.0004391435115172,-0.00043914325741347,0.00043914327991631,-0.00054004498668254,0.0005400464838236,-0.00054004520433712,0.00054004622900855,-0.00054004447520773,0.00054004702397831,-0.00054004468908423,0.00054004675068769,-0.00048097311353576,0.00048097615670133,-0.00048097365556325,0.00048097528751868,-0.00048097361256225,0.00048097554364459,-0.00048097425021304,0.00048097480988429,-0.00028174263199973,0.00028174683405368,7.6706326271445e-10,-8.8975298562763e-10,-1.2605819008118e-08,1.2466143489697e-08,-0.00056135742520851,0.00056135729085606,-0.00055405525496383,0.00055408025733072,-0.00056744602904818,0.00056743925423493,-0.00056744760301548,0.00056743756444701,-0.00054884694298477,0.00054883903162312,-0.00054883859850729,0.00054884729390939,-0.00054884744272644,0.00054883847483726,-0.00054883910901947,0.0005488467311042,-0.00055408083001243,0.0005540555682569,-0.00055405578252371,0.00055407969174654,-0.00056743761427686,0.00056744743682002,-0.0005674392007019,0.00056744572868151,-0.00055408031765855,0.00055405611638469,2.9057449272648e-09,3.554127668026e-09,-0.00042995058427374,0.00042995704201285,1.5970531953046e-08,-9.2317768046273e-09,-0.00038330346431331,0.00038328478868914,-0.00035999245552321,0.00035997467621645,-0.00035999266227744,0.0003599744865437,-0.00038327812212863,0.00038331013592357,-0.00038327875359268,0.00038330942809246,-0.00035996762027564,0.00035999955431596,-0.00035996782506231,0.00035999929552425,-0.00049279767579002,0.00049281219100639,-0.0004928061406614,0.00049280373954858,-0.00049279746009448,0.0004928124093107,-0.00049280592514156,0.0004928039406152,-0.0004815924671562,0.00048159107591329,-0.00048159310766617,0.00048159047386655,-0.00048158470978831,0.00048159884290833,-0.00048158406946926,0.00048159949553763,-0.00038330285059183,0.00038328536651689,0.72318902735675,128566,2924,0.0019804119932939,0.0023362387224502,0.0017899675327425,13.994939806184,-0.00012804048155052,-0.00012804048155052,-0.00012804048155052,2444713.4902954,0.0061254684807283
21991759,0.38327631001322,0.0066553670951438,0.0022008438165992,0.0023924631053031,0.0020620601732415,-0.00048317036044335,0.00048317229469755,1.3289331872901e-09,6.0146512610914e-10,-7.541310119623e-11,2.0721094661252e-09,-0.0002849451659624,0.00028494852370343,-0.00044588616911549,0.00044589053483717,-0.00044588648853605,0.00044589034017486,-0.0002849465279629,0.00028494702973801,-0.00028494725205673,0.00028494640582344,-0.0004458883592956,0.00044588846108304,-0.00044588857421351,0.00044588821878916,-0.00054881281030198,0.00054881427182222,-0.00054881303069827,0.00054881400746426,-0.00054881213094799,0.00054881498055383,-0.00054881235039151,0.00054881470090394,-0.00048860896615113,0.00048861232362212,-0.00048860952980518,0.00048861144126311,-0.00048860963579617,0.00048861154218484,-0.00048861029275429,0.00048861079151141,-0.00028494429868762,0.00028494915596832,9.9381820459486e-10,-1.1771589859245e-09,-1.3959014412692e-08,1.3761906574201e-08,-0.00057077528715073,0.00057077509518377,-0.00056332905903464,0.00056335677260873,-0.00057692568802209,0.00057691848352351,-0.00057692776265809,0.00057691628004834,-0.00055794841139142,0.00055793974154064,-0.00055793921041803,0.00055794888840199,-0.00055794907724441,0.00055793901253273,-0.00055793988683385,0.00055794815359923,-0.00056335738544915,0.00056332929714281,-0.0005633297550078,0.00056335603520088,-0.00057691640032872,0.00057692754849077,-0.00057691848694147,0.00057692532703445,-0.00056335670398792,0.00056333001782332,2.6900986193625e-09,3.3573754609411e-09,-0.00043617105115629,0.00043617709305684,1.7070405946388e-08,-1.0767545330772e-08,-0.00038835480791175,0.00038833308660875,-0.00036471025171296,0.00036468945871835,-0.00036471046504327,0.0003646892626175,-0.00038832684635303,0.00038836105619885,-0.0003883274929938,0.0003883603282994,-0.00036468282379164,0.00036471693164148,-0.00036468303303439,0.00036471666524444,-0.00050036757935689,0.00050038255201241,-0.00050037692068668,0.00050037322399897,-0.00050036735795399,0.00050038277700908,-0.00050037669892937,0.00050037343160537,-0.00048910625893549,0.00048910360639985,-0.00048910691653562,0.00048910298369912,-0.0004890976403844,0.00048911223134296,-0.00048909698406818,0.00048911290419302,-0.00038835417605249,0.00038833368455297,0.71247115521131,128566,2924,0.0020113588460181,0.0023753864754641,0.0018158429584707,14.108716705632,-0.00012713026635494,-0.00012713026635494,-0.00012713026635494,2472170.0866199,0.0062220378312939
22191759,0.38922893857592,0.0067504609082006,0.0022322298150107,0.0024286533776876,0.0020895777155022,-0.00049114551404262,0.00049114755122483,1.3939609144215e-09,6.3851653233176e-10,-1.9696706739424e-10,2.3018366688375e-09,-0.00028855965920957,0.0002885634184085,-0.0004530847497304,0.00045308958561726,-0.00045308508778465,0.00045308937634852,-0.00028856134436863,0.0002885616079193,-0.00028856206614339,0.00028856096879851,-0.00045308729588819,0.00045308716042109,-0.00045308750851736,0.00045308691162992,-0.00055817964380374,0.00055818109807788,-0.00055817986713569,0.00055818082325328,-0.00055817884640715,0.00055818192417755,-0.00055817907682018,0.00055818163218561,-0.0004966792118802,0.00049668282218965,-0.00049667980522234,0.00049668190050086,-0.0004966800064645,0.00049668191749439,-0.00049668067535251,0.00049668113958463,-0.00028855874145873,0.0002885641041164,1.1465493505867e-09,-1.3744751709917e-09,-1.5220334995802e-08,1.498021804768e-08,-0.00058077174827033,0.00058077151409725,-0.00057313028999745,0.00057316051517287,-0.00058695886037681,0.00058695112879941,-0.00058696126798215,0.00058694858273794,-0.00056765884513092,0.0005676494319622,-0.00056764884002236,0.00056765940934516,-0.00056765962096523,0.00056764858761748,-0.00056764963234388,0.00056765855542995,-0.00057316114782773,0.00057313047498112,-0.00057313110718794,0.00057315965208501,-0.00058694874984581,0.00058696102891119,-0.00058695118406286,0.0005869584492789,-0.00057316035953962,0.00057313130641919,2.4617804703267e-09,3.138070851562e-09,-0.00044288755398428,0.00044289314438687,1.8084844480126e-08,-1.2253750369813e-08,-0.00039377562691503,0.00039375099284303,-0.00036983960009521,0.0003698158787069,-0.00036983980897428,0.0003698156873216,-0.00039374518669356,0.00039378143849893,-0.00039374586253112,0.00039378067942346,-0.00036980970331021,0.00036984582115552,-0.00036980992148871,0.00036984554268768,-0.00050849573257494,0.0005085110833122,-0.00050850590274557,0.00050850092622384,-0.00050849550594152,0.00050851131434736,-0.00050850568030396,0.0005085011344303,-0.00049706421415745,0.00049706028673415,-0.0004970648726303,0.00049705966096875,-0.00049705477102625,0.0004970697341893,-0.00049705409968453,0.00049707042501845,-0.00039377501280078,0.00039375157423127,0.70115780750356,128566,2924,0.0020445300263116,0.0024169376402991,0.001843780809903,14.451305794865,-0.00012438955364108,-0.00012438955364108,-0.00012438955364108,2505625.6651151,0.0063253496366277
22391759,0.39533977661757,0.0068519018729073,0.0022656512486813,0.0024673065903113,0.0021189440339147,-0.0004995404508624,0.00049954254408911,1.4276159516876e-09,6.6051040688252e-10,-1.9394498996663e-10,2.3573543422224e-09,-0.00029265479332792,0.00029265866845146,-0.00046092720987907,0.000460932155378,-0.00046092754725595,0.00046093194684792,-0.0002926565242824,0.00029265681883335,-0.0002926572678531,0.00029265614984489,-0.00046092980330101,0.00046092968265503,-0.00046093002385429,0.00046092942473627,-0.00056790908252504,0.00056791058092046,-0.00056790930964559,0.00056791029842188,-0.0005679082696496,0.0005679114222166,-0.00056790850215071,0.0005679111270631,-0.00050526864256851,0.00050527233132451,-0.00050526924084989,0.00050527140222635,-0.00050526945072719,0.00050527141590942,-0.00050527013338082,0.00050527061729575,-0.00029265388214582,0.00029265934950219,1.1715989412507e-09,-1.405307785253e-09,-1.6123011882819e-08,1.5878130950616e-08,-0.00059124351617742,0.00059124327622069,-0.00058349292044877,0.00058352492167727,-0.00059746547159687,0.00059745719752894,-0.00059746793764061,0.000597454586713,-0.00057778905223997,0.00057777906181422,-0.00057777846863096,0.00057778963888231,-0.00057778984768559,0.00057777819694637,-0.00057777927628946,0.00057778876699363,-0.00058352555498581,0.00058349308818952,-0.00058349375024726,0.00058352404548884,-0.0005974547703269,0.00059746769154977,-0.00059745725141185,0.00059746505972416,-0.00058352474383445,0.00058349394345724,2.3252545377214e-09,3.0268423977998e-09,-0.00044996708020003,0.00044997242089281,1.8839969987592e-08,-1.3268816285776e-08,-0.00039975895497781,0.0003997322796919,-0.00037548056588431,0.00037545486272689,-0.0003754807883447,0.00037545465785778,-0.00039972674795155,0.00039976449897293,-0.00039972743053408,0.00039976372705964,-0.0003754489345632,0.00037548654360412,-0.00037544915500237,0.00037548626070833,-0.00051693726701307,0.00051695295151475,-0.00051694802816247,0.00051694220392851,-0.00051693703389543,0.0005169531892773,-0.00051694779590898,0.00051694242191547,-0.00050553476209382,0.0005055300299485,-0.0005055354495734,0.00050552937451722,-0.00050552475404074,0.00050554004097749,-0.00050552406330506,0.00050554075169567,-0.00039975829843912,0.00039973290373303,0.72867975565836,128566,2924,0.0020794460464446,0.0024604625716798,0.0018732282730404,14.800125776524,-0.00012159899378781,-0.00012159899378781,-0.00012159899378781,2534806.182873,0.0064339331683534
22591759,0.40161031706751,0.0069569973430055,0.0023002506935334,0.002507435120314,0.0021493115291581,-0.0005081673441975,0.00050816945890416,1.4477195993806e-09,6.6184398531909e-10,-1.2432116130915e-10,2.3099509833331e-09,-0.00029663290418097,0.00029663666703553,-0.00046903754242646,0.00046904240161231,-0.00046903788545394,0.0004690421861144,-0.00029663450401694,0.00029663495268996,-0.00029663526389948,0.00029663426560965,-0.00046904002091722,0.00046904004366,-0.00046904024904086,0.00046903978112854,-0.00057793375759317,0.00057793532232471,-0.00057793398999377,0.00057793503255409,-0.00057793298299546,0.00057793612400472,-0.00057793322177436,0.00057793582250058,-0.00051416293694657,0.0005141666270841,-0.00051416355487351,0.00051416568000698,-0.00051416370872451,0.00051416575151389,-0.0005141644072922,0.00051416493253575,-0.00029663197523645,0.00029663736917349,1.12332902504e-09,-1.3374523202203e-09,-1.6753588498372e-08,1.6527112829371e-08,-0.0006021060330376,0.00060210581156209,-0.00059431724487682,0.00059435048091377,-0.00060837545371259,0.00060836665861918,-0.00060837780431622,0.00060836416181606,-0.00058822489108675,0.00058821446110948,-0.00058821389430161,0.00058822546418704,-0.00058822564868536,0.00058821363475465,-0.00058821466435822,0.000588224630494,-0.0005943510964862,0.00059431743234736,-0.00059431803538039,0.00059434964294339,-0.00060836432718753,0.00060837757981445,-0.0006083666938917,0.00060837506067338,-0.0005943503251239,0.00059431824879739,2.2546094066856e-09,2.9744664392988e-09,-0.00045721288945717,0.0004572181068186,1.9416576968332e-08,-1.3971776518118e-08,-0.00040588422378262,0.00040585614466341,-0.00038121306576066,0.00038118598898716,-0.00038121329420148,0.00038118577867218,-0.00040585073963941,0.00040588964293138,-0.00040585143818319,0.00040588885010095,-0.00038118017713728,0.00038121892886809,-0.00038118040270916,0.00038121863849751,-0.00052562864445159,0.00052564462464889,-0.00052563983202576,0.0005256334511231,-0.00052562840532695,0.00052564486850122,-0.00052563959354045,0.00052563367483284,-0.00051430924764504,0.00051430398877348,-0.00051430995282942,0.00051430331604551,-0.00051429883354818,0.00051431440564818,-0.0005142981249451,0.00051431513438391,-0.00040588354870943,0.00040585678633931,0.7362069902531,128566,2924,0.0021153263594667,0.0025056096549922,0.0019033671142913,15.149202115504,-0.00011880638307597,-0.00011880638307597,-0.00011880638307597,2561413.9961003,0.0065458280958042
22791759,0.40793898986508,0.0070639768532356,0.0023354473062555,0.0025483704956066,0.0021801590513735,-0.00051651750411907,0.00051651958371097,1.4397473348616e-09,6.3516546543985e-10,4.9487137172517e-11,2.0987950292525e-09,-0.00030025340337456,0.00030025673164803,-0.00047691610849595,0.00047692055860439,-0.00047691645653033,0.00047692033534259,-0.00030025460426835,0.00030025541553033,-0.0003002553864282,0.00030025471485385,-0.00047691820791721,0.00047691857920416,-0.00047691844630603,0.00047691831470745,-0.00058768824703847,0.00058768991042936,-0.00058768848639677,0.00058768961517558,-0.00058768759866368,0.00058769058416057,-0.00058768784372287,0.00058769027629821,-0.00052282106433238,0.00052282461107307,-0.00052282170660091,0.00052282365132845,-0.00052282171146751,0.00052282386493568,-0.00052282243024755,0.0005228230297692,-0.00030025245619846,0.00030025745292714,9.6284147300098e-10,-1.1133046095437e-09,-1.6845375136412e-08,1.6679177800008e-08,-0.00061274103378937,0.0006127408729081,-0.000604956118988,0.00060498952679432,-0.00061906046829383,0.00061905127409395,-0.00061906244236746,0.0006190491584679,-0.00059840430574159,0.00059839373073047,-0.00059839323094619,0.00059840481287155,-0.00059840493892519,0.00059839303254927,-0.00059839387663843,0.00059840410725648,-0.00060499009501947,0.00060495637972619,-0.00060495678151444,0.00060498881725597,-0.0006190492566409,0.00061906227602824,-0.00061905124697849,0.00061906013791121,-0.00060498945181341,0.00060495706751804,2.2968537370507e-09,3.0350078178408e-09,-0.00046414286712981,0.00046414818933271,1.959794183869e-08,-1.4039646996357e-08,-0.00041169904961201,0.00041167081830872,-0.00038662403664516,0.00038659683661714,-0.00038662427145519,0.00038659662078584,-0.00041166530695224,0.000411704574558,-0.00041166602197531,0.00041170376208575,-0.0003865909044152,0.00038663002118222,-0.00038659113538311,0.00038662972382815,-0.00053402637293035,0.00053404253143488,-0.00053403764469811,0.00053403127439222,-0.00053402612748689,0.00053404278124001,-0.00053403739979936,0.00053403150372167,-0.00052284228740874,0.00052283707154959,-0.00052284301117688,0.0005228363822061,-0.00052283181340918,0.00052284754949597,-0.00052283108594614,0.00052284829567263,-0.00041169835548442,0.00041167147590029,0.74292714305375,128566,2924,0.0021500553891685,0.0025498090215209,0.0019321922943075,15.287404991503,-0.00011770076006797,-0.00011770076006797,-0.00011770076006797,2584727.0658088,0.0066543001530349
22991759,0.41431176955547,0.0071660025513703,0.0023691028714447,0.002587475825121,0.0022094238548046,-0.00052456061356228,0.00052456265547411,1.4299535859363e-09,6.0782007219784e-10,1.8106829635548e-10,1.9271466553455e-09,-0.00030330574265196,0.00030330871730877,-0.00048418098582455,0.00048418510334884,-0.00048418133962022,0.00048418487547777,-0.00030330662560192,0.00030330771758603,-0.00030330743058133,0.00030330700158217,-0.0004841827882312,0.00048418342503718,-0.00048418303481098,0.00048418315571282,-0.00059726321034902,0.00059726494265133,-0.00059726345643302,0.00059726464192258,-0.00059726266132396,0.00059726551524108,-0.00059726291196418,0.00059726520160434,-0.00053102616450987,0.00053102959052803,-0.00053102682360997,0.00053102861466309,-0.00053102671024472,0.00053102894489193,-0.00053102744888186,0.00053102809377377,-0.00030330477992103,0.00030330945348317,8.4423175926985e-10,-9.2957550634166e-10,-1.6745989876887e-08,1.6641334966228e-08,-0.00062308461478662,0.00062308451607611,-0.00061517922153522,0.00061521245419587,-0.00062942221507162,0.00062941283322594,-0.00062942389465229,0.00062941101723723,-0.0006083632793054,0.00060835271306914,-0.00060835224987492,0.00060836374732778,-0.00060836381488488,0.00060835211558088,-0.0006083527974965,0.00060836314287815,-0.00061521297612884,0.00061517955675126,-0.00061517978268191,0.00061521184663853,-0.00062941104639683,0.00062942378660219,-0.00062941274083412,0.00062942194948933,-0.00061521243280519,0.00061518014403721,2.3325065955128e-09,3.0901277682987e-09,-0.00047074957801977,0.00047075499251463,1.9581996139546e-08,-1.3922156266443e-08,-0.00041681294953581,0.00041678493448698,-0.00039144475513903,0.00039141779598154,-0.00039144499736545,0.00039141757342123,-0.00041677932565452,0.00041681857036769,-0.00041678005675957,0.00041681773976632,-0.00039141175434587,0.0003914508484747,-0.00039141199058531,0.00039145054465009,-0.00054223199628016,0.00054224819278358,-0.00054224322531355,0.00054223697908655,-0.00054223174441515,0.00054224844868866,-0.0005422429733833,0.00054223721471018,-0.00053091908935495,0.00053091402245603,-0.00053091983473065,0.00053091331494579,-0.00053090867633495,0.00053092444106612,-0.0005309079306374,0.00053092520555625,-0.00041681223298112,0.0004167856116509,0.70494323381093,128566,2924,0.0021835071296425,0.0025927952877543,0.0019596724159427,15.399220606164,-0.00011680623515068,-0.00011680623515068,-0.00011680623515068,2613556.0514427,0.0067589243265343
23191759,0.42072663854737,0.0072697207193968,0.0024033111310481,0.0026272632418222,0.0022391463465266,-0.00053274659815939,0.00053274862010477,1.4293405423187e-09,5.887662419484e-10,2.7322986314759e-10,1.813690196583e-09,-0.00030682390036848,0.00030682663337979,-0.00049169606428984,0.00049169996485998,-0.000491696424029,0.00049169973071809,-0.00030682456058469,0.00030682585345032,-0.00030682538868626,0.00030682512451702,-0.00049169766525724,0.00049169848962962,-0.00049169792061247,0.00049169821673729,-0.00060689768052114,0.0006068994669668,-0.00060689793355171,0.00060689916083907,-0.00060689719866368,0.00060689997120669,-0.00060689745531945,0.00060689965126432,-0.00053936713955468,0.00053937049641008,-0.00053936782230145,0.00053936950788468,-0.00053936761972052,0.00053936992046147,-0.00053936837847639,0.00053936905335507,-0.00030682291920476,0.00030682738732684,7.7076916385465e-10,-7.9843100283387e-10,-1.6643900572792e-08,1.6594092817267e-08,-0.00063347812834038,0.00063347808489899,-0.00062543748165566,0.0006254705531927,-0.00063980385739525,0.00063979437989748,-0.00063980533686949,0.00063979276693492,-0.00061842372115808,0.0006184131931949,-0.00061841274121658,0.00061842417531704,-0.00061842419063947,0.00061841266389557,-0.00061841322270723,0.00061842363909187,-0.00062547103624517,0.00062543788737211,-0.00062543797431751,0.00062547001440507,-0.00063979273466077,0.00063980528157535,-0.00063979422899539,0.00063980364749707,-0.0006254705613643,0.00062543840593592,2.3897426620974e-09,3.1659449263296e-09,-0.00047747959050546,0.00047748514011259,1.958314980924e-08,-1.37777678184e-08,-0.00042217128745373,0.00042214353885099,-0.0003965211387399,0.00039649447421811,-0.00039652138765516,0.00039649424599629,-0.00042213779100301,0.00042217704638652,-0.00042213853863316,0.00042217619614579,-0.00039648827996068,0.00039652738557537,-0.00039648852149692,0.00039652707474179,-0.00055047035750929,0.00055048663099372,-0.00055048154043812,0.00055047546408265,-0.00055047009945272,0.00055048689306959,-0.00055048128202653,0.00055047570557169,-0.00053910459456089,0.00053909972793746,-0.00053910535909863,0.00053909900330111,-0.00053909425000395,0.00053911007889721,-0.00053909348595814,0.00053911086139328,-0.00042217055109953,0.00042214423264707,0.71242657992549,128566,2924,0.0022175517732752,0.0026359868455742,0.0019876644748663,15.510270995721,-0.00011591783203423,-0.00011591783203423,-0.00011591783203423,2642729.6823619,0.0068648780111026
23391759,0.4271881412636,0.0073744989544345,0.0024378693528768,0.0026675045682504,0.0022691250333073,-0.00054102476756877,0.00054102679589204,1.4418703473433e-09,5.8261969994898e-10,3.1207304683852e-10,1.7813770719179e-09,-0.00031029820425915,0.00031030085507264,-0.00049933862554278,0.0004993424694685,-0.00049933899174572,0.00049934222901029,-0.00031029877339588,0.00031030016049012,-0.00031029962478668,0.00031029941932481,-0.00049934015685161,0.00049934106347595,-0.00049934042187908,0.00049934078813462,-0.00061663639892023,0.00061663822129854,-0.0006166366588913,0.00061663790975487,-0.00061663594039877,0.00061663870197022,-0.00061663620317477,0.00061663837552832,-0.00054780668334779,0.0005478100413712,-0.00054780738504634,0.00054780903499516,-0.00054780713939971,0.00054780948812773,-0.00054780791866127,0.00054780860525049,-0.00031029720260961,0.00031030162617643,7.5583903687155e-10,-7.4341086369077e-10,-1.662492100084e-08,1.6613305013818e-08,-0.00064401585919979,0.00064401585438899,-0.00063586775198028,0.00063590083703245,-0.00065031523121122,0.00065030572385727,-0.00065031664169853,0.00065030417966279,-0.00062859507979649,0.00062858456886514,-0.0006285841005515,0.00062859554833658,-0.00062859552658776,0.00062858406273422,-0.00062858455944116,0.00062859503522212,-0.00063590129744964,0.00063586821115109,-0.00063586822064478,0.00063590032179869,-0.00065030410382762,0.00065031662304913,-0.0006503055294787,0.00065031505746526,-0.00063590084681798,0.00063586870597361,2.4467335743195e-09,3.241271784359e-09,-0.00048426397806807,0.00048426966175785,1.9658770653399e-08,-1.3708699140636e-08,-0.00042755364800193,0.00042752602017289,-0.00040163090296963,0.00040160438427476,-0.00040163115823173,0.00040160415066891,-0.00042752013257122,0.00042755954612619,-0.00042752089682538,0.00042755867569652,-0.00040159803836548,0.00040163730225612,-0.00040159828512066,0.00040163698407491,-0.00055878810648777,0.0005588045058664,-0.00055879929304954,0.00055879333581266,-0.0005587878423793,0.00055880477423778,-0.00055879902840204,0.00055879358313246,-0.00054741055748579,0.0005474058409214,-0.00054741134014747,0.00054740509892989,-0.00054740023034863,0.00054741617454732,-0.00054739944843652,0.00054741697542028,-0.00042755289341312,0.00042752673026759,0.71512157514828,128566,2924,0.002251979412964,0.0026797756662894,0.0020158820375356,15.633760117786,-0.00011492991905771,-0.00011492991905771,-0.00011492991905771,2670014.7891302,0.0069720573314233
23591759,0.43388715192993,0.0074831270082498,0.0024737020438004,0.0027092786953318,0.0023001462691176,-0.00055032646776254,0.00055032857358722,1.4961827460853e-09,6.0518673826939e-10,2.1955138760582e-10,1.9551932867313e-09,-0.00031453892191608,0.00031454185403892,-0.00050801745176701,0.00050802165951642,-0.00050801783953228,0.00050802139962526,-0.0003145397209552,0.00031454092162121,-0.00031454057402136,0.00031454018258944,-0.0005080192553166,0.00050801997955108,-0.00050801952213939,0.00050801970507618,-0.00062746350038509,0.00062746531890106,-0.00062746376722764,0.00062746499988379,-0.00062746295149051,0.0006274658910132,-0.00062746322792997,0.00062746555028312,-0.00055730487845147,0.00055730844286344,-0.00055730562626649,0.00055730739931397,-0.00055730543668397,0.00055730779386795,-0.00055730623375418,0.00055730688681129,-0.00031453785582325,0.00031454268344397,8.818752304347e-10,-8.8022977937857e-10,-1.713822181497e-08,1.7115492526981e-08,-0.00065570179279253,0.00065570177826148,-0.00064746441011087,0.0006474985744006,-0.00066196344149711,0.00066195383686145,-0.00066196509740239,0.00066195204016398,-0.00063988034066836,0.00063986957188017,-0.00063986902989814,0.00063988089114093,-0.00063988086900435,0.00063986898106736,-0.00063986957719453,0.00063988028668288,-0.00064749904409796,0.00064746487336285,-0.00064746497414135,0.00064749796127952,-0.00066195196581065,0.000661965081409,-0.00066195365750919,0.00066196324276484,-0.00064749851816539,0.00064746544640933,2.4187591896193e-09,3.2185734649334e-09,-0.00049198195464968,0.00049198758796419,2.01586983267e-08,-1.4257209194283e-08,-0.00043381239196694,0.00043378371148276,-0.00040759943228491,0.00040757182928169,-0.00040759967894625,0.0004075716046342,-0.00043377783823375,0.00043381827074354,-0.00043377863724603,0.00043381736127991,-0.00040756552323574,0.00040760578760432,-0.00040756578056403,0.00040760545535184,-0.00056812032465428,0.00056813701556494,-0.00056813185667401,0.00056812550005142,-0.00056812005589803,0.00056813728965002,-0.00056813159368051,0.0005681257458183,-0.00055671835307169,0.00055671322574792,-0.00055671913056007,0.00055671248832362,-0.00055670767668136,0.00055672390805212,-0.00055670688151205,0.00055672472544642,-0.00043381166255084,0.0004337843954886,0.71571043528204,128566,2924,0.0022906622900224,0.0027283332631361,0.0020479807480112,16.146161067624,-0.00011083071145901,-0.00011083071145901,-0.00011083071145901,2701890.7021065,0.0070922452547285
23791759,0.44083226030845,0.007601495681503,0.0025126510709201,0.0027548848477316,0.0023339597628512,-0.00056027437641742,0.00056027656270647,1.5409224079591e-09,6.4002668338151e-10,1.7125989723064e-10,2.0882931030645e-09,-0.00031934685980528,0.0003193500634148,-0.00051765259127554,0.00051765706036342,-0.00051765297669751,0.00051765680181463,-0.00031934782733395,0.00031934895794839,-0.0003193487122266,0.00031934819388722,-0.00051765456537733,0.00051765520372385,-0.00051765484615315,0.00051765492543259,-0.00063889018342631,0.00063889202719639,-0.00063889045611108,0.00063889170307286,-0.00063888957818469,0.00063889265803413,-0.00063888985576726,0.0006388923149624,-0.00056762477391855,0.00056762847946193,-0.00056762552517528,0.00056762743409159,-0.00056762538517253,0.00056762777731267,-0.00056762619987752,0.00056762685517135,-0.00031934579912506,0.00031935088280239,9.7063384524348e-10,-9.788490307752e-10,-1.7699570772498e-08,1.7668732119362e-08,-0.00066816611883028,0.00066816609528267,-0.00065999717881199,0.00066003248585788,-0.00067439613147631,0.00067438633835483,-0.0006743979756136,0.00067438434437644,-0.00065183481556624,0.00065182373702771,-0.00065182314742683,0.00065183542336391,-0.00065183540657993,0.00065182308073803,-0.00065182375306686,0.00065183475750694,-0.00066003297532153,0.00065999763456212,-0.0006599977968092,0.00066003181598914,-0.00067438428954073,0.00067439794523337,-0.00067438615413494,0.00067439592388138,-0.00066003238234839,0.00065999827659304,2.4266393762894e-09,3.253531972951e-09,-0.00050023418700298,0.00050023986435401,2.073048836855e-08,-1.4780750919306e-08,-0.00044086367274478,0.00044083392057749,-0.00041425457728997,0.00041422596363979,-0.00041425483933361,0.00041422572431288,-0.00044082802600124,0.00044086958102952,-0.00044082882795435,0.00044086866111276,-0.00041421960086545,0.00041426099596253,-0.00041421985926709,0.00041426065877179,-0.00057797401802851,0.0005779911083054,-0.00057798591646723,0.0005779792267645,-0.00057797374283124,0.00057799138963463,-0.00057798564270978,0.00057797948329242,-0.00056679933698517,0.00056679392241941,-0.00056680014565532,0.00056679315102373,-0.00056678832186899,0.00056680493964064,-0.00056678750728056,0.00056680577962698,-0.00044086290054769,0.00044083464999789,0.75201415583813,128566,2924,0.0023320314969622,0.002780122236465,0.0020823004408293,16.668648623308,-0.00010665081101354,-0.00010665081101354,-0.00010665081101354,2728748.1641509,0.0072206439358394
23991759,0.44802717799869,0.0077271406686018,0.0025539289032622,0.0028034391966303,0.0023697725687093,-0.00057068641947133,0.00057068866886911,1.580760736896e-09,6.6264395483645e-10,1.7772581208373e-10,2.148170285887e-09,-0.00032410803324431,0.00032411134268693,-0.00052786157227658,0.00052786616460476,-0.00052786196137695,0.00052786590133311,-0.00032410903535023,0.00032411019588785,-0.00032410994542658,0.00032410941652311,-0.00052786359578242,0.00052786425367629,-0.00052786388951375,0.00052786397419751,-0.00065085200952615,0.00065085390444791,-0.00065085228898999,0.00065085357469761,-0.00065085138837984,0.00065085455285952,-0.00065085167096453,0.00065085420398741,-0.00057854239540382,0.00057854619553057,-0.00057854315891033,0.0005785451314266,-0.0005785430194994,0.00057854547415054,-0.00057854385557943,0.00057854453682242,-0.00032410695600061,0.00032411217185926,9.9931051351447e-10,-1.0053478086381e-09,-1.8296077599447e-08,1.8267709025823e-08,-0.00068134830750076,0.00068134828602025,-0.00067340141315155,0.00067343791344818,-0.00068757773002292,0.00068756759680826,-0.0006875796268522,0.00068756554382135,-0.00066435555326958,0.00066434410463043,-0.00066434349951109,0.00066435618581558,-0.00066435616259225,0.00066434342878845,-0.00066434412280005,0.00066435550103804,-0.0006734384112863,0.0006734018801356,-0.00067340204619272,0.00067343722621247,-0.00068756548793409,0.00068757959847588,-0.00068756740305088,0.00068757752006639,-0.0006734378005981,0.00067340254230086,2.4545605192777e-09,3.3013125498313e-09,-0.00050881961671428,0.00050882537174291,2.1371784465495e-08,-1.5337664110035e-08,-0.000448236371372,0.00044820550037247,-0.00042115551474636,0.00042112581862821,-0.00042115578493013,0.00042112557212391,-0.00044819953431746,0.00044824235640057,-0.00044820034733187,0.00044824141770476,-0.00042111936443302,0.0004211620297963,-0.00042111962595122,0.00042116168510335,-0.0005882791692358,0.00058829672681767,-0.00058829146749668,0.00058828444602231,-0.00058827888832658,0.00058829701462157,-0.0005882911866811,0.00058828470936192,-0.00057746919986036,0.00057746348613683,-0.00057747002817803,0.00057746269299628,-0.00057745780589389,0.00057747487972114,-0.00057745697474717,0.00057747573896275,-0.00044823557462014,0.00044820625420071,0.77068673323275,128566,2924,0.0023753307035473,0.0028348907574943,0.002118005048679,17.191547515312,-0.0001024676198775,-0.0001024676198775,-0.0001024676198775,2752262.4887803,0.0073553999988584
24191759,0.45544783716926,0.007850003374994,0.0025944065060045,0.0028510306919203,0.0024045661770692,-0.00058093124004693,0.00058093351303333,1.6054691056017e-09,6.6135623480776e-10,2.3216378812917e-10,2.1184311865285e-09,-0.00032814947262962,0.00032815268727227,-0.00053749604276545,0.00053750059005269,-0.00053749644619189,0.00053750031570618,-0.0003281503663312,0.00032815164760068,-0.00032815129186283,0.00032815085530231,-0.00053749798886658,0.00053749875865272,-0.00053749828988061,0.00053749847710811,-0.00066285480518842,0.00066285675850998,-0.00066285509151173,0.00066285642093919,-0.00066285421049539,0.00066285738005841,-0.00066285450264317,0.00066285702060789,-0.00058911619013343,0.0005891200149037,-0.00058911698236845,0.00058911892094412,-0.00058911679099837,0.00058911931789564,-0.00058911764735565,0.00058911835783974,-0.00032814835593532,0.00032815355047696,9.6950189332383e-10,-9.4713075392325e-10,-1.8827705531402e-08,1.8826770366441e-08,-0.00069449258384855,0.00069449258944845,-0.0006866411446559,0.00068667871703243,-0.00070070883940191,0.00070069828139035,-0.00070071064418895,0.00070069631802095,-0.00067688112316806,0.00067686931424591,-0.00067686871661678,0.00067688175838293,-0.00067688170267712,0.00067686866866689,-0.00067686931281883,0.00067688110124325,-0.00068667918822273,0.00068664164874844,-0.00068664175100544,0.0006866780551514,-0.00070069622975476,0.00070071064714571,-0.00070069806056999,0.00070070865066859,-0.00068667861201968,0.00068664227776491,2.4367800606262e-09,3.2945875844141e-09,-0.0005171517172717,0.00051715744831566,2.1910005463442e-08,-1.5898406088058e-08,-0.00045480754174803,0.00045477556715423,-0.0004273897152582,0.00042735891945546,-0.0004273899855764,0.00042735867344526,-0.00045476961635441,0.00045481351580946,-0.00045477044852259,0.0004548125529231,-0.00042735248241352,0.0004273962177991,-0.00042735274992373,0.00042739586406667,-0.00059856081211371,0.00059857870390448,-0.0005985734753066,0.00059856605897471,-0.00059856052633084,0.00059857899687871,-0.00059857319194517,0.00059856632432574,-0.00058781630222894,0.00058781020761401,-0.00058781713716748,0.00058780940736532,-0.00058780455352328,0.00058782195447669,-0.00058780370830166,0.0005878228293336,-0.00045480674471465,0.0004547763201985,0.73179327587976,128566,2924,0.0024179346228803,0.0028894985505505,0.0021526552126853,17.664544543651,-9.868364365079e-05,-9.868364365079e-05,-9.868364365079e-05,2781923.4620972,0.0074882520548653
24391759,0.4629424247189,0.0079747956718978,0.0026355322971871,0.0028994333802903,0.0024398299944205,-0.00059084396221234,0.00059084621103254,1.5889631247746e-09,6.5396489051267e-10,3.812964448024e-10,1.9436335761519e-09,-0.00033225230267296,0.00033225523146464,-0.00054685551121726,0.00054685969496022,-0.00054685589490821,0.00054685944043859,-0.00033225288481389,0.00033225450325272,-0.00033225385490867,0.00033225367199218,-0.00054685712253141,0.00054685820038245,-0.00054685744083051,0.00054685790811743,-0.00067445162124225,0.00067445366038588,-0.00067445191087007,0.0006744533201675,-0.00067445113825789,0.00067445416835389,-0.00067445142138938,0.00067445381715759,-0.0005993117157312,0.00059931538092762,-0.00059931247209807,0.00059931430435282,-0.00059931218647668,0.00059931480534132,-0.00059931305126058,0.00059931383637647,-0.00033225124366993,0.00033225603479378,8.4830198069208e-10,-7.6130825217313e-10,-1.904102805431e-08,1.9102208095184e-08,-0.00070718050684808,0.00070718057434795,-0.00069939065095492,0.00069942864634914,-0.00071336855710254,0.00071335761527457,-0.00071337007856518,0.00071335593753435,-0.00068902727865411,0.00068901527790957,-0.00068901472233404,0.00068902787645087,-0.00068902776518934,0.00068901472853174,-0.00068901521398661,0.00068902732734586,-0.00069942908345171,0.00069939121197417,-0.00069939113779507,0.00069942810407368,-0.00071335579994435,0.00071337012440314,-0.00071335731163749,0.00071336844837407,-0.00069942859198333,0.00069939175567761,2.4672854838518e-09,3.3712082374392e-09,-0.00052512088408622,0.00052512672397534,2.2196452921299e-08,-1.6068543579032e-08,-0.00046112563263611,0.00046109322859255,-0.00043336913556173,0.00043333804210568,-0.00043336943878741,0.0004333377639986,-0.00046108721919346,0.00046113166683113,-0.00046108804415223,0.00046113070911217,-0.0004333314732384,0.00043337577416427,-0.00043333173792936,0.00043337542114007,-0.00060839178722488,0.00060840992688756,-0.00060840460926867,0.0006083971237334,-0.00060839149204295,0.00060841022918149,-0.00060840430453571,0.00060839740985233,-0.0005977641633618,0.00059775808192926,-0.00059776506248258,0.00059775722141081,-0.00059775230669512,0.00059776993755816,-0.00059775143314034,0.00059777084033696,-0.00046112473926442,0.00046109407538373,0.73638899987296,128566,2924,0.0024591562549989,0.0029422069562506,0.0021857953909004,17.858696646223,-9.7130426830212e-05,-9.7130426830212e-05,-9.7130426830212e-05,2810436.1106189,0.0076162929298294
24591759,0.47050441084527,0.008104136441627,0.0026781116601273,0.0029496788981729,0.0024763458833268,-0.00060101903664171,0.00060102127762516,1.6044226984291e-09,6.3094958949667e-10,5.0099914215834e-10,1.8153664504187e-09,-0.00033655249881851,0.00033655509975716,-0.00055665071596578,0.00055665467218909,-0.00055665112338532,0.00055665439247088,-0.00033655279712302,0.00033655465061103,-0.00033655377134283,0.00033655382608304,-0.00055665209528247,0.00055665340920767,-0.00055665241852591,0.00055665312112659,-0.00068626715680107,0.00068626927770467,-0.00068626745491733,0.00068626893012245,-0.00068626675028875,0.00068626970768227,-0.00068626704994833,0.00068626933953352,-0.00060988383163939,0.00060988745849078,-0.00060988463925096,0.00060988632946996,-0.00060988423167581,0.00060988694906481,-0.00060988512409117,0.00060988595984852,-0.00033655136247447,0.00033655597758966,7.5012416969211e-10,-6.0290228213148e-10,-1.9318756472721e-08,1.943667320874e-08,-0.00072020988039029,0.00072021000550275,-0.00071259058479189,0.0007126291651533,-0.00072639049952503,0.00072637914548396,-0.00072639175398892,0.00072637773601887,-0.00070142946355268,0.00070141723335064,-0.00070141670669396,0.00070143003719472,-0.00070142986327654,0.00070141677347184,-0.00070141712056262,0.00070142956857291,-0.00071262954859074,0.00071259123078805,-0.00071259099943172,0.00071262869575303,-0.00072637751965245,0.00072639187057378,-0.00072637879496555,0.00072639043375155,-0.00071262915665958,0.00071259167551849,2.5370337219069e-09,3.4395986680372e-09,-0.00053329141903957,0.00053329739959259,2.2594956621514e-08,-1.631655119219e-08,-0.00046779289347579,0.00046776003961549,-0.00043963185213533,0.00043960026383545,-0.00043963214242586,0.00043959999998991,-0.00046775384757017,0.00046779910767562,-0.00046775470897651,0.00046779811022744,-0.00043959354181681,0.00043963864294049,-0.00043959381746576,0.00043963827665516,-0.00061840536099187,0.00061842384796067,-0.00061841839456458,0.00061841083396484,-0.0006184050615651,0.00061842415447237,-0.0006184180939591,0.00061841111524887,-0.00060806311379046,0.0006080569403804,-0.00060806399951414,0.00060805609488681,-0.00060805104048569,0.00060806901449551,-0.00060805015610692,0.00060806992806884,-0.00046779203730078,0.00046776084595225,0.75660586983503,128566,2924,0.0025014677228783,0.002996330771049,0.0022197721362038,18.045600991868,-9.5635192065052e-05,-9.5635192065052e-05,-9.5635192065052e-05,2834456.856734,0.0077477172697826
24791759,0.47813101899838,0.0082223249572196,0.0027172675567824,0.0029956274712192,0.002509429929218,-0.00061058884930672,0.00061059106943818,1.6026617176302e-09,6.123089478893e-10,5.7704220793312e-10,1.717177061846e-09,-0.00033967244191009,0.00033967483674631,-0.00056514478375734,0.0005651485524887,-0.00056514519958285,0.00056514827026861,-0.00033967255150832,0.00033967457787639,-0.00033967354562467,0.00033967373153995,-0.00056514599620674,0.00056514746615771,-0.00056514632386304,0.00056514716963936,-0.00069775446071538,0.0006977566244469,-0.00069775476372537,0.00069775626949829,-0.00069775411049422,0.00069775699523577,-0.00069775441503892,0.00069775662115135,-0.0006195129456702,0.00061951650873236,-0.0006195137606408,0.00061951535738667,-0.00061951328314703,0.00061951605615584,-0.00061951419157155,0.00061951504730335,-0.00033967129195764,0.0003396757256271,6.9503080972703e-10,-4.8484370538702e-10,-1.9621838018494e-08,1.9799663939917e-08,-0.00073267078806065,0.00073267097372268,-0.00072493759360154,0.00072497682646885,-0.00073881802336252,0.00073880634466602,-0.00073881911084885,0.00073880510445031,-0.0007134050518793,0.00071339260827566,-0.00071339208265766,0.00071340563299082,-0.00071340539635321,0.00071339220549815,-0.00071339244003171,0.00071340522257106,-0.00072497715583451,0.00072493830188422,-0.00072493794910878,0.00072497641612034,-0.00073880482585733,0.00073881928584487,-0.00073880592993463,0.0007388180227645,-0.0007249768203219,0.00072493868999516,2.4918178809555e-09,3.4144362120693e-09,-0.00054085295709347,0.00054085886663681,2.2891304757585e-08,-1.6684615214579e-08,-0.00047304463696327,0.00047301103656668,-0.00044471264454295,0.00044468034227469,-0.00044471294287712,0.00044468007063906,-0.00047300491616326,0.00047305077711499,-0.00047300579426854,0.00047304976301237,-0.00044467367978981,0.00044471937481376,-0.00044467396086871,0.00044471900238531,-0.00062808292924462,0.00062810155809162,-0.00062809618342615,0.00062808832379847,-0.00062808262333424,0.00062810187070474,-0.00062809587548796,0.00062808861190544,-0.00061744835239171,0.00061744190950366,-0.00061744925979586,0.0006174410444949,-0.00061743607894425,0.00061745418559669,-0.00061743517474944,0.00061745511771989,-0.00047304375884594,0.00047301186313499,0.68706804298428,128566,2924,0.0025412623968253,0.0030480907295537,0.0022512158968603,18.232209644268,-9.4142322845857e-05,-9.4142322845857e-05,-9.4142322845857e-05,2866971.8757259,0.0078716910723268
24991759,0.48588664528972,0.0083444926648059,0.0027577277837586,0.0030431429412558,0.0025436219397915,-0.00062071585666941,0.00062071810822128,1.6263698980454e-09,6.2001995922761e-10,5.6116266973328e-10,1.7660698563811e-09,-0.0003439500210418,0.00034395250278437,-0.00057436637679229,0.00057437024573006,-0.00057436679850771,0.00057436996298843,-0.00034395017876128,0.00034395219482722,-0.00034395119453406,0.00034395132711796,-0.00057436765426039,0.00057436909991581,-0.00057436798793016,0.00057436879473604,-0.00070966848929113,0.00070967066851421,-0.00070966879703082,0.00070967030619225,-0.00070966811776857,0.00070967105941943,-0.00070966842646034,0.00070967068003565,-0.00062966906944609,0.00062967269760298,-0.00062966989072277,0.00062967152540884,-0.00062966942279532,0.00062967222355722,-0.00062967034652164,0.00062967119451968,-0.00034394886066075,0.00034395340059753,7.4434661222194e-10,-5.0285139761733e-10,-2.0082979392471e-08,2.0290753760901e-08,-0.00074552755867042,0.00074552777500026,-0.00073761405278307,0.00073765426849168,-0.00075160553147747,0.0007515936389482,-0.00075160668585072,0.00075159232862712,-0.00072587872945975,0.0007258660293473,-0.00072586545680502,0.00072587936986027,-0.0007258790965542,0.00072586560307578,-0.00072586583540338,0.00072587893736005,-0.00073765457187766,0.00073761478961666,-0.00073761442762859,0.00073765383763397,-0.00075159202217726,0.0007516068917755,-0.00075159318883574,0.00075160556275509,-0.00073765421275826,0.00073761520256952,2.4348319088191e-09,3.378463712271e-09,-0.00054896584455707,0.00054897166043998,2.3315180900076e-08,-1.7204323040235e-08,-0.00047914473729159,0.00047911008996986,-0.00045061386925472,0.00045058055512973,-0.00045061417663909,0.00045058027471839,-0.00047910406749875,0.00047915077715929,-0.00047910496004328,0.00047914974891479,-0.00045057397582475,0.00045062051496607,-0.00045057426131,0.0004506201369399,-0.0006381571435264,0.0006381759862752,-0.00063817071002781,0.0006381624396876,-0.00063815683133585,0.00063817630509248,-0.00063817039432642,0.00063816273525151,-0.00062735160080538,0.00062734477104161,-0.00062735253189705,0.00062734388421286,-0.00062733903278575,0.00062735734293069,-0.00062733811014316,0.00062735829325539,-0.00047914383208613,0.00047911094363982,0.69911855251479,128566,2924,0.0025833700511359,0.0031014920672102,0.0022849506426271,18.541706260555,-9.1666349915558e-05,-9.1666349915558e-05,-9.1666349915558e-05,2902268.5478427,0.0080019741812872
25191759,0.49395412271414,0.0084751484845335,0.0028009357264535,0.0030940211912024,0.0025801915668775,-0.00063200876715413,0.00063201111517467,1.6730388737226e-09,6.6898869345022e-10,4.5272735326953e-10,1.9761446116974e-09,-0.00034901495652256,0.00034901790742904,-0.00058494247908063,0.00058494674464998,-0.00058494288531142,0.00058494648201185,-0.00034901542873645,0.00034901727724128,-0.00034901649613255,0.00034901635709381,-0.00058494405351801,0.00058494530185351,-0.00058494440507228,0.00058494498021998,-0.00072278589700803,0.00072278807152347,-0.00072278620874101,0.000722787702705,-0.00072278542698327,0.00072278856161671,-0.0007227857289827,0.00072278818832874,-0.00064114544409554,0.00064114925160232,-0.00064114623566146,0.00064114808915475,-0.0006411458793598,0.00064114868514708,-0.0006411468157569,0.0006411476388782,-0.00034901384788051,0.00034901874553998,9.0173305258598e-10,-6.7590927443563e-10,-2.0933331918638e-08,2.1125725638407e-08,-0.00075980122663684,0.00075980142881051,-0.0007518350054448,0.00075187695215069,-0.00076581322256751,0.00076580110053711,-0.00076581471437348,0.00076579944270168,-0.00073962147411679,0.0007396083244462,-0.00073960766696788,0.00073962222116861,-0.00073962195392798,0.00073960778122691,-0.0007396081463769,0.00073962168336443,-0.00075187727982915,0.00075183569784107,-0.00075183546950187,0.00075187642785145,-0.00076579917577831,0.00076581489792237,-0.00076580064469752,0.00076581325399785,-0.00075187679555499,0.00075183623982591,2.3355154400325e-09,3.3185320282109e-09,-0.00055813054305148,0.00055813619966197,2.4045638982119e-08,-1.8102573447125e-08,-0.00048640390441439,0.00048636739676986,-0.00045757618411859,0.00045754113520505,-0.00045757652203616,0.00045754082407815,-0.00048636158828664,0.00048640972159342,-0.00048636246542018,0.00048640870897331,-0.00045753470326061,0.00045758267942122,-0.00045753498231076,0.00045758230369582,-0.00064938994421295,0.0006494091637536,-0.00064940405503899,0.00064939507269012,-0.00064938962517763,0.00064940948982108,-0.00064940372025913,0.00064939538684805,-0.00063857607370834,0.00063856859276354,-0.00063857706019428,0.00063856764913168,-0.00063856299824257,0.00063858167014329,-0.00063856205600747,0.00063858264296166,-0.00048640290597077,0.00048636833991747,0.71926998458005,128566,2924,0.0026303232553174,0.0031607755732536,0.0023230574928476,19.180380823844,-8.6556953409249e-05,-8.6556953409249e-05,-8.6556953409249e-05,2935121.7134784,0.0081474970394898
25391759,0.50234148542478,0.0086183801576196,0.0028481475955324,0.0031499373755458,0.0026202951865414,-0.00064409119399847,0.00064409363487939,1.7354316670185e-09,6.9852008327182e-10,4.0842390623884e-10,2.1182841994159e-09,-0.00035457884420684,0.00035458200901578,-0.00059669975808189,0.00059670432648254,-0.00059670018610814,0.00059670404308701,-0.00035457946757458,0.00035458122073688,-0.00035458053459429,0.00035458031020715,-0.00059670152518568,0.00059670268681909,-0.00059670188086752,0.00059670237008367,-0.00073668453568974,0.00073668674700202,-0.00073668485334461,0.00073668637088116,-0.00073668400139651,0.00073668730257488,-0.00073668431708367,0.00073668691512499,-0.00065369121539434,0.00065369521849732,-0.00065369204401086,0.00065369400192594,-0.00065369171878953,0.00065369457361661,-0.00065369267580943,0.00065369350928836,-0.00035457766209586,0.00035458291092072,9.890386531657e-10,-7.7130754934852e-10,-2.1696365569748e-08,2.1882852620991e-08,-0.00077513675429736,0.00077513694907564,-0.0007673598887529,0.00076740339781219,-0.00078110764508211,0.00078109517687198,-0.00078110929810346,0.0007810933458715,-0.00075423825101865,0.00075422465291523,-0.00075422395122787,0.00075423905901894,-0.0007542387863409,0.00075422405138902,-0.00075422449419169,0.00075423845530324,-0.00076740371661824,0.00076736058735237,-0.0007673604252321,0.0007674028001328,-0.00078109307739026,0.00078110949050688,-0.00078109473606651,0.00078110764887894,-0.00076740318615504,0.00076736117866868,2.3245958985024e-09,3.3118878384455e-09,-0.00056793012884114,0.00056793576880581,2.4817520679872e-08,-1.8891518012293e-08,-0.00049459744111676,0.00049455941305115,-0.00046531236619102,0.0004652757583496,-0.00046531269460806,0.00046527545781784,-0.00049455359280408,0.00049460328309627,-0.00049455450761236,0.000494602224829,-0.00046526934342613,0.00046531885286529,-0.00046526963317453,0.0004653184633062,-0.0006612855420089,0.00066130525633658,-0.00066130016721623,0.00066129065103127,-0.00066128521738074,0.00066130558877339,-0.00066129983458613,0.00066129096325424,-0.00065081616672689,0.00065080812853298,-0.00065081714634895,0.00065080719255606,-0.00065080256809336,0.00065082172764768,-0.00065080161192825,0.00065082271689452,-0.00049459647749686,0.00049456032717592,0.75830138261655,128566,2924,0.0026805577185284,0.0032244650507472,0.0023638033728605,19.827636074408,-8.1378911404735e-05,-8.1378911404735e-05,-8.1378911404735e-05,2960988.1541995,0.0083034518379062
25591759,0.51105128628033,0.0087718473718032,0.0028986096536818,0.0032100748951128,0.0026631628230087,-0.00065680971879926,0.00065681223702212,1.7840208474318e-09,7.2657449070687e-10,4.1811946297271e-10,2.1898963874921e-09,-0.00036018391110866,0.00036018719321535,-0.00060926376668912,0.00060926848688961,-0.00060926420303687,0.00060926819251183,-0.0003601845718735,0.00036018635592507,-0.00036018566169442,0.00036018543752732,-0.0006092655934609,0.00060926677893107,-0.0006092659611823,0.00060926646512188,-0.00075130786850071,0.0007513101419643,-0.00075130819328917,0.00075130976059252,-0.00075130731471482,0.00075131071920733,-0.00075130763746035,0.00075131032389453,-0.00066706932339992,0.00066707344654506,-0.0006670701844307,0.00066707221826654,-0.00066706985046945,0.00066707277944205,-0.00066707083504013,0.00066707170654227,-0.00036018269928664,0.00036018811567524,1.020504132211e-09,-8.0315268758964e-10,-2.2454993764148e-08,2.2641506659219e-08,-0.00079144769231463,0.000791447886882,-0.00078405710355707,0.00078410212401665,-0.00079744516309178,0.00079743225015377,-0.00079744687328792,0.0007974303534998,-0.00076963714871497,0.0007696230753932,-0.00076962235939535,0.00076963798472381,-0.00076963770477128,0.00076962245211188,-0.00076962292385864,0.00076963735839561,-0.00078410244750654,0.00078405781105595,-0.00078405766136405,0.00078410150254368,-0.00079743008562822,0.00079744706846516,-0.00079743180430714,0.00079744515914782,-0.00078410189980585,0.00078405842241698,2.3485325751918e-09,3.3523236333895e-09,-0.00057819324969649,0.00057819895683833,2.5617973862893e-08,-1.9619017649137e-08,-0.00050328439617038,0.00050324493109535,-0.00047345572887876,0.00047341770011242,-0.00047345606108425,0.00047341739607083,-0.00050323903910997,0.00050329031392464,-0.00050323997441325,0.0005032892299664,-0.00047341120553934,0.00047346229864344,-0.00047341150072535,0.00047346189978867,-0.00067376076896376,0.00067378104955429,-0.00067377590135324,0.00067376593721643,-0.00067376043832337,0.00067378138846246,-0.00067377556365953,0.00067376625436655,-0.00066389544338613,0.00066388695699926,-0.00066389643894144,0.00066388600881704,-0.00066388134463736,0.00066390105607824,-0.00066388037073193,0.00066390206491876,-0.00050328342569338,0.00050324585412815,0.78252854902151,128566,2924,0.0027334362786091,0.0032922005892658,0.0024064757080199,20.475232563119,-7.6198139495048e-05,-7.6198139495048e-05,-7.6198139495048e-05,2984037.0397724,0.0084681204853248
25791759,0.51989932794119,0.0089229630910147,0.0029483789299879,0.0032694619453735,0.0027051222156534,-0.00066887184195863,0.00066887435306839,1.7887063369698e-09,7.1491126424573e-10,5.6577927647853e-10,2.0344065250713e-09,-0.00036465193094976,0.00036465489413787,-0.00062082482749727,0.00062082924645023,-0.00062082526832195,0.00062082894785011,-0.00036465227338929,0.00036465436822851,-0.00036465338780353,0.0003646534365014,-0.00062082635421879,0.00062082783727611,-0.00062082673399526,0.0006208275226251,-0.00076544879909307,0.00076545117119245,-0.00076544913068036,0.0007654507848957,-0.00076544834542258,0.00076545164755447,-0.00076544867288692,0.00076545124684391,-0.00067966110797324,0.00067966513906646,-0.00067966198787673,0.00067966390003491,-0.0006796615340793,0.00067966457349845,-0.00067966254056435,0.00067966348805376,-0.00036465070182245,0.00036465582542677,8.9841884342103e-10,-6.2370022118049e-10,-2.2810870364657e-08,2.3052206768789e-08,-0.00080723595313974,0.00080723620255906,-0.00080016205844354,0.0008002077851281,-0.00081327503056757,0.00081326162291261,-0.00081327644584143,0.00081326002239666,-0.00078452506791362,0.00078451070183138,-0.00078451003389718,0.0007845258631511,-0.00078452552770403,0.00078451017816523,-0.00078451050120203,0.00078452533732292,-0.00080020806616921,0.0008001628314984,-0.00080016251454459,0.00080020726507981,-0.00081325969567423,0.00081327669218041,-0.00081326111666453,0.00081327508184986,-0.00080020761819982,0.0008001633435025,2.3984860906845e-09,3.4230381237776e-09,-0.00058771318224323,0.00058771901267695,2.6070487650612e-08,-1.9939354063165e-08,-0.00051072654156789,0.00051068642387835,-0.00048050428443645,0.00048046563865833,-0.00048050462502427,0.00048046532670946,-0.00051068041140084,0.0005107325810688,-0.00051068136260106,0.00051073147858685,-0.00048045900420769,0.00048051099674457,-0.00048045930380767,0.00048051059098717,-0.00068569269386849,0.00068571334491397,-0.00068570808379756,0.00068569797560212,-0.00068569235664737,0.00068571369019649,-0.00068570773842666,0.00068569829975033,-0.00067621341105471,0.0006762047973054,-0.00067621443095092,0.00067620383014308,-0.00067619906869166,0.00067621914064148,-0.00067619807621565,0.00067622016908937,-0.00051072554743009,0.00051068736954531,0.75921599709312,128566,2924,0.002783586717618,0.0033577608135687,0.0024460579554999,20.820448344189,-7.3436413246488e-05,-7.3436413246488e-05,-7.3436413246488e-05,3007709.6774926,0.0086247562087615
25991759,0.52859627284424,0.0090681921936327,0.0029963077212942,0.0033266030634845,0.002745281408854,-0.0006797279939439,0.00067973043120515,1.752442156595e-09,6.78122497632e-10,8.0690657652856e-10,1.7149780381717e-09,-0.00036830990867614,0.0003683122705176,-0.00063100341237267,0.00063100719261754,-0.0006310038440058,0.00063100690453507,-0.00036830969417964,0.00036831229417162,-0.00036831084303492,0.00036831134423734,-0.00063100437969461,0.00063100634726476,-0.00063100477314553,0.00063100602772742,-0.00077835276056265,0.0007783552478589,-0.00077835309724021,0.00077835485957848,-0.00077835249342021,0.00077835553502532,-0.00077835281758093,0.0007783551369091,-0.00069087875299096,0.00069088251713467,-0.00069087962566309,0.00069088128875084,-0.00069087898369242,0.00069088214594614,-0.00069088000465324,0.00069088105460131,-0.00036830870457299,0.00036831316835432,6.7619428422878e-10,-2.9434891828377e-10,-2.266515217963e-08,2.3008386849899e-08,-0.00082160712455691,0.00082160747628969,-0.00081471895398293,0.00081476440384233,-0.00082766450584035,0.00082765073203403,-0.00082766539068169,0.00082764966889292,-0.00079813999681033,0.00079812561977875,-0.00079812503043389,0.00079814071097333,-0.00079814028216569,0.0007981252766643,-0.00079812531697961,0.0007981403724158,-0.00081476461157557,0.00081471983866675,-0.00081471921829359,0.0008147640781484,-0.00082764923731044,0.00082766572400093,-0.00082765011012775,0.00082766467148419,-0.00081476433804673,0.00081472017684467,2.5064572419868e-09,3.5676978356827e-09,-0.00059606145358858,0.00059606754017751,2.6110639437525e-08,-1.9707216752241e-08,-0.0005168606824031,0.00051682095723457,-0.00048635231685973,0.00048631415502777,-0.00048635268063309,0.00048631382143055,-0.00051681470979603,0.00051686695247154,-0.00051681567164891,0.00051686584054208,-0.00048630723651787,0.00048635931461939,-0.00048630753879607,0.00048635890556547,-0.00069641055361922,0.00069643138295996,-0.00069642588344846,0.00069641607456844,-0.00069641020722312,0.00069643173678376,-0.00069642552224986,0.00069641641354682,-0.00068716117278643,0.00068715290834568,-0.00068716224248531,0.00068715189944205,-0.00068714692377825,0.00068716716029162,-0.00068714590565582,0.00068716821483179,-0.00051685961889564,0.00051682196494109,0.74286074312234,128566,2924,0.0028287232681303,0.0034174321082775,0.0024807689435269,20.694914805355,-7.4440681557163e-05,-7.4440681557163e-05,-7.4440681557163e-05,3029590.867088,0.0087655044237462
26191759,0.53713540820045,0.0092138372900734,0.0030443394482891,0.0033839698522378,0.0027855279895465,-0.00069055837244893,0.0006905607776164,1.7535137473587e-09,6.4537154262914e-10,9.5301488409359e-10,1.5345972820476e-09,-0.00037234991939389,0.00037235186963871,-0.00064135391251754,0.00064135735695781,-0.00064135436310155,0.00064135704945393,-0.00037234934372519,0.00037235224495163,-0.00037235051146148,0.00037235129131067,-0.00064135456678804,0.0006413568259872,-0.00064135496880872,0.00064135650754921,-0.00079110305429648,0.00079110562513221,-0.00079110340027042,0.00079110523035505,-0.0007911028908739,0.00079110580679358,-0.00079110322839355,0.00079110539495224,-0.00070212497361638,0.00070212863864932,-0.00070212588166072,0.00070212736132808,-0.00070212510039291,0.00070212836302821,-0.00070212614695727,0.00070212724875302,-0.00037234865289556,0.00037235282008891,5.5178034178343e-10,-8.7204232970542e-11,-2.2741058225046e-08,2.3162524409161e-08,-0.00083584770771133,0.00083584813870563,-0.00082919817879901,0.00082924383010598,-0.00084192366329571,0.00084190955853274,-0.00084192421472315,0.000841908833616,-0.00081162419828607,0.00081160971696423,-0.00081160915804257,0.00081162488348717,-0.00081162437457294,0.00081160948682399,-0.00081160934092892,0.00081162465230921,-0.00082924397089797,0.00082919916795155,-0.00082919834098393,0.00082924360724688,-0.00084190830454719,0.00084192463290502,-0.00084190886206463,0.00084192390018541,-0.00082924381557412,0.00082919938630872,2.6194151414789e-09,3.6840823471165e-09,-0.00060439554436967,0.0006044018641517,2.6360291634305e-08,-1.9709005591141e-08,-0.00052323126571217,0.00052319155866237,-0.00049239412760519,0.00049235596113476,-0.00049239448465072,0.00049235563532249,-0.00052318505027184,0.00052323779392112,-0.00052318603659838,0.00052323665545713,-0.00049234879240065,0.00049240137437249,-0.00049234910217348,0.00049240095606663,-0.00070699223262635,0.00070701336832831,-0.00070700764315498,0.00070699797985466,-0.00070699188172797,0.00070701372634779,-0.00070700728270386,0.00070699831731638,-0.00069813639134812,0.00069812827232535,-0.00069813745632258,0.00069812726813192,-0.00069812206251172,0.00069814260487922,-0.0006981210336064,0.00069814367062247,-0.00052323022253581,0.00052319254425233,0.75895315985742,128566,2924,0.0028737508565226,0.0034765569915229,0.0025154198368145,20.55705073556,-7.5543594115521e-05,-7.5543594115521e-05,-7.5543594115521e-05,3048830.8271806,0.0089055492273279
26391759,0.54551753443443,0.0093615604194352,0.0030929738954933,0.0034422611125858,0.0028263254113561,-0.0007014354731628,0.00070143788001834,1.7627076784022e-09,6.3780601505964e-10,1.045372189406e-09,1.4437354824162e-09,-0.00037650032571297,0.00037650208455935,-0.00065199115651645,0.00065199442784134,-0.00065199161144107,0.00065199411417452,-0.00037649954759824,0.00037650265070825,-0.00037650074323048,0.00037650168486447,-0.00065199162865692,0.00065199407605317,-0.00065199204361187,0.0006519937578044,-0.00080382237785275,0.00080382501647592,-0.00080382273130087,0.00080382461728547,-0.00080382227492647,0.00080382513731468,-0.00080382261742599,0.00080382471994056,-0.00071357247743793,0.0007135761010077,-0.00071357341577402,0.00071357482334601,-0.00071357254948733,0.00071357589156403,-0.00071357361878642,0.00071357476540327,-0.00037649904036912,0.00037650304146953,4.9016216705873e-10,3.2401409188602e-11,-2.3020565171595e-08,2.3497393082241e-08,-0.00085019613917387,0.00085019662595113,-0.00084394885672634,0.00084399510486101,-0.00085631524955498,0.00085630082006853,-0.00085631562439409,0.00085630027207561,-0.00082510369852483,0.00082508901600933,-0.00082508846336056,0.0008251043824258,-0.00082510381745521,0.00082508884529074,-0.00082508858779261,0.00082510421162583,-0.00084399520855698,0.00084394991696972,-0.00084394895720351,0.00084399494373601,-0.00085629968273179,0.00085631609403328,-0.00085630006037807,0.00085631554179729,-0.00084399511295376,0.00084395007551563,2.7207716571815e-09,3.8058208649284e-09,-0.0006127465386811,0.00061275308535901,2.6792892976103e-08,-1.9900864034853e-08,-0.00052977855035979,0.00052973844578005,-0.0004985899983856,0.00049855146905956,-0.0004985903639411,0.00049855113587337,-0.00052973170963399,0.00052978530482457,-0.0005297327130295,0.0005297841489058,-0.00049854405202708,0.00049859749459967,-0.00049854436678406,0.00049859706971614,-0.00071755225087527,0.00071757380890663,-0.00071756786933686,0.00071755821289367,-0.00071755189355205,0.00071757417341925,-0.00071756750148057,0.00071755855745019,-0.0007092797628585,0.00070927167321413,-0.00070928084958011,0.00070927064889035,-0.00070926524394794,0.00070928619655776,-0.00070926419561311,0.00070928728187294,-0.0005297774855662,0.00052973945165675,0.78422388802694,128566,2924,0.0029189722238676,0.0035361254713903,0.0025501402126862,20.41868261145,-7.6650539108399e-05,-7.6650539108399e-05,-7.6650539108399e-05,3062979.4516442,0.0090463259069243
26591759,0.55390848995428,0.0095090505964555,0.003141560455724,0.0035005511567866,0.0028669389839449,-0.00071283647969786,0.00071283896219453,1.8163769900474e-09,6.5897630444683e-10,9.9122503324093e-10,1.5775722443391e-09,-0.00038087817872061,0.00038088015170869,-0.00066308684393625,0.00066309039720855,-0.00066308731678942,0.00066309006679242,-0.00038087755108093,0.00038088055907278,-0.00038087876345358,0.00038087958006407,-0.0006630875069014,0.00066308985218019,-0.00066308792987355,0.00066308953218337,-0.00081714137450425,0.0008171440341071,-0.00081714173586925,0.00081714362582044,-0.00081714120779464,0.00081714421924922,-0.00081714156279805,0.00081714378860993,-0.00072552386748482,0.00072552766858045,-0.00072552485907775,0.0007255263670929,-0.00072552401760507,0.00072552739667445,-0.0007255251122138,0.00072552624548993,-0.00038087683635989,0.00038088115357436,5.8279893527493e-10,-5.9916874257091e-11,-2.3961568270743e-08,2.4438817085031e-08,-0.00086520476749103,0.0008652052551598,-0.00085941320179499,0.00085946136468002,-0.00087138763525437,0.00087137275847167,-0.00087138818261417,0.00087137203098369,-0.00083917433035209,0.00083915909297185,-0.00083915848779341,0.00083917508659237,-0.00083917450730686,0.00083915886196425,-0.00083915867431981,0.00083917485100443,-0.00085946146281811,0.00085941426866834,-0.0008594133677922,0.00085946113497799,-0.00087137143767398,0.00087138866324322,-0.00087137199967078,0.00087138791771747,-0.00085946131319365,0.00085941448213391,2.6947696572905e-09,3.7844605194888e-09,-0.00062153767949868,0.00062154417995717,2.7715026137223e-08,-2.0870665010156e-08,-0.00053651836852673,0.000536476368506,-0.00050508355924963,0.00050504312178598,-0.0005050839196666,0.00050504279390355,-0.00053646966545281,0.00053652509095582,-0.00053647068797345,0.00053652391174901,-0.00050503574586094,0.00050509101473114,-0.00050503606610462,0.00050509058067274,-0.00072866782945517,0.0007286899640491,-0.00072868407395402,0.00072867374210897,-0.00072866746873508,0.00072869033271813,-0.00072868370658997,0.00072867408627011,-0.00072096575216226,0.00072095697762024,-0.00072096683723788,0.00072095595482325,-0.00072095060503404,0.00072097212886974,-0.00072094954654017,0.00072097322574442,-0.00053651731981161,0.00053647736130269,0.78230622887238,128566,2924,0.0029663708540021,0.0035984305223513,0.0025866886166129,20.571043833363,-7.5431649333093e-05,-7.5431649333093e-05,-7.5431649333093e-05,3079478.6372758,0.0091939274426868
26791759,0.56246428610957,0.0096559999515531,0.0031900792023241,0.0035586769451378,0.0029072438040912,-0.00072482589014597,0.00072482847482505,1.8280689820416e-09,7.4811823385443e-10,8.8507543161193e-10,1.7905123245481e-09,-0.00038567969152962,0.00038568229361131,-0.00067455803464798,0.00067456193681008,-0.00067455843695283,0.00067456167997494,-0.00038567946511093,0.00038568229241642,-0.00038568070948439,0.00038568127960229,-0.00067455896864689,0.00067456111837446,-0.00067455940471347,0.00067456078352603,-0.00083115383289051,0.00083115647924389,-0.00083115418259606,0.00083115607885265,-0.00083115357587319,0.00083115675481538,-0.00083115389157019,0.00083115636379032,-0.0007379576268215,0.00073796151474951,-0.0007379585025003,0.00073796033389899,-0.0007379578413573,0.00073796118352581,-0.00073795890183572,0.00073796005983038,-0.00038567855770167,0.00038568307656112,7.5474066248495e-10,-2.6327856275592e-10,-2.5318383674317e-08,2.5765425120037e-08,-0.00088085062566939,0.00088085108364902,-0.0008754342543374,0.00087548510281568,-0.00088709154471136,0.00088707616229391,-0.00088709249395877,0.00088707500996515,-0.00085392377104435,0.00085390776348823,-0.00085390707929682,0.00085392463671057,-0.00085392408357312,0.00085390739209249,-0.00085390737206862,0.00085392428991507,-0.0008754852613538,0.00087543523361948,-0.00087543450463123,0.00087548479350155,-0.00088707449836433,0.00088709290894207,-0.00088707538468018,0.00088709183535593,-0.00087548495238714,0.00087543562254531,2.5071301097061e-09,3.7114218949378e-09,-0.00063082392672761,0.00063083016507418,2.8885109951623e-08,-2.2315312330625e-08,-0.00054344691058645,0.00054340181448051,-0.00051187328211098,0.00051183008988432,-0.00051187372798429,0.00051182968002038,-0.00054339549881159,0.00054345323696727,-0.00054339652364196,0.00054345205127799,-0.00051182293472165,0.00051188051146725,-0.00051182325322382,0.00051188007650887,-0.00074040480162209,0.00074042752156718,-0.00074042192860161,0.00074041041690497,-0.0007404044193835,0.0007404279131069,-0.00074042150979077,0.00074041081365511,-0.00073311458581,0.00073310483143961,-0.00073311582592546,0.00073310365558471,-0.00073309867730745,0.00073312074665309,-0.00073309755107148,0.00073312191085493,-0.00054344560528304,0.00054340305247609,0.76472632756178,128566,2924,0.0030162135092877,0.0036633762204575,0.0026252933732434,21.003136866747,-7.1974905066021e-05,-7.1974905066021e-05,-7.1974905066021e-05,3102135.7682895,0.0093487603268877
26991759,0.5711841826686,0.0098019095083508,0.0032383776490141,0.0036164295210835,0.0029471023382533,-0.0007368790933939,0.00073688175885739,1.8946077391958e-09,7.6152635909835e-10,8.2548892399766e-10,1.9359706826304e-09,-0.00039058675399475,0.00039058954056706,-0.00068588302587364,0.00068588724868002,-0.00068588346479541,0.00068588696223259,-0.00039058667359587,0.0003905893981329,-0.00039058793115268,0.00039058836125205,-0.00068588417923893,0.00068588621646621,-0.0006858846202085,0.00068588587562547,-0.00084529914534291,0.00084530181220925,-0.00084529950222776,0.00084530139984903,-0.00084529881521685,0.00084530216061965,-0.00084529915098925,0.00084530174807512,-0.00075030017563525,0.00075030428339298,-0.00075030111843541,0.00075030302864919,-0.00075030047936863,0.00075030386680028,-0.00075030156711365,0.00075030270264575,-0.00039058551059316,0.00039059042780323,8.4243194445884e-10,-3.5931614540311e-10,-2.6485763452401e-08,2.6926355920339e-08,-0.0008965139220128,0.00089651437269779,-0.00089134363184857,0.00089139683560343,-0.00090278393144538,0.0009027679338867,-0.00090278504052565,0.00090276661733817,-0.00086879771122124,0.00086878099023095,-0.00086878026527316,0.00086879864433201,-0.00086879807897664,0.00086878056082495,-0.00086878062433212,0.00086879822973328,-0.00089139697150068,0.00089134460842142,-0.00089134395424712,0.00089139644713288,-0.00090276610247428,0.00090278547497086,-0.00090276718345565,0.00090278419444225,-0.00089139661658955,0.00089134504125207,2.365637957783e-09,3.5543594329742e-09,-0.00064011526731138,0.00064012120484801,2.990066094896e-08,-2.3647065831915e-08,-0.00055016820384896,0.00055012054758018,-0.00051852200468302,0.00051847617217546,-0.00051852242811353,0.00051847578337812,-0.00055011450973682,0.00055017426921093,-0.0005501155452855,0.00055017306070176,-0.00051846933914509,0.0005185289238591,-0.00051846965889082,0.00051852847939263,-0.00075222954878262,0.00075225274917485,-0.00075224745005744,0.00075223487092747,-0.00075222916496241,0.00075225314347649,-0.00075224703946608,0.00075223525884996,-0.00074517052698894,0.00074515966140228,-0.00074517173706316,0.00074515851329868,-0.00074515381456672,0.00074517637352657,-0.0007451526941414,0.00074517753977551,-0.00055016697079568,0.00055012172543204,0.74557636352252,128566,2924,0.0030663194359565,0.0037283893263583,0.0026639182680484,21.442597397925,-6.8459220816599e-05,-6.8459220816599e-05,-6.8459220816599e-05,3128327.1944152,0.0095039727891714
27191759,0.58006274262343,0.0099462367872428,0.0032862817994118,0.0036735797562437,0.0029863752315874,-0.00074893218980878,0.00074893491276928,1.9425221704576e-09,7.7051740716329e-10,8.0391125629824e-10,2.0178457141103e-09,-0.00039551132187173,0.00039551421013836,-0.00069700238005134,0.00069700678870365,-0.00069700284608775,0.00069700648204156,-0.00039551130867914,0.00039551400227452,-0.0003955125719535,0.00039551294522035,-0.00069700364969743,0.0006970056480457,-0.00069700409062236,0.00069700529994101,-0.00085951690179567,0.0008595196003146,-0.00085951726511583,0.00085951917655348,-0.00085951653403277,0.0008595199850303,-0.00085951688472095,0.00085951955660352,-0.00076248043434258,0.00076248468108041,-0.00076248142160904,0.00076248337502114,-0.0007624807866063,0.00076248422263645,-0.0007624818921518,0.00076248302180053,-0.00039551001292665,0.0003955151509502,8.9403756467786e-10,-4.0399378514953e-10,-2.7482483487729e-08,2.7929847412775e-08,-0.00091212694629628,0.00091212740399855,-0.00090706213185321,0.00090711734658108,-0.00091835445787037,0.00091833789347744,-0.00091835564981139,0.00091833648596134,-0.00088373844636757,0.00088372110691953,-0.00088372035562801,0.00088373943176795,-0.0008837388434165,0.00088372064690775,-0.00088372074886264,0.0008837389816389,-0.00090711745193951,0.00090706311066537,-0.00090706249452866,0.00090711691605478,-0.00091833596214567,0.0009183561067709,-0.00091833714484891,0.00091835472028978,-0.00090711707600813,0.00090706356724322,2.2060414026758e-09,3.3928216982639e-09,-0.00064939106927985,0.00064939668312542,3.0733453567768e-08,-2.4819006489921e-08,-0.00055674809478604,0.0005566981629855,-0.00052501202608257,0.00052496388019009,-0.00052501244094243,0.00052496349994951,-0.0005566924268529,0.00055675385974893,-0.00055669348733946,0.00055675262260949,-0.00052495737937341,0.00052501861530702,-0.00052495770531171,0.00052501816068305,-0.00076410324107053,0.00076412678311275,-0.0007641218040573,0.00076410824348251,-0.00076410285402423,0.00076412718114459,-0.00076412139618958,0.00076410862863343,-0.00075710327263011,0.00075709140217943,-0.00075710447261222,0.0007570902660705,-0.00075708588441149,0.00075710878848316,-0.00075708475675941,0.00075710996497638,-0.00055674689804544,0.00055669930635288,0.72509827941332,128566,2924,0.0031164228543696,0.0037931889588094,0.0027024775821227,21.882359501484,-6.4941123988126e-05,-6.4941123988126e-05,-6.4941123988126e-05,3154954.5736807,0.0096589265449399
27391759,0.58902949584564,0.010095080357492,0.0033356331941559,0.0037325710611507,0.0030268761021858,-0.0007610714313862,0.00076107417337445,1.9480430522396e-09,7.8389296585798e-10,8.710905853982e-10,1.9704985717389e-09,-0.00040076777777683,0.00040077062695084,-0.00070842108777082,0.00070842538707958,-0.00070842153867912,0.0007084250988448,-0.00040076765768784,0.00040077052956617,-0.00040076896184679,0.00040076942448359,-0.00070842223373502,0.0007084243773852,-0.0007084226868251,0.0007084240158414,-0.00087375268268275,0.00087375543985869,-0.00087375304768185,0.00087375501349811,-0.00087375235762576,0.00087375578073201,-0.00087375270036254,0.00087375536051282,-0.00077481573273947,0.0007748199368341,-0.00077481669810611,0.00077481865535591,-0.00077481603446177,0.00077481953321196,-0.00077481714466214,0.00077481832380138,-0.00040076651650858,0.00040077151209355,8.619332384724e-10,-3.3610423536397e-10,-2.8058407720287e-08,2.8540926101358e-08,-0.00092782914509416,0.00092782963684249,-0.00092292430339758,0.00092298067273164,-0.00093399289994329,0.00093397589631659,-0.00093399400951883,0.00093397456974176,-0.00089875772006582,0.00089873999880338,-0.0008987392557841,0.00089875871422584,-0.00089875809097974,0.00089873956631936,-0.00089873961170338,0.0008987583020128,-0.00092298075343087,0.00092292530038741,-0.0009229246168023,0.00092298028985674,-0.00093397402923355,0.00093399448852764,-0.00093397509613344,0.00093399321401016,-0.0009229803951717,0.00092292573748789,2.1286950355736e-09,3.3603876852313e-09,-0.00065873114471617,0.00065873664861052,3.1252298978017e-08,-2.5451956597027e-08,-0.00056369251803663,0.00056364126254976,-0.00053173631323672,0.00053168695325384,-0.0005317367578426,0.00053168654272239,-0.00056363568892159,0.00056369813260591,-0.00056363674020092,0.00056369689845215,-0.00053168055182077,0.00053174281073036,-0.00053168087446775,0.00053174235554214,-0.0007759790361317,0.00077600284133935,-0.00077599798684985,0.00077598391465826,-0.00077597863898099,0.00077600324946053,-0.00077599755811743,0.00077598432006879,-0.0007692154764999,0.00076920315980879,-0.00076921673827773,0.00076920196623508,-0.00076919774275625,0.00076922089214063,-0.00076919658525879,0.00076922209874891,-0.00056369124080274,0.00056364249363448,0.74093825233753,128566,2924,0.0031668819566721,0.0038583536592458,0.0027413036536492,22.21418807634,-6.2286495389278e-05,-6.2286495389278e-05,-6.2286495389278e-05,3177432.1438172,0.0098149004700057
27591759,0.59803966615015,0.010246548676557,0.0033858242037694,0.0037926675906476,0.0030680568821394,-0.00077321759152872,0.00077322033860689,1.9722651379774e-09,7.6494328674296e-10,9.612626136164e-10,1.8849342797575e-09,-0.00040595167861873,0.00040595428361685,-0.00071996338103946,0.00071996753733227,-0.00071996385739628,0.00071996722505774,-0.00040595134336703,0.00040595439475498,-0.00040595265296259,0.00040595329105022,-0.00071996436673926,0.00071996669083315,-0.00071996482321538,0.00071996632793421,-0.00088801050712997,0.00088801333692734,-0.0008880108823979,0.00088801290181866,-0.00088801023547591,0.00088801362336991,-0.00088801059658599,0.00088801318554169,-0.00078723283926132,0.00078723704425251,-0.0007872338501857,0.00078723569681379,-0.00078723309106412,0.00078723668191362,-0.00078723422882166,0.00078723544122866,-0.00040595033876477,0.00040595523835938,7.8994782378329e-10,-2.1473891737348e-10,-2.8352906965449e-08,2.8881802670224e-08,-0.00094365351528205,0.00094365405449411,-0.00093902299620837,0.00093907998363454,-0.00094976541669773,0.00094974804828316,-0.0009497663214415,0.00094974692458251,-0.0009138208098312,0.0009138028635836,-0.00091380213925782,0.00091382179214123,-0.00091382111528659,0.00091380249865773,-0.0009138024379656,0.0009138214401686,-0.00093908001505742,0.00093902405961927,-0.00093902325800893,0.00093907965361738,-0.00094974632062248,0.00094976686192656,-0.00094974721236531,0.00094976576624554,-0.00093907973553664,0.00093902442206497,2.1478739343931e-09,3.373649337687e-09,-0.00066802068426379,0.00066802622247591,3.1609783771882e-08,-2.5769841204472e-08,-0.00057066703118279,0.00057061518784035,-0.00053841962638305,0.00053836963175539,-0.00053842005898722,0.00053836923459698,-0.00057060953836781,0.00057067271339321,-0.00057061062707249,0.00057067144428565,-0.00053836318814584,0.00053842616425731,-0.00053836351986649,0.00053842569865029,-0.00078784812337854,0.00078787218216483,-0.00078786729435259,0.00078785303577808,-0.00078784772375102,0.00078787259284097,-0.00078786687083719,0.00078785343546979,-0.00078142908151498,0.00078141657999796,-0.00078143031921145,0.00078141539890542,-0.00078141113032344,0.00078143452888934,-0.00078140996629749,0.00078143573960797,-0.00057066578799741,0.00057061637816751,0.75071315188461,128566,2924,0.0032173695370409,0.0039240200202786,0.0027799195364827,22.481918546091,-6.0144651631273e-05,-6.0144651631273e-05,-6.0144651631273e-05,3195122.697398,0.0099712220938545
27791759,0.60708561823271,0.010400744510885,0.0034368855693287,0.0038539185933068,0.0031099403482494,-0.00078550774435675,0.00078551049867186,1.9883716496404e-09,7.5594471956948e-10,1.0438359027062e-09,1.809782828818e-09,-0.00041129524033993,0.00041129766396144,-0.00073176233041132,0.00073176635269282,-0.00073176282002183,0.00073176602656183,-0.00041129471990432,0.00041129795124894,-0.00041129605090108,0.00041129683543925,-0.000731763166178,0.00073176565707377,-0.00073176362935677,0.00073176529299496,-0.00090240643324449,0.00090240932890877,-0.00090240681662954,0.0009024088882538,-0.00090240621210799,0.00090240956457188,-0.00090240658317021,0.00090240911712733,-0.00079984363679748,0.0007998478277957,-0.0007998446891143,0.00079984646432686,-0.0007998438482181,0.00079984751767537,-0.00079984500834143,0.00079984625955007,-0.00041129385928168,0.00041129864643664,7.3454647269771e-10,-1.1267852727775e-10,-2.8623316283982e-08,2.9196436393262e-08,-0.00095970030854642,0.00095970089235246,-0.00095543561691538,0.0009554931747085,-0.00096577921193257,0.00096576153679768,-0.00096577995813922,0.00096576057117302,-0.00092905231416785,0.00092903417031872,-0.0009290334560084,0.00092905329232217,-0.00092905256854147,0.00092903385875776,-0.00092903370563855,0.00092905299111063,-0.00095549316909081,0.00095543673999797,-0.00095543582952993,0.00095549289282834,-0.00096575991632028,0.00096578054696758,-0.00096576065602639,0.00096577960261316,-0.00095549294727179,0.00095543704508087,2.1902359433657e-09,3.4280013414801e-09,-0.0006773956515462,0.00067740128953469,3.1963259421233e-08,-2.6015224220768e-08,-0.00057782194032689,0.00057776962004119,-0.00054523910875263,0.00054518863608372,-0.00054523954205387,0.00054518823927977,-0.00057776385616181,0.00057782773742599,-0.00057776496751528,0.00057782644117513,-0.00054518207905424,0.00054524576232146,-0.00054518241627354,0.00054524528637351,-0.00079981960435415,0.0007998439518574,-0.00079983897253818,0.00079982460924517,-0.00079981919968704,0.0007998443683299,-0.00079983854597398,0.0007998250114243,-0.00079387197486148,0.00079385937259242,-0.00079387322095134,0.00079385818521873,-0.00079385383464819,0.00079387751130475,-0.00079385265379829,0.00079387873938444,-0.00057782070116986,0.00057777080515215,0.76134594495121,128566,2924,0.0032684546942734,0.003990603578279,0.0028188900380665,22.747941890644,-5.8016464874846e-05,-5.8016464874846e-05,-5.8016464874846e-05,3210116.3965584,0.010129456529659
27991759,0.61616044370144,0.010557772778084,0.0034888488857918,0.0039163740747472,0.0031525498175447,-0.00079795133127363,0.00079795410269964,2.0038264450217e-09,7.574230525839e-10,1.1081146413289e-09,1.7633201715439e-09,-0.00041678344740224,0.00041678577267538,-0.00074382328370362,0.00074382721794,-0.00074382377615689,0.00074382688907915,-0.00041678280029266,0.00041678617785401,-0.00041678415600976,0.00041678504672189,-0.00074382400851249,0.00074382663238007,-0.00074382448191778,0.00074382626578039,-0.00091694740936932,0.00091695036373935,-0.00091694779971561,0.00091694991924084,-0.00091694722569019,0.00091695056227331,-0.00091694760110414,0.00091695011089531,-0.00081268013605414,0.00081268431843707,-0.00081268120124124,0.00081268294491685,-0.00081268030666803,0.0008126840458061,-0.00081268148751049,0.00081268277681239,-0.00041678205325252,0.00041678675692263,7.0078445739822e-10,-4.0536351171709e-11,-2.8941432984618e-08,2.9551118128744e-08,-0.00097597736128039,0.0009759779820599,-0.00097215762286787,0.0009722158408429,-0.00098205254919727,0.0009820345865856,-0.000982053192762,0.00098203372233701,-0.00094446553972382,0.00094444718125353,-0.00094444646743672,0.00094446652306067,-0.00094446576123649,0.00094444690401908,-0.00094444668273687,0.00094446625732004,-0.00097221581401181,0.00097215879383528,-0.00097215779737245,0.00097221559579356,-0.00098203302976042,0.00098205381547529,-0.0009820336616127,0.00098205297656577,-0.00097221562659919,0.00097215906516216,2.2394638948389e-09,3.5003193921251e-09,-0.00068688358633517,0.00068688934862299,3.2368494639552e-08,-2.6286096641739e-08,-0.00058521994302621,0.00058516706546041,-0.00055223839435943,0.00055218740304649,-0.00055223883769412,0.00055218699703724,-0.00058516118001977,0.00058522586184226,-0.00058516230651343,0.00058522454724095,-0.00055218070260676,0.00055224519306763,-0.00055218104374807,0.00055224470961007,-0.00081192015362043,0.00081194483744401,-0.00081193974607856,0.00081192527090089,-0.00081191974228121,0.00081194526097317,-0.00081193931108126,0.00081192568118072,-0.00080658035320811,0.00080656766728723,-0.00080658162416097,0.0008065664557862,-0.00080656200861604,0.00080658601040078,-0.00080656080706586,0.00080658726006382,-0.00058521867584012,0.00058516827821587,0.77288939618778,128566,2924,0.0033201768963424,0.0040581364502704,0.0028583293956419,23.01389510953,-5.5888839123757e-05,-5.5888839123757e-05,-5.5888839123757e-05,3221038.4674809,0.010289792404064
28191759,0.62522422717779,0.01071717244303,0.0035415570426539,0.0039798473753521,0.0031957680250239,-0.00081039880156928,0.00081040159165318,2.0177155560277e-09,7.6193998571234e-10,1.1739550913013e-09,1.7169959286589e-09,-0.00042221318753217,0.00042221542357871,-0.0007559927752746,0.00075599661793679,-0.00075599326637123,0.0007559962897428,-0.00042221241958236,0.00042221594627343,-0.00042221379850589,0.00042221479751119,-0.00075599338515326,0.00075599614639692,-0.00075599386882355,0.00075599577567094,-0.00093148438465199,0.00093148739885415,-0.00093148478070732,0.00093148695119671,-0.00093148423963938,0.00093148755897155,-0.00093148461694377,0.00093148710603469,-0.00082562214105102,0.00082562630894573,-0.00082562321152368,0.00082562493057254,-0.00082562226746612,0.00082562607581834,-0.00082562346688961,0.00082562479858559,-0.00042221179341718,0.00042221640504926,6.6581726926887e-10,3.0043914590797e-11,-2.9290185816988e-08,2.99345896026e-08,-0.00099234004682564,0.00099234070211089,-0.00098904182806934,0.00098910076143361,-0.00099844417949708,0.00099842590927179,-0.00099844472190927,0.00099842514382525,-0.00095990262193151,0.00095988402732004,-0.00095988331583622,0.00095990360746914,-0.00095990281143633,0.00095988378341573,-0.00095988349634944,0.0009599033775914,-0.0009891007179975,0.00098904304416808,-0.00098904196253331,0.00098910055532994,-0.00099842441810176,0.00099844537430738,-0.00099842494055391,0.0009984446419317,-0.00098910056236958,0.00098904328428149,2.2943243554362e-09,3.5829274749203e-09,-0.0006963591203733,0.00069636502375639,3.2811589783899e-08,-2.6577662072084e-08,-0.00059276098976706,0.00059270750398441,-0.0005592879431639,0.00055923639637945,-0.00055928840029194,0.00055923597762643,-0.00059270148798049,0.00059276704227836,-0.00059270262667372,0.0005927657121756,-0.00055922953463823,0.00055929490721281,-0.00055922987897348,0.0005592944170777,-0.00082401127994657,0.00082403633472248,-0.00082403111711524,0.00082401652380621,-0.00082401086097617,0.00082403676622287,-0.00082403067125538,0.00082401694464249,-0.00081940775606081,0.0008193949900656,-0.00081940905889975,0.00081939374749559,-0.0008193891914414,0.00081941355249491,-0.00081938796767212,0.00081941482582987,-0.0005927596817252,0.00059270875740196,0.78542227746604,128566,2924,0.0033719146240035,0.0041260188803625,0.0028977167551226,23.223984192248,-5.4208126462014e-05,-5.4208126462014e-05,-5.4208126462014e-05,3227832.0589628,0.010450470265508
28391759,0.63425937826257,0.010878862615249,0.003594981332797,0.0040442963015694,0.0032395849808827,-0.00082290621331982,0.00082290902859444,2.0426494250945e-09,7.6183603718201e-10,1.2316904215266e-09,1.6856300594529e-09,-0.00042751554142042,0.00042751768376372,-0.00076832935451694,0.00076833314739498,-0.00076832985630753,0.00076833280735026,-0.00042751466003439,0.00042751831463073,-0.00042751605735663,0.0004275171530689,-0.00076832987847564,0.00076833275889839,-0.0007683303723328,0.00076833238771739,-0.00094608125120146,0.00094608432652289,-0.00094608165556348,0.00094608387323231,-0.00094608113495352,0.00094608445856931,-0.00094608152142653,0.00094608399629527,-0.00083872601396349,0.00083873020337566,-0.0008387271076442,0.0008387287921956,-0.00083872610235933,0.00083872998834377,-0.00083872733684251,0.00083872870322631,-0.00042751411121416,0.00042751869439571,6.3576269259203e-10,9.044463750782e-11,-2.9745088300911e-08,3.041864303763e-08,-0.0010088539244524,0.0010088546089932,-0.0010061585378836,0.001006218396574,-0.0010150249273659,0.0010150062824305,-0.0010150253752848,0.0010150056079693,-0.00097540963874515,0.00097539073776631,-0.00097539003016263,0.00097541062799117,-0.00097540979878359,0.00097539052439905,-0.00097539018332487,0.00097541042651185,-0.0010062183324623,0.001006159797851,-0.0010061586446329,0.0010062182173963,-0.0010150048472848,0.0010150260603025,-0.0010150052828112,0.001015025412386,-0.0010062182113497,0.0010061600046753,2.3480209162656e-09,3.6487738801556e-09,-0.00070589538251894,0.00070590140837071,3.3353687775172e-08,-2.6988712923253e-08,-0.00060064296465613,0.00060058867016131,-0.00056644373569871,0.000566391386623,-0.00056644419447558,0.00056639096732182,-0.00060058252196639,0.0006006491515805,-0.00060058367938397,0.00060064779907981,-0.00056638438852683,0.00056645083881556,-0.00056638473779669,0.00056645034015373,-0.00083615027520673,0.0008361757574934,-0.00083617042676693,0.00083615563233903,-0.0008361498510978,0.00083617619441513,-0.00083616997769477,0.00083615605632097,-0.00083242981517948,0.00083241685502025,-0.00083243112709943,0.00083241560401955,-0.00083241094397865,0.00083243572432737,-0.00083240970566193,0.00083243701280563,-0.00060064165170548,0.00060058992831915,0.7990379151441,128566,2924,0.0034239007980895,0.0041945229348156,0.0029373557771296,23.414899975626,-5.2680800194989e-05,-5.2680800194989e-05,-5.2680800194989e-05,3231011.4172792,0.010612307480512
28591759,0.64325947430959,0.011041753229999,0.0036487857908997,0.0041092659460965,0.003283701493003,-0.00083545890826178,0.00083546175110844,2.0662053706972e-09,7.6494008619368e-10,1.2845267201493e-09,1.6619148621712e-09,-0.00043272071100054,0.00043272278627734,-0.00078077151422567,0.00078077526874317,-0.00078077202335974,0.00078077492036184,-0.00043271973267878,0.00043272350607527,-0.00043272115276357,0.00043272233088434,-0.00078077196154814,0.00078077495274816,-0.00078077246767879,0.00078077458204451,-0.0009607409449009,0.00096074407916907,-0.00096074135709648,0.00096074362084058,-0.00096074085425215,0.00096074418647901,-0.00096074124767447,0.00096074371701699,-0.00085192552791892,0.00085192973884115,-0.00085192663855912,0.00085192830288487,-0.00085192558519287,0.00085192954246187,-0.00085192684671985,0.00085192824619626,-0.0004327192541094,0.00043272381338593,6.103722369589e-10,1.4154031109948e-10,-3.0290749169523e-08,3.0988797716207e-08,-0.0010254852840209,0.0010254859932351,-0.0010234625916004,0.0010235235456064,-0.0010317574449995,0.0010317383787102,-0.0010317578152999,0.0010317377783295,-0.00099097530529481,0.00099095603997869,-0.00099095533685072,0.00099097629866324,-0.00099097544095766,0.00099095585164783,-0.00099095546605847,0.00099097612166413,-0.0010235234659651,0.001023463886817,-0.0010234626721739,0.0010235233907897,-0.0010317369898666,0.0010317585256865,-0.0010317373494313,0.0010317579504419,-0.0010235233730089,0.0010234640672244,2.3861675804484e-09,3.7035971441219e-09,-0.00071546309192528,0.00071546921349476,3.3968446644551e-08,-2.7500265683729e-08,-0.00060875372826432,0.00060869841698793,-0.00057361847211365,0.00057356512706629,-0.00057361893643304,0.00057356470364413,-0.00060869217119301,0.00060876001763376,-0.00060869334132388,0.00060875863949784,-0.00057355801870104,0.00057362568962426,-0.00057355837101221,0.00057362518146951,-0.00084833118634778,0.00084835712692211,-0.00084835171124328,0.00084833662932473,-0.0008483307570092,0.00084835757034011,-0.0008483512566629,0.00084833705854336,-0.00084559491161044,0.00084558167701474,-0.00084559623996173,0.00084558041154518,-0.00084557567571891,0.00084560090819782,-0.00084557442300474,0.0008456022173445,-0.00060875240132089,0.00060869968764315,0.80787521951111,128566,2924,0.0034760747913715,0.0042635081841274,0.0029771249217563,23.605295409593,-5.1157636723257e-05,-5.1157636723257e-05,-5.1157636723257e-05,3232631.1731818,0.010774979042027
28791759,0.65221837355983,0.011200035910386,0.0037011932136289,0.0041723719726807,0.0033264707240763,-0.00084775271271889,0.0008477555776482,2.0865027130391e-09,7.6634409978732e-10,1.3287365300699e-09,1.6407317935641e-09,-0.00043740998573235,0.00043741200137677,-0.00079272087455791,0.00079272459442815,-0.00079272139146163,0.00079272424085511,-0.00043740892268944,0.00043741280053248,-0.00043741036221119,0.00043741160811055,-0.00079272125787554,0.00079272434252402,-0.00079272177337046,0.00079272396908402,-0.00097522969628799,0.00097523288014491,-0.00097523011507414,0.00097523241607439,-0.00097522962742548,0.00097523296573579,-0.00097523002698484,0.00097523248966149,-0.0008647665788816,0.00086477080731481,-0.00086476770280758,0.00086476934717559,-0.00086476660877307,0.0008647706281427,-0.00086476789277416,0.00086476931791843,-0.00043740850501538,0.00043741304190372,5.9166100004493e-10,1.8719663156552e-10,-3.0888930027391e-08,3.1612746617232e-08,-0.0010418351939769,0.0010418359292781,-0.0010404006585488,0.0010404628170407,-0.001048215331535,0.0010481958237201,-0.0010482156366903,0.0010481952856573,-0.0010063070940804,0.0010062874346287,-0.0010062867318717,0.0010063080981124,-0.0010063072091804,0.0010062872674392,-0.0010062868406055,0.0010063079420135,-0.0010404627159547,0.0010404019841045,-0.0010404007171864,0.0010404626831081,-0.0010481944698356,0.0010482163739949,-0.0010481947647605,0.0010482158605125,-0.0010404626455525,0.0010404021429321,2.3767277321596e-09,3.7123846124998e-09,-0.0007247845675746,0.00072479069007552,3.4583951412914e-08,-2.8112651511184e-08,-0.00061654263421213,0.00061648610225645,-0.0005803428409601,0.0005802883007474,-0.00058034331137503,0.00058028787168641,-0.00061647985615106,0.00061654892505895,-0.0006164810429514,0.00061654752669075,-0.00058028117939453,0.00058035007291363,-0.00058028153631308,0.00058034955705129,-0.00086035229747187,0.00086037863646113,-0.00086037322914506,0.00086035773240547,-0.00086035186218204,0.00086037908616738,-0.00086037276840897,0.00086035816756008,-0.00085840266067871,0.00085838902759357,-0.00085840400799914,0.0008583877456102,-0.00085838302815879,0.00085840865415155,-0.00085838175884936,0.00085840998301769,-0.00061654129030718,0.00061648739035251,0.78846824487991,128566,2924,0.0035271726018614,0.0043313203174465,0.0030158701999786,23.795669389612,-4.9634644883101e-05,-4.9634644883101e-05,-4.9634644883101e-05,3234432.4946722,0.010934370007628
28991759,0.66119255762815,0.011351840505704,0.0037516438323415,0.0042328359493406,0.0033673607240218,-0.00085994022657272,0.00085994312585574,2.1207793583522e-09,7.6606666942439e-10,1.3208428450989e-09,1.6845539242692e-09,-0.00044184319009055,0.00044184523976464,-0.00080420591509537,0.00080420973983679,-0.00080420645266264,0.00080420937114663,-0.00044184214800118,0.00044184602352086,-0.00044184359710819,0.00044184481141783,-0.00080420635879857,0.00080420943343861,-0.0008042068779213,0.00080420905348855,-0.0009897015594091,0.00098970476943834,-0.00098970198645955,0.00098970429508139,-0.00098970147119202,0.00098970487370383,-0.00098970188416169,0.0009897043836038,-0.00087728342382867,0.00087728774366512,-0.00087728458475017,0.00087728623969676,-0.00087728347642362,0.00087728753983497,-0.00087728478591341,0.00087728620039715,-0.00044184165840164,0.00044184633484399,6.2299025401655e-10,1.737347263469e-10,-3.1626701403746e-08,3.2367171917116e-08,-0.0010579305763779,0.0010579313289946,-0.001056827592161,0.0010568912528428,-0.001064396279645,0.0010643763355921,-0.0010643966206281,0.0010643757579859,-0.0010215659280019,0.0010215458101097,-0.0010215450833536,0.0010215669725597,-0.0010215660552589,0.00102154562998,-0.0010215452086545,0.001021566799054,-0.0010568911242243,0.001056828934686,-0.0010568276711405,0.0010568910972491,-0.0010643749207101,0.0010643973860957,-0.0010643752645546,0.0010643968201223,-0.0010568910462727,0.0010568291023656,2.2909195826848e-09,3.6291019276883e-09,-0.0007340803884621,0.00073408634172242,3.5247100522079e-08,-2.8952536781934e-08,-0.00062425568107166,0.00062419751102488,-0.00058684722691977,0.00058679103026755,-0.00058684769175593,0.00058679060686341,-0.00062419142011587,0.00062426181595569,-0.00062419262701631,0.00062426039534076,-0.00058678407711595,0.00058685428941648,-0.00058678444003907,0.00058685376505946,-0.0008723999345728,0.00087242659806173,-0.00087242136104301,0.00087240519922459,-0.00087239949636175,0.00087242705091635,-0.0008724209016408,0.00087240563301434,-0.00087090356967294,0.00087088926251772,-0.00087090491340351,0.00087088798500424,-0.00087088343712605,0.00087090938890796,-0.00087088215949527,0.00087091072789772,-0.00062425435321671,0.00062419878408929,0.75490318945116,128566,2924,0.0035778251007092,0.0043980720089247,0.0030545076676537,24.096182804599,-4.7230537563209e-05,-4.7230537563209e-05,-4.7230537563209e-05,3240762.4704628,0.011092156569678
29191759,0.67018387236579,0.011500375627369,0.003801093101703,0.0042919747918671,0.0034073077337988,-0.00087201730793974,0.00087202023715074,2.1403271550334e-09,7.7612978163558e-10,1.3108468510873e-09,1.7260336359455e-09,-0.00044629743729233,0.00044629957102447,-0.00081540492112095,0.00081540882826163,-0.00081540546125692,0.0008154084623569,-0.00044629643909821,0.00044630031485963,-0.00044629790544523,0.0004462990786756,-0.00081540541703613,0.00081540847864804,-0.00081540593773422,0.00081540808730346,-0.0010040687897003,0.0010040720169252,-0.0010040692200686,0.0010040715363845,-0.0010040686854584,0.0010040721362312,-0.0010040691002817,0.0010040716435935,-0.00088950435069863,0.0008895087236879,-0.0008895055183213,0.00088950721569561,-0.00088950442081181,0.00088950850902097,-0.00088950573897509,0.0008895071522697,-0.00044629590742215,0.00044630066346781,6.6249563744833e-10,1.5428155039277e-10,-3.2266896011946e-08,3.3027120972713e-08,-0.0010737580051636,0.0010737587775127,-0.0010727624933093,0.0010728274662737,-0.0010802825080622,0.0010802622191676,-0.001080282909639,0.0010802615778744,-0.0010367212013636,0.0010367006993832,-0.001036699943138,0.0010367222940429,-0.0010367213489709,0.001036700498446,-0.0010367000863385,0.0010367221019354,-0.0010728273135009,0.0010727638447263,-0.0010727625872534,0.0010728272941767,-0.0010802607296326,0.0010802836966353,-0.0010802611251959,0.001080283074231,-0.001072827213145,0.0010727640353203,2.1759583300026e-09,3.5416138900219e-09,-0.00074338403033348,0.00074338978064755,3.5786537315389e-08,-2.9704422144123e-08,-0.00063207901898737,0.00063201933005465,-0.00059334421327819,0.00059328655055146,-0.00059334469074948,0.00059328611464226,-0.00063201345935063,0.00063208493429646,-0.00063201468219371,0.0006320834965375,-0.00059327979475049,0.00059335108085856,-0.00059328016236145,0.00059335054931246,-0.00088440853118397,0.00088443541091424,-0.00088443038403181,0.00088441358532015,-0.00088440808530016,0.00088443587141105,-0.00088442991458618,0.00088441402932105,-0.00088321167119861,0.0008831967647633,-0.00088321304533726,0.00088319545676351,-0.0008831911359729,0.00088321729358456,-0.00088318983477556,0.00088321865673209,-0.000632077655945,0.00063202063848881,0.73755731461197,128566,2924,0.0036280140495506,0.0044637089641193,0.0030931760980606,24.414508032738,-4.4683935738092e-05,-4.4683935738092e-05,-4.4683935738092e-05,3250846.1535546,0.011248403228026
29391759,0.67918390052357,0.011641787606302,0.0038483366606792,0.0043482298451479,0.0034452211004753,-0.00088370953352826,0.00088371248258477,2.1589506627157e-09,7.7724098871837e-10,1.2928870124834e-09,1.7649175825088e-09,-0.0004503388218155,0.00045034101629814,-0.00082580255899403,0.00082580654875929,-0.0008258031094447,0.00082580618246709,-0.00045033786819755,0.00045034172717113,-0.0004503393442106,0.00045034046381936,-0.00082580311886751,0.00082580615169618,-0.0008258036360714,0.0008258057446501,-0.0010181440159389,0.0010181472499057,-0.0010181444503494,0.0010181467613655,-0.0010181438925941,0.0010181473869229,-0.0010181443128012,0.0010181468880997,-0.00090109867155436,0.00090110310063883,-0.0009010998530722,0.00090110157237306,-0.00090109876258629,0.00090110286849071,-0.00090110009246022,0.00090110148849503,-0.00045033727765252,0.00045034212567186,7.057268490586e-10,1.3920095903566e-10,-3.272562767595e-08,3.3513145003895e-08,-0.0010891062400504,0.0010891070397513,-0.0010879665768597,0.0010880325252779,-0.0010956528656181,0.0010956323546719,-0.0010956533231748,0.0010956316546848,-0.0010515430268506,0.0010515222621407,-0.001051521468001,0.0010515441732893,-0.001051543193018,0.0010515220418175,-0.0010515216297433,0.0010515439618563,-0.0010880323355308,0.0010879679457767,-0.0010879666890947,0.0010880323336446,-0.0010956307841383,0.0010956541439212,-0.001095631235077,0.0010956534627941,-0.0010880322160625,0.0010879681563646,2.0380372286839e-09,3.4232264811337e-09,-0.00075238173260075,0.00075238722471393,3.612288057156e-08,-3.031025686111e-08,-0.0006391428782152,0.00063908198115529,-0.00059932693255907,0.00059926808162521,-0.00059932741666616,0.00059926763904571,-0.00063907637355867,0.00063914853058456,-0.00063907761572976,0.00063914707433175,-0.00059926158368358,0.00059933354410531,-0.00059926195655614,0.00059933300552536,-0.00089621298571237,0.00089623991268162,-0.00089623514867295,0.00089621777730567,-0.00089621253355608,0.00089624037957226,-0.00089623467240866,0.00089621822763191,-0.00089491023371616,0.00089489476990751,-0.00089491162914886,0.00089489344412708,-0.00089488939652421,0.00089491559989614,-0.00089488807788126,0.00089491698276345,-0.00063914149647692,0.00063908330971498,0.70228482628359,128566,2924,0.0036766008071097,0.0045273561310632,0.0031305720610762,24.733339714723,-4.2133282282216e-05,-4.2133282282216e-05,-4.2133282282216e-05,3264349.218107,0.011399756024651
29591759,0.68818366395333,0.011777133960577,0.0038936834621672,0.0044020234029483,0.0034814270954613,-0.00089506422955074,0.00089506719435957,2.1762959416234e-09,7.7558192123998e-10,1.259370396893e-09,1.8147749200484e-09,-0.00045417133026217,0.00045417360334464,-0.00083553935185527,0.00083554344698118,-0.0008355399133479,0.00083554307849137,-0.00045417044350817,0.00045417425508232,-0.00045417193239586,0.00045417296892251,-0.00083554000492688,0.00083554297836015,-0.00083554051306461,0.00083554255012491,-0.0010319474735858,0.0010319507017548,-0.0010319479116,0.0010319502043248,-0.0010319473222879,0.001031950865087,-0.0010319477486301,0.0010319503596143,-0.00091217336660751,0.00091217785823205,-0.00091217455898226,0.0009121763028224,-0.0009121734842005,0.00091217759593276,-0.00091217482866802,0.00091217619394843,-0.00045416976946865,0.00045417473436042,7.6416399419687e-10,1.1301851800891e-10,-3.285314306756e-08,3.3671733910113e-08,-0.0011039748746507,0.0011039757056386,-0.0011024180846768,0.0011024843724571,-0.0011105375058544,0.0011105170220949,-0.0011105380450481,0.0011105162381867,-0.0010660546319526,0.0010660338313203,-0.001066032982693,0.0010660558404167,-0.0010660548247033,0.0010660335831312,-0.0010660331712098,0.001066055600948,-0.0011024841425036,0.0011024194761715,-0.0011024182246332,0.0011024841522252,-0.0011105153420597,0.0011105389051552,-0.0011105158750981,0.0011105381396369,-0.0011024839954014,0.0011024197149775,1.9154324177314e-09,3.3186769329643e-09,-0.00076116615966706,0.00076117142395727,3.6146302328407e-08,-3.0571432758285e-08,-0.00064582607611793,0.00064576464798095,-0.00060505024798651,0.0006049908862303,-0.00060505073777091,0.00060499043801017,-0.00064575927217359,0.00064583149616834,-0.00064576053218321,0.00064583002108583,-0.00060498461346189,0.00060505663577435,-0.00060498499165457,0.00060505608982921,-0.00090781248489921,0.00090783928106955,-0.00090783474570909,0.00090781704842816,-0.00090781202728913,0.00090783975478797,-0.00090783426367474,0.00090781750472643,-0.00090608689835432,0.00090607111928849,-0.00090608831478529,0.00090606977925092,-0.00090606597499355,0.00090609203554077,-0.00090606464016345,0.00090609343767806,-0.00064582467681969,0.00064576599343518,0.67337837665204,128566,2924,0.0037237806604198,0.0045890114678244,0.0031670809608128,25.052069089708,-3.9583447282339e-05,-3.9583447282339e-05,-3.9583447282339e-05,3281604.0437248,0.011546797293169
29791759,0.69713719058592,0.011918875496062,0.0039409592692073,0.0044583569141561,0.0035195593126989,-0.00090660186302309,0.00090660484636733,2.1949495828999e-09,7.7541694189763e-10,1.2473787162894e-09,1.8458175218064e-09,-0.00045880422152832,0.00045880653665102,-0.00084596380915686,0.00084596797203104,-0.00084596437773015,0.00084596759746977,-0.00045880336086017,0.00045880716596553,-0.00045880486777523,0.00045880586266675,-0.00084596450905,0.00084596746583487,-0.00084596501603251,0.00084596702446917,-0.0010457762290961,0.0010457794673148,-0.0010457766731234,0.0010457789635083,-0.0010457760640065,0.0010457796448212,-0.0010457764963287,0.0010457791326122,-0.00092357812110688,0.00092358266773645,-0.00092357934279501,0.00092358110319124,-0.00092357826195792,0.00092358239447966,-0.00092357962431182,0.00092358097477032,-0.0004588026453494,0.00045880769068485,8.021690636975e-10,1.0663751570886e-10,-3.2669717450734e-08,3.3519007070872e-08,-0.0011189838438758,0.0011189847053282,-0.0011170645927928,0.0011171305965125,-0.0011255895664869,0.0011255692706284,-0.0011255901474366,0.0011255684433603,-0.001080657403896,0.0010806367591373,-0.0010806358654498,0.0010806586564802,-0.0010806576107958,0.0010806364962997,-0.0010806360682584,0.0010806584022074,-0.0011171303387636,0.0011170660183523,-0.0011170647474494,0.0011171303614641,-0.0011255675193685,0.0011255910418377,-0.0011255680944603,0.0011255902326159,-0.0011171301773116,0.0011170662714372,1.9235108264566e-09,3.344966686402e-09,-0.00077021932959426,0.0007702246299587,3.6001341280226e-08,-3.0386937773064e-08,-0.00065337775052532,0.00065331667661631,-0.00061159771955387,0.00061153872587094,-0.00061159821554657,0.00061153827234844,-0.00065331126221674,0.00065338320951384,-0.00065331254012522,0.00065338171478244,-0.00061153240664296,0.00061160415607939,-0.00061153279018912,0.00061160360285596,-0.0009193497190101,0.00091937644628714,-0.00091937187675672,0.00091935431674675,-0.00091934925576419,0.00091937692681407,-0.00091937138917584,0.00091935477928999,-0.00091772063076784,0.00091770500094184,-0.00091772206832567,0.00091770364620194,-0.00091769982693942,0.00091772579755801,-0.00091769847570379,0.00091772721895895,-0.00065337633349179,0.00065331803827765,0.70917941897315,128566,2924,0.0037717160394184,0.0046512444384051,0.0032047051840287,25.304700090986,-3.756239927211e-05,-3.756239927211e-05,-3.756239927211e-05,3290072.1108806,0.011696333426298
29991759,0.7060359902844,0.012067245518534,0.0039902183135724,0.0045173738891564,0.0035596533158057,-0.00091839373553031,0.00091839675234537,2.2209439222024e-09,7.8257587640298e-10,1.2426668237051e-09,1.8853061189275e-09,-0.00046370940024739,0.0004637117748164,-0.00085712823664684,0.00085713248374817,-0.00085712880914714,0.00085713210018501,-0.00046370856405442,0.00046371237546642,-0.00046371009273995,0.00046371105871823,-0.00085712897789792,0.00085713193251595,-0.00085712949307528,0.00085713148722634,-0.0010597830041158,0.0010597862669678,-0.0010597834563087,0.0010597857588435,-0.0010597828260214,0.0010597864602283,-0.0010597832642073,0.0010597859411722,-0.00093545966294511,0.00093546427747909,-0.00093546090985923,0.00093546270030856,-0.0009354598212158,0.00093546398935328,-0.00093546120619074,0.00093546255603898,-0.00046370780444739,0.00046371294774956,8.3566244949756e-10,9.4457252748708e-11,-3.2487683478805e-08,3.3357822855939e-08,-0.00113444384064,0.0011344447226401,-0.0011324402555362,0.0011325059595875,-0.0011411468650924,0.0011411267469605,-0.0011411474886983,0.0011411258745203,-0.0010955074159776,0.001095486921228,-0.0010954859893201,0.0010955087016016,-0.0010955076380253,0.0010954866428957,-0.0010954862073387,0.0010955084316519,-0.0011325056935136,0.0011324417148083,-0.0011324404249506,0.001132505709549,-0.0011411249294856,0.0011411484038397,-0.001141125547363,0.0011411475491773,-0.0011325055176532,0.0011324419823954,2.0133890822553e-09,3.4530471042849e-09,-0.00077949712173967,0.0007795026238097,3.5942003741253e-08,-3.0113766252298e-08,-0.00066154772147027,0.00066148717052873,-0.00061863040079648,0.00061857195332928,-0.00061863090335121,0.00061857149474597,-0.00066148155292441,0.0006615533835097,-0.00066148284838719,0.00066155186855383,-0.0006185654158582,0.00061863705867909,-0.00061856580426757,0.00061863649792481,-0.00093099558798861,0.00093102239625255,-0.00093101763403984,0.00093100037755105,-0.00093099511841631,0.00093102288295069,-0.00093101714091676,0.00093100084633454,-0.00092996291807736,0.00092994762793844,-0.00092996436938791,0.00092994625264559,-0.00092994225321197,0.00092996828496514,-0.0009299408829684,0.00092996972432245,-0.00066154628669509,0.00066148854764235,0.74657308098657,128566,2924,0.003820709137263,0.00471534166691,0.0032432619350136,25.555608598055,-3.5555131215558e-05,-3.5555131215558e-05,-3.5555131215558e-05,3290216.8811759,0.011849790666837
30191759,0.71487254561421,0.012205287774662,0.0040362114150729,0.0045723002866831,0.0035967760729061,-0.00092954944389927,0.00092955247999725,2.2399479284666e-09,7.8278617346384e-10,1.2266091095219e-09,1.9213806225232e-09,-0.00046731252359777,0.00046731495062079,-0.0008670940344037,0.00086709835910328,-0.00086709461470308,0.00086709797049096,-0.00046731171966602,0.00046731551647592,-0.00046731326764804,0.00046731418371309,-0.00086709483002353,0.00086709776001923,-0.00086709534707117,0.00086709730438051,-0.0010733605426919,0.0010733638135437,-0.0010733610014572,0.0010733632995485,-0.0010733603481742,0.0010733640242115,-0.0010733607924526,0.001073363498622,-0.00094657337986468,0.00094657805057771,-0.00094657464754276,0.00094657645670863,-0.00094657355784291,0.0009465777452204,-0.0009465749613692,0.00094657629419954,-0.00046731090836298,0.00046731614208133,8.755607315736e-10,8.1090692264426e-11,-3.2324674616203e-08,3.3220279276624e-08,-0.0011493205770463,0.0011493214848763,-0.0011471569326789,0.0011472223804677,-0.0011561017955996,0.0011560818572651,-0.0011561024698476,0.001156080932045,-0.0011098289610488,0.0011098086089266,-0.0011098076321075,0.0011098302884044,-0.001109829200271,0.0011098083128368,-0.0011098078674077,0.0011098300006078,-0.0011472220922416,0.0011471584210304,-0.0011471571194801,0.00114722211254,-0.0011560799614667,0.001156103412177,-0.0011560806302786,0.0011561025044429,-0.0011472218992258,0.0011471587061361,2.0399551635685e-09,3.497868756551e-09,-0.00078813429571531,0.00078813987145701,3.5834586289074e-08,-2.9927661215966e-08,-0.00066833299111278,0.00066827278797852,-0.00062450598461847,0.00062444791101253,-0.00062450649323774,0.0006244474468338,-0.00066826709730012,0.00066833872415456,-0.00066826841026675,0.00066833719025073,-0.0006244412884124,0.00062451272820398,-0.00062444168211772,0.00062451216026398,-0.00094229490498944,0.0009423216820199,-0.00094231685347811,0.00094229976034342,-0.00094229442922842,0.00094232217498851,-0.00094231635467553,0.00094230023532026,-0.00094131044369706,0.00094129533935046,-0.00094131191324817,0.00094129394690948,-0.00094128989335002,0.0009413158814223,-0.00094128850569268,0.00094131733951874,-0.00066833153801255,0.00066827418169872,0.70019171819686,128566,2924,0.003867062640517,0.0047770162585041,0.0032791570165451,25.806446466249,-3.3548428270005e-05,-3.3548428270005e-05,-3.3548428270005e-05,3295988.7107177,0.011995459860389
30391759,0.72364866862675,0.012337408428017,0.004080342807865,0.0046248228985018,0.0036322427216501,-0.0009404256699737,0.00094042872456327,2.2584853785132e-09,7.8285841643334e-10,1.1901510494671e-09,1.9769181043913e-09,-0.00047094117926205,0.00047094369798988,-0.00087652601992677,0.00087653046001134,-0.00087652660833056,0.00087653006747462,-0.000470940448997,0.0004709441929347,-0.00047094201593965,0.00047094284090653,-0.00087652691025569,0.0008765297761901,-0.00087652742611706,0.00087652930655517,-0.0010866566368314,0.0010866599015029,-0.0010866571009903,0.0010866593803984,-0.0010866564121221,0.0010866601423453,-0.0010866568619033,0.0010866596100831,-0.00095726468414681,0.00095726942487792,-0.00095726598019585,0.00095726782288323,-0.00095726490440911,0.00095726909585282,-0.00095726631921853,0.00095726762013857,-0.00047093955032991,0.00047094491078688,9.3527828206696e-10,4.7127595401957e-11,-3.2208006134109e-08,3.3128342193122e-08,-0.0011636641993912,0.0011636651323274,-0.0011610638555174,0.001161129153066,-0.0011705326208673,0.0011705128713525,-0.001170533385701,0.0011705118538654,-0.0011238315551955,0.001123811327584,-0.0011238102951621,0.0011238329388939,-0.0011238318245942,0.0011238110003033,-0.0011238105604579,0.0011238326200532,-0.0011611288387834,0.0011610653655348,-0.0011610640729358,0.0011611288543423,-0.0011705108609251,0.0011705343559463,-0.0011705116197297,0.0011705333560481,-0.0011611286144799,0.0011610656818228,2.0246970100292e-09,3.5011938158661e-09,-0.00079661395509346,0.00079661951986356,3.5725691857812e-08,-2.9830334502127e-08,-0.00067495425084286,0.00067489422331351,-0.00063028002165117,0.0006302221457131,-0.00063028053684088,0.00063022167544037,-0.00067488854473364,0.00067495996844557,-0.00067488987509199,0.00067495841704888,-0.00063021552597741,0.00063028676136618,-0.00063021592500498,0.00063028618676068,-0.00095335734442445,0.00095338403756001,-0.00095337922597199,0.000953362183182,-0.00095335686264734,0.00095338453683619,-0.00095337872065517,0.0009533626641776,-0.00095213527664853,0.00095212026050853,-0.00095213676144492,0.0009521188474861,-0.00095211482269538,0.00095214070654225,-0.0009521134157729,0.00095214218199307,-0.0006749527787326,0.00067489563454604,0.67548311731326,128566,2924,0.0039122496871622,0.0048364773193659,0.0033143961156764,26.074797386438,-3.1401620908498e-05,-3.1401620908498e-05,-3.1401620908498e-05,3308137.2469595,0.012137065076188
30591759,0.73242317038177,0.012474032491367,0.004125849583155,0.0046791143535928,0.0036690685546188,-0.00095175763216414,0.00095176073727373,2.2938492606414e-09,7.976038906604e-10,1.1182313482411e-09,2.1019393389019e-09,-0.00047533559309373,0.00047533833903162,-0.00088672792360556,0.00088673261459666,-0.00088672851592136,0.00088673221628438,-0.000475335033533,0.00047533865752878,-0.00047533662778605,0.00047533728115964,-0.00088672900816458,0.00088673174130398,-0.00088672952649052,0.0008867312577702,-0.0011003116514075,0.0011003149085014,-0.0011003121218915,0.0011003143791858,-0.0011003113626981,0.0011003152132642,-0.0011003118180051,0.0011003146742216,-0.00096856019236991,0.00096856507074839,-0.00096856151780388,0.0009685634577764,-0.00096856048742197,0.00096856468236972,-0.00096856191763836,0.00096856317836877,-0.00047533394583251,0.00047533957018136,1.0367435271969e-09,-5.2028274807212e-11,-3.2315629988392e-08,3.3237103655769e-08,-0.0011784370807501,0.001178438016438,-0.0011753623922546,0.0011754279641541,-0.0011854556207735,0.001185436002359,-0.0011854565813,0.0011854347846047,-0.0011382531168741,0.0011382328894704,-0.0011382317875415,0.0011382545712745,-0.0011382534526331,0.001138232495037,-0.001138232119046,0.0011382541877209,-0.0011754276510812,0.0011753639004945,-0.0011753626744368,0.0011754275993354,-0.0011854337943453,0.001185457557597,-0.0011854347446114,0.0011854563591843,-0.0011754273589931,0.0011753642853122,2.0107848585447e-09,3.5037470827295e-09,-0.00080561405654978,0.00080561961044922,3.5820762354609e-08,-2.9935921605287e-08,-0.00068261627901814,0.00068255603222102,-0.00063697404980513,0.00063691597618275,-0.00063697457105274,0.00063691549790575,-0.00068255036240412,0.00068262197849759,-0.00068255170375852,0.00068262041800911,-0.00063690935552327,0.00063698078558493,-0.00063690975667818,0.0006369802032485,-0.00096474980356804,0.00096477655034586,-0.00096477175720218,0.00096475462522798,-0.00096474931835263,0.00096477705604552,-0.00096477124493795,0.0009647551123827,-0.00096353237759726,0.00096351729600258,-0.0009635338796753,0.00096351586763674,-0.00096351186865964,0.00096353779679066,-0.00096351044863133,0.00096353928752857,-0.00068261478745279,0.0006825574610752,0.69870694874289,128566,2924,0.0039593252497503,0.0048977134977991,0.0033517955175135,26.468253026109,-2.8253975791128e-05,-2.8253975791128e-05,-2.8253975791128e-05,3316428.3456852,0.012284583036131
30791759,0.74118691881097,0.012615163918673,0.0041727070218982,0.0047352300696226,0.0037072268271519,-0.00096326968518337,0.00096327284101423,2.3278367464206e-09,8.1385551478738e-10,1.0743608328376e-09,2.1990474145227e-09,-0.0004798244163511,0.00047982733594716,-0.00089744224677327,0.00089744713684688,-0.00089744284768712,0.00089744673206624,-0.00047982398309838,0.00047982753129352,-0.00047982559169822,0.00047982614513143,-0.00089744347052345,0.0008974461230097,-0.00089744399333287,0.00089744563445399,-0.0011141086532404,0.0011141119193197,-0.00111410912995,0.0011141113850991,-0.0011141083194729,0.0011141122722277,-0.0011141087814072,0.0011141117267711,-0.00098022926603311,0.00098023426214526,-0.000980230622127,0.00098023264347643,-0.00098022962386694,0.00098023383533288,-0.00098023106105449,0.00098023230864073,-0.00047982275424173,0.000479828591781,1.1091233130441e-09,-1.2055239073663e-10,-3.244503867381e-08,3.3372130959719e-08,-0.0011935385365568,0.0011935394767159,-0.001190170795641,0.0011902366793959,-0.0012007313933966,0.0012007118282557,-0.0012007324884095,0.0012007104705016,-0.0011528769656097,0.0011528567022838,-0.0011528555517815,0.0011528784723467,-0.0011528773459475,0.0011528562604858,-0.0011528559279541,0.0011528780392569,-0.0011902363623427,0.0011901723161526,-0.0011901711255,0.0011902362662563,-0.0012007094783215,0.0012007334702611,-0.0012007105665594,0.0012007321304308,-0.0011902360252371,0.0011901727468731,2.029522894141e-09,3.5418836443124e-09,-0.00081477392274522,0.00081477953450128,3.5992487908972e-08,-3.0045434909766e-08,-0.00069069662937845,0.00069063615916938,-0.00064397801657389,0.00064391973481161,-0.00064397854386387,0.00064391925249243,-0.00069063042946388,0.00069070239692107,-0.00069063179344607,0.00069070080874972,-0.00064391304795836,0.00064398482494025,-0.00064391345617528,0.00064398423573224,-0.00097627704768929,0.00097630394106153,-0.0009762990990957,0.0009762819200184,-0.00097627655550747,0.00097630445359514,-0.00097629858031449,0.00097628241190087,-0.00097532726040361,0.00097531215068699,-0.0009753287824151,0.00097531070428924,-0.00097530666853434,0.00097533273122509,-0.00097530523033597,0.0009753342451885,-0.000690695123304,0.00069063760476478,0.72242073591042,128566,2924,0.0040071498473409,0.0049603060976311,0.003389858027016,26.864979015962,-2.5080167872306e-05,-2.5080167872306e-05,-2.5080167872306e-05,3318633.0217339,0.012434925048605
30991759,0.74992884230348,0.0127608155898,0.0042209059056612,0.0047932192140666,0.0037466904700721,-0.0009749676677722,0.00097497086248919,2.3563587295495e-09,8.2380354683771e-10,1.074906456228e-09,2.2393338815929e-09,-0.00048440765764689,0.00048441063761545,-0.00090867615091759,0.00090868112719682,-0.00090867675691455,0.00090868071426645,-0.00048440724615729,0.0004844108102929,-0.00048440887496065,0.0004844094106131,-0.0009086774117808,0.00090868007231621,-0.00090867794315943,0.00090867958072417,-0.0011280326920832,0.0011280359893924,-0.0011280331756331,0.0011280354498311,-0.0011280323459396,0.0011280363559087,-0.001128032814483,0.0011280358043562,-0.00099229930095475,0.00099230436892255,-0.00099230068218382,0.00099230273763489,-0.00099229968130862,0.00099230393322064,-0.00099230113035428,0.00099230238327758,-0.00048440597830343,0.00048441191474488,1.1350613160677e-09,-1.3518951117088e-10,-3.2661479074822e-08,3.3600234766539e-08,-0.001208958066522,0.0012089590178309,-0.0012054881462278,0.0012055544898179,-0.0012163151602134,0.0012162954965782,-0.0012163162919467,0.0012162940973729,-0.0011677045504919,0.0011676841667878,-0.0011676829926724,0.0011677060828773,-0.0011677049445281,0.0011676837109502,-0.001167683382709,0.0011677056353955,-0.0012055541675864,0.0012054896868929,-0.001205488489639,0.0012055540623117,-0.0012162930943643,0.0012163172856592,-0.001216294220117,0.0012163159036817,-0.0012055538176621,0.0012054901312608,2.0713144716168e-09,3.6021899041409e-09,-0.00082408245742228,0.00082408817315802,3.6274817327093e-08,-3.0217164976781e-08,-0.00069915652701527,0.00069909570558609,-0.00065126958496109,0.00065121097548787,-0.00065127011821806,0.00065121048770334,-0.00069908987311135,0.00069916240088187,-0.00069909125547273,0.00069916079178639,-0.00065120417268522,0.0006512765136175,-0.00065120458614577,0.00065127591677874,-0.00098794187292453,0.00098796901417524,-0.00098796407793819,0.00098794684021612,-0.00098794137477177,0.00098796953335718,-0.00098796355294474,0.00098794733791659,-0.00098750930170675,0.00098749415466243,-0.00098751084211228,0.00098749269098011,-0.00098748856735502,0.00098751487400652,-0.00098748711383729,0.00098751640911202,-0.0006991550042042,0.00069909716881307,0.7469882542683,128566,2924,0.0040557482163139,0.0050242109603812,0.0034285374315744,27.261839350115,-2.1905285199077e-05,-2.1905285199077e-05,-2.1905285199077e-05,3316639.6764697,0.012588026005065
31191759,0.75870537829425,0.012913791902883,0.0042713245467812,0.0048542494173867,0.0037882179387147,-0.00098727179138054,0.00098727503457895,2.3729549364291e-09,8.5518721723519e-10,1.0806741258531e-09,2.2846426757345e-09,-0.00048936609447227,0.00048936922235226,-0.00092089415871041,0.00092089920382585,-0.00092089474245943,0.00092089880975909,-0.00048936572944607,0.00048936934388275,-0.00048936740155431,0.00048936790407712,-0.00092089543803547,0.00092089812429243,-0.00092089598731846,0.00092089762364424,-0.0011425110653936,0.0011425143977106,-0.0011425115503255,0.0011425138586968,-0.0011425107127752,0.0011425147717627,-0.001142511170539,0.0011425142316164,-0.0010052366593908,0.0010052417583966,-0.0010052380193018,0.0010052401684976,-0.0010052370462429,0.0010052413329661,-0.0010052384912826,0.0010052397749125,-0.00048936447315272,0.00048937044363404,1.1683347590574e-09,-1.7000973561339e-10,-3.3214185550548e-08,3.4150668704395e-08,-0.0012252032351071,0.0012252041852085,-0.0012218350394749,0.0012219024662794,-0.0012327241352231,0.0012327041861704,-0.0012327253499049,0.0012327027023611,-0.0011831887189882,0.001183168002854,-0.0011831668105167,0.0011831902785383,-0.001183189142036,0.0011831675180454,-0.0011831672173854,0.0011831898128293,-0.0012219021713341,0.0012218365659404,-0.0012218353861194,0.0012219020302141,-0.0012327017176349,0.0012327263261112,-0.0012327028885555,0.0012327248892781,-0.0012219017790266,0.0012218370482677,2.0816086437644e-09,3.6642937963251e-09,-0.00083392609664167,0.00083393188677872,3.6842643270655e-08,-3.0705223518654e-08,-0.00070835912631941,0.00070829725697025,-0.00065926633942183,0.00065920680778684,-0.00065926690467027,0.00065920628729972,-0.00070829139860421,0.00070836502328637,-0.00070829277336607,0.00070836341822765,-0.00065919990558028,0.00065927336431353,-0.00065920031580171,0.00065927276701235,-0.0010001426318735,0.0010001701857238,-0.0010001651963211,0.0010001476527265,-0.0010001421219165,0.0010001707170439,-0.0010001646474875,0.0010001481734862,-0.001000570346285,0.0010005549806002,-0.0010005719554825,0.001000553449414,-0.0010005493033732,0.0010005760070498,-0.0010005478182936,0.0010005775779756,-0.00070835751375658,0.00070829881452293,0.78082574904307,128566,2924,0.0041068654676538,0.0050915314758157,0.0034694381580102,27.788014700818,-1.7695882393459e-05,-1.7695882393459e-05,-1.7695882393459e-05,3310870.3063095,0.01274940936115
31391759,0.76752360215718,0.013061732998985,0.0043201675181046,0.004913341688811,0.0038282237920692,-0.00099935879120267,0.00099936206605293,2.4196501593191e-09,8.3986442901232e-10,1.0907147055615e-09,2.3077066240291e-09,-0.00049333958657197,0.0004933426442974,-0.00093242122184573,0.0009324263530733,-0.0009324218473307,0.00093242592001028,-0.00049333918271475,0.00049334281057458,-0.00049334084900731,0.00049334137337088,-0.00093242253584923,0.00093242524169677,-0.00093242308312665,0.00093242474080416,-0.0011569814341376,0.0011569848062901,-0.0011569819312271,0.0011569842535209,-0.001156981070071,0.0011569851916774,-0.0011569815550917,0.0011569846238042,-0.0010179004491096,0.0010179056693629,-0.0010179018989728,0.0010179040021579,-0.0010179008741648,0.0010179052228586,-0.0010179023480347,0.0010179036182038,-0.00049333785443495,0.00049334398475191,1.1685963415957e-09,-1.5336098910352e-10,-3.3820996451774e-08,3.4774431225055e-08,-0.0012414186566455,0.0012414196231788,-0.0012381287364483,0.0012381974043333,-0.0012491424474015,0.0012491220690878,-0.0012491436191432,0.0012491206206054,-0.0011985985060875,0.0011985773915326,-0.0011985761933936,0.0011986000830241,-0.0011985989177909,0.0011985769180838,-0.0011985766037789,0.0011985996153501,-0.0012381970693195,0.0012381302986475,-0.0012381290997467,0.001238196954474,-0.0012491195987653,0.0012491446361046,-0.0012491207764709,0.0012491431944384,-0.0012381967057997,0.0012381307578864,2.0570346026759e-09,3.6149786868825e-09,-0.00084348228026135,0.0008434879965463,3.745160806641e-08,-3.1391195202404e-08,-0.00071662410690252,0.00071656096927813,-0.00066653814548985,0.00066647723884632,-0.00066653868336317,0.00066647674728103,-0.00071655512703767,0.00071662998891898,-0.00071655654614341,0.00071662833906669,-0.00066647041877351,0.00066654509236133,-0.00066647084143625,0.00066654448049886,-0.0010123447522811,0.0010123726650656,-0.0010123677419383,0.0010123497073613,-0.0010123442432044,0.0010123731961615,-0.0010123672081923,0.0010123502128907,-0.0010132965250511,0.0010132806030188,-0.0010132980896327,0.0010132791182862,-0.0010132750192344,0.0010133020903247,-0.0010132735399062,0.0010133036593648,-0.00071662256910629,0.00071656244857026,0.75165982244796,128566,2924,0.0041570843919319,0.0051587235288294,0.0035091446963572,28.355439835342,-1.3156481317267e-05,-1.3156481317267e-05,-1.3156481317267e-05,3307388.1636852,0.012908573848786
31591759,0.77636803134208,0.013203803818377,0.004367226538089,0.0049700518876926,0.0038665253925954,-0.0010112017052957,0.0010112049901284,2.4242351295603e-09,8.4524056368686e-10,1.1120258686672e-09,2.2964873407116e-09,-0.00049714190284476,0.00049714496312165,-0.00094331863747425,0.00094332373829708,-0.0009433192566747,0.00094332331569916,-0.00049714147118989,0.00049714516490455,-0.00049714315732444,0.00049714369988883,-0.00094331991443001,0.00094332267099993,-0.00094332046422406,0.00094332215675384,-0.0011712696273839,0.0011712730233843,-0.0011712701262187,0.0011712724659675,-0.0011712692767168,0.0011712733939027,-0.0011712697586063,0.0011712728289537,-0.001030128549653,0.001030133759285,-0.0010301299906818,0.0010301321040981,-0.001030128961605,0.0010301333378037,-0.0010301304358019,0.0010301317166576,-0.00049714019987228,0.00049714628283973,1.1711984373976e-09,-1.2956755044733e-10,-3.4400988126721e-08,3.5380068857182e-08,-0.0012571908074089,0.0012571917998579,-0.0012537569717809,0.001253826812032,-0.0012651155954875,0.0012650948403787,-0.0012651167560255,0.0012650934024764,-0.0012137618691252,0.001213740387462,-0.0012137391776219,0.0012137634729333,-0.0012137622776523,0.00121373991802,-0.0012137395782376,0.0012137630153291,-0.0012538264505499,0.001253758542457,-0.0012537573201978,0.0012538263772642,-0.0012650923683537,0.0012651177912583,-0.0012650935137641,0.0012651163806392,-0.0012538260852757,0.0012537590031987,1.958599213608e-09,3.5543214784333e-09,-0.00085284061982022,0.00085284617611036,3.7951251251121e-08,-3.2059074894011e-08,-0.00072448423186866,0.00072441972831719,-0.00067345340345625,0.00067339120608408,-0.00067345396288758,0.00067339069245044,-0.00072441407237468,0.00072448992635305,-0.00072441550292878,0.00072448826563222,-0.00067338453639776,0.00067346019940743,-0.00067338496262579,0.00067345958325167,-0.0010243896229779,0.001024417758084,-0.0010244130055734,0.0010243944078726,-0.0010243891046085,0.0010244182984052,-0.0010244124561161,0.0010243949285876,-0.001025513646607,0.0010254972219086,-0.0010255152573921,0.0010254956917833,-0.001025491786959,0.0010255190620187,-0.0010254902786611,0.0010255206604193,-0.00072448263607212,0.00072442126666288,0.71981430833002,128566,2924,0.0042062850211303,0.0052240742326969,0.003548028403821,28.92399348685,-8.6080521051977e-06,-8.6080521051977e-06,-8.6080521051977e-06,3311037.4459317,0.013064034325791
31791759,0.78510282473742,0.013336627630675,0.0044114144982947,0.0050229909316257,0.0039022222007544,-0.0010221290918633,0.0010221323324209,2.4083680310834e-09,8.1736255662025e-10,1.19226691627e-09,2.1689271476762e-09,-0.00050027895723605,0.00050028177106698,-0.00095288411407685,0.00095288896038717,-0.00095288473520958,0.00095288854593016,-0.00050027831095615,0.00050028219901809,-0.00050028002557091,0.00050028069748905,-0.00095288518819682,0.00095288811466227,-0.00095288573939944,0.00095288758141395,-0.0011846634072748,0.0011846668341132,-0.0011846639111917,0.0011846662697597,-0.0011846631255484,0.0011846671324823,-0.0011846636098593,0.0011846665664357,-0.0010412160624605,0.0010412211684319,-0.0010412175221073,0.0010412195185525,-0.0010412164170286,0.001041220833217,-0.0010412178979494,0.0010412191834704,-0.00050027725339656,0.00050028307904936,1.1081355974534e-09,-1.4082240385458e-13,-3.447778160185e-08,3.5523908703856e-08,-0.0012717247011278,0.0012717257570172,-0.0012678570965228,0.0012679271522888,-0.0012798384249042,0.0012798174807215,-0.0012798394034792,0.0012798162284433,-0.0012279315909505,0.0012279100359651,-0.0012279088326411,0.001227933195142,-0.0012279319400344,0.0012279096292784,-0.0012279091687839,0.0012279328035281,-0.0012679267205378,0.0012678587258103,-0.0012678573767995,0.0012679267897988,-0.0012798151357374,0.0012798404952244,-0.0012798160876051,0.0012798392830779,-0.0012679264107524,0.0012678591274061,1.9034810222929e-09,3.5242871893205e-09,-0.00086139760526821,0.00086140307675645,3.7993307482214e-08,-3.2190151438848e-08,-0.00073135188915251,0.00073128708696591,-0.00067943277514696,0.00067937033440584,-0.00067943334937999,0.00067936980637641,-0.00073128154778567,0.00073135748188349,-0.00073128298070355,0.00073135581738274,-0.00067936375078301,0.00067943950082291,-0.00067936417847186,0.0006794388827088,-0.0010356072839023,0.0010356353889272,-0.0010356307284567,0.0010356119775956,-0.0010356067588855,0.0010356359352585,-0.0010356301679592,0.0010356125085124,-0.0010364726561351,0.001036456115479,-0.0010364743004929,0.0010364545577235,-0.0010364507590948,0.0010364779935133,-0.0010364492320421,0.001036479608731,-0.00073135024764839,0.00073128866810763,0.68196835276737,128566,2924,0.0042516785881177,0.0052842904118846,0.0035835833029102,29.261777146162,-5.9057828307015e-06,-5.9057828307015e-06,-5.9057828307015e-06,3320901.2180006,0.013207086969488
31991759,0.79355810151307,0.013478095143301,0.0044581485679235,0.0050793837686345,0.0039405628067431,-0.0010328566070952,0.0010328597983084,2.3971731457706e-09,7.798990012238e-10,1.3195307670349e-09,1.9890713816758e-09,-0.00050439605482148,0.00050439846906313,-0.00096313737885029,0.00096314188569915,-0.00096313801474121,0.00096314145513615,-0.00050439507845416,0.00050439922148863,-0.00050439680298318,0.00050439772243566,-0.00096313815504879,0.00096314133573983,-0.0009631387154932,0.00096314080669084,-0.0011974314718565,0.0011974349567642,-0.0011974319840083,0.001197434388319,-0.0011974312876458,0.0011974351557096,-0.0011974317830565,0.0011974345791424,-0.0010524160011351,0.0010524209931389,-0.0010524175045052,0.0010524193203534,-0.0010524162714968,0.0010524207567941,-0.001052417768812,0.001052419088674,-0.00050439430716069,0.0005043998226241,9.8563963085644e-10,1.9790701213545e-10,-3.4110004591244e-08,3.5226796592192e-08,-0.0012858127182372,0.0012858138463672,-0.0012816107476518,0.0012816801202635,-0.0012941462074299,0.0012941252296086,-0.0012941468640172,0.0012941243060363,-0.001241640419312,0.0012416190488395,-0.001241617872426,0.001241641986049,-0.0012416406637776,0.0012416187508321,-0.0012416181090008,0.0012416416992418,-0.0012816796343667,0.0012816124746165,-0.0012816109288356,0.0012816798582144,-0.001294123122283,0.0012941480295132,-0.0012941237684874,0.0012941471302401,-0.0012816794367797,0.0012816127631827,2.0386822437382e-09,3.6704069287275e-09,-0.00086986922060975,0.00086987497722312,3.7843778379949e-08,-3.1737787020148e-08,-0.00073931362946033,0.00073924972929549,-0.00068621510464994,0.00068615355653678,-0.00068621567650032,0.00068615303266398,-0.00073924387298218,0.00073931952860061,-0.0007392453401088,0.00073931783098624,-0.00068614666620643,0.00068622213350917,-0.00068614710453025,0.00068622150513894,-0.0010462300019014,0.0010462581834664,-0.0010462532496583,0.001046234971338,-0.0010462294710279,0.0010462587362767,-0.0010462526864453,0.0010462355029086,-0.0010475341598705,0.0010475181126148,-0.0010475358072811,0.0010475165493968,-0.0010475124802835,0.0010475397724018,-0.0010475109361728,0.001047541405275,-0.00073931199304815,0.0007392513006137,0.74979062885697,128566,2924,0.0042962358803795,0.005342653346871,0.0036187825716088,29.279594774119,-5.7632418070458e-06,-5.7632418070458e-06,-5.7632418070458e-06,3321198.7395977,0.013347065100076
32191759,0.80173434559129,0.013617577241463,0.0045041232483912,0.0051350591795286,0.0039783948135432,-0.0010432375060903,0.0010432406922788,2.4054618161015e-09,7.6673613236982e-10,1.3718174735061e-09,1.931281606555e-09,-0.00050761392229182,0.00050761619714869,-0.00097315397493889,0.00097315837661153,-0.0009731546185789,0.00097315793592939,-0.00050761281210856,0.00050761707401435,-0.00050761456000804,0.00050761556549707,-0.00097315464227886,0.00097315793210147,-0.00097315521391331,0.00097315740337856,-0.0012098978214061,0.0012099013441563,-0.0012098983424178,0.0012099007713795,-0.001209897672796,0.0012099015073858,-0.0012098981763791,0.0012099009238258,-0.0010634882252874,0.0010634931993671,-0.0010634897579785,0.0010634915105063,-0.001063488468015,0.0010634930020189,-0.0010634899820191,0.0010634913119023,-0.00050761214712948,0.00050761757447381,9.5027781101811e-10,2.7373884252509e-10,-3.3977293957934e-08,3.5131625348784e-08,-0.0012998429255606,0.0012998440924478,-0.0012955774726226,0.0012956466202702,-0.0013084395784585,0.0013084186010752,-0.00130844012381,0.0013084177897685,-0.0012550325874442,0.001255011294247,-0.0012550101111102,0.0012550341528768,-0.0012550327962351,0.001255011033547,-0.0012550103129847,0.0012550339026148,-0.0012956461157133,0.0012955792568397,-0.0012955776192012,0.0012956463932473,-0.0013084165582718,0.0013084413246902,-0.0013084170957248,0.0013084405351654,-0.0012956459560348,0.0012955795072088,2.1593926873823e-09,3.8067185549715e-09,-0.00087796303994515,0.00087796905831204,3.7878705808187e-08,-3.1494047313311e-08,-0.00074668394499637,0.00074662052113651,-0.00069250354838583,0.00069244249036845,-0.00069250412404298,0.00069244196296872,-0.00074661439049517,0.00074669011148475,-0.00074661587927776,0.00074668839493926,-0.00069243531478121,0.00069251085876534,-0.00069243575969157,0.00069251022363866,-0.0010566094290436,0.0010566377935714,-0.0010566326111878,0.0010566146484896,-0.0010566088927639,0.0010566383524811,-0.0010566320425604,0.0010566151843448,-0.0010584478218458,0.001058432117384,-0.0010584494819613,0.0010584305396223,-0.0010584262291709,0.0010584536893314,-0.0010584246681168,0.0010584553401558,-0.00074668229872411,0.00074662210079835,0.76436055332509,128566,2924,0.00433936163492,0.0054007712608086,0.003652413371948,29.288946876552,-5.6884249875809e-06,-5.6884249875809e-06,-5.6884249875809e-06,3313449.2254476,0.013483776247031
32391759,0.80963659734129,0.013755435366937,0.0045494747529409,0.0051901484231048,0.0040158121908911,-0.0010534091955083,0.0010534123981773,2.4222008953077e-09,7.6621107585111e-10,1.3948277279704e-09,1.9256643380116e-09,-0.00051070096177961,0.00051070321103058,-0.00098311727311673,0.00098312166881289,-0.00098311792117132,0.00098312122288816,-0.00051069980333225,0.00051070412803243,-0.00051070157773752,0.00051070260759819,-0.00098311790932737,0.00098312125169634,-0.0009831184932704,0.00098312072204379,-0.0012220764846327,0.0012220800390197,-0.0012220770137564,0.0012220794621567,-0.0012220763461702,0.0012220801929922,-0.0012220768555667,0.0012220796043365,-0.001074450997271,0.0010744559935936,-0.0010744525486903,0.001074454291893,-0.0010744512282099,0.0010744558059326,-0.0010744527658966,0.0010744541033311,-0.00051069917021743,0.00051070460108461,9.4945066016936e-10,2.9789830405836e-10,-3.4015791835968e-08,3.5193098078541e-08,-0.001313668176401,0.0013136693656681,-0.001309439756422,0.0013095090175612,-0.0013225312135698,0.0013225101972808,-0.0013225317334754,0.0013225094090902,-0.0012681572684418,0.0012681359561481,-0.0012681347571162,0.0012681588460224,-0.0012681574700686,0.001268135703185,-0.0012681349511303,0.0012681586041283,-0.0013095085057482,0.0013094415766688,-0.0013094398939119,0.0013095087996979,-0.0013225081512655,0.0013225329519837,-0.0013225086610726,0.0013225321876479,-0.0013095083534119,0.0013094418197239,2.2629601913449e-09,3.9300739897719e-09,-0.00088586486576203,0.0008858711149684,3.8058023803221e-08,-3.1428173444922e-08,-0.00075389514834511,0.00075383183859641,-0.00069872536973622,0.00069866445518119,-0.0006987259532113,0.00069866392055692,-0.00075382547778468,0.0007539015455144,-0.00075382698335723,0.00075389981235793,-0.00069865702959127,0.00069873293238091,-0.00069865747932126,0.00069873229099524,-0.0010667654395297,0.0010667940626752,-0.0010667886629188,0.0010667708772778,-0.0010667648973735,0.0010667946281211,-0.0010667880869625,0.0010667714197723,-0.0010692744539722,0.0010692589605331,-0.001069276133111,0.001069257361671,-0.0010692528459539,0.0010692805476246,-0.001069251265939,0.0010692822172922,-0.00075389348050291,0.00075383344007585,0.78118420969491,128566,2924,0.0043816202611933,0.0054580348647489,0.0036852461797322,29.297949680171,-5.6164025586351e-06,-5.6164025586351e-06,-5.6164025586351e-06,3304187.5735483,0.013617951733202
32591759,0.81725420949661,0.013880517238321,0.0045908101621147,0.0052400926692789,0.0040496144069276,-0.0010627204600239,0.0010627236808162,2.444866006507e-09,7.6141079440818e-10,1.3821284539833e-09,1.9575986081474e-09,-0.00051263239746449,0.00051263467337623,-0.00099169584452854,0.00099170031606072,-0.00099169650762858,0.00099169985987554,-0.00051263125620065,0.00051263557012287,-0.00051263304820407,0.0005126340354468,-0.00099169652995636,0.00099169985331229,-0.0009916971186151,0.00099169931744394,-0.0012335079978848,0.0012335115632506,-0.0012335085349169,0.0012335109783989,-0.0012335078435409,0.0012335117331881,-0.0012335083633862,0.0012335111340581,-0.0010843397076822,0.0010843447686944,-0.0010843412957276,0.0010843430423316,-0.0010843399660354,0.0010843445682367,-0.0010843415206436,0.001084342836212,-0.00051263056664068,0.00051263609764273,9.787597855604e-10,2.8695875560699e-10,-3.4226501309997e-08,3.5422675632927e-08,-0.0013265319596345,0.0013265331671558,-0.0013222290684023,0.001322298795472,-0.0013356677096197,0.0013356466016051,-0.0013356682635406,0.0013356457762342,-0.001280393629183,0.0012803722027069,-0.0012803709741551,0.0012803952395058,-0.0012803938427517,0.0012803719373032,-0.0012803711826404,0.0012803949827618,-0.0013222982608917,0.0013222309122932,-0.0013222292232733,0.001322298560523,-0.0013356444963421,0.001335669503216,-0.0013356450479212,0.0013356686946179,-0.0013222980985788,0.0013222311659633,2.2768328077942e-09,3.9535269423885e-09,-0.00089294771127802,0.00089295399904216,3.8308056893682e-08,-3.1637118742125e-08,-0.00075963144208503,0.00075956772716452,-0.00070375259194927,0.00070369126857252,-0.00070375317512859,0.0007036907341283,-0.00075956132137964,0.00075963788881062,-0.00075956284630562,0.00075963613521296,-0.00070368379890612,0.00070376020251028,-0.00070368425500375,0.0007037595539466,-0.0010762699016753,0.0010762987111135,-0.0010762932792042,0.001076275372592,-0.0010762693555321,0.0010762992813156,-0.0010762927010211,0.0010762759167654,-0.0010789881895616,0.0010789725864543,-0.0010789898742478,0.0010789709813974,-0.0010789664374623,0.0010789943158478,-0.00107896484513,0.0010789959993155,-0.00075962977506736,0.00075956932942688,0.73524667765621,128566,2924,0.004420307946138,0.0055113121348096,0.003714677511322,29.270847152653,-5.8332227787787e-06,-5.8332227787787e-06,-5.8332227787787e-06,3298198.6917624,0.013741039379706
32791759,0.82458122119003,0.013992194253569,0.0046279524912108,0.0052845828315866,0.004079658930772,-0.001071241808233,0.0010712450417163,2.4588324899876e-09,7.6019142965893e-10,1.3422935234131e-09,2.0108997274525e-09,-0.00051430466332177,0.00051430703136648,-0.00099900849593303,0.00099901307699575,-0.00099900916669958,0.00099901261989602,-0.0005143035995969,0.00051430785238546,-0.00051430540837215,0.00051430629971476,-0.0009990092778663,0.00099901252878244,-0.00099900986528036,0.00099901197995559,-0.0012441138065481,0.0012441173593037,-0.0012441143474554,0.001244116767309,-0.0012441136214216,0.0012441175590173,-0.0012441141459927,0.0012441169548774,-0.0010931242930767,0.0010931294143223,-0.0010931259036925,0.0010931276821711,-0.0010931245953547,0.0010931291928023,-0.0010931261537995,0.0010931274330827,-0.00051430282121136,0.00051430846906575,1.0357962447828e-09,2.4835348214807e-10,-3.4491656206991e-08,3.5706066085838e-08,-0.0013381258308851,0.001338127056695,-0.0013334026390497,0.0013334729505771,-0.0013475234361934,0.0013475022633357,-0.0013475240846596,0.0013475013420523,-0.0012916735725168,0.0012916520165222,-0.0012916507427511,0.0012916752364793,-0.0012916738172504,0.0012916517190226,-0.0012916509817025,0.0012916749481831,-0.0013334723891427,0.0013334044918569,-0.0013334028256623,0.0013334726839663,-0.0013475000480781,0.0013475253445189,-0.0013475006913752,0.0013475244416569,-0.0013334721931647,0.0013334047781279,2.2072523299332e-09,3.9057464884751e-09,-0.00089941331298725,0.00089941948244557,3.8518432733054e-08,-3.1973003886337e-08,-0.00076455291211726,0.00076448851627734,-0.00070806526303464,0.00070800328652167,-0.00070806585404217,0.00070800274358663,-0.00076448223520092,0.00076455923493512,-0.00076448377881784,0.00076455746402933,-0.00070799593093354,0.000708072759477,-0.00070799639389329,0.00070807210505,-0.0010850689271577,0.0010850977950001,-0.0010850924877702,0.0010850742736791,-0.0010850683741985,0.001085098372087,-0.0010850919018492,0.0010850748251627,-0.0010875016679158,0.0010874857903006,-0.0010875033746682,0.0010874841631346,-0.0010874797570216,0.0010875076786714,-0.0010874781436583,0.0010875093826967,-0.00076455122237044,0.00076449014199487,0.682738360099,128566,2924,0.0044557077377582,0.0055593275602943,0.0037415438284193,29.21267663125,-6.2985869500014e-06,-6.2985869500014e-06,-6.2985869500014e-06,3301828.5865406,0.013852872921849
32991759,0.831626164531,0.014104495010312,0.0046651741701377,0.0053292996099943,0.0041100212301805,-0.0010797637004557,0.0010797669629927,2.4814543635225e-09,7.6646903791172e-10,1.2934175541874e-09,2.0903680447205e-09,-0.0005171103491625,0.00051711286064932,-0.0010067033221276,0.0010067080644082,-0.0010067039993902,0.0010067076049501,-0.00051710939680027,0.00051711357131188,-0.00051711122081904,0.00051711199583719,-0.0010067042321667,0.0010067073936962,-0.0010067048221839,0.0010067068347237,-0.0012544127925324,0.0012544163373013,-0.001254413338577,0.0012544157387739,-0.0012544125652787,0.0012544165788685,-0.001254413095027,0.0012544159694932,-0.0011019903469441,0.0011019955562197,-0.0011019919781987,0.0011019938142601,-0.0011019906996593,0.0011019952985712,-0.0011019922677929,0.0011019935144961,-0.00051710849240802,0.00051711430944678,1.1042302988165e-09,1.8616196005638e-10,-3.4791224477915e-08,3.6011744404281e-08,-0.0013493452282867,0.0013493464605656,-0.0013440886215378,0.0013441595730115,-0.0013590358506758,0.0013590146145324,-0.0013590366264754,0.0013590135619945,-0.0013027129372589,0.0013026912333444,-0.0013026899143271,0.0013027146552704,-0.0013027132245703,0.0013026908918912,-0.0013026901952246,0.0013027143235693,-0.0013441590020385,0.0013440904737686,-0.0013440888509731,0.0013441592632134,-0.001359012265685,0.0013590378947775,-0.0013590130342011,0.0013590368623587,-0.0013441587607455,0.0013440908053335,2.1575395650443e-09,3.8767024713822e-09,-0.00090605964089025,0.00090606573132778,3.8777918777264e-08,-3.2315854722188e-08,-0.00077045772539876,0.00077039263471073,-0.00071313768310739,0.00071307504103246,-0.0007131382815275,0.00071307449011986,-0.00077038643676622,0.00077046396334611,-0.00077038799805991,0.0007704621760716,-0.00071306775780916,0.00071314510524542,-0.00071306822677116,0.00071314444484701,-0.0010936408974112,0.0010936698824604,-0.001093664662542,0.0010936461580348,-0.0010936403384191,0.0010936704663367,-0.0010936640687175,0.0010936467161076,-0.0010960515406522,0.0010960354064171,-0.0010960532681518,0.0010960337580036,-0.001096029451042,0.001096057473627,-0.0010960278181458,0.0010960591970977,-0.00077045601327888,0.0007703942850921,0.7139933387382,128566,2924,0.0044910995339032,0.0056057896390227,0.003769158303695,29.153678713272,-6.7705702938222e-06,-6.7705702938222e-06,-6.7705702938222e-06,3306398.5893385,0.013963887371388
33191759,0.8383979466705,0.014219213868871,0.0047030077143297,0.0053750185877043,0.0041411875668365,-0.0010882356837558,0.0010882389878985,2.5113658832314e-09,7.7772653531173e-10,1.2578140898782e-09,2.169886845064e-09,-0.00051989791515288,0.00051990056422275,-0.0010147658209957,0.0010147707268921,-0.0010147665049651,0.001014770261552,-0.00051989705932327,0.00051990117911221,-0.00051989889932353,0.00051989958453661,-0.001014766844,0.0010147699418152,-0.0010147674419212,0.0010147693785419,-0.0012645607460134,0.0012645643003001,-0.0012645612986523,0.0012645636960472,-0.0012645604820699,0.0012645645802417,-0.0012645610182848,0.0012645639647445,-0.0011110431918431,0.0011110485006841,-0.0011110448520055,0.0011110467503538,-0.0011110435931284,0.0011110482112509,-0.0011110451746668,0.001111046404418,-0.00051989603923406,0.00051990203131736,1.1608564322211e-09,1.2653461833662e-10,-3.511440419882e-08,3.6332714591803e-08,-0.0013606616317058,0.0013606628615535,-0.0013550709907142,0.0013551426084404,-0.0013707068911509,0.0013706855529286,-0.0013707077785928,0.0013706843830519,-0.0013136497993748,0.0013136279207444,-0.0013136265689014,0.0013136515562338,-0.0013136501245139,0.0013136275401847,-0.0013136268877442,0.0013136511852707,-0.0013551420412685,0.0013550728423798,-0.0013550712590942,0.0013551422591357,-0.0013706830902244,0.0013707090459337,-0.0013706839709942,0.0013707078955397,-0.0013551417606501,0.001355073213711,2.1545894591241e-09,3.8921452362707e-09,-0.00091269159230951,0.0009126976962058,3.9110290731102e-08,-3.263309774265e-08,-0.00077667218260307,0.00077660645390549,-0.00071846980786732,0.00071840655090335,-0.00071847041186402,0.00071840599396391,-0.00077660024305768,0.00077667843606438,-0.00077660182250866,0.00077667663045046,-0.0007183992452497,0.00071847725385717,-0.00071839972018745,0.00071847658677752,-0.0011020997361258,0.0011021289461239,-0.0011021237211914,0.0011021050028206,-0.0011020991714098,0.0011021295365438,-0.0011021231208048,0.0011021055665883,-0.0011048810359137,0.001104864709077,-0.0011048827814098,0.0011048630431677,-0.0011048587450857,0.0011048869771976,-0.0011048570943225,0.0011048887194641,-0.0007766704541199,0.00077660812382451,0.7584813996032,128566,2924,0.0045262870435677,0.0056526496325809,0.0037967131806998,29.094646617314,-7.242827061486e-06,-7.242827061486e-06,-7.242827061486e-06,3302227.804214,0.014075048227267
33391759,0.8449949920888,0.014332910921931,0.0047404329291428,0.0054203816100633,0.0041720963827254,-0.0010969475679919,0.0010969509392234,2.5458767816089e-09,8.0948812114944e-10,1.1880760820324e-09,2.3106147183064e-09,-0.00052252880548919,0.0005225317516478,-0.0010231643983171,0.0010231695753872,-0.0010231650764132,0.0010231691180152,-0.00052252815963517,0.00052253215710966,-0.00052253001613175,0.00052253054029443,-0.0010231656214001,0.0010231685891997,-0.0010231662279402,0.0010231680200924,-0.0012749791092211,0.0012749826639522,-0.0012749796651664,0.0012749820558689,-0.0012749787791735,0.0012749830110854,-0.0012749793143829,0.00127498239703,-0.0011204427661968,0.0011204482088755,-0.0011204444341384,0.0011204464744046,-0.0011204432442522,0.0011204478655471,-0.0011204448252251,0.001120446038978,-0.00052252695171678,0.00052253319885988,1.2590635789425e-09,4.093877111335e-12,-3.5792190025046e-08,3.6986883852322e-08,-0.0013724269494955,0.0013724281563691,-0.0013666652261888,0.001366738190996,-0.0013828454452554,0.0013828238665218,-0.0013828465510732,0.0013828224663081,-0.0013248692693436,0.0013248470067773,-0.0013248456108446,0.0013248710827665,-0.0013248696683262,0.0013248465495782,-0.0013248459991074,0.0013248706403373,-0.0013667376505351,0.001366667041065,-0.0013666655619538,0.0013667377750735,-0.0013828212071525,0.0013828477927547,-0.0013828222948646,0.0013828464278,-0.0013667372908361,0.0013666674965079,2.0894950875862e-09,3.8614023309711e-09,-0.00091952639142151,0.00091953239943454,3.9714880653616e-08,-3.3337633689757e-08,-0.00078290766654819,0.00078284049790307,-0.00072396202700714,0.00072389740676787,-0.0007239626498405,0.00072389683006735,-0.00078283440383231,0.00078291380110152,-0.00078283600080254,0.00078291197880045,-0.00072389018316001,0.00072396938817384,-0.00072389066295287,0.00072396871459716,-0.0011108719138627,0.0011109014575337,-0.0011108963407391,0.0011108770734262,-0.0011108713411296,0.00111090205737,-0.0011108957263256,0.0011108776505151,-0.0011141507877273,0.0011141339652825,-0.0011141525732991,0.0011141322583644,-0.0011141280911159,0.0011141566380946,-0.0011141264150068,0.0011141584083552,-0.00078290588212024,0.00078284222695213,0.7713946171509,128566,2924,0.0045624752420697,0.0057013648481836,0.003825110374295,29.270944561588,-5.8324435072979e-06,-5.8324435072979e-06,-5.8324435072979e-06,3294541.333192,0.014189974267336
33591759,0.85146275133593,0.014446460083782,0.0047777497937851,0.0054657268797596,0.0042029834102369,-0.0011058129488061,0.0011058163758912,2.5730290066124e-09,8.374603237355e-10,1.1484726796539e-09,2.4094839498899e-09,-0.00052517948967725,0.00052518264933229,-0.0010318204534705,0.0010318258189608,-0.0010318211259298,0.0010318253702355,-0.00052517897992998,0.00052518292036691,-0.00052518085527808,0.00052518127462559,-0.0010318218049264,0.0010318247032214,-0.0010318224211718,0.0010318241274626,-0.0012855377025408,0.0012855412683695,-0.0012855382596285,0.0012855406579537,-0.0012855373297902,0.0012855416585658,-0.0012855378621432,0.0012855410480769,-0.0011300508115485,0.0011300563504181,-0.0011300524853504,0.0011300546357887,-0.0011300513460847,0.0011300559790338,-0.0011300529193189,0.0011300541332299,-0.00052517765286965,0.00052518407681426,1.3253454002548e-09,-8.013750703064e-11,-3.6565573862171e-08,3.7743482131353e-08,-0.0013844067285758,0.0013844079186318,-0.0013785234330188,0.0013785979234377,-0.0013952023009356,0.0013951803519801,-0.0013952035583943,0.0013951787936243,-0.0013362467767637,0.0013362240480974,-0.0013362226268869,0.001336248631426,-0.0013362472273949,0.0013362235376348,-0.0013362230614697,0.0013362481402341,-0.0013785974017398,0.0013785252164,-0.0013785238102049,0.0013785974625458,-0.0013951775618748,0.001395204779899,-0.0013951787864524,0.0013952032677782,-0.0013785969816509,0.001378525730196,2.0096239606515e-09,3.8195586397782e-09,-0.0009265094020759,0.00092651528798295,4.0405197284655e-08,-3.4156078215611e-08,-0.00078927080502599,0.00078920197593313,-0.00072967828058505,0.00072961207204565,-0.00072967892151653,0.00072961147615929,-0.00078919602930225,0.00078927679521831,-0.00078919763844938,0.0007892749597046,-0.00072960496097212,0.00072968552913199,-0.00072960544438206,0.00072968485042545,-0.0011198049617352,0.001119834878569,-0.0011198298973737,0.0011198099869546,-0.0011198043789332,0.0011198354894407,-0.0011198292667091,0.0011198105791535,-0.0011236911454063,0.0011236737389141,-0.0011236929754406,0.0011236719870179,-0.001123667978309,0.0011236968804587,-0.0011236662744719,0.0011236986815439,-0.00078926896960994,0.00078920376301004,0.78538310951697,128566,2924,0.0045993014060495,0.0057509644675068,0.0038541227518336,29.571201526206,-3.4303877903495e-06,-3.4303877903495e-06,-3.4303877903495e-06,3286595.046407,0.014307081823076
33791759,0.85779771278,0.014557480180456,0.0048142378323741,0.0055100782492225,0.0042331640988599,-0.0011144873317588,0.0011144907862611,2.6163125560061e-09,8.2119025420142e-10,1.1588677136515e-09,2.4281454140891e-09,-0.00052749243557182,0.00052749552924686,-0.0010402303051794,0.0010402357436348,-0.0010402310149574,0.0010402352612546,-0.00052749188035803,0.00052749585015633,-0.00052749376318362,0.00052749418979451,-0.0010402316806326,0.0010402346042158,-0.0010402323022864,0.0010402340257208,-0.001295922358885,0.001295925962879,-0.0012959229292073,0.0012959253379526,-0.0012959219778419,0.0012959263610315,-0.0012959225353221,0.0012959257255417,-0.0011394667625227,0.0011394724102555,-0.001139468527313,0.0011394706344384,-0.0011394673385028,0.00113947203253,-0.0011394689363454,0.0011394701297257,-0.00052749049442296,0.00052749705809035,1.3236170635249e-09,-7.1345269803922e-11,-3.7204155559174e-08,3.8390405423349e-08,-0.0013962169483737,0.0013962181455215,-0.0013902169892471,0.0013902927612753,-0.0014074035333787,0.0014073811371048,-0.0014074047605249,0.0014073796030068,-0.0013474332367306,0.0013474100837478,-0.0013474086651131,0.0013474351004989,-0.0013474336790814,0.0013474095815859,-0.0013474091026037,0.0013474346068806,-0.0013902922108093,0.0013902187929646,-0.0013902173798905,0.0013902922883267,-0.0014073783488505,0.0014074060065605,-0.0014073795788995,0.0014074044862527,-0.0013902918078487,0.001390219289955,1.9694766667539e-09,3.7570940607966e-09,-0.00093330092698406,0.00093330671008912,4.1022173588915e-08,-3.4880773127934e-08,-0.00079531800733565,0.00079524782092118,-0.00073515929498442,0.00073509164066522,-0.00073515991223988,0.00073509106801001,-0.00079524193904009,0.00079532393968837,-0.00079524357428344,0.00079532207864733,-0.00073508464434253,0.00073516643407305,-0.00073508513610223,0.00073516574683969,-0.0011285953862612,0.0011286256523935,-0.0011286207675753,0.0011286003166682,-0.0011285948053814,0.0011286262621854,-0.0011286201489676,0.0011286008956906,-0.0011330396215457,0.0011330216223912,-0.0011330414139807,0.0011330199089396,-0.0011330159797063,0.0011330452369121,-0.0011330142833648,0.0011330470329195,-0.00079531623747938,0.00079524954540712,0.78367691522448,128566,2924,0.0046353358723626,0.0057998583574723,0.0038823401764129,29.874795371381,-1.0016370289547e-06,-1.0016370289547e-06,-1.0016370289547e-06,3278466.9776109,0.014421878600872
33991759,0.86399540853802,0.014662396449776,0.0048488171681438,0.0055519584281454,0.0042616208534864,-0.0011228060206583,0.0011228094798189,2.6203463184392e-09,8.2173459705742e-10,1.1931654881428e-09,2.3987409503164e-09,-0.00052947407038512,0.00052947711631309,-0.0010480374462846,0.0010480428232017,-0.0010480381544801,0.001048042347212,-0.00052947345137029,0.00052947750684405,-0.0005294753471041,0.00052947582228657,-0.0010480387560146,0.0010480417542245,-0.0010480393830315,0.0010480411687452,-0.0013059797906158,0.0013059834235478,-0.0013059803633939,0.0013059827946761,-0.0013059794322167,0.0013059837977401,-0.0013059799891564,0.0013059831631364,-0.0011484090191392,0.0011484146510599,-0.001148410798767,0.0011484128955183,-0.0011484095916502,0.0011484143167361,-0.0011484111800221,0.0011484123865317,-0.00052947213959978,0.00052947863352964,1.3040983571609e-09,-3.3400668456035e-11,-3.7761558162083e-08,3.8965798101909e-08,-0.0014075532861044,0.0014075545010235,-0.0014013280427026,0.001401404918272,-0.0014191436505148,0.001419120846007,-0.0014191448267071,0.0014191193610173,-0.0013582276527428,0.0013582041269052,-0.00135820271534,0.0013582295207195,-0.0013582280791051,0.0013582036417611,-0.0013582031324762,0.0013582290481057,-0.0014014043490954,0.0014013298545198,-0.0014013284112597,0.0014014044681526,-0.0014191180957383,0.0014191460846821,-0.0014191192615243,0.0014191446261502,-0.0014014039581133,0.0014013303385744,1.8920188423976e-09,3.7132592965399e-09,-0.0009397746874537,0.00093978034889848,4.1519703241328e-08,-3.5505623407415e-08,-0.00080081862935925,0.00080074717609473,-0.00074019200143252,0.00074012313732378,-0.00074019263512889,0.00074012254704934,-0.00080074143329387,0.00080082442468075,-0.00080074308605974,0.00080082254789289,-0.00074011625346037,0.00074019902841405,-0.00074011675164634,0.00074019833551734,-0.0011371084283004,0.0011371389416839,-0.0011371341900635,0.0011371132272794,-0.0011371078387115,0.0011371395609941,-0.0011371335574996,0.0011371138187403,-0.0011418773890647,0.0011418589280025,-0.0011418792206535,0.0011418571771282,-0.0011418534026644,0.0011418828870386,-0.0011418516778559,0.001141884712138,-0.00080081681698833,0.00080074894639494,0.75679008395691,128566,2924,0.0046698922207188,0.005846787339249,0.0039092379199786,30.178527377227,1.4282190178147e-06,1.4282190178147e-06,1.4282190178147e-06,3273042.397026,0.014531857697217
34191759,0.87014257482478,0.014764378016447,0.0048824877520779,0.0055926327051577,0.0042892575592114,-0.0011314959533147,0.0011314994415191,2.6302226486947e-09,8.4058089934523e-10,1.1705150380691e-09,2.4520101261267e-09,-0.00053216469455163,0.00053216788603506,-0.0010561003575793,0.0010561058254768,-0.0010561010547334,0.0010561053673414,-0.00053216415935072,0.00053216819556911,-0.00053216607321576,0.00053216647622958,-0.0010561017344074,0.0010561046976309,-0.0010561023669347,0.0010561040997151,-0.0013163707462246,0.0013163743836372,-0.0013163713184748,0.0013163737526149,-0.0013163703663235,0.0013163747780178,-0.0013163709167027,0.0013163741507578,-0.0011576199748127,0.0011576256447595,-0.0011576217525847,0.001157623926749,-0.001157620583653,0.0011576253110957,-0.0011576221581312,0.0011576233622843,-0.0005321628011222,0.00053216935856111,1.3492562814997e-09,-8.0940318917052e-11,-3.8452539623486e-08,3.9653182582962e-08,-0.0014190723181856,0.0014190735307119,-0.0014124483942054,0.0014125266313375,-0.0014310779646006,0.0014310548062448,-0.0014310792411086,0.0014310532165027,-0.0013693359400383,0.0013693119943214,-0.0013693105620819,0.0013693378444875,-0.0013693364003948,0.0013693114742638,-0.001369311005332,0.0013693373445236,-0.0014125260688357,0.0014124501786503,-0.0014124487829259,0.001412526159776,-0.0014310519671849,0.0014310804900012,-0.00143105321052,0.0014310789479075,-0.0014125256327572,0.0014124507071314,1.7651953278998e-09,3.6325479835386e-09,-0.00094669267673953,0.00094669812951519,4.2071814176649e-08,-3.6276306714286e-08,-0.00080682754373504,0.00080675449799784,-0.00074571810619093,0.00074564775446262,-0.00074571876524908,0.00074564713721542,-0.00080674899715358,0.00080683309630885,-0.00080675065692603,0.00080683120900267,-0.0007456410663634,0.00074572493121586,-0.00074564156807202,0.0007457242347534,-0.001145988093063,0.0011460188330505,-0.0011460143042486,0.0011459926710131,-0.0011459874926822,0.0011460194643546,-0.0011460136513764,0.0011459932811785,-0.0011509821260172,0.0011509630710749,-0.0011509840149224,0.0011509612641795,-0.0011509577441221,0.0011509874269198,-0.0011509559858554,0.0011509892856834,-0.00080682565437107,0.00080675634945752,0.74153685449039,128566,2924,0.0047059826982875,0.0058944712860412,0.0039379780251312,30.743738001869,5.9499040149515e-06,5.9499040149515e-06,5.9499040149515e-06,3273266.8734299,0.014646039676792
34391759,0.87625412979651,0.014864951811355,0.0049157084633544,0.0056327277392142,0.0043165156087865,-0.0011402764193348,0.0011402799287247,2.6390846597605e-09,8.5259642691146e-10,1.1570441150965e-09,2.4880656267147e-09,-0.00053521505287755,0.00053521834530602,-0.0010641942741253,0.0010641998018235,-0.001064194963151,0.0010641993590341,-0.00053521456621807,0.00053521861260386,-0.00053521651232887,0.00053521685026568,-0.0010641956917365,0.0010641986408479,-0.0010641963318666,0.0010641980268839,-0.0013268135771298,0.0013268172210904,-0.001326814150205,0.0013268165871016,-0.0013268131842829,0.0013268176271708,-0.0013268137296585,0.0013268170059339,-0.0011668659514207,0.001166871650683,-0.0011668677373071,0.0011668699656604,-0.0011668665952425,0.0011668713286421,-0.0011668681544433,0.0011668693518677,-0.0005352131913187,0.00053521978988197,1.3821774174287e-09,-1.1087398287593e-10,-3.897408397037e-08,4.017781896468e-08,-0.0014305699644548,0.0014305711801778,-0.0014234377448975,0.0014235170171195,-0.0014430090386632,0.0014429856112105,-0.0014430103862286,0.0014429839481634,-0.0013804902239777,0.00138046596237,-0.001380464512466,0.001380492158683,-0.0013804907087702,0.0013804654174414,-0.0013804649723466,0.0013804916410716,-0.0014235164597759,0.001423439515679,-0.0014234381424954,0.001423516533745,-0.0014429827087841,0.001443011631038,-0.0014429840013278,0.0014430100330821,-0.0014235159861785,0.0014234400769609,1.6627869116835e-09,3.5704811404984e-09,-0.00095374869835927,0.00095375398602479,4.2481085120088e-08,-3.6857928233095e-08,-0.00081303399937154,0.00081295974801405,-0.00075143045220542,0.00075135898215749,-0.00075143113314585,0.0007513583408704,-0.00081295444788674,0.00081303935376758,-0.00081295610537482,0.00081303746876762,-0.00075135244950797,0.00075143712087512,-0.00075135295127534,0.00075143642329465,-0.0011549455972031,0.0011549764992866,-0.0011549721494687,0.001154949998495,-0.0011549449871675,0.0011549771417055,-0.0011549714775326,0.0011549506257301,-0.0011601307061317,0.0011601112018383,-0.001160132647038,0.0011601093449744,-0.0011601060289622,0.0011601358531566,-0.0011601042436787,0.0011601377398478,-0.0008130320453283,0.00081296167043145,0.73560164903738,128566,2924,0.0047424442543663,0.0059420648037359,0.003967290179825,31.386245657633,1.1089965261063e-05,1.1089965261063e-05,1.1089965261063e-05,3275716.6707665,0.014761098861968
34591759,0.88231701126661,0.014968352451376,0.0049497570052395,0.0056739720443278,0.0043446234018091,-0.0011492001105843,0.0011492036304009,2.6716573550399e-09,8.3033212740877e-10,1.1749681377946e-09,2.4810939727822e-09,-0.0005386454221053,0.00053864860188311,-0.001072644303933,0.0010726498525475,-0.0010726450286949,0.0010726493785815,-0.00053864486562475,0.00053864894341805,-0.00053864680920472,0.00053864718669897,-0.00107264571498,0.0010726487012706,-0.001072646356833,0.0010726480864241,-0.0013372999704844,0.0013373036453095,-0.001337300556371,0.0013373029998894,-0.0013372995810642,0.0013373040493266,-0.0013373001495792,0.0013373034039736,-0.0011763388078399,0.0011763445752094,-0.0011763406405563,0.0011763427952848,-0.0011763394255419,0.0011763442195096,-0.0011763410524904,0.0011763422379172,-0.00053864346504381,0.00053865014491287,1.3689793463266e-09,-7.9765844737609e-11,-3.9198134151614e-08,4.0421288072984e-08,-0.0014421977112424,0.0014421989440911,-0.0014345569614694,0.001434636719687,-0.001455090702538,0.0014550670728528,-0.0014550919837542,0.001455065468416,-0.0013917451904461,0.0013917207688039,-0.0013917193191114,0.0013917471285345,-0.0013917456556117,0.0013917202436929,-0.0013917197713207,0.0013917466201282,-0.0014346361297004,0.0014345587718619,-0.0014345573632905,0.0014346362368646,-0.0014550641930185,0.0014550932638234,-0.0014550654613377,0.0014550916917522,-0.0014346356871534,0.0014345593059077,1.66037310477e-09,3.5504730341073e-09,-0.00096097488631879,0.00096098015219729,4.2749775808536e-08,-3.7148079688854e-08,-0.00081968382738797,0.00081960906674461,-0.00075753884648354,0.00075746678799972,-0.00075753950663857,0.00075746616853197,-0.00081960374140081,0.00081968921536317,-0.00081960543970968,0.00081968728951833,-0.00075746028322379,0.00075754549435742,-0.00075746079726355,0.00075754478548542,-0.0011639576880833,0.0011639887567929,-0.0011639844247286,0.0011639620729079,-0.0011639570779403,0.001163989399835,-0.0011639837636106,0.0011639626884235,-0.0011695344121584,0.0011695146790011,-0.0011695363153066,0.0011695128535639,-0.0011695095502124,0.0011695395185684,-0.0011695077617067,0.0011695414012525,-0.00081968193083945,0.000819610930646,0.76226247361755,128566,2924,0.0047794979352607,0.005990194156578,0.0039973079431377,32.030882414442,1.6247059315535e-05,1.6247059315535e-05,1.6247059315535e-05,3276730.0398616,0.0148780296931
34791759,0.88839561992248,0.015076056347286,0.0049851024896855,0.005716986355036,0.0043739675025649,-0.0011587381155119,0.0011587416804644,2.7201356248562e-09,8.2653179553571e-10,1.145259117326e-09,2.5581814150785e-09,-0.00054236119712408,0.0005423644500481,-0.0010819114114079,0.0010819171401808,-0.0010819121641664,0.0010819166388982,-0.0005423606997212,0.00054236471702782,-0.00054236264489693,0.00054236295837583,-0.0010819129383323,0.0010819158684455,-0.0010819135852462,0.0010819152549175,-0.001348417253856,0.0013484209521776,-0.0013484178547742,0.0013484202944969,-0.0013484168262014,0.0013484213962703,-0.0013484174170428,0.001348420728247,-0.0011865830852609,0.0011865889962439,-0.0011865849842821,0.0011865871552872,-0.0011865837472599,0.0011865885891437,-0.0011865854193806,0.0011865865758529,-0.00054235915898333,0.00054236606557322,1.4052108947717e-09,-1.2628231704425e-10,-3.962372679064e-08,4.0831567251413e-08,-0.0014546710437068,0.0014546722664311,-0.0014466241575851,0.0014467047539861,-0.0014680646316479,0.0014680407816407,-0.0014680659745466,0.0014680391014495,-0.0014036880849221,0.001403663403274,-0.0014036619355418,0.0014036900465083,-0.0014036885727268,0.0014036628542716,-0.0014036624192257,0.0014036895061789,-0.0014467041801716,0.0014466259665831,-0.0014466246056105,0.0014467042335595,-0.0014680378210117,0.0014680672594148,-0.0014680391851092,0.0014680655941361,-0.001446703726726,0.001446626522565,1.6536629268602e-09,3.5288204498436e-09,-0.00096876533011191,0.00096877056962033,4.3199109812568e-08,-3.7621208127716e-08,-0.00082697597392178,0.00082690032818163,-0.00076430885102999,0.00076423585479332,-0.00076430949525664,0.00076423524830502,-0.0008268949721622,0.00082698136483806,-0.00082689670941778,0.00082697940443818,-0.00076422935639397,0.00076431546507769,-0.00076422988291919,0.00076431474389644,-0.0011735793789124,0.0011736107312081,-0.001173606422715,0.0011735837413734,-0.0011735787707192,0.0011736113734601,-0.0011736057710198,0.0011735843462725,-0.0011797735818587,0.0011797534839311,-0.0011797754560421,0.0011797516862749,-0.0011797484026864,0.0011797786450034,-0.0011797466135256,0.0011797805260955,-0.00082697411748406,0.00082690215238358,0.79180217640715,128566,2924,0.0048191039651913,0.0060418202073281,0.0040296680289305,32.908760878244,2.3270087025955e-05,2.3270087025955e-05,2.3270087025955e-05,3274186.1797726,0.015003492131925
34991759,0.89452085394223,0.015179527489559,0.0050191720964683,0.0057582922356026,0.0044020631574883,-0.0011683039461847,0.0011683075396137,2.7071676030351e-09,8.6752042446417e-10,1.1295463341643e-09,2.6047599098727e-09,-0.00054546946307471,0.0005454729174206,-0.0010908425506961,0.0010908483329193,-0.0010908432664028,0.001090847872397,-0.00054546906586738,0.00054547309283494,-0.0005454710473901,0.00054547129241057,-0.0010908441165634,0.0010908470260577,-0.0010908447736773,0.0010908464017986,-0.0013597536419137,0.0013597573377746,-0.0013597542329709,0.0013597566901526,-0.001359753203797,0.0013597577937075,-0.0013597537664272,0.0013597571533313,-0.0011967830372587,0.0011967889162076,-0.0011967848584085,0.0011967871570835,-0.0011967836968893,0.001196788520157,-0.0011967853380264,0.0011967865277655,-0.00054546753060526,0.0005454744243972,1.4589233198352e-09,-1.87306630911e-10,-4.0096424693514e-08,4.1301182133942e-08,-0.0014673404935175,0.0014673417096408,-0.0014588666984355,0.0014589482286472,-0.0014812716369315,0.0014812476045929,-0.0014812731227685,0.0014812457875791,-0.0014157781333731,0.0014157531780624,-0.0014157516854166,0.0014157801275296,-0.0014157786676565,0.0014157525823731,-0.0014157521970684,0.0014157795578565,-0.0014589476731004,0.0014588684786512,-0.0014588671542382,0.0014589476844496,-0.0014812445460692,0.0014812743752964,-0.0014812459858373,0.0014812726144327,-0.0014589471498376,0.0014588690913638,1.5681917552005e-09,3.534400388509e-09,-0.0009765131024406,0.00097651826241341,4.3590485512049e-08,-3.8096332465545e-08,-0.00083364434059599,0.00083356762594995,-0.00077067857759153,0.00077060469997427,-0.00077067927387545,0.00077060404300047,-0.00083356243737253,0.00083364959191893,-0.00083356416590623,0.0008336476317964,-0.00077059826722415,0.00077068514422554,-0.00077059879382183,0.00077068442384436,-0.0011834193396779,0.0011834508817093,-0.0011834466855351,0.0011834235915757,-0.0011834187100005,0.0011834515468352,-0.0011834459927967,0.0011834242362501,-0.0011899350333721,0.0011899146838318,-0.0011899370203715,0.0011899127688502,-0.0011899096538436,0.0011899400419697,-0.0011899078005618,0.0011899419878347,-0.00083364235050962,0.00083356959518604,0.75494741076895,128566,2924,0.0048588292832874,0.0060942548119656,0.0040618512805111,33.939140362791,3.1513122902331e-05,3.1513122902331e-05,3.1513122902331e-05,3271936.7234637,0.015129737648403
35191759,0.90066916092478,0.015280723352286,0.005052560670988,0.0057986598160976,0.0044295028652,-0.0011778444646036,0.0011778480723595,2.7528785265536e-09,8.3610444218616e-10,1.1262426009734e-09,2.623035856908e-09,-0.00054895275663741,0.0005489561222544,-0.0010996032850383,0.0010996091472156,-0.0010996040461674,0.0010996086448721,-0.00054895231524006,0.00054895634273967,-0.00054895430438733,0.00054895453375727,-0.0010996048941449,0.0010996078023727,-0.0010996055515769,0.0010996071690361,-0.0013710223698126,0.0013710260912099,-0.0013710229795856,0.0013710254250333,-0.0013710219178298,0.0013710265615796,-0.0013710225133557,0.0013710258884254,-0.0012068379129821,0.0012068439127172,-0.0012068398381111,0.0012068420616056,-0.0012068386112283,0.001206843492806,-0.001206840299533,0.0012068414399259,-0.00054895069938251,0.00054895775300611,1.4601073539579e-09,-1.7333527066764e-10,-4.0382421738206e-08,4.1603166831458e-08,-0.001479756077559,0.0014797573084285,-0.0014706594507937,0.0014707415885423,-0.0014942010559164,0.0014941768089318,-0.0014942025028481,0.0014941750239086,-0.0014277874458128,0.0014277622992863,-0.0014277607992664,0.0014277894522477,-0.0014277879686832,0.0014277617145441,-0.0014277613141978,0.0014277888795971,-0.0014707409959167,0.0014706612657267,-0.0014706599263633,0.001470741032934,-0.0014941737484031,0.0014942037936341,-0.0014941751989118,0.001494202026407,-0.0014707404955973,0.0014706618586581,1.5463072607017e-09,3.4723750721927e-09,-0.00098428291563262,0.00098428799186493,4.3862164292599e-08,-3.8455252504905e-08,-0.00084034928312627,0.00084027194920418,-0.00077710289217633,0.0007770282791952,-0.00077710355548362,0.00077702765369067,-0.00084026679074742,0.00084035450538453,-0.00084026854751215,0.00084035252104896,-0.00077702194351583,0.00077710936419531,-0.00077702247814072,0.00077710863602364,-0.0011932121222673,0.0011932438007503,-0.0011932396766471,0.0011932163041135,-0.0011932114991912,0.0011932444598452,-0.0011932390034097,0.0011932169275541,-0.0011998626929738,0.0011998419914708,-0.001199864619904,0.001199840135036,-0.00119983706356,0.0011998675990224,-0.0011998352308116,0.0011998695237707,-0.0008403473763367,0.00084027383286512,0.73556804940028,128566,2924,0.0048984420899416,0.0061456370072594,0.0040941240603393,34.97361831281,3.978894650248e-05,3.978894650248e-05,3.978894650248e-05,3275110.8872517,0.015254905666796
35391759,0.9067584434071,0.015378109640365,0.0050847585757325,0.0058374765654334,0.004455874499199,-0.0011868724614502,0.001186876035821,2.7638111038503e-09,7.9206056153471e-10,1.1920390848477e-09,2.5216167909262e-09,-0.00055217341659945,0.00055217648714983,-0.0011076859150231,0.0011076916118515,-0.0011076867123826,0.0011076910770879,-0.00055217277324157,0.00055217692070938,-0.00055217474977284,0.00055217512220994,-0.0011076873824209,0.0011076904196608,-0.0011076880332736,0.0011076897833197,-0.0013817585545415,0.0013817623120952,-0.001381759179211,0.0013817616336912,-0.0013817581531406,0.0013817627333104,-0.0013817587723604,0.0013817620344451,-0.0012162878939911,0.0012162938764117,-0.0012162898951809,0.0012162919606174,-0.0012162885622339,0.0012162935026063,-0.0012162902812832,0.0012162914052342,-0.0005521712646665,0.00055217820773098,1.390685992674e-09,-5.3240224430042e-11,-4.0226359207221e-08,4.1499939816267e-08,-0.001491493262542,0.0014914945418374,-0.0014816457604264,0.0014817276530247,-0.0015064508655468,0.0015064265521866,-0.0015064521087472,0.0015064249683572,-0.0014392308645322,0.001439205777729,-0.0014392042932272,0.0014392328511838,-0.0014392313210229,0.0014392052620529,-0.0014392047528704,0.0014392323366111,-0.0014817269906328,0.0014816476587378,-0.0014816461966837,0.0014817271464642,-0.0015064236280244,0.0015064534613096,-0.0015064249103414,0.0015064518712409,-0.001481726573521,0.0014816481736183,1.5725241398328e-09,3.4809462213279e-09,-0.00099161836045392,0.000991623472415,4.3806453160238e-08,-3.8361033651526e-08,-0.00084665644508139,0.00084657935459572,-0.00078304132006054,0.00078296687552775,-0.00078304196428282,0.00078296626940005,-0.0008465741148093,0.00084666176671236,-0.00084657592122731,0.00084665973173629,-0.00078296051178209,0.00078304783750553,-0.00078296106160004,0.00078304709618152,-0.001202518043158,0.0012025497113831,-0.0012025455484438,0.0012025222664341,-0.0012025174216939,0.0012025503698145,-0.0012025448866413,0.0012025228768117,-0.0012091148008618,0.0012090941530464,-0.0012091166909051,0.0012090923298559,-0.0012090892070645,0.0012091197241849,-0.0012090873718214,0.0012091216475696,-0.00084665458904929,0.00084658117824069,0.71497034037708,128566,2924,0.0049359231709535,0.0061942095724661,0.0041245932003467,35.838950580929,4.6711604647433e-05,4.6711604647433e-05,4.6711604647433e-05,3280554.8423433,0.015373239701759
35591759,0.91269682571692,0.01546848230076,0.0051147513761918,0.0058734453232085,0.0044802856013593,-0.0011950809378849,0.0011950844470959,2.7259626597266e-09,7.6574566964248e-10,1.285273480748e-09,2.359289552059e-09,-0.00055490942752598,0.00055491220781007,-0.0011146887479519,0.0011146941140109,-0.0011146895375283,0.0011146935910721,-0.00055490853018789,0.00055491289533787,-0.0005549105381734,0.00055491106731317,-0.0011146899614004,0.001114693188882,-0.0011146906120786,0.0011146925404804,-0.0013916670423227,0.0013916708191391,-0.0013916676690557,0.0013916701433333,-0.0013916667290293,0.0013916711530948,-0.0013916673400292,0.0013916704600434,-0.00122476151725,0.0012247673320395,-0.0012247635167609,0.0012247654578137,-0.001224762106736,0.001224767066448,-0.0012247638192019,0.0012247649644263,-0.00055490730351135,0.00055491390021834,1.3025278612562e-09,9.9354676665181e-11,-3.9723319355861e-08,4.1059137642e-08,-0.0015021986221521,0.0015021999631616,-0.0014914778143686,0.0014915587515249,-0.001517672144103,0.0015176479805906,-0.0015176731678763,0.0015176466320005,-0.0014497698841393,0.0014497450884883,-0.0014497436168355,0.0014497718457343,-0.0014497702659991,0.0014497446510447,-0.0014497439958393,0.0014497714156914,-0.0014915580456661,0.0014914797804165,-0.0014914781622988,0.00149155832943,-0.0015176452367086,0.0015176745677818,-0.0015176462697706,0.0015176732287007,-0.0014915576950902,0.0014914802194401,1.6192276868845e-09,3.5761990424196e-09,-0.00099823874774307,0.00099824400426767,4.3406790830034e-08,-3.7807314419219e-08,-0.00085209515874837,0.00085201910296894,-0.00078816023751528,0.00078808690580622,-0.00078816090492944,0.0007880862769374,-0.00085201374268323,0.00085210060011321,-0.00085201555953759,0.00085209855918317,-0.00078808037739282,0.00078816692379555,-0.00078808093343673,0.00078816617923471,-0.0012110629912552,0.0012110944751739,-0.0012110901894423,0.0012110673400679,-0.0012110623575337,0.0012110951464077,-0.0012110895070988,0.0012110679684742,-0.0012173407174972,0.0012173205856559,-0.0012173426636804,0.0012173187054076,-0.0012173154933068,0.0012173457889958,-0.0012173136165078,0.0012173477498999,-0.00085209324281978,0.00085202098765084,0.68077348888982,128566,2924,0.0049699988830707,0.0062385107661326,0.0041520932774235,36.485099028948,5.1880792231585e-05,5.1880792231585e-05,5.1880792231585e-05,3288580.9359188,0.015480776461355
35791759,0.91846921560823,0.015561407176125,0.0051454310145673,0.005910453317078,0.0045055228444795,-0.0012033767578071,0.0012033802394057,2.716941354086e-09,7.4776517991939e-10,1.3185369416015e-09,2.2963405646367e-09,-0.0005584395526905,0.00055844222340852,-0.0011221967684044,0.0011222020051103,-0.0011221975539804,0.0011222014869921,-0.00055843854486676,0.00055844300655555,-0.00055844059211391,0.00055844115974567,-0.0011221978830941,0.0011222011863469,-0.0011221985397436,0.0011222005242946,-0.0014014667152651,0.0014014705023875,-0.0014014673506772,0.0014014698241895,-0.0014014664372856,0.001401470803394,-0.0014014670491267,0.0014014701089729,-0.001233404035004,0.0012334097949186,-0.001233406049565,0.0012334079302587,-0.0012334045925891,0.0012334095719924,-0.0012334063226771,0.0012334074560215,-0.0005584374411,0.00055844390150563,1.2772303246668e-09,1.6238316789392e-10,-3.930969460446e-08,4.0678736816631e-08,-0.0015128158678033,0.0015128172443417,-0.001501197510253,0.0015012776616478,-0.0015287695297207,0.0015287455866477,-0.0015287704744404,0.0015287443228798,-0.0014602639010837,0.0014602393734696,-0.0014602378894425,0.0014602658642145,-0.0014602642566829,0.0014602389644087,-0.001460238237474,0.0014602654660353,-0.0015012769520893,0.0015011995168913,-0.0015011978232752,0.0015012772754182,-0.001528742892791,0.0015287719016777,-0.0015287438325753,0.0015287706601292,-0.0015012766209603,0.0015011999341495,1.7059799725293e-09,3.6908344734889e-09,-0.0010050690571445,0.0010050745189051,4.3099485049296e-08,-3.7280956840416e-08,-0.00085833087592019,0.00085825581301714,-0.00079396167176176,0.00079388939637177,-0.00079396235398235,0.0007938887508821,-0.00085825025926439,0.00085833649682251,-0.00085825208198346,0.00085833445506656,-0.00079388263193741,0.00079396857970518,-0.00079388319139306,0.00079396783379233,-0.0012195241683656,0.0012195555726896,-0.0012195510976151,0.001219528708068,-0.0012195235280462,0.0012195562506429,-0.0012195504029002,0.0012195293470545,-0.0012257713193928,0.0012257517042635,-0.0012257732991263,0.001225749789533,-0.0012257464093856,0.0012257765987549,-0.0012257445094678,0.0012257785768994,-0.00085832891002065,0.00085825774643209,0.72027366521032,128566,2924,0.0050044299543818,0.0062824463761308,0.0041804620479287,37.12540426992,5.7003234159362e-05,5.7003234159362e-05,5.7003234159362e-05,3296048.9115697,0.015589190764288
35991759,0.92406337253061,0.01565705209773,0.0051768310328697,0.0059486133729965,0.0045316076918634,-0.0012116544587935,0.0012116579477381,2.7302429681132e-09,7.4180972897198e-10,1.3206765261799e-09,2.3018969501871e-09,-0.00056165525611235,0.0005616579182147,-0.0011300685495478,0.001130073802847,-0.001130069340347,0.0011300732768681,-0.00056165422588694,0.00056165870890337,-0.00056165630589705,0.00056165685978316,-0.0011300696664819,0.001130072980416,-0.0011300703300334,0.0011300723125806,-0.001411208176063,0.0014112119757712,-0.0014112088211779,0.0014112112947046,-0.0014112078993391,0.0014112122800381,-0.0014112085167922,0.0014112115779753,-0.0012422588544654,0.0012422646437535,-0.0012422608980884,0.0012422627682283,-0.0012422594193572,0.0012422644220244,-0.0012422611692049,0.0012422622891169,-0.00056165312499424,0.00056165961769995,1.2868753166071e-09,1.6713680684998e-10,-3.902368553937e-08,4.0406319583026e-08,-0.001523632703464,0.0015236340939959,-0.0015113494292139,0.001511429044223,-0.0015400652812377,0.0015400415401251,-0.0015400662288911,0.0015400402747392,-0.0014707551321301,0.0014707308026358,-0.001470729297303,0.0014707571051109,-0.0014707554890747,0.0014707303923891,-0.0014707296472258,0.0014707567051945,-0.0015114283401155,0.0015113514664628,-0.0015113497442964,0.0015114286551709,-0.001540038827818,0.001540067669228,-0.001540039771979,0.0015400664244121,-0.0015114280054563,0.0015113518867949,1.8199187847362e-09,3.8225754669802e-09,-0.0010118734419585,0.0010118791537558,4.295943974908e-08,-3.6875223467801e-08,-0.00086474335005051,0.00086466907339337,-0.00079990518909495,0.0007998337232839,-0.00079990587620264,0.00079983307178837,-0.0008646632629511,0.00086474922537391,-0.00086466510408117,0.00086474716611274,-0.00079982668622845,0.00079991236697259,-0.00079982725231643,0.00079991161497145,-0.00122794214387,0.0012279736076392,-0.0012279688955158,0.0012279469211606,-0.001227941497529,0.0012279742917144,-0.0012279681946417,0.0012279475656042,-0.0012344586099252,0.001234439443388,-0.0012344606050161,0.0012344375095236,-0.0012344339049335,0.0012344641336145,-0.001234431986416,0.0012344661284143,-0.00086474136764615,0.00086467102347549,0.76499783413612,128566,2924,0.0050387923646851,0.0063272036057416,0.0042087236678866,37.765466518887,6.2123732151094e-05,6.2123732151094e-05,6.2123732151094e-05,3295250.8097004,0.015698273064172
36191759,0.92931888766904,0.015744384097714,0.0052055455417883,0.0059834663013849,0.0045553722545412,-0.0012182812206394,0.0012182846640472,2.710230932026e-09,7.168719641124e-10,1.4120401895238e-09,2.1624351028567e-09,-0.00056286404823602,0.00056286644584302,-0.0011361055923901,0.00113611056643,-0.0011361063792704,0.0011361100434612,-0.00056286277741821,0.00056286746665103,-0.00056286489127824,0.0005628656029574,-0.0011361064763897,0.0011361099790851,-0.0011361071477526,0.0011361093032988,-0.0014193418405024,0.0014193456748893,-0.0014193424933035,0.0014193449944135,-0.0014193416438208,0.0014193459025486,-0.0014193422594754,0.0014193451998281,-0.0012494317255815,0.0012494373935558,-0.0012494337788814,0.0012494355301709,-0.0012494322163249,0.0012494372601619,-0.0012494339771251,0.0012494351174747,-0.00056286192164798,0.00056286813133301,1.2017417768489e-09,3.0413282542154e-10,-3.841930405481e-08,3.9853715727577e-08,-0.0015328336550252,0.0015328350953917,-0.001520004616577,0.0015200830652692,-0.0015497481853949,0.001549724661929,-0.0015497489225456,0.0015497236146751,-0.001479558100182,0.001479534125232,-0.0014795326350641,0.0014795600384593,-0.0014795583876316,0.0014795337874766,-0.0014795329112691,0.0014795597146663,-0.0015200823372428,0.0015200067250212,-0.0015200048532586,0.0015200827554421,-0.0015497221175498,0.001549750399391,-0.0015497228371321,0.0015497493835464,-0.0015200820660915,0.0015200070765898,1.9812312763997e-09,4.0162698982924e-09,-0.0010170363523226,0.0010170424242722,4.2565266388742e-08,-3.6098966607204e-08,-0.00086909439418941,0.00086902160160947,-0.00080394655135729,0.00080387663517356,-0.00080394725421661,0.00080387596741317,-0.00086901544457922,0.00086910062182269,-0.00086901729819981,0.00086909855108792,-0.00080386921268532,0.0008039541216789,-0.00080386978369152,0.00080395336646093,-0.0012348513165834,0.0012348827373795,-0.0012348776866538,0.001234856434224,-0.0012348506614186,0.0012348834304311,-0.0012348769718597,0.0012348570908272,-0.0012414523348497,0.0012414339514231,-0.0012414543671307,0.0012414319797347,-0.0012414280553238,0.0012414582163561,-0.001241426109746,0.0012414602353548,-0.00086909236367346,0.00086902359627852,0.74360849249076,128566,2924,0.0050663134727465,0.0063652685053833,0.0042301747757068,37.870028194352,6.2960225554816e-05,6.2960225554816e-05,6.2960225554816e-05,3289043.3665966,0.015786705091558
36391759,0.9341417111896,0.015823523746955,0.0052315936141586,0.0060150323503255,0.0045768977824709,-0.0012235549763765,0.0012235583587553,2.7004543184742e-09,6.6631361135596e-10,1.5177267972529e-09,1.9921436217034e-09,-0.00056341823077327,0.00056342022456334,-0.0011407943408918,0.0011407990034443,-0.0011407951526114,0.0011407984563234,-0.00056341665474292,0.00056342154679292,-0.0005634187719882,0.00056341970152449,-0.0011407949660338,0.0011407986768241,-0.0011407956391495,0.0011407980046179,-0.0014259416588734,0.0014259455341614,-0.0014259423256798,0.0014259448480553,-0.0014259415512471,0.0014259456769351,-0.0014259421831467,0.0014259449539706,-0.0012551297094462,0.0012551352808416,-0.0012551318275634,0.0012551333760729,-0.001255130133039,0.0012551352341351,-0.0012551319183173,0.0012551330617034,-0.00056341603382041,0.00056342197319279,1.0877488176085e-09,4.8670253621866e-10,-3.7690136354147e-08,3.9195009478483e-08,-0.0015403110913377,0.0015403125976311,-0.0015268600321537,0.0015269371038085,-0.0015576509106523,0.0015576276045196,-0.0015576513421883,0.001557626864592,-0.001486781316261,0.0014867577541215,-0.0014867562871889,0.0014867832068762,-0.0014867815036708,0.0014867575196882,-0.0014867564729408,0.0014867829789142,-0.0015269363105304,0.0015268622530604,-0.0015268601882518,0.001526936884446,-0.0015576252801362,0.0015576528875291,-0.0015576257248654,0.0015576521595996,-0.0015269361518773,0.0015268624975249,2.1626981171839e-09,4.1942239590944e-09,-0.0010209806834035,0.0010209871198579,4.2132984239441e-08,-3.5280525032136e-08,-0.0008723443698192,0.00087227321947638,-0.00080690599986996,0.00080683768855202,-0.00080690669257734,0.00080683703262841,-0.00087226666261317,0.00087235101133913,-0.00087226856150387,0.00087234889863528,-0.00080682989328053,0.00080691396316568,-0.0008068304790146,0.00080691319623042,-0.0012403442578338,0.0012403756196969,-0.0012403702141076,0.0012403497329262,-0.0012403436005102,0.0012403763157959,-0.0012403695044268,0.001240350382959,-0.001246956297172,0.0012469386762332,-0.0012469583121926,0.0012469367199949,-0.0012469324370525,0.0012469625215578,-0.0012469304803082,0.0012469645471776,-0.00087234236307099,0.00087227518102093,0.73413358659716,128566,2924,0.0050882164368344,0.0063961995072146,0.0042465671423065,37.543459450393,6.0347675603142e-05,6.0347675603142e-05,6.0347675603142e-05,3283982.3978583,0.015857047857367
36591759,0.9385681375778,0.015891902491205,0.0052542132141852,0.006042255567426,0.0045954337095942,-0.0012281117827766,0.0012281151513964,2.6975999482027e-09,6.558370373934e-10,1.5156082632079e-09,1.9794646475373e-09,-0.00056369425258636,0.00056369623196774,-0.001144547701058,0.0011445523333191,-0.0011445485105222,0.0011445517918221,-0.00056369264287081,0.0005636975731546,-0.00056369480131388,0.00056369568712139,-0.0011445483126136,0.0011445520304543,-0.001144548991431,0.0011445513418302,-0.0014317668500562,0.0014317707205941,-0.0014317675248306,0.00143177003248,-0.0014317667507981,0.0014317708586272,-0.0014317673805105,0.0014317701344598,-0.001259956579476,0.0012599621362584,-0.0012599587117642,0.0012599602459201,-0.0012599570064141,0.00125996211065,-0.0012599587970865,0.0012599599137933,-0.00056369205613051,0.00056369796522527,1.1005393249849e-09,4.9538453234258e-10,-3.7465248951362e-08,3.8985769981547e-08,-0.001546797065635,0.0015467985917132,-0.0015326660237377,0.0015327426676597,-0.0015645426473054,0.0015645195194692,-0.0015645430938695,0.0015645187725289,-0.0014931215952798,0.0014930981972841,-0.0014930967034198,0.0014931235042424,-0.001493121786486,0.0014930979596899,-0.0014930968868082,0.0014931232779154,-0.0015327418840932,0.0015326682582211,-0.0015326661726681,0.0015327424502578,-0.0015645171716013,0.0015645446504513,-0.00156451761029,0.0015645439288982,-0.0015327417121669,0.0015326685113405,2.2218733873308e-09,4.2829691281007e-09,-0.001024338804915,0.0010243453923141,4.1960118468063e-08,-3.4946039778807e-08,-0.00087486695358585,0.00087479642177352,-0.00080919478840413,0.00080912715651029,-0.000809195495253,0.0008091264834609,-0.0008747897235945,0.00087487371817422,-0.00087479162428296,0.00087487160710882,-0.00080911917843763,0.00080920291270522,-0.00080911976620684,0.00080920214535083,-0.0012451770515527,0.0012452083854193,-0.0012452028456795,0.0012451826617502,-0.0012451763868705,0.0012452090890275,-0.001245202122536,0.0012451833238876,-0.0012515608480046,0.0012515435856061,-0.001251562898767,0.0012515415920429,-0.0012515371954612,0.0012515672290054,-0.001251535214511,0.0012515692738842,-0.00087486490558227,0.00087479842905382,0.69114506788066,128566,2924,0.0051071412786569,0.0064230281477416,0.004260524352259,37.205289574711,5.7642316597689e-05,5.7642316597689e-05,5.7642316597689e-05,3281990.7223863,0.015917727740599
36791759,0.94263401385838,0.015952924915024,0.0052744476688498,0.0060665149341927,0.0046119623119811,-0.0012322131678762,0.0012322165743085,2.7265720799034e-09,6.6445776341849e-10,1.4121134770497e-09,2.1228536122205e-09,-0.00056439561814281,0.0005643978577163,-0.0011478347763939,0.001147839698568,-0.0011478355962526,0.0011478391517864,-0.00056439423423151,0.00056439897234,-0.00056439640507061,0.00056439707090976,-0.0011478356365213,0.0011478391557918,-0.0011478363128754,0.0011478384533534,-0.0014369726003684,0.0014369764337602,-0.0014369732819898,0.0014369757397503,-0.0014369724224713,0.0014369766552809,-0.0014369730573101,0.0014369759218918,-0.0012641802476544,0.001264185947927,-0.0012641824171038,0.0012641840512983,-0.001264180774249,0.001264185850199,-0.0012641825726293,0.0012641836244497,-0.00056439339832441,0.0005643996136618,1.2162191214583e-09,3.6381275129959e-10,-3.7660235762825e-08,3.9165941790657e-08,-0.0015524354008867,0.0015524369122332,-0.0015375285842427,0.0015376056614959,-0.0015705255985145,0.0015705025764051,-0.0015705262846402,0.0015705015872876,-0.0014987900268833,0.0014987665705685,-0.0014987650127703,0.0014987920041433,-0.0014987902965998,0.0014987662515025,-0.0014987652756281,0.0014987916953895,-0.0015376048847673,0.0015375307952729,-0.0015375288164109,0.0015376053593108,-0.001570500005809,0.0015705278323988,-0.0015705006867948,0.0015705268656329,-0.001537604630287,0.0015375311319808,2.1722442308355e-09,4.2500907099734e-09,-0.0010274292647951,0.0010274357696213,4.2108188461645e-08,-3.5182524489856e-08,-0.00087734103383177,0.00087727002420222,-0.00081137275873727,0.00081130466634396,-0.00081137346878766,0.00081130398818391,-0.0008772634093085,0.00087734771479337,-0.00087726532992189,0.00087734558635663,-0.00081129676643591,0.0008113808016041,-0.00081129736150402,0.00081138002781312,-0.0012494900214977,0.0012495213985393,-0.0012495159487533,0.0012494955432967,-0.0012494893516446,0.0012495221087508,-0.0012495152196807,0.0012494962101867,-0.0012555682477931,0.0012555507981594,-0.0012555703108712,0.0012555487867449,-0.0012555444942515,0.0012555745448853,-0.001255542493088,0.001255576604988,-0.00087733897417556,0.00087727204677233,0.67162364477168,128566,2924,0.0051241672149662,0.0064463515833724,0.0042733666608362,36.866636062456,5.493308849965e-05,5.493308849965e-05,5.493308849965e-05,3285778.4137325,0.015971783484748
36991759,0.94646089458264,0.016013726412587,0.0052945032305757,0.0060907058149487,0.0046285173670624,-0.0012370508172373,0.0012370543493286,2.7993802788982e-09,7.1602974163584e-10,1.1822356819526e-09,2.4857721075743e-09,-0.00056626210224125,0.00056626503317964,-0.0011521833575609,0.0011521890030777,-0.0011521841881151,0.0011521884511347,-0.00056626128402755,0.00056626558170906,-0.00056626346357925,0.00056626365217852,-0.0011521848056732,0.0011521878776008,-0.0011521854793646,0.0011521871599171,-0.0014427804531129,0.0014427842223197,-0.0014427811399297,0.0014427835199683,-0.001442780083323,0.0014427846414457,-0.0014427807235893,0.0014427838988719,-0.0012692135846919,0.0012692196290973,-0.0012692157872696,0.0012692177216308,-0.0012692143239415,0.001269219343846,-0.0012692161268378,0.0012692170834991,-0.00056625985276132,0.00056626680946856,1.4696479280881e-09,2.2014687878162e-11,-3.8660753859802e-08,4.0081307558273e-08,-0.0015587139665599,0.001558715393659,-0.0015430487980678,0.0015431278679339,-0.0015770928437035,0.0015770696896454,-0.0015770941073408,0.0015770681089545,-0.0015050937670722,0.0015050697939793,-0.0015050681371211,0.0015050958696225,-0.0015050942272352,0.0015050692767752,-0.0015050685909131,0.0015050953621211,-0.0015431271531936,0.0015430508961222,-0.0015430492275373,0.0015431273633499,-0.0015770666284666,0.0015770955852151,-0.001577067888414,0.0015770940249749,-0.0015431267018903,0.0015430514337814,1.971526510578e-09,4.0653008500407e-09,-0.0010313745049391,0.0010313806210622,4.2853676206533e-08,-3.6340216475979e-08,-0.00088108750499391,0.0008810142044309,-0.00081474232146116,0.00081467195509917,-0.00081474303387895,0.00081467127088303,-0.00088100798530852,0.00088109378806684,-0.00088100992388206,0.00088109164414752,-0.00081466444964444,0.00081474996100624,-0.00081466505040299,0.00081474918027323,-0.0012544498907208,0.0012544815152034,-0.0012544764544672,0.0012544550239544,-0.0012544492160825,0.001254482231784,-0.0012544757201504,0.0012544556958825,-0.0012604514832178,0.0012604330372375,-0.0012604535564666,0.0012604310069638,-0.0012604271182346,0.0012604573959405,-0.0012604250993918,0.0012604594718764,-0.00088108543866976,0.00088101624450927,0.71099418276823,128566,2924,0.0051442425003332,0.006472325719346,0.004289752591791,36.972924178553,5.5783393428422e-05,5.5783393428422e-05,5.5783393428422e-05,3290978.380595,0.016035230268017
37191759,0.95010172842261,0.016075072190887,0.0053146273188408,0.0061151596661784,0.0046452852058679,-0.0012421743146435,0.0012421779566409,2.8659719548917e-09,7.5807412110596e-10,1.0116009224921e-09,2.772950952546e-09,-0.00056804788541995,0.00056805135546849,-0.0011570554884979,0.001157061709709,-0.0011570563305745,0.0011570611513385,-0.0005680475026155,0.0005680514844648,-0.00056804969376446,0.00056804951704857,-0.0011570573903473,0.0011570601335283,-0.0011570580651547,0.0011570594011092,-0.0014488767513839,0.001448880487083,-0.0014488774452075,0.0014488797757529,-0.0014488762350795,0.0014488810591196,-0.0014488768812951,0.0014488803060352,-0.0012747209245785,0.001274727253848,-0.0012747231576429,0.0012747253274974,-0.0012747218246877,0.0012747268226425,-0.0012747236408339,0.0012747245288258,-0.00056804561651231,0.00056805316689771,1.6611003962878e-09,-2.4690880392905e-10,-3.9789770727111e-08,4.113702622391e-08,-0.0015654829917122,0.0015654843452814,-0.0015492490858728,0.0015493303814476,-0.0015841651253914,0.0015841416279412,-0.0015841668355249,0.0015841395875522,-0.0015117047099729,0.001511680097231,-0.001511678377804,0.0015117069058312,-0.0015117053174292,0.0015116794265711,-0.0015116789789264,0.0015117062442876,-0.0015493297243488,0.0015492510931031,-0.0015492496684763,0.0015493297195509,-0.0015841381974773,0.0015841682524944,-0.001584139903686,0.0015841662309655,-0.0015493291187259,0.0015492517863862,1.7690279484305e-09,3.8754069447721e-09,-0.001035579130713,0.0010355848498654,4.3718142603768e-08,-3.7624655571924e-08,-0.00088512795158786,0.00088505212476341,-0.00081845046001547,0.00081837757046871,-0.00081845117370462,0.00081837688138037,-0.00088504630761257,0.00088513383633318,-0.00088504825931032,0.00088513168263353,-0.00081837047009274,0.00081845769066531,-0.00081837107530658,0.00081845690552972,-0.0012597245533382,0.0012597565022697,-0.0012597518353694,0.0012597292927278,-0.0012597238748245,0.0012597572237685,-0.0012597510968688,0.0012597299688882,-0.0012658318210341,0.0012658122894831,-0.0012658339004356,0.001265810242348,-0.0012658067621634,0.0012658373426211,-0.0012658047280617,0.0012658394299496,-0.00088512588269115,0.00088505417986614,0.75399384283182,128566,2924,0.0051655102958502,0.0065003264169119,0.0043072158170065,37.296933354341,5.8375466834729e-05,5.8375466834729e-05,5.8375466834729e-05,3289265.3603968,0.016103048607207
37391759,0.95356118973894,0.016130889262549,0.0053329917958363,0.0061374013416319,0.0046604961250804,-0.0012468686022771,0.0012468722890784,2.8929459733098e-09,7.7520641528496e-10,9.5239454729445e-10,2.8799514131083e-09,-0.000568874167854,0.00056887784478146,-0.0011613024389923,0.0011613088739264,-0.0011613032871028,0.0011613083170245,-0.00056887395054127,0.00056887782460217,-0.00056887614044152,0.00056887583538634,-0.0011613045085543,0.0011613071388003,-0.0011613051798224,0.0011613063952467,-0.0014546446771137,0.0014546484068642,-0.0014546453744667,0.0014546476911456,-0.001454644110257,0.001454649034686,-0.0014546447564797,0.0014546482756304,-0.0012798259261196,0.0012798323639091,-0.0012798281753175,0.001279830436455,-0.0012798268931913,0.0012798318885806,-0.0012798287068257,0.0012798295708769,-0.00056887189735326,0.00056887966215845,1.7334266666523e-09,-3.432786387791e-10,-4.0605263867179e-08,4.1932885143613e-08,-0.0015719642079803,0.001571965538982,-0.0015552467315644,0.0015553296494805,-0.0015910015893262,0.0015909777063444,-0.0015910034633089,0.0015909754944026,-0.0015179271354407,0.0015179020239764,-0.0015179002850158,0.0015179293732931,-0.0015179277968524,0.0015179012965884,-0.0015179009394493,0.0015179286561442,-0.0015553289946132,0.0015552487055251,-0.0015552473714011,0.001555328931662,-0.0015909741414602,0.001591004864146,-0.0015909760085894,0.0015910026755663,-0.0015553283306884,0.0015552494587311,1.602414497286e-09,3.7361301180873e-09,-0.0010393198064308,0.0010393252160583,4.4375388827326e-08,-3.861083703269e-08,-0.00088830911867342,0.00088823132368955,-0.00082144412778045,0.00082136930817671,-0.00082144485147096,0.00082136860762482,-0.00088822583205835,0.000888314690234,-0.00088822781109618,0.00088831251185673,-0.00082136252654464,0.00082145105000642,-0.00082136314033389,0.00082145025722633,-0.0012647218688775,0.0012647540563922,-0.0012647496994547,0.0012647262976689,-0.00126472118182,0.0012647547864169,-0.0012647489518754,0.0012647269834754,-0.0012707695037211,0.0012707491561548,-0.001270771606379,0.0012707470769843,-0.0012707439305962,0.0012707747221921,-0.0012707418690288,0.0012707768339436,-0.00088830701948028,0.00088823341379071,0.72209467559179,128566,2924,0.0051850050166972,0.006527133216506,0.0043227556898031,37.626864670486,6.1014917363885e-05,6.1014917363885e-05,6.1014917363885e-05,3284069.468047,0.016165906884221
37591759,0.95684306990539,0.016181743246658,0.0053497790450661,0.0061576417659995,0.0046743224355928,-0.0012513044142997,0.0012513081008861,2.9033302802529e-09,7.6452725517303e-10,9.6203749217969e-10,2.8701333116916e-09,-0.00057000442988243,0.00057000806571461,-0.0011652110869378,0.0011652175099496,-0.0011652119465092,0.001165216949526,-0.00057000417939265,0.00057000809224857,-0.00057000637550415,0.00057000607036783,-0.001165213144521,0.0011652158008105,-0.0011652138137672,0.0011652150421103,-0.0014600519658778,0.0014600557099168,-0.001460052671515,0.0014600549883969,-0.0014600514096518,0.0014600563330311,-0.0014600520591566,0.0014600555632246,-0.0012845400092725,0.0012845464635405,-0.0012845422903223,0.0012845445251398,-0.0012845409863166,0.0012845460057517,-0.0012845428053708,0.0012845436534353,-0.00057000213591283,0.00057000990343932,1.7281731147917e-09,-3.3023092608365e-10,-4.1138553948474e-08,4.2474272966175e-08,-0.0015778994115714,0.0015779007497675,-0.0015605817413165,0.0015606657179975,-0.0015972439588668,0.0015972197133976,-0.0015972458139545,0.0015972175198363,-0.0015237610237883,0.0015237355576132,-0.0015237338274108,0.0015237632698923,-0.001523761678661,0.0015237348366689,-0.0015237344755197,0.0015237625589922,-0.0015606650428146,0.0015605837122973,-0.0015605823775477,0.0015606650048125,-0.0015972161659164,0.0015972472283466,-0.00159721801414,0.0015972450579826,-0.0015606643822118,0.0015605844610348,1.4757037863847e-09,3.6255056054726e-09,-0.0010428880443622,0.0010428932136786,4.4780107710584e-08,-3.9270395143315e-08,-0.00089137380946586,0.00089129470632467,-0.00082433266383186,0.0008242565510236,-0.00082433339146665,0.00082425584475141,-0.00089128946060462,0.00089137913923059,-0.00089129145734881,0.00089137694537615,-0.00082425001524013,0.00082433934144546,-0.00082425063552912,0.00082433854388807,-0.0012694199155759,0.0012694522206753,-0.0012694481048211,0.0012694241044099,-0.0012694192233069,0.0012694529563153,-0.0012694473513985,0.0012694247950674,-0.0012752883970084,0.0012752674878567,-0.0012752905104863,0.0012752653897295,-0.0012752625003021,0.0012752933805161,-0.0012752604184755,0.0012752955050073,-0.00089137169708887,0.00089129681250839,0.69345404130058,128566,2924,0.0052034202504826,0.0065516818022163,0.0043375779031512,37.95704331677,6.3656346534164e-05,6.3656346534164e-05,6.3656346534164e-05,3284475.4260883,0.016224645192447
37791759,0.95987931541868,0.016227166029641,0.0053648154587441,0.0061756987970475,0.0046866517738497,-0.0012545744635001,0.0012545780424798,2.848889857091e-09,7.1267673142094e-10,1.1429553673216e-09,2.5751722031098e-09,-0.00057062013280908,0.00057062320771206,-0.0011679052656506,0.0011679111006887,-0.0011679061223977,0.0011679105487564,-0.00057061941773838,0.00057062370382654,-0.00057062162397086,0.00057062166837127,-0.0011679068548826,0.0011679098730688,-0.0011679075235962,0.0011679091052166,-0.0014641679152572,0.0014641717116369,-0.0014641686259792,0.0014641709930027,-0.0014641675203535,0.0014641721771903,-0.0014641681638062,0.001464171406663,-0.0012879461789058,0.0012879523645848,-0.0012879484668606,0.0012879504484891,-0.0012879470107741,0.0012879520832553,-0.0012879488216021,0.0012879497178424,-0.00057061785663963,0.00057062502157493,1.5357283394946e-09,-5.2144366907737e-11,-4.0630288506576e-08,4.2049828515897e-08,-0.0015823533622554,0.00158235478214,-0.0015643869319805,0.0015644699168374,-0.0016019512087278,0.0016019268986341,-0.0016019526108237,0.0016019251708334,-0.0015282524974248,0.0015282272608142,-0.0015282256010069,0.0015282546627428,-0.0015282530023551,0.0015282266955312,-0.0015282260962384,0.0015282541119748,-0.0015644691725061,0.0015643889972958,-0.0015643874097786,0.0015644693665799,-0.0016019237345748,0.0016019540957951,-0.0016019251182737,0.0016019524029343,-0.0015644686602775,0.001564389594706,1.5255945472979e-09,3.7152324405815e-09,-0.001045416928661,0.0010454222389198,4.4418309859865e-08,-3.8759844807329e-08,-0.00089350637372598,0.00089342822097323,-0.00082622971826695,0.00082615462912242,-0.00082623046541923,0.0008261539044088,-0.00089342285086381,0.00089351183232884,-0.00089342487341393,0.00089350961607842,-0.00082614793886674,0.00082623656060376,-0.00082614856815757,0.0008262357571559,-0.0012728972747527,0.0012729294232571,-0.0012729251824808,0.0012729015908359,-0.0012728965713365,0.0012729301702898,-0.0012729244129615,0.0012729022955819,-0.0012784997085159,0.0012784792881374,-0.0012785018637796,0.0012784771438297,-0.0012784741587032,0.0012785048375654,-0.0012784720379213,0.0012785069914154,-0.00089350420000604,0.00089343038184683,0.66961884185747,128566,2924,0.0052169938221688,0.0065701027503838,0.0043480860666061,37.836215784609,6.2689726276869e-05,6.2689726276869e-05,6.2689726276869e-05,3287187.7355534,0.016267851155503
37991759,0.96267113227207,0.016270189059999,0.0053790170568668,0.0061928061251065,0.0046983658780256,-0.0012574320617428,0.0012574355562549,2.8285597717788e-09,6.4976678790888e-10,1.2723164737816e-09,2.3558382125244e-09,-0.00057139977654324,0.00057140235372263,-0.0011703485746935,0.0011703539968,-0.0011703494508092,0.0011703534231831,-0.00057139866783234,0.0005714032361978,-0.00057140090307733,0.00057140118301095,-0.0011703498284186,0.0011703531099766,-0.0011703505036625,0.0011703523333888,-0.0014677246700202,0.0014677285092841,-0.0014677253933611,0.0014677277799357,-0.0014677243845776,0.0014677288605299,-0.0014677250459995,0.0014677280755378,-0.0012909138853855,0.001290919912684,-0.0012909161885624,0.0012909179166067,-0.0012909145607918,0.0012909197099733,-0.001290916447237,0.0012909173479496,-0.00057139743124863,0.00057140423191895,1.3904339703731e-09,1.5872644631014e-10,-3.9924170118243e-08,4.140512449381e-08,-0.0015861849911607,0.0015861864727597,-0.0015675695544794,0.0015676511628628,-0.0016059831052753,0.0016059589433213,-0.0016059841543612,0.0016059575815922,-0.001532178248612,0.0015321533923291,-0.0015321517798272,0.0015321803498194,-0.0015321786372569,0.0015321529491749,-0.0015321521628366,0.0015321799161051,-0.0015676503741942,0.0015675717069825,-0.0015675699221826,0.0015676507251244,-0.0016059560654987,0.0016059857013966,-0.0016059571100317,0.0016059843606303,-0.0015676499834896,0.0015675721783776,1.6665754301923e-09,3.8507374375631e-09,-0.0010476496438819,0.0010476552340348,4.3876240549458e-08,-3.7920729629648e-08,-0.00089561550001667,0.00089553903628467,-0.00082803596952287,0.00082796252795142,-0.00082803670775796,0.00082796181219316,-0.00089553335366835,0.00089562126378815,-0.00089553539100683,0.00089561903718344,-0.00082795554189258,0.00082804310115015,-0.00082795617770775,0.00082804229438875,-0.0012758627440553,0.0012758947099841,-0.0012758901946906,0.0012758673365083,-0.0012758620398947,0.0012758954575308,-0.0012758894279152,0.0012758680366596,-0.0012813018372901,0.0012812821868717,-0.0012813039702236,0.0012812800476075,-0.0012812767956967,0.0012813072401322,-0.0012812746609916,0.0012813093852046,-0.00089561335464236,0.00089554116491279,0.68978258087698,128566,2924,0.0052288515107251,0.0065859502668164,0.0043573631934186,37.594154946249,6.075323956999e-05,6.075323956999e-05,6.075323956999e-05,3290461.2640741,0.016305444386775
38191759,0.96523945848794,0.016310124115648,0.0053921828777354,0.0062086890288096,0.0047092522091033,-0.0012599888341737,0.0012599922901891,2.8170349549423e-09,6.2344878480287e-10,1.324399557885e-09,2.2627020424764e-09,-0.00057176462878369,0.00057176701422856,-0.001172531146146,0.0011725363876784,-0.0011725320263945,0.0011725358106327,-0.00057176335998759,0.0005717680491572,-0.00057176561913988,0.0005717659852102,-0.0011725322558195,0.0011725356462861,-0.0011725329364782,0.0011725348633259,-0.001470973534501,0.0014709773891259,-0.0014709742653678,0.0014709766565278,-0.0014709732977085,0.0014709776925202,-0.0014709739638406,0.0014709769030633,-0.0012936370690358,0.0012936430232464,-0.0012936393858566,0.0012936410148595,-0.0012936376901187,0.0012936428669168,-0.0012936396007066,0.0012936404973223,-0.00057176227392813,0.000571768900585,1.3241520175942e-09,2.3714062163444e-10,-3.9335045192664e-08,4.0826622960928e-08,-0.0015897609407216,0.0015897624336073,-0.0015705972804613,0.0015706776994919,-0.0016097806202594,0.0016097567152022,-0.0016097815305773,0.0016097554985844,-0.001535762915591,0.0015357384043435,-0.0015357368191701,0.0015357649717597,-0.0015357632582523,0.0015357380097137,-0.0015357371551612,0.0015357645874396,-0.0015706769205648,0.0015705994592028,-0.0015705976007781,0.0015706773102234,-0.0016097539659585,0.0016097830810206,-0.0016097548687009,0.0016097818887326,-0.0015706765753284,0.0015705998844825,1.7847821990453e-09,3.9913646351053e-09,-0.0010496078413268,0.0010496136936837,4.3441233680587e-08,-3.7206695576505e-08,-0.00089739467427481,0.00089731959145271,-0.0008295634622413,0.00082949143787403,-0.00082956420854999,0.00082949071257298,-0.00089731364054934,0.000897400701776,-0.00089731569794695,0.00089739845701392,-0.0008294841648378,0.00082957087467377,-0.00082948480823102,0.00082957006256283,-0.0012785644840847,0.001278596321806,-0.0012785915575295,0.0012785693270385,-0.0012785637733116,0.0012785970765112,-0.0012785907822012,0.0012785700344008,-0.0012838670151881,0.0012838480461873,-0.0012838691675358,0.0012838458812989,-0.0012838424005844,0.0012838726777932,-0.0012838402395454,0.0012838748395731,-0.0008973925003972,0.00089732174726084,0.69607506771566,128566,2924,0.0052394652138662,0.006600738854197,0.0043655013074837,37.348711828728,5.8789694629826e-05,5.8789694629826e-05,5.8789694629826e-05,3289927.3840119,0.016339541982521
38391759,0.96761559174449,0.016348820554093,0.0054048879823534,0.0062240980446754,0.0047198345270646,-0.0012625701281302,0.0012625736029144,2.8327110447838e-09,6.2653765533706e-10,1.2877800042343e-09,2.3190300472239e-09,-0.00057223818218823,0.00057224067317075,-0.0011748913934289,0.0011748967482499,-0.0011748922772358,0.0011748961698942,-0.00057223698873573,0.00057224162019326,-0.00057223926785393,0.00057223954378915,-0.0011748925923667,0.0011748959160645,-0.0011748932778912,0.0011748951262907,-0.0014741785967764,0.001474182444651,-0.0014741793340465,0.0014741817087934,-0.0014741783321566,0.0014741827792382,-0.001474179001842,0.0014741819858536,-0.0012964523401432,0.0012964583535653,-0.0012964546647083,0.0012964563317263,-0.0012964529842577,0.0012964581639665,-0.0012964549142272,0.0012964557856252,-0.00057223581678073,0.00057224256127884,1.3521543546126e-09,1.6892832435565e-10,-3.9115037819209e-08,4.0566518987456e-08,-0.0015933457619169,0.0015933472163454,-0.0015736945737514,0.0015737745088547,-0.0016135720065006,0.0016135483158633,-0.0016135730116265,0.0016135470034675,-0.0015393147556506,0.0015392903927711,-0.0015392888083,0.0015393168008617,-0.0015393151292398,0.0015392899662491,-0.0015392891742734,0.0015393163859418,-0.0015737737844114,0.0015736967158305,-0.0015736949251246,0.0015737740876457,-0.0016135455098489,0.0016135745196331,-0.0016135465045951,0.0016135732347789,-0.0015737734040935,0.0015736971779656,1.8444374162647e-09,4.0755820717763e-09,-0.0010516215278049,0.0010516275265526,4.3292816317255e-08,-3.6901880612784e-08,-0.00089932607692626,0.00089925157085671,-0.00083126450359066,0.00083119309152384,-0.00083126525819853,0.00083119235508049,-0.00089924546937297,0.0008993322460627,-0.00089924755040938,0.00089932998374138,-0.00083118564868468,0.00083127207373915,-0.00083118630016108,0.00083127125542178,-0.001281262023183,0.0012812938482201,-0.0012812889504641,0.0012812670002732,-0.0012812613053245,0.001281294610777,-0.0012812881660602,0.0012812677160259,-0.001286541040919,0.0012865224053711,-0.0012865432145152,0.0012865202111782,-0.0012865166184501,0.0012865468492853,-0.001286514430899,0.0012865490301372,-0.00089932387549197,0.00089925375951012,0.72889799838979,128566,2924,0.0052501814030893,0.0066155635644046,0.0043738689474943,37.19786802153,5.7582944172241e-05,5.7582944172241e-05,5.7582944172241e-05,3287704.7077509,0.016374014147711
38591759,0.96983171668987,0.016385513435751,0.0054169156896126,0.0062387203395114,0.0047298774066267,-0.0012651999536711,0.0012652034836823,2.8740367090778e-09,6.3979886381918e-10,1.2002279383309e-09,2.4652993803256e-09,-0.00057241353386372,0.00057241628020369,-0.0011773240537357,0.0011773297074829,-0.0011773249501263,0.0011773291209737,-0.00057241253741195,0.00057241702855625,-0.00057241484770567,0.0005724149125921,-0.0011773254838209,0.0011773286461473,-0.0011773261780331,0.0011773278429224,-0.0014774670354837,0.001477470869992,-0.0014774677829376,0.0014774701263123,-0.001477466696523,0.0014774712830894,-0.0014774673743387,0.0014774704803099,-0.0012994102354607,0.0012994164074499,-0.0012994125885577,0.0012994143596102,-0.0012994109562697,0.0012994161405517,-0.0012994129150253,0.0012994137353098,-0.0005724111287828,0.00057241819821099,1.4484552548039e-09,3.4265581621767e-11,-3.9316213057738e-08,4.0731754286042e-08,-0.0015971128467684,0.0015971142645727,-0.0015770662319241,0.0015771465652743,-0.0016175844681112,0.0016175608470338,-0.0016175856999048,0.0016175593058023,-0.00154293263464,0.0015429081880942,-0.0015429065660394,0.0015429347196068,-0.0015429330823921,0.0015429076848144,-0.0015429070051005,0.0015429342272733,-0.0015771458771044,0.0015770683363047,-0.0015770666572803,0.0015771460632516,-0.0016175578534863,0.001617587172396,-0.0016175590696044,0.0016175856552408,-0.0015771454151222,0.0015770688743354,1.8410334638214e-09,4.0811779007357e-09,-0.0010536554989126,0.0010536615006343,4.3448110369727e-08,-3.7053281868703e-08,-0.00090112832140939,0.00090105351982364,-0.0008329407801892,0.00083286907374179,-0.00083294153415186,0.00083286833442953,-0.00090104741896367,0.00090113449583735,-0.00090104950018336,0.00090113223417737,-0.00083286162456623,0.00083294835587394,-0.00083286227654483,0.0008329475367467,-0.0012840731415855,0.001284105071241,-0.0012841001762482,0.0012840781173117,-0.0012840724210503,0.0012841058377266,-0.0012840993875988,0.0012840788363296,-0.0012893527938574,0.0012893340864556,-0.0012893549702532,0.0012893318780652,-0.0012893282995191,0.001289358605831,-0.0012893260984707,0.0012893607915497,-0.00090112612356823,0.00090105571462727,0.7409637123952,128566,2924,0.0052611046544044,0.0066311403834608,0.0043823216515453,37.193786624645,5.7550292997162e-05,5.7550292997162e-05,5.7550292997162e-05,3281474.9849096,0.016409551538027
38791759,0.97189868241592,0.016419834853735,0.0054281635075227,0.0062524002068328,0.0047392711393798,-0.0012676428138789,0.001267646382649,2.9013962613358e-09,6.5059039054251e-10,1.1463221415572e-09,2.5604073664007e-09,-0.00057237518735019,0.00057237810722441,-0.0011795707055137,0.0011795765527104,-0.0011795716089711,0.0011795759623143,-0.00057237432853228,0.00057237871887944,-0.00057237664673652,0.00057237659603414,-0.0011795722839427,0.0011795753433023,-0.0011795729803747,0.0011795745356643,-0.0014805509987256,0.0014805548284918,-0.0014805517522334,0.0014805540796304,-0.0014805506127363,0.0014805552922027,-0.0014805512956507,0.001480554482255,-0.0013021903726698,0.0013021966465858,-0.0013021927334828,0.0013021945732262,-0.0013021911310822,0.0013021963217729,-0.0013021931156417,0.0013021939109182,-0.00057237276857567,0.0005723800380203,1.5109499416929e-09,-5.5112973630604e-11,-3.9599954632863e-08,4.0992685149254e-08,-0.0016006888098498,0.0016006902025375,-0.0015802764736514,0.0015803573710348,-0.0016214140867983,0.0016213904099508,-0.0016214154629597,0.0016213887147556,-0.0015463333207475,0.0015463087186949,-0.0015463070750747,0.0015463354310934,-0.0015463338165826,0.0015463081647229,-0.0015463075633403,0.0015463348880595,-0.0015803566966308,0.0015802785543454,-0.0015802769534424,0.0015803568179815,-0.0016213872927623,0.0016214169128739,-0.0016213886581952,0.0016214152440354,-0.0015803561869208,0.0015802791464557,1.8033404592514e-09,4.0641311256574e-09,-0.0010555054172188,0.0010555113641524,4.3707179264074e-08,-3.7370277510626e-08,-0.00090264798501661,0.00090257253621692,-0.00083442944735888,0.00083435712580327,-0.00083443020899801,0.00083435637887851,-0.00090256649301851,0.00090265411117444,-0.00090256860197382,0.00090265182022984,-0.00083434972966576,0.00083443697942503,-0.00083435039112765,0.00083443615163528,-0.0012867125882052,0.0012867446515905,-0.0012867398182221,0.0012867175035519,-0.0012867118616441,0.0012867454254765,-0.0012867390230052,0.0012867182286193,-0.0012919854322314,0.0012919665110018,-0.0012919876234767,0.0012919642793356,-0.0012919607790338,0.0012919911892173,-0.001291958554112,0.0012919933943451,-0.00090264576353106,0.00090257475515723,0.74287813796884,128566,2924,0.0052712539847751,0.0066459254726715,0.0043900106533435,37.193616350826,5.754893080661e-05,5.754893080661e-05,5.754893080661e-05,3274299.6794822,0.016442723032055
38880000,0.97278245031057,0.016434530721366,0.0054329797476233,0.0062582571600008,0.0047432938137417,-0.0012686744292218,0.0012686780038276,2.9075642909656e-09,6.5013565437556e-10,1.143546696051e-09,2.569464980138e-09,-0.00057224537432393,0.00057224830434137,-0.0011805199767975,0.0011805258444027,-0.0011805208843358,0.0011805252529928,-0.00057224452154306,0.00057224891109403,-0.00057224684126871,0.00057224677891509,-0.0011805215687888,0.0011805246245974,-0.0011805222653293,0.0011805238136029,-0.001481870177798,0.0014818740120518,-0.0014818709343005,0.0014818732618715,-0.0014818697896661,0.001481874480503,-0.0014818704736344,0.0014818736670088,-0.0013033928463519,0.0013033991347749,-0.001303395207594,0.0013033970487314,-0.001303393600536,0.0013033988010294,-0.0013033955973832,0.001303396389569,-0.00057224294388469,0.00057225023969762,1.5159371712188e-09,-6.3205009189179e-11,-3.9766052357515e-08,4.1156113317754e-08,-0.0016022307651957,0.0016022321548512,-0.0015815752170142,0.0015816564403164,-0.0016230879931316,0.0016230642180372,-0.0016230893811923,0.0016230625095222,-0.0015478093558949,0.0015477846452002,-0.0015477830025344,0.00154781146851,-0.001547809855521,0.0015477840870288,-0.0015477834947193,0.0015478109211332,-0.0015816557668613,0.0015815772946087,-0.0015815757021494,0.0015816558820596,-0.0016230610920345,0.0016230908293391,-0.0016230624697001,0.0016230891470062,-0.0015816552528354,0.0015815778915787,1.7793338913164e-09,4.0498606749959e-09,-0.0010562565427531,0.0010562624513038,4.3860181024294e-08,-3.7563730901607e-08,-0.00090324033601513,0.00090316450030942,-0.00083506288839445,0.00083499018968311,-0.00083506365271589,0.00083498943938935,-0.00090315849622463,0.00090324642492658,-0.00090316061597931,0.00090324412412778,-0.00083498282970419,0.00083507038518621,-0.00083498349468601,0.00083506955382358,-0.0012878480561273,0.0012878801972957,-0.0012878754062603,0.0012878529309759,-0.0012878473269681,0.0012878809750539,-0.0012878746071812,0.001287853658679,-0.0012930978786413,0.0012930788307072,-0.0012931000738539,0.0012930765859199,-0.0012930731392734,0.0012931035984692,-0.0012930708997439,0.0012931058100542,-0.00090323810799001,0.00090316672830421,0.74369371398976,128566,2924,0.0052755410250272,0.0066522991597269,0.0043931340732939,37.193609201526,5.7548873612207e-05,5.7548873612207e-05,5.7548873612207e-05,3270264.0099703,0.016456739629511
