time,ASR_ext,ASR_strain,ASR_strain_xx,ASR_strain_yy,ASR_strain_zz,disp_x_101,disp_x_102,disp_x_103,disp_x_104,disp_x_105,disp_x_106,disp_x_p10_neg,disp_x_p10_pos,disp_x_p11_neg,disp_x_p11_pos,disp_x_p12_neg,disp_x_p12_pos,disp_x_p13_neg,disp_x_p13_pos,disp_x_p14_neg,disp_x_p14_pos,disp_x_p15_neg,disp_x_p15_pos,disp_x_p16_neg,disp_x_p16_pos,disp_x_p1_neg,disp_x_p1_pos,disp_x_p2_neg,disp_x_p2_pos,disp_x_p3_neg,disp_x_p3_pos,disp_x_p4_neg,disp_x_p4_pos,disp_x_p5_neg,disp_x_p5_pos,disp_x_p6_neg,disp_x_p6_pos,disp_x_p7_neg,disp_x_p7_pos,disp_x_p8_neg,disp_x_p8_pos,disp_x_p9_neg,disp_x_p9_pos,disp_y_101,disp_y_102,disp_y_103,disp_y_104,disp_y_105,disp_y_106,disp_y_p10_neg,disp_y_p10_pos,disp_y_p11_neg,disp_y_p11_pos,disp_y_p12_neg,disp_y_p12_pos,disp_y_p1_neg,disp_y_p1_pos,disp_y_p2_neg,disp_y_p2_pos,disp_y_p3_neg,disp_y_p3_pos,disp_y_p4_neg,disp_y_p4_pos,disp_y_p5_neg,disp_y_p5_pos,disp_y_p6_neg,disp_y_p6_pos,disp_y_p7_neg,disp_y_p7_pos,disp_y_p8_neg,disp_y_p8_pos,disp_y_p9_neg,disp_y_p9_pos,disp_z_101,disp_z_102,disp_z_103,disp_z_104,disp_z_105,disp_z_106,disp_z_p10_neg,disp_z_p10_pos,disp_z_p11_neg,disp_z_p11_pos,disp_z_p12_neg,disp_z_p12_pos,disp_z_p13_neg,disp_z_p13_pos,disp_z_p14_neg,disp_z_p14_pos,disp_z_p15_neg,disp_z_p15_pos,disp_z_p16_neg,disp_z_p16_pos,disp_z_p1_neg,disp_z_p1_pos,disp_z_p2_neg,disp_z_p2_pos,disp_z_p3_neg,disp_z_p3_pos,disp_z_p4_neg,disp_z_p4_pos,disp_z_p5_neg,disp_z_p5_pos,disp_z_p6_neg,disp_z_p6_pos,disp_z_p7_neg,disp_z_p7_pos,disp_z_p8_neg,disp_z_p8_pos,disp_z_p9_neg,disp_z_p9_pos,humidity,ndof,nelem,strain_xx,strain_yy,strain_zz,temp,thermal_strain_xx,thermal_strain_yy,thermal_strain_zz,vonmises,vstrain
14391759,0,0,0,0,0,0,0,0,0,0,0,0,0,0,0,0,0,0,0,0,0,0,0,0,0,0,0,0,0,0,0,0,0,0,0,0,0,0,0,0,0,0,0,0,0,0,0,0,0,0,0,0,0,0,0,0,0,0,0,0,0,0,0,0,0,0,0,0,0,0,0,0,0,0,0,0,0,0,0,0,0,0,0,0,0,0,0,0,0,0,0,0,0,0,0,0,0,0,0,0,0,0,0,0,0,0,0,0,0,0,0,0,0,0,0,0,0,0,0,0,0,0,0
14591759,0.019287766702143,0.00033909413479248,0.00011303137826416,0.00011303137826416,0.00011303137826416,-2.8681949114926e-05,2.8681958800443e-05,1.0250267042444e-11,-4.2325484191394e-13,-9.1425619114873e-12,1.9541666140513e-11,-2.3563684204727e-05,2.3563713535558e-05,-2.7401611276885e-05,2.7401654250203e-05,-2.740161961848e-05,2.7401655132898e-05,-2.3563701313989e-05,2.3563695858913e-05,-2.3563698259701e-05,2.3563668992976e-05,-2.7401641748799e-05,2.7401627326368e-05,-2.7401638877362e-05,2.7401616907118e-05,-3.0231270669794e-05,3.023127414785e-05,-3.0231270078899e-05,3.0231266908523e-05,-3.0231259150203e-05,3.0231280950145e-05,-3.0231262915167e-05,3.0231278101623e-05,-2.8137403150947e-05,2.8137433231245e-05,-2.813741279451e-05,2.8137421367589e-05,-2.8137418887281e-05,2.8137429405231e-05,-2.8137417944176e-05,2.8137406889862e-05,-2.3563662803964e-05,2.3563715987796e-05,9.27277722394e-12,-2.194274491972e-11,-1.2396775908761e-09,1.2280169994383e-09,-3.0400751875999e-05,3.0400740942374e-05,-2.93628340591e-05,2.9365253070083e-05,-2.9759630206617e-05,2.975882929506e-05,-2.9759659684543e-05,2.9758796366085e-05,-3.0560463607755e-05,3.0559653891061e-05,-3.0559671368715e-05,3.056048188949e-05,-3.0560473277064e-05,3.0559643553645e-05,-3.0559681008406e-05,3.0560471454758e-05,-2.936523526608e-05,2.9362791880027e-05,-2.9362846125909e-05,2.9365243804308e-05,-2.9758817009932e-05,2.9759651936451e-05,-2.9758847335664e-05,2.97596196576e-05,-2.936522404002e-05,2.9362801293251e-05,-4.1087436242239e-10,-4.0015296882563e-10,-2.840622882954e-05,2.8405413099433e-05,7.9617794780843e-10,-1.645552858068e-09,-2.6602623082614e-05,2.6599359915814e-05,-2.6768078077084e-05,2.6764836354991e-05,-2.6768082278745e-05,2.6764833915125e-05,-2.6600181300912e-05,2.6601788863709e-05,-2.6600194915536e-05,2.660178076164e-05,-2.6765672244104e-05,2.6767237930879e-05,-2.6765676481063e-05,2.6767236223606e-05,-2.9705954902753e-05,2.9705955221385e-05,-2.9706764536661e-05,2.9705144658076e-05,-2.9705951805539e-05,2.9705958853998e-05,-2.9706761422388e-05,2.9705148359371e-05,-2.8329304657245e-05,2.8327691054858e-05,-2.8329315730803e-05,2.8327680331567e-05,-2.8328497100897e-05,2.8328497447441e-05,-2.8328486833144e-05,2.8328508874637e-05,-2.6602608178418e-05,2.6599367294694e-05,0.70642003631697,128566,2924,0.00011950097815165,0.0001266616502859,0.00011835050404515,31.355015486993,1.0840123895946e-05,1.0840123895946e-05,1.0840123895946e-05,649152.1908591,0.00036457998093467
14791759,0.038360842341613,0.00066358346077037,0.00022047291152818,0.00022355488683843,0.00021955566240376,-5.3004036954268e-05,5.300984512205e-05,2.9571651531161e-09,2.8129723147572e-09,-5.4090956564767e-09,1.1458905492046e-08,-4.1436257967474e-05,4.1458812782871e-05,-4.9783891550294e-05,4.9806579538031e-05,-4.9783971219924e-05,4.9806564246068e-05,-4.14527855421e-05,4.1442015382146e-05,-4.1452898366527e-05,4.1441829280693e-05,-4.9800327877355e-05,4.9789740068145e-05,-4.9800371885661e-05,4.9789685425005e-05,-5.7292762435332e-05,5.7293041645492e-05,-5.7292794722028e-05,5.7292979353417e-05,-5.7287365064629e-05,5.7298660296803e-05,-5.7287410935511e-05,5.7298612595309e-05,-5.149791251057e-05,5.1509404752634e-05,-5.1498025259077e-05,5.1509234860454e-05,-5.1503508917952e-05,5.1503770380678e-05,-5.1503591605989e-05,5.1503565797261e-05,-4.1436074832963e-05,4.1458914017998e-05,5.4433678932279e-09,-1.1434861013533e-08,-6.6250079705302e-09,8.9605973553612e-10,-5.6894946629182e-05,5.6889192670606e-05,-5.4272227351467e-05,5.4279522074917e-05,-5.5258898499515e-05,5.5267121498942e-05,-5.5275319885674e-05,5.5250230736554e-05,-5.8122424082888e-05,5.8119782998748e-05,-5.812001607629e-05,5.8122311565251e-05,-5.8127809093676e-05,5.811414449352e-05,-5.8125400515854e-05,5.8116673300987e-05,-5.4285056176726e-05,5.4266353483027e-05,-5.4277812615171e-05,5.4273862671183e-05,-5.5256403911214e-05,5.5269611714327e-05,-5.5272826591758e-05,5.5252724086004e-05,-5.4279470585912e-05,5.4272014617416e-05,-1.4199218061509e-09,-1.2763413659123e-09,-5.2213160337779e-05,5.2210440441701e-05,2.2993630398153e-09,-5.1428120312754e-09,-4.7536250379954e-05,4.7525947757529e-05,-4.8258363114901e-05,4.8248253685078e-05,-4.825840290196e-05,4.8248198257275e-05,-4.7528767054927e-05,4.7533526850457e-05,-4.7528881576841e-05,4.7533358195813e-05,-4.8251068219353e-05,4.8255605714535e-05,-4.8251106545541e-05,4.8255551861048e-05,-5.5950596238662e-05,5.5950332789541e-05,-5.5953051959143e-05,5.5947849652273e-05,-5.5950560475027e-05,5.5950390588999e-05,-5.595301719133e-05,5.5947909433438e-05,-5.1937340892906e-05,5.1932321946684e-05,-5.1937425659909e-05,5.1932122336495e-05,-5.1934948652855e-05,5.1934633165268e-05,-5.1934855595969e-05,5.1934823559589e-05,-4.7536143885411e-05,4.7526129287715e-05,0.70581019204804,128566,2924,0.00022083772106697,0.00023702154705829,0.00021752509817317,31.086762626929,8.6941010154338e-06,8.6941010154338e-06,8.6941010154338e-06,1293287.7720336,0.00067561497907282
14991759,0.056217076376922,0.00095792774426213,0.0003176640485986,0.00032525536029941,0.00031500833536411,-7.391946501521e-05,7.3929059366558e-05,4.9184206331093e-09,4.6408737630142e-09,-7.8126758559886e-09,1.780293731568e-08,-5.4798651011005e-05,5.4833605298356e-05,-6.7478703089257e-05,6.7513963087441e-05,-6.7478813236939e-05,6.7513887876707e-05,-5.4823732913469e-05,5.4808321942942e-05,-5.4823944477689e-05,5.4807986861931e-05,-6.750376650659e-05,6.7488542930793e-05,-6.7503834740679e-05,6.7488425734702e-05,-8.1461525850091e-05,8.1462745034301e-05,-8.1461603034052e-05,8.1462638879491e-05,-8.1453358090806e-05,8.1471247703752e-05,-8.1453454946107e-05,8.1471161133408e-05,-7.2063114915437e-05,7.2081422003842e-05,-7.2063394326736e-05,7.2081156677952e-05,-7.207164079183e-05,7.207286643267e-05,-7.2071874347284e-05,7.2072555179555e-05,-5.47983510068e-05,5.4833852296935e-05,8.9662183432505e-09,-1.6713436327993e-08,-9.0567285133887e-09,1.5978888259131e-09,-8.0925674709863e-05,8.0918198508803e-05,-7.7538142968111e-05,7.7549722218532e-05,-7.9761896559993e-05,7.9776069004874e-05,-7.9786835362701e-05,7.9750311647673e-05,-8.2153831209133e-05,8.2151315269637e-05,-8.2150428299031e-05,8.215490075411e-05,-8.2162004316231e-05,8.2142717329987e-05,-8.2158601361862e-05,8.2146302637057e-05,-7.7556873715097e-05,7.7530453384029e-05,-7.7546607013642e-05,7.7541087881573e-05,-7.9758389606912e-05,7.9779634760049e-05,-7.9783330621042e-05,7.9753878539295e-05,-7.754841031025e-05,7.7539087466041e-05,-2.1865086627099e-09,-1.9099569007275e-09,-7.2460034018821e-05,7.2455921552474e-05,3.1262088282446e-09,-7.4155446567531e-09,-6.4489297359472e-05,6.447438033026e-05,-6.5041965363698e-05,6.5027423885249e-05,-6.5042056212748e-05,6.5027331471929e-05,-6.4478631054691e-05,6.4485158758211e-05,-6.4478801630911e-05,6.4484784558425e-05,-6.5031641679528e-05,6.5037837046286e-05,-6.5031697113421e-05,6.5037708905806e-05,-7.9005684343715e-05,7.9005032698532e-05,-7.9009172847958e-05,7.9001536325879e-05,-7.900560221425e-05,7.9005133783999e-05,-7.9009084147244e-05,7.9001630718839e-05,-7.3046827035552e-05,7.3039504591638e-05,-7.3047108713807e-05,7.3039243389014e-05,-7.3043551341302e-05,7.3042740913445e-05,-7.3043338855064e-05,7.3043072533151e-05,-6.4489024581583e-05,6.4474648245717e-05,0.70496389209213,128566,2924,0.00030797049803393,0.00033711649663743,0.00030186210281949,30.085406920024,6.8325536019109e-07,6.8325536019109e-07,6.8325536019109e-07,1446533.1366628,0.00094740342322516
15191759,0.072449613243736,0.0012062007938698,0.0003993055464946,0.00041244894358865,0.00039444630378653,-9.0973001487716e-05,9.0984262926885e-05,5.8300809861252e-09,5.4209110717922e-09,-9.5232672912323e-09,2.1250506432762e-08,-6.1909524785019e-05,6.1951150939952e-05,-7.9696786345755e-05,7.9738892823946e-05,-7.9696931309772e-05,7.9738771949438e-05,-6.1939544800694e-05,6.192096333265e-05,-6.1939903563911e-05,6.1920493459621e-05,-7.9726943113565e-05,7.9708400384073e-05,-7.9727066956079e-05,7.9708243035744e-05,-0.00010240332152656,0.00010240454497016,-0.00010240344635326,0.00010240439643486,-0.00010239350560152,0.00010241474417975,-0.0001023936488336,0.0001024146187107,-8.8815253556755e-05,8.8837080097518e-05,-8.8815685149331e-05,8.8836716783554e-05,-8.882550970459e-05,8.882681038277e-05,-8.8825894426698e-05,8.8826385307202e-05,-6.1909110019159e-05,6.1951516891755e-05,1.1511863000833e-08,-1.9366782172657e-08,-1.0146767028732e-08,2.5475324861607e-09,-0.00010175142054572,0.00010174382655603,-9.7888623548902e-05,9.7903798295018e-05,-0.00010185231132657,0.00010187083467609,-0.00010188231623024,0.00010183987659189,-0.00010241818034611,0.0001024165586743,-0.00010241414583935,0.00010242082644871,-0.00010242794870096,0.00010240622945392,-0.00010242391224302,0.00010241049971079,-9.7911033789076e-05,9.78807271955e-05,-9.7898793263085e-05,9.7893405475108e-05,-0.00010184813347803,0.00010187508927611,-0.00010187813466566,0.00010184413938376,-9.7900856575726e-05,9.7891126537677e-05,-2.6137292369425e-09,-2.202322887559e-09,-8.8773037851254e-05,8.8768214830227e-05,3.7665873346277e-09,-8.7992048621893e-09,-7.6257287142765e-05,7.6239497572647e-05,-7.6092914634445e-05,7.6075694690421e-05,-7.6093048579369e-05,7.6075548166121e-05,-7.6244455157167e-05,7.6252354592798e-05,-7.6244755401507e-05,7.6251866774298e-05,-7.6080565553958e-05,7.6088052022454e-05,-7.6080667556987e-05,7.6087885913314e-05,-9.8751254643344e-05,9.8750533330919e-05,-9.8755419750199e-05,9.8746375576813e-05,-9.8751118162136e-05,9.8750667626472e-05,-9.8755270912966e-05,9.8746502136246e-05,-9.060656130955e-05,9.059798866016e-05,-9.0607068193755e-05,9.059768276157e-05,-9.0602787278409e-05,9.0601811516015e-05,-9.0602422069722e-05,9.0602247425908e-05,-7.6256854396572e-05,7.6239891282929e-05,0.66036287100997,128566,2924,0.00037900698777015,0.00042385627995522,0.00036980876164759,28.683458497766,-1.0532332017873e-05,-1.0532332017873e-05,-1.0532332017873e-05,1567782.053558,0.0011733719669526
15391759,0.087162409888045,0.0014575598607532,0.00048185025633855,0.00050117725873975,0.00047453234567493,-0.00010789291455937,0.000107903562627,5.5953300203506e-09,5.0522202056867e-09,-7.8037191187339e-09,1.8857757672389e-08,-7.0499172339702e-05,7.0535928803489e-05,-9.3939516144511e-05,9.3976937746324e-05,-9.3939704324012e-05,9.3976767247401e-05,-7.0524984000743e-05,7.0509984542231e-05,-7.052547714506e-05,7.0509398900038e-05,-9.3965607090455e-05,9.3950517206348e-05,-9.3965780001946e-05,9.3950324139426e-05,-0.00012220715166212,0.00012220916705413,-0.00012220732298233,0.00012220897663332,-0.00012219866661704,0.00012221800754867,-0.00012219885567529,0.00012221783745556,-0.00010624821644173,0.00010626821681979,-0.00010624877942296,0.00010626771863336,-0.00010625711119296,0.00010625931252057,-0.00010625762597002,0.0001062587593945,-7.0498623885248e-05,7.0536434112034e-05,9.5696322421201e-09,-1.718388991079e-08,-9.6514437825101e-09,2.2684803559014e-09,-0.00012236684781933,0.0001223594722265,-0.00011851418193943,0.0001185274419524,-0.00012365031357008,0.00012366521841965,-0.00012367630757465,0.00012363842865431,-0.0001221100953966,0.00012210757989475,-0.00012210631307561,0.00012211158817203,-0.00012211851520058,0.00012209863928643,-0.00012211473205005,0.00012210264863805,-0.00011853448777703,0.00011850652371747,-0.00011852299888003,0.00011851842477598,-0.00012364638427735,0.00012366921653287,-0.00012367237701145,0.00012364243137641,-0.00011852566776444,0.00011851554434386,-2.6843909223909e-09,-2.1404191659962e-09,-0.00010483032938432,0.00010482549884179,3.3818168870837e-09,-8.4126415536674e-09,-9.0066005434764e-05,9.0048855779406e-05,-8.8651474987368e-05,8.8635058268561e-05,-8.865164307898e-05,8.8634861881356e-05,-9.0053793910033e-05,9.0061061637145e-05,-9.005425830806e-05,9.0060467959075e-05,-8.8639873221686e-05,8.8646636614259e-05,-8.8640025768934e-05,8.8646429438353e-05,-0.00011737158004327,0.00011737055061103,-0.00011737548912224,0.00011736665001464,-0.00011737138924903,0.00011737072025467,-0.0001173752896951,0.00011736681350276,-0.00010852152551388,0.00010851332444605,-0.00010852215778666,0.00010851288726913,-0.00010851814224969,0.00010851676858525,-0.00010851762681721,0.00010851731723307,-9.0065449982023e-05,9.0049374634744e-05,0.73442855710777,128566,2924,0.00044947824443837,0.00050971414900295,0.00043668804588266,27.270664915706,-2.1834680674354e-05,-2.1834680674354e-05,-2.1834680674354e-05,1407615.8075993,0.0013968712300666
15591759,0.10066387478891,0.0016942768015971,0.00055962248150111,0.0005850302342081,0.00054962408588789,-0.00012343399231827,0.00012344418220607,5.4356391539697e-09,4.7589574028699e-09,-5.826605515168e-09,1.6380858268881e-08,-7.918404517701e-05,7.9215794609084e-05,-0.00010734852893064,0.00010738111370699,-0.00010734876143745,0.00010738089691481,-7.9205338637908e-05,7.9194396128705e-05,-7.920596713566e-05,7.9193688080202e-05,-0.00010737023570071,0.00010735909511923,-0.00010737045587401,0.00010735886216082,-0.00014022822214828,0.00014023130020981,-0.00014022843976862,0.00014023106760182,-0.00014022119207128,0.00014023866354651,-0.00014022142638944,0.00014023844917329,-0.00012229592686065,0.0001223141213018,-0.00012229662057209,0.00012231349091786,-0.0001223033361403,0.00012230670387901,-0.00012230398343391,0.00012230602297478,-7.9183365169158e-05,7.9216434396316e-05,7.4138438656884e-09,-1.4874620650652e-08,-9.0279657844012e-09,1.7818920880669e-09,-0.00014116583915402,0.00014115860236226,-0.00013728223813002,0.00013729305864157,-0.00014338296947236,0.00014339398261247,-0.00014340460461919,0.00014337164100189,-0.00014017554368378,0.00014017205720015,-0.00014017212482561,0.00014017569518655,-0.00014018250789507,0.00014016461119165,-0.00014017908877479,0.00014016824962973,-0.00013729998250912,0.00013727473069767,-0.00013728957919273,0.00013728553336469,-0.00014337940514765,0.00014339761185059,-0.00014340104049035,0.00014337527325,-0.00013729264051392,0.00013728225787242,-2.7777530105595e-09,-2.1008259204765e-09,-0.00011939917904745,0.00011939429569744,2.8037660762485e-09,-7.8820530408557e-09,-0.0001027244494569,0.0001027082139498,-0.00010047693847896,0.00010046160783912,-0.00010047714931107,0.000100461367446,-0.00010271318926433,0.00010271944969439,-0.00010271380521425,0.00010271874174775,-0.00010046642716113,0.00010047209001113,-0.00010046662672153,0.00010047184004013,-0.00013422023637086,0.00013421874081984,-0.00013422377710033,0.00013421520871884,-0.00013421999644891,0.00013421895044703,-0.00013422353147715,0.00013421541412387,-0.00012483176163421,0.00012482400580179,-0.00012483251747365,0.00012482343358579,-0.0001248288833836,0.00012482695626133,-0.00012482822129044,0.00012482762049732,-0.00010272376353847,0.00010270885747953,0.74589761236707,128566,2924,0.00051420289057608,0.00058800043524469,0.00049736416878098,26.025541802529,-3.1795665579766e-05,-3.1795665579766e-05,-3.1795665579766e-05,1452627.1883156,0.00160086736159
15791759,0.11384334732693,0.0019380716083209,0.00063963311666147,0.0006717185579028,0.00062671993375664,-0.00014072491482585,0.00014073469668366,5.2986506924063e-09,4.4900051897948e-09,-3.6197335644552e-09,1.3739440970127e-08,-9.0410429375699e-05,9.0436866650919e-05,-0.00012357237735262,0.00012359980111631,-0.00012357264919175,0.00012359954398709,-9.0426845869289e-05,9.0420405516087e-05,-9.0427615286221e-05,9.04195579755e-05,-0.00012358933269461,0.00012358260424174,-0.00012358959962921,0.00012358232421634,-0.00015968434503905,0.00015968865960931,-0.00015968460971082,0.00015968838339263,-0.0001596788924786,0.00015969440675346,-0.00015967917008236,0.00015969415029903,-0.00014037996430691,0.00014039626755858,-0.00014038078483219,0.00014039551303477,-0.0001403857643514,0.00014039047359936,-0.00014038654635904,0.00014038966041589,-9.0409636012242e-05,9.0437626311858e-05,5.324068450834e-09,-1.2114998957708e-08,-8.0336276450429e-09,1.4196117310199e-09,-0.00016176031582757,0.00016175371122985,-0.00015792175191097,0.00015793024834839,-0.00016462606279222,0.00016463340657411,-0.00016464294130652,0.00016461586162888,-0.00016004288530255,0.00016003887661131,-0.00016003990839303,0.00016004206203265,-0.00016004828523579,0.00016003304233251,-0.00016004530529772,0.00016003623095398,-0.00015793654380938,0.00015791487548394,-0.00015792747043015,0.00015792435036911,-0.00016462295486678,0.00016463658137153,-0.0001646398231368,0.0001646190473594,-0.00015793081835144,0.00015792078384274,-2.872557966159e-09,-2.0607308634483e-09,-0.00013558099975488,0.00013557606160534,2.0996081329376e-09,-7.2313720334154e-09,-0.00011806115055626,0.00011804604886665,-0.00011489278588186,0.0001148787810674,-0.000114893053916,0.0001148784996734,-0.00011805109457392,0.00011805609210332,-0.00011805181563013,0.00011805525338144,-0.00011488363450213,0.00011488794274932,-0.00011488386102766,0.00011488764011764,-0.00015235410460864,0.00015235206106519,-0.0001523571994178,0.00015234898184682,-0.00015235382000572,0.00015235231316404,-0.00015235690391178,0.00015234923008625,-0.00014305606422701,0.00014304884255945,-0.00014305696613129,0.00014304814337173,-0.00014305377450377,0.00014305121405226,-0.00014305298271989,0.00014305200501416,-0.00011806030102012,0.0001180468190118,0.78512882089594,128566,2924,0.00058621073747787,0.00067375792191925,0.00056475385639386,25.604174790044,-3.5166601679649e-05,-3.5166601679649e-05,-3.5166601679649e-05,1514158.6814083,0.0018264105163036
15991759,0.12672286469965,0.0021744957043597,0.00071694557269104,0.00075656705252221,0.00070098307914642,-0.00015752154678892,0.00015753105500738,5.2284144926438e-09,4.2856139542572e-09,-1.8883148956658e-09,1.1719276340498e-08,-0.00010022459390125,0.00010024692252296,-0.00013937058697255,0.00013939408064079,-0.00013937090565139,0.00013939377687766,-0.00010023720934693,0.0001002343114478,-0.00010023810540455,0.00010023333646675,-0.0001393838773345,0.00013938062221477,-0.00013938418578496,0.00013938029678547,-0.00017875943397534,0.00017876475326855,-0.00017875974416793,0.00017876443458179,-0.00017875519542891,0.00017876924936438,-0.00017875551894928,0.00017876894788876,-0.00015795204187726,0.00015796695793088,-0.00015795299800704,0.00015796607226056,-0.00015795660239323,0.00015796241353077,-0.000157957515287,0.00015796147350895,-0.00010022366675354,0.00010024782094572,3.8172457176312e-09,-9.8842515996191e-09,-6.9554158311002e-09,1.0288705699236e-09,-0.00018209701478763,0.0001820910997311,-0.00017806902100339,0.00017807551098181,-0.00018548072600556,0.00018548558573021,-0.00018549392194788,0.00018547173398277,-0.00017964358843779,0.00017963951927353,-0.0001796410851348,0.00017964221672003,-0.00017964778801464,0.00017963492504442,-0.0001796452829492,0.00017963762431812,-0.00017808112092725,0.0001780628330592,-0.00017807348925354,0.00017807086141938,-0.00018547810427571,0.00018548827448539,-0.00018549129625365,0.0001854744289565,-0.00017807664885538,0.00017806748822453,-2.9289155584742e-09,-1.9844707978156e-09,-0.00015121495064339,0.00015121003260703,1.3781851479222e-09,-6.486272573175e-09,-0.00013284225380618,0.00013282849398844,-0.00012878440976753,0.00012877191068304,-0.00012878472842751,0.00012877159508838,-0.00013283351408167,0.00013283723171725,-0.00013283435186853,0.00013283623481242,-0.00012877671734897,0.00012877964667251,-0.00012877697597225,0.00012877928255618,-0.00016998223108605,0.00016997967562851,-0.00016998484009167,0.00016997708795164,-0.00016998190193114,0.00016997997336245,-0.00016998449805289,0.0001699773766229,-0.00016078760387477,0.00016078101738269,-0.00016078863828584,0.00016078019613924,-0.00016078593552428,0.00016078277404123,-0.00016078501499054,0.00016078369997183,-0.00013284126507139,0.00013282937017933,0.77894718071048,128566,2924,0.00065615618521118,0.00075843489279487,0.00062985804579809,25.204128757712,-3.8366969938305e-05,-3.8366969938305e-05,-3.8366969938305e-05,1604101.0593262,0.0020465654509469
16191759,0.13929799641818,0.0024027890228723,0.00079146126805924,0.00083923695141547,0.00077209080339758,-0.00017374178897863,0.00017375116397732,5.2272867366769e-09,4.1511330692857e-09,-5.3756765497861e-10,1.0228363778772e-08,-0.00010879130964747,0.0001088105774724,-0.00015461622574212,0.0001546368312274,-0.0001546165887053,0.00015463648308986,-0.00010880102014601,0.00010880091119711,-0.00010880204875091,0.00010879980701991,-0.00015462674360653,0.00015462620883185,-0.00015462709570592,0.00015462583784024,-0.00019735831529734,0.00019736447826736,-0.000197358671431,0.00019736411657309,-0.00019735499336593,0.00019736802452055,-0.00019735536159475,0.00019736767884344,-0.00017485247441463,0.00017486644299601,-0.000174853562569,0.00017486542830607,-0.00017485609566137,0.00017486284616008,-0.00017485714184613,0.00017486177829183,-0.00010879025487559,0.00010881160888114,2.7622261468211e-09,-8.1114088855706e-09,-5.8825309036012e-09,6.4278642026462e-10,-0.00020201621365344,0.00020201098715182,-0.00019773025064691,0.00019773504664998,-0.00020582703790962,0.00020583030596051,-0.00020583744529982,0.00020581924032753,-0.0001988300655235,0.00019882623164771,-0.00019882803459246,0.00019882844247418,-0.0001988333550335,0.00019882257324551,-0.00019883132229511,0.00019882478588269,-0.00019773997778193,0.00019772475326771,-0.00019773377051142,0.0001977313431502,-0.00020582490052081,0.00020583250875281,-0.0002058353041513,0.00020582144922741,-0.00019773645412059,0.00019772846222378,-2.9351131044206e-09,-1.8572106740595e-09,-0.00016618684516461,0.00016618204892444,7.1614371674865e-10,-5.6948302239986e-09,-0.00014684657400526,0.00014683424168513,-0.00014180073666863,0.00014178983788001,-0.00014180110633598,0.00014178948392319,-0.00014683914315844,0.00014684168667601,-0.00014684009069449,0.00014684053850892,-0.00014179448913455,0.00014179615693838,-0.00014179477964282,0.00014179573603026,-0.00018702846602719,0.00018702550374271,-0.0001870305942742,0.00018702340199389,-0.00018702809369529,0.00018702584731001,-0.00018703020523526,0.00018702373267851,-0.00017790360273121,0.00017789775157047,-0.0001779047720719,0.00017789680385039,-0.00017790255101333,0.00017789889414664,-0.00017790150490854,0.00017789995568758,-0.00014684544031216,0.00014683523444936,0.77198524356733,128566,2924,0.00072369788864514,0.00084136655042865,0.00069220182429025,24.804949746529,-4.1560402027771e-05,-4.1560402027771e-05,-4.1560402027771e-05,1702866.4430192,0.002259844271084
16391759,0.15160604981306,0.0026265150459027,0.00086431118552816,0.00092094707699693,0.00084125678337766,-0.00018965957694777,0.00018966903019073,5.3312067823511e-09,4.1214669388634e-09,3.0847892184245e-10,9.4651543954789e-09,-0.00011673730070326,0.00011675493884268,-0.00016958065734072,0.00016959980946195,-0.00016958106469014,0.00016959941569254,-0.00011674531923625,0.0001167469960402,-0.00011674647884166,0.00011674576404856,-0.00016958961134925,0.00016959079989698,-0.00016959000710199,0.00016959038450253,-0.00021569053675697,0.00021569734604644,-0.00021569093850861,0.00021569694128168,-0.00021568772992461,0.00021570035265412,-0.00021568814298531,0.0002156999623188,-0.00019148618967698,0.00019149982815354,-0.00019148741055542,0.0001914986834396,-0.00019148927960872,0.00019149676812447,-0.00019149045843417,0.0001914955724943,-0.00011673611701937,0.00011675610553792,2.2658791306244e-09,-7.0154740715019e-09,-4.9327608074551e-09,2.705398239882e-10,-0.00022178679165232,0.00022178214367921,-0.00021728713651119,0.00021729067583763,-0.00022607224945455,0.00022607498380341,-0.00022608107595759,0.00022606547480907,-0.00021780311480429,0.00021779976911559,-0.00021780151058483,0.00021780153932325,-0.00021780589503295,0.00021779663355353,-0.00021780428938406,0.00021779840513628,-0.00021729503283801,0.00021728221812712,-0.00021729011727247,0.00021728750403209,-0.0002260705500937,0.00022607674726207,-0.00022607937422549,0.00022606724297758,-0.00021729204957432,0.00021728539404358,-2.9295001005417e-09,-1.7183767218231e-09,-0.0001807671008475,0.00018076244937114,1.3376427643256e-10,-4.9603553962631e-09,-0.00016045445787147,0.00016044344412616,-0.00015432956353676,0.00015432015285771,-0.00015432998256827,0.00015431976039,-0.00016044820376321,0.0001604497321471,-0.00016044926326198,0.00016044843198989,-0.00015432462609416,0.00015432518997502,-0.00015432494840795,0.00015432471110579,-0.00020372180502783,0.00020371850433744,-0.00020372349721221,0.00020371684254339,-0.00020372139001494,0.00020371889450266,-0.00020372306215414,0.00020371721563998,-0.00019474380584549,0.00019473866694046,-0.00019474510531184,0.00019473758966383,-0.00019474332274731,0.00019473923902517,-0.00019474215199475,0.00019474043789583,-0.00016045318487148,0.00016044455507395,0.77561769740414,128566,2924,0.00078997706537427,0.00092367242209363,0.00075291149703269,24.447657806369,-4.4418737549044e-05,-4.4418737549044e-05,-4.4418737549044e-05,1799924.496876,0.002469637621919
16591759,0.16374335944281,0.0028543449962465,0.00093826218411571,0.0010048327280264,0.00091125008410431,-0.00020589765063054,0.00020590738296902,5.5343795292029e-09,4.1915493083326e-09,1.0892917602006e-09,8.9769559923624e-09,-0.00012488649236113,0.00012490304918752,-0.00018522890587048,0.00018524714632628,-0.0001852293554864,0.00018524670819448,-0.00012489317216178,0.00012489649176295,-0.0001248944576403,0.00012489512989436,-0.00018523663366961,0.00018523941627249,-0.00018523707048643,0.00018523895647551,-0.00023425855171267,0.00023426609513494,-0.00023425899896254,0.00023426564651047,-0.00023425615124254,0.00023426867529218,-0.00023425660868563,0.00023426824086853,-0.00020868725290066,0.00020870087209679,-0.00020868860230271,0.00020869959517594,-0.0002086899233079,0.00020869823552905,-0.00020869123288643,0.00020869690773477,-0.00012488518760594,0.00012490435170419,1.8985698512443e-09,-6.1312210763165e-09,-4.0686999056872e-09,-9.0814596801405e-11,-0.00024210040703029,0.00024209625695712,-0.00023756527501106,0.00023756769486317,-0.00024691971834617,0.00024692214556774,-0.00024692729615373,0.00024691384885004,-0.00023717233508264,0.00023716947661206,-0.00023717112659305,0.00023717083803784,-0.0002371747206056,0.00023716674766686,-0.00023717350995647,0.00023716811119471,-0.00023757154361203,0.00023756086038774,-0.00023756782774283,0.00023756494207523,-0.00024691843092282,0.00024692350125149,-0.00024692599891377,0.00024691521070291,-0.00023756898972106,0.00023756361971541,-2.9443715132769e-09,-1.5994477396423e-09,-0.00019555615288931,0.00019555160432495,-4.232941220708e-10,-4.2955636251844e-09,-0.00017469788082062,0.00017468804504031,-0.00016728874923179,0.00016728068954384,-0.00016728922006236,0.00016728025761236,-0.00017469272734633,0.00017469329001211,-0.00017469388521192,0.00017469183951309,-0.00016728504385432,0.00016728455111625,-0.00016728539267674,0.00016728401516349,-0.00022055110464961,0.00022054745539145,-0.00022055239359947,0.00022054620266533,-0.00022055064782357,0.00022054789222118,-0.00022055191166585,0.00022054661899806,-0.00021209919386064,0.00021209469947857,-0.00021210062356486,0.00021209348653967,-0.00021209924593013,0.00021209472804187,-0.00021209795447222,0.00021209606646763,-0.00017469646381394,0.0001746892818914,0.80315412511754,128566,2924,0.00085758666123316,0.0010082317610025,0.00081448710318821,24.193121894355,-4.645502484516e-05,-4.645502484516e-05,-4.645502484516e-05,1887673.9038229,0.0026839360190429
16791759,0.1757099473464,0.0030792930796684,0.0010110760000075,0.0010884139465382,0.00097980313312264,-0.00022189748336946,0.0002219075015291,5.742150189154e-09,4.2657678207653e-09,1.6922877393962e-09,8.6730261762023e-09,-0.00013223046523921,0.00013224630151118,-0.00020047693775982,0.00020049463127837,-0.00020047743242652,0.00020049414839648,-0.00013223613793174,0.00013224076255194,-0.00013223755971863,0.00013223927023799,-0.00020048378485046,0.00020048780983511,-0.00020048426726811,0.00020048730392793,-0.00025268227769005,0.00025269044261721,-0.00025268276990443,0.00025268995013984,-0.00025268016504008,0.00025269271685129,-0.0002526806668464,0.00025269223758904,-0.00022570850167657,0.00022572222989855,-0.00022570998221257,0.00022572082292913,-0.00022571087225386,0.000225719896585,-0.00022571231360769,0.00022571844021764,-0.00013222902986468,0.00013224773483262,1.6668470697456e-09,-5.4744166114921e-09,-3.3150908377505e-09,-4.3384178346073e-10,-0.00026241387674962,0.00026241013922935,-0.00025794360933546,0.00025794505832217,-0.00026788496086601,0.0002678872988068,-0.00026789164490576,0.00026787985947255,-0.00025642739714217,0.00025642502363558,-0.00025642654147668,0.00025642602024465,-0.00025642950563487,0.00025642258243788,-0.00025642864811539,0.00025642358077356,-0.00025794849879861,0.00025793960032899,-0.00025794585606437,0.00025794260146127,-0.00026788403471035,0.00026788828929881,-0.00026789071390356,0.00026788085524132,-0.00025794625002477,0.000257942062343,-2.9569693987306e-09,-1.4788399382937e-09,-0.00021000677654996,0.00021000233592208,-9.1362704273872e-10,-3.6925581133163e-09,-0.00018849412773506,0.00018848535083409,-0.00017966777108673,0.00017966094136334,-0.00017966829114557,0.00017966047056637,-0.00018848991793617,0.00018848964941016,-0.00018849119665116,0.00018848805166205,-0.00017966515004105,0.00017966373629355,-0.00017966553262372,0.00017966314256664,-0.00023714841883347,0.00023714446924156,-0.00023714934469883,0.00023714358080071,-0.00023714791901611,0.00023714495237586,-0.00023714881704416,0.00023714403975168,-0.00022926782893066,0.00022926393520911,-0.00022926938593126,0.00022926259103701,-0.00022926837467173,0.00022926346832462,-0.00022926695696625,0.00022926494213008,-0.00018849257358025,0.00018848670688635,0.80668160433771,128566,2924,0.00092420111746871,0.0010927831803949,0.00087465048743746,23.941249256061,-4.8470005951514e-05,-4.8470005951514e-05,-4.8470005951514e-05,1975125.2107734,0.0028958584918904
16991759,0.18750291434457,0.0032961527479154,0.0010812468724863,0.0011695196052071,0.0010453862702221,-0.00023739239561702,0.00023740260859184,5.9049996094293e-09,4.2952044951606e-09,2.1543486294223e-09,8.4140966117198e-09,-0.00013860637195993,0.00013862157281454,-0.00021483304580355,0.00021485027896459,-0.00021483358415286,0.00021484975075582,-0.00013861121916203,0.00013861687458188,-0.00013861277325946,0.000138615253122,-0.00021483919508958,0.00021484418285034,-0.00021483972172806,0.000214843632187,-0.00027075284457552,0.00027076147978363,-0.00027075338195434,0.00027076094354377,-0.00027075096009164,0.00027076351117954,-0.00027075150626211,0.00027076298726247,-0.00024210211081053,0.00024211592103073,-0.00024210372207199,0.00024211438339769,-0.00024210424284549,0.00024211382863642,-0.00024210581592174,0.00024211224282609,-0.00013860480847844,0.00013862313917997,1.5091306511828e-09,-4.9244724405267e-09,-2.6264810563949e-09,-7.4159879545997e-10,-0.00028232650411441,0.0002823231477973,-0.00027789322126983,0.00027789383162365,-0.00028850706248451,0.00028850942543896,-0.00028851303943047,0.00028850267118389,-0.00027525770439159,0.00027525580762227,-0.00027525717012834,0.00027525647209116,-0.00027525958989504,0.00027525359666859,-0.00027525905382821,0.00027525426279407,-0.00027789689307741,0.00027788959219487,-0.00027789522456649,0.00027789161081066,-0.00028850646641349,0.00028851008463722,-0.0002885124388858,0.00028850333547839,-0.0002778948878419,0.00027789181799589,-2.9530564777691e-09,-1.3415359987581e-09,-0.0002238633417689,0.0002238590421662,-1.3362523083699e-09,-3.1229537978983e-09,-0.00020128009478794,0.00020127231118172,-0.0001910803377825,0.00019107467308839,-0.00019108090582893,0.00019107416145601,-0.00020127673914147,0.00020127576962651,-0.00020127813769314,0.00020127403012159,-0.00019107870578094,0.00019107650211552,-0.00019107912189958,0.00019107585294926,-0.00025332676422083,0.00025332258057628,-0.00025332736090435,0.00025332202249795,-0.00025332622042767,0.00025332310875429,-0.00025332678714599,0.00025332252424026,-0.00024581231365584,0.00024580902163262,-0.00024581400099244,0.00024580754677887,-0.00024581332139352,0.00024580809360684,-0.0002458117756335,0.0002458097007383,-0.00020127840440466,0.00020127379156889,0.79134032663363,128566,2924,0.00098871023394419,0.0011756591545363,0.00093233780473406,23.689484811433,-5.0484121508539e-05,-5.0484121508539e-05,-5.0484121508539e-05,2063499.1153538,0.0031015507244348
17191759,0.19884839471629,0.0034993415845622,0.0011470277982716,0.0012459256867978,0.0011063880994928,-0.00025141108903184,0.00025142152793795,6.0868239557504e-09,4.3389125663906e-09,2.3337818524267e-09,8.4703562882973e-09,-0.00014357427185913,0.00014358942175797,-0.000227388127078,0.00022740553774006,-0.00022738873063735,0.00022740495631047,-0.00014357881744565,0.0001435849480707,-0.0001435805086187,0.0001435832197487,-0.00022739414783747,0.00022739954004942,-0.00022739472530752,0.00022739894741438,-0.00028740204735895,0.00028741098378006,-0.00028740262633804,0.00028741040560724,-0.00028740019006846,0.00028741297184347,-0.00028740078448455,0.00028741239699109,-0.00025682957931885,0.00025684371611081,-0.00025683133959093,0.00025684204010564,-0.00025683168319544,0.00025684165833326,-0.00025683338337167,0.0002568399561324,-0.00014357252039573,0.0001435911356714,1.6072166220031e-09,-4.7421935402719e-09,-2.079161933236e-09,-1.0279442211273e-09,-0.00030065781034962,0.0003006547357421,-0.00029617731430097,0.00029617732019246,-0.00030753563328736,0.00030753844579386,-0.00030754149047236,0.00030753176856583,-0.0002925788672272,0.00029257751129148,-0.00029257859638785,0.00029257790405065,-0.00029258072353438,0.00029257532938478,-0.0002925804597762,0.0002925757144757,-0.00029618013617382,0.00029617393420428,-0.00029617929172384,0.00029617511400801,-0.00030753528118607,0.00030753883256541,-0.0003075411868184,0.00030753213754868,-0.00029617816867702,0.0002961761165822,-2.9433806878989e-09,-1.2035230069837e-09,-0.00023620976812104,0.00023620561864265,-1.6743873684737e-09,-2.6293168868587e-09,-0.00021219107329217,0.00021218416725034,-0.00020074522755138,0.00020074056966569,-0.00020074583018257,0.00020074003175294,-0.00021218833486813,0.00021218686134624,-0.00021218992135721,0.00021218495597104,-0.00020074436110734,0.00020074155060044,-0.00020074483366697,0.00020074083336499,-0.00026808541911176,0.00026808106373157,-0.00026808573123658,0.00026808078106898,-0.00026808482906401,0.00026808164020269,-0.00026808511842399,0.00026808131970167,-0.00026067970382698,0.00026067694160294,-0.00026068150237527,0.00026067535951205,-0.00026068111560965,0.0002606756188562,-0.00026067943058895,0.00026067736137931,-0.00021218928490109,0.00021218572032542,0.77293680809134,128566,2924,0.001047071386082,0.0012519474659935,0.00098373608900806,23.132120563369,-5.4943035493048e-05,-5.4943035493048e-05,-5.4943035493048e-05,2143203.9892849,0.0032881988287874
17391759,0.20938875520852,0.0036805284451163,0.0012057817788173,0.0013143409595445,0.0011604057067545,-0.00026310862713508,0.00026311932669586,6.2862031505955e-09,4.3994522869989e-09,2.1996716813709e-09,8.8765660221482e-09,-0.00014670554053194,0.00014672132493645,-0.00023727297891992,0.00023729125417954,-0.00023727364313776,0.00023729061696127,-0.00014671045684336,0.00014671643033235,-0.00014671226875928,0.00014671459953101,-0.00023727953133533,0.00023728470435357,-0.0002372801547335,0.00023728407339509,-0.00030170772938642,0.00030171678544909,-0.00030170835089232,0.00030171616449415,-0.00030170568529861,0.00030171895152307,-0.00030170632782018,0.00030171832581023,-0.00026895500164665,0.00026896971966899,-0.00026895690769274,0.0002689679013515,-0.00026895729506728,0.00026896747494686,-0.00026895912259846,0.0002689656496996,-0.00014670360930382,0.00014672319801884,1.986884528218e-09,-4.9358842473008e-09,-1.6736449086204e-09,-1.2590844917742e-09,-0.00031634178942549,0.00031633890288681,-0.00031166493824084,0.00031166467431894,-0.00032385202233022,0.00032385578340156,-0.00032385841670883,0.00032384853307786,-0.00030742284135344,0.00030742207810751,-0.0003074227704677,0.00030742226284385,-0.00030742487940508,0.00030741970638542,-0.00030742482390863,0.00030741987530671,-0.00031166732284154,0.00031166172489157,-0.00031166710913087,0.00031166226390576,-0.00032385185963304,0.00032385596487666,-0.00032385833703932,0.00032384867772982,-0.00031166517514248,0.00031166408738336,-2.9278936444699e-09,-1.0602614591952e-09,-0.00024628754969578,0.00024628356036744,-1.911423369855e-09,-2.2271513633676e-09,-0.00022042846742686,0.00022042226126503,-0.00020796748110781,0.00020796364937575,-0.00020796811793647,0.00020796308261094,-0.00022042619167196,0.00022042440798547,-0.00022042794755587,0.00022042234289509,-0.00020796720666531,0.00020796398474233,-0.00020796773259212,0.00020796320432436,-0.00028058855692259,0.00028058410388687,-0.00028058864996101,0.00028058403259104,-0.00028058792140139,0.00028058472701341,-0.00028058799750797,0.00028058460927338,-0.00027293977601111,0.00027293749629976,-0.00027294168839668,0.00027293580291235,-0.00027294152715883,0.00027293584051898,-0.00027293970732462,0.00027293771780969,-0.00022042658114456,0.00022042389758087,0.74411373271893,128566,2924,0.0010957683537265,0.0013172138336425,0.0010256889227172,22.132389005448,-6.2940887956412e-05,-6.2940887956412e-05,-6.2940887956412e-05,2210620.6279269,0.0034446468992637
17591759,0.21916250748803,0.0038421084411276,0.0012583056772264,0.0013754671439763,0.001208335619925,-0.00027342673953805,0.00027343763917183,6.4489802867555e-09,4.4346841783027e-09,2.031347854938e-09,9.2541438384933e-09,-0.00014909806502323,0.00014911450520887,-0.0002456064063079,0.00024562545628689,-0.00024560709098592,0.00024562478168223,-0.000149103450989,0.00014910922687467,-0.00014910539697034,0.0001491072435303,-0.00024561351277179,0.0002456183994111,-0.00024561417722147,0.00024561772321095,-0.00031455429195422,0.00031456341256063,-0.00031455496232487,0.00031456274571113,-0.00031455207379554,0.00031456575653774,-0.00031455275582214,0.00031456509308261,-0.00027947867841819,0.00027949388763177,-0.00027948069552269,0.00027949195283246,-0.00027948113860977,0.00027949147195677,-0.00027948310613142,0.00027948950528019,-0.0001490960689388,0.00014911648927738,2.35189507172e-09,-5.0955762886274e-09,-1.3409285363184e-09,-1.3794069917103e-09,-0.00033030300568937,0.00033030031456072,-0.00032529113781043,0.00032529082461646,-0.00033836510327356,0.00033836976713609,-0.00033837203538219,0.00033836197537868,-0.00032070757376085,0.00032070731405212,-0.00032070765438546,0.00032070734152828,-0.00032070978295045,0.00032070476003029,-0.00032070987006478,0.00032070478073441,-0.00032529325077201,0.00032528814298429,-0.0003252934657615,0.00032528825096557,-0.00033836512307022,0.00033836979150197,-0.00033837208110057,0.00033836199086452,-0.00032529092950375,0.00032529070042376,-2.9209861783158e-09,-9.1357187797958e-10,-0.00025505570505914,0.00025505186820431,-2.0536673478993e-09,-1.9267363007767e-09,-0.00022712007017737,0.00022711428449574,-0.00021386777755895,0.00021386459336597,-0.00021386847198114,0.00021386396582244,-0.00022711817829286,0.00022711620578601,-0.00022711999268788,0.000227114035932,-0.00021386800220869,0.00021386452792498,-0.00021386854553213,0.00021386371080999,-0.00029173000944362,0.00029172551684324,-0.00029172996331591,0.00029172559209822,-0.00029172933199567,0.0002917261807095,-0.00029172925814264,0.00029172621928376,-0.00028358289524066,0.00028358107375124,-0.00028358496154007,0.00028357922542448,-0.00028358493188733,0.0002835791266075,-0.00028358299153855,0.00028358113205334,-0.00022711801137361,0.00022711611161464,0.71798589179093,128566,2924,0.0011387215639041,0.0013753076311111,0.0010621890170931,21.121158649696,-7.1030730802433e-05,-7.1030730802433e-05,-7.1030730802433e-05,2274097.5714143,0.0035826850841994
17791759,0.22822777090854,0.003987003122964,0.0013055180460751,0.0014303369714299,0.0012511481054591,-0.00028258694418489,0.00028259799038576,6.5888995836589e-09,4.4411284158181e-09,1.8680224289544e-09,9.5708435143518e-09,-0.00015102136780319,0.0001510383030657,-0.00025273801967666,0.00025275774187645,-0.00025273874691664,0.00025275702191414,-0.00015102709813474,0.00015103268611876,-0.00015102917740692,0.00015103057314127,-0.00025274560245033,0.00025275021248985,-0.00025274631278911,0.00025274949378846,-0.00032612850699938,0.0003261376586054,-0.0003261292222302,0.00032613694759866,-0.00032612612939272,0.00032614016010737,-0.00032612685558004,0.00032613945193104,-0.00028868154777612,0.00028869719148856,-0.00028868369827801,0.00028869512786044,-0.00028868416811049,0.00028869461726469,-0.00028868626849959,0.00028869252248451,-0.00015101924370504,0.0001510404187805,2.6834706692101e-09,-5.2491102933719e-09,-1.1427964223832e-09,-1.4032719466376e-09,-0.00034277747017404,0.00034277495513097,-0.00033732722259603,0.00033732702780569,-0.00035131590079923,0.00035132129758816,-0.00035132330492895,0.00035131301509751,-0.00033266153343807,0.0003326616777896,-0.00033266168576082,0.0003326616310173,-0.00033266389245783,0.00033265896152382,-0.00033266405147272,0.00033265890773671,-0.00033732927546566,0.00033732440048777,-0.0003373297069489,0.00033732428972482,-0.00035131599300716,0.000351321250219,-0.00035132342328716,0.00035131295691466,-0.00033732679848867,0.00033732712233985,-2.9299877672347e-09,-7.8911575888888e-10,-0.00026274644758037,0.0002627427269581,-2.1037290218517e-09,-1.7575509099797e-09,-0.00023261330158607,0.00023260771859151,-0.00021878761044602,0.0002187848043176,-0.00021878834820111,0.00021878413190602,-0.00023261149920399,0.00023260955574459,-0.00023261344241687,0.00023260725435315,-0.00021878805498859,0.00021878452587245,-0.00021878863795131,0.00021878365994077,-0.00030169984156796,0.00030169534724386,-0.0003016997226161,0.00030169549593559,-0.00030169911945817,0.0003016960556024,-0.00030169897234529,0.00030169616657507,-0.00029289330778804,0.00029289180518772,-0.00029289550744147,0.00029288982813886,-0.00029289554991543,0.00029288965571131,-0.00029289347847243,0.0002928917908757,-0.00023261111387458,0.00023260967940041,0.69669206930903,128566,2924,0.0011768535734255,0.0014272119414932,0.0010942033229938,20.125965660509,-7.8992274715924e-05,-7.8992274715924e-05,-7.8992274715924e-05,2333716.5305511,0.0037051887710229
17991759,0.23664386984128,0.0041196389058083,0.0013487986041458,0.0014805909043268,0.0012902493973357,-0.00029086329821908,0.00029087449255161,6.7292724520994e-09,4.4483237188006e-09,1.7379663688204e-09,9.8563598625234e-09,-0.00015275986465966,0.0001527772331284,-0.00025915945124997,0.00025917978511067,-0.00025916022139772,0.00025917901973392,-0.00015276587701011,0.00015277133949875,-0.0001527680871895,0.00015276909626928,-0.00025916744831007,0.00025917184686347,-0.00025916820361853,0.00025917108457928,-0.00033664265673194,0.0003366518618498,-0.00033664341655112,0.00033665110646853,-0.00033664014031682,0.00033665449922685,-0.00033664091072832,0.00033665374653037,-0.00029694885472259,0.00029696491265272,-0.00029695113722523,0.00029696272028134,-0.00029695161377193,0.00029696220103266,-0.00029695384600776,0.0002969599768864,-0.00015275761280951,0.00015277948063513,2.9788689664802e-09,-5.3744079727609e-09,-1.046435385382e-09,-1.3339719917478e-09,-0.00035407736196512,0.00035407501409176,-0.00034815477151703,0.00034815485467552,-0.0003630036313982,0.0003630096257402,-0.00036301144348291,0.00036300091332099,-0.00034355661238031,0.00034355706661501,-0.00034355677396604,0.00034355701070712,-0.0003435590996788,0.00034355420931848,-0.0003435592677762,0.0003435541465692,-0.00034815693063535,0.00034815210911684,-0.00034815738980161,0.00034815197450905,-0.00036300373314356,0.00036300957069139,-0.00036301157030553,0.00036300084788866,-0.00034815431928724,0.00034815497386574,-2.9671559733422e-09,-6.9263439018968e-10,-0.00026962863710257,0.0002696249760677,-2.0865764410349e-09,-1.7151815569332e-09,-0.00023740186290782,0.00023739623284238,-0.00022315172068421,0.00022314904276543,-0.00022315250276739,0.00022314832551611,-0.00023739995702488,0.00023739817816371,-0.00023740202650834,0.00023739574285183,-0.00022315219337823,0.00022314874194245,-0.00022315281607321,0.00022314782718637,-0.0003107047245763,0.00031070023685257,-0.00031070459769425,0.00031070039481538,-0.00031070395860313,0.00031070099041343,-0.00031070380230382,0.00031070110948632,-0.00030124062766509,0.00030123932402151,-0.00030124296136325,0.00030123721860382,-0.00030124301046161,0.00030123703633392,-0.00030124080878996,0.0003012393024952,-0.0002373995442015,0.00023739832497134,0.68920300491377,128566,2924,0.001211305567936,0.0014742265107303,0.0011228511566578,19.154389393258,-8.6764884853934e-05,-8.6764884853934e-05,-8.6764884853934e-05,2386123.5104442,0.0038157255174422
18191759,0.2444509739158,0.0042445425651537,0.0013895560427132,0.0015279307500604,0.0013270557723802,-0.00029848201026809,0.00029849341962093,6.9026737117107e-09,4.4883168678021e-09,1.6869593444029e-09,1.0133454550706e-08,-0.00015450522263439,0.00015452300946414,-0.00026531319062282,0.00026533412063226,-0.000265314004633,0.00026533331014776,-0.00015451143542271,0.0001545169231139,-0.00015451377360157,0.00015451454773752,-0.0002653215175382,0.00026532586174461,-0.00026532231583731,0.00026532505410415,-0.00034626619847911,0.00034627555107897,-0.00034626700261277,0.00034627475099359,-0.00034626357322418,0.00034627829513738,-0.00034626438810635,0.00034627749791953,-0.00030462907511703,0.00030464558463953,-0.0003046314889559,0.00030464326211602,-0.00030463194462908,0.00030464276403987,-0.00030463430750223,0.00030464040923817,-0.00015450284211063,0.00015452539001092,3.2219121888972e-09,-5.467219665398e-09,-1.0050492372739e-09,-1.2288814824407e-09,-0.00036448503837331,0.00036448283759575,-0.00035814526875845,0.00035814567127909,-0.00037370556483305,0.00037371202312708,-0.00037371369569894,0.00037370296064297,-0.00035360920085437,0.00035360988788717,-0.00035360934258128,0.00035360985376216,-0.00035361179028869,0.00035360691631212,-0.00035361193846095,0.00035360687545439,-0.00035814759063937,0.00035814274330422,-0.00035814799168735,0.00035814267691459,-0.00037370564765841,0.00037371199088771,-0.00037371380281949,0.00037370291821289,-0.00035814487447118,0.00035814572263351,-3.0359721245107e-09,-6.2805143449288e-10,-0.00027591505663926,0.00027591139105175,-2.0589617637764e-09,-1.7504197222674e-09,-0.00024192090507742,0.00024191507515267,-0.00022730887186005,0.00022730616828972,-0.00022730969880685,0.00022730540721705,-0.00024191881086441,0.00024191721939575,-0.00024192100315186,0.000241914646147,-0.0002273092876265,0.00022730593447348,-0.00022730994913299,0.00022730496976186,-0.00031889322987404,0.00031888871472132,-0.00031889312440162,0.00031888885320486,-0.0003188924207212,0.00031888951414371,-0.00031889228416424,0.00031888961190353,-0.00030895654491751,0.00030895534743591,-0.00030895901085061,0.00030895311282635,-0.00030895903692738,0.00030895294913581,-0.00030895670761427,0.00030895534881342,-0.00024191845715093,0.00024191729866139,0.70094114888999,128566,2924,0.0012430195315517,0.0015175266810348,0.0011490183615204,18.183428427568,-9.4532572579452e-05,-9.4532572579452e-05,-9.4532572579452e-05,2425419.2572122,0.0039173055626725
18391759,0.25186662088081,0.0043634366342817,0.0014283628138496,0.0015730346397589,0.0013620391806733,-0.0003061728767946,0.00030618442405923,7.0384562775987e-09,4.4875184141612e-09,1.8246401375404e-09,1.0140350713724e-08,-0.00015651978974376,0.00015653743615321,-0.0002717221981042,0.00027174319143795,-0.00027172304834873,0.00027174231985815,-0.00015652581538983,0.00015653165058193,-0.00015652822960549,0.00015652917089654,-0.00027173044891686,0.00027173509203841,-0.00027173126269202,0.00027173425291626,-0.00035586898441471,0.00035587855963713,-0.00035586983336374,0.00035587771633047,-0.0003558664009595,0.00035588126520019,-0.00035586726528654,0.00035588042174303,-0.00031245234961528,0.00031246909525831,-0.00031245490154004,0.00031246662427753,-0.00031245518187884,0.00031246630723896,-0.00031245767331227,0.00031246381742332,-0.00015651728277663,0.00015653999386318,3.2765067227187e-09,-5.2952337490967e-09,-9.294300975191e-10,-1.068554375015e-09,-0.00037487657819487,0.00037487458579878,-0.00036815843192647,0.00036815915273435,-0.0003843406447295,0.00038434720266271,-0.00038434866737192,0.00038433825201201,-0.00036364879650693,0.00036364959569655,-0.00036364891134048,0.0003636495882934,-0.00036365134273841,0.00036364666107816,-0.00036365146615789,0.0003636466453032,-0.00036816079184602,0.00036815617263049,-0.00036816111621474,0.00036815619196188,-0.00038434072492791,0.00038434721662905,-0.00038434874156003,0.00038433824380969,-0.00036815813713061,0.00036815911541193,-3.1157933186127e-09,-5.7695939344098e-10,-0.00028230012880809,0.00028229643220858,-2.036518550449e-09,-1.8046962129694e-09,-0.0002466818099194,0.00024667577363061,-0.00023171129131293,0.00023170851427643,-0.00023171215652168,0.00023170771431943,-0.00024667961426231,0.00024667822007879,-0.00024668190814929,0.00024667549024295,-0.00023171170237737,0.00023170843818518,-0.00023171239341547,0.00023170742177516,-0.00032709595081763,0.00032709138257641,-0.00032709587578768,0.00032709150627935,-0.00032709509703397,0.00032709222689347,-0.00032709499165649,0.00032709230676689,-0.00031677814904899,0.00031677702861849,-0.00031678074328407,0.0003167746660512,-0.0003167807451194,0.00031677452001998,-0.00031677828794311,0.00031677705941056,-0.00024667924692473,0.00024667811610091,0.70344890501497,128566,2924,0.0012750327828412,0.0015607578623417,0.0011755954315113,17.51189902476,-9.9904807801921e-05,-9.9904807801921e-05,-9.9904807801921e-05,2462767.1135213,0.004019538484931
18591759,0.25915536008607,0.004477701197893,0.0014657003091848,0.0016164525302348,0.0013955483584734,-0.00031433408850018,0.00031434564695995,7.1101470257125e-09,4.4286466692224e-09,2.0795673040802e-09,9.8972417351102e-09,-0.00015889075533781,0.0001589078155314,-0.00027851380385804,0.00027853436662585,-0.00027851470426373,0.00027853346422113,-0.00015889610739852,0.00015890262443003,-0.00015889869499224,0.00015889998859113,-0.00027852153775327,0.00027852674437332,-0.0002785224174405,0.00027852584918006,-0.00036598608751029,0.0003659958810946,-0.00036598698015048,0.0003659949918002,-0.00036598366323915,0.00036599841359111,-0.00036598456820041,0.00036599752734277,-0.00032073588401803,0.00032075259691526,-0.00032073855943405,0.00032075001027594,-0.00032073854967992,0.00032074998323401,-0.00032074117280636,0.00032074736497531,-0.00015888811647297,0.00015891046473818,3.1435402924136e-09,-4.9298806511331e-09,-8.5590576797513e-10,-9.3185505882055e-10,-0.00038575907765143,0.00038575731989551,-0.00037863308590188,0.00037863388035082,-0.00039545572878827,0.00039546199848558,-0.00039546324742599,0.00039545352205867,-0.00037418535115456,0.00037418621686353,-0.00037418544678733,0.00037418623291993,-0.00037418773259538,0.00037418344692477,-0.00037418783456656,0.00037418345626763,-0.00037863532918908,0.00037863099979616,-0.00037863559384077,0.00037863108992795,-0.00039545577234799,0.00039546202039931,-0.00039546330526065,0.00039545353324673,-0.0003786328310604,0.00037863377621047,-3.1996738832152e-09,-5.2499918919856e-10,-0.00028915223283171,0.00028914850523894,-2.0209294639673e-09,-1.8566576287998e-09,-0.00025178088294877,0.00025177458587481,-0.00023648920068938,0.00023648637351769,-0.00023649011801894,0.00023648552645898,-0.00025177840261303,0.0002517771554985,-0.00025178083816856,0.00025177430628509,-0.00023648949826085,0.00023648630698327,-0.00023649023612124,0.0002364852435519,-0.00033581029179129,0.00033580567518403,-0.00033581023668714,0.00033580577070388,-0.00033580939436195,0.00033580656438659,-0.00033580930598987,0.00033580661633722,-0.00032505536194125,0.00032505431744569,-0.00032505809208622,0.00032505182401571,-0.00032505806719996,0.00032505170572596,-0.00032505547690124,0.00032505436802119,-0.00025177816774034,0.00025177706391272,0.68932006354557,128566,2924,0.0013090024108014,0.0016060296671476,0.001204115583569,17.263820175754,-0.00010188943859397,-0.00010188943859397,-0.00010188943859397,2508512.9113047,0.0041277471682922
18791759,0.26632414049228,0.0045968697901783,0.0015045455261546,0.0016617841797201,0.0014305400843035,-0.00032275192738333,0.00032276368500354,7.2751265167758e-09,4.4600320763867e-09,2.3739974464561e-09,9.8118986578929e-09,-0.00016191278767313,0.0001619295531226,-0.00028610572253396,0.00028612616800492,-0.00028610666822229,0.00028612522156569,-0.00016191765026015,0.00016192486706326,-0.00016192036457309,0.00016192209822368,-0.00028611309268475,0.00028611892950544,-0.00028611401509672,0.00028611798742717,-0.0003761586075701,0.0003761687654338,-0.00037615954444963,0.00037616783099865,-0.00037615630568004,0.00037617116888221,-0.00037615725524512,0.00037617023801954,-0.00032951492227414,0.00032953183673324,-0.00032951772806366,0.00032952911761494,-0.00032951746475484,0.00032952934655206,-0.00032952021652377,0.00032952659590886,-0.00016191001890316,0.0001619323347126,3.0745370533711e-09,-4.6300282502563e-09,-7.3723477701303e-10,-8.2816058293913e-10,-0.00039686647482217,0.00039686493903544,-0.00038946234904646,0.00038946322314301,-0.00040671593789422,0.00040672207862151,-0.00040672307678509,0.00040671394929385,-0.00038490778388195,0.00038490875333664,-0.0003849078847829,0.00038490876581781,-0.00038491004505637,0.00038490610196582,-0.00038491015255108,0.00038490610764149,-0.00038946444008301,0.00038946047316921,-0.00038946472714216,0.00038946055614605,-0.00040671598755797,0.0004067220966856,-0.00040672314287899,0.00040671395595057,-0.00038946207229772,0.00038946312571126,-3.3029464749302e-09,-4.950328886402e-10,-0.00029622631701968,0.0002962225146991,-2.0698172284079e-09,-1.8876190331735e-09,-0.00025756227735797,0.00025755578963773,-0.00024193098086099,0.00024192813449242,-0.00024193194594911,0.00024192724682721,-0.00025755968797828,0.00025755848147027,-0.00025756224031346,0.00025755548857489,-0.0002419313028681,0.00024192805873194,-0.0002419320778348,0.00024192694296785,-0.0003445577270989,0.00034455298697444,-0.00034455766725751,0.00034455309066318,-0.00034455678682976,0.00034455392234745,-0.000344556691294,0.00034455397996579,-0.00033374117989645,0.00033374019870062,-0.00033374403938798,0.00033373757376228,-0.0003337440175393,0.00033373744718216,-0.00033374130269917,0.00033374024589845,-0.00025755942580271,0.00025755839122706,0.73043485836391,128566,2924,0.0013440394344738,0.0016522347264952,0.0012335586612918,17.026713891679,-0.00010378628886657,-0.00010378628886657,-0.00010378628886657,2541501.8924256,0.0042389020395052
18991759,0.27337448582871,0.0047160569704765,0.0015433375424995,0.0017072700461719,0.0014654493818051,-0.0003311196284732,0.00033113161596417,7.4552470769149e-09,4.5068095573815e-09,2.676550739021e-09,9.7508425059179e-09,-0.00016465420979359,0.00016467073080829,-0.00029378155254103,0.0002938019280503,-0.00029378254306326,0.00029380093790899,-0.0001646585994417,0.00016466653030403,-0.0001646614419895,0.00016466362766204,-0.00029378857391953,0.00029379505643099,-0.00029378953858892,0.00029379406727352,-0.00038627405038956,0.00038628459876483,-0.00038627503128869,0.00038628361925955,-0.00038627186655988,0.00038628687866526,-0.00038627286052297,0.00038628590337357,-0.00033834307113604,0.00033836022029726,-0.00033834600768964,0.00033835737088509,-0.00033834549565493,0.00033835784960163,-0.00033834837777496,0.00033835496783936,-0.00016465131141201,0.00016467364278029,2.9998342590931e-09,-4.3525563602144e-09,-5.9298540826164e-10,-7.7660923734147e-10,-0.00040800574077251,0.00040800440058792,-0.00040043997021542,0.00040044082742551,-0.00041800055934075,0.00041800658716804,-0.00041800733601298,0.00041799878819399,-0.00039557035311605,0.00039557143188679,-0.00039557048429445,0.00039557141476177,-0.00039557250143203,0.0003955688933078,-0.00039557263902286,0.00039556886956678,-0.00040044183825437,0.00040043827914255,-0.00040044222264464,0.00040043827820238,-0.00041800064244234,0.00041800657500188,-0.00041800743538327,0.00041799876505371,-0.00040043959573097,0.00040044081444544,-3.4051552671106e-09,-4.6369475684145e-10,-0.00030321548274843,0.00030321160858793,-2.1557108605594e-09,-1.8783401456362e-09,-0.00026334318825324,0.00026333658727639,-0.00024728660870219,0.00024728382301319,-0.00024728762143244,0.00024728289381492,-0.00026334056518684,0.0002633393251051,-0.00026334323155425,0.00026333618667995,-0.00024728703301878,0.00024728366287338,-0.00024728784335454,0.00024728249390968,-0.00035323795037927,0.00035323306414393,-0.00035323786005136,0.00035323320128641,-0.00035323696724522,0.00035323404562099,-0.00035323683856173,0.00035323413419832,-0.00034247358840099,0.00034247269841444,-0.00034247657512703,0.00034246993905074,-0.00034247658241786,0.0003424697791179,-0.00034247374381704,0.00034247271547482,-0.00026334019958052,0.00026333931430609,0.74318761755142,128566,2924,0.0013788675517826,0.0016985701546522,0.0012626477913215,16.790051781613,-0.0001056795857471,-0.0001056795857471,-0.0001056795857471,2568584.7069956,0.0043496348129148
19191759,0.28053512684272,0.0048440798044469,0.001584867153547,0.0017562956753601,0.0015029169755398,-0.00034075561509534,0.00034076782481455,7.6302154126714e-09,4.5506329536877e-09,3.2516221084192e-09,9.4091571867361e-09,-0.00016850582237011,0.00016852156332536,-0.00030313120466775,0.00030315095040366,-0.00030313223035868,0.000303149919083,-0.00016850922241771,0.00016851840253467,-0.00016851219232778,0.00016851535954889,-0.00030313734200587,0.00030314500560656,-0.00030313834272741,0.00030314396808622,-0.00039759483799189,0.00039760595264238,-0.00039759586404584,0.00039760492762166,-0.00039759295607059,0.00039760792502299,-0.00039759399282798,0.00039760690800981,-0.00034866892663907,0.00034868611503116,-0.00034867198855915,0.00034868314068569,-0.00034867104594938,0.00034868405185357,-0.0003486740634918,0.00034868103564731,-0.00016850281627792,0.00016852459726962,2.6728745974717e-09,-3.7670215606212e-09,-3.4026963923139e-10,-7.7262876780973e-10,-0.00042059313331211,0.000420592038596,-0.00041303970844031,0.0004130402784966,-0.00043073112488804,0.00043073660424937,-0.00043073700054482,0.00043072968666359,-0.00040755115498134,0.00040755225491484,-0.00040755136834778,0.00040755215377688,-0.00040755301583441,0.00040755001241381,-0.0004075532319443,0.0004075499083904,-0.00041304101604153,0.00041303827372194,-0.00041304164456346,0.0004130380390942,-0.00043073130928066,0.00043073650946962,-0.00043073717716715,0.00043072958973121,-0.00041303908649792,0.00041304051170368,-3.5135779115149e-09,-4.3588786434499e-10,-0.00031137663553553,0.00031137267988605,-2.3229503799034e-09,-1.7960658408782e-09,-0.00027066411314366,0.00027065752737991,-0.00025403911153711,0.00025403653458342,-0.0002540401766629,0.00025403555849536,-0.00027066164131042,0.0002706601974966,-0.00027066439752685,0.00027065691958696,-0.00025403982329516,0.00025403616204852,-0.00025404065757664,0.00025403494380088,-0.00036304298538362,0.0003630378919145,-0.0003630428168584,0.00036303811491193,-0.00036304196019763,0.00036303891850836,-0.00036304174687122,0.00036303909362504,-0.00035267247987898,0.00035267173229925,-0.00035267560400955,0.00035266883103865,-0.00035267568522951,0.00035266858761297,-0.00035267272363061,0.00035267166091287,-0.00027066097167106,0.00027066039875821,0.78534703205314,128566,2924,0.0014189726893051,0.0017509265281027,0.0012966133538384,16.952888285995,-0.00010437689371204,-0.00010437689371204,-0.00010437689371204,2596596.85513,0.0044766253823051
19391759,0.28801174961627,0.0049748592475474,0.0016272651009026,0.0018066465414945,0.0015409476051503,-0.00035127217425052,0.00035128444605558,7.7262237788215e-09,4.5153461798178e-09,3.8888395953551e-09,8.8366398911362e-09,-0.00017233393507304,0.00017234844034436,-0.00031303729070303,0.0003130559512785,-0.00031303835301537,0.00031305488153901,-0.0001723360349035,0.00017234660509334,-0.00017233914454497,0.00017234341756346,-0.00031304224891838,0.00031305121803672,-0.00031304329471994,0.00031305013033283,-0.00041003542172092,0.00041004704128396,-0.00041003649359867,0.00041004597062587,-0.00041003393617429,0.00041004860758719,-0.00041003501509095,0.0004100475489408,-0.0003598243914723,0.00035984136268283,-0.00035982757613044,0.0003598382646965,-0.00035982610546927,0.00035983971342166,-0.00035982925499547,0.00035983656027807,-0.00017233082030609,0.00017235158997482,2.2226321772891e-09,-3.0036254447456e-09,-3.537080532853e-12,-8.0692323046097e-10,-0.0004344026808605,0.00043440188593413,-0.00042687931643489,0.00042687941531363,-0.00044478723535284,0.00044479196088623,-0.00044479191976398,0.00044478622908467,-0.00042063380950747,0.00042063493115977,-0.00042063414414148,0.00042063470499336,-0.00042063528562996,0.00042063308730989,-0.0004206356190254,0.00042063286232386,-0.00042687984733342,0.00042687817807572,-0.00042688083673199,0.00042687758764077,-0.00044478755315625,0.00044479173993561,-0.00044479221489164,0.00044478601622977,-0.00042687832433275,0.00042688001613626,-3.5931591650964e-09,-3.7966521305913e-10,-0.0003203047203987,0.0003203007409279,-2.522785115572e-09,-1.6214827097262e-09,-0.00027836991036049,0.00027836352041474,-0.00026114875670679,0.00026114657155395,-0.00026114987512337,0.00026114554730504,-0.00027836768466433,0.00027836596878028,-0.00027837054345153,0.00027836256147571,-0.00026114985879705,0.00026114584185863,-0.00026115072207543,0.00026114457626246,-0.00037387421140492,0.00037386892698907,-0.00037387392229155,0.00037386927536583,-0.00037387314340719,0.0003738699977373,-0.00037387280363577,0.00037387029979821,-0.00036373447147151,0.00036373396438173,-0.00036373773440352,0.00036373092349898,-0.00036373793194895,0.00036373055681527,-0.00036373485349266,0.00036373376828403,-0.00027836661446062,0.00027836653524315,0.7695138785993,128566,2924,0.0014627415314345,0.0018083634104953,0.0013337697995079,17.466277672479,-0.00010026977862017,-0.00010026977862017,-0.00010026977862017,2636583.0578693,0.0046156237737671
19591759,0.29581694441073,0.0051080652267965,0.0016704822626645,0.0018581298974044,0.0015794530667276,-0.00036207906572684,0.0003620913862666,7.8183959782299e-09,4.4711986368111e-09,4.3900789357858e-09,8.3864389850531e-09,-0.00017616883866874,0.00017618230777217,-0.00032297970123073,0.00032299753409216,-0.00032298081854452,0.00032299641402225,-0.00017616986021951,0.00017618153778813,-0.00017617309331662,0.00017617823116159,-0.000322983733622,0.00032299373448709,-0.00032298482448589,0.00032299260451123,-0.00042290454992812,0.00042291657292227,-0.00042290566472962,0.0004229154591866,-0.00042290336930023,0.00042291782167085,-0.00042290449567448,0.00042291671501722,-0.00037115239186468,0.00037116923451214,-0.00037115571595132,0.0003711659958609,-0.00037115379927652,0.00037116789528546,-0.00037115707243376,0.00037116461659852,-0.00017616556756662,0.00017618560588581,1.9113402966453e-09,-2.3863738187709e-09,3.5465005044911e-10,-8.7686277964987e-10,-0.00044861617601876,0.0004486156781253,-0.00044105997186691,0.00044105962308753,-0.00045926413124943,0.00045926837733075,-0.00045926788434735,0.00045926356046088,-0.00043414581147235,0.00043414706795712,-0.00043414628055487,0.0004341467027584,-0.00043414698856308,0.00043414553346,-0.00043414746125067,0.0004341451645,-0.00044105976455298,0.00044105911493215,-0.00044106118399685,0.00044105809918895,-0.00045926457493271,0.00045926801845341,-0.00045926833294932,0.0004592631949332,-0.00044105855974088,0.00044106063283113,-3.6507300604605e-09,-3.0691349024528e-10,-0.00032941826864705,0.00032941430408997,-2.7292570133607e-09,-1.4012886629852e-09,-0.00028598111884538,0.00028597505530265,-0.00026818750751611,0.00026818579171171,-0.00026818866634134,0.00026818473392627,-0.00028597916189394,0.00028597718984595,-0.00028598216446202,0.0002859736236246,-0.0002681890108527,0.00026818463775347,-0.00026818992034196,0.00026818331199987,-0.00038504429443551,0.00038503883841778,-0.0003850438611611,0.00038503933107286,-0.00038504318114248,0.00038503995613967,-0.00038504270029546,0.00038504039525724,-0.00037497493313767,0.00037497470227493,-0.0003749783156592,0.00037497154288319,-0.0003749786617479,0.00037497102715819,-0.00037497545297819,0.00037497437582383,-0.00028597770960836,0.00028597816837237,0.75193871846217,128566,2924,0.0015077174607279,0.0018674767312909,0.0013716970034933,17.98880808307,-9.6089535335443e-05,-9.6089535335443e-05,-9.6089535335443e-05,2685177.141919,0.0047583143080739
19791759,0.30395781871168,0.0052432371249287,0.0017144086245806,0.0019105204445489,0.0016183080557992,-0.00037313670064618,0.00037314908889746,7.9188140209909e-09,4.4381266491303e-09,4.726496111325e-09,8.1205664913414e-09,-0.00018003552463924,0.00018004834088399,-0.00033294069918387,0.00033295805878269,-0.00033294186092521,0.00033295689349665,-0.00018003582711631,0.00018004829761759,-0.00018003919132401,0.00018004486066757,-0.00033294415067932,0.0003329548577712,-0.00033294528658176,0.00033295368363928,-0.00043615562298471,0.00043616795493616,-0.00043615678282665,0.0004361667970293,-0.0004361546360171,0.00043616900065215,-0.000436155806895,0.00043616784955727,-0.00038261218583635,0.00038262902669864,-0.000382615640819,0.0003826256580443,-0.00038261339483446,0.00038262788811717,-0.00038261679961628,0.00038262447916582,-0.00018003212334122,0.00018005177081621,1.7679790944228e-09,-1.9368813707654e-09,7.2140317995157e-10,-9.492902160267e-10,-0.00046315751729623,0.00046315731542412,-0.00045548760569927,0.00045548691667261,-0.0004740591359683,0.00047406324950686,-0.0004740623033119,0.00047405901003628,-0.00044803489528322,0.00044803639604259,-0.00044803550507848,0.00044803588457576,-0.00044803588332573,0.00044803505686521,-0.00044803649643649,0.00044803454192906,-0.00045548676344174,0.00045548703840981,-0.00045548861384666,0.00045548559207465,-0.00047405972494819,0.00047406274413493,-0.00047406289678643,0.00047405849949804,-0.00045548576193383,0.00045548835742684,-3.6951304740695e-09,-2.1784918961323e-10,-0.00033867703256295,0.00033867311283654,-2.9252060426637e-09,-1.1592664882615e-09,-0.00029345539198288,0.00029344967604927,-0.00027513141597714,0.00027513022009946,-0.00027513262204191,0.00027512912037281,-0.00029345373643518,0.00029345151010111,-0.00029345685970438,0.00029344780333612,-0.00027513335563194,0.00027512863966734,-0.00027513430131042,0.00027512726112906,-0.00039649889603116,0.00039649329518694,-0.00039649831845494,0.00039649393458918,-0.00039649773901712,0.00039649445804416,-0.00039649711156309,0.00039649504199468,-0.00038634706666616,0.00038634715660988,-0.00038635058146735,0.00038634386816904,-0.00038635107140824,0.0003863432046507,-0.00038634773485234,0.00038634668682639,-0.00029345184656434,0.00029345291325443,0.73294776728988,128566,2924,0.0015537356774032,0.0019279496524997,0.0014102273780949,18.511708959393,-9.1906328324855e-05,-9.1906328324855e-05,-9.1906328324855e-05,2740383.965004,0.0049040462470616
19991759,0.31220850686209,0.0053830018579368,0.0017597907884353,0.0019648324433802,0.0016583786261214,-0.00038385386100439,0.00038386656135565,8.1409791456165e-09,4.5254940524617e-09,4.814028472617e-09,8.360930506974e-09,-0.00018378534146105,0.00018379849742861,-0.0003427810282241,0.00034279891628645,-0.00034278223699738,0.00034279770340258,-0.00018378567605736,0.00018379843029104,-0.00018378916454417,0.00018379486869677,-0.00034278464520588,0.00034279556611409,-0.00034278582326609,0.00034279434911504,-0.00044898120635918,0.00044899383983047,-0.00044898241062683,0.00044899263799731,-0.00044898016743962,0.00044899493409392,-0.00044898138411103,0.00044899373726569,-0.00039377580011016,0.00039379313327576,-0.00039377938954852,0.00039378963021607,-0.00039377706250533,0.00039379194141293,-0.00039378059692178,0.00039378840298847,-0.00018378180204294,0.00018380206814596,1.9517891604162e-09,-1.9228740580763e-09,1.0237868369855e-09,-1.0602862708646e-09,-0.00047732857798875,0.00047732856811171,-0.00046960963830441,0.00046960878779125,-0.00048842183512293,0.0004884264521641,-0.00048842515285584,0.00048842202805139,-0.00046156733975125,0.00046156922262623,-0.00046156808100078,0.00046156857469911,-0.00046156838451268,0.00046156782318234,-0.00046156913064348,0.00046156717020451,-0.00046960843395774,0.0004696092562998,-0.00046961069418678,0.00046960740365049,-0.00048842255898566,0.00048842581215292,-0.00048842588601359,0.00048842137820268,-0.00046960738918868,0.00046961062994444,-3.7481102549517e-09,-1.3866564708761e-10,-0.00034750802950446,0.00034750413587454,-3.1195434424081e-09,-9.3888165076914e-10,-0.00030063884790294,0.00030063344498836,-0.00028179203865448,0.00028179131659799,-0.00028179328919622,0.00028179017812375,-0.00030063747767325,0.00030063500719607,-0.00030064072090171,0.00030063114767698,-0.00028179439284261,0.00028178933927688,-0.00028179537380531,0.00028178790297125,-0.00040746317522917,0.0004074574181863,-0.00040746246017322,0.00040745819772975,-0.000407461975157,0.00040745862771423,-0.00040746120903481,0.00040745934745695,-0.00039735987975956,0.00039736026102816,-0.00039736351931894,0.00039735684322769,-0.00039736414881577,0.00039735603821008,-0.00039736068735784,0.00039735965886348,-0.00030063517648687,0.00030063680014579,0.74869675594581,128566,2924,0.0015983367333959,0.0019868785010595,0.0014469765634465,18.674382294383,-9.0604941644937e-05,-9.0604941644937e-05,-9.0604941644937e-05,2786115.1094174,0.00504503252982
20191759,0.32044380049902,0.0055255426547204,0.0018060266535466,0.0020203809118844,0.0016991350892894,-0.00039436918868607,0.00039438230123784,8.4161737996675e-09,4.6580618062254e-09,4.8833578441376e-09,8.7254268628164e-09,-0.00018722064691321,0.00018723434074739,-0.00035263042446478,0.00035264910547196,-0.00035263170049087,0.00035264782982438,-0.00018722112857009,0.00018723409634766,-0.0001872247187496,0.00018723044190775,-0.00035263434459217,0.00035264543894953,-0.00035263556096351,0.00035264418654058,-0.00046154891307617,0.00046156189771574,-0.0004615501596068,0.00046156065371882,-0.00046154777082794,0.00046156309211668,-0.00046154904078463,0.0004615618426569,-0.00040480947609287,0.00040482746489051,-0.00040481322116539,0.00040482380668469,-0.00040481085448176,0.00040482616447384,-0.0004048145120437,0.00040482250468607,-0.00018721691656949,0.00018723809057931,2.184050013683e-09,-2.0329070949366e-09,1.2804603143163e-09,-1.2035614848463e-09,-0.00049135356844723,0.00049135368136336,-0.00048370739746712,0.00048370637938659,-0.00050260045421693,0.00050260564566905,-0.0005026040628931,0.00050260087027282,-0.0004748804511493,0.00047488270378237,-0.0004748813155855,0.00047488193203678,-0.00047488160405274,0.0004748811909632,-0.00047488248353209,0.0004748804015625,-0.00048370589419785,0.0004837071179975,-0.0004837085728034,0.00048370486172548,-0.00050260128200739,0.00050260487992126,-0.00050260494870447,0.00050260006430488,-0.00048370475944779,0.00048370859060823,-3.8041858446588e-09,-7.0797237480676e-11,-0.00035605584577194,0.00035605196300801,-3.3202515131326e-09,-7.2909398961291e-10,-0.00030763037792393,0.00030762531010229,-0.00028823538850855,0.00028823510305139,-0.00028823666893692,0.0002882339431362,-0.00030762926351439,0.00030762657209507,-0.00030763266247569,0.00030762252165571,-0.00028823811552314,0.00028823272553437,-0.00028823914643495,0.00028823121475142,-0.00041812827261647,0.00041812234402283,-0.00041812741589614,0.00041812326607954,-0.000418127028699,0.0004181236034074,-0.00041812612838924,0.0004181244507319,-0.00040822706738314,0.00040822770094894,-0.00040823080700094,0.00040822417705794,-0.00040823158958567,0.00040822322040355,-0.00040822800173968,0.00040822698746168,-0.00030762662576767,0.00030762873335571,0.76566000532653,128566,2924,0.0016420978646157,0.0020451961030458,0.0014825464260129,18.643342827329,-9.0853257381367e-05,-9.0853257381367e-05,-9.0853257381367e-05,2821992.0309167,0.0051833942281786
20391759,0.32865863452097,0.0056687215071043,0.0018524646751714,0.0020763360432627,0.0017399207886702,-0.00040491557614265,0.0004049290466073,8.6566540563152e-09,4.7717507948843e-09,5.0593949930294e-09,8.9254263015149e-09,-0.00019048837016679,0.00019050237405592,-0.00036257501013004,0.00036259412384057,-0.00036257631568548,0.00036259281532486,-0.00019048878295682,0.00019050223184238,-0.00019049251995543,0.00019049842035632,-0.00036257896576336,0.00036259045309969,-0.00036258022788276,0.00036258914884519,-0.00047414989603104,0.00047416327259848,-0.00047415118884606,0.00047416198236404,-0.00047414875030492,0.00047416446885485,-0.00047415005878972,0.0004741631803356,-0.00041589302115025,0.00041591148350099,-0.00041589687680117,0.00041590771248964,-0.00041589439537444,0.00041591018379328,-0.00041589818941582,0.00041590638443581,-0.00019048455292755,0.00019050622311006,2.2700233497272e-09,-1.9626372649846e-09,1.5612770655279e-09,-1.3275979906456e-09,-0.00050547547478577,0.00050547573642568,-0.00049798708549245,0.00049798582194649,-0.00051686191892308,0.00051686743665536,-0.00051686554758159,0.00051686261434018,-0.00048823199766726,0.0004882345366444,-0.00048823299473088,0.00048823362442401,-0.00048823316498383,0.00048823300789481,-0.00048823416994806,0.0004882320870145,-0.00049798517854153,0.00049798695251163,-0.00049798823950587,0.00049798431030545,-0.00051686290618714,0.00051686653043125,-0.00051686655301335,0.00051686169321658,-0.00049798404293593,0.00049798844460914,-3.8715044795986e-09,2.3141893058626e-12,-0.00036454970530543,0.00036454582834682,-3.5160724074281e-09,-5.2736331227494e-10,-0.00031452073197481,0.00031451589167163,-0.00029456533825551,0.00029456550635998,-0.00029456667754682,0.00029456429095351,-0.00031451991056215,0.0003145169367831,-0.00031452338025874,0.00031451275986777,-0.00029456849692605,0.00029456275509631,-0.00029456954510917,0.00029456119568697,-0.00042878499222385,0.00042877889511142,-0.00042878400952005,0.00042877994821184,-0.00042878370790885,0.00042878019979411,-0.00042878267044193,0.00042878118252695,-0.0004191461292757,0.0004191470522592,-0.00041915001597402,0.00041914337372913,-0.00041915091506202,0.00041914229015041,-0.00041914720832567,0.00041914619237012,-0.0003145168117653,0.00031451948774276,0.77157339212709,128566,2924,0.0016859878269074,0.0021039129305416,0.0015178907622666,18.607199305475,-9.1142405556197e-05,-9.1142405556197e-05,-9.1142405556197e-05,2855008.1528143,0.0053220794499229
20591759,0.33685079574932,0.0057994124017629,0.0018951371793825,0.0021274573838627,0.0017768178385177,-0.00041477940244369,0.00041479301535124,8.7939751068249e-09,4.7765915261283e-09,5.1653350932644e-09,8.9685890640986e-09,-0.00019273580110379,0.00019274976590331,-0.00037110892692712,0.00037112817302004,-0.00037111027263391,0.00037112682174794,-0.00019273602312544,0.00019274981665634,-0.00019273989670132,0.000192745872579,-0.0003711128269108,0.00037112456673277,-0.00037111413662635,0.00037112321754029,-0.00048630268485049,0.00048631626716767,-0.00048630402313482,0.00048631493276865,-0.00048630155894737,0.00048631743970401,-0.0004863029109503,0.00048631610766222,-0.00042590540618941,0.000425924115651,-0.00042590939143606,0.00042592021874391,-0.00042590675890127,0.00042592283921462,-0.00042591068690269,0.00042591891021776,-0.00019273185883227,0.00019275373978862,2.341965036664e-09,-1.831251731399e-09,1.8391380367719e-09,-1.409335148161e-09,-0.00051884281584783,0.00051884327575966,-0.00051125968678978,0.00051125824177896,-0.0005304040910769,0.00053040987678352,-0.00053040765932711,0.00053040509978828,-0.00050095693217553,0.0005009597671073,-0.00050095804425179,0.00050095873450704,-0.00050095808071423,0.00050095825534118,-0.00050095919999938,0.00050095721493143,-0.00051125739989533,0.00051125974395574,-0.00051126081079316,0.00051125674934616,-0.00053040519761872,0.00053040885128289,-0.00053040878137836,0.00053040406126076,-0.00051125629070436,0.00051126122050268,-3.9006909025553e-09,1.0768656272369e-10,-0.00037234224153092,0.00037233844155157,-3.654508770932e-09,-3.0935454882013e-10,-0.00031989626749219,0.00031989171904868,-0.00029960598188283,0.00029960662546803,-0.00029960736813013,0.00029960536425386,-0.00031989567061336,0.00031989254787151,-0.00031989925350406,0.00031988823394912,-0.00029960949905897,0.00029960352604204,-0.00029961057927489,0.0002996019131157,-0.00043899226459731,0.00043898608181264,-0.0004389911653765,0.00043898725392653,-0.00043899093695568,0.00043898743146328,-0.00043898977960626,0.00043898853243018,-0.00042904150288714,0.00042904275405256,-0.00042904552545979,0.000429038943696,-0.00042904653880856,0.00042903774167878,-0.00042904270452567,0.0004290417752585,-0.00031989220765096,0.00031989545240743,0.70761958189485,128566,2924,0.0017270372285926,0.0021594892057093,0.0015503164924742,18.570848538762,-9.1433211689904e-05,-9.1433211689904e-05,-9.1433211689904e-05,2897221.9485877,0.005451838883262
20791759,0.34461122051781,0.0059300249902044,0.0019377088861398,0.0021785811055968,0.0018137349984677,-0.00042333882218362,0.00042335286140474,9.0623589595883e-09,4.9316241987071e-09,5.0900592383754e-09,9.4924218354259e-09,-0.00019495489867534,0.00019496987748648,-0.00037893492952432,0.0003789552324331,-0.0003789363033727,0.0003789538826863,-0.00019495557004401,0.00019496942886651,-0.00019495965895758,0.00019496527111762,-0.00037893937519916,0.00037895104687463,-0.00037894077386839,0.0003789496275473,-0.0004967469902844,0.00049676084203933,-0.00049674837309637,0.00049675945929436,-0.00049674567394013,0.00049676219751376,-0.00049674705185068,0.00049676083361243,-0.00043469693993586,0.00043471634749278,-0.00043470099832258,0.00043471236076303,-0.00043469846495065,0.00043471489234842,-0.00043470251346859,0.00043471082084751,-0.00019495091887678,0.0001949738754491,2.6601766145481e-09,-2.0909451654134e-09,2.0100570017266e-09,-1.5393767333034e-09,-0.00053049387869718,0.00053049440389069,-0.00052292510784735,0.00052292353994877,-0.00054211054650006,0.00054211707759944,-0.00054211466930696,0.00054211167439084,-0.00051206690755592,0.00051207012544225,-0.0005120681215807,0.00051206898438274,-0.00051206825268019,0.00051206840642463,-0.00051206945856991,0.00051206727567592,-0.00052292269364142,0.0005229251342812,-0.00052292638221791,0.00052292187997148,-0.00054211175503037,0.00054211591877044,-0.00054211587353366,0.00054211055736031,-0.00052292136512141,0.00052292682460565,-3.9703241247294e-09,1.9048647729461e-10,-0.00037888914532194,0.00037888535630584,-3.7827725553086e-09,-1.7847166334858e-10,-0.00032468410906978,0.00032467957945079,-0.00030402878754157,0.00030402976576768,-0.00030403025514273,0.00030402842781476,-0.00032468356738497,0.00032468025238122,-0.00032468721291925,0.00032467586175405,-0.00030403253469558,0.00030402632908711,-0.00030403364134068,0.00030402468216856,-0.00044753822111972,0.00044753192478878,-0.0004475370405449,0.00044753316877578,-0.00044753685310291,0.00044753331932191,-0.00044753559525346,0.00044753450654609,-0.00043766633116704,0.00043766785974498,-0.00043767052021073,0.00043766386862002,-0.00043767159417052,0.00043766260965476,-0.00043766764335665,0.00043766676614932,-0.00032467982866423,0.00032468355232637,0.74689073198029,128566,2924,0.0017626587522646,0.0022079262086623,0.0015775584567379,17.866167274091,-9.7070661807268e-05,-9.7070661807268e-05,-9.7070661807268e-05,2920556.4760941,0.0055637623312417
20991759,0.35184698596338,0.0060474852040317,0.0019761267788006,0.0022245736198393,0.0018467848053918,-0.00043059112630944,0.00043060547428407,9.2935995757947e-09,5.0076442198329e-09,5.0295006588837e-09,9.8771359058369e-09,-0.00019586024261303,0.00019587573331524,-0.00038523957265089,0.00038526071790928,-0.00038524101836583,0.00038525928212849,-0.00019586121475878,0.00019587498994949,-0.00019586535684307,0.0001958707842456,-0.00038524449642133,0.00038525606445702,-0.00038524591035003,0.00038525462362846,-0.00050587503315299,0.00050588908358421,-0.00050587645876777,0.00050588766029527,-0.00050587356231943,0.00050589059735014,-0.00050587500204547,0.00050588917344008,-0.00044205743561428,0.00044207747595598,-0.00044206168405579,0.00044207330932893,-0.00044205913923654,0.00044207584736075,-0.00044206331850944,0.00044207165926027,-0.00019585601863226,0.00019587997260293,2.951654876999e-09,-2.2956189571519e-09,2.158423346619e-09,-1.5962156869123e-09,-0.00054068531833958,0.00054068592741408,-0.00053310646843597,0.00053310498951344,-0.00055237661550279,0.00055238376128409,-0.00055238118297683,0.00055237788290649,-0.00052171752262651,0.00052172103842751,-0.00052171879316333,0.00052171984008971,-0.00052171901752886,0.00052171916186607,-0.00052172029883108,0.00052171795334678,-0.00053310400985543,0.00053310661668838,-0.00053310793259785,0.00053310312967404,-0.00055237786403265,0.00055238256589999,-0.00055238248454625,0.00055237666531475,-0.00053310256057106,0.00053310844946572,-4.0068091664116e-09,2.6609641416147e-10,-0.00038422018894196,0.00038421643987189,-3.8821480582048e-09,-3.5512113023625e-11,-0.00032797971008843,0.00032797545287513,-0.00030707097134491,0.00030707223775933,-0.00030707244725446,0.0003070708932613,-0.0003279793135848,0.00032797601199768,-0.00032798315646874,0.00032797141212907,-0.00030707495165073,0.00030706861746709,-0.0003070761111864,0.00030706689432338,-0.00045488426099879,0.00045487787592554,-0.00045488299263007,0.00045487921320054,-0.00045488284707496,0.00045487931870708,-0.00045488151831131,0.0004548805781845,-0.00044490556696768,0.00044490729181163,-0.00044490983666337,0.00044490322002893,-0.00044491101977976,0.00044490185224825,-0.00044490693236585,0.00044490615148475,-0.00032797540238818,0.00032797943550958,0.72120224485936,128566,2924,0.0017928421819291,0.002250293353257,0.0015997417787703,16.958784815625,-0.000104329721475,-0.000104329721475,-0.000104329721475,2935612.8355384,0.005659038876278
21191759,0.3585876319513,0.0061572811257694,0.0020120874814173,0.0022675425505875,0.0018776510937645,-0.0004372661345312,0.00043728071869651,9.4761621349206e-09,5.0602452836786e-09,5.08783115778e-09,1.0066458598894e-08,-0.00019685607622969,0.00019687183277447,-0.0003911154648758,0.00039113702731184,-0.00039111694558766,0.00039113554711297,-0.00019685707377136,0.00019687109710554,-0.00019686135048834,0.00019686675019465,-0.00039112053275412,0.00039113225440701,-0.00039112198385911,0.00039113076880573,-0.00051423680047963,0.00051425108464212,-0.00051423827163533,0.00051424961716135,-0.00051423528835335,0.00051425264071361,-0.00051423677122985,0.00051425117551163,-0.00044881674766119,0.00044883718253083,-0.00044882112317561,0.00044883289842102,-0.00044881848828609,0.00044883551692872,-0.00044882280618207,0.00044883119849745,-0.00019685174832521,0.00019687619025348,3.0783643489646e-09,-2.2994792771924e-09,2.3118005345217e-09,-1.6242021496216e-09,-0.00055001181120431,0.00055001253709529,-0.00054240301970817,0.0005424015356555,-0.00056175192038176,0.0005617593924584,-0.00056175662067173,0.00056175336608318,-0.0005305841874522,0.0005305879176429,-0.00053058551881371,0.00053058665575579,-0.00053058572788533,0.00053058599187814,-0.0005305870652664,0.0005305847242442,-0.00054240042226461,0.0005424032957598,-0.00054240451375546,0.00054239963531317,-0.00056175324828481,0.00056175813443821,-0.00056175797292572,0.00056175209944086,-0.000542398936059,0.00054240518225075,-4.0652557510223e-09,3.4485312782844e-10,-0.00038908820779456,0.00038908447985623,-3.9598186544218e-09,6.5297468618001e-11,-0.00033102991017765,0.00033102570755936,-0.00030990109691874,0.00030990261055891,-0.00030990262217131,0.00030990121625889,-0.00033102958978507,0.00033102625944821,-0.00033103353771909,0.00033102152638063,-0.00030990528378821,0.00030989883826722,-0.00030990647176699,0.00030989706603073,-0.00046155827053036,0.00046155180267527,-0.00046155694643541,0.00046155320064184,-0.00046155681307771,0.00046155329025991,-0.00046155542386192,0.00046155461159738,-0.0004515446142068,0.00045154655981809,-0.00045154902750002,0.000451542352952,-0.00045155026522973,0.00045154092492781,-0.00045154604620504,0.00045154535754051,-0.00033102545891728,0.000331029836083,0.72387546922664,128566,2924,0.0018206222301642,0.0022890630294206,0.0016199980622828,16.045951192867,-0.00011163239045707,-0.00011163239045707,-0.00011163239045707,2948230.1289801,0.0057463500167076
21391759,0.36495848086772,0.006261467397017,0.002046239715037,0.0023083115513926,0.0019069161305874,-0.00044385970127546,0.00044387439085648,9.5937101250867e-09,5.0481339906262e-09,5.3332858828213e-09,9.9298987503064e-09,-0.0001980352403266,0.00019805061993659,-0.00039701684791115,0.00039703818060867,-0.0003970183601279,0.00039703665919984,-0.00019803575537469,0.00019805039687878,-0.00019804016507178,0.00019804591216534,-0.00039702155198689,0.00039703379881178,-0.00039702304216515,0.00039703226674799,-0.00052241879097269,0.00052243334991657,-0.00052242030803784,0.00052243183807354,-0.0005224174066137,0.00052243477716913,-0.0005224189319162,0.00052243327139849,-0.00045549763804281,0.00045551816867698,-0.00045550214219311,0.00045551376796997,-0.00045549924659493,0.00045551663725783,-0.00045550370429629,0.00045551219019781,-0.00019803080643166,0.00019805509243665,2.9737870016425e-09,-2.0184030053207e-09,2.4737437142688e-09,-1.609415394288e-09,-0.00055913102273695,0.00055913191690946,-0.00055151526809379,0.00055151369234074,-0.00057090027559897,0.00057090760675386,-0.00057090460987113,0.0005709019494849,-0.00053924676277802,0.00053925057721772,-0.00053924814317962,0.00053924926439407,-0.00053924818342695,0.00053924877548004,-0.00053924956603172,0.00053924746036128,-0.000551512395325,0.00055151572641925,-0.00055151662278493,0.00055151192451755,-0.00057090166847577,0.00057090630029902,-0.00057090600320449,0.0005709006434029,-0.00055151104294868,0.0005515174937529,-4.1313507064549e-09,4.1638753559881e-10,-0.00039394369849705,0.00039393997698258,-4.0267539632729e-09,1.4107907210086e-10,-0.00033417710353202,0.0003341728964937,-0.00031284305372074,0.00031284476697577,-0.00031284462893546,0.00031284332188184,-0.00033417681876894,0.0003341734752699,-0.00033418086968795,0.00033416861521808,-0.00031284741331619,0.0003128408761757,-0.00031284862912753,0.00031283905674323,-0.00046812047463994,0.00046811392122061,-0.00046811910744915,0.00046811536826522,-0.00046811897338487,0.00046811545274866,-0.00046811753587581,0.00046811682549173,-0.00045809907670476,0.00045810121578425,-0.00045810363535217,0.00045809687194357,-0.00045810491315046,0.00045809539807928,-0.00045810056258451,0.00045809996111113,-0.00033417249881575,0.00033417717838904,0.72692810562697,128566,2924,0.0018480622424787,0.0023269696758688,0.0016402017142458,15.323715700766,-0.00011741027439387,-0.00011741027439387,-0.00011741027439387,2960806.8043129,0.0058324053646145
21591759,0.37100518169104,0.0063612081734814,0.0020789440174668,0.0023473532410463,0.0019349109149683,-0.00045020385065976,0.00045021860067074,9.6916986632144e-09,5.009959173473e-09,5.6334124516018e-09,9.6910843954504e-09,-0.00019923532778491,0.00019925009280073,-0.00040278710762998,0.00040280802153354,-0.00040278866968784,0.00040280645274597,-0.00019923517442532,0.00019925053041435,-0.00019923970950234,0.00019924592197855,-0.00040279128773138,0.0004028041725971,-0.00040279282258655,0.00040280259739244,-0.00053025680711886,0.00053027164650607,-0.00053025836814066,0.00053027009007939,-0.00053025559639779,0.00053027289368187,-0.0005302571676918,0.00053027134116242,-0.00046194523417651,0.00046196576616169,-0.00046194987831018,0.00046196123249874,-0.00046194666625665,0.00046196441543076,-0.00046195125473904,0.0004619598402571,-0.00019923074648712,0.00019925470660142,2.8050280030847e-09,-1.6592343141777e-09,2.6242192945195e-09,-1.5797331288843e-09,-0.00056788553475597,0.00056788661357015,-0.00056029953873975,0.00056029784768179,-0.00057966484617452,0.00057967188365818,-0.00057966865520062,0.00057966674655904,-0.00054755036211092,0.00054755422856606,-0.0005475517789826,0.00054755287684387,-0.00054755161452845,0.00054755260196288,-0.00054755303616319,0.00054755124562962,-0.00056029636390624,0.00056030017126224,-0.00056030071680038,0.00056029625163179,-0.00057966627273603,0.00057967054027713,-0.00057967009391812,0.00057966539538,-0.00056029519316515,0.00056030175871008,-4.1995888513912e-09,4.7863671258544e-10,-0.00039860567188711,0.00039860194385434,-4.0934598546177e-09,1.9914504758316e-10,-0.0003372449679994,0.00033724075981415,-0.000315719037033,0.00031572090375254,-0.0003157206544241,0.00031571941996404,-0.00033724466732182,0.00033724133366202,-0.00033724885192894,0.00033723632930835,-0.00031572351291824,0.00031571689091975,-0.00031572477094301,0.00031571501777254,-0.00047440140434353,0.00047439475969237,-0.00047439999496189,0.00047439624973352,-0.00047439985852616,0.00047439633589256,-0.00047439837972519,0.00047439774821061,-0.00046443564470681,0.00046443794825483,-0.00046444034204188,0.0004644334943793,-0.00046444166074907,0.00046443197193019,-0.00046443717425769,0.00046443665905263,-0.00033724024114842,0.00033724515392801,0.7332839305045,128566,2924,0.0018744638035977,0.0023633589250173,0.0016595998845161,14.65845893878,-0.00012273232848976,-0.00012273232848976,-0.00012273232848976,2971202.9047085,0.0059150864158499
21791759,0.3767437104777,0.006454520164966,0.0021095914168073,0.0023838864044526,0.0019610423437061,-0.00045608792279501,0.00045610270837653,9.7763918428223e-09,4.9620476673351e-09,5.8860665811622e-09,9.4746976954009e-09,-0.00020016764677401,0.00020018185991621,-0.00040805304306057,0.00040807357812324,-0.00040805465070352,0.00040807196704592,-0.00020016689729966,0.00020018289102007,-0.00020017156736063,0.0002001781471827,-0.00040805676453566,0.00040807019319062,-0.00040805834714243,0.00040806857225703,-0.00053758999341825,0.00053760506564639,-0.00053759159884182,0.00053760346459956,-0.0005375889343229,0.00053760615490098,-0.00053759054949503,0.00053760455828856,-0.00046790503955701,0.00046792557496619,-0.00046790981220032,0.0004679209125601,-0.0004679063143533,0.00046792438330223,-0.0004679110321351,0.00046791967731654,-0.0002001629376658,0.00020018660014516,2.6666500045258e-09,-1.3315613480678e-09,2.767362011696e-09,-1.5432959219572e-09,-0.00057606077886662,0.00057606204137526,-0.00056848835080352,0.00056848657315969,-0.00058785654134273,0.00058786334217529,-0.0005878598889995,0.00058785866081751,-0.00055530020879502,0.00055530414295323,-0.00055530165996793,0.00055530275627989,-0.00055530131290007,0.00055530267029237,-0.00055530276818944,0.00055530127951944,-0.00056848490932923,0.00056848915272578,-0.00056848937009762,0.00056848513308141,-0.0005878580012961,0.00058786196065952,-0.00058786136329079,0.00058785727441825,-0.00056848389409874,0.00056849058499645,-4.2674500180964e-09,5.448122641571e-10,-0.00040287271012229,0.0004028689798545,-4.1489448710518e-09,2.5035561953056e-10,-0.00033988668522079,0.00033988244438347,-0.00031821630681984,0.0003182183186522,-0.00031821797071809,0.00031821679027526,-0.00033988634566773,0.00033988303284528,-0.00033989066349429,0.00033987790290241,-0.00031822088272668,0.00031821419406224,-0.00031822218300521,0.00031821227414276,-0.00048024776057111,0.00048024103492138,-0.00048024631600839,0.00048024256032453,-0.00048024616944948,0.0004802426548882,-0.0004802446546454,0.00048024410248037,-0.00047028416765864,0.00047028664080007,-0.00047028900606329,0.0004702820645923,-0.00047029035821226,0.00047028050499495,-0.0004702857360042,0.00047028531692238,-0.0003398818234737,0.00033988696889357,0.72318902481672,128566,2924,0.0018989508913691,0.0023973391119402,0.0016773548305667,13.994735433898,-0.00012804211652881,-0.00012804211652881,-0.00012804211652881,2980477.2094147,0.0059917719130215
21991759,0.38253288253445,0.0065472061753031,0.0021400875494501,0.0024201709886143,0.0019869476372386,-0.00046339520522757,0.00046340985606753,9.7747349722327e-09,4.8309947031632e-09,6.3554103880311e-09,8.862085565678e-09,-0.00020238507636442,0.00020239797201285,-0.00041467556368122,0.00041469492951465,-0.00041467720412627,0.0004146932775017,-0.00020238314457895,0.00020240021111571,-0.00020238795195592,0.00020239532803427,-0.0004146782292965,0.00041469262524556,-0.00041467985311324,0.00041469095681217,-0.0005464097380155,0.00054642507713183,-0.00054641138899477,0.00054642343163312,-0.00054640903266916,0.00054642580445442,-0.00054641068972861,0.00054642416703208,-0.00047529716644384,0.00047531732827991,-0.00047530206648736,0.00047531254946372,-0.00047529807766533,0.00047531650452294,-0.00047530293513742,0.00047531166982453,-0.00020238025957349,0.00020240282391476,2.2759899241878e-09,-6.3515643990675e-10,2.9748863567933e-09,-1.4510609980826e-09,-0.00058573213091752,0.00058573368652576,-0.00057812323240704,0.0005781212820324,-0.00059756032571073,0.00059756640222842,-0.00059756262196771,0.0005975627961741,-0.00056454387732267,0.00056454777965963,-0.00056454536715017,0.00056454635247292,-0.00056454463436388,0.00056454666737198,-0.00056454612443191,0.00056454524010166,-0.00057811931804812,0.00057812434115858,-0.00057812388299519,0.00057812021151852,-0.00059756183841899,0.0005975649820628,-0.00059756412827331,0.00059756138126769,-0.00057811866521375,0.00057812541765395,-4.3368484785505e-09,6.1340695419982e-10,-0.00040854042992618,0.00040853670033364,-4.203793516996e-09,3.0756220316835e-10,-0.00034386333286498,0.00034385905322469,-0.00032205648473945,0.0003220586618491,-0.00032205819939185,0.00032205708286742,-0.0003438629854136,0.00034385968436885,-0.00034386741852597,0.00034385443593898,-0.00032206119839072,0.0003220544430129,-0.00032206253125002,0.00032205248017007,-0.00048754159524393,0.00048753478900499,-0.00048754011720494,0.00048753635238536,-0.00048753995908683,0.00048753645195731,-0.00048753840629854,0.00048753794071301,-0.00047753698380655,0.00047753963595163,-0.0004775419775328,0.00047753493206241,-0.00047754335620223,0.00047753333238562,-0.00047753859763366,0.00047753826996435,-0.00034385831629036,0.00034386372612892,0.71247115269114,128566,2924,0.0019293565104687,0.0024375367671323,0.0017009359233271,14.108739968593,-0.00012713008025126,-0.00012713008025126,-0.00012713008025126,3006176.809824,0.0060865352935876
22191759,0.38847648899224,0.0066407398667031,0.0021709085113593,0.0024568182199907,0.0020130131353532,-0.00047122580618982,0.00047124036707259,9.7983590312104e-09,4.7192992983812e-09,6.6831410485696e-09,8.4379558514173e-09,-0.00020497647405831,0.00020498839242203,-0.00042171681380723,0.00042173539366369,-0.00042171850230975,0.0004217336945324,-0.00020497366576154,0.00020499151339844,-0.00020497859832293,0.0002049865050444,-0.0004217187510062,0.00042173383532607,-0.00042172041928824,0.0004217321246597,-0.00055582922384527,0.000555844763936,-0.0005558309192193,0.00055584307438937,-0.0005558287607143,0.00055584524045606,-0.00055583046374591,0.00055584355720285,-0.00048319525022587,0.00048321520137013,-0.00048320028704478,0.00048321028859168,-0.0004831959127596,0.00048321462791868,-0.00048320089875185,0.00048320966384208,-0.00020497151586956,0.00020499338542269,2.044653621706e-09,-1.2111938070959e-10,3.1582354988087e-09,-1.3658999756933e-09,-0.00059599690793837,0.00059599873602687,-0.0005882920004278,0.00058828997273551,-0.00060785980822359,0.00060786546060727,-0.00060786137279767,0.00060786259712786,-0.00057439516340054,0.00057439912324149,-0.00057439668338836,0.00057439766482813,-0.00057439567995846,0.00057439826042235,-0.00057439720207964,0.00057439679989194,-0.00058828773729654,0.00058829337506117,-0.00058829240410372,0.000588289149265,-0.00060786134800258,0.00060786401082643,-0.00060786291482934,0.00060786114603776,-0.00058828733558112,0.00058829419810887,-4.4001609509064e-09,6.8172447987701e-10,-0.00041469364345507,0.00041468991846292,-4.2518877450637e-09,3.5905449034318e-10,-0.00034819403045151,0.00034818973223055,-0.00032629009011393,0.00032629240827432,-0.00032629184755019,0.00032629078963394,-0.0003481936417209,0.00034819038446997,-0.00034819821628828,0.00034818500227651,-0.0003262948956153,0.00032628809062258,-0.00032629627330362,0.00032628607862481,-0.00049538730004892,0.00049538042135388,-0.00049538578869465,0.00049538201947227,-0.0004953856179999,0.0004953821281244,-0.00049538403328876,0.00049538364942434,-0.00048527268498835,0.0004852755050552,-0.00048527781771533,0.0004852706878638,-0.00048527922938319,0.0004852690491864,-0.00048527433407968,0.00048527411200422,-0.00034818888874561,0.00034819452081151,0.70115780494836,128566,2924,0.0019619383451985,0.0024801991215541,0.0017265361641444,14.45140722885,-0.0001243887421692,-0.0001243887421692,-0.0001243887421692,3038766.2141286,0.0061880098420458
22391759,0.39457860455691,0.0067405227991516,0.002203714366663,0.0024959712486065,0.0020408371838821,-0.00047947135338578,0.00047948605588956,9.9362483672344e-09,4.7225858507219e-09,6.795156805771e-09,8.4750955632657e-09,-0.00020801326350253,0.00020802512305367,-0.00042943655074609,0.00042945525422829,-0.00042943828734461,0.00042945351010935,-0.00020801025036243,0.00020802844610714,-0.00020801531247019,0.00020802330595406,-0.00042943842170835,0.0004294537720034,-0.00042944013525727,0.00042945201555938,-0.000565615701594,0.00056563144884501,-0.00056561744105664,0.00056562971446237,-0.00056561526020871,0.00056563189821238,-0.00056561700833305,0.0005656301694753,-0.00049162811591824,0.0004916482976855,-0.00049163328889122,0.00049164325584879,-0.000491628749503,0.00049164775693171,-0.00049163386517197,0.00049164266280633,-0.00020800816966645,0.00020803025019667,2.1023369795778e-09,5.0885621949767e-13,3.2968518489097e-09,-1.3351230893767e-09,-0.00060675575620886,0.00060675775865308,-0.00059902659706614,0.00059902460502517,-0.00061860951896828,0.00061861532226048,-0.00061861100883804,0.00061861251283325,-0.00058470302547972,0.00058470717542457,-0.00058470457935295,0.00058470568249978,-0.00058470352218728,0.00058470633164885,-0.00058470507893086,0.00058470483589398,-0.00059902219443858,0.00059902812742997,-0.00059902697447028,0.00059902380076696,-0.00061861109144221,0.00061861383612,-0.00061861259043327,0.00061861102407283,-0.00059902181958595,0.00059902892786108,-4.4761707671115e-09,7.3796247569962e-10,-0.00042119965321682,0.00042119590739504,-4.3192938550827e-09,4.0197465758801e-10,-0.00035308634450424,0.00035308200485751,-0.00033103652736439,0.00033103897113401,-0.00033103832964269,0.00033103731083685,-0.00035308592297955,0.00035308266929174,-0.0003530906299187,0.00035307715198308,-0.00033104143409017,0.00033103454043656,-0.0003310428535945,0.00033103247753985,-0.00050354946761966,0.00050354248801895,-0.00050354791979834,0.00050354412348099,-0.00050354774152285,0.00050354424001614,-0.00050354612008569,0.00050354579657432,-0.00049353101867181,0.00049353398726556,-0.00049353628732024,0.00049352905010829,-0.0004935377340111,0.00049352737007118,-0.00049353270783256,0.00049353256223458,-0.00035308107581321,0.00035308691632797,0.72867975312458,128566,2924,0.001996246012974,0.0025249124205328,0.001753603435355,14.800232864516,-0.00012159813708387,-0.00012159813708387,-0.00012159813708387,3067900.9793674,0.0062947707689296
22591759,0.40084072310748,0.0068439153734224,0.0022376807100832,0.0025366275987074,0.0020696070646319,-0.00048795156357175,0.00048796651300931,1.0125201224009e-08,4.7779048287504e-09,6.8165030236587e-09,8.7141044659725e-09,-0.00021092106249885,0.00021093326666398,-0.00043743592995317,0.00043745515368009,-0.00043743771133289,0.0004374533648584,-0.00021091814312842,0.00021093650258114,-0.00021092333326836,0.00021093122980508,-0.00043743802349184,0.00043745346023096,-0.00043743978024398,0.0004374516582866,-0.00057570516363499,0.00057572112542733,-0.00057570694747232,0.00057571934637736,-0.00057570465028683,0.00057572164532917,-0.00057570644313056,0.00057571987199444,-0.00050036540494392,0.00050038600855411,-0.00050037071652598,0.00050038084383482,-0.000500366103301,0.00050038540729383,-0.00050037135314908,0.00050038018544089,-0.0002109158383563,0.00021093852611537,2.2782304245655e-09,-5.1967106411159e-11,3.4269187486904e-09,-1.3451639831343e-09,-0.00061792578756584,0.00061792791027174,-0.00061026869639325,0.00061026675971637,-0.00062977171473067,0.00062977791512068,-0.00062977341491039,0.00062977486383401,-0.00059532987182681,0.00059533426293639,-0.00059533147050007,0.00059533272413739,-0.00059533044338581,0.00059533333881245,-0.0005953320449518,0.00059533179717371,-0.00061026422002216,0.00061027033750477,-0.00061026914101588,0.00061026587664541,-0.00062977333488847,0.00062977638289885,-0.00062977504449988,0.00062977332904205,-0.00061026377835835,0.00061027121639783,-4.5541233989662e-09,7.9341832038608e-10,-0.00042784289524492,0.00042783912627734,-4.4026747656123e-09,4.6016668333583e-10,-0.00035801732442943,0.00035801297018989,-0.00033582709291542,0.0003358296940981,-0.00033582894040864,0.00033582799057354,-0.00035801691551158,0.00035801363191395,-0.0003580217435084,0.00035800797388384,-0.00033583214492233,0.00033582513103092,-0.00033583360010677,0.00033582301474306,-0.00051196221583392,0.00051195512248438,-0.00051196062227752,0.00051195680594274,-0.00051196044670835,0.0005119569205681,-0.00051195877779242,0.00051195852315011,-0.00050209898182828,0.0005021021077783,-0.0005021043874477,0.00050209704638345,-0.00050210587596468,0.00050209531142249,-0.00050210072456063,0.00050210063980114,-0.00035801192635754,0.00035801801126275,0.73620698775698,128566,2924,0.0020315305301874,0.0025713321868584,0.0017812413235325,15.149309550903,-0.00011880552359277,-0.00011880552359277,-0.00011880552359277,3093093.7117955,0.0064048185321969
22791759,0.40716134484237,0.0069491813430775,0.0022722462910633,0.0025781045605137,0.0020988304915005,-0.0004961652523831,0.00049618052564999,1.0352247643823e-08,4.8707312230193e-09,6.7617447416337e-09,9.1092239607108e-09,-0.00021352752028896,0.00021354037324258,-0.00044522225589732,0.00044524230910433,-0.00044522408315881,0.00044524047476751,-0.00021352492470239,0.00021354329053629,-0.00021353024199982,0.00021353788872251,-0.00044522480116087,0.00044524017360262,-0.00044522660062375,0.000445238327365,-0.00058553064930529,0.00058554682502913,-0.00058553247747144,0.00058554500146655,-0.00058552998880569,0.00058554749321955,-0.00058553182680437,0.0005855456747839,-0.0005088210060757,0.00050884222208931,-0.00050882644551552,0.00050883691985876,-0.00050882185674452,0.0005088414663659,-0.00050882723352084,0.00050883611052149,-0.000213522161917,0.00021354576738986,2.5454509023399e-09,-2.4726260070904e-10,3.5528392491115e-09,-1.4002628723422e-09,-0.00062886890744726,0.00062887110073859,-0.00062133614732034,0.00062133425568307,-0.00064070250491548,0.00064070929571799,-0.00064070464274194,0.00064070576949462,-0.00060570707964635,0.00060571175267974,-0.00060570873563745,0.00060571015455993,-0.00060570780188124,0.00060571066991701,-0.0006057094614117,0.00060570906830616,-0.00062133163509115,0.00062133785123665,-0.00062133673714607,0.00062133321448749,-0.00064070418493153,0.00064070770445394,-0.00064070633390506,0.00064070417361815,-0.00062133105031239,0.00062133888617754,-4.6286444863558e-09,8.5175243982796e-10,-0.00043416377596214,0.00043415999018635,-4.5029189357401e-09,5.424146882525e-10,-0.00036260550896103,0.00036260119057886,-0.00034029170093496,0.00034029450563737,-0.00034029359259391,0.00034029275996104,-0.00036260515507428,0.00036260181052093,-0.00036261010422046,0.00036259600802096,-0.00034029693896558,0.00034028977207708,-0.00034029842892812,0.00034028760018662,-0.00052007833834332,0.00052007112388994,-0.00052007668515342,0.00052007286929164,-0.00052007652664711,0.00052007296865172,-0.00052007479661059,0.00052007463037131,-0.00051044489477784,0.00051044820379634,-0.00051045045401636,0.00051044303708955,-0.00051045199469105,0.00051044122651993,-0.00051044671062488,0.00051044668401122,-0.00036259998449929,0.0003626063587377,0.74292714060622,128566,2924,0.0020657068265334,0.0026168062394894,0.0018075379834967,15.28745072084,-0.00011770039423328,-0.00011770039423328,-0.00011770039423328,3113010.5674932,0.0065114612083189
22991759,0.4135265205637,0.0070496220177309,0.0023053659588028,0.0026177103439726,0.0021265457149555,-0.00050407745734986,0.0005040929532447,1.0529028623013e-08,4.914302359473e-09,6.7011027931301e-09,9.404411298455e-09,-0.00021563477877303,0.00021564808718204,-0.00045233366802416,0.00045235435148466,-0.000452335539313,0.00045235247311287,-0.00021563240766754,0.00021565078034744,-0.00021563785732085,0.00021564524608694,-0.00045233656704603,0.00045235186465629,-0.00045233841270626,0.00045234997388602,-0.00059517563829213,0.00059519195851834,-0.0005951775112578,0.00059519009054131,-0.0005951748613424,0.00059519274338012,-0.00059517674364027,0.00059519088064514,-0.00051680545810901,0.000516827143728,-0.00051681102636818,0.0005168217104349,-0.0005168064280045,0.00051682626807756,-0.00051681193530197,0.00051682078124065,-0.00021562929167547,0.00021565361048993,2.7751374322211e-09,-3.8160254339248e-10,3.6939755669644e-09,-1.4490041136248e-09,-0.00063951034817735,0.00063951263566319,-0.00063199396102521,0.00063199209261027,-0.00065137499458465,0.00065138230429845,-0.00065137747852063,0.00065137840246304,-0.00061582639502832,0.00061583134432738,-0.00061582811173222,0.00061582968330849,-0.00061582723387347,0.00061583013706798,-0.00061582895381913,0.00061582847283926,-0.0006319893731549,0.00063199574719795,-0.00063199466308131,0.00063199092653413,-0.0006513767368536,0.00065138064947949,-0.00065137923222211,0.00065137674440072,-0.00063198867477331,0.00063199690766933,-4.6860231212265e-09,9.2817148652578e-10,-0.00044016578696735,0.00044016202001461,-4.5883260807928e-09,6.464296062904e-10,-0.00036648212410149,0.00036647787891987,-0.00034415418628289,0.00034415724000619,-0.0003441561226062,0.00034415544887557,-0.00036648182636618,0.00036647844409241,-0.00036648689786923,0.0003664725051944,-0.00034415961359534,0.00034415232145255,-0.00034416113921289,0.00034415009661224,-0.00052800424286351,0.000527996940784,-0.00052800252787092,0.00052799874942165,-0.00052800238790517,0.0005279988311837,-0.00052800059411315,0.00052800055482007,-0.00051835110064686,0.00051835463008881,-0.00051835681243037,0.00051834935241482,-0.00051835840409009,0.00051834746328911,-0.00051835299396676,0.00051835305495971,-0.00036647646946654,0.0003664831812163,0.70494323137147,128566,2924,0.0020986288627438,0.0026610246811104,0.0018325081471246,15.399255575081,-0.00011680595539935,-0.00011680595539935,-0.00011680595539935,3136417.1012647,0.0066142555410986
23191759,0.41993428909801,0.0071517616851818,0.002339052399702,0.0026580031570142,0.0021547061284656,-0.00051213329694801,0.00051214900409771,1.0699962545158e-08,4.951916083054e-09,6.7064322675095e-09,9.6192898958261e-09,-0.00021824934098543,0.00021826294438981,-0.00045970124979847,0.00045972240496841,-0.00045970316462277,0.00045972048203174,-0.00021824705191751,0.00021826556142773,-0.00021825263242778,0.00021825989679605,-0.00045970436204999,0.00045971971415244,-0.00045970625209178,0.0004597177793618,-0.00060488469153865,0.00060490119354875,-0.00060488660928044,0.00060489928124224,-0.00060488384574846,0.00060490204690048,-0.00060488577252837,0.00060490013979191,-0.0005249301472172,0.00052495222466064,-0.00052493585206206,0.00052494666719947,-0.00052493118476584,0.00052495128090187,-0.0005249368287801,0.0005249456687797,-0.00021824372409392,0.00021826859755288,2.941583119949e-09,-4.3234095310418e-10,3.8433867255855e-09,-1.4855962222316e-09,-0.00065019104059645,0.00065019344059998,-0.00064264512132716,0.00064264325361379,-0.00066205286881809,0.00066206057285735,-0.00066205555902781,0.00066205644416669,-0.00062605947506169,0.00062606466805164,-0.00062606125091425,0.00062606294527667,-0.00062606038470779,0.00062606338542988,-0.00062606216365262,0.00062606165959896,-0.00064264041528646,0.00064264701474595,-0.00064264588802057,0.00064264201274742,-0.00066205467341273,0.00066205885672477,-0.00066205737366246,0.0006620547250758,-0.00064263965211363,0.00064264825071239,-4.7465251705991e-09,1.0014452833778e-09,-0.00044631559952593,0.00044631184546894,-4.6747824538439e-09,7.4597915164861e-10,-0.00037069122774629,0.00037068704766506,-0.00034832550572484,0.0003483287993687,-0.00034832748668913,0.00034832696365167,-0.0003706909874477,0.00037068756666216,-0.00037069618160033,0.00037068149087139,-0.00034833112334543,0.00034832370448277,-0.00034833268427072,0.0003483214268791,-0.00053598560259275,0.00053597820734965,-0.00053598382724152,0.0005359800784812,-0.00053598370411456,0.00053598014321649,-0.00053598184811612,0.00053598192789357,-0.00052637489837878,0.00052637862970422,-0.00052638073096326,0.00052637321014391,-0.00052638238338472,0.00052637125801206,-0.00052637685622537,0.00052637699414961,-0.00037068544264027,0.00037069248231602,0.71242657750362,128566,2924,0.0021321465866149,0.0027054038074683,0.0018580923662908,15.51030521766,-0.00011591755825872,-0.00011591755825872,-0.00011591755825872,3161907.0298362,0.0067184393839718
23391759,0.42638915458572,0.0072549737043989,0.0023731017037191,0.0026987549076739,0.0021831170930059,-0.00052028343377845,0.00052029930834806,1.0849978243105e-08,4.9681322325735e-09,6.7911136083762e-09,9.7099972471758e-09,-0.00022085776905486,0.00022087142206436,-0.00046719824487476,0.00046721962732565,-0.00046720020390531,0.00046721765887582,-0.00022085535959175,0.00022087416434699,-0.00022086106957192,0.00022086836934526,-0.0004672013699809,0.00046721693264463,-0.00046720330416759,0.00046721495358147,-0.00061469985172559,0.00061471655945147,-0.00061470181412341,0.00061471460275542,-0.00061469900316354,0.00061471741352316,-0.0006147009747486,0.0006147154617268,-0.00053319202224279,0.00053321438974551,-0.00053319785933024,0.00053320870187068,-0.00053319305893835,0.00053321344739636,-0.00053319883354725,0.00053320770422649,-0.00022085202130675,0.00022087720835006,3.0165724699582e-09,-3.7073498303605e-10,3.9965168048902e-09,-1.5075486187775e-09,-0.00066102120071766,0.00066102373310707,-0.00065348488299672,0.00065348297622025,-0.00067286829621883,0.00067287620898743,-0.00067287099097691,0.00067287205582043,-0.00063640907439998,0.00063641446147297,-0.000636410905884,0.00063641268081805,-0.0006364099892678,0.00063641317164629,-0.00063641182406881,0.0006364113877018,-0.00065348000046947,0.00065348690017497,-0.00065348564658013,0.00065348172746498,-0.00067287015897484,0.00067287443597466,-0.00067287286446405,0.00067287027919904,-0.00065347924099203,0.00065348814343939,-4.80975556315e-09,1.0714943202256e-09,-0.000452518108515,0.00045251436120056,-4.7597239091885e-09,8.3690326465217e-10,-0.00037490962798353,0.00037490549797747,-0.00035252399632288,0.00035252751214204,-0.00035252602111573,0.00035252563237657,-0.00037490943211625,0.00037490597707516,-0.0003749147497292,0.00037489976230712,-0.00035252978952206,0.00035252224798691,-0.0003525313857402,0.00035251991640745,-0.00054407352340433,0.00054406603192609,-0.00054407169104496,0.00054406796242535,-0.00054407158153197,0.00054406801346149,-0.00054406966682392,0.00054406985540815,-0.00053449251271727,0.00053449644420641,-0.00053449848034972,0.00053449089909223,-0.00053450019077495,0.00053448888578433,-0.00053449453192972,0.00053449475171313,-0.00037490371412246,0.00037491106222309,0.71512157274638,128566,2924,0.0021660562578882,0.0027504018024696,0.0018838954466802,15.633797944606,-0.00011492961644316,-0.00011492961644316,-0.00011492961644316,3184971.2595678,0.0068238725255455
23591759,0.43308202835775,0.0073620128261942,0.0024084292585791,0.0027410587936946,0.0022125247739205,-0.00052944315175527,0.00052945907094311,1.0941016887577e-08,4.9215462512285e-09,7.0775455313864e-09,9.4689584459957e-09,-0.00022421430560132,0.00022422733757189,-0.00047571177682878,0.0004757327363844,-0.00047571378221579,0.00047573071441296,-0.00022421125483197,0.00022423074576838,-0.00022421708080134,0.00022422483205629,-0.00047571440228728,0.00047573056567134,-0.00047571637144861,0.00047572854610682,-0.000625608242798,0.0006256252103885,-0.00062561024998175,0.00062562320979269,-0.00062560756416804,0.00062562588975372,-0.00062560958370897,0.00062562389092751,-0.00054245465605902,0.00054247708065826,-0.00054246062268971,0.00054247124148178,-0.00054245554264574,0.00054247628492443,-0.00054246144686398,0.00054247040888111,-0.00022420841161987,0.00022423327524734,2.8697883288776e-09,-9.6820274560014e-13,4.1968326334968e-09,-1.4895857272962e-09,-0.0006730176769771,0.00067302042281921,-0.00066551575827736,0.00066551372856495,-0.00068485003380889,0.00068485771789401,-0.00068485221899961,0.00068485407557882,-0.00064788470444925,0.00064789018841942,-0.00064788659239556,0.00064788834824404,-0.00064788545354805,0.0006478890699397,-0.00064788734784571,0.00064788722367175,-0.00066551052368752,0.00066551800638533,-0.00066551634829979,0.0006655126459321,-0.0006848519601297,0.00068485589399723,-0.00068485415717085,0.00068485223802762,-0.00066550995005907,0.00066551907617274,-4.8732058619404e-09,1.1378758618353e-09,-0.00045962324548286,0.00045961950215456,-4.8500640512139e-09,9.332870807001e-10,-0.00037994370063248,0.00037993964957348,-0.00035754263921926,0.00035754638448009,-0.00035754470181956,0.00035754446714743,-0.00037994357618691,0.00037994008729744,-0.00037994902678172,0.00037993372394484,-0.00035754863154399,0.00035754096129373,-0.00035755026362084,0.00035753857371006,-0.00055317064364902,0.00055316304923611,-0.00055316875020014,0.00055316504564398,-0.00055316865772767,0.00055316507631779,-0.00055316668321971,0.0005531669792666,-0.00054365000840219,0.00054365413357152,-0.00054365612436813,0.00054364849038313,-0.00054365789284097,0.00054364639753831,-0.00054365209148853,0.00054365238669151,-0.00037993767225501,0.00037994532276059,0.71571043286423,128566,2924,0.0022041640495636,0.0028002432905499,0.0019134521314685,16.146312917703,-0.00011082949665838,-0.00011082949665838,-0.00011082949665838,3214584.7598949,0.0069422016008828
23791759,0.44002145420993,0.0074786578290502,0.0024468073695398,0.0027872581034174,0.002244592356093,-0.00053924683183211,0.00053926289060143,1.1075507776538e-08,4.9253254221525e-09,7.3794888078001e-09,9.3138787026048e-09,-0.00022816451855958,0.00022817713367765,-0.00048524211876272,0.0004852628175435,-0.00048524416696917,0.0004852607563781,-0.00022816089470634,0.00022818111720866,-0.00022816685908718,0.00022817506181832,-0.00048524429912183,0.00048526110598873,-0.00048524631712679,0.00048525903765501,-0.00063712509797273,0.00063714239700962,-0.00063712714927764,0.00063714035111222,-0.00063712456813178,0.00063714292071599,-0.00063712663008383,0.00063714087895281,-0.00055251058897854,0.0005525331313486,-0.00055251667475651,0.00055252716239677,-0.00055251132635971,0.00055253248512709,-0.00055251735779874,0.00055252647576563,-0.00022815850710502,0.00022818319098571,2.7393242552596e-09,3.2145709620637e-10,4.3854542085607e-09,-1.4995667436183e-09,-0.00068581168900609,0.00068581461983502,-0.00067850413564404,0.00067850192662649,-0.00069757945893434,0.00069758695748674,-0.00069758119086275,0.00069758374821392,-0.0006600781642993,0.00066008375535804,-0.0006600801166124,0.00066008184939122,-0.00066007877401624,0.00066008278297695,-0.00066008073041519,0.00066008087286118,-0.00067849854034997,0.00067850654141161,-0.00067850456368651,0.00067850099656682,-0.00069758145143419,0.00069758506186071,-0.00069758319348908,0.00069758184695685,-0.00067849811969595,0.00067850746386035,-4.9547585179977e-09,1.1925389133706e-09,-0.0004672317844728,0.00046722801278788,-4.9651277364015e-09,1.0153805294505e-09,-0.00038568646077818,0.00038568242784389,-0.00036322521976204,0.00036322917236792,-0.00036322733318548,0.00036322720825526,-0.00038568638206488,0.00038568279397646,-0.00038569194914876,0.00038567629904081,-0.00036323140216579,0.00036322354655277,-0.00036323306858381,0.00036322110590752,-0.00056277299874294,0.00056276526725594,-0.00056277104252047,0.00056276732944433,-0.00056277097025721,0.00056276734031921,-0.00056276892810598,0.00056276930852008,-0.0005536041691564,0.00055360847374669,-0.00055361042909853,0.00055360270241924,-0.00055361225682417,0.00055360054221343,-0.00055360632843713,0.00055360666320346,-0.00038568028605138,0.0003856882401793,0.75201415352575,128566,2924,0.0022449501918619,0.0028533945610511,0.0019451018102586,16.668809040815,-0.00010664952767348,-0.00010664952767348,-0.00010664952767348,3239661.5033232,0.0070686819101852
23991759,0.44721116867962,0.0076024931638564,0.0024874825606141,0.0028364509838222,0.0022785596194202,-0.00054951858654943,0.00054953482893623,1.1232960048311e-08,4.9495091232761e-09,7.6804812173797e-09,9.2050467083181e-09,-0.00023212385258889,0.00023213613041025,-0.00049537943062856,0.00049539996258986,-0.0004953815228441,0.00049539785771598,-0.00023211970681689,0.00023214064883669,-0.00023212579966166,0.0002321344599005,-0.00049538121904904,0.0004953986633207,-0.00049538328027191,0.0004953965484053,-0.00064918543679126,0.0006492030959999,-0.00064918753229162,0.00064920100512004,-0.00064918504135354,0.00064920348071982,-0.00064918714768601,0.00064920139453315,-0.00056316625508308,0.00056318897187132,-0.00056317247022602,0.00056318287149923,-0.00056316685763782,0.00056318846084403,-0.00056317301950024,0.00056318232021638,-0.00023211771369946,0.0002321423197456,2.6242880521249e-09,6.0820693454858e-10,4.5856350598202e-09,-1.535545710162e-09,-0.00069933957735952,0.00069934267297454,-0.00069240198321753,0.00069239956903945,-0.00071105316639167,0.00071106051999749,-0.00071105449262435,0.00071105769562685,-0.000672859134966,0.00067286483896517,-0.00067286116269086,0.00067286285547627,-0.00067285962304685,0.00067286399570207,-0.00067286165478985,0.00067286200812284,-0.00069239601168033,0.0006924045433663,-0.00069240227027184,0.00069239877118734,-0.00071105523887108,0.00071105854640399,-0.00071105657525954,0.00071105571656595,-0.00069239573107393,0.00069240533435753,-5.0382748555998e-09,1.2429172100964e-09,-0.00047512085038823,0.00047511704450786,-5.1026677105624e-09,1.1157954779319e-09,-0.00039157263443482,0.00039156866714814,-0.00036910067976329,0.00036910487286352,-0.00036910283903993,0.0003691028650628,-0.00039157265638787,0.00039156893207202,-0.00039157834795779,0.00039156230382268,-0.00036910710175526,0.00036909901898081,-0.00036910880336909,0.00036909652500366,-0.0005727964845157,0.00057278859631803,-0.00057279445064812,0.00057279073881501,-0.00057279441266865,0.00057279071503468,-0.00057279229073976,0.00057279276187582,-0.00056413888645593,0.00056414337091407,-0.00056414528369039,0.00056413747339518,-0.00056414718591139,0.00056413522790676,-0.00056414113302013,0.00056414148500557,-0.00039156632593429,0.0003915746112477,0.77068673110412,128566,2924,0.0022876845523801,0.0029095907569471,0.0019779178424644,17.191708452243,-0.00010246633238206,-0.00010246633238206,-0.00010246633238206,3259615.6313386,0.0072013826340626
24191759,0.45462717367654,0.0077236444351989,0.0025274508726018,0.002884640817275,0.0023115527453221,-0.00055963218996848,0.00055964855695624,1.1361158708709e-08,4.9455164302575e-09,7.8568605288628e-09,9.1607605224513e-09,-0.00023545589713212,0.0002354679685425,-0.00050487694239584,0.00050489743280969,-0.00050487907594971,0.00050489528491749,-0.00023545141399906,0.00023547283750912,-0.00023545764009411,0.00023546651285148,-0.00050487851944743,0.00050489635702245,-0.00050488062645001,0.000504894196423,-0.00066128798760596,0.00066130588533378,-0.00066129012790716,0.00066130374978356,-0.00066128766427506,0.00066130619448626,-0.00066128981411521,0.00066130406481147,-0.00057349661696972,0.00057351950837992,-0.0005735029611184,0.00057351328157293,-0.00057349714598823,0.00057351907181629,-0.00057350344080178,0.00057351280142172,-0.00023544963662551,0.00023547428441507,2.6045341160647e-09,8.0329727279031e-10,4.7988110366757e-09,-1.5805261062477e-09,-0.00071281610908919,0.00071281937394079,-0.00070614867937645,0.00070614610513325,-0.00072453851655233,0.00072454592044826,-0.00072453962500198,0.00072454329667214,-0.00068560016557952,0.00068560605391991,-0.0006856022762841,0.00068560398446636,-0.00068560058869713,0.00068560527880013,-0.00068560270219254,0.00068560320648547,-0.000706142376061,0.00070615139927076,-0.00070614888786172,0.00070614537762743,-0.00072454067672172,0.00072454386048377,-0.000724541791578,0.00072454123490446,-0.00070614217014372,0.0007061521236787,-5.1001005178108e-09,1.3160682619775e-09,-0.00048273155878058,0.00048272776376922,-5.226815197719e-09,1.2500812015915e-09,-0.00039656846652812,0.0003965646280303,-0.00037427782048665,0.00037428232342851,-0.00037428002610797,0.0003742802687209,-0.00039656860637762,0.0003965647677631,-0.00039657442787926,0.00039655801629455,-0.00037428450207814,0.00037427621704832,-0.00037428624077468,0.00037427367390493,-0.00058278685003375,0.00058277884315867,-0.00058278473188685,0.00058278107145914,-0.00058278473390605,0.00058278100634038,-0.00058278252551693,0.00058278313932026,-0.00057433256890198,0.00057433728818251,-0.00057433911192795,0.00057433126793227,-0.0005743410933299,0.00057432893054368,-0.00057433491177049,0.00057433531911851,-0.00039656202127969,0.00039657070933236,0.73179327374798,128566,2924,0.0023297620162673,0.0029655700175438,0.0020095761318954,17.664690897586,-9.8682472819309e-05,-9.8682472819309e-05,-9.8682472819309e-05,3282556.574936,0.0073320577307044
24391759,0.4621177048449,0.0078467451466664,0.0025681040166623,0.0029336348200242,0.0023450063099799,-0.00056942803504198,0.00056944462825274,1.1539549930832e-08,4.9921500693304e-09,7.8811653340295e-09,9.3721774955726e-09,-0.00023899519869718,0.00023900756699792,-0.00051411880302292,0.00051413975583022,-0.00051412097839952,0.00051413756606737,-0.00023899077550426,0.00023901238060548,-0.00023899713629665,0.00023900592081566,-0.00051412056406397,0.00051413850172566,-0.00051412271816471,0.00051413629577134,-0.00067298139728871,0.00067299950047969,-0.00067298358216888,0.0006729973203458,-0.00067298101436317,0.00067299986908041,-0.00067298320741848,0.00067299769598472,-0.00058345720138308,0.00058348047912064,-0.00058346368009554,0.00058347413272441,-0.00058345778448037,0.00058347999018588,-0.00058346421494894,0.00058347359373177,-0.00023898881613436,0.00023901400688415,2.7609682056401e-09,7.6807654528877e-10,4.9835400865065e-09,-1.6471011126034e-09,-0.00072580376490931,0.00072580714865609,-0.0007193434719011,0.00071934083003416,-0.00073751200090535,0.00073751980227164,-0.00073751328890283,0.00073751697302819,-0.00069796708115645,0.0006979732370181,-0.00069796927228603,0.00069797108381222,-0.00069796757222334,0.00069797239351832,-0.00069796976489152,0.00069797023873183,-0.00071933698013382,0.0007193463005485,-0.00071934373915011,0.00071934003684124,-0.00073751424480179,0.00073751765721089,-0.00073751553684658,0.00073751482972075,-0.0007193367111715,0.00071934709442043,-5.1629298830416e-09,1.3886105917213e-09,-0.00049001405174394,0.00049001026587327,-5.3475126739977e-09,1.3790361878488e-09,-0.00040143997035422,0.00040143624821453,-0.00037928179884604,0.00037928660117426,-0.00037928405143015,0.00037928449925439,-0.000401440218148,0.00040143627133032,-0.00040144617369125,0.00040142940114302,-0.00037928872935721,0.00037928024843628,-0.00037929050856656,0.00037927765927882,-0.00059234514207904,0.00059233701751376,-0.00059234294171424,0.00059233932777274,-0.00059234298124523,0.00059233922496697,-0.00059234068913975,0.0005923414410297,-0.00058413287152535,0.00058413780103091,-0.00058413949221529,0.0005841315910112,-0.00058414158010911,0.00058412920891569,-0.00058413527005915,0.00058413573082239,-0.00040143338883844,0.00040144247011999,0.73638899775987,128566,2924,0.0023705160171523,0.0030195143411499,0.0020398689116206,17.858760660188,-9.7129914718498e-05,-9.7129914718498e-05,-9.7129914718498e-05,3304017.3334132,0.007457989872518
24591759,0.46967627747135,0.0079743756014917,0.0026102154443707,0.0029844869114707,0.0023796732456502,-0.00057949597885821,0.00057951281600083,1.1728428169975e-08,5.0451855306923e-09,7.9649710016327e-09,9.5439753140172e-09,-0.00024284835268072,0.0002428609238327,-0.00052383940569073,0.00052386074879249,-0.00052384162877581,0.00052385851121377,-0.00024284389167314,0.00024286578395637,-0.00024285037638478,0.00024285919763324,-0.00052384126143315,0.00052385940803335,-0.00052384345761951,0.00052385715869173,-0.00068489588662352,0.00068491424505333,-0.00068489811583118,0.00068491202049377,-0.00068489547516228,0.00068491464176658,-0.00068489771432545,0.00068491242250589,-0.00059380315724728,0.00059382683157958,-0.00059380977432265,0.00059382035165946,-0.00059380377136575,0.00059382631379886,-0.00059381033438001,0.00059381978923737,-0.00024284183050841,0.00024286750540751,2.8654907204019e-09,7.7299517273396e-10,5.1673998305999e-09,-1.7239922415439e-09,-0.00073912929263146,0.00073913278330829,-0.00073297636094928,0.00073297360528152,-0.00075081327823186,0.0007508213724633,-0.00075081464956394,0.00075081843266733,-0.00071061303621244,0.00071061941868812,-0.00071061530941931,0.0007106171802292,-0.00071061356441972,0.00071061853853641,-0.00071061584090402,0.00071061629677281,-0.00073296964035262,0.00073297929300668,-0.00073297665957155,0.00073297277211365,-0.00075081560615311,0.0007508191439165,-0.00075081698763593,0.00075081620032985,-0.00073296934544416,0.00073298012165589,-5.2315244811397e-09,1.4513754905302e-09,-0.00049749913093359,0.00049749533880525,-5.4829001381911e-09,1.507008306768e-09,-0.00040667879733282,0.00040667520509488,-0.00038459480419356,0.00038459989876383,-0.00038459709738283,0.00038459775533022,-0.00040667917530528,0.00040667510083368,-0.00040668526858211,0.00040666809564735,-0.00038460199516668,0.00038459329349491,-0.00038460381542241,0.00038459065328897,-0.00060209789591341,0.00060208963326685,-0.00060209560767439,0.00060209203246455,-0.00060209569127737,0.00060209188638961,-0.00060209331166938,0.00060209418820909,-0.00059427530049013,0.00059428043637375,-0.00059428203964947,0.00059427409280947,-0.00059428422062139,0.00059427162318321,-0.00059427778211392,0.0005942782790813,-0.0004066721007143,0.000406681552295,0.75660586777352,128566,2924,0.0024124007880445,0.0030748583276917,0.0020710038163698,18.045658834204,-9.5634729326367e-05,-9.5634729326367e-05,-9.5634729326367e-05,3320860.222215,0.0075873353940392
24791759,0.47730011410985,0.008091079140474,0.0026490505067259,0.0030309504398561,0.0024110781938921,-0.00058896891311295,0.00058898582130385,1.1830834483657e-08,5.0141836311614e-09,7.953066415442e-09,9.627433600365e-09,-0.00024556464460339,0.00024557724831158,-0.00053215445624112,0.00053217601197389,-0.00053215672232525,0.00053217372860435,-0.00024556014478963,0.00024558214976109,-0.0002455667626129,0.00024557543521807,-0.00053215641193197,0.00053217457837811,-0.0005321586545197,0.00053217228730581,-0.00069647812401706,0.00069649656391618,-0.00069648039841551,0.00069649429541974,-0.00069647768142731,0.00069649699057278,-0.00069647996525467,0.00069649472698778,-0.00060324282849747,0.00060326675598291,-0.00060324957151676,0.00060326014019341,-0.00060324348414547,0.00060326619443666,-0.00060325017804763,0.00060325953943105,-0.0002455579928456,0.00024558396051353,2.9941373025724e-09,8.0332039008409e-10,5.3620895094638e-09,-1.7645105475316e-09,-0.00075185907424279,0.00075186272006843,-0.00074577781175931,0.00074577501163202,-0.00076360865700976,0.00076361708767738,-0.00076361012644019,0.00076361404440784,-0.00072274736252981,0.00072275400721487,-0.00072274971041585,0.00072275168984333,-0.00072274792167652,0.00072275309388939,-0.00072275027266689,0.00072275077339914,-0.00074577089329498,0.0007457808995806,-0.00074577814053025,0.00074577414475444,-0.00076361106124035,0.00076361478150252,-0.00076361253949668,0.00076361173506175,-0.00074577056817492,0.00074578176224434,-5.2712500377824e-09,1.545379168104e-09,-0.00050437329588396,0.00050436955813273,-5.571404119111e-09,1.6529219131514e-09,-0.00041056886148323,0.00041056542732233,-0.00038869769340188,0.00038870311962981,-0.00038870003119407,0.00038870093194351,-0.00041056934149295,0.00041056522367325,-0.00041057556816597,0.00041055809043104,-0.00038870511965198,0.00038869628689596,-0.00038870697986268,0.00038869359803936,-0.00061153338447008,0.00061152505370058,-0.00061153101920093,0.00061152753031497,-0.00061153113494484,0.00061152735105899,-0.00061152867840501,0.00061152973053367,-0.00060349432163885,0.00060349972394897,-0.00060350120589694,0.00060349326337929,-0.00060350346279222,0.00060349071256579,-0.00060349688468366,0.00060349749097025,-0.000410562035781,0.00041057190526919,0.68706804088312,128566,2924,0.0024518113275257,0.0031277252631267,0.0020995985789686,18.232267111719,-9.4141863106245e-05,-9.4141863106245e-05,-9.4141863106245e-05,3343059.3398119,0.0077091533716392
24991759,0.48505375982169,0.0082117764443766,0.0026892174184711,0.0030789892436354,0.0024435697822701,-0.00059898260191214,0.00059899958789092,1.193602900336e-08,4.9869249640273e-09,7.9874187758392e-09,9.6731268579968e-09,-0.00024937475256864,0.00024938731891672,-0.00054121100555252,0.00054123269678668,-0.00054121331376899,0.00054123036914597,-0.00024937013348247,0.0002493923448881,-0.00024937688444017,0.00024938550015748,-0.0005412129769317,0.00054123125544163,-0.00054121526542297,0.0005412289212625,-0.00070849270686332,0.00070851126352307,-0.00070849502604465,0.00070850895080368,-0.00070849226085397,0.00070851169211129,-0.00070849458864199,0.00070850938461631,-0.00061321239366827,0.00061323652446451,-0.00061321926965702,0.00061322978398195,-0.00061321305135684,0.00061323596455176,-0.00061321987918747,0.00061322918153481,-0.0002493679739539,0.00024939415866368,3.0921393379128e-09,8.8716479425392e-10,5.5444163680623e-09,-1.7699747371044e-09,-0.00076498356198496,0.00076498738531672,-0.00075886876355576,0.00075886596013849,-0.00077675087243673,0.00077675956307952,-0.00077675235577406,0.00077675649913799,-0.00073541193283109,0.0007354188197784,-0.00073541434038692,0.0007354164396737,-0.00073541249739676,0.00073541790031071,-0.00073541490739252,0.00073541551764998,-0.00075886166246933,0.00075887202575028,-0.00075886909139512,0.00075886508609898,-0.00077675333909152,0.00077675719487371,-0.00077675482860499,0.00077675412952513,-0.00075886133687727,0.00075887289766119,-5.3235257623035e-09,1.6278887708508e-09,-0.00051183442616394,0.00051183071928863,-5.648099157456e-09,1.7617777713764e-09,-0.00041563458219577,0.0004156312277369,-0.0003936690704117,0.00039367475701802,-0.00039367145296395,0.00039367252326734,-0.00041563511498314,0.00041563097595219,-0.00041564147238983,0.00041562371512867,-0.000393676684684,0.0003936677447251,-0.00039367858291872,0.00039366500675588,-0.0006213849128703,0.00062137650647448,-0.00062138248718395,0.00062137904475972,-0.0006213826192554,0.00062137884899189,-0.00062138010125124,0.00062138129024606,-0.00061323702985414,0.00061324265741663,-0.00061324405412922,0.00061323607084624,-0.00061324636970354,0.00061323345607204,-0.00061323965706495,0.00061324036235507,-0.00041562762553379,0.00041563784289267,0.69911855037243,128566,2924,0.0024934659645086,0.0031822280503369,0.0021306332843048,18.541799682946,-9.1665602536433e-05,-9.1665602536433e-05,-9.1665602536433e-05,3371858.8962269,0.0078373539210252
25191759,0.49312010378001,0.0083409104506704,0.0027321227226802,0.0031304320214391,0.0024783557065511,-0.00061015288352048,0.0006101699313973,1.2037783127231e-08,4.9480855788821e-09,8.1800718141417e-09,9.5433804154556e-09,-0.00025402302555065,0.00025403517973384,-0.00055165340725578,0.00055167489494926,-0.00055165576139418,0.00055167251005078,-0.00025401796817409,0.00025404067679195,-0.00025402483253502,0.00025403371937523,-0.00055165508834297,0.00055167378146051,-0.00055165740639985,0.00055167140833462,-0.00072173092401488,0.00072174969041547,-0.00072173328913348,0.00072174733359165,-0.00072173058160434,0.00072175001379321,-0.00072173295958473,0.00072174765858539,-0.00062445135612729,0.0006244755794291,-0.00062445838252707,0.0006244687023454,-0.00062445190136814,0.00062447513541127,-0.00062445886459572,0.00062446821819117,-0.0002540160921196,0.00025404217665491,3.0528125139379e-09,1.1551080545948e-09,5.7454297325361e-09,-1.7431379688316e-09,-0.00077954501676154,0.00077954905812519,-0.00077354728734362,0.00077354445421052,-0.00079131367181578,0.00079132234358098,-0.00079131485207025,0.00079131958997218,-0.00074938842801212,0.00074939547728753,-0.00074939088912797,0.00074939303962745,-0.00074938889479396,0.00074939466020685,-0.00074939136188349,0.00074939221656058,-0.00077353992154038,0.00077355080574483,-0.0007735475133929,0.0007735436773903,-0.00079131620346352,0.00079131993083303,-0.00079131738603626,0.00079131716233223,-0.00077353971319115,0.0007735515725571,-5.3873042806355e-09,1.6913280426168e-09,-0.00052031020137838,0.00052030649640464,-5.7368379629646e-09,1.8582703178885e-09,-0.00042182725514504,0.00042182398714283,-0.00039964219413511,0.00039964810911731,-0.00039964461198191,0.00039964584157108,-0.00042182787033728,0.00042182370494015,-0.00042183437113142,0.00042181629856769,-0.00039965001471383,0.00039964095275148,-0.0003996519500352,0.00039963816109014,-0.00063236418242861,0.00063235567108844,-0.0006323616948976,0.00063235827450438,-0.00063236184292106,0.00063235805658289,-0.00063235926850477,0.00063236056013854,-0.00062431912257456,0.00062432493116548,-0.00062432628335178,0.00062431824224869,-0.00062432866408131,0.00062431555404707,-0.0006243218080939,0.00062432258149383,-0.00042182019432963,0.00042183070575996,0.71926998240829,128566,2924,0.002539929325308,0.0032426947685832,0.002165886775488,19.180572374702,-8.6555421002388e-05,-8.6555421002388e-05,-8.6555421002388e-05,3400011.4273532,0.0079806823103028
25391759,0.50150714511174,0.008482512935131,0.0027789971006936,0.0031869774242824,0.0025165384101549,-0.00062211067516786,0.00062212791951655,1.2200633463633e-08,4.9809979664018e-09,8.3945558495075e-09,9.5363749442033e-09,-0.0002592047168321,0.00025921674280083,-0.0005633435531625,0.000563365071316,-0.00056334595309415,0.00056336264980783,-0.0002591993060432,0.00025922257084169,-0.0002592063116302,0.00025921547111065,-0.00056334500721172,0.00056336418156057,-0.00056334737754286,0.00056336175922404,-0.00073576087249863,0.0007357799495824,-0.00073576328080136,0.00073577754681403,-0.00073576060377932,0.00073578019471366,-0.00073576302330446,0.0007357777963049,-0.00063669401954604,0.00063671847669226,-0.00063670116754971,0.00063671147373145,-0.00063669448589503,0.00063671812018611,-0.00063670157187273,0.00063671106849845,-0.00025919766489542,0.00025922385601295,3.0271917662518e-09,1.3434263000134e-09,5.9168216417191e-09,-1.7627913495225e-09,-0.00079519077314392,0.00079519497557389,-0.00078953797088037,0.00078953501819791,-0.00080694205860716,0.0008069507432702,-0.00080694300811115,0.00080694818547829,-0.00076429967887964,0.00076430689272665,-0.00076430220208455,0.00076430439233148,-0.00076430008478066,0.00076430614172369,-0.00076430261196362,0.00076430363703995,-0.00078953032856821,0.00078954161235648,-0.00078953811994828,0.00078953431238382,-0.0008069446491924,0.00080694825743407,-0.000806945605235,0.00080694569319158,-0.00078953018767729,0.00078954231167408,-5.4761649934402e-09,1.7393476581267e-09,-0.00052938838068287,0.00052938463228586,-5.8568192472111e-09,1.9268978948071e-09,-0.00042894398238382,0.00042894070305902,-0.00040637671113527,0.00040638280550836,-0.0004063791791719,0.00040638048898883,-0.00042894462454376,0.00042894034877888,-0.00042895125500438,0.00042893282485982,-0.00040638470053464,0.00040637544180358,-0.00040638668194496,0.0004063726062641,-0.0006439734675732,0.00064396480830527,-0.00064397091707567,0.00064396747052444,-0.00064397108186832,0.00064396723649426,-0.00064396844442325,0.00064396980320575,-0.00063645939936293,0.0006364653753524,-0.00063646671193861,0.0006364585655851,-0.00063646914684296,0.00063645580812724,-0.00063646216198355,0.00063646296629061,-0.00042893678262723,0.00042894756934311,0.75830138058898,128566,2924,0.0025896677922569,0.0033076588078835,0.0022036448516342,19.827834965965,-8.1377320272279e-05,-8.1377320272279e-05,-8.1377320272279e-05,3420693.7066568,0.0081343909566652
25591759,0.51021747413319,0.0086342848513823,0.0028291115399273,0.0032477880826373,0.0025573852288177,-0.00063471161162104,0.00063472909587134,1.2385784045623e-08,5.0332626620821e-09,8.6327737440556e-09,9.5511459542679e-09,-0.0002644653595745,0.00026447729008359,-0.00057588265968913,0.00057590425323143,-0.00057588510374089,0.00057590178884489,-0.00026445961008202,0.00026448346475737,-0.00026446674481436,0.00026447623170899,-0.00057588389855297,0.00057590359335553,-0.00057588631216513,0.00057590112400164,-0.00075051522681714,0.00075053465757165,-0.00075051767892604,0.00075053220935857,-0.00075051503266586,0.00075053482562427,-0.00075051749623545,0.00075053238286665,-0.00064979146942277,0.00064981620077507,-0.0006497987495967,0.00064980907099499,-0.0006497918523826,0.00064981593255618,-0.00064979906658524,0.0006498087469612,-0.00026445817952556,0.00026448453317756,2.9930055983805e-09,1.5198357170915e-09,6.1163301080783e-09,-1.8246793584158e-09,-0.00081183613631943,0.00081184047614988,-0.00080674400020852,0.0008067408553716,-0.00082360312129059,0.0008236118245532,-0.00082360384399318,0.00082360946206651,-0.00078003021778219,0.00078003758918127,-0.00078003282516958,0.0007800350032015,-0.00078003056486794,0.00078003690292897,-0.00078003317596527,0.00078003431294273,-0.00080673601976336,0.00080674776711155,-0.00080674407330509,0.00080674021675943,-0.00082360580091379,0.00082360925190981,-0.00082360652984483,0.00082360688384126,-0.00080673595311317,0.00080674840062453,-5.5658396562633e-09,1.7840749245261e-09,-0.00053888022387673,0.00053887642918165,-6.0140285373822e-09,2.0336796062597e-09,-0.00043651183105213,0.00043650862778505,-0.00041346535253277,0.00041347169982151,-0.00041346786558247,0.00041346933811312,-0.00043651260261179,0.00043650815109027,-0.00043651935974677,0.00043650049740015,-0.0004134736051128,0.00041346408043613,-0.00041347562675194,0.0004134611968196,-0.00065614661431647,0.00065613777876869,-0.00065614397574609,0.00065614052732766,-0.00065614418232596,0.00065614024986317,-0.0006561414581576,0.00065614290503615,-0.00064944944808788,0.00064945560592173,-0.00064945690974693,0.00064944867994603,-0.00064945942249916,0.00064944582010871,-0.00064945231433769,0.00064945311580319,-0.00043650450154545,0.0004365156323724,0.7825285472884,128566,2924,0.0026420822113779,0.0033767675536889,0.0022431229730745,20.475432150459,-7.619654279633e-05,-7.619654279633e-05,-7.619654279633e-05,3435768.9218349,0.008296735410764
25791759,0.51906679248719,0.008783802802803,0.002878616462564,0.0033077963699614,0.0025973899702776,-0.00064667385046533,0.00064669156891785,1.2572583421221e-08,5.0794467707114e-09,8.6818746948934e-09,9.7489300447908e-09,-0.00026855904778852,0.00026857121056241,-0.00058738957530866,0.00058741161700104,-0.00058739207582184,0.000587409098841,-0.00026855331204666,0.00026857737154999,-0.00026856056156695,0.00026857002207374,-0.00058739097114722,0.00058741080603855,-0.00058739342587909,0.00058740829755052,-0.00076478987256132,0.00076480952935424,-0.00076479236814674,0.00076480703630214,-0.00076478962894025,0.00076480974708663,-0.00076479214184143,0.00076480725417012,-0.0006621708936658,0.00066219606205238,-0.00066217831413221,0.00066218877994706,-0.00066217134068644,0.00066219572660453,-0.00066217868121546,0.00066218840999216,-0.00026855170800319,0.00026857861562853,3.1278192214463e-09,1.4823007304067e-09,6.3027548893704e-09,-1.91893243849e-09,-0.00082793775947004,0.00082794219458247,-0.0008233647943849,0.000823361527249,-0.00083978141910728,0.00083979047303909,-0.00083978228574198,0.00083978793580743,-0.00079520429746243,0.00079521191349605,-0.00079520699207466,0.00079520923804647,-0.00079520470179257,0.0007952111690862,-0.00079520740580479,0.00079520848401907,-0.00082335658346186,0.00082336864555577,-0.0008233649281224,0.00082336081852903,-0.00083978418101055,0.00083978781448384,-0.00083978507388915,0.00083978525568504,-0.00082335647064197,0.00082336933234983,-5.632137132295e-09,1.8442756299377e-09,-0.00054762781923358,0.00054762401708407,-6.1611576680839e-09,2.169593448051e-09,-0.00044297938139462,0.0004429763452501,-0.00041945378121478,0.00041946042705378,-0.00041945632794756,0.00041945803031737,-0.00044298029975544,0.00044297570819966,-0.00044298720497204,0.0004429679111394,-0.00041946230047907,0.00041945253356274,-0.00041946436888602,0.00041944959518928,-0.0006677833268564,0.00066777434682033,-0.0006677805911179,0.0006677771909557,-0.00066778084884049,0.00066777686183818,-0.00066777803389327,0.00066777960783927,-0.00066164573087921,0.00066165209367211,-0.0006616533038521,0.00066164504789665,-0.00066165592283032,0.00066164209071888,-0.00066164868145474,0.00066164951632791,-0.00044297195466495,0.0004429834553204,0.75921599541142,128566,2924,0.0026918427195105,0.0034436128954498,0.0022795069646178,20.820559430823,-7.3435524553413e-05,-7.3435524553413e-05,-7.3435524553413e-05,3446677.77105,0.0084510300904103
25991759,0.52776560963289,0.0089275843852756,0.0029263769352467,0.0033654907096273,0.0026357167404016,-0.00065744454355047,0.00065746255745469,1.2781254349277e-08,5.1638558553585e-09,8.5186263418127e-09,1.0223721228128e-08,-0.00027184581661448,0.00027185882415555,-0.00059749877499019,0.00059752178934087,-0.00059750131238887,0.00059751924317751,-0.00027184058081374,0.00027186446623603,-0.00027184798420009,0.00027185696043929,-0.00059750078070505,0.00059752035331994,-0.00059750329602446,0.00059751779251152,-0.00077782418307745,0.00077784396528703,-0.0007778267225861,0.0007778414259101,-0.00077782373563633,0.0007778443881804,-0.0007778262855512,0.0007778418560702,-0.00067319878411645,0.00067322455724336,-0.00067320631192743,0.00067321716078568,-0.00067319943089276,0.0006732240254813,-0.00067320689666328,0.0006732165731242,-0.00027183838378791,0.00027186632372807,3.459889615306e-09,1.1807881500561e-09,6.4433351610337e-09,-2.0345033249964e-09,-0.00084257108148085,0.00084257555092712,-0.00083835971313589,0.00083835640965196,-0.00085452125304642,0.00085453105486338,-0.00085452272935889,0.00085452786252808,-0.00080906700441798,0.00080907495880136,-0.00080906978458712,0.00080907219669569,-0.00080906761834724,0.00080907399677889,-0.00080907040126711,0.00080907123144076,-0.00083835144075048,0.0008383635482781,-0.00083836004293199,0.00083835549239276,-0.00085452410062531,0.0008545282957775,-0.00085452559331636,0.00085452510466253,-0.00083835110839995,0.00083836445969928,-5.6972252935692e-09,1.9216470041502e-09,-0.00055528128601152,0.00055527749347965,-6.2870466791687e-09,2.2984772990678e-09,-0.00044848832658371,0.00044848537806357,-0.00042434118328386,0.00042434813588669,-0.000424343787526,0.00042434567988855,-0.00044848933453484,0.00044848460584425,-0.00044849635278968,0.00044847670478488,-0.00042434994439783,0.00042433996110777,-0.00042435204974629,0.0004243369805654,-0.00067823668948189,0.00067822759365477,-0.00067823387091521,0.00067823051514678,-0.0006782341664611,0.00067823015145056,-0.00067823126363952,0.0006782329838912,-0.00067249336250477,0.00067249997796079,-0.00067250109113194,0.0006724927885083,-0.00067250378056828,0.00067248975191885,-0.00067249641555292,0.00067249730935375,-0.00044848073833545,0.00044849266193596,0.74286074144687,128566,2924,0.0027366471327642,0.0035043569672466,0.0023113418054299,20.694883442227,-7.4440932462181e-05,-7.4440932462181e-05,-7.4440932462181e-05,3453654.858898,0.0085896080256267
26191759,0.53630727580569,0.0090718729962376,0.0029742890376361,0.0034233910844192,0.0026741928741824,-0.00066819367341677,0.00066821195081179,1.2980487288906e-08,5.2255026108645e-09,8.4872208332e-09,1.0533004740082e-08,-0.00027558596825922,0.00027559944078499,-0.00060781450811741,0.00060783818197976,-0.00060781708979779,0.00060783558276495,-0.00027558095036293,0.00027560488437799,-0.00027558847222355,0.00027559726145314,-0.00060781686147707,0.00060783641297479,-0.00060781941142811,0.00060783381106317,-0.00079070361110622,0.00079072358507276,-0.00079070619543392,0.00079072100154144,-0.00079070305430252,0.00079072412109936,-0.00079070565210785,0.00079072154241175,-0.00068423633746332,0.00068426261545555,-0.0006842440122935,0.00068425508729787,-0.00068423709982958,0.00068426196884925,-0.00068424470545078,0.00068425439085372,-0.00027557839043558,0.00027560708784923,3.66676472159e-09,1.0303054304057e-09,6.608153886523e-09,-2.1372541161185e-09,-0.00085704985736915,0.00085705438151091,-0.00085321646271933,0.00085321309266321,-0.00086909949137809,0.00086910978868513,-0.00086910130223224,0.00086910623495557,-0.00082281443570969,0.00082282264443856,-0.00082281730062194,0.00082281979502026,-0.00082281516751525,0.00082282156101398,-0.00082281803800762,0.0008228187057737,-0.00085320804715978,0.00085322036825167,-0.00085321690959525,0.00085321204254794,-0.000869102431851,0.00086910695116118,-0.00086910425917372,0.00086910338840271,-0.00085320760826252,0.00085322140836176,-5.7624697378425e-09,1.9865328818613e-09,-0.00056297955646307,0.00056297576504577,-6.4204416424389e-09,2.4350883878711e-09,-0.0004544902073724,0.00045448741092492,-0.00042950127699863,0.00042950853863231,-0.00042950391430347,0.00042950603969894,-0.0004544913762212,0.00045448652816874,-0.00045449853226264,0.0004544784870891,-0.00042951031854491,0.00042950012264912,-0.00042951246260352,0.00042949708975858,-0.0006885683238033,0.00068855909495871,-0.00068856541453924,0.00068856210816625,-0.0006885657545898,0.00068856169606363,-0.00068856276388219,0.00068856461754832,-0.00068342700177543,0.0006834338321547,-0.0006834348669873,0.00068342653091199,-0.00068343764226265,0.00068342338657419,-0.00068343015138935,0.00068343108257341,-0.00045448251458716,0.00045449482273227,0.75895315817772,128566,2924,0.0027813588879243,0.0035644550200559,0.0023433622824325,20.55700875913,-7.5543929926956e-05,-7.5543929926956e-05,-7.5543929926956e-05,3459898.8006826,0.0087276455669327
26391759,0.54469250173495,0.0092183015893268,0.0030228371381752,0.0034821993697786,0.0027132650813731,-0.00067900593913359,0.00067902447156823,1.3173485586661e-08,5.2855167325184e-09,8.5581494290271e-09,1.0731449886778e-08,-0.00027950798621734,0.0002795217260354,-0.00061847750685164,0.00061850161772957,-0.00061848013145199,0.00061849897400692,-0.00027950297576649,0.00027952717275961,-0.0002795106290943,0.00027951941766947,-0.00061847998991587,0.00061849972798176,-0.00061848258262298,0.00061849708060041,-0.00080355440105342,0.00080357462877706,-0.00080355702958941,0.00080357200017991,-0.00080355380583351,0.00080357520469235,-0.00080355644790284,0.0008035725819777,-0.00069545884534079,0.00069548553973063,-0.00069546665243765,0.00069547788460953,-0.0006954596489693,0.00069548485363651,-0.00069546738734981,0.00069547714602754,-0.00027950028099896,0.00027952950258077,3.7595924257968e-09,9.8450641674006e-10,6.7712180081437e-09,-2.2529813232612e-09,-0.00087162790302618,0.00087163247344509,-0.00086830722058733,0.00086830367536146,-0.00088377010385599,0.00088378067936153,-0.00088377203552995,0.00088377697514974,-0.00083657302157138,0.00083658141580293,-0.00083657597640429,0.00083657847385213,-0.00083657380516935,0.00083658028243221,-0.00083657676497096,0.00083657733524975,-0.0008682985731516,0.00086831116794551,-0.00086830770975049,0.00086830257125213,-0.00088377314022005,0.00088377775007422,-0.00088377508503669,0.00088377403850317,-0.00086829809034679,0.00086831226415114,-5.8374728240883e-09,2.0459088903547e-09,-0.00057071703899263,0.00057071323199861,-6.5694470874244e-09,2.5668306051945e-09,-0.00046078926872579,0.00046078659855676,-0.00043486580838762,0.00043487337347349,-0.00043486848757488,0.00043487082680541,-0.00046079058225432,0.00046078557519658,-0.00046079787372252,0.00046077740793914,-0.00043487513124105,0.00043486468648796,-0.0004348773157174,0.00043486160601199,-0.0006988778194224,0.0006988684382601,-0.00069887481607049,0.00069887154294716,-0.00069887520378752,0.00069887108217047,-0.00069887212155414,0.00069887409828744,-0.00069459257069702,0.00069459961625628,-0.00069460058351298,0.00069459219782741,-0.00069460344268922,0.00069458894550579,-0.000694595827261,0.00069459677930492,-0.00046078145385925,0.00046079415067836,0.78422388631717,128566,2924,0.0028263328861658,0.0036249604975122,0.0023755451826154,20.418639993888,-7.6650880048898e-05,-7.6650880048898e-05,-7.6650880048898e-05,3461221.3261247,0.0088665405071059
26591759,0.55308727476525,0.009364578178466,0.0030714032347769,0.0035409556048881,0.0027522193388011,-0.00069034468736323,0.00069036325487431,1.3257693281174e-08,5.2364563731317e-09,8.9030307750064e-09,1.0420345457776e-08,-0.00028365718384057,0.00028367018177871,-0.00062959599587832,0.00062961953899452,-0.00062959866428293,0.00062961685118751,-0.00028365139940682,0.00028367640865514,-0.00028365918381247,0.00028366852289204,-0.00062959783826517,0.00062961830537651,-0.00062960047477559,0.00062961561277553,-0.00081700601660208,0.00081702653887227,-0.00081700868946523,0.00081702386530082,-0.00081700563745048,0.00081702689367749,-0.00081700832421232,0.00081702422696307,-0.00070723725822352,0.00070726394484703,-0.00070724518351554,0.00070725614559413,-0.00070723786831629,0.00070726344605837,-0.00070724573624062,0.00070725560741865,-0.00028364934882663,0.0002836780881958,3.5152966667175e-09,1.388180336426e-09,7.0122682467244e-09,-2.3415523111548e-09,-0.00088687387372069,0.0008868785968559,-0.00088412977340463,0.00088412584095783,-0.00089913277402151,0.00089914297571387,-0.00089913406317521,0.00089913991398089,-0.00085090236588168,0.00085091080867922,-0.00085090542705697,0.00085090775689577,-0.00085090294616377,0.00085090989082903,-0.00085090601208463,0.0008509068340418,-0.00088412058819698,0.00088413387438088,-0.0008841300492586,0.00088412495352751,-0.00089913592062476,0.00089913993649883,-0.00089913722213875,0.00089913686801596,-0.00088412031783057,0.0008841347548052,-5.9029446625323e-09,2.1144520020218e-09,-0.0005788816888645,0.00057887788424935,-6.734425941321e-09,2.7340013475997e-09,-0.00046717387448558,0.00046717140260095,-0.00044049911843484,0.00044050705596477,-0.00044050184318943,0.0004405044655797,-0.00046717536679226,0.00046717016949356,-0.00046718280500372,0.000467161889572,-0.00044050876905076,0.00044049804334228,-0.0004405109992589,0.00044049492014931,-0.00070974541399938,0.00070973588151906,-0.00070974229735483,0.00070973909128101,-0.00070974274792423,0.0007097385643147,-0.00070973956080197,0.00070974169394914,-0.00070628819301887,0.00070629548999047,-0.00070629635986951,0.0007062879619914,-0.00070629932079,0.00070628458585172,-0.00070629157285347,0.00070629254842875,-0.00046716592581277,0.00046717908435748,0.78230622722231,128566,2924,0.002873495584029,0.0036882343413348,0.0024095034103767,20.571086412316,-7.5431308701471e-05,-7.5431308701471e-05,-7.5431308701471e-05,3465447.8245423,0.0090122493706749
26791759,0.56164774137071,0.0095103917228288,0.0031199662603428,0.0035995075294114,0.0027909179330746,-0.00070224964012176,0.00070226811036766,1.3285180973282e-08,5.1141863772049e-09,9.3167651532346e-09,9.9004763679194e-09,-0.00028799665081391,0.00028800843230708,-0.00064103317158513,0.00064105575479599,-0.00064103590074995,0.00064105299767609,-0.00028798980440447,0.00028801572954757,-0.00028799768863277,0.00028800775234647,-0.00064103412150003,0.00064105543970058,-0.00064103678554009,0.00064105271481223,-0.00083115113085547,0.00083117190975464,-0.000831153849011,0.00083116919209775,-0.00083115105232139,0.00083117195723086,-0.00083115379593664,0.0008311692362671,-0.00071948919245071,0.00071951563964702,-0.00071949728619046,0.00071950768235029,-0.00071948951167694,0.00071951543526779,-0.00071949751700803,0.00071950747029272,-0.00028798862366594,0.00028801652899454,3.1835082388321e-09,1.9568809467774e-09,7.2997710620048e-09,-2.3996570516537e-09,-0.00090275610439598,0.00090276105272496,-0.00090048740021192,0.00090048308226075,-0.00091517605500125,0.00091518570213041,-0.00091517644982462,0.00091518355493332,-0.00086588260015156,0.00086589107458183,-0.00086588576737344,0.00086588791292574,-0.00086588288851399,0.00086589046353076,-0.00086588607112561,0.00086588728605514,-0.00090047758887112,0.00090049176439652,-0.00090048739706087,0.00090048248099255,-0.0009151793055769,0.00091518256673658,-0.00091517973784468,0.00091518038097051,-0.00090047763252358,0.00090049233099604,-5.9501528969678e-09,2.1851614121993e-09,-0.00058754333340911,0.00058753955367969,-6.8934164540186e-09,2.9229407108331e-09,-0.00047384570735438,0.00047384353861701,-0.00044641208433249,0.00044642041838981,-0.00044641483214474,0.00044641780649134,-0.00047384743221118,0.00047384209023098,-0.0004738550455001,0.00047383365624907,-0.00044642207444007,0.0004464110946488,-0.00044642436056472,0.00044640791805617,-0.00072124268903046,0.00072123302096824,-0.00072123944922023,0.00072123634825796,-0.00072123997164006,0.00072123574204895,-0.00072123668098011,0.00072123898624526,-0.00071845441492965,0.00071846194927373,-0.00071846269215927,0.00071845433345139,-0.00071846578424408,0.00071845082196587,-0.00071845789550733,0.00071845890950554,-0.00047383768495246,0.00047385128455961,0.76472632595781,128566,2924,0.0029230103423928,0.0037541445758495,0.0024455274947583,21.003265802026,-7.1973873583791e-05,-7.1973873583791e-05,-7.1973873583791e-05,3477378.4629203,0.0091651006189457
26991759,0.57037310585027,0.0096552362084633,0.0031683505932213,0.0036576697025208,0.0028292159127212,-0.00071419329840813,0.00071421169311149,1.3310430142025e-08,5.0154378191188e-09,9.5542956190772e-09,9.5797298909894e-09,-0.00029216928333239,0.00029218033580588,-0.00065225064339964,0.00065227262917434,-0.00065225340729768,0.00065226984175369,-0.00029216175159737,0.00029218830450768,-0.00029216979008833,0.00029218017566877,-0.00065225103712265,0.00065227287935144,-0.00065225375612601,0.00065227010385548,-0.00084542924069842,0.00084545017427456,-0.00084543200341385,0.00084544741079153,-0.0008454293470972,0.00084545002919456,-0.00084543212843411,0.00084544726947526,-0.00073165202256923,0.00073167830435267,-0.00073166022916383,0.00073167023957829,-0.00073165213870267,0.00073167830962815,-0.00073166027249209,0.0007316702101135,-0.00029216116104481,0.00029218852606075,3.0048070753829e-09,2.3505430925808e-09,7.5553758297487e-09,-2.4538398199955e-09,-0.00091865931300177,0.00091866446930939,-0.00091667916218265,0.00091667453707178,-0.00093126062834542,0.00093127003739571,-0.00093126047543398,0.00093126845053142,-0.00088096959787823,0.00088097819877075,-0.00088097286753607,0.00088097493081954,-0.00088096970637368,0.00088097777635579,-0.00088097298486829,0.00088097449894387,-0.00091666885476014,0.0009166837129133,-0.00091667896201456,0.00091667413751342,-0.00093126398936361,0.00093126678667735,-0.00093126385465034,0.00093126518317086,-0.00091666907331383,0.00091668409418081,-6.0040320507945e-09,2.2742845702925e-09,-0.00059623706193922,0.00059623331672801,-7.0317651820705e-09,3.0943096104057e-09,-0.00048044788541796,0.00048044589086373,-0.00045221100294346,0.00045221972912988,-0.00045221380975302,0.00045221706201789,-0.00048044975090049,0.00048044424812963,-0.00048045749264042,0.00048043572032141,-0.00045222129698827,0.00045221007977809,-0.00045222362554127,0.00045220686763068,-0.00073284634344911,0.00073283656564584,-0.00073284300036226,0.00073283998491298,-0.00073284357516307,0.00073283932407482,-0.00073284018515755,0.00073284267745093,-0.00073053365862131,0.00073054147442433,-0.00073054206080899,0.00073053368590042,-0.0007305452664879,0.00073053011066312,-0.00073053722488272,0.00073053830682607,-0.00048043969510449,0.00048045379650582,0.74557636189602,128566,2924,0.0029726832966548,0.0038201376562675,0.0024816847813051,21.442732898409,-6.8458136812729e-05,-6.8458136812729e-05,-6.8458136812729e-05,3494034.3386393,0.0093183544683185
27191759,0.57925791024214,0.0097985635076481,0.0032163632809894,0.0037152286903997,0.0028669715362591,-0.00072611244605928,0.00072613080195416,1.3357555350397e-08,4.9314397306881e-09,9.6040353711207e-09,9.4857897302527e-09,-0.00029618068973083,0.00029619143169843,-0.00066315898310297,0.00066318082561219,-0.00066316178802621,0.00066317799715791,-0.00029617288122531,0.00029619967442143,-0.00029618105594971,0.00029619141301373,-0.00066315923663022,0.00066318122552574,-0.0006631620037944,0.00066317840586446,-0.00085978014448365,0.00085980113157211,-0.00085978295183018,0.00085979832331166,-0.00085978029746115,0.00085980093561767,-0.00085978312184628,0.00085979813273274,-0.00074365298101972,0.00074367931242838,-0.00074366131411728,0.00074367112118009,-0.00074365305967616,0.00074367935442837,-0.0007436613298413,0.00074367112932073,-0.00029617244542613,0.00029619974377465,3.0308206172753e-09,2.5161854127334e-09,7.7740768324656e-09,-2.489101608478e-09,-0.00093452264465339,0.00093452798674935,-0.00093264042472865,0.00093263568331925,-0.00094733604470728,0.00094734558859908,-0.00094733575633843,0.00094734414692833,-0.00089611155738429,0.00089612037932126,-0.0008961149090313,0.00089611702622137,-0.00089611162041441,0.00089612000549484,-0.00089611497993608,0.00089611664398976,-0.00093262982159394,0.00093264515754203,-0.0009326401768908,0.00093263533417684,-0.00094733948993474,0.00094734225146853,-0.00094733921645712,0.00094734079619558,-0.00093263008284952,0.00093264549290788,-6.0507954158826e-09,2.3636839325747e-09,-0.00060492241953147,0.00060491871675285,-7.1372214694657e-09,3.2432924916618e-09,-0.00048686869363354,0.00048686685149283,-0.00045784639676582,0.00045785546277595,-0.00045784925153156,0.00045785274953112,-0.00048687066105763,0.00048686507654099,-0.00048687853974613,0.0004868564371843,-0.00045785694289091,0.00045784555944701,-0.00045785931532929,0.00045784230517648,-0.0007445184852745,0.00074450862346069,-0.00074451505195262,0.00074451211496718,-0.00074451566264558,0.0007445114169452,-0.00074451219825914,0.00074451486078649,-0.00074243623050652,0.00074244429354502,-0.00074244472049225,0.00074243632305235,-0.00074244803599376,0.00074243270781258,-0.00074243984516442,0.00074244101743152,-0.00048686035848171,0.00048687489590283,0.72509827771333,128566,2924,0.0030222514301449,0.0038859611533498,0.0025178070471901,21.882495555412,-6.4940035556702e-05,-6.4940035556702e-05,-6.4940035556702e-05,3514641.1142763,0.0094713210071729
27391759,0.58823155073588,0.0099464105790358,0.0032658127450143,0.0037746634080628,0.0029059344259588,-0.00073810228557844,0.00073812077767071,1.3494663823019e-08,4.9313914872501e-09,9.5025391434373e-09,9.7301065011901e-09,-0.00030043731307973,0.00030044839127723,-0.00067435474314788,0.00067437711835495,-0.00067435759745467,0.00067437424227642,-0.00030042970029725,0.00030045641484833,-0.00030043800256141,0.00030044802748055,-0.00067435533804368,0.00067437717321386,-0.00067435815217556,0.00067437431130056,-0.00087415108473112,0.00087417213855097,-0.00087415393620276,0.00087416928464493,-0.0008741511252218,0.00087417205471644,-0.00087415399593002,0.00087416920474581,-0.00075577810622284,0.00075580483887377,-0.00075578656991641,0.00075579650299372,-0.00075577831370144,0.0007558047482253,-0.0007557867145203,0.00075579639206234,-0.00030042892553772,0.00030045684553827,3.2642833372083e-09,2.3899670454414e-09,7.9192119562754e-09,-2.5312301345981e-09,-0.0009504729960726,0.00095047844418145,-0.00094867179162941,0.00094866708613277,-0.00096348492985745,0.00096349499193892,-0.00096348498184284,0.00096349319087297,-0.00091136996513439,0.00091137907328081,-0.00091137337642002,0.00091137565925802,-0.00091137014236455,0.00091137858013664,-0.00091137356361318,0.00091137515571239,-0.00094866111552108,0.00094867661768453,-0.00094867166577986,0.00094866661311101,-0.00096348843042972,0.0009634915945786,-0.00096348850762385,0.00096348977447444,-0.00094866125872188,0.00094867707070859,-6.1108982979798e-09,2.4335888848977e-09,-0.00061369803801086,0.00061369434383153,-7.2307845157933e-09,3.3420315520518e-09,-0.00049367785059319,0.00049367608112469,-0.00046376720064555,0.00046377650022243,-0.00046377009736328,0.00046377374701208,-0.00049367985791986,0.00049367422698152,-0.00049368788997367,0.00049366547345554,-0.000463777926792,0.00046376640247685,-0.00046378034828019,0.00046376310402796,-0.00075617244111058,0.00075616247834325,-0.00075616893962948,0.00075616603303282,-0.00075616957402665,0.00075616531614444,-0.00075616604650416,0.00075616882397815,-0.0007544988825816,0.00075450714731508,-0.00075450750029932,0.00075449905534083,-0.00075451088223222,0.00075449537215212,-0.00075450256103354,0.00075450380993805,-0.00049366940288611,0.00049368425378927,0.74093825062735,128566,2924,0.0030721105181685,0.0039521403897514,0.0025543041853923,22.214292478941,-6.2285660168475e-05,-6.2285660168475e-05,-6.2285660168475e-05,3533242.2031771,0.0096253408880225
27591759,0.59724916116481,0.010096878727798,0.0033160839745206,0.0038352227104989,0.0029455720427789,-0.00075010450632115,0.00075012321604099,1.366733155327e-08,4.9751795711866e-09,9.3628204765996e-09,1.009849153853e-08,-0.00030457785207135,0.00030458953964551,-0.00068568430237825,0.00068570744671631,-0.00068568719806867,0.00068570453243042,-0.00030457060749313,0.00030459717973547,-0.00030457904869932,0.0003045886523129,-0.00068568538988072,0.00068570700046414,-0.0006856882541831,0.00068570409156558,-0.00088853966170371,0.00088856080862192,-0.00088854255659946,0.0008885579094506,-0.00088853954105221,0.00088856088893018,-0.00088854245301467,0.00088855799665699,-0.00076798482219945,0.00076801207374278,-0.00076799340320373,0.00076800360959719,-0.00076798520713904,0.0007680118046179,-0.00076799373778684,0.00076800331976433,-0.00030456934804214,0.00030459810923066,3.5516463013493e-09,2.1642821934293e-09,8.0315210346043e-09,-2.5836461574422e-09,-0.00096654627220564,0.00096655178319776,-0.00096490879587717,0.00096490415339503,-0.00097975850139534,0.00097976918609272,-0.00097975904733561,0.00097976686354066,-0.00092669367934475,0.0009267030772288,-0.00092669714500817,0.00092669960823481,-0.00092669402393322,0.00092670241013881,-0.00092669749728301,0.0009266989329857,-0.00096489812241119,0.00096491366723918,-0.0009649088370617,0.00096490350928957,-0.00097976205706036,0.00097976572921749,-0.00097976262486366,0.00097976339583053,-0.00096489808938313,0.00096491429717363,-6.1851456062963e-09,2.4976042243466e-09,-0.00062242520414554,0.00062242149859497,-7.3198062897935e-09,3.4158731477455e-09,-0.0005004749044565,0.00050047313446845,-0.00046967032969605,0.00046967982293743,-0.00046967327574862,0.00046967701942341,-0.00050047692769787,0.00050047124658796,-0.00050048508886766,0.00050046237820656,-0.00046968121399786,0.00046966955407902,-0.00046968367836745,0.00046966621317999,-0.00076777566195584,0.000767765587393,-0.00076777210760915,0.00076776919892452,-0.00076777275243234,0.00076776847243117,-0.00076776916362113,0.00076777203359598,-0.00076665931536109,0.00076666776591578,-0.00076666807492587,0.00076665953755146,-0.0007666715044881,0.00076665579939975,-0.00076666305381325,0.00076666437064536,-0.00050046631915762,0.00050048146009962,0.75071315019171,128566,2924,0.0031220210963326,0.0040188239665257,0.0025905998546412,22.482002579364,-6.0143979365086e-05,-6.0143979365086e-05,-6.0143979365086e-05,3546934.6874188,0.0097797424772616
27791759,0.60630310075057,0.010250063749578,0.0033672081799504,0.0038969486848959,0.0029859068847318,-0.00076225227544748,0.0007622712186083,1.3850751115502e-08,5.0240131721624e-09,9.2781919362963e-09,1.0430039564451e-08,-0.00030876297596778,0.00030877518386402,-0.00069729210224423,0.00069731594704515,-0.00069729503954147,0.00069731298455621,-0.00030875601951116,0.00030878254371808,-0.0003087645872021,0.00030877389057462,-0.00069729360616855,0.00069731509422879,-0.00069729651026381,0.0006973121419953,-0.0009030663334195,0.00090308761963802,-0.00090306927289874,0.00090308467560336,-0.00090306608163427,0.00090308783555551,-0.00090306903936785,0.00090308489874648,-0.00078042057331197,0.00078044833504492,-0.00078042928675426,0.00078043973698304,-0.00078042110403431,0.00078044791587609,-0.00078042977069342,0.00078043930300891,-0.00030875433965329,0.0003087838892187,3.7955817941698e-09,1.9796914979601e-09,8.1454991791208e-09,-2.6353171346352e-09,-0.00098285132720945,0.00098285689529938,-0.00098142728764865,0.00098142269331111,-0.00099626732225363,0.00099627854449738,-0.00099626827589096,0.00099627578498896,-0.00094220459272233,0.00094221424017101,-0.00094220811234278,0.00094221071633539,-0.00094220507721086,0.00094221342720597,-0.00094220860496801,0.00094220989489597,-0.00098141659583633,0.00098143222384693,-0.00098142747101291,0.00098142190054535,-0.00099627093754768,0.00099627503780843,-0.00099627190956511,0.0009962722650258,-0.00098141642277432,0.00098143300392964,-6.2622033523463e-09,2.5535376735059e-09,-0.00063123397948573,0.00063123025313373,-7.4150744947994e-09,3.4902731350368e-09,-0.00050742281043651,0.00050742105964226,-0.00047572443435491,0.00047573411730692,-0.00047572742105783,0.00047573126975864,-0.00050742487715374,0.00050741914802917,-0.0005074331801138,0.00050741015382693,-0.00047573549495864,0.00047572369446782,-0.00047573800168045,0.00047572030729969,-0.00077946983146966,0.00077945963297257,-0.00077946622257883,0.00077946330733639,-0.00077946688013103,0.0007794625653798,-0.00077946323022357,0.00077946618174806,-0.00077903835378512,0.00077904696846704,-0.00077904724150665,0.00077903860936924,-0.00077905073044389,0.00077903481491623,-0.00077904214654138,0.00077904351625916,-0.00050741410618952,0.00050742952011908,0.76134594329915,128566,2924,0.0031725364314088,0.0040864631605385,0.0026272344071682,22.74802446236,-5.8015804301122e-05,-5.8015804301122e-05,-5.8015804301122e-05,3558156.0473017,0.0099360860354449
27991759,0.61538644996854,0.0104060665547,0.0034192203551117,0.0039598867190653,0.0030269594805231,-0.00077455719573799,0.00077457633106594,1.401305161451e-08,5.0526744989609e-09,9.3023852263844e-09,1.060879296551e-08,-0.00031297470950672,0.00031298714007644,-0.00070918994576323,0.00070921418919045,-0.00070919292679192,0.00070921118167779,-0.00031296777666446,0.0003129944710956,-0.00031297647554772,0.00031298568811739,-0.00070919160403204,0.00070921318806823,-0.00070919455178588,0.00070921019137818,-0.0009177433901284,0.00091776486063876,-0.00091774637370362,0.000917761871364,-0.00091774309114451,0.00091776512458123,-0.00091774609361614,0.00091776214340233,-0.0007931067656354,0.00079313490894855,-0.00079311560774082,0.00079312617691496,-0.00079310735848316,0.00079313442472494,-0.00079311615920577,0.00079312568421395,-0.00031296594254752,0.00031299597664936,3.9139853534341e-09,1.9327304647639e-09,8.2804334199135e-09,-2.6998505254197e-09,-0.00099940221573955,0.00099940785355831,-0.00099823082954669,0.00099822617039917,-0.0010130281118598,0.0010130396338624,-0.0010130292138805,0.0010130367007005,-0.00095791158347619,0.00095792142141945,-0.00095791516797514,0.00095791783155264,-0.00095791212507903,0.00095792055069875,-0.00095791571757076,0.00095791695250525,-0.00099821999730746,0.0009982358332552,-0.00099823107037387,0.00099822531685557,-0.0010130317947979,0.0010130360619148,-0.0010130329142824,0.0010130331157281,-0.0009982197664786,0.00099823667476054,-6.3403074010089e-09,2.6091894661282e-09,-0.00064013163359394,0.0006401278843499,-7.5290111953619e-09,3.5790116705013e-09,-0.00051452305331256,0.00051452134633831,-0.00048193541452456,0.00048194531504166,-0.00048193844322551,0.00048194242110134,-0.00051452518196611,0.00051451936435479,-0.00051453362732519,0.00051451025098119,-0.00048194667578338,0.00048193469514941,-0.00048194922701614,0.000481931263883,-0.00079127367079517,0.00079126333629634,-0.00079126999573562,0.00079126708185714,-0.00079127067688185,0.00079126631524079,-0.00079126695646767,0.00079126999857464,-0.00079165055918141,0.00079165935030831,-0.00079165957734529,0.0007916508599783,-0.0007916631338957,0.00079164699666705,-0.00079165441973202,0.00079165583008551,-0.00051451422649743,0.00051452994411778,0.77288939460283,128566,2924,0.0032237047566723,0.0041551158849944,0.002664238236662,23.01397765596,-5.5888178752318e-05,-5.5888178752318e-05,-5.5888178752318e-05,3566946.3355475,0.010094510474495
28191759,0.62445921778801,0.01056442201356,0.0034719726675088,0.0040238426679755,0.0030686066780758,-0.00078688152193644,0.00078690083124214,1.4164723559948e-08,5.0738757414172e-09,9.3816235927067e-09,1.071285113759e-08,-0.00031706707233613,0.00031707958832886,-0.00072123931342612,0.00072126380520389,-0.00072124233580894,0.00072126075737357,-0.00031706003293929,0.00031708700830309,-0.00031706886972232,0.00031707808970948,-0.00072124099392874,0.00072126278620446,-0.00072124398857389,0.00072125974251082,-0.00093242368402793,0.00093244536402321,-0.00093242671124811,0.0009324423293236,-0.00093242338130126,0.00093244563131532,-0.00093242642626582,0.00093244260752197,-0.00080591082397524,0.0008059392822376,-0.0008059197869234,0.00080593042006907,-0.00080591143454973,0.00080593877603611,-0.00080592036788784,0.00080592990790227,-0.00031705818485635,0.00031708854465363,3.964243190327e-09,1.9525726735981e-09,8.4301783883075e-09,-2.782014566894e-09,-0.0010160412101804,0.0010160469165102,-0.0010151502320425,0.0010151454247558,-0.0010298902763346,0.0010299019763616,-0.0010298913959692,0.0010298990011307,-0.00097365538051411,0.00097366537746411,-0.00097365904117617,0.00097366170985495,-0.00097365593884826,0.00097366449357068,-0.00097365960556011,0.00097366081955709,-0.0010151391801955,0.0010151552924754,-0.0010151504835974,0.0010151445570864,-0.0010298940388235,0.0010298983244493,-0.0010298951720285,0.0010298953420416,-0.0010151389319757,0.0010151561528367,-6.4200021691103e-09,2.6662756621418e-09,-0.0006489888631711,0.00064898509030824,-7.6600347370797e-09,3.6827527463718e-09,-0.00052163359240553,0.00052163194696926,-0.00048817934811303,0.00048818949824126,-0.00048818242276383,0.0004881865536186,-0.00052163580449731,0.00052162985838146,-0.00052164438890266,0.00052162063532182,-0.00048819083882003,0.00048817864151685,-0.0004881934347538,0.00048817516944195,-0.00080305543533196,0.00080304495398625,-0.00080305168644625,0.00080304878342737,-0.00080305239977775,0.00080304798035633,-0.00080304859379051,0.00080305174020429,-0.00080436018305805,0.00080436916846057,-0.00080436933766636,0.00080436054117152,-0.00080437296938613,0.00080435660055546,-0.00080436412657275,0.00080436556709921,-0.00052162463256709,0.00052164069443699,0.78542227596279,128566,2924,0.0032749537071684,0.0042241274195904,0.0027010741455239,23.224050288571,-5.420759769143e-05,-5.420759769143e-05,-5.420759769143e-05,3572210.2275909,0.010253234321329
28391759,0.63350379674727,0.010725052361492,0.0035254524427531,0.004088765293396,0.003110834625343,-0.00079929178619988,0.00079931124528531,1.4308895474242e-08,5.0786767520584e-09,9.5183464679314e-09,1.0733543462497e-08,-0.00032109473213443,0.00032110714043024,-0.00073350907197743,0.00073353365815283,-0.00073351214588383,0.00073353055897739,-0.00032108744255683,0.00032111479848218,-0.00032109640100562,0.00032110575981553,-0.00073351064311694,0.0007335327517963,-0.00073351367866243,0.00073352966496488,-0.00094716950974464,0.00094719142191207,-0.00094717258119346,0.0009471883419217,-0.00094716924647344,0.00094719164875669,-0.00094717234013617,0.00094718857709483,-0.00081890440095189,0.00081893312281233,-0.00081891350251072,0.00081892411396132,-0.00081890499078318,0.00081893263372207,-0.00081891405825588,0.00081892363824085,-0.00032108569444279,0.00032111624687983,3.9521691812973e-09,2.0347365277252e-09,8.5964612524802e-09,-2.8806820247886e-09,-0.0010328329153237,0.0010328386896712,-0.0010322879180487,0.001032282893516,-0.0010469162045827,0.0010469279599993,-0.0010469172097609,0.0010469250767104,-0.0009894851574222,0.0009894952794756,-0.0009894889029213,0.00098949152634954,-0.00098948568801372,0.00098949442792429,-0.00098948944301934,0.00098949066470937,-0.0010322765748553,0.0010322930462231,-0.0010322881482432,0.0010322820489033,-0.0010469200488492,0.001046924223714,-0.0010469210820676,0.0010469213242196,-0.0010322763584312,0.0010322938738359,-6.4941668188125e-09,2.720054274459e-09,-0.00065786461638239,0.0006578608219719,-7.8070600853034e-09,3.805891594048e-09,-0.00052879056093815,0.00052878904582662,-0.00049448902921646,0.00049449945735344,-0.00049449214063304,0.00049449647392167,-0.0005287928968566,0.00052878680686466,-0.00052880163783126,0.00052877746034697,-0.00049450077636837,0.0004944883372108,-0.00049450342321984,0.00049448481972171,-0.00081487822956137,0.00081486759229738,-0.00081487439167336,0.00081487151875254,-0.00081487515123136,0.00081487066447793,-0.00081487125213647,0.00081487451066027,-0.0008172366387595,0.00081724581375009,-0.00081724590998428,0.00081723706300453,-0.00081724963739344,0.00081723302672905,-0.00081724066759921,0.00081724212679531,-0.00052878149460627,0.00052879791050346,0.79903791374264,128566,2924,0.0033265597841334,0.0042937656812691,0.0027379870813872,23.414959642015,-5.2680322863876e-05,-5.2680322863876e-05,-5.2680322863876e-05,3574609.4059573,0.010413055286448
28591759,0.64251375597494,0.010886878024987,0.0035793420158064,0.0041541933237872,0.0031533426853931,-0.00081176578317351,0.00081178534684365,1.4427020499074e-08,5.0657543828279e-09,9.701387397789e-09,1.0660090201635e-08,-0.00032500978129469,0.00032502192290439,-0.00074589667038132,0.00074592115406426,-0.00074589978412821,0.00074591801238874,-0.00032500211455906,0.00032502995942045,-0.00032501120798152,0.00032502078789406,-0.00074589799493035,0.00074592051019384,-0.00074590107282456,0.00074591737707658,-0.00096198000628407,0.00096200215229099,-0.00096198312208154,0.00096199902722103,-0.00096197983011814,0.00096200229026586,-0.00096198296698373,0.0009619991759247,-0.00083202806225897,0.00083205695158394,-0.00083203728422523,0.00083204781018817,-0.00083202858196569,0.00083205652349749,-0.0008320377853299,0.00083204740182029,-0.00032500062220237,0.00032503115315366,3.8683078860847e-09,2.203120248424e-09,8.7918739744027e-09,-2.9930717385364e-09,-0.0010497469669301,0.0010497528213227,-0.0010495948198726,0.0010495894977156,-0.0010640881103046,0.0010640998069452,-0.0010640888663959,0.0010640971679356,-0.0010053710615089,0.0010053812813594,-0.0010053749069715,0.0010053774244786,-0.0010053715166023,0.0010053805115209,-0.0010053753697566,0.0010053766465338,-0.0010495831025001,0.0010496000352634,-0.0010495949712296,0.0010495887362053,-0.0010640920641211,0.0010640959685299,-0.0010640928382244,0.0010640933177572,-0.0010495829605121,0.0010496007851668,-6.5692214019132e-09,2.7813463243525e-09,-0.0006667368621537,0.00066673305423407,-7.9689876241207e-09,3.9542934039222e-09,-0.00053591956806819,0.00053591820682033,-0.00050077894276984,0.00050078970928184,-0.00050078209949814,0.00050078667758629,-0.00053592207949731,0.00053591580086953,-0.00053593095978119,0.00053590634027787,-0.00050079099878885,0.00050077828586258,-0.00050079369330922,0.00050077473097298,-0.00082674487316854,0.00082673407401035,-0.0008267409333115,0.00082673810518402,-0.00082674174921402,0.00082673718977735,-0.00082673774473083,0.00082674114049424,-0.0008302185233958,0.00083022792026131,-0.000830227918251,0.00083021902215875,-0.00083023175558074,0.00083021489493272,-0.00083022264791396,0.00083022412129982,-0.00053591036971286,0.00053592721348734,0.80787521822177,128566,2924,0.0033784308016082,0.0043639047677141,0.0027748854270369,23.60535462448,-5.115716300416e-05,-5.115716300416e-05,-5.115716300416e-05,3574863.2665794,0.01057366139961
28791759,0.65148294132103,0.011044136510981,0.0036318822366446,0.0042177267418579,0.0031945275324787,-0.00082398595326482,0.0008240055475161,1.4509936989047e-08,5.015363215317e-09,9.856522430535e-09,1.0535463407619e-08,-0.00032849429195975,0.0003285060567901,-0.00075772496192169,0.00075774924568976,-0.00075772811926514,0.00075774605964993,-0.00032848621495291,0.00032851450032364,-0.00032849544052621,0.00032850519977352,-0.00075772601431523,0.00075774888171288,-0.0007577291371409,0.00075774570490981,-0.00097662278236456,0.00097664509693282,-0.00097662594270484,0.0009766419271366,-0.00097662269915077,0.00097664513912161,-0.00097662588076168,0.00097664198068575,-0.00084480820131532,0.00084483717931062,-0.00084481754841418,0.0008448279013275,-0.00084480863871749,0.00084483682959753,-0.00084481797389176,0.0008448275779827,-0.00032848500246065,0.00032851541673783,3.7827091558319e-09,2.3916029250547e-09,9.0001477813103e-09,-3.1027436260179e-09,-0.0010663712084369,0.0010663771619585,-0.0010665357409981,0.0010665301169254,-0.0010810392962553,0.0010810509297812,-0.0010810397809094,0.0010810485628336,-0.0010209936873404,0.001021004021158,-0.0010209976357957,0.0010210000576653,-0.0010209940573352,0.001021003343027,-0.0010209980133656,0.0010209993715955,-0.0010665236305517,0.0010665410620927,-0.0010665358082725,0.0010665294478652,-0.0010810433558035,0.0010810469852281,-0.0010810438578161,0.001081044606704,-0.00106652357185,0.0010665417204029,-6.6279768994709e-09,2.8566311482984e-09,-0.00067533808179878,0.00067533429112559,-8.1202612722824e-09,4.1237298597915e-09,-0.00054253117890068,0.00054253001912729,-0.00050655924571969,0.00050657038927997,-0.00050656244760929,0.00050656731404255,-0.00054253386482308,0.00054252742107855,-0.00054254289252012,0.00054251784775763,-0.00050657161376157,0.00050655864906651,-0.0005065743578909,0.00050655505539058,-0.00083846029022973,0.00083844935632014,-0.00083845624268586,0.00083845349320928,-0.00083845711810286,0.00083845251312555,-0.00083845300834537,0.00083845657220331,-0.00084281456793818,0.00084282421639973,-0.00084282408316931,0.00084281517665482,-0.0008428280393279,0.00084281095986016,-0.00084281878305032,0.00084282030057394,-0.00054252184836722,0.00054253915635367,0.78846824363395,128566,2924,0.0034292461103404,0.0044328359717159,0.0028106578752584,23.79572860387,-4.9634171169036e-05,-4.9634171169036e-05,-4.9634171169036e-05,3574876.0215184,0.010730869704699
28991759,0.66046794376605,0.01119497977767,0.0036825124083135,0.0042785930730242,0.0032338742963328,-0.00083609966853021,0.00083611919741487,1.4549687301467e-08,4.9136163039536e-09,9.9680762379368e-09,1.0352574829063e-08,-0.00033191727624389,0.00033192852242926,-0.00076899392676238,0.00076901790328818,-0.00076899713358789,0.0007690146609273,-0.00033190877342575,0.00033193740231325,-0.00033191811908253,0.00033192798997131,-0.00076899470357011,0.00076901782887748,-0.00076899786369079,0.00076901461415136,-0.00099125113636871,0.0009912735307624,-0.00099125434248152,0.00099127031640777,-0.00099125114893903,0.00099127347427537,-0.0009912543811178,0.00099127026735509,-0.0008572965882467,0.00085732556424797,-0.00085730608180711,0.00085731614146001,-0.00085729694486207,0.00085732529234777,-0.00085730641978521,0.00085731591462406,-0.00033190783088779,0.00033193803939364,3.7186821902235e-09,2.6051037536333e-09,9.2278833816146e-09,-3.1833861453855e-09,-0.0010827041361793,0.0010827102331686,-0.0010829193415854,0.0010829134854417,-0.0010977879895302,0.0010977995941027,-0.0010977882020639,0.0010977975139224,-0.0010365067689549,0.0010365172471778,-0.0010365108148399,0.0010365131818537,-0.0010365070455408,0.0010365166664748,-0.0010365111033138,0.0010365125890607,-0.0010829068562797,0.0010829248361157,-0.0010829193322706,0.0010829129028721,-0.001097792148458,0.0010977955561449,-0.00109779238567,0.0010977934513362,-0.0010829068890514,0.0010829253991129,-6.6709109699503e-09,2.9398166829915e-09,-0.00068390131883222,0.0006838975703016,-8.2516161660628e-09,4.3029213632189e-09,-0.0005489480823883,0.00054894717066449,-0.00051211273925676,0.00051212427263129,-0.00051211597495003,0.00051212116293736,-0.00054895095344471,0.00054894439805342,-0.0005489601435822,0.00054893469695134,-0.00051212541400355,0.00051211224237313,-0.0005121282113344,0.00051210860638198,-0.00085019492615951,0.00085018388464966,-0.00085019077333345,0.00085018812878266,-0.00085019170742453,0.00085018708331851,-0.00085018749663218,0.00085019124472035,-0.00085506641798151,0.00085507632373362,-0.00085507605111492,0.00085506716865647,-0.00085508012186877,0.00085506284713283,-0.00085507072278684,0.00085507230730217,-0.00054893864641203,0.0005489564088937,0.75490318817015,128566,2924,0.0034796142665296,0.0045005538863629,0.0028462724735384,24.096274658864,-4.7229802729087e-05,-4.7229802729087e-05,-4.7229802729087e-05,3581673.0760036,0.010886266607648
29191759,0.66947058420268,0.011342584763768,0.0037321559597627,0.0043381433737639,0.0032722854302415,-0.00084809199794836,0.00084811149735868,1.4599530533408e-08,4.8368116855761e-09,9.9228222114163e-09,1.0365042008493e-08,-0.00033548982340734,0.00033550098335804,-0.00077990316931052,0.00077992720896656,-0.0007799064137864,0.00077992393015803,-0.00033548123853793,0.00033550992943981,-0.00033549073011879,0.00033550037527922,-0.00077990399477154,0.00077992708155843,-0.00077990720821537,0.00077992382142404,-0.0010057766595965,0.0010057990522318,-0.0010057799099254,0.0010057957931129,-0.0010057766566496,0.0010057990087371,-0.0010057799290027,0.0010057957611816,-0.00086955753604288,0.00086958664154883,-0.00086956714083652,0.00086957709304886,-0.00086955792430398,0.0008695863334948,-0.00086956753181844,0.00086957682994582,-0.00033548027066492,0.00033551060792225,3.8066058111584e-09,2.6399696217402e-09,9.4042254603087e-09,-3.2437244650912e-09,-0.001098734475691,0.0010987406936331,-0.0010987382536074,0.0010987322979602,-0.0011142952339956,0.0011143070951286,-0.0011142955037137,0.0011143049583671,-0.0010519123188427,0.0010519230137277,-0.0010519164433967,0.0010519188672015,-0.0010519126087072,0.0010519224163735,-0.0010519167412197,0.0010519182614157,-0.0010987255596055,0.0010987438551483,-0.0010987382661566,0.0010987316974818,-0.0011142994729005,0.0011143029711128,-0.0011142997578293,0.001114300822409,-0.0010987255574876,0.001098744444042,-6.7195367836887e-09,3.0316288154714e-09,-0.00069246431288627,0.0006924606070159,-8.349579426011e-09,4.4427311639076e-09,-0.00055552482336882,0.00055552403327224,-0.00051768028680821,0.0005176921458467,-0.00051768357329481,0.00051768898154189,-0.00055552777047684,0.00055552114103521,-0.00055553710213368,0.00055551134447916,-0.00051769318938338,0.0005176798629916,-0.00051769603563096,0.00051767619257668,-0.00086185266111155,0.0008618415368047,-0.00086184843176223,0.00086184586110455,-0.00086184939804771,0.00086184478037725,-0.00086184510250809,0.00086184902202831,-0.00086707679572333,0.00086708696783295,-0.00086708657217423,0.00086707767048501,-0.00086709071971052,0.00086707328022612,-0.0008670811786615,0.00086708286174664,-0.00055551523942318,0.00055553342961077,0.73755731326234,128566,2924,0.0035294720616813,0.0045670117718293,0.0028818857413287,24.414606849811,-4.4683145201509e-05,-4.4683145201509e-05,-4.4683145201509e-05,3595069.9534009,0.011039896254043
29391759,0.67848241236503,0.011483125462634,0.0037796116833885,0.0043948071584579,0.0033087066207878,-0.00085967276916666,0.00085969223221835,1.464931786391e-08,4.7528372696721e-09,9.6962697129984e-09,1.0549473674968e-08,-0.00033859395820311,0.00033860534106241,-0.00078990270389537,0.00078992715219625,-0.00078990599154667,0.00078992382756057,-0.0003385856318826,0.00033861402150022,-0.00033859525489773,0.00033860434057761,-0.00078990393355616,0.00078992661531452,-0.00078990719552443,0.00078992331522087,-0.0010200055899473,0.0010200278584388,-0.0010200088854393,0.0010200245552931,-0.0010200054540938,0.0010200279488726,-0.0010200087711697,0.0010200246565168,-0.00088128460133087,0.00088131397802385,-0.00088129432980423,0.00088130428773414,-0.00088128516118953,0.00088131348585847,-0.00088129491059554,0.00088130386432338,-0.00033858427291439,0.00033861509785715,4.0718535755507e-09,2.4909291265897e-09,9.5351515038432e-09,-3.260788325155e-09,-0.0011142479188789,0.0011142542521227,-0.0011137800699048,0.0011137742343388,-0.0011303893585729,0.0011304017914295,-0.0011303900440577,0.0011303992513907,-0.0010669520975633,0.0010669630863276,-0.0010669562699201,0.0010669588898804,-0.0010669525126813,0.0010669623554367,-0.0010669566933195,0.0010669581503354,-0.0011137673852968,0.0011137857894236,-0.0011137802330811,0.0011137734870041,-0.0011303936427754,0.0011303976194651,-0.0011303943442978,0.0011303950665091,-0.0011137672317271,0.0011137865259865,-6.7606068388e-09,3.124103246669e-09,-0.00070072138006971,0.00070071772588532,-8.3968782030525e-09,4.5437689048162e-09,-0.00056154433074626,0.00056154360668815,-0.00052272028517192,0.00052273238680066,-0.00052272361003557,0.00052272917336169,-0.00056154728374668,0.00056154069320989,-0.00056155677570282,0.00056153079615542,-0.0005227333273855,0.00052271995153604,-0.00052273622599095,0.00052271624444117,-0.00087326280133247,0.00087325163242467,-0.00087325852426371,0.00087325601146805,-0.00087325949500355,0.00087325492164034,-0.00087325514489089,0.00087325921145057,-0.00087843607571827,0.000878446482338,-0.00087844599639953,0.00087843706690944,-0.00087845017981709,0.00087843260604853,-0.00087844052387712,0.00087844233314098,-0.00056153463010172,0.00056155314652697,0.70228482481232,128566,2924,0.0035776161043647,0.00463132217065,0.0029162276946329,24.733439103771,-4.2132487169828e-05,-4.2132487169828e-05,-4.2132487169828e-05,3612486.5282107,0.011188361538075
29591759,0.68749444414228,0.011617655273989,0.0038251872843837,0.0044490008197152,0.0033434671698898,-0.00087088571653217,0.00087090467043271,1.4466022543235e-08,4.4360033058499e-09,8.5538366144277e-09,1.1149708968456e-08,-0.00034147792251932,0.00034149033197367,-0.0007991127735695,0.00079913843320195,-0.00079911610354257,0.00079913506204492,-0.00034147113152571,0.00034149745266005,-0.00034148089160799,0.00034148764847348,-0.00079911569798629,0.00079913617840365,-0.00079911901093413,0.00079913284086461,-0.0010339620153216,0.0010339832566328,-0.0010339653570712,0.0010339799103714,-0.0010339613176569,0.00103398392555,-0.0010339646796886,0.0010339805891607,-0.00089253992118846,0.00089256955951616,-0.00089254977282663,0.00089255972776062,-0.00089254109633002,0.00089256843400581,-0.00089255099141774,0.00089255869884171,-0.00034146810478971,0.0003415002186076,4.907396041243e-09,1.6062935575991e-09,9.2822918930602e-09,-3.0500595797735e-09,-0.0011292697733748,0.0011292760654905,-0.0011280447038561,0.0011280398704761,-0.001146120051655,0.0011461339728846,-0.0011461224660352,0.0011461297752443,-0.0010816574885865,0.0010816688475142,-0.0010816614976504,0.0010816648014278,-0.0010816584726078,0.0010816675549925,-0.0010816624899165,0.0010816635003435,-0.0011280330950293,0.0011280504158205,-0.0011280454658417,0.0011280385446294,-0.0011461241722059,0.0011461299537529,-0.001146126602281,0.0011461257435691,-0.0011280323414497,0.0011280517320403,-6.6746313973452e-09,3.3438458791291e-09,-0.00070875172699619,0.00070874838206099,-7.9956458047614e-09,4.4704069481419e-09,-0.00056719314969496,0.00056719215638728,-0.00052746567861905,0.00052747769004172,-0.00052746903948926,0.00052747442448268,-0.00056719549913574,0.0005671898108427,-0.00056720516877267,0.00056717982995402,-0.00052747824732684,0.00052746570147671,-0.00052748120748225,0.00052746196687607,-0.00088442451602412,0.00088441376354835,-0.00088442039633539,0.00088441798385158,-0.0008844211616017,0.00088441709366876,-0.00088441696952225,0.00088442122580381,-0.0008892271169243,0.00088923779851025,-0.00088923717461374,0.00088922825812593,-0.00088924120447036,0.00088922396167064,-0.00088923139730764,0.0008892337995055,-0.00056718333534841,0.00056720184211051,0.67337837503941,128566,2924,0.00362422568535,0.004693590355601,0.0029496274623985,25.052168554798,-3.9582651561612e-05,-3.9582651561612e-05,-3.9582651561612e-05,3635880.4888942,0.011332279520074
29791759,0.69646059922415,0.011758504424606,0.0038726547214419,0.0045057777446008,0.0033800719585634,-0.00088226206072103,0.00088228065526064,1.4358940377728e-08,4.1952934185776e-09,7.0797128458676e-09,1.2245423257902e-08,-0.00034501388172162,0.0003450282926441,-0.00080902953643727,0.0008090573828006,-0.00080903290981259,0.00080905396667626,-0.00034500944097511,0.00034503302788438,-0.00034501934346582,0.00034502310430227,-0.00080903496969437,0.00080905258454786,-0.00080903833641133,0.00080904921210227,-0.0010479313702569,0.0010479514591305,-0.001047934758012,0.0010479480692966,-0.001047929837695,0.001047952985141,-0.0010479332444878,0.0010479496045204,-0.00090419411743806,0.00090422435217367,-0.00090420410802866,0.00090421439940727,-0.0009041961056507,0.00090422241865945,-0.00090420612413026,0.00090421254277647,-0.00034500393321825,0.00034503830965982,6.068407460847e-09,2.0951250800728e-10,8.6710205483919e-09,-2.6586215277608e-09,-0.0011444720723831,0.0011444781429236,-0.0011424957122582,0.0011424925028277,-0.0011620614308042,0.001162077297921,-0.0011620663874091,0.00116207061735,-0.0010965336498766,0.0010965453052181,-0.001096537319549,0.0010965415872548,-0.0010965354899295,0.0010965431722727,-0.0010965391677107,0.00109653944587,-0.0011424859848219,0.001142501239249,-0.0011424973576071,0.0011424903268461,-0.0011620652087091,0.0011620736079167,-0.0011620701801643,0.0011620669153297,-0.0011424843464761,0.0011425034066549,-6.6240779612722e-09,3.5280693819444e-09,-0.0007170258467605,0.00071702274053709,-7.3642140852324e-09,4.0928005483914e-09,-0.00057373565409812,0.00057373379331776,-0.00053299639544941,0.00053300771787736,-0.00053299979797281,0.00053300440543417,-0.00057373686428268,0.00057373252992747,-0.0005737467317662,0.00057372248737815,-0.0005330079545124,0.0005329966936713,-0.00053301099551692,0.00053299295136828,-0.00089555994083294,0.00089554970849241,-0.00089555616614961,0.00089555360823491,-0.00089555654712041,0.00089555308753293,-0.00089555267783245,0.00089555687872807,-0.0009004143706376,0.0009004250689157,-0.00090042451691516,0.00090041535671003,-0.00090042825601983,0.00090041146280285,-0.00090041825543781,0.00090042137014763,-0.00057372572201875,0.0005737436227791,0.70917941731165,128566,2924,0.003671510258439,0.004756600101605,0.002984039328003,25.304779998055,-3.7561760015563e-05,-3.7561760015563e-05,-3.7561760015563e-05,3654936.763001,0.011478670188086
29991759,0.70537232950772,0.011905870657472,0.0039220493472129,0.0045652870138073,0.0034185342964515,-0.00089392430826156,0.00089394333983693,1.4643287468781e-08,4.3463968001348e-09,6.18496436579e-09,1.3605163509182e-08,-0.00034884391133782,0.00034886086613675,-0.00081979932481462,0.00081982989704311,-0.00081980274340526,0.00081982643769879,-0.00034884155683291,0.00034886349912376,-0.00034885158787376,0.00034885344421091,-0.00081980697381111,0.00081982286671256,-0.00081981038169676,0.00081981944681419,-0.0010620765982667,0.0010620964282159,-0.0010620800275349,0.0010620929906652,-0.0010620743427382,0.0010620987000798,-0.001062077793839,0.0010620952749645,-0.00091642081070446,0.00091645236129643,-0.00091643092817775,0.0009164422735484,-0.000916423550316,0.00091644967669005,-0.00091643369267667,0.00091643966347739,-0.00034883383303928,0.00034887101478383,7.0661654387904e-09,-1.0596664260357e-09,7.996436977457e-09,-2.2379269863962e-09,-0.0011601581603089,0.0011601639744726,-0.0011576027753408,0.0011576011592984,-0.0011785032645975,0.0011785207411761,-0.0011785104268197,0.00117851179628,-0.001111740268863,0.0011117520550788,-0.0011117435880561,0.0011117487026075,-0.001111742838821,0.0011117491657129,-0.0011117461659904,0.0011117458049578,-0.001157594867922,0.0011576080240994,-0.0011576051810132,0.0011575982084711,-0.0011785066852093,0.0011785174156651,-0.0011785138622027,0.0011785084590047,-0.0011575924681357,0.0011576109678046,-6.8037549057947e-09,3.4824694103048e-09,-0.0007254951816561,0.00072549184790272,-6.9422492764351e-09,3.4281300768782e-09,-0.00058074069588391,0.00058073739219534,-0.00053905769885475,0.00053906775502335,-0.00053906113851611,0.00053906439131283,-0.00058074070468987,0.00058073733907272,-0.00058075071889515,0.0005807271817338,-0.00053906818020699,0.00053905779583296,-0.00053907127357364,0.00053905401679507,-0.00090685732763238,0.0009068471825924,-0.00090685392733512,0.00090685074534467,-0.00090685390642557,0.00090685062240721,-0.00090685037546254,0.00090685404273681,-0.00091215611487228,0.00091216635892368,-0.00091216638648776,0.00091215650951719,-0.00091216976943559,0.00091215298759599,-0.00091215962767869,0.00091216301647081,-0.00058073065698276,0.00058074737560463,0.74657307934593,128566,2924,0.0037199866676128,0.0048216071425119,0.0030192625558826,25.555687076159,-3.5554503390724e-05,-3.5554503390724e-05,-3.5554503390724e-05,3662671.4485715,0.0116291281671
30191759,0.71422212072115,0.012042970652629,0.0039681999246489,0.0046206686955654,0.003454102032415,-0.00090495711052121,0.00090497643220951,1.4854215408004e-08,4.4239468395343e-09,5.4453757292152e-09,1.4655029373471e-08,-0.000351560311912,0.00035157919593146,-0.00082920600626398,0.0008292386970405,-0.00082920946853872,0.00082923519296781,-0.0003515595869182,0.00035158019717279,-0.00035156974493334,0.00035157000814068,-0.00082921541305513,0.00082922989180823,-0.00082921886492332,0.00082922642739371,-0.0010757920400809,0.0010758116156688,-0.0010757955116677,0.001075808131083,-0.0010757892099301,0.0010758144784337,-0.0010757927055843,0.0010758110090096,-0.00092781067461801,0.00092784325698513,-0.00092782091652054,0.00092783303112141,-0.00092781402431635,0.00092783995768972,-0.00092782429566676,0.00092782981257049,-0.00035155010524061,0.00035158947665563,7.8712105348624e-09,-2.0514967455356e-09,7.4026145563831e-09,-1.8176742998273e-09,-0.0011752615032847,0.0011752671422986,-0.0011719987819419,0.0011719986035012,-0.0011945582113939,0.0011945769452994,-0.00119456712133,0.0011945661976064,-0.0011263666947361,0.0011263785615905,-0.0011263696907293,0.0011263755477281,-0.001126369837069,0.0011263750738405,-0.0011263728409199,0.0011263720518381,-0.0011719924648577,0.0011720038399021,-0.0011720017944196,0.0011719950362411,-0.0011945613008873,0.0011945739589786,-0.0011945702251773,0.0011945631999054,-0.0011719894570594,0.0011720074013062,-6.9641340078443e-09,3.4559668482726e-09,-0.00073332373217879,0.00073332020897346,-6.5410615321365e-09,2.8243362396761e-09,-0.00058632520309744,0.00058632057736515,-0.0005439577415625,0.00054396665243347,-0.00054396121690266,0.00054396323598189,-0.00058632409831311,0.00058632166136501,-0.00058633425643827,0.00058631138730663,-0.00054396722910934,0.00054395767821664,-0.00054397037132242,0.00054395385923138,-0.00091783153868737,0.00091782149480698,-0.00091782847876695,0.00091782473626559,-0.00091782808253981,0.00091782498829038,-0.00091782487285705,0.00091782806952759,-0.00092310337001366,0.00092311322450004,-0.00092311376891908,0.00092310324031912,-0.00092311682124802,0.00092310006236115,-0.00092310653852257,0.00092311021261557,-0.00058631506404786,0.00058633072167386,0.70019171650305,128566,2924,0.0037658503349501,0.0048841933537156,0.00305182537664,25.806524916336,-3.3547800669312e-05,-3.3547800669312e-05,-3.3547800669312e-05,3669457.5173081,0.011771830118826
30391759,0.72301184468654,0.012174214132756,0.0040125139315502,0.0046736274152826,0.003488072785923,-0.00091568420336936,0.00091570356273575,1.4940679304194e-08,4.3772524522805e-09,4.9167592646148e-09,1.5225739648958e-08,-0.00035436687213409,0.00035438673455726,-0.00083793196350987,0.00083796582722037,-0.00083793546884692,0.00083796227799969,-0.00035436708415526,0.00035438679188881,-0.00035437737088617,0.0003543764708529,-0.00083794245028085,0.00083795593058407,-0.00083794594742704,0.00083795242271152,-0.0010892243056673,0.0010892436064401,-0.0010892278202294,0.0010892400755956,-0.0010892211273153,0.0010892468301022,-0.0010892246676033,0.0010892433166689,-0.00093871177056749,0.00093874491704455,-0.00093872213601395,0.00093873455234347,-0.00093871550807648,0.00093874122371622,-0.00093872591165175,0.00093873095061874,-0.00035435653626627,0.00035439714626472,8.3855709668572e-09,-2.6374699639266e-09,6.97559790139e-09,-1.4566848441603e-09,-0.0011898485956981,0.0011898541686926,-0.0011855648761718,0.0011855657899467,-0.0012102617887671,0.001210281283063,-0.0012102717766588,0.0012102694321498,-0.0011406564674938,0.0011406683685904,-0.0011406592124226,0.0011406656175975,-0.0011406599586671,0.0011406645180949,-0.0011406627112763,0.0011406617591331,-0.0011855597093456,0.0011855698616951,-0.0011855682713684,0.0011855618425051,-0.0012102646204544,0.0012102785606187,-0.0012102746224721,0.0012102666989768,-0.0011855563174282,0.0011855738047505,-7.0905340843497e-09,3.4636550050113e-09,-0.00074100334577582,0.0007409997020114,-6.2151748164964e-09,2.3691617740714e-09,-0.00059169422845225,0.00059168857360862,-0.00054871116501141,0.00054871922440163,-0.0005487146772675,0.00054871575605036,-0.0005916922229332,0.0005916905604966,-0.00059170252568108,0.00059168017016055,-0.00054871987533676,0.00054871100956977,-0.00054872307197782,0.00054870715613384,-0.00092858307168403,0.00092857312290581,-0.00092858027812753,0.00092857611719698,-0.00092857957897665,0.00092857666849343,-0.00092857661700104,0.00092857948539339,-0.0009336350753883,0.00093364468258815,-0.00093364560708606,0.0009336345689035,-0.00093364840434846,0.00093363166227284,-0.00093363797115286,0.0009336419249848,-0.00059168398060666,0.0005916988706919,0.67548311554332,128566,2924,0.0038104366281106,0.0049446361652533,0.0030837686363403,26.074881092356,-3.1400951261153e-05,-3.1400951261153e-05,-3.1400951261153e-05,3685640.4832951,0.011910463202294
30591759,0.73180041025231,0.012309917961771,0.0040581719866807,0.004728397136577,0.0035233488385135,-0.00092685112778832,0.00092687042898346,1.4981365477907e-08,4.2840557655224e-09,4.6676627777238e-09,1.5414255093147e-08,-0.00035782041263094,0.00035784050207886,-0.00084740553490926,0.00084743981805414,-0.00084740908385885,0.00084743622357218,-0.00035782090632055,0.0003578402689362,-0.00035783132310302,0.00035782981611997,-0.00084741645563999,0.00084742948466273,-0.00084741999835335,0.00084742593292489,-0.0011030174900542,0.0011030366440427,-0.0011030210481692,0.0011030330671173,-0.001103014182005,0.001103040007289,-0.0011030177673083,0.0011030364497063,-0.00095014900744327,0.00095018240482106,-0.00095015949764624,0.00095017190088955,-0.000950152911001,0.00095017853980046,-0.00095016344826679,0.000950168139106,-0.00035780994560204,0.0003578510451647,8.6003793050217e-09,-2.8602450672413e-09,6.7160818361335e-09,-1.2051062613603e-09,-0.0012049555687881,0.0012049611345029,-0.001199572295691,0.0011995738691736,-0.0012265626206074,0.0012265823793646,-0.0012265730468948,0.0012265700868239,-0.0011554287617295,0.0011554406303822,-0.0011554313430152,0.001155438049489,-0.0011554323958438,0.0011554366393777,-0.0011554349847025,0.0011554340506549,-0.0011995678047441,0.0011995772756589,-0.0011995758635289,0.0011995697638373,-0.0012265652849488,0.0012265798281616,-0.0012265757258672,0.0012265675253052,-0.0011995642387401,0.0011995813780894,-7.1917733211174e-09,3.495822991215e-09,-0.00074916651521237,0.00074916280138165,-5.999657894111e-09,2.0789258500438e-09,-0.00059788218497521,0.00059787582708055,-0.00055429286359748,0.00055430039618426,-0.00055429641251317,0.00055429687635019,-0.00059787954467432,0.00059787843666011,-0.00059789000867258,0.00059786794836668,-0.00055430105544506,0.00055429265996614,-0.00055430431935286,0.00055428878525747,-0.0009396635112731,0.00093965361482397,-0.00093966089363327,0.00093965645531339,-0.00093965998153606,0.00093965721157342,-0.00093965717537669,0.00093965985617379,-0.0009448224930181,0.00094483199138867,-0.00094483315125973,0.00094482174356585,-0.00094483579244732,0.00094481902548792,-0.0009448251994719,0.00094482939024243,-0.00059787182617961,0.00059788627355587,0.69870694691079,128566,2924,0.0038568460720826,0.0050072292318101,0.0031177202846954,26.468374332141,-2.8253005342872e-05,-2.8253005342872e-05,-2.8253005342872e-05,3702087.6955411,0.012055166287608
30791759,0.74057861485801,0.012450056883217,0.0041051320919324,0.004785040267258,0.0035598845240271,-0.00093823264548038,0.00093825192177488,1.5036495940547e-08,4.2059238524134e-09,4.5677139104166e-09,1.5487870881088e-08,-0.00036135679578389,0.00036137690017551,-0.00085741763777396,0.00085745210287185,-0.0008574212306172,0.00085744846357927,-0.00036135732478485,0.00036137663119831,-0.0003613678689113,0.00036136604600351,-0.00085742872794677,0.00085744160463162,-0.00085743231246824,0.00085743800726377,-0.0011169601635004,0.0011169792861033,-0.0011169637650042,0.0011169756632636,-0.001116956807325,0.0011169827009742,-0.0011169604377055,0.0011169790996703,-0.00096197421444137,0.00096200779649394,-0.00096198483002809,0.0009619971550545,-0.00096197819216494,0.00096200385004339,-0.00096198886488566,0.00096199332466676,-0.00036134619900301,0.0003613875745728,8.6977629774291e-09,-2.9407298171933e-09,6.5940877560278e-09,-1.0676464308403e-09,-0.0012204370887892,0.0012204426695903,-0.0012140202236051,0.0012140221488233,-0.0012432652315489,0.0012432850891994,-0.0012432758335932,0.0012432726352305,-0.0011704666349949,0.0011704784907211,-0.0011704691330276,0.0011704759961572,-0.0011704703289706,0.0011704744439195,-0.0011704728344862,0.0011704719417151,-0.0012140160705947,0.0012140252173593,-0.0012140238714637,0.0012140179666492,-0.0012432678114362,0.0012432826252626,-0.0012432784266832,0.0012432701616753,-0.0012140124232597,0.0012140293985371,-7.2828788641217e-09,3.5387621350988e-09,-0.00075746514855714,0.00075746138634889,-5.8972523293341e-09,1.924936806466e-09,-0.00060438275339202,0.00060437596110893,-0.00056022905430288,0.00056023632720225,-0.00056023263828882,0.0005602327542485,-0.00060437972739707,0.00060437895098901,-0.00060439033957878,0.00060436834880932,-0.00056023697831423,0.00056022883087408,-0.00056024030108467,0.00056022492604893,-0.00095088918474231,0.0009508792785333,-0.00095088666240237,0.00095088205131415,-0.00095088562147958,0.00095088293033369,-0.00095088288542155,0.0009508854836655,-0.00095639825418844,0.00095640774775952,-0.00095640902371012,0.00095639734941864,-0.00095641159933569,0.00095639474162357,-0.00095640085086528,0.00095640521422699,-0.00060437227764871,0.00060438655079115,0.72242073407215,128566,2924,0.0039041489642083,0.0050713678814252,0.0031522354014191,26.865103293986,-2.5079173648111e-05,-2.5079173648111e-05,-2.5079173648111e-05,3710542.3903707,0.012202929067212
30991759,0.74933537060832,0.012594645180881,0.004153385704777,0.0048436051035447,0.0035976543725597,-0.00094981589236483,0.00094983519883027,1.5117840485203e-08,4.1538368716643e-09,4.5400145399663e-09,1.554571240798e-08,-0.00036491237102619,0.00036493247046865,-0.00086812036709991,0.00086815497605347,-0.00086812400399748,0.00086815129207584,-0.00036491285965427,0.00036493224281013,-0.00036492353212212,0.00036492152501399,-0.0008681315315637,0.00086814440509882,-0.00086813516151635,0.00086814076521783,-0.0011310376686878,0.0011310568440318,-0.0011310413134836,0.0011310531750302,-0.0011310342950562,0.0011310602810481,-0.0011310379706978,0.0011310566361956,-0.00097426092220675,0.00097429470751996,-0.00097427166254638,0.00097428392743718,-0.00097426494643637,0.00097429070356441,-0.00097427575772164,0.00097428005650032,-0.00036490164421955,0.00036494327589197,8.754467681904e-09,-2.982025455581e-09,6.5206259779994e-09,-9.7886296299663e-10,-0.0012362448301312,0.0012362504246919,-0.0012289234587112,0.0012289256153639,-0.0012600547318853,0.001260074621528,-0.0012600654181994,0.0012600621049219,-0.0011857713041059,0.0011857831512082,-0.0011857737500604,0.0011857807105546,-0.00118577503441,0.001185779074758,-0.001185777487621,0.0011857766265947,-0.0012289195186131,0.0012289284635477,-0.0012289271591978,0.0012289213785936,-0.0012600572556248,0.0012600722118714,-0.0012600679537368,0.0012600596865909,-0.0012289158169012,0.0012289327011383,-7.372019822526e-09,3.5834958182545e-09,-0.00076588481656245,0.00076588100966014,-5.8418214462453e-09,1.8220140885089e-09,-0.00061120376591901,0.00061119663923906,-0.00056646125030166,0.00056646836389989,-0.00056646486866045,0.0005664647370819,-0.00061120044894537,0.00061119991528454,-0.00061121120588524,0.00061118919624295,-0.00056646900936461,0.00056646101506089,-0.00056647238650658,0.00056645707567022,-0.00096225309978204,0.00096224315603954,-0.0009622506387084,0.00096224589204269,-0.00096224949916661,0.00096224685891242,-0.00096224680133183,0.00096224935405296,-0.0009682313058667,0.00096824083126203,-0.00096824217162399,0.00096823026737009,-0.00096824471854808,0.00096822773861017,-0.00096823382518666,0.00096823832884538,-0.00061119316630694,0.00061120736516798,0.74698825249251,128566,2924,0.0039522923934181,0.0051368521886381,0.00318725333877,27.261963920295,-2.1904288637638e-05,-2.1904288637638e-05,-2.1904288637638e-05,3713388.2716429,0.012353435745549
31191759,0.75812724941505,0.012746461304991,0.0042038043784697,0.0049052685824486,0.0036373883440723,-0.00096201787243165,0.0009620371850105,1.5182791514685e-08,4.0955374206872e-09,4.6497041447595e-09,1.5443090440746e-08,-0.0003687202010707,0.00036874000510475,-0.00087992880283195,0.00087996323287631,-0.00087993246603531,0.00087995951036888,-0.00036872038953934,0.00036874012491309,-0.0003687311958322,0.00036872927129577,-0.00087993976250329,0.00087995289704868,-0.00087994342593041,0.00087994921188685,-0.0011456670380638,0.0011456863417625,-0.0011456707263915,0.0011456826286843,-0.0011456637481816,0.0011456896992335,-0.0011456674648716,0.0011456860182426,-0.0009874158271645,0.00098744968049768,-0.00098742668191619,0.00098743878703619,-0.00098741978702424,0.00098744573070654,-0.00098743073992673,0.00098743496549736,-0.00036870937913587,0.00036875091640832,8.672671969001e-09,-2.8464946363075e-09,6.5385763250992e-09,-9.3838280910814e-10,-0.0012529040108517,0.0012529096511404,-0.0012447966190271,0.0012447988145633,-0.0012775132320513,0.0012775329529272,-0.0012775237157794,0.0012775206658674,-0.0012018075903024,0.001201819395518,-0.0012018100314236,0.0012018169580939,-0.0012018112605739,0.0012018153912007,-0.0012018137035302,0.0012018129514179,-0.0012447926769657,0.0012448017030753,-0.0012448002631975,0.0012447946330977,-0.0012775157746224,0.0012775305528652,-0.0012775262307235,0.001277518267264,-0.0012447890202321,0.0012448059089002,-7.4577825467021e-09,3.6426203703727e-09,-0.00077480133060956,0.00077479749954101,-5.8417851049061e-09,1.8043206274033e-09,-0.00061871976918289,0.00061871244620524,-0.00057336518691115,0.00057337232247153,-0.00057336884303099,0.00057336863276083,-0.00061871633037307,0.00061871592315431,-0.00061872722020454,0.00061870508946438,-0.00057337294786692,0.00057336500099033,-0.00057337636906943,0.00057336103168917,-0.00097413623421743,0.00097412622109757,-0.00097413379268926,0.00097412897025237,-0.00097413259836676,0.00097412998028209,-0.00097412988756854,0.00097413246643911,-0.00098085030633416,0.00098085994142986,-0.0009808612966841,0.00098084920507854,-0.00098086385445494,0.00098084671579352,-0.00098085280046789,0.00098085742007357,-0.00061870903221403,0.00061872334396429,0.78082574752057,128566,2924,0.0040030086499025,0.0052058576781275,0.0032243356954934,27.788178088368,-1.7694575293054e-05,-1.7694575293054e-05,-1.7694575293054e-05,3712276.0526951,0.012512225191396
31391759,0.7669613316762,0.012893273327372,0.0042526737267391,0.004964971865273,0.0036756277353602,-0.00097400780249829,0.00097402705982953,1.5226737407345e-08,3.9981324800325e-09,4.735323144099e-09,1.529791878117e-08,-0.00037156765650744,0.00037158701999392,-0.00089098377249725,0.00089101796842683,-0.00089098748798415,0.00089101419360187,-0.0003715674689405,0.00037158749759748,-0.00037157839629359,0.00037157652436323,-0.00089099450864908,0.00089100785655337,-0.00089099821665766,0.00089100413144859,-0.0011602913179628,0.0011603106980754,-0.0011602950501139,0.0011603069383313,-0.0011602881110263,0.0011603139727339,-0.0011602918779908,0.001160310244264,-0.0010002575721481,0.001000291344635,-0.001000268590544,0.0010002803290441,-0.0010002613803792,0.0010002875810153,-0.0010002724422321,0.0010002766569243,-0.00037155667806314,0.00037159808145559,8.6102030187375e-09,-2.7081049320768e-09,6.5993679848969e-09,-9.2622002443757e-10,-0.0012695281765691,0.0012695338898564,-0.0012605657997368,0.0012605679629559,-0.0012950365725309,0.0012950561644162,-0.0012950468370586,0.0012950441031644,-0.0012177375609378,0.0012177493855331,-0.0012177400165394,0.0012177469298382,-0.0012177411639747,0.0012177454585059,-0.0012177436258328,0.0012177429967414,-0.0012605617542121,0.0012605709614684,-0.0012605694032675,0.0012605638365731,-0.0012950391196466,0.0012950537475633,-0.0012950493772551,0.0012950416783442,-0.0012605581480692,0.0012605751037218,-7.5173843824808e-09,3.7089316463845e-09,-0.00078342078827576,0.00078341696386889,-5.8676896367821e-09,1.8363971584441e-09,-0.00062529279737061,0.00062528542752614,-0.00057950184912069,0.0005795090820919,-0.00057950553967275,0.00057950535163192,-0.00062528926933345,0.00062528895298942,-0.00062530031976784,0.00062527799615353,-0.00057950964772393,0.00057950169705307,-0.00057951313115393,0.00057949769091033,-0.00098602566575081,0.00098601559359176,-0.00098602321157082,0.00098601837746946,-0.00098602199360815,0.0009860194037457,-0.0009860192528191,0.0009860219010418,-0.00099312356648425,0.00099313333498092,-0.0009931346274665,0.00099312243740767,-0.00099313725273648,0.00099311998496143,-0.00099312601828942,0.00099313076762369,-0.00062528194964583,0.00062529643545797,0.75165982097532,128566,2924,0.0040528480672085,0.0052747122827443,0.0032601859453309,28.355617735706,-1.3155058114353e-05,-1.3155058114353e-05,-1.3155058114353e-05,3709335.0444722,0.012668757040986
31591759,0.77582212929838,0.013034281587965,0.0042998097145849,0.0050222589144842,0.0037122129588957,-0.00098573154346393,0.00098575071849776,1.5253371245185e-08,3.8904942173663e-09,4.7274514852492e-09,1.52180877826e-08,-0.00037430392432571,0.00037432300089408,-0.00090131225518192,0.00090134633680322,-0.00090131601859217,0.0009013425178018,-0.00037430352314808,0.00037432367444487,-0.00037431458716382,0.00037431256727125,-0.00090132291129797,0.00090133629567982,-0.00090132667232882,0.00090133252785235,-0.0011747246804905,0.0011747440569573,-0.0011747284559168,0.0011747402506319,-0.0011747215069265,0.001174747298521,-0.0011747253193614,0.0011747435262486,-0.0010126310686063,0.0010126648406279,-0.0010126422212986,0.00101265369727,-0.0010126348300238,0.0010126611356133,-0.0010126460134937,0.0010126500700368,-0.00037429281178789,0.00037433419528586,8.6239582955232e-09,-2.6288518690858e-09,6.6816580055226e-09,-9.2103043079962e-10,-0.0012856913547074,0.0012856971590303,-0.0012755883007277,0.001275590464931,-0.0013121669406613,0.0013121865695492,-0.0013121771328063,0.0013121745904369,-0.0012333871178214,0.0012333990360342,-0.0012333895982122,0.0012333965532471,-0.0012333906965525,0.0012333951375472,-0.0012333931829479,0.0012333926485608,-0.0012755841711928,0.0012755935454883,-0.0012755919005346,0.001275586348567,-0.0013121695041401,0.001312184123385,-0.0013121796972578,0.0013121721378237,-0.0012755805651741,0.0012755976733358,-7.5704195305533e-09,3.7886246929177e-09,-0.0007918645135058,0.00079186071518265,-5.8956377955604e-09,1.8891978140536e-09,-0.00063153382814943,0.00063152643463212,-0.00058527778394427,0.00058528516284293,-0.00058528151558492,0.00058528138390373,-0.00063153023990841,0.00063152999304763,-0.00063154142439796,0.00063151891523354,-0.00058528564675718,0.00058527768227077,-0.00058528918547417,0.00058527364106156,-0.00099776770228882,0.00099775758277983,-0.00099776523147816,0.00099776041019114,-0.00099776399673235,0.00099776144740964,-0.000997761213054,0.00099776396366836,-0.0010048682250614,0.0010048781723243,-0.001004879391294,0.0010048671214746,-0.0010048820660604,0.0010048646757206,-0.0010048706710229,0.0010048755580514,-0.00063152285055098,0.00063153756987954,0.71981430677769,128566,2924,0.0041015760965807,0.0053416526427449,0.0032953055700529,28.924172710235,-8.6066183181203e-06,-8.6066183181203e-06,-8.6066183181203e-06,3715823.2773582,0.012821509963516
31791759,0.78457346939101,0.013166128673891,0.0043441107952041,0.0050757412869977,0.0037462765916895,-0.00099651490039263,0.00099653410257422,1.5333715559839e-08,3.8383175998262e-09,4.4126677680875e-09,1.5560722555754e-08,-0.00037642111434631,0.00037644073951344,-0.00091018900757503,0.00091022380743741,-0.00091019281325389,0.00091021994351641,-0.00037642122862895,0.00037644089242105,-0.00037643242667165,0.00037642965715073,-0.00091020030870904,0.00091021311390742,-0.00091020411805836,0.00091020930521282,-0.0011882476475813,0.0011882668909981,-0.001188251466351,0.0011882630385415,-0.0011882442739201,0.0011882703393146,-0.0011882481318042,0.0011882665248055,-0.0010238417204535,0.0010238758759061,-0.0010238529982274,0.001023864598845,-0.0010238457016772,0.0010238719487905,-0.0010238570162009,0.001023860752943,-0.00037640987469232,0.00037645206265717,8.9749644535849e-09,-2.94518147461e-09,6.7136147870296e-09,-9.1841482099882e-10,-0.0013006023508998,0.0013006081900287,-0.0012891197412455,0.0012891221428998,-0.0013281170281469,0.0013281373516455,-0.0013281278743859,0.0013281247217021,-0.0012479904721276,0.0012480026455816,-0.0012479929629991,0.0012480001508939,-0.00124799425403,0.0012479985318293,-0.001247996750327,0.0012479960314907,-0.0012891158150342,0.0012891250174671,-0.0012891235717444,0.0012891177920729,-0.0013281195983629,0.0013281348947306,-0.0013281304439655,0.0013281222607903,-0.0012891119760392,0.0012891293816879,-7.6200214125429e-09,3.8736959959008e-09,-0.00079955784238717,0.00079955407991795,-5.8928941907608e-09,1.9239003992673e-09,-0.00063694971099373,0.00063694225305655,-0.00059011577534565,0.00059012326734709,-0.00059011954479778,0.00059011943577885,-0.00063694602134208,0.00063694590749179,-0.00063695734888935,0.00063693471545334,-0.00059012366230465,0.00059011574614759,-0.00059012725247519,0.00059011166819435,-0.0010087105496184,0.001008700406427,-0.0010087080794226,0.0010087032631535,-0.001008706812512,0.001008704327902,-0.0010087040000209,0.0010087068469274,-0.0010153622841078,0.0010153724057717,-0.0010153735591966,0.0010153611999335,-0.0010153762692768,0.0010153587786197,-0.0010153647078703,0.0010153697584175,-0.00063693861144841,0.00063695353233051,0.68196835111323,128566,2924,0.0041463921417921,0.0054034026664533,0.0033273065832917,29.261887344615,-5.904901243076e-06,-5.904901243076e-06,-5.904901243076e-06,3728295.7795722,0.012961906908616
31991759,0.7930450779445,0.013306512339104,0.0043908679891126,0.0051327525895927,0.0037828917603988,-0.0010070924450078,0.0010071118734744,1.5512497930998e-08,3.8848618638132e-09,4.059015571037e-09,1.6155267979006e-08,-0.00037945155430823,0.00037947222645334,-0.00091997892650086,0.00092001494025906,-0.00091998277777491,0.00092001103292169,-0.00037945247566474,0.00037947156087108,-0.00037946380527483,0.00037946019843425,-0.00091999115532199,0.00092000331112512,-0.00091999501152659,0.00091999946054092,-0.001201142281562,0.0012011614913433,-0.0012011461418615,0.0012011575917213,-0.0012011386111085,0.0012011652418243,-0.0012011425150121,0.0012011613852567,-0.0010351081532003,0.0010351429934066,-0.0010351195534312,0.0010351315780614,-0.0010351124616185,0.0010351387301779,-0.0010351239058397,0.0010351274068138,-0.0003794401842403,0.00037948368056383,9.4152545567303e-09,-3.4797346601418e-09,6.6561479778365e-09,-9.506364564735e-10,-0.0013150822493426,0.0013150879982318,-0.0013023031219016,0.0013023057906951,-0.0013433509810379,0.0013433721434243,-0.0013433627535464,0.0013433585601976,-0.0012622390888449,0.0012622514791085,-0.0012622415715694,0.0012622489913258,-0.001262243179946,0.0012622470470396,-0.0012622456681409,0.0012622445533411,-0.0013022995460625,0.0013023082955198,-0.0013023072856842,0.0013023011008333,-0.0013433535386196,0.0013433696924959,-0.0013433653130176,0.0013433561055525,-0.0013022953712646,0.0013023129973698,-7.6837590328846e-09,3.9448218957776e-09,-0.00080721570847237,0.00080721195262218,-5.8794757027746e-09,1.9152265853291e-09,-0.00064350807267482,0.00064350046600051,-0.00059584276454038,0.00059585028062612,-0.00059584657256902,0.00059584639760193,-0.00064350422653921,0.00064350427009944,-0.00064351569530006,0.0006434929559737,-0.00059585061933112,0.00059584277144654,-0.00059585426149801,0.00059583865424518,-0.0010190799754827,0.0010190697984419,-0.0010190775217165,0.0010190726641701,-0.0010190762046327,0.0010190737754554,-0.0010190733839846,0.0010190762802163,-0.0010259792477478,0.0010259895021136,-0.0010259906443319,0.0010259781539937,-0.0010259933546102,0.001025975747872,-0.0010259816576021,0.001025986855929,-0.00064349685280643,0.0006435118879954,0.74979062722455,128566,2924,0.0041903466244792,0.0054633612270621,0.0033591569957127,29.279605563659,-5.763155490727e-06,-5.763155490727e-06,-5.763155490727e-06,3735416.4106382,0.013099472521175
32191759,0.80123742564856,0.013444875882382,0.0044368076939858,0.0051890647390557,0.0038190034493406,-0.0010173705479027,0.0010173901151793,1.5648239163182e-08,3.886512023299e-09,3.9239613549977e-09,1.6438213785794e-08,-0.00038157775076065,0.00038159885589891,-0.00092961899859241,0.00092965561240787,-0.00092962289210045,0.00092965165854523,-0.00038157896254986,0.00038159789767096,-0.00038159042433245,0.00038158640639813,-0.00092963163403399,0.00092964357212589,-0.00092963553370849,0.00092963967732144,-0.0012137429989023,0.0012137622661308,-0.0012137469016937,0.0012137583187669,-0.0012137392074535,0.0012137661403257,-0.0012137431582122,0.0012137622419466,-0.0010462089506875,0.0010462441877412,-0.0010462204837884,0.0010462326424763,-0.0010462133885994,0.001046239798881,-0.0010462249632345,0.0010462283414669,-0.00038156625011258,0.00038161044097201,9.6091252525254e-09,-3.7146785678843e-09,6.6328137832683e-09,-9.6275847103663e-10,-0.0013295091989769,0.0013295149088094,-0.0013156891709504,0.0013156919754764,-0.0013585164732838,0.0013585380064667,-0.0013585286558167,0.0013585239974081,-0.0012761812954733,0.0012761937813252,-0.0012761837740434,0.001276191296435,-0.001276185527628,0.0012761892080027,-0.0012761880114473,0.0012761867175478,-0.0013156857639015,0.0013156943105512,-0.0013156934877185,0.0013156871271545,-0.001358519027656,0.0013585355612475,-0.0013585312094224,0.0013585215497508,-0.0013156814358914,0.0013156991741121,-7.7550925727279e-09,4.0066909855172e-09,-0.00081450482734903,0.00081450106213224,-5.8802477415708e-09,1.9071815742117e-09,-0.00064945331225356,0.00064944555834641,-0.00060111815429739,0.00060112569961299,-0.00060112199779148,0.00060112176490564,-0.00064944934138436,0.0006494495119343,-0.00064946093618662,0.00064943806513153,-0.00060112600095229,0.00060111819722221,-0.00060112969117672,0.00060111404083561,-0.0010292184996541,0.0010292082676709,-0.0010292160578554,0.0010292111483338,-0.0010292146965738,0.0010292123004599,-0.0010292118617834,0.0010292147958874,-0.0010364977931757,0.001036508159044,-0.0010365092829975,0.0010364966446715,-0.0010365120222086,0.001036494283961,-0.0010365001598526,0.0010365054895216,-0.0006494419709676,0.00064945711756874,0.76436055171663,128566,2924,0.0042330663500094,0.0055230943951929,0.0033894774663103,29.28895020615,-5.688398350797e-06,-5.688398350797e-06,-5.688398350797e-06,3727157.7236517,0.013234030389933
32391759,0.80915556646678,0.01358161777522,0.0044821059859102,0.0052447862814751,0.003854725507835,-0.0010274588646172,0.0010274785180276,1.5758289241125e-08,3.8626918143871e-09,3.9088045489689e-09,1.6545642974582e-08,-0.00038358579614425,0.00038360698438019,-0.00093926525558258,0.00093930212470709,-0.00093926919344924,0.0009392981261499,-0.00038358700222991,0.00038360602855924,-0.00038359859594675,0.00038359440782325,-0.00093927801108286,0.00093928996616559,-0.00093928195493956,0.00093928602702644,-0.0012260482077598,0.0012260675756633,-0.0012260521530858,0.0012260635809777,-0.0012260443882676,0.001226071478888,-0.0012260483854256,0.0012260675380249,-0.0010571782649054,0.0010572137624564,-0.001057189926956,0.0010572020830993,-0.0010571827450683,0.0010572093291393,-0.0010571944507053,0.0010571977403675,-0.00038357416401859,0.00038361870048448,9.6661203598934e-09,-3.7812694410494e-09,6.6328053334677e-09,-9.7075343603123e-10,-0.0013437298640154,0.0013437355647378,-0.0013289587272049,0.001328961568805,-0.0013734081550033,0.0013734298064861,-0.0013734204577351,0.0013734156688622,-0.0012898663595524,0.0012898788816891,-0.0012898688396912,0.0012898763940936,-0.0012898706397282,0.0012898742656483,-0.0012898731250643,0.0012898717725235,-0.0013289553597964,0.0013289638532198,-0.0013289630925575,0.0013289566666837,-0.0013734107115069,0.001373427358867,-0.0013734230132744,0.0013734132192009,-0.0013289509822746,0.0013289687714049,-7.8276810240267e-09,4.0674243122697e-09,-0.00082162510492553,0.0008216213273635,-5.8922561860804e-09,1.9054602769993e-09,-0.00065528249183953,0.00065527460375746,-0.00060635968015375,0.00060636726495938,-0.00060636356341249,0.00060636328207184,-0.00065527840425804,0.00065527868074605,-0.00065529012997781,0.00065526710471348,-0.00060636753495932,0.00060635975124249,-0.00060637127066883,0.00060635555185636,-0.0010391286929926,0.0010391184001183,-0.0010391262522166,0.0010391212928299,-0.0010391248480841,0.0010391224796217,-0.0010391220018079,0.001039124975429,-0.0010469149600667,0.0010469254390815,-0.0010469265387819,0.0010469137544198,-0.0010469293150097,0.0010469114372308,-0.001046917287538,0.0010469227407417,-0.0006552710270525,0.00065528629878687,0.78118420811458,128566,2924,0.0042749988380416,0.0055819679299691,0.0034190963849545,29.297952539406,-5.6163796847547e-06,-5.6163796847547e-06,-5.6163796847547e-06,3715707.1864323,0.013366225656856
32591759,0.81678879646242,0.013705710461276,0.0045234429919231,0.0052952900271045,0.0038869774422484,-0.0010366908232309,0.0010367104582184,1.5815425118281e-08,3.7875498875979e-09,3.9178422320797e-09,1.6516732319577e-08,-0.00038461203204401,0.00038463303937107,-0.00094744095272952,0.00094747780438767,-0.00094744493265351,0.00094747376176626,-0.00038461307496127,0.00038463224740642,-0.00038462480162036,0.00038462049664499,-0.0009474536669172,0.00094746568820926,-0.00094745765701634,0.00094746170665855,-0.001237599549302,0.0012376189677995,-0.0012376035373943,0.0012376149264195,-0.0012375957550733,0.0012376228453845,-0.0012375997977592,0.0012376188627837,-0.0010670652284404,0.0010671008245448,-0.0010670770181422,0.001067089015019,-0.0010670696936711,0.0010670964075065,-0.001067081528802,0.0010670846869153,-0.00038460027342928,0.00038464488328491,9.6755512814911e-09,-3.7353648845198e-09,6.667495510236e-09,-9.5216383593076e-10,-0.0013569584354668,0.0013569641890827,-0.0013411761783348,0.0013411790611737,-0.0013874203591542,0.0013874420299738,-0.0013874326267171,0.0013874279342337,-0.0013025783572697,0.0013025909222781,-0.0013025808433291,0.001302588428275,-0.0013025826242468,0.0013025863211816,-0.001302585114829,0.0013025838223166,-0.0013411727981915,0.0013411813540037,-0.0013411805446459,0.0013411741568856,-0.0013874229200457,0.0013874395768817,-0.0013874351836909,0.0013874254813482,-0.0013411684166195,0.0013411862772544,-7.8919584906818e-09,4.1379584040053e-09,-0.00082797725303493,0.00082797348125501,-5.899119177055e-09,1.9179072513511e-09,-0.0006597404904759,0.00065973249298453,-0.00061041546667248,0.00061042312033678,-0.00061041939027784,0.00061041908716932,-0.00065973629336586,0.00065973668453765,-0.00065974814711824,0.00065972497869097,-0.00061042333794679,0.00061041558334985,-0.00061042712027278,0.00061041134269444,-0.0010484128828824,0.0010484025421877,-0.0010484104448354,0.0010484054564837,-0.0010484090030045,0.0010484066753341,-0.0010484061359203,0.0010484091718132,-0.0010562310067349,0.0010562416262035,-0.0010562426940135,0.0010562297855679,-0.0010562454983595,0.0010562274941675,-0.0010562333124358,0.001056238902728,-0.00065972889524505,0.0006597443246981,0.73524667609167,128566,2924,0.0043133756189951,0.0056367302151042,0.0034455247635013,29.270839161499,-5.8332867080072e-06,-5.8332867080072e-06,-5.8332867080072e-06,3704148.0929652,0.01348743811141
32791759,0.82413112052871,0.013816545214933,0.0045606420251074,0.0053402745830928,0.0039156286067326,-0.0010451020596832,0.0010451216195545,1.5846749938932e-08,3.6837081676411e-09,3.8503603583988e-09,1.650249774261e-08,-0.00038558837369121,0.00038560921623833,-0.0009542318852892,0.00095426875281675,-0.00095423591271673,0.00095426466445247,-0.00038558932688177,0.00038560850397937,-0.00038560118508923,0.00038559662466532,-0.00095424464714501,0.00095425658144493,-0.00095424868759213,0.00095425255938534,-0.0012483082136673,0.0012483275975711,-0.001248312244506,0.0012483235090917,-0.0012483044133668,0.0012483314804133,-0.0012483085030183,0.0012483274541761,-0.0010758221898828,0.0010758578616794,-0.00107583411181,0.0010758459170318,-0.0010758266700439,0.0010758534345822,-0.001075838631903,0.0010758415788085,-0.00038557647760783,0.00038562119525908,9.7502665992247e-09,-3.7213705496842e-09,6.7100952549607e-09,-9.1133976260759e-10,-0.0013688975488351,0.0013689033887966,-0.0013518760922593,0.0013518790864319,-0.0014001909695201,0.0014002127738312,-0.0014002032936757,0.0014001986379317,-0.0013142581189292,0.0013142707853813,-0.0013142606064726,0.0013142682898,-0.0013142623949355,0.0013142661719768,-0.0013142648878382,0.0013142636705838,-0.0013518727400791,0.0013518813466096,-0.0013518804936615,0.0013518741517529,-0.0014001935227796,0.0014002103183664,-0.0014002058504083,0.0014001961814037,-0.0013518683228027,0.0013518862965008,-7.9460483463033e-09,4.2155562159675e-09,-0.0008337751654271,0.00083377141643169,-5.8898259230641e-09,1.9305117732346e-09,-0.0006634981291751,0.00066349003121353,-0.00061372824204082,0.0006137359610459,-0.00061373220594723,0.00061373188157641,-0.00066349379444686,0.00066349433450557,-0.00066350578885674,0.00066348250752708,-0.00061373610466332,0.00061372841036581,-0.00061373993878528,0.00061372413030226,-0.001057013113576,0.0010570027477688,-0.0010570106843316,0.0010570056803003,-0.001057009200241,0.0010570069352387,-0.0010570063169273,0.0010570094251341,-0.0010643609831995,0.0010643717546446,-0.0010643727938826,0.0010643597820125,-0.0010643756072267,0.0010643574989275,-0.0010643632778065,0.0010643690233876,-0.0006634864071797,0.00066350198844188,0.68273835855776,128566,2924,0.0043483341640403,0.0056861532785899,0.0034696473832734,29.212658781346,-6.2987297492338e-06,-6.2987297492338e-06,-6.2987297492338e-06,3705806.1350513,0.013597450117476
32991759,0.83119104903181,0.013927992915928,0.0045978804835269,0.0053855115583229,0.0039446008740778,-0.0010534783787998,0.0010534979384889,1.5913332870281e-08,3.6175405948092e-09,3.7780601246507e-09,1.657171908621e-08,-0.00038758996366995,0.00038761080986468,-0.00096151534613624,0.00096155239339275,-0.00096151941595407,0.0009615482606527,-0.00038759092243103,0.00038761009671472,-0.0003876029101846,0.00038759808720928,-0.00096152824946566,0.00096154008146023,-0.00096153233439089,0.00096153601777146,-0.0012587051685372,0.001258724559448,-0.001258709243212,0.0012587204253865,-0.0012587013311212,0.0012587284812031,-0.0012587054669593,0.0012587244131717,-0.0010846003509264,0.0010846361189291,-0.0010846124202062,0.0010846240665069,-0.0010846048087258,0.0010846317406621,-0.0010846168861859,0.0010846197337519,-0.0003875779373194,0.00038762291492831,9.8485901380375e-09,-3.7656184274713e-09,6.7273338939203e-09,-8.7365071245279e-10,-0.0013804678665588,0.0013804737583787,-0.0013621324286066,0.00136213555165,-0.0014124034267901,0.0014124254190909,-0.0014124159030713,0.0014124111514681,-0.0013257381758695,0.0013257509309854,-0.0013257406578884,0.0013257484396472,-0.0013257424959872,0.0013257462737061,-0.001325744983104,0.0013257437768585,-0.0013621291552125,0.0013621377439223,-0.0013621368856199,0.0013621305662453,-0.0014124059746182,0.0014124229693368,-0.0014124184496712,0.0014124087011747,-0.0013621246828653,0.0013621427476223,-8.0077475144113e-09,4.2882900114264e-09,-0.00083977883235193,0.00083977509519129,-5.8744174448579e-09,1.9298828348545e-09,-0.00066827859338757,0.0006682703617419,-0.00061783847696126,0.00061784623891993,-0.00061784248434419,0.00061784211479758,-0.00066827411624147,0.00066827481637439,-0.00066828624182841,0.00066826285965913,-0.00061784632522275,0.00061783870663368,-0.00061785020536736,0.00061783438540753,-0.0010653826018851,0.0010653722066183,-0.0010653801851884,0.0010653751454957,-0.0010653786504858,0.0010653764449657,-0.0010653757622161,0.0010653789250853,-0.0010725441049292,0.0010725549888418,-0.0010725559524239,0.0010725427940072,-0.0010725588365589,0.0010725406291224,-0.0010725462892104,0.0010725522040378,-0.0006682667360026,0.00066828244532803,0.71399333721613,128566,2924,0.004383137204303,0.0057340478922502,0.0034946198584107,29.153660135022,-6.7707189198216e-06,-6.7707189198216e-06,-6.7707189198216e-06,3715680.3239504,0.013706620432002
33191759,0.83797745663852,0.014041793869677,0.0046356634372757,0.005431790932895,0.003974339499506,-0.0010618364291129,0.0010618560373374,1.6004321420466e-08,3.5751737739982e-09,3.7327292457132e-09,1.6667245027135e-08,-0.00038951197581882,0.00038953288623942,-0.00096933982641011,0.00096937710302633,-0.00096934394042064,0.00096937292590717,-0.00038951294932326,0.00038953215662712,-0.00038952506851932,0.00038952001799376,-0.00096935286563913,0.00096936465528359,-0.00096935699512558,0.00096936054786832,-0.001268951928992,0.0012689713731944,-0.0012689560468314,0.001268967192907,-0.0012689480534413,0.0012689753340571,-0.0012689522347932,0.0012689712227844,-0.001093573770877,0.0010936097397571,-0.0010935859740469,0.001093597560946,-0.001093578251229,0.0010936053470698,-0.0010935904516445,0.0010935932000069,-0.00038949981914503,0.00038954512229575,9.9270474655141e-09,-3.8332094407299e-09,6.7218751095648e-09,-8.5591748971998e-10,-0.0013921367730084,0.0013921426752371,-0.0013726892349302,0.0013726924379343,-0.0014245966623139,0.001424618796876,-0.0014246092796118,0.0014246043924035,-0.0013371624762129,0.0013371752825784,-0.0013371649516538,0.0013371727970684,-0.0013371668464314,0.0013371705789753,-0.0013371693269381,0.0013371680879572,-0.0013726860275006,0.0013726945581823,-0.0013726937402168,0.0013726874026369,-0.0014245992024868,0.0014246163533447,-0.00142461181804,0.0014246019487055,-0.0013726815062599,0.0013726996122826,-8.0780835967502e-09,4.3516442239215e-09,-0.00084576820862423,0.00084576446407352,-5.8696939188569e-09,1.9172578964678e-09,-0.00067332190546823,0.00067331351766368,-0.00062225265792824,0.00062226043849439,-0.00062225670977027,0.0006222562702892,-0.00067331728301158,0.00067331812166851,-0.00067332953646638,0.00067330603253982,-0.00062226048951757,0.00062225292386994,-0.00062226441339775,0.00062224855789098,-0.0010736432224013,0.0010736327806229,-0.0010736408151038,0.0010736357202164,-0.0010736392296243,0.001073637066427,-0.0010736363414387,0.0010736395386063,-0.001080982651178,0.0010809936406144,-0.0010809945775413,0.0010809812655572,-0.0010809975002332,0.0010809791714883,-0.0010809847689245,0.0010809908269419,-0.00067330991684609,0.00067332573083648,0.75848139808915,128566,2924,0.0044178683279812,0.0057823461604265,0.0035195331114777,29.09462799795,-7.2429760164006e-06,-7.2429760164006e-06,-7.2429760164006e-06,3714605.9962928,0.013816077330309
33391759,0.84458900554791,0.014154557651393,0.0046730159868934,0.0054777194053168,0.0040038222591833,-0.00107046297504,0.0010704825802451,1.6069009535701e-08,3.507725158213e-09,3.827823980899e-09,1.6568263876353e-08,-0.0003912610309449,0.00039128162637115,-0.00097753607837482,0.00097757319868756,-0.00097754023531619,0.00097756897839374,-0.00039126169080931,0.00039128120909464,-0.00039127394276034,0.00039126894022483,-0.00097754892213868,0.00097756094956652,-0.00097755309604786,0.00097755679718126,-0.0012794728444467,0.0012794924002506,-0.0012794770055172,0.0012794881740613,-0.0012794690386177,0.0012794962884694,-0.0012794732648004,0.0012794921346424,-0.0011029273874349,0.001102963404851,-0.0011029397207154,0.0011029510992606,-0.0011029317905971,0.0011029590948187,-0.0011029441175816,0.0011029468125681,-0.00039124874765018,0.00039129398990688,9.8573490701052e-09,-3.7104748300115e-09,6.7587397384933e-09,-8.4098793839576e-10,-0.0014042669892296,0.0014042729420897,-0.0013838641485927,0.001383867323304,-0.0014372693657199,0.0014372913630806,-0.0014372817899604,0.0014372771574889,-0.0013488847966966,0.001348897598133,-0.0013488872793891,0.001348895104524,-0.0013488891098825,0.001348892959553,-0.0013488915969797,0.0013488904610557,-0.0013838608610714,0.0013838695225254,-0.0013838685950486,0.0013838623487713,-0.0014372719140393,0.0014372889110033,-0.0014372843347754,0.0014372747073695,-0.0013838563965432,0.0013838745184757,-8.1494973332435e-09,4.4151398679452e-09,-0.00085194250911894,0.00085193875623754,-5.8871223798724e-09,1.9259035471819e-09,-0.00067838739798387,0.00067837889299893,-0.00062681076042583,0.0006268186026904,-0.00062681485531176,0.00062681438678788,-0.00067838267143294,0.00067838360415989,-0.00067839505240549,0.00067837138516143,-0.00062681861709663,0.00062681106094654,-0.00062682258707038,0.00062680665360753,-0.0010822228348252,0.0010822123305024,-0.0010822204236343,0.0010822152863279,-0.0010822188020577,0.0010822166653325,-0.0010822158978474,0.001082219143563,-0.0010898294077852,0.0010898405213339,-0.0010898414264978,0.0010898279746816,-0.0010898443912553,0.0010898259225644,-0.0010898314883484,0.0010898376709688,-0.00067837527497219,0.00067839123945276,0.77139461570377,128566,2924,0.0044537201896339,0.0058325495099187,0.0035452163542262,29.270996529854,-5.8320277611648e-06,-5.8320277611648e-06,-5.8320277611648e-06,3707106.3842019,0.013929397915748
33591759,0.85107123153853,0.014267167125084,0.0047102539422793,0.0055236324356562,0.0040332807471488,-0.0010792583687112,0.0010792779560684,1.6131758972998e-08,3.4274347341627e-09,3.9743264325262e-09,1.6401567925035e-08,-0.00039310324896505,0.00039312336710389,-0.00098600747785776,0.00098604431630217,-0.00098601168042034,0.0009860400371974,-0.00039310348771313,0.00039312339829878,-0.00039311585165378,0.00039311101824617,-0.0009860200282855,0.00098603238116078,-0.00098602423047119,0.00098602819095635,-0.0012901293329409,0.0012901490290277,-0.0012901335392253,0.0012901447563366,-0.0012901256362289,0.0012901528058274,-0.0012901299149425,0.0012901486045978,-0.0011125033110869,0.0011125393399187,-0.0011125158004477,0.0011125268956165,-0.0011125076027316,0.0011125351475617,-0.0011125200678495,0.0011125227320485,-0.00039309081260833,0.00039313589144844,9.74527363158e-09,-3.5270057306313e-09,6.8245012138195e-09,-8.3052662786397e-10,-0.0014166192600046,0.0014166252784467,-0.0013952868599183,0.0013952899829561,-0.0014501545925245,0.0014501763825436,-0.0014501667309466,0.0014501624838741,-0.0013607798647753,0.0013607926424093,-0.0013607823620454,0.0013607901306874,-0.001360784086567,0.0013607881042363,-0.0013607865930785,0.0013607855838772,-0.0013952834487296,0.0013952923487999,-0.0013952912211601,0.0013952850979762,-0.001450157165947,0.0014501739258766,-0.0014501692970974,0.0014501600140647,-0.0013952790921584,0.0013952972548845,-8.2168783201822e-09,4.472459990682e-09,-0.00085825799276583,0.00085825423213824,-5.9103774711135e-09,1.9489322511358e-09,-0.00068358303915525,0.00068357447711618,-0.00063157275639816,0.00063158068370575,-0.00063157687820004,0.00063157643232485,-0.00068357826324457,0.00068357929837244,-0.00068359078554573,0.00068356692879318,-0.00063158067075621,0.00063157312567754,-0.00063158468519794,0.00063156867066016,-0.0010909602884833,0.0010909497138401,-0.001090957863503,0.00109095269566,-0.0010909562160916,0.00109095409652,-0.0010909532924546,0.0010909565857899,-0.0010989239796569,0.001098935195203,-0.0010989360566354,0.0010989224802449,-0.001098939092545,0.0010989204733569,-0.0010989260028817,0.0010989323001245,-0.00068357081900719,0.00068358692336189,0.78538310821291,128566,2924,0.0044902743850336,0.0058836679045722,0.0035714864070025,29.571294249684,-3.4296460025307e-06,-3.4296460025307e-06,-3.4296460025307e-06,3698938.3742512,0.014044966803336
33791759,0.85742058589124,0.014377269363408,0.0047466769644623,0.0055685341621681,0.004062058236778,-0.0010878749620206,0.0010878945490623,1.6196818673249e-08,3.3619629462515e-09,4.0698684338424e-09,1.6306542365089e-08,-0.00039466095685075,0.00039468076732716,-0.00099423907715174,0.00099427577233411,-0.0009942433261729,0.00099427145409631,-0.00039466086656181,0.00039468110492913,-0.00039467337183946,0.00039466858461045,-0.00099425143065166,0.00099426402574388,-0.00099425568868443,0.00099425978977784,-0.0013006108378336,0.0013006306517666,-0.0013006150859352,0.0013006263315739,-0.0013006072137986,0.0013006343515448,-0.0013006115362165,0.0013006301088374,-0.001121891635015,0.0011219277069575,-0.0011219042462784,0.0011219151354969,-0.0011218958456638,0.0011219235999228,-0.0011219084305457,0.0011219110452846,-0.00039464839361811,0.00039469341259781,9.6672064181268e-09,-3.4095752505812e-09,6.8728544804251e-09,-8.4700550726904e-10,-0.0014287940366054,0.0014288000943779,-0.0014065299387273,0.0014065329658993,-0.0014628800999123,0.0014629017600328,-0.0014628920469602,0.0014628880455845,-0.0013724681079086,0.0013724808887978,-0.0013724706264677,0.0013724783558631,-0.0013724722708225,0.0013724764158908,-0.0013724747965085,0.0013724738753744,-0.0014065263916896,0.001406535431829,-0.0014065342435882,0.0014065281388646,-0.0014628826839243,0.0014628992760428,-0.0014628946302582,0.0014628855557737,-0.0014065220784057,0.0014065402749374,-8.2861347923322e-09,4.5392121221671e-09,-0.00086438859531728,0.0008643848298704,-5.9512977854286e-09,1.9779200237126e-09,-0.00068846054742823,0.00068845190108167,-0.00063609623280172,0.00063610425838037,-0.00063610040229091,0.0006360999557876,-0.00068845568544035,0.00068845676255442,-0.0006884683405094,0.00068844427888617,-0.00063610419868594,0.00063609660828778,-0.00063610826480563,0.00063609211529181,-0.0010995585304843,0.0010995478850695,-0.001099556082381,0.0010995508893047,-0.0010995544126279,0.0010995523112662,-0.0010995514642755,0.0010995548249123,-0.0011078303214658,0.0011078416804174,-0.0011078424695583,0.0011078287691613,-0.0011078455781522,0.0011078268187392,-0.0011078322994155,0.0011078387188632,-0.00068844819047027,0.00068846449236496,0.78367691403511,128566,2924,0.0045260875540574,0.0059340475165604,0.0035969891072535,29.874891189707,-1.0008704823429e-06,-1.0008704823429e-06,-1.0008704823429e-06,3689048.1173441,0.014158271093041
33991759,0.86363257724063,0.014481332170905,0.0047812260642838,0.0056109266953732,0.0040891794112476,-0.0010961347890141,0.0010961543758375,1.6261680081615e-08,3.2967576718014e-09,4.1084186242782e-09,1.6267110859929e-08,-0.00039597533103509,0.00039599495064128,-0.0010018277137396,0.0010018643705698,-0.0010018320032774,0.0010018600104068,-0.00039597504545381,0.00039599548234326,-0.0003959876861263,0.00039598283178734,-0.0010018399859758,0.0010018527059668,-0.0010018442909875,0.0010018484263975,-0.0013107608135407,0.0013107807083788,-0.0013107651041941,0.0013107763418504,-0.0013107572263709,0.0013107843690771,-0.0013107615931166,0.0013107800855074,-0.0011307992102027,0.0011308353603845,-0.0011308119496175,0.0011308226671691,-0.0011308033734142,0.0011308313069676,-0.0011308160828957,0.0011308186161989,-0.00039596264776234,0.00039600771912846,9.6533862923222e-09,-3.3442022559166e-09,6.9340917694327e-09,-8.5901459592904e-10,-0.0014404817863705,0.0014404878934433,-0.0014172293386577,0.0014172323139141,-0.0014751576830272,0.0014751793391859,-0.0014751695544221,0.0014751657029481,-0.0013837237609249,0.0013837365872002,-0.001383726303934,0.0013837340290083,-0.0013837278972661,0.0013837321420599,-0.0013837304459917,0.0013837295775491,-0.001417225688983,0.0014172348725174,-0.0014172336139225,0.0014172275127265,-0.0014751602908783,0.0014751768295393,-0.0014751721574007,0.0014751631921171,-0.0014172213998957,0.0014172396940338,-8.3514489840441e-09,4.6107271223925e-09,-0.00087022287462893,0.00087021911471646,-5.9877280069828e-09,2.0194625911349e-09,-0.00069282753330927,0.00069281883033631,-0.00064015334445456,0.00064016149778766,-0.00064015755959356,0.00064015714624735,-0.00069282261541411,0.00069282374873965,-0.00069283539716792,0.00069281113811959,-0.00064016138916758,0.00064015376818668,-0.00064016549793144,0.00064014923083369,-0.0011078838312804,0.0011078731197696,-0.0011078813618773,0.0011078761565578,-0.0011078796730749,0.0011078775949899,-0.0011078766912047,0.001107880132586,-0.0011162278393953,0.0011162393532024,-0.0011162400680502,0.0011162262531603,-0.0011162432479776,0.0011162243479853,-0.0011162297815698,0.0011162363269762,-0.00069281503836063,0.00069283156151946,0.75679008277754,128566,2924,0.0045604173813312,0.0059824091098463,0.0036212603636082,30.17862345752,1.4289876601566e-06,1.4289876601566e-06,1.4289876601566e-06,3681995.7678278,0.014266788743563
34191759,0.86979416881817,0.014582493705683,0.0048148819468053,0.0056521023560008,0.0041155094028773,-0.0011047353198081,0.0011047548405595,1.6290542139488e-08,3.2038034280486e-09,4.1949782264418e-09,1.6107966196307e-08,-0.00039800045311034,0.00039801966763849,-0.0010096412580336,0.0010096776270379,-0.0010096455677214,0.0010096732248775,-0.00039799984080844,0.00039802058202499,-0.00039801261353902,0.0003980077985007,-0.0010096532958362,0.0010096662200067,-0.0010096576320268,0.0010096618976423,-0.0013212388846911,0.0013212588526477,-0.0013212432189069,0.0013212544426269,-0.0013212353941227,0.0013212624152264,-0.0013212398032241,0.0013212580982153,-0.0011399572308233,0.0011399933326894,-0.0011399700973553,0.0011399805420031,-0.0011399612886049,0.0011399893926396,-0.0011399741378559,0.0011399765801148,-0.00039798768160408,0.00039803254311381,9.5794867219033e-09,-3.1574505478178e-09,7.0399275772214e-09,-8.4223499059329e-10,-0.0014523682178694,0.0014523744299829,-0.0014280524431133,0.0014280553754722,-0.0014876075051335,0.0014876290552715,-0.0014876191581497,0.0014876156864703,-0.0013952865580337,0.0013952994158617,-0.0013952891326475,0.0013952968232561,-0.0013952906095133,0.0013952950581452,-0.0013952931846148,0.0013952924645375,-0.0014280486598924,0.0014280581553986,-0.0014280566175749,0.0014280506729513,-0.0014876101719884,0.0014876265253582,-0.0014876217734876,0.0014876131628236,-0.0014280444676849,0.0014280629097842,-8.4168585440575e-09,4.6916673049461e-09,-0.00087648390918008,0.00087648016969958,-6.0226307513511e-09,2.0911037968817e-09,-0.00069771221757599,0.0006977034937933,-0.00064461942068313,0.00064462778170187,-0.00064462368059507,0.00064462337896371,-0.00069770731529407,0.00069770850142316,-0.00069772021218504,0.00069769575992067,-0.00064462761605768,0.00064461998064458,-0.00064463175194991,0.00064461539987822,-0.0011165608648866,0.0011165500863113,-0.0011165583654557,0.0011165531642375,-0.0011165566622834,0.001116554610378,-0.0011165536379442,0.001116557185653,-0.0011248640145339,0.0011248757079217,-0.0011248763322077,0.00112486239861,-0.0011248795971578,0.0011248605418965,-0.0011248659219437,0.0011248725948862,-0.00069769957270885,0.00069771638130084,0.74153685326079,128566,2924,0.0045961547876679,0.0060315928500205,0.0036473013046075,30.743912978313,5.9513038265048e-06,5.9513038265048e-06,5.9513038265048e-06,3686501.6939196,0.014379373703377
34391759,0.87592027932525,0.014682245352608,0.0048480833159602,0.0056927070731314,0.0041414549635166,-0.0011133991143499,0.0011134185921288,1.6340910350891e-08,3.1114828984656e-09,4.2293800036382e-09,1.6026981437954e-08,-0.00040028951533038,0.00040030842285304,-0.0010174844738237,0.0010175207331875,-0.0010174888349768,0.001017516278939,-0.00040028864871514,0.00040030957504981,-0.00040030154712678,0.00040029667606942,-0.0010174964004689,0.0010175094363113,-0.0010175007837496,0.0010175050751521,-0.001331764030555,0.0013317840539573,-0.0013317684089675,0.00133177959582,-0.0013317605880524,0.0013317875652365,-0.0013317650482909,0.0013317832009589,-0.0011491416146136,0.0011491777797975,-0.0011491546244422,0.0011491648412342,-0.0011491456376825,0.0011491738749781,-0.0011491586194891,0.0011491609275019,-0.00040027659043238,0.00040032144886266,9.5714630444329e-09,-3.0718223772879e-09,7.1223907710274e-09,-8.5263852530186e-10,-0.0014642443936987,0.001464250680264,-0.0014388298882302,0.0014388327778407,-0.0015000098609002,0.0015000314181437,-0.0015000214172386,0.0015000181482588,-0.0014068997917109,0.0014069127188224,-0.0014069023946893,0.0014069100960019,-0.0014069038064234,0.0014069083978111,-0.0014069064139325,0.0014069057707064,-0.0014388259773484,0.0014388356606579,-0.0014388340428674,0.0014388280949192,-0.0015000125425813,0.001500028858867,-0.0015000240655378,0.0015000155895877,-0.0014388218141402,0.0014388403866441,-8.4705378253339e-09,4.7621908516766e-09,-0.00088287185129678,0.00088286812773798,-6.0561320768001e-09,2.1390873222578e-09,-0.00070280920564078,0.00070280046211448,-0.00064922523922428,0.00064923372831267,-0.00064922953408217,0.00064922928324478,-0.00070280423977385,0.00070280549832049,-0.00070281729131931,0.00070279263303353,-0.00064923349844442,0.00064922583953156,-0.00064923768981138,0.00064922121698246,-0.0011253105771482,0.0011252997423752,-0.0011253080532287,0.0011253028574874,-0.0011253063363216,0.0011253043140055,-0.0011253032787928,0.001125306911897,-0.0011335170557328,0.0011335288954242,-0.001133529425571,0.0011335154092502,-0.0011335327796931,0.0011335136027621,-0.0011335189122176,0.0011335257186196,-0.000702796451782,0.00070281346653718,0.73560164773306,128566,2924,0.0046321508402699,0.0060807326174396,0.003673867729363,31.386448153191,1.1091585225528e-05,1.1091585225528e-05,1.1091585225528e-05,3696125.2902645,0.014492721146656
34591759,0.88199779557807,0.014784766309015,0.0048820782404442,0.0057344973048616,0.0041681907637089,-0.0011221937919833,0.0011222133436614,1.6443763839685e-08,3.0811383796022e-09,4.2490464712529e-09,1.6086336744425e-08,-0.00040287103445792,0.00040288993297255,-0.0010257579951732,0.0010257944201689,-0.0010257624071777,0.0010257899229633,-0.00040287007031271,0.00040289116249942,-0.00040288310913362,0.00040287812937924,-0.0010257699512076,0.0010257830796293,-0.0010257743912112,0.0010257786757505,-0.0013423309154318,0.001342351057774,-0.0013423353345143,0.0013423465513728,-0.0013423274732834,0.0013423545643859,-0.0013423319788025,0.0013423501570586,-0.0011585337171935,0.0011585700915409,-0.0011585468489009,0.001158557013939,-0.001158537746286,0.0011585661804294,-0.0011585508470684,0.0011585530946876,-0.0004028579723209,0.00040290309343458,9.6102026734345e-09,-3.0819943533645e-09,7.1703025039451e-09,-8.7916751497708e-10,-0.0014762652655535,0.0014762715819244,-0.0014497963043816,0.0014497991590305,-0.001512459300416,0.0015124809517702,-0.0015124708905357,0.0015124676262836,-0.0014186526744271,0.0014186656753801,-0.0014186553015704,0.0014186630282675,-0.0014186567010267,0.0014186613418014,-0.0014186593323688,0.00141865868992,-0.0014497923199652,0.0014498020616746,-0.0014498004827805,0.0014497944450779,-0.0015124619909533,0.0015124783641778,-0.0015124735622645,0.001512465041432,-0.0014497881238803,0.0014498068078845,-8.5361743832901e-09,4.8299477650362e-09,-0.00088941604078262,0.00088941231670535,-6.0993585315005e-09,2.173325912149e-09,-0.00070835148898713,0.0007083426845546,-0.00065420448093453,0.00065421307530722,-0.00065420881815006,0.00065420857938315,-0.00070834645141681,0.00070834775364994,-0.00070835963771719,0.00070833476758576,-0.00065421279519839,0.00065420508708067,-0.00065421703820832,0.00065420042279697,-0.0011341036226225,0.0011340927196013,-0.0011341010642234,0.0011340958499349,-0.0011340993277526,0.0011340973268553,-0.0011340962524204,0.0011340999558628,-0.0011424197396775,0.0011424317211621,-0.0011424321557827,0.0011424180249278,-0.0011424356044886,0.0011424162947418,-0.0011424215276495,0.00114242846416,-0.00070833861486875,0.00070835583014094,0.7622624723878,128566,2924,0.0046686885387035,0.0061304682074478,0.0037010821172907,32.031087244337,1.6248697954698e-05,1.6248697954698e-05,1.6248697954698e-05,3705544.6191375,0.014607890528366
34791759,0.8880912999638,0.014891514067644,0.0049173360580162,0.0057780973995346,0.0041960806100935,-0.0011316137787559,0.0011316333540134,1.6523041480528e-08,3.0248481613915e-09,4.3529065788684e-09,1.6006205288974e-08,-0.00040568076506385,0.0004056993816837,-0.0010349168533857,0.0010349531591706,-0.0010349212971483,0.0010349486065376,-0.00040567953001242,0.00040570092988084,-0.00040569268703406,0.00040568777945984,-0.0010349286441646,0.001034942008935,-0.0010349331093225,0.0010349375658199,-0.0013535319345891,0.0013535522224236,-0.0013535363981169,0.0013535476693719,-0.0013535285677218,0.0013535556503346,-0.0013535331234308,0.0013535512024304,-0.0011686961958875,0.0011687326548181,-0.0011687094752867,0.0011687194554092,-0.0011687001512365,0.0011687288227519,-0.0011687133962916,0.0011687156105112,-0.00040566757981651,0.0004057126844449,9.5573014899999e-09,-2.9620808102292e-09,7.2553391808389e-09,-8.8555312590105e-10,-0.0014891644393435,0.0014891708163135,-0.0014617644688474,0.0014617672788547,-0.0015257646475799,0.0015257862278491,-0.0015257760877015,0.0015257730812245,-0.0014311376996645,0.0014311507156167,-0.0014311403556956,0.0014311480356554,-0.0014311416705481,0.001431146441441,-0.0014311443314567,0.0014311437571144,-0.0014617603785595,0.0014617703635468,-0.0014617685890189,0.0014617626179563,-0.0015257673891746,0.0015257836263435,-0.0015257787820392,0.0015257704762368,-0.0014617562572252,0.0014617750742316,-8.6053999451214e-09,4.893270288628e-09,-0.00089646786081345,0.00089646413523031,-6.1387204415635e-09,2.2260730011688e-09,-0.0007144138835225,0.00071440505683014,-0.00065977301016367,0.0006597817616985,-0.0006597773767158,0.00065977722318277,-0.00071440885868514,0.00071441022292624,-0.0007144221800243,0.00071439709788741,-0.00065978145043348,0.00065977372412921,-0.00065978572666329,0.0006597690121105,-0.001143483734825,0.0011434727497046,-0.001143481146737,0.0011434759175157,-0.001143479397018,0.0011434774034676,-0.0011434762876476,0.0011434800632102,-0.0011521342425414,0.0011521463508783,-0.0011521467045216,0.0011521324481647,-0.0011521502593922,0.0011521307877597,-0.0011521359625292,0.0011521430103311,-0.0007144009068491,0.00071441833324937,0.79180217557294,128566,2924,0.0047078261526211,0.0061838342901785,0.0037304060319234,32.909036890783,2.3272295126266e-05,2.3272295126266e-05,2.3272295126266e-05,3711241.4660449,0.014731537561421
34991759,0.89423176341932,0.014994052772489,0.0049513448616969,0.0058199671787383,0.0042227407320535,-0.0011410669446107,0.0011410864966768,1.6584375047241e-08,2.9410299797147e-09,4.4535795879065e-09,1.5878550118987e-08,-0.0004079165259272,0.00040793473836032,-0.0010436605633701,0.0010436966727967,-0.0010436650626472,0.0010436920623032,-0.00040791493506558,0.00040793664101371,-0.00040792821519795,0.00040792337327877,-0.0010436721407892,0.0010436857459321,-0.0010436766485133,0.00104368126327,-0.0013649567065297,0.0013649771114293,-0.0013649612127025,0.00136497250955,-0.0013649534279484,0.0013649804460519,-0.0013649580356944,0.0013649759503235,-0.0011788326409567,0.0011788691243552,-0.0011788460727083,0.0011788557852333,-0.0011788365056967,0.001178865394657,-0.0011788498749919,0.0011788520380881,-0.00040790318260415,0.0004079482026846,9.5036404293085e-09,-2.8247033229583e-09,7.3455593732033e-09,-8.9274880148986e-10,-0.0015022615525557,0.0015022680077213,-0.0014739329004855,0.0014739356295123,-0.0015394167359026,0.0015394382231673,-0.0015394279710691,0.0015394252821783,-0.0014437383135033,0.001443751363444,-0.001443740996833,0.0014437486464031,-0.0014437422098318,0.0014437471602939,-0.001443744908644,0.0014437444402431,-0.001473928644366,0.0014739388898043,-0.0014739369650827,0.0014739310411838,-0.0015394194996895,0.0015394355929535,-0.001539430711976,0.0015394226534715,-0.0014739246105839,0.0014739435400225,-8.667356048586e-09,4.9541632037516e-09,-0.00090344502899556,0.00090344130369052,-6.1829858809308e-09,2.2719930372081e-09,-0.00071981016357622,0.00071980131801224,-0.00066485115976111,0.00066486003680851,-0.00066485555481284,0.00066485546236586,-0.00071980510103522,0.00071980651813008,-0.00071981858592855,0.00071979327494136,-0.0006648596850354,0.00066485191653729,-0.00066486401151933,0.00066484716444976,-0.001153079074219,0.0011530680133949,-0.001153076456109,0.0011530712195742,-0.0011530746950106,0.0011530727146278,-0.0011530715527382,0.0011530754001126,-0.0011617622067977,0.0011617744647521,-0.0011617747392314,0.0011617603834136,-0.0011617783816798,0.0011617587431574,-0.0011617638925816,0.0011617710550897,-0.00071979710016471,0.00071981471014111,0.75494740990499,128566,2924,0.0047471063097545,0.0062380158321368,0.0037594223057289,33.939466945223,3.1515735561787e-05,3.1515735561787e-05,3.1515735561787e-05,3714544.582166,0.014855866046912
35191759,0.90039556128466,0.015094328849915,0.0049846884399667,0.0058608915363897,0.0042487488735586,-0.0011504573527012,0.0011504769261886,1.6657586423713e-08,2.8894762637336e-09,4.4729445088803e-09,1.5881204633129e-08,-0.00041051585783285,0.00041053397027656,-0.0010521772084292,0.0010522133661784,-0.0010521817538001,0.0010522087219502,-0.00041051410405214,0.00041053599987288,-0.00041052754819293,0.00041052257932861,-0.0010521887487777,0.0010522024551296,-0.001052193324409,0.0010521979199275,-0.0013763092928344,0.0013763297820641,-0.0013763138393737,0.0013763251321327,-0.0013763060332103,0.0013763330921765,-0.0013763106813802,0.0013763285598672,-0.0011887798188415,0.0011888163627691,-0.0011887933687008,0.001188802914074,-0.0011887836091795,0.0011888127278163,-0.0011887970850765,0.0011887992208354,-0.00041050239635472,0.00041054754110549,9.5223051709958e-09,-2.7882916934851e-09,7.4063596561494e-09,-9.1203621644905e-10,-0.0015151165934089,0.0015151231046525,-0.0014857741784348,0.0014857768260868,-0.0015527808312456,0.0015528023696276,-0.0015527920269179,0.0015527894451006,-0.0014562466657486,0.0014562598004944,-0.0014562493771787,0.0014562570567407,-0.0014562505507331,0.0014562556071196,-0.0014562532733964,0.0014562528655856,-0.0014857697769763,0.0014857801435113,-0.0014857782189174,0.0014857722601755,-0.001552783601756,0.0015527996899614,-0.0015527947906402,0.0015527867904231,-0.0014857657468639,0.0014857847711677,-8.731430891348e-09,5.030445168537e-09,-0.00091044895052172,0.00091044523311058,-6.2318704592023e-09,2.3169494810356e-09,-0.00072529238697439,0.00072528348152194,-0.00066991481053851,0.00066992381760967,-0.00066991926747385,0.00066991919305563,-0.00072528725350731,0.00072528868225806,-0.00072530083997361,0.00072527532154754,-0.0006699234100062,0.0006699155705266,-0.00066992777754733,0.00066991077474904,-0.0011626089763802,0.0011625978482338,-0.001162606334449,0.001162601090428,-0.0011626045582637,0.0011626025999998,-0.0011626013742861,0.0011626053151692,-0.0011711802819735,0.0011711927463715,-0.0011711929976162,0.0011711785418509,-0.001171196632272,0.0011711768400175,-0.001171182045287,0.0011711893264738,-0.00072527915766562,0.00072529701800101,0.73556804836185,128566,2924,0.0047861180795706,0.0062911950909915,0.0037885466244042,34.973949521295,3.9791596170358e-05,3.9791596170358e-05,3.9791596170358e-05,3727337.8664556,0.014979027640104
35391759,0.90650035519731,0.01519080853393,0.005016843548241,0.0059002595723603,0.004273705413329,-0.0011593195907198,0.0011593392439648,1.6761075669232e-08,2.8652341680041e-09,4.3174195203561e-09,1.6122504866837e-08,-0.00041290767299925,0.00041292614216081,-0.0010599822059041,0.0010600188812565,-0.0010599867984994,0.0010600142034684,-0.00041290617284514,0.00041292788771845,-0.00041291975059022,0.00041291433836654,-0.0010599941248003,0.0010600075748764,-0.0010599987563411,0.0010600029991762,-0.0013871318163148,0.0013871523058285,-0.001387136403159,0.0013871476087446,-0.0013871284356131,0.0013871557342493,-0.0013871331272603,0.0013871511601937,-0.0011980772206007,0.0011981140854927,-0.0011980908902942,0.0011981005075842,-0.001198081130023,0.0011981103358131,-0.0011980947185714,0.001198096688083,-0.00041289408594214,0.00041293983108179,9.727437057181e-09,-2.9838713058386e-09,7.4335028548256e-09,-9.4005557618272e-10,-0.0015272869991109,0.0015272935220679,-0.0014969144843525,0.0014969171899301,-0.0015654363872669,0.0015654583405457,-0.0015654479642123,0.0015654450198473,-0.0014681600756748,0.0014681733777441,-0.0014681628059921,0.0014681706193203,-0.0014681640852315,0.0014681690538204,-0.0014681668226109,0.0014681662940188,-0.0014969101230552,0.0014969203964498,-0.0014969186436034,0.0014969124846652,-0.0015654391634615,0.0015654556391158,-0.0015654507375143,0.0015654423355522,-0.0014969059498123,0.0014969251409742,-8.79289182114e-09,5.1074926595905e-09,-0.00091703921250603,0.00091703550685257,-6.2589915091398e-09,2.3460915065149e-09,-0.00073034905453641,0.00073034006596724,-0.00067448479753412,0.00067449390139817,-0.00067448930866242,0.00067448922560559,-0.00073034381838365,0.00073034532349926,-0.00073035753179844,0.0007303318319689,-0.00067449343063485,0.00067448557113834,-0.00067449784957413,0.00067448072860688,-0.0011716378461849,0.0011716266677265,-0.001171635185585,0.001171629927208,-0.001171633384055,0.0011716314647173,-0.0011716301798589,0.0011716341979385,-0.0011799498944802,0.0011799625243884,-0.0011799627516819,0.0011799482092355,-0.0011799663877801,0.0011799464720899,-0.0011799516983123,0.0011799590968666,-0.00073033567792244,0.00073035374866089,0.71497033910192,128566,2924,0.0048229324932677,0.0063415407653691,0.0038159509268664,35.839231097678,4.6713848781421e-05,4.6713848781421e-05,4.6713848781421e-05,3742873.3069287,0.015095350007036
35591759,0.91245401352851,0.015280323364164,0.0050468043486624,0.0059367535004966,0.0042967655150052,-0.0011673480214945,0.0011673677951549,1.6890111236696e-08,2.8560274768946e-09,4.0206551143932e-09,1.6547016959931e-08,-0.00041485568928627,0.00041487485861684,-0.0010666643645266,0.0010667019271939,-0.001066669010886,0.001066697206706,-0.00041485475133419,0.00041487600641465,-0.00041486846478646,0.00041486232896207,-0.0010666769795785,0.001066689895406,-0.0010666816717979,0.0010666852797441,-0.0013971294547454,0.001397149884594,-0.0013971340839785,0.0013971451382415,-0.0013971258512272,0.0013971535365831,-0.0013971305903887,0.0013971489170574,-0.0012063891400145,0.0012064264919773,-0.0012064029401617,0.001206412771233,-0.0012063932836026,0.0012064225083049,-0.0012064069949369,0.0012064087192818,-0.00041484196183141,0.00041488868549529,1.0082855162637e-08,-3.3633757219451e-09,7.3966056279518e-09,-9.3353086891982e-10,-0.0015383937288116,0.0015384002330347,-0.0015069604639322,0.0015069634136996,-0.0015770275489819,0.0015770501797508,-0.0015770398327359,0.0015770361236518,-0.0014791180426883,0.001479131555945,-0.0014791207549988,0.001479128813626,-0.0014791222783706,0.0014791269908444,-0.0014791249980513,0.00147912424474,-0.0015069563632736,0.0015069663046948,-0.0015069648686095,0.0015069584548883,-0.001577030287111,0.0015770474876253,-0.0015770425889882,0.0015770334483078,-0.0015069519377536,0.0015069712872171,-8.8179007916447e-09,5.2110585582381e-09,-0.00092295527238212,0.00092295164232912,-6.1962968242089e-09,2.3539812499501e-09,-0.00073464841328151,0.00073463931873474,-0.00067826928849901,0.00067827844497673,-0.00067827384373563,0.00067827372116123,-0.00073464296843293,0.00073464472264616,-0.00073465682511486,0.0007346311153546,-0.00067827784085449,0.00067827013793575,-0.00067828231613207,0.00067826525618878,-0.0011799030073696,0.0011798918785698,-0.0011799003692288,0.0011798951279922,-0.0011798985092518,0.0011798967252593,-0.0011798953144492,0.0011798994348323,-0.0011877050072817,0.0011877178203011,-0.0011877179768044,0.0011877033736791,-0.0011877216013093,0.0011877016631673,-0.0011877067843735,0.0011877144063224,-0.00073463491351809,0.00073465313451125,0.68077348735518,128566,2924,0.0048562807064356,0.0063874854967634,0.0038405530126407,36.485310488261,5.1882483906092e-05,5.1882483906092e-05,5.1882483906092e-05,3760569.2536788,0.015200853016606
35791759,0.91824141343968,0.015372324408219,0.005077407388903,0.0059743207998231,0.004320596219493,-0.0011754438532274,0.0011754637552672,1.7019738622286e-08,2.8539724332042e-09,3.799017359598e-09,1.6902655542417e-08,-0.00041751793272004,0.00041753768148781,-0.0010739375747408,0.0010739758731451,-0.001073942252846,0.0010739711018853,-0.00041751746686436,0.00041753840056206,-0.00041753130156634,0.00041752460022572,-0.0010739507653217,0.0010739632771417,-0.0010739554861263,0.0010739586216319,-0.0014070091466817,0.001407029562179,-0.0014070138212021,0.0014070247722587,-0.0014070053639272,0.0014070334016468,-0.0014070101493497,0.0014070287405594,-0.0012148429571937,0.0012148807700426,-0.0012148568939011,0.0012148669258407,-0.0012148472999713,0.0012148765848409,-0.0012148611554281,0.0012148626761652,-0.00041750408698314,0.00041755164383043,1.037420237365e-08,-3.6605403178295e-09,7.3525348854004e-09,-8.8055345722573e-10,-0.0015494407296614,0.0015494472264155,-0.0015170121058075,0.0015170153714754,-0.0015883394578215,0.0015883626237006,-0.0015883523278027,0.0015883480011459,-0.0014900677001278,0.0014900813496601,-0.0014900703806426,0.0014900786373128,-0.0014900721199587,0.0014900765903764,-0.001490074807409,0.0014900738751774,-0.001517008334136,0.0015170180104478,-0.0015170167012403,0.0015170102179762,-0.001588342183247,0.001588359976319,-0.0015883550431182,0.00158834536579,-0.0015170037280218,0.0015170232035887,-8.8913829384999e-09,5.2739723817051e-09,-0.00092908002668174,0.00092907639019483,-6.1461098265444e-09,2.311050539417e-09,-0.00073972835568036,0.00073971904678251,-0.00068272701000494,0.0006827361372661,-0.00068273159903609,0.00068273136861746,-0.00073972273534769,0.0007397247251079,-0.00073973672118682,0.00073971097752876,-0.00068273550169664,0.00068272795669493,-0.0006827400124231,0.00068272302854608,-0.0011880535951135,0.0011880424389274,-0.0011880509909569,0.0011880456655591,-0.0011880490568239,0.0011880473362018,-0.0011880458859439,0.0011880500127405,-0.0011956916261163,0.0011957045251651,-0.0011957047294563,0.0011956899465215,-0.0011957083243929,0.0011956882632902,-0.0011956933726005,0.0011957011421694,-0.00073971474208857,0.00073973299784652,0.72027366359288,128566,2924,0.0048899012508365,0.0064331831536463,0.0038660167699204,37.125610814857,5.7004886518856e-05,5.7004886518856e-05,5.7004886518856e-05,3782561.3226737,0.015307260699496
35991759,0.9238502648803,0.015466956055699,0.0051086775515997,0.0060130772840725,0.0043452012200266,-0.0011835623981902,0.0011835823645308,1.7118664320012e-08,2.8195920241785e-09,3.6360433677239e-09,1.7133884932959e-08,-0.00041985563644935,0.00041987571592526,-0.0010816645010743,0.0010817032949224,-0.0010816692224984,0.0010816984788839,-0.00041985543425511,0.00041987616848054,-0.00041986940066976,0.00041986223996547,-0.0010816780749576,0.0010816903119517,-0.0010816828388252,0.0010816856120096,-0.0014168348931669,0.0014168552824105,-0.0014168396133475,0.0014168504492073,-0.001416830979564,0.0014168592565652,-0.0014168358089769,0.0014168545501816,-0.0012235119640287,0.0012235501054904,-0.0012235260306461,0.0012235361293304,-0.0012235164382973,0.0012235457874554,-0.0012235304251285,0.0012235317484312,-0.0004198416613554,0.00041988980939347,1.055748499561e-08,-3.8796973895549e-09,7.2848671171925e-09,-8.4411158932331e-10,-0.0015607051376025,0.0015607116011519,-0.0015274212053666,0.0015274246832926,-0.0015998387729366,0.0015998622587865,-0.0015998520326857,0.0015998472454854,-0.0015010598042891,0.0015010735185752,-0.0015010624507944,0.0015010708405789,-0.0015010643588724,0.001501068626912,-0.0015010670121502,0.0015010659462181,-0.0015274176735596,0.0015274270817151,-0.001527425936312,0.0015274193924888,-0.001599841464597,0.00159985964762,-0.0015998547122483,0.0015998446462747,-0.0015274129313079,0.0015274324131833,-8.9736117079179e-09,5.3256364996224e-09,-0.00093516094709861,0.00093515728019478,-6.1105455381992e-09,2.2444408191641e-09,-0.00074486245281962,0.00074485288076606,-0.00068738020552148,0.00068738924660618,-0.00068738483448406,0.00068738443002541,-0.00074485660110187,0.00074485879105974,-0.0007448707260044,0.00074484492152311,-0.00068738859353924,0.00068738116411739,-0.00068739315463867,0.00068737619813508,-0.0011961675750206,0.0011961563766911,-0.0011961650067897,0.001196159574182,-0.0011961629952395,0.0011961613214606,-0.0011961598535519,0.0011961639626073,-0.0012039723345307,0.0012039852990719,-0.0012039855624986,0.0012039705835589,-0.0012039891291192,0.0012039689403804,-0.0012039740417821,0.0012039819456837,-0.00074484871681496,0.00074486696968218,0.7649978326839,128566,2924,0.0049236230138526,0.0064797745849034,0.0038913008361062,37.765673086055,6.2125384688441e-05,6.2125384688441e-05,6.2125384688441e-05,3791527.3909988,0.01541450855449
36191759,0.92911966465427,0.015553340344427,0.0051372765331882,0.0060484786862797,0.0043675851249589,-0.0011900946631491,0.0011901148165547,1.727404630289e-08,2.8498427291579e-09,3.4063293940929e-09,1.7562875568736e-08,-0.00042046441823863,0.0004204852416564,-0.0010875434807577,0.0010875831556751,-0.0010875482449451,0.0010875783086687,-0.00042046473867527,0.00042048515050045,-0.00042047885299718,0.00042047108031913,-0.0010875576871621,0.0010875695289415,-0.0010875625074587,0.0010875647816342,-0.0014250560530068,0.0014250764543268,-0.0014250608153726,0.001425071575841,-0.0014250519293303,0.0014250806425721,-0.0014250567978482,0.0014250758960203,-0.0012305344543482,0.0012305731960316,-0.0012305486130902,0.0012305590747329,-0.0012305392079659,0.0012305685688059,-0.0012305533301271,0.0012305544154939,-0.00042045033172504,0.00042049943995389,1.0864700628148e-08,-4.2597482173807e-09,7.1915946965421e-09,-8.2956172792923e-10,-0.001570298844981,0.0015703052368313,-0.001536266932293,0.0015362706336732,-0.0016097908712877,0.0016098148862128,-0.0016098047525088,0.0016097992200136,-0.0015103041494921,0.0015103179794447,-0.0015103067639698,0.001510315335543,-0.0015103089153328,0.0015103128690014,-0.0015103115320725,0.0015103102259457,-0.0015362636855248,0.0015362726720422,-0.0015362718703631,0.0015362651226108,-0.0016097935231528,0.0016098122968413,-0.0016098073907114,0.0016097966551427,-0.0015362587137408,0.00153627822379,-9.0571384880187e-09,5.383339693186e-09,-0.0009396878888781,0.00093968419289346,-6.087227508549e-09,2.1813298419341e-09,-0.00074805406295641,0.00074804421202051,-0.0006902598594431,0.00069026881845901,-0.00069026454146515,0.00069026394349008,-0.00074804797462035,0.00074805032955921,-0.0007480622204726,0.00074803634562681,-0.00069026814571315,0.00069026079134469,-0.00069027275478876,0.00069025578674834,-0.0012028239422306,0.0012028126991914,-0.0012028214105592,0.001202815874917,-0.0012028193258662,0.0012028176969476,-0.0012028162010981,0.0012028203063569,-0.0012105936796233,0.0012106067868559,-0.0012106072352523,0.0012105921006183,-0.0012106106097553,0.0012105902584286,-0.0012105955854003,0.0012106035767251,-0.00074804017615188,0.00074805846533512,0.74360849105636,128566,2924,0.0049507690466852,0.0065194488281213,0.0039101358258188,37.870070561124,6.2960564488989e-05,6.2960564488989e-05,6.2960564488989e-05,3782668.7263925,0.015501520005588
36391759,0.9339553035992,0.015631629225162,0.0051632314308111,0.0060805384757787,0.0043878593185721,-0.0011952849755752,0.0011953053043519,1.7431499129667e-08,2.8656341156978e-09,3.1696404012203e-09,1.7987634454468e-08,-0.00042063788028756,0.00042065938558736,-0.0010920795665905,0.0010921201361685,-0.0010920843981375,0.0010921152453173,-0.00042063869087324,0.00042065875142198,-0.00042065293483918,0.00042064455593367,-0.0010920944068311,0.0010921058412017,-0.0010920992886321,0.0010921010508861,-0.0014317318398118,0.00143175223856,-0.0014317366444798,0.0014317473128513,-0.0014317274967439,0.0014317566479717,-0.0014317324121996,0.0014317518492847,-0.0012360795475322,0.0012361188483849,-0.0012360938317732,0.0012361045620961,-0.001236084546871,0.0012361139632039,-0.001236098787591,0.0012360996718496,-0.00042062362913871,0.00042067373703351,1.1163401739034e-08,-4.6553204829783e-09,7.1091381731793e-09,-8.536076738715e-10,-0.0015781175844733,0.0015781238879409,-0.0015433559543354,0.0015433598255462,-0.0016178910716241,0.0016179156269412,-0.0016179055813234,0.0016178992760863,-0.0015179093160436,0.0015179232786614,-0.0015179119105816,0.0015179206584674,-0.0015179142973276,0.0015179179427487,-0.0015179168984573,0.0015179153178879,-0.0015433529472118,0.0015433615144438,-0.0015433611333594,0.0015433540659279,-0.0016178936716258,0.0016179130479404,-0.0016179082137381,0.0016178967151782,-0.0015433477315547,0.0015433672839647,-9.1280326874436e-09,5.4363670758094e-09,-0.00094311281058401,0.00094310909046822,-6.0708033905207e-09,2.1222056896878e-09,-0.00075033654760563,0.00075032647486203,-0.00069219038222583,0.00069219924674157,-0.00069219510390929,0.00069219432652534,-0.00075033021828216,0.00075033274296436,-0.00075034461130631,0.0007503186343953,-0.00069219854321231,0.00069219125168467,-0.00069220321564546,0.00069218620527294,-0.0012080945495645,0.0012080832678539,-0.0012080920462605,0.0012080864272302,-0.0012080898976573,0.0012080883160395,-0.0012080867912393,0.0012080908926799,-0.0012157703780925,0.0012157835792572,-0.0012157840989896,0.0012157688240518,-0.0012157874064184,0.0012157669348375,-0.0012157723189585,0.001215780434398,-0.00075032255605856,0.00075034085103984,0.73413358520583,128566,2924,0.0049723389207803,0.0065517801677032,0.0039243911287867,37.543361470281,6.0346891762246e-05,6.0346891762246e-05,6.0346891762246e-05,3773238.8385629,0.015570762120748
36591759,0.93839358535231,0.015699290379682,0.0051857923055783,0.0061081843929699,0.0044053136811337,-0.0011997563300781,0.0011997767149015,1.7525973137036e-08,2.8276096500397e-09,3.1346592959279e-09,1.8078497786567e-08,-0.00042060266192589,0.00042062421933491,-0.0010956466139795,0.001095687396732,-0.0010956514745871,0.0010956824541456,-0.00042060350195887,0.00042062361225656,-0.00042061785986559,0.00042060928989829,-0.0010956615915181,0.0010956729863817,-0.0010956664945336,0.0010956681537142,-0.0014376269642277,0.0014376474135977,-0.0014376318170946,0.0014376424468246,-0.0014376225763773,0.0014376518737701,-0.0014376275375875,0.0014376470324509,-0.0012407641799106,0.0012408037587082,-0.001240778601405,0.0012407893453235,-0.0012407692604028,0.0012407987851112,-0.0012407836595054,0.0012407843845983,-0.0004205882950498,0.00042063870363964,1.124506047071e-08,-4.6898573831938e-09,7.1311532836916e-09,-8.0896558530372e-10,-0.0015848908729682,0.0015848972202446,-0.0015493877628978,0.0015493917809865,-0.0016249737774622,0.0016249984918481,-0.0016249884264793,0.0016249820388842,-0.0015245565374293,0.0015245705570048,-0.0015245591252698,0.0015245679419142,-0.001524561554519,0.0015245651783361,-0.0015245641485261,0.0015245625602309,-0.0015493848665207,0.0015493934759318,-0.0015493929684187,0.0015493859919027,-0.0016249764007651,0.0016249959340319,-0.0016249910462271,0.0016249794936594,-0.001549379642751,0.0015493992987183,-9.2022151722747e-09,5.4974599772243e-09,-0.00094601842762545,0.00094601469993583,-6.0557790177944e-09,2.1196088625117e-09,-0.00075202699343203,0.00075201678724758,-0.0006935532153095,0.00069356213524476,-0.00069355797328677,0.00069355717745976,-0.00075202057869544,0.00075202326911058,-0.00075203508585293,0.00075200900736689,-0.00069356141319195,0.00069355421606311,-0.00069356610813921,0.00069354911584278,-0.0012127193435844,0.0012127080084601,-0.0012127168534988,0.0012127111739594,-0.0012127146547226,0.0012127131097206,-0.0012127115450113,0.001212715675978,-0.0012200727350723,0.0012200860638928,-0.0012200866836815,0.0012200712667083,-0.0012200899050535,0.0012200692606018,-0.001220074776316,0.0012200829851437,-0.00075201287835,0.00075203128205043,0.69114506660564,128566,2924,0.0049909201579534,0.0065797881830871,0.0039364867093952,37.205181131796,5.7641449054372e-05,5.7641449054372e-05,5.7641449054372e-05,3767636.2933664,0.015630387870459
36791759,0.94247043240398,0.015759682478523,0.0052059826873326,0.0061328196137529,0.0044208801774375,-0.001203747507227,0.0012037678031586,1.7548825135512e-08,2.7180947934375e-09,3.1798066363547e-09,1.7936500752567e-08,-0.00042102779093725,0.00042104894213498,-0.0010987373297764,0.0010987778706439,-0.0010987422333481,0.0010987728846964,-0.0004210283155398,0.00042104864924212,-0.00042104280687914,0.00042103419812552,-0.001098752118227,0.001098763648607,-0.0010987570663189,0.0010987587729009,-0.0014428938483643,0.0014429143136325,-0.0014428987467136,0.0014429093035858,-0.0014428895194742,0.0014429187129853,-0.0014428945246215,0.0014429138274871,-0.0012448474366048,0.0012448870272676,-0.0012448619831821,0.0012448724787265,-0.0012448524804671,0.0012448820860363,-0.0012448670170072,0.0012448675635546,-0.00042101329599967,0.00042106355413385,1.1197786537602e-08,-4.553753844887e-09,7.172698620863e-09,-7.645890547998e-10,-0.0015907831275095,0.0015907895598497,-0.001554529790543,0.0015545338387938,-0.0016310722743005,0.0016310968788995,-0.0016310867414366,0.0016310806315076,-0.0015304848008775,0.0015304988389207,-0.0015304873877739,0.001530496223504,-0.0015304897530883,0.0015304935263799,-0.0015304923457606,0.0015304909083139,-0.0015545268458813,0.0015545356006173,-0.0015545349357741,0.0015545281114725,-0.0016310748970041,0.0016310943210867,-0.0016310893578429,0.0016310780868156,-0.0015545216813049,0.0015545413634933,-9.2593445019073e-09,5.5746102311605e-09,-0.00094871099906166,0.0009487072924195,-6.0426776707899e-09,2.1305898650929e-09,-0.00075381081119806,0.00075380049261735,-0.00069489282552157,0.00069490181419898,-0.00069489762704668,0.00069489681019525,-0.00075380425986773,0.00075380710170973,-0.00075381889952236,0.0007537927136538,-0.00069490102033291,0.00069489389447083,-0.00069490576113824,0.00069488875268491,-0.0012168220607427,0.0012168106997097,-0.0012168195779914,0.0012168138737993,-0.0012168173339892,0.001216815851743,-0.0012168142167374,0.0012168184132382,-0.0012237979342497,0.0012238114253037,-0.0012238120643838,0.0012237965432783,-0.001223815242944,0.0012237944773927,-0.00122380002939,0.0012238083762473,-0.00075379656091818,0.0007538151179322,0.67162364362004,128566,2924,0.0050074975598185,0.0066041552280845,0.0039476910337309,36.866527056869,5.4932216454949e-05,5.4932216454949e-05,5.4932216454949e-05,3772799.714402,0.015683372443056
36991759,0.946307741353,0.015819841586424,0.0052259721783329,0.0061573905187736,0.0044364788893175,-0.0012084589489289,0.0012084790452563,1.7517687679637e-08,2.553351880941e-09,3.4301786517497e-09,1.7469524295818e-08,-0.00042252860565915,0.00042254870397332,-0.0011029226831388,0.0011029623375159,-0.0011029276198536,0.0011029572973897,-0.00042252831755538,0.00042254926720038,-0.00042254292332346,0.00042253469889572,-0.0011029367757099,0.0011029488327624,-0.0011029417472326,0.0011029439155616,-0.0014487617914296,0.0014487823368193,-0.0014487667374247,0.0014487772860736,-0.0014487576931873,0.001448786502858,-0.0014487627453055,0.0014487815736707,-0.0012497391019641,0.0012497784192998,-0.0012497537932438,0.0012497637463134,-0.0012497439307258,0.0012497736981483,-0.0012497586190857,0.0012497590634383,-0.00042251398281819,0.00042256345690277,1.0923998961801e-08,-4.1101988735987e-09,7.269816138813e-09,-6.8118209194291e-10,-0.0015973426110413,0.0015973492039422,-0.0015603961149871,0.0015604001135946,-0.0016377193505727,0.001637743405731,-0.0016377331351976,0.0016377279089946,-0.0015370731415504,0.0015370870908353,-0.001537075731146,0.0015370844684381,-0.0015370778643119,0.0015370820216785,-0.0015370804611264,0.001537079396388,-0.0015603929722831,0.0015604021971692,-0.00156040101613,0.0015603946349543,-0.0016377219997933,0.0016377408582995,-0.0016377357541627,0.0016377253658374,-0.0015603880709955,0.0015604077274674,-9.321813722303e-09,5.6463100580888e-09,-0.00095222231106082,0.00095221861998567,-6.032314479801e-09,2.1561297855009e-09,-0.00075678172093336,0.00075677132950617,-0.00069739324467511,0.00069740234280663,-0.00069739808017168,0.00069739730159111,-0.00075677509688256,0.00075677809631679,-0.00075678986992595,0.00075676356274958,-0.00069740149444499,0.00069739445569243,-0.00069740626959166,0.00069738926562494,-0.00122154794171,0.0012215365387525,-0.0012215454578651,0.0012215397267164,-0.0012215431734647,0.0012215417401646,-0.0012215400470496,0.0012215443043062,-0.0012283984741209,0.0012284121100848,-0.001228412778266,0.0012283971410796,-0.0012284159304302,0.0012283950151191,-0.0012284006118584,0.0012284090801898,-0.00075676735084104,0.00075678606612103,0.71099418160863,128566,2924,0.0050270589104062,0.0066312839698546,0.0039622903225012,36.972951274793,5.5783610198344e-05,5.5783610198344e-05,5.5783610198344e-05,3786698.3559387,0.015745640364886
37191759,0.94995857564366,0.015880510529785,0.0052460048824929,0.0061822349627833,0.0044522706845088,-0.0012134847761037,0.0012135047362954,1.7517624073153e-08,2.4199551419433e-09,3.6977567338936e-09,1.7054956831217e-08,-0.00042388445365031,0.00042390361513319,-0.0011076742969374,0.0011077131693249,-0.001107679277609,0.0011077080889227,-0.00042388336435106,0.00042390497751166,-0.00042389810642077,0.00042389027560487,-0.0011076877144043,0.0011077003495905,-0.0011076927293067,0.0011076953860539,-0.0014549247305264,0.0014549453964292,-0.0014549297239334,0.0014549403033205,-0.0014549208370919,0.0014549493467362,-0.001454925931916,0.0014549443716553,-0.0012551158403567,0.0012551549797628,-0.0012551306504728,0.0012551401646107,-0.0012551204848042,0.0012551504296994,-0.0012551353150838,0.001255135674921,-0.00042386970472519,0.00042391849084041,1.0637441668106e-08,-3.7246813901285e-09,7.3265825878723e-09,-6.4474313048111e-10,-0.0016044143246611,0.0016044210097374,-0.0015668744217707,0.001566878265036,-0.0016449260307431,0.0016449495014517,-0.0016449391425938,0.0016449347065878,-0.0015440031590986,0.0015440169832117,-0.001544005754547,0.001544014352574,-0.0015440076671544,0.0015440121433624,-0.0015440102688976,0.0015440095109811,-0.0015668710333818,0.0015668805958733,-0.001566879097154,0.0015668730179272,-0.0016449286910479,0.0016449469431589,-0.0016449417675378,0.0016449321548115,-0.0015668663545365,0.0015668858981629,-9.3900983175262e-09,5.7114691630817e-09,-0.00095596505222592,0.00095596135879104,-6.0430112292047e-09,2.1644237355878e-09,-0.000759937395389,0.00075992688081246,-0.00070024222912365,0.0007002513873211,-0.00070024711115162,0.00070024630063562,-0.00075993065167305,0.00075993375291348,-0.00075994555524081,0.00075991909812908,-0.00070025049485255,0.0007002434770465,-0.0007002553180339,0.00070023824971792,-0.0012265985956841,0.0012265871380363,-0.0012265961116044,0.0012265903394628,-0.0012265937886468,0.0012265923883358,-0.0012265906497159,0.001226594956127,-0.0012335136757542,0.0012335274685716,-0.0012335281972612,0.0012335124484653,-0.0012335312838386,0.0012335102132787,-0.001233515918497,0.0012335244851073,-0.000759922880919,0.00075994174629014,0.75399384173633,128566,2924,0.0050479329193799,0.0066605273078062,0.0039778534829575,37.297033943627,5.8376271549013e-05,5.8376271549013e-05,5.8376271549013e-05,3791002.6126405,0.015812375893218
37391759,0.95342759855944,0.015935707496028,0.0052642929288441,0.0062048332549427,0.0044665813122409,-0.0012181166101006,0.0012181365267446,1.7562676462687e-08,2.3320416564194e-09,3.8002695463446e-09,1.6906755179852e-08,-0.0004243533967565,0.00042437213672338,-0.0011117812820011,0.0011118199070233,-0.0011117863176383,0.0011118147901232,-0.00042435190901838,0.00042437386192132,-0.00042436679193501,0.00042435902389452,-0.0011117944379531,0.0011118073350741,-0.0011117995114356,0.0011118023246774,-0.0014607665986644,0.0014607873367335,-0.0014607716364871,0.00146078219976,-0.0014607627735871,0.0014607912115758,-0.0014607679096178,0.0014607861887662,-0.0012601069781653,0.0012601461459106,-0.0012601219029757,0.0012601311852149,-0.0012601115615591,0.0012601416502288,-0.0012601265140862,0.0012601267627638,-0.0004243385089263,0.00042438713734514,1.0539535586893e-08,-3.5749347971371e-09,7.3563159967724e-09,-6.3865763091836e-10,-0.0016111812281224,0.0016111879638186,-0.001573086751037,0.0015730905110883,-0.0016519912269886,0.0016520144955899,-0.0016520040718135,0.0016519999530664,-0.0015505169208377,0.0015505307336834,-0.0015505195238823,0.0015505280966623,-0.0015505213491741,0.0015505259788566,-0.0015505239580492,0.0015505233392969,-0.0015730832221569,0.0015730929020301,-0.0015730913493396,0.0015730853399105,-0.0016519938773912,0.0016520119166856,-0.0016520067090698,0.0016519973844658,-0.0015730786070553,0.0015730981138091,-9.456319925685e-09,5.7781573744828e-09,-0.00095925454674147,0.00095925084979307,-6.0631504858447e-09,2.1679181064172e-09,-0.0007621980952954,0.00076218745647423,-0.0007023981049041,0.00070240730299712,-0.00070240303646183,0.00070240216717245,-0.00076219120846848,0.00076219439620507,-0.00076220624760517,0.000762179625529,-0.00070240635919407,0.00070239933234398,-0.00070241123917813,0.00070239406681011,-0.0012314033490051,0.0012313918373532,-0.0012314008639113,0.0012313950549987,-0.0012313985050857,0.0012313971385848,-0.0012313953505641,0.0012313997100333,-0.0012381979041359,0.0012382118517851,-0.0012382125986257,0.0012381967414495,-0.0012382156525495,0.0012381944446623,-0.0012382002059675,0.0012382088870741,-0.00076218344477051,0.00076220245886622,0.7220946744697,128566,2924,0.0050671802150791,0.0066885059551202,0.0039915388499382,37.626970826495,6.1015766611962e-05,6.1015766611962e-05,6.1015766611962e-05,3785095.4031929,0.01587427678395
37591759,0.95671860331236,0.015986004045614,0.005281023150158,0.0062253965768857,0.0044795843185708,-0.0012224632562882,0.0012224831613502,1.7623603114434e-08,2.2599764811228e-09,3.7965427191378e-09,1.6897076286212e-08,-0.00042518323087664,0.00042520182209846,-0.0011155074023245,0.0011155460500402,-0.0011155124835656,0.0011155408899526,-0.00042518160841565,0.00042520368162647,-0.00042519662038021,0.00042518871439539,-0.0011155205492759,0.0011155334858113,-0.0011155256675644,0.0011155284318664,-0.001466240256964,0.0014662610223134,-0.0014662453398784,0.0014662558419628,-0.0014662364250516,0.0014662648997965,-0.0014662416048849,0.0014662598315713,-0.0012646858517182,0.0012647251461647,-0.0012647009050918,0.0012647100521873,-0.0012646904403199,0.0012647206442589,-0.0012647055230438,0.0012647056271479,-0.00042516821221952,0.0004252169539678,1.055917293475e-08,-3.5518844946609e-09,7.3878901864378e-09,-6.3005535065329e-10,-0.001617386218281,0.0016173929949778,-0.0015786947744994,0.0015786985452069,-0.0016584387558426,0.0016584620586102,-0.0016584515895757,0.0016584475326848,-0.001556611738659,0.0015566255972668,-0.0015566143488276,0.001556622952773,-0.0015566161629469,0.0015566208460445,-0.001556618779072,0.0015566181986345,-0.0015786912160904,0.0015787009626325,-0.0015786993680281,0.0015786933786309,-0.0016584414123045,0.001658459470713,-0.0016584542344072,0.0016584449542036,-0.0015786866055676,0.0015787061682409,-9.5204027477654e-09,5.8476841619099e-09,-0.00096240685720668,0.00096240316536131,-6.0724322692136e-09,2.1823607576756e-09,-0.00076445708011362,0.0007644463410793,-0.00070446715641136,0.0007044764260347,-0.0007044721333951,0.00070447124722009,-0.0007644500864571,0.00076445338728469,-0.00076446525683436,0.00076443848663892,-0.00070447543328453,0.00070446843167237,-0.00070448035796688,0.00070446312144266,-0.001235908239344,0.0012358966794365,-0.0012359057496097,0.0012358999095382,-0.001235903354216,0.0012359020286363,-0.001235900188634,0.0012359046060267,-0.0012424702540063,0.0012424843515232,-0.0012424851040259,0.0012424691343448,-0.0012424881441274,0.0012424667978782,-0.0012424725916387,0.0012424813948199,-0.00076444229857796,0.00076446147139272,0.69345404010339,128566,2924,0.0050852361086736,0.006714162059293,0.0040046505085242,37.957149904283,6.3657199234261e-05,6.3657199234261e-05,6.3657199234261e-05,3788408.5304985,0.015932024975318
37791759,0.9597633110029,0.016030928833666,0.0052960136334714,0.0062437426732463,0.0044911725269485,-0.0012256400339127,0.0012256601018553,1.7771047096048e-08,2.2745253582528e-09,3.4972215723404e-09,1.7369848618283e-08,-0.00042559587760326,0.00042561526054392,-0.0011180221534262,0.0011180617825423,-0.0011180272923562,0.0011180565851098,-0.00042559486165571,0.00042561647887957,-0.00042561000992749,0.00042560138155802,-0.0011180360509284,0.0011180484483864,-0.0011180412256662,0.0011180433500524,-0.0014704177932265,0.0014704384943211,-0.001470422919939,0.0014704332708852,-0.0014704136963469,0.0014704426405825,-0.0014704189177152,0.0014704375238236,-0.0012679620830906,0.0012680019354544,-0.001267977254039,0.0012679866962311,-0.0012679669372797,0.0012679971572161,-0.0012679821363443,0.0012679820048401,-0.00042558071353049,0.00042563052320793,1.0898681460468e-08,-3.9824733436436e-09,7.3435348972262e-09,-6.8596168963536e-10,-0.0016220644382715,0.0016220711304297,-0.0015827929975008,0.0015827968995031,-0.0016632685294239,0.0016632925021191,-0.0016632820974005,0.0016632772064569,-0.0015613156922318,0.0015613297362379,-0.0015613183055983,0.0015613270901717,-0.0015613203613849,0.001561324727455,-0.0015613229814232,0.0015613220764317,-0.001582789644148,0.0015827990189821,-0.0015827978534329,0.0015827914651434,-0.0016632711708969,0.0016632898983629,-0.0016632847509979,0.0016632746110157,-0.0015827847611843,0.0015828044719835,-9.5821917899767e-09,5.9187053050348e-09,-0.0009646032721641,0.00096459958523324,-6.0842203698268e-09,2.1853688403267e-09,-0.00076595820027857,0.00076594734366448,-0.00070567066188312,0.00070567996567456,-0.00070567568507377,0.00070567473818453,-0.00076595105833323,0.00076595446794827,-0.00076596637793894,0.00076593945481016,-0.00070567891188442,0.00070567191798204,-0.00070568389683181,0.00070566656919972,-0.0012392041597416,0.0012391925569135,-0.0012392016696075,0.0012391957984593,-0.0012391992364326,0.0012391979570581,-0.0012391960596757,0.0012392005345458,-0.0012454698239495,0.0012454840748082,-0.001245484816045,0.0012454687419245,-0.0012454878473208,0.0012454663790932,-0.001245472189574,0.0012454811271993,-0.00076594329843353,0.00076596261337008,0.66961884069202,128566,2924,0.0050984307443731,0.0067335050420353,0.0040137893590205,37.836184039941,6.2689472319527e-05,6.2689472319527e-05,6.2689472319527e-05,3792755.4231861,0.015974381930783
37991759,0.96256293975092,0.016073473167007,0.0053101623788455,0.0062611262322429,0.0045021845559189,-0.0012283990515258,0.001228419264573,1.7909537367912e-08,2.2801943840826e-09,3.1989001744425e-09,1.7821663364182e-08,-0.00042618133075231,0.00042620148354831,-0.0011203134578663,0.0011203540166571,-0.0011203186375497,0.0011203487785375,-0.00042618092583668,0.00042620208539631,-0.00042619620754036,0.00042618684923205,-0.0011203280839413,0.0011203399387064,-0.0011203333035353,0.00112033479289,-0.0014740278524535,0.00147404847903,-0.0014740330269182,0.0014740432131536,-0.0014740234991524,0.0014740528888344,-0.0014740287618849,0.0014740477258591,-0.0012708032380827,0.0012708436314358,-0.0012708185343644,0.0012708282613257,-0.0012708083563656,0.0012708385826421,-0.0012708236942956,0.0012708233029887,-0.00042616605058992,0.00042621686597926,1.1223443205573e-08,-4.412365592907e-09,7.2980941003525e-09,-7.3429271856737e-10,-0.0016261046429047,0.0016261112373974,-0.0015863001448522,0.001586304204523,-0.001667351983898,0.0016673765933193,-0.0016673662874276,0.0016673605487552,-0.0015654387514904,0.0015654529473264,-0.0015654413664086,0.0015654502989926,-0.0015654436622553,0.0015654476859992,-0.0015654462821494,0.0015654450346718,-0.0015862970508143,0.0015863060839823,-0.0015863052482427,0.0015862985204236,-0.0016673546318458,0.0016673739861216,-0.0016673689411095,0.0016673579561646,-0.0015862919179882,0.0015863117972063,-9.6422670948417e-09,5.9924869012195e-09,-0.00096654437595139,0.0009665407031199,-6.0730032806482e-09,2.1922597457389e-09,-0.00076751900977145,0.0007675080256281,-0.00070685886128614,0.0007068682301381,-0.00070686392858554,0.00070686295305616,-0.00076751173529051,0.00076751528912396,-0.0007675271866799,0.00076750016111345,-0.00070686711437141,0.00070686018886252,-0.00070687214295821,0.00070685480198492,-0.0012419927416941,0.001241981108867,-0.0012419902572837,0.0012419843532702,-0.001241987779479,0.0012419865572135,-0.0012419845984313,0.0012419891314815,-0.0012480842491388,0.0012480986524607,-0.0012480994036378,0.0012480832122554,-0.0012481024038764,0.0012480808132331,-0.0012480866507879,0.0012480957213509,-0.00076750397515088,0.00076752344349943,0.68978257975966,128566,2924,0.0051098859439475,0.0067502113447893,0.0040218638401121,37.594079167569,6.0752633340553e-05,6.0752633340553e-05,6.0752633340553e-05,3799840.7560761,0.016011207720859
38191759,0.96513848408822,0.016112956524405,0.0053232727163451,0.0062772674829002,0.0045124163251593,-0.0012308855685955,0.0012309058852704,1.8027227442811e-08,2.2643778565902e-09,3.0331789033489e-09,1.8096873925041e-08,-0.00042639700851079,0.00042641757181682,-0.00112237630252,0.0011224174438214,-0.0011223815211696,0.0011224121572871,-0.00042639692202744,0.00042641787514973,-0.00042641232751972,0.00042640251401893,-0.0011223913639823,0.0011224029312075,-0.0011223966174981,0.001122397742062,-0.0014773316862885,0.001477352298675,-0.0014773369087616,0.0014773469924877,-0.0014773271788233,0.0014773568712079,-0.0014773324853733,0.0014773516618334,-0.0012734200612903,0.0012734608527102,-0.0012734354932356,0.0012734453530513,-0.0012734253431056,0.0012734556390597,-0.0012734408225533,0.0012734402380613,-0.00042638159857557,0.00042643308967988,1.1411354858883e-08,-4.6682350200951e-09,7.2647204673058e-09,-7.5470992560042e-10,-0.0016298714903397,0.0016298780200544,-0.0015896035434304,0.0015896077238271,-0.0016712107754279,0.0016712357444207,-0.0016712255119823,0.0016712192686623,-0.0015692079704528,0.0015692222345792,-0.00156921058039,0.0015692195894562,-0.0015692130213211,0.0015692168248876,-0.0015692156368176,0.0015692141766202,-0.0015896006354772,0.0015896094690217,-0.0015896087929142,0.0015896018909528,-0.0016712134305046,0.0016712331476937,-0.0016712281599729,0.0016712166814782,-0.0015895953647475,0.0015896153382147,-9.7088974643504e-09,6.0592925171038e-09,-0.00096823246608428,0.00096822879642285,-6.0608944725484e-09,2.1926062720792e-09,-0.00076875363027193,0.00076874252039431,-0.00070782601703266,0.00070783543687763,-0.00070783112218987,0.00070783011741061,-0.00076874624435743,0.00076874995494471,-0.00076876182290463,0.00076873468829332,-0.0007078342793948,0.00070782743158947,-0.00070783934536081,0.0007078219970319,-0.001244534403406,0.001244522729227,-0.00124453192634,0.0012445259757728,-0.0012445294010473,0.0012445282269416,-0.0012445262198552,0.0012445307947743,-0.0012504833884508,0.0012504979204005,-0.0012504986960099,0.0012504823719629,-0.001250501669559,0.0012504799406668,-0.0012504858128384,0.0012504950094343,-0.00076873847926172,0.0007687580674398,0.69607506663767,128566,2924,0.0051202141307854,0.0067657858855939,0.0040288885521618,37.348632856444,5.8789062851553e-05,5.8789062851553e-05,5.8789062851553e-05,3800122.7524351,0.016044674621076
38391759,0.96752132730106,0.016151207960855,0.0053359150400568,0.0062929277488948,0.0045223651719038,-0.0012334070733312,0.0012334274067077,1.810200912015e-08,2.2059500455639e-09,3.0460540139643e-09,1.8100122488859e-08,-0.00042670842990453,0.00042672887350118,-0.0011246421682151,0.0011246833521821,-0.0011246474240565,0.0011246780187658,-0.0004267082219244,0.00042672932105531,-0.00042672374980988,0.00042671383415696,-0.0011246572251807,0.0011246688576354,-0.001124662510016,0.0011246636247024,-0.0014805913278289,0.0014806119888985,-0.0014805965987406,0.0014806066422817,-0.0014805868106306,0.0014806165733293,-0.0014805921609646,0.0014806113180755,-0.0012761319955097,0.001276172956887,-0.0012761475614581,0.0012761573277508,-0.0012761372958064,0.0012761677210148,-0.0012761529204393,0.0012761522009199,-0.00042669289645508,0.00042674452208135,1.1413850802752e-08,-4.6580796143946e-09,7.2679999968832e-09,-7.3432556921086e-10,-0.0016336493606633,0.0016336559010953,-0.0015929620747522,0.0015929663063006,-0.001675067372743,0.001675092334843,-0.0016750821043057,0.0016750758812863,-0.0015729511540913,0.0015729654108974,-0.0015729537578165,0.0015729627690853,-0.0015729562029416,0.0015729600026974,-0.0015729588125989,0.0015729573586033,-0.0015929592097589,0.0015929680690471,-0.0015929673190144,0.0015929604790966,-0.001675070038796,0.0016750897499964,-0.001675084745366,0.0016750733031652,-0.0015929539535037,0.0015929739452967,-9.7795810939689e-09,6.122538229123e-09,-0.00096998130706136,0.00096997763359341,-6.0485526108834e-09,2.1866326820527e-09,-0.000770143158716,0.00077013190312193,-0.00070899315858815,0.00070900261877993,-0.00070899830264395,0.00070899725602154,-0.00077013564931596,0.00077013951569699,-0.00077015135879253,0.00077012411352274,-0.00070900142704553,0.00070899465782839,-0.00070900653102525,0.00070898917824498,-0.0012470849968825,0.0012470732765348,-0.0012470825287828,0.0012470765218171,-0.0012470799532022,0.0012470788221501,-0.0012470767746548,0.0012470813820619,-0.0012529897413644,0.0012530043974205,-0.0012530052189052,0.0012529887545329,-0.0012530081538796,0.0012529862776637,-0.0012529922047732,0.0012530015179128,-0.00077012788251494,0.00077014757997874,0.72889799731011,128566,2924,0.0051306881163798,0.006781405320438,0.0040361650814056,37.197817893094,5.7582543144751e-05,5.7582543144751e-05,5.7582543144751e-05,3798611.5319404,0.016078591640806
38591759,0.9697437407721,0.016187475880905,0.0053478801349093,0.0063077887875103,0.0045318069584851,-0.0012360021311345,0.0012360224045412,1.8138699844641e-08,2.1092395487973e-09,3.2093001406719e-09,1.787185315683e-08,-0.00042671649709212,0.00042673635920167,-0.0011269999455822,0.0011270407207965,-0.0011270052454562,0.0011270353423626,-0.00042671577521125,0.00042673732475475,-0.00042673143148213,0.00042672170966178,-0.0011270146156498,0.0011270266180512,-0.0011270199410677,0.0011270213401859,-0.0014839354849287,0.0014839562624065,-0.0014839408010166,0.0014839508724778,-0.0014839310997246,0.0014839607217851,-0.0014839364940485,0.001483955420849,-0.0012789952700583,0.0012790361917375,-0.0012790109657411,0.0012790204282565,-0.0012790004563394,0.0012790310679999,-0.0012790162164854,0.0012790154231498,-0.00042670083034858,0.00042675213958542,1.1249069031722e-08,-4.4325092962365e-09,7.2913575937952e-09,-6.9754963863148e-10,-0.0016376129938996,0.0016376195921417,-0.0015965661278237,0.0015965703069891,-0.0016791944831642,0.0016792191070211,-0.0016792088282003,0.0016792030522594,-0.0015767618917785,0.00157677607267,-0.0015767644904665,0.0015767734352104,-0.0015767668178067,0.0015767707950015,-0.0015767694227907,0.001576768154921,-0.0015965631509339,0.001596572192936,-0.0015965712415595,0.0015965646102868,-0.001679197147701,0.0016792165278785,-0.0016792114662307,0.0016792004775605,-0.0015965580277507,0.0015965779392279,-9.8515292993203e-09,6.183856893674e-09,-0.0009717442546556,0.00097174057148886,-6.046208811983e-09,2.1759479186634e-09,-0.00077134640521784,0.00077133499947503,-0.00071013354462226,0.00071014302904283,-0.00071013873018557,0.00071013762240197,-0.00077133875863491,0.00077134276150295,-0.0007713545986738,0.00077132722617121,-0.0007101418042637,0.00071013508679289,-0.00071014695059929,0.00071012956136249,-0.0012497664368864,0.0012497546647754,-0.001249763977187,0.0012497579123632,-0.0012497613535326,0.001249760259813,-0.0012497581742121,0.0012497628124095,-0.0012556403936465,0.0012556551712051,-0.0012556560301336,0.0012556394259971,-0.0012556589362746,0.0012556369152325,-0.0012556428856956,0.0012556523153381,-0.0007713310042402,0.00077135080535265,0.74096371132127,128566,2924,0.0051414734955858,0.0067977905053141,0.004043502935031,37.193782876129,5.755026300903e-05,5.755026300903e-05,5.755026300903e-05,3790043.8352662,0.016113670197883
38791759,0.97181659378781,0.016221402256167,0.0053590711061181,0.0063216911718883,0.0045406399781605,-0.0012384210103972,0.0012384412194425,1.8173238173034e-08,2.0108845358725e-09,3.3749385468264e-09,1.7637822268549e-08,-0.00042654564222198,0.00042656491381415,-0.001129181262642,0.0011292216199299,-0.0011291866136553,0.0011292162018946,-0.00042654438522518,0.00042656639549292,-0.00042656017835066,0.00042655064722547,-0.0011291955308879,0.0011292079157768,-0.0011292009086758,0.0011292025916423,-0.0014870699587392,0.0014870908419001,-0.0014870753195977,0.0014870854085762,-0.001487065697453,0.0014870951757428,-0.0014870711337139,0.00148708982769,-0.0012816828415482,0.0012817237149622,-0.001281698657126,0.0012817078104898,-0.0012816879094373,0.0012817187022994,-0.0012817037954171,0.0012817029269032,-0.00042652983974252,0.00042658082259061,1.1078403442968e-08,-4.2044398213083e-09,7.3117266915333e-09,-6.7121669390839e-10,-0.001641377182507,0.0016413838358287,-0.0016000063708637,0.0016000104632745,-0.0016831454182628,0.0016831696908576,-0.0016831593552071,0.0016831540402588,-0.0015803458804427,0.0015803599901257,-0.0015803484773479,0.0015803573555243,-0.0015803506795917,0.0015803548471076,-0.0015803532824775,0.0015803522093512,-0.0016000032489911,0.0016000124492963,-0.0016000113570843,0.0016000048948875,-0.0016831480703857,0.001683167105545,-0.0016831619946496,0.0016831514613456,-0.0015999982454091,0.0016000180582277,-9.9220021814998e-09,6.2464783914538e-09,-0.00097333975803648,0.00097333606461425,-6.05395577235e-09,2.165480025148e-09,-0.00077231928695194,0.00077230773054057,-0.00071109959840547,0.00071110909937086,-0.00071110483024981,0.00071110364516396,-0.00077231148810841,0.00077231560390319,-0.00077232746128598,0.00077229994657975,-0.00071110783453629,0.00071110113840993,-0.00071111303296077,0.00071109557245829,-0.0012522909784191,0.0012522791531034,-0.0012522885245925,0.0012522824066228,-0.0012522858563405,0.0012522847977142,-0.0012522826713786,0.0012522873459833,-0.0012581255559402,0.001258140466006,-0.0012581413504006,0.0012581246165556,-0.0012581442324538,0.0012581220735524,-0.0012581280821649,0.0012581376295699,-0.00077230375381045,0.00077232367025521,0.74287813690185,128566,2924,0.0051515293136354,0.0068133495964532,0.0040501462428097,37.193616113719,5.7548928909751e-05,5.7548928909751e-05,5.7548928909751e-05,3778969.1474125,0.016146464045263
38880000,0.97270288302781,0.016235930711301,0.0053638641116634,0.0063276426439968,0.0045444239556404,-0.0012394440787062,0.0012394642689303,1.8193238244722e-08,1.9721934240505e-09,3.437962449813e-09,1.755426892734e-08,-0.00042642168586558,0.00042644073616497,-0.0011301040663208,0.0011301442782596,-0.0011301094379995,0.0011301388416948,-0.00042642022602722,0.00042644241800921,-0.00042643607708264,0.0004264266118461,-0.0011301181885501,0.0011301307198947,-0.0011301235866166,0.0011301253754743,-0.0014884104334288,0.0014884313628285,-0.0014884158142746,0.0014884259104296,-0.0014884062171894,0.0014884356510456,-0.0014884116723167,0.0014884302825542,-0.0012828269525542,0.0012828677929218,-0.0012828428297265,0.0012828518362963,-0.0012828319513613,0.0012828628564231,-0.0012828478888865,0.0012828470163192,-0.00042640582523358,0.00042645670155686,1.1018464882579e-08,-4.1217075454873e-09,7.3263197667836e-09,-6.6573564846821e-10,-0.001643009227117,0.0016430159020001,-0.0016014720980926,0.0016014761459446,-0.0016848620494928,0.0016848862008221,-0.0016848758400166,0.0016848706981866,-0.0015819064886032,0.0015819205771502,-0.0015819090889608,0.0015819179391035,-0.0015819112413299,0.001581915483655,-0.0015819138475208,0.0015819128423358,-0.001601468911402,0.0016014781897277,-0.0016014770352154,0.001601470628046,-0.0016848647041855,0.0016848836104178,-0.0016848784840114,0.0016848681145153,-0.0016014639554842,0.0016014837465379,-9.9526459432243e-09,6.2746185674488e-09,-0.00097398454683076,0.00097398085046566,-6.0618217288225e-09,2.1689269531187e-09,-0.00077267276555825,0.00077266115829711,-0.00071146735256646,0.00071147687882238,-0.00071147260514518,0.0007114714053777,-0.00077266491623691,0.00077266907406357,-0.00077268094837118,0.00077265336198479,-0.00071147559635356,0.00071146890281338,-0.00071148081539635,0.00071146331786141,-0.0012533734300714,0.0012533615784813,-0.0012533709749959,0.0012533648389966,-0.0012533682909861,0.0012533672451125,-0.0012533650994866,0.0012533697954996,-0.0012591765903361,0.0012591915592506,-0.0012591924415384,0.0012591756513874,-0.0012591953279483,0.001259173106019,-0.0012591791199911,0.001259188718886,-0.00077265717450597,0.00077267715586747,0.74369371292587,128566,2924,0.005155783279586,0.0068200942896765,0.0040528328335731,37.193609165033,5.7548873320264e-05,5.7548873320264e-05,5.7548873320264e-05,3772787.6243847,0.016160377326142
