time,ASR_ext,ASR_strain,ASR_strain_xx,ASR_strain_yy,ASR_strain_zz,disp_x_101,disp_x_102,disp_x_103,disp_x_104,disp_x_105,disp_x_106,disp_x_p10_neg,disp_x_p10_pos,disp_x_p11_neg,disp_x_p11_pos,disp_x_p12_neg,disp_x_p12_pos,disp_x_p13_neg,disp_x_p13_pos,disp_x_p14_neg,disp_x_p14_pos,disp_x_p15_neg,disp_x_p15_pos,disp_x_p16_neg,disp_x_p16_pos,disp_x_p1_neg,disp_x_p1_pos,disp_x_p2_neg,disp_x_p2_pos,disp_x_p3_neg,disp_x_p3_pos,disp_x_p4_neg,disp_x_p4_pos,disp_x_p5_neg,disp_x_p5_pos,disp_x_p6_neg,disp_x_p6_pos,disp_x_p7_neg,disp_x_p7_pos,disp_x_p8_neg,disp_x_p8_pos,disp_x_p9_neg,disp_x_p9_pos,disp_y_101,disp_y_102,disp_y_103,disp_y_104,disp_y_105,disp_y_106,disp_y_p10_neg,disp_y_p10_pos,disp_y_p11_neg,disp_y_p11_pos,disp_y_p12_neg,disp_y_p12_pos,disp_y_p1_neg,disp_y_p1_pos,disp_y_p2_neg,disp_y_p2_pos,disp_y_p3_neg,disp_y_p3_pos,disp_y_p4_neg,disp_y_p4_pos,disp_y_p5_neg,disp_y_p5_pos,disp_y_p6_neg,disp_y_p6_pos,disp_y_p7_neg,disp_y_p7_pos,disp_y_p8_neg,disp_y_p8_pos,disp_y_p9_neg,disp_y_p9_pos,disp_z_101,disp_z_102,disp_z_103,disp_z_104,disp_z_105,disp_z_106,disp_z_p10_neg,disp_z_p10_pos,disp_z_p11_neg,disp_z_p11_pos,disp_z_p12_neg,disp_z_p12_pos,disp_z_p13_neg,disp_z_p13_pos,disp_z_p14_neg,disp_z_p14_pos,disp_z_p15_neg,disp_z_p15_pos,disp_z_p16_neg,disp_z_p16_pos,disp_z_p1_neg,disp_z_p1_pos,disp_z_p2_neg,disp_z_p2_pos,disp_z_p3_neg,disp_z_p3_pos,disp_z_p4_neg,disp_z_p4_pos,disp_z_p5_neg,disp_z_p5_pos,disp_z_p6_neg,disp_z_p6_pos,disp_z_p7_neg,disp_z_p7_pos,disp_z_p8_neg,disp_z_p8_pos,disp_z_p9_neg,disp_z_p9_pos,humidity,ndof,nelem,strain_xx,strain_yy,strain_zz,temp,thermal_strain_xx,thermal_strain_yy,thermal_strain_zz,vonmises,vstrain
14391759,0,0,0,0,0,0,0,0,0,0,0,0,0,0,0,0,0,0,0,0,0,0,0,0,0,0,0,0,0,0,0,0,0,0,0,0,0,0,0,0,0,0,0,0,0,0,0,0,0,0,0,0,0,0,0,0,0,0,0,0,0,0,0,0,0,0,0,0,0,0,0,0,0,0,0,0,0,0,0,0,0,0,0,0,0,0,0,0,0,0,0,0,0,0,0,0,0,0,0,0,0,0,0,0,0,0,0,0,0,0,0,0,0,0,0,0,0,0,0,0,0,0,0
14591759,0.019278780930466,0.00033892139184257,0.00011297379728086,0.00011297379728086,0.00011297379728086,-2.9150806625038e-05,2.9150127670702e-05,-3.3252479186057e-10,-3.4081743161159e-10,6.6001739496116e-10,-1.3686906765303e-09,-2.5487452367146e-05,2.5484734070547e-05,-2.8088528671257e-05,2.8085825715316e-05,-2.8088550822795e-05,2.808584233364e-05,-2.5485461842384e-05,2.548680396007e-05,-2.5485396627971e-05,2.5486722134125e-05,-2.8086572614158e-05,2.8087873060748e-05,-2.8086546384549e-05,2.8087841185943e-05,-3.0292627506226e-05,3.029262169594e-05,-3.0292611723224e-05,3.0292600402711e-05,-3.0293264835349e-05,3.0291933835724e-05,-3.0293270527451e-05,3.0291934017116e-05,-2.8401540245739e-05,2.8400205282655e-05,-2.8401531738116e-05,2.8400180586024e-05,-2.8400893617605e-05,2.8400909412928e-05,-2.8400839972235e-05,2.8400839491323e-05,-2.5487421834542e-05,2.5484719408271e-05,-6.6655579298138e-10,1.3695759594148e-09,-5.2714093341074e-09,5.9443756160708e-09,-3.012889067905e-05,3.0129567226084e-05,-2.9172527182015e-05,2.9183522263257e-05,-2.9312202099846e-05,2.9307167309977e-05,-2.9310222944209e-05,2.9309207054789e-05,-3.0459351414688e-05,3.0455674293681e-05,-3.0455750504583e-05,3.045943689204e-05,-3.0458701534267e-05,3.0456354587218e-05,-3.0455100710687e-05,3.0460117245097e-05,-2.9182707001362e-05,2.9173051825584e-05,-2.9171852526094e-05,2.9184203509793e-05,-2.9308506104993e-05,2.931091010345e-05,-2.9306526923286e-05,2.9312949985253e-05,-2.91833815207e-05,2.917237066111e-05,-1.8458048851941e-09,-1.8376396938742e-09,-2.8758554371891e-05,2.8754845305069e-05,3.6227202746133e-09,-7.4880453380213e-09,-2.6920546340021e-05,2.6905754686284e-05,-2.7328669235533e-05,2.7313898935202e-05,-2.7328671166211e-05,2.7313895351914e-05,-2.6909502009098e-05,2.6916777850612e-05,-2.6909514777906e-05,2.691677496986e-05,-2.7317723033641e-05,2.732483505163e-05,-2.7317726019925e-05,2.7324832536954e-05,-2.9854888351573e-05,2.9854904527419e-05,-2.9858575831428e-05,2.9851219216703e-05,-2.985488413722e-05,2.9854905776058e-05,-2.9858571518709e-05,2.9851220394265e-05,-2.8446090681434e-05,2.8438720709533e-05,-2.8446108403198e-05,2.8438722409846e-05,-2.8442385762921e-05,2.8442438391473e-05,-2.8442369040836e-05,2.8442437504741e-05,-2.6920533779211e-05,2.6905758606198e-05,0.7064200497207,128566,2924,0.00012145283414316,0.00012553047430398,0.00011981231939201,31.34875850812,1.0790068064957e-05,1.0790068064957e-05,1.0790068064957e-05,592615.17927599,0.00036686328703917
14791759,0.03836079174973,0.0006714651192442,0.00022354689310385,0.00022537516506852,0.00022254306107184,-5.4613361758885e-05,5.4613308140825e-05,-1.7496451056092e-11,-3.3854431531385e-11,1.0135737663848e-10,-1.6943287400083e-10,-4.6023489576554e-05,4.6023136586414e-05,-5.1983782578338e-05,5.1983455693209e-05,-5.1983764370285e-05,5.1983425143807e-05,-4.6023181299385e-05,4.6023412680065e-05,-4.6023255270015e-05,4.6023458430464e-05,-5.1983501517409e-05,5.1983705598504e-05,-5.1983522982552e-05,5.1983717610488e-05,-5.7955074938815e-05,5.7955118631168e-05,-5.7955099290458e-05,5.7955132732775e-05,-5.7955165565012e-05,5.795503617543e-05,-5.7955169594928e-05,5.7955028617838e-05,-5.2626558390053e-05,5.2626433168625e-05,-5.2626594086705e-05,5.2626435978763e-05,-5.2626446584712e-05,5.2626503596574e-05,-5.2626526585792e-05,5.2626552588092e-05,-4.6023498590683e-05,4.6023181045574e-05,-7.3867405432719e-11,1.9562855225003e-10,7.3567338705231e-09,-7.2504110714554e-09,-5.6892214658158e-05,5.6892326370616e-05,-5.441956043138e-05,5.4405238798948e-05,-5.4763187304796e-05,5.476788641582e-05,-5.4762932896525e-05,5.4768165100321e-05,-5.847350608056e-05,5.8478330570209e-05,-5.8478216685202e-05,5.8473441022945e-05,-5.8473424559598e-05,5.8478422548424e-05,-5.8478135943887e-05,5.8473532088959e-05,-5.440529461721e-05,5.4419819878177e-05,-5.4419472707215e-05,5.4405331686328e-05,-5.4768012977576e-05,5.4763021041108e-05,-5.4767761846624e-05,5.4763296436174e-05,-5.4405383741273e-05,5.441972593927e-05,2.5246153230913e-09,2.5420879457977e-09,-5.3598564776827e-05,5.3603655546933e-05,-4.6369322458964e-09,9.8803908850495e-09,-4.8899954951268e-05,4.8919455683996e-05,-5.0128768414255e-05,5.0148270425796e-05,-5.0128773551146e-05,5.0148268352085e-05,-4.8914297228254e-05,4.8905083098663e-05,-4.8914325438963e-05,4.8905063284067e-05,-5.01430497719e-05,5.0133965882141e-05,-5.0143060350701e-05,5.0133960801135e-05,-5.6841949730909e-05,5.6842178901931e-05,-5.6837129004717e-05,5.6846998993659e-05,-5.68419421337e-05,5.684218404027e-05,-5.6837122534903e-05,5.6847003012306e-05,-5.2701583454758e-05,5.2711489373191e-05,-5.2701601890592e-05,5.2711477583645e-05,-5.2706454823035e-05,5.2706622182955e-05,-5.2706433034611e-05,5.2706639133765e-05,-4.8899941678032e-05,4.8919462814142e-05,0.70581020537712,128566,2924,0.00022752926384497,0.00023702241611335,0.00022331254565452,31.086531071575,8.6922485726036e-06,8.6922485726036e-06,8.6922485726036e-06,1215036.6712637,0.00068810326584415
14991759,0.056226405522002,0.0009788723466416,0.00032570065465003,0.00033031566046524,0.00032285603152633,-7.7216151966102e-05,7.7216047485967e-05,-3.9671741186053e-11,-6.3519710446595e-11,1.7451786983784e-10,-2.9647858144829e-10,-6.2623809710681e-05,6.2623197248118e-05,-7.206962465893e-05,7.2069048102723e-05,-7.2069628841933e-05,7.2069034325702e-05,-6.2623313451545e-05,6.2623694603278e-05,-6.2623352606002e-05,6.2623693044706e-05,-7.2069167771552e-05,7.2069519758015e-05,-7.2069169364304e-05,7.2069507561588e-05,-8.3201050777379e-05,8.3201111846518e-05,-8.3201066971956e-05,8.3201112945142e-05,-8.3201199377908e-05,8.3200958731809e-05,-8.3201203918729e-05,8.320094653713e-05,-7.451387684539e-05,7.4513642153396e-05,-7.4513880739674e-05,7.451359791349e-05,-7.4513706933021e-05,7.4513786919382e-05,-7.4513740148293e-05,7.4513775062472e-05,-6.2623794680016e-05,6.2623234378893e-05,-1.5372270458278e-10,3.1913320045714e-10,4.4975947917355e-09,-4.3478389363947e-09,-8.1547709567354e-05,8.1547862537888e-05,-7.8238933309537e-05,7.8230237571794e-05,-7.9195934479046e-05,7.9198572519641e-05,-7.9195481004373e-05,7.9199057581991e-05,-8.3680922663157e-05,8.3683814791835e-05,-8.3683744869004e-05,8.3680850885841e-05,-8.3680778406556e-05,8.3683974371049e-05,-8.3683601536661e-05,8.3681009513393e-05,-7.8230188317913e-05,7.8239177740257e-05,-7.8238778716759e-05,7.8230398065412e-05,-7.9198862722787e-05,7.9195611467842e-05,-7.9198412451771e-05,7.9196093523649e-05,-7.823034492819e-05,7.8239015494565e-05,1.7786891614357e-09,1.8063999998181e-09,-7.5407631708707e-05,7.541121941226e-05,-2.5644164854519e-09,6.2392469222261e-09,-6.7508975304689e-05,6.7521266618086e-05,-6.8882316009665e-05,6.8894634362713e-05,-6.888232444658e-05,6.8894627804461e-05,-6.7517617701992e-05,6.7512605490273e-05,-6.7517653682349e-05,6.7512576829327e-05,-6.8890965210476e-05,6.8885972614035e-05,-6.8890977741202e-05,6.8885963288737e-05,-8.1209556779345e-05,8.1210190743166e-05,-8.12066387432e-05,8.1213107015784e-05,-8.1209546383394e-05,8.1210199771582e-05,-8.1206629194111e-05,8.1213114957903e-05,-7.4724858400664e-05,7.4731390655625e-05,-7.4724885466616e-05,7.473136678647e-05,-7.4727826493971e-05,7.4728424819794e-05,-7.472779610425e-05,7.4728452360387e-05,-6.7508950579377e-05,6.752128612731e-05,0.70496390457444,128566,2924,0.00032168135102657,0.00033972331252001,0.00031415575381138,30.085696612312,6.8557289849932e-07,6.8557289849932e-07,6.8557289849932e-07,1335304.2136626,0.00097604212288638
15191759,0.072469095458604,0.0012397635783321,0.00041215723769149,0.00042059078615276,0.00040701555448789,-9.6142383743206e-05,9.6142151464062e-05,-9.066731038914e-11,-1.4007282652939e-10,4.0556782839815e-10,-6.6100838357776e-10,-7.3390488899188e-05,7.3389095851814e-05,-8.7566710994196e-05,8.7565434320656e-05,-8.7566747300585e-05,8.7565413593473e-05,-7.3389395252858e-05,7.3390226338115e-05,-7.3389407421546e-05,7.3390216768578e-05,-8.756569758171e-05,8.7566503933777e-05,-8.7565694852897e-05,8.756649258108e-05,-0.00010515461004515,0.00010515474504843,-0.00010515462632359,0.00010515473615206,-0.00010515494597957,0.00010515439597055,-0.00010515496301977,0.00010515437262098,-9.2651931998139e-05,9.2651408397961e-05,-9.2651953834974e-05,9.2651311541159e-05,-9.2651579119891e-05,9.26517437257e-05,-9.2651601826543e-05,9.2651694576735e-05,-7.3390405080025e-05,7.3389189762786e-05,-3.9688716582172e-10,6.7220515727401e-10,2.6854948787874e-09,-2.4279782107779e-09,-0.00010315180927439,0.00010315206377151,-9.8976505863899e-05,9.8971398128717e-05,-0.00010080478888795,0.00010080570288851,-0.00010080374190927,0.00010080678991577,-0.00010551922672919,0.00010552079307849,-0.0001055208535459,0.00010551908422302,-0.00010551888812347,0.00010552115428268,-0.00010552052226119,0.00010551943749956,-9.8971175427001e-05,9.897682546204e-05,-9.8976165947956e-05,9.8971747236569e-05,-0.00010080647342052,0.00010080399023946,-0.00010080544860094,0.00010080505697142,-9.8971539505617e-05,9.8976451910512e-05,1.3139525566191e-09,1.334058012815e-09,-9.3467419601458e-05,9.3470061265037e-05,-1.202360703724e-09,3.8829825188877e-09,-8.1422866518834e-05,8.1430553260336e-05,-8.2838084830433e-05,8.2845743539671e-05,-8.2838084377578e-05,8.2845749199846e-05,-8.1427851982158e-05,8.1425583065394e-05,-8.1427907562979e-05,8.1425535342087e-05,-8.2843076448868e-05,8.2840771164274e-05,-8.2843096535854e-05,8.2840757246552e-05,-0.00010220165782658,0.00010220259111739,-0.0001021999732499,0.00010220427737572,-0.00010220164630754,0.00010220260039202,-0.00010219996912843,0.00010220427938975,-9.3178411412081e-05,9.3182757298307e-05,-9.3178422880734e-05,9.3182748863668e-05,-9.3180128033268e-05,9.3181040698602e-05,-9.3180096603339e-05,9.3181070717445e-05,-8.142287720721e-05,8.1430533351113e-05,0.66036288246452,128566,2924,0.00040051183802461,0.00042970486371685,0.00038937609199231,28.683892527791,-1.0528859777671e-05,-1.0528859777671e-05,-1.0528859777671e-05,1370150.8254921,0.0012203482701576
15391759,0.087199511322776,0.0015036298322949,0.00049951233668781,0.0005123146679592,0.00049180282764785,-0.00011477566722233,0.00011477538381304,-1.1524069886546e-10,-1.6608995045205e-10,5.6228393264124e-10,-8.7074204464515e-10,-8.5637784612776e-05,8.5635998675712e-05,-0.00010489068479013,0.00010488899009388,-0.00010489071380771,0.00010488897329765,-8.563632581172e-05,8.5637487221131e-05,-8.5636353702426e-05,8.5637452153515e-05,-0.00010488930398894,0.0001048904235741,-0.00010488930515731,0.00010489040306011,-0.00012574546684438,0.00012574567522738,-0.0001257454846846,0.00012574566259239,-0.00012574592302895,0.00012574520028743,-0.00012574594127396,0.00012574517930016,-0.00011130588720136,0.0001113051861024,-0.00011130591933478,0.00011130510854287,-0.00011130540877142,0.0001113056540199,-0.00011130544740639,0.0001113056034099,-8.5637719957107e-05,8.5636069703356e-05,-5.5582314544768e-10,8.7966730814257e-10,1.2223552632681e-09,-9.1975205079443e-10,-0.00012442725821533,0.00012442756078018,-0.00011980344027115,0.00011980116472015,-0.00012212982771727,0.00012212944535208,-0.0001221284284366,0.00012213088829048,-0.00012656133513149,0.00012656185658116,-0.00012656200330173,0.00012656113736879,-0.0001265608787209,0.00012656233761944,-0.00012656155050617,0.0001265616150506,-0.0001198008917408,0.00011980378127042,-0.00011980297104586,0.00011980164268586,-0.00012213053449963,0.00012212872394761,-0.00012212914543106,0.00012213015635843,-0.00011980137099444,0.00011980329203373,1.1024652121999e-09,1.1391367593433e-09,-0.00011111722403902,0.0001111194619532,6.249209903542e-11,2.1946447012568e-09,-9.7390767843804e-05,9.7395096934728e-05,-9.8129602593712e-05,9.8133954213844e-05,-9.812961248202e-05,9.813394879695e-05,-9.7392816614629e-05,9.7393042371727e-05,-9.7392873519766e-05,9.7392993858061e-05,-9.8131688390696e-05,9.8131874463853e-05,-9.8131708283547e-05,9.8131858984487e-05,-0.00012176109661711,0.00012176260938039,-0.00012176039366829,0.00012176331360314,-0.00012176108166332,0.0001217626222371,-0.00012176038302046,0.00012176332207821,-0.00011205730698656,0.00011206028201521,-0.00011205733928058,0.00011206025386923,-0.00011205805465513,0.00011205953634705,-0.00011205801075608,0.00011205957601342,-9.7390742806878e-05,9.7395112262696e-05,0.73442856776342,128566,2924,0.00047811699870056,0.0005183102215573,0.00046288508517923,27.2711077134,-2.1831138292799e-05,-2.1831138292799e-05,-2.1831138292799e-05,1131354.3308841,0.0014603921650659
15591759,0.10072074860422,0.0017507618230386,0.00058141541322906,0.00059845628778813,0.00057089012202137,-0.00013159515071158,0.00013159484001514,-1.2153726145281e-10,-1.8701117837253e-10,5.5574264349887e-10,-8.9201714300329e-10,-9.7015943888118e-05,9.7014093282177e-05,-0.00012054812859171,0.00012054639899759,-0.00012054816501552,0.00012054637552036,-9.7014455971068e-05,9.7015611061287e-05,-9.7014480996171e-05,9.7015559761111e-05,-0.00012054673679955,0.00012054784506767,-0.00012054673500808,0.00012054781673409,-0.0001443763340156,0.00014437652428602,-0.00014437635324408,0.00014437650504293,-0.00014437679189063,0.00014437604293479,-0.00014437681702518,0.00014437601719859,-0.00012818450910931,0.00012818379269387,-0.00012818456450519,0.00012818370384567,-0.00012818403289737,0.00012818426804273,-0.00012818408008068,0.00012818420253342,-9.7015854025068e-05,9.7014184232717e-05,-5.5534671563463e-10,8.9719441398828e-10,-1.144322114392e-10,4.3365440129542e-10,-0.00014362855753253,0.00014362887872818,-0.00013881052608622,0.00013881090145447,-0.00014153958865435,0.00014153831065901,-0.00014153817051934,0.0001415397730051,-0.00014551146763768,0.00014551111687679,-0.00014551126117671,0.00014551129746171,-0.00014551100549902,0.00014551160425762,-0.00014551080439929,0.00014551178010318,-0.00013881059346612,0.00013881086567708,-0.00013881005293145,0.0001388113827257,-0.00014153940349102,0.0001415384919287,-0.00014153800168629,0.00014153993723874,-0.00013881108087907,0.00013881036918645,8.3447992403211e-10,8.7455327938941e-10,-0.00012691779507541,0.00012691949886094,1.1228342189112e-09,5.768344186819e-10,-0.000111815165924,0.00011181631516916,-0.0001118043565247,0.00011180552264209,-0.00011180436388173,0.00011180551932782,-0.00011181455765616,0.00011181690209144,-0.00011181462857502,0.00011181684000949,-0.00011180380015287,0.00011180607613766,-0.00011180382452879,0.0001118060561172,-0.00013934393463602,0.00013934580700245,-0.00013934411952708,0.00013934562239629,-0.00013934391760406,0.00013934582210075,-0.00013934410894534,0.00013934563091816,-0.00012908464577214,0.00012908619598056,-0.00012908467881049,0.00012908616785212,-0.00012908450285382,0.00012908634243962,-0.00012908445221229,0.00012908638783451,-0.00011181515015589,0.00011181632287126,0.745897622368,128566,2924,0.00054816302671514,0.00059827051396995,0.00052868748514686,26.025933806755,-3.1792529545958e-05,-3.1792529545958e-05,-3.1792529545958e-05,1154915.9194358,0.0016765422915644
15791759,0.11391787740486,0.0020048195998076,0.00066562173208782,0.00068723341207893,0.00065196445564084,-0.00015010564194739,0.00015010544148597,-7.2078404488043e-11,-1.2713046852903e-10,2.3316066300621e-10,-4.5324743224913e-10,-0.00011113066522466,0.00011112972062626,-0.00013863513087164,0.00013863425157891,-0.00013863515574983,0.00013863424405758,-0.00011112994169928,0.00011113047467347,-0.00011112997074594,0.00011113038871494,-0.00013863448022081,0.00013863495919011,-0.00013863447575589,0.00013863491463427,-0.00016444441066276,0.00016444445892303,-0.00016444442602664,0.00016444443545233,-0.00016444462030954,0.00016444422477073,-0.00016444464029361,0.00016444420694064,-0.0001470365858188,0.00014703621120217,-0.00014703662180847,0.00014703614343981,-0.00014703635602674,0.0001470364469199,-0.0001470363946567,0.0001470363731001,-0.00011113061105961,0.00011112976644179,-2.1523794298153e-10,4.6661210696013e-10,-2.0996427537154e-09,2.3323867485756e-09,-0.00016455621982305,0.00016455645567227,-0.00015979321930187,0.00015979756158764,-0.00016262081087741,0.00016261892529289,-0.00016262015702639,0.00016261961246794,-0.00016608158265882,0.00016608012482977,-0.00016608011647169,0.00016608160079389,-0.00016608137432216,0.00016608035152688,-0.00016607990625806,0.00016608182940287,-0.00015979732373256,0.00015979343163872,-0.00015979298991656,0.00015979779717111,-0.00016261935408586,0.00016262039316177,-0.00016261869603616,0.00016262108377352,-0.00015979754522282,0.00015979320398109,4.0629482768934e-10,4.7497965380837e-10,-0.00014425429783994,0.00014425516984814,2.6112942721157e-09,-1.7792431927712e-09,-0.00012851179365771,0.0001285082420802,-0.00012767001316822,0.00012766656087286,-0.00012767003857354,0.00012766653914192,-0.00012850735098553,0.00012851265432556,-0.00012850741949436,0.00012851259221535,-0.00012766568055255,0.00012767088500095,-0.00012766570434231,0.00012767086414626,-0.00015824383008503,0.00015824615134652,-0.00015824529533972,0.00015824468536647,-0.00015824380748069,0.00015824617274536,-0.00015824527256254,0.00015824470664172,-0.00014800998300622,0.000148009461072,-0.00014801005290196,0.00014800939331121,-0.00014800858276566,0.00014801086397313,-0.00014800851512158,0.00014801092855281,-0.00012851172186915,0.00012850830897423,0.78512883042381,128566,2924,0.00062524629408852,0.00068541269317887,0.00060088116235657,25.604319321515,-3.5165445427877e-05,-3.5165445427877e-05,-3.5165445427877e-05,1174888.1212358,0.0019133872183817
15991759,0.12681373388284,0.0022511263704317,0.00074720674228975,0.00077380824495107,0.00073011138319085,-0.00016813788788763,0.00016813779421958,-9.3030513128742e-12,-8.4161884511464e-11,-1.6911110509535e-12,-1.060654663831e-10,-0.00012432960488545,0.00012432930887156,-0.00015613190045393,0.00015613171684913,-0.00015613194116229,0.00015613170199774,-0.00012432944161016,0.00012432950871141,-0.00012432946032498,0.00012432940651301,-0.00015613182918688,0.00015613184707142,-0.00015613182031684,0.00015613179512999,-0.00018409451759362,0.00018409448425986,-0.0001840945342325,0.00018409445311901,-0.00018409453403624,0.00018409444371827,-0.00018409456322089,0.00018409441917058,-0.00016540429281945,0.00016540424219652,-0.00016540435127358,0.00016540414702573,-0.00016540426597488,0.00016540428164633,-0.00016540430838155,0.00016540418391343,-0.00012432950995631,0.00012432938743096,2.4593140144979e-11,1.2935119101285e-10,-3.5574795096341e-09,3.6991065281436e-09,-0.0001851563184949,0.00018515646146923,-0.00018039270239394,0.00018039992383346,-0.00018335416620276,0.00018335180930953,-0.00018335406965318,0.0001833519287101,-0.00018629770304488,0.00018629540881629,-0.00018629531511354,0.00018629783153352,-0.00018629768068788,0.00018629544446491,-0.00018629529449589,0.00018629786565038,-0.00018039974315177,0.00018039280613693,-0.00018039267087692,0.00018039995981919,-0.00018335176883055,0.00018335422366347,-0.00018335168001267,0.00018335433512956,-0.00018039977964887,0.00018039276445659,4.5110436165671e-11,1.1215630885157e-10,-0.00016102241997139,0.00016102256361381,3.6367829895771e-09,-3.5643398562832e-09,-0.00014458984871271,0.00014458279261683,-0.00014279456803724,0.00014278759488154,-0.00014279458901421,0.00014278757767002,-0.00014458262971422,0.00014458999133985,-0.0001445827099639,0.00014458991531397,-0.00014278746950478,0.00014279469148936,-0.00014278749733572,0.00014279466635856,-0.00017663716749824,0.00017663970057201,-0.00017663956498489,0.00017663730195453,-0.00017663714374985,0.00017663972399,-0.00017663954444449,0.00017663732177185,-0.00016640934915076,0.00016640715969735,-0.00016640941019682,0.00016640709757652,-0.00016640700479753,0.00016640950298785,-0.00016640693506183,0.000166409572894,-0.00014458979445292,0.0001445828439109,0.77894718980418,128566,2924,0.0007003326146136,0.00077118338561165,0.00067070335284418,25.204254527245,-3.8365963782037e-05,-3.8365963782037e-05,-3.8365963782037e-05,1226865.5016336,0.0021445361877146
16191759,0.13940638650684,0.0024893929165843,0.00082607813239672,0.00085801322845266,0.00080530155573488,-0.00018560934157569,0.00018560933450875,3.7795212536612e-11,-4.5294105770425e-11,-1.4252323242485e-10,1.2538548826528e-10,-0.00013656912151834,0.00013656927353012,-0.00017297980435326,0.00017298007905398,-0.00017297985016806,0.00017298006457293,-0.00013656932176669,0.0001365691142911,-0.00013656933747828,0.00013656899399566,-0.00017298010069836,0.00017297984430323,-0.00017298008932143,0.00017297978364122,-0.00020324835481799,0.00020324828766784,-0.00020324837255179,0.00020324825179138,-0.00020324824924604,0.00020324836969374,-0.00020324828254773,0.00020324834404702,-0.00018314739590801,0.00018314756242109,-0.00018314746195283,0.00018314745964732,-0.00018314749484558,0.00018314748036622,-0.00018314754003827,0.00018314736852318,-0.00013656901459691,0.00013656935890093,1.6697311897554e-10,-1.0120740816845e-10,-4.5571465996819e-09,4.6151197712222e-09,-0.00020528995012788,0.00020529000826091,-0.00020046113088915,0.00020047027126411,-0.00020356028357763,0.00020355757172462,-0.00020356055139579,0.00020355732029667,-0.0002060531115328,0.00020605022342476,-0.00020605009970564,0.00020605328681759,-0.00020605321059152,0.00020605013455257,-0.00020605020027432,0.00020605319686908,-0.0002004701563662,0.00020046113422169,-0.00020046122259029,0.00020047018284152,-0.00020355725383699,0.00020356062385883,-0.00020355752826703,0.00020356036556905,-0.00020047006888358,0.00020046121745445,-2.6348449050662e-10,-1.864894152068e-10,-0.00017716220611162,0.00017716173997346,4.2689880056037e-09,-4.8300421760261e-09,-0.00015998031896888,0.00015997075274641,-0.0001571821589105,0.00015717269577913,-0.00015718218359139,0.00015717267439743,-0.00015997121152456,0.00015997984662237,-0.00015997129897058,0.00015997976154181,-0.00015717319596657,0.00015718166030314,-0.00015717322634346,0.00015718163207554,-0.000194457857305,0.00019446041443163,-0.00019446088562219,0.00019445738457391,-0.00019445783067682,0.0001944604412032,-0.00019446086188076,0.00019445740816308,-0.00018415520085689,0.00018415178171989,-0.00018415527117759,0.00018415170848146,-0.00018415223005252,0.00018415475019859,-0.00018415215183762,0.00018415483012027,-0.00015998025432412,0.00015997081625653,0.77198525226171,128566,2924,0.00077307872590225,0.00085500469038425,0.00073790495069187,24.805074231983,-4.1559406144135e-05,-4.1559406144135e-05,-4.1559406144135e-05,1296618.8301324,0.0023688122413565
16391759,0.15173459824121,0.0027236226899192,0.00090354944825998,0.00094120307068984,0.00087887017096934,-0.00020281052165555,0.00020281057209883,7.5813448583539e-11,-2.6071626860578e-11,-2.0120341693255e-10,2.4380403547613e-10,-0.00014834632086047,0.00014834667212778,-0.00018963648870286,0.00018963700790182,-0.00018963654708975,0.00018963698379636,-0.00014834667715201,0.00014834635341431,-0.00014834668943527,0.00014834622400484,-0.00018963696312251,0.00018963659255832,-0.00018963694861073,0.00018963652579199,-0.00022213837837124,0.00022213831472189,-0.00022213840024991,0.00022213827380927,-0.00022213821312225,0.00022213845669233,-0.00022213825599203,0.00022213842477308,-0.00020064752371196,0.00020064782978876,-0.0002006476154277,0.00020064770592969,-0.00020064768798704,0.00020064768514899,-0.00020064774532099,0.0002006475582667,-0.00014834617808224,0.00014834678907402,2.1792075875129e-10,-2.2058121604967e-10,-5.0978282415156e-09,5.0897271526895e-09,-0.00022524797738108,0.00022524796996217,-0.00022036705329108,0.00022037718335421,-0.00022355491071251,0.00022355195601641,-0.00022355533968793,0.00022355154135586,-0.00022559745703643,0.00022559422395825,-0.00022559411254396,0.00022559762886295,-0.0002255976097982,0.00022559408017601,-0.00022559427012009,0.00022559748059338,-0.00022037712236979,0.00022036698639946,-0.0002203672060793,0.00022037703294056,-0.00022355154127586,0.00022355535193551,-0.00022355198706309,0.000223554919976,-0.00022037698332377,0.00022036712231436,-4.9088427700528e-10,-4.1450283039126e-10,-0.00019296484552522,0.00019296392335632,4.5385466292087e-09,-5.5706272385293e-09,-0.00017512231680886,0.00017511130109769,-0.00017129671351296,0.00017128578502098,-0.00017129673224012,0.00017128576898634,-0.00017511220004628,0.00017512139505865,-0.00017511230350662,0.00017512129584051,-0.00017128674933556,0.00017129574547183,-0.00017128678496286,0.00017129571251011,-0.00021194270159906,0.00021194514114065,-0.00021194606359149,0.00021194177692661,-0.00021194267350151,0.000211945169449,-0.00021194604187786,0.00021194179874511,-0.0002016283922056,0.00020162417444294,-0.00020162845621277,0.0002016241062259,-0.00020162508160388,0.00020162748208471,-0.00020162499927315,0.00020162756671048,-0.00017512226760047,0.00017511134796779,0.77561770573171,128566,2924,0.000844694659987,0.00093808795735663,0.00080369892462729,24.44776971324,-4.4417842294077e-05,-4.4417842294077e-05,-4.4417842294077e-05,1368613.5784102,0.0025898541126134
16591759,0.16389424483462,0.0029628108022146,0.00098255006516797,0.0010265597817691,0.0009537009552775,-0.00022036949722588,0.00022036957700289,9.6139569141862e-11,-1.7059673761471e-11,-2.1066331987283e-10,2.8357944836457e-10,-0.00016055710579962,0.00016055751902668,-0.00020706680308365,0.00020706740618696,-0.00020706686787503,0.00020706737767335,-0.00016055750051466,0.00016055716237944,-0.00016055751486118,0.00016055702375602,-0.00020706732841071,0.0002070669415685,-0.0002070673128856,0.00020706686912429,-0.00024127125156154,0.00024127120466181,-0.00024127127750112,0.00024127116043954,-0.0002412710701964,0.00024127136307825,-0.00024127111883146,0.00024127132840895,-0.00021873168137621,0.0002187320449436,-0.00021873178710329,0.00021873191148465,-0.00021873186328276,0.00021873188337968,-0.00021873193120618,0.00021873174684459,-0.00016055694499426,0.00016055765312974,2.1846954153782e-10,-2.6708429754481e-10,-5.2857579304441e-09,5.2332261492098e-09,-0.00024571586582605,0.00024571581362001,-0.00024097669806369,0.0002409871249236,-0.00024407392421957,0.00024407086036622,-0.00024407439860446,0.00024407039980355,-0.00024549825349609,0.00024549488109297,-0.00024549479971622,0.00024549839690783,-0.00024549842097204,0.00024549472229445,-0.00024549497278392,0.00024549823316566,-0.00024098710546744,0.00024097658519234,-0.00024097686734348,0.00024098695814088,-0.00024407044596728,0.00024407436676577,-0.0002440709378748,0.0002440738879731,-0.00024098695103914,0.00024097673637529,-6.4240838633129e-10,-5.5915615963143e-10,-0.00020903293374523,0.00020903171558557,4.549531459049e-09,-5.8855866316304e-09,-0.00019100182586663,0.00019099018121133,-0.00018599673114717,0.00018598518057448,-0.00018599674975944,0.00018598516346432,-0.0001909913768354,0.00019100061002898,-0.00019099148990329,0.00019100050107605,-0.00018598644418408,0.00018599546280437,-0.0001859864838479,0.0001859954263281,-0.00022958391712465,0.00022958616909267,-0.00022958738694861,0.00022958269679882,-0.00022958388651612,0.00022958619964332,-0.00022958736348823,0.00022958272042033,-0.00021963154225477,0.00021962692526741,-0.00021963161222857,0.00021962685126372,-0.0002196281289057,0.00021963033633879,-0.00021962803860383,0.00021963042848382,-0.00019100177542323,0.00019099023244049,0.80315413309514,128566,2924,0.00091779537459502,0.0010232866406855,0.00087059432143703,24.193202718816,-4.6454378249475e-05,-4.6454378249475e-05,-4.6454378249475e-05,1430083.2432424,0.0028156586030987
16791759,0.17588557124914,0.0031996370368843,0.0010606846376071,0.0011116386042899,0.0010273137949874,-0.00023773254905751,0.00023773263145007,9.9760739216131e-11,-1.7879984793444e-11,-1.808848559374e-10,2.5613070896354e-10,-0.0001720677283461,0.00017206808877057,-0.00022440380414483,0.00022440435294211,-0.00022440386904111,0.00022440432527465,-0.00017206806150939,0.00017206779222815,-0.00017206808559789,0.00017206764325297,-0.00022440427118485,0.00022440394656606,-0.00022440425767284,0.00022440386890426,-0.0002602553126249,0.00026025529005782,-0.00026025534237706,0.00026025524443917,-0.00026025515143913,0.00026025542872858,-0.00026025520219948,0.00026025539466649,-0.00023664187673122,0.00023664222551833,-0.00023664198674079,0.00023664209333583,-0.00023664203675782,0.00023664208564015,-0.00023664211421757,0.00023664194472525,-0.0001720675678128,0.0001720682221623,1.7883844929931e-10,-2.5212895986864e-10,-5.2180279341666e-09,5.14155426537e-09,-0.00026617426025541,0.00026617418383401,-0.00026159584109379,0.00026160606662052,-0.00026451311658856,0.00026451003040103,-0.00026451354101864,0.00026450962122594,-0.00026531782858657,0.00026531446662415,-0.00026531442553507,0.00026531792764185,-0.00026531797891095,0.00026531432556991,-0.00026531457971501,0.00026531778347013,-0.00026160607853048,0.00026159570583561,-0.00026159598985159,0.00026160592106157,-0.00026450969402984,0.00026451347948278,-0.00026451012952024,0.00026451305862925,-0.00026160593876237,0.00026159584196728,-7.1070172215099e-10,-6.1370084972473e-10,-0.00022482371660994,0.00022482237676008,4.4066997155954e-09,-5.8647283126759e-09,-0.00020660686381872,0.00020659523650804,-0.00020037637758599,0.00020036487294814,-0.00020037640207251,0.00020036484902129,-0.0002065965621574,0.00020660551969104,-0.00020659668161451,0.00020660540485432,-0.0002003662537689,0.00020037499064755,-0.00020036629638371,0.00020037495230609,-0.00024699369916506,0.00024699577255891,-0.00024699711574278,0.00024699235341308,-0.00024699366487121,0.00024699580632392,-0.00024699708694846,0.00024699238226021,-0.00023746242907222,0.0002374577591716,-0.00023746251533738,0.00023745766931258,-0.00023745908326083,0.0002374611030772,-0.00023745898166367,0.00023746120579129,-0.00020660679413347,0.00020659530871004,0.80668161200029,128566,2924,0.00099007567435117,0.0011084384994203,0.0009363315335704,23.941327698354,-4.8469378413169e-05,-4.8469378413169e-05,-4.8469378413169e-05,1495374.2051726,0.0030394824032244
16991759,0.18770387015502,0.003428378733225,0.0011361030115779,0.0011943707590826,0.0010979049625645,-0.00025459786452938,0.00025459793333949,9.7649110427147e-11,-2.9067554796595e-11,-1.3819888858205e-10,1.9881011167873e-10,-0.00018250696488643,0.00018250720281816,-0.00024103333906719,0.00024103377808842,-0.00024103340700933,0.00024103374710305,-0.00018250718907784,0.00018250701327594,-0.00018250722331872,0.00018250685763666,-0.00024103370727001,0.00024103346972549,-0.00024103369693827,0.00024103338923094,-0.0002788806290308,0.00027888062929406,-0.0002788806635582,0.00027888058229204,-0.00027888050126501,0.00027888073517598,-0.00027888055618853,0.00027888069925773,-0.00025392367361169,0.00025392398488856,-0.00025392379508483,0.00025392384642602,-0.00025392379976194,0.00025392387754176,-0.00025392388974842,0.0002539237313148,-0.00018250679484831,0.00018250734609476,1.2326213050005e-10,-2.0703910721504e-10,-5.0140960113528e-09,4.9271155440317e-09,-0.00028626043257114,0.00028626034546475,-0.00028173499487254,0.000281744765972,-0.00028450006992694,0.00028449701270636,-0.00028450039662193,0.00028449670387457,-0.00028479138432229,0.00028478811587412,-0.00028478811572623,0.0002847914363484,-0.00028479150196249,0.00028478800863434,-0.00028478823712086,0.00028479132614079,-0.00028174479544494,0.00028173485573957,-0.00028173511061119,0.0002817446542025,-0.00028449678502252,0.00028450032151557,-0.00028449712240945,0.00028450000162307,-0.00028174468844444,0.00028173495864247,-7.2761519173848e-10,-6.214893163825e-10,-0.00024005418245354,0.00024005281949466,4.1885134285102e-09,-5.6661015213923e-09,-0.00022134291681641,0.0002213316697485,-0.00021392026917721,0.00021390915741237,-0.00021392029610044,0.00021390913035732,-0.00022133301829024,0.00022134155048033,-0.00022133314672218,0.00022134142731919,-0.00021391055583348,0.00021391886342245,-0.00021391060202257,0.00021391882245071,-0.00026397912920028,0.00026398103786239,-0.00026398240747662,0.00026397775698291,-0.00026397909169456,0.00026398107440231,-0.00026398237558615,0.0002639777888241,-0.00025467703571805,0.00025467248850264,-0.0002546771312431,0.00025467239003854,-0.00025467383767966,0.00025467568530886,-0.00025467372678644,0.00025467579647084,-0.00022134283834279,0.00022133175110521,0.79134033401301,128566,2924,0.0010602794761941,0.0011920338907929,0.00099973253054749,23.689563066258,-5.0483495469934e-05,-5.0483495469934e-05,-5.0483495469934e-05,1568534.0038666,0.0032573682844171
17191759,0.19907430760613,0.003643073459387,0.0012068618146558,0.001272471219051,0.0011637404256802,-0.00026993959169863,0.00026993960207246,1.0385654809933e-10,-9.3228100195533e-11,-2.6458440242224e-12,1.7035335243967e-12,-0.00019121086379128,0.00019121055335736,-0.00025588561244199,0.00025588571822329,-0.0002558857346718,0.00025588563219627,-0.00019121069208925,0.00019121076386492,-0.00019121070905446,0.00019121063542792,-0.00025588568576567,0.00025588570792879,-0.00025588567078826,0.00025588563807001,-0.00029607104455802,0.00029607110997596,-0.00029607109437697,0.0002960710521882,-0.00029607101636424,0.00029607111676145,-0.00029607110556251,0.00029607104751772,-0.00026952592028284,0.00026952616306017,-0.00026952614219717,0.00026952592585205,-0.00026952596553491,0.00026952613426775,-0.00026952609788991,0.00026952595390244,-0.00019121053693498,0.00019121085773659,-4.7474500260134e-11,1.8103708414723e-12,-4.2806242994248e-09,4.2307134491229e-09,-0.00030480019420879,0.00030480014236247,-0.00030019611092244,0.00030020442331149,-0.00030286952259779,0.00030286657323509,-0.0003028694484896,0.00030286667168986,-0.00030280923397846,0.00030280633483111,-0.00030280641921204,0.00030280918690514,-0.00030280921826111,0.00030280636492216,-0.00030280642826035,0.0003028091937374,-0.00030020439497895,0.00030019605395601,-0.00030019613255096,0.00030020440708907,-0.00030286667815975,0.00030286943382739,-0.00030286667504094,0.00030286946151035,-0.00030020444426128,0.0003001959985762,-6.1421261891829e-10,-5.6023278852379e-10,-0.00025375725178117,0.00025375606533271,3.5891292988963e-09,-4.8787257696677e-09,-0.00023423891832275,0.00023422935888702,-0.00022572639009477,0.00022571677866066,-0.00022572636950385,0.00022571679887459,-0.00023423044666502,0.00023423782486361,-0.00023423061356093,0.00023423766553665,-0.00022571801584118,0.00022572515276618,-0.00022571807597968,0.00022572510000798,-0.00027952231149988,0.00027952394065232,-0.00027952511907328,0.00027952113131003,-0.00027952228096895,0.00027952397015969,-0.000279525115028,0.00027952113563874,-0.00027021725702665,0.00027021326459765,-0.00027021727067227,0.00027021324821278,-0.00027021447015056,0.00027021605016045,-0.00027021437937417,0.00027021614042015,-0.00023423897581279,0.00023422930114641,0.77293681518981,128566,2924,0.0011241374137014,0.0012691870354816,0.0010567726596095,23.132288830043,-5.4941689359657e-05,-5.4941689359657e-05,-5.4941689359657e-05,1640675.0062066,0.0034560869748839
17391759,0.20963862827014,0.0038348476987728,0.0012701107337444,0.001342532950704,0.0012222040143245,-0.00028286088404612,0.00028286078565055,5.4188249964836e-11,-1.5152586098528e-10,2.2715284124692e-10,-3.4228879575342e-10,-0.00019756568976597,0.00019756468315975,-0.00026798605460724,0.00026798548968106,-0.00026798618196836,0.00026798539576341,-0.00019756493913218,0.00019756547048215,-0.00019756496886922,0.00019756535165542,-0.00026798556629201,0.00026798604149739,-0.00026798555772039,0.00026798597632658,-0.00031089266938501,0.00031089282168732,-0.00031089272754797,0.00031089276257028,-0.00031089283085477,0.00031089263853149,-0.00031089292453315,0.0003108925654651,-0.00028247696339851,0.00028247691324302,-0.00028247719292757,0.0002824766711673,-0.00028247681233161,0.00028247707597474,-0.00028247696252903,0.0002824768926755,-0.00019756535070333,0.00019756500634903,-2.9328954017646e-10,3.2714059085892e-10,-3.0540322626607e-09,3.0803532376171e-09,-0.00032072630144092,0.00032072632509454,-0.00031584073018067,0.00031584659499086,-0.00031855427419633,0.00031855163267646,-0.00031855364637173,0.0003185522958768,-0.00031837554055354,0.00031837331109458,-0.00031837350030184,0.00031837536763246,-0.00031837533830113,0.00031837353270059,-0.00031837332281905,0.00031837556630405,-0.00031584651191291,0.00031584076805377,-0.00031584055983677,0.00031584677184294,-0.00031855221841978,0.00031855369676298,-0.00031855165300115,0.00031855429476479,-0.00031584674753001,0.00031584052304854,-4.2733284394418e-10,-3.6380480579416e-10,-0.00026511535740172,0.00026511455767896,2.6133732809495e-09,-3.4952181874542e-09,-0.00024439884758834,0.00024439200717082,-0.00023500110886373,0.00023499421989804,-0.00023500108944205,0.00023499423874386,-0.00024439270051232,0.00024439815082456,-0.00024439288284035,0.00024439798242153,-0.00023499505578481,0.00023500027506031,-0.00023499512244859,0.00023500021944338,-0.0002927633986012,0.00029276462406977,-0.0002927654225094,0.00029276259926928,-0.00029276336627417,0.00029276465459652,-0.0002927654162828,0.00029276260537433,-0.00028312602024083,0.0002831232067069,-0.00028312604336103,0.00028312318099098,-0.00028312403087636,0.00028312519514252,-0.00028312392927625,0.00028312529305731,-0.00024439889748338,0.00024439195373183,0.74411373939245,128566,2924,0.0011779179617002,0.0013354585629522,0.0011040501349339,22.132691430224,-6.293846855821e-05,-6.293846855821e-05,-6.293846855821e-05,1708800.5416679,0.0036240126131342
17591759,0.21943492414978,0.0040061726248387,0.0013266864151791,0.0014052855814486,0.001274200628211,-0.00029430715646985,0.00029430697793,4.5458660460304e-12,-1.8135439935788e-10,3.6066898211164e-10,-5.5983395945682e-10,-0.0002027234701839,0.00020272209819463,-0.00027839272092631,0.0002783917067249,-0.00027839282520733,0.00027839163102323,-0.00020272238617812,0.00020272320993972,-0.00020272245012979,0.00020272307593976,-0.00027839187094134,0.00027839261643267,-0.00027839187397655,0.00027839254686565,-0.00032424490700642,0.00032424509555773,-0.00032424496810623,0.00032424503980492,-0.00032424518927043,0.00032424479123086,-0.00032424527251991,0.00032424472917258,-0.00029377382134939,0.00029377353947345,-0.00029377401920459,0.00029377333644196,-0.00029377353415321,0.00029377383326019,-0.00029377368994062,0.00029377366208366,-0.00020272319632466,0.00020272236012939,-4.2901296558074e-10,5.2297939461789e-10,-2.042212684672e-09,2.1243431998323e-09,-0.00033495751943573,0.00033495760093325,-0.00032962631463966,0.00032963017485816,-0.0003324930153581,0.00033249077656036,-0.00033249208145822,0.00033249175350085,-0.00033239614614127,0.0003323945211854,-0.00033239475305186,0.00033239591341838,-0.00033239584080346,0.00033239484864049,-0.00033239446223171,0.00033239622865735,-0.00032963007679739,0.00032962641016432,-0.00032962601723024,0.00032963048060863,-0.00033249162725135,0.00033249216845822,-0.0003324907217098,0.00033249311225888,-0.00032963040464311,0.00032962607126269,-2.6340917935378e-10,-1.6180694218656e-10,-0.00027508294277198,0.00027508251293358,1.8202856446816e-09,-2.3115467048073e-09,-0.00025290798674508,0.00025290339704187,-0.00024281283206608,0.00024280829892153,-0.00024281283725282,0.00024280829210911,-0.00025290375305685,0.00025290761689568,-0.00025290392861019,0.00025290745615879,-0.00024280873207016,0.00024281239096198,-0.00024280879818166,0.0002428123367097,-0.0003046083317241,0.00030460925868732,-0.00030460970338212,0.00030460788592116,-0.00030460829267226,0.00030460929534617,-0.00030460968018565,0.00030460790854697,-0.00029440249685825,0.00029440075939338,-0.00029440257313039,0.00029440068189317,-0.00029440120680399,0.00029440205144127,-0.00029440108170891,0.00029440216981809,-0.00025290795785466,0.00025290342707939,0.71798589797638,128566,2924,0.0012255572129123,0.0013946733935247,0.0011455381286901,21.121470320341,-7.1028237437269e-05,-7.1028237437269e-05,-7.1028237437269e-05,1776678.7316382,0.003772907916374
17791759,0.22852122864307,0.0041601037831501,0.001377582558856,0.0014617734360307,0.0013207477882634,-0.00030450599055575,0.00030450577477441,-1.0280637007126e-11,-2.0357505521592e-10,3.8877267647483e-10,-6.2678399765706e-10,-0.00020699448785378,0.00020699298098101,-0.00028743273011032,0.00028743158463892,-0.00028743283402489,0.00028743150705089,-0.00020699329831736,0.00020699419066531,-0.00020699338178673,0.00020699405214974,-0.0002874317832246,0.00028743258760064,-0.00028743179407457,0.00028743251772094,-0.00033632320356178,0.00033632338948894,-0.00033632326978968,0.00033632333301618,-0.00033632351786179,0.00033632305390245,-0.00033632360324879,0.00033632298981635,-0.00030369944769144,0.00030369910350725,-0.00030369965341875,0.00030369889572126,-0.00030369912581086,0.00030369942825488,-0.0003036992954135,0.00030369925415109,-0.00020699421163163,0.00020699324583037,-4.6027711261486e-10,5.8590658135318e-10,-1.3281768221245e-09,1.440405517012e-09,-0.00034772941964257,0.00034772953187529,-0.00034184351586594,0.00034184600153475,-0.00034493932042227,0.00034493748555473,-0.00034493829632422,0.00034493855537103,-0.00034508691726305,0.00034508575512703,-0.00034508598098458,0.00034508667858284,-0.0003450865822089,0.00034508611329572,-0.00034508565944836,0.00034508702595886,-0.00034184589028313,0.00034184365385685,-0.00034184318593761,0.00034184634090278,-0.00034493839461244,0.00034493840958901,-0.00034493739671209,0.00034493944846403,-0.00034184624760153,0.00034184328497835,-1.2143532913749e-10,-8.9350631061319e-12,-0.00028388947602008,0.00028388934367512,1.2819845449263e-09,-1.4603115528751e-09,-0.00026012544568745,0.00026012251805734,-0.00024947174854117,0.00024946889577884,-0.00024947175829212,0.00024946888468799,-0.00026012257359218,0.00026012537220774,-0.00026012275623228,0.00026012520497024,-0.00024946901535405,0.00024947161812954,-0.00024946908434997,0.00024947156176732,-0.00031525958365198,0.00031526033893061,-0.00031526049349147,0.00031525942790382,-0.00031525954130112,0.00031526037889373,-0.00031526046657583,0.00031525945435416,-0.00030431964171487,0.00030431867340096,-0.00030431972963021,0.00030431858419085,-0.00030431882665251,0.00030431949073303,-0.00030431869214258,0.00030431961812405,-0.00026012540175778,0.00026012256268366,0.69669207500559,128566,2924,0.0012680030789955,0.0014478128880443,0.001182192204201,20.126272309239,-7.8989821526087e-05,-7.8989821526087e-05,-7.8989821526087e-05,1843186.7083239,0.0039056603287536
17991759,0.23695658236453,0.0043012500706276,0.0014242841607396,0.0015136319414661,0.0013633339684219,-0.000313733643064,0.00031373342602981,-5.7031167589919e-12,-2.0949633201616e-10,3.4404971666438e-10,-5.8308077438553e-10,-0.00021078488245105,0.00021078344748933,-0.00029553998810093,0.00029553893295667,-0.00029554009594118,0.00029553885051525,-0.00021078376689327,0.00021078457752157,-0.00021078386307882,0.00021078443758298,-0.00029553912753385,0.00029553984605263,-0.00029553914408734,0.00029553977650389,-0.00034733706793691,0.00034733722659734,-0.00034733713878952,0.00034733716840308,-0.00034733735350045,0.00034733692132565,-0.00034733744272366,0.00034733685339803,-0.00031263454643789,0.00031263424157568,-0.00031263476412327,0.00031263402294671,-0.00031263425340397,0.00031263453460019,-0.00031263443554232,0.00031263435443146,-0.00021078459255369,0.00021078372667012,-4.1483414926326e-10,5.4292712740482e-10,-9.2440887582574e-10,1.0393091117759e-09,-0.00035934806844671,0.00035934818341498,-0.00035289290568879,0.0003528946348097,-0.00035624412268546,0.00035624264410393,-0.00035624318459294,0.00035624362724519,-0.00035669438043011,0.00035669351665126,-0.00035669370697428,0.00035669417048293,-0.0003566940742317,0.00035669384531336,-0.00035669341477524,0.00035669448817505,-0.0003528945293876,0.0003528930558889,-0.00035289260590681,0.00035289494437334,-0.00035624346089393,0.00035624329969446,-0.00035624255085815,0.00035624425033698,-0.00035289485793671,0.0003528927158231,-2.3117183429699e-11,9.7151394184426e-11,-0.00029180482837536,0.00029180490206012,9.9165581665203e-10,-9.5378901895349e-10,-0.00026651450524416,0.00026651257213822,-0.00025538435130421,0.00025538249730398,-0.000255384362542,0.00025538248499434,-0.00026651241403168,0.00026651464438559,-0.00026651260810605,0.0002665144662818,-0.00025538240075947,0.00025538443666241,-0.0002553824736847,0.00025538437683751,-0.00032491958158611,0.00032492027211204,-0.00032492022585448,0.00032491962651828,-0.00032491953624181,0.00032492031514066,-0.00032492019696022,0.00032491965516347,-0.00031324575644011,0.00031324526450675,-0.00031324585043683,0.00031324516844847,-0.0003132452152904,0.00031324580753302,-0.00031324507237691,0.00031324594365474,-0.00026651445761497,0.00026651262021937,0.68920301016659,128566,2924,0.0013064057819921,0.0014961513969722,0.0012151359524206,19.154688800389,-8.6762489596887e-05,-8.6762489596887e-05,-8.6762489596887e-05,1902697.8047894,0.0040258253593483
18191759,0.24478099212027,0.0044342855368464,0.0014682933255799,0.00156253449422,0.0014034577170465,-0.00032221918643836,0.00032221898672051,6.8920376588628e-12,-2.0500791594301e-10,2.7038786810094e-10,-4.9096749622118e-10,-0.00021439230493814,0.00021439104489478,-0.0003031255150419,0.00030312464357664,-0.00030312562507006,0.00030312455866653,-0.00021439134352942,0.00021439201705235,-0.00021439145287227,0.0002143918716085,-0.00030312481577018,0.00030312539211829,-0.0003031248376375,0.00030312532138093,-0.00035743685573617,0.00035743697973474,-0.00035743693037959,0.00035743691948897,-0.00035743708774189,0.0003574367299037,-0.00035743717961002,0.00035743665932176,-0.00032093053198654,0.00032093030653128,-0.00032093075705429,0.00032093008042634,-0.00032093029240132,0.00032093054418337,-0.00032093048467946,0.00032093035693729,-0.00021439200884649,0.00021439133119582,-3.3936283958055e-10,4.5175498551882e-10,-7.5897671675287e-10,8.5941000259964e-10,-0.00037007820576783,0.00037007830596509,-0.00036315570792281,0.00036315713890579,-0.00036670393662097,0.00036670272274944,-0.00036670316256527,0.00036670353949487,-0.00036740312988327,0.00036740242136709,-0.0003674025699628,0.00036740295877141,-0.00036740287831663,0.00036740269397788,-0.00036740233186681,0.00036740322114241,-0.0003631570534095,0.00036315584773398,-0.00036315546256118,0.0003631573939682,-0.00036670338896185,0.00036670326127326,-0.00036670264111167,0.00036670404763733,-0.00036315732578962,0.00036315556423513,3.3663248049514e-11,1.6408355058259e-10,-0.00029904453958657,0.00029904473786324,8.8566785397017e-10,-7.1740300725383e-10,-0.00027248721473189,0.00027248573654544,-0.00026089971732932,0.00026089833268282,-0.00026089973226146,0.00026089831670085,-0.00027248545457989,0.00027248747942777,-0.00027248565675151,0.0002724872932895,-0.00026089810449055,0.00026089993531768,-0.00026089818041008,0.00026089987265017,-0.00033373923513111,0.00033373993153531,-0.00033373976551471,0.00033373939971612,-0.00033373918667318,0.00033373997784347,-0.00033373973339665,0.00033373943186685,-0.00032151046604337,0.00032151022253706,-0.00032151056979507,0.00032151011553604,-0.00032151004913282,0.00032151064042956,-0.00032150989720203,0.00032151078623472,-0.00027248715594841,0.00027248579663961,0.70094115376224,128566,2924,0.0013417190267455,0.0015407910675094,0.0012452667648653,18.183727297358,-9.4530181621137e-05,-9.4530181621137e-05,-9.4530181621137e-05,1947312.6608919,0.0041363632247008
18391759,0.25221256708879,0.0045609968114159,0.0015102076357119,0.0016091610022039,0.0014416281735001,-0.00033073072763637,0.00033073059037984,3.7256216392281e-11,-1.7342103774972e-10,1.1503711057759e-10,-2.6989381869381e-10,-0.00021818961878272,0.00021818881679266,-0.00031083720147485,0.00031083675843692,-0.0003108373045856,0.00031083668040942,-0.00021818902932912,0.00021818941257572,-0.00021818915713064,0.00021818924647843,-0.00031083686401724,0.00031083714032313,-0.00031083689152493,0.0003108370621736,-0.00036749337750337,0.00036749344096081,-0.00036749345370148,0.00036749337867587,-0.0003674934886373,0.00036749331395803,-0.00036749357821868,0.00036749324591455,-0.00032930946069305,0.00032930941469084,-0.00032930967858925,0.00032930919622478,-0.00032930933938893,0.00032930953323278,-0.00032930953665903,0.00032930934003876,-0.00021818934503586,0.00021818908037446,-1.7730529194504e-10,2.3462715737493e-10,-1.1248790672755e-09,1.1722761510036e-09,-0.00038078767856592,0.00038078772649334,-0.00037344937960975,0.00037345154172479,-0.00037716209699754,0.000377160984189,-0.00037716170010946,0.00037716141821607,-0.00037806986244755,0.00037806900734841,-0.00037806908521024,0.00037806976869007,-0.00037806973630288,0.00037806915095569,-0.00037806896816727,0.00037806990678664,-0.00037345151463111,0.0003734494554704,-0.0003734492524265,0.00037345167751076,-0.00037716133248484,0.00037716174311444,-0.00037716094828803,0.00037716215920774,-0.00037345165456025,0.00037344930614873,-1.029042947545e-11,1.3957835817642e-10,-0.00030634249922194,0.00030634262886444,1.1794422699916e-09,-1.0829470620944e-09,-0.00027861728695781,0.00027861504978612,-0.00026658453650469,0.00026658244590767,-0.00026658456306574,0.00026658241737392,-0.00027861485421782,0.0002786174583963,-0.00027861505515729,0.00027861727353865,-0.00026658227817977,0.00026658468891525,-0.00026658235387792,0.00026658462537411,-0.00034255176546825,0.00034255260887845,-0.00034255251669435,0.00034255185555887,-0.00034255171292076,0.00034255265968307,-0.00034255247627075,0.00034255189631364,-0.00032985038784177,0.00032984988181976,-0.00032985051594047,0.00032984974828918,-0.00032984976985222,0.00032985050008177,-0.00032984960625697,0.00032985065871244,-0.00027861718847677,0.0002786151503217,0.70344890961772,128566,2924,0.0013771394034222,0.0015853426717499,0.0012756387286288,17.512110278698,-9.9903117770417e-05,-9.9903117770417e-05,-9.9903117770417e-05,1987239.5870162,0.00424717445265
18591759,0.25951638214188,0.0046828865769575,0.0015505421055517,0.0016541043451984,0.0014782401262074,-0.00033970349957596,0.00033970346170314,1.0129132336225e-10,-1.3897438745727e-10,-9.0781207152319e-11,4.0274746531198e-11,-0.00022233997541574,0.00022233971336731,-0.00031892702260676,0.00031892721297917,-0.00031892714823164,0.00031892711360996,-0.00022233986776464,0.00022233982772016,-0.00022233997818198,0.00022233967051537,-0.00031892720453683,0.00031892707222715,-0.00031892722545525,0.00031892699392101,-0.00037805395946128,0.0003780539566072,-0.00037805403864751,0.00037805388678988,-0.00037805389721765,0.00037805400429302,-0.00037805400023738,0.00037805392254986,-0.00033811019978889,0.00033811046595813,-0.00033811045890672,0.00033811020238929,-0.00033811026425374,0.0003381103998684,-0.00033811047289175,0.00033811018670059,-0.00022233962975584,0.000222340048641,3.5775545214004e-11,-6.4975672111348e-11,-1.9667819329414e-09,1.9317418823762e-09,-0.00039197769908167,0.00039197766455638,-0.00038417277070924,0.00038417660537478,-0.00038808994144664,0.00038808870345574,-0.00038809003098974,0.00038808864172165,-0.00038924391630612,0.00038924261727067,-0.00038924261481109,0.00038924391778486,-0.00038924395264023,0.00038924259411394,-0.00038924266955666,0.0003892438815031,-0.00038417663383375,0.00038417276380081,-0.00038417282671597,0.00038417655631162,-0.00038808863452886,0.00038809001031222,-0.00038808876488167,0.0003880899028814,-0.00038417661779886,0.00038417277278748,-1.4155836820117e-10,-3.0335825439665e-12,-0.00031410443519393,0.00031410428869453,1.8482670669667e-09,-2.0418548130969e-09,-0.00028511677425656,0.00028511270194764,-0.00027266291227232,0.00027265891756527,-0.00027266292136331,0.00027265890589882,-0.00028511274469566,0.00028511670944647,-0.0002851129761382,0.00028511649149484,-0.00027265903854163,0.00027266277576953,-0.00027265912315681,0.00027266270141794,-0.00035186979522846,0.00035187090578144,-0.00035187108249088,0.00035186961552702,-0.00035186974282243,0.00035187095829346,-0.00035187105027191,0.00035186964953003,-0.00033861429455069,0.00033861294847563,-0.00033861439647546,0.00033861283879513,-0.00033861312140949,0.0003386141208721,-0.00033861295674784,0.00033861428210796,-0.00028511673246466,0.00028511274980469,0.68932006800099,128566,2924,0.0014144778427773,0.0016318911586695,0.0013079401439598,17.263903179771,-0.00010188877456183,-0.00010188877456183,-0.00010188877456183,2034263.0980016,0.0043638683978995
18791759,0.26669943565025,0.0048099846891972,0.0015925372095377,0.001700971204406,0.0015164762752535,-0.00034889856715879,0.00034889858729566,1.290422191429e-10,-1.0924666206005e-10,-1.8592920081407e-10,1.9642768691606e-10,-0.00022717880973058,0.00022717887939446,-0.0003276419813571,0.00032764247311181,-0.00032764210218119,0.00032764238135749,-0.0002271789550891,0.00022717874455603,-0.00022717908021846,0.00022717856332587,-0.00032764240461802,0.00032764209086982,-0.00032764243026019,0.00032764200571196,-0.00038866108750357,0.00038866106088922,-0.00038866116713902,0.00038866098808766,-0.0003886609454431,0.00038866119049012,-0.0003886610463976,0.00038866111051813,-0.00034735073650328,0.00034735113307438,-0.00034735098304432,0.0003473508772567,-0.00034735087762834,0.00034735099260557,-0.00034735108659831,0.00034735076893158,-0.00022717848671483,0.00022717919171284,1.3364732278368e-10,-2.2126773939303e-10,-2.6565913274291e-09,2.5667837644297e-09,-0.00040337237322407,0.00040337228243175,-0.00039530337880328,0.00039530853654695,-0.00039926980672212,0.00039926833052715,-0.00039927015266351,0.00039926800604755,-0.00040054049264232,0.00040053878658194,-0.00040053876489089,0.00040054052880337,-0.00040054061330268,0.00040053867594974,-0.00040053889855588,0.00040054040901734,-0.00039530861209276,0.00039530329615197,-0.0003953035110328,0.00039530841019572,-0.00039926807101394,0.00039927007063952,-0.00039926844017512,0.0003992697188528,-0.00039530850392005,0.00039530339792378,-2.7308317836445e-10,-1.1436491005955e-10,-0.00032207187224779,0.00032207148034228,2.3690158177026e-09,-2.8207410420488e-09,-0.00029227608408969,0.00029227043633782,-0.00027931078903402,0.00027930527372886,-0.00027931081179799,0.00027930524854983,-0.00029227075650826,0.00029227574956866,-0.00029227098379572,0.00029227553531549,-0.00027930564616755,0.00027931040606858,-0.00027930573087729,0.00027931033264911,-0.00036123002693459,0.000361231322947,-0.0003612317479169,0.00036122959908554,-0.00036122996984304,0.00036123137947025,-0.00036123170758721,0.00036122964108151,-0.00034776764885226,0.00034776565512854,-0.00034776777681336,0.00034776551669456,-0.00034776606068722,0.00034776723967338,-0.00034776588353762,0.00034776741483535,-0.00029227600065744,0.00029227052787975,0.73043486267562,128566,2924,0.0014527398957075,0.0016792887425913,0.0013410958355938,17.026787354784,-0.00010378570116173,-0.00010378570116173,-0.00010378570116173,2065305.1938212,0.0044832132331139
18991759,0.27376391457536,0.0049371762919892,0.0016345291767778,0.0017479693662208,0.0015546777489906,-0.00035803549669718,0.00035803551643142,1.3311606172657e-10,-1.1373837016498e-10,-1.5496633953176e-10,1.6481826567983e-10,-0.00023180943397906,0.00023180943366426,-0.00033644896211063,0.00033644939403267,-0.0003364490857799,0.00033644930038662,-0.00023180951054178,0.00023180937041202,-0.00023180964199594,0.0002318091770996,-0.00033644932389317,0.00033644907455022,-0.00033644935121044,0.00033644898435147,-0.00039919310278026,0.00039919309978541,-0.00039919318450847,0.00039919302272703,-0.00039919298133304,0.00039919320799177,-0.00039919308484091,0.00039919312542182,-0.00035662565251365,0.00035662603629564,-0.00035662590648058,0.00035662577117326,-0.00035662577329921,0.0003566259171559,-0.00035662598868546,0.00035662568282168,-0.00023180910364296,0.00023180975390994,9.4874917901089e-11,-1.9751164812532e-10,-3.0239912155265e-09,2.9195507998154e-09,-0.00041477915879995,0.00041477905320559,-0.00040654720819571,0.00040655303703854,-0.00041045968394627,0.00041045789220481,-0.00041045996857543,0.00041045762962917,-0.00041176781966138,0.00041176584086816,-0.00041176585817812,0.0004117678241778,-0.00041176792014203,0.00041176575098045,-0.00041176597145919,0.00041176772542024,-0.00040655312034884,0.00040654710363801,-0.00040654731964867,0.000406552931746,-0.00041045771129234,0.00041045987292231,-0.00041045801921102,0.00041045958314071,-0.00040655303253111,0.00040654718520747,-3.5276308839961e-10,-1.8435623975114e-10,-0.00032996981794581,0.00032996927499342,2.6476746654759e-09,-3.2574587216506e-09,-0.00029948510170723,0.00029947858315025,-0.00028593038358017,0.00028592401167067,-0.00028593040936249,0.00028592398301799,-0.00029947905853005,0.00029948461275221,-0.00029947929432692,0.0002994843903289,-0.00028592453711143,0.00028592984716096,-0.00028592462494935,0.00028592977108003,-0.00037051511536039,0.00037051649722992,-0.00037051707438942,0.0003705145352085,-0.00037051505530253,0.00037051655658325,-0.00037051703064738,0.00037051458071694,-0.00035695699119392,0.00035695461946164,-0.00035695712872178,0.00035695447119295,-0.00035695517353224,0.00035695643352368,-0.00035695498718893,0.00035695661754419,-0.00029948500806946,0.00029947868574795,0.74318762172909,128566,2924,0.001490758943929,0.0017267345130499,0.0013739617210526,16.790124650364,-0.00010567900279709,-0.00010567900279709,-0.00010567900279709,2090670.935426,0.0046020850851477
19191759,0.28093868177341,0.0050738060484539,0.0016795510690692,0.0017985423034567,0.001595712675928,-0.00036846742116422,0.00036846745748239,1.2798802788449e-10,-9.2055875895887e-11,-1.8850100001208e-10,2.1545306108629e-10,-0.0002377341962226,0.00023773438421766,-0.00034694002368019,0.00034694052428547,-0.00034694011618359,0.00034694046089295,-0.00023773438158374,0.00023773421112472,-0.00023773454576718,0.00023773397556792,-0.00034694044591006,0.00034694014269724,-0.0003469404824723,0.00034694003594722,-0.0004109321369575,0.00041093212124187,-0.00041093221571508,0.00041093204458654,-0.00041093199468723,0.00041093224925673,-0.00041093208199617,0.00041093218283491,-0.0003674222675492,0.00036742264867315,-0.00036742247484621,0.00036742243126605,-0.00036742239543532,0.00036742252297558,-0.00036742260471967,0.00036742229182905,-0.00023773395583887,0.00023773461566687,1.2984531972638e-10,-2.6746527925167e-10,-3.6573779537758e-09,3.5179079174309e-09,-0.00042762581429007,0.00042762567531328,-0.00041944245535631,0.00041944946910898,-0.00042311543211794,0.00042311332156126,-0.00042311584104326,0.00042311293446299,-0.00042428300453228,0.0004242806294555,-0.00042428064840431,0.00042428301653016,-0.00042428314659395,0.0004242804975318,-0.00042428078943848,0.00042428289126329,-0.0004194496034181,0.00041944228420888,-0.00041944257944176,0.00041944935051512,-0.00042311307583768,0.00042311569364696,-0.00042311346492305,0.00042311532111838,-0.00041944945924355,0.00041944242419326,-4.8776125619479e-10,-2.7420453693723e-10,-0.00033908990552985,0.00033908913663689,3.124444630075e-09,-3.9698384477684e-09,-0.00030829030112257,0.00030828227333951,-0.00029400506184517,0.00029399732453803,-0.00029400512259394,0.00029399725994652,-0.00030828303376389,0.00030828951463945,-0.00030828325156294,0.0003082893117365,-0.00029399806204161,0.00029400430501233,-0.0002939981436089,0.0002940042339339,-0.00038094771937396,0.00038094926555787,-0.00038095008060716,0.00038094690039944,-0.00038094765188077,0.00038094933296242,-0.00038095001458984,0.00038094696850566,-0.00036764384170918,0.00036764091438208,-0.00036764404503441,0.00036764070101651,-0.00036764167191643,0.00036764308240842,-0.00036764146286241,0.00036764328830184,-0.00030829010050972,0.00030828248212566,0.78534703601678,128566,2924,0.0015341647934926,0.0017801667133191,0.0014119118250046,16.952844240709,-0.00010437724607432,-0.00010437724607432,-0.00010437724607432,2110796.2664072,0.0047375049028012
19391759,0.28842973368723,0.0052134954491818,0.001725537810526,0.0018505110503143,0.0016374465883414,-0.00037984329083147,0.00037984334271825,1.5271780965663e-10,-1.0126062607944e-10,-2.2191099156565e-10,2.6517245900163e-10,-0.00024378221915565,0.00024378243205683,-0.00035821091066428,0.00035821153420982,-0.0003582110298323,0.00035821144771368,-0.00024378245654901,0.00024378221200948,-0.00024378260818433,0.00024378198103051,-0.00035821142963911,0.00035821105826533,-0.00035821146212766,0.00035821095294607,-0.00042380900443996,0.0004238089820916,-0.00042380908759147,0.00042380889880869,-0.00042380882983925,0.00042380914303383,-0.00042380893306481,0.00042380906118047,-0.00037912311420091,0.00037912358770894,-0.00037912336846413,0.00037912331904307,-0.000379123287459,0.00037912341943468,-0.00037912350918568,0.00037912316706068,-0.00024378190357482,0.0002437827366147,1.51117563271e-10,-3.158310546369e-10,-4.2074442547161e-09,4.0433313441058e-09,-0.00044169786310444,0.00044169769772682,-0.00043350506858418,0.00043351315448629,-0.00043696335927387,0.00043696091672261,-0.00043696381959084,0.00043696047649792,-0.00043796222384889,0.00043795948385846,-0.00043795951215247,0.00043796223692985,-0.00043796238348936,0.00043795933357766,-0.00043795968036469,0.00043796208227252,-0.00043351328499201,0.00043350488070299,-0.0004335052333753,0.00043351299644842,-0.00043696062987826,0.00043696366251185,-0.00043696110477235,0.00043696320552766,-0.00043351313373465,0.00043350502681565,-5.8726399461756e-10,-3.893142205689e-10,-0.00034907034646401,0.00034906936090418,3.5574963951054e-09,-4.6303222313793e-09,-0.0003176919795249,0.00031768270750626,-0.00030265541595727,0.00030264635939775,-0.00030265545841342,0.00030264631349553,-0.00031768365178195,0.00031769102046859,-0.00031768389656424,0.00031769078881398,-0.00030264733075871,0.00030265443141447,-0.00030264742129402,0.00030265435285787,-0.0003924328731552,0.00039243456878736,-0.00039243559330364,0.00039243184523811,-0.00039243280484115,0.00039243463636581,-0.00039243553685957,0.00039243190354433,-0.00037925925109066,0.00037925571532979,-0.00037925942383229,0.00037925553176615,-0.00037925669979741,0.0003792582629817,-0.00037925649130163,0.00037925846914241,-0.000317691836759,0.00031768285914308,0.7695138823794,128566,2924,0.0015814965421463,0.001838692404049,0.0014534405470285,17.466125271349,-0.0001002709978292,-0.0001002709978292,-0.0001002709978292,2144150.9411545,0.0048856034320125
19591759,0.29624927060472,0.0053558561906208,0.0017723794592321,0.0019037211684838,0.0016797555629049,-0.0003915315629768,0.00039153161070626,1.5602090660222e-10,-1.0859905317494e-10,-2.0736394271801e-10,2.4600268122813e-10,-0.00024982316668682,0.00024982332707026,-0.00036959853964182,0.00036959913041843,-0.00036959866405132,0.0003695990389461,-0.00024982336049983,0.00024982315162805,-0.00024982351628653,0.00024982291143287,-0.00036959902685248,0.00036959868629906,-0.00036959905999444,0.00036959857712706,-0.00043712875735869,0.000437128745552,-0.00043712884324403,0.00043712865836478,-0.00043712859350196,0.00043712889525341,-0.00043712870068214,0.00043712880977846,-0.00039103443942236,0.00039103490894934,-0.00039103470487167,0.0003910346290215,-0.00039103460256891,0.0003910347514193,-0.000391034832843,0.00039103448837611,-0.00024982283625354,0.00024982364631389,1.2622196538795e-10,-3.0569361763747e-10,-4.5171076120219e-09,4.3382871286885e-09,-0.00045620968530608,0.00045620950550844,-0.00044789300581628,0.00044790165943988,-0.00045121323336487,0.00045121053992499,-0.0004512136592935,0.00045121013541782,-0.00045213107839513,0.00045212811249305,-0.00045212816882268,0.00045213106847879,-0.00045213122654524,0.00045212797430611,-0.00045212832604356,0.00045213092532728,-0.00044790179993295,0.00044789279957741,-0.000447893160304,0.00044790151205539,-0.00045121030388407,0.00045121348862677,-0.00045121074567477,0.00045121306639637,-0.00044790166080824,0.00044789293340082,-6.6345899389216e-10,-4.5787200707816e-10,-0.00035928813798044,0.0003592870068039,3.7831134523683e-09,-5.0072891684084e-09,-0.00032711195036139,0.00032710193295349,-0.00031134767689257,0.00031133787967338,-0.00031134772026464,0.0003113378322167,-0.00032710301967829,0.0003271108466392,-0.00032710327580552,0.00032711060466431,-0.00031133899652752,0.00031134654398671,-0.00031133909133161,0.00031134646190663,-0.00040427933116518,0.00040428108035636,-0.00040428225128942,0.00040427815662605,-0.00040427925984521,0.00040428115068581,-0.00040428219254544,0.00040427821729141,-0.00039108203571384,0.00039107816041025,-0.00039108221478378,0.00039107797066599,-0.00039107929075326,0.00039108090227561,-0.00039107907295335,0.00039108111709463,-0.0003271118049988,0.00032710208857884,0.75193872216252,128566,2924,0.0016301260175402,0.0018990433953539,0.0014959554373503,17.988647653646,-9.6090818770832e-05,-9.6090818770832e-05,-9.6090818770832e-05,2188092.1372876,0.005037854569021
19791759,0.30440426251518,0.0055004243567802,0.0018199546482051,0.0019579645817133,0.0017225051268618,-0.00040348862954016,0.00040348866501597,1.5405037807258e-10,-1.1870708703586e-10,-1.7592145930841e-10,2.0143606197246e-10,-0.00025585567740508,0.00025585574291881,-0.00038105129932937,0.00038105180449933,-0.00038105142632507,0.00038105171117228,-0.00025585578779286,0.00025585565099543,-0.00025585595164142,0.00025585540010059,-0.00038105171099653,0.00038105143557847,-0.00038105174643974,0.00038105132217674,-0.00045084465427683,0.00045084465861122,-0.00045084474286839,0.00045084456802805,-0.00045084451553512,0.00045084478269601,-0.00045084462534343,0.00045084469486387,-0.00040310145167091,0.00040310189111887,-0.00040310172422563,0.00040310160389599,-0.00040310158892994,0.00040310175987766,-0.00040310182730721,0.00040310148741183,-0.00025585533976768,0.00025585606872151,8.4204363232151e-11,-2.7115448390194e-10,-4.6959203029464e-09,4.5095825991412e-09,-0.00047109518078129,0.00047109499368697,-0.00046252934734367,0.0004625383107182,-0.00046579225574808,0.00046578936348145,-0.00046579260806432,0.00046578903477637,-0.00046674506018931,0.00046674194658952,-0.00046674203663094,0.00046674501972523,-0.00046674518385343,0.00046674183383981,-0.00046674216883839,0.00046674490254385,-0.00046253845691869,0.00046252913006406,-0.00046252947616915,0.00046253818962872,-0.00046578921143187,0.00046579242842947,-0.00046578957811119,0.00046579208343263,-0.00046253834202691,0.00046252923915959,-7.2388039078777e-10,-5.0811340494658e-10,-0.00036969721822748,0.00036969597580539,3.8991485078403e-09,-5.2384269198161e-09,-0.00033650489945344,0.00033649441490578,-0.00032003497701664,0.00032002472835554,-0.00032003502408283,0.00032002467683447,-0.00033649561543388,0.0003365036804629,-0.00033649588003486,0.00033650343133123,-0.0003200259550427,0.00032003373219932,-0.00032002605308871,0.00032003364779442,-0.00041644001936857,0.00041644177098408,-0.00041644305526879,0.00041643873147882,-0.00041643994480126,0.00041644184425591,-0.00041644299290052,0.00041643879570871,-0.00040304966672779,0.00040304557531404,-0.00040304985639132,0.00040304537515586,-0.0004030468154532,0.00040304842367863,-0.00040304658794128,0.00040304864752545,-0.00033650474269643,0.00033649458253923,0.73294777098889,128566,2924,0.0016798716196428,0.0019609444335989,0.0015392646642962,18.51154802481,-9.1907615801517e-05,-9.1907615801517e-05,-9.1907615801517e-05,2240218.3013428,0.0051936082673823
19991759,0.312668663777,0.0056500284042618,0.001869135953848,0.0020142390607162,0.0017666533896976,-0.00041508272841441,0.00041508269912829,1.2642266031568e-10,-1.5518905663232e-10,-4.1911011588541e-11,-8.8541978926851e-13,-0.00026172007068929,0.00026171972853047,-0.00039231553588506,0.00039231564499172,-0.00039231566478191,0.00039231554806524,-0.00026171983869089,0.000261719978224,-0.00026172001501528,0.00026171972183095,-0.00039231561662622,0.00039231560823438,-0.00039231565673859,0.00039231549317243,-0.00046413690522672,0.00046413695961553,-0.00046413699824202,0.00046413686732848,-0.00046413687699017,0.00046413697235243,-0.00046413698980935,0.00046413688175143,-0.00041487598003539,0.00041487625254348,-0.00041487626223397,0.00041487595808886,-0.00041487600436247,0.00041487623231514,-0.00041487625520425,0.0004148759544648,-0.00026171972537481,0.00026172006374794,-6.6728178852881e-11,-8.4748265498663e-11,-4.1868237604963e-09,4.0336919696409e-09,-0.00048563838011593,0.0004856382262497,-0.00047689631175617,0.0004769042295424,-0.0004800130638735,0.00048001020066607,-0.00048001308768523,0.00048001020779579,-0.00048101196394895,0.00048100909600339,-0.00048100925918189,0.00048101183975201,-0.00048101197839268,0.00048100909597839,-0.00048100928197134,0.00048101183549215,-0.00047690435334292,0.00047689613758233,-0.0004768963292131,0.0004769042215199,-0.00048001034449168,0.00048001293682025,-0.00048001038211756,0.00048001292826405,-0.00047690434929741,0.00047689613428015,-6.5889094669736e-10,-4.3364631817471e-10,-0.00037969123041949,0.00037969012899055,3.4846158072729e-09,-4.6737124918108e-09,-0.00034568162411759,0.00034567224197876,-0.00032844971462921,0.00032844058054265,-0.00032844976483124,0.00032844052558634,-0.00034567329892524,0.00034568054790676,-0.00034567357257647,0.00034568029129327,-0.00032844165638792,0.00032844861932415,-0.00032844175806712,0.00032844853271062,-0.00042813153903694,0.00042813310131413,-0.00042813424989615,0.00042813038697008,-0.0004281314611126,0.00042813317727235,-0.00042813418412277,0.00042813045431157,-0.00041468698247645,0.00041468336549984,-0.00041468718262041,0.00041468315667278,-0.00041468446782988,0.00041468587897566,-0.00041468423048161,0.0004146861109124,-0.00034568145659225,0.00034567241900617,0.74869675956768,128566,2924,0.001728105228124,0.0020214181099765,0.0015808460355963,18.674326745296,-9.0605386037631e-05,-9.0605386037631e-05,-9.0605386037631e-05,2284353.2899855,0.0053446933298498
20191759,0.32091707321133,0.005802685770471,0.0019192541626888,0.0020718201459542,0.0018116114618279,-0.00042645280030558,0.00042645269832071,9.7483806598389e-11,-1.9820685988707e-10,8.7334927874961e-11,-2.0667078477586e-10,-0.00026727998620231,0.0002672792148867,-0.0004035395123484,0.00040353922361453,-0.00040353964818106,0.00040353911772851,-0.00026727940616234,0.00026727980930234,-0.00026727959365832,0.00026727955442159,-0.00040353926576566,0.0004035395133072,-0.00040353931069158,0.00040353940002902,-0.00047716677801801,0.00047716687467498,-0.00047716687687861,0.00047716678090987,-0.0004771668588761,0.00047716677788466,-0.00047716697756658,0.0004771666817934,-0.00042653611806199,0.00042653622439609,-0.00042653641910141,0.00042653591521092,-0.00042653603283703,0.00042653631120494,-0.00042653629980294,0.00042653602808028,-0.00026727961725833,0.0002672795748571,-2.125483467939e-10,1.0760673939386e-10,-3.4601365628796e-09,3.3511475977412e-09,-0.00050003556067398,0.00050003545104845,-0.00049122993367388,0.00049123640402066,-0.00049408222635865,0.00049407953965869,-0.00049408191780305,0.00049407988692277,-0.00049505952741529,0.00049505705471981,-0.00049505727788334,0.00049505932768129,-0.00049505943115755,0.00049505716888039,-0.00049505719202098,0.00049505943563041,-0.00049123649633779,0.00049122982270979,-0.00049122984313144,0.00049123650599951,-0.00049407996760327,0.0004940818077789,-0.00049407967872946,0.00049408213348435,-0.00049123660653799,0.00049122970303366,-5.3618621603246e-10,-3.0663408175712e-10,-0.00038942542731966,0.00038942457820913,2.9195840844056e-09,-3.8419139583542e-09,-0.0003547655192271,0.0003547577810591,-0.00033669931361422,0.00033669181516514,-0.00033669936199473,0.00033669176178666,-0.00035475857328204,0.00035476470940672,-0.00035475885954459,0.00035476444085038,-0.00033669262702925,0.00033669848140277,-0.0003366927339301,0.00033669839114016,-0.00043953301894387,0.00043953436334495,-0.00043953526487301,0.00043953211421299,-0.00043953293825732,0.00043953444145753,-0.00043953519846032,0.00043953218187821,-0.00042619216857343,0.00042618926681927,-0.00042619237106682,0.00042618905804206,-0.00042619012503596,0.00042619131079342,-0.00042618987940877,0.00042619154907921,-0.00035476535768491,0.00035475795329881,0.76566000885598,128566,2924,0.0017754053439026,0.0020812808303732,0.0016213454047359,18.643349170109,-9.0853206639131e-05,-9.0853206639131e-05,-9.0853206639131e-05,2320241.1664475,0.0054931596126452
20391759,0.32914430892571,0.0059560656925449,0.001969553516768,0.0021298700799021,0.0018566420958748,-0.00043783170008647,0.00043783154515607,7.4877228897643e-11,-2.2795800458355e-10,1.59975326393e-10,-3.3508016628093e-10,-0.00027263838891626,0.00027263735937773,-0.00041481503819225,0.00041481449775898,-0.00041481517461088,0.00041481438939793,-0.00027263759984159,0.00027263815817076,-0.00027263780370587,0.00027263790024104,-0.00041481459230179,0.0004148149859763,-0.00041481464392931,0.00041481487261991,-0.00049022156197273,0.00049022167554389,-0.00049022166602495,0.00049022158107639,-0.00049022170953927,0.00049022151237377,-0.0004902218306808,0.00049022141437333,-0.00043825304861288,0.00043825304176549,-0.00043825335715448,0.00043825272901967,-0.00043825289362154,0.00043825319547497,-0.00043825317410248,0.00043825290890928,-0.00027263801637235,0.00027263772335318,-2.9512388828544e-10,2.2604474460586e-10,-2.8402526163204e-09,2.7651225091113e-09,-0.00051454053960096,0.00051454046406332,-0.00050572387734639,0.00050572913000543,-0.00050825506649087,0.00050825261880168,-0.0005082545645,0.00050825316539285,-0.00050915864670426,0.000509156539079,-0.00050915678837713,0.00050915840750677,-0.00050915848548405,0.00050915672017408,-0.0005091566365542,0.00050915858318587,-0.00050572920514122,0.00050572381341047,-0.00050572371905454,0.00050572930096972,-0.00050825320605529,0.00050825448197278,-0.00050825272012914,0.00050825501059556,-0.00050572937995125,0.00050572362810799,-4.2088665548181e-10,-1.8009557121128e-10,-0.00039913343087759,0.00039913282626625,2.4495446331627e-09,-3.1133845777897e-09,-0.00036383006327641,0.00036382374561726,-0.00034490391363289,0.00034489785442273,-0.00034490396662283,0.00034489779637196,-0.00036382429092891,0.00036382949749088,-0.00036382458629954,0.00036382922268514,-0.00034489840718317,0.00034490333885017,-0.00034489851758196,0.00034490324667547,-0.00045093138121524,0.00045093256492917,-0.00045093322935245,0.00045093071393188,-0.00045093129708734,0.00045093264601007,-0.00045093315881608,0.00045093078542182,-0.0004377500070291,0.00043774775817467,-0.00043775022248507,0.00043774753772968,-0.00043774837546133,0.00043774939150331,-0.00043774811948166,0.00043774963886075,-0.00036382988517113,0.00036382393088007,0.77157339556688,128566,2924,0.001822740673629,0.0021415879883441,0.0016617344767506,18.607210204044,-9.1142318367651e-05,-9.1142318367651e-05,-9.1142318367651e-05,2354319.2346304,0.0056420191877869
20591759,0.33734810958833,0.0060961026442091,0.0020156075137266,0.0021830871464388,0.0018974079840437,-0.00044849553775407,0.00044849534878054,6.189412460345e-11,-2.4872004259696e-10,1.962125320036e-10,-4.0705546279385e-10,-0.00027678379427572,0.00027678261688532,-0.00042470489210665,0.00042470421137535,-0.00042470502976986,0.0004247041006725,-0.00027678288744254,0.00027678352816651,-0.00027678310649267,0.00027678326635036,-0.00042470433775704,0.00042470480595583,-0.00042470439555182,0.00042470469198289,-0.00050281922633089,0.00050281934481545,-0.00050281933502323,0.00050281924917869,-0.00050281940989822,0.0005028191460018,-0.00050281953361891,0.00050281904578369,-0.00044888975892948,0.00044888968933667,-0.00044889007597994,0.00044888937146694,-0.00044888956612474,0.00044888987901806,-0.00044888985898292,0.00044888958792457,-0.0002767834160584,0.00027678298689498,-3.3734559305899e-10,2.9135207115892e-10,-2.3267353621554e-09,2.2734426799161e-09,-0.00052832885706849,0.00052832880371648,-0.00051913007039649,0.00051913432181709,-0.00052164878365669,0.00052164658690943,-0.00052164817803839,0.00052164724046137,-0.00052272556474002,0.0005227237760795,-0.00052272403379536,0.00052272530729765,-0.00052272536891624,0.00052272399289626,-0.00052272384683283,0.00052272551935349,-0.00051913438867294,0.00051913003933519,-0.00051912987599611,0.00051913452990533,-0.00052164725463541,0.00052164811300262,-0.00052164666350318,0.00052164875013338,-0.00051913459780039,0.00051912981878711,-3.2253778474357e-10,-7.113155206447e-11,-0.00040813274399635,0.00040813234885476,2.0605544715282e-09,-2.5032206759994e-09,-0.00037142169928134,0.00037141657080472,-0.00035186393689554,0.00035185908339578,-0.0003518639941023,0.00035185902119989,-0.00037141690367418,0.0003714213431072,-0.00037141720755714,0.00037142106094765,-0.00035185941347382,0.00035186358277034,-0.00035185952717387,0.0003518634883171,-0.00046187012543373,0.00046187118003613,-0.00046187164168052,0.00046186966096689,-0.00046187003804653,0.00046187126426545,-0.00046187156737742,0.00046186973617915,-0.00044826281889335,0.00044826112138915,-0.00044826304588467,0.00044826089009933,-0.00044826153206149,0.00044826241079215,-0.0004482612661684,0.00044826266731006,-0.00037142150807639,0.00037141676842762,0.70761958528615,128566,2924,0.0018671001201146,0.0021989119170473,0.0016991740852085,18.570859712593,-9.1433122299253e-05,-9.1433122299253e-05,-9.1433122299253e-05,2403456.1187432,0.0057819438217137
20791759,0.34511924153583,0.0062361236898058,0.0020615755145928,0.0022363260829212,0.0019382220922918,-0.00045775562681511,0.00045775534734876,2.5819788782e-11,-3.024599186674e-10,3.4414173019167e-10,-6.4993690834417e-10,-0.00028069802571149,0.00028069633341188,-0.000433661533719,0.00043366038617284,-0.00043366168200606,0.00043366026142343,-0.00028069671193508,0.00028069764794263,-0.00028069693842242,0.00028069739772647,-0.00043366059995999,0.00043366135805603,-0.00043366066194652,0.00043366125077548,-0.00051367273333214,0.00051367289499322,-0.00051367284861974,0.00051367279849214,-0.00051367304323992,0.00051367256947619,-0.00051367317480219,0.00051367246136362,-0.00045830057286686,0.00045830030702101,-0.00045830091507554,0.00045829996683832,-0.00045830025490862,0.00045830061865085,-0.00045830056502868,0.00045830032329137,-0.00028069760818422,0.00028069674438284,-5.0060389954156e-10,5.2225247195724e-10,-1.2682680107534e-09,1.280215331771e-09,-0.00054040224458302,0.00054040225599918,-0.00053100411218797,0.00053100629309117,-0.0005333378486337,0.00053333600389449,-0.00053333685189193,0.00053333705538707,-0.0005346048543626,0.0005346036738377,-0.00053460398665118,0.00053460451979986,-0.00053460452892453,0.00053460402478928,-0.00053460367455756,0.00053460486214915,-0.0005310063085586,0.00053100417548335,-0.00053100379511223,0.00053100662588928,-0.00053333698751909,0.00053333684969314,-0.00053333601841407,0.00053333787295693,-0.00053100665447022,0.00053100381689669,-1.1105122597432e-10,1.4097399789996e-10,-0.00041578181320786,0.00041578184517175,1.2711436257928e-09,-1.2649677571484e-09,-0.00037822665337402,0.0003782239855608,-0.0003580208053084,0.00035801838342189,-0.00035802085731699,0.00035801832777374,-0.00037822387101057,0.00037822675617004,-0.00037822419231064,0.00037822645415636,-0.00035801827302615,0.00035802089543169,-0.00035801839452101,0.00035802079505097,-0.00047112494201901,0.00047112574161078,-0.00047112578245833,0.000471124898675,-0.00047112485234349,0.00047112582827144,-0.0004711257100608,0.00047112497236503,-0.00045747510336129,0.00045747449881835,-0.00045747532602764,0.00045747427532158,-0.0004574744950631,0.00045747511142039,-0.00045747422077034,0.00045747537406802,-0.0003782264877298,0.00037822416673074,0.74689073527258,128566,2924,0.0019056190897082,0.0022491029916933,0.0017309961441454,17.866374034191,-9.7069007726475e-05,-9.7069007726475e-05,-9.7069007726475e-05,2433801.2760151,0.0059031847820323
20991759,0.35236471085255,0.0063620712521595,0.0021029793227918,0.0022843103499712,0.0019747815793965,-0.00046563438866129,0.00046563404597992,1.7519592736997e-11,-3.5672933402401e-10,4.2987772260418e-10,-8.0197615354666e-10,-0.00028305484819221,0.00028305274726392,-0.00044102161836682,0.00044102020831578,-0.00044102180241588,0.00044102004602934,-0.00028305324971417,0.00028305434007815,-0.00028305347010408,0.00028305411610078,-0.00044102047100711,0.00044102139274868,-0.00044102053275848,0.00044102129650092,-0.00052317639624646,0.00052317658183002,-0.00052317652280057,0.00052317647988962,-0.00052317677771564,0.00052317618579121,-0.00052317693193129,0.00052317605502756,-0.00046624467197461,0.00046624433069739,-0.00046624508034524,0.00046624392712377,-0.00046624429367538,0.00046624469960731,-0.00046624463337433,0.00046624438543387,-0.00028305432557609,0.0002830532642518,-6.0661761874815e-10,6.8258592488031e-10,-3.6097411384155e-10,4.2479988800796e-10,-0.00055100141566972,0.00055100147918904,-0.00054132144074265,0.00054132187556728,-0.0005435515876878,0.00054355009847552,-0.00054355031297472,0.00054355143638902,-0.00054502262682957,0.00054502198471422,-0.00054502232433675,0.00054502224664918,-0.00054502220764011,0.00054502243120765,-0.00054502193289677,0.00054502267099021,-0.0005413218400366,0.00054132159704065,-0.0005413210558071,0.00054132227723309,-0.00054355128663385,0.00054355037449056,-0.00054355007854424,0.00054355164521783,-0.00054132229374863,0.00054132112828039,9.2204760631525e-11,3.1657844129924e-10,-0.00042214793219875,0.00042214834674473,6.1496872499247e-10,-2.0622161383045e-10,-0.00038347779777724,0.00038347730284571,-0.00036273273628999,0.00036273236872297,-0.00036273275797009,0.00036273234333237,-0.00038347673627537,0.00038347834732423,-0.00038347709379997,0.00038347801455062,-0.00036273187070435,0.00036273321390386,-0.00036273200475586,0.00036273310347101,-0.00047913030423703,0.00047913091293126,-0.00047913056762508,0.00047913064773263,-0.00047913021625062,0.00047913099695261,-0.00047913051144973,0.0004791307043443,-0.00046524688506935,0.00046524718285989,-0.0004652470602965,0.00046524700630418,-0.00046524682334748,0.00046524724848233,-0.00046524655499423,0.0004652475055552,-0.00038347771623488,0.00038347739221916,0.72120224794443,128566,2924,0.0019383923663149,0.0022931633001949,0.0017574808715163,16.959060576678,-0.00010432751538658,-0.00010432751538658,-0.00010432751538658,2460316.9846515,0.0060071241275924
21191759,0.35911402248168,0.0064797893242124,0.0021416829476307,0.0023291864957604,0.0020089198808214,-0.00047287116255397,0.00047287078947076,-4.6483659294352e-12,-3.6465923409453e-10,4.4020388627933e-10,-8.4421066142908e-10,-0.00028537216794945,0.0002853700323244,-0.00044783046966342,0.00044782896020534,-0.00044783063676354,0.00044782881185316,-0.00028537052650636,0.00028537165996823,-0.00028537077673071,0.00028537142198284,-0.00044782925742228,0.00044783020533118,-0.00044782932988389,0.0004478301058466,-0.00053188214304372,0.00053188231652921,-0.00053188227247372,0.00053188221659564,-0.0005318825465049,0.00053188189963141,-0.00053188269316465,0.0005318817765302,-0.00047354852038965,0.00047354810373663,-0.0004735489037017,0.00047354773015048,-0.00047354810828626,0.0004735485028302,-0.00047354845452334,0.00047354819306758,-0.00028537169582377,0.00028537050031746,-6.1263383960379e-10,7.1241753098639e-10,1.9553451926054e-10,-1.0941258719704e-10,-0.00056072524961267,0.0005607253360622,-0.00055077666452598,0.00055077602429418,-0.00055290190637674,0.00055290078311617,-0.00055290061366559,0.00055290214267837,-0.00055460953729914,0.00055460927082827,-0.00055460959410393,0.00055460916212021,-0.00055460911093576,0.00055460972561203,-0.00055460918585767,0.00055460960319088,-0.00055077599769947,0.0005507768434688,-0.00055077625305269,0.0005507764531737,-0.00055290198012479,0.00055290067959285,-0.00055290072090595,0.00055290200190567,-0.00055077644754746,0.00055077637698852,2.1902727119567e-10,4.7591365184293e-10,-0.00042795420040841,0.00042795490395811,2.1418429583792e-10,4.9871139852988e-10,-0.00038828340913459,0.00038828423652731,-0.00036707472488782,0.00036707576860991,-0.00036707476812899,0.00036707572017324,-0.00038828340814264,0.0003882842135106,-0.00038828376320903,0.00038828388781286,-0.000367074956039,0.00036707551194445,-0.00036707508956644,0.00036707540257856,-0.00048642212435949,0.00048642264385851,-0.00048642202383199,0.00048642274219977,-0.00048642203041749,0.00048642273366454,-0.00048642195383918,0.00048642281306182,-0.00047237757875632,0.00047237857514624,-0.00047237779868459,0.00047237835466131,-0.0004723779190071,0.00047237824064423,-0.00047237763131287,0.0004723785149178,-0.00038828325868774,0.00038828439355356,0.72387547212911,128566,2924,0.0019684944992239,0.0023335828669053,0.0017816358430783,16.046231974518,-0.00011163014420385,-0.00011163014420385,-0.00011163014420385,2483091.9008812,0.0061023792529354
21391759,0.36549267040252,0.0065914805261896,0.0021784039107729,0.0023717944298646,0.002041282185552,-0.00047998521558522,0.00047998487820121,2.952343366025e-11,-3.6336574537443e-10,3.1547539666377e-10,-6.8183123247976e-10,-0.00028775151950967,0.00028774962763996,-0.00045458389665064,0.00045458273192182,-0.00045458408827332,0.00045458255893622,-0.00028775012509476,0.00028775099808737,-0.00028775036686252,0.00028775077641349,-0.00045458297776344,0.00045458367677014,-0.00045458304815169,0.00045458358121925,-0.00054038623891836,0.00054038635938229,-0.00054038637536716,0.00054038625352313,-0.00054038654388217,0.00054038604285958,-0.00054038670674216,0.00054038590419366,-0.00048076025630065,0.00048076001720117,-0.0004807606871374,0.00048075959772524,-0.00048075995341927,0.00048076030647807,-0.00048076031832376,0.00048075997965737,-0.0002877509720386,0.00028775017039999,-4.8834062561733e-10,5.608481992372e-10,1.2988121489451e-10,-7.0355177844669e-11,-0.00057022966760253,0.00057022972905388,-0.00056004926126865,0.00056004880031811,-0.00056204125518709,0.0005620403271802,-0.00056204021778525,0.00056204142900968,-0.00056395833884686,0.00056395810133738,-0.00056395835777102,0.00056395803148529,-0.00056395799642208,0.00056395846894236,-0.00056395804308626,0.00056395837526409,-0.00056004879284738,0.00056004942969663,-0.00056004895446716,0.00056004912368881,-0.00056204127925911,0.0005620402725379,-0.00056204030546844,0.00056204130684634,-0.00056004916536666,0.00056004904149713,2.5430169858088e-10,4.9675218167489e-10,-0.00043369364952043,0.00043369441022657,3.1618019328391e-10,4.5710453047808e-10,-0.00039308378638549,0.00039308458729858,-0.00037143757950796,0.00037143852287278,-0.00037143760249159,0.00037143849462979,-0.00039308365112001,0.00039308468573558,-0.00039308403682055,0.00039308433118929,-0.00037143764968813,0.00037143841847969,-0.0003714377933016,0.00037143829991368,-0.00049357208214083,0.00049357270541546,-0.00049357202415029,0.0004935727609676,-0.00049357198864871,0.0004935727948516,-0.0004935719640198,0.00049357282186961,-0.00047943321902665,0.00047943419554965,-0.00047943340998539,0.00047943400226094,-0.00047943349804293,0.00047943392200915,-0.00047943321104736,0.00047943419628716,-0.00039308369103973,0.00039308468715737,0.72692810839402,128566,2924,0.0019980855604368,0.0023730887136514,0.001805511772169,15.323940924742,-0.00011740847260206,-0.00011740847260206,-0.00011740847260206,2503967.5685761,0.0061959287383191
21591759,0.371546449948,0.0066983931305289,0.0022135411315529,0.0024126168024789,0.002072235196497,-0.0004868132643133,0.00048681297868877,4.5308344677348e-11,-3.2815592828959e-10,1.758439979248e-10,-4.8723314665594e-10,-0.00029005105353685,0.00029004961881938,-0.00046113378839003,0.0004611329829846,-0.00046113395618621,0.00046113283411469,-0.00029005000738502,0.00029005063973887,-0.00029005028711799,0.00029005037843158,-0.0004611331789287,0.0004611336140576,-0.00046113326162406,0.00046113350689852,-0.00054852809730427,0.00054852815923118,-0.00054852823373616,0.00054852805250376,-0.00054852829948008,0.00054852794734331,-0.00054852844983477,0.00054852782015222,-0.00048772573660611,0.00048772562001813,-0.00048772612742221,0.00048772523821244,-0.00048772552464761,0.0004877258185434,-0.00048772588843136,0.00048772548828287,-0.00029005058219828,0.00029005008809324,-3.3798782440985e-10,3.647769366091e-10,-2.430821990645e-10,2.5959687831709e-10,-0.00057936094248011,0.00057936096091344,-0.00056899570590962,0.00056899598662851,-0.00057081505659668,0.00057081421298343,-0.00057081437847745,0.00057081494930963,-0.00057291719758765,0.00057291680781409,-0.00057291699521867,0.00057291696473269,-0.00057291697371366,0.00057291705311796,-0.00057291678692129,0.00057291720050316,-0.00056899603723069,0.00056899580577687,-0.00056899549248084,0.00056899621372785,-0.00057081487066811,0.00057081437296869,-0.00057081421240118,0.00057081508216673,-0.00056899627513147,0.00056899555427382,2.0672241608433e-10,4.8690870924926e-10,-0.00043919383147526,0.00043919453405165,6.1750760623241e-10,9.3632978344247e-11,-0.00039771034009956,0.00039771033472935,-0.0003756582627094,0.00037565852163905,-0.00037565831619463,0.00037565846241914,-0.00039770951420767,0.00039771112135299,-0.00039770988007636,0.00039771079020544,-0.00037565769702822,0.00037565905421414,-0.00037565783443851,0.00037565894062529,-0.00050041336311306,0.00050041414398667,-0.00050041353167781,0.00050041397229204,-0.00050041326434375,0.00050041423972467,-0.00050041345363418,0.0005004140518709,-0.00048623831073205,0.0004862390652016,-0.00048623855618458,0.00048623881484231,-0.00048623840426516,0.00048623897502136,-0.00048623810011717,0.00048623926777696,-0.00039771015252916,0.00039771052776448,0.73328393316866,128566,2924,0.0020264865457296,0.0024110419403121,0.0018283916995325,14.658664745304,-0.00012273068203757,-0.00012273068203757,-0.00012273068203757,2521963.0952311,0.0062857243715917
21791759,0.37729142526948,0.0067984109627194,0.0022464295550258,0.0024508556284466,0.002101125779247,-0.00049314501262193,0.00049314477379911,7.5254726093304e-11,-3.1180797176726e-10,6.3693784345668e-11,-3.2557916795638e-10,-0.00029196767699974,0.00029196653675127,-0.00046713564744568,0.00046713516882151,-0.00046713582418486,0.0004671350126612,-0.00029196689057137,0.00029196730087765,-0.00029196716736292,0.00029196703773317,-0.00046713531163643,0.00046713552654466,-0.0004671353934345,0.00046713541731321,-0.00055614641339638,0.00055614643458824,-0.00055614655201459,0.00055614632338017,-0.00055614652467518,0.00055614631485402,-0.00055614668097189,0.00055614618199241,-0.00049416821692548,0.00049416825497642,-0.00049416862495548,0.0004941678536526,-0.00049416810174074,0.00049416835910588,-0.00049416847038495,0.00049416801650555,-0.0002919671798089,0.00029196703170217,-2.213259692318e-10,2.0649942534901e-10,-6.9410222827102e-10,6.7195164792664e-10,-0.00058790796854429,0.0005879079470232,-0.00057733905779289,0.00057734024397063,-0.00057900982658364,0.00057900892216706,-0.0005790094106766,0.00057900938960454,-0.00058130690795292,0.0005813062827906,-0.00058130642547893,0.0005813067302902,-0.00058130677137657,0.00058130643793915,-0.00058130630692871,0.00058130687197422,-0.00057734031880455,0.00057733911602736,-0.00057733894060486,0.00057734037523516,-0.00057900935008853,0.0005790093742603,-0.0005790089660875,0.0005790098041115,-0.00057734047037686,0.0005773389513317,1.4699052097464e-10,4.3202332811072e-10,-0.00044425054432258,0.00044425113065672,9.8637642661392e-10,-3.9866711195111e-10,-0.00040182341741659,0.00040182244806298,-0.00037942545302454,0.00037942474051126,-0.00037942550376891,0.00037942468386547,-0.00040182174097573,0.00040182409610347,-0.00040182212112438,0.00040182374609001,-0.00037942403771121,0.00037942612627029,-0.00037942418055321,0.0003794260073404,-0.00050678853889445,0.00050678948868766,-0.00050678899240106,0.00050678903206638,-0.00050678843757145,0.00050678958719584,-0.0005067889142958,0.00050678911213808,-0.00049253145723837,0.0004925318117809,-0.00049253170208634,0.00049253156044972,-0.00049253126822332,0.00049253200354775,-0.00049253095560958,0.00049253230511858,-0.00040182323791926,0.00040182263850811,0.7231890273566,128566,2924,0.0020528230150925,0.0024465653561001,0.0018494265255692,13.994939842904,-0.00012804048125677,-0.00012804048125677,-0.00012804048125677,2539418.2889847,0.0063691484792037
21991759,0.38308651129854,0.0068977509748207,0.0022791170667345,0.0024888738538186,0.0021297600542676,-0.00050092488713907,0.0005009247618873,1.4119607504212e-10,-2.6526201988326e-10,-1.7932898076979e-10,3.7133350616334e-11,-0.00029524438918917,0.00029524392395063,-0.00047452991345701,0.00047453016260938,-0.00047453010461457,0.00047452999470873,-0.00029524418561887,0.00029524410974649,-0.0002952444519655,0.00029524383856403,-0.00047453018091993,0.00047452991663191,-0.00047453025743482,0.0004745298022148,-0.00056525500991254,0.00056525494811127,-0.00056525514946494,0.00056525482932823,-0.00056525492030566,0.00056525503061302,-0.00056525508498445,0.00056525488884301,-0.00050205194755916,0.00050205232392771,-0.00050205237864064,0.00050205189409016,-0.00050205204118871,0.00050205222166334,-0.00050205241516839,0.00050205185892943,-0.00029524385201813,0.00029524445962772,3.1018002980124e-11,-1.4352211429204e-10,-1.9947741012264e-09,1.8793195924588e-09,-0.00059795201540371,0.00059795190070327,-0.00058713415359926,0.00058713791316504,-0.00058869097660013,0.00058868973276599,-0.00058869114203661,0.00058868960707972,-0.000591202688117,0.00059120134144986,-0.00059120139044151,0.00059120262965897,-0.00059120274469731,0.00059120129749415,-0.0005912014695534,0.00059120256842964,-0.00058713805161363,0.00058713410015937,-0.00058713424100605,0.000587137836473,-0.00058868966884602,0.00058869102906046,-0.00058868987844415,0.00058869085218143,-0.00058713801052606,0.0005871341311939,-7.1215024200072e-11,2.1279032323441e-10,-0.00045072135821304,0.0004507215032233,2.0098051645106e-09,-1.8869486764406e-09,-0.00040726620540491,0.00040726232673779,-0.00038454597104548,0.00038454232197036,-0.00038454601371806,0.00038454227239345,-0.0004072620484597,0.00040726645542758,-0.00040726244689704,0.00040726608539481,-0.00038454207573513,0.00038454618609934,-0.00038454222442771,0.00038454605927318,-0.00051462064308716,0.00051462199010432,-0.000514621928335,0.00051462070088315,-0.00051462054048787,0.00051462209115062,-0.00051462185325338,0.00051462077897699,-0.00050025631376291,0.00050025538805628,-0.00050025654902024,0.00050025514301643,-0.00050025528498785,0.00050025641837811,-0.00050025496796179,0.00050025672614934,-0.00040726605008436,0.00040726249726501,0.71247115521116,128566,2924,0.0020851806425653,0.002488309347342,0.0018763414349854,14.108716698015,-0.00012713026641588,-0.00012713026641588,-0.00012713026641588,2567937.1572219,0.0064708189076402
22191759,0.38903571762793,0.006998042081004,0.0023121390750319,0.0025273175554119,0.0021585854505601,-0.00050925083622697,0.00050925078729662,1.8015005056167e-10,-2.2875718386035e-10,-3.1656360987549e-10,2.5493502542467e-10,-0.00029893257805986,0.00029893255281337,-0.00048239360879883,0.00048239428479619,-0.0004823937988311,0.00048239412108481,-0.00029893272831706,0.00029893239374143,-0.00029893299892158,0.00029893209751464,-0.00048239422314958,0.00048239369346299,-0.00048239429928204,0.00048239356937806,-0.00057497439833384,0.00057497429756992,-0.00057497453705353,0.00057497417291119,-0.00057497419367214,0.00057497449581568,-0.00057497435779919,0.00057497435382657,-0.00051036901621191,0.00051036958217596,-0.00051036943985271,0.00051036915064089,-0.00051036922326365,0.00051036936839607,-0.00051036959699163,0.00051036899061493,-0.00029893205201348,0.00029893307916257,1.7311938490986e-10,-3.5915980535566e-10,-3.1913598649703e-09,3.0065760654591e-09,-0.00060859881534081,0.00060859863025164,-0.0005974696375445,0.00059747572274068,-0.00059894056167377,0.0005989388333894,-0.00059894108122648,0.00059893834440028,-0.00060173667266888,0.00060173460980278,-0.00060173462437006,0.00060173667505768,-0.00060173684643267,0.00060173444458971,-0.00060173481732339,0.00060173649542525,-0.00059747590834177,0.00059746948405447,-0.00059746983815989,0.00059747553114275,-0.00059893849503366,0.00059894090053505,-0.00059893904758712,0.0005989403721067,-0.000597475744047,0.00059746963992626,-2.9957049476354e-10,3.2409227383585e-13,-0.00045769370923055,0.00045769340874738,2.9252995690607e-09,-3.2723849112052e-09,-0.00041309068963052,0.00041308405389418,-0.00039008391234264,0.0003900775447511,-0.00039008396409732,0.00039007748551984,-0.00041308424682832,0.00041309047483922,-0.00041308464661844,0.00041309010173043,-0.00039007775837706,0.00039008367049794,-0.00039007790802133,0.00039008354244511,-0.00052301809451774,0.00052301976347213,-0.0005230201452298,0.00052301770827839,-0.00052301798824383,0.00052301986838536,-0.00052302006425456,0.00052301779294953,-0.00050842206155472,0.00050841994994313,-0.00050842231519718,0.00050841968295491,-0.00050842027832037,0.00050842173166799,-0.00050841995088049,0.00050842205166663,-0.00041309050752048,0.00041308425583255,0.70115780750342,128566,2924,0.0021198080766834,0.0025325565330311,0.0019053415190963,14.451305775469,-0.00012438955379625,-0.00012438955379625,-0.00012438955379625,2602656.1711018,0.006579403579497
22391759,0.39514315163924,0.0071050616216175,0.0023473201009713,0.0025683747616001,0.002189366759046,-0.00051801181569698,0.00051801178742939,1.9311452374121e-10,-2.2135636864135e-10,-3.3292513313042e-10,2.9308976473534e-10,-0.00030309899238836,0.00030309904431672,-0.00049093236386387,0.00049093311483564,-0.00049093255430963,0.00049093295234107,-0.00030309919573498,0.00030309884097796,-0.00030309947022854,0.0003030985235693,-0.00049093303102374,0.0004909324734664,-0.00049093310711256,0.00049093234093018,-0.0005850759850683,0.00058507588972431,-0.00058507612400606,0.00058507575964924,-0.00058507576294543,0.00058507610449307,-0.00058507592794311,0.00058507596101007,-0.00051920478375446,0.00051920539093334,-0.00051920520757168,0.00051920495346758,-0.00051920500769523,0.00051920516283157,-0.00051920538343966,0.00051920477134445,-0.00030309846968277,0.00030309956964367,1.8469814939244e-10,-4.0362147493512e-10,-3.9881356619578e-09,3.7720004925624e-09,-0.00061974908045097,0.00061974886357238,-0.00060841695585187,0.00060842455911902,-0.00060966173653026,0.00060965951539198,-0.00060966231253263,0.00060965896741521,-0.00061272536174056,0.0006127227715819,-0.0006127228082157,0.00061272535987719,-0.00061272555431046,0.00061272258674211,-0.00061272301836515,0.00061272516210154,-0.00060842475969489,0.00060841674999562,-0.00060841717251829,0.00060842435102514,-0.00060965915931989,0.00060966210305228,-0.00060965976388739,0.00060966152026372,-0.00060842457439882,0.00060841692762061,-4.6788838304445e-10,-1.5515785275469e-10,-0.00046503857358076,0.00046503794584795,3.5256855213093e-09,-4.2176222857144e-09,-0.00041948498512267,0.00041947646743298,-0.00039614790482547,0.00039613968212494,-0.00039614796249063,0.00039613961640668,-0.00041947700316462,0.00041948442999243,-0.00041947740795171,0.00041948405139541,-0.0003961402323373,0.00039614732681073,-0.0003961403840854,0.00039614719684874,-0.0005317436618383,0.00053174551902857,-0.00053174622694459,0.00053174294913196,-0.00053174355220954,0.00053174562718181,-0.00053174614118082,0.000531743038834,-0.00051709499158759,0.0005170920571016,-0.00051709525929203,0.00051709177439078,-0.0005170927041856,0.00051709434189634,-0.00051709236688455,0.0005170946722085,-0.00041948478380538,0.00041947669080304,0.72867975565822,128566,2924,0.0021562435707746,0.0025788938779201,0.0019358903323948,14.800125755838,-0.0001215989939533,-0.0001215989939533,-0.0001215989939533,2632697.6111196,0.0066934824539228
22591759,0.40141030506493,0.0072159865674674,0.0023837569811062,0.0026110162281707,0.0022212133581905,-0.00052702070183516,0.00052702066096535,1.9153131623947e-10,-2.322350153944e-10,-2.8872026402941e-10,2.3545819609021e-10,-0.00030711141273986,0.00030711134110487,-0.00049978497307907,0.00049978561368314,-0.00049978516704637,0.00049978544825899,-0.00030711150962752,0.00030711125134781,-0.0003071117864694,0.0003071109195193,-0.00049978554142401,0.00049978507400546,-0.00049978561733552,0.00049978493523132,-0.0005954893265201,0.00059548925560658,-0.00059548946686036,0.00059548912065225,-0.00059548913724741,0.00059548943592947,-0.00059548930515494,0.00059548928913776,-0.00052834880678945,0.00052834937699393,-0.00052834923828977,0.00052834892865276,-0.00052834899783744,0.00052834918331163,-0.00052834937928081,0.00052834877954406,-0.00030711088174409,0.00030711187766836,1.293968658381e-10,-3.5648105357204e-10,-4.4802310620164e-09,4.2559428369854e-09,-0.00063132119132052,0.00063132096616746,-0.00061985811499226,0.00061986663397628,-0.00062077598454805,0.00062077333012899,-0.0006207764603175,0.00062077288429297,-0.00062406010554354,0.00062405715121319,-0.00062405723499392,0.00062406006705701,-0.00062406026498785,0.00062405700065576,-0.00062405741207193,0.00062405990355517,-0.00061986683132253,0.00061985788954518,-0.00061985829809581,0.00061986645995231,-0.00062077308696959,0.00062077624510452,-0.00062077359188991,0.0006207757640548,-0.00061986667967433,0.00061985803329941,-5.8299020010184e-10,-2.6116625039775e-10,-0.00047256330974966,0.00047256245873049,3.8932957221826e-09,-4.8201445305532e-09,-0.00042604927892367,0.00042603956568395,-0.0004023297392149,0.00040232033281338,-0.00040232979918565,0.00040232026421723,-0.00042604032910708,0.00042604849622864,-0.0004260407434331,0.00042604810887787,-0.00040232111163617,0.00040232893161694,-0.00040232126699833,0.00040232879872062,-0.00054073135940673,0.00054073331629853,-0.00054073424701774,0.00054073042375128,-0.00054073124661983,0.00054073342727765,-0.00054073415825353,0.00054073051644163,-0.00052606826317221,0.00052606479336892,-0.00052606853957022,0.00052606450195993,-0.00052606566050285,0.00052606739368393,-0.00052606531397812,0.00052606773265781,-0.00042604906929574,0.00042603979816448,0.73620699025296,128566,2924,0.0021937095193383,0.0026269819496432,0.0019671868840047,15.149202097123,-0.00011880638322302,-0.00011880638322302,-0.00011880638322302,2659909.9668953,0.0068111273769749
22791759,0.40773563955777,0.0073289390185946,0.0024208311628181,0.0026545341983805,0.002253573657396,-0.00053576101844273,0.00053576091185313,1.4618176229898e-10,-2.5215395744322e-10,-1.4321591758732e-10,2.0769510520416e-11,-0.00031079589465424,0.00031079548433103,-0.00050843732064104,0.0005084375085903,-0.00050843748484719,0.00050843737210072,-0.00031079566306894,0.00031079573221934,-0.00031079597689482,0.00031079535909058,-0.00050843751526121,0.00050843734690843,-0.00050843760375788,0.0005084371949262,-0.00060563974978256,0.0006056397316261,-0.00060563988858503,0.00060563959765972,-0.00060563968536688,0.00060563978470115,-0.00060563983695851,0.00060563965321383,-0.00053725658562906,0.00053725692484548,-0.0005372569700924,0.00053725652226664,-0.00053725663554446,0.00053725687217,-0.00053725701422052,0.00053725647131517,-0.0003107954522743,0.00031079593763219,-2.439259611705e-11,-1.7067772441268e-10,-4.3721718396515e-09,4.1787684017879e-09,-0.00064267859295136,0.00064267839768989,-0.0006311331095864,0.00063114134544121,-0.00063164651639473,0.0006316436413676,-0.00063164668242428,0.00063164351191327,-0.00063516200617194,0.00063515903657388,-0.00063515920101517,0.00063516188265312,-0.0006351620635624,0.00063515899235632,-0.0006351592623959,0.00063516184162984,-0.00063114153173765,0.00063113289533297,-0.00063113315947019,0.00063114130572544,-0.00063164370271182,0.0006316464742929,-0.0006316438527276,0.00063164635219257,-0.00063114147044692,0.00063113294714864,-6.0393333966058e-10,-2.3825013918429e-10,-0.00047977641757241,0.00047977556813964,3.7808858067683e-09,-4.7061613906856e-09,-0.00043231118141647,0.00043230158774864,-0.00040820573677441,0.00040819659024229,-0.00040820583292399,0.00040819648512789,-0.00043230241607623,0.00043231033798811,-0.00043230281022985,0.00043230997442969,-0.0004081973571024,0.0004082049472039,-0.00040819750543904,0.00040820482087568,-0.00054942990297119,0.00054943177948141,-0.00054943272317838,0.00054942895441492,-0.00054942978306089,0.00054943189797979,-0.00054943261231232,0.00054942906932292,-0.00053478523112806,0.00053478190252955,-0.00053478557227471,0.00053478154834832,-0.00053478274576315,0.00053478438590992,-0.00053478237744028,0.00053478474526427,-0.00043231086484651,0.00043230192399921,0.74292714305361,128566,2924,0.002230058128377,0.0026741751871429,0.0019971872647306,15.287404987059,-0.00011770076010353,-0.00011770076010353,-0.00011770076010353,2683815.7937269,0.0069254547049564
22991759,0.41410514117358,0.007436744373,0.0024562943103325,0.0026961764686283,0.0022842735940391,-0.00054419477328297,0.00054419460846904,1.3473951242538e-10,-2.9801512638657e-10,-2.6161036930632e-11,-1.5812466525296e-10,-0.0003139120714368,0.00031391123373624,-0.00051647576689262,0.00051647562655496,-0.00051647595537169,0.00051647546522716,-0.00031391151290211,0.00031391180542516,-0.00031391181649831,0.00031391144510632,-0.00051647568340178,0.00051647574349201,-0.00051647576928314,0.00051647559404205,-0.00061560765468186,0.00061560768220364,-0.0006156078001412,0.00061560754319384,-0.00061560768179857,0.00061560764235882,-0.00061560784981304,0.00061560749572813,-0.00054570600019235,0.00054570623490515,-0.00054570643673701,0.00054570578400868,-0.0005457059685428,0.00054570626336314,-0.00054570636659656,0.0005457058489316,-0.00031391155291776,0.00031391176240036,-1.6321978960041e-10,2.4427301703877e-12,-4.0143055966901e-09,3.8522010322851e-09,-0.00065375499016907,0.00065375482746091,-0.00064196494634981,0.00064197245331298,-0.00064220664145296,0.00064220370079741,-0.00064220648549795,0.00064220390117426,-0.00064605783149671,0.00064605501180251,-0.00064605524307451,0.00064605763566491,-0.00064605778245289,0.00064605507703399,-0.00064605520786977,0.00064605769228638,-0.00064197260219573,0.00064196478694955,-0.0006419649106604,0.00064197250273634,-0.00064220403467261,0.00064220632248171,-0.00064220390115642,0.00064220649576308,-0.00064197266001754,0.00064196471812509,-5.5513103509298e-10,-2.053400625002e-10,-0.00048666363523869,0.00048666286882242,3.4996717671003e-09,-4.3358633770615e-09,-0.00043787044761758,0.00043786164161395,-0.00041348865929433,0.00041348022198806,-0.00041348873530842,0.00041348013768891,-0.0004378623344723,0.00043786973054995,-0.00043786275968173,0.00043786933576477,-0.00041348090252092,0.00041348794816416,-0.00041348106162657,0.00041348781390256,-0.00055793125134168,0.00055793299303204,-0.00055793385062547,0.00055793038944448,-0.00055793113070317,0.0005579331108811,-0.00055793374895477,0.00055793049391562,-0.00054305316463852,0.00054305010302023,-0.00054305347650955,0.00054304978031446,-0.00054305088205998,0.00054305238587347,-0.0005430505131914,0.00054305274440518,-0.00043787018933856,0.00043786191654344,0.70494323381079,128566,2924,0.0022651314785278,0.0027201984260618,0.0020258318976759,15.399220599421,-0.00011680623520463,-0.00011680623520463,-0.00011680623520463,2713838.6132064,0.0070359691138426
23191759,0.42051680952139,0.0075463893068153,0.0024923570033503,0.002738565281839,0.002315467021626,-0.00055277640635219,0.00055277619394426,1.153602308609e-10,-3.2562924480892e-10,5.1792423909354e-11,-2.8645176634517e-10,-0.00031752198445329,0.00031752088655496,-0.00052476533635525,0.00052476494563888,-0.00052476552690353,0.00052476478058218,-0.00031752121177483,0.00031752167046287,-0.00031752152850208,0.00031752130310176,-0.00052476504902564,0.00052476526570792,-0.00052476513954974,0.000524765114809,-0.00062564201253989,0.00062564206407992,-0.00062564216213107,0.00062564192337662,-0.0006256421075505,0.00062564195592507,-0.00062564227822985,0.00062564180677256,-0.00055429067268616,0.00055429079928888,-0.00055429111790127,0.00055429034331539,-0.00055429057085045,0.00055429089660617,-0.0005542909811617,0.00055429047658195,-0.00031752145908061,0.00031752142228951,-2.5325295994297e-10,1.1915269502578e-10,-3.6163428147976e-09,3.4793025023733e-09,-0.00066489107678006,0.00066489093934277,-0.00065284656088921,0.00065285326708669,-0.00065279131803568,0.00065278845614507,-0.00065279096296045,0.0006527888614613,-0.00065706722334073,0.00065706461457169,-0.00065706488442863,0.00065706698029393,-0.00065706710797484,0.0006570647486216,-0.00065706478195509,0.00065706710658549,-0.00065285340173446,0.00065284643465193,-0.00065284645662746,0.00065285338681723,-0.0006527889658846,0.00065279081901231,-0.00065278862981069,0.00065279120141483,-0.0006528535260164,0.00065284629780388,-4.9968685664793e-10,-1.3980240820225e-10,-0.00049366917167472,0.00049366852783849,3.1814695218336e-09,-3.8874134398956e-09,-0.00044363389652466,0.00044362596311997,-0.00041902560634416,0.00041901805591161,-0.00041902568617185,0.00041901796756028,-0.00044362653135365,0.00044363330209901,-0.0004436269662885,0.00044363290048347,-0.00041901860369846,0.00041902502575228,-0.0004190187668059,0.00041902488938855,-0.00056646949582362,0.00056647109970068,-0.00056647184036702,0.00056646875089022,-0.00056646937138579,0.00056647122069803,-0.00056647173515611,0.00056646885878159,-0.00055144912780374,0.00055144645250742,-0.00055144945053637,0.00055144611999082,-0.00055144711085102,0.00055144847042485,-0.00055144673156345,0.00055144883851293,-0.00044363362737329,0.00044362624866449,0.71242657992536,128566,2924,0.0023008184690009,0.0027664671691827,0.0020549675854047,15.51027098891,-0.00011591783208872,-0.00011591783208872,-0.00011591783208872,2744156.3371881,0.0071478549992632
23391759,0.42697518981988,0.0076572126201363,0.0025288096019543,0.0027814581339552,0.0023469448842267,-0.00056145770633511,0.00056145747063341,1.0825973074689e-10,-3.4149250964559e-10,7.0718039435968e-11,-3.3010609747061e-10,-0.00032102839635438,0.00032102720433855,-0.00053319227830936,0.00053319180408338,-0.00053319247106623,0.00053319163558744,-0.00032102755149376,0.00032102805773519,-0.00032102788052999,0.00032102768422178,-0.00053319192802726,0.00053319218499137,-0.00053319202327255,0.00053319203266164,-0.00063579006947523,0.0006357901216491,-0.00063579022327933,0.00063578997913819,-0.00063579018534506,0.00063578999308185,-0.00063579035905021,0.00063578984127443,-0.0005630044724729,0.00056300456415955,-0.0005630049288004,0.00056300410281672,-0.00056300434902096,0.00056300468214475,-0.00056300477193938,0.00056300425702644,-0.00032102786341085,0.00032102774830382,-2.8033876622548e-10,1.5481857098716e-10,-3.2631816016302e-09,3.1342154675159e-09,-0.00067619577762035,0.0006761956484159,-0.00066392577980928,0.00066393178782932,-0.00066351645493293,0.00066351377094094,-0.00066351603977916,0.00066351423946032,-0.00066820779190655,0.00066820540071499,-0.00066820567894695,0.00066820753238539,-0.00066820765637285,0.00066820555579551,-0.00066820555602034,0.00066820767999957,-0.00066393192412878,0.00066392567039008,-0.00066392565520018,0.00066393192914228,-0.00066351433241647,0.00066351590019523,-0.00066351393551457,0.00066351634674248,-0.00066393206829729,0.00066392551274572,-4.415254004955e-10,-7.1967975778844e-11,-0.00050073356814488,0.00050073305195001,2.9019060362841e-09,-3.4725785434106e-09,-0.00044942702441843,0.00044941989784993,-0.00042459586915973,0.00042458913913639,-0.00042459595232469,0.00042458904742385,-0.00044942033550286,0.0004494265580264,-0.00044942078035711,0.00044942614898779,-0.00042458954944125,0.00042459542424641,-0.00042458971624424,0.00042459528563922,-0.0005750933606896,0.00057509485604368,-0.00057509547456578,0.00057509273793094,-0.00057509323295876,0.00057509498003558,-0.00057509536599377,0.00057509284906348,-0.00055999067116132,0.00055998836403758,-0.00055999100317639,0.0005599880214447,-0.00055998889459739,0.00055999014045845,-0.00055998850623618,0.00055999051819333,-0.00044942674494175,0.0004494201930913,0.71512157514815,128566,2924,0.0023369195084161,0.0028134341357213,0.0020843473678102,15.63376010993,-0.00011492991912056,-0.00011492991912056,-0.00011492991912056,2772194.3472672,0.0072611197325357
23591759,0.43367112215901,0.0077721624879097,0.0025666234290216,0.0028260095449804,0.0023795295139077,-0.00057118224164918,0.00057118205051133,1.5287124876329e-10,-3.4163371835382e-10,-5.4863121572237e-11,-1.5760629963279e-10,-0.00032529201423964,0.00032529104732385,-0.00054269723090545,0.00054269713491623,-0.00054269746250218,0.00054269692815149,-0.0003252914157307,0.00032529164570924,-0.00032529171900319,0.00032529129959573,-0.00054269719579664,0.0005426971971106,-0.00054269728225928,0.00054269705312169,-0.00064704579257575,0.00064704579710488,-0.00064704595332663,0.00064704564792552,-0.00064704580319849,0.00064704577572522,-0.00064704600013092,0.00064704560145836,-0.00057277405577045,0.00057277435796652,-0.00057277457890476,0.00057277382872788,-0.00057277405346816,0.0005727743524114,-0.00057277449600946,0.00057277390808915,-0.00032529136336608,0.00032529170688725,-1.61949657755e-10,-4.8265027301252e-12,-3.440913131054e-09,3.270962957974e-09,-0.00068868738568797,0.00068868721736221,-0.00067620774133211,0.00067621412986219,-0.00067538060275803,0.00067537802415934,-0.00067538043639014,0.00067537824169162,-0.00068051074390631,0.00068050829514418,-0.00068050852088746,0.00068051054007278,-0.0006805106897243,0.00068050836504829,-0.00068050849490761,0.00068051058579834,-0.00067621428851942,0.0006762076133003,-0.00067620773195505,0.00067621415490116,-0.0006753783527095,0.0006753802822806,-0.00067537825331418,0.0006753804297996,-0.00067621436356451,0.00067620752501665,-4.5759855327483e-10,-1.143166826597e-10,-0.00050874146129137,0.00050874088711884,3.0564426778032e-09,-3.6860975397256e-09,-0.00045610042208872,0.00045609297477498,-0.00043104319083175,0.00043103600764056,-0.0004310432394499,0.00043103594914867,-0.00045609339178966,0.0004560999655423,-0.00045609388323329,0.00045609951253838,-0.00043103647860389,0.00043104267416218,-0.00043103666131856,0.00043104252089745,-0.00058474899632498,0.00058475055655108,-0.0005847512237447,0.00058474832440751,-0.0005847488687146,0.00058475067956139,-0.00058475113180607,0.00058474841848938,-0.00056955125756277,0.00056954871644556,-0.00056955154086043,0.00056954842199924,-0.00056954933304669,0.00056955064301757,-0.00056954894625982,0.00056955101885203,-0.00045610024624215,0.00045609317207637,0.71571043528192,128566,2924,0.0023773573019641,0.0028653294593903,0.0021176491572216,16.146161044864,-0.00011083071164109,-0.00011083071164109,-0.00011083071164109,2804596.6612469,0.0073876820976161
23791759,0.44061321228584,0.0078974299190631,0.0026077362346627,0.0028746272849326,0.0024150663994678,-0.00058158150528175,0.00058158134734534,1.6289519430334e-10,-3.1906869460422e-10,-1.4672520582215e-10,-3.0488484038917e-11,-0.0003301301707431,0.00033012950397029,-0.00055323907815178,0.0005532392178732,-0.00055323929460709,0.0005532390256047,-0.00033012980073723,0.00033012987472909,-0.00033013013057622,0.0003301295025845,-0.00055323924547201,0.00055323907258023,-0.00055323934006009,0.00055323892228884,-0.000658929161028,0.00065892912772273,-0.00065892932290514,0.00065892897751145,-0.00065892910512872,0.00065892917493554,-0.00065892929406307,0.0006589290077975,-0.00058335877612132,0.00058335915420091,-0.00058335926912621,0.00058335865012105,-0.00058335882996299,0.00058335909159173,-0.00058335927473499,0.00058335864172826,-0.00033012957121848,0.00033013011226648,-6.472197928796e-11,-1.3989197930782e-10,-3.6186461160804e-09,3.4143529655959e-09,-0.00070199894379674,0.00070199873955437,-0.00068950996457408,0.00068951669774969,-0.00068799470607139,0.00068799222943588,-0.0006879947834445,0.00068799219726853,-0.00069354204710175,0.0006935395374556,-0.00069353972384971,0.00069354188393191,-0.000693542073005,0.0006935395254484,-0.00069353976852785,0.00069354185804857,-0.0006895169010119,0.00068950978472754,-0.00068951001682194,0.00068951666007835,-0.00068799236616728,0.00068799457737321,-0.00068799247435054,0.00068799450934719,-0.00068951688361758,0.00068950979014429,-4.9214836060811e-10,-1.1795565376001e-10,-0.00051729980993826,0.00051729919701398,3.1791247788541e-09,-3.8496449257079e-09,-0.0004635800526865,0.00046357221473019,-0.00043820717092077,0.00043819968821017,-0.00043820724221027,0.00043819960630906,-0.0004635727167934,0.00046357951970529,-0.00046357319867991,0.00046357907784488,-0.00043820019219309,0.00043820662633946,-0.00043820037303481,0.00043820647519817,-0.00059495496342652,0.00059495657538735,-0.0005949572898815,0.00059495424354168,-0.00059495483129986,0.00059495670393923,-0.00059495718421892,0.00059495435265999,-0.00057990562676154,0.00057990299503278,-0.00057990595167415,0.00057990265615096,-0.00057990363375697,0.00057990498682782,-0.00057990323039451,0.00057990537969466,-0.00046357980699952,0.00046357248451329,0.75201415583799,128566,2924,0.0024205998029226,0.0029206275871048,0.0021532388546332,16.668648588145,-0.00010665081129484,-0.00010665081129484,-0.00010665081129484,2831461.5862098,0.00752281830825
23991759,0.44780518316678,0.0080304254922498,0.002651313039234,0.0029263934566347,0.0024527189963811,-0.00059247203927377,0.0005924718974229,1.7392672102571e-10,-3.1420905914363e-10,-1.9980086848532e-10,3.976867494722e-11,-0.00033490972349699,0.00033490919617803,-0.00056445326766195,0.00056445354479594,-0.00056445348349105,0.00056445335392636,-0.00033490946940858,0.00033490945064544,-0.00033490981233928,0.00033490906678374,-0.00056445355307466,0.00056445328018306,-0.00056445365265752,0.00056445312532716,-0.00067137257300987,0.0006713725179066,-0.00067137273797493,0.00067137236475298,-0.00067137247791247,0.00067137260562859,-0.00067137266837516,0.00067137243705493,-0.00059456517837083,0.00059456561705234,-0.0005945656761635,0.00059456511085751,-0.00059456527049913,0.00059456551625565,-0.00059456572471783,0.00059456505812561,-0.00033490912544346,0.0003349098041832,-1.6179885392078e-11,-2.1540830177718e-10,-3.740451296251e-09,3.51072413067e-09,-0.00071606763814655,0.00071606740790529,-0.00070374622336118,0.00070375318401879,-0.00070131054792545,0.00070130809716717,-0.00070131074875337,0.00070130793955548,-0.00070720513248971,0.00070720256629697,-0.00070720273844643,0.00070720498421788,-0.00070720519898943,0.00070720251224211,-0.00070720282215874,0.00070720491782594,-0.00070375341449746,0.00070374601524268,-0.0007037463137457,0.0007037531075071,-0.00070130813823892,0.0007013105147286,-0.00070130836498748,0.00070131032539187,-0.00070375335359135,0.00070374606513406,-5.0834958309354e-10,-1.2170135901695e-10,-0.00052621196359969,0.00052621133044194,3.2757726210848e-09,-3.9669164183602e-09,-0.00047145286399785,0.00047144477346821,-0.0004456650161677,0.00044565730908335,-0.00044566509354243,0.00044565722059081,-0.00047144530651581,0.0004714523029849,-0.00047144579120302,0.00047145185741074,-0.00044565783029845,0.00044566445557982,-0.00044565801260192,0.00044566430301016,-0.00060561998421911,0.00060562164456336,-0.00060562238273649,0.00060561924054284,-0.00060561984922481,0.00060562177605124,-0.0006056222723131,0.00060561935448968,-0.00059084080706586,0.00059083809641897,-0.00059084114692592,0.00059083774250824,-0.00059083875396027,0.0005908401485426,-0.00059083834155152,0.00059084054970994,-0.00047145259654349,0.00047144506613184,0.77068673323259,128566,2924,0.0024658849474391,0.002979067033793,0.0021902989100862,17.191547482187,-0.00010246762014251,-0.00010246762014251,-0.00010246762014251,2854742.5169004,0.0076646777591431
24191759,0.45522299383506,0.0081605493830742,0.0026940439341269,0.0029772198616784,0.002489285587269,-0.00060320017416429,0.00060320002668955,1.7646449103534e-10,-3.223628117212e-10,-1.964996912752e-10,3.0546590072641e-11,-0.00033896437726718,0.00033896381920028,-0.00057509916094205,0.00057509942402255,-0.00057509938119007,0.00057509922910355,-0.00033896409997599,0.00033896409670672,-0.00033896445198415,0.00033896370480386,-0.00057509943400669,0.00057509917070337,-0.00057509953706839,0.00057509901329758,-0.00068385942727038,0.00068385937418315,-0.00068385959585153,0.00068385921787135,-0.00068385933639591,0.00068385945826489,-0.00068385953075389,0.00068385928581217,-0.00060544431751745,0.00060544475730627,-0.00060544482622249,0.00060544424021801,-0.00060544440580733,0.00060544466011265,-0.00060544487017835,0.00060544419205691,-0.00033896376704395,0.00033896443985823,-2.8522948084691e-11,-2.134121379645e-10,-3.7439529908061e-09,3.5045030794247e-09,-0.00073013160777955,0.00073013136744404,-0.00071779816353037,0.00071780510799867,-0.00071460161753528,0.00071459914263905,-0.00071460180404767,0.00071459899992117,-0.00072091964455372,0.00072091706412321,-0.00072091725073914,0.00072091948096477,-0.00072091970620456,0.00072091701509263,-0.00072091732995258,0.0007209194193262,-0.00071780534883742,0.0007177979476909,-0.0007177982498797,0.00071780503586413,-0.00071459920786596,0.00071460155926662,-0.00071459942124774,0.00071460138394533,-0.0007178052927165,0.00071779799259637,-5.0798794465632e-10,-1.1350690042372e-10,-0.00053487630622706,0.00053487568179304,3.2794697740594e-09,-3.9610219875763e-09,-0.00047856432598722,0.00047855624078658,-0.00045247614819366,0.00045246845465587,-0.00045247622724284,0.00045246836412049,-0.00047855676469211,0.00047856377571112,-0.00047855725830818,0.00047856332172199,-0.00045246896426432,0.0004524755996733,-0.00045246915019242,0.00045247544431049,-0.00061625769507765,0.00061625936051467,-0.00061626009270572,0.00061625695726326,-0.00061625755733229,0.00061625949460738,-0.00061625997990031,0.00061625707366169,-0.00060143916832229,0.00060143647380453,-0.00060143951485245,0.00060143611246607,-0.00060143712288847,0.00060143851745309,-0.00060143670226953,0.00060143892678086,-0.00047856405230471,0.00047855654053725,0.73179327587961,128566,2924,0.0025104946379535,0.003037483019306,0.0022263277784679,17.664544511141,-9.868364391087e-05,-9.868364391087e-05,-9.868364391087e-05,2884971.4882722,0.0078048162139639
24391759,0.46271486804781,0.008292765621754,0.0027374686017237,0.0030289431478146,0.0025263538722156,-0.00061360495174561,0.00061360474832361,1.2464416604452e-10,-3.2602481540098e-10,-9.1049022720737e-11,-1.3391004578708e-10,-0.0003431369011455,0.00034313616691102,-0.0005855018301631,0.00058550171903004,-0.00058550200023348,0.00058550157355191,-0.00034313640218019,0.00034313666557277,-0.00034313681156501,0.00034313622069262,-0.00058550180306029,0.00058550176581401,-0.00058550192604396,0.00058550159180293,-0.00069594696494362,0.00069594694124118,-0.00069594713043657,0.00069594679046576,-0.0006959469742053,0.00069594692460484,-0.00069594714128659,0.000695946779693,-0.00061594127004426,0.00061594148305799,-0.00061594169778081,0.00061594104917605,-0.00061594123331265,0.0006159415094796,-0.00061594168825046,0.00061594105754064,-0.00034313643890496,0.00034313663991465,-1.3399620480204e-10,-8.4917254277348e-11,-3.3884469592713e-09,3.1710463907095e-09,-0.00074374620341971,0.00074374598478116,-0.00073137383321888,0.00073138001261444,-0.00072739698069792,0.00072739456038341,-0.00072739697412612,0.0007273946159926,-0.00073427762877438,0.00073427523085646,-0.00073427546935366,0.00073427740525176,-0.0007342776261651,0.00073427524855454,-0.00073427546104377,0.00073427743360126,-0.00073138027428054,0.00073137361435143,-0.00073137380872783,0.0007313800534106,-0.00072739483149664,0.00072739671211343,-0.00072739478260787,0.00072739680436085,-0.0007313802600336,0.00073137361553108,-4.6685272245651e-10,-5.6340647342927e-12,-0.00054317402334423,0.00054317354927526,2.987851000724e-09,-3.51065721382e-09,-0.00048538741269884,0.00048538004820697,-0.00045903882504182,0.00045903207467147,-0.00045903896040516,0.00045903192771117,-0.00048538052317967,0.00048538691391523,-0.00048538097805225,0.00048538649786762,-0.00045903240658838,0.00045903845536657,-0.00045903258071794,0.00045903831269195,-0.00062644700641254,0.00062644856317153,-0.00062644916943394,0.00062644639460103,-0.00062644685794836,0.00062644870732467,-0.00062644902265145,0.00062644654447673,-0.00061165181436645,0.00061164961443876,-0.00061165226144967,0.0006116491543178,-0.00061165008172392,0.00061165134573999,-0.00061164962906233,0.00061165178571069,-0.00048538697233134,0.00048538051573859,0.73638899987281,128566,2924,0.0025537585434267,0.0030940282382498,0.0022608312428542,17.858696631158,-9.7130426950738e-05,-9.7130426950738e-05,-9.7130426950738e-05,2914368.4388723,0.0079401940173708
24591759,0.47027428792202,0.0084298359032641,0.0027824412106862,0.0030826361051738,0.0025647585874041,-0.00062427763572662,0.00062427738888942,1.3289328767187e-10,-3.7712421449647e-10,-2.942562668495e-11,-2.4154859972373e-10,-0.00034746073218711,0.0003474596401497,-0.00059636530834462,0.00059636503071536,-0.00059636552431046,0.00059636483962701,-0.00034746000745951,0.00034746036098268,-0.0003474603886037,0.00034745995260193,-0.00059636514197355,0.00059636521773548,-0.00059636525809279,0.00059636505318018,-0.00070826735739078,0.00070826735444745,-0.00070826753170005,0.00070826719661111,-0.00070826741155866,0.00070826729232788,-0.0007082676071909,0.00070826711919171,-0.0006268061606785,0.00062680636624568,-0.0006268066780576,0.00062680584022595,-0.00062680609918318,0.00062680641403845,-0.00062680658240298,0.00062680593869433,-0.0003474601241429,0.00034746025817002,-2.2064569627838e-10,2.7004165864799e-11,-3.0746428687415e-09,2.8804263257471e-09,-0.00075773654430935,0.0007577363494166,-0.00074544936808043,0.00074545494447077,-0.00074057079873324,0.0007405683726336,-0.00074057056327103,0.00074056866228951,-0.00074792214437127,0.00074791989340746,-0.00074792016896493,0.00074792187521908,-0.00074792206734822,0.00074791998765427,-0.00074792010728866,0.00074792195937861,-0.000745455160804,0.00074544921572707,-0.00074544931162142,0.00074545501922628,-0.00074056881198473,0.00074057035622271,-0.00074056860636462,0.00074057061262318,-0.00074545524579446,0.00074544911736003,-3.8053208044398e-10,4.011143801097e-11,-0.00055167972456061,0.00055167938425255,2.7827727093418e-09,-3.1634388941721e-09,-0.00049257993192518,0.00049257337428953,-0.00046590343510344,0.00046589732718018,-0.00046590352870033,0.00046589722294505,-0.0004925736225394,0.00049257965507876,-0.00049257412749708,0.00049257918902962,-0.00046589753083983,0.00046590319132568,-0.00046589772061485,0.00046590303370922,-0.00063683874166922,0.00063684024879655,-0.0006368407115912,0.00063683827386272,-0.00063683859555289,0.00063684039080678,-0.00063684058710856,0.00063683840106699,-0.00062221422414699,0.00062221226993978,-0.0006222146017185,0.00062221188093222,-0.00062221263628708,0.00062221385780843,-0.00062221219377595,0.00062221428675574,-0.00049257961304626,0.00049257371358251,0.75660586983488,128566,2924,0.0025981351406887,0.003152130511672,0.0022961984677674,18.045600977794,-9.5635192177651e-05,-9.5635192177651e-05,-9.5635192177651e-05,2938316.0336509,0.0080791511492674
24791759,0.47789847460245,0.0085551969868549,0.0028238076501925,0.0031318562303937,0.0025995331062687,-0.00063433598148877,0.00063433570290921,1.1689086850538e-10,-3.9253235505306e-10,1.2617160936747e-11,-3.172291960864e-10,-0.00035055928420737,0.00035055806327308,-0.00060587700561387,0.00060587657472353,-0.00060587721739482,0.00060587638702005,-0.00035055844091286,0.00035055889994414,-0.00035055884488889,0.00035055847274627,-0.00060587671821331,0.00060587688172262,-0.00060587684105935,0.00060587671385499,-0.00072024967920124,0.00072024968650416,-0.00072024985687779,0.00072024952704026,-0.00072024977457315,0.00072024958295798,-0.00072024996803784,0.00072024941214543,-0.00063672254251737,0.00063672266776553,-0.00063672304566191,0.00063672214549646,-0.00063672242964361,0.00063672276020143,-0.00063672292283467,0.00063672228049961,-0.00035055869620684,0.00035055865978374,-2.7040574667241e-10,9.20302166577e-11,-2.8500514038271e-09,2.6699041263793e-09,-0.00077117585600293,0.00077117567555006,-0.00075859669460673,0.00075860181274944,-0.00075322785088072,0.00075322547951186,-0.00075322751353492,0.00075322587466163,-0.00076114755323433,0.00076114542494633,-0.00076114572161486,0.00076114725852978,-0.0007611474416594,0.00076114555508337,-0.00076114562003839,0.00076114738371084,-0.0007586020301332,0.00075859655549649,-0.00075859659333619,0.00075860193341168,-0.00075322601506813,0.0007532273085748,-0.00075322568940307,0.00075322768948906,-0.00075860214463322,0.00075859642638606,-3.3966995918256e-10,9.9964424809852e-11,-0.00055956352595476,0.00055956328767604,2.6174421268689e-09,-2.8901907042158e-09,-0.00049836603134268,0.00049835997919038,-0.0004715545598122,0.00047154900295346,-0.00047155466580102,0.00047154888601839,-0.00049836013761244,0.00049836584058053,-0.00049836064583022,0.00049836537518646,-0.00047154909173354,0.00047155442800751,-0.00047154928320391,0.00047155427075714,-0.00064688100779886,0.00064688246470883,-0.00064688283374498,0.00064688063357222,-0.0006468808573465,0.00064688261059549,-0.00064688270073321,0.00064688076935876,-0.00063188910047697,0.00063188741313486,-0.0006318895035861,0.00063188699973099,-0.00063188767551513,0.00063188883959254,-0.00063188721964816,0.00063188928169171,-0.00049836567956498,0.00049836035212952,0.68706804298329,128566,2924,0.0026399572857913,0.003207941245656,0.0023289795804328,18.232209634051,-9.4142322927591e-05,-9.4142322927591e-05,-9.4142322927591e-05,2972135.8384102,0.0082106388454611
24991759,0.48565184634434,0.0086848738054567,0.002866595950248,0.0031827721112922,0.0026355057439166,-0.0006449687963983,0.00064496852104131,1.2681311196118e-10,-3.9925322224988e-10,-2.7446961073003e-11,-2.7385612792739e-10,-0.00035491033571099,0.00035490916555356,-0.00061611317573385,0.00061611284073401,-0.00061611339845593,0.00061611264260616,-0.00035490955715758,0.00035490993483905,-0.00035490996084673,0.00035490951061345,-0.00061611297511339,0.00061611305954564,-0.00061611309840849,0.00061611289195242,-0.00073267857320276,0.00073267855990687,-0.00073267875469206,0.00073267839699054,-0.00073267863955651,0.00073267848590691,-0.00073267884037616,0.00073267830793341,-0.0006471798127144,0.00064717998944905,-0.00064718033572949,0.0006471794443624,-0.00064717973105056,0.00064718004880717,-0.00064718023615871,0.00064717955835066,-0.00035490971311392,0.00035490979660097,-2.3560572073049e-10,4.639576608237e-11,-2.9161997897158e-09,2.7252496711403e-09,-0.00078504159480265,0.00078504140407697,-0.00077210563279454,0.00077211089080739,-0.00076628527718382,0.00076628292878484,-0.00076628501352648,0.00076628325060464,-0.00077490119386919,0.00077489904088829,-0.00077489932153554,0.00077490091624648,-0.00077490110630074,0.00077489914615308,-0.00077489924762273,0.00077490101290463,-0.00077211111556549,0.00077210548946363,-0.00077210556413936,0.00077211097921137,-0.00076628339556357,0.00076628480324429,-0.00076628315464316,0.00076628509960931,-0.00077211120879754,0.00077210538139629,-3.3807560517048e-10,1.0351110461563e-10,-0.00056799440507874,0.00056799417232268,2.6867647593583e-09,-2.9534227801572e-09,-0.00050492797808679,0.00050492181621521,-0.00047802303549939,0.00047801734984962,-0.00047802313641973,0.00047801723782897,-0.00050492195010369,0.00050492780798882,-0.00050492247776762,0.00050492732429905,-0.00047801742977233,0.00047802290923105,-0.00047801762766351,0.00047802274631913,-0.00065735147751295,0.00065735298067834,-0.0006573533453502,0.00065735110750408,-0.00065735132461191,0.00065735312917468,-0.00065735321354335,0.00065735124221313,-0.00064209367876166,0.0006420919476557,-0.0006420940779451,0.00064209153771793,-0.00064209221080242,0.00064209341700492,-0.0006420917478118,0.00064209386617132,-0.00050492764138506,0.00050492217361133,0.69911855251387,128566,2924,0.0026841638881419,0.0032655194241182,0.0023640335256202,18.54170623995,-9.1666350080396e-05,-9.1666350080396e-05,-9.1666350080396e-05,3007815.6867863,0.0083486209031324
25191759,0.49371724251572,0.0088236363046507,0.0029123292437542,0.0032372910840963,0.0026740159768002,-0.00065679776426154,0.00065679753993936,1.4678870008833e-10,-3.68756053116e-10,-1.6284557082665e-10,-8.4555648118286e-11,-0.00035995435747213,0.00035995361556907,-0.00062774337653804,0.00062774339751592,-0.00062774358326328,0.00062774321717125,-0.00035995391092089,0.00035995405299581,-0.00035995434431692,0.000359953590842,-0.00062774348189772,0.00062774330945747,-0.00062774361369967,0.0006277431297961,-0.00074634973163283,0.00074634966349288,-0.00074634991379229,0.00074634949802567,-0.00074634969670285,0.00074634969213845,-0.00074634988961512,0.00074634952242554,-0.00065894727182697,0.00065894757955235,-0.00065894776641581,0.00065894705687728,-0.00065894728216052,0.00065894754709755,-0.00065894778820032,0.0006589470484919,-0.00035995378923576,0.00035995418979803,-9.4301195722025e-11,-1.4702106484268e-10,-3.4772697878831e-09,3.2365042964271e-09,-0.00080040152113062,0.00080040128075448,-0.00078726536022119,0.00078727171667148,-0.00078079957041371,0.00078079716155133,-0.000780799648971,0.00078079713513701,-0.00079000058644982,0.00078999814684298,-0.00078999837211323,0.00079000037544758,-0.00079000061160149,0.00078999813556561,-0.00078999840129342,0.00079000036536784,-0.0007872719970182,0.00078726514184705,-0.00078726538719472,0.00078727170805482,-0.00078079735128046,0.00078079937774091,-0.00078079742239198,0.00078079935639581,-0.00078727196503461,0.00078726516117666,-4.3527588094043e-10,3.5367221270741e-11,-0.00057749573669437,0.00057749533711399,3.1172642532118e-09,-3.5597260754911e-09,-0.00051267204259216,0.00051266461415663,-0.0004855691758411,0.0004855623207593,-0.00048556930025645,0.00048556218498021,-0.00051266496268386,0.00051267165699764,-0.00051266547382241,0.00051267118897563,-0.00048556256275952,0.00048556888554584,-0.00048556275628834,0.00048556872683006,-0.00066900727786207,0.00066900895617938,-0.00066900949458941,0.00066900673365373,-0.00066900712058374,0.00066900910955429,-0.00066900934869246,0.00066900688286338,-0.00065364030550737,0.00065363810330034,-0.00065364074619213,0.00065363764904042,-0.0006536385167746,0.00065363989160647,-0.00065363804053802,0.00065364035615563,-0.00051267163313016,0.00051266504582251,0.7192699845792,128566,2924,0.0027333410431475,0.003329298979331,0.0024035365769279,19.180380789002,-8.6556953687987e-05,-8.6556953687987e-05,-8.6556953687987e-05,3039787.9560335,0.0085023752730704
25391759,0.50210270704717,0.0089757742513055,0.0029623140297126,0.0032971842086952,0.0027162760128977,-0.00066945027287318,0.00066945008188758,1.7411976565774e-10,-3.6328892218456e-10,-2.5358303775638e-10,4.163361185703e-11,-0.00036547529808911,0.00036547475598622,-0.0006406360659447,0.00064063635038352,-0.00064063628829931,0.000640636156614,-0.00036547504561033,0.00036547500049263,-0.00036547546957852,0.00036547454179942,-0.00064063639236094,0.00064063604028967,-0.00064063652180922,0.00064063585956975,-0.00076084425705857,0.00076084415440768,-0.00076084444197582,0.00076084398371073,-0.00076084414847642,0.00076084425764294,-0.0007608443508107,0.00076084407839597,-0.00067178026059796,0.0006717807024599,-0.00067178078234543,0.0006717801455588,-0.00067178035115901,0.00067178058918578,-0.00067178086753287,0.00067178007608373,-0.00036547468024319,0.00036547537889939,-9.9986422836357e-12,-2.7305386489186e-10,-3.9386183067672e-09,3.6587715603344e-09,-0.0008168974421372,0.00081689716202059,-0.00080386062417785,0.00080386788958539,-0.00079640301272466,0.00079640046753833,-0.00079640328595756,0.00079640024174681,-0.00080606366678441,0.00080606096257886,-0.00080606116254947,0.00080606348991907,-0.00080606375674095,0.00080606088396987,-0.00080606126258482,0.00080606340640179,-0.00080386818935053,0.00080386036838944,-0.00080386073089397,0.0008038678005341,-0.00079640049265747,0.00079640298825099,-0.00079640078021034,0.00079640274636659,-0.00080386809810826,0.00080386044794316,-5.0587906755956e-10,-3.8507382324432e-11,-0.00058765756526718,0.00058765701962034,3.4886176487666e-09,-4.0853766279086e-09,-0.00052138735153464,0.0005213789161124,-0.00049393533250461,0.00049392743351978,-0.00049393544745935,0.00049392730677067,-0.00052137939054145,0.00052138684448181,-0.00052137992361692,0.00052138635270366,-0.00049392782968433,0.00049393488976469,-0.00049392802990943,0.0004939347239167,-0.00068134129302427,0.00068134312382395,-0.00068134380486639,0.00068134060588721,-0.00068134113382151,0.00068134327960957,-0.00068134366275622,0.0006813407517577,-0.00066621501021747,0.00066621234953618,-0.00066621543824928,0.00066621190634651,-0.0006662129157402,0.00066621444221325,-0.00066621243532864,0.00066621491207098,-0.00052138697214182,0.00052137932054243,0.75830138261573,128566,2924,0.0027859405340446,0.0033977903978721,0.0024457845026963,19.827636030398,-8.1378911756818e-05,-8.1378911756818e-05,-8.1378911756818e-05,3063990.4371124,0.0086671247418088
25591759,0.51081080613321,0.009138810691431,0.0030157350469216,0.0033616125448967,0.0027614630996126,-0.00068276799417344,0.00068276781778439,1.8611232913139e-10,-3.60943901066e-10,-3.050896823961e-10,1.0864927180991e-10,-0.00037102194554742,0.00037102152465543,-0.00065447062289914,0.00065447104401766,-0.00065447085015261,0.0006544708458991,-0.00037102180128655,0.00037102166280381,-0.00037102223061133,0.00037102119179696,-0.00065447106688108,0.00065447061542818,-0.00065447119742082,0.00065447043112176,-0.00077609189790536,0.00077609177406169,-0.00077609208541421,0.00077609159944467,-0.00077609175085261,0.00077609191655873,-0.00077609195640151,0.00077609173396626,-0.00068547643588408,0.00068547693866257,-0.00068547696201092,0.0006854763688495,-0.00068547656278322,0.00068547678603154,-0.00068547708879829,0.00068547626268276,-0.0003710213168774,0.00037102215749345,3.3358088933281e-11,-3.4760756056293e-10,-4.3094020959005e-09,3.9998516372193e-09,-0.00083443238797018,0.00083443207789343,-0.00082172909727484,0.00082173707159072,-0.00081299042736391,0.00081298773248511,-0.00081299081679487,0.0008129873886237,-0.00082300319696268,0.00082300026628698,-0.00082300046021059,0.00082300303195984,-0.00082300332489224,0.00082300014845166,-0.00082300059808036,0.00082300290916845,-0.00082173739485895,0.00082172880598043,-0.00082172924320648,0.00082173694277263,-0.00081298767355024,0.00081299049005027,-0.00081298807633208,0.00081299013150475,-0.0008217372645945,0.00082172892525361,-5.6489827079647e-10,-8.8659981132626e-11,-0.0005983088068471,0.00059830815087407,3.7853131899127e-09,-4.4983566836284e-09,-0.00053069564288909,0.00053068638853058,-0.00050278045356597,0.00050277174447002,-0.00050278057050235,0.00050277161481786,-0.00053068697499575,0.00053069502566379,-0.00053068751790227,0.00053069452412405,-0.00050277225186592,0.00050277989908602,-0.00050277245570716,0.0005027797298953,-0.00069426321409975,0.00069426516940157,-0.00069426596158495,0.00069426241540416,-0.00069426305188311,0.00069426532822479,-0.00069426581669249,0.00069426256439485,-0.00067962248272285,0.00067961948054341,-0.00067962291837225,0.00067961902861412,-0.00067962015692059,0.00067962180411857,-0.00067961966749009,0.00067962228347142,-0.00053069525820202,0.0005306868009591,0.7825285490207,128566,2924,0.0028413048878854,0.0034705897556589,0.0024900659657241,20.475232518325,-7.6198139853399e-05,-7.6198139853399e-05,-7.6198139853399e-05,3085174.3399673,0.0088410873089921
25791759,0.51965735149777,0.0092994089171844,0.0030684017833722,0.0034253393737001,0.002805667760112,-0.00069542810418418,0.0006954278757215,1.2379010609135e-10,-3.5037802475068e-10,-2.085779633511e-10,-4.2923038877685e-11,-0.00037540889737409,0.00037540835883096,-0.00066731365742293,0.00066731371610623,-0.00066731382080035,0.00066731358179905,-0.00037540857960822,0.00037540867202148,-0.0003754090484519,0.0003754081634927,-0.00066731381810342,0.00066731357115964,-0.00066731396353989,0.0006673133731033,-0.00079084928465745,0.0007908491808204,-0.00079084946224331,0.00079084901759917,-0.00079084923261285,0.00079084922774973,-0.00079084940059037,0.0007908490829388,-0.00069841167126799,0.00069841192783746,-0.00069841208692515,0.00069841147110394,-0.00069841167434818,0.00069841189816649,-0.00069841217366336,0.00069841140917727,-0.00037540845122173,0.00037540880914858,-5.7873788819007e-11,-2.4257402444183e-10,-4.1272096237555e-09,3.8314514173186e-09,-0.00085148273464692,0.00085148243734064,-0.0008389988707603,0.00083900641292175,-0.00082909263284917,0.0008290899131446,-0.00082909287022475,0.00082908972420965,-0.00083947362048081,0.00083947076480809,-0.00083947100905259,0.00083947340022057,-0.00083947369829151,0.00083947069944321,-0.00083947106962756,0.00083947335644361,-0.00083900676468757,0.0008389985604671,-0.00083899891442446,0.00083900638938496,-0.00082909003244966,0.00082909251288094,-0.00082909020456053,0.00082909239032074,-0.00083900665989699,0.00083899865368222,-5.6963898759722e-10,-1.9140902721796e-12,-0.00060821859776653,0.00060821802434596,3.6348774668699e-09,-4.2606566022239e-09,-0.00053880736873171,0.00053879838149678,-0.00051055053817704,0.00051054236727695,-0.00051055072559733,0.0005105421675515,-0.00053879899699156,0.00053880672524999,-0.00053879951885846,0.00053880624599985,-0.00051054275980687,0.00051055010183079,-0.00051054295564389,0.00051054994164868,-0.00070663276222688,0.00070663465345005,-0.00070663539468047,0.00070663201460124,-0.00070663258288728,0.00070663482884414,-0.00070663520573809,0.00070663220732717,-0.00069225586133832,0.00069225319228316,-0.00069225642761889,0.00069225261279646,-0.00069225375070003,0.00069225530213446,-0.00069225321149031,0.00069225583003796,-0.00053880678072208,0.0005387989944994,0.75921599709236,128566,2924,0.0028939360524188,0.0035413712678043,0.002531265074584,20.820448323361,-7.3436413413113e-05,-7.3436413413113e-05,-7.3436413413113e-05,3107974.3547797,0.0090071783059918
25991759,0.52835299560352,0.0094538017680502,0.0031191113042788,0.003486731591603,0.0028479588721684,-0.00070686330079769,0.00070686297659392,1.4559502708363e-10,-4.6685993058782e-10,-2.9878126743737e-11,-3.2257712196094e-10,-0.00037904414480577,0.00037904274482485,-0.00067872381951979,0.0006787234310431,-0.0006787240870606,0.00067872319239078,-0.0003790432367106,0.00037904364287658,-0.00037904366991553,0.00037904318368824,-0.00067872358790718,0.00067872367931224,-0.00067872372336447,0.00067872349892113,-0.00080435052112299,0.00080435049503751,-0.00080435072260668,0.00080435031221994,-0.00080435059739921,0.00080435041260245,-0.00080435083013119,0.00080435020271264,-0.00070993592997845,0.00070993614327859,-0.00070993655202852,0.00070993549097547,-0.00070993584958393,0.00070993619879479,-0.00070993642301772,0.00070993564591183,-0.00037904338569384,0.00037904350458582,-2.9497654002212e-10,6.5799334963719e-11,-3.2862096233753e-09,3.0577099489423e-09,-0.00086709756999488,0.00086709734035768,-0.00085466302204101,0.00085466893112343,-0.00084377718880292,0.00084377446763081,-0.00084377682633574,0.00084377489090862,-0.00085465438301505,0.00085465192535913,-0.00085465227077895,0.00085465404105581,-0.00085465426361045,0.00085465206272086,-0.00085465217760436,0.00085465415764879,-0.00085466917228615,0.00085466286650984,-0.00085466295091763,0.00085466902477038,-0.00084377504997096,0.00084377659526427,-0.00084377475968674,0.00084377694894978,-0.00085466931319759,0.00085466271146219,-3.6103131187727e-10,8.7413648398412e-11,-0.0006169367437185,0.00061693647136696,3.0321297501636e-09,-3.3385275521748e-09,-0.00054560726047893,0.00054560038047323,-0.00051710407547239,0.00051709762012374,-0.00051710416338083,0.00051709752127985,-0.00054560051038286,0.00054560710188127,-0.00054560109393948,0.00054560655880172,-0.00051709773838953,0.00051710391386665,-0.00051709795509413,0.00051710373429184,-0.00071777475672784,0.00071777645497409,-0.00071777686285746,0.00071777434356712,-0.00071777459426751,0.0007177766135499,-0.000717776732018,0.00071777447726775,-0.00070352315608074,0.00070352110358859,-0.00070352354517511,0.0007035207051966,-0.00070352143260654,0.00070352282835564,-0.0007035209487163,0.00070352330161521,-0.00054560696029602,0.00054560070039567,0.74286074312162,128566,2924,0.0029414748703479,0.0036061877032934,0.0025675104425866,20.694914815001,-7.4440681479988e-05,-7.4440681479988e-05,-7.4440681479988e-05,3129555.139908,0.0091571395298945
26191759,0.53689102164247,0.0096086688503974,0.0031699380624978,0.0035483732230878,0.0028903575648118,-0.00071826580237524,0.00071826540675872,8.6160991723199e-11,-4.7796012399924e-10,7.3647828315281e-11,-5.0176120118679e-10,-0.00038308097040118,0.00038307934180215,-0.00069030169347903,0.00069030091387091,-0.00069030192233035,0.00069030071127661,-0.00038307982124732,0.00038308047318996,-0.0003830802974395,0.00038307998357937,-0.00069030115932823,0.00069030146366202,-0.00069030130727503,0.00069030127743867,-0.00081769511002232,0.00081769510377426,-0.0008176953101225,0.00081769492703871,-0.00081769528971127,0.00081769491720137,-0.00081769549867265,0.00081769473141707,-0.00072145359369307,0.00072145356136455,-0.00072145414161477,0.00072145299505922,-0.00072145338642955,0.00072145374480789,-0.00072145394860538,0.00072145321224333,-0.00038308033605568,0.00038307997279262,-3.9645904830116e-10,2.1119953573445e-10,-2.6958926462714e-09,2.5077201483414e-09,-0.00088257348035937,0.00088257329247238,-0.00087026600821239,0.00087027072418028,-0.00085832139236632,0.00085831888420736,-0.00085832082687931,0.00085831951901961,-0.00086969550176754,0.00086969338916647,-0.00086969376779079,0.00086969511204246,-0.00086969531174867,0.00086969359999583,-0.00086969358278641,0.00086969532241488,-0.00087027097698525,0.00087026587940059,-0.00087026582524459,0.00087027093135897,-0.0008583196619583,0.00085832059493458,-0.00085831909626296,0.00085832123164212,-0.00087027116627842,0.00087026567356794,-2.6301273266972e-10,2.5193634283752e-10,-0.00062562750113271,0.00062562749462948,2.5879721822088e-09,-2.6118746568181e-09,-0.0005526302916737,0.00055262471183838,-0.00052384292886996,0.00052383795380556,-0.00052384306443947,0.0005238378050959,-0.00055262463994482,0.0005526303262422,-0.00055262521262823,0.00055262980444905,-0.00052383776561535,0.0005238430643998,-0.00052383798075808,0.0005238428908101,-0.00072878288709573,0.00072878444524482,-0.00072878461278883,0.00072878271345844,-0.00072878271239556,0.00072878461449286,-0.00072878445190379,0.00072878287754661,-0.00071483022888673,0.000714828914862,-0.00071483071278231,0.00071482842445916,-0.0007148289604528,0.00071483018967952,-0.0007148284358588,0.00071483070020554,-0.00055262985919908,0.00055262516791065,0.75895315985674,128566,2924,0.0029888759768117,0.0036704222348763,0.002603640657596,20.557050746526,-7.5543594027796e-05,-7.5543594027796e-05,-7.5543594027796e-05,3147793.6406238,0.0093062791137119
26391759,0.54527222655335,0.0097657587223314,0.0032213996780084,0.003611011045926,0.002933347998397,-0.00072970946089058,0.00072970902638412,7.8073553921225e-11,-5.0829815254623e-10,1.0144707842021e-10,-5.7062791326777e-10,-0.00038719117736724,0.00038718936967738,-0.00070218001576476,0.00070217911134926,-0.00070218025546671,0.00070217889752645,-0.00038718990810113,0.0003871906151084,-0.00038719038984468,0.00038719013346462,-0.0007021793907392,0.00070217975105756,-0.00070217954284909,0.00070217956584,-0.00083100572106773,0.00083100571298509,-0.00083100592759941,0.00083100553311189,-0.00083100593001098,0.00083100549730007,-0.00083100614861406,0.00083100530210752,-0.00073315573724231,0.00073315566387333,-0.00073315631681561,0.00073315507044292,-0.0007331555048719,0.00073315587221609,-0.00073315608492518,0.00073315532717373,-0.00038719049969697,0.00038719004400251,-4.3377828848869e-10,2.7638268328698e-10,-2.2856561584204e-09,2.1237079120928e-09,-0.00089816220191874,0.00089816204081473,-0.00088618188631043,0.00088618582152216,-0.00087298054286718,0.00087297821562032,-0.00087297986986294,0.00087297896326889,-0.00088473292281387,0.00088473106206131,-0.00088473144280065,0.00088473252003633,-0.00088473269592467,0.00088473131017984,-0.00088473122633443,0.00088473276245357,-0.00088618605596457,0.00088618180490309,-0.0008861816767957,0.00088618605649933,-0.00087297906402667,0.00087297966858707,-0.00087297840764262,0.00087298039965058,-0.0008861862859836,0.00088618155706935,-1.5855424929874e-10,3.5293085951149e-10,-0.00063432968482428,0.00063432988631205,2.3079701870785e-09,-2.111099555843e-09,-0.00055985218689773,0.00055984760824936,-0.00053074270586875,0.00053073870975302,-0.00053074283382864,0.00053073856942555,-0.00055984730843815,0.0005598524462819,-0.00055984789420678,0.00055985191157769,-0.00053073830376426,0.00053074305682081,-0.0005307385244157,0.00053074287915091,-0.00073976376616255,0.00073976526793225,-0.00073976523061709,0.00073976379781216,-0.00073976359071717,0.00073976543812768,-0.00073976507287522,0.00073976395836609,-0.00072633591681499,0.00072633505207619,-0.00072633639250453,0.00072633457174166,-0.00072633490117134,0.00072633607597108,-0.00072633437604425,0.00072633658790532,-0.00055985176750424,0.00055984804778541,0.78422388802632,128566,2924,0.0030364477913585,0.0037351198389292,0.002639817356754,20.418682621796,-7.6650539025632e-05,-7.6650539025632e-05,-7.6650539025632e-05,3160252.1113195,0.009456126162351
26591759,0.55366246937754,0.0099226135292531,0.0032727865479809,0.0036737017605519,0.0029761252207203,-0.00074166908304343,0.00074166868679632,8.7400998959476e-11,-4.7958084050217e-10,-2.8646953531704e-11,-4.0002460443469e-10,-0.00039148689863386,0.00039148548215228,-0.00071452739229847,0.0007145268055603,-0.00071452761395706,0.00071452661057847,-0.00039148594353692,0.00039148641032161,-0.00039148644274798,0.00039148591211213,-0.0007145270501499,0.00071452715994722,-0.00071452720839539,0.00071452696881028,-0.00084491090034052,0.00084491082924478,-0.00084491110497006,0.0008449106509504,-0.00084491101554347,0.00084491070893127,-0.00084491122365034,0.00084491052448199,-0.00074539346259724,0.00074539349478589,-0.0007453940049511,0.00074539292807508,-0.00074539331346019,0.0007453936137683,-0.00074539388751501,0.00074539307499897,-0.00039148627502511,0.00039148610164755,-2.9354263994443e-10,1.0142668754314e-10,-2.5770991969474e-09,2.3818888711947e-09,-0.0009144321744015,0.00091443198060947,-0.00090282507835751,0.00090282961058068,-0.00088829472448764,0.00088829250610238,-0.00088829437369329,0.00088829292666055,-0.00090038478411147,0.0009003828187369,-0.000900383130954,0.00090038445528877,-0.00090038466241104,0.00090038295725431,-0.000900383010592,0.00090038459667135,-0.00090282989075329,0.0009028249475528,-0.0009028249598644,0.00090282975386534,-0.00088829307710731,0.00088829412711029,-0.00088829271604534,0.00088829455922071,-0.00090283000305954,0.00090282481860541,-1.9702286311587e-10,3.5242129809478e-10,-0.00064348550290394,0.00064348566548676,2.5554171084002e-09,-2.3989829123778e-09,-0.00056738701072258,0.00056738179284724,-0.00053795935700174,0.00053795482040576,-0.00053795950976712,0.00053795465487555,-0.00056738156834463,0.00056738719303967,-0.00056738215442494,0.00056738665880164,-0.00053795443872818,0.00053795967954451,-0.00053795466032631,0.00053795950229832,-0.00075129550443437,0.00075129713653534,-0.00075129715066891,0.00075129548428211,-0.00075129532098104,0.00075129731484366,-0.00075129697612959,0.00075129566183596,-0.00073840128833201,0.00073840025488708,-0.00073840181539654,0.00073839972322291,-0.00073840012998135,0.00073840142301742,-0.00073839958193609,0.00073840195925926,-0.00056738652059117,0.00056738230703378,0.78230622887179,128566,2924,0.0030861637732243,0.0038026397124323,0.002677877882958,20.571043822629,-7.5431649418968e-05,-7.5431649418968e-05,-7.5431649418968e-05,3173127.3147135,0.0096129125637913
26791759,0.56221782155498,0.010078923628398,0.0033240788891245,0.0037362807439603,0.0030185639953132,-0.00075421861247573,0.00075421831123138,2.7641485239247e-10,-5.7434058823045e-10,-2.5947969651456e-10,-6.8839320653066e-11,-0.00039624623734606,0.00039624485565082,-0.00072725998016331,0.00072726025915105,-0.00072726041582211,0.00072725985156472,-0.00039624556781746,0.0003962454952672,-0.00039624598557625,0.00039624507151025,-0.00072726030906189,0.00072725993661873,-0.000727260438296,0.00072725977095276,-0.00085950920941982,0.00085950909982362,-0.00085950946499327,0.00085950886687048,-0.00085950909923196,0.00085950920767041,-0.00085950944313605,0.0008595088866561,-0.00075813881592946,0.00075813953089253,-0.0007581397528346,0.00075813855431072,-0.00075813897589437,0.00075813933728766,-0.00075813969936175,0.00075813863986937,-0.00039624499758171,0.0003962460919219,-1.2351805204947e-10,-1.272016227248e-10,-3.2814175071241e-09,3.0289437462301e-09,-0.00093136540467717,0.00093136515543809,-0.00092001023046922,0.00092001628251576,-0.00090424327232893,0.00090424081986497,-0.00090424318608407,0.00090424096507341,-0.00091675740902689,0.00091675503592042,-0.0009167552773219,0.00091675716490904,-0.00091675737416077,0.00091675508250284,-0.00091675532737384,0.00091675713190061,-0.00092001648907628,0.00092001014821162,-0.00092001036557995,0.00092001617334238,-0.00090424105657272,0.00090424301276911,-0.0009042412108425,0.0009042429268881,-0.00092001659458284,0.00092001003456572,-1.8063926729788e-10,1.038977386204e-10,-0.00065314914881125,0.00065314907737719,3.1774461293167e-09,-3.267750472014e-09,-0.00057517734246217,0.00057517100704676,-0.00054549810945733,0.00054549165650906,-0.00054549805336831,0.00054549169800927,-0.00057517067124052,0.00057517762295083,-0.00057517135593479,0.00057517699823971,-0.00054549159676327,0.0005454980969226,-0.00054549185349744,0.00054549788670308,-0.00076345674319494,0.00076345868666636,-0.00076345884269708,0.0007634565803836,-0.00076345660711173,0.00076345881868495,-0.00076345879900565,0.00076345662869857,-0.00075094414500372,0.00075094200897737,-0.0007509442878709,0.00075094185565519,-0.0007509422327128,0.00075094392938017,-0.00075094182276936,0.00075094432807163,-0.00057517744475875,0.00057517092984684,0.7647263275612,128566,2924,0.0031383298879473,0.0038729065598862,0.0027180472400439,21.003136824121,-7.1974905407029e-05,-7.1974905407029e-05,-7.1974905407029e-05,3191610.8089521,0.0097771024688572
26991759,0.5709375648406,0.010234192497751,0.0033751453400648,0.0037985004942217,0.003060546663464,-0.00076683879867235,0.00076683854082087,1.8043297761698e-10,-4.3575619027103e-10,-3.5383686099737e-10,7.2248212631403e-11,-0.00040116796445427,0.00040116737320803,-0.00073984159373719,0.00073984198273989,-0.00073984186037326,0.00073984174233352,-0.00040116774749575,0.00040116756978049,-0.00040116824091603,0.00040116706187985,-0.00073984205847663,0.00073984152241446,-0.00073984220910293,0.0007398413334311,-0.00087424321120653,0.00087424303589048,-0.0008742434329648,0.00087424283398287,-0.00087424306339761,0.00087424318232256,-0.00087424329950404,0.00087424296882866,-0.00077082095464972,0.00077082144277219,-0.00077082155081427,0.0007708208165861,-0.00077082107780496,0.00077082129414166,-0.00077082168173719,0.00077082070151952,-0.00040116724301532,0.00040116810044698,2.6802448321249e-11,-3.4173293714629e-10,-3.9515152226283e-09,3.6400851585147e-09,-0.00094833097198294,0.00094833066141066,-0.00093703725600883,0.00093704451632842,-0.00092020392752884,0.00092020147045459,-0.00092020432647831,0.00092020113034909,-0.00093328709436591,0.00093328439181338,-0.00093328458595726,0.00093328691336907,-0.00093328721223866,0.00093328428261267,-0.00093328471327356,0.00093328679797778,-0.0009370448783062,0.00093703698807474,-0.00093703739608402,0.00093704439480016,-0.00092020141882605,0.00092020397351647,-0.00092020179776423,0.00092020364200466,-0.00093704474489158,0.00093703710807524,-4.0519039283087e-10,1.3077963497964e-10,-0.00066283993222669,0.00066283966053662,3.64907848425e-09,-3.9523818900887e-09,-0.00058281233318455,0.00058280414459469,-0.00055295396031813,0.00055294634116694,-0.0005529540839406,0.00055294619722475,-0.00058280431077561,0.00058281212776375,-0.00058280493214011,0.00058281157322922,-0.00055294641180666,0.0005529538226442,-0.00055294665229256,0.00055295363174458,-0.00077573214749555,0.00077573423628451,-0.00077573466585282,0.00077573170940546,-0.00077573196962977,0.00077573440933157,-0.00077573450782217,0.00077573187332503,-0.00076340977857536,0.00076340741722209,-0.0007634102737114,0.00076340690888626,-0.00076340773104371,0.00076340947230487,-0.0007634071758209,0.00076341001266076,-0.00058281193525678,0.00058280458826997,0.74557636352198,128566,2924,0.0031907877452789,0.0039433014626341,0.0027583281037366,21.442597364586,-6.8459221083311e-05,-6.8459221083311e-05,-6.8459221083311e-05,3212321.7913437,0.0099418572775834
27191759,0.57981628508467,0.010387878735376,0.0034258274156771,0.0038600956012807,0.0031019557184185,-0.00077948480154476,0.00077948457955543,2.0095083569285e-10,-4.2095045151736e-10,-4.2127873534146e-10,1.7777346108397e-10,-0.00040618793676679,0.00040618755425856,-0.00075223334434229,0.00075223392998726,-0.0007522336003986,0.00075223370270764,-0.00040618789470266,0.00040618758126264,-0.0004061883851527,0.00040618706854676,-0.00075223397009015,0.00075223330881915,-0.00075223412519287,0.00075223310859339,-0.00088906203554399,0.00088906183827522,-0.00088906225588623,0.00088906163450993,-0.00088906183072697,0.00088906204254941,-0.00088906206673647,0.00088906182891029,-0.00078339203858718,0.00078339263071228,-0.00078339264402483,0.00078339199338821,-0.00078339222495472,0.00078339242183801,-0.00078339282824863,0.00078339182007103,-0.00040618721820693,0.00040618828518276,9.1641443357987e-11,-4.5444741114942e-10,-4.481375344177e-09,4.1246229178952e-09,-0.00096526006071952,0.00096525970443788,-0.00095382869429226,0.00095383696310744,-0.00093610055869022,0.00093609788749465,-0.00093610112321444,0.00093609737809842,-0.00094990859435797,0.00094990557137104,-0.00094990575807295,0.00094990843215586,-0.00094990876838484,0.00094990540330425,-0.00094990594355709,0.00094990825728017,-0.00095383735883534,0.00095382836836515,-0.00095382889127427,0.0009538367839265,-0.00093609771290765,0.00093610073570666,-0.00093609827013615,0.00093610021983674,-0.0009538371668808,0.00095382854805985,-5.0908723319852e-10,4.0939838233324e-11,-0.00067251680431073,0.00067251633654041,4.0473587981894e-09,-4.5582692556364e-09,-0.0005902602146273,0.00059025077356899,-0.00056029222546839,0.00056028342003084,-0.00056029235681102,0.00056028327018858,-0.00059025117320358,0.00059025977785377,-0.00059025178481519,0.0005902592225632,-0.00056028369308282,0.00056029188803286,-0.00056028393192681,0.00056029169637133,-0.00078808620071182,0.00078808842732243,-0.00078808905414904,0.00078808556567969,-0.00078808601910708,0.00078808860507061,-0.00078808889047754,0.00078808573479828,-0.00077573903828774,0.000775736169924,-0.00077573955268282,0.00077573564331243,-0.00077573666715514,0.00077573854770579,-0.00077573611068032,0.00077573909231159,-0.00059025975368197,0.00059025127480359,0.72509827941283,128566,2924,0.0032433506692529,0.0040135392255955,0.0027985499241152,21.882359469296,-6.4941124245633e-05,-6.4941124245633e-05,-6.4941124245633e-05,3233579.8854018,0.010106528479523
27391759,0.58878350445113,0.010546461540118,0.0034780944448853,0.0039236421728895,0.0031447249223437,-0.00079224928046134,0.0007922490424343,2.0487506501622e-10,-4.4079341028448e-10,-3.7915804004097e-10,1.1885436963942e-10,-0.00041165678875579,0.00041165625266592,-0.00076499521232765,0.00076499569552566,-0.00076499548210582,0.00076499545490125,-0.00041165662737673,0.0004116564052355,-0.00041165712212673,0.00041165588201912,-0.00076499574468201,0.00076499517017947,-0.00076499590172055,0.00076499496446294,-0.00090391390301367,0.00090391372816867,-0.00090391412757805,0.00090391351889553,-0.00090391372944596,0.00090391390072089,-0.0009039139738261,0.00090391367856074,-0.00079616086948472,0.00079616144331605,-0.00079616150582042,0.00079616077519396,-0.00079616103134277,0.00079616126055368,-0.00079616164826853,0.00079616064156804,-0.00041165603417273,0.00041165702173868,3.7905882883651e-11,-4.0764020845968e-10,-4.6394612524081e-09,4.2769168410087e-09,-0.00098227634719823,0.00098227598372257,-0.00097078523051619,0.00097079377359433,-0.0009520478064726,0.00095204491919789,-0.00095204826410407,0.00095204451515006,-0.00096663402267244,0.00096663085424296,-0.00096663108324996,0.00096663382112677,-0.00096663416297109,0.00096663072121867,-0.00096663123828439,0.00096663367819223,-0.00097079416383853,0.00097078490235504,-0.00097078540116586,0.00097079362230141,-0.00095204485096766,0.00095204787730383,-0.0009520453178421,0.00095204745501865,-0.00097079401051452,0.00097078504296028,-5.401332010851e-10,4.974448206816e-12,-0.00068228183444497,0.00068228129862493,4.1612561381239e-09,-4.7442319450221e-09,-0.00059808446590166,0.00059807468064579,-0.00056792817302814,0.00056791899549497,-0.00056792829796878,0.00056791885115308,-0.00059807513740122,0.00059808397874537,-0.00059807575990586,0.0005980834130527,-0.00056791934305696,0.00056792776551538,-0.00056791958621216,0.00056792757062588,-0.00080047022562826,0.00080047248461083,-0.00080047317728942,0.00080046952448606,-0.00080047004246732,0.00080047266372665,-0.00080047301578317,0.00080046969165503,-0.00078824282179062,0.0007882397748438,-0.00078824332648339,0.0007882392589141,-0.00078824034461878,0.00078824226008645,-0.00078823978714235,0.00078824280433368,-0.00059808402488655,0.00059807516286173,0.74093825233706,128566,2924,0.0032964036042294,0.0040841324173209,0.002839137074611,22.214188047206,-6.2286495622355e-05,-6.2286495622355e-05,-6.2286495622355e-05,3249241.292206,0.010272448597951
27591759,0.59779444144015,0.010707902793757,0.0035312816464851,0.0039883606635707,0.0031882604837016,-0.00080503264399027,0.00080503236255635,1.6549153740595e-10,-4.4424926966623e-10,-2.9333407013963e-10,-1.2832699322786e-11,-0.00041704792841554,0.00041704722831567,-0.00077790442151422,0.00077790461279071,-0.00077790465919319,0.00077790440418013,-0.00041704758401153,0.00041704756629508,-0.0004170481099873,0.00041704700935125,-0.00077790471978672,0.00077790432416534,-0.00077790488592454,0.00077790410770729,-0.00091878570199091,0.00091878555060148,-0.00091878592137699,0.00091878534694823,-0.00091878560676328,0.00091878564357384,-0.00091878583127902,0.00091878544149277,-0.00080904566181326,0.00080904606497652,-0.00080904624217296,0.0008090454533533,-0.00080904573135821,0.00080904597446535,-0.00080904633289898,0.00080904537117524,-0.00041704726935078,0.00041704790387945,-5.2121166028273e-11,-3.0519677162459e-10,-4.5807240296135e-09,4.2290557037218e-09,-0.00099942693473142,0.00099942658262363,-0.00098801845920923,0.00098802682480634,-0.00096813032978928,0.00096812732161027,-0.00096813062224105,0.00096812708852387,-0.00098341632376109,0.00098341314496203,-0.00098341342442032,0.00098341606916504,-0.0009834164093618,0.00098341306871067,-0.00098341350978627,0.00098341599783521,-0.00098802722943957,0.00098801812456921,-0.0009880185456142,0.00098802675804201,-0.00096812743135683,0.00096813022364851,-0.00096812768972363,0.00096813001443762,-0.00098802711674148,0.00098801822109284,-5.567902778646e-10,4.3033328092984e-11,-0.00069203274846515,0.00069203223441364,4.1088811609486e-09,-4.6682944019759e-09,-0.00060598540901371,0.00060597566640493,-0.00057558418541344,0.000575575196654,-0.00057558434885361,0.00057557501332343,-0.00060597616046385,0.0006059848839798,-0.00060597677057641,0.00060598433028484,-0.00057557550193706,0.00057558381783099,-0.00057557574213635,0.00057558362737031,-0.00081287758338881,0.00081287981016562,-0.00081288050006245,0.00081287688492945,-0.00081287738810767,0.00081288000057795,-0.00081288031210232,0.00081287707804583,-0.00080087096545778,0.00080086805477843,-0.00080087154695254,0.0008008674651906,-0.00080086858428862,0.00080087044714072,-0.00080086799323797,0.00080087102381823,-0.00060598486107655,0.00060597625929268,0.75071315188416,128566,2924,0.0033495347316404,0.0041552763302537,0.0028796648595518,22.481918529236,-6.0144651766111e-05,-6.0144651766111e-05,-6.0144651766111e-05,3257859.6638679,0.010438971480227
27791759,0.60684147222444,0.010872288428265,0.0035853972588738,0.0040543052908974,0.0032325858784937,-0.00081796761601075,0.0008179672972815,1.758580133937e-10,-4.912651919209e-10,-2.3515062530981e-10,-1.107763789459e-10,-0.00042262434485365,0.00042262333373662,-0.00079112253049507,0.00079112256697053,-0.00079112280666628,0.00079112232010912,-0.00042262379341224,0.00042262387851639,-0.00042262430731231,0.00042262333537301,-0.00079112269593149,0.00079112241247984,-0.00079112285947214,0.00079112219798671,-0.00093379968698343,0.00093379956011947,-0.0009337999164557,0.00093379934709499,-0.00093379963501078,0.00093379960902536,-0.00093379988449901,0.00093379938215587,-0.00082215888767031,0.000822159285031,-0.00082215954977573,0.00082215859218883,-0.00082215893153386,0.00082215921980415,-0.00082215956409365,0.000822158586444,-0.00042262356919508,0.00042262412631718,-1.3394431374022e-10,-2.0499652467336e-10,-4.4716151974605e-09,4.1364028129687e-09,-0.0010168091932907,0.0010168088584266,-0.0010056100399049,0.0010056181882536,-0.00098442970456263,0.00098442657612589,-0.00098442979322252,0.00098442654949799,-0.0010003816745663,0.0010003785115536,-0.0010003788305686,0.0010003813756298,-0.0010003816939813,0.0010003785030869,-0.0010003788651464,0.0010003813574564,-0.0010056185587157,0.0010056097507264,-0.0010056100915724,0.0010056181591872,-0.00098442684514049,0.00098442943466615,-0.00098442695444038,0.00098442938410748,-0.0010056185308212,0.0010056097635583,-5.1665193818423e-10,4.490949983421e-11,-0.00070189188398351,0.00070189141276058,4.0469860496235e-09,-4.5601887029656e-09,-0.00061404000758708,0.0006140305749788,-0.00058342003004362,0.00058341122181663,-0.00058342016088381,0.0005834110721292,-0.0006140309555955,0.00061403958804135,-0.00061403160094366,0.00061403900350822,-0.00058341149100579,0.00058341969429519,-0.00058341174145483,0.00058341949603168,-0.00082540552217831,0.00082540773857769,-0.00082540837532193,0.00082540487701474,-0.00082540533055837,0.00082540792510445,-0.00082540820609462,0.00082540505115208,-0.00081374250302934,0.00081373962740395,-0.00081374302677959,0.00081373909854365,-0.00081374013873044,0.00081374200578742,-0.00081373956460771,0.00081374256532945,-0.0006140395529521,0.00061403106847598,0.76134594495078,128566,2924,0.0034032955077133,0.0042273742676888,0.0029206411910684,22.747941864278,-5.8016465085776e-05,-5.8016465085776e-05,-5.8016465085776e-05,3263319.3047398,0.010607575475068
27991759,0.61591768648238,0.011039716591194,0.0036404646625281,0.0041215297693634,0.0032777221593029,-0.00083105871314579,0.00083105836647897,1.6383521660836e-10,-5.0675832685156e-10,-2.0453658828292e-10,-1.7122482911077e-10,-0.00042831033717084,0.00042830921013494,-0.00080464827703335,0.00080464819480137,-0.00080464855328999,0.0008046479465446,-0.000428309690525,0.00042830985066856,-0.00042831021778441,0.00042830929573894,-0.0008046483513601,0.00080464813096975,-0.00080464851814342,0.00080464791403069,-0.00094896458744136,0.00094896446601174,-0.00094896482001033,0.00094896425095013,-0.00094896456670226,0.00094896448330515,-0.00094896481651149,0.00094896425632845,-0.00083548198414326,0.00083548232333752,-0.00083548264743485,0.00083548163291029,-0.00083548199549176,0.00083548229320806,-0.00083548263332667,0.0008354816521163,-0.00042830956623829,0.00042830999993009,-1.7344983293255e-10,-1.5482328578431e-10,-4.3778708834025e-09,4.0522479924878e-09,-0.0010344391038566,0.0010344387790458,-0.001023573270855,0.0010235812221361,-0.001000964239908,0.0010009610971343,-0.0010009642476371,0.0010009611549515,-0.0010175449916474,0.0010175418678984,-0.0010175422044487,0.0010175446710916,-0.0010175449830761,0.0010175418882474,-0.0010175422080607,0.001017544684509,-0.0010235815920607,0.0010235729931729,-0.0010235732907015,0.0010235812264427,-0.0010009614430898,0.0010009638914791,-0.0010009614611099,0.0010009639367335,-0.0010235815900251,0.0010235729797086,-4.972394896305e-10,7.9428667244032e-11,-0.00071187155033275,0.00071187113409239,3.9879105971698e-09,-4.4424714561034e-09,-0.00062238469478834,0.00062237548112141,-0.00059143620091351,0.00059142763282939,-0.00059143633900616,0.0005914274752111,-0.00062237580717297,0.00062238432635962,-0.00062237646286471,0.00062238373641882,-0.00059142783667157,0.00059143592690167,-0.00059142809135542,0.00059143572712807,-0.00083805894753243,0.00083806115488523,-0.00083806174282682,0.00083805835095351,-0.00083805875191466,0.0008380613450101,-0.0008380615673311,0.00083805853146762,-0.0008268874384304,0.00082688470122981,-0.00082688797647384,0.00082688415545605,-0.00082688515506959,0.00082688699644864,-0.00082688456323661,0.00082688756909007,-0.00062238422491267,0.00062237599096063,0.77288939618735,128566,2924,0.0034577042473829,0.0043004924158874,0.002962117404308,23.013895087428,-5.5888839300578e-05,-5.5888839300578e-05,-5.5888839300578e-05,3266474.0424998,0.01077839881164
28191759,0.62498313111769,0.01120967520487,0.0036963084815378,0.0041898435536048,0.0033235231697279,-0.00084417004238355,0.00084416967209867,1.4904694277703e-10,-5.1527204630739e-10,-1.8683955738566e-10,-2.1395382494575e-10,-0.00043407252958875,0.0004340713412818,-0.00081833502551686,0.00081833485007787,-0.00081833529250502,0.00081833461028167,-0.00043407182843237,0.00043407203666198,-0.00043407236963651,0.00043407147186139,-0.0008183350335017,0.00081833485216997,-0.00081833520520323,0.00081833463137998,-0.00096412642607826,0.00096412630171335,-0.00096412665960697,0.00096412608715173,-0.00096412642767558,0.00096412629670311,-0.00096412667313051,0.00096412607432475,-0.00084890782813826,0.00084890811079863,-0.00084890847776518,0.00084890743279833,-0.00084890781116431,0.00084890810700339,-0.00084890845171512,0.00084890746686421,-0.00043407178360103,0.00043407210931973,-1.9528946115866e-10,-1.2537755021367e-10,-4.2448541278555e-09,3.9264261256712e-09,-0.0010521546458759,0.001052154328289,-0.001041750063253,0.0010417577447287,-0.0010175825943266,0.0010175795010119,-0.0010175825602799,0.0010175796035639,-0.0010347491494824,0.0010347461024916,-0.0010347464465556,0.0010347488162464,-0.0010347491259805,0.0010347461379188,-0.0010347464305362,0.0010347488493625,-0.0010417581205785,0.0010417497929286,-0.0010417500600218,0.0010417577729443,-0.0010175798890771,0.0010175822018424,-0.0010175798508111,0.0010175823059642,-0.0010417581284316,0.0010417497688792,-4.6998991263053e-10,1.3174404773073e-10,-0.0007218266308385,0.00072182629530699,3.8982075435245e-09,-4.2668756589777e-09,-0.00063087632289889,0.0006308674126865,-0.0005995018897908,0.00059949368302183,-0.0005995020427987,0.00059949351047683,-0.00063086767610006,0.00063087601629368,-0.00063086833614751,0.00063087542375821,-0.00059949379321619,0.00059950170864215,-0.00059949405017094,0.00059950150828955,-0.00085069226197654,0.00085069445415315,-0.00085069497146296,0.00085069173604099,-0.00085069206039668,0.00085069465004813,-0.00085069478510388,0.00085069192734224,-0.00084011701877203,0.00084011448222162,-0.00084011758836312,0.00084011390523692,-0.00084011484974318,0.00084011666326376,-0.00084011423954415,0.00084011725272774,-0.0006308758084021,0.00063086796701137,0.78542227746561,128566,2924,0.0035121969007304,0.0043739579842621,0.0030034905859302,23.22398417453,-5.4208126603759e-05,-5.4208126603759e-05,-5.4208126603759e-05,3267058.0796352,0.010949582723164
28391759,0.63402019937106,0.011382063675966,0.0037528951939297,0.004259212969706,0.0033699555123302,-0.00085736218226149,0.00085736179821566,1.5160176744948e-10,-5.3137453529917e-10,-1.9128618148552e-10,-2.2407898374674e-10,-0.00043996079094766,0.00043995955241965,-0.00083223522291252,0.00083223503725352,-0.00083223549942387,0.00083223478726057,-0.00043996006671308,0.00043996027140253,-0.00043996061541395,0.00043995970444752,-0.00083223522898804,0.00083223504103048,-0.00083223540294225,0.0008322348178719,-0.00097934048601594,0.00097934035438481,-0.00097934072433846,0.00097934013594444,-0.00097934048811169,0.00097934034908594,-0.00097934074082448,0.00097934011962004,-0.00086249144943557,0.00086249173988925,-0.00086249212180226,0.00086249103840763,-0.00086249143442074,0.00086249173226401,-0.00086249209023477,0.00086249108007941,-0.00043996001759362,0.00043996035322754,-1.9876851117019e-10,-1.1941319389125e-10,-4.1449061465506e-09,3.8286933880451e-09,-0.0010700239783926,0.0010700236631687,-0.0010602046710932,0.0010602121626074,-0.0010343602497907,0.0010343572105542,-0.0010343602024159,0.0010343573274626,-0.0010520500793967,0.0010520470943297,-0.0010520474368611,0.0010520497427001,-0.0010520500508592,0.0010520471343986,-0.0010520474185592,0.0010520497776334,-0.0010602125383048,0.0010602044134825,-0.0010602046694438,0.0010602121900581,-0.0010343576042945,0.0010343598493165,-0.0010343575624994,0.0010343599592946,-0.0010602125532041,0.0010602043821298,-4.3336496540629e-10,1.6862311397741e-10,-0.00073182457769657,0.00073182431699196,3.8433269687327e-09,-4.1324295601558e-09,-0.00063953188160421,0.00063952324587845,-0.00060769100254405,0.00060768305774627,-0.00060769115187184,0.00060768288888328,-0.0006395234228783,0.00063953166039572,-0.00063952409468643,0.0006395310572784,-0.00060768308775055,0.00060769090007212,-0.00060768334933942,0.00060769069658416,-0.00086336587611084,0.00086336807662606,-0.00086336852144447,0.00086336542274012,-0.00086336567273446,0.00086336827423256,-0.0008633683359379,0.00086336561323724,-0.00085352073992803,0.00085351833628261,-0.00085352130631803,0.00085351776331826,-0.00085351863456343,0.00085352045438308,-0.0008535180204424,0.00085352104698328,-0.00063953137506667,0.00063952379207279,0.79903791514368,128566,2924,0.0035670252480221,0.0044480534212564,0.0030450408267099,23.414899960824,-5.2680800313405e-05,-5.2680800313405e-05,-5.2680800313405e-05,3264753.1877856,0.011121950687299
28591759,0.64302246672477,0.011555715435025,0.0038098685839569,0.0043291646730958,0.0034166821779723,-0.00087060605801516,0.00087060566776398,1.5415742159659e-10,-5.4004309895109e-10,-2.1010817798645e-10,-2.1176478267243e-10,-0.00044583864976651,0.00044583742240833,-0.00084622482703821,0.0008462246703945,-0.00084622510815385,0.00084622441530017,-0.00044583794374406,0.00044583812089625,-0.00044583850334098,0.00044583754677495,-0.00084622486457118,0.00084622464198327,-0.00084622504154759,0.00084622441628401,-0.00099460018759798,0.00099460004318347,-0.00099460042983395,0.00099459982170115,-0.00099460017949837,0.00099460004851664,-0.00099460043614325,0.00099459981522935,-0.00087617973160858,0.00087618003772545,-0.00087618041503933,0.00087617932421986,-0.00087617972673424,0.00087618001854179,-0.00087618039357115,0.00087617935694951,-0.00044583786354973,0.00044583823595022,-1.861051140871e-10,-1.3576149863823e-10,-4.1059402183448e-09,3.7857183604321e-09,-0.0010880213092552,0.0010880209905299,-0.0010788645480724,0.0010788719658259,-0.0010512965382455,0.0010512935508763,-0.0010512965196576,0.0010512936395882,-0.0010694278565472,0.0010694249036081,-0.0010694252383825,0.0010694275241113,-0.0010694278365828,0.0010694249342627,-0.0010694252288786,0.0010694275494476,-0.0010788723500999,0.0010788642914553,-0.0010788645568993,0.0010788719829317,-0.0010512939185856,0.001051296162079,-0.0010512939062823,0.0010512962437104,-0.0010788723560668,0.0010788642694823,-4.0982417888446e-10,1.9969457663504e-10,-0.00074185421225129,0.0007418540071163,3.8344288257561e-09,-4.0641548237165e-09,-0.00064830288791578,0.00064829438470522,-0.00061593207603128,0.00061592426841691,-0.00061593222690425,0.00061592409756275,-0.00064829450113031,0.00064830272547386,-0.00064829518333597,0.00064830211316096,-0.00061592423516208,0.00061593203388571,-0.00061592450068225,0.00061593182759511,-0.00087607896904187,0.00087608119525711,-0.00087608158853321,0.00087607856711275,-0.00087607876299636,0.00087608139563111,-0.0008760814005935,0.00087607876021755,-0.0008670497474061,0.00086704742994782,-0.00086705032086813,0.00086704685016976,-0.00086704767510553,0.00086704951571972,-0.00086704705269402,0.00086705011631067,-0.00064830237826232,0.00064829493509505,0.8078752195107,128566,2924,0.0036220678853697,0.0045226721834309,0.0030867218721031,23.605295400401,-5.1157636796791e-05,-5.1157636796791e-05,-5.1157636796791e-05,3260346.1456068,0.011295226346438
28791759,0.65198377909106,0.011724440580663,0.0038653350184504,0.0043971528841128,0.0034619526781002,-0.00088356615174568,0.00088356576042995,1.5796673712167e-10,-5.4493104311304e-10,-2.3337964714727e-10,-1.8950845344095e-10,-0.00045100060341623,0.0004509994118168,-0.00085965144170028,0.0008596513314954,-0.00085965172571644,0.00085965107394774,-0.00045099993194131,0.00045100007264563,-0.00045100050184104,0.00045099949046487,-0.00085965152362475,0.00085965125813131,-0.00085965170360403,0.00085965102924343,-0.0010096709021149,0.0010096707447966,-0.0010096711476214,0.0010096705205371,-0.0010096708794857,0.0010096707651953,-0.0010096711389929,0.0010096705291464,-0.00088947502104015,0.0008894753493038,-0.00088947571284677,0.00088947462764805,-0.00088947503083417,0.00088947531541188,-0.00088947570643718,0.00088947464498416,-0.00045099980801803,0.00045100023234537,-1.6747529615643e-10,-1.62720446355e-10,-4.1124291554063e-09,3.7841460445829e-09,-0.0011057461210751,0.0011057457945394,-0.0010971019903514,0.0010971094201629,-0.0010680112077407,0.0010680082561696,-0.0010680112345181,0.0010680082993663,-0.0010865728243996,0.0010865698767738,-0.0010865702035532,0.0010865724983768,-0.0010865728187489,0.0010865698922176,-0.0010865702080162,0.0010865725087934,-0.0010971098160476,0.0010971017280985,-0.001097102014046,0.0010971094223237,-0.0010680085864739,0.0010680108679915,-0.0010680086186498,0.0010680109050077,-0.0010971098065185,0.0010971017220906,-3.9812608286224e-10,2.2147539178837e-10,-0.00075162581450402,0.00075162564357682,3.8562500537097e-09,-4.0492733770395e-09,-0.00065675751530765,0.0006567490327213,-0.00062371735466652,0.00062370958050601,-0.00062371750873626,0.00062370940584064,-0.00065674911523454,0.00065675738662095,-0.00065674980607724,0.00065675676630221,-0.0006237095061618,0.00062371735156271,-0.00062370977526723,0.00062371714266125,-0.00088862047146885,0.00088862273013193,-0.00088862309356579,0.00088862009927039,-0.0008886202624158,0.00088862293367185,-0.00088862290207662,0.00088862029608237,-0.00088022681051921,0.00088022453303877,-0.00088022739454828,0.00088022394288225,-0.00088022474481561,0.00088022661273161,-0.0008802241130663,0.00088022722255218,-0.00065675699580471,0.00065674959460004,0.78846824487959,128566,2924,0.0036759302562604,0.0045961542859568,0.0031273307449032,23.795669373439,-4.9634645012487e-05,-4.9634645012487e-05,-4.9634645012487e-05,3257967.2925419,0.011465105814684
28991759,0.66096061867755,0.011886262248753,0.0039187322619657,0.0044623028714271,0.0035052271153605,-0.00089640499130275,0.0008964046179475,1.5689080771117e-10,-5.2610356661776e-10,-2.8779566406943e-10,-1.160020978626e-10,-0.00045594865469038,0.00045594765971981,-0.00087254429922313,0.00087254431588065,-0.00087254456575906,0.00087254407660767,-0.00045594812869069,0.00045594817432738,-0.00045594871050946,0.00045594757795228,-0.00087254449621416,0.00087254412773816,-0.00087254467944287,0.0008725438929576,-0.0010247151388837,0.0010247149545782,-0.0010247153812651,0.0010247147326566,-0.001024715078431,0.0010247150133805,-0.0010247153274463,0.0010247147879045,-0.00090245122615818,0.00090245158225321,-0.00090245188251042,0.00090245088805198,-0.00090245126185275,0.0009024515151885,-0.00090245193355498,0.00090245085565395,-0.00045594791127244,0.00045594842872896,-1.0838934154472e-10,-2.4828770615748e-10,-4.3409637973593e-09,3.9866303807078e-09,-0.0011232028407643,0.0011232024889485,-0.0011147249944009,0.0011147328579309,-0.0010845089762837,0.0010845060104778,-0.0010845091557538,0.0010845058986094,-0.0011036215283488,0.0011036184656307,-0.0011036187718997,0.0011036212274526,-0.0011036215728843,0.0011036184289385,-0.0011036188186847,0.0011036211934166,-0.0011147332894967,0.0011147246906025,-0.0011147250544279,0.0011147328231026,-0.0010845062250362,0.0010845087548077,-0.0010845063872424,0.0010845086593589,-0.0011147332205687,0.0011147247450628,-4.4369052171584e-10,2.1460116232077e-10,-0.00076135628139493,0.00076135605778807,4.0349178280015e-09,-4.2835652928166e-09,-0.00066494165618073,0.00066493264430594,-0.00063125959394984,0.00063125138298163,-0.00063125977153788,0.00063125118422157,-0.0006649328120352,0.00066494144042817,-0.00066493350780802,0.00066494081454143,-0.00063125134740408,0.00063125954751642,-0.00063125161854286,0.00063125933700168,-0.00090118572019644,0.00090118805457072,-0.00090118848296237,0.0009011852827589,-0.00090118550229621,0.00090118826714717,-0.00090118827468942,0.00090118549659772,-0.00089308396088467,0.00089308154267118,-0.00089308459419112,0.00089308090264029,-0.00089308179565501,0.00089308372215261,-0.00089308113783575,0.00089308435825236,-0.00066494106802341,0.00066493327681879,0.75490318945086,128566,2924,0.0037292844095673,0.004668519663137,0.0031677679730609,24.096182779975,-4.7230537760196e-05,-4.7230537760196e-05,-4.7230537760196e-05,3261550.4461973,0.011633198743953
29191759,0.66995481431363,0.012044646095339,0.003971117976965,0.0045259920842661,0.0035475360341077,-0.00090913187930347,0.00090913152057964,1.7044544342047e-10,-5.2527966483151e-10,-3.253807886932e-10,-6.2788446708994e-11,-0.0004608970348939,0.0004608961318832,-0.00088511547524083,0.00088511560076031,-0.00088511574648711,0.00088511535807014,-0.00046089658807956,0.0004608965692329,-0.00046089717800433,0.0004608959598291,-0.00088511576204919,0.00088511532335539,-0.00088511594744672,0.00088511508284499,-0.0010396588858729,0.001039658689091,-0.0010396591306028,0.0010396584635688,-0.0010396587954278,0.0010396587783735,-0.0010396590479757,0.0010396585491853,-0.00091519542536833,0.00091519584017337,-0.00091519609353595,0.00091519512915123,-0.00091519549220472,0.00091519574000567,-0.00091519617407615,0.00091519506961459,-0.00046089627835677,0.00046089691416834,-7.5816186926355e-11,-3.0326997772212e-10,-4.5657600293416e-09,4.1904685020049e-09,-0.0011403736645027,0.0011403732914157,-0.0011318263093194,0.001131834603992,-0.0011007651501493,0.0011007621053333,-0.0011007654126744,0.0011007619075872,-0.0011205362564746,0.0011205330605653,-0.0011205333611804,0.0011205359658679,-0.0011205363290704,0.0011205329945892,-0.0011205334368059,0.0011205359022029,-0.0011318350520881,0.0011318259821551,-0.0011318263993188,0.0011318345392154,-0.0011007622564178,0.0011007649938492,-0.001100762506476,0.0011007648096543,-0.0011318349546856,0.0011318260654936,-4.8016840423219e-10,1.8443642165642e-10,-0.00077109712412613,0.00077109683318697,4.213548502515e-09,-4.5335210207828e-09,-0.00067328881472136,0.00067327930306833,-0.00063877032173678,0.00063876162088297,-0.00063877050105888,0.00063876142030801,-0.00067327954099466,0.00067328853068027,-0.00067328024445511,0.00067328789601529,-0.00063876165322966,0.00063877020826439,-0.00063876192685925,0.00063876999530776,-0.00091372821090433,0.00091373061801064,-0.00091373111532623,0.00091372770433539,-0.00091372798994985,0.00091373083391646,-0.00091373090471734,0.00091372792089606,-0.00090572409124845,0.00090572146857544,-0.00090572473024212,0.00090572082264504,-0.00090572178761791,0.00090572378593286,-0.00090572112454873,0.00090572442839982,-0.00067328821830804,0.00067327994458407,0.73755731461169,128566,2924,0.0037821677135604,0.0047396949111742,0.0032082476581566,24.414508004734,-4.4683935962126e-05,-4.4683935962126e-05,-4.4683935962126e-05,3268532.5311393,0.01179968263836
29391759,0.67895794711497,0.012195542630571,0.004021225359272,0.004586578298738,0.0035877389725613,-0.00092146174704615,0.00092146140523168,1.9009195290956e-10,-5.283189850706e-10,-3.2889560664145e-10,-4.1299155339153e-11,-0.00046523667370618,0.00046523577533587,-0.00089682432364043,0.00089682450429636,-0.00089682460832287,0.00089682424984417,-0.00046523623249139,0.00046523621152231,-0.00046523682467586,0.00046523559204215,-0.00089682464161825,0.00089682419825133,-0.00089682482710894,0.00089682395319233,-0.0010543018349597,0.0010543016520511,-0.0010543020838786,0.0010543014203451,-0.0010543017346442,0.0010543017509418,-0.0010543019957331,0.0010543015130684,-0.00092736299856715,0.00092736346551076,-0.00092736369133691,0.00092736272394663,-0.0009273630789656,0.00092736335128311,-0.00092736377474329,0.00092736266237856,-0.0004652358795543,0.00046523659586049,-7.3865461813786e-11,-3.2052300100704e-10,-4.7068370583588e-09,4.3171090023422e-09,-0.0011570344337783,0.0011570340459068,-0.0011481221508113,0.0011481307067703,-0.0011165956864067,0.0011165925523943,-0.0011165959611359,0.0011165923393875,-0.0011370725911403,0.0011370692982454,-0.0011370696112727,0.0011370722960869,-0.0011370726680378,0.0011370692270102,-0.0011370696943642,0.0011370722241604,-0.0011481311536238,0.0011481218048444,-0.0011481222526637,0.0011481306298801,-0.0011165927011729,0.0011165955360155,-0.0011165929751859,0.0011165953269169,-0.0011481310553505,0.0011481218900533,-5.4718309832751e-10,1.1360960945331e-10,-0.00078055155869656,0.00078055112824709,4.2753625712837e-09,-4.7434842870078e-09,-0.00068115970956841,0.00068114980478737,-0.00064576564333891,0.00064575652120757,-0.00064576581674745,0.0006457563261265,-0.00068115016979035,0.00068115930104323,-0.00068115088573513,0.00068115865332133,-0.00064575670158276,0.00064576538248513,-0.00064575697920645,0.00064576516595099,-0.00092609150824295,0.00092609386705596,-0.00092609450034537,0.00092609086553389,-0.00092609128626533,0.00092609408409837,-0.00092609429237164,0.00092609107988741,-0.0009177768192834,0.00091777395904494,-0.00091777744975698,0.00091777332117802,-0.00091777441957456,0.00091777637215188,-0.00091777375586155,0.00091777701633306,-0.00068115913473063,0.00068115042704204,0.70228482628335,128566,2924,0.0038333975405785,0.0048087514355151,0.0032475372269849,24.733339687025,-4.2133282503797e-05,-4.2133282503797e-05,-4.2133282503797e-05,3278609.7158274,0.011961174900787
29591759,0.68796104294212,0.012340135270281,0.0040694007773746,0.0046445314699841,0.0036262030229224,-0.00093346603997514,0.00093346569506167,1.9342444292781e-10,-5.3485167683959e-10,-3.0602110682407e-10,-6.742421805995e-11,-0.00046929933834707,0.00046929837812471,-0.00090778100865558,0.00090778114169208,-0.00090778129793455,0.00090778088392877,-0.0004692988413755,0.00046929887516977,-0.00046929943816251,0.00046929824114584,-0.00090778128100191,0.00090778088534152,-0.00090778146606885,0.00090778063446268,-0.0010686515044408,0.0010686513382063,-0.0010686517558171,0.0010686511023765,-0.0010686514201848,0.0010686514202291,-0.0010686516843496,0.0010686511791123,-0.00093907322125549,0.00093907367796199,-0.00093907392192672,0.00093907292530438,-0.00093907328544989,0.00093907358051447,-0.00093907398848171,0.00093907287985798,-0.00046929853386566,0.0004692992089918,-1.0209007457124e-10,-2.9921637732153e-10,-4.6980038597363e-09,4.3014482454146e-09,-0.0011732018136594,0.001173201418928,-0.0011635865728706,0.0011635950820952,-0.0011320571726538,0.0011320539933117,-0.0011320573994273,0.0011320538285072,-0.0011532585123795,0.001153255206672,-0.0011532555463736,0.0011532581978908,-0.0011532585733797,0.0011532551517311,-0.0011532556132621,0.0011532581425738,-0.0011635955284326,0.0011635862132337,-0.0011635866585794,0.0011635950213628,-0.0011320541996982,0.0011320569692257,-0.0011320544247497,0.0011320568097034,-0.0011635954465816,0.001163586282303,-6.0465401384784e-10,6.507670716634e-11,-0.00078978342577716,0.00078978288797696,4.204468356818e-09,-4.7866657358497e-09,-0.00068868010212702,0.0006886701049522,-0.00065248279569845,0.00065247358917982,-0.00065248297187895,0.00065247339076439,-0.00068867057803337,0.00068867958620782,-0.00068867130389232,0.00068867892867897,-0.0006524738790587,0.00065248242483017,-0.00065247416015979,0.00065248220544553,-0.00093818889424806,0.0009381911379009,-0.00093819187805406,0.00093818814469346,-0.00093818866847646,0.00093819135773483,-0.00093819166773535,0.0009381883617581,-0.00092928823674104,0.00092928528661414,-0.00092928887701551,0.00092928463931703,-0.00092928585278858,0.00092928768475836,-0.00092928518080376,0.0009292883375531,-0.00068867952208871,0.00068867073373246,0.67337837665183,128566,2924,0.003883269555255,0.0048757594218811,0.0032859014275285,25.052069061625,-3.9583447507003e-05,-3.9583447507003e-05,-3.9583447507003e-05,3293553.5599176,0.012118310268302
29791759,0.69691809584617,0.012491617268223,0.0041196900802662,0.004705156546774,0.0036667706411828,-0.00094566333185222,0.00094566296401479,1.8703468861571e-10,-5.511457250823e-10,-2.526344121333e-10,-1.4512345954852e-10,-0.00047421062483236,0.00047420950068251,-0.00091937073350644,0.00091937071721454,-0.00091937102690955,0.00091937045586321,-0.00047420998848413,0.0004742101371684,-0.00047421059307246,0.00047420949356694,-0.00091937087847521,0.00091937059055909,-0.00091937106517742,0.00091937033590138,-0.001083024483404,0.0010830243412505,-0.0010830247388019,0.0010830241029278,-0.0010830244424758,0.0010830243799223,-0.0010830247097038,0.0010830241352651,-0.0009511666798772,0.00095116707930071,-0.00095116739003147,0.00095116631803146,-0.00095116669865366,0.00095116702523954,-0.00095116741480791,0.00095116631695835,-0.00047420980792459,0.00047421034076068,-1.6361272721408e-10,-2.2889580691963e-10,-4.4924450845335e-09,4.1040395197627e-09,-0.0011895204982962,0.0011895201118142,-0.0011793708682255,0.0011793789475864,-0.0011477602166653,0.0011477570500783,-0.0011477603152102,0.0011477570165066,-0.0011695410960046,0.0011695378871004,-0.0011695382604718,0.0011695407445485,-0.0011695411141773,0.0011695378763666,-0.0011695382846084,0.001169540733329,-0.0011793793889135,0.0011793705213942,-0.0011793709109495,0.0011793789304946,-0.0011477573775134,0.0011477598919036,-0.0011477574741699,0.0011477598638823,-0.0011793793507574,0.0011793705461601,-5.8803697441553e-10,9.0582936687286e-11,-0.00079928364676735,0.00079928315162423,4.0274639379876e-09,-4.5641852016905e-09,-0.00069702808942087,0.00069701852273249,-0.0006599403951599,0.00065993162914101,-0.0006599405740186,0.00065993142780986,-0.00069701895050761,0.00069702761877435,-0.00069701968664231,0.00069702695199704,-0.00065993187107802,0.00065994007184112,-0.00065993215597671,0.00065993984989394,-0.00095023950557922,0.00095024165546992,-0.00095024235585034,0.00095023879575207,-0.00095023927600212,0.00095024187826376,-0.00095024214332393,0.00095023901556718,-0.0009412367485311,0.00094123397873634,-0.00094123739782045,0.0009412333241095,-0.0009412345056327,0.00094123623812564,-0.00094123382444548,0.0009412369003411,-0.00069702750189221,0.00069701915851594,0.70917941897296,128566,2924,0.0039339386984441,0.0049433892233345,0.0033253791337113,25.304700068319,-3.7562399453447e-05,-3.7562399453447e-05,-3.7562399453447e-05,3301684.1079047,0.012278029771415
29991759,0.70582057898305,0.012650141689231,0.004172102840503,0.0047685918894973,0.0037094469592308,-0.00095811303710923,0.00095811264546126,1.8003507550791e-10,-5.6766049131753e-10,-2.131544346901e-10,-2.0991116624031e-10,-0.00047926556647312,0.00047926430542036,-0.00093173692106383,0.00093173678042221,-0.00093173721754058,0.00093173651536182,-0.00047926481734199,0.00047926505424588,-0.00047926543185167,0.00047926440211101,-0.00093173696460647,0.00093173675708385,-0.00093173715379483,0.00093173649909589,-0.0010975941440164,0.0010975940161212,-0.0010975944035275,0.0010975937754482,-0.0010975941375621,0.001097594020389,-0.0010975944076797,0.0010975937723965,-0.00096376429763036,0.00096376464931381,-0.00096376502130271,0.00096376388204317,-0.00096376428355162,0.00096376463012101,-0.00096376500925094,0.00096376391350967,-0.00047926473954012,0.00047926515402966,-2.1058546464096e-10,-1.7125951660991e-10,-4.2781797670154e-09,3.8994951326298e-09,-0.0012063341534727,0.0012063337769959,-0.0011960769641282,0.0011960846093676,-0.0011639498563202,0.0011639467361265,-0.0011639498538885,0.0011639468071687,-0.0011860899790084,0.0011860868818411,-0.0011860872774239,0.0011860895999289,-0.0011860899629657,0.0011860869063383,-0.0011860872672748,0.001186089623914,-0.0011960850454345,0.0011960766322909,-0.0011960769725817,0.001196084627185,-0.0011639471557013,0.001163949438924,-0.0011639471506748,0.0011639495162023,-0.0011960850418434,0.0011960766218197,-5.6203794673391e-10,1.2585957118863e-10,-0.00080900182996265,0.0008090013970567,3.8529651558286e-09,-4.323600748715e-09,-0.00070587045372336,0.00070586135169834,-0.00066780598180485,0.00066779769267656,-0.0006678061638223,0.00066779748817217,-0.00070586171632232,0.00070587004626703,-0.00070586246166308,0.00070586937102468,-0.00066779786562364,0.00066780572666434,-0.00066779815418782,0.00066780550239043,-0.00096242822592547,0.00096243029534574,-0.00096243093754547,0.00096242757432361,-0.00096242799276689,0.00096243052109012,-0.00096243072228251,0.00096242779713312,-0.00095378942042552,0.00095378686368124,-0.00095379007744881,0.00095378620033643,-0.00095378733013813,0.00095378897012576,-0.00095378663768885,0.00095378964111395,-0.00070586985659906,0.00070586199614177,0.74657308098639,128566,2924,0.0039856580666741,0.0050130640178744,0.0033657611243307,25.555608577864,-3.5555131377089e-05,-3.5555131377089e-05,-3.5555131377089e-05,3299881.5624301,0.012441821865271
30191759,0.71466097086032,0.012797722203389,0.004221052911259,0.0048276918453387,0.0037489774467913,-0.00096990700626362,0.00096990659635348,1.7584018984996e-10,-5.8145985428588e-10,-1.8561870735826e-10,-2.5678688195467e-10,-0.00048297754802647,0.0004829761848699,-0.00094282935462201,0.00094282912468765,-0.000942829654564,0.00094282885639656,-0.00048297671473305,0.00048297701539633,-0.00048297733871979,0.0004829763551989,-0.00094282932553357,0.00094282917494864,-0.00094282951736219,0.00094282891362538,-0.0011117122162317,0.001111712098323,-0.0011117124799633,0.0011117118553396,-0.0011117122345998,0.0011117120781036,-0.0011117125075754,0.0011117118267593,-0.00097552380574335,0.00097552412424804,-0.00097552453933143,0.00097552334788382,-0.0009755237657862,0.00097552412884221,-0.00097552450344416,0.00097552340552052,-0.00048297670975762,0.00048297704200978,-2.4482706146603e-10,-1.3087219547367e-10,-4.0819497221203e-09,3.7086534163603e-09,-0.0012225617162433,0.0012225613456758,-0.001211939515713,0.0012119467624884,-0.0011796455720819,0.0011796425126858,-0.0011796454973616,0.0011796426587727,-0.0012020778464748,0.0012020748577976,-0.0012020752700538,0.0012020774468822,-0.0012020778061206,0.001202074907423,-0.0012020752355592,0.0012020774960412,-0.0012119471974131,0.0012119391933863,-0.001211939499802,0.0012119468052294,-0.001179642999217,0.0011796450867391,-0.0011796429216025,0.0011796452393355,-0.0012119472182514,0.0012119391579235,-5.3767086164742e-10,1.5939424471083e-10,-0.00081806872860729,0.00081806835466701,3.6924976368761e-09,-4.1004989771831e-09,-0.00071337609428674,0.00071336742333893,-0.00067460361948317,0.00067459577242167,-0.00067460380441158,0.00067459556482756,-0.00071336772615214,0.00071337574603226,-0.00071336848170796,0.00071337506244428,-0.00067459587903597,0.00067460342807416,-0.00067459617156683,0.00067460320143787,-0.00097426255608169,0.00097426455404716,-0.00097426514165238,0.000974261959129,-0.00097426232008552,0.00097426478264842,-0.00097426492295352,0.00097426218503339,-0.00096552479743802,0.00096552243499464,-0.00096552546404981,0.00096552176265873,-0.00096552284465929,0.00096552440487223,-0.00096552214299909,0.00096552508417696,-0.00071337548890384,0.00071336807588528,0.70019171819648,128566,2924,0.0040346568089673,0.0050803041302046,0.0034034381198414,25.806446443238,-3.3548428454093e-05,-3.3548428454093e-05,-3.3548428454093e-05,3303667.5320578,0.01259768669444
30391759,0.72344109724804,0.012939070515134,0.0042680524612207,0.0048842509237705,0.0037867671301428,-0.00098140648001969,0.00098140606436856,1.7806593998717e-10,-5.8937881313183e-10,-1.829321197846e-10,-2.6544974833946e-10,-0.00048686273787938,0.00048686134703523,-0.00095331209039278,0.00095331184696557,-0.00095331239482799,0.00095331157562928,-0.00048686188154961,0.0004868621964901,-0.00048686251388446,0.00048686152697244,-0.00095331205113654,0.00095331190849747,-0.00095331224551102,0.00095331164377704,-0.0011255328430219,0.0011255327269418,-0.0011255331109955,0.0011255324814656,-0.001125532865781,0.0011255327032392,-0.0011255331417325,0.0011255324481226,-0.00098684371180367,0.00098684403135179,-0.00098684445709274,0.00098684324588288,-0.00098684366870207,0.00098684403944397,-0.00098684441604633,0.0009868433069412,-0.00048686188507888,0.00048686221187825,-2.5263626666488e-10,-1.2671088777524e-10,-3.9608226639394e-09,3.5835843318409e-09,-0.0012382377326702,0.0012382373585834,-0.0012269218493263,0.001226928846275,-0.0011948833790283,0.0011948803861678,-0.0011948832926241,0.0011948805449021,-0.0012177211702532,0.0012177182552001,-0.0012177186733667,0.0012177207621139,-0.0012177211257164,0.0012177183090029,-0.0012177186348262,0.0012177208153208,-0.0012269292884233,0.0012269215257702,-0.0012269218297226,0.0012269288928022,-0.0011948808869251,0.0011948828778679,-0.0011948807983801,0.0011948830423861,-0.0012269293130108,0.0012269214863798,-5.235086036315e-10,1.8220013563151e-10,-0.00082695320816133,0.00082695287198985,3.5913185630204e-09,-3.9589599946864e-09,-0.00072058207134574,0.00072057367225225,-0.00068125340220165,0.00068124583592226,-0.00068125358936445,0.00068124562577861,-0.00072057393385603,0.00072058176205704,-0.00072057470035881,0.0007205810692676,-0.00068124589839773,0.00068125325211247,-0.00068124619502434,0.00068125302282506,-0.00098585342178627,0.00098585537350977,-0.00098585592720246,0.00098585285870378,-0.00098585318281696,0.00098585560497112,-0.00098585570570596,0.00098585308746188,-0.00097676789181216,0.00097676565279929,-0.0009767685672339,0.0009767649722862,-0.00097676602715679,0.00097676753587382,-0.00097676531704982,0.00097676822377613,-0.00072058145970792,0.00072057433168797,0.67548311731291,128566,2924,0.0040824268899687,0.0051452545065066,0.0034403559976008,26.074797364354,-3.1401621085168e-05,-3.1401621085168e-05,-3.1401621085168e-05,3314957.4819499,0.012749244357354
30591759,0.73221979525224,0.013085251878388,0.0043165457396428,0.0049426750971644,0.0038260310415804,-0.00099336911029683,0.00099336870956845,1.8969719493973e-10,-5.863636137441e-10,-2.2929504587021e-10,-2.0312863511845e-10,-0.00049160467779869,0.00049160340793213,-0.00096459443266373,0.00096459431452163,-0.00096459474035423,0.0009645940416876,-0.00049160391878451,0.00049160415620101,-0.00049160456279628,0.00049160346965201,-0.00096459450042078,0.00096459426943264,-0.000964594696974,0.00096459400007341,-0.001139737537059,0.0011397374034741,-0.0011397378085895,0.0011397371551011,-0.001139737525403,0.0011397374157895,-0.0011397378035524,0.0011397371577585,-0.00099876505116282,0.00099876542846386,-0.00099876580100834,0.00099876463201615,-0.00099876504065374,0.00099876539966716,-0.00099876579826375,0.00099876465907338,-0.00049160381925027,0.00049160427011833,-2.0910061676675e-10,-1.9257618651793e-10,-4.0631228478566e-09,3.6646817293711e-09,-0.001254361771548,0.0012543613763317,-0.0012424938585627,0.0012425010505372,-0.0012105783512323,0.0012105753852342,-0.0012105783724324,0.0012105754341287,-0.0012337987115675,0.0012337957509482,-0.0012337961548651,0.0012337983190896,-0.00123379870221,0.0012337957680948,-0.0012337961510354,0.0012337983361425,-0.0012425015121279,0.0012424935110543,-0.0012424938743172,0.0012425010609791,-0.001210575799849,0.0012105779369579,-0.0012105758176436,0.0012105779929356,-0.0012425015001158,0.0012424935090771,-5.4506767545426e-10,1.7080526781962e-10,-0.00083635746610965,0.0008363570971255,3.6640428676673e-09,-4.066532825743e-09,-0.00072872345234071,0.00072871483092131,-0.00068867130014857,0.00068866352616315,-0.00068867149106238,0.00068866331174886,-0.00072871512706058,0.00072872310945845,-0.00072871590471084,0.00072872240679375,-0.00068866361903473,0.00068867111887647,-0.0006886639184792,0.00068867088698256,-0.00099777466295833,0.00099777664106663,-0.00099777723079109,0.00099777406370155,-0.00099777442150642,0.00099777687559152,-0.00099777700522168,0.00099777429626112,-0.00098861472592574,0.00098861241021387,-0.00098861540959641,0.00098861171839488,-0.00098861281496187,0.00098861433733439,-0.00098861209411443,0.00098861503479608,-0.0007287228324353,0.00072871550046514,0.69870694874258,128566,2924,0.0041321150821844,0.0052120572806068,0.0034794311692218,26.468252994013,-2.8253976047892e-05,-2.8253976047892e-05,-2.8253976047892e-05,3321860.4284678,0.012906826329882
30791759,0.74098791713376,0.013236231971988,0.0043664926228139,0.0050030086031841,0.0038667307459898,-0.0010055249146532,0.0010055245227529,1.9895537441753e-10,-5.8696750095752e-10,-2.6186502208568e-10,-1.6107697138556e-10,-0.00049646708905311,0.0004964658919335,-0.00097647514125912,0.00097647510964684,-0.00097647545253762,0.00097647483351724,-0.0004964663937621,0.00049646657564669,-0.00049646704510507,0.000496465878163,-0.0009764752825006,0.00097647499001893,-0.00097647548119973,0.00097647471679647,-0.001154110880938,0.0011541107349454,-0.0011541111558937,0.0011541104834987,-0.0011541108454025,0.0011541107722845,-0.0011541111265035,0.0011541105106503,-0.0010110718386691,0.0010110722640955,-0.0010110726145226,0.0010110714684061,-0.0010110718671297,0.0010110722150936,-0.001011072621887,0.0010110714581114,-0.00049646621945212,0.00049646676316507,-1.8109962688365e-10,-2.3884126015169e-10,-4.1557482530964e-09,3.7400869471464e-09,-0.0012708280911595,0.0012708276787603,-0.0012587204035123,0.0012587277685813,-0.0012265175421122,0.0012265145754571,-0.0012265176355766,0.0012265145506287,-0.0012500948734705,0.0012500918646017,-0.0012500922621438,0.0012500944894154,-0.0012500948877355,0.0012500918571648,-0.001250092282128,0.0012500944816412,-0.0012587282439251,0.0012587200362257,-0.0012587204440702,0.0012587277540437,-0.0012265149353404,0.0012265171843447,-0.0012265150263464,0.0012265171655873,-0.0012587282075208,0.0012587200587546,-5.6514681273369e-10,1.5967815701544e-10,-0.00084593752952689,0.00084593712892919,3.7320583255742e-09,-4.1682771666298e-09,-0.00073724825326243,0.00073723942397754,-0.00069635476427424,0.0006963467927788,-0.00069635495771074,0.00069634657555895,-0.0007372397513086,0.00073724787949256,-0.00073724053952766,0.00073724716671713,-0.00069634691575071,0.00069635455222071,-0.00069634721866863,0.0006963543173006,-0.0010098424907479,0.0010098444916489,-0.0010098451148835,0.0010098418577574,-0.0010098422461638,0.0010098447293051,-0.0010098448866943,0.0010098420933114,-0.0010008453668964,0.0010008429698979,-0.0010008460596408,0.0010008422693057,-0.0010008434063468,0.0010008449473113,-0.0010008426772895,0.0010008456536442,-0.00073724762632111,0.00073724010144324,0.72242073591013,128566,2924,0.0041826058981354,0.0052802722849926,0.0035192355931519,26.864978991195,-2.508016807044e-05,-2.508016807044e-05,-2.508016807044e-05,3322055.2454322,0.013067414297986
30991759,0.74973437741985,0.01339199579931,0.0044178659798009,0.005065303195016,0.0039088266244929,-0.0010178791454186,0.0010178787576182,2.0576138763085e-10,-5.8975074384313e-10,-2.8833977715303e-10,-1.3017750363721e-10,-0.00050148961402864,0.00050148846812641,-0.00098895827000284,0.0009889583025398,-0.00098895858460607,0.00098895802309605,-0.00050148896557228,0.00050148910498979,-0.00050148962475652,0.00050148839645972,-0.00098895846809741,0.00098895812629704,-0.00098895866906037,0.0009889578492482,-0.0011686138156166,0.001168613657907,-0.001168614093836,0.0011686134033248,-0.0011686137611006,0.0011686137143799,-0.0011686140452215,0.0011686134493062,-0.0010237319028088,0.0010237323617885,-0.0010237326902805,0.0010237315575225,-0.0010237319525339,0.0010237322938766,-0.0010237327145423,0.0010237315266674,-0.00050148873402844,0.00050148934753282,-1.5243456981676e-10,-2.6761701248397e-10,-4.2284452935459e-09,3.8125735422012e-09,-0.0012876068263356,0.0012876064139136,-0.0012755501132362,0.0012755576392532,-0.0012426712182613,0.0012426682597334,-0.0012426713677415,0.0012426681783372,-0.0012666040663084,0.0012666010283226,-0.0012666014074419,0.001266603701765,-0.0012666040989464,0.0012666010018287,-0.0012666014458229,0.0012666036748154,-0.0012755581132168,0.0012755497442638,-0.001275550172881,0.0012755576055511,-0.001242668563982,0.0012426709175531,-0.0012426687112343,0.0012426708419723,-0.0012755580577703,0.0012755497859324,-5.8131520456648e-10,1.5271028547472e-10,-0.00085568536803997,0.0008556849441817,3.7922118979404e-09,-4.2532136933331e-09,-0.00074617142229465,0.00074616241773646,-0.00070433029482656,0.00070432215929213,-0.00070433049106821,0.00070432193909265,-0.00074616276823214,0.00074617102542755,-0.0007461635666292,0.00074617030271475,-0.00070432230293029,0.00070433006090814,-0.00070432260927354,0.00070432982309649,-0.0010220529824696,0.0010220550061674,-0.0010220556549606,0.0010220523239999,-0.001022052734755,0.0010220552469824,-0.0010220554239573,0.0010220525626296,-0.0010134739176139,0.0010134714588388,-0.0010134746189016,0.0010134707492156,-0.0010134719181943,0.0010134734747094,-0.0010134711797544,0.001013474190137,-0.00074617078768483,0.00074616310319219,0.74698825426744,128566,2924,0.0042339217500689,0.0053497746724988,0.0035597355252519,27.261839313617,-2.1905285491066e-05,-2.1905285491066e-05,-2.1905285491066e-05,3317739.3102748,0.013230871628395
31191759,0.75851564215369,0.013555512939193,0.0044715878621751,0.0051308061600087,0.0039531189170093,-0.0010308561816773,0.00103085580926,2.324706309465e-10,-6.0119318874017e-10,-3.457453372761e-10,-5.6363219759973e-11,-0.00050699383367321,0.00050699276042381,-0.0010025327696281,0.0010025329724307,-0.0010025331091853,0.0010025326681211,-0.00050699327656613,0.00050699330424755,-0.00050699393547043,0.00050699259134623,-0.0010025331093245,0.0010025326544408,-0.001002533309662,0.0010025323756992,-0.0011836757348496,0.001183675557746,-0.0011836760213624,0.0011836752943284,-0.0011836756334949,0.0011836756619424,-0.001183675934201,0.0011836753797705,-0.0010372097283826,0.0010372102974869,-0.001037210568849,0.0010372094446315,-0.0010372098375716,0.0010372101740988,-0.0010372106199944,0.001037209379221,-0.00050699288010928,0.0005069937117197,-1.0633019639137e-10,-3.3452769399681e-10,-4.4490103822573e-09,4.012424908938e-09,-0.0013052116032746,0.0013052111710354,-0.001293541894155,0.0012935498606793,-0.001259561184877,0.001259558166117,-0.0012595614329301,0.0012595579854094,-0.0012838032537496,0.0012838000903623,-0.0012838004531633,0.0012838029084505,-0.0012838033184015,0.0012838000305016,-0.0012838005319401,0.0012838028399313,-0.0012935503415122,0.0012935415123945,-0.0012935420028138,0.0012935497767665,-0.0012595583806381,0.0012595609770763,-0.0012595586506671,0.0012595607772283,-0.0012935502608782,0.0012935415803524,-6.060029396585e-10,1.086344054479e-10,-0.00086599063940399,0.00086599014633741,3.9806048010305e-09,-4.5146079590887e-09,-0.00075594361258846,0.00075593414970657,-0.00071301661240989,0.00071300794395716,-0.00071301678913491,0.00071300774223723,-0.00075593453212025,0.0007559431800786,-0.00075593534900899,0.00075594244082588,-0.0007130081629816,0.00071301629798559,-0.00071300847551733,0.00071301605462191,-0.0010348018319314,0.0010348039403548,-0.001034804650499,0.0010348011117992,-0.0010348015867269,0.0010348041789392,-0.0010348044301065,0.001034801340065,-0.0010270024167275,0.001026999710059,-0.0010270030860544,0.0010269990309603,-0.0010270002495913,0.0010270018934306,-0.0010269995176676,0.0010270026019561,-0.00075594303512475,0.0007559347802025,0.78082574904221,128566,2924,0.0042878250219831,0.0054226914366541,0.0036025487932604,27.788014654773,-1.7695882761817e-05,-1.7695882761817e-05,-1.7695882761817e-05,3309215.4507302,0.013402780228438
31391759,0.76733879189825,0.01371366100545,0.0045236052602647,0.0051942768286802,0.0039957789165052,-0.0010436034865175,0.0010436031207172,2.2969166754781e-10,-5.9192565766571e-10,-3.7369967490792e-10,-2.1226047617639e-11,-0.00051142626739086,0.00051142529836404,-0.0010154108554465,0.0010154111160191,-0.0010154111836373,0.0010154108233242,-0.00051142578423849,0.00051142577044285,-0.00051142645352109,0.0005114250417882,-0.0010154112496669,0.0010154107432196,-0.0010154114525741,0.0010154104596294,-0.001198717035043,0.0011987168438576,-0.0011987173212119,0.0011987165803752,-0.0011987169163925,0.0011987169659578,-0.001198717210949,0.0011987166897717,-0.0010503770555967,0.0010503776316203,-0.0010503778785695,0.001050376802194,-0.0010503771797594,0.0010503774990186,-0.0010503779555817,0.001050376703128,-0.0005114253484182,0.00051142621381869,-7.6151994079442e-11,-3.8179649579089e-10,-4.6514218458437e-09,4.1992788296201e-09,-0.0013227975674311,0.0013227971188588,-0.0013113224565805,0.0013113308057986,-0.0012764878260185,0.001276484748028,-0.0012764881606607,0.001276484480191,-0.0013009300515469,0.0013009267714686,-0.00130092712746,0.0013009297167801,-0.0013009301438827,0.0013009266832294,-0.0013009272275891,0.001300929625556,-0.0013113313064056,0.0013113220478009,-0.0013113225824074,0.0013113307044112,-0.0012764849043348,0.0012764876790753,-0.0012764852396274,0.0012764874117357,-0.0013113311915741,0.0013113221499528,-6.5209974751518e-10,9.3184436503694e-11,-0.00087600932727395,0.00087600877189744,4.1308548435951e-09,-4.7307377829875e-09,-0.00076485476042152,0.00076484482420141,-0.00072109653736355,0.00072108746210539,-0.00072109673231689,0.00072108724137722,-0.0007648452939645,0.00076485424448521,-0.00076484611641001,0.00076485350050129,-0.00072108773662666,0.00072109616893138,-0.00072108805122862,0.00072109592420911,-0.0010475367578477,0.0010475389210983,-0.0010475397014706,0.0010475359671944,-0.001047536505995,0.0010475391661343,-0.0010475394687763,0.0010475362079875,-0.0010401876297932,0.0010401847841964,-0.0010401883351274,0.0010401840659868,-0.0010401853755978,0.0010401870520269,-0.0010401846189189,0.001040187782178,-0.00076485413455981,0.00076484550535011,0.75165982244712,128566,2924,0.0043407775871938,0.0054955239322979,0.0036441721114383,28.35543978058,-1.3156481755363e-05,-1.3156481755363e-05,-1.3156481755363e-05,3304070.7147158,0.01357246756179
31591759,0.77618833761423,0.013865549820524,0.00457370295861,0.0052552401884366,0.0040366066734778,-0.0010560975747074,0.0010560972105542,2.3590392262062e-10,-5.9656675213346e-10,-3.8148460755416e-10,-1.1641079108318e-11,-0.00051581222721505,0.00051581126624311,-0.0010275823845611,0.0010275826676789,-0.0010275827167743,0.0010275823717415,-0.00051581175153966,0.00051581173225123,-0.00051581242815403,0.00051581099154317,-0.0010275827965589,0.0010275822779302,-0.0010275830014089,0.001027581989517,-0.0012135579578467,0.0012135577661472,-0.0012135582473067,0.0012135574989873,-0.0012135578334041,0.0012135578942808,-0.0012135581317048,0.0012135576140972,-0.0010630649958645,0.0010630655921134,-0.0010630658338991,0.0010630647534741,-0.0010630651304219,0.0010630654544904,-0.0010630659121452,0.0010630646454228,-0.00051581129749715,0.00051581219213414,-7.3726032602665e-11,-3.9474230348183e-10,-4.7786728347075e-09,4.3164225530186e-09,-0.0013399375962691,0.0013399371375623,-0.0013282908311644,0.0013282994149445,-0.0012930405941435,0.0012930374394406,-0.001293040943205,0.0012930371574052,-0.0013177926525323,0.0013177892866887,-0.001317789648949,0.0013177923140904,-0.00131779274941,0.0013177891937182,-0.0013177897542179,0.0013177922175451,-0.0013282999234523,0.0013282904097989,-0.0013282909618966,0.0013282993083479,-0.001293037592088,0.0012930404531119,-0.0012930379432964,0.0012930401696677,-0.0013282998030736,0.0013282905173514,-6.8122742396441e-10,7.1991709250494e-11,-0.00088582387867658,0.00088582327237691,4.225846628562e-09,-4.8795509960629e-09,-0.00077326680836379,0.00077325657078004,-0.00072885339577489,0.00072884402937659,-0.0007288535922774,0.0007288438068154,-0.00077325709273716,0.00077326624057042,-0.00077325792364989,0.00077326548769927,-0.00072884435393577,0.00072885297653259,-0.00072884467199686,0.00072885272892096,-0.0010600961398182,0.0010600983324898,-0.0010600991650554,0.0010600952969396,-0.0010600958853032,0.0010600985802122,-0.0010600989300405,0.0010600955401211,-0.0010528658386178,0.001052862868823,-0.0010528665511281,0.0010528621433065,-0.0010528635104636,0.0010528652105226,-0.0010528627460764,0.001052865948234,-0.00077326617292878,0.00077325726208234,0.71981430832922,128566,2924,0.0043926733774806,0.0055665047305637,0.003684946679228,28.923993447866,-8.608052417073e-06,-8.608052417073e-06,-8.608052417073e-06,3307007.5851833,0.013738376460454
31791759,0.78492834689963,0.014007631128522,0.0046207573963341,0.0053122070828312,0.0040746666493568,-0.0010676488029234,0.0010676484011305,2.2185700796481e-10,-6.1973782265551e-10,-2.9543300187165e-10,-1.3759016806775e-10,-0.00051953141858168,0.00051953020039199,-0.0010382968300528,0.0010382968679955,-0.0010382971655779,0.0010382965691097,-0.00051953072428796,0.0005195308853054,-0.00051953141058331,0.0005195301364109,-0.001038297034315,0.0010382966882308,-0.0010382972420729,0.0010382963966545,-0.0012274768273636,0.0012274766717867,-0.00122747712087,0.001227476402363,-0.001227476772512,0.0012274767296068,-0.0012274770737885,0.0012274764462111,-0.0010745707095338,0.0010745712090059,-0.001074571561321,0.0010745703645831,-0.0010745707774661,0.0010745711427147,-0.0010745715660927,0.0010745703242292,-0.00051953047948788,0.00051953113465685,-1.6783576596785e-10,-2.7647320658038e-10,-4.4907305825574e-09,4.0515006581418e-09,-0.0013558329626226,0.0013558325266644,-0.0013435933419136,0.001343601335726,-0.0013084466893066,0.0013084435318734,-0.0013084468314863,0.001308443461622,-0.001333611878352,0.001333608646707,-0.001333609053785,0.0013336114897567,-0.0013336119066858,0.0013336086247368,-0.0013336090904155,0.0013336114642615,-0.0013436018272226,0.0013435929500339,-0.0013435934025515,0.001343601300486,-0.0013084438694718,0.0013084463614278,-0.0013084440135765,0.0013084462897633,-0.0013436017760277,0.0013435929868509,-6.4775727475816e-10,1.1509441629753e-10,-0.00089482144874484,0.0008948209198905,3.9923422012175e-09,-4.5636775631085e-09,-0.00078056467705103,0.00078055505238386,-0.00073566845178162,0.00073565971022606,-0.00073566865146186,0.00073565948462558,-0.00078055549456999,0.00078056418931066,-0.00078055633599273,0.00078056342783044,-0.00073565995099395,0.0007356681172162,-0.00073566027326001,0.00073566786721059,-0.0010718128499266,0.0010718149343566,-0.0010718156938653,0.0010718120803285,-0.0010718125923042,0.0010718151850085,-0.001071815455399,0.0010718123265934,-0.0010642930947885,0.0010642903935431,-0.0010642938172575,0.0010642896592297,-0.0010642909599159,0.0010642925426789,-0.0010642901854355,0.0010642932891497,-0.00078056403181991,0.00078055575160644,0.68196835276663,128566,2924,0.0044406485751646,0.0056323270780959,0.0037223283777348,29.261777111776,-5.9057831057955e-06,-5.9057831057955e-06,-5.9057831057955e-06,3316974.1787637,0.013891669155296
31991759,0.79338881427997,0.014158883449107,0.0046705483138177,0.0053727824318081,0.0041155527034816,-0.0010789698346023,0.0010789693578767,1.8680576322687e-10,-6.5868478567606e-10,-1.4861904808422e-10,-3.6384229595585e-10,-0.00052425003981259,0.00052424838071167,-0.0010497688183576,0.0010497684088991,-0.0010497691523975,0.0010497681114549,-0.00052424897081048,0.00052424944019647,-0.00052424967586255,0.00052424868021478,-0.0010497686531753,0.0010497686007785,-0.0010497688672249,0.0010497683069913,-0.0012407843281756,0.0012407842241942,-0.0012407846262817,0.0012407839545576,-0.0012407843966734,0.0012407841576274,-0.0012407846983791,0.0012407838739223,-0.0010861128346785,0.0010861131388161,-0.0010861136928103,0.0010861122983896,-0.0010861127791438,0.001086113200526,-0.0010861135753067,0.0010861123777801,-0.00052424910383882,0.00052424930857603,-3.2338043583202e-10,-6.3124804521729e-11,-3.8103555047255e-09,3.4273262693586e-09,-0.0013712687124827,0.0013712683314503,-0.0013588675266848,0.001358874172418,-0.0013232786693011,0.0013232756392848,-0.0013232784555768,0.001323275933997,-0.001348955341095,0.0013489524707968,-0.0013489529381832,0.0013489548766433,-0.001348955250779,0.0013489525713191,-0.0013489528538918,0.0013489549753921,-0.0013588746249437,0.0013588672058853,-0.0013588674630394,0.0013588742642133,-0.0013232762805877,0.0013232780295617,-0.001323276062036,0.0013232783296204,-0.0013588746917295,0.0013588671219978,-5.3894793906935e-10,2.3879706812672e-10,-0.00090372694640547,0.00090372665279274,3.4572185597129e-09,-3.7786850070922e-09,-0.00078886804407978,0.00078885994233146,-0.00074304528835851,0.00074303810032849,-0.00074304549695062,0.00074303786718238,-0.00078886015638538,0.00078886778893754,-0.00078886100176145,0.00078886702495788,-0.00074303809363977,0.00074304520753918,-0.00074303841898353,0.00074304495752558,-0.0010829309503848,0.0010829328239811,-0.0010829333578066,0.0010829304072177,-0.0010829306886063,0.001082933078051,-0.0010829331129852,0.0010829306590095,-0.0010758332592141,0.0010758312470895,-0.001075834001132,0.0010758304961728,-0.001075831580523,0.0010758329411365,-0.0010758307933822,0.001075833698317,-0.00078886737375447,0.00078886066230133,0.74979062885626,128566,2924,0.0044876616263751,0.0056962400570294,0.0037593259519061,29.279594773742,-5.7632418100603e-06,-5.7632418100603e-06,-5.7632418100603e-06,3317553.7736886,0.014041674704359
32191759,0.80157019951406,0.014307993124607,0.0047195277355901,0.0054325624170527,0.004155902971964,-0.0010899362644645,0.0010899357418496,1.7008407756289e-10,-6.8717388485363e-10,-8.5043562212845e-11,-4.7628928086588e-10,-0.00052794555656491,0.00052794366411426,-0.0010610472478318,0.0010610466200123,-0.0010610475855813,0.0010610463187589,-0.00052794429838419,0.00052794490265241,-0.00052794501771046,0.00052794414253843,-0.0010610469101622,0.0010610469861036,-0.0010610471291622,0.0010610466904074,-0.0012537871713811,0.0012537870843174,-0.0012537874752591,0.0012537868129954,-0.0012537872975329,0.0012537869597769,-0.0012537876030924,0.0012537866720148,-0.0010975005489001,0.0010975007638819,-0.0010975014256931,0.0010974999150677,-0.0010975004382168,0.0010975008828272,-0.0010975012461985,0.0010975000514013,-0.00052794460711577,0.00052794460201336,-3.9646824269674e-10,4.4909462987909e-11,-3.3015791246123e-09,2.9495155633242e-09,-0.0013866143308593,0.0013866139828602,-0.0013743886347809,0.0013743942809977,-0.0013380109779477,0.0013380081300199,-0.0013380105873745,0.001338008607666,-0.0013639440042348,0.0013639414313272,-0.0013639419179369,0.0013639435065457,-0.0013639438549785,0.0013639415929281,-0.0013639417750908,0.0013639436662366,-0.0013743947193786,0.001374388357662,-0.001374388511708,0.0013743944336823,-0.0013380089110955,0.0013380101902796,-0.0013380085179394,0.0013380106720519,-0.0013743948456922,0.001374388213979,-4.4272974465948e-10,3.4209266585535e-10,-0.00091226437026457,0.00091226427917914,3.0791120481688e-09,-3.1844950083211e-09,-0.00079672340598704,0.00079671646673258,-0.00074993156138535,0.0007499255458026,-0.00074993177115611,0.00074992531062097,-0.000796716465823,0.00079672335531668,-0.00079671732378382,0.00079672258170932,-0.00074992531818054,0.00074993169179208,-0.00074992564775214,0.00074993143920127,-0.0010937951945922,0.0010937969414762,-0.0010937972800351,0.0010937948469658,-0.0010937949305596,0.0010937971979175,-0.0010937970324313,0.0010937951010606,-0.0010872550885961,0.0010872536048837,-0.0010872558377558,0.0010872528491582,-0.0010872537426633,0.00108725496926,-0.0010872529474788,0.0010872557323972,-0.00079672272715674,0.00079671719210266,0.76436055332442,128566,2924,0.0045332099691958,0.0057597732169017,0.0037947953428518,29.288946880995,-5.6884249520358e-06,-5.6884249520358e-06,-5.6884249520358e-06,3309473.2701526,0.014188283357895
32391759,0.80947753636292,0.014455306827861,0.0047678159219912,0.0054916975736361,0.0041957933322341,-0.0011006757408784,0.0011006751944293,1.6337317626749e-10,-7.0385311891742e-10,-6.9881151002335e-11,-5.1672833024538e-10,-0.00053155429684357,0.00053155231093123,-0.0010722558029999,0.0010722550998861,-0.0010722561457142,0.0010722547943381,-0.00053155296876859,0.00053155361146952,-0.00053155369919317,0.00053155284848236,-0.0010722554116999,0.0010722555194076,-0.0010722556346142,0.001072255223129,-0.0012664800386243,0.001266479949553,-0.0012664803469587,0.0012664796768626,-0.0012664801830904,0.0012664798071805,-0.0012664804921674,0.001266479515775,-0.0011087300843266,0.0011087302695944,-0.0011087309771202,0.0011087294136347,-0.0011087299589699,0.0011087304065947,-0.0011087307751056,0.0011087295674818,-0.00053155333063308,0.00053155326028814,-4.1458945845898e-10,8.0573722939837e-11,-2.9397525770473e-09,2.6037848222786e-09,-0.0014017177649854,0.0014017174338459,-0.0013897987472307,0.0013898036967975,-0.0013525166083754,0.0013525139579407,-0.001352516165385,0.0013525144918687,-0.001378630244757,0.001378627902731,-0.0013786283853877,0.001378629740991,-0.0013786300771201,0.0013786280830834,-0.0013786282248788,0.0013786299187293,-0.0013898041290014,0.001389798496475,-0.0013897986072325,0.0013898038664163,-0.0013525147718823,0.0013525157820995,-0.0013525143281772,0.0013525163176047,-0.0013898042736063,0.0013897983339842,-3.721619240464e-10,4.2153888975789e-10,-0.00092060147279975,0.00092060153412514,2.8133213962584e-09,-2.7562187998341e-09,-0.00080440788481362,0.0008044017838091,-0.00075674175052993,0.00075673658023601,-0.00075674196159158,0.00075673634353011,-0.00080440162145599,0.00080440799140936,-0.00080440249321991,0.00080440720726614,-0.00075673618751096,0.00075674204200388,-0.00075673652214491,0.0007567417862826,-0.0011044183388147,0.0011044200008568,-0.0011044201937111,0.0011044181369773,-0.001104418071497,0.0011044202606056,-0.0011044199432975,0.0011044183937361,-0.0010985696843401,0.0010985685890527,-0.0010985704412224,0.0010985678263043,-0.0010985685796729,0.001098569712937,-0.0010985677738926,0.0010985704856688,-0.00080440720165476,0.0008044025125806,0.78118420969427,128566,2924,0.0045778175598592,0.0058222973973305,0.0038294317653762,29.29794968046,-5.6164025563162e-06,-5.6164025563162e-06,-5.6164025563162e-06,3299553.8995972,0.014332089825463
32591759,0.81710016003925,0.014588971706249,0.0048117874300894,0.0055453756839583,0.0042318085922018,-0.0011105139826457,0.0011105134358867,1.7314165600891e-10,-7.1395054371273e-10,-1.0310699135807e-10,-4.836580193148e-10,-0.00053395730255827,0.00053395535105349,-0.0010819363779003,0.0010819357506695,-0.0010819367320882,0.0010819354349683,-0.00053395601866662,0.00053395660296192,-0.00053395676009049,0.00053395583696164,-0.0010819360555246,0.0010819360997397,-0.0010819362820232,0.0010819358023655,-0.0012783861702829,0.0012783860645661,-0.0012783864849682,0.0012783857875342,-0.0012783862924582,0.0012783859460365,-0.0012783866092984,0.0012783856464311,-0.0011188647390991,0.0011188649707087,-0.0011188656603524,0.0011188640948427,-0.0011188646436385,0.0011188650832553,-0.0011188654722873,0.0011188642272271,-0.00053395630443566,0.00053395633011755,-3.855352316339e-10,4.9052456481126e-11,-2.7593679884962e-09,2.4217967014202e-09,-0.0014158217568985,0.0014158214238964,-0.0014038706802173,0.0014038752965401,-0.0013661519303845,0.001366149453554,-0.0013661515431976,0.0013661499313893,-0.0013923551927641,0.001392352986236,-0.0013923534485025,0.0013923547042269,-0.0013923550429158,0.0013923531478489,-0.0013923533084213,0.0013923548606735,-0.0014038757301943,0.0014038704368829,-0.0014038705640442,0.0014038754422986,-0.0013661502079785,0.00136615115928,-0.0013661498275832,0.0013661516314899,-0.0014038758586667,0.0014038702909402,-3.2648021173399e-10,4.6616315337756e-10,-0.00092809939456432,0.00092809954761983,2.6882224726883e-09,-2.5337417424069e-09,-0.00081061038517557,0.00081060473406183,-0.00076244176792669,0.00076243703154725,-0.00076244197480366,0.00076243679920492,-0.0008106044671388,0.00081061059762653,-0.00081060535144281,0.00081060980305036,-0.00076243654425848,0.00076244215568658,-0.00076243688318663,0.00076244189690086,-0.0011143529010245,0.0011143545366329,-0.0011143546397559,0.0011143527890341,-0.0011143526330057,0.001114354797372,-0.0011143543910422,0.0011143530441694,-0.0011087418039095,0.00110874090908,-0.0011087425553467,0.0011087401511835,-0.0011087408137557,0.0011087419177968,-0.0011087400048842,0.0011087426936522,-0.00081060971477444,0.00081060545008019,0.73524667765559,128566,2924,0.0046186853216984,0.0058806797962371,0.0038605836967613,29.270847155163,-5.833222758699e-06,-5.833222758699e-06,-5.833222758699e-06,3294248.6885547,0.014464390452074
32791759,0.82443209336527,0.014708348414846,0.0048512825140864,0.0055932533843235,0.0042638125164357,-0.0011195271750094,0.0011195266379162,1.772333122175e-10,-7.0846352280804e-10,-1.5867231231683e-10,-4.1765073149802e-10,-0.00053612520620148,0.00053612339781479,-0.001090205597566,0.0010902050957867,-0.001090205947988,0.0010902047851596,-0.00053612404075023,0.00053612452608649,-0.00053612479465824,0.0005361237508007,-0.0010902053907082,0.0010902053285105,-0.001090205620769,0.0010902050276366,-0.0012894270194684,0.001289426884789,-0.0012894273358757,0.0012894266068885,-0.0012894271038964,0.0012894268053021,-0.0012894274189824,0.0012894265073757,-0.0011278725115402,0.0011278727885587,-0.0011278734318002,0.0011278719214054,-0.0011278724559868,0.0011278728668299,-0.0011278732832733,0.0011278720047143,-0.00053612421985248,0.00053612436255501,-3.3040594503106e-10,-2.3001984481634e-11,-2.7618068672842e-09,2.4077644020385e-09,-0.001428603394883,0.0014286030458693,-0.0014160751283473,0.0014160797531555,-0.001378571330307,0.0013785689713358,-0.0013785710729007,0.0013785693183154,-0.0014050299089774,0.0014050277340408,-0.001405028169719,0.0014050294464989,-0.0014050298018994,0.0014050278518408,-0.0014050280691699,0.0014050295621877,-0.0014160802086912,0.0014160748638041,-0.0014160750495738,0.001416079860701,-0.001378569615921,0.0013785706678971,-0.0013785693551769,0.0013785710184195,-0.0014160802902212,0.0014160747652868,-3.188374594441e-10,4.9392965864092e-10,-0.00093494394569995,0.00093494413483476,2.6974520844947e-09,-2.505025365985e-09,-0.00081580793391159,0.00081580231041374,-0.000767449896809,0.00076744522815209,-0.00076745011384798,0.00076744498470676,-0.00081580201698686,0.00081580817024181,-0.00081580291001002,0.00081580736932893,-0.0007674446949556,0.00076745032727697,-0.00076744503701597,0.00076745006626574,-0.0011235455453382,0.0011235472051635,-0.0011235472797466,0.0011235454616039,-0.0011235452724954,0.0011235474709163,-0.0011235470230366,0.0011235457249239,-0.0011176932636065,0.0011176924357605,-0.0011176940376734,0.0011176916533881,-0.0011176923007141,0.0011176934165379,-0.001117691475407,0.0011176942079912,-0.00081580723548442,0.00081580305745924,0.68273836009839,128566,2924,0.0046561197391189,0.0059335864573966,0.0038890210052296,29.212676637127,-6.2985869029821e-06,-6.2985869029821e-06,-6.2985869029821e-06,3299388.0035228,0.014584916222014
32991759,0.83148186395947,0.014828381381194,0.0048908864649315,0.0056413327974432,0.0042961621188192,-0.001128507532102,0.0011285070074121,1.8900189371012e-10,-7.0796883293518e-10,-2.2169908459809e-10,-3.4129018381916e-10,-0.00053936212249483,0.00053936045076809,-0.0010988959998849,0.0010988956529012,-0.0010988963554247,0.0010988953385122,-0.00053936108204269,0.00053936145102288,-0.00053936184489696,0.00053936066809204,-0.0010988959307228,0.0010988957469341,-0.0010988961634789,0.001098895442776,-0.0013001608341147,0.0013001606694925,-0.0013001611542468,0.0013001603883415,-0.0013001608733692,0.0013001606368598,-0.0013001611921905,0.0013001603347323,-0.0011369053621694,0.0011369057122104,-0.0011369063030142,0.0011369048384617,-0.0011369053619817,0.0011369057463101,-0.0011369061906894,0.0011369048683022,-0.00053936112190627,0.00053936142851676,-2.7208161309348e-10,-1.0318936975323e-10,-2.8867400802486e-09,2.5118295743895e-09,-0.001440978551147,0.0014409781814759,-0.0014279346673145,0.0014279395410166,-0.0013904978150179,0.0013904954948528,-0.0013904976923564,0.0013904957053619,-0.0014174196105777,0.0014174173847783,-0.0014174177952783,0.0014174191735419,-0.0014174195479055,0.0014174174567808,-0.0014174177397432,0.0014174192428433,-0.0014279400180544,0.0014279343820549,-0.001427934634533,0.0014279396018626,-0.00139049602365,0.0013904972677137,-0.0013904958996416,0.0013904974796837,-0.0014279400535916,0.0014279343301855,-3.1484037189246e-10,5.0546452999013e-10,-0.00094194352550267,0.00094194373051248,2.8224188506012e-09,-2.6133298377383e-09,-0.00082187966212883,0.00082187382081154,-0.00077303194327122,0.00077302706412999,-0.00077303216115586,0.00077302681904619,-0.00082187350911231,0.00082187991620973,-0.00082187441329066,0.00082187910580693,-0.00077302651038177,0.00077303239202072,-0.00077302685639285,0.00077303212789837,-0.001132486537722,0.0011324882890505,-0.0011324883507367,0.0011324864666471,-0.001132486262389,0.0011324885575843,-0.0011324880916831,0.0011324867323866,-0.0011266948345349,0.0011266939488862,-0.0011266956154253,0.0011266931593472,-0.0011266937984737,0.0011266950034246,-0.0011266929662642,0.0011266958027793,-0.00082187895917907,0.00082187457503118,0.7139933387376,128566,2924,0.0046934076783551,0.0059848086990913,0.0039180991232453,29.153678720545,-6.7705702356411e-06,-6.7705702356411e-06,-6.7705702356411e-06,3305366.8034938,0.014704242505488
33191759,0.83825837138776,0.014950957373893,0.004931155390707,0.0056904330144809,0.0043293689687052,-0.0011374275708583,0.0011374270577305,1.9936730828911e-10,-7.069090156354e-10,-2.776298583337e-10,-2.7297933678629e-10,-0.00054246584935913,0.00054246430250234,-0.0011080297161101,0.0011080295069922,-0.0011080300757341,0.0011080291901942,-0.00054246492119714,0.00054246518852161,-0.00054246569222401,0.00054246439600602,-0.0011080297694754,0.0011080294780396,-0.0011080300041831,0.0011080291699583,-0.0013107554531065,0.0013107552624192,-0.0013107557761705,0.0013107549778678,-0.0013107554522704,0.0013107552710742,-0.0013107557738914,0.0013107549656464,-0.0011461285782677,0.0011461289926522,-0.0011461295372074,0.0011461281155843,-0.0011461286284186,0.0011461289893505,-0.0011461294560804,0.0011461280952343,-0.00054246483877464,0.00054246528887729,-2.2074508991844e-10,-1.7606342214801e-10,-3.0739443886384e-09,2.6785157848873e-09,-0.0014534263239133,0.0014534259338837,-0.0014402948096741,0.0014403000495185,-0.0014024261029081,0.0014024237681554,-0.0014024261024542,0.0014024238548633,-0.0014296774142632,0.0014296750925889,-0.0014296754835611,0.0014296769995861,-0.0014296773916726,0.0014296751232477,-0.0014296754679342,0.0014296770276591,-0.001440300545353,0.0014402945000892,-0.0014402948176472,0.0014403000690317,-0.001402424195688,0.0014024256577575,-0.0014024241932849,0.0014024257465098,-0.0014403005386796,0.0014402944911179,-3.3489012752336e-10,4.9489668541509e-10,-0.00094892870044801,0.00094892887456637,2.9830922859736e-09,-2.8069690713176e-09,-0.00082834217686005,0.0008283359478467,-0.00077873025112294,0.00077872499431236,-0.0007787304712176,0.00077872474584816,-0.00082833566701154,0.00082834239965749,-0.00082833658229717,0.0008283415803094,-0.00077872446821621,0.00077873066957368,-0.00077872481819413,0.00077873040257356,-0.0011413056570321,0.0011413074946461,-0.0011413075897034,0.0011413055522889,-0.0011413053789239,0.0011413077662454,-0.0011413073272341,0.0011413058213924,-0.0011359411946709,0.0011359401682405,-0.0011359419847717,0.0011359393688423,-0.0011359400478268,0.0011359413338173,-0.001135939206625,0.001135942142269,-0.00082834146743317,0.00082833671186694,0.75848139960263,128566,2924,0.0047304483154499,0.0060363273344511,0.003947116800103,29.094646623904,-7.2428270087707e-06,-7.2428270087707e-06,-7.2428270087707e-06,3302161.6092709,0.014823568908748
33391759,0.84486010384159,0.01507241337214,0.0049709827748814,0.005739138275515,0.0043622923217438,-0.0011465908951318,0.0011465904186832,2.7066390768282e-10,-7.4170494870236e-10,-3.9613074080131e-10,-1.1546238352697e-10,-0.00054540798779287,0.00054540653885942,-0.0011175190492454,0.0011175192236811,-0.0011175194831852,0.0011175188343656,-0.00054540722808079,0.0005454072534874,-0.00054540798885479,0.00054540646348792,-0.0011175194122856,0.0011175188842315,-0.0011175196429214,0.0011175185767213,-0.0013216083969466,0.0013216081741473,-0.0013216087412651,0.0013216078657775,-0.0013216082934776,0.0013216082872099,-0.0013216086627381,0.0013216079327667,-0.0011557091771728,0.0011557098640548,-0.001155710287421,0.0011557088512722,-0.0011557093674416,0.0011557097359483,-0.0011557102474105,0.0011557087656987,-0.00054540676516042,0.00054540773742203,-1.294665421213e-10,-3.062821398791e-10,-3.5837347325404e-09,3.1493003943877e-09,-0.0014662938367434,0.0014662934097589,-0.0014532679934609,0.0014532742638454,-0.0014147864198201,0.0014147839042816,-0.0014147865990609,0.0014147838096811,-0.001442195692022,0.0014421930717012,-0.001442193429324,0.0014421953191424,-0.0014421957280706,0.0014421930412378,-0.0014421934984859,0.0014421952610982,-0.0014532747563616,0.0014532676699737,-0.0014532681111264,0.0014532741714538,-0.0014147841543712,0.0014147861590345,-0.0014147844066264,0.0014147859903411,-0.001453274713504,0.0014532677005008,-3.6861098114169e-10,3.7384923907413e-10,-0.00095612687859598,0.00095612689654037,3.447266719448e-09,-3.4369751688211e-09,-0.00083493794150348,0.00083493066878672,-0.00078462060041033,0.00078461403734283,-0.00078462075185286,0.00078461385534819,-0.00083493043329119,0.00083493810958879,-0.00083493137698808,0.00083493726728809,-0.00078461369723893,0.00078462082180365,-0.00078461405724907,0.00078462054633779,-0.0011504365246807,0.0011504385915354,-0.0011504388103432,0.001150436295575,-0.001150436263483,0.0011504388470742,-0.0011504385899109,0.001150436523056,-0.0011455841049807,0.0011455824331138,-0.0011455847703606,0.0011455817550353,-0.0011455825035693,0.0011455840525256,-0.0011455817111907,0.0011455848142752,-0.00083493742929853,0.00083493124119352,0.77139461715033,128566,2924,0.004768503848224,0.0060895786488001,0.0039770181957592,29.270944538536,-5.8324436917112e-06,-5.8324436917112e-06,-5.8324436917112e-06,3294735.0726614,0.014946596487002
33591759,0.85133254311512,0.015193668306126,0.0050106766128838,0.0057878198283602,0.0043951718648822,-0.0011559111168365,0.0011559106606596,2.5967600892912e-10,-7.1077653048548e-10,-4.7018744221404e-10,-1.9671661750119e-11,-0.00054849877177584,0.00054849760198902,-0.0011272547210515,0.0011272550536597,-0.001127255124204,0.0011272546946177,-0.0005484982177465,0.00054849811552758,-0.00054849898953025,0.00054849730304316,-0.0011272552336718,0.0011272545629622,-0.0011272554657169,0.0011272542500774,-0.0013325870502494,0.001332586787023,-0.0013325873882279,0.0013325864826583,-0.0013325868985787,0.0013325869490673,-0.0013325872490605,0.0013325866134561,-0.0011654805360886,0.0011654812377202,-0.0011654815947751,0.0011654802957652,-0.0011654807717353,0.0011654810826948,-0.0011654816189359,0.0011654801204846,-0.00054849763893451,0.00054849870881469,-4.2994755775018e-11,-4.305593648246e-10,-4.1940490883263e-09,3.724908434016e-09,-0.0014793598132745,0.0014793593503791,-0.0014665278454145,0.0014665352940913,-0.001427360234081,0.0014273575190762,-0.0014273606448811,0.0014273571913724,-0.0014548599375093,0.0014548569658036,-0.0014548572974222,0.0014548596044367,-0.0014548600488058,0.0014548568588458,-0.0014548574262497,0.0014548594830225,-0.0014665358250049,0.0014665274573188,-0.0014665280151603,0.0014665351486865,-0.0014273576023124,0.001427360148662,-0.0014273580357245,0.0014273597918374,-0.0014665356936656,0.0014665275753836,-4.8141638605377e-10,3.2104502409268e-10,-0.00096347226550583,0.00096347211555954,3.9147130645137e-09,-4.0834275488818e-09,-0.00084163642561432,0.00084162778838745,-0.00079072020157839,0.0007907124063118,-0.00079072039094573,0.00079071218409333,-0.00084162777445518,0.00084163637844781,-0.00084162872090704,0.00084163553591882,-0.00079071222322217,0.0007907202668436,-0.00079071258434728,0.00079071999164394,-0.0011597213720394,0.0011597236341018,-0.0011597240353086,0.0011597209596803,-0.0011597210987785,0.0011597239011968,-0.0011597237895722,0.0011597212126218,-0.0011554750630399,0.0011554729334233,-0.0011554758051116,0.0011554721761558,-0.0011554731497461,0.0011554748643283,-0.0011554723132322,0.0011554756671196,-0.00084163582158095,0.00084162845789553,0.78538310951638,128566,2924,0.0048072116271908,0.0061436471531544,0.0040075296373028,29.571201491666,-3.430388066673e-06,-3.430388066673e-06,-3.430388066673e-06,3286823.9202476,0.015071749673992
33791759,0.85767217118874,0.015312192342574,0.0050494659478183,0.0058354499540945,0.0044272764406615,-0.0011650326623257,0.0011650322134639,2.6108779371183e-10,-7.049441956593e-10,-5.0783405304768e-10,2.5844306768286e-11,-0.00055126508567113,0.00055126402586128,-0.0011366981102051,0.0011366985248935,-0.00113669850662,0.0011366981744055,-0.00055126462076057,0.00055126445443575,-0.00055126539848588,0.00055126362751307,-0.0011366986992949,0.0011366979581328,-0.0011366989327634,0.0011366976384283,-0.0013433783494981,0.0013433780672387,-0.0013433786873942,0.0013433777606481,-0.0013433781722342,0.0013433782549776,-0.0013433785200755,0.0013433779216808,-0.0011750375058252,0.0011750382362329,-0.0011750385656205,0.0011750373103999,-0.0011750377758062,0.0011750380644589,-0.0011750386110334,0.0011750370901899,-0.00055126397525862,0.00055126511318986,-1.4222419456025e-11,-4.7939366326442e-10,-4.6596464230003e-09,4.1716648460319e-09,-0.0014922530861077,0.0014922526042855,-0.0014795988232886,0.0014796071655427,-0.0014398075369545,0.001439804583292,-0.0014398080292929,0.0014398041732848,-0.0014673132060178,0.0014673099428138,-0.0014673102719079,0.0014673128843643,-0.0014673133437122,0.0014673098087119,-0.0014673104241238,0.0014673127391264,-0.0014796077145173,0.0014795984008657,-0.0014795990121214,0.001479607000955,-0.0014398046126296,0.0014398075106763,-0.0014398051164571,0.0014398070822301,-0.0014796075495202,0.0014795985529655,-5.6138830605636e-10,2.6425143321555e-10,-0.00097061726391,0.00097061697521399,4.2916279612264e-09,-4.6079371424094e-09,-0.00084792573208201,0.00084791601857697,-0.00079658456289004,0.00079657574776064,-0.000796584763879,0.00079657551298343,-0.00084791616578877,0.00084792552339156,-0.00084791711922994,0.00084792467532629,-0.0007965757013815,0.00079658448967849,-0.00079657606563684,0.00079658421243245,-0.0011688450728191,0.0011688474970221,-0.0011688480405568,0.0011688445179719,-0.0011688447950816,0.0011688477690429,-0.0011688477855653,0.001168844779934,-0.0011651653007185,0.0011651627617127,-0.0011651660712446,0.0011651619757422,-0.0011651631066632,0.0011651649731344,-0.0011651622552419,0.0011651657913125,-0.00084792508214382,0.00084791673576883,0.78367691522387,128566,2924,0.0048450957971287,0.0061969974041958,0.0040372085683745,29.874795331643,-1.0016373468545e-06,-1.0016373468545e-06,-1.0016373468545e-06,3279348.7559263,0.015194508657068
33991759,0.86387451064142,0.015424183138682,0.0050861985069967,0.0058804621016313,0.0044575225300537,-0.0011737793864173,0.0011737789347901,2.6149616416286e-10,-7.0802717915275e-10,-5.1355025959797e-10,2.8655148869578e-11,-0.00055365351910633,0.00055365246591436,-0.0011454693237152,0.0011454697433792,-0.001145469720655,0.0011454693943975,-0.0005536530614025,0.00055365289282895,-0.00055365384287638,0.00055365205311387,-0.0011454699211413,0.0011454691716226,-0.0011454701549156,0.0011454688460649,-0.0013538238307895,0.0013538235451876,-0.0013538241696545,0.0013538232356713,-0.0013538236511581,0.0013538237347568,-0.0013538239997923,0.0013538234005193,-0.0011841064125395,0.001184107149285,-0.0011841074880957,0.0011841062303448,-0.0011841066986371,0.0011841069827365,-0.0011841075225104,0.0011841059916616,-0.00055365241118327,0.00055365355263136,-1.2168554023733e-11,-4.9144783954702e-10,-5.0081435413584e-09,4.5106392331265e-09,-0.0015046590648009,0.0015046585732135,-0.0014919713120224,0.0014919803189905,-0.0014518275750286,0.0014518244007933,-0.0014518280833606,0.0014518239755937,-0.001479338335726,0.0014793348411372,-0.0014793351786131,0.001479338012326,-0.0014793384784692,0.0014793347020341,-0.0014793353348313,0.0014793378631956,-0.001491980875418,0.0014919708705404,-0.0014919715023271,0.0014919801522995,-0.0014518244282539,0.0014518275551138,-0.0014518249443311,0.0014518271145749,-0.0014919807007682,0.0014919710316036,-6.2356182408296e-10,2.1736134801002e-10,-0.00097742762668805,0.00097742722734231,4.5710320159368e-09,-5.0049018080768e-09,-0.00085360877785205,0.00085359826443159,-0.00080203528730039,0.00080202569708055,-0.0008020354933506,0.00080202545596896,-0.00085359852976226,0.0008536084515135,-0.00085359949477186,0.0008536075944584,-0.00080202576072405,0.00080203510292557,-0.0008020261298795,0.00080203482250609,-0.0011776661455833,0.0011776686854995,-0.0011776693418873,0.0011776654776809,-0.0011776658639462,0.0011776689616532,-0.0011776690810062,0.0011776657451974,-0.0011743206164612,0.0011743177570225,-0.0011743214044553,0.0011743169539579,-0.0011743182079693,0.0011743201837689,-0.0011743173446964,0.001174321013965,-0.00085360810772227,0.00085359900413025,0.75679008395631,128566,2924,0.0048814228419669,0.0062483285903879,0.0040654976588954,30.178527339528,1.4282187162227e-06,1.4282187162227e-06,1.4282187162227e-06,3275347.6308835,0.01531224202199
34191759,0.8700263621671,0.015533029165123,0.0051219546541863,0.0059241938039777,0.0044868807069592,-0.0011828919370983,0.0011828915029893,3.2143049376905e-10,-7.504627273347e-10,-5.7708809661948e-10,1.1044463678628e-10,-0.00055673199678064,0.00055673091012746,-0.0011544925613357,0.0011544932094406,-0.0011544930266019,0.0011544927944719,-0.00055673158507675,0.00055673129115647,-0.00055673236042041,0.00055673044760106,-0.0011544933359085,0.0011544924616435,-0.0011544935668276,0.0011544921329082,-0.0013645959175434,0.0013645956242305,-0.0013645962778347,0.0013645952908006,-0.0013645956788688,0.0013645958737403,-0.0013645960733842,0.001364595493412,-0.0011934391170381,0.001193440054918,-0.0011934403318794,0.0011934390046287,-0.0011934394910134,0.001193439808863,-0.0011934403736357,0.0011934387457495,-0.00055673069261284,0.00055673219218146,2.3699245063155e-11,-5.5061028905715e-10,-5.4446974152902e-09,4.9222605022028e-09,-0.0015172343684506,0.0015172338542984,-0.0015043065112215,0.001504316389298,-0.0014640044079605,0.0014640009899882,-0.001464004975613,0.0014640005044483,-0.0014916538745828,0.0014916500971034,-0.0014916504295554,0.0014916535658685,-0.0014916540359251,0.001491649937763,-0.0014916506270149,0.0014916533727324,-0.0015043169347114,0.0015043060670514,-0.0015043067654386,0.0015043161581684,-0.0014640009482066,0.0014640044613818,-0.0014640015932105,0.0014640038945909,-0.0015043167603748,0.0015043062296334,-6.6403556686239e-10,9.3274315526334e-11,-0.0009846666049234,0.00098466603919395,4.967258652838e-09,-5.5769774584518e-09,-0.00085975949125697,0.00085974803222237,-0.00080797918564994,0.00080796840819745,-0.00080797932782559,0.00080796822917675,-0.00085974836426958,0.00085975909323626,-0.00085974935178649,0.000859758215738,-0.00080796866425107,0.00080797879387553,-0.00080796904249414,0.00080797850885915,-0.0011868360811314,0.0011868387993586,-0.0011868395906271,0.0011868352781853,-0.0011868358156942,0.0011868390584829,-0.0011868393689487,0.0011868355058941,-0.0011837090919568,0.001183705630551,-0.0011837097630979,0.0011837049435531,-0.0011837062811186,0.0011837084618835,-0.001183705463457,0.0011837092430482,-0.00085975900290214,0.00085974859823702,0.74153685448984,128566,2924,0.0049192610662596,0.0063003598635055,0.0040955635534558,30.743737928786,5.9499034302909e-06,5.9499034302909e-06,5.9499034302909e-06,3276887.7700427,0.0154340381597
34391759,0.87614265476083,0.015640374946742,0.005157239345511,0.0059673072025438,0.0045158283986869,-0.0011920830847537,0.0011920826478544,1.6966009623581e-10,-6.0137559974117e-10,-5.8805704711381e-10,1.1868485064163e-10,-0.00056006555541481,0.00056006514552043,-0.0011635666705962,0.0011635671149887,-0.0011635669158318,0.0011635669173411,-0.00056006548021273,0.00056006519019653,-0.00056006627814077,0.00056006431270735,-0.0011635673498596,0.0011635664636564,-0.0011635675889597,0.0011635661186882,-0.0013754175502373,0.0013754171924583,-0.0013754178532424,0.0013754169144204,-0.0013754173455819,0.0013754174058682,-0.0013754176021362,0.0013754171626073,-0.0012027989897612,0.0012027995215463,-0.0012027998021949,0.0012027988921863,-0.001202799259579,0.0012027993930159,-0.0012027999575218,0.001202798494899,-0.00056006491951898,0.00056006575483121,6.7607004005376e-11,-6.2505956968273e-10,-5.8460028741545e-09,5.2940300528982e-09,-0.0015297782460355,0.0015297777034972,-0.0015165188546102,0.0015165293815132,-0.0014761191390919,0.0014761156722839,-0.0014761199393517,0.0014761149454981,-0.0015040001728865,0.0015039961920037,-0.0015039965151173,0.0015039998784766,-0.001504000414762,0.0015039959540085,-0.001503996714181,0.0015039996911843,-0.0015165300651608,0.0015165182566162,-0.0015165190389212,0.0015165292347807,-0.0014761155425556,0.0014761192789023,-0.0014761161833036,0.0014761187192494,-0.0015165297397042,0.00151651858289,-8.8018809290025e-10,1.9670463856567e-10,-0.00099203911858867,0.00099203843819584,5.1550952779587e-09,-5.8867260991486e-09,-0.00086614973544001,0.0008661369967415,-0.00081408185875058,0.00081407070378785,-0.00081408222734826,0.00081407029002148,-0.00086613777406885,0.00086614887472223,-0.00086613876026432,0.00086614800841497,-0.00081407096447723,0.00081408145799515,-0.00081407133444772,0.00081408117453423,-0.0011960724136292,0.0011960751254234,-0.001196076131446,0.0011960713944749,-0.0011960720877906,0.0011960754491196,-0.0011960757658008,0.0011960717674815,-0.0011931214730173,0.0011931181623686,-0.0011931225700367,0.0011931170415159,-0.0011931188029152,0.0011931208440757,-0.0011931177918505,0.0011931218226201,-0.00086614856236426,0.00086613822888532,0.73560164903688,128566,2924,0.0049574206598163,0.0063522595146224,0.0041261824999061,31.386245569193,1.1089964553542e-05,1.1089964553542e-05,1.1089964553542e-05,3280985.7240786,0.015556602684487
34591759,0.88221031310385,0.015750723448866,0.005193420000152,0.0060116309426116,0.0045456725061022,-0.0012014105119348,0.0012014100667571,2.6285195833251e-10,-7.02609794856e-10,-5.8987655470557e-10,1.118389202507e-10,-0.00056373607181648,0.00056373522616416,-0.0011730561609253,0.0011730567249991,-0.0011730565414082,0.0011730563977672,-0.00056373578370908,0.00056373549574463,-0.00056373658406533,0.00056373461509584,-0.0011730569029172,0.001173056015769,-0.0011730571413465,0.0011730556668958,-0.0013862899380621,0.0013862896075052,-0.0013862902751705,0.0013862892947536,-0.0013862897102287,0.0013862898454344,-0.0013862900509555,0.0013862895179954,-0.0012123559179741,0.0012123567125349,-0.0012123570163144,0.0012123558286853,-0.0012123562836671,0.0012123565177412,-0.0012123570755013,0.0012123554920625,-0.00056373501521273,0.00056373627351487,4.2482595656452e-11,-5.9924939263651e-10,-5.9092113555317e-09,5.3591320200778e-09,-0.0015424440979051,0.0015424435550493,-0.0015289955904224,0.0015290062926068,-0.0014882889784293,0.0014882853436046,-0.0014882896517906,0.0014882847499496,-0.0015164461485479,0.0015164420841282,-0.0015164424265462,0.0015164458378488,-0.0015164463470942,0.0015164418882114,-0.0015164426331705,0.0015164456392924,-0.0015290069093929,0.0015289950571261,-0.0015289958169569,0.0015290060917731,-0.001488285267321,0.0014882890710326,-0.0014882859391425,0.0014882884797977,-0.0015290066569528,0.0015289952976496,-8.2015614632427e-10,8.275099634107e-11,-0.00099958271472068,0.00099958197935181,5.2552398295471e-09,-6.0453401427638e-09,-0.00087301739902849,0.00087300469504724,-0.00082048955864453,0.00082047795323746,-0.00082048979287192,0.00082047767927638,-0.00087300535428571,0.00087301667002995,-0.00087300635605545,0.00087301578512169,-0.00082047833888105,0.00082048903869524,-0.00082047872096357,0.00082048875035046,-0.0012053609580416,0.0012053637362171,-0.0012053647419008,0.00120535994021,-0.0012053606605725,0.0012053640293255,-0.0012053644537076,0.0012053602337418,-0.0012027992839975,0.0012027955876015,-0.0012028001412834,0.0012027947130988,-0.0012027963536477,0.0012027985358815,-0.0012027954478728,0.0012027994067848,-0.00087301658079147,0.00087300558416496,0.76226247361703,128566,2924,0.0049961433187689,0.0064046609074016,0.0041575103634357,32.03088232848,1.6247058627844e-05,1.6247058627844e-05,1.6247058627844e-05,3283448.2202952,0.015680981179649
34791759,0.88829378952768,0.015865646292182,0.0052309901970234,0.006057835652661,0.0045768204424979,-0.001211366419976,0.0012113659834912,2.6991285356819e-10,-7.0075685169744e-10,-6.4183404405759e-10,1.7244032936042e-10,-0.00056767400017182,0.00056767329266867,-0.0011834325803629,0.0011834332607451,-0.0011834329586418,0.0011834329357928,-0.00056767382273328,0.00056767343841876,-0.00056767462488182,0.00056767254717417,-0.0011834334292982,0.0011834324412753,-0.0011834336676364,0.0011834320880476,-0.0013978027243383,0.0013978023694951,-0.001397803064781,0.0013978020529295,-0.0013978024618362,0.0013978026427568,-0.0013978028024927,0.0013978023150334,-0.0012226928051085,0.0012226936493298,-0.0012226939151568,0.0012226927735654,-0.001222693214579,0.0012226934249757,-0.0012226940028629,0.0012226923837005,-0.00056767295887751,0.00056767431522252,7.4007357714258e-11,-6.5418973654084e-10,-6.126165547083e-09,5.5483306841885e-09,-0.00155596906689,0.0015559685016885,-0.001542561055557,0.0015425721451616,-0.0015012912315727,0.0015012875305326,-0.0015012919943454,0.0015012868426989,-0.0015295997762168,0.0015295955875779,-0.0015295959210485,0.0015295994766754,-0.0015296000053496,0.0015295953600995,-0.0015295961533427,0.0015295992523918,-0.0015425728004816,0.0015425604841425,-0.0015425613120742,0.0015425719185136,-0.0015012873897097,0.0015012913854555,-0.0015012881443864,0.0015012907201604,-0.0015425725201507,0.0015425607642869,-8.6563419439342e-10,5.054137769781e-11,-0.0010077035500322,0.0010077027366209,5.4399490259265e-09,-6.3112304910624e-09,-0.0008805769930552,0.00088056377209958,-0.00082751802113415,0.0008275059082235,-0.00082751826433969,0.00082750562091151,-0.00088056448685062,0.00088057618442228,-0.00088056550695966,0.00088057528698259,-0.00082750634665803,0.00082751741561194,-0.00082750673539533,0.00082751712430053,-0.0012152649548591,0.0012152678063543,-0.0012152688932321,0.0012152638550543,-0.0012152646549118,0.001215268102598,-0.0012152685982571,0.0012152641552885,-0.0012133028625892,0.0012132989527426,-0.0012133037388434,0.0012132980596044,-0.0012132997956201,0.001213302040787,-0.0012132988759092,0.0012133029246794,-0.00088057618113056,0.00088056466036454,0.79180217640648,128566,2924,0.0050374766305294,0.006460612945399,0.0041912333356788,32.908760752963,2.3270086023704e-05,2.3270086023704e-05,2.3270086023704e-05,3281818.4695184,0.015814066521935
34991759,0.89442400932719,0.015976058903893,0.005267185463015,0.0061022497913655,0.004606623649512,-0.0012213533351004,0.001221352912098,3.3103426304226e-10,-7.4829801143587e-10,-6.9519700270877e-10,2.4041443426877e-10,-0.00057098748152248,0.00057098669326938,-0.0011934332782025,0.0011934341649158,-0.0011934337300278,0.0011934337676209,-0.00057098731417286,0.00057098683307948,-0.00057098811983219,0.0005709859280698,-0.001193434283018,0.0011934331899994,-0.0011934345205596,0.0011934328344978,-0.0014095273465293,0.0014095269891349,-0.0014095277104047,0.0014095266481091,-0.0014095270327416,0.0014095273146425,-0.0014095274215598,0.0014095269382161,-0.0012330085418226,0.0012330095861546,-0.0012330098079021,0.0012330085766202,-0.0012330090414348,0.0012330092917263,-0.0012330098843862,0.0012330081693187,-0.00057098622529737,0.00057098793058777,1.1756414455491e-10,-7.2263019843759e-10,-6.3504075413499e-09,5.7494894992777e-09,-0.001569698664228,0.0015696980752665,-0.001556165271243,0.001556176823726,-0.00151459182852,0.0015145880370109,-0.0015145926676654,0.0015145872745534,-0.0015429020845617,0.0015428977547963,-0.0015428980768151,0.0015429017997699,-0.0015429023380262,0.0015428975025664,-0.0015428983574676,0.0015429015266365,-0.0015561774635833,0.001556164707913,-0.0015561656002518,0.0015561765237092,-0.0015145878128993,0.0015145920712384,-0.0015145887116003,0.0015145912588076,-0.0015561771794434,0.0015561649913506,-8.5972979710101e-10,-3.3559073238201e-11,-0.0010157854318647,0.001015784539351,5.614141209485e-09,-6.5695411738796e-09,-0.00088755708226843,0.00088754354778414,-0.0008342571939367,0.00083424450846309,-0.00083425737011229,0.00083424428569016,-0.00088754424342796,0.0008875562942389,-0.00088754527720377,0.00088755538987453,-0.00083424506081221,0.00083425647569275,-0.00083424545516729,0.00083425618033003,-0.0012253799686268,0.0012253829086839,-0.0012253840425775,0.001225378821352,-0.0012253796874809,0.0012253831870183,-0.0012253837891525,0.0012253790797706,-0.0012237088434226,0.0012237045836414,-0.0012237095944045,0.0012237038129413,-0.0012237055391413,0.0012237079072382,-0.0012237046721396,0.0012237087395172,-0.00088755646474533,0.00088754424578967,0.7549474107683,128566,2924,0.0050789421320108,0.0065174079957772,0.0042247952418201,33.939140215885,3.1513121727081e-05,3.1513121727081e-05,3.1513121727081e-05,3280991.5621533,0.01594800142933
35191759,0.90057740101292,0.016084042118088,0.0053026509245989,0.0061456746477403,0.0046357165457485,-0.0012313042224982,0.0012313037950926,2.7710599607262e-10,-6.9878392480723e-10,-7.037850465264e-10,2.4456992661545e-10,-0.00057469411133617,0.00057469354038447,-0.0012032426797783,0.0012032435038901,-0.0012032430613233,0.0012032431784225,-0.00057469405568534,0.00057469357512868,-0.00057469487428343,0.00057469265282115,-0.001203243660937,0.0012032425543013,-0.0012032438996477,0.0012032421939092,-0.0014211813336785,0.0014211809491469,-0.0014211816783455,0.0014211806272012,-0.0014211810302573,0.001421181265058,-0.0014211813721644,0.0014211809355103,-0.0012431469518254,0.0012431478550748,-0.0012431480852694,0.0012431469948771,-0.001243147423621,0.0012431476033909,-0.0012431481973296,0.0012431465334538,-0.00057469306432603,0.00057469456821342,1.3003350409512e-10,-7.4989032842404e-10,-6.4340818918618e-09,5.8211038290385e-09,-0.0015831637611683,0.0015831631579818,-0.0015692433120117,0.0015692549826245,-0.0015276126040335,0.0015276088286776,-0.0015276135279381,0.0015276079844432,-0.0015561127043484,0.00155610833354,-0.0015561086593042,0.001556112418566,-0.0015561129849547,0.0015561080547979,-0.0015561089375851,0.0015561121460263,-0.0015692556651124,0.0015692427009313,-0.0015692436175943,0.0015692547042905,-0.0015276085825885,0.0015276128735489,-0.0015276094741043,0.001527612062963,-0.0015692553285635,0.0015692430319913,-9.3831137286016e-10,9.4609106962607e-12,-0.0010238807971774,0.0010238798683414,5.6557784703261e-09,-6.6499738875187e-09,-0.00089454463372026,0.00089453073528911,-0.0008410737287483,0.00084106096548616,-0.0008410739850916,0.00084106066228887,-0.00089453157671299,0.00089454371089719,-0.0008945326130734,0.00089454280554694,-0.00084106152108138,0.00084107301559958,-0.00084106191682502,0.00084107272178917,-0.0012354318849637,0.0012354348079873,-0.0012354360166901,0.0012354306628439,-0.0012354315782917,0.0012354351116065,-0.0012354357092238,0.0012354309745955,-0.0012339004429858,0.0012338962659627,-0.001233901352331,0.0012338953368229,-0.0012338972186682,0.0012338995098664,-0.0012338962677447,0.001233900422879,-0.00089454380928811,0.00089453164382219,0.73556804939974,128566,2924,0.0051202503682884,0.0065731070461158,0.0042584112854612,34.973618163538,3.9788945308308e-05,3.9788945308308e-05,3.9788945308308e-05,3285890.8804712,0.016080734900778
35391759,0.90667179542967,0.016187982328229,0.0053368583289542,0.006187449018398,0.0046636749808763,-0.0012407300850179,0.0012407296251473,2.6474644958946e-10,-7.1864168148993e-10,-6.3287457729256e-10,1.3908252006566e-10,-0.00057807827541168,0.00057807750485549,-0.0012123497679507,0.0012123503844062,-0.0012123501495283,0.0012123500598256,-0.0005780780547168,0.00057807770966576,-0.00057807886950258,0.00057807679929602,-0.0012123505770312,0.0012123496119533,-0.0012123508164352,0.0012123492489693,-0.001432303027993,0.0014323026727427,-0.0014323033763791,0.00143230234935,-0.0014323027830428,0.0014323029308355,-0.0014323031271429,0.0014323025979613,-0.0012526561523706,0.0012526569785132,-0.0012526573096693,0.0012526561190913,-0.0012526565812948,0.0012526567905696,-0.001252657349385,0.001252655704616,-0.00057807723786444,0.00057807852222068,4.5390823929722e-11,-6.4296807970769e-10,-6.1130287194629e-09,5.5238317382615e-09,-0.0015959376966563,0.0015959371141919,-0.0015814514061719,0.0015814624294659,-0.0015399376162395,0.0015399338774775,-0.0015399383477524,0.0015399332220972,-0.0015687287502675,0.0015687245362135,-0.0015687249025883,0.0015687284159362,-0.001568728967826,0.0015687243219026,-0.0015687251197658,0.0015687282077148,-0.0015814630913427,0.0015814508245039,-0.0015814516474008,0.0015814622208524,-0.0015399337942605,0.0015399377137474,-0.0015399345024699,0.0015399370954847,-0.0015814628160498,0.0015814510984055,-9.0684348074598e-10,5.2444000941623e-11,-0.0010315302833451,0.0010315294296591,5.4206904662503e-09,-6.3353608565195e-09,-0.00090108167603436,0.00090106835156443,-0.00084741279328667,0.00084740065341286,-0.00084741305549502,0.00084740034637475,-0.00090106913349489,0.00090108082773129,-0.00090107019468822,0.00090107989508719,-0.00084740113419622,0.00084741217025724,-0.00084740153776583,0.00084741187238387,-0.0012449758334096,0.0012449786490162,-0.0012449797872736,0.0012449746823369,-0.0012449755244074,0.0012449789557845,-0.0012449794755331,0.0012449749976432,-0.0012434305036724,0.0012434265929801,-0.0012434314235932,0.0012434256538975,-0.0012434274703522,0.0012434296453768,-0.0012434265112746,0.0012434305657438,-0.00090108079990015,0.0009010693061233,0.71497034037665,128566,2924,0.0051593752631819,0.006625945152335,0.0042901760191703,35.838950455868,4.6711603646946e-05,4.6711603646946e-05,4.6711603646946e-05,3293308.2419207,0.016206478207395
35591759,0.91261523249789,0.01628447989356,0.0053687312387713,0.0062261901555752,0.0046895584992131,-0.0012493193755363,0.001249318863564,2.5603954782933e-10,-7.6119763275836e-10,-5.0966314705247e-10,-3.9421554757386e-11,-0.00058090997016053,0.00058090877323744,-0.001220337206641,0.0012203374915458,-0.0012203376096062,0.001220337146465,-0.00058090939914922,0.00058090932043759,-0.00058091023610292,0.00058090838712275,-0.0012203377270392,0.0012203370094794,-0.0012203379717228,0.001220336642437,-0.0014425949882587,0.0014425946885977,-0.0014425953461788,0.0014425943600888,-0.0014425948398312,0.0014425948493492,-0.0014425951967393,0.0014425945035617,-0.001261189389979,0.0012611901125727,-0.0012611906109031,0.0012611892265447,-0.0012611897459636,0.0012611900227209,-0.0012611905231074,0.0012611889054329,-0.00058090885387757,0.00058090986426424,-8.0527628053887e-11,-4.7950479769287e-10,-5.5284700767399e-09,4.9720855532582e-09,-0.0016076374498504,0.0016076369027085,-0.0015923520615238,0.0015923619054977,-0.0015512130326186,0.0015512094121474,-0.0015512134760384,0.0015512090572179,-0.001580388581723,0.0015803846779073,-0.0015803850970567,0.0015803881827595,-0.001580388703044,0.0015803845634859,-0.0015803852226593,0.0015803880684741,-0.0015923625458938,0.0015923515294204,-0.0015923522125499,0.001592361784336,-0.0015512095767629,0.0015512128810864,-0.0015512100097806,0.0015512125411353,-0.0015923623668208,0.0015923517001139,-8.0821100283778e-10,1.3608993220408e-10,-0.0010384503839712,0.0010384497151788,4.924868189344e-09,-5.6420955379866e-09,-0.00090677199306038,0.00090676009148001,-0.0008529701472035,0.00085295935816026,-0.0008529703913172,0.0008529590656833,-0.00090676065000017,0.00090677135348122,-0.00090676171380727,0.00090677042493322,-0.00085295964359046,0.0008529697057096,-0.00085296005126914,0.00085296940640974,-0.0012537363304106,0.0012537389386906,-0.001253739892143,0.0012537353644765,-0.0012537360235985,0.0012537392437906,-0.0012537395853051,0.0012537356729556,-0.0012519225369282,0.0012519191796788,-0.0012519234355443,0.0012519182639434,-0.0012519198856105,0.0012519218519027,-0.0012519189322368,0.0012519227649922,-0.00090677117544047,0.00090676099201289,0.68077348888952,128566,2924,0.0051950242136311,0.0066743387658045,0.0043189129773469,36.48509892839,5.1880791427117e-05,5.1880791427117e-05,5.1880791427117e-05,3303584.7841427,0.016321110624043
35791759,0.91839260036134,0.016383704974843,0.0054013713512763,0.0062660048663402,0.004716328757227,-0.0012579921002609,0.0012579915524281,2.4342978971055e-10,-7.8389913906645e-10,-4.4224920264926e-10,-1.4510959897195e-10,-0.00058458218324095,0.00058458076811844,-0.0012288548424604,0.0012288549231812,-0.0012288552508688,0.0012288545748742,-0.00058458142922918,0.00058458149206753,-0.00058458228198788,0.00058458056029983,-0.0012288551951288,0.0012288546127424,-0.0012288554426863,0.0012288542437009,-0.001452784191641,0.0014527839173951,-0.0014527845549511,0.0014527835875366,-0.0014527841005589,0.0014527840211422,-0.0014527844603348,0.0014527836718031,-0.0012698694328154,0.0012698700794569,-0.0012698706861008,0.0012698691981533,-0.0012698697507777,0.0012698700532383,-0.0012698705211792,0.0012698689176753,-0.00058458105877996,0.00058458186955475,-1.5424830723186e-10,-3.7852989387746e-10,-5.0192961411247e-09,4.4868710316993e-09,-0.001619219598468,0.0016192190765014,-0.001603316199575,0.0016033250271768,-0.0015622748550783,0.0015622714205882,-0.0015622751293123,0.0015622712404574,-0.0015919729415846,0.0015919693318455,-0.0015919697772194,0.0015919725045484,-0.0015919730062862,0.0015919692760545,-0.001591969845914,0.0015919724491382,-0.0016033256585178,0.0016033156999323,-0.0016033162930754,0.0016033249635724,-0.0015622717277365,0.0015622745552494,-0.0015622719900736,0.0015622743910067,-0.0016033255341972,0.0016033158151999,-7.2919782510242e-10,2.2353268557181e-10,-0.0010455744900911,0.0010455739904271,4.5278243536604e-09,-5.0645896723557e-09,-0.00091327405063666,0.00091326328686613,-0.00085902991583792,0.00085902026651405,-0.00085903016066598,0.00085901997166937,-0.00091326366604099,0.00091327358527755,-0.00091326474139623,0.00091327264897203,-0.00085902036722556,0.00085902965113984,-0.00085902078027319,0.00085902934945294,-0.0012624057264415,0.0012624081791194,-0.0012624089705947,0.0012624049228998,-0.0012624054180651,0.0012624084868199,-0.0012624086591332,0.0012624052343693,-0.001260643763678,0.0012606409035425,-0.0012606446718643,0.0012606399802992,-0.0012606414459892,0.0012606432442987,-0.0012606404832618,0.001260644165617,-0.00091327323220437,0.00091326418859022,0.72027366521008,128566,2924,0.0052310117354179,0.0067222448101394,0.0043484933257858,37.125404168606,5.7003233348848e-05,5.7003233348848e-05,5.7003233348848e-05,3312967.0972348,0.016436456118369
35991759,0.92399164115372,0.016485825612488,0.0054348086009292,0.0063070091598176,0.0047440078517414,-0.0012666474784715,0.0012666469078366,2.3704990127353e-10,-7.9992057828424e-10,-4.181717112295e-10,-1.9354077778562e-10,-0.00058786471961198,0.000587863197978,-0.0012377492817209,0.0012377492703871,-0.0012377496950421,0.0012377489191914,-0.0005878638799182,0.00058786400015524,-0.00058786474554491,0.0005878630646215,-0.0012377495640773,0.0012377490317632,-0.0012377498147554,0.001237748660611,-0.0014629162638141,0.0014629159944113,-0.0014629166320233,0.0014629156629622,-0.0014629161966455,0.0014629160744183,-0.0014629165594102,0.0014629157216945,-0.001278756811039,0.0012787574276761,-0.0012787580971962,0.0012787565522863,-0.0012787571259552,0.0012787574330682,-0.0012787578874069,0.0012787562775549,-0.00058786358196692,0.0005878643079207,-1.7923669173622e-10,-3.3200109830022e-10,-4.6201844901823e-09,4.1068431452316e-09,-0.0016310003864612,0.0016309998847757,-0.0016148379977791,0.0016148460474967,-0.0015735215387338,0.0015735183133217,-0.0015735217442968,0.0015735182056997,-0.0016035386795377,0.0016035353214387,-0.0016035357645808,0.0016035382348201,-0.0016035387208821,0.001603535289905,-0.0016035358096714,0.001603538203804,-0.0016148466725742,0.0016148375224749,-0.0016148380671703,0.0016148460080286,-0.0015735186675385,0.0015735211865976,-0.0015735188598319,0.0015735210958379,-0.0016148465678437,0.0016148376178835,-6.6272946982579e-10,2.9896273379076e-10,-0.0010526800755909,0.0010526797200692,4.2184796932344e-09,-4.6015913254757e-09,-0.00091999069802779,0.00091998084236912,-0.00086515650873281,0.00086514777493993,-0.00086515675405022,0.00086514747745408,-0.00091998106948305,0.00091999037889218,-0.00091998215726366,0.00091998943430528,-0.00086514771728798,0.00086515639413767,-0.00086514813604663,0.00086515608996844,-0.0012710470156403,0.0012710493562841,-0.0012710500102119,0.0012710463500344,-0.0012710467059126,0.0012710496666734,-0.0012710496938972,0.0012710466646592,-0.001269647841493,0.0012696453857045,-0.001269648759706,0.0012696444542427,-0.0012696457881068,0.0012696474635662,-0.0012696448166054,0.0012696483931552,-0.00091998987437679,0.00091998175074163,0.76499783413549,128566,2924,0.0052669342340103,0.0067709671751582,0.0043779966768394,37.765466423977,6.2123731391816e-05,6.2123731391816e-05,6.2123731391816e-05,3313225.3672133,0.016552499616343
36191759,0.92925179541775,0.016579079351419,0.0054653806609137,0.0063444780532819,0.0047692206372238,-0.0012736343415978,0.0012736337184295,2.0488142517486e-10,-8.1988854880586e-10,-3.1160215117994e-10,-3.5652031675493e-10,-0.00058912823128658,0.00058912642200469,-0.0012447134027315,0.0012447130590288,-0.0012447138056809,0.0012447127205893,-0.00058912713363197,0.00058912747836689,-0.0005891280195724,0.0005891265404224,-0.0012447134128308,0.0012447130939901,-0.0012447136689402,0.001244712721922,-0.0014714119964503,0.0014714117637012,-0.0014714123668569,0.0014714114364742,-0.0014714120219272,0.0014714117523696,-0.0014714123769993,0.001471411405964,-0.0012859783131542,0.0012859787635062,-0.0012859795470452,0.0012859778825736,-0.001285978494573,0.0012859788516207,-0.0012859792928971,0.0012859777244157,-0.00058912712637407,0.00058912749694216,-2.8674668785022e-10,-1.8060754362234e-10,-3.8365490046497e-09,3.3670853511479e-09,-0.0016411139342881,0.0016411134751248,-0.0016246813829943,0.0016246878960196,-0.001583230376114,0.0015832274490126,-0.0015832303402957,0.0015832275932939,-0.0016133564206606,0.0016133535184145,-0.0016133539974762,0.0016133559230064,-0.0016133563814683,0.001613353571736,-0.0016133539555307,0.0016133559817837,-0.0016246884963702,0.0016246809655686,-0.0016246813591123,0.001624687951776,-0.0015832280118552,0.0015832298065859,-0.0015832279422713,0.0015832299835878,-0.0016246884634878,0.0016246809796049,-5.4739327691614e-10,4.4480141328024e-10,-0.0010581299300538,0.0010581298393152,3.5929110912935e-09,-3.694769628052e-09,-0.00092464818608467,0.00092464006534986,-0.00086947540310681,0.00086946847307763,-0.00086947566872451,0.00086946815798736,-0.00092464004728664,0.00092464811751768,-0.00092464114519044,0.00092464716788083,-0.0008694681372874,0.00086947558156624,-0.00086946856109973,0.00086947527706076,-0.0012781616878065,0.0012781637748722,-0.0012781641805262,0.0012781612712951,-0.0012781613717529,0.0012781640921493,-0.0012781638496084,0.0012781615987925,-0.0012769223083959,0.0012769206766593,-0.0012769232611067,0.0012769197093482,-0.0012769208130473,0.0012769221930083,-0.0012769198107566,0.0012769231438342,-0.00092464730787396,0.00092464102234315,0.74360849249015,128566,2924,0.0052959442904174,0.006812787371749,0.0044006316098102,37.870028176331,6.2960225410647e-05,6.2960225410647e-05,6.2960225410647e-05,3308541.1908844,0.0166475325117
36391759,0.93407891692094,0.01666357324591,0.0054931048593487,0.0063784209014316,0.0047920474851294,-0.0012792367728513,0.0012792360906832,1.6642194551204e-10,-8.3968544820065e-10,-1.9129207748187e-10,-5.3941264681391e-10,-0.00058985259303902,0.00058985047803762,-0.0012502222142102,0.0012502214908207,-0.0012502225982652,0.0012502211724242,-0.00058985120732784,0.00058985181904824,-0.00058985212633304,0.0005898508669601,-0.0012502219132453,0.0012502218394711,-0.0012502221779988,0.0012502214625761,-0.0014783399955303,0.0014783398028952,-0.0014783403676126,0.001478339481844,-0.0014783401261453,0.0014783396881674,-0.001478340469706,0.0014783393526829,-0.0012917095975189,0.0012917098513213,-0.0012917107990737,0.0012917090056908,-0.0012917096602908,0.0012917100522747,-0.0012917104644931,0.0012917089435954,-0.00058985153833281,0.00058985149834123,-4.0098122782815e-10,-1.4695103015866e-11,-2.9455534258942e-09,2.5279730169831e-09,-0.0016494219592396,0.001649421549264,-0.0016326146974951,0.0016326194591064,-0.0015911730260756,0.0015911704584484,-0.0015911727285887,0.0015911708669585,-0.0016215029887967,0.0016215006132351,-0.001621501128937,0.0016215024370103,-0.0016215028623353,0.0016215007560891,-0.0016215009899313,0.0016215025922738,-0.0016326200317739,0.0016326143371909,-0.001632614566589,0.0016326196217846,-0.0015911712395509,0.001591172223424,-0.0015911708840995,0.0015911726929932,-0.0016326200753079,0.0016326142704017,-4.0560436262875e-10,6.2417634284118e-10,-0.00106232342262,0.0010623236563502,2.8533587483718e-09,-2.6105274558491e-09,-0.00092803521628717,0.00092802915803432,-0.00087269023953956,0.00087268546830752,-0.00087269053034209,0.00087268513009522,-0.00092802885658439,0.00092803544679833,-0.00092802994525316,0.00092803450019543,-0.00087268478980587,0.00087269077336726,-0.00087268521419535,0.00087269047235785,-0.0012838316795317,0.0012838334743381,-0.0012838335758457,0.0012838315684384,-0.0012838313554781,0.0012838337991913,-0.0012838332257568,0.0012838319128532,-0.0012826679184777,0.0012826672638236,-0.0012826689216983,0.0012826662500552,-0.001282667071165,0.0012826681345551,-0.0012826660426747,0.0012826691067423,-0.00092803426580539,0.00092803018983951,0.73413358659656,128566,2924,0.0053192072945598,0.0068471380896758,0.0044180514160282,37.543459497265,6.0347675978119e-05,6.0347675978119e-05,6.0347675978119e-05,3305187.3368278,0.016723831863717
36591759,0.93850932186041,0.01673658767663,0.0055171667203697,0.006407725700617,0.0048116952556432,-0.0012840829789875,0.0012840822852949,1.8159674587348e-10,-8.6578292573474e-10,-1.9407932374518e-10,-5.4903151952277e-10,-0.00059021710660502,0.00059021489421582,-0.0012546835677864,0.0012546828508438,-0.0012546839792644,0.0012546825069713,-0.00059021567034709,0.00059021626856851,-0.0005902165951928,0.00059021533272162,-0.0012546832735013,0.0012546831940547,-0.0012546835410586,0.0012546828172863,-0.0014844634333487,0.001484463240511,-0.0014844638167848,0.0014844629131466,-0.0014844635630705,0.0014844631288471,-0.001484463922628,0.0014844627740329,-0.0012965599428326,0.0012965602397065,-0.0012965612026983,0.0012965593427723,-0.0012965600180809,0.0012965604262816,-0.0012965608494182,0.0012965592947479,-0.0005902159785072,0.00059021599434266,-4.1070396286409e-10,3.78827897656e-12,-2.4391361372418e-09,2.0234323208257e-09,-0.0016566688822252,0.0016566684800486,-0.0016392915047643,0.0016392952678533,-0.0015981344972603,0.0015981322322419,-0.0015981341569182,0.0015981326871,-0.0016286753451083,0.0016286732984093,-0.0016286738043299,0.0016286747867171,-0.0016286752048743,0.0016286734551439,-0.0016286736625522,0.0016286749485843,-0.0016392958529342,0.0016392911616504,-0.0016392913752605,0.0016392954284683,-0.001598133028521,0.001598133672639,-0.0015981326619429,0.0015981341587412,-0.001639295915343,0.00163929108205,-3.0059173091828e-10,7.0668580406833e-10,-0.0010658988571112,0.0010658992819269,2.4982543646672e-09,-2.0509145774491e-09,-0.00093067038347963,0.00093066548036444,-0.00087527354035227,0.00087526985115647,-0.0008752738062117,0.00087526953255847,-0.00093066493162977,0.00093067083424894,-0.00093066604594525,0.00093066986794446,-0.00087526896060681,0.00087527425626797,-0.00087526939399859,0.00087527394641928,-0.0012888066375426,0.0012888083227325,-0.0012888082312086,0.0012888067192204,-0.0012888063184418,0.0012888086454755,-0.0012888078913646,0.0012888070524152,-0.0012874807553048,0.0012874805576485,-0.0012874817221021,0.0012874795781015,-0.0012874801920296,0.0012874811431038,-0.0012874791749311,0.0012874821071086,-0.00093066948749083,0.00093066645731576,0.69114506788001,128566,2924,0.0053393295013763,0.0068771009555529,0.0044329050001717,37.205289629678,5.7642317037428e-05,5.7642317037428e-05,5.7642317037428e-05,3305152.7044117,0.016789873019964
36791759,0.94257888140536,0.016801757927029,0.0055386914310075,0.0064338530889147,0.0048292134071073,-0.0012884408295678,0.0012884401567693,1.9952670711076e-10,-8.6290369604617e-10,-2.7986972608374e-10,-4.4103998958988e-10,-0.00059100274103457,0.00059100071804073,-0.0012586025667258,0.001258602070349,-0.0012586029870237,0.0012586017191212,-0.00059100147645737,0.00059100191412803,-0.00059100241118342,0.00059100097004106,-0.0012586024643453,0.001258602217354,-0.0012586027346297,0.0012586018392779,-0.0014899437665115,0.0014899435354235,-0.0014899441554602,0.0014899432051261,-0.0014899438346431,0.0014899434896371,-0.001489944198516,0.0014899431285508,-0.0013007968958487,0.0013007972956885,-0.0013007981794382,0.0013007963868436,-0.0013007970429732,0.0013007974180157,-0.0013007978809431,0.0013007962710169,-0.00059100158574339,0.00059100183866817,-3.3469409256051e-10,-1.1186513883209e-10,-2.4436462006977e-09,1.9898451555376e-09,-0.001662990543149,0.001662990103672,-0.0016449040310028,0.0016449077883104,-0.0016041672862703,0.0016041651779236,-0.0016041671327254,0.0016041654443248,-0.0016350889405029,0.0016350869269853,-0.0016350874046909,0.00163508840775,-0.0016350888619497,0.0016350870204964,-0.0016350873255315,0.0016350885055189,-0.0016449084113563,0.0016449036506887,-0.0016449039682341,0.0016449078817231,-0.0016041658221153,0.0016041666108402,-0.0016041656452522,0.0016041669054373,-0.0016449084114888,0.0016449036349925,-2.8005734671745e-10,7.3068260385757e-10,-0.0010691748913506,0.0010691753617769,2.5182984726414e-09,-2.0227561762774e-09,-0.0009332351601421,0.00093323032473208,-0.000877708632991,0.00087770500085929,-0.00087770889608414,0.00087770468263766,-0.00093322971701787,0.00093323566625536,-0.00093323084628237,0.00093323469052365,-0.00087770405813362,0.00087770939437345,-0.00087770449652041,0.00087770908176575,-0.0012932339822909,0.0012932357123077,-0.0012932355783788,0.0012932341058986,-0.0012932336626792,0.0012932360369803,-0.0012932352363427,0.0012932344402554,-0.0012916725431385,0.0012916723940498,-0.0012916735094016,0.0012916714128431,-0.0012916719872702,0.0012916729713724,-0.0012916709621548,0.0012916739418314,-0.00093323427783236,0.0009332312917281,0.67162364477098,128566,2924,0.0053574159712871,0.0069032396555536,0.0044465128335164,36.866636114286,5.4933088914285e-05,5.4933088914285e-05,5.4933088914285e-05,3311011.3722001,0.016848689795476
36991759,0.94640925520063,0.016866683405675,0.0055600454776336,0.0064598723015211,0.0048467656265207,-0.0012935290413894,0.0012935284420374,2.4384328400505e-10,-8.3445362899972e-10,-5.0732132950515e-10,-1.3552562525577e-10,-0.00059298554766447,0.00059298410045383,-0.0012635743157478,0.0012635744292365,-0.0012635747457594,0.0012635740711678,-0.00059298478829638,0.00059298478271492,-0.00059298573255125,0.00059298383207443,-0.001263574740136,0.0012635740465058,-0.0012635750109408,0.0012635736645305,-0.0014960163149887,0.0014960159850783,-0.0014960167062786,0.0014960156484168,-0.001496016207989,0.001496016116815,-0.0014960165780691,0.001496015749764,-0.0013058377976912,0.0013058384664132,-0.0013058391045068,0.0013058375422528,-0.0013058381291624,0.0013058384104741,-0.0013058389720743,0.0013058372447222,-0.00059298436578806,0.00059298524639618,-1.0828393923528e-10,-4.1694319161287e-10,-3.3085172094821e-09,2.7773515307584e-09,-0.0016699154308362,0.0016699149164235,-0.0016512775173276,0.0016512829907725,-0.0016107447764268,0.0016107425668412,-0.0016107451406006,0.0016107423072034,-0.0016420946990938,0.0016420922432727,-0.0016420926271058,0.0016420942771269,-0.0016420947922598,0.0016420921604761,-0.0016420927210614,0.0016420941969198,-0.0016512836831038,0.0016512770439242,-0.0016512776323173,0.0016512829038158,-0.0016107427660269,0.0016107445521949,-0.0016107431109719,0.0016107443160872,-0.0016512835077101,0.0016512772070519,-3.8592175916264e-10,6.2745104927173e-10,-0.0010732938886318,0.0010732941488894,3.227239119289e-09,-2.9542716451211e-09,-0.00093710472978692,0.00093709807511894,-0.00088119509301544,0.00088118962805864,-0.0008811953509506,0.0008811893112021,-0.00093709766926423,0.00093710502695434,-0.00093709881205487,0.0009371040419848,-0.00088118889143344,0.00088119563055916,-0.00088118933500263,0.00088119531397355,-0.0012983016694585,0.001298303742268,-0.0012983038163749,0.0012983015841133,-0.001298301350045,0.00129830406874,-0.0012983034728906,0.0012983019192772,-0.0012967386218279,0.0012967377194573,-0.0012967395849847,0.0012967367369215,-0.0012967375233112,0.0012967388384265,-0.0012967364916632,0.0012967398148313,-0.0009371038628228,0.0009370990363485,0.71099418276756,128566,2924,0.0053785258869427,0.0069318749448644,0.0044636149049438,36.97292416424,5.5783393313921e-05,5.5783393313921e-05,5.5783393313921e-05,3317678.842095,0.016916673029282
37191759,0.95005343718151,0.016932182565382,0.005581491370614,0.0064861413817801,0.0048645498129882,-0.0012988956885489,0.0012988951546207,2.804067487663e-10,-8.0646566160115e-10,-7.07623489794e-10,1.3436619729314e-10,-0.00059477236172129,0.00059477144154448,-0.0012690630401191,0.001269063687503,-0.0012690634743569,0.0012690633291134,-0.00059477206083767,0.00059477167095711,-0.0005947730110782,0.00059477070290029,-0.0012690639274214,0.0012690628423004,-0.001269064197734,0.0012690624530002,-0.0015023743754611,0.0015023739585018,-0.001502374767958,0.0015023736161176,-0.0015023741150063,0.0015023742456058,-0.0015023744867921,0.0015023738753655,-0.0013113527524055,0.0013113536499084,-0.0013113540699723,0.0013113527201882,-0.0013113532463362,0.0013113534431726,-0.0013113540863348,0.0013113522574255,-0.00059477117778051,0.00059477259269264,9.9046291909653e-11,-6.8215534203432e-10,-4.4191494936635e-09,3.8339799041927e-09,-0.0016773323642642,0.0016773317953551,-0.0016584102051747,0.0016584179034278,-0.0016178364716522,0.0016178339561822,-0.0016178372985422,0.0016178332240089,-0.0016493919700223,0.0016493889022211,-0.0016493891952346,0.0016493916608615,-0.0016493922165767,0.001649388661292,-0.0016493894418902,0.0016493914237901,-0.0016584186283973,0.0016584096520645,-0.0016584104743696,0.0016584176595456,-0.0016178337515695,0.0016178366620247,-0.0016178345555153,0.0016178359575168,-0.0016584182940666,0.0016584099777327,-5.4451512196727e-10,4.7881449080333e-10,-0.0010776735563384,0.001077673505553,4.1349168445497e-09,-4.1937689326459e-09,-0.00094125809298661,0.00094124899053815,-0.00088497096149042,0.00088496306244243,-0.00088497122284636,0.00088496274176605,-0.00094124890922457,0.00094125807069084,-0.00094125005924098,0.00094125707825828,-0.00088496265026811,0.00088497117616467,-0.00088496309715128,0.00088497085736362,-0.0013036924516403,0.0013036949384208,-0.001303695320293,0.0013036920580778,-0.0013036921315797,0.0013036952678811,-0.0013036949718386,0.0013036923975906,-0.0013023091518616,0.0013023072383625,-0.0013023101236842,0.0013023062434396,-0.0013023073444781,0.0013023090634519,-0.0013023063039951,0.0013023100493774,-0.00094125721673059,0.00094124996822003,0.75399384283115,128566,2924,0.0054007980328628,0.0069625420637521,0.0044817988274841,37.296933305555,5.8375466444441e-05,5.8375466444441e-05,5.8375466444441e-05,3317016.9649955,0.016989010523649
37391759,0.95351610255554,0.016991785244131,0.0056010539786167,0.0065100545140844,0.0048806767514299,-0.0013038245159275,0.001303824017428,3.0127420013293e-10,-7.923106017491e-10,-8.1697037170417e-10,2.8165713583254e-10,-0.00059555888998629,0.00059555825361787,-0.0012738892169942,0.001273890156949,-0.0012738896555203,0.0012738897982859,-0.00059555883984434,0.00059555824118125,-0.00059555978885192,0.00059555725618347,-0.0012738903579165,0.001273889059738,-0.0012738906260532,0.0012738886632592,-0.0015083899173869,0.001508389453624,-0.0015083903105219,0.001508389106652,-0.0015083895737714,0.0015083898252002,-0.0015083899467913,0.0015083894522747,-0.0013164719279336,0.0013164729536584,-0.0013164732578664,0.0013164720212933,-0.0013164725163519,0.0013164726674249,-0.0013164733493587,0.0013164714630319,-0.00059555770232164,0.00059555941245826,2.0581465179778e-10,-8.3328798380056e-10,-5.3663089682387e-09,4.739969592065e-09,-0.0016844408971969,0.0016844402865537,-0.001665213568481,0.0016652231259312,-0.0016247290838885,0.0016247261682523,-0.0016247301643474,0.0016247251779728,-0.0016562704914017,0.0016562668567403,-0.0016562671161481,0.0016562702364054,-0.0016562708218506,0.0016562665296276,-0.0016562674458674,0.0016562699135463,-0.001665223876061,0.0016652129547556,-0.0016652139221271,0.0016652227976768,-0.0016247257580636,0.0016247294907074,-0.0016247268121548,0.0016247285302869,-0.0016652234510856,0.0016652133696454,-6.9133496329872e-10,3.4382634031558e-10,-0.0010815869105853,0.0010815865740305,4.9143695625303e-09,-5.2778636577705e-09,-0.00094455889305898,0.00094454765019582,-0.00088813688882811,0.00088812686182481,-0.00088813715230878,0.00088812653608758,-0.0009445478621736,0.00094455857878426,-0.0009445490248945,0.00094455757744442,-0.00088812674521302,0.00088813680780574,-0.00088812719692731,0.00088813648568908,-0.0013088014820011,0.0013088043107085,-0.0013088049753511,0.0013088008052252,-0.0013088011591218,0.0013088046437097,-0.001308804622081,0.0013088011492308,-0.0013074218329181,0.001307419028552,-0.0013074228148766,0.0013074180200712,-0.0013074194124612,0.0013074214641651,-0.0013074183607354,0.0013074224611914,-0.0009445580080303,0.00094454864253381,0.72209467559115,128566,2924,0.0054212619310456,0.006991930459636,0.004498049984079,37.626864616702,6.1014916933613e-05,6.1014916933613e-05,6.1014916933613e-05,3312662.9684581,0.017056252376591
37591759,0.9568010427407,0.017046088381988,0.0056189262880488,0.0065318346992336,0.0048953273947057,-0.001308481776703,0.0013084812941257,3.1401415524487e-10,-7.893870698404e-10,-8.6313631674859e-10,3.4488334402117e-10,-0.00059675708041771,0.00059675655607232,-0.0012783300978573,0.0012783311664863,-0.0012783305420068,0.0012783308052339,-0.0005967571330216,0.00059675645075355,-0.00059675808054073,0.00059675544912853,-0.0012783313495235,0.0012783299626247,-0.0012783316154059,0.0012783295593243,-0.0015140268432145,0.0015140263628547,-0.0015140272384049,0.0015140260113005,-0.0015140264646253,0.0015140267705334,-0.0015140268396931,0.0015140263931658,-0.001321193024312,0.0013211941142742,-0.0013211943709756,0.0013211931753825,-0.0013211936591804,0.0013211937960308,-0.0013211944876432,0.0013211925718844,-0.00059675588244548,0.00059675772798618,2.4834613496075e-10,-8.9975337221092e-10,-6.1341465927969e-09,5.4848109469081e-09,-0.0016909472223545,0.0016909465889668,-0.0016712414035222,0.0016712524553525,-0.0016310163125012,0.0016310129811529,-0.0016310174993361,0.0016310118817914,-0.0016627114299465,0.0016627073094699,-0.0016627075640267,0.0016627111976677,-0.0016627117955956,0.0016627069461261,-0.0016627079290207,0.0016627108385176,-0.0016712532147689,0.0016712407495003,-0.001671241792866,0.0016712520909127,-0.0016310124916267,0.0016310168089824,-0.0016310136516273,0.0016310157400602,-0.0016712527503478,0.0016712412043074,-8.1655732931395e-10,2.2734168084932e-10,-0.0010853084469846,0.0010853078651165,5.5412425992117e-09,-6.1663012818058e-09,-0.00094768235113598,0.00094766936052635,-0.00089122286931138,0.00089121109762757,-0.0008912231333527,0.00089121076924427,-0.00094766981935703,0.00094768179050433,-0.00094767099519367,0.0009476807789953,-0.00089121123390365,0.00089122253310304,-0.00089121169085589,0.00089122220749622,-0.0013135933110938,0.0013135964091779,-0.0013135973161946,0.0013135923917706,-0.0013135929870673,0.001313596744996,-0.0013135969584577,0.0013135927389947,-0.0013120941016627,0.0013120905596316,-0.0013120950895462,0.0013120895421468,-0.0013120911836012,0.0013120934908588,-0.0013120901217225,0.0013120944970618,-0.00094768146358324,0.00094767036073586,0.69345404130001,128566,2924,0.0054405919322928,0.0070188296192136,0.0045135030856747,37.957043266041,6.3656346128327e-05,6.3656346128327e-05,6.3656346128327e-05,3313985.3088807,0.017119000201583
37791759,0.95984013655749,0.017094600573312,0.0056349321590582,0.0065512795568113,0.0049083888574429,-0.0013119501557807,0.001311949617193,2.8107619247702e-10,-8.1185010919821e-10,-6.9918814619384e-10,1.2157042431287e-10,-0.0005974582416762,0.00059745730640821,-0.0012814935436144,0.0012814941641287,-0.0012814939805411,0.0012814938124709,-0.00059745792725807,0.00059745757562245,-0.00059745887726974,0.0005974565673994,-0.0012814944119257,0.0012814933501907,-0.0012814946785638,0.0012814929438444,-0.0015183571663936,0.0015183567575051,-0.001518357561164,0.0015183564080353,-0.0015183569171974,0.0015183570343736,-0.0015183572855092,0.0015183566613067,-0.0013246010917682,0.0013246019853093,-0.0013246024332542,0.0013246010694042,-0.0013246016045812,0.0013246018074231,-0.0013246024164601,0.0013246005795946,-0.00059745707483102,0.00059745844882887,8.4333443788828e-11,-6.839470698865e-10,-5.9820169886637e-09,5.3835129200816e-09,-0.0016959195915554,0.0016959190074877,-0.0016756596217676,0.0016756703422878,-0.0016357600502092,0.0016357564861094,-0.0016357608721992,0.0016357557576868,-0.0016677506565726,0.0016677465429466,-0.0016677468745245,0.0016677503475415,-0.0016677509007769,0.0016677463042252,-0.0016677471143655,0.0016677501177211,-0.0016756710558457,0.0016756590151467,-0.0016756598798299,0.0016756701120457,-0.001635756321737,0.0016357602236952,-0.0016357571029769,0.0016357595393381,-0.0016756707071297,0.0016756593515036,-8.2922112004988e-10,2.4381080896038e-10,-0.0010879695872708,0.0010879690083982,5.4449369538355e-09,-6.067734608211e-09,-0.0009498392677446,0.00094982642551962,-0.00089329195786293,0.00089328039565174,-0.00089329223751054,0.00089328005211077,-0.00094982690015067,0.00094983869507897,-0.00094982809105054,0.00094983767032354,-0.00089328052615511,0.00089329163773976,-0.00089328098866993,0.00089329130935545,-0.00131714655386,0.0013171495924457,-0.0013171505050361,0.0013171456296808,-0.0013171462242678,0.0013171499354451,-0.0013171501333367,0.001317145988591,-0.0013154415471316,0.0013154381091882,-0.0013154425687121,0.0013154370578796,-0.0013154387229767,0.0013154409443513,-0.0013154376371756,0.0013154419728949,-0.00094983832915579,0.00094982747262495,0.66961884185689,128566,2924,0.0054549853246838,0.0070393865662293,0.0045245553964724,37.836215803716,6.268972642973e-05,6.268972642973e-05,6.268972642973e-05,3318078.5857571,0.01716580040715
37991759,0.96263458644271,0.017140547578294,0.0056500584797697,0.0065696880196435,0.0049208010788807,-0.0013149868209059,0.0013149862252019,2.7790376070146e-10,-8.6498703157817e-10,-5.5004968318328e-10,-8.8675230709042e-11,-0.00059833522880093,0.00059833377831657,-0.0012843645217525,0.0012843647578919,-0.0012843649895122,0.0012843643763077,-0.0005983345030854,0.00059833445623844,-0.00059833545971631,0.00059833343778675,-0.001284365053291,0.0012843642876624,-0.0012843653208182,0.0012843638787129,-0.001522115086337,0.001522114751837,-0.0015221154950529,0.0015221143928604,-0.0015221149500947,0.0015221149138454,-0.0015221153386907,0.0015221145195456,-0.0013275551177148,0.001327555902956,-0.0013275565359917,0.0013275549326677,-0.0013275555364585,0.0013275558335972,-0.0013275563755264,0.0013275545678114,-0.00059833395469703,0.00059833501874054,-6.7550612845734e-11,-4.6395996345924e-10,-5.552411707869e-09,5.0152148922747e-09,-0.0017002266686894,0.0017002261486355,-0.0016794947821724,0.0016795046642762,-0.0016398118922202,0.0016398082775439,-0.0016398123369431,0.0016398079347638,-0.0016721736778982,0.0016721697622568,-0.0016721701495488,0.0016721733083458,-0.0016721737967734,0.0016721696530239,-0.0016721702723766,0.0016721731977565,-0.0016795053192287,0.0016794942555631,-0.0016794949300486,0.0016795045450557,-0.0016398084107249,0.0016398117633364,-0.0016398088430326,0.001639811437185,-0.0016795051018567,0.0016794944578514,-7.5233869900368e-10,2.8932280010029e-10,-0.0010903200648866,0.0010903196100321,5.0758179086019e-09,-5.565669177116e-09,-0.00095201152289851,0.00095199975815236,-0.00089516588488623,0.00089515528883195,-0.00089516613699947,0.00089515497065649,-0.00095200005285672,0.00095201111937595,-0.00095200125631441,0.00095201008673234,-0.00089515528912336,0.00089516567945346,-0.00089515575932696,0.00089516534755251,-0.0013201801441762,0.0013201830282362,-0.0013201838096832,0.0013201793520758,-0.0013201798218334,0.0013201833652717,-0.0013201834501675,0.0013201796962223,-0.0013183780529354,0.0013183749824022,-0.0013183790308206,0.0013183739782409,-0.0013183754914884,0.0013183775579845,-0.0013183744201354,0.0013183785682488,-0.0009520106690682,0.00095200072171327,0.68978258087639,128566,2924,0.0054675828917016,0.0070571938842366,0.0045343170077802,37.594154983323,6.0753239866585e-05,6.0753239866585e-05,6.0753239866585e-05,3322867.644005,0.01720666251986
38191759,0.96520534667047,0.017183198593159,0.0056640869661241,0.0065867737871923,0.0049323378398422,-0.0013177069286133,0.0013177062965472,2.5795756664694e-10,-8.8080396504348e-10,-4.6209234589603e-10,-2.1546972616542e-10,-0.00059871303233725,0.00059871135569711,-0.0012869462755189,0.0012869462564765,-0.0012869467400533,0.001286945881555,-0.00059871209793863,0.0005987122356289,-0.00059871307042878,0.0005987112143951,-0.0012869465931713,0.0012869460035265,-0.0012869468635831,0.0012869455918722,-0.0015255526403195,0.0015255523417159,-0.0015255530505797,0.0015255519832251,-0.0015255525764403,0.0015255524307549,-0.0015255529624653,0.0015255520391359,-0.0013302561242018,0.0013302567970161,-0.0013302575457294,0.001330255844255,-0.0013302564766758,0.0013302568077159,-0.0013302573082423,0.0013302555365168,-0.00059871178253338,0.00059871257215745,-1.6084315546965e-10,-3.4706969990597e-10,-5.0932702739716e-09,4.5766475490883e-09,-0.0017042576220361,0.0017042571243648,-0.0016831551204892,0.0016831640623735,-0.0016436354202703,0.0016436319267236,-0.0016436356664139,0.00164363178906,-0.0016762200270257,0.0016762163611689,-0.0016762167896265,0.0016762196061545,-0.0016762200791425,0.0016762163206263,-0.0016762168422629,0.0016762195683344,-0.0016831647160238,0.0016831546164285,-0.001683155194069,0.0016831640184116,-0.0016436322422244,0.001643635105257,-0.001643632462749,0.0016436349958211,-0.0016831645606098,0.0016831547571019,-6.9763322389771e-10,3.6669742067125e-10,-0.0010923896609132,0.0010923893402351,4.7144739835789e-09,-5.0607837983707e-09,-0.00095383207184483,0.00095382126271735,-0.00089675037525971,0.00089674078472367,-0.00089675063785993,0.00089674045455303,-0.00095382143074417,0.00095383178827858,-0.00095382264541945,0.0009538307463593,-0.00089674063125521,0.00089675031427843,-0.00089674110621005,0.00089674998029852,-0.0013229420628102,0.0013229447865481,-0.0013229454443772,0.0013229413946222,-0.00132294173494,0.0013229451289489,-0.0013229450754786,0.0013229417475711,-0.0013210830829003,0.0013210804615177,-0.0013210840870708,0.0013210794312456,-0.0013210808362693,0.0013210827221446,-0.001321079745311,0.0013210837502533,-0.00095383117884706,0.00095382226457792,0.69607506771507,128566,2924,0.0054788719017568,0.0070738582597883,0.0045429133988803,37.348711865423,5.8789694923385e-05,5.8789694923385e-05,5.8789694923385e-05,3323581.0047687,0.017243848126089
38391759,0.96758374192031,0.017224517799611,0.005677631397437,0.0066033322489212,0.0049435541532532,-0.0013204442667103,0.0013204436321902,2.6074939087333e-10,-8.8596267781599e-10,-4.7358817379461e-10,-2.0680928482419e-10,-0.00059922101641852,0.00059921935112906,-0.001289688237879,0.0012896882374139,-0.0012896887058588,0.0012896878621499,-0.00059922008871237,0.0005992202159939,-0.00059922107571454,0.00059921918453335,-0.0012896885743013,0.0012896879659106,-0.0012896888478768,0.0012896875499911,-0.0015289349473688,0.0015289346436987,-0.0015289353627679,0.00152893428369,-0.0015289348793416,0.0015289347396048,-0.0015289352666916,0.0015289343451517,-0.0013330452427459,0.0013330459298021,-0.0013330466831616,0.0013330449787714,-0.0013330456104179,0.0013330459384002,-0.0013330464425569,0.0013330446535862,-0.00059921975748749,0.00059922057078917,-1.5599821677332e-10,-3.6202946083671e-10,-4.8183959602521e-09,4.2903142781967e-09,-0.0017082660474139,0.0017082655403547,-0.0016869070730709,0.001686915449443,-0.0016474467661117,0.0016474434708207,-0.0016474470341072,0.0016474433130003,-0.0016802020910446,0.0016801986060048,-0.0016801990328895,0.0016802016648226,-0.0016802021491486,0.0016801985589192,-0.0016801990903891,0.0016802016214744,-0.0016869161292961,0.001686906557589,-0.0016869071500888,0.0016869154009836,-0.0016474437747715,0.0016474464590708,-0.0016474440126257,0.0016474463330814,-0.0016869159615343,0.001686906711097,-6.5674038116489e-10,4.1820016809914e-10,-0.0010945092312101,0.001094509004645,4.4882276916228e-09,-4.7335232047826e-09,-0.00095581493924792,0.00095580476498129,-0.00089847307358789,0.00089846413320964,-0.00089847333785794,0.00089846379847902,-0.00095580483591073,0.00095581474516368,-0.00095580605824288,0.00095581369846503,-0.00089846386978032,0.00089847310994804,-0.00089846434877123,0.000898472773487,-0.0013256999178915,0.0013257025526389,-0.0013257031224121,0.0013256993377402,-0.0013256995885739,0.0013257028978512,-0.0013257027479203,0.0013256996948892,-0.0013238773432654,0.0013238750113623,-0.0013238783581884,0.0013238739696799,-0.0013238752941633,0.0013238770744422,-0.0013238741926434,0.0013238781112822,-0.00095581403609516,0.00095580578051012,0.72889799838922,128566,2924,0.0054902331126007,0.0070904285142033,0.0045517165466026,37.197868045123,5.7582944360982e-05,5.7582944360982e-05,5.7582944360982e-05,3322207.547791,0.017281222380941
38591759,0.96980198550211,0.017263693060483,0.0056904551022528,0.0066190400727908,0.0049541978854394,-0.001323221969375,0.0013232213571809,2.7080730206693e-10,-8.7392076976154e-10,-5.5723977994252e-10,-9.9641936360182e-11,-0.00059937451010163,0.00059937306214243,-0.0012924890575603,0.001292489266965,-0.0012924895261869,0.0012924888944392,-0.00059937377772227,0.00059937372582239,-0.00059937475271806,0.0005993727097791,-0.0012924895830735,0.0012924888063033,-0.0012924898518434,0.0012924883928084,-0.0015323907634147,0.0015323904193787,-0.0015323911797814,0.001532390060709,-0.001532390634686,0.0015323905795905,-0.0015323910209569,0.00153239018418,-0.0013359738839367,0.0013359746586448,-0.0013359753349278,0.0013359737160217,-0.0013359743262967,0.0013359746067976,-0.0013359751450612,0.0013359733179046,-0.00059937325591236,0.00059937427199902,-7.1138311655763e-11,-4.7645674539701e-10,-4.7703445626599e-09,4.2136426371098e-09,-0.0017124498434225,0.0017124493086521,-0.0016909282223629,0.0016909365076264,-0.001651490626524,0.001651487540895,-0.0016514910865342,0.0016514871833702,-0.001684231684776,0.0016842282763929,-0.001684228663073,0.0016842312956717,-0.0016842318067985,0.0016842281632837,-0.0016842287850204,0.0016842311864405,-0.0016909372205084,0.0016909276760357,-0.0016909283669106,0.0016909363956864,-0.0016514876736946,0.0016514904838091,-0.0016514881084293,0.0016514901633403,-0.0016909369858442,0.0016909279029433,-6.5812428224558e-10,4.3750134571508e-10,-0.0010966459909626,0.0010966457829604,4.478472680527e-09,-4.703561755349e-09,-0.00095766060806347,0.0009576504718159,-0.00090018379564926,0.00090017492336667,-0.00090018406534727,0.00090017458059085,-0.00095765051795203,0.00095766043525844,-0.00095765177516555,0.00095765935737386,-0.00090017462728414,0.00090018385733867,-0.00090017511848687,0.0009001835109969,-0.0013285704675547,0.0013285731073819,-0.00132857366586,0.0013285698984485,-0.0013285701335077,0.0013285734589707,-0.001328573283666,0.0013285702621567,-0.001326801994748,0.0013267997141834,-0.0013268030274409,0.0013267986527882,-0.0013267999802132,0.0013268017416084,-0.0013267988563695,0.0013268027990588,-0.00095765968076724,0.00095765151419123,0.74096371239465,128566,2924,0.005501767804666,0.0071077216645596,0.0045605920033485,37.193786626916,5.7550293015329e-05,5.7550293015329e-05,5.7550293015329e-05,3316519.4641035,0.017319585717492
38791759,0.97187093525689,0.017300329465739,0.0057024440020516,0.0066337355459759,0.0049641499177116,-0.0013258027786929,0.0013258021885557,2.9104611428511e-10,-8.7230329010091e-10,-6.3552717108117e-10,2.2730882645962e-12,-0.00059931278879389,0.0005993115200074,-0.0012950792999459,0.0012950797166098,-0.0012950797768007,0.0012950793389229,-0.00059931220884855,0.00059931203059792,-0.00059931321058605,0.00059931098448864,-0.0012950800019549,0.0012950790793949,-0.0012950802782272,0.001295078656387,-0.0015356272558344,0.0015356268809831,-0.0015356276796666,0.0015356265167926,-0.001535627070581,0.0015356271010693,-0.0015356274610536,0.0015356266997379,-0.0013387273416709,0.0013387282181775,-0.0013387288225993,0.0013387272676895,-0.0013387278554379,0.0013387281138073,-0.0013387286806169,0.0013387267962641,-0.00059931151098692,0.00059931275027462,2.7851518566991e-12,-5.7727263165854e-10,-4.8091202236195e-09,4.2276390804104e-09,-0.0017164218394627,0.0017164212795575,-0.0016947508395917,0.0016947592012786,-0.0016553604182021,0.0016553574623555,-0.0016553610534337,0.0016553569310176,-0.001688019931631,0.0016880165358385,-0.0016880168896126,0.0016880195752182,-0.0016880201108597,0.0016880163641597,-0.001688017067027,0.0016880194087069,-0.0016947599407875,0.0016947502633722,-0.001694751037431,0.0016947590315927,-0.0016553574507644,0.0016553604231221,-0.0016553580512028,0.0016553599299856,-0.0016947596397353,0.001694750552784,-6.5383524023979e-10,4.4177790298464e-10,-0.0010985868030568,0.0010985866037983,4.4774354140962e-09,-4.6934789160677e-09,-0.0009592033823809,0.0009591932755661,-0.0009017202231903,0.00090171137235008,-0.00090172049071421,0.00090171102974992,-0.00095919331807654,0.00095920321596077,-0.00095919456680524,0.00095920214906186,-0.00090171107085531,0.00090172029227533,-0.00090171156077891,0.0009017199491061,-0.0013312651239748,0.0013312677760113,-0.0013312683265634,0.0013312645626819,-0.0013312647918277,0.0013312681272776,-0.001331267941828,0.0013312649278252,-0.0013295349976368,0.0013295327323135,-0.001329536029228,0.0013295316685561,-0.0013295329875223,0.0013295347521325,-0.0013295318637705,0.0013295358082281,-0.00095920246300342,0.00095919431705954,0.74287813796831,128566,2924,0.0055124877628669,0.0071241376795,0.0045686547475271,37.193616350843,5.7548930806747e-05,5.7548930806747e-05,5.7548930806747e-05,3309704.4582985,0.017355403108111
38880000,0.97275555294781,0.017316013154937,0.0057075759735697,0.0066400272385026,0.0049684099428648,-0.0013268919796827,0.0013268913960756,2.9683730597112e-10,-8.7165480326468e-10,-6.6010302386456e-10,3.3824781176153e-11,-0.00059918613316637,0.00059918492059039,-0.0012961701022039,0.0012961705829386,-0.0012961705814685,0.0012961702037081,-0.00059918560244778,0.00059918538073483,-0.00059918661073275,0.00059918433112551,-0.0012961708595688,0.001296169890144,-0.001296171136911,0.001296169465238,-0.0015370144230313,0.001537014038374,-0.0015370148503493,0.0015370136738435,-0.0015370142215574,0.0015370142780946,-0.0015370146119452,0.0015370138737204,-0.0013399036514846,0.0013399045602362,-0.0013399051265513,0.0013399035911585,-0.0013399041727749,0.0013399044216618,-0.0013399050137242,0.0013399031125829,-0.00059918485082217,0.00059918615717657,2.6122527092376e-11,-6.1014067356242e-10,-4.8419753253304e-09,4.2509534594663e-09,-0.0017181400430897,0.0017181394743628,-0.0016963604146903,0.0016963688402282,-0.0016570567341225,0.0016570538067614,-0.0016570574248246,0.0016570532189789,-0.0016896564394163,0.0016896530355642,-0.0016896533791628,0.0016896560932598,-0.0016896566367563,0.0016896528451463,-0.0016896535743159,0.0016896559083654,-0.0016963695915488,0.0016963598252096,-0.0016963606298041,0.0016963686528951,-0.0016570537488043,0.0016570567854537,-0.001657054402903,0.0016570562374607,-0.0016963692676275,0.0016963601376734,-6.571871187861e-10,4.4153114349356e-10,-0.0010993711923275,0.0010993709895158,4.5014469770631e-09,-4.7212440201974e-09,-0.00095975781173119,0.00095974764648496,-0.00090237098690924,0.00090236208267514,-0.00090237125353594,0.00090236173885114,-0.0009597476909053,0.00095975764152115,-0.00095974894434243,0.00095975657275396,-0.00090236178211062,0.00090237105147684,-0.00090236227475316,0.00090237070735137,-0.0013324148434799,0.00133241750893,-0.001332418064152,0.0013324142774178,-0.0013324145116388,0.0013324178609533,-0.0013324176770899,0.0013324146439929,-0.0013306814324256,0.001330679164125,-0.0013306824654246,0.0013306780966542,-0.0013306794227135,0.0013306811818167,-0.0013306782943859,0.0013306822408049,-0.00095975689274975,0.00095974869139482,0.74369371398923,128566,2924,0.0055170132218126,0.0071312376868553,0.0045719142987432,37.193609197359,5.7548873578876e-05,5.7548873578876e-05,5.7548873578876e-05,3305839.9764959,0.017370550710635
