time,ASR_ext,ASR_strain,ASR_strain_xx,ASR_strain_yy,ASR_strain_zz,disp_x_101,disp_x_102,disp_x_103,disp_x_104,disp_x_105,disp_x_106,disp_x_p1_neg,disp_x_p1_pos,disp_x_p2_neg,disp_x_p2_pos,disp_x_p3_neg,disp_x_p3_pos,disp_x_p4_neg,disp_x_p4_pos,disp_x_p5_neg,disp_x_p5_pos,disp_x_p6_neg,disp_x_p6_pos,disp_y_101,disp_y_102,disp_y_103,disp_y_104,disp_y_105,disp_y_106,disp_y_p1_neg,disp_y_p1_pos,disp_y_p2_neg,disp_y_p2_pos,disp_y_p3_neg,disp_y_p3_pos,disp_y_p4_neg,disp_y_p4_pos,disp_y_p5_neg,disp_y_p5_pos,disp_y_p6_neg,disp_y_p6_pos,disp_y_p7_neg,disp_y_p7_pos,disp_y_p8_neg,disp_y_p8_pos,disp_z_101,disp_z_102,disp_z_103,disp_z_104,disp_z_105,disp_z_106,disp_z_p1_neg,disp_z_p1_pos,disp_z_p2_neg,disp_z_p2_pos,disp_z_p3_neg,disp_z_p3_pos,disp_z_p4_neg,disp_z_p4_pos,disp_z_p5_neg,disp_z_p5_pos,disp_z_p6_neg,disp_z_p6_pos,humidity,ndof,nelem,strain_xx,strain_yy,strain_zz,temp,thermal_strain_xx,thermal_strain_yy,thermal_strain_zz,vonmises,vstrain
2419200,0,0,0,0,0,0,0,0,0,0,0,0,0,0,0,0,0,0,0,0,0,0,0,0,0,0,0,0,0,0,0,0,0,0,0,0,0,0,0,0,0,0,0,0,0,0,0,0,0,0,0,0,0,0,0,0,0,0,0,0,0,0,0,0,0,0,0,0,0,0,0,0,0,0,0
2619200,0.019550901303129,0.00040106522414932,0.00013368840804977,0.00013368840804977,0.00013368840804977,-3.4461436861546e-05,3.4462845282272e-05,6.5683650254264e-10,7.4001440243701e-10,-1.970056061801e-09,3.4621081248961e-09,-3.404578443712e-05,3.4045369339915e-05,-3.4045677992241e-05,3.4045318300925e-05,-3.4044010147553e-05,3.4047141930666e-05,-3.4043982463479e-05,3.4047169096002e-05,-3.501180302807e-05,3.5014916084966e-05,-3.501170433114e-05,3.5014979025081e-05,1.7690795305865e-09,-3.6465265059731e-09,-1.7784494771883e-08,1.5991855589636e-08,-3.5698776900576e-05,3.5696975580843e-05,-3.5075577080157e-05,3.5064504541678e-05,-3.5064788482536e-05,3.5075834272824e-05,-3.5077300943951e-05,3.5062697353516e-05,-3.5066510427179e-05,3.5074024729011e-05,-3.5929061268773e-05,3.5892327249733e-05,-3.5896407191884e-05,3.592596742722e-05,-3.6147997449082e-05,3.6162672262513e-05,-3.6153264769585e-05,3.6157246008937e-05,-3.6044108623505e-09,-3.6839612283627e-09,-3.3275178256877e-05,3.3267826840436e-05,1.2838869407368e-08,-2.0744847963634e-08,-3.3005307358093e-05,3.3009274901647e-05,-3.3016436878232e-05,3.2998139783678e-05,-3.3005340307323e-05,3.3009254491171e-05,-3.3016467837847e-05,3.2998116843796e-05,-3.4368551113654e-05,3.4349994208038e-05,-3.4368460493657e-05,3.4350060022925e-05,0.81992966253808,128566,2924,0.00014358189034548,0.00014873002586247,0.00013862163183075,31.536296485998,1.2290371887981e-05,1.2290371887981e-05,1.2290371887981e-05,547124.5280363,0.00043102663724648
2819200,0.041144461946908,0.00084163171573533,0.00028078956620956,0.00028271584340849,0.00027812630611728,-7.13981538552e-05,7.1394822689393e-05,-1.647044163776e-09,-1.6716702209876e-09,3.3188456502945e-09,-6.8108007695057e-09,-7.1428890541447e-05,7.1428917861742e-05,-7.1428806132621e-05,7.1428816848102e-05,-7.1432072537936e-05,7.1425502012899e-05,-7.1432068589511e-05,7.1425480555843e-05,-7.215325661491e-05,7.2146614048667e-05,-7.2153202236826e-05,7.2146509403451e-05,-2.8884704156233e-09,7.2198454395821e-09,-1.5283825021508e-08,1.9465880914862e-08,-7.4514597141917e-05,7.451879016146e-05,-7.3893089168264e-05,7.3882517683543e-05,-7.3881843786194e-05,7.389414762205e-05,-7.3889895619425e-05,7.3885893498287e-05,-7.3878649927252e-05,7.3897522431613e-05,-7.4473112002057e-05,7.4446537548778e-05,-7.4439489240865e-05,7.4481106278436e-05,-7.5017239746441e-05,7.502305643464e-05,-7.50074107775e-05,7.5033176455545e-05,-1.7261747991744e-09,-1.6950741359961e-09,-6.8304881161763e-05,6.8301345170982e-05,1.5233906976202e-08,-1.9321092722837e-08,-6.880574875455e-05,6.881381350625e-05,-6.8817237495227e-05,6.8802329972571e-05,-6.8805730315607e-05,6.8813815209018e-05,-6.8817220695382e-05,6.8802332300127e-05,-7.0335783707664e-05,7.0320837890803e-05,-7.0335834274315e-05,7.0320828977256e-05,0.82138489930991,128566,2924,0.00029744098175329,0.00031043781152158,0.00028455594091923,32.738039296376,2.1904314371005e-05,2.1904314371005e-05,2.1904314371005e-05,760611.84898235,0.0008928335598615
3019200,0.062601828613415,0.0012774043002973,0.00042675290904794,0.00043365809340299,0.00041699329784632,-0.00010526598239984,0.00010526220599354,-1.814295350308e-09,-1.9373296254489e-09,5.6705634140368e-09,-9.6745824817086e-09,-0.00010584514673293,0.00010584649088118,-0.00010584511854182,0.00010584638222353,-0.00010585002266416,0.00010584133270975,-0.00010585006086462,0.00010584128599835,-0.0001060440463849,0.00010603532100776,-0.0001060441125292,0.00010603513871437,-5.408439153503e-09,1.0097096864295e-08,-1.374785366736e-08,1.8182267495606e-08,-0.00011098617447407,0.00011099064628599,-0.00011034359341579,0.00011033238400234,-0.00011033315742679,0.00011034304641459,-0.00011033862699969,0.00011033756556033,-0.00011032819268129,0.00011034822557877,-0.00011037084010665,0.00011034910129594,-0.00011033992047125,0.00011038081460077,-0.00011162894947314,0.00011162883875949,-0.00011161386057599,0.0001116443521484,-1.1389577395461e-09,-9.8777786871747e-10,-9.9353759890761e-05,9.9351535162256e-05,1.4370807448631e-08,-1.7093544963717e-08,-0.0001005307472516,0.00010053905579576,-0.00010054124341062,0.00010052861293056,-0.00010053067714399,0.00010053908770841,-0.00010054117580197,0.00010052864263778,-0.00010267027450842,0.00010265775342403,-0.00010267047615072,0.00010265766597901,0.82013324291731,128566,2924,0.0004385039094985,0.00046234422904468,0.00041388427551984,32.491843940748,1.993475152598e-05,1.993475152598e-05,1.993475152598e-05,1025049.4290036,0.0013155980604733
3219200,0.083826320282957,0.0016998799867023,0.000568074152665,0.00058312478287941,0.00054868105115788,-0.00013790917922208,0.00013790565909874,-1.6340036648515e-09,-1.8641165827796e-09,6.3238838203719e-09,-1.0087663286113e-08,-0.00013931978907964,0.00013932179007324,-0.0001393198089162,0.00013932165882946,-0.0001393250297452,0.00013931627368395,-0.00013932510833628,0.00013931619596506,-0.00013838284665029,0.00013837411121701,-0.00013838303494196,0.00013837384042342,-6.089180683232e-09,1.0487873905063e-08,-1.2568131224902e-08,1.6683270494428e-08,-0.00014703743843079,0.00014704160097098,-0.00014668156602489,0.00014667053726376,-0.0001466719576241,0.00014668029308061,-0.00014667621257097,0.00014667607371242,-0.00014666660614924,0.00014668582715961,-0.00014535044086499,0.00014533138461805,-0.00014532210807614,0.00014536041430294,-0.00014751630042058,0.00014751396663248,-0.00014750016788198,0.00014753053149526,-8.1537185178694e-10,-5.5278711918034e-10,-0.00012862048732792,0.00012861903407634,1.3429850217067e-08,-1.5345165413082e-08,-0.00013073606321024,0.00013074421049933,-0.00013074567847942,0.00013073466875486,-0.00013073595435572,0.00013074427888111,-0.00013074557456206,0.00013073473587487,-0.00013313467108068,0.00013312391164742,-0.00013313498400662,0.00013312371905298,0.80675913296019,128566,2924,0.00057444866802418,0.00061247589363339,0.00053577366112757,32.203993820683,1.7631950565462e-05,1.7631950565462e-05,1.7631950565462e-05,1238767.897085,0.0017241844813812
3419200,0.10479269449133,0.0021050656562888,0.00070302375391039,0.00072993082784331,0.00067211107453512,-0.00016899895817032,0.00016899582976706,-1.3851212722588e-09,-1.7257226150008e-09,6.3845650393776e-09,-9.7619796433699e-09,-0.00017160405434579,0.00017160640597676,-0.00017160411849414,0.00017160624530707,-0.00017160922339469,0.00017160097933862,-0.00017160934009624,0.00017160086647739,-0.00016875314123969,0.0001687449822355,-0.00016875344344192,0.00016874460985475,-6.0598336331539e-09,1.0225594706836e-08,-1.1622164900325e-08,1.5500884157644e-08,-0.000182454188579,0.00018245811682312,-0.0001828615726195,0.00018285108620841,-0.00018285263905513,0.00018286012522755,-0.00018285628743504,0.00018285652349442,-0.00018284735568116,0.00018286556061794,-0.00017901946948919,0.00017900217409794,-0.00017899319530073,0.00017902908401086,-0.00018226847154462,0.00018226550034574,-0.00018225262662693,0.00018228176587783,-6.0897406366984e-10,-2.3839720135157e-10,-0.00015593552660894,0.00015593460049529,1.2673322804342e-08,-1.4032861386129e-08,-0.00015932545466826,0.00015933340012959,-0.00015933438335427,0.00015932454778174,-0.00015932531041111,0.00015933350511374,-0.00015933424481718,0.00015932465246413,-0.00016137675284641,0.00016136731239866,-0.00016137716527863,0.00016136700738158,0.78589836312238,128566,2924,0.00070390723341578,0.00075994314627492,0.00064952172664976,31.914514464122,1.5316115712974e-05,1.5316115712974e-05,1.5316115712974e-05,1429250.2763116,0.0021156088092433
3619200,0.12602082929183,0.0025053839373593,0.00083555292177437,0.00087828545138066,0.00079154556420425,-0.00020016596731935,0.00020016343210993,-1.0346945858761e-09,-1.4872850046866e-09,6.1751317447305e-09,-8.9524266893701e-09,-0.00020431375888466,0.00020431640927483,-0.00020431386357718,0.00020431621382924,-0.00020431860632828,0.00020431132266072,-0.00020431875903821,0.00020431117201376,-0.00019883796389203,0.0001988308368966,-0.00019883837358134,0.00019883035510517,-5.670340535886e-09,9.6002412572856e-09,-1.1214749128781e-08,1.4874733500734e-08,-0.00021897807572439,0.00021898178435435,-0.00022074688590384,0.0002207368568223,-0.00022073829034466,0.00022074554637695,-0.00022074191625568,0.00022074194955673,-0.00022073332201714,0.00022075063828454,-0.00021304772815807,0.00021303088584621,-0.0002130224530813,0.00021305677669109,-0.00021756396214268,0.00021756142728597,-0.00021754910988684,0.00021757667326979,-5.4210643928005e-10,-6.5117969917855e-11,-0.00018296083502469,0.00018296015051731,1.2296386264848e-08,-1.3399522698201e-08,-0.00018783586321906,0.00018784367554298,-0.00018784445258049,0.00018783515686011,-0.00018783568464742,0.0001878438165509,-0.00018784427905277,0.00018783529838656,-0.00018922205202573,0.00018921329625216,-0.00018922256262817,0.00018921287882909,0.77011574948853,128566,2924,0.00083367093489245,0.00091199717170401,0.00076205101948039,31.993831399933,1.5950651199464e-05,1.5950651199464e-05,1.5950651199464e-05,1653812.5620285,0.0025108684224889
3819200,0.14785110492829,0.0029154195085381,0.00097049884521509,0.0010326447592286,0.00091227590409444,-0.00023232877088689,0.00023232667811369,-7.5086417409835e-10,-1.3311054044384e-09,5.9760747888505e-09,-8.3054153939446e-09,-0.00023815577729132,0.00023815863667381,-0.00023815592898436,0.00023815839696183,-0.00023816035735449,0.00023815383291385,-0.00023816054810044,0.00023815364114421,-0.00022977852615823,0.00022977223536157,-0.00022977904942232,0.00022977163460206,-5.3728086452148e-09,8.9973792935916e-09,-1.1150035896226e-08,1.4520776841301e-08,-0.00025747038086734,0.00025747379752865,-0.00026102111582212,0.00026101123888842,-0.00026101266308651,0.00026101978403451,-0.00026101643967446,0.0002610160256179,-0.00026100798187262,0.00026102457587785,-0.0002485675764743,0.00024855054462773,-0.00024854269880223,0.00024857603404401,-0.00025449113715224,0.00025448903979112,-0.00025447715480945,0.00025450339882626,-5.4638332746458e-10,2.1470926695575e-11,-0.00021071409204496,0.00021071348942618,1.2179727569411e-08,-1.3194347697805e-08,-0.00021703342538353,0.00021704118212608,-0.00021704190715246,0.00021703276620974,-0.00021703321906799,0.00021704134963871,-0.00021704169997282,0.00021703294054067,-0.00021804761725356,0.00021803915014922,-0.00021804822330341,0.00021803863246871,0.77140160602281,128566,2924,0.000967562482884,0.0010722202124218,0.00087759923915553,32.325082489874,1.8600659918996e-05,1.8600659918996e-05,1.8600659918996e-05,1890958.1151325,0.0029216446368364
4019200,0.17027231473218,0.0033354511558743,0.0011080589795118,0.0011930492388711,0.0010343429374914,-0.00026506165629904,0.00026505988837927,-5.3937108766853e-10,-1.2199492091002e-09,5.8538592841516e-09,-7.8535538533354e-09,-0.00027272930498234,0.00027273233191393,-0.0002727294910301,0.00027273206118338,-0.0002727336978239,0.00027272772272562,-0.00027273392347188,0.00027272749524233,-0.00026121048247516,0.00026120480886772,-0.00026121110805589,0.00026120410309873,-5.1751184368312e-09,8.6424036493391e-09,-1.1140801346828e-08,1.4362766340303e-08,-0.00029750340684334,0.00029750667270255,-0.00030315314033557,0.00030314335743481,-0.0003031447452634,0.00030315184433,-0.00030314864404906,0.0003031479569787,-0.00030314024567837,0.00030315644684827,-0.00028526669540404,0.00028524949896326,-0.00028524198345546,0.00028527481849629,-0.00029267519860504,0.00029267343410546,-0.00029266175579669,0.00029268724199032,-5.8780668266944e-10,9.8172316515021e-11,-0.00023874861791165,0.0002387480499308,1.2099919283147e-08,-1.3074652503839e-08,-0.00024657485401063,0.00024658253812637,-0.00024658326844299,0.00024657418777674,-0.00024657460719371,0.00024658274601835,-0.00024658302306148,0.00024657439894132,-0.000247367772742,0.00024735951794602,-0.00024736848855559,0.00024735888857458,0.77299484737204,128566,2924,0.0011038083793775,0.0012388286223784,0.00099430682062142,32.662582303118,2.1300658424946e-05,2.1300658424946e-05,2.1300658424946e-05,2113700.3539931,0.0033425216763299
4219200,0.19325983979422,0.0037655615747426,0.0012483236852405,0.0013595640401235,0.0011576738493785,-0.00029836512955018,0.00029836359844933,-3.6711890303881e-10,-1.1573820335228e-09,5.7757778423408e-09,-7.5341961062895e-09,-0.0003082047427466,0.0003082079100969,-0.00030820496669184,0.00030820760385841,-0.00030820900796413,0.00030820343653708,-0.0003082092701304,0.00030820317208221,-0.00029329914389222,0.00029329394456889,-0.00029329987656334,0.00029329313084646,-5.0308448444374e-09,8.3894940040552e-09,-1.112786488416e-08,1.4246320177609e-08,-0.00033931342137785,0.00033931658243277,-0.00034723010421572,0.00034722039326899,-0.0003472217522928,0.00034722883516531,-0.00034722573613884,0.00034722485788395,-0.00034721738095524,0.00034723330263313,-0.00032345010065818,0.00032343279533615,-0.00032342551026525,0.00032345798255252,-0.00033261342639188,0.00033261189974189,-0.00033260036530376,0.00033262531306003,-6.3830672908486e-10,1.5648722894004e-10,-0.00026696790425572,0.00026696734349358,1.2043129302652e-08,-1.3005444479161e-08,-0.00027665732186834,0.00027666493135838,-0.00027666569388242,0.00027665662206559,-0.00027665703839613,0.0002766651747757,-0.00027666541119268,0.00027665686847399,-0.0002769586667506,0.00027695056791577,-0.00027695948813202,0.00027694983037905,0.77488672712862,128566,2924,0.0012424098895329,0.0014128017959638,0.0011117723942147,33.000320532509,2.4002564260073e-05,2.4002564260073e-05,2.4002564260073e-05,2312391.7282075,0.0037740937318472
4419200,0.21718540222899,0.0042127408122807,0.0013934267913759,0.0015354233829724,0.0012838906379324,-0.00033321204387525,0.00033321067483279,-1.7786975926713e-10,-1.186698300894e-09,5.7348668225428e-09,-7.3274311725663e-09,-0.00034549855936318,0.00034550189548266,-0.00034549887306936,0.00034550150073955,-0.00034550276450652,0.00034549749047109,-0.00034550308207251,0.00034549716869232,-0.00032691036531387,0.000326905572863,-0.00032691126114431,0.00032690459034833,-4.8899277619458e-09,8.1143757105243e-09,-1.1078625520977e-08,1.4069089905814e-08,-0.00038412244780537,0.00038412547975571,-0.00039447274939061,0.0003944631389325,-0.00039446448699344,0.00039447148724547,-0.00039446853043702,0.00039446744609907,-0.00039446023183732,0.0003944758299697,-0.00036430543484081,0.00036428803626983,-0.0003642810101935,0.00036431304181635,-0.00037555681051067,0.00037555543666968,-0.00037554409947564,0.00037556847955596,-6.5778702018214e-10,1.3681352326683e-10,-0.00029621697879473,0.00029621637844223,1.205292180091e-08,-1.3053101658213e-08,-0.00030815922802982,0.00030816683028832,-0.00030816763361299,0.0003081584847428,-0.00030815896010628,0.00030816705669298,-0.00030816733346936,0.00030815874655789,-0.00030768122925616,0.00030767311853799,-0.00030768209852811,0.00030767233285218,0.77612067707086,128566,2924,0.0013874141094849,0.0015992190732657,0.0012335130119527,33.594308587613,2.8754468700908e-05,2.8754468700908e-05,2.8754468700908e-05,2502536.755485,0.0042290714242322
4619200,0.2421878528738,0.0046794823106159,0.0015441098144433,0.0017220225322795,0.0014133499638931,-0.00036947868861983,0.00036947746063514,-1.0892279062506e-10,-1.1166342508914e-09,5.6645552007306e-09,-7.1123690635661e-09,-0.0003844101835705,0.00038441355896589,-0.00038441048477154,0.00038441318029021,-0.00038441429134443,0.00038440926111505,-0.00038441462827217,0.00038440892278437,-0.00036180344370366,0.00036179893277456,-0.00036180439249625,0.00036179790139,-4.8556650984849e-09,7.9857479474554e-09,-1.1127464258296e-08,1.4028461380678e-08,-0.00043183648749969,0.00043183942937465,-0.0004448752108,0.00044486556063944,-0.00044486694082132,0.00044487391998447,-0.00044487103489333,0.00044486982232392,-0.00044486275554397,0.00044487818893671,-0.00040767860099855,0.00040766110217209,-0.0004076542178899,0.00040768606594245,-0.00042117148245971,0.00042117022783541,-0.00042115897545169,0.00042118305776051,-7.5521717091968e-10,2.5850260353136e-10,-0.00032633218593112,0.00032633160973273,1.1957960734464e-08,-1.2930276530308e-08,-0.00034084808672178,0.00034085555676246,-0.00034085640751819,0.00034084729287044,-0.00034084772955161,0.0003408558713498,-0.00034085605422673,0.00034084760934141,-0.00033938605033595,0.00033937819493613,-0.00033938707777239,0.00033937724448057,0.77693646232188,128566,2924,0.0015383037730093,0.0017976823357869,0.0013588472701399,34.292103909397,3.4336831275179e-05,3.4336831275179e-05,3.4336831275179e-05,2691486.9788541,0.0047058821793035
4819200,0.26823595974775,0.0051652645660029,0.001700207886494,0.0019192271501494,0.0015458295293595,-0.00040692839089312,0.00040692725713806,-1.338217342092e-11,-1.1192431758367e-09,5.6446505425873e-09,-6.9949283687104e-09,-0.00042466120002547,0.00042466465217133,-0.00042466153184313,0.00042466424459565,-0.00042466526315056,0.0004246604060687,-0.00042466563589929,0.00042466003256703,-0.00039766412421426,0.00039765985368729,-0.00039766517717525,0.00039765872048449,-4.8252074339015e-09,7.8950983636056e-09,-1.1108068387047e-08,1.3952252706992e-08,-0.00048217622551045,0.00048217910950215,-0.00049821579849644,0.00049820615344226,-0.00049820755140414,0.00049821448752944,-0.00049821165405556,0.00049821037902688,-0.00049820340797926,0.00049821871090525,-0.00045321997254295,0.00045320247751644,-0.00045319568915334,0.00045322733649526,-0.00046899919836469,0.00046899798382654,-0.00046898681630835,0.00046901067854954,-8.1410000514741e-10,3.1973028806349e-10,-0.00035709183338497,0.0003570912587866,1.1903179349556e-08,-1.2869981269115e-08,-0.00037444013002733,0.00037444751703421,-0.00037444840774573,0.00037443929387903,-0.00037443973091216,0.00037444787325723,-0.0003744480155276,0.00037443964920797,-0.00037185983665322,0.00037185213587543,-0.00037186097490661,0.00037185106873134,0.7779217908531,128566,2924,0.0016940916907631,0.0020070224289591,0.0014868524437499,34.992512791578,3.994010233262e-05,3.994010233262e-05,3.994010233262e-05,2877870.8268306,0.0052014619059582
5019200,0.29528005884953,0.0056676525733909,0.0018607471852146,0.0021262175157766,0.0016806878723997,-0.00044532568827885,0.00044532461356337,7.201415513464e-11,-1.1465882734542e-09,5.6236043791821e-09,-6.9130577855359e-09,-0.00046605229869787,0.00046605581251077,-0.00046605266891522,0.00046605536868084,-0.00046605633155427,0.00046605160276997,-0.00046605674076168,0.0004660511929852,-0.00043426952357084,0.00043426545338364,-0.00043427068516969,0.00043426421302134,-4.7876130272966e-09,7.8254301617449e-09,-1.1067452786694e-08,1.3882661866415e-08,-0.00053494067592733,0.0005349435299714,-0.00055433026560798,0.00055432066080445,-0.00055432205261262,0.00055432895929424,-0.00055432615456903,0.00055432484933053,-0.00055431794236942,0.00055433314642164,-0.00050063634492957,0.00050061888716784,-0.00050061216179949,0.00050064364224552,-0.00051880499186858,0.00051880381111345,-0.00051879270728492,0.0005188164020494,-8.6673442677365e-10,3.7279843539398e-10,-0.00038836740907264,0.0003883668345465,1.1854259760207e-08,-1.281832060673e-08,-0.00040878903384292,0.00040879634949898,-0.00040879727585752,0.00040878815974794,-0.00040878859903609,0.00040879674146776,-0.00040879684776485,0.00040878855103283,-0.00040488758384258,0.00040488002295451,-0.00040488882551722,0.00040487884875768,0.7767732575972,128566,2924,0.0018537962815653,0.0022263962091102,0.0016169942858337,35.693021792273,4.5544174338183e-05,4.5544174338183e-05,4.5544174338183e-05,3060183.2862745,0.0057134658213234
5219200,0.32262295041078,0.0061754727515678,0.0020219753055677,0.0023383405355579,0.0018151569104422,-0.00048306064427551,0.00048305957693183,1.4557947515064e-10,-1.2132325599996e-09,5.653729254215e-09,-6.9367795232795e-09,-0.00050687218461464,0.00050687577365468,-0.00050687260573141,0.00050687528004994,-0.00050687623986531,0.00050687154411873,-0.00050687669135285,0.00050687109186408,-0.00047016267127861,0.00047015871545026,-0.00047016395725582,0.00047015734959343,-4.79697735187e-09,7.8477916022653e-09,-1.1071650612438e-08,1.3901145113882e-08,-0.00058824966047137,0.00058825252809809,-0.00061126564815508,0.0006112560434966,-0.00061125743217202,0.00061126434619161,-0.00061126153112793,0.00061126023745278,-0.000611253307742,0.00061126854697924,-0.00054819142137935,0.00054817395157396,-0.00054816720319336,0.00054819874434142,-0.00056882329329309,0.00056882208868024,-0.00056881096317964,0.00056883472437242,-9.2354987162655e-10,3.9450864459053e-10,-0.00041883846309088,0.00041883785276302,1.1868665024622e-08,-1.286945571852e-08,-0.0004424436900843,0.0004424509687377,-0.00044245195608564,0.00044244275326857,-0.00044244323277265,0.00044245138333257,-0.00044245149753003,0.00044244317482058,-0.00043708720120705,0.00043707967314728,-0.0004370885303414,0.0004370784094156,0.7785555232215,128566,2924,0.0020107210064692,0.0024479815775595,0.0017437805118046,36.022709624939,4.818167699951e-05,4.818167699951e-05,4.818167699951e-05,3226051.1115534,0.0062217831486576
5419200,0.3500596636547,0.0066778500640468,0.0021802568698807,0.0025511633304127,0.0019464298637534,-0.00051994319179471,0.00051994214697634,2.0560646787733e-10,-1.2511098018045e-09,5.6518893553243e-09,-6.91246453113e-09,-0.00054711665521525,0.00054712028987286,-0.00054711710827699,0.00054711976477285,-0.00054712070025426,0.00054711607053876,-0.00054712118582261,0.0005471155841629,-0.00050512322781896,0.00050511940329822,-0.00050512461292585,0.0005051179367014,-4.7733104285253e-09,7.8519842270364e-09,-1.106438613204e-08,1.3921993019405e-08,-0.00064172117442032,0.00064172406990311,-0.0006686698911467,0.00066866031732535,-0.000668661671498,0.00066866862469895,-0.0006686657805067,0.00066866450375815,-0.00066865755387235,0.00066867281636056,-0.00059549544250239,0.00059547798536646,-0.00059547121745669,0.00059550278864138,-0.0006186082551445,0.00061860710759803,-0.0006185959482053,0.00061861971924788,-9.9110431101439e-10,4.4777624710469e-10,-0.00044843039167887,0.00044842976638422,1.1861024170515e-08,-1.2877335185201e-08,-0.00047552529285431,0.00047553251564927,-0.0004755335570903,0.00047552430086004,-0.00047552479443514,0.00047553297202105,-0.00047553305997091,0.00047552476116405,-0.00046822368087913,0.00046821625283445,-0.00046822512284534,0.00046821487483162,0.76958003318827,128566,2924,0.0021640770789206,0.0026701889926903,0.0018669028302038,36.275623438833,5.0204987510667e-05,5.0204987510667e-05,5.0204987510667e-05,3374825.9645299,0.0067237035443805
5619200,0.37750911402397,0.0071569275461298,0.0023298316280679,0.0027575351011741,0.0020695608168877,-0.00055505840271579,0.00055505739317788,2.7738812438394e-10,-1.2880777072523e-09,5.6288240595535e-09,-6.8528563906766e-09,-0.00058643773345591,0.00058644141122278,-0.00058643822232378,0.0005864408497878,-0.00058644174941037,0.00058643721949625,-0.00058644227139423,0.00058643669659226,-0.00053804735574137,0.00053804370058791,-0.00053804884724656,0.00053804212658837,-4.7242642952334e-09,7.8197020360881e-09,-1.1037229896556e-08,1.3912049510614e-08,-0.00069415055055063,0.00069415346335244,-0.0007254554517915,0.00072544593330785,-0.00072544724262491,0.00072545422898939,-0.00072545136632901,0.00072545009165982,-0.00072544315134661,0.00072545839173136,-0.0006412416208455,0.00064122419065877,-0.00064121743311035,0.0006412489567385,-0.00066689398385499,0.00066689292522241,-0.00066688175802044,0.00066690545256356,-1.0473600030859e-09,5.0141149531537e-10,-0.00047619004442129,0.00047618941590513,1.1841160992924e-08,-1.2860309613516e-08,-0.0005075884882023,0.00050759565874199,-0.00050759673977038,0.00050758745611837,-0.00050758795373121,0.00050759615201855,-0.00050759620607159,0.0005075879533045,-0.0004970993093052,0.00049709199872996,-0.00049710085844834,0.00049709051214379,0.7363704866507,128566,2924,0.0023100631089645,0.0028880125392559,0.0019823986495295,36.526538759535,5.2212310076283e-05,5.2212310076283e-05,5.2212310076283e-05,3510272.8257139,0.0072063560569517
5819200,0.404889006338,0.0076172451344657,0.0024724557899593,0.002958481563425,0.0021863077810813,-0.00058892494674652,0.00058892397782397,3.5209839197773e-10,-1.3228254637945e-09,5.6016226257169e-09,-6.7820820879006e-09,-0.00062533601253002,0.00062533973432644,-0.00062533653768199,0.00062533913624482,-0.00062533999577934,0.00062533557466013,-0.00062534055409538,0.00062533501525292,-0.00056971755276758,0.00056971407711393,-0.00056971915124696,0.00056971239554453,-4.6713833497099e-09,7.7732254582098e-09,-1.0996707962708e-08,1.3878964855709e-08,-0.000745932476389,0.00074593539683717,-0.00078177995028555,0.0007817704963622,-0.00078177176447108,0.00078177876750334,-0.00078177589584141,0.00078177462002271,-0.00078176770430442,0.00078178289558153,-0.00068594115636671,0.00068592377244967,-0.00068591703992317,0.00068594846531634,-0.00071463074609805,0.00071462977014945,-0.00071461861596269,0.00071464219513188,-1.1000038678796e-09,5.5796731925622e-10,-0.00050243277575988,0.00050243215086326,1.1808040991277e-08,-1.2822685227614e-08,-0.00053874950104697,0.00053875661492499,-0.00053875772892208,0.00053874843551606,-0.0005387489306663,0.00053875714519839,-0.00053875715911719,0.00053874896951517,-0.0005242494204197,0.00052424224404147,-0.00052425107566911,0.00052424064968236,0.71317583896355,128566,2924,0.0024508384239513,0.0031030929621524,0.0020915830494644,36.777376942311,5.4219015538491e-05,5.4219015538491e-05,5.4219015538491e-05,3630140.4368247,0.0076748686715374
6019200,0.4317169471484,0.0080595831680883,0.0026088915835413,0.0031533533240555,0.0022973382604914,-0.00062121627514595,0.00062121536354856,4.1718318578122e-10,-1.3315572695888e-09,5.705640008651e-09,-6.8247319624762e-09,-0.00066295070016839,0.00066295454594398,-0.00066295124299707,0.00066295392922993,-0.00066295472596663,0.00066295034292286,-0.00066295531564966,0.00066294975196004,-0.00059977444629691,0.00059977106945388,-0.00059977613596592,0.00059976929566858,-4.7292872366683e-09,7.8649314621543e-09,-1.1026742643346e-08,1.3939857413778e-08,-0.00079639684880053,0.00079639980043769,-0.00083678719076622,0.00083677767960034,-0.00083677896801047,0.00083678598796828,-0.00083678307661417,0.00083678185898564,-0.00083677486177853,0.000836790158481,-0.00072927214116298,0.00072925476935906,-0.0007292479580536,0.00072927953383418,-0.00076091584684673,0.00076091480585231,-0.00076090358493233,0.00076092735428744,-1.1820893390961e-09,6.2091836511649e-10,-0.00052680022230931,0.00052679957766607,1.1835072910617e-08,-1.2870887514173e-08,-0.00056829829983024,0.00056830536439269,-0.00056830654586944,0.00056829716630962,-0.00056829767547922,0.00056830595018931,-0.00056830593515983,0.00056829774242348,-0.00054941953705725,0.00054941243947805,-0.00054942131319658,0.00054941072060385,0.70261523241144,128566,2924,0.0025850481871594,0.0033126495424031,0.0021929686884491,36.775485795536,5.4203886364287e-05,5.4203886364287e-05,5.4203886364287e-05,3706575.3792762,0.0081235531885222
6219200,0.45792474540478,0.0084939862392741,0.0027430169380054,0.0033452410513449,0.0024057282499238,-0.00065309791985988,0.00065309702449336,4.8343602736488e-10,-1.3822512540938e-09,5.7859282305572e-09,-6.8869030117815e-09,-0.00069985052293,0.00069985447137473,-0.00069985110409114,0.00069985381483802,-0.00069985459775191,0.00069985021921811,-0.00069985522408236,0.00069984959121785,-0.00062952628414227,0.00062952298440554,-0.00062952808188595,0.00062952110076569,-4.7910417227288e-09,7.9411365529058e-09,-1.1019787590348e-08,1.3945758525679e-08,-0.00084631004591561,0.00084631301046774,-0.00089135746145604,0.00089134791585094,-0.00089134923774316,0.00089135622445689,-0.0008913533003466,0.00089135214109123,-0.00089134508446484,0.00089136044130136,-0.00077195644431007,0.00077193913065132,-0.00077193226372425,0.00077196389900076,-0.00080609390364685,0.00080609273809335,-0.00080608150404986,0.00080610542392149,-1.2376325512266e-09,6.6745446551927e-10,-0.00055030041247398,0.0005502997581673,1.1831759192761e-08,-1.2877943697217e-08,-0.00059691299280917,0.00059692001486462,-0.00059692124093215,0.00059691181423914,-0.00059691233552497,0.00059692063472652,-0.00059692059465001,0.00059691242708186,-0.00057398496382632,0.00057397796099448,-0.00057398684345994,0.00057397613558282,0.70745491796568,128566,2924,0.0027175387941546,0.003519869128356,0.0022907483715644,36.75877348425,5.4070187874001e-05,5.4070187874001e-05,5.4070187874001e-05,3743710.4974814,0.0085647123113646
6419200,0.48347255628763,0.0089141904528773,0.0028732066313716,0.0035314383553603,0.0025095454661454,-0.000684090097807,0.00068408918379175,5.2963638129564e-10,-1.4471557820821e-09,5.8314966366777e-09,-6.9511044270606e-09,-0.00073578949288489,0.00073579349697619,-0.00073579011092956,0.00073579280258067,-0.00073579360657183,0.00073578920757039,-0.00073579426886482,0.00073578854310078,-0.00065804523511462,0.00065804198682959,-0.00065804713870427,0.00065803999647134,-4.8500476951368e-09,7.9892052151176e-09,-1.100293208936e-08,1.391711850123e-08,-0.00089494870448129,0.00089495165726037,-0.00094475864942848,0.00094474907139015,-0.00094475044053646,0.00094475736432067,-0.00094475445376264,0.00094475333226402,-0.00094474625079107,0.00094476161819851,-0.00081326281985353,0.00081324557284424,-0.00081323868187632,0.00081327029900654,-0.00084965116653427,0.00084964986673727,-0.00084963866029852,0.00084966266029932,-1.2911165525963e-09,7.2178539287587e-10,-0.00057264480398248,0.00057264415015832,1.1810916586135e-08,-1.2856667435258e-08,-0.00062444865203956,0.00062445562437551,-0.00062445688616036,0.00062444743702568,-0.00062444795896152,0.00062445628035523,-0.00062445620392883,0.00062444808657317,-0.00059730149845979,0.00059729461677956,-0.00059730348292251,0.00059729268442519,0.70210892758316,128566,2924,0.0028463171148808,0.0037217517346762,0.0023837215134347,36.741614208725,5.3932913669803e-05,5.3932913669803e-05,5.3932913669803e-05,3782215.4310444,0.0089920865433246
6619200,0.50873555063031,0.0093536428691902,0.0030103227855219,0.0037242772685899,0.0026190428150784,-0.00071653289537903,0.00071653194290097,5.7153048445954e-10,-1.5271173712133e-09,5.7978368039074e-09,-6.9577972189828e-09,-0.00077271537640441,0.00077271937644411,-0.00077271603694884,0.0007727186391893,-0.00077271948527184,0.00077271509392353,-0.00077272018551663,0.00077271439131091,-0.0006883694080929,0.00068836624408335,-0.0006883714246716,0.00068836414210514,-4.8440347702981e-09,7.9657902784279e-09,-1.0914793669722e-08,1.3811129074899e-08,-0.00094483683487623,0.00094483976974527,-0.00099919037669903,0.00099918085594059,-0.00099918223200439,0.00099918908179422,-0.00099918619349822,0.00099918510580236,-0.00099917805013144,0.00099919332912099,-0.00085601043842919,0.00085599334714829,-0.00085598648135788,0.00085601788777792,-0.00089525277830249,0.0008952514175475,-0.00089524029652101,0.00089526419249131,-1.3317309525924e-09,7.7842618759868e-10,-0.00059604905178635,0.00059604841418093,1.1723349398311e-08,-1.275114930669e-08,-0.00065264177697946,0.00065264867098909,-0.00065264994927383,0.00065264054498222,-0.0006526410537128,0.00065264935740495,-0.00065264923240758,0.00065264122973629,-0.00062222959466009,0.00062222289435043,-0.00062223168081484,0.00062222086051502,0.7407066612149,128566,2924,0.0029811058958407,0.0039287755068668,0.0024810989458966,37.00880238174,5.6070419053922e-05,5.6070419053922e-05,5.6070419053922e-05,3799321.5777074,0.0094353426474145
6819200,0.5348081159284,0.0098406005381239,0.0031634223521133,0.0039356127140911,0.0027415654719194,-0.00075325131981653,0.00075325035064127,6.068182651406e-10,-1.5786771232137e-09,5.7037532570363e-09,-6.8809017234403e-09,-0.00081343835333756,0.00081344230699537,-0.00081343904097073,0.000813441544239,-0.00081344240283124,0.00081343808465205,-0.00081344313560982,0.00081343734970613,-0.00072354626398381,0.00072354323572412,-0.0007235483756712,0.0007235410389883,-4.7723954696237e-09,7.8682222883571e-09,-1.0685165495088e-08,1.3555847598132e-08,-0.00099931650986764,0.0009993194190763,-0.0010579023204673,0.0010578929853618,-0.0010578943281725,0.0010579010523089,-0.0010578981891932,0.0010578971826738,-0.0010578902044995,0.0010579052406384,-0.00090361919020125,0.00090360250270005,-0.00090359571256153,0.00090362655179122,-0.00094696858085347,0.00094696720915952,-0.00094695627631645,0.00094697980883897,-1.3774075786991e-09,8.6623150401857e-10,-0.00062323665815502,0.00062323606333488,1.1510010315615e-08,-1.2489927182399e-08,-0.00068389652934762,0.00068390326032503,-0.00068390454134024,0.00068389529468906,-0.00068389575876888,0.00068390399419769,-0.00068390378343489,0.00068389602058234,-0.00065183738028562,0.00065183100024808,-0.00065183958714313,0.00065182884637807,0.79221450468085,128566,2924,0.0031336343129532,0.0041548005654826,0.0025942047490943,38.073379314496,6.4587034515969e-05,6.4587034515969e-05,6.4587034515969e-05,3833675.3674661,0.0099317785227214
7019200,0.56159214820246,0.010302986824499,0.0033090111494689,0.0041391888555112,0.0028547868195189,-0.00078932622126548,0.00078932526296105,6.6980665071218e-10,-1.6300792255052e-09,5.6098818703346e-09,-6.7806615435619e-09,-0.00085418562725813,0.00085418956829985,-0.00085418635417041,0.00085418876878674,-0.00085418961448545,0.0008541854101706,-0.00085419038444823,0.00085418463897348,-0.00075734737054004,0.00075734453001868,-0.00075734959493518,0.000757342228615,-4.690095645268e-09,7.7544247559113e-09,-1.049920460933e-08,1.3339019832336e-08,-0.0010535116591164,0.0010535145374466,-0.0011167758281511,0.0011167666584452,-0.0011167679645793,0.0011167745895662,-0.0011167717599705,0.0011167707909953,-0.0011167639046508,0.0011167787135611,-0.0009501778721484,0.00095016148322247,-0.00095015477704067,0.00095018512643609,-0.00099727891453694,0.00099727756964782,-0.00099726681611966,0.00099728999234547,-1.4111767882853e-09,9.3888960699713e-10,-0.00064935638434826,0.00064935583060519,1.133675316762e-08,-1.2267334994765e-08,-0.00071487497109274,0.00071488157469153,-0.00071488285309157,0.00071487373927786,-0.00071487416491963,0.00071488234371625,-0.00071488205817113,0.00071487450148161,-0.0006795876198698,0.00067958151461653,-0.00067958993554593,0.00067957925561104,0.73335806892145,128566,2924,0.003283466322641,0.0043795860639213,0.0027028755332631,39.157534234803,7.3260273878426e-05,7.3260273878426e-05,7.3260273878426e-05,3872179.4696171,0.010420007817482
7219200,0.58893491126147,0.010757277714428,0.0034522768422907,0.0043403676198018,0.0029646332523354,-0.00082529501533527,0.00082529408651352,7.4011043200014e-10,-1.6711956870093e-09,5.5410495088936e-09,-6.6793607084388e-09,-0.0008952461474226,0.00089525009824412,-0.00089524691250792,0.00089524926250218,-0.00089525008015838,0.00089524599662133,-0.00089525088708446,0.00089524518878333,-0.00079052648619395,0.00079052383876206,-0.00079052881862835,0.00079052142892008,-4.6217416874345e-09,7.6508068418674e-09,-1.0353034269086e-08,1.315874048507e-08,-0.0011076005301842,0.0011076033741589,-0.0011760612047497,0.0011760521644149,-0.0011760534454526,0.0011760599852285,-0.0011760571918561,0.0011760562392732,-0.0011760494399616,0.001176064052252,-0.00099607527598293,0.00099605911500251,-0.00099605249516411,0.00099608243460935,-0.0010469365006282,0.001046935179891,-0.0010469245641373,0.0010469474283597,-1.4466636662802e-09,1.0125130778948e-09,-0.00067508469658915,0.00067508418166301,1.1198278285903e-08,-1.2084494764333e-08,-0.00074573466446755,0.00074574116279586,-0.00074574244084751,0.00074573343296182,-0.00074573382211207,0.00074574196846245,-0.00074574160940418,0.00074573423190245,-0.00070665075867099,0.00070664490550576,-0.00070665318094554,0.00070664253906079,0.70718848107575,128566,2924,0.0034328357432248,0.004603874517253,0.0028099192712176,40.242438093049,8.193950474439e-05,8.193950474439e-05,8.193950474439e-05,3925269.4703471,0.010905863448838
7419200,0.61584125115466,0.011189203204786,0.0035885798142587,0.0045326683606745,0.0030679550298531,-0.00085879027231019,0.00085878936818606,7.7365518419239e-10,-1.6802907171801e-09,5.5288637586287e-09,-6.6389294444097e-09,-0.00093413227860514,0.00093413624149539,-0.00093413304849476,0.00093413540109066,-0.00093413618622529,0.0009341321671917,-0.00093413701757895,0.00093413133460344,-0.00082100747523276,0.00082100493843515,-0.00082100987658939,0.00082100245669724,-4.6142826524206e-09,7.6107689741144e-09,-1.0425943996685e-08,1.3200007118255e-08,-0.0011588918885195,0.0011588947008389,-0.0012327819395903,0.0012327728346868,-0.0012327741312835,0.0012327807033733,-0.0012327779308037,0.0012327769032403,-0.001232770149732,0.0012327847442382,-0.0010390001533033,0.0010389838633192,-0.001038977292639,0.0010390072669876,-0.0010936724736282,0.0010936712357529,-0.0010936606093685,0.0010936834013397,-1.5388088965107e-09,1.0988972647793e-09,-0.00069848340644551,0.00069848288553909,1.1262216609484e-08,-1.2154283179415e-08,-0.00077445301227565,0.0007744594802482,-0.00077446082342344,0.00077445171567362,-0.00077445210097341,0.00077446035530515,-0.00077445994310218,0.00077445256375286,-0.00073090467149527,0.00073089891544544,-0.00073090723959365,0.00073089640277682,0.68501443822409,128566,2924,0.0035719134151397,0.0048165091546857,0.0029072787781098,40.770648020922,8.616518416738e-05,8.616518416738e-05,8.616518416738e-05,3973824.7003145,0.011359968507999
7619200,0.64157154751042,0.011593624875164,0.0037161437165385,0.0047133411845852,0.0031641399740402,-0.0008894142836604,0.00088941337230858,8.3366555857289e-10,-1.7477052708965e-09,5.5299667171362e-09,-6.6470314011064e-09,-0.00097019391147485,0.00097019790997483,-0.00097019472079659,0.00097019702875502,-0.00097019782316044,0.00097019383201862,-0.00097019869256159,0.00097019296031929,-0.00084849660336846,0.00084849417296399,-0.00084849912021318,0.00084849157267459,-4.6319578048097e-09,7.6006586097438e-09,-1.0613322203527e-08,1.3360130022904e-08,-0.0012066910107046,0.0012066937958299,-0.0012860120888921,0.0012860028390398,-0.0012860041655229,0.0012860108228237,-0.0012860080754727,0.0012860069095703,-0.0012860001821883,0.0012860148672245,-0.0010783216108098,0.0010783049516204,-0.0010782984142452,0.0010783287083281,-0.0011372166479169,0.0011372154846479,-0.0011372047724451,0.001137227664488,-1.6033038817717e-09,1.1293086845594e-09,-0.0007194548626348,0.00071945430655518,1.1416185086617e-08,-1.2346718007642e-08,-0.00080039351151124,0.00080040002737823,-0.00080040143853819,0.00080039214675447,-0.00080039256691596,0.00080040093572608,-0.00080040052371835,0.00080039302964277,-0.00075257141692724,0.00075256561446156,-0.0007525740877917,0.00075256299918224,0.67223241024024,128566,2924,0.0036990521538302,0.005014620104805,0.0029945468152271,40.851698693752,8.6813589550014e-05,8.6813589550014e-05,8.6813589550014e-05,4003121.6608214,0.011777295966161
7819200,0.66609161534944,0.01197521163848,0.003836422921645,0.0048840463889327,0.0032547423279021,-0.00091840059626782,0.00091839967185593,8.858135915543e-10,-1.8124115106762e-09,5.5258331926221e-09,-6.6564068016943e-09,-0.0010041898660148,0.0010041938925413,-0.0010041907137151,0.0010041929709014,-0.0010041937803381,0.0010041898118606,-0.0010041946866255,0.0010041889022108,-0.00087409172575776,0.00087408939152067,-0.00087409435135305,0.00087408668018038,-4.6460957052007e-09,7.5908514671688e-09,-1.0745355205363e-08,1.3468441837818e-08,-0.0012521107436662,0.0012521135051366,-0.0013368455853285,0.0013368362318171,-0.0013368375845161,0.0013368442948497,-0.0013368415712972,0.0013368403027108,-0.0013368335978922,0.0013368483425704,-0.0011154548128836,0.0011154378901694,-0.0011154313795352,0.0011154618929157,-0.0011780367900394,0.0011780356730631,-0.0011780249070077,0.0011780478638708,-1.6688230799221e-09,1.1682798246189e-09,-0.00073902505822908,0.00073902447434894,1.1519873435745e-08,-1.2481448184186e-08,-0.00082468823982723,0.0008246947735415,-0.00082469624693268,0.00082468681279928,-0.00082468726042517,0.00082469571612531,-0.00082469529578813,0.00082468773157043,-0.00077295817074516,0.00077295236650296,-0.00077296094761415,0.00077294964874637,0.66655083545763,128566,2924,0.0038193786630138,0.0052028298641552,0.0030759865783803,40.921594939907,8.737275951926e-05,8.737275951926e-05,8.737275951926e-05,4015297.512199,0.012171981200354
8019200,0.68939424027001,0.012334559974611,0.0039497555666162,0.0050450174916825,0.0033397869163118,-0.00094576507845602,0.00094576414327085,9.36712267881e-10,-1.8735931575564e-09,5.5144704765909e-09,-6.6562600129139e-09,-0.0010362471339969,0.0010362511838459,-0.0010362480184855,0.0010362502235395,-0.0010362510451531,0.001036247106305,-0.0010362519876439,0.0010362461594022,-0.0008981845710636,0.00089818233850354,-0.00089818730298978,0.00089817951780646,-4.6507177869993e-09,7.5736663266337e-09,-1.0834849902479e-08,1.3536176565745e-08,-0.0012950543454189,0.0012950570851819,-0.0013850640559544,0.0013850546326889,-0.0013850560039841,0.0013850627482454,-0.0013850600463104,0.0013850586992564,-0.0013850520198234,0.0013850667928741,-0.0011504944534804,0.001150477348756,-0.0011504708670594,0.001150501511099,-0.0012162645627286,0.0012162634861254,-0.0012162526908888,0.0012162756677551,-1.731472127818e-09,1.2146152669412e-09,-0.00075730291803922,0.00075730231682387,1.1588972750985e-08,-1.2570351810492e-08,-0.00084751399041413,0.00084752052368656,-0.00084752205036673,0.0008475125101031,-0.00084751297451704,0.00084752150216632,-0.00084752106208773,0.00084751346550404,-0.00079194230272332,0.0007919365364301,-0.00079194518753875,0.00079193371331826,0.66097249199831,128566,2924,0.003932960437645,0.0053807441430186,0.00315205028168,40.991062300257,8.7928498402057e-05,8.7928498402057e-05,8.7928498402057e-05,4024414.9800714,0.012544123968642
8219200,0.71162347083289,0.012674345500183,0.0040570305751811,0.0051973490273673,0.0034199658976344,-0.00097190717875309,0.00097190623911376,9.8184228294369e-10,-1.9226550577918e-09,5.4973256755403e-09,-6.6437749314128e-09,-0.0010668250743913,0.0010668291386373,-0.0010668259868561,0.0010668281490731,-0.0010668289728487,0.0010668250736656,-0.0010668299493146,0.0010668240919768,-0.00092115463307001,0.00092115250718723,-0.00092115746483521,0.00092114958588873,-4.6464810723692e-09,7.5475550647854e-09,-1.0844987209732e-08,1.3524828274133e-08,-0.0013359916118929,0.001335994330249,-0.0014311331952835,0.0014311237572994,-0.0014311251402343,0.0014311318757783,-0.0014311291923069,0.0014311278169072,-0.0014311211677157,0.0014311359077274,-0.0011838330924279,0.0011838159665616,-0.0011838095175355,0.0011838401200252,-0.0012524851039726,0.0012524840441971,-0.0012524732722342,0.0012524961881278,-1.7966901435847e-09,1.2762004128817e-09,-0.00077468679368423,0.00077468618834751,1.1590727860367e-08,-1.2577086654056e-08,-0.00086928865491883,0.00086929514195721,-0.00086929671457363,0.00086928712867447,-0.00086928759361591,0.00086929616552438,-0.00086929568696931,0.00086928812312984,-0.00080997831494484,0.00080997265753687,-0.00080998131667283,0.00080996972043388,0.65549139616687,128566,2924,0.0040414557451332,0.0055503145912693,0.0032243946738098,41.181416374162,8.9451330993297e-05,8.9451330993297e-05,8.9451330993297e-05,4034137.2044585,0.012899033537328
8419200,0.73283092466927,0.012997631191091,0.0041592305062994,0.0053422047054486,0.0034961959793432,-0.00099687729293189,0.00099687635457956,1.0430559872563e-09,-1.9823106213949e-09,5.4787307582934e-09,-6.6234092799224e-09,-0.0010960035397196,0.001096007633025,-0.0010960044926816,0.0010960066022995,-0.0010960074264434,0.0010960035795583,-0.0010960084405888,0.0010960025594404,-0.00094312509137844,0.00094312309262935,-0.00094312803474387,0.00094312005770161,-4.636991156162e-09,7.5171654546965e-09,-1.0814185545761e-08,1.3473349236841e-08,-0.0013750144342638,0.0013750171319926,-0.0014751204030895,0.0014751109858572,-0.0014751123759262,0.0014751190749731,-0.0014751164140466,0.0014751150306072,-0.0014751084135455,0.0014751230955561,-0.0012156187221388,0.0012156016380235,-0.0012155952233727,0.0012156257165871,-0.0012869414499368,0.0012869403758948,-0.0012869296525071,0.0012869524860566,-1.8439978785203e-09,1.3291306900346e-09,-0.00079123286906537,0.00079123226903454,1.1551190845049e-08,-1.2531971690592e-08,-0.00089000382783267,0.00089001025942353,-0.00089001186088767,0.0008900022728161,-0.00089000273360499,0.00089001131585438,-0.00089001079766266,0.00089000330269377,-0.00082721024610273,0.00082720472599259,-0.00082721335269041,0.00082720168587565,0.65380935127873,128566,2924,0.0041450756823821,0.0057119260081035,0.0032932534221151,41.430704722077,9.1445637776614e-05,9.1445637776614e-05,9.1445637776614e-05,4041780.7442449,0.013237531592638
8619200,0.75300136516802,0.013304543111096,0.0042563777249964,0.0054796153373195,0.0035685500487802,-0.0010205440323421,0.0010205430989609,1.1012101580595e-09,-2.0354727024736e-09,5.4624989142754e-09,-6.6015264316637e-09,-0.00112368260245,0.0011236867256501,-0.001123683592758,0.0011236856572929,-0.001123686477456,0.0011236826843285,-0.0011236875280869,0.0011236816274163,-0.00096405689422209,0.00096405502090706,-0.00096405994479325,0.00096405187726885,-4.6274787355834e-09,7.4875943847195e-09,-1.0768575013543e-08,1.340793168542e-08,-0.0014120184199127,0.0014120210978666,-0.0015169006863269,0.0015168912983597,-0.0015168926947623,0.0015168993499817,-0.001516896709539,0.0015168953298087,-0.0015168887435058,0.0015169033579751,-0.0012457765167134,0.0012457595079596,-0.0012457531251652,0.0012457834778305,-0.0013196280083462,0.0013196269145955,-0.0013196162472733,0.001319638986673,-1.8944837016616e-09,1.3882049590069e-09,-0.00080686001731351,0.00080685942581396,1.1501167118298e-08,-1.2472661928469e-08,-0.00090957463084404,0.00090958099845302,-0.00090958262800547,0.00090957304785825,-0.00090957350044518,0.00090958209120026,-0.00090958152788772,0.00090957411461204,-0.00084348923472557,0.00084348386685527,-0.00084349244877615,0.00084348071976827,0.65260875465334,128566,2924,0.0042432763701014,0.0058651492806944,0.0033582901553694,41.68147985729,9.3451838858324e-05,9.3451838858324e-05,9.3451838858324e-05,4047773.8381946,0.013558274147249
8819200,0.77212612816091,0.01358475303257,0.0043450284041898,0.0056058824486992,0.0036338421796815,-0.0010424089739448,0.0010424080483412,1.1606708941961e-09,-2.0871756040054e-09,5.4519642948913e-09,-6.5823232632485e-09,-0.001149514390115,0.0011495185485707,-0.001149515417757,0.0011495174428566,-0.0011495182560001,0.0011495145167783,-0.0011495193433063,0.0011495134229667,-0.00098317745225738,0.00098317570412745,-0.00098318061019672,0.00098317245202776,-4.6215288948764e-09,7.4627871519752e-09,-1.0717912890236e-08,1.3338599205009e-08,-0.0014465618751555,0.0014465645345098,-0.0015561372728761,0.0015561279155837,-0.0015561293198163,0.0015561359266796,-0.0015561333056527,0.0015561319364213,-0.0015561253767659,0.0015561399247541,-0.0012737078606657,0.0012736909403672,-0.0012736845850893,0.0012737147919762,-0.0013497491980152,0.0013497480750047,-0.0013497374652674,0.0013497601164892,-1.9442530458415e-09,1.44802615217e-09,-0.00082110810131368,0.00082110751991207,1.1447759858089e-08,-1.2407987274977e-08,-0.00092765371660014,0.00092766001861305,-0.00092766167488436,0.00092765210700227,-0.00092765254985761,0.00092766114786108,-0.00092766053800076,0.00092765321052447,-0.00085815238052011,0.00085814716924745,-0.00085815570221941,0.00085814391493952,0.62941992795651,128566,2924,0.0043339919927183,0.006008159149615,0.0034175931667242,41.932312312812,9.5458498502496e-05,9.5458498502496e-05,9.5458498502496e-05,4063585.7524296,0.013855364693429
9019200,0.78980504332336,0.013843914085946,0.0044270910821536,0.0057224915228615,0.0036943314809306,-0.001061732115842,0.0010617311980249,1.2228689671869e-09,-2.1419030735895e-09,5.447265591643e-09,-6.5685043070552e-09,-0.0011724122932161,0.0011724164938553,-0.0011724133613797,0.0011724153473686,-0.0011724161550228,0.0011724124663622,-0.001172417279368,0.0011724113352418,-0.00099992637976355,0.00099992475408652,-0.000999929646347,0.00099992139174604,-4.6203367628246e-09,7.4445134609886e-09,-1.0725996027066e-08,1.332971019515e-08,-0.0014775901784672,0.0014775928208857,-0.0015916221629838,0.0015916127965442,-0.0015916142111651,0.0015916208054504,-0.0015916182031457,0.0015916168089305,-0.0015916102711195,0.0015916247987718,-0.001298442131777,0.0012984251825672,-0.0012984188512228,0.0012984490399413,-0.0013766445681109,0.0013766434412178,-0.0013766328465136,0.0013766554665716,-1.9948121601593e-09,1.5010673336913e-09,-0.00083338769698695,0.00083338711785193,1.1447862990056e-08,-1.2405761946368e-08,-0.00094335914769694,0.00094336541852596,-0.00094336710716172,0.0009433575058581,-0.00094335794810136,0.0009433665809582,-0.00094336593401163,0.00094335864581806,-0.00087084968497794,0.00087084458278989,-0.00087085311232374,0.00087084122213187,0.62977530200285,128566,2924,0.0044141549785078,0.0061365967174612,0.003468710377843,41.750121441333,9.4000971530661e-05,9.4000971530661e-05,9.4000971530661e-05,4068198.8184789,0.014118758174718
9219200,0.80603172624508,0.014079131824343,0.004501574111105,0.0058284288655178,0.0037491288477201,-0.0010790081047117,0.0010790071928531,1.2824187320101e-09,-2.1956066105007e-09,5.4514053351381e-09,-6.5662614522787e-09,-0.0011929893335466,0.0011929935795807,-0.0011929904403399,0.0011929923941798,-0.0011929931971209,0.0011929895504313,-0.0011929943583636,0.0011929883822362,-0.0010147915165273,0.0010147900046238,-0.0010147948909156,0.0010147865317177,-4.6281058057798e-09,7.4375493402671e-09,-1.0733613612354e-08,1.332259614395e-08,-0.001505627431665,0.0015056300594046,-0.0016238507787502,0.0016238413970729,-0.0016238428266495,0.0016238494055206,-0.0016238468186645,0.0016238454090076,-0.0016238388842821,0.0016238533998509,-0.0013204986154583,0.0013204816489954,-0.0013204753315212,0.0013205055088668,-0.0014007797703388,0.0014007786256198,-0.0014007680445793,0.0014007906529567,-2.0475895777645e-09,1.5555709610358e-09,-0.00084422158576131,0.00084422100828237,1.1448751717847e-08,-1.2404894412773e-08,-0.00095732622817055,0.00095733246594085,-0.00095733418862928,0.00095732455240564,-0.00095732499380177,0.00095733366332875,-0.00095733297906052,0.00095732572884217,-0.00088205075316779,0.00088204575903298,-0.00088205428622085,0.00088204229241021,0.62300580348535,128566,2924,0.0044858196598988,0.0062526367692064,0.0035138142670127,41.452340554097,9.1618724432773e-05,9.1618724432773e-05,9.1618724432773e-05,4070086.9476934,0.014354922775122
9419200,0.82091539701885,0.01429245014748,0.0045691138570236,0.0059245920342969,0.0037987442561593,-0.0010945778331723,0.0010945769270288,1.3388457721072e-09,-2.2462315062874e-09,5.4605181439373e-09,-6.5691386542057e-09,-0.0012116154280857,0.0012116197191916,-0.0012116165701591,0.0012116184983233,-0.0012116192953909,0.0012116156864408,-0.0012116204928763,0.0012116144817728,-0.0010284118475839,0.0010284104444862,-0.0010284153284618,0.001028406864023,-4.6399704842632e-09,7.4367405093881e-09,-1.0729063787348e-08,1.3305347715643e-08,-0.001531069781555,0.0015310723966319,-0.0016532249091634,0.0016532155169322,-0.0016532169627862,0.0016532235188359,-0.0016532209442053,0.0016532195331651,-0.001653213016081,0.0016532275162959,-0.0013404183455827,0.0013404013936743,-0.0013403950845449,0.0013404252298649,-0.0014225800843703,0.001422578910676,-0.0014225683488426,0.0014225909462229,-2.1029931253823e-09,1.6136192083313e-09,-0.00085391176111174,0.00085391118628367,1.1441016491564e-08,-1.239429007377e-08,-0.00096988388089476,0.00096989007708654,-0.00096989183477367,0.00096988217024214,-0.00096988260833215,0.00096989131274094,-0.00096989058815786,0.00096988338367139,-0.00089200266347169,0.0008919977876923,-0.00089200630544172,0.00089199421251245,0.61620824144414,128566,2924,0.0045504021579459,0.0063579238321451,0.0035541595913367,41.151575247466,8.921260197973e-05,8.921260197973e-05,8.921260197973e-05,4073182.6319583,0.014568218018308
9619200,0.83456233852162,0.014485798711313,0.0046303191796458,0.0060118340852228,0.0038436454464441,-0.0011086181592155,0.0011086172588887,1.3970214217725e-09,-2.2985678859639e-09,5.4719155206487e-09,-6.5742380531285e-09,-0.0012284686870949,0.001228473026375,-0.0012284698659799,0.001228471768588,-0.0012284725601367,0.0012284689880266,-0.0012284737942671,0.001228467746398,-0.0010406803687454,0.0010406790740674,-0.0010406839572506,0.0010406753853011,-4.6531382390561e-09,7.4390944061841e-09,-1.0718480510248e-08,1.3283823545074e-08,-0.001554148354969,0.0015541509591611,-0.0016799844482263,0.0016799750498928,-0.001679976511637,0.0016799830410397,-0.0016799804776334,0.0016799790712129,-0.0016799725586497,0.0016799870438486,-0.0013583812453156,0.0013583643191499,-0.0013583580151431,0.0013583881236687,-0.0014422828307317,0.0014422816199867,-0.0014422710790815,0.0014422936703894,-2.1561698578457e-09,1.6703571862888e-09,-0.00086258655067577,0.0008625859793447,1.1427706317475e-08,-1.2377056064548e-08,-0.00098117320407573,0.0009811793570125,-0.00098118114795667,0.00098117146025776,-0.0009811718949454,0.00098118062938804,-0.00098117986470175,0.0009811727103474,-0.00090080320113382,0.00090079844683575,-0.0009008069510768,0.00090079476437694,0.6093804065841,128566,2924,0.0046086368944863,0.0064534183133242,0.0035902801611742,40.850694408859,8.6805555270872e-05,8.6805555270872e-05,8.6805555270872e-05,4076297.5273145,0.014760890769546
9819200,0.84683793951611,0.014660585762155,0.0046856716980055,0.0060905101278606,0.0038844039362891,-0.0011204503868547,0.0011204494916317,1.4653318963149e-09,-2.3620953115763e-09,5.4867984165232e-09,-6.582747577933e-09,-0.0012427961835637,0.0012428005852076,-0.0012427974118632,0.0012427992775397,-0.0012428000705661,0.0012427965329222,-0.0012428013420646,0.0012427952534352,-0.0010508797651317,0.0010508785786386,-0.0010508834636952,0.0010508747761259,-4.6681841506492e-09,7.4454361996819e-09,-1.0733127680376e-08,1.3289576518854e-08,-0.0015740886842708,0.0015740912793935,-0.0017032805235055,0.0017032711076891,-0.0017032725857748,0.0017032790995838,-0.0017032765513471,0.0017032751299336,-0.001703268618525,0.0017032831155323,-0.0013737138527856,0.0013736968850534,-0.0013736905835329,0.001373720728607,-0.0014592609392478,0.0014592596857049,-0.0014592491445526,0.0014592717730981,-2.1998034953073e-09,1.7150290630522e-09,-0.00086965102721419,0.00086965045636119,1.1434533479939e-08,-1.23834869721e-08,-0.00099052935362544,0.00099053548795388,-0.00099053730814698,0.0009905275806598,-0.00099052802093617,0.00099053678416848,-0.00099053598918977,0.00099052886658816,-0.00090804045839717,0.0009080358029363,-0.00090804431142404,0.0009080320170849,0.6121371122048,128566,2924,0.0046577111051646,0.0065359184293547,0.0036197038030059,40.184591465459,8.1476731723673e-05,8.1476731723673e-05,8.1476731723673e-05,4072369.3214151,0.014924313440248
10019200,0.85787142301039,0.014818705305597,0.004735758523016,0.0061614847634353,0.0039214620191455,-0.0011308654113363,0.0011308645202921,1.5150768029473e-09,-2.4076881269761e-09,5.5044560766857e-09,-6.5959627677475e-09,-0.0012554510999885,0.0012554555460629,-0.0012554523583258,0.0012554542083541,-0.0012554549949459,0.0012554514858782,-0.0012554563013266,0.0012554501716385,-0.00105980523116,0.0010598041417699,-0.0010598090335805,0.0010598002379466,-4.6873627838139e-09,7.4570936033798e-09,-1.0733831352114e-08,1.3282615258986e-08,-0.0015917838351769,0.0015917864228611,-0.0017239897202709,0.0017239802848997,-0.0017239817806405,0.0017239882781958,-0.0017239857340856,0.0017239843207732,-0.0017239778055195,0.0017239923011018,-0.0013873320646409,0.0013873151153457,-0.0013873088101423,0.0013873389437145,-0.0014743557052587,0.0014743544211933,-0.0014743438884827,0.0014743665286984,-2.2615410617597e-09,1.7778548552279e-09,-0.00087583291572823,0.00087583234617473,1.1435363622226e-08,-1.2383187420833e-08,-0.00099875101296737,0.0009987571057447,-0.00099875896529271,0.00099874920085998,-0.00099874963690554,0.00099875844534456,-0.00099875760797676,0.00099875052517636,-0.00091448608660379,0.00091448154476981,-0.00091449005164881,0.00091447764737281,0.61574677080742,128566,2924,0.0047009056233748,0.0066091223746656,0.0036454547190063,39.480451419239,7.5843611353913e-05,7.5843611353913e-05,7.5843611353913e-05,4064615.1213592,0.015068626106574
10219200,0.86780210636757,0.014962120658438,0.004781195915919,0.0062256696005433,0.0039552551419758,-0.0011400936129252,0.0011400927259527,1.5715936212282e-09,-2.4600171616952e-09,5.5225802495653e-09,-6.6098704812881e-09,-0.0012667051829534,0.0012667096792522,-0.0012667064766351,0.0012667083059781,-0.0012667090876753,0.0012667056092342,-0.0012667104312481,0.0012667042574531,-0.0010677310715489,0.0010677300852636,-0.0010677349832175,0.001067726072005,-4.7058960398121e-09,7.469684105278e-09,-1.0726259643131e-08,1.3268836529682e-08,-0.0016075725099966,0.0016075750915882,-0.0017424639210603,0.0017424544751816,-0.001742455987388,0.0017424624620062,-0.0017424599236876,0.0017424585220454,-0.0017424520015553,0.0017424664947597,-0.001399543084618,0.0013995261639193,-0.001399519853802,0.0013995499675198,-0.0014878610155115,0.0014878596902735,-0.0014878491710648,0.0014878718259834,-2.3158238477483e-09,1.8346055559879e-09,-0.00088130735043606,0.00088130678321832,1.1426788830592e-08,-1.2371743417781e-08,-0.0010060556452019,0.0010060616956246,-0.0010060635899725,0.0010060537983699,-0.0010060542312006,0.0010060630733033,-0.0010060621966453,0.0010060551586194,-0.00092026784419736,0.0009202634173414,-0.00092027191572066,0.00092025941440837,0.62007022977337,128566,2924,0.0047391763530126,0.0066744332383638,0.0036682613743554,38.775255375693,7.0202043005541e-05,7.0202043005541e-05,7.0202043005541e-05,4054638.0657873,0.015196955311469
10419200,0.87676792172742,0.015092744336889,0.0048225855152292,0.0062839507994558,0.0039862080222041,-0.0011483631302703,0.0011483622475264,1.6287025655947e-09,-2.5127671119767e-09,5.539853795466e-09,-6.62293983744e-09,-0.0012768067562806,0.0012768113035945,-0.0012768080865334,0.0012768098937276,-0.0012768106711759,0.0012768072233965,-0.0012768120512744,0.0012768058349531,-0.0010748809150616,0.0010748800306358,-0.0010748849340948,0.0010748759101882,-4.7232818836865e-09,7.4821537577504e-09,-1.0707313980731e-08,1.3244721183742e-08,-0.0016217766430467,0.0016217792195284,-0.0017590460977258,0.0017590366505935,-0.0017590381777021,0.0017590446228977,-0.0017590420901492,0.0017590407073902,-0.001759034181104,0.0017590486657699,-0.0014105472273635,0.0014105303542077,-0.0014105240380552,0.0014105541141253,-0.0015000639228256,0.001500062548604,-0.001500052049361,0.001500074714564,-2.3690332640423e-09,1.8914401262951e-09,-0.00088623250895998,0.00088623194541782,1.1407923840022e-08,-1.2348488487767e-08,-0.0010126288086833,0.001012634812067,-0.0010126367396509,0.0010126269287384,-0.0010126273580706,0.001012636226442,-0.0010126353095418,0.0010126283256992,-0.00092550724212625,0.00092550294081993,-0.00092551142216591,0.0009254988303049,0.62506142821444,128566,2924,0.0047734701856996,0.0067331845529905,0.0036887814433575,38.100189504307,6.4801516034459e-05,6.4801516034459e-05,6.4801516034459e-05,4042511.1460201,0.015312278325419
10619200,0.88513815493859,0.015212458314469,0.0048604784493568,0.0063374941134733,0.0040144857516392,-0.0011570334404218,0.0011570325628113,1.6955065951414e-09,-2.574169890537e-09,5.5556131965693e-09,-6.6335492797994e-09,-0.00128723603682,0.0012872406457812,-0.0012872374150184,0.0012872391881906,-0.0012872399658402,0.0012872365514889,-0.0012872413830518,0.0012872351258678,-0.0010824847429595,0.0010824839653153,-0.0010824888717583,0.0010824797348994,-4.7331221781311e-09,7.4873158344643e-09,-1.0644132393827e-08,1.3176640325742e-08,-0.0016360189807819,0.0016360215523345,-0.0017754973079537,0.0017754878989772,-0.0017754894355836,0.0017754958219886,-0.0017754933001822,0.0017754919555411,-0.0017754854278064,0.0017754998753432,-0.001421767883853,0.0014217511227828,-0.0014217448039846,0.0014217747678169,-0.0015123993886763,0.0015123979341513,-0.0015123874836674,0.0015124101318718,-2.410766933486e-09,1.9417302273154e-09,-0.00089174278934865,0.00089174223460309,1.1348083903973e-08,-1.2278180077552e-08,-0.0010197385768998,0.0010197445200921,-0.0010197464701259,0.0010197366745847,-0.0010197371008001,0.0010197459599338,-0.0010197450036501,0.0010197381077467,-0.00093129414277802,0.00093128999810312,-0.00093129842938715,0.00093128578279366,0.61395112562355,128566,2924,0.0048094243028009,0.0067920906384921,0.003711728926912,38.029549236322,6.4236393890574e-05,6.4236393890574e-05,6.4236393890574e-05,4038039.6092851,0.015431922521378
10819200,0.89295473198422,0.015322365248189,0.0048952411840665,0.0063867722617783,0.0040403518023443,-0.0011650258883983,0.0011650250172801,1.7470692601745e-09,-2.619385743949e-09,5.5647757292742e-09,-6.6353578150793e-09,-0.0012968767488869,0.0012968813973775,-0.0012968781566166,0.0012968799105625,-0.0012968806785793,0.0012968773025793,-0.0012968821317538,0.001296875840998,-0.0010894457112397,0.0010894450420571,-0.0010894499461152,0.0010894407056689,-4.7441474771393e-09,7.4939979376836e-09,-1.0590631619533e-08,1.3118655489374e-08,-0.0016492188267325,0.0016492213939243,-0.0017907890369499,0.0017907796505459,-0.0017907811969035,0.0017907875400295,-0.0017907850193505,0.0017907837166332,-0.0017907771861578,0.0017907915953277,-0.0014321258436782,0.0014321092048255,-0.0014321028838136,0.0014321327290175,-0.0015237890088754,0.0015237875077875,-0.0015237770971365,0.0015237997092196,-2.4684782980997e-09,2.0073054536062e-09,-0.00089680927400986,0.00089680872726824,1.1297234063931e-08,-1.2218651288152e-08,-0.0010262827567071,0.0010262886272143,-0.001026290610157,0.0010262808218502,-0.0010262812367754,0.0010262901112725,-0.0010262891063597,0.0010262822922488,-0.00093657219043834,0.00093656819984062,-0.00093657658588168,0.00093656387552491,0.60386753951857,128566,2924,0.0048425660600831,0.006846681399096,0.0037328290348082,37.973704781672,6.3789638253372e-05,6.3789638253372e-05,6.3789638253372e-05,4037379.5438689,0.015542465575884
11019200,0.90025097832392,0.015423082706646,0.0049270725459512,0.0064320506178935,0.0040639595428009,-0.0011723561932187,0.0011723553277087,1.8045493323393e-09,-2.6714003483386e-09,5.576607951058e-09,-6.641093157045e-09,-0.0013057468030267,0.0013057514991389,-0.0013057482470467,0.0013057499762399,-0.0013057507382701,0.0013057473988283,-0.0013057522284215,0.0013057459002088,-0.0010957888407809,0.0010957882794554,-0.0010957931838516,0.0010957838345444,-4.7545947536881e-09,7.5007312884549e-09,-1.0548159339561e-08,1.3072288308036e-08,-0.0016614082517065,0.0016614108150569,-0.0018049573450018,0.0018049479778991,-0.0018049495333634,0.0018049558377115,-0.0018049533212322,0.0018049520497216,-0.0018049455163389,0.0018049598985305,-0.0014416438918663,0.001441627343606,-0.0014416210196855,0.0014416507782015,-0.0015342525738764,0.0015342510232648,-0.0015342406453262,0.0015342632401999,-2.5204527485494e-09,2.0659480999114e-09,-0.0009014288945529,0.00090142835456615,1.125716412051e-08,-1.2170881258811e-08,-0.001032262389001,0.0010322681996203,-0.001032270212935,0.0010322604237977,-0.0010322608318476,0.0010322697210032,-0.0010322686727189,0.0010322619306749,-0.00094134324360454,0.00094133939640976,-0.00094134774644212,0.00094133496453278,0.5932071987781,128566,2924,0.0048729610670271,0.0068970904023169,0.0037520689002927,37.918425949243,6.3347407593943e-05,6.3347407593943e-05,6.3347407593943e-05,4039194.3532779,0.015644093642638
11219200,0.90704943326455,0.015516853808486,0.0049567090813267,0.0064741635627053,0.0040859811644537,-0.0011790954624758,0.0011790946017225,1.8615818741428e-09,-2.723787359714e-09,5.5900997272427e-09,-6.6492433879434e-09,-0.0013138966937776,0.0013139014378136,-0.0013138981739996,0.0013138998789511,-0.0013139006359408,0.0013138973306463,-0.0013139021629229,0.0013138957951655,-0.0011016156454849,0.0011016151894136,-0.0011016200964664,0.0011016106366176,-4.7671129847941e-09,7.5102013890322e-09,-1.0522549298695e-08,1.304344347152e-08,-0.0016726520482169,0.0016726546084091,-0.001818074079728,0.0018180647193877,-0.0018180662850888,0.0018180725613081,-0.0018180700479048,0.0018180687988467,-0.0018180622603603,0.0018180766290174,-0.0014503971179791,0.0014503806287578,-0.0014503743001716,0.0014504040082884,-0.0015439149524743,0.0015439133598859,-0.001543903002119,0.0015439255964816,-2.5734983705567e-09,2.1235608994682e-09,-0.00090566248705126,0.0009056619517531,1.1232524158333e-08,-1.2141049460772e-08,-0.0010377217449853,0.0010377275049455,-0.0010377295506164,0.0010377197475063,-0.0010377201507047,0.0010377290636096,-0.0010377279738433,0.0010377212909588,-0.00094572034123072,0.00094571662441465,-0.00094572495147657,0.00094571208508045,0.59263236404329,128566,2924,0.0049009043551771,0.0069435867206809,0.0037697011846472,37.837643715343,6.2701149722744e-05,6.2701149722744e-05,6.2701149722744e-05,4041160.9403195,0.015737632522618
11419200,0.91334022232391,0.015604199791456,0.0049843247240211,0.0065132959751589,0.0041065790922759,-0.0011850887020881,0.0011850878278969,1.9098296080679e-09,-2.785332539542e-09,5.580396228836e-09,-6.6538361475201e-09,-0.001321183177747,0.0013211879431649,-0.0013211846943056,0.0013211863480216,-0.0013211871179941,0.0013211838380514,-0.0013211886818276,0.001321182265642,-0.0011067991783881,0.0011067988190278,-0.0011068037372151,0.0011067941579196,-4.7670387485914e-09,7.5064527017285e-09,-1.0518886378712e-08,1.3035944217499e-08,-0.0016828001334853,0.0016828026899106,-0.0018299641744781,0.0018299548152055,-0.0018299563829093,0.0018299626535598,-0.0018299601445105,0.0018299588937986,-0.0018299523601653,0.0018299667199237,-0.001458255364738,0.0014582388820344,-0.0014582325585977,0.0014582622496866,-0.0015526461919947,0.0015526445962022,-0.0015526342466515,0.0015526568294258,-2.6276053141084e-09,2.1796220562703e-09,-0.00090936469063196,0.00090936415725219,1.1227797374144e-08,-1.2134172807122e-08,-0.0010425372695071,0.0010425429905445,-0.001042545071042,0.0010425352370714,-0.001042535638102,0.0010425445860431,-0.0010425434577229,0.0010425368169541,-0.00094956451440317,0.0009495609110033,-0.00094956923233578,0.00094955626470229,0.59626238249688,128566,2924,0.0049257539908528,0.0069855496175447,0.0037851228524404,37.630670943266,6.1045367546128e-05,6.1045367546128e-05,6.1045367546128e-05,4039728.3216624,0.015821184630716
11619200,0.9191614927214,0.01568539772768,0.0050100024527151,0.0065496027550715,0.004125792519894,-0.0011906033732367,0.0011906024996085,1.9654154260476e-09,-2.8401267231202e-09,5.5700835914131e-09,-6.6429461107327e-09,-0.001327899460558,0.0013279042565384,-0.0013279010141909,0.00132790262436,-0.0013279033941301,0.0013279001581981,-0.0013279049944388,0.0013278985492342,-0.0011115977624609,0.0011115975182072,-0.0011116024282352,0.001111592749773,-4.7579187885529e-09,7.492936980448e-09,-1.0522387658868e-08,1.3035035410969e-08,-0.0016921607338489,0.0016921632858726,-0.001840922887191,0.001840913530197,-0.0018409150947575,0.0018409213690341,-0.0018409188648727,0.0018409176009953,-0.0018409110787553,0.0018409254282803,-0.0014655126146964,0.0014654961164661,-0.0014654898044811,0.0014655194871353,-0.0015607259016134,0.0015607243233963,-0.0015607139777047,0.0015607365356866,-2.682036044548e-09,2.2347865963495e-09,-0.00091277162734306,0.00091277109472771,1.1230537488583e-08,-1.2135882461994e-08,-0.0010469794794107,0.0010469851664244,-0.0010469872827583,0.0010469774111122,-0.001046977811693,0.0010469867980547,-0.001046985632507,0.0010469790277502,-0.00095312494383639,0.00095312144786843,-0.00095312977068534,0.0009531166938948,0.59873359201976,128566,2924,0.0049486190990388,0.0070242541001722,0.0037993153782714,37.420603425814,5.9364827406509e-05,5.9364827406509e-05,5.9364827406509e-05,4035979.690424,0.015898167042654
11819200,0.92454963905398,0.015761028717265,0.0050339264246419,0.0065833458909639,0.0041437564016596,-0.0011956857006346,0.0011956848074316,2.010786156308e-09,-2.904720649136e-09,5.5361715302158e-09,-6.6297682741889e-09,-0.0013340974649011,0.0013341022624059,-0.0013340990550749,0.0013341005934393,-0.0013341013827535,0.001334098179897,-0.0013341030195945,0.0013340965342344,-0.0011160493111451,0.0011160491713357,-0.0011160540842418,0.0011160442950244,-4.7375057542747e-09,7.4669376280045e-09,-1.0526268804125e-08,1.3033485672136e-08,-0.0017008057590761,0.0017008083057023,-0.001851022355222,0.0018510130079323,-0.0018510145624303,0.0018510208476053,-0.0018510183490345,0.0018510170634451,-0.0018510105623428,0.0018510248915603,-0.0014722295602466,0.001472213038293,-0.0014722067479439,0.0014722364120382,-0.0015682080047126,0.0015682064668166,-0.0015681961272928,0.0015682186352149,-2.7387698633963e-09,2.2880394665007e-09,-0.00091591799422068,0.00091591745800271,1.1229860732022e-08,-1.2139246686176e-08,-0.0010510873241253,0.0010510929719027,-0.0010510951283427,0.0010510852156259,-0.0010510856196539,0.0010510946399988,-0.0010510934413356,0.0010510868689514,-0.0009564372265212,0.00095643383418861,-0.00095644216175083,0.00095642897291827,0.6021809233235,128566,2924,0.0049696912369535,0.0070599978284675,0.0038124232600934,37.210417588046,5.768334070437e-05,5.768334070437e-05,5.768334070437e-05,4030653.2235347,0.015969222171638
12019200,0.9295457046396,0.015833264359339,0.0050568045848216,0.0066153591809354,0.0041611005935817,-0.0012005150176963,0.0012005141281412,2.0676347523504e-09,-2.9577335349436e-09,5.4983703892611e-09,-6.5883336499882e-09,-0.0013399431375383,0.0013399479491206,-0.0013399447643032,0.0013399462435211,-0.0013399470292745,0.0013399438929412,-0.0013399487026774,0.0013399422106177,-0.0011203576149967,0.0011203576130305,-0.001120362495639,0.0011203526291116,-4.7012985457918e-09,7.4234955451891e-09,-1.0526770845377e-08,1.3027098585904e-08,-0.0017089312893577,0.0017089338290755,-0.0018604504829603,0.0018604411570406,-0.0018604426920707,0.0018604489947418,-0.0018604465029826,0.0018604451860776,-0.0018604387179923,0.0018604530122347,-0.0014786064646883,0.0014785899151117,-0.0014785836576541,0.0014786132827256,-0.0015753248658192,0.0015753233972853,-0.0015753130674793,0.0015753354880561,-2.7936383067361e-09,2.3432432794665e-09,-0.00091895783237156,0.00091895729646731,1.1227680452157e-08,-1.2136493407136e-08,-0.0010550100753031,0.0010550156850923,-0.0010550178779402,0.0010550079303683,-0.0010550083341074,0.001055017389797,-0.0010550161541377,0.0010550096203439,-0.00095969539502316,0.00095969211238785,-0.00095970043845961,0.00095968714367668,0.61929850348929,128566,2924,0.0049897140948535,0.0070935921175074,0.0038250867871678,37.028041898115,5.6224335184918e-05,5.6224335184918e-05,5.6224335184918e-05,4022589.4848297,0.016036578467134
12219200,0.93419617497934,0.015902634892376,0.0050788024232052,0.0066459018092199,0.0041779306599513,-0.0012052259484003,0.0012052250651297,2.1257211091204e-09,-3.0095105549915e-09,5.4548802492888e-09,-6.5380230074732e-09,-0.001345612975742,0.001345617799007,-0.0013456146391119,0.0013456160567608,-0.0013456168365686,0.001345613774031,-0.0013456185465082,0.0013456120550522,-0.0011246603618423,0.0011246605048122,-0.0011246653498892,0.0011246554131835,-4.6581131008422e-09,7.3720303714149e-09,-1.0521427945893e-08,1.3013949825178e-08,-0.0017167391183687,0.0017167416502578,-0.0018694045157779,0.0018693952194219,-0.0018693967307943,0.0018694030509203,-0.0018694005667996,0.0018693992168383,-0.0018693927875671,0.0018694070368423,-0.0014848282253875,0.0014848116546728,-0.0014848054362337,0.0014848350040776,-0.0015822633662945,0.0015822619767474,-0.0015822516605767,0.0015822739738343,-2.8481516382221e-09,2.3987937654695e-09,-0.00092199384138971,0.0009219933064914,1.1219656496666e-08,-1.212728905212e-08,-0.0010589091698992,0.0010589147383345,-0.0010589169668783,0.0010589069892651,-0.0010589073920931,0.0010589164797196,-0.001058915206347,0.0010589087159717,-0.00096300833862159,0.00096300517064201,-0.00096301349002664,0.00096300009421061,0.63789981062693,128566,2924,0.0050092459543392,0.0071258706042738,0.0038377344700193,36.914348354127,5.531478683302e-05,5.531478683302e-05,5.531478683302e-05,4010190.3101957,0.016102085695504
12419200,0.93852543781613,0.015965161623343,0.0050986018024572,0.0066735935724269,0.0041929662484587,-0.0012095024439835,0.0012095015676027,2.1841240912215e-09,-3.0610602487684e-09,5.413584162253e-09,-6.4893341712367e-09,-0.0013508509259133,0.001350855762704,-0.0013508526258158,0.0013508539839056,-0.0013508547570377,0.0013508517677489,-0.0013508565036324,0.0013508500120025,-0.0011285462033443,0.0011285464908542,-0.0011285512991444,0.0011285412911911,-4.6177874658215e-09,7.3233619812008e-09,-1.0515177550661e-08,1.2999803676333e-08,-0.0017239775086265,0.0017239800326404,-0.0018776864946454,0.0018776772264912,-0.0018776787160858,0.0018776850512225,-0.0018776825746991,0.0018776811942219,-0.0018776748019386,0.0018776890073127,-0.0014905788966155,0.0014905623087542,-0.0014905561274037,0.0014905856376988,-0.0015886218476415,0.0015886205311376,-0.0015886102293636,0.001588632439922,-2.9024318579968e-09,2.4544455009648e-09,-0.00092471374950896,0.00092471321593513,1.1210015388078e-08,-1.2116085167156e-08,-0.0010625197372329,0.0010625252633485,-0.0010625275272939,0.0010625175212004,-0.0010625179227856,0.0010625270415156,-0.0010625257301736,0.0010625192845432,-0.00096594693246821,0.00096594388032693,-0.00096595219137236,0.00096593869639257,0.61826606422502,128566,2924,0.005026976664732,0.0071557917520156,0.0038490695032528,36.802342552071,5.4418740416567e-05,5.4418740416567e-05,5.4418740416567e-05,3997207.7210696,0.016162038665689
12619200,0.94255586607531,0.016020350704814,0.0051160350786115,0.0066982780624012,0.004206037563801,-0.0012132991700426,0.00121329830031,2.2423151005886e-09,-3.1127515574642e-09,5.3772615248478e-09,-6.4458606529699e-09,-0.0013555392935966,0.0013555441471255,-0.0013555410300908,0.0013555423317459,-0.0013555430983836,0.0013555401787486,-0.0013555448816159,0.0013555383863133,-0.0011319032931683,0.0011319037211058,-0.0011319084965158,0.0011318984136384,-4.5820036902266e-09,7.2794626997643e-09,-1.0508022899525e-08,1.2984974286949e-08,-0.0017305239854568,0.0017305265017839,-0.0018852572664407,0.0018852480242068,-0.0018852494949363,0.0018852558415984,-0.0018852533725505,0.0018852519653242,-0.0018852456067733,0.0018852597710279,-0.0014956962213447,0.0014956796210455,-0.0014956734735651,0.0014957029281523,-0.0015942571951516,0.0015942559420558,-0.0015942456548188,0.0015942677716135,-2.9567316671786e-09,2.5101416865425e-09,-0.00092708735316512,0.00092708682097379,1.1199936797413e-08,-1.2104437123328e-08,-0.0010656861937604,0.001065691677365,-0.0010656939766114,0.0010656839423857,-0.0010656843426923,0.0010656934922691,-0.0010656921428777,0.0010656857424247,-0.00096844562765072,0.00096844269189552,-0.00096845099400535,0.00096843739994989,0.58731202128378,128566,2924,0.0050427176880457,0.0071828522035235,0.0038589621140635,36.690401269847,5.3523210158774e-05,5.3523210158774e-05,5.3523210158774e-05,3991741.8964808,0.01621560037998
12819200,0.94627438106111,0.016071652800807,0.0051322442827406,0.0067211652975976,0.0042182432204688,-0.00121645005404,0.0012164491877604,2.2999166436032e-09,-3.1670114014677e-09,5.3575259477378e-09,-6.4220161734024e-09,-0.0013594338111011,0.0013594386906284,-0.0013594355847112,0.0013594368380723,-0.0013594376015317,0.001359434736801,-0.0013594394220176,0.0013594329070134,-0.0011346296070736,0.0011346301620333,-0.0011346349198581,0.0011346247449773,-4.5655134035818e-09,7.2565884377338e-09,-1.0508122480777e-08,1.2978923720319e-08,-0.0017361259764001,0.0017361284866379,-0.0018918461598234,0.0018918369264998,-0.0018918383902154,0.0018918447419321,-0.0018918422787098,0.0018918408544393,-0.0018918345147827,0.001891848658009,-0.0014999782757013,0.0014999616622781,-0.00149995553439,0.0014999849639783,-0.0015990421800908,0.0015990409577129,-0.0015990306772647,0.0015990527470338,-3.0102274588858e-09,2.5645165317766e-09,-0.00092897716080098,0.00092897662938367,1.1194192420076e-08,-1.2098085493228e-08,-0.0010681850316072,0.0010681904760718,-0.0010681928104759,0.0010681827450555,-0.0010681831445279,0.0010681923270828,-0.0010681909408244,0.0010681845810978,-0.00097043429005671,0.00097043146509587,-0.00097043976170974,0.00097042606744926,0.5913455345598,128566,2924,0.0050557807275033,0.0072060093469471,0.0038668392931616,36.407039151082,5.1256313208658e-05,5.1256313208658e-05,5.1256313208658e-05,3990329.5575333,0.016260425646457
13019200,0.94966217777868,0.016118541832091,0.005147060210396,0.0067420508906155,0.0042294307310792,-0.0012188001016065,0.0012187992346254,2.3512325221589e-09,-3.2191423794989e-09,5.3581008457155e-09,-6.4231017353569e-09,-0.0013624591306261,0.0013624640444143,-0.0013624609386641,0.0013624621571482,-0.0013624629214318,0.0013624600901875,-0.001362464776548,0.001362458225603,-0.0011366142612377,0.001136614916449,-0.0011366196748241,0.0011366093966574,-4.5624976129474e-09,7.249012032423e-09,-1.050890247689e-08,1.2975206464584e-08,-0.0017406978867591,0.0017407003924438,-0.0018973056114841,0.0018972963776777,-0.001897297842466,0.001897304192272,-0.0018973017335234,0.0018973003021349,-0.0018972939702998,0.0018973081048797,-0.0015033673107636,0.0015033506922174,-0.0015033445727989,0.0015033739909616,-0.0016028806976333,0.0016028794803363,-0.0016028692053417,0.001602891258415,-3.0686939725809e-09,2.6223280333588e-09,-0.00093022439593101,0.0009302238636592,1.1201622524121e-08,-1.2106440313094e-08,-0.0010699778556532,0.0010699832656814,-0.0010699856394839,0.0010699755295929,-0.0010699759299196,0.0010699851553143,-0.0010699837313232,0.0010699774042179,-0.00097175708106513,0.0009717543634052,-0.00097176266597671,0.00097174885222898,0.59302696522613,128566,2924,0.0050655240706512,0.0072249068812947,0.0038720451877798,35.874466275769,4.6995730206152e-05,4.6995730206152e-05,4.6995730206152e-05,3984811.4312348,0.016294833969733
13219200,0.95275220752037,0.016161477972977,0.0051606278589379,0.0067611405140351,0.0042397096000039,-0.0012208448283059,0.0012208439596255,2.4079690834143e-09,-3.277532977476e-09,5.359315284402e-09,-6.4262061127556e-09,-0.0013651175678666,0.0013651225198689,-0.0013651194143429,0.0013651205944063,-0.0013651213604476,0.0013651185641563,-0.0013651232536573,0.0013651166613171,-0.0011383428145835,0.0011383435792405,-0.0011383483409391,0.0011383379474016,-4.5708635919019e-09,7.2542067522573e-09,-1.0513088398719e-08,1.2976191590725e-08,-0.00174476556303,0.0017447680655435,-0.0019021708319785,0.0019021615888058,-0.0019021630612679,0.0019021694050948,-0.0019021669496721,0.0019021655177578,-0.0019021591844359,0.0019021733223067,-0.0015063695767569,0.0015063529541376,-0.0015063468331009,0.0015063762581864,-0.0016062907328173,0.0016062895002505,-0.0016062792267423,0.0016063012924711,-3.1207588716167e-09,2.6748495564625e-09,-0.00093127937668838,0.0009312788449608,1.1198035083303e-08,-1.2102203882779e-08,-0.001071531133912,0.0010715365071928,-0.0010715389154897,0.0010715287734973,-0.0010715291732877,0.0010715384317805,-0.0010715369721587,0.0010715306831515,-0.00097288743731495,0.00097288482552982,-0.00097289312520914,0.00097287921179662,0.59512403414727,128566,2924,0.0050740017101023,0.0072417195113466,0.0038764505584232,35.335749141751,4.2685993134008e-05,4.2685993134008e-05,4.2685993134008e-05,3978121.5986758,0.016325023468771
13419200,0.95557478494342,0.016200084953246,0.0051728175518933,0.006778341873318,0.004248925528035,-0.0012225893488528,0.0012225884778801,2.4613464421293e-09,-3.3330166094325e-09,5.3642269344942e-09,-6.4335430718518e-09,-0.0013674344597332,0.0013674394497065,-0.001367436342402,0.0013674374879723,-0.0013674382563464,0.0013674354898967,-0.0013674401858974,0.0013674335507977,-0.001139798509878,0.0011397993750959,-0.0011398041429274,0.0011397936367142,-4.5777124254394e-09,7.258219677077e-09,-1.0510846902901e-08,1.2971066232771e-08,-0.0017483646374487,0.0017483671371092,-0.0019064947429408,0.0019064854958152,-0.0019064869745924,0.0019064933095168,-0.0019064908570376,0.0019064894284056,-0.0019064830941398,0.0019064972303075,-0.0015089975779163,0.0015089809634217,-0.0015089748414845,0.0015090042599778,-0.0016092733810915,0.0016092721325326,-0.0016092618646334,0.0016092839355792,-3.1759500084514e-09,2.7305137708937e-09,-0.00093213642624003,0.00093213589501386,1.119547047615e-08,-1.2098984556448e-08,-0.0010728556043222,0.0010728609392052,-0.0010728633839207,0.0010728532073715,-0.0010728536066758,0.0010728629006558,-0.0010728614036746,0.0010728551539502,-0.00097380027211292,0.00097379777133274,-0.00097380606891049,0.00097379204941482,0.5860828731087,128566,2924,0.0050812348335933,0.007256594418406,0.0038800321894877,34.796797199313,3.8374377594501e-05,3.8374377594501e-05,3.8374377594501e-05,3971187.472796,0.016351141990524
13619200,0.95817059603121,0.016235144254828,0.0051838796719976,0.0067939841831819,0.0042572803996489,-0.0012242679391089,0.0012242670663536,2.5171977349033e-09,-3.390530048989e-09,5.3648801687258e-09,-6.4364150056456e-09,-0.0013696274900724,0.0013696325176481,-0.0013696294107947,0.0013696305179791,-0.0013696312882507,0.001369628556344,-0.0013696332552432,0.0013696265798361,-0.0011412013852548,0.0011412023578926,-0.0011412071288002,0.0011411965098619,-4.5835105003711e-09,7.2614988153722e-09,-1.0502570462917e-08,1.2960226282748e-08,-0.0017517313217557,0.0017517338188826,-0.0019105397939429,0.0019105305479355,-0.0019105320321544,0.0019105383548821,-0.001910535905458,0.0019105344833435,-0.0019105281483671,0.0019105422790221,-0.001511465587274,0.0015114489911042,-0.0015114428679962,0.0015114722693036,-0.0016120657571913,0.0016120644897303,-0.0016120542314873,0.0016120763037048,-3.2282869469487e-09,2.7844740829423e-09,-0.00093300586339446,0.00093300533390006,1.1183017859922e-08,-1.2084432479054e-08,-0.0010741339135408,0.0010741392060175,-0.0010741416845836,0.0010741314827313,-0.001074131880672,0.0010741412026331,-0.0010741396684938,0.0010741334651033,-0.00097471135865847,0.00097470897360497,-0.00097471726071388,0.0009747031467832,0.57889842851501,128566,2924,0.0050881943894638,0.0072705093126104,0.0038836625792532,34.356052837921,3.484842270337e-05,3.484842270337e-05,3.484842270337e-05,3967253.1304185,0.016376056169059
13819200,0.96057216181281,0.016267559084367,0.0051941066780203,0.0068084324770631,0.0042650199292832,-0.0012259213588008,0.0012259204847918,2.5680257482306e-09,-3.4424806741262e-09,5.3656041365172e-09,-6.4385877345055e-09,-0.0013717443049917,0.0013717493661247,-0.0013717462595501,0.0013717473324839,-0.001371748103488,0.0013717454044457,-0.0013717501054169,0.0013717433929548,-0.0011425994806609,0.0011426005539736,-0.0011426053262464,0.0011425946026802,-4.5811808706573e-09,7.2563431143459e-09,-1.0483475431669e-08,1.2938306769962e-08,-0.0017549262063506,0.0017549287005896,-0.0019143682634265,0.0019143590297344,-0.0019143605142169,0.0019143668235286,-0.0019143643767245,0.0019143629632715,-0.0019143566333343,0.0019143707448126,-0.0015138286795441,0.0015138121197662,-0.0015138060015084,0.001513835355327,-0.0016147374199528,0.0016147361451078,-0.001614725904391,0.0016147479505674,-3.2859519309756e-09,2.8436942617017e-09,-0.00093391617028949,0.00093391564234243,1.1171516102087e-08,-1.2070912118529e-08,-0.0010754027562251,0.0010754080023691,-0.0010754105182294,0.0010754002880027,-0.001075400684012,0.0010754100381703,-0.0010754084638576,0.0010754023086278,-0.00097566109676579,0.00097565883372325,-0.00097566711165654,0.00097565289466036,0.57842147434365,128566,2924,0.0050950494130485,0.007283714643757,0.0038874603787477,34.003764354426,3.203011483541e-05,3.203011483541e-05,3.203011483541e-05,3965251.0175108,0.016400312822705
14019200,0.96279631418562,0.016297573568627,0.0052035764281904,0.0068217983452843,0.0042721987951529,-0.0012274075850469,0.0012274067104659,2.6216982963431e-09,-3.4967160262178e-09,5.3626994687418e-09,-6.4361782002916e-09,-0.0013736586535268,0.0013736637478831,-0.00137366064379,0.0013736616788013,-0.0013736624499971,0.0013736597885203,-0.0013736644882181,0.0013736577405371,-0.0011438553857439,0.0011438565670618,-0.0011438613380628,0.0011438505089625,-4.5790681039067e-09,7.2515170192504e-09,-1.0468034919013e-08,1.2920193806301e-08,-0.0017578324403533,0.0017578349319169,-0.0019178568801548,0.0019178476564552,-0.0019178491412573,0.0019178554395681,-0.0019178529952548,0.0019178515881418,-0.0019178452628377,0.0019178593582777,-0.0015159684119462,0.0015159518812648,-0.0015159457677529,0.0015159750827291,-0.0016171641573919,0.0016171628768293,-0.0016171526496039,0.0016171746742613,-3.3409635235305e-09,2.900420605589e-09,-0.00093472334893244,0.00093472282275258,1.1157845893879e-08,-1.2055352463022e-08,-0.001076540600964,0.0010765458015121,-0.0010765483528936,0.0010765380973015,-0.0010765384911553,0.0010765478749948,-0.0010765462616099,0.0010765401547414,-0.00097650450430818,0.00097650236127721,-0.00097651062760162,0.00097649631403911,0.57820996433401,128566,2924,0.0051012113316603,0.0072957267118783,0.0038908284432099,33.653664884171,2.9229319073367e-05,2.9229319073367e-05,2.9229319073367e-05,3962847.0755773,0.016422215345432
14219200,0.96485803613484,0.016324412787777,0.0052120305446348,0.0068338257032445,0.0042785565398978,-0.0012286878769852,0.0012286870022476,2.6787774300927e-09,-3.5539678887959e-09,5.3574383225103e-09,-6.4310172949537e-09,-0.0013753479680773,0.0013753530973846,-0.0013753499969042,0.0013753509899411,-0.0013753517617756,0.00137534914099,-0.0013753538374707,0.001375347055508,-0.0011449096769517,0.0011449109717219,-0.0011449157397035,0.0011449048036031,-4.5778603855664e-09,7.2477337298861e-09,-1.0457360816041e-08,1.2906972548495e-08,-0.0017604326652795,0.0017604351543605,-0.0019210015022392,0.0019209922862801,-0.0019209937717244,0.0019210000607999,-0.0019209976195911,0.001920996215728,-0.0019209898943342,0.0019210039783524,-0.0015178521131275,0.0015178356000565,-0.0015178294904278,0.0015178587795554,-0.0016192928116443,0.0016192915236759,-0.0016192813066385,0.0016193033178172,-3.3926172555794e-09,2.9541100048789e-09,-0.00093538416343292,0.00093538363935011,1.1142209674849e-08,-1.2037396663972e-08,-0.0010775173953305,0.0010775225522411,-0.0010775251368172,0.0010775148585255,-0.0010775152508542,0.0010775246604344,-0.0010775230097556,0.0010775169516973,-0.00097717454747125,0.00097717252248195,-0.000977180775534,0.00097716637041662,0.55856305448188,128566,2924,0.0051065195371527,0.0073064735488726,0.0038935874320974,33.303649012709,2.6429192101671e-05,2.6429192101671e-05,2.6429192101671e-05,3960837.7013611,0.016441345567147
14419200,0.96673915267289,0.016349150369962,0.005219826697257,0.0068448755980707,0.0042844480746339,-0.0012292149209237,0.001229214045512,2.7361288655347e-09,-3.6120948981266e-09,5.3550689905241e-09,-6.4288992172478e-09,-0.0013761954330893,0.0013762005992006,-0.001376197500871,0.0013761984526929,-0.0013761992260524,0.0013761966435047,-0.0013762013394195,0.0013761945203889,-0.0011452071434036,0.0011452085494461,-0.001145213317031,0.0011452022704007,-4.5796816636335e-09,7.2474657769542e-09,-1.046116437508e-08,1.2908673476769e-08,-0.0017620911398485,0.0017620936269064,-0.001923185414676,0.0019231761953388,-0.0019231776832547,0.0019231839708639,-0.0019231815322691,0.0019231801245528,-0.001923173804609,0.0019231878894005,-0.0015188646341136,0.0015188481119302,-0.0015188420044511,0.001518871299782,-0.0016205310009676,0.0016205297089172,-0.0016205194908572,0.0016205415055983,-3.4444858553325e-09,3.0064932400353e-09,-0.00093541612609113,0.00093541560241137,1.1139766462781e-08,-1.2034847459276e-08,-0.0010777477498079,0.0010777528715069,-0.0010777554904656,0.0010777451785504,-0.0010777455711747,0.0010777550138556,-0.0010777533278558,0.0010777473073692,-0.00097719356246044,0.00097719164442337,-0.00097719989450583,0.00097718538771882,0.56383117825708,128566,2924,0.0051087051392564,0.007313328293758,0.0038937309972427,32.648197827322,2.1185582618578e-05,2.1185582618578e-05,2.1185582618578e-05,3958570.9137893,0.016450685688163
14619200,0.96844240389874,0.016371662767544,0.0052269230922805,0.0068549091090375,0.0042898305662264,-0.0012292675726966,0.0012292666968575,2.786607256642e-09,-3.6629608082067e-09,5.3527401837374e-09,-6.427227716958e-09,-0.0013765330107511,0.0013765382077969,-0.0013765351109923,0.0013765360285744,-0.0013765368010804,0.0013765342547156,-0.0013765389495978,0.0013765320963058,-0.0011450624881621,0.0011450639988941,-0.0011450687649905,0.001145057615896,-4.5746031998359e-09,7.240014015718e-09,-1.0464762163934e-08,1.2909974118976e-08,-0.0017631472936382,0.0017631497783836,-0.001924715648755,0.0019247064282086,-0.0019247079140949,0.00192471420656,-0.0019247117691933,0.0019247103546234,-0.0019247040410653,0.0019247181199044,-0.0015193541473875,0.0015193376180462,-0.0015193315173728,0.0015193608064711,-0.0016212128533674,0.0016212115770568,-0.0016212013603085,0.0016212233575764,-3.5042845137783e-09,3.0651993932635e-09,-0.00093505745214521,0.00093505692733366,1.1149304538282e-08,-1.2045367577555e-08,-0.0010775638448828,0.0010775689311425,-0.0010775715907391,0.0010775612331272,-0.0010775616257423,0.0010775711143166,-0.001077569390089,0.0010775633999976,-0.00097681490081264,0.00097681308675484,-0.00097682134501063,0.00097680671822761,0.56645233173405,128566,2924,0.0051089244964222,0.0073176926003299,0.0038922511776968,31.82394712597,1.4591577007761e-05,1.4591577007761e-05,1.4591577007761e-05,3952013.0833447,0.016453845125115
14819200,0.96998734085113,0.016392207074612,0.005233400910006,0.0068640423054532,0.0042947638591527,-0.0012291742689236,0.0012291733935937,2.8490470224735e-09,-3.7248384898002e-09,5.3448310988288e-09,-6.4185055815897e-09,-0.0013766953643762,0.0013767006017927,-0.0013766975101512,0.0013766983770495,-0.0013766991535423,0.0013766966500997,-0.001376701339151,0.0013766944546157,-0.0011447997824015,0.0011448014079293,-0.0011448061679561,0.0011447949158873,-4.5729169872897e-09,7.2366393683406e-09,-1.0473492002362e-08,1.2917060752955e-08,-0.0017639507522196,0.001763953235172,-0.001925942336754,0.0019259331151794,-0.0019259346016576,0.0019259408946914,-0.0019259384631938,0.001925937035459,-0.0019259307251241,0.0019259448103502,-0.0015196563700097,0.0015196398077207,-0.0015196337103044,0.001519663025041,-0.0016216862276782,0.0016216849459096,-0.0016216747253402,0.0016216967345845,-3.5519847097832e-09,3.112985860541e-09,-0.00093460649341327,0.00093460596860993,1.1150290268051e-08,-1.2046321730737e-08,-0.0010772718770053,0.0010772769362848,-0.0010772796278993,0.0010772692332546,-0.0010772696299083,0.0010772791470127,-0.0010772773908773,0.0010772714362813,-0.00097634709339097,0.00097634538440931,-0.00097635364382085,0.0009763389101144,0.56961684786979,128566,2924,0.0051085388983138,0.007321012184044,0.0038903872487451,30.99548656987,7.9638925589595e-06,7.9638925589595e-06,7.9638925589595e-06,3943930.1531045,0.016454936789096
15019200,0.97136989101062,0.016410522409262,0.0052391750061278,0.006872180774773,0.0042991666283617,-0.0012284202180204,0.0012284193458517,2.8871366487293e-09,-3.7607330139282e-09,5.3278410659545e-09,-6.3960558975298e-09,-0.0013761626816651,0.0013761679253158,-0.0013761648438338,0.0013761656834748,-0.0013761664492559,0.0013761639951553,-0.0013761686679351,0.0013761617657229,-0.0011438944569478,0.0011438961950069,-0.001143900938322,0.00114388960168,-4.5382870697982e-09,7.1970987235743e-09,-1.0473886286199e-08,1.2912765948452e-08,-0.0017639565894029,0.0017639590677499,-0.0019263158519227,0.0019263066417924,-0.0019263081080682,0.0019263144288295,-0.0019263119933564,0.0019263105460611,-0.0019263042655779,0.0019263183114686,-0.0015192337024428,0.0015192171423631,-0.001519211077755,0.0015192403328964,-0.0016214016110889,0.0016214004262605,-0.0016213902054532,0.0016214121093283,-3.6263799991667e-09,3.1843553629107e-09,-0.00093357230790994,0.00093357177942483,1.1173236048544e-08,-1.2075289234603e-08,-0.0010763654140763,0.0010763704306422,-0.0010763731733768,0.0010763627192062,-0.0010763631111564,0.0010763726983925,-0.0010763708970351,0.0010763649621995,-0.00097527787006323,0.00097527626017777,-0.00097528453572813,0.00097526966649944,0.56737759382932,128566,2924,0.0051054144215378,0.0073210337570129,0.0038861002179052,29.892656146735,-8.5875082611954e-07,-8.5875082611954e-07,-8.5875082611954e-07,3931240.9745877,0.016447428760106
15219200,0.97258879444061,0.01642597900144,0.0052440386847527,0.0068790982734704,0.0043028420432171,-0.0012269195268049,0.0012269186615708,2.9642417881871e-09,-3.8309026378249e-09,5.2777124900062e-09,-6.3385441977669e-09,-0.0013748398092356,0.001374845076749,-0.0013748420241378,0.0013748427826731,-0.0013748435454854,0.0013748411783999,-0.0013748458087985,0.0013748389039559,-0.0011422402943886,0.0011422422057213,-0.0011422469071942,0.0011422354825376,-4.5077486148447e-09,7.16193902862e-09,-1.051181616929e-08,1.2946471942992e-08,-0.0017630600106046,0.001763062484574,-0.001925744635516,0.001925735424238,-0.0019257368741572,0.0019257432305105,-0.0019257408036378,0.001925739301704,-0.0019257330470978,0.0019257470953054,-0.0015179726984898,0.001517956028237,-0.0015179499897592,0.0015179793030892,-0.0016202368762851,0.0016202357626798,-0.0016202255228008,0.00162024739615,-3.6625815083751e-09,3.220618473502e-09,-0.0009318761920839,0.00093187566376398,1.117068147429e-08,-1.2072320447188e-08,-0.0010747458863001,0.0010747508811797,-0.0010747536483429,0.001074743166892,-0.0010747435625475,0.001074753169502,-0.0010747513432729,0.0010747454380328,-0.00097350811756643,0.00097350659253972,-0.00097351486701676,0.00097349991596392,0.54391180055511,128566,2924,0.0050991948741095,0.0073173245153232,0.003879062352619,28.487136929526,-1.2102904563789e-05,-1.2102904563789e-05,-1.2102904563789e-05,3915341.4310611,0.016430186186241
15419200,0.97366569294808,0.016441505315506,0.0052489544474009,0.0068858618872231,0.0043066889808819,-0.0012253642447081,0.0012253633815687,3.0140001105604e-09,-3.878162138748e-09,5.2591850831786e-09,-6.3191810755911e-09,-0.0013733545950981,0.0013733598853871,-0.0013733568429762,0.001373357558205,-0.0013733583191421,0.0013733559989839,-0.0013733606147913,0.0013733536932069,-0.0011405526471755,0.0011405546680907,-0.0011405593553489,0.0011405478529262,-4.4833692090894e-09,7.133012210785e-09,-1.0512701126726e-08,1.2943155710772e-08,-0.0017619193969601,0.0017619218668922,-0.001924905044805,0.0019248958490276,-0.001924897284654,0.0019249036538746,-0.001924901230691,0.0019248997082758,-0.0019248934750407,0.0019249075012185,-0.0015165339234463,0.0015165172330205,-0.0015165112137473,0.0015165405031236,-0.0016189214326026,0.001618920362548,-0.001618910131724,0.0016189319465239,-3.724483597057e-09,3.2813629186097e-09,-0.00093018771681557,0.00093018718772563,1.1184663264685e-08,-1.2085810998931e-08,-0.0010730097107419,0.0010730146733741,-0.001073017482136,0.0010730069492852,-0.0010730073465324,0.001073017001513,-0.0010730151357988,0.001073009262187,-0.0009717788976716,0.00097177748315244,-0.00097178576965569,0.00097177068524712,0.61487579771484,128566,2924,0.0050927485968115,0.007312608827767,0.0038720522717965,27.074178973565,-2.3406568211476e-05,-2.3406568211476e-05,-2.3406568211476e-05,3902181.3089543,0.016411715865205
15619200,0.97463642159523,0.016455788933695,0.005253482212495,0.0068920547963751,0.0043102519248252,-0.0012243191331032,0.0012243182651134,3.0494867523906e-09,-3.9181018616638e-09,5.2879787933593e-09,-6.3538722906218e-09,-0.0013725092028624,0.0013725145299398,-0.0013725114715361,0.0013725121821521,-0.0013725129428522,0.0013725106275364,-0.0013725152687721,0.0013725082916165,-0.0011394963601742,0.0011394984445011,-0.0011395031570555,0.0011394915417176,-4.4912918916451e-09,7.1402849971358e-09,-1.0479403825995e-08,1.2909206464133e-08,-0.0017614346866765,0.0017614371559706,-0.0019245727755775,0.0019245635905173,-0.0019245650318366,0.0019245713783338,-0.0019245689512464,0.0019245674600254,-0.0019245612217058,0.0019245752263066,-0.0015158351458696,0.001515818541209,-0.0015158125161686,0.0015158417287484,-0.0016183017064675,0.0016183006137075,-0.0016182904078005,0.0016183121996672,-3.796986283021e-09,3.3531462936916e-09,-0.00092897421687237,0.00092897368737599,1.1191855127361e-08,-1.2092871264359e-08,-0.0010719876123923,0.0010719925261657,-0.0010719953832208,0.0010719848026743,-0.0010719851955961,0.0010719949066536,-0.0010719929937063,0.001071987158409,-0.00097057787792477,0.00097057658492167,-0.00097058487837604,0.00097056966120491,0.6269479646032,128566,2924,0.0050884182991781,0.0073105993821764,0.0038670225874208,25.96507309259,-3.2279415259279e-05,-3.2279415259279e-05,-3.2279415259279e-05,3877086.3190958,0.016400163023779
15819200,0.9755494469364,0.01647017108327,0.0052580542418488,0.0068982118612292,0.0043139049801915,-0.0012245408816403,0.001224540013152,3.21294560589e-09,-4.0811515121841e-09,5.2827609705249e-09,-6.3514783515197e-09,-0.0013729519287609,0.0013729573968225,-0.0013729543396864,0.001372954909329,-0.0013729557034358,0.0013729534613979,-0.0013729581040656,0.0013729510554274,-0.0011397617900138,0.0011397640963238,-0.0011397688146629,0.0011397569868706,-4.6427244703661e-09,7.3050613013916e-09,-1.0572178997777e-08,1.3014244958926e-08,-0.001762296589792,0.0017622990720856,-0.0019255286594456,0.0019255193583906,-0.0019255208897249,0.0019255271782435,-0.0019255247692458,0.0019255232988843,-0.0019255169423853,0.0019255311638516,-0.0015164999737456,0.0015164831819311,-0.0015164770469292,0.0015165066747201,-0.0016190623998396,0.0016190609569944,-0.0016190506781301,0.0016190729652132,-3.7312838106791e-09,3.3129010552341e-09,-0.00092897792061836,0.00092897741648131,1.1029968607971e-08,-1.1898829226602e-08,-0.0010722451922284,0.0010722500813503,-0.0010722528828077,0.0010722424401427,-0.0010722428429544,0.0010722523938789,-0.0010722504927927,0.0010722447972402,-0.00097066037494796,0.0009706592193197,-0.00097066737430546,0.00097065229744047,0.66919699349591,128566,2924,0.0050893394693869,0.0073141572632891,0.0038670495604444,25.54842621275,-3.5612590298002e-05,-3.5612590298002e-05,-3.5612590298002e-05,3859298.7082078,0.016404746246034
16019200,0.97640971921344,0.016483688307659,0.0052623501390986,0.006904003392344,0.0043173347762166,-0.0012247348553306,0.0012247339665906,3.1226307261792e-09,-4.011504460523e-09,5.4218689579302e-09,-6.5108967694553e-09,-0.0013734375621965,0.0013734430068961,-0.001373439871787,0.0013734406170473,-0.0013734413829674,0.0013734390222692,-0.0013734437801993,0.0013734366159904,-0.0011400584432295,0.0011400606209311,-0.0011400654503414,0.0011400535042637,-4.6092889260343e-09,7.268055141728e-09,-1.0380714031135e-08,1.2819175750686e-08,-0.001763224993741,0.0017632274716312,-0.0019264781305448,0.0019264689238608,-0.0019264704367392,0.0019264766609414,-0.001926474211755,0.001926472890214,-0.0019264665614675,0.0019264805750617,-0.0015172706751524,0.0015172543896982,-0.0015172482742922,0.0015172773470591,-0.001619896645132,0.0016198952967158,-0.0016198851484391,0.0016199070828508,-3.9309046729282e-09,3.4934650566812e-09,-0.00092894272773033,0.00092894220434889,1.1143378582875e-08,-1.2036952722962e-08,-0.0010725843712523,0.0010725891505135,-0.0010725920929057,0.0010725814761036,-0.0010725818484141,0.0010725916357075,-0.0010725896268485,0.0010725839085418,-0.00097071352990568,0.00097071250294353,-0.00097072075503038,0.00097070535339954,0.66742792152576,128566,2924,0.0050901459316875,0.0073179865970466,0.00386691934261,25.148623505716,-3.8811011954269e-05,-3.8811011954269e-05,-3.8811011954269e-05,3835920.4136881,0.016409330766968
16219200,0.97722091064268,0.016496376458198,0.005266380901714,0.0069094442976489,0.0043205512588355,-0.0012248491566383,0.0012248482621625,3.1683754776165e-09,-4.0630480327097e-09,5.4595823866675e-09,-6.5547104019201e-09,-0.0013738255710496,0.0013738310659983,-0.0013738279105898,0.0013738286479426,-0.0013738294160331,0.0013738270587564,-0.0013738318483707,0.0013738246157879,-0.0011402703128809,0.0011402725618868,-0.0011402774216239,0.0011402653437838,-4.6431340557359e-09,7.304355810591e-09,-1.0344549864161e-08,1.2785046869594e-08,-0.0017640518138748,0.0017640542939733,-0.0019273260401365,0.001927316826582,-0.001927318361271,0.0019273245472119,-0.0019273220939007,0.0019273208201009,-0.0019273144644461,0.0019273284840651,-0.0015179480545428,0.0015179318740644,-0.0015179257323057,0.0015179547510063,-0.0016206268125001,0.0016206253872244,-0.0016206152598169,0.0016206372333425,-3.9915897200122e-09,3.5561003897267e-09,-0.00092884580805634,0.00092884528689919,1.112444605275e-08,-1.2015598432024e-08,-0.0010728347088233,0.0010728394311955,-0.0010728424128502,0.0010728317750772,-0.0010728321411266,0.0010728419620092,-0.0010728399096121,0.001072834243868,-0.00097069957270424,0.00097069866813452,-0.00097070690667402,0.00097069141337681,0.664256046105,128566,2924,0.0050906218388366,0.0073213960098094,0.0038665324115461,24.749457720084,-4.2004338239325e-05,-4.2004338239325e-05,-4.2004338239325e-05,3815495.7630221,0.016412891148812
16419200,0.97798916704993,0.016507186535332,0.0052697992056446,0.0069141685594612,0.0043232187702262,-0.0012249618247398,0.0012249609350652,3.3082000491123e-09,-4.1980105941648e-09,5.4295436103572e-09,-6.519544564977e-09,-0.0013742031161158,0.0013742087261143,-0.0013742055870993,0.001374206177287,-0.0013742069809336,0.0013742046989717,-0.001374209463483,0.0013742022066642,-0.001140450479404,0.0011404528990714,-0.0011404577354371,0.0011404455405213,-4.6959108602643e-09,7.3616639344554e-09,-1.0406790939151e-08,1.2851291365341e-08,-0.0017648519142541,0.0017648543983192,-0.0019281628711369,0.0019281536241029,-0.0019281551916818,0.0019281613466341,-0.0019281589304695,0.0019281576133191,-0.0019281512182671,0.0019281653607024,-0.0015185918052393,0.0015185754150602,-0.0015185692312862,0.0015185985414213,-0.0016212942762319,0.0016212926669672,-0.0016212824904931,0.0016213047452933,-3.9585864913264e-09,3.5346449735968e-09,-0.00092876283698752,0.00092876232760763,1.1030804519111e-08,-1.1908700600222e-08,-0.0010730764138322,0.0010730811396439,-0.0010730840930085,0.0010730735083196,-0.0010730739034042,0.0010730836135108,-0.0010730815663938,0.0010730760007811,-0.00097067031205721,0.00097066955498853,-0.00097067771487698,0.0009706622296267,0.59981697604169,128566,2924,0.0050910907025404,0.0073246953565058,0.0038662022360508,24.411965009495,-4.4704279924036e-05,-4.4704279924036e-05,-4.4704279924036e-05,3799556.4592098,0.016416390498544
16619200,0.97872081543854,0.016519320362462,0.0052736606753822,0.0069193173313274,0.0043263423557522,-0.0012252638767082,0.0012252629861163,3.3335794434546e-09,-4.2242981727849e-09,5.4334442899147e-09,-6.5243777119747e-09,-0.0013746189059897,0.0013746245193068,-0.0013746213780535,0.0013746219682697,-0.0013746227575145,0.0013746205046132,-0.0013746252729075,0.0013746179801139,-0.0011407687643436,0.00114077127923,-0.0011407761193481,0.0011407638197867,-4.6703402597227e-09,7.3332659359947e-09,-1.0370737684083e-08,1.2812641260781e-08,-0.001765642239873,0.0017656447213994,-0.0019290678048015,0.0019290585844047,-0.0019290601355136,0.0019290662960503,-0.0019290638653895,0.0019290625719166,-0.0019290561974216,0.0019290702744431,-0.001519213229155,0.0015191969384601,-0.0015191907763768,0.0015192199453329,-0.0016219950675084,0.0016219935277852,-0.0016219833797676,0.0016220055062435,-4.044390625683e-09,3.6180335580271e-09,-0.00092891042665566,0.00092890991479775,1.1051107185408e-08,-1.1931761842544e-08,-0.0010733249903856,0.0010733296573339,-0.0010733326689122,0.0010733220261387,-0.0010733224093054,0.0010733322011895,-0.0010733301007233,0.0010733245605434,-0.00097089318060684,0.00097089252805804,-0.00097090070399455,0.00097088508153254,0.70235631761465,128566,2924,0.005092343348059,0.0073279597869206,0.0038668222568291,24.158086400772,-4.6735308793821e-05,-4.6735308793821e-05,-4.6735308793821e-05,3796230.8646717,0.01642161272114
16819200,0.97941799666693,0.016530938082944,0.0052773575485576,0.0069242481427354,0.0043293323916506,-0.0012255647761528,0.001225563889303,3.3870536152304e-09,-4.2741164654574e-09,5.4097775786555e-09,-6.496495957802e-09,-0.0013751981100727,0.0013752037417558,-0.0013752006140752,0.0013752011589247,-0.0013752019419028,0.0013751997470716,-0.00137520449453,0.0013751971850741,-0.0011412200403157,0.0011412226858885,-0.0011412275046525,0.0011412151160473,-4.6435839374629e-09,7.3033567222889e-09,-1.0370193550705e-08,1.2809247753097e-08,-0.001766646715301,0.0017666491939667,-0.0019300279298261,0.0019300187233678,-0.0019300202587923,0.0019300264367269,-0.0019300240065385,0.0019300226943569,-0.0019300163411359,0.0019300303941512,-0.0015201208626816,0.001520104563066,-0.0015200984224867,0.0015201275572101,-0.0016229389212639,0.0016229374428074,-0.0016229272987068,0.0016229493555559,-4.1033362609453e-09,3.6763815980878e-09,-0.00092901249949958,0.00092901198701114,1.1054604451922e-08,-1.1935992807615e-08,-0.0010738093182181,0.0010738139451351,-0.0010738169963578,0.0010738063143492,-0.0010738066953126,0.0010738165309227,-0.0010738143920466,0.0010738088848458,-0.00097110032120612,0.00097109977081533,-0.00097110795020115,0.00097109221906516,0.70571571582962,128566,2924,0.005093592853239,0.0073321025101848,0.0038672627669023,23.906246818902,-4.8750025448787e-05,-4.8750025448787e-05,-4.8750025448787e-05,3775707.0593173,0.016427546066798
17019200,0.98008263100531,0.016541801054337,0.0052808107978592,0.006928874763841,0.0043321154926365,-0.0012257895896679,0.0012257887073352,3.4466254618257e-09,-4.3292878024544e-09,5.3798505418434e-09,-6.4616184004051e-09,-0.001375699435367,0.0013757050899105,-0.0013757019793057,0.001375702467243,-0.0013757032474477,0.0013757011152132,-0.0013757058367669,0.0013756985164438,-0.0011415911047049,0.0011415938833752,-0.0011415986766364,0.0011415862064912,-4.6145366277206e-09,7.2709427420432e-09,-1.03783525561e-08,1.2814383421265e-08,-0.0017675807393251,0.0017675832149395,-0.0019309184504097,0.0019309092582916,-0.0019309107764356,0.0019309169745601,-0.0019309145488768,0.0019309132070167,-0.0019309068771593,0.0019309209132079,-0.0015209583105799,0.0015209419701295,-0.001520935852766,0.0015209649816158,-0.0016238021276154,0.0016238007065257,-0.0016237905605848,0.0016238125629002,-4.1564168877657e-09,3.7289633766669e-09,-0.00092905214993254,0.00092905163696107,1.1057601010732e-08,-1.1939487650395e-08,-0.0010742257395396,0.001074230334469,-0.0010742334214485,0.0010742226999074,-0.001074223082972,0.0010742329540316,-0.0010742307803664,0.0010742253072112,-0.00097124753092568,0.00097124708621494,-0.00097125526801262,0.00097123942580827,0.69245975810437,128566,2924,0.0050945266517274,0.0073359533807867,0.0038674447826032,23.654484289586,-5.0764125683314e-05,-5.0764125683314e-05,-5.0764125683314e-05,3756975.5297938,0.016432599092834
17219200,0.98070125710491,0.016551646924102,0.0052839364592439,0.0069330874515082,0.0043346230133501,-0.0012251787898467,0.001225177925689,3.5434010098586e-09,-4.408715353686e-09,5.2693960341822e-09,-6.3289504832601e-09,-0.0013753131406455,0.0013753187997693,-0.0013753157526125,0.001375316109744,-0.0013753168835407,0.0013753148975647,-0.0013753195195572,0.0013753122477099,-0.0011410917034483,0.0011410947214111,-0.0011410994143858,0.001141086897226,-4.6083702627459e-09,7.2639708860874e-09,-1.0512651371305e-08,1.2947908003887e-08,-0.0017675641865153,0.0017675666611049,-0.0019308847291907,0.0019308754630047,-0.0019308769773328,0.0019308832561763,-0.0019308808416481,0.0019308793978225,-0.00193087307428,0.0019308871999473,-0.0015208542463267,0.0015208376088753,-0.0015208315006523,0.0015208609155664,-0.0016237051289097,0.0016237037781149,-0.0016236935408232,0.0016237156441314,-4.1747645620197e-09,3.7550178158954e-09,-0.00092831817009378,0.00092831766466758,1.0974958540432e-08,-1.1850887929431e-08,-0.0010737781352102,0.0010737826776335,-0.0010737857718581,0.0010737750887679,-0.0010737754736046,0.0010737853041793,-0.0010737831070572,0.0010737777217141,-0.00097058188387175,0.00097058157885787,-0.00097058968710903,0.00097057384312712,0.67475987041689,128566,2924,0.0050919961980374,0.0073358751870284,0.003864411525592,22.994877879699,-5.6040976962407e-05,-5.6040976962407e-05,-5.6040976962407e-05,3737344.0335556,0.016426868177699
17419200,0.98126584239723,0.016560258690163,0.0052866651639207,0.0069367975850794,0.0043367959411634,-0.0012238523832864,0.0012238515211143,3.5754128485587e-09,-4.4383953314083e-09,5.2456466419304e-09,-6.3045105336484e-09,-0.0013741455330359,0.00137415119149,-0.0013741481571292,0.0013741484863565,-0.0013741492499809,0.0013741473106276,-0.0013741519168195,0.0013741446361675,-0.0011398352639996,0.0011398383836736,-0.0011398430617575,0.001139830479308,-4.5013828071392e-09,7.145714150573e-09,-1.0469413190849e-08,1.2894666305384e-08,-0.0017666888291528,0.001766691293867,-0.0019300186868186,0.0019300095136053,-0.0019300109629167,0.0019300172807896,-0.0019300148661787,0.0019300133796573,-0.0019300071411681,0.001930021140275,-0.0015199014491996,0.0015198848454599,-0.0015198788206392,0.0015199080324883,-0.0016227453361786,0.0016227441869072,-0.0016227339940118,0.001622755810725,-4.2594621296793e-09,3.8291006638504e-09,-0.00092692946966803,0.00092692895355171,1.1085032487955e-08,-1.1971055225906e-08,-0.0010725706061518,0.0010725751524541,-0.0010725783099066,0.0010725674956562,-0.0010725678844643,0.0010725778373349,-0.0010725755991216,0.0010725701735221,-0.00096921525466975,0.00096921499462985,-0.00096922319529146,0.00096920712600097,0.64747797936454,128566,2924,0.0050864989082303,0.0073322481878542,0.0038586554895418,21.991907921711,-6.4064736626315e-05,-6.4064736626315e-05,-6.4064736626315e-05,3717756.6703597,0.016411745947686
17619200,0.98178151834736,0.016567829631988,0.0052890602908419,0.0069400777949189,0.004338691546227,-0.0012224480847744,0.0012224472209556,3.5966489543065e-09,-4.461327268615e-09,5.254220468278e-09,-6.3145946662322e-09,-0.0013728329727346,0.0013728386389936,-0.0013728356012009,0.0013728359300309,-0.0013728366847008,0.0013728347644003,-0.0013728393766659,0.0013728320622472,-0.0011384553305253,0.0011384585195808,-0.0011384632020198,0.0011384505366816,-4.4102227494282e-09,7.0448300039262e-09,-1.040261527742e-08,1.2819058532091e-08,-0.0017656106906848,0.0017656131466228,-0.0019289863313143,0.0019289772436478,-0.0019289786390925,0.0019289849777697,-0.001928982561095,0.0019289810577059,-0.0019289748893599,0.0019289887637366,-0.0015187420703273,0.0015187255681056,-0.0015187196144743,0.0015187485808706,-0.0016215787292196,0.0016215777478904,-0.0016215676092722,0.0016215891469868,-4.3550650235011e-09,3.9098409002787e-09,-0.00092549640940224,0.00092549587838941,1.1200625536843e-08,-1.2103554315482e-08,-0.0010712153727604,0.001071219916141,-0.0010712231464375,0.0010712121895501,-0.0010712125814646,0.0010712226707666,-0.0010712203880787,0.0010712149142038,-0.00096777546876761,0.00096777525155659,-0.00096778355063499,0.00096776724570925,0.623902335205,128566,2924,0.0050806781978029,0.0073277856300761,0.0038527108228445,20.980524893368,-7.2155800853055e-05,-7.2155800853055e-05,-7.2155800853055e-05,3703458.9777719,0.016395252879505
17819200,0.98225372601784,0.016574527535036,0.0052911763240746,0.0069429940729469,0.004340357138015,-0.0012210372324238,0.0012210363740891,3.6686001870619e-09,-4.5276729467106e-09,5.2153420362815e-09,-6.2703303237716e-09,-0.001371462080385,0.0013714677749545,-0.0013714647589403,0.0013714650170743,-0.0013714657695644,0.001371463924217,-0.0013714685039913,0.0013714611792726,-0.0011370277919175,0.0011370311396361,-0.0011370357897874,0.0011370230344943,-4.42483256952e-09,7.0599645273416e-09,-1.0466227725045e-08,1.2883108715519e-08,-0.0017644211154677,0.0017644235717576,-0.0019278730618417,0.0019278639240414,-0.0019278653299249,0.0019278716990096,-0.001927869285524,0.0019278677447004,-0.0019278615662403,0.0019278754992063,-0.0015174688414256,0.0015174522113812,-0.0015174462475476,0.0015174753618456,-0.001620297753015,0.0016202967756011,-0.0016202865950379,0.0016203082170482,-4.3942287534235e-09,3.9529555733848e-09,-0.0009240823006539,0.00092408177366535,1.1171987301574e-08,-1.2069900622159e-08,-0.0010697991007617,0.0010698036040026,-0.0010698068582479,0.0010697958938578,-0.0010697962852612,0.0010698063831418,-0.0010698040690367,0.0010697986494796,-0.00096633279612102,0.00096633269164703,-0.00096634096866268,0.00096632459684196,0.60341628334108,128566,2924,0.0050748299186012,0.0073228648164197,0.0038468411646606,19.99081189803,-8.0073504815759e-05,-8.0073504815759e-05,-8.0073504815759e-05,3693758.7569886,0.016378341538873
18019200,0.98268710472543,0.016580667907077,0.0052931165831479,0.006945663874962,0.0043418874489667,-0.0012196313711362,0.0012196305126298,3.7325561938675e-09,-4.5916854312114e-09,5.2137864181685e-09,-6.2695211521383e-09,-0.001370051674304,0.0013700574153583,-0.0013700543997279,0.0013700546104718,-0.0013700553673848,0.0013700535604197,-0.0013700581398535,0.0013700507779381,-0.0011355743752196,0.0011355778349909,-0.0011355824851184,0.0011355696190773,-4.4425297604712e-09,7.0783285420395e-09,-1.0493079253337e-08,1.2910474784387e-08,-0.0017631442410463,0.0017631466978132,-0.0019266954314513,0.0019266862704148,-0.0019266876875282,0.0019266940577204,-0.0019266916484226,0.0019266900982212,-0.0019266839079384,0.0019266978741157,-0.0015161090849208,0.0015160924002104,-0.0015160864236439,0.0015161156170589,-0.001618933945722,0.001618932936863,-0.0016189227395063,0.0016189444296791,-4.4396024802854e-09,4.0000248099758e-09,-0.00092269475253114,0.00092269422733157,1.1160409433506e-08,-1.2055993136305e-08,-0.0010683438763977,0.001068348346941,-0.0010683516306707,0.0010683406400333,-0.0010683410343979,0.0010683511526398,-0.0010683488057773,0.0010683434313799,-0.0009649042016016,0.00096490421166321,-0.00096491247856469,0.00096489601220153,0.60265703346333,128566,2924,0.0050690020004603,0.0073175851147337,0.0038410787745672,19.019411729066,-8.784470616747e-05,-8.784470616747e-05,-8.784470616747e-05,3687519.6752722,0.016361194528223
18219200,0.98308526671223,0.016586414583603,0.0052949344376004,0.0069481504074432,0.0043433297385594,-0.0012182095942728,0.0012182087326618,3.7822609703692e-09,-4.6445563313257e-09,5.2341209794469e-09,-6.2927166634725e-09,-0.001368617215591,0.00136862299888,-0.00136861997201,0.0013686201628435,-0.0013686209197898,0.0013686191326438,-0.0013686237296984,0.0013686163127798,-0.0011341069723887,0.001134110524187,-0.0011341151918459,0.0011341021981264,-4.4596624049042e-09,7.0963168319213e-09,-1.0487611618488e-08,1.2905645509506e-08,-0.0017618109074377,0.0017618133649167,-0.0019254530776382,0.0019254439057397,-0.0019254453338709,0.0019254516930901,-0.0019254492797856,0.0019254477483791,-0.0019254415457618,0.0019254555179377,-0.0015147056780607,0.0015146890254345,-0.0015146830375326,0.0015147122234998,-0.0016175260364901,0.001617525000145,-0.001617514804427,0.0016175365165097,-4.4988250726255e-09,4.0586487353971e-09,-0.00092130226306635,0.00092130173711947,1.1166266682777e-08,-1.2063145372554e-08,-0.0010668790851709,0.0010668835168578,-0.001066886840407,0.0010668758089632,-0.0010668762006364,0.0010668863649244,-0.0010668839793927,0.0010668786363209,-0.00096346881822362,0.00096346892960413,-0.00096347720111173,0.00096346062400679,0.61338751184085,128566,2924,0.0050631081441411,0.0073120722695617,0.0038352953139147,18.04845926178,-9.5612325905759e-05,-9.5612325905759e-05,-9.5612325905759e-05,3680729.1316441,0.016343722332267
18419200,0.98346069253111,0.016591870284173,0.0052966613340675,0.0069505049857722,0.0043447039643335,-0.0012175167374696,0.0012175158667288,3.8233405363431e-09,-4.6944501606141e-09,5.2950301185344e-09,-6.3637108296494e-09,-0.001367943128991,0.0013679489748458,-0.0013679459136657,0.0013679461110435,-0.0013679468751807,0.0013679450682339,-0.0013679497162093,0.0013679422139975,-0.0011333921347915,0.001133395729486,-0.0011334004470527,0.0011333873052691,-4.5114481730022e-09,7.1528016598192e-09,-1.044840779202e-08,1.2870608687916e-08,-0.0017612582159601,0.0017612606774133,-0.0019249665301006,0.0019249573483811,-0.0019249588075292,0.0019249651117095,-0.001924962694264,0.0019249612298214,-0.001924954986638,0.0019249689710541,-0.0015140845058004,0.0015140679721974,-0.0015140619440447,0.0015140910892044,-0.0016169070709838,0.0016169059126316,-0.0016168957403073,0.0016169175303251,-4.5642269172801e-09,4.122928464916e-09,-0.00092060489966328,0.00092060437321826,1.1157056944863e-08,-1.2054552303144e-08,-0.0010661694010288,0.0010661737816093,-0.0010661771485912,0.0010661660815122,-0.0010661664711336,0.0010661766753508,-0.0010661742469212,0.001066168949805,-0.00096275667466522,0.00096275691221409,-0.00096276517723355,0.00096274848665589,0.61738403085471,128566,2924,0.0050602361320113,0.0073097864676238,0.0038324001733403,17.475733033015,-0.00010019413573588,-0.00010019413573588,-0.00010019413573588,3676531.920325,0.016335537636529
18619200,0.98382228564606,0.016597075789919,0.0052983087052173,0.0069527534749381,0.0043460136097636,-0.0012174225678649,0.0012174216876079,3.8785549638009e-09,-4.7591723434405e-09,5.3555564541398e-09,-6.4347252663836e-09,-0.0013678918044376,0.001367897726877,-0.0013678946310769,0.0013678948210221,-0.0013678955956352,0.0013678937734011,-0.0013678984757902,0.00136789088292,-0.0011332870571755,0.0011332907105251,-0.0011332954832821,0.0011332821772733,-4.5804427052666e-09,7.2279573131009e-09,-1.041823325889e-08,1.2845804647839e-08,-0.0017613456197353,0.0017613480868394,-0.001925111726654,0.0019251025232014,-0.0019251040248316,0.0019251102673392,-0.001925107845847,0.0019251064504773,-0.0019251001541695,0.0019251141766114,-0.0015140971381251,0.0015140807060482,-0.0015140746239996,0.0015141037755587,-0.0016169277061847,0.0016169263883013,-0.0016169162278675,0.0016169381550637,-4.6112415283248e-09,4.1766872110074e-09,-0.0009204783503818,0.00092047783028144,1.1118265126868e-08,-1.2008496449829e-08,-0.0010660708859414,0.0010660752123824,-0.0010660786070254,0.0010660675385407,-0.0010660679242149,0.0010660781372456,-0.0010660756692693,0.0010660704424455,-0.00096263342315215,0.00096263379961513,-0.00096264203181642,0.00096262526919858,0.6117864006707,128566,2924,0.0050598459668518,0.0073101469967006,0.0038318764712161,17.230767146646,-0.00010215386282683,-0.00010215386282683,-0.00010215386282683,3675668.4671134,0.016334975713891
18819200,0.98417083655843,0.016602413414891,0.0053000023213685,0.0069550329494369,0.0043473781440859,-0.0012173493483335,0.0012173484624235,3.9392085506989e-09,-4.8253622875629e-09,5.3918589606783e-09,-6.4773883707021e-09,-0.0013678505957533,0.001367856583585,-0.0013678534670056,0.0013678536332646,-0.0013678544155666,0.0013678526012269,-0.0013678573354903,0.0013678496712675,-0.0011332024127451,0.0011332061510275,-0.0011332109559483,0.0011331975016947,-4.6283684457563e-09,7.2804968318193e-09,-1.0400597064017e-08,1.2832229653898e-08,-0.0017614301726288,0.001761432643838,-0.0019252584296079,0.0019252492101675,-0.0019252507408546,0.0019252569411242,-0.001925254518554,0.0019252531685202,-0.0019252468349062,0.0019252608863163,-0.0015141086806387,0.0015140923088768,-0.0015140861890694,0.0015141153550527,-0.001616954898846,0.0016169534683016,-0.0016169433147135,0.0016169653427137,-4.6556793263027e-09,4.2261159026024e-09,-0.00092037633572404,0.00092037582066534,1.1077891701807e-08,-1.1962418024502e-08,-0.001065982348191,0.0010659866220805,-0.0010659900433244,0.0010659789741561,-0.0010659793573284,0.001065989575927,-0.0010659870715967,0.0010659819119986,-0.00096253877213029,0.00096253928115277,-0.00096254748004918,0.00096253065165853,0.6492293687637,128566,2924,0.0050595425682791,0.0073104961760331,0.0038314541283967,16.993810664764,-0.00010404951468189,-0.00010404951468189,-0.00010404951468189,3675507.4328451,0.016334593154067
19019200,0.98450691866621,0.016607872227826,0.0053017384034241,0.0069573415343755,0.004348792290026,-0.0012172895291656,0.0012172886391646,3.9924773410945e-09,-4.8827314816909e-09,5.4184833746516e-09,-6.5087495262874e-09,-0.0013678829893597,0.0013678890297634,-0.0013678858978601,0.001367886042233,-0.0013678868286085,0.0013678850277775,-0.0013678897850673,0.0013678820613838,-0.0011331863839984,0.001133190206435,-0.0011331950345034,0.0011331814491546,-4.6560254477951e-09,7.3107654840151e-09,-1.0373967119543e-08,1.2807903390108e-08,-0.0017616080481226,0.0017616105216387,-0.0019254364888801,0.0019254272696985,-0.0019254288171108,0.0019254349832812,-0.0019254325592151,0.0019254312471432,-0.0019254248918709,0.0019254389482337,-0.0015142443388545,0.0015142280375344,-0.0015142218955618,0.0015142510341071,-0.0016170968660177,0.001617095362778,-0.0016170852246067,0.0016171072962902,-4.7094331179848e-09,4.2824795428688e-09,-0.00092026892415659,0.00092026841176921,1.1055619438003e-08,-1.1937010371237e-08,-0.0010659932239721,0.0010659974481368,-0.0010660009035502,0.0010659898157458,-0.0010659901966629,0.0010660004383311,-0.0010659978947102,0.001065992790616,-0.00096246095766562,0.00096246159407531,-0.00096246977436552,0.00096245285543237,0.68719100991649,128566,2924,0.0050592954143302,0.0073112284095592,0.0038310132174044,16.757156001384,-0.00010594275198893,-0.00010594275198893,-0.00010594275198893,3668372.1421337,0.016334639539616
19219200,0.98484148954859,0.01661346739941,0.0053035197929928,0.0069596973915289,0.0043502502148884,-0.0012181644518664,0.0012181635583373,4.0498129503472e-09,-4.9428776488736e-09,5.4442983875574e-09,-6.5393601135079e-09,-0.0013689285913748,0.0013689346871443,-0.0013689315401037,0.0013689316597217,-0.0013689324501714,0.0013689306654033,-0.001368935445107,0.0013689276610933,-0.0011341696427463,0.0011341735571163,-0.0011341784074186,0.0011341646891114,-4.6960664512758e-09,7.3544378696773e-09,-1.0355562502968e-08,1.279279795151e-08,-0.0017628762492115,0.0017628787260185,-0.0019266485315762,0.001926639300056,-0.0019266408716676,0.0019266470012975,-0.0019266445754811,0.0019266433046073,-0.0019266369181478,0.0019266509951575,-0.0015154770446188,0.0015154608047106,-0.0015154546290441,0.0015154837684517,-0.0016183391245287,0.0016183375283575,-0.0016183274007417,0.0016183495499554,-4.7588570631319e-09,4.3363563988061e-09,-0.00092103242566817,0.00092103191834332,1.1016347758961e-08,-1.1890927198806e-08,-0.0010670076325805,0.0010670117996098,-0.0010670152847927,0.0010670041945847,-0.0010670045715942,0.001067014823186,-0.0010670122404784,0.0010670072047375,-0.00096330376203427,0.0009633045341779,-0.00096331268412569,0.00096329569329432,0.70677987850768,128566,2924,0.005062923635565,0.0073164660773039,0.0038341937253386,17.02234822571,-0.00010382121419432,-0.00010382121419432,-0.00010382121419432,3661837.5483652,0.01634688597821
19419200,0.98517970711516,0.016619006902317,0.0053052817311931,0.006962039410362,0.0043516857607624,-0.0012194896090431,0.0012194887217655,4.1202866227668e-09,-5.0073402490097e-09,5.4106918250898e-09,-6.4984059045721e-09,-0.0013704690341991,0.0013704751602429,-0.0013704720314548,0.0013704720835179,-0.0013704728713184,0.0013704711586739,-0.0013704759084893,0.0013704681139871,-0.0011356342302489,0.0011356382960292,-0.0011356431174516,0.0011356293083054,-4.7595620365292e-09,7.4245432808874e-09,-1.043888952262e-08,1.2882060396956e-08,-0.0017646897066467,0.0017646921891419,-0.0019283884725832,0.0019283791491545,-0.0019283807607284,0.0019283869041081,-0.0019283844767939,0.0019283831946113,-0.0019283767597489,0.0019283909461488,-0.0015172481216296,0.0015172317524639,-0.0015172255291976,0.0015172549002653,-0.0016201188370414,0.00162011716419,-0.0016201069712457,0.0016201293287449,-4.7942298290218e-09,4.3867323430127e-09,-0.00092221115028656,0.0009222106577029,1.0897657303138e-08,-1.1756076308052e-08,-0.001068504446811,0.0010685085192692,-0.0010685120182484,0.00106850099432,-0.0010685013612838,0.0010685115674077,-0.0010685089421624,0.0010685040371805,-0.00096458297636791,0.00096458394464884,-0.00096459199205161,0.00096457500603245,0.69264757977275,128566,2924,0.0050684183326749,0.0073239565201868,0.0038391012416848,17.538817517512,-9.9689459859903e-05,-9.9689459859903e-05,-9.9689459859903e-05,3657043.8228007,0.016365075460207
19619200,0.98552144486438,0.01662446838114,0.0053070166508517,0.0069643594962706,0.0043530922340181,-0.0012208014776256,0.0012208005769134,4.1367833447297e-09,-5.0374005143984e-09,5.4953592327425e-09,-6.5974107388659e-09,-0.0013719751905448,0.0013719813691,-0.0013719781925569,0.0013719782861909,-0.0013719790781958,0.001371977317264,-0.0013719821394839,0.0013719742462367,-0.0011370674609068,0.0011370715251018,-0.0011370764169563,0.0011370624558002,-4.6457930149771e-09,7.2988962009077e-09,-1.021905599656e-08,1.2651431286753e-08,-0.0017664739950121,0.0017664764669853,-0.0019301313125295,0.0019301222017479,-0.0019301237407691,0.0019301298120539,-0.0019301273853679,0.0019301261760605,-0.0019301198293912,0.0019301337629636,-0.0015189660820675,0.0015189500962122,-0.0015189439607331,0.0015189727650896,-0.0016218561552031,0.0016218545822562,-0.0016218445512022,0.0016218664779864,-4.8946141714961e-09,4.4606741972474e-09,-0.00092338168465747,0.0009233811654541,1.1097597774212e-08,-1.1986106586296e-08,-0.0010699506518199,0.0010699547728348,-0.0010699583558321,0.0010699471154973,-0.0010699474982056,0.0010699578883455,-0.0010699552308186,0.0010699502062415,-0.00096584946038771,0.00096585040157137,-0.00096585861815618,0.00096584132152468,0.67638953789669,128566,2924,0.0050738574133399,0.0073313269340314,0.0038439738659646,18.061491124723,-9.5508071002219e-05,-9.5508071002219e-05,-9.5508071002219e-05,3655938.4455417,0.016383050720198
19819200,0.98586643084223,0.016629825330258,0.0053087158259768,0.0069666476428321,0.0043544618614488,-0.0012220967222693,0.0012220958352076,4.2209239770963e-09,-5.108025380005e-09,5.409576522202e-09,-6.496725723724e-09,-0.0013734371150536,0.0013734433049448,-0.0013734401776292,0.0013734401645054,-0.0013734409499447,0.0013734393079292,-0.0013734440555557,0.0013734361924621,-0.0011384569543388,0.0011384612258532,-0.0011384660441214,0.0011384520320101,-4.682866857279e-09,7.3396383001469e-09,-1.0360589354872e-08,1.2796292010063e-08,-0.001768210824515,0.0017682132998256,-0.0019318588756936,0.0019318496474711,-0.0019318512120238,0.0019318573526499,-0.0019318549294057,0.001931853641921,-0.001931847265769,0.0019318613390251,-0.0015206182436063,0.0015206019796783,-0.0015205958164188,0.0015206249590408,-0.0016235326336562,0.0016235310633027,-0.0016235209307756,0.0016235430594183,-4.9191153556709e-09,4.5020878659062e-09,-0.00092454160356144,0.00092454110135016,1.0968226374919e-08,-1.1837826939582e-08,-0.0010713376240896,0.0010713416552628,-0.0010713452439315,0.0010713340826115,-0.0010713344560977,0.0010713447861413,-0.0010713420898725,0.0010713372027308,-0.00096709675613355,0.00096709788994757,-0.00096710600000629,0.00096708872583644,0.65786894800048,128566,2924,0.0050792271985274,0.0073385022765984,0.0038488009417132,18.584398964193,-9.1324808286454e-05,-9.1324808286454e-05,-9.1324808286454e-05,3658199.9003533,0.016400710618385
20019200,0.98620510962309,0.016635272016682,0.0053104452717734,0.0069689613318273,0.0043558654130815,-0.0012225824411412,0.0012225815576408,4.2524175441255e-09,-5.136517308193e-09,5.3881886501898e-09,-6.4701114337723e-09,-0.0013740349026934,0.0013740410917504,-0.0013740379766129,0.0013740379379289,-0.0013740387136791,0.0013740371187929,-0.0013740418460124,0.0013740339747494,-0.001139002618252,0.0011390069872923,-0.0011390117846724,0.0011389977075286,-4.5694339739287e-09,7.2153845340142e-09,-1.0288065880591e-08,1.2714072184469e-08,-0.0017690293367816,0.0017690318022982,-0.0019326992206442,0.0019326901089828,-0.0019326916025659,0.0019326977660869,-0.0019326953449719,0.0019326940308396,-0.001932687743254,0.0019327016643823,-0.0015213550260389,0.0015213388502044,-0.0015213327786463,0.0015213616538354,-0.0016242939372534,0.0016242925604866,-0.0016242824870782,0.0016243042942243,-5.0075684589672e-09,4.5744010126229e-09,-0.00092494083642565,0.0009249403176038,1.1092603042297e-08,-1.1981851070039e-08,-0.0010718726996635,0.0010718767426393,-0.0010718804006341,0.0010718690887993,-0.001071869470876,0.0010718799345809,-0.0010718772008427,0.0010718722550156,-0.00096755224665233,0.00096755341391845,-0.00096756162405675,0.00096754411211671,0.68048383930681,128566,2924,0.005081240868709,0.0073418822622525,0.0038504661441608,18.671593953457,-9.0627248372347e-05,-9.0627248372347e-05,-9.0627248372347e-05,3658021.468106,0.01640788689001
20219200,0.98653507377903,0.016640728653393,0.0053121794307408,0.0069712692613239,0.0043572799613283,-0.0012228488205383,0.0012228479368501,4.2494508398629e-09,-5.1336382139219e-09,5.3857909654006e-09,-6.4679286756305e-09,-0.0013744326737837,0.0013744388368887,-0.001374435723226,0.001374435705313,-0.0013744364600443,0.0013744348873597,-0.0013744396102751,0.0013744317195208,-0.0011393517146007,0.0011393561437393,-0.0011393609324286,0.0011393467992366,-4.4404564962786e-09,7.0735468822335e-09,-1.0157110067083e-08,1.2571425194825e-08,-0.0017696446966955,0.0017696471493866,-0.0019333034268891,0.0019332944521707,-0.0019332958706348,0.0019333020411762,-0.001933299615877,0.0019332983058298,-0.0019332921202742,0.0019333058287799,-0.0015219108867538,0.001521894941943,-0.0015218889603462,0.001521917407142,-0.0016248648037476,0.0016248636663355,-0.0016248536930911,0.0016248750722542,-5.1356609538662e-09,4.6728720998372e-09,-0.00092512324924345,0.00092512270171639,1.1279177633719e-08,-1.2201427789312e-08,-0.0010722286183135,0.0010722326707401,-0.001072236430362,0.001072224903502,-0.0010722252921084,0.0010722359599556,-0.0010722331768682,0.001072228121638,-0.00096779284899198,0.00096779400772991,-0.00096780238628907,0.00096778455282996,0.6990865979042,128566,2924,0.0050823457208801,0.0073444211392343,0.0038512322208065,18.638389963369,-9.0892880293051e-05,-9.0892880293051e-05,-9.0892880293051e-05,3652693.6051406,0.016412371136155
20419200,0.98685649902341,0.01664605130532,0.0053138708389952,0.0069735206015001,0.0043586598648246,-0.00122309792789,0.001223097062646,4.3777449549996e-09,-5.2435973414577e-09,5.2629749292322e-09,-6.3254774415944e-09,-0.0013748363594514,0.0013748425564114,-0.0013748395141799,0.0013748393259016,-0.0013748400844793,0.0013748386730077,-0.0013748432926089,0.0013748354507896,-0.0011397036071152,0.0011397083089887,-0.0011397129990593,0.0011396988130281,-4.4736466463423e-09,7.1093389795154e-09,-1.038608282824e-08,1.2802915542483e-08,-0.0017702765990671,0.0017702790553659,-0.0019339007119066,0.0019338915864366,-0.0019338930254466,0.0019338993137015,-0.0019338969024137,0.0019338954404341,-0.0019338892274916,0.0019339031485591,-0.0015224948212015,0.0015224783784462,-0.0015224723799754,0.0015225013719184,-0.0016254570649607,0.0016254559418022,-0.0016254458121954,0.0016254674815065,-5.1136052141833e-09,4.6770984761572e-09,-0.00092528343035228,0.00092528290866436,1.1121262661824e-08,-1.2013246519795e-08,-0.0010726017314454,0.00107260572289,-0.0010726094537726,0.0010725980480591,-0.0010725984335578,0.0010726089846886,-0.0010726061833149,0.0010726012839334,-0.00096801671179621,0.00096801805481926,-0.00096802629640304,0.0009680085540701,0.69998401010341,128566,2924,0.0050833792423262,0.0073470272758744,0.003851907672935,18.602149686366,-9.1182802509074e-05,-9.1182802509074e-05,-9.1182802509074e-05,3644958.274344,0.016416759685749
20619200,0.98716961743145,0.016650707540505,0.0053153437224178,0.0069755273003381,0.0043598365177486,-0.0012233049480214,0.0012233040853248,4.4243493182977e-09,-5.2876809056792e-09,5.2444855956275e-09,-6.3040270678886e-09,-0.0013751998035906,0.0013752060159083,-0.0013752029831701,0.0013752027577851,-0.0013752035107744,0.0013752021481955,-0.0013752067529352,0.0013751988934763,-0.0011400021070295,0.0011400069227603,-0.0011400115981806,0.0011399973245816,-4.4268554619573e-09,7.0576038567526e-09,-1.0380906332673e-08,1.2793346386344e-08,-0.0017708655904657,0.0017708680423092,-0.0019344636810353,0.0019344545930877,-0.0019344560018216,0.0019344623126087,-0.0019344599008493,0.0019344584166727,-0.0019344522426096,0.0019344661083434,-0.0015230282045578,0.0015230117517405,-0.001523005791416,0.0015230347182443,-0.0016259896093118,0.0016259885808657,-0.0016259784619815,0.0016260000118086,-5.1815828201097e-09,4.7390342395603e-09,-0.00092540519774303,0.00092540466972199,1.1174823080267e-08,-1.2073980079597e-08,-0.0010729331877534,0.0010729371650193,-0.0010729409451531,0.0010729294546387,-0.0010729298431062,0.0010729404731237,-0.0010729376346273,0.0010729327309769,-0.00096818854193892,0.00096818996262819,-0.00096819824448659,0.00096818033966635,0.63099124929784,128566,2924,0.0050842381451936,0.0073494559605735,0.0038524234307985,18.565794364206,-9.147364508635e-05,-9.147364508635e-05,-9.147364508635e-05,3638185.720668,0.016420628284311
20819200,0.98746006503247,0.016655350912054,0.0053168167856785,0.006977502106255,0.0043610320201203,-0.0012220375206215,0.0012220366663723,4.4795772552765e-09,-5.3350736751545e-09,5.1899189977467e-09,-6.2390797359262e-09,-0.0013739315375242,0.0013739377562674,-0.0013739347554826,0.0013739344600536,-0.0013739352096085,0.0013739339256817,-0.0013739384811099,0.0013739306387976,-0.0011387246481011,0.0011387295995326,-0.0011387342251183,0.001138719909418,-4.3679617575901e-09,6.9929612860682e-09,-1.0420670147209e-08,1.282795440021e-08,-0.0017696919856509,0.0017696944321165,-0.0019333635709849,0.0019333544966377,-0.0019333558702828,0.0019333622373732,-0.001933359834678,0.0019333582755031,-0.0019333521472949,0.001933365996066,-0.0015217919299141,0.0015217753462294,-0.001521769436253,0.001521798400451,-0.0016247634803937,0.0016247625815502,-0.0016247524414,0.0016247738988895,-5.2440068537436e-09,4.7962506703095e-09,-0.00092416307135058,0.00092416253781075,1.1212811260695e-08,-1.2119370444254e-08,-0.0010716422192653,0.001071646183358,-0.0010716500082805,0.0010716384415484,-0.0010716388389288,0.0010716495277839,-0.0010716466546856,0.0010716417616634,-0.00096692813019216,0.00096692964767576,-0.0009669379587162,0.00096691989576568,0.67642718207832,128566,2924,0.005078983894648,0.0073446024320974,0.0038472665776592,17.742618454838,-9.8059052361299e-05,-9.8059052361299e-05,-9.8059052361299e-05,3632218.1769667,0.016405112159127
21019200,0.98772823087452,0.016659504104773,0.0053181328404389,0.0069792769908943,0.0043620942734398,-0.0012206009804572,0.0012206001307432,4.5251444376201e-09,-5.3761693822898e-09,5.1553961390507e-09,-6.2000565169999e-09,-0.0013725472029543,0.0013725534398331,-0.0013725504581459,0.0013725501065308,-0.001372550859497,0.0013725496245568,-0.0013725541532175,0.0013725463188438,-0.0011373189091826,0.0011373239507886,-0.0011373285521718,0.0011373142047272,-4.3553908784454e-09,6.9800481454381e-09,-1.0473039605653e-08,1.2880390749786e-08,-0.00176839805384,0.001768400500426,-0.001932072526232,0.001932063435377,-0.001932064800456,0.0019320712043523,-0.0019320688076639,0.0019320671973662,-0.0019320610780463,0.0019320749622616,-0.0015204791816351,0.0015204624612554,-0.0015204565670193,0.0015204856485266,-0.0016234315021703,0.0016234306359797,-0.001623420461488,0.0016234419531275,-5.3097499427068e-09,4.8661719190492e-09,-0.00092274624996137,0.0009227457200718,1.1212474340753e-08,-1.2113631523521e-08,-0.0010702741804602,0.0010702781085648,-0.0010702819762611,0.0010702703609709,-0.0010702707635314,0.0010702814898257,-0.0010702785694001,0.0010702737347384,-0.00096549443937671,0.00096549611783604,-0.00096550442630142,0.00096548620921455,0.6560166562673,128566,2924,0.0050730295255364,0.0073392490953394,0.0038413868784462,16.832004748474,-0.00010534396201221,-0.00010534396201221,-0.00010534396201221,3617725.0492227,0.016387643470664
21219200,0.98797599449166,0.016663364436761,0.0053193566906809,0.0069809230921394,0.0043630846539407,-0.0012191404874329,0.0012191396377044,4.5850245378388e-09,-5.435763294534e-09,5.1524488342065e-09,-6.1973880965771e-09,-0.0013710954681936,0.001371101746466,-0.0013710987668409,0.0013710983694071,-0.0013710991258262,0.0013710979288561,-0.0013711024555868,0.001371094586937,-0.001135859625109,0.0011358647763268,-0.0011358693739629,0.0011358549213813,-4.3693967629282e-09,6.993333443052e-09,-1.0505342863634e-08,1.2911643737264e-08,-0.0017670059115327,0.0017670083571446,-0.0019307101078346,0.0019307009897111,-0.0019307023652205,0.0019307087747964,-0.0019307063832739,0.0019307047567969,-0.0019306986302467,0.0019307125454083,-0.0015190630401756,0.0015190462555402,-0.0015190403452491,0.0015190695108275,-0.0016220037072757,0.0016220028256308,-0.001621992631719,0.0016220141827244,-5.3613660157756e-09,4.91722961362e-09,-0.00092132491420395,0.00092132438424776,1.120154982693e-08,-1.2103272735602e-08,-0.0010688341665014,0.0010688380577316,-0.0010688419588946,0.001068830312603,-0.0010688307187783,0.0010688414693771,-0.0010688385135113,0.0010688337242535,-0.00096404682502273,0.00096404862228984,-0.00096405692384034,0.00096403860183453,0.65967102640501,128566,2924,0.005066975430929,0.007333491457841,0.0038354858863279,15.919033092333,-0.00011264773526134,-0.00011264773526134,-0.00011264773526134,3606672.538487,0.01636964017255
21419200,0.98820839288963,0.016667009050921,0.0053205127554699,0.0069824738693684,0.0043640224260823,-0.0012180889402705,0.0012180880835734,4.6748835743761e-09,-5.5323152352896e-09,5.1959790672554e-09,-6.2490740494891e-09,-0.0013700614316389,0.0013700677826611,-0.0013700647781093,0.0013700643578071,-0.0013700651066297,0.0013700639470243,-0.0013700685123707,0.0013700605298679,-0.001134815157759,0.0011348204957659,-0.0011348251319791,0.0011348104168258,-4.4259769504423e-09,7.0548282796622e-09,-1.0499831045898e-08,1.2910451319927e-08,-0.0017660382053294,0.0017660406553533,-0.0019297633579878,0.0019297541936911,-0.0019297556038463,0.0019297619904619,-0.0019297595810643,0.0019297580142399,-0.001929751844295,0.0019297657866139,-0.0015180718184668,0.0015180551254949,-0.0015180491699361,0.0015180783310474,-0.0016210034322344,0.0016210024782396,-0.0016209922833038,0.0016210139113438,-5.3776706678562e-09,4.9368322375637e-09,-0.00092029615631063,0.00092029562982596,1.1176827204042e-08,-1.2074269598753e-08,-0.0010678068815006,0.0010678107317307,-0.0010678146419605,0.0010678030185237,-0.0010678034074326,0.0010678141696566,-0.0010678111980462,0.0010678064285338,-0.0009630036511065,0.00096300546270489,-0.00096301374404169,0.0009629954488578,0.66373454683438,128566,2924,0.0050626165888333,0.007329488753459,0.0038312154053651,15.230502142334,-0.00011815598286132,-0.00011815598286132,-0.00011815598286132,3597913.9600785,0.016356801234608
21619200,0.98842685389796,0.016670464800841,0.0053216094843082,0.0069839410848715,0.0043649142316617,-0.001217075145,0.0012170742796105,4.7544932002831e-09,-5.6202661999261e-09,5.2521169303778e-09,-6.3151337900564e-09,-0.00136907070878,0.0013690771330887,-0.0013690740969428,0.0013690736671703,-0.0013690744106137,0.0013690732715624,-0.0013690778844161,0.0013690697839546,-0.001133812560144,0.0011338180522657,-0.0011338227350882,0.0011338077681433,-4.482506410859e-09,7.1159164735775e-09,-1.0472321979987e-08,1.2886861623988e-08,-0.0017651055797919,0.0017651080337855,-0.0019288453417848,0.0019288361460775,-0.0019288375905733,0.0019288439380436,-0.0019288415126032,0.0019288400199078,-0.001928833806357,0.0019288477600867,-0.0015171211021532,0.0015171045436751,-0.0015170985420965,0.0015171276543246,-0.001620041769287,0.0016200407268292,-0.0016200305475572,0.0016200522357109,-5.4047695908997e-09,4.9645818381652e-09,-0.0009193056435003,0.00091930511816001,1.1157177758496e-08,-1.2053438226218e-08,-0.0010668282984015,0.0010668321043311,-0.0010668360320084,0.0010668244178301,-0.0010668247916754,0.00106683557507,-0.00106683258313,0.0010668278329172,-0.00096199950072835,0.00096200134046038,-0.00096200960651392,0.00096199131361408,0.66920856079393,128566,2924,0.0050584142860246,0.0073256309262249,0.0038271039102777,14.566163205424,-0.0001234706943566,-0.0001234706943566,-0.0001234706943566,3588959.3400162,0.016344430577535
21819200,0.98863234079581,0.016673668828879,0.0053226259128657,0.006985303873598,0.0043657390424157,-0.0012160505733309,0.0012160496996707,4.7743276703794e-09,-5.6484847321037e-09,5.3065382866222e-09,-6.3782194763614e-09,-0.0013680748878994,0.0013680813732554,-0.0013680783061145,0.001368077876795,-0.0013680786419956,0.0013680774583047,-0.0013680821190755,0.0013680739692586,-0.0011328036641953,0.0011328091123625,-0.0011328138438706,0.001132798826236,-4.5294152005336e-09,7.1680008426122e-09,-1.0435401900341e-08,1.2854618031125e-08,-0.0017641603461794,0.0017641628048644,-0.0019279067453497,0.0019278975578214,-0.0019278990308754,0.0019279053140054,-0.0019279028978121,0.0019279014506432,-0.0019278951996034,0.0019279091830568,-0.0015161639369609,0.0015161474430795,-0.0015161414067284,0.0015161705294362,-0.0016190698073541,0.0016190686089997,-0.0016190584465851,0.0016190802563551,-5.4903000265753e-09,5.0534268345106e-09,-0.00091830629813048,0.00091830577570704,1.1141968918086e-08,-1.2034962762014e-08,-0.001065851356523,0.001065855109347,-0.0010658590922459,0.0010658474207471,-0.0010658478057785,0.0010658586235447,-0.001065855571447,0.0010658509075269,-0.00096098543364594,0.00096098749981501,-0.00096099575225474,0.00096097726062373,0.65988855590742,128566,2924,0.0050541673773367,0.007321720713559,0.0038229559744904,13.902478872525,-0.0001287801690198,-0.0001287801690198,-0.0001287801690198,3579316.491028,0.016331924662935
22019200,0.98883750084819,0.01667681761175,0.0053236244084121,0.006986645556329,0.0043665476470086,-0.0012167161814883,0.0012167152950996,4.8184751014594e-09,-5.7051419696763e-09,5.3914289190032e-09,-6.4772500769269e-09,-0.0013687887859695,0.0013687953567547,-0.0013687922412614,0.0013687918235239,-0.0013687926038759,0.0013687913777056,-0.001368796111814,0.001368787857901,-0.0011334924798612,0.001133497946255,-0.0011335027512902,0.0011334875691353,-4.617482792482e-09,7.2646049008951e-09,-1.0380432864431e-08,1.2807181332931e-08,-0.0017649980144298,0.0017650004807511,-0.0019287610357685,0.0019287518311216,-0.0019287533574597,0.0019287595503976,-0.0019287571304839,0.0019287557829653,-0.0019287494627471,0.0019287634841184,-0.001516950642986,0.0015169343090112,-0.0015169282026857,0.001516957303147,-0.0016198707765484,0.0016198693605683,-0.00161985922584,0.0016198812012876,-5.5481690528027e-09,5.1170284704352e-09,-0.0009189198206995,0.00091891930416896,1.10930175094e-08,-1.1979230114743e-08,-0.0010665265412731,0.0010665302276819,-0.001066534245058,0.0010665225709928,-0.001066522953087,0.0010665337789475,-0.0010665306810789,0.0010665261008062,-0.000961634952507,0.00096163718653668,-0.00096164539888123,0.00096162682022718,0.64982379496752,128566,2924,0.0050569266995959,0.0073251829690998,0.0038255066996695,14.153376350325,-0.0001267729891974,-0.0001267729891974,-0.0001267729891974,3582925.7216705,0.016340840838691
22219200,0.98904352666596,0.016679955077068,0.0053246188760583,0.0069879843987454,0.004367351802264,-0.0012175602816646,0.0012175593881097,4.8666923748371e-09,-5.7603986340392e-09,5.4397596852484e-09,-6.533598220471e-09,-0.0013696810881058,0.0013696877219547,-0.0013696845788421,0.0013696841534675,-0.001369684941356,0.0013696837074252,-0.0013696884830699,0.0013696801537794,-0.0011343486382925,0.0011343541627996,-0.0011343590093932,0.0011343436860065,-4.6619058757991e-09,7.3134631813082e-09,-1.0331540615526e-08,1.2762196927703e-08,-0.0017660141892593,0.0017660166595528,-0.0019298142612621,0.0019298050613097,-0.0019298066141995,0.0019298127484958,-0.0019298103261332,0.0019298090436159,-0.0019298026882187,0.0019298167143068,-0.0015179003916701,0.0015178841822394,-0.0015178780402239,0.001517907085837,-0.0016208412903381,0.0016208397530337,-0.0016208296462556,0.0016208516889262,-5.6059205158476e-09,5.1780934626815e-09,-0.00091970389488644,0.00091970338175898,1.1063668625165e-08,-1.1945911995753e-08,-0.001067365310185,0.0010673689401938,-0.0010673729938176,0.0010673613036729,-0.0010673616832339,0.0010673725301088,-0.001067369389508,0.0010673648736946,-0.00096245407261195,0.00096245644941495,-0.00096246463776272,0.0009624459646632,0.64497435951604,128566,2924,0.0050604257480724,0.0073293837414153,0.0038287652260434,14.499767493891,-0.00012400186004887,-0.00012400186004887,-0.00012400186004887,3589551.7234076,0.016351978926217
22419200,0.98925035682097,0.016683238526675,0.0053256612350157,0.0069893759474996,0.0043682013441602,-0.0012184164780006,0.001218415583288,4.927280104328e-09,-5.8221084841609e-09,5.4487477845873e-09,-6.5438577945186e-09,-0.0013705802462001,0.001370586925536,-0.0013705837772639,0.0013705833169632,-0.0013705841053159,0.001370582905154,-0.001370587688379,0.0013705793103024,-0.0011352135128681,0.0011352191514718,-0.0011352240058941,0.0011352085534318,-4.6788464251005e-09,7.3322476035747e-09,-1.0317057217631e-08,1.2749337138561e-08,-0.0017670345756345,0.0017670370475747,-0.001930878447109,0.0019308692455001,-0.0019308708085083,0.0019308769241057,-0.0019308744997504,0.0019308732402787,-0.0019308668713281,0.0019308809012834,-0.0015188495821837,0.0015188334144896,-0.0015188272587499,0.0015188562895839,-0.0016218177763049,0.0016218161979616,-0.0016218060986397,0.0016218281676515,-5.6538677139833e-09,5.2301374153691e-09,-0.00092049903551155,0.00092049852651824,1.1028913751403e-08,-1.1906533069791e-08,-0.0010682065405539,0.001068210116222,-0.0010682141991405,0.0010682025046988,-0.0010682028796938,0.001068213739932,-0.0010682105620652,0.001068206107543,-0.00096328629012648,0.00096328879181251,-0.0009632969513766,0.00096327821081565,0.67139354633632,128566,2924,0.0050639748810503,0.0073336021775161,0.0038320694605137,14.848751849716,-0.00012120998520227,-0.00012120998520227,-0.00012120998520227,3596512.2666522,0.016363232286076
22619200,0.98945774895814,0.016686568120452,0.0053267185597161,0.0069907851504197,0.0043690644103158,-0.0012192592526493,0.0012192583603142,4.9818497766921e-09,-5.8744002337767e-09,5.4354473528622e-09,-6.5277991361584e-09,-0.0013715119934657,0.0013715187014963,-0.0013715155606352,0.0013715150567125,-0.0013715158433541,0.0013715146902914,-0.0013715194615444,0.0013715110604488,-0.0011360993652215,0.0011361051186198,-0.0011361099608783,0.001136094417247,-4.6626102797506e-09,7.3144784137053e-09,-1.0303137677687e-08,1.273404449627e-08,-0.0017681057611022,0.0017681082316758,-0.0019319553439662,0.0019319461627367,-0.0019319477156812,0.0019319538308264,-0.0019319514083158,0.0019319501454976,-0.0019319437891056,0.0019319577971365,-0.0015198648627667,0.0015198487098477,-0.0015198425668531,0.0015198715576394,-0.0016228515137625,0.0016228499562205,-0.0016228398673926,0.0016228618931015,-5.711256206966e-09,5.288196528919e-09,-0.00092126638465038,0.00092126587628667,1.1021609330195e-08,-1.1898596445105e-08,-0.0010690947876707,0.0010690983208856,-0.0010691024416676,0.0010690907139484,-0.0010690910889033,0.001069101982519,-0.0010690987655711,0.0010690943558275,-0.00096410185073813,0.00096410447302675,-0.00096411262642808,0.00096409377715333,0.67880268382852,128566,2924,0.0050674688538042,0.0073380285954651,0.0038352610707146,15.18693007919,-0.00011850455936648,-0.00011850455936648,-0.00011850455936648,3598725.1839831,0.016374527718404
22819200,0.9896626904263,0.016689848774945,0.0053277600589138,0.0069921749740296,0.0043699137420012,-0.0012196834216722,0.001219682535491,5.0359313745952e-09,-5.9225107262206e-09,5.3960284008452e-09,-6.4813839094059e-09,-0.0013720291747096,0.0013720358923736,-0.0013720327738518,0.0013720322150305,-0.0013720329941561,0.0013720319114775,-0.0013720366478745,0.0013720282452928,-0.001136572460225,0.0011365783531763,-0.0011365831600035,0.0011365675447408,-4.5965968908849e-09,7.2420744735372e-09,-1.0292048560275e-08,1.2717217420443e-08,-0.001768750413741,0.0017687528783947,-0.0019325982135263,0.0019325890791715,-0.0019325905922673,0.0019325967393568,-0.0019325943211953,0.0019325930174192,-0.0019325867128946,0.0019326006575794,-0.0015204630650423,0.0015204468935265,-0.0015204408008318,0.0015204697075985,-0.0016234617260199,0.0016234602964184,-0.0016234502212146,0.0016234720906148,-5.7740575344304e-09,5.3454681725955e-09,-0.00092163179692934,0.00092163128305584,1.1057239529864e-08,-1.1940797934801e-08,-0.0010695832247947,0.0010695867367455,-0.0010695909025746,0.0010695791056639,-0.0010695794842745,0.001069590440253,-0.0010695871882906,0.0010695827856408,-0.00096450664709962,0.00096450935076203,-0.00096451753493898,0.00096449854245135,0.67691803539549,128566,2924,0.005069227648068,0.0073406907489998,0.0038367841153337,15.303487480009,-0.00011757210015992,-0.00011757210015992,-0.00011757210015992,3597058.147309,0.016380570702355
23019200,0.98986510896249,0.016692869285946,0.005328716126007,0.0069934703049982,0.0043706828549408,-0.0012200788072382,0.0012200779313113,5.1030276358542e-09,-5.9793721769056e-09,5.3294798302774e-09,-6.4037828842404e-09,-0.0013725124461622,0.0013725191699397,-0.0013725160892244,0.0013725154492942,-0.0013725162206695,0.0013725152346767,-0.0013725199137661,0.0013725115299049,-0.0011370115563349,0.0011370176225642,-0.0011370223726698,0.0011370067014673,-4.5564516084134e-09,7.1979990591873e-09,-1.0344192504137e-08,1.276590845273e-08,-0.0017693608071081,0.0017693632684138,-0.0019332125573574,0.0019332034163298,-0.0019332049051842,0.0019332111088757,-0.0019332086949905,0.0019332073243276,-0.0019332010509712,0.0019332150013323,-0.001521022187255,0.0015210058780622,-0.0015209998183355,0.0015210287996867,-0.0016240314626802,0.0016240301380872,-0.0016240200326313,0.0016240418555072,-5.8220273078912e-09,5.395758469675e-09,-0.0009219700421175,0.00092196953049337,1.1046678075715e-08,-1.192737403243e-08,-0.001070034917946,0.0010700383937145,-0.0010700425903801,0.0010700307683381,-0.0010700311470583,0.0010700421277064,-0.0010700388410699,0.0010700344834479,-0.0009648784321561,0.00096488124821524,-0.00096488942297224,0.00096487033745523,0.63260003617327,128566,2924,0.0050708670503795,0.0073432114140397,0.0038381940807738,15.414713277276,-0.0001166822937818,-0.0001166822937818,-0.0001166822937818,3595929.1326597,0.016386233549172
23219200,0.99006500244727,0.016695981796163,0.0053297030205537,0.0069947947606046,0.0043714840150047,-0.0012204701934706,0.0012204693246064,5.1610783290851e-09,-6.030355401779e-09,5.2841088046216e-09,-6.3503919601788e-09,-0.0013729143247285,0.0013729210583677,-0.0013729180034595,0.0013729173015972,-0.0013729180660374,0.0013729171562339,-0.0013729217959255,0.0013729134148228,-0.0011373912334001,0.0011373974472391,-0.0011374021574004,0.0011373864171904,-4.5057025267042e-09,7.1420270746812e-09,-1.0363535638688e-08,1.2780591894279e-08,-0.0017698591698416,0.0017698616264594,-0.0019337780099073,0.0019337688890742,-0.0019337703469846,0.0019337765924883,-0.0019337741822011,0.0019337727615218,-0.0019337665284883,0.0019337804484166,-0.0015214424501092,0.0015214260693858,-0.0015214200503617,0.0015214490229268,-0.0016244842047909,0.0016244829927349,-0.0016244728799185,0.0016244946022866,-5.8800870328756e-09,5.4509095127621e-09,-0.00092232488342375,0.00092232436881536,1.1070117041141e-08,-1.1954204487556e-08,-0.0010703780676499,0.0010703815191296,-0.0010703857563943,0.0010703738774001,-0.0010703742586898,0.0010703852912329,-0.0010703819697785,0.0010703776299277,-0.00096525189816195,0.00096525480493912,-0.00096526299867508,0.00096524378412945,0.65900010611777,128566,2924,0.005072489085115,0.007345272246418,0.0038396684250698,15.525738762531,-0.00011579408989975,-0.00011579408989975,-0.00011579408989975,3601783.7946903,0.016391474927841
23419200,0.99026322202678,0.016699036605458,0.0053306711504422,0.0069960971500152,0.0043722683050004,-0.0012209955875522,0.0012209947269441,5.2400423602587e-09,-6.1010247169816e-09,5.2305270207178e-09,-6.2881739281911e-09,-0.0013734974367927,0.0013735041951968,-0.0013735011703421,0.0013735003844104,-0.0013735011460544,0.0013735003271375,-0.0013735049194751,0.0013734965401331,-0.0011379334397947,0.0011379398303275,-0.0011379444944867,0.0011379286699406,-4.5073721049938e-09,7.1442975644958e-09,-1.0447061561617e-08,1.2864820491153e-08,-0.0017705570848843,0.0017705595419397,-0.0019345036846695,0.0019344945136447,-0.0019344959722118,0.0019345022662388,-0.0019344998616566,0.0019344983827399,-0.0019344921486849,0.0019345061287,-0.0015220788634815,0.0015220623037916,-0.0015220562853214,0.0015220854387055,-0.0016251406346155,0.0016251394579377,-0.0016251292902001,0.0016251510876879,-5.9144162738596e-09,5.4893456836802e-09,-0.00092279329269489,0.00092279278276528,1.1025899939296e-08,-1.1904943985625e-08,-0.0010709152494842,0.0010709186564224,-0.0010709229136679,0.0010709110397546,-0.0010709114215792,0.0010709224488295,-0.0010709190981238,0.0010709148223876,-0.0009657503751664,0.00096575340493888,-0.00096576156074496,0.00096574229666389,0.65256369036702,128566,2924,0.0050746671735135,0.0073481564039856,0.0038416168400498,15.704388982815,-0.00011436488813748,-0.00011436488813748,-0.00011436488813748,3603857.007395,0.016398601379856
23619200,0.99046395819907,0.016702199698665,0.0053316744571547,0.0069974405914793,0.004373084650031,-0.0012221462709592,0.0012221454039095,5.2749051592535e-09,-6.1419560884051e-09,5.2684840578366e-09,-6.3340082375138e-09,-0.0013747103930159,0.001374717192762,-0.0013747141458357,0.0013747133611781,-0.0013747141231091,0.0013747133012385,-0.0013747179286248,0.001374709485009,-0.001139103769507,0.0011391102180692,-0.0011391149162319,0.0011390989663352,-4.4986871439605e-09,7.1340326461408e-09,-1.0395675507367e-08,1.2811958277999e-08,-0.001771913725606,0.0017719161813318,-0.0019358955732261,0.0019358864375203,-0.0019358878905759,0.0019358941603296,-0.0019358917508475,0.0019358903051224,-0.0019358840788585,0.0019358980105899,-0.0015233562086457,0.001523339762437,-0.0015233337485721,0.0015233627741139,-0.0016264537877806,0.0016264526106775,-0.0016264424812212,0.0016264642069555,-5.9908396931619e-09,5.5596115242844e-09,-0.00092385823746267,0.00092385772129063,1.1083954163426e-08,-1.1968815607059e-08,-0.0010720583909206,0.0010720617766711,-0.0010720660889184,0.0010720541259191,-0.0010720545086227,0.0010720656225534,-0.001072062229506,0.0010720579513441,-0.0009668662979731,0.0009668694072078,-0.00096687761276299,0.00096685817203883,0.66669034664934,128566,2924,0.0050794371103097,0.0073537644245029,0.0038460427563542,16.218893119835,-0.00011024885504132,-0.00011024885504132,-0.00011024885504132,3611070.323339,0.016413649007627
23819200,0.99066718069091,0.016705571482684,0.005332745922438,0.0069988614027215,0.0043739641575249,-0.0012233240960593,0.0012233232313304,5.3655640433302e-09,-6.2305301323133e-09,5.2536305398918e-09,-6.3161492953276e-09,-0.0013759794229522,0.001375986287943,-0.0013759832498563,0.0013759823829177,-0.0013759831560946,0.0013759823930963,-0.0013759870084732,0.0013759785318993,-0.0011403244857677,0.0011403310819399,-0.0011403357690121,0.0011403196981331,-4.5531683351269e-09,7.1943614382553e-09,-1.0489429106435e-08,1.2910896916315e-08,-0.0017733407557761,0.0017733432166646,-0.0019373381280704,0.0019373289083674,-0.0019373303962798,0.0019373366836531,-0.0019373342818999,0.001937332800678,-0.0019373265318876,0.0019373405861074,-0.0015247106425316,0.0015246940081731,-0.0015246879531728,0.0015247172546567,-0.0016278427410647,0.0016278414801148,-0.0016278312794256,0.0016278532303433,-6.0064933547308e-09,5.5869697904521e-09,-0.00092493919228092,0.0009249386873235,1.1001663671727e-08,-1.1874575172861e-08,-0.0010732623588916,0.0010732656967016,-0.0010732700123224,0.0010732580904411,-0.0010732584758857,0.0010732695428168,-0.0010732661247837,0.0010732619443165,-0.00096800866215668,0.00096801192404694,-0.00096802005884377,0.00096800060576947,0.70079155139098,128566,2924,0.0050843197909683,0.0073596621885723,0.0038505370021451,16.741493708435,-0.00010606805033252,-0.00010606805033252,-0.00010606805033252,3615920.6150329,0.016429176047846
24019200,0.99087274886002,0.016709021418215,0.0053338424477872,0.0070003137755624,0.0043748651948653,-0.0012245037434678,0.0012245028755358,5.4216663094408e-09,-6.2898885153308e-09,5.2762227422045e-09,-6.3420716680051e-09,-0.0013773085653992,0.0013773154827591,-0.001377312431558,0.0013773115374808,-0.0013773123152278,0.0013773115702835,-0.0013773162046303,0.001377307672154,-0.0011415955161955,0.0011416022026038,-0.0011416069077516,0.0011415907054404,-4.5691635873065e-09,7.2111670023274e-09,-1.0487862573939e-08,1.2909925592753e-08,-0.0017748592147785,0.0017748616763955,-0.0019388253240414,0.0019388160990997,-0.0019388175961923,0.0019388238696947,-0.0019388214683293,0.0019388200009536,-0.0019388137210741,0.0019388277835013,-0.0015261732152411,0.0015261565932294,-0.0015261505270075,0.001526179838958,-0.0016293306592416,0.0016293293612947,-0.0016293191619049,0.0016293411470108,-6.060746229771e-09,5.6397723736111e-09,-0.00092600345560067,0.00092600294913739,1.1009412057254e-08,-1.1884133464758e-08,-0.0010745434811636,0.0010745467883397,-0.0010745511409634,0.0010745391752058,-0.0010745395638225,0.0010745506684625,-0.0010745472164338,0.0010745430664222,-0.00096915006658392,0.00096915343384725,-0.00096916157243085,0.00096914200357683,0.70866200854686,128566,2924,0.0050892105261382,0.0073659351842078,0.0038549656612235,17.264398623768,-0.00010188481100986,-0.00010188481100986,-0.00010188481100986,3615535.1957823,0.016445027586805
24219200,0.99107927848945,0.016712342844729,0.005334896080538,0.0070017229250489,0.004375723839142,-0.0012254877322625,0.0012254868520326,5.3900975624988e-09,-6.270725121781e-09,5.3527551929553e-09,-6.4316380925182e-09,-0.0013784519990528,0.0013784589099516,-0.0013784558153466,0.0013784550134646,-0.0013784557718767,0.0013784549751224,-0.0013784596755301,0.0013784510605623,-0.0011426801550184,0.0011426868203901,-0.0011426915899568,0.0011426752719911,-4.5061025580717e-09,7.1415822620347e-09,-1.0302185856823e-08,1.2718361963949e-08,-0.0017761997701626,0.0017762022261195,-0.0019401301476408,0.0019401210548411,-0.0019401225112614,0.0019401287307154,-0.0019401263028237,0.0019401249443295,-0.0019401187119288,0.0019401325675587,-0.0015274586813723,0.001527442472741,-0.0015274364562642,0.001527465252764,-0.0016306369139275,0.0016306357055496,-0.0016306256382744,0.0016306472642767,-6.2093371567585e-09,5.7645245144077e-09,-0.00092687665077228,0.00092687612010291,1.1196758749235e-08,-1.209848781135e-08,-0.0010756449446734,0.0010756482379647,-0.0010756527055885,0.0010756405241013,-0.0010756409037474,0.0010756522410962,-0.0010756487218211,0.0010756444737187,-0.00097009693278948,0.00097010031312077,-0.00097010861166712,0.00097008871214344,0.68010063597703,128566,2924,0.0050932901494552,0.0073714717371392,0.0038586018221387,17.692275963447,-9.8461792292427e-05,-9.8461792292427e-05,-9.8461792292427e-05,3613508.5607485,0.016458501011669
24419200,0.99128360696245,0.016715625326988,0.0053359370617394,0.0070031162131565,0.0043765720520921,-0.0012260205051701,0.0012260196332124,5.4960457160209e-09,-6.3683857530536e-09,5.3012926295829e-09,-6.3712940126943e-09,-0.0013790835267459,0.0013790904965112,-0.0013790874322423,0.0013790865134603,-0.0013790872824735,0.0013790865804643,-0.0013790912351681,0.0013790826158112,-0.0011432705842704,0.0011432774371304,-0.0011432821621024,0.0011432657538897,-4.5331802477493e-09,7.1714385611805e-09,-1.0418740625096e-08,1.2837409125081e-08,-0.0017769934121836,0.0017769958704303,-0.0019409335476192,0.0019409243705334,-0.0019409258471468,0.0019409321126929,-0.0019409297029777,0.001940928260751,-0.0019409220065712,0.00194093599104,-0.001528186204693,0.0015281697284925,-0.0015281636892231,0.0015281927989499,-0.0016313898103115,0.0016313885772533,-0.0016313784257058,0.0016314002488885,-6.2124406828688e-09,5.7793398676737e-09,-0.00092733488195406,0.00092733436323948,1.1103877447078e-08,-1.1992447682342e-08,-0.0010762301476465,0.0010762333987727,-0.0010762378606058,0.001076225733182,-0.0010762261200567,0.0010762373895438,-0.0010762338523365,0.0010762297070562,-0.00097060528630304,0.00097060881379409,-0.00097061703695098,0.00097059714486023,0.67934589892514,128566,2924,0.0050954988330463,0.0073747492259441,0.0038605115424884,17.884783609852,-9.6921731121181e-05,-9.6921731121181e-05,-9.6921731121181e-05,3613388.6205682,0.01646602021815
24619200,0.99148562417608,0.016719019693235,0.0053370152816029,0.0070045465967936,0.0043774578148385,-0.0012265497701627,0.001226548899709,5.5514301778393e-09,-6.4222847269668e-09,5.2914260137623e-09,-6.3597565309211e-09,-0.0013796997803999,0.0013797067798016,-0.0013797037205547,0.0013797027609717,-0.001379703527778,0.0013797028710522,-0.0013797075177912,0.0013796988701942,-0.0011438543055174,0.0011438612757943,-0.0011438659935694,0.0011438494826234,-4.5235093431888e-09,7.1606997261269e-09,-1.0425905024523e-08,1.2843599974719e-08,-0.0017777676220295,0.0017777700792953,-0.0019417184920995,0.0019417093192715,-0.0019417107892058,0.0019417170637861,-0.00194171465335,0.0019417132032229,-0.0019417069578351,0.0019417209329558,-0.0015288964947255,0.0015288800008317,-0.0015288739700145,0.0015289030813707,-0.0016321281676557,0.0016321269587164,-0.001632116804222,0.0016321386078828,-6.2689729296894e-09,5.8356724566525e-09,-0.00092779141542325,0.00092779089646258,1.1108167178706e-08,-1.1997061713701e-08,-0.0010767987301075,0.0010768019460359,-0.0010768064456898,0.00107679427754,-0.0010767946640986,0.0010768059749072,-0.0010768024003487,0.0010767982887208,-0.00097111230268861,0.00097111593882755,-0.00097112416285715,0.00097110415778026,0.70944458549246,128566,2924,0.0050976929668918,0.0073779468515404,0.0038624134555111,18.071601697296,-9.542718642163e-05,-9.542718642163e-05,-9.542718642163e-05,3613397.7392343,0.016473435269233
24819200,0.99168529390239,0.016722137926462,0.0053380026616456,0.0070058774784453,0.0043782577863706,-0.0012270672304743,0.0012270663613397,5.6090189029661e-09,-6.4785190308448e-09,5.2836054464584e-09,-6.3503104131406e-09,-0.0013803525512063,0.0013803595846721,-0.0013803565299087,0.001380355527149,-0.0013803562935552,0.0013803556808769,-0.0013803603207812,0.0013803516428648,-0.0011444560443058,0.0011444631311667,-0.0011444678416951,0.0011444512280222,-4.5162875934553e-09,7.1525434004735e-09,-1.0431270983479e-08,1.2848114293281e-08,-0.0017785966014735,0.0017785990579199,-0.0019425203512287,0.0019425111807302,-0.0019425126462271,0.0019425189273823,-0.0019425165183437,0.001942515058666,-0.0019425088192953,0.001942522791948,-0.0015296777319778,0.0015296612203911,-0.0015296551957748,0.0015296843128614,-0.0016329207152103,0.0016329195215881,-0.0016329093645257,0.0016329311570605,-6.3231510071176e-09,5.8897751789884e-09,-0.00092822346571044,0.00092822294664704,1.1109658690818e-08,-1.1998717218088e-08,-0.0010774194946493,0.0010774226761326,-0.0010774272119996,0.0010774150058125,-0.0010774153932323,0.0010774267403728,-0.0010774231298417,0.0010774190538856,-0.00097159887163294,0.00097160261477065,-0.00097161084001353,0.00097159072564884,0.66112227616746,128566,2924,0.0050998386383838,0.0073813688451189,0.003864216373191,18.258205833654,-9.3934353330767e-05,-9.3934353330767e-05,-9.3934353330767e-05,3609305.4595123,0.01648092982434
25019200,0.9918848594192,0.016725218258077,0.0053389774305447,0.0070071945419424,0.00437904628559,-0.0012279128336794,0.0012279119602748,5.6553396731042e-09,-6.528954146305e-09,5.3074212441778e-09,-6.3798913122292e-09,-0.0013812606969179,0.0013812677764631,-0.0013812647070643,0.0013812636867617,-0.0013812644556786,0.0013812638542696,-0.0013812685175696,0.0013812597852399,-0.0011453279315154,0.0011453350941801,-0.0011453398302808,0.0011453230987372,-4.5120545298901e-09,7.1485421748847e-09,-1.0388592408986e-08,1.2805757901298e-08,-0.0017796690902325,0.0017796715471383,-0.0019436360201143,0.0019436268796975,-0.0019436283423891,0.0019436346007757,-0.0019436321900509,0.0019436307554778,-0.001943624518773,0.0019436384618097,-0.001530663673596,0.0015306472450036,-0.0015306412247742,0.0015306702537349,-0.0016339426534552,0.0016339414444488,-0.0016339313145341,0.0016339530725021,-6.386306972191e-09,5.9524635246892e-09,-0.00092899001868011,0.00092898949886008,1.1136880982078e-08,-1.202549188057e-08,-0.0010782562887928,0.0010782594433449,-0.0010782640223955,0.0010782517570161,-0.0010782521451553,0.0010782635495239,-0.001078259898848,0.0010782558460099,-0.00097241366016808,0.00097241750509335,-0.00097242575249659,0.00097240549546183,0.65362537520515,128566,2924,0.0051033435957673,0.0073858010590892,0.0038674041191442,18.62966086648,-9.0962713068163e-05,-9.0962713068163e-05,-9.0962713068163e-05,3615262.3525242,0.016492238831142
25219200,0.99208753568015,0.016728450330405,0.0053400014451145,0.0070085688683588,0.0043798800169316,-0.0012292732632018,0.0012292723868556,5.7116886335609e-09,-6.5879610386074e-09,5.3284250231261e-09,-6.4040105354623e-09,-0.0013826812171497,0.0013826883466841,-0.0013826852663351,0.0013826842192324,-0.0013826849916192,0.0013826844108479,-0.0013826890901454,0.0013826803015365,-0.0011467094987334,0.0011467167570585,-0.001146721507146,0.0011467046455357,-4.5477665300307e-09,7.1868718484101e-09,-1.0384245659306e-08,1.2803542907259e-08,-0.0017812680131954,0.0017812704721695,-0.0019452884334585,0.0019452792716823,-0.0019452807566076,0.0019452869897489,-0.0019452845782137,0.0019452831726801,-0.0019452769083042,0.0019452908761537,-0.0015321615502945,0.0015321451541196,-0.001532139103107,0.0015321681538141,-0.0016354891471169,0.0016354878630096,-0.0016354777356398,0.0016354995648109,-6.4392544116004e-09,6.0066782223709e-09,-0.00093024765616712,0.00093024713814462,1.1104072393063e-08,-1.1991082177929e-08,-0.0010795836467633,0.0010795867462908,-0.001079591359021,0.0010795790812569,-0.0010795794670885,0.0010795908885637,-0.0010795871995622,0.0010795832061628,-0.00097373139747483,0.00097373537135399,-0.00097374359393644,0.00097372325732891,0.67454673618475,128566,2924,0.0051089825181882,0.0073924105472174,0.0038726305353486,19.270489793577,-8.5836081651381e-05,-8.5836081651381e-05,-8.5836081651381e-05,3625615.8031967,0.016510002638175
25419200,0.99229320436883,0.016731998445581,0.0053411288303254,0.0070100594066453,0.0043808102086107,-0.001230667878347,0.0012306670001028,5.7683028795455e-09,-6.6465918825483e-09,5.3419004956251e-09,-6.4194089272284e-09,-0.0013841739826437,0.0013841811582317,-0.0013841780700078,0.0013841769925563,-0.0013841777665406,0.0013841772128715,-0.001384181903528,0.0013841730649933,-0.0011481556252385,0.0011481629848072,-0.0011481677463571,0.0011481507594113,-4.5739153057918e-09,7.2153038981834e-09,-1.0380524070233e-08,1.2801813515208e-08,-0.0017829552092612,0.0017829576702244,-0.0019469983584268,0.0019469891830905,-0.0019469906837881,0.0019469968986688,-0.0019469944853001,0.0019469931022767,-0.0019469868180247,0.0019470008030578,-0.0015337601107089,0.0015337437403962,-0.0015337376697846,0.0015337667344476,-0.0016371335449735,0.0016371322075006,-0.0016371220804349,0.001637143962742,-6.4913290077664e-09,6.0619041963059e-09,-0.00093152610904796,0.00093152559409956,1.1077500227501e-08,-1.1961381270156e-08,-0.0010809949451217,0.0010809979931517,-0.0010810026387008,0.0010809903466851,-0.0010809907294633,0.0010810021714178,-0.0010809984436388,0.0010809945073202,-0.00097508441113214,0.00097508851168606,-0.00097509671129976,0.00097507629235763,0.72789189962077,128566,2924,0.0051147635252673,0.0073993833072185,0.0038779457264768,19.917854988711,-8.0657160090316e-05,-8.0657160090316e-05,-8.0657160090316e-05,3632336.5622934,0.016528371576709
25619200,0.99250164920353,0.016735616925648,0.0053422784834416,0.007011579852783,0.0043817585894233,-0.001232064452955,0.0012320635739164,5.8253972420542e-09,-6.704550166888e-09,5.3498204982847e-09,-6.4279103858088e-09,-0.0013857593705468,0.0013857665895538,-0.001385763496643,0.0013857623849358,-0.0013857631602824,0.0013857626380762,-0.0013857673352272,0.0013857584526273,-0.0011496739255632,0.0011496813894332,-0.001149686157638,0.0011496690529855,-4.582888595958e-09,7.2250842112251e-09,-1.0373388573276e-08,1.2795395569331e-08,-0.0017847783450862,0.0017847808067699,-0.0019487716274849,0.001948762452385,-0.0019487639584,0.0019487701624253,-0.0019487677489189,0.0019487663770995,-0.0019487600861175,0.0019487740733788,-0.0015355240124749,0.0015355076612261,-0.0015355015842075,0.0015355306436425,-0.001638922780636,0.0016389214193741,-0.0016389112953767,0.0016389331936451,-6.5442341838033e-09,6.116500851354e-09,-0.00093277902154134,0.00093277850824612,1.1063892803199e-08,-1.19461380089e-08,-0.001082524535087,0.0010825275398014,-0.0010825322195472,0.0010825199023843,-0.0010825202840344,0.0010825317533391,-0.0010825279881448,0.001082524099419,-0.00097643836334964,0.00097644258222501,-0.00097645077001925,0.00097643025568461,0.73243473778219,128566,2924,0.0051205534762732,0.0074069137841904,0.0038831606652763,20.565457132043,-7.5476342943652e-05,-7.5476342943652e-05,-7.5476342943652e-05,3631037.7519149,0.016547217128352
25819200,0.9927074658653,0.016739095961289,0.0053433823071967,0.007013049317637,0.0043826643364555,-0.0012326778853796,0.0012326770046098,5.8910971553493e-09,-6.7722577201012e-09,5.3592582545707e-09,-6.438709164443e-09,-0.0013865528647653,0.0013865601354635,-0.0013865570370881,0.0013865558838032,-0.0013865566635751,0.0013865561750593,-0.0013865608802526,0.0013865519464606,-0.001150408118592,0.0011504156973171,-0.0011504204728972,0.0011504032337603,-4.509677673325e-09,7.144434055032e-09,-1.0295610183588e-08,1.2710905256687e-08,-0.0017857884727376,0.0017857909276929,-0.0019497348802296,0.0019497258061354,-0.0019497272667679,0.001949733458762,-0.0019497310541776,0.001949729676855,-0.001949723443037,0.0019497373199553,-0.0015364858806026,0.001536469623676,-0.0015364636039445,0.0015364924527212,-0.0016398973387085,0.0016398960610374,-0.0016398859965461,0.0016399076879893,-6.5947891951048e-09,6.1546973589291e-09,-0.00093328626727073,0.00093328574139811,1.1155203225905e-08,-1.20519835459e-08,-0.0010832858584153,0.001083288889549,-0.0010832936110059,0.0010832811839325,-0.0010832815798919,0.0010832931304301,-0.0010832893477094,0.0010832854124093,-0.00097702614598859,0.00097703037950052,-0.00097703864587301,0.0009770179600304,0.7138631804728,128566,2924,0.0051230970885105,0.0074110823076574,0.0038852793424757,20.804856961302,-7.3561144309587e-05,-7.3561144309587e-05,-7.3561144309587e-05,3624740.5552537,0.016556197491337
26019200,0.99290609569648,0.016742322478809,0.0053444041050895,0.0070144215265879,0.0043834968471319,-0.0012325838135419,0.0012325829443982,5.9522022339178e-09,-6.8221085218217e-09,5.2850973510949e-09,-6.3513538631463e-09,-0.0013865828367883,0.001386590101214,-0.0013865870460311,0.0013865858142493,-0.0013865865821654,0.0013865861959563,-0.0013865908359679,0.0013865819297146,-0.0011503992037844,0.0011504069597044,-0.0011504116704507,0.0011503943870178,-4.4792183017791e-09,7.111376194574e-09,-1.0363405270377e-08,1.2776408698896e-08,-0.0017859905937231,0.0017859930464349,-0.0019499222594255,0.0019499131535533,-0.001949914597437,0.001949920856513,-0.0019499184521834,0.0019499170053047,-0.0019499107937222,0.0019499246969798,-0.0015366413689376,0.0015366249578847,-0.0015366189638476,0.0015366479212229,-0.0016400600434677,0.0016400588726175,-0.0016400487623079,0.0016400704340852,-6.6485145132045e-09,6.2124548281904e-09,-0.0009331338440846,0.00093313332196687,1.1133479695338e-08,-1.2026367005824e-08,-0.0010832948546017,0.0010832978348948,-0.0010833025902411,0.0010832901467728,-0.0010832905386093,0.0010833021139843,-0.0010832982903936,0.0010832944120011,-0.0009769210733732,0.00097692543557677,-0.00097693368171163,0.00097691290822114,0.6868829062296,128566,2924,0.005122707677126,0.0074119119806668,0.0038846556190553,20.675817020971,-7.4593463832234e-05,-7.4593463832234e-05,-7.4593463832234e-05,3617269.8990275,0.016556013044102
26219200,0.99309772319686,0.016745615779742,0.0053454493886153,0.0070158085905701,0.0043843578005562,-0.0012324764268278,0.0012324755642825,5.9973295131339e-09,-6.8605731896615e-09,5.2408979723593e-09,-6.3001639941969e-09,-0.0013865384005349,0.0013865456663882,-0.001386542636305,0.0013865413526395,-0.0013865421129435,0.0013865417937566,-0.001386546396066,0.0013865374988165,-0.0011503394467695,0.0011503473261876,-0.0011503519995882,0.001150334668714,-4.4496242526805e-09,7.0785042503776e-09,-1.0407186591182e-08,1.2817311461639e-08,-0.0017860903912195,0.0017860928409866,-0.0019500440207813,0.0019500349053333,-0.0019500363312848,0.0019500426362192,-0.0019500402332136,0.0019500387368026,-0.0019500325497109,0.0019500464542626,-0.0015366831346405,0.0015366666211756,-0.0015366606499662,0.0015366896627102,-0.0016401237560506,0.0016401226757469,-0.0016401125409403,0.0016401341721626,-6.7175161398055e-09,6.2822928227694e-09,-0.00093298490079972,0.00093298437973556,1.1127289812905e-08,-1.2018769941378e-08,-0.0010832153013999,0.0010832182309045,-0.0010832230313426,0.0010832105482869,-0.0010832109379384,0.0010832225574759,-0.0010832186864276,0.0010832148587071,-0.00097680786993812,0.00097681237033935,-0.00097682061015854,0.00097679971011466,0.72524660109853,128566,2924,0.0051222626074116,0.0074123212683034,0.0038840426496991,20.537779351212,-7.5697765190306e-05,-7.5697765190306e-05,-7.5697765190306e-05,3614018.4352428,0.01655535407654
26419200,0.99328263137705,0.016748883034633,0.0053464874154639,0.0070171789884499,0.0043852166307193,-0.0012323763404794,0.001232375481952,6.0631317305721e-09,-6.9223095012992e-09,5.2123006848214e-09,-6.2672382038808e-09,-0.0013865534855807,0.0013865607781571,-0.0013865577643345,0.0013865564210605,-0.0013865571780055,0.0013865569252356,-0.0013865615035021,0.0013865525883267,-0.0011503303276284,0.0011503383548602,-0.0011503430040418,0.0011503255738113,-4.4300357346845e-09,7.0570574204459e-09,-1.042842843667e-08,1.2836935508138e-08,-0.0017862652474893,0.001786267695578,-0.0019501883884661,0.0019501792733006,-0.0019501806872112,0.0019501870162255,-0.0019501846152029,0.0019501830902361,-0.0019501769188474,0.0019501908207667,-0.0015368271868747,0.0015368106173724,-0.0015368046614142,0.0015368336996372,-0.0016402743145386,0.0016402732851458,-0.0016402631389869,0.0016402847424341,-6.7652052737955e-09,6.3293604329257e-09,-0.00093282927517879,0.00093282875350852,1.1134694797041e-08,-1.2026742519559e-08,-0.0010832177865085,0.0010832206894824,-0.0010832255220254,0.001083213001154,-0.0010832133919803,0.0010832250470968,-0.0010832211451863,0.0010832173436732,-0.00097669740954958,0.00097670199809709,-0.00097671024355521,0.00097668924379813,0.74502754485013,128566,2924,0.0051218484713701,0.007413038588381,0.0038834048375571,20.399402508734,-7.6804779930126e-05,-7.6804779930126e-05,-7.6804779930126e-05,3605484.8172528,0.016555015792407
26619200,0.99346515544409,0.016752079202501,0.0053475024019092,0.0070185217310374,0.0043860550695547,-0.0012329464771596,0.0012329456148277,6.1099202422115e-09,-6.972661604572e-09,5.2345692630941e-09,-6.294297672409e-09,-0.001387281358191,0.0013872886950272,-0.0013872856684296,0.0013872843063876,-0.0013872850659749,0.0013872848263291,-0.0013872894247038,0.0013872804567237,-0.0011510229694065,0.0011510310741636,-0.0011510357437218,0.0011510181965698,-4.4622539048533e-09,7.0924618298654e-09,-1.0433363981833e-08,1.2844621115936e-08,-0.0017872032410737,0.0017872056919337,-0.0019510719344501,0.0019510627952791,-0.0019510642286806,0.0019510705426257,-0.0019510681384516,0.0019510666354629,-0.0019510604391893,0.0019510743689783,-0.0015377312981486,0.0015377147438112,-0.0015377087616091,0.001537737834871,-0.0016411867577783,0.0016411856711282,-0.0016411755197628,0.0016411971947617,-6.8267847169112e-09,6.3929487455743e-09,-0.00093330570033178,0.00093330518095516,1.111891629024e-08,-1.2007803502536e-08,-0.0010839226906775,0.0010839255417459,-0.0010839304138602,0.0010839178656076,-0.0010839182535392,0.0010839299416903,-0.0010839259959603,0.0010839222491889,-0.00097725058739474,0.0009772553097298,-0.00097726354225806,0.00097724243505719,0.73848439042701,128566,2924,0.0051242126555773,0.0074169094446502,0.0038853944082152,20.62973758509,-7.4962099319284e-05,-7.4962099319284e-05,-7.4962099319284e-05,3599604.862562,0.016563379440158
26819200,0.99364749851772,0.01675519524965,0.0053484907475207,0.0070198364466696,0.0043868680554593,-0.001233884804282,0.0012338839306346,6.1641300809837e-09,-7.0377327872977e-09,5.3030497399191e-09,-6.376275591334e-09,-0.0013883764820201,0.0013883839006625,-0.0013883808344302,0.0013883794689481,-0.0013883802413411,0.0013883799782252,-0.0013883846385455,0.0013883755724688,-0.0011520747307277,0.0011520828850138,-0.0011520876165679,0.0011520698994699,-4.4857392595095e-09,7.117561355151e-09,-1.036701606154e-08,1.2779682276361e-08,-0.0017885223884333,0.0017885248408179,-0.0019523535126268,0.0019523444056505,-0.0019523458535547,0.0019523521066675,-0.0019523497034804,0.0019523482589635,-0.0019523420451467,0.0019523559512811,-0.0015389997001546,0.0015389832850558,-0.0015389772818941,0.0015390062519074,-0.0016424682290663,0.0016424670465635,-0.001642456939228,0.0016424786286171,-6.8799365669436e-09,6.4426837613536e-09,-0.00093413090585522,0.00093413038308104,1.1152074646981e-08,-1.2043808458086e-08,-0.0010849715911656,0.0010849744298593,-0.0010849793395148,0.0010849667281142,-0.001084967121942,0.0010849788605903,-0.0010849748843208,0.0010849711478915,-0.00097816647109666,0.00097817127334789,-0.00097817953613441,0.00097815829191982,0.72121904181387,128566,2924,0.0051281026826041,0.0074223563868271,0.0038888323672429,21.06428406609,-7.1485727471283e-05,-7.1485727471283e-05,-7.1485727471283e-05,3598074.0016356,0.01657636883214
27019200,0.99382956118466,0.016758221999277,0.0053494494373568,0.007021119824969,0.0043876527369508,-0.0012348251230687,0.0012348242395576,6.2209865120956e-09,-7.104707775865e-09,5.3708736208395e-09,-6.4539323760902e-09,-0.0013894455900798,0.0013894530920675,-0.001389449987849,0.0013894486158526,-0.001389449402662,0.0013894491188917,-0.0013894538349121,0.001389444673366,-0.0011531037828537,0.0011531119887201,-0.0011531167746063,0.0011530988889567,-4.4961800494917e-09,7.1287464692182e-09,-1.028279373718e-08,1.2696007819264e-08,-0.0017898027130325,0.0017898051659849,-0.0019536270617402,0.0019536180050486,-0.0019536194586803,0.0019536256469353,-0.0019536232484979,0.0019536218626478,-0.0019536156393171,0.0019536295033219,-0.0015402125520214,0.0015401962959374,-0.0015401902856648,0.001540219110972,-0.0016437014427728,0.0016437001703855,-0.0016436901169655,0.0016437117834662,-6.9332272383987e-09,6.4878690989927e-09,-0.00093496423883046,0.00093496370782632,1.120117251428e-08,-1.2103129565727e-08,-0.0010859800069533,0.0010859828452929,-0.0010859877958688,0.0010859751034214,-0.0010859755088875,0.0010859873055652,-0.0010859833039364,0.0010859795600012,-0.00097908032954065,0.0009790851969276,-0.00097909350209385,0.00097907210770151,0.70228504784532,128566,2924,0.0051320005532309,0.0074276441101957,0.003892302314545,21.503862840415,-6.7969097276684e-05,-6.7969097276684e-05,-6.7969097276684e-05,3599606.3250172,0.016589236334564
27219200,0.99401118583446,0.016761150653814,0.0053503756397533,0.0070223684243976,0.0043884065896633,-0.0012357631085922,0.0012357622294513,6.2702111425632e-09,-7.1495328125505e-09,5.3483896344599e-09,-6.4267127102794e-09,-0.0013904794357392,0.0013904869500918,-0.0013904838592166,0.0013904824503065,-0.0013904832256472,0.0013904830006047,-0.0013904876959789,0.0013904785176839,-0.0011541015135237,0.0011541098538715,-0.0011541146200181,0.0011540966453659,-4.5810568052709e-09,7.2222615144565e-09,-1.0386328959839e-08,1.2807297168922e-08,-0.001791029561602,0.0017910320223138,-0.0019548778154229,0.0019548686243455,-0.0019548701316799,0.0019548763492683,-0.0019548739360124,0.0019548725497127,-0.0019548662595495,0.001954880259931,-0.0015413567567454,0.0015413403743906,-0.0015413342992205,0.0015413633861136,-0.0016448736384464,0.0016448722896972,-0.0016448621557914,0.0016448840617844,-6.9889579038154e-09,6.5604535111154e-09,-0.00093580247206932,0.00093580195796291,1.1076076016892e-08,-1.1959260444461e-08,-0.001086939283325,0.0010869419985955,-0.0010869469757517,0.0010869343536457,-0.0010869347362499,0.0010869465084932,-0.0010869424476293,0.0010869388467365,-0.00097998589746225,0.00097999097861622,-0.00097999917700324,0.00097997778265728,0.68191771593811,128566,2924,0.0051358884424954,0.0074327123643286,0.0038957904324433,21.943631688526,-6.4450946491791e-05,-6.4450946491791e-05,-6.4450946491791e-05,3604058.8306028,0.016601888440177
27419200,0.9941907875448,0.016764135607756,0.0053513207200772,0.0070236346177777,0.0043891802699008,-0.0012364643174212,0.0012364634295737,6.3236819899405e-09,-7.211740737469e-09,5.3684117603271e-09,-6.4554533119208e-09,-0.001391234583391,0.0013912421457102,-0.0013912390465068,0.0013912376045457,-0.0013912383905364,0.0013912381774341,-0.001391242898203,0.0013912336582532,-0.0011548304033543,0.0011548388243332,-0.0011548436165601,0.0011548255076077,-4.5818086737136e-09,7.2229521138298e-09,-1.0357329353286e-08,1.2778167049533e-08,-0.0017919461477773,0.0017919486083822,-0.0019558476786774,0.0019558385146735,-0.0019558400208635,0.0019558462131009,-0.001955843802324,0.0019558424368996,-0.0019558361474889,0.0019558501248478,-0.0015421830770788,0.0015421667493509,-0.0015421606741507,0.0015421897060324,-0.0016457358738529,0.0016457344988222,-0.0016457243855396,0.0016457462752606,-7.0435834025237e-09,6.6123974725599e-09,-0.00093642512579956,0.00093642460889043,1.109740563564e-08,-1.1983922220388e-08,-0.0010876160118267,0.0010876187060879,-0.0010876237212637,0.001087611043777,-0.001087611430774,0.0010876232495238,-0.0010876191559923,0.0010876155742034,-0.00098065787020279,0.00098066304306567,-0.00098067125735475,0.00098064973638221,0.70214877404921,128566,2924,0.005138794558671,0.007436499728824,0.0038983805806699,22.251977374645,-6.1984181002837e-05,-6.1984181002837e-05,-6.1984181002837e-05,3609626.7784493,0.016611326550009
27619200,0.99436783906167,0.016767122817922,0.0053522669819146,0.0070248989747132,0.0043899568612947,-0.0012371004375475,0.001237099549433,6.3814081702689e-09,-7.2697228033899e-09,5.3718468780153e-09,-6.4591358270695e-09,-0.0013919517764895,0.0013919593814057,-0.0013919562799944,0.0013919547994652,-0.0013919555878352,0.0013919554087527,-0.001391960131649,0.0013919508523985,-0.0011555142067758,0.001155522732626,-0.0011555275263528,0.0011555093073823,-4.5730832670923e-09,7.2132953386612e-09,-1.0341573367797e-08,1.2761534810107e-08,-0.0017928239620122,0.001792826421566,-0.0019567498720092,0.0019567407245646,-0.0019567422258623,0.0019567484102159,-0.0019567460033266,0.0019567446387812,-0.0019567383565452,0.0019567523179403,-0.0015429866924201,0.0015429703833458,-0.0015429643138191,0.00154299331405,-0.001646566786913,0.0016465654142918,-0.0016465553120372,0.0016465771791507,-7.0985544731824e-09,6.6639248505644e-09,-0.00093697484229742,0.00093697432210917,1.1114231930932e-08,-1.2004585823401e-08,-0.0010882671364397,0.0010882698065315,-0.0010882748601083,0.001088262129535,-0.0010882625219022,0.0010882743834045,-0.0010882702573947,0.0010882666973352,-0.0009812604345144,0.00098126570194564,-0.00098127393238606,0.00098125228529673,0.71252806132546,128566,2924,0.0051414313335394,0.0074401255950653,0.0039006693547771,22.51900710433,-5.9847943165363e-05,-5.9847943165363e-05,-5.9847943165363e-05,3611329.7157222,0.016620021119818
27819200,0.99454227096329,0.01677011398986,0.0053532150490357,0.0070261619552151,0.0043907369856088,-0.0012377369301426,0.0012377360448112,6.4379015049216e-09,-7.3234202417338e-09,5.3571712300448e-09,-6.4415799830356e-09,-0.0013926840585352,0.0013926916916871,-0.001392688598566,0.0013926870740844,-0.0013926878591134,0.0013926877305855,-0.0013926924402639,0.0013926831373094,-0.0011562125990336,0.0011562212486399,-0.001156226029307,0.0011562077143777,-4.5660529671573e-09,7.2054962320362e-09,-1.0354087010161e-08,1.2773393993287e-08,-0.0017937188823727,0.0017937213414265,-0.0019576556310166,0.0019576464787945,-0.0019576479757727,0.0019576541744394,-0.0019576517665259,0.0019576503889089,-0.0019576441116904,0.0019576580766941,-0.0015438136025117,0.0015437972649071,-0.0015437912018887,0.0015438202188876,-0.0016474180633774,0.0016474167126268,-0.0016474066030097,0.0016474284609747,-7.1538062761031e-09,6.7207288343254e-09,-0.00093751945252091,0.00093751893383857,1.110852144603e-08,-1.199695027151e-08,-0.0010889395066664,0.0010889421358325,-0.0010889472256405,0.001088934464034,-0.0010889348543141,0.0010889467506473,-0.001088942585954,0.0010889390687837,-0.00098186265343152,0.00098186803467889,-0.00098187625981306,0.00098185451002888,0.72383355439685,128566,2924,0.0051440698428452,0.0074438213813652,0.0039029380652235,22.78499851986,-5.7720011841123e-05,-5.7720011841123e-05,-5.7720011841123e-05,3611378.6816549,0.016628768605013
28019200,0.99471402743776,0.016773110914152,0.0053541655257299,0.0070274242037757,0.0043915211846462,-0.001238372674891,0.0012383717933043,6.4935414969227e-09,-7.375322701649e-09,5.3386461483961e-09,-6.4189968325824e-09,-0.001393432241512,0.0013934398990771,-0.0013934368158912,0.0013934352470695,-0.0013934360269945,0.0013934359530179,-0.0013934406455408,0.0013934313225615,-0.0011569274956509,0.0011569362722432,-0.0011569410358508,0.0011569226285376,-4.5573242017563e-09,7.1958308796002e-09,-1.0372732303384e-08,1.279120300194e-08,-0.0017946345997423,0.0017946370579471,-0.0019585676862953,0.0019585585261415,-0.0019585600179448,0.001958566235196,-0.0019585638264586,0.0019585624314653,-0.0019585561613979,0.0019585701298033,-0.0015446664909937,0.0015446501151505,-0.0015446440593881,0.0015446731007648,-0.001648294854505,0.0016482935374331,-0.0016482834163889,0.0016483052631851,-7.2103881847742e-09,6.7788265651836e-09,-0.00093805856177688,0.00093805804457347,1.1097730104375e-08,-1.1984511201015e-08,-0.0010896330412992,0.0010896356245659,-0.0010896407511442,0.0010896279618515,-0.001089628349283,0.0010896402790819,-0.0010896360747332,0.0010896326034532,-0.00098246466588325,0.00098247016445079,-0.00098247838015445,0.00098245653165381,0.73612508734137,128566,2924,0.0051467054093284,0.0074476022742584,0.003905185126724,23.050950530069,-5.5592395759445e-05,-5.5592395759445e-05,-5.5592395759445e-05,3609882.414561,0.016637578082598
28219200,0.99488239186164,0.016776103706789,0.0053551153020501,0.007028681480384,0.004392306924355,-0.0012388799702087,0.0012388790918077,6.551787793145e-09,-7.430516191675e-09,5.3257738997374e-09,-6.4025777351745e-09,-0.0013940666114422,0.0013940743006177,-0.0013940712238136,0.0013940696102387,-0.0013940703874663,0.0013940703638475,-0.0013940750435966,0.0013940656958742,-0.0011575299667902,0.0011575388658819,-0.0011575436167165,0.0011575251115404,-4.5386714963483e-09,7.1752791653821e-09,-1.0375190877452e-08,1.2791959450772e-08,-0.0017954402447559,0.0017954427012425,-0.0019593551911057,0.0019593460423791,-0.0019593475226776,0.0019593537514332,-0.0019593513446267,0.0019593499339731,-0.0019593436788102,0.0019593576331098,-0.0015454177965401,0.0015454014023501,-0.001545395361757,0.0015454243918623,-0.0016490665915398,0.0016490653115462,-0.0016490551909821,0.0016490769987892,-7.2653958156119e-09,6.8325307221531e-09,-0.0009384736363843,0.00093847311778403,1.110758396964e-08,-1.1996066742889e-08,-0.0010902243446279,0.0010902268978579,-0.0010902320619117,0.0010902192275949,-0.0010902196167134,0.0010902315882338,-0.0010902273490616,0.001090223905742,-0.00098294446257503,0.00098295005994074,-0.0009829582835339,0.00098293631958757,0.74948916208997,128566,2924,0.0051488087055688,0.0074509272044525,0.003906918203217,23.250811476232,-5.399350819014e-05,-5.399350819014e-05,-5.399350819014e-05,3606131.8811124,0.016644860731077
28419200,0.99504727183202,0.01677909327736,0.0053560646887619,0.0070299340236776,0.0043930945649206,-0.0012393629290558,0.00123936205585,6.6011267171321e-09,-7.4746599171187e-09,5.2963993816602e-09,-6.3676630265008e-09,-0.0013946919058993,0.0013946996071281,-0.0013946965468442,0.0013946948885949,-0.0013946956579582,0.0013946956945224,-0.0013947003479335,0.0013946909930844,-0.001158125109455,0.0011581341346429,-0.0011581388591727,0.001158120281609,-4.540169188889e-09,7.1768439530495e-09,-1.0417983721572e-08,1.2834828577562e-08,-0.0017962471569582,0.0017962496135318,-0.0019601288795629,0.001960119698532,-0.0019601211802559,0.0019601274392705,-0.0019601250293422,0.0019601235940145,-0.0019601173379275,0.0019601313195366,-0.0015461785712581,0.0015461621024057,-0.0015461560606738,0.0015461851681087,-0.0016498432092426,0.0016498419624931,-0.0016498318133869,0.0016498536450732,-7.3277480673909e-09,6.8989120405169e-09,-0.00093886253909247,0.00093886202456699,1.1077862521375e-08,-1.1961808607602e-08,-0.0010908143899844,0.0010908168801206,-0.001090822083207,0.0010908092339881,-0.0010908096164969,0.0010908216162804,-0.0010908173300474,0.0010908139526387,-0.0009834046412205,0.00098341038267682,-0.00098341858040819,0.00098339652373181,0.76402415759022,128566,2924,0.0051508112874311,0.0074542564491564,0.003908543793994,23.441438693894,-5.246849044885e-05,-5.246849044885e-05,-5.246849044885e-05,3600901.6068807,0.016651936480275
28619200,0.9952086723772,0.016782039311724,0.0053570003552667,0.007031167644769,0.0043938713116886,-0.0012398342641294,0.0012398333930172,6.6595191575368e-09,-7.5309584709086e-09,5.2890952975597e-09,-6.3580653189395e-09,-0.0013953224198551,0.0013953301566379,-0.0013953270994492,0.0013953253985823,-0.0013953261667247,0.0013953262485256,-0.0013953308946956,0.0013953215097061,-0.0011587260946901,0.0011587352368592,-0.001158739954249,0.0011587212734086,-4.5242035072178e-09,7.1593110584909e-09,-1.0415181969046e-08,1.2830647962865e-08,-0.0017970727453412,0.0017970752005093,-0.0019609063422036,0.001960897176466,-0.0019608986479378,0.0019609049121522,-0.0019609025043094,0.0019609010593354,-0.0019608948162841,0.0019609087813971,-0.0015469658429486,0.0015469493676358,-0.0015469433387643,0.0015469724273377,-0.0016506405712219,0.0016506393516251,-0.0016506292066987,0.0016506510022112,-7.3822133942791e-09,6.9518954000008e-09,-0.00093923656931384,0.00093923605323589,1.108980956343e-08,-1.1975446989294e-08,-0.0010914159522315,0.0010914184146059,-0.0010914236548877,0.0010914107588535,-0.0010914111435729,0.0010914231857169,-0.001091418865401,0.0010914155139443,-0.00098385631976613,0.00098386215805749,-0.00098387036509813,0.00098384819187107,0.7689607863412,128566,2924,0.0051527658140447,0.0074576619061504,0.0039101088765272,23.631821620067,-5.0945427039467e-05,-5.0945427039467e-05,-5.0945427039467e-05,3594405.4982036,0.016658979760677
28819200,0.99536662376737,0.016784848267533,0.0053578914052143,0.007032349194202,0.0043946076681164,-0.0012402931223667,0.0012402922519781,6.7209756677921e-09,-7.5916906085231e-09,5.2876415117954e-09,-6.3560965299081e-09,-0.0013959427045798,0.0013959504830937,-0.0013959474260856,0.00139594568298,-0.0013959464516144,0.0013959465748334,-0.0013959512190669,0.0013959417963583,-0.0011593165746071,0.001159325834633,-0.0011593305495732,0.001159311754518,-4.5096438478878e-09,7.1432654617905e-09,-1.0401789314535e-08,1.2815931091632e-08,-0.0017978944561429,0.0017978969099647,-0.0019616797392199,0.0019616705929086,-0.0019616720554011,0.0019616783178267,-0.0019616759125388,0.0019616744643044,-0.0019616682326368,0.001961682177971,-0.0015477496832761,0.0015477332204477,-0.0015477272025841,0.0015477562555844,-0.0016514312511761,0.0016514300472723,-0.0016514199136392,0.0016514416716393,-7.4334634919234e-09,7.00056584128e-09,-0.00093959852644227,0.00093959800778262,1.1108695542682e-08,-1.199706748866e-08,-0.001092007338928,0.0010920097803163,-0.0010920150564055,0.0010920021097299,-0.0010920024982157,0.0010920145834155,-0.0010920102324049,0.0010920068992257,-0.00098429733065126,0.00098430325386225,-0.00098431147764594,0.00098428918640013,0.74978434038081,128566,2924,0.0051546685578258,0.0074610510630713,0.0039116241264567,23.824416439483,-4.9404668484133e-05,-4.9404668484133e-05,-4.9404668484133e-05,3588171.9179398,0.016665903234548
29019200,0.99552226505143,0.016787469501218,0.0053587208674501,0.0070334619239017,0.0043952867098662,-0.0012409713499526,0.001240970479245,6.7820911125955e-09,-7.6529907780327e-09,5.2908616905829e-09,-6.3600066700443e-09,-0.0013967518631181,0.0013967596857799,-0.0013967566266758,0.0013967548436952,-0.0013967556138503,0.0013967557740913,-0.0013967604206792,0.0013967509556483,-0.0011600981903717,0.0011601075649853,-0.0011601122819369,0.0011600933679413,-4.5017096766242e-09,7.1344729313963e-09,-1.038570253674e-08,1.2799071216748e-08,-0.0017988956982386,0.0017988981512458,-0.0019626643875204,0.0019626552569915,-0.001962656714599,0.0019626629701861,-0.001962660567175,0.001962659121761,-0.0019626528961718,0.0019626668261542,-0.0015486930456048,0.0015486766046922,-0.0015486705924373,0.0015486996109109,-0.0016523914457039,0.0016523902431876,-0.0016523801221929,0.0016524018561003,-7.484129061182e-09,7.0497392617238e-09,-0.00094017216105126,0.00094017164107212,1.1116416005357e-08,-1.200585312358e-08,-0.001092761661007,0.0010927640745147,-0.0010927693852283,0.0010927563972166,-0.0010927567883155,0.0010927689096099,-0.0010927645267332,0.0010927612210207,-0.0009849463875733,0.00098495240451157,-0.00098496063653042,0.00098493823650896,0.71130252907703,128566,2924,0.0051574801090026,0.0074651839853723,0.0039140164782217,24.140181161944,-4.6878550704446e-05,-4.6878550704446e-05,-4.6878550704446e-05,3586777.9168425,0.016675397867215
29219200,0.99567554943485,0.016789990483629,0.0053595176741469,0.0070345364168503,0.004395936392632,-0.0012416546873906,0.0012416538170219,6.8344496136674e-09,-7.7051073891141e-09,5.287797729387e-09,-6.3562751995675e-09,-0.0013975013575138,0.0013975092120324,-0.0013975061551591,0.001397504336301,-0.0013975051053597,0.0013975053034936,-0.0013975099475045,0.0013975004497739,-0.0011608315350766,0.0011608410166866,-0.0011608457312849,0.0011608267156075,-4.5066545498558e-09,7.1398103095784e-09,-1.0390227695735e-08,1.2803915710282e-08,-0.0017998031274262,0.0017998055807903,-0.0019636118222734,0.0019636026838083,-0.0019636041449438,0.0019636104019734,-0.0019636079976296,0.0019636065531415,-0.0019636003235033,0.0019636142607709,-0.0015495160025508,0.0015494995578587,-0.0015494935423637,0.0015495225722552,-0.0016532483192817,0.0016532471119396,-0.0016532369860806,0.0016532587320006,-7.5421096624108e-09,7.1096042095479e-09,-0.00094076555830024,0.00094076504010103,1.1103654572298e-08,-1.1991460571075e-08,-0.0010934313399131,0.0010934337058872,-0.001093439054297,0.0010934260385605,-0.0010934264271665,0.0010934385811856,-0.0010934341570143,0.0010934309011336,-0.00098559325764927,0.00098559939976185,-0.00098560762027235,0.000985585117938,0.69516966657305,128566,2924,0.0051603121139222,0.0074689322402166,0.0039164866297874,24.458918563571,-4.4328651491433e-05,-4.4328651491433e-05,-4.4328651491433e-05,3591070.7044822,0.016684599813227
29419200,0.99582640506738,0.016792307554983,0.0053602476440793,0.0070355361381575,0.0043965237727465,-0.0012423402603646,0.0012423393896125,6.8872821836466e-09,-7.7583656799691e-09,5.288184788581e-09,-6.3571059496593e-09,-0.0013982245966571,0.0013982324861329,-0.0013982294291993,0.0013982275754978,-0.0013982283443574,0.0013982285776713,-0.0013982332224453,0.0013982236881394,-0.001161535306405,0.0011615448924287,-0.0011615496080448,0.0011615304860598,-4.5111507555586e-09,7.1445949967624e-09,-1.0390959638669e-08,1.2804871524612e-08,-0.0018006604082221,0.0018006628618126,-0.0019645335684629,0.0019645244265117,-0.0019645258904505,0.0019645321454351,-0.0019645297404232,0.0019645282993553,-0.0019645220664993,0.0019645360068083,-0.0015502776949902,0.0015502612535701,-0.0015502552348638,0.0015502842680175,-0.0016540481852955,0.0016540469710477,-0.0016540368446242,0.0016540585989252,-7.5996747279552e-09,7.1682430399789e-09,-0.00094136553034201,0.00094136501321108,1.1094989871322e-08,-1.1981620145601e-08,-0.001094063255638,0.0010940655772771,-0.0010940709633529,0.001094057916618,-0.001094058303677,0.0010940704918061,-0.0010940660278472,0.0010940628174417,-0.00098623029027218,0.00098623655196573,-0.0009862447648799,0.00098622215768652,0.65089857274123,128566,2924,0.005163153140698,0.0074724748687791,0.0039189817199193,24.777768072365,-4.1777855421077e-05,-4.1777855421077e-05,-4.1777855421077e-05,3597522.96047,0.016693626761238
29619200,0.99597468186429,0.016794552251644,0.0053609543225087,0.0070365068304254,0.0043970910987095,-0.0012430137090038,0.0012430128374493,6.9417894331751e-09,-7.8136916989887e-09,5.2911465024519e-09,-6.3606173997398e-09,-0.00139886237522,0.0013988703024028,-0.0013988672442663,0.0013988653552258,-0.0013988661248127,0.0013988663919062,-0.0013988710397727,0.0013988614656517,-0.0011621606152051,0.0011621703059876,-0.0011621750245172,0.0011621557915403,-4.5165407380749e-09,7.150218035453e-09,-1.0390428039556e-08,1.2804487830392e-08,-0.0018013897018253,0.0018013921555902,-0.0019653888397144,0.0019653796947074,-0.0019653811621924,0.0019653874133472,-0.0019653850078989,0.0019653835712873,-0.0019653773345666,0.0019653912781002,-0.001550884892325,0.0015508684561936,-0.0015508624338593,0.0015508914695471,-0.0016547123541132,0.0016547111292578,-0.0016547010025826,0.0016547227668097,-7.6555792456712e-09,7.2247812331187e-09,-0.00094197120947051,0.00094197069293185,1.1089611874734e-08,-1.1975804067271e-08,-0.0010945842312506,0.0010945865122096,-0.0010945919350188,0.0010945788553429,-0.001094579241615,0.0010945914642284,-0.0010945869622253,0.0010945837934921,-0.00098685057642001,0.00098685695217064,-0.00098686516043914,0.00098684244829301,0.64191385967583,128566,2924,0.0051659432125676,0.007475492119382,0.0039214955257197,25.087394417205,-3.9300844662358e-05,-3.9300844662358e-05,-3.9300844662358e-05,3609790.623048,0.01670208510686
29819200,0.99611983187789,0.016796878971863,0.0053616888344856,0.0070375024091392,0.0043976877282383,-0.0012435974486643,0.0012435965762146,6.9976068397894e-09,-7.8704407560511e-09,5.2940216886831e-09,-6.364402966211e-09,-0.0013993946654271,0.0013994026314015,-0.0013993995718363,0.0013993976468307,-0.001399398417176,0.0013993987187781,-0.0013994033696874,0.001399393754849,-0.0011626789938961,0.0011626887918514,-0.0011626935136285,0.0011626741669619,-4.5229323428157e-09,7.1571525579022e-09,-1.0394743826829e-08,1.2809253731738e-08,-0.0018019903662984,0.0018019928205295,-0.0019661237842354,0.0019661146322766,-0.0019661161036861,0.0019661223539132,-0.0019661199480892,0.0019661185133912,-0.0019661122719528,0.0019661262230533,-0.0015513637112388,0.0015513472712981,-0.0015513412445932,0.0015513702938787,-0.0016552523949353,0.0016552511612529,-0.0016552410309278,0.0016552628117486,-7.7103013888351e-09,7.2797901298029e-09,-0.00094249549786129,0.00094249498159752,1.1086165958181e-08,-1.1972171737382e-08,-0.0010950018911702,0.0010950041334219,-0.0010950095925482,0.0010949964790413,-0.0010949968649579,0.0010950091222022,-0.0010950045833285,0.0010950014536639,-0.00098738236039172,0.00098738884621349,-0.0009873970514641,0.00098737423507103,0.67837703435104,128566,2924,0.0051683615094066,0.0074779785356222,0.0039236700507506,25.339672456208,-3.7282620350333e-05,-3.7282620350333e-05,-3.7282620350333e-05,3621646.6384236,0.016709280575426
30019200,0.9962618260538,0.016799190612032,0.0053624191203946,0.0070384890135044,0.0043982824781334,-0.0012441898129165,0.0012441889392555,7.0516511775073e-09,-7.9256408611487e-09,5.2998997077203e-09,-6.3716191838782e-09,-0.0014000046793307,0.001400012684991,-0.001400009622323,0.0014000076638553,-0.0014000084355799,0.0014000087678804,-0.0014000134242927,0.0014000037677336,-0.001163255817642,0.0011632657167779,-0.0011632704438271,0.0011632509851904,-4.5258392666582e-09,7.1601942475101e-09,-1.0390782569843e-08,1.2805378732529e-08,-0.0018026835778487,0.001802686032181,-0.0019668920744081,0.0019668829233675,-0.0019668843965733,0.0019668906422248,-0.0019668882364795,0.0019668868062899,-0.0019668805626867,0.0019668945135608,-0.0015519620987341,0.0015519456680453,-0.0015519396390253,0.0015519686830123,-0.0016558960365315,0.0016558947935816,-0.0016558846659082,0.0016559064503375,-7.7671660631271e-09,7.3359575024098e-09,-0.00094301240766754,0.0009430118907232,1.1091287854593e-08,-1.1977939152774e-08,-0.0010955247890877,0.0010955269967451,-0.001095532494218,0.0010955193386317,-0.0010955197253617,0.0010955320230049,-0.0010955274471096,0.0010955243511064,-0.00098792515622932,0.00098793174865441,-0.00098793995849185,0.00098791702653486,0.68873090065859,128566,2924,0.0051708164176233,0.0074808444198644,0.003925818181616,25.590562051965,-3.5275503584278e-05,-3.5275503584278e-05,-3.5275503584278e-05,3626665.380906,0.016716874143378
30219200,0.99640065048362,0.016801353057016,0.0053631009331256,0.0070394191868036,0.0043988329370865,-0.0012447799116898,0.0012447790373141,7.1072314811774e-09,-7.9818986804014e-09,5.3023444150068e-09,-6.3749172695945e-09,-0.0014006338819168,0.0014006419259718,-0.0014006388620829,0.0014006368676774,-0.0014006376399493,0.0014006380070498,-0.0014006426660644,0.0014006329695588,-0.0011638473062937,0.0011638573127847,-0.0011638620424071,0.001163842471417,-4.5306603460835e-09,7.1654164038004e-09,-1.0394288190219e-08,1.2809223408841e-08,-0.0018033975465656,0.0018034000012353,-0.0019676635905834,0.001967654434003,-0.0019676559102448,0.0019676621554296,-0.0019676597492709,0.0019676583204098,-0.001967652073167,0.0019676660300298,-0.0015525875207371,0.0015525710868232,-0.0015525650540533,0.0015525941086524,-0.0016565596820738,0.0016565584323522,-0.0016565483021655,0.0016565700990385,-7.8222581501201e-09,7.3912862873051e-09,-0.00094352165201538,0.00094352113531243,1.1089528576455e-08,-1.1975843854545e-08,-0.0010960747898584,0.0010960769595333,-0.0010960824936017,0.0010960693028094,-0.0010960696892294,0.0010960820226859,-0.0010960774097934,0.0010960743519879,-0.00098846098297061,0.00098846768467083,-0.00098847589309253,0.00098845285485548,0.66008312663958,128566,2924,0.0051732622013975,0.0074837951558889,0.0039279357477499,25.841399179615,-3.3268806563079e-05,-3.3268806563079e-05,-3.3268806563079e-05,3629710.3365821,0.01672451433403
30419200,0.99653658713631,0.01680335462944,0.0053637303858989,0.0070402888031198,0.0043993354404209,-0.0012454323141044,0.001245431439146,7.1621180457945e-09,-8.0372942904229e-09,5.3044177473223e-09,-6.3778600712822e-09,-0.0014012812234509,0.0014012893053729,-0.0014012862403072,0.0014012842104005,-0.0014012849830749,0.0014012853848128,-0.0014012900459919,0.0014012803105494,-0.0011644601158731,0.0011644702284196,-0.0011644749602852,0.0011644552791288,-4.5318264101081e-09,7.1666305905901e-09,-1.0392379153833e-08,1.2807328352616e-08,-0.0018041061516174,0.0018041086062936,-0.0019684701767401,0.0019684610206183,-0.001968462497625,0.0019684687407336,-0.001968466334677,0.0019684649078638,-0.0019684586598791,0.0019684726161293,-0.0015531875388718,0.0015531711096893,-0.0015531650756579,0.001553194127219,-0.0016572124077046,0.0016572111547574,-0.0016572010262745,0.001657222824292,-7.8783406773686e-09,7.4471970833881e-09,-0.0009441024432479,0.00094410192644473,1.1090186739525e-08,-1.1976476622739e-08,-0.0010966227577078,0.0010966248902992,-0.0010966304618207,0.0010966172332084,-0.0010966176197131,0.0010966299908265,-0.0010966253407024,0.0010966223196609,-0.00098905715998015,0.00098906397056415,-0.00098907217980412,0.00098904903132452,0.62526527455433,128566,2924,0.0051759656951486,0.0074867259496919,0.0039303475001533,26.129331064202,-3.0965351486384e-05,-3.0965351486384e-05,-3.0965351486384e-05,3637439.5423446,0.016732694387781
30619200,0.99667042316465,0.016805449548248,0.005364391236988,0.0070411884219316,0.0043998698893289,-0.0012462965186856,0.001246295643844,7.2189455098722e-09,-8.0938712547655e-09,5.301914224976e-09,-6.3755677259e-09,-0.0014020850001971,0.0014020931186324,-0.0014020900549935,0.0014020879858386,-0.0014020887583418,0.0014020891996021,-0.0014020938589922,0.0014020840876399,-0.0011652415304171,0.0011652517558085,-0.0011652564859936,0.0011652366960437,-4.5332556036825e-09,7.1680938722996e-09,-1.0392123195005e-08,1.2807088922578e-08,-0.0018049445158925,0.0018049469705685,-0.0019694515741123,0.0019694424173699,-0.0019694438953266,0.0019694501371492,-0.0019694477312651,0.0019694463055415,-0.0019694400565172,0.0019694540136187,-0.001553894337351,0.0015538779093069,-0.0015538718739381,0.0015539009262403,-0.0016579931186386,0.0016579918623628,-0.0016579817350648,0.0016580035359987,-7.9324279417089e-09,7.5021797147892e-09,-0.00094489226064242,0.00094489174485864,1.1082128348586e-08,-1.1967021626366e-08,-0.0010972958893443,0.0010972979808222,-0.0010973035877593,0.0010972903294358,-0.0010972907150755,0.001097303117578,-0.0010972984301838,0.0010972954523156,-0.00098985449963646,0.00098986142376444,-0.00098986962676244,0.00098984637778212,0.66318230306331,128566,2924,0.0051795465161382,0.0074901959966326,0.0039336236514517,26.523514941275,-2.7811880469803e-05,-2.7811880469803e-05,-2.7811880469803e-05,3651187.4751379,0.016743192316414
30819200,0.99680207975909,0.016807603986038,0.0053650723079129,0.0070421066895783,0.0044004249885465,-0.0012471812437882,0.0012471803693656,7.2738264674179e-09,-8.1484817117645e-09,5.3007447211594e-09,-6.3735174654164e-09,-0.0014029854146621,0.0014029935687446,-0.0014029905058609,0.0014029883995044,-0.0014029891716668,0.0014029896508786,-0.001402994308839,0.0014029845023323,-0.001166100777765,0.0011661111116675,-0.0011661158402987,0.0011660959439923,-4.5305535845802e-09,7.1650120218598e-09,-1.0387734298377e-08,1.2802324469834e-08,-0.001805899551637,0.0018059020059587,-0.0019704854477056,0.0019704762954995,-0.0019704777718934,0.0019704840123493,-0.001970481606628,0.0019704801817654,-0.0019704739349715,0.0019704878867841,-0.001554748222313,0.0015547318011911,-0.0015547257687088,0.0015547548095168,-0.0016589022690044,0.0016589010150332,-0.0016588908900651,0.0016589126814951,-7.9888169619197e-09,7.5587524540226e-09,-0.00094568151976636,0.00094568100401323,1.1080634870093e-08,-1.1965825605037e-08,-0.0010980933240292,0.0010980953769702,-0.0010981010214382,0.0010980877265758,-0.0010980881120652,0.0010981005514532,-0.0010980958263033,0.0010980928870676,-0.00099067203635028,0.00099067907217787,-0.00099068727343895,0.00099066391547774,0.69236328239462,128566,2924,0.0051832132759972,0.0074941448537797,0.003936902228884,26.920280420927,-2.463775663258e-05,-2.463775663258e-05,-2.463775663258e-05,3657565.0651636,0.016754269029631
31019200,0.99693146114302,0.016809783713511,0.0053657623131648,0.0070430315060288,0.0044009898943172,-0.0012480717396424,0.0012480708656706,7.3293838493398e-09,-8.2036589667317e-09,5.2983230831792e-09,-6.3707820615693e-09,-0.0014039453952359,0.0014039535850341,-0.0014039505233367,0.0014039483789506,-0.0014039491505082,0.0014039496689201,-0.0014039543246233,0.0014039444834626,-0.0011670123709255,0.0011670228154383,-0.0011670275419988,0.0011670075392056,-4.5282316212205e-09,7.1624143233354e-09,-1.0385797696833e-08,1.2800145586986e-08,-0.0018069351640069,0.001806937618067,-0.0019715502623446,0.0019715411128616,-0.0019715425878677,0.0019715488283475,-0.0019715464228911,0.0019715449975348,-0.0019715387526251,0.0019715527011406,-0.0015557039639087,0.0015556875450674,-0.0015556815143054,0.0015557105490831,-0.0016599010963917,0.001659899845756,-0.0016598897227279,0.0016599115076311,-8.0445773115859e-09,7.6147060406376e-09,-0.00094646037513623,0.00094645985959674,1.1078557405441e-08,-1.1963460185876e-08,-0.0010989687514045,0.0010989707657732,-0.0010989764473007,0.0010989631168854,-0.0010989635021868,0.0010989759775138,-0.0010989712149572,0.0010989683145732,-0.00099149509112315,0.00099150223788061,-0.00099151043729463,0.00099148697174736,0.71215832179672,128566,2924,0.0051869045482909,0.0074984241871862,0.0039401410743618,27.317143556504,-2.1462851547968e-05,-2.1462851547968e-05,-2.1462851547968e-05,3658811.5981802,0.016765667772232
31219200,0.99705958716884,0.016812046766216,0.0053664801612995,0.0070439847436361,0.0044015818612805,-0.0012492525239917,0.001249251653354,7.3852199980176e-09,-8.2558681889133e-09,5.2741269726001e-09,-6.3433158482904e-09,-0.0014052335848212,0.0014052417965337,-0.0014052387490152,0.0014052365547537,-0.00140523732278,0.0014052378979584,-0.0014052425333379,0.0014052326763816,-0.0011682585344733,0.0011682691067415,-0.0011682738127441,0.0011682537247786,-4.5483322772769e-09,7.1844572765265e-09,-1.0419360229109e-08,1.2835481537732e-08,-0.001808324415159,0.0018083268709587,-0.0019729353869716,0.001972926202296,-0.001972927689797,0.0019729339409232,-0.0019729315333386,0.0019729301013614,-0.0019729238407348,0.0019729378275901,-0.0015570196615518,0.0015570031920123,-0.0015569971447654,0.0015570262624631,-0.0016612609095749,0.0016612596425643,-0.0016612494970932,0.0016612713472175,-8.0990921949363e-09,7.6746236937054e-09,-0.00094749670120574,0.00094749619129887,1.1035548363808e-08,-1.1913601783622e-08,-0.0011001660578374,0.0011001680084362,-0.0011001737227031,0.001100160390495,-0.001100160770175,0.0011001732583719,-0.0011001684525267,0.0011001656261905,-0.00099259551766,0.00099260281173835,-0.00099261097547981,0.00099258743451792,0.74546029696358,128566,2924,0.0051917992486076,0.0075041636981817,0.0039444517046731,27.866567114398,-1.7067463084813e-05,-1.7067463084813e-05,-1.7067463084813e-05,3658880.5731253,0.016780865646163
31419200,0.99718641279218,0.016814184210018,0.005367156892124,0.0070448926096448,0.0044021347082491,-0.0012504521673473,0.0012504512918659,7.4412209232572e-09,-8.3168929738357e-09,5.3140778527642e-09,-6.3882743407805e-09,-0.0014065998216301,0.0014066080962773,-0.0014066050245946,0.001406602814712,-0.0014066035881255,0.0014066041686653,-0.0014066088370619,0.0014065989082675,-0.0011695721801383,0.0011695828314055,-0.0011695875701773,0.0011695673340814,-4.5035223948939e-09,7.1350878547873e-09,-1.0338083126598e-08,1.2750093510101e-08,-0.0018098246021754,0.0018098270538997,-0.0019743864350805,0.0019743773348398,-0.0019743787938267,0.0019743850160761,-0.0019743826132698,0.0019743812013108,-0.0019743749759527,0.0019743888709548,-0.0015584667045087,0.0015584503616457,-0.0015584443498213,0.0015584732685801,-0.0016627359715323,0.0016627347359867,-0.0016627246483116,0.0016627463467162,-8.1566216214113e-09,7.7225568890134e-09,-0.00094853459994866,0.0009485340802827,1.1106552786554e-08,-1.199583853967e-08,-0.0011014543804457,0.0011014563382129,-0.001101462097087,0.0011014486684622,-0.0011014490579196,0.00110146162289,-0.0011014567912477,0.0011014539395007,-0.00099371361515029,0.00099372095229824,-0.00099372917721586,0.00099370547081456,0.7124263021512,128566,2924,0.0051967724680722,0.0075103589473826,0.0039487725967,28.434648878456,-1.2522808972348e-05,-1.2522808972348e-05,-1.2522808972348e-05,3654915.2767118,0.016796618854451
31619200,0.99731175293254,0.016816199121391,0.0053677935603474,0.0070457555175151,0.004402650043529,-0.0012516330185986,0.0012516321450121,7.497090939143e-09,-8.3709231434083e-09,5.3009483104289e-09,-6.3731260848434e-09,-0.0014078877035128,0.0014078960069477,-0.001407892943461,0.001407890689372,-0.0014078914607195,0.0014078920894483,-0.0014078967460467,0.0014078867920877,-0.0011708318925006,0.0011708426643458,-0.0011708473915699,0.0011708270602609,-4.5129903331843e-09,7.1455399613061e-09,-1.0357212115926e-08,1.2770098624547e-08,-0.0018112340544219,0.0018112365070206,-0.0019757972723001,0.0019757881498628,-0.0019757896157532,0.0019757958467798,-0.0019757934429426,0.0019757920240732,-0.0019757857905747,0.0019757997092274,-0.00155979849954,0.0015597821256029,-0.0015597761059605,0.0015598050721307,-0.0016641094142373,0.0016641081741821,-0.0016640980719192,0.0016641198047538,-8.211494377612e-09,7.7802726528962e-09,-0.00094956511082394,0.00094956459400821,1.1084698811825e-08,-1.197086948238e-08,-0.0011026456563564,0.0011026475629102,-0.0011026533567077,0.0011026399097022,-0.0011026402963793,0.0011026528854188,-0.0011026480133328,0.0011026452181556,-0.00099480910866249,0.00099481657509177,-0.00099482478122999,0.00099480098413159,0.68057767051745,128566,2924,0.0052016669287839,0.0075161815375997,0.0039530595340775,29.003232889041,-7.9741368876683e-06,-7.9741368876683e-06,-7.9741368876683e-06,3656914.2802461,0.016811877208956
31819200,0.99743330659783,0.016818086204829,0.0053683889211051,0.0070465687524525,0.0044031285312719,-0.0012522262794685,0.0012522254083103,7.554802838029e-09,-8.4262941500905e-09,5.2837565923226e-09,-6.3529296747122e-09,-0.0014085207825037,0.0014085291134364,-0.0014085260600683,0.0014085237583987,-0.0014085245272698,0.0014085252083711,-0.0014085298506879,0.0014085198735913,-0.0011714407098121,0.001171451607221,-0.0011714563204492,0.0011714358923121,-4.5293536588254e-09,7.1633300337728e-09,-1.0403781282153e-08,1.2817942245428e-08,-0.0018119489164578,0.0018119513704184,-0.0019765646416843,0.0019765554788866,-0.0019765569548766,0.0019765632071876,-0.0019765608012486,0.0019765593644992,-0.0019765531187743,0.0019765670807458,-0.001560425889777,0.0015604094363545,-0.0015604034058002,0.001560432476399,-0.0016647814747311,0.0016647802332642,-0.0016647700979221,0.0016647918962383,-8.2646400579487e-09,7.8365631315557e-09,-0.00095006758199487,0.00095006706817591,1.1064929988984e-08,-1.1947932256472e-08,-0.0011031910060001,0.0011031928649672,-0.0011031986923558,0.0011031852259007,-0.0011031856094968,0.0011031982241811,-0.0011031933127163,0.0011031905708658,-0.00099534517169536,0.00099535276217099,-0.00099536095025928,0.00099533706383989,0.65805653338158,128566,2924,0.0052041254476296,0.007519135558036,0.0039551494132442,29.265654649677,-5.8747628025875e-06,-5.8747628025875e-06,-5.8747628025875e-06,3660560.4559283,0.016819506298388
32019200,0.99754947306289,0.016820059210792,0.0053690139111382,0.0070474056643673,0.0044036396352869,-0.0012523611951258,0.0012523603239241,7.6116921767127e-09,-8.4834993981169e-09,5.2841521440035e-09,-6.3527549584026e-09,-0.0014086388599313,0.0014086472289954,-0.0014086441752519,0.0014086418353203,-0.0014086426046199,0.0014086433232931,-0.0014086479660205,0.0014086379507747,-0.0011715488982741,0.0011715599053542,-0.001171564618582,0.0011715440777069,-4.5321809459243e-09,7.1661671218664e-09,-1.0429078111234e-08,1.2843197494956e-08,-0.0018121142769502,0.0018121167308516,-0.0019768124662977,0.0019768032869765,-0.0019768047646531,0.0019768110304125,-0.0019768086245532,0.0019768071737202,-0.0019768009269064,0.0019768149054857,-0.0015605071225313,0.0015604906214184,-0.001560484590413,0.0015605137121396,-0.0016649086010566,0.0016649073702097,-0.0016648972173668,0.0016649190375691,-8.3196134870133e-09,7.8896982813749e-09,-0.00095015907118717,0.0009501585552423,1.1079342947384e-08,-1.1965372269372e-08,-0.0011032346849427,0.0011032365170224,-0.0011032423821734,0.0011032288667374,-0.0011032292524791,0.0011032419120202,-0.0011032369664279,0.0011032342480373,-0.00099544183399875,0.00099544951873189,-0.00099545771778503,0.00099543371301825,0.71766339092381,128566,2924,0.0052046840178386,0.0075198203412574,0.0039555289997339,29.280977702219,-5.7521783822463e-06,-5.7521783822463e-06,-5.7521783822463e-06,3664531.6931271,0.016821155592954
32219200,0.99766044749997,0.016821986523986,0.0053696249727352,0.0070482204840123,0.0044041410672388,-0.0012524899914087,0.0012524891189289,7.6649793489916e-09,-8.5378116690479e-09,5.2920745771256e-09,-6.3626558902889e-09,-0.0014088493408737,0.0014088577503962,-0.0014088546919397,0.0014088523209016,-0.0014088530912569,0.0014088538388869,-0.0014088584886448,0.0014088484304561,-0.0011717283880939,0.0011717394942634,-0.001171744214527,0.0011717235615975,-4.5287237405984e-09,7.1625264252049e-09,-1.0432003280343e-08,1.2845970530889e-08,-0.0018124076928249,0.0018124101465365,-0.0019770965513969,0.001977087372075,-0.0019770888476329,0.001977095117507,-0.0019770927119296,0.0019770912565816,-0.0019770850123808,0.0019770989902029,-0.0015607622557446,0.0015607457469575,-0.0015607397174995,0.0015607688419306,-0.0016651789206612,0.0016651776994607,-0.001665167545877,0.0016651893609902,-8.378486298697e-09,7.9454728889686e-09,-0.00095022140681225,0.00095022088799262,1.1104911364169e-08,-1.1993689240119e-08,-0.001103412156915,0.0011034139655536,-0.0011034198717845,0.0011034062976079,-0.001103406686134,0.001103419398756,-0.0011034144178802,0.0011034117169634,-0.00099553362201206,0.00099554139764482,-0.00099554961859821,0.00099552548053685,0.73340852298481,128566,2924,0.0052052184931194,0.0075210298059362,0.0039557936509779,29.290205923819,-5.6783526094448e-06,-5.6783526094448e-06,-5.6783526094448e-06,3658772.249192,0.016823199611633
32419200,0.99776645726952,0.016823873620373,0.0053702238674662,0.0070490152978418,0.0044046344550652,-0.0012526062152281,0.0012526053422888,7.719383692252e-09,-8.5926312182769e-09,5.2949292607957e-09,-6.3659154408883e-09,-0.001409069912434,0.0014090783597752,-0.0014090752997982,0.0014090728939321,-0.0014090736647572,0.0014090744463329,-0.0014090790985733,0.0014090690013864,-0.0011719233738181,0.0011719345848977,-0.0011719393074463,0.0011719185449963,-4.5303662301273e-09,7.1642612285019e-09,-1.044036907648e-08,1.2854414399523e-08,-0.0018127267884744,0.0018127292422772,-0.0019773842830996,0.0019773750968671,-0.001977376573594,0.0019773828481495,-0.0019773804423433,0.0019773789826569,-0.0019773727372249,0.0019773867219719,-0.0015610537421704,0.001561037218439,-0.0015610311879121,0.0015610603297898,-0.0016654797557973,0.0016654785371547,-0.0016654683777416,0.0016654902015638,-8.4357276320338e-09,8.0012393859259e-09,-0.00095027016523071,0.0009502696448999,1.1117533483631e-08,-1.2008052092675e-08,-0.0011036124349878,0.0011036142134184,-0.0011036201587802,0.0011036065365727,-0.0011036069264842,0.0011036196843715,-0.0011036146672566,0.0011036119935034,-0.00099562222099925,0.00099563009652397,-0.00099563832816774,0.0009956140692718,0.75109425957805,128566,2924,0.0052057010408697,0.0075223440697635,0.0039560037250303,29.299202415555,-5.6063806755583e-06,-5.6063806755583e-06,-5.6063806755583e-06,3651270.6748937,0.016825242429456
32619200,0.99786746325274,0.016825536877399,0.0053707499562953,0.0070497251234249,0.004405061797679,-0.0012526136538777,0.0012526127823473,7.7690553436738e-09,-8.6411217594691e-09,5.2875450703703e-09,-6.3566187061913e-09,-0.0014092061467936,0.0014092146217987,-0.0014092115659574,0.0014092091241095,-0.0014092098925968,0.0014092107145983,-0.0014092153605727,0.0014092052366882,-0.0011720327466097,0.0011720440631009,-0.0011720487800556,0.001172027925396,-4.5368270500478e-09,7.1715961505427e-09,-1.0457441704511e-08,1.2872284195201e-08,-0.0018129758122348,0.0018129782669753,-0.0019775820345802,0.0019775728321043,-0.0019775743129569,0.0019775805970431,-0.0019775781885796,0.0019775767235147,-0.0019775704726877,0.0019775844743997,-0.0015612868873644,0.0015612703373508,-0.0015612643045783,0.0015612934831487,-0.0016657095577814,0.0016657083404311,-0.001665698166784,0.0016657200141272,-8.496845325171e-09,8.0641632927136e-09,-0.00095021273342464,0.00095021221451079,1.1113395642862e-08,-1.2002463257128e-08,-0.0011037434806985,0.0011037452146537,-0.001103751200123,0.0011037375423431,-0.0011037379300343,0.0011037507277504,-0.0011037456682458,0.0011037430397883,-0.00099560782086505,0.000995615820148,-0.00099562404647087,0.0009955996739006,0.69653886807174,128566,2924,0.0052057328743204,0.0075233671781826,0.0039557746587824,29.262922863169,-5.8966170946464e-06,-5.8966170946464e-06,-5.8966170946464e-06,3641557.1598431,0.016826084974503
32819200,0.99796358995282,0.01682699754826,0.005371210247795,0.0070503571887258,0.0044054301117391,-0.0012525602550015,0.0012525593819637,7.8322349886709e-09,-8.7056775983107e-09,5.2955237637223e-09,-6.3665954398795e-09,-0.0014091855418353,0.0014091940652729,-0.0014091910048094,0.0014091885235952,-0.0014091892948508,0.0014091901509526,-0.001409194803791,0.001409184631015,-0.0011720063315114,0.0011720177619261,-0.0011720224853136,0.0011720015015224,-4.5247070431881e-09,7.1579933899801e-09,-1.0441790121421e-08,1.2855261362178e-08,-0.0018130283961205,0.0018130308493593,-0.0019776644017564,0.0019776552193156,-0.0019776566924408,0.0019776629705392,-0.0019776605655408,0.0019776591004848,-0.0019776528598367,0.0019776668404516,-0.0015612880383486,0.0015612715073815,-0.0015612654816911,0.0015612946215768,-0.0016657299737596,0.0016657287662677,-0.001665718606633,0.0016657404192455,-8.5456209039764e-09,8.1097925227242e-09,-0.0009501252847542,0.00095012476296091,1.1128857463867e-08,-1.2021066816172e-08,-0.001103688048099,0.0011036897608462,-0.0011036957802741,0.0011036820755026,-0.0011036824670965,0.0011036953041659,-0.0011036902157296,0.0011036876055345,-0.00099553490575041,0.00099554298638167,-0.00099555122702103,0.00099552674432479,0.64446135849092,128566,2924,0.0052055114287659,0.0075235826110117,0.0039554149849955,29.204464119528,-6.3642870437794e-06,-6.3642870437794e-06,-6.3642870437794e-06,3640415.7092849,0.016825713413189
33019200,0.99805508377352,0.016828501752876,0.0053716859902128,0.0070509985206864,0.0044058172419766,-0.0012525167415963,0.0012525158694542,7.8850446715699e-09,-8.7575227541076e-09,5.2908266815936e-09,-6.3606426807322e-09,-0.0014090772996584,0.001409085854575,-0.0014090827970417,0.0014090802787073,-0.0014090810487483,0.0014090819443958,-0.0014090865929416,0.0014090763891085,-0.0011719100804001,0.0011719216195607,-0.0011719263382795,0.0011719052553572,-4.5264691145345e-09,7.1597586414646e-09,-1.0444610118154e-08,1.2858075283567e-08,-0.0018129467726542,0.0018129492259038,-0.0019776851299956,0.0019776759433031,-0.0019776774178393,0.0019776836974105,-0.001977681291806,0.0019776798263814,-0.0019776735843201,0.0019776875682076,-0.0015611275134741,0.0015611109792407,-0.0015611049526997,0.0015611340983885,-0.0016656130822204,0.0016656118742888,-0.0016656017120237,0.001665623528952,-8.6039181123804e-09,8.1690698265712e-09,-0.00095007325502871,0.00095007273422029,1.112047033003e-08,-1.2011678902544e-08,-0.0011035147488957,0.0011035164170946,-0.0011035224748242,0.0011035087381026,-0.001103509128301,0.0011035220001611,-0.0011035168715108,0.0011035143068776,-0.00099547025816182,0.0009954784595671,-0.00099548669374292,0.00099546210406301,0.69524135651569,128566,2924,0.0052053300776726,0.0075232481581758,0.0039551956886713,29.145452416411,-6.8363806687093e-06,-6.8363806687093e-06,-6.8363806687093e-06,3647156.2428099,0.016824963785041
33219200,0.99814218092271,0.016830005878964,0.0053721626938579,0.0070516346380092,0.0044062085470968,-0.0012524864242657,0.0012524855520052,7.9412376296047e-09,-8.8138528235243e-09,5.2899838894579e-09,-6.3602427621848e-09,-0.001409070961842,0.0014090795540144,-0.0014090764968509,0.0014090739405409,-0.0014090747106276,0.0014090756441246,-0.0014090802922089,0.0014090700514787,-0.0011718902577232,0.0011719019070909,-0.0011719066256924,0.0011718854331993,-4.5244181937769e-09,7.1575237397982e-09,-1.0438132353398e-08,1.2851431091249e-08,-0.0018129920157697,0.0018129944688261,-0.0019777537591543,0.0019777445781452,-0.0019777460514317,0.0019777523277201,-0.0019777499225388,0.0019777484597195,-0.0019777422192369,0.0019777561972479,-0.0015611330604763,0.0015611165372369,-0.0015611105118219,0.0015611396433481,-0.001665636214091,0.0016656350055402,-0.0016656248485733,0.0016656466570962,-8.6585592693916e-09,8.2241280138506e-09,-0.00095001319290032,0.00095001267257518,1.1116672067123e-08,-1.2007204973731e-08,-0.0011034793749097,0.0011034810043743,-0.0011034870982109,0.0011034733279978,-0.0011034737178677,0.0011034866238623,-0.0011034814581989,0.0011034789334448,-0.00099541976443811,0.00099542807654825,-0.000995436307634,0.00099541161323526,0.72922790977293,128566,2924,0.0052052045310775,0.0075234341621473,0.0039549483795549,29.086419649952,-7.3086428003862e-06,-7.3086428003862e-06,-7.3086428003862e-06,3645287.5633105,0.016824774005043
33419200,0.99822644655432,0.016831489074571,0.0053726331228376,0.007052260087416,0.0044065958643174,-0.0012529851019955,0.0012529842222822,8.0088675467116e-09,-8.8884876898834e-09,5.3393785337685e-09,-6.4189647707971e-09,-0.0014096606538749,0.001409669324925,-0.001409666238763,0.0014096636614458,-0.0014096644409823,0.0014096653762216,-0.0014096700675479,0.0014096597389724,-0.0011724551015967,0.0011724668406372,-0.0011724716025111,0.0011724502356854,-4.4935743030954e-09,7.1231442385977e-09,-1.0342637984627e-08,1.2752692244006e-08,-0.0018136772031181,0.001813679653072,-0.0019784111872519,0.0019784020922022,-0.0019784035459136,0.0019784097741178,-0.0019784073746955,0.0019784059491293,-0.001978399732607,0.0019784136241188,-0.0015617915925804,0.0015617752271005,-0.0015617692225991,0.001561798145832,-0.0016663038882713,0.0016663026679944,-0.0016662925806666,0.0016663142642823,-8.7020368504222e-09,8.2606136096791e-09,-0.00095043720567766,0.00095043667870316,1.117044314163e-08,-1.2067508614121e-08,-0.001104040418872,0.0011040420557098,-0.0011040481828531,0.0011040343386905,-0.0011040347374546,0.0011040476989808,-0.0011040425131437,0.0011040399729462,-0.00099588715687273,0.0009958955084767,-0.00099590378773121,0.00099587896099202,0.74278652789622,128566,2924,0.0052072721510849,0.0075262627614585,0.0039567153294753,29.311747056172,-5.5060235506226e-06,-5.5060235506226e-06,-5.5060235506226e-06,3641980.7542791,0.016831551237135
33619200,0.99830827203611,0.016832929858292,0.0053730900716334,0.0070528678555502,0.0044069719311086,-0.0012536227114569,0.0012536218374393,8.0455155748013e-09,-8.9197463829183e-09,5.2952318377985e-09,-6.3675845023702e-09,-0.0014104137302582,0.0014104223937358,-0.0014104193348987,0.0014104167119487,-0.0014104174826196,0.0014104184810967,-0.0014104231348021,0.0014104128177919,-0.0011731871855182,0.0011731990394368,-0.0011732037641435,0.0011731823593064,-4.5490748022403e-09,7.1846016634685e-09,-1.04153943305e-08,1.2830875937724e-08,-0.0018145378780308,0.0018145403333479,-0.001979228226926,0.0019792190405351,-0.0019792205297302,0.0019792267795429,-0.0019792243712755,0.0019792229416171,-0.0019792166803198,0.001979230666746,-0.0015626276760519,0.0015626112155813,-0.0015626051695605,0.0015626342778232,-0.0016671489853936,0.0016671477158311,-0.0016671375707034,0.0016671594177575,-8.7722180513005e-09,8.3448600302597e-09,-0.00095097865494695,0.00095097814196299,1.1060253404909e-08,-1.1942129859589e-08,-0.0011047585397865,0.0011047600566037,-0.0011047662219596,0.001104752421848,-0.0011047528038939,0.0011047657553141,-0.001104760504319,0.0011047581046592,-0.00099648298305819,0.00099649156997291,-0.00099649975459955,0.00099647488043156,0.74303042396615,128566,2924,0.0052099156859649,0.0075298155419761,0.0039589718100321,29.613461325612,-3.0923093951066e-06,-3.0923093951066e-06,-3.0923093951066e-06,3638206.6347674,0.016840148911022
33819200,0.99838766792435,0.016834332109779,0.0053735348395598,0.0070534592758999,0.0044073379943192,-0.0012542491326867,0.0012542482528686,8.1217245724628e-09,-9.0017553543537e-09,5.3382957461337e-09,-6.4171450817403e-09,-0.0014111558604772,0.0014111646056581,-0.0014111615205686,0.001411158866698,-0.0014111596465291,0.0014111606582294,-0.0014111653484988,0.0014111549448918,-0.0011739149393418,0.0011739269001488,-0.0011739316611613,0.0011739100722196,-4.5101298990392e-09,7.1416424001975e-09,-1.0315507428505e-08,1.2727352646466e-08,-0.0018153935881379,0.0018153960397507,-0.001980043977859,0.0019800348907351,-0.0019800363539685,0.001980042554234,-0.0019800401537901,0.0019800387594605,-0.0019800325295965,0.0019800464157077,-0.0015634544432172,0.0015634381429274,-0.0015634321269881,0.0015634610112328,-0.0016679878729063,0.0016679866030415,-0.0016679765305733,0.0016679982325453,-8.8087051141384e-09,8.3724332138646e-09,-0.00095150912278714,0.00095150860083642,1.1124068108355e-08,-1.2015974353627e-08,-0.001105464273142,0.0011054658096372,-0.001105472004668,0.0011054581250646,-0.0011054585189387,0.0011054715259881,-0.001105466262667,0.0011054638320123,-0.00099707061668199,0.00099707921995751,-0.00099708745931697,0.00099706245828943,0.74517769070724,128566,2924,0.0052125126398755,0.0075333474158319,0.003961183179966,29.917122504082,-6.6301996734571e-07,-6.6301996734571e-07,-6.6301996734571e-07,3634978.4986639,0.01684863207541
34019200,0.99846463857047,0.016835652144727,0.0053739529906378,0.0070540188913335,0.0044076802627553,-0.0012548633395079,0.0012548624643934,8.1577254912293e-09,-9.033084244568e-09,5.3027292584743e-09,-6.3762678349239e-09,-0.0014118864213448,0.0014118951645097,-0.0014118921014483,0.0014118894074183,-0.0014118901794778,0.00141189124627,-0.001411895906158,0.0014118855079376,-0.0011746326572781,0.001174644724254,-0.001174649454539,0.0011746278231381,-4.5473427399772e-09,7.1826441678569e-09,-1.0376374074659e-08,1.2791624427948e-08,-0.001816241733195,0.001816244188231,-0.0019808536891302,0.0019808445293092,-0.0019808460172472,0.0019808522421217,-0.0019808498349793,0.0019808484288035,-0.0019808421688166,0.0019808561283206,-0.0015642729587762,0.0015642565726606,-0.0015642505277034,0.0015642795584753,-0.0016688178405208,0.0016688165479587,-0.0016688064286311,0.0016688282473049,-8.8809118432834e-09,8.4552953775375e-09,-0.00095202792776977,0.00095202741656428,1.1040715576012e-08,-1.1920695922848e-08,-0.0011061576205353,0.0011061590525525,-0.0011061652893495,0.0011061514312078,-0.0011061518119487,0.001106164824066,-0.0011061594981483,0.0011061571872756,-0.00099764740220072,0.00099765621999894,-0.00099766438948747,0.00099763931501787,0.72426545112476,128566,2924,0.0052150589257272,0.0075368478648173,0.0039633463309148,30.22085819663,1.7668655730372e-06,1.7668655730372e-06,1.7668655730372e-06,3632082.1218751,0.016856982762424
34219200,0.99854047824625,0.016836918831875,0.0053743537698437,0.0070545583164456,0.0044080067455857,-0.0012560532902217,0.0012560524143246,8.2226048959911e-09,-9.0984712837559e-09,5.3100683138411e-09,-6.3850257551402e-09,-0.0014131658448672,0.0014131746373046,-0.0014131715690194,0.0014131688352373,-0.0014131696087869,0.0014131707123374,-0.0014131753787551,0.0014131649315394,-0.0011759068558079,0.001175919041158,-0.0011759237787295,0.001175902015437,-4.5355511030271e-09,7.1695530149003e-09,-1.033666751502e-08,1.2750750332918e-08,-0.0018176385077867,0.0018176409616314,-0.0019822418921929,0.0019822327714418,-0.0019822342508085,0.0019822404529843,-0.0019822380483605,0.0019822366605956,-0.0019822304107256,0.0019822443305917,-0.0015656120671917,0.0015655957497005,-0.0015655897125646,0.0015656186549506,-0.0016701904111288,0.0016701891129019,-0.0016701790236195,0.0016702007900595,-8.9276069469676e-09,8.5007575230127e-09,-0.00095308639886395,0.00095308588670516,1.104696907009e-08,-1.1927500514193e-08,-0.0011073507230827,0.0011073521290499,-0.0011073583972748,0.0011073445018878,-0.001107344884347,0.0011073579301185,-0.0011073525747909,0.0011073502894116,-0.00099877357537274,0.00099878247964537,-0.00099879065450938,0.00099876548212348,0.70594348658018,128566,2924,0.0052199909342898,0.0075426178278263,0.0039677487653915,30.832237877148,6.6579030171828e-06,6.6579030171828e-06,6.6579030171828e-06,3636172.1499769,0.016872343651333
34419200,0.998615192562,0.016838171686469,0.0053747502422206,0.0070550916127262,0.0044083298315224,-0.0012573084576846,0.0012573075867411,8.2374622374294e-09,-9.1084493075251e-09,5.2680761312065e-09,-6.3378296617131e-09,-0.0014144832695309,0.0014144920428277,-0.0014144889993318,0.0014144862359149,-0.001414487000419,0.0014144881498176,-0.0014144927845968,0.0014144823603997,-0.0011772199969989,0.0011772322512802,-0.0011772369594667,0.0011772151979058,-4.5657967486905e-09,7.2045524049283e-09,-1.042296258953e-08,1.2841506670139e-08,-0.00181905628266,0.0018190587410874,-0.0019836791123436,0.0019836699115517,-0.0019836714103661,0.0019836776595674,-0.0019836752442354,0.0019836738259894,-0.0019836675509767,0.0019836815552093,-0.001566956594771,0.0015669401390912,-0.0015669340818304,0.0015669632151375,-0.0016715801860627,0.001671578898249,-0.0016715687434301,0.0016715906311406,-9.0179614899005e-09,8.6079993212777e-09,-0.0009542089571231,0.00095420846111138,1.09498062387e-08,-1.1811480753576e-08,-0.0011085636203169,0.0011085649006364,-0.0011085712197112,0.0011085573489045,-0.0011085577125623,0.0011085707699513,-0.0011085653346587,0.0011085631989669,-0.00099995584874608,0.00099996502396764,-0.00099997311372786,0.00099994784190319,0.70867958457491,128566,2924,0.0052251928059909,0.007548476133078,0.0039724153771505,31.476043721882,1.1808349775058e-05,1.1808349775058e-05,1.1808349775058e-05,3643369.9089439,0.016888336985693
34619200,0.99868864660875,0.016839452691242,0.0053751563167281,0.0070556335149873,0.0044086628595261,-0.0012585721319477,0.0012585712672355,8.2414725916769e-09,-9.1064772678019e-09,5.2269579745843e-09,-6.2897741101302e-09,-0.001415813317853,0.0014158220652451,-0.0014158190447114,0.0014158162605686,-0.0014158170151898,0.0014158182054031,-0.0014158228033627,0.0014158124101046,-0.0011785437501423,0.0011785560512132,-0.001178560721671,0.0011785389797649,-4.5979385921322e-09,7.238431269364e-09,-1.0524320653993e-08,1.2944174051133e-08,-0.0018204829851624,0.0018204854447592,-0.0019851211661746,0.0019851118798253,-0.0019851133977814,0.0019851196922186,-0.0019851172739951,0.001985115818664,-0.0019851095227822,0.0019851236061226,-0.0015683115878545,0.0015682949695773,-0.0015682888867515,0.001568318229402,-0.0016729810145291,0.0016729797407148,-0.0016729695213612,0.0016729915282681,-9.123464683207e-09,8.723034824284e-09,-0.00095533457019618,0.00095533408413693,1.0847234635016e-08,-1.1698473223429e-08,-0.0011097870538666,0.0011097881967522,-0.0011097945782921,0.0011097807187957,-0.0011097810690822,0.0011097941438401,-0.0011097886244032,0.0011097866392506,-0.0010011418351578,0.0010011512963114,-0.0010011592995712,0.0010011339077952,0.73613738656441,128566,2924,0.0052304299615442,0.00755437122524,0.0039770947932631,32.120739302102,1.6965914416818e-05,1.6965914416818e-05,1.6965914416818e-05,3649916.3757469,0.016904417024152
34819200,0.99876183529624,0.016840740071622,0.0053755645695394,0.0070561776740897,0.0044089978279926,-0.0012603780752778,0.0012603772115259,8.2548311588208e-09,-9.1183473893945e-09,5.228857232714e-09,-6.291090943843e-09,-0.0014177424639499,0.001417751221831,-0.0014177481982252,0.0014177454070283,-0.0014177461606109,0.0014177473602765,-0.0014177519593033,0.0014177415564501,-0.0011804579467322,0.001180470275128,-0.001180474944639,0.0011804531740138,-4.5780806281323e-09,7.2166601586329e-09,-1.0540112614324e-08,1.2958310852675e-08,-0.0018225387563059,0.001822541214129,-0.001987151318766,0.0019871420409785,-0.0019871435448618,0.0019871498570773,-0.0019871474408649,0.0019871459641062,-0.0019871396855816,0.0019871537560139,-0.0015702997556883,0.0015702830986805,-0.0015702770306565,0.0015703063808181,-0.0016750164988759,0.0016750152762616,-0.0016750050546073,0.0016750270234386,-9.2212181705925e-09,8.8225919751819e-09,-0.00095694475546309,0.00095694427157686,1.08263185334e-08,-1.1673871928809e-08,-0.0011115921656975,0.0011115932290569,-0.0011115996739633,0.0011115857664684,-0.0011115861145696,0.0011115992415667,-0.0011115936553331,0.0011115917521013,-0.0010028430618788,0.0010028527276596,-0.001002860714536,0.0010028351499938,0.74236047253578,128566,2924,0.005237914993437,0.0075628642647074,0.0039837900644131,33.051282162882,2.4410257303054e-05,2.4410257303054e-05,2.4410257303054e-05,3655529.9495081,0.016927476644218
35019200,0.9988349111997,0.016841987751327,0.0053759597601761,0.0070567080586439,0.0044093199325074,-0.0012623659175987,0.0012623650519087,8.2767518341482e-09,-9.1422764732078e-09,5.2494400767531e-09,-6.3135265415097e-09,-0.0014198745200675,0.0014198833073027,-0.0014198802711067,0.0014198774755966,-0.0014198782325291,0.0014198794294406,-0.0014198840456202,0.001419873612694,-0.0011825701743161,0.0011825825257615,-0.0011825872120901,0.0011825653848123,-4.5405641611169e-09,7.1749588939309e-09,-1.0511048044286e-08,1.2925475796646e-08,-0.0018248102648778,0.0018248127191858,-0.0019893918101315,0.0019893825808728,-0.0019893840619069,0.0019893903727098,-0.0019893879604182,0.0019893864761437,-0.0019893802264747,0.0019893942459339,-0.0015724973882069,0.0015724807599412,-0.0015724747197487,0.0015725039799877,-0.0016772649990063,0.0016772638215395,-0.0016772536222702,0.0016772754894215,-9.3115073574063e-09,8.908750189228e-09,-0.00095871510195833,0.00095871461382794,1.0859824282764e-08,-1.171295975659e-08,-0.0011135887365138,0.0011135897633063,-0.001113596271238,0.0011135822745286,-0.0011135826276541,0.0011135958333064,-0.0011135901917778,0.0011135883207766,-0.0010047168098384,0.0010047266251775,-0.0010047346403352,0.0010047088704219,0.72136488111437,128566,2924,0.0052461538104122,0.0075722479812932,0.0039911520461583,34.083276512407,3.2666212099259e-05,3.2666212099259e-05,3.2666212099259e-05,3661556.7686929,0.016952887643825
35219200,0.99890759523087,0.016843194424651,0.0053763415306266,0.0070572237604414,0.0044096291335831,-0.0012643586946971,0.0012643578264929,8.2933508991721e-09,-9.1616309756618e-09,5.2719629068616e-09,-6.3385220801485e-09,-0.0014219754835395,0.0014219842990212,-0.0014219812490502,0.0014219784519023,-0.0014219792132273,0.0014219804035441,-0.0014219850375051,0.0014219745745629,-0.0011846613753247,0.0011846737396131,-0.0011846784419547,0.0011846565654426,-4.5075677861336e-09,7.1388358696998e-09,-1.0477990542875e-08,1.28896002955e-08,-0.0018270333686962,0.0018270358200093,-0.0019916168947696,0.0019916077086081,-0.0019916091702875,0.0019916154754105,-0.0019916130681422,0.0019916115797515,-0.0019916053552053,0.0019916193280266,-0.0015746274777888,0.0015746108858,-0.0015746048714008,0.0015746340441955,-0.0016794609771716,0.0016794598369669,-0.0016794496629405,0.0016794714422462,-9.4083933773144e-09,8.9980780268845e-09,-0.00096048519408201,0.00096048469815121,1.0908269612498e-08,-1.1770330368688e-08,-0.0011155327653426,0.0011155337608443,-0.001115540337554,0.0011155262346635,-0.0011155265972282,0.00111553989039,-0.0011155341950655,0.0011155323432984,-0.0010065830115918,0.001006592969675,-0.0010066010292402,0.0010065750298669,0.70214229120508,128566,2924,0.0052544124453023,0.0075814329739884,0.0039985111490088,35.117835392825,4.09426831426e-05,4.09426831426e-05,4.09426831426e-05,3670583.469885,0.016978113528205
35419200,0.99897874943458,0.016844339804482,0.005376703468968,0.0070577161549706,0.0044099201805431,-0.0012659294445762,0.0012659285768998,8.5244122657809e-09,-9.3925682369202e-09,5.2665839196014e-09,-6.3312587650377e-09,-0.0014236142730392,0.001423623241923,-0.0014236201959752,0.0014236172370205,-0.0014236180010983,0.0014236193488457,-0.0014236239774716,0.0014236133660137,-0.0011862937821629,0.001186306598155,-0.0011863112930502,0.0011862889748009,-4.5201625083734e-09,7.1525641200759e-09,-1.041624872681e-08,1.2828823662126e-08,-0.001828768460933,0.001828770913293,-0.0019933840651763,0.001993374911322,-0.0019933763810485,0.0019933826363349,-0.0019933802306992,0.0019933787898572,-0.0019933725539879,0.0019933865012391,-0.0015762652376925,0.0015762487676735,-0.0015762427440791,0.0015762718149661,-0.0016811646164443,0.0016811634027413,-0.0016811532667286,0.001681175040337,-9.2949414377172e-09,8.8711724391078e-09,-0.00096187095025985,0.00096187044048645,1.1007558517173e-08,-1.1886026337878e-08,-0.0011170233381435,0.0011170244752631,-0.0011170309844794,0.0011170168756018,-0.0011170172538813,0.0011170305217561,-0.0011170249205105,0.0011170229053144,-0.0010080399193367,0.0010080495634148,-0.0010080577079323,0.0010080318532611,0.6816229735971,128566,2924,0.0052609216173229,0.0075886024178035,0.0040042715679455,35.930023380398,4.7440187043184e-05,4.7440187043184e-05,4.7440187043184e-05,3679804.6775145,0.016997884099837
35619200,0.99904756849326,0.016845406487684,0.0053770400023127,0.0070581779516,0.0044101885337713,-0.0012671862749133,0.0012671854058538,8.6289298754537e-09,-9.4983450470252e-09,5.2690450438753e-09,-6.3357010198005e-09,-0.0014248950287028,0.0014249040667433,-0.0014249010204145,0.0014248979945247,-0.001424898760452,0.0014249001714437,-0.0014249048029472,0.0014248941210752,-0.0011875703885428,0.001187583401756,-0.001187588101149,0.0011875655788281,-4.535945342101e-09,7.1696955591339e-09,-1.0431395365797e-08,1.2845167466657e-08,-0.0018301156929339,0.0018301181465328,-0.0019947922315943,0.0019947830540388,-0.0019947845334931,0.0019947907935892,-0.0019947883872636,0.0019947869430397,-0.0019947806952771,0.0019947946697319,-0.0015775110169187,0.001577494523414,-0.0015774884882884,0.0015775176069519,-0.0016824777938069,0.0016824765589646,-0.0016824664080958,0.0016824882298926,-9.3034410610301e-09,8.8749775022821e-09,-0.00096297234795966,0.00096297183358232,1.1044711428177e-08,-1.1928184762664e-08,-0.0011181578261936,0.001118158980057,-0.0011181654991656,0.0011181513537676,-0.0011181517372393,0.0011181650312256,-0.0011181594291441,0.0011181573895972,-0.0010091904024869,0.001009200033889,-0.0010092082088779,0.001009182305853,0.65729899094266,128566,2924,0.0052661294135667,0.0075941706445694,0.0040088481729129,36.574413067769,5.2595304542155e-05,5.2595304542155e-05,5.2595304542155e-05,3689737.8383881,0.017013498012083
35819200,0.99911393926859,0.016846498354977,0.0053773854917076,0.0070586455513421,0.0044104673119271,-0.0012684472039045,0.0012684463318608,8.6359921805433e-09,-9.508248246621e-09,5.2843913183991e-09,-6.3545758646575e-09,-0.0014261344068073,0.0014261434580207,-0.0014261404033823,0.0014261373812589,-0.0014261381495235,0.0014261395519802,-0.0014261441974596,0.0014261334958032,-0.0011888112449585,0.0011888242612966,-0.0011888289753743,0.0011888064215958,-4.538638246717e-09,7.1726011417233e-09,-1.0459854052933e-08,1.2873772576261e-08,-0.0018313946922833,0.0018313971459973,-0.0019961632675595,0.0019961540682039,-0.0019961555495209,0.0019961618281582,-0.0019961594211075,0.0019961579594672,-0.0019961517100713,0.0019961657055596,-0.0015786763305058,0.0015786597832068,-0.0015786537470028,0.0015786829231255,-0.0016837235792958,0.0016837223600356,-0.0016837121902921,0.0016837340357509,-9.4070524602767e-09,8.9770344120384e-09,-0.00096408537020512,0.00096408485429415,1.1058112491078e-08,-1.194308323399e-08,-0.0011192351313518,0.0011192362237537,-0.0011192428131855,0.0011192285884862,-0.0011192289729772,0.0011192423441551,-0.0011192366746946,0.0011192346927458,-0.0010103402940699,0.0010103501152171,-0.001010358301425,0.0010103321865241,0.69619235063942,128566,2924,0.0052713538099071,0.0075994591814835,0.0040134698625953,37.2146325395,5.7717060316003e-05,5.7717060316003e-05,5.7717060316003e-05,3702681.0183233,0.017028889330388
36019200,0.99917777630677,0.016847610289942,0.0053777382504893,0.0070591173495621,0.0044107546898904,-0.0012697188753695,0.0012697180016194,8.6935969806533e-09,-9.5674757864132e-09,5.2924409981229e-09,-6.3642568034409e-09,-0.0014274550944252,0.0014274641890878,-0.0014274611303357,0.0014274580728466,-0.001427458843021,0.0014274602771063,-0.0014274649301869,0.0014274541816329,-0.0011901169027113,0.0011901300265689,-0.0011901347478151,0.0011901120718255,-4.5462525847513e-09,7.1808675041328e-09,-1.0473583131989e-08,1.2888065264923e-08,-0.0018327751895511,0.0018327776438508,-0.0019975740379523,0.0019975648247387,-0.001997566311056,0.0019975725940338,-0.0019975701864036,0.0019975687214304,-0.0019975624660398,0.001997576476745,-0.0015799726329193,0.0015799560638434,-0.0015799500220061,0.0015799792317048,-0.001685082789918,0.0016850815647416,-0.0016850713851401,0.0016850932563474,-9.4608506577566e-09,9.028824398309e-09,-0.00096518935639168,0.00096518883840886,1.1076957108446e-08,-1.1964386066456e-08,-0.0011204196367794,0.0011204207055519,-0.0011204273320779,0.0011204130568542,-0.0011204134433783,0.0011204268609795,-0.0011204211583983,0.0011204191962688,-0.0010114989801309,0.0010115088887005,-0.001011517090513,0.0010114908576176,0.73586309802233,128566,2924,0.0052766236342308,0.0076051639307584,0.0040180584124486,37.854692321328,6.2837538570624e-05,6.2837538570624e-05,6.2837538570624e-05,3708775.9964124,0.017044718647737
36219200,0.99923693196996,0.016848608301495,0.0053780544815947,0.0070595433878878,0.0044110104320126,-0.0012697079251242,0.0012697070487328,8.7469479645527e-09,-9.6237583435042e-09,5.3089799183151e-09,-6.3832482313835e-09,-0.0014275426923811,0.0014275518334957,-0.0014275487653009,0.0014275456798107,-0.0014275464532873,0.0014275479091073,-0.0014275525763423,0.0014275417772835,-0.001190180247321,0.0011901934619853,-0.0011901981971471,0.0011901754000362,-4.5417637035894e-09,7.1759061368756e-09,-1.048766585936e-08,1.2901627299671e-08,-0.0018329300154368,0.001832932469262,-0.0019977061699222,0.0019976969507867,-0.0019976984344824,0.0019977047286235,-0.001997702321803,0.0019977008436448,-0.0019976945920728,0.0019977086088252,-0.001580099143793,0.0015800825420549,-0.001580076505414,0.0015801057402503,-0.0016852191090281,0.0016852179001132,-0.0016852077112635,0.0016852295833881,-9.5196857064506e-09,9.0824983256184e-09,-0.0009651033646403,0.00096510284108979,1.1122316909559e-08,-1.2016632298643e-08,-0.0011204775984577,0.0011204786575908,-0.001120485326792,0.0011204709758673,-0.0011204713682506,0.0011204848498435,-0.0011204791151409,0.0011204771531592,-0.0010114439680921,0.0010114539511575,-0.0010114621896809,0.0010114358079233,0.71361055091387,128566,2924,0.0052765786804389,0.0076057989465043,0.0040177091435721,37.827186895012,6.2617495160093e-05,6.2617495160093e-05,6.2617495160093e-05,3701313.9638687,0.017044965801075
36419200,0.99929089883003,0.016849506671808,0.0053783389780146,0.0070599276507564,0.0044112400430367,-0.0012691199640588,0.0012691190880094,8.8053469897819e-09,-9.681778396879e-09,5.3032860556079e-09,-6.3772522480861e-09,-0.001426992404571,0.0014270015807451,-0.001426998516126,0.0014269953882799,-0.0014269961614715,0.001426997660614,-0.0014270023232587,0.0014269914894209,-0.0011896317083603,0.0011896450430706,-0.0011896497725538,0.0011896268652057,-4.5328220269868e-09,7.1661355608306e-09,-1.0505986101454e-08,1.2919254789281e-08,-0.0018324048530103,0.0018324073060577,-0.0019971901522845,0.0019971809249225,-0.001997182403532,0.001997188715749,-0.0019971863095133,0.0019971848119712,-0.0019971785672164,0.0019971925901054,-0.0015795443179219,0.0015795276736972,-0.0015795216440533,0.001579550907797,-0.0016846769915004,0.0016846758127804,-0.001684665613558,0.0016846874786606,-9.5743676967235e-09,9.1332666482968e-09,-0.00096448669089719,0.00096448616343516,1.1154282694967e-08,-1.205268010564e-08,-0.0011199073257466,0.0011199083682799,-0.0011199150764489,0.0011199006643523,-0.0011199010604775,0.0011199145958086,-0.0011199088298029,0.0011199068764258,-0.0010108324701099,0.001010842528521,-0.0010108507945472,0.0010108242835576,0.70434019954614,128566,2924,0.0052741419189586,0.007603625299549,0.0040151530789318,37.496457831058,5.9971662648464e-05,5.9971662648464e-05,5.9971662648464e-05,3693653.6761176,0.017037677801949
36619200,0.99934017410552,0.016850281748019,0.0053785838298139,0.0070602623338103,0.0044114355843949,-0.0012685161659215,0.0012685152929151,8.8585183252503e-09,-9.7317889737398e-09,5.2835793746298e-09,-6.3544576949734e-09,-0.0014263993388513,0.0014264085379254,-0.0014264054847212,0.0014264023118359,-0.0014264030816159,0.0014264046321861,-0.0014264092779369,0.0014263984268978,-0.0011890465918984,0.0011890600451551,-0.00118906475868,0.0011890417680664,-4.5381451693684e-09,7.1719547590581e-09,-1.0540452649466e-08,1.2954210552172e-08,-0.0018318222303022,0.0018318246838471,-0.0019966291235553,0.0019966198692266,-0.001996621351714,0.0019966276843106,-0.0019966252770449,0.0019966237605358,-0.0019966175116501,0.0019966315622464,-0.0015789308787431,0.0015789141710124,-0.0015789081369127,0.0015789374729384,-0.0016840785078948,0.0016840773423617,-0.0016840671189632,0.0016840890186255,-9.6323316495785e-09,9.1939917829411e-09,-0.00096386560018989,0.0009638650756463,1.1138152042336e-08,-1.2033337816706e-08,-0.001119291946567,0.0011192929402956,-0.0011192996853746,0.0011192852483897,-0.0011192856414463,0.0011192992078545,-0.0011192933991209,0.0011192915000822,-0.0010102056257896,0.0010102158155509,-0.0010102240667998,0.0010101974544618,0.66675280850806,128566,2924,0.0052716394284956,0.0076012154951875,0.0040125766219771,37.158088417847,5.7264707342778e-05,5.7264707342778e-05,5.7264707342778e-05,3687679.9983424,0.017030061436181
36819200,0.99938522180971,0.016850971513511,0.0053788014891858,0.0070605613785096,0.0044116086458153,-0.0012679133171163,0.0012679124443505,8.9183505838865e-09,-9.7913277558991e-09,5.282256063637e-09,-6.3526758853477e-09,-0.0014257375497821,0.0014257467877827,-0.0014257437353091,0.0014257405216831,-0.0014257412914981,0.0014257428829104,-0.0014257475275724,0.0014257366379564,-0.001188401877982,0.0011884154487356,-0.0011884201606582,0.0011883970544133,-4.52668592197e-09,7.1592367875834e-09,-1.0528271635823e-08,1.2940884811617e-08,-0.0018311370564017,0.0018311395088305,-0.001996018427325,0.0019960091894017,-0.0019960106645497,0.0019960169952049,-0.0019960145890935,0.0019960130721918,-0.0019960068325683,0.001996020864782,-0.001578194898255,0.0015781782067759,-0.0015781721818645,0.0015782014830115,-0.0016833731795816,0.0016833720279982,-0.0016833618139023,0.0016833836796944,-9.6842131227565e-09,9.2446208114474e-09,-0.00096326817319378,0.00096326764733993,1.1150293627831e-08,-1.2047022264626e-08,-0.0011185890761815,0.0011185900431443,-0.0011185968235797,0.0011185823425673,-0.0011185827369189,0.0011185963447412,-0.0011185905030982,0.0011185886285406,-0.0010095804719723,0.0010095907527394,-0.0010095990134865,0.0010095722910188,0.64957833697336,128566,2924,0.0052691401954247,0.0075983853929348,0.0040100934544781,36.819425484076,5.4555403872609e-05,5.4555403872609e-05,5.4555403872609e-05,3687612.1194383,0.017022114092008
37019200,0.99942762909876,0.016851662417142,0.0053790201649984,0.0070608573206119,0.0044117849315314,-0.0012683078481179,0.0012683069700641,8.9732363181429e-09,-9.8512941390136e-09,5.3149833125957e-09,-6.3918503545357e-09,-0.0014260669053862,0.0014260762006274,-0.0014260731294191,0.0014260698963718,-0.0014260706709934,0.0014260722717571,-0.0014260769452495,0.0014260659887866,-0.0011887394644862,0.0011887531186252,-0.0011887578599032,0.0011887346130756,-4.5651220001859e-09,7.2013990392614e-09,-1.0490947433287e-08,1.290687307224e-08,-0.0018314719969354,0.0018314744526782,-0.0019964455642934,0.0019964363266382,-0.0019964378249542,0.0019964441084677,-0.001996441699887,0.0019964402363717,-0.0019964339665176,0.0019964480052068,-0.0015784525911087,0.001578435999292,-0.0015784299428968,0.0015784592045766,-0.001683683364909,0.0016836821133784,-0.001683671921369,0.0016836938470059,-9.735265479835e-09,9.3005102567645e-09,-0.00096363156266535,0.0009636310419445,1.1109805447364e-08,-1.2000386749681e-08,-0.0011188431542038,0.0011188440616173,-0.0011188508728026,0.0011188363898296,-0.0011188367793105,0.0011188503987052,-0.0011188445164468,0.0011188427115614,-0.0010099420429763,0.0010099524625218,-0.0010099606900403,0.0010099338959054,0.68961815585115,128566,2924,0.0052707743135917,0.0075997733002578,0.0040115989675822,37.016132766673,5.6129062133381e-05,5.6129062133381e-05,5.6129062133381e-05,3696515.9876189,0.017026716728591
37219200,0.99946779079024,0.016852359864526,0.0053792414942598,0.0070611529397153,0.0044119654305511,-0.0012689513887378,0.0012689505063509,9.0273821916817e-09,-9.9096506626969e-09,5.3442307554005e-09,-6.4260894763775e-09,-0.0014267339295758,0.0014267432790983,-0.0014267401911943,0.0014267369375946,-0.0014267377161794,0.0014267393291969,-0.0014267440279267,0.0014267330088828,-0.0011893916715412,0.0011894054105766,-0.0011894101772662,0.0011893867954167,-4.5978031693281e-09,7.2372051840553e-09,-1.0446182652761e-08,1.2864867716651e-08,-0.0018321796889374,0.0018321821474788,-0.0019971825654553,0.0019971733365103,-0.0019971748544559,0.0019971810894597,-0.0019971786786676,0.0019971772692315,-0.0019971709735685,0.0019971850091081,-0.0015791077558625,0.0015790912747332,-0.0015790851917459,0.0015791143937434,-0.0016843702565789,0.0016843689115931,-0.0016843587461975,0.0016843807134757,-9.7874155558331e-09,9.3577545532893e-09,-0.00096421284845732,0.00096421233297601,1.106798480325e-08,-1.1952541054823e-08,-0.001119457588852,0.0011194584349669,-0.0011194652776269,0.0011194507930115,-0.0011194511773829,0.0011194648085276,-0.0011194588847073,0.0011194571512537,-0.0010105491583799,0.0010105597202158,-0.0010105679129174,0.0010105410464347,0.73362543159992,128566,2924,0.0052734413569083,0.0076026980679244,0.004014014651621,37.342832190225,5.8742657521797e-05,5.8742657521797e-05,5.8742657521797e-05,3700065.6939986,0.017034861030887
37419200,0.99950578168285,0.016852975883587,0.005379436386787,0.0070614172712045,0.0044121222255952,-0.0012695945931336,0.0012695937047396,9.0807405664252e-09,-9.9690600791574e-09,5.3636262420655e-09,-6.4515888871528e-09,-0.001427479293989,0.0014274886900431,-0.001427485593217,0.0014274823108941,-0.0014274830954777,0.0014274847252245,-0.0014274894446833,0.0014274783672094,-0.0011901087381964,0.001190122566677,-0.0011901273536807,0.0011901038402221,-4.6103987309541e-09,7.2509742089505e-09,-1.0398534063628e-08,1.2818227732295e-08,-0.0018330010390107,0.001833003498556,-0.0019979680100049,0.0019979588043633,-0.0019979603296421,0.001997966525763,-0.0019979641144789,0.0019979627458059,-0.0019979564401192,0.0019979704542861,-0.0015799067739218,0.0015798903947923,-0.0015798843017505,0.0015799134210684,-0.0016851791949524,0.0016851777937575,-0.0016851676586728,0.0016851896217042,-9.8405106721869e-09,9.4137701108879e-09,-0.00096477369221763,0.00096477317961922,1.1040750533473e-08,-1.1922088094874e-08,-0.0011201785015732,0.0011201792949059,-0.0011201861711474,0.0011201716721036,-0.0011201720537363,0.0011201857047674,-0.001120179741824,0.0011201780667084,-0.001011155589221,0.0010111662797717,-0.0010111744503738,0.0010111474991127,0.686655590447,128566,2924,0.0052761078374613,0.0076060887304111,0.0040163505417926,37.672887884017,6.1383103072133e-05,6.1383103072133e-05,6.1383103072133e-05,3696949.0666767,0.017043399624844
37619200,0.99954167018528,0.016853538132315,0.0053796139805244,0.0070616599789156,0.0044122641728746,-0.0012702361087032,0.0012702352175877,9.1359580293857e-09,-1.0027027399159e-08,5.3696535286235e-09,-6.4604571438218e-09,-0.0014281396906415,0.0014281491266786,-0.0014281460276949,0.001428142709991,-0.0014281434971306,0.0014281451570117,-0.0014281498839093,0.0014281387613152,-0.0011907629505413,0.0011907768820917,-0.0011907816766952,0.0011907580449919,-4.6184718685017e-09,7.2598851680797e-09,-1.0366007303651e-08,1.2786418765154e-08,-0.001833697724662,0.0018337001849382,-0.0019986972765767,0.0019986880868758,-0.001998689616891,0.0019986957870829,-0.001998693375449,0.0019986920341065,-0.0019986857217278,0.0019986997214839,-0.0015805465380417,0.0015805302280526,-0.0015805241282115,0.0015805531911509,-0.0016858555821309,0.0016858541436321,-0.0016858440290727,0.0016858659885765,-9.8932004147683e-09,9.469789491697e-09,-0.00096534547602082,0.00096534496682805,1.1011290580631e-08,-1.1888791247474e-08,-0.0011207720348116,0.0011207727743163,-0.001120779683548,0.0011207651723635,-0.0011207655507553,0.0011207792204002,-0.0011207732179309,0.0011207716032733,-0.0010117533133315,0.0010117641347774,-0.0010117722810451,0.0010117452475001,0.66415285887559,128566,2924,0.0052787662628,0.0076089681444611,0.0040187264848038,38.003073061241,6.4024584489931e-05,6.4024584489931e-05,6.4024584489931e-05,3701416.323603,0.017051448593302
37819200,0.99957461242701,0.016854034899346,0.0053797706140625,0.0070618759088206,0.0044123883764625,-0.0012698894549621,0.0012698885683742,9.1970441780399e-09,-1.0083896931911e-08,5.3408531653666e-09,-6.4257682897778e-09,-0.0014277514237572,0.0014277608825122,-0.0014277578003015,0.0014277544263195,-0.0014277552096304,0.0014277569336372,-0.0014277616353172,0.0014277504989781,-0.0011903788084443,0.0011903928789771,-0.0011903976485742,0.0011903739271689,-4.5988208684733e-09,7.2382764860925e-09,-1.0383193719442e-08,1.2801837820642e-08,-0.0018332891647588,0.0018332916233291,-0.0019983564165528,0.0019983472283779,-0.0019983487466251,0.0019983549393751,-0.0019983525292492,0.001998351161452,-0.0019983448645885,0.0019983588600898,-0.001580089253485,0.0015800728950649,-0.001580066812523,0.0015800958932651,-0.001685427748729,0.0016854263590676,-0.0016854162327841,0.0016854381616831,-9.9449133234781e-09,9.5218958133488e-09,-0.0009650004423923,0.00096499993328033,1.1009111052626e-08,-1.1887343807703e-08,-0.0011203469108269,0.0011203476150384,-0.0011203545587489,0.0011203400139355,-0.001120340392472,0.0011203540956468,-0.0011203480582333,0.0011203464799282,-0.0010113849042318,0.0010113958308668,-0.0010114039740063,0.0010113768401433,0.64016141335068,128566,2924,0.0052773289765543,0.0076072812617071,0.0040172916495469,37.804268554338,6.2434148434704e-05,6.2434148434704e-05,6.2434148434704e-05,3702673.7519146,0.017046810618555
38019200,0.99960480235269,0.016854509042057,0.0053799204223627,0.0070620803172408,0.0044125083024535,-0.0012694621894336,0.0012694613041529,9.2418824274276e-09,-1.012734834012e-08,5.3295981430528e-09,-6.4134065081865e-09,-0.0014272332592911,0.0014272427397683,-0.0014272396638249,0.0014272362545429,-0.0014272370356514,0.0014272388002298,-0.0014272434919508,0.001427232333776,-0.0011898722181831,0.001189886389929,-0.0011898911466806,0.0011898673433621,-4.5473290532777e-09,7.1825569241692e-09,-1.035499903624e-08,1.2769957531681e-08,-0.0018327225133487,0.0018327249676206,-0.0019978867757562,0.0019978776357057,-0.0019978791225265,0.0019978853281498,-0.0019978829216924,0.0019978815342255,-0.001997875276959,0.0019978892122,-0.0015794656232929,0.0015794492868566,-0.0015794432426955,0.0015794722207502,-0.0016848427745558,0.0016848414721072,-0.001684831371737,0.0016848531661792,-1.0015666567214e-08,9.5847021511353e-09,-0.0009645941217049,0.00096459360472629,1.1064997209636e-08,-1.1951029892818e-08,-0.0011197845938704,0.0011197852836407,-0.001119792279258,0.0011197776447663,-0.0011197780300238,0.0011197918096468,-0.0011197857358909,0.0011197841534385,-0.0010109417888936,0.0010109527918375,-0.0010109609848705,0.0010109336759953,0.66569813616108,128566,2924,0.005275557267291,0.0076049432235766,0.0040155991403867,37.560019329351,6.0480154634806e-05,6.0480154634806e-05,6.0480154634806e-05,3706505.0150006,0.017040906980783
38219200,0.99963249407126,0.016854947348983,0.0053800589755478,0.0070622689454986,0.0044126194279367,-0.0012690385095291,0.0012690376283647,9.3009867195453e-09,-1.0182292006582e-08,5.300216869932e-09,-6.3795575382493e-09,-0.0014267692667775,0.0014267787680362,-0.0014267757092317,0.0014267722455136,-0.0014267730224696,0.0014267748495478,-0.0014267795167343,0.0014267683457728,-0.0011894091539065,0.0011894234616979,-0.0011894281958091,0.0011894043069231,-4.5228054951026e-09,7.1548814932229e-09,-1.037841656738e-08,1.2790514775965e-08,-0.0018322213733487,0.0018322238252142,-0.0019974379202627,0.0019974287814973,-0.0019974302535234,0.0019974364886598,-0.0019974340835471,0.0019974326626952,-0.0019974264249566,0.0019974403549635,-0.0015789298989787,0.0015789135010313,-0.0015789074767567,0.0015789364779202,-0.0016843289224608,0.0016843276821853,-0.0016843175683933,0.0016843393237028,-1.006997213287e-08,9.6381926063208e-09,-0.00096418133515017,0.00096418081745779,1.107667395292e-08,-1.1963944024507e-08,-0.0011193004219083,0.0011193010835507,-0.0011193081160613,0.0011192934362334,-0.0011192938218664,0.0011193076459054,-0.001119301536408,0.001119299981112,-0.0010105062706698,0.0010105173721833,-0.0010105255733247,0.001010498150173,0.6707617149862,128566,2924,0.0052738010847328,0.0076028734778493,0.0040138831418015,37.314480670498,5.8515845363988e-05,5.8515845363988e-05,5.8515845363988e-05,3705309.0144061,0.017035269600588
38419200,0.99965808813431,0.016855378619082,0.0053801956977734,0.007062452468792,0.0044127304525168,-0.0012688536050121,0.0012688527258725,9.3646063638765e-09,-1.0243753307735e-08,5.2847489952995e-09,-6.3622771903285e-09,-0.0014265603251951,0.0014265698601693,-0.00142656681011,0.0014265632953387,-0.0014265640709273,0.0014265659516675,-0.0014265706061413,0.0014265594072018,-0.0011891979018905,0.0011892123430876,-0.0011892170646277,0.001189193068716,-4.5224697811231e-09,7.1544742117239e-09,-1.0407386074382e-08,1.2819455418848e-08,-0.0018319879570705,0.0018319904088689,-0.0019972440716761,0.0019972349149768,-0.001997236386948,0.0019972426405304,-0.0019972402361286,0.001997238795111,-0.0019972325579955,0.0019972465073489,-0.0015786648040685,0.0015786483465284,-0.0015786423223252,0.001578671382456,-0.0016840847451589,0.0016840835223425,-0.0016840733904499,0.0016840951666943,-1.0117881600026e-08,9.6870903707482e-09,-0.00096399571353632,0.00096399519696158,1.1070107280939e-08,-1.1955788887706e-08,-0.0011190718052078,0.0011190724316566,-0.0011190794954805,0.0011190647882438,-0.0011190651736541,0.0011190790255794,-0.0011190728827313,0.0011190713662666,-0.0010103098308341,0.0010103210347917,-0.0010103292308117,0.0010103017159506,0.71253732117316,128566,2924,0.0052730346381273,0.007601909772598,0.004013111371143,37.196690192026,5.7573521536211e-05,5.7573521536211e-05,5.7573521536211e-05,3704615.8295865,0.017032724480111
38619200,0.99968189639425,0.016855781957418,0.0053803236011509,0.0070626239715507,0.0044128343847167,-0.0012688808177199,0.0012688799345116,9.4308481360483e-09,-1.0314074012767e-08,5.3097509083391e-09,-6.3916030287972e-09,-0.0014266443689584,0.0014266539648737,-0.0014266509001626,0.001426647352247,-0.0014266481332955,0.0014266500372557,-0.0014266547129856,0.0014266434467284,-0.0011892647445806,0.0011892792961515,-0.0011892840369508,0.0011892598857992,-4.5106942317993e-09,7.1418480656204e-09,-1.0388988555707e-08,1.2800291088717e-08,-0.0018320884899499,0.0018320909406915,-0.0019973192600754,0.0019973101229935,-0.00199731158722,0.0019973178338934,-0.0019973154326703,0.0019973139934259,-0.0019973077659095,0.0019973216940371,-0.0015787610505831,0.0015787446174521,-0.0015787386033645,0.0015787676212077,-0.0016841806306255,0.0016841794173967,-0.0016841693017605,0.0016841910442119,-1.0162888690921e-08,9.7273364283627e-09,-0.00096399318266383,0.00096399266132557,1.1095445800747e-08,-1.1985906760437e-08,-0.0011191583877298,0.0011191590006794,-0.0011191660971014,0.0011191513377373,-0.0011191517291457,0.0011191656214347,-0.0011191594555343,0.0011191579443692,-0.0010103241362432,0.0010103354001052,-0.0010103436209197,0.0010103159970678,0.71625965882683,128566,2924,0.0052731481248888,0.0076023226217435,0.0040131050294998,37.19372705188,5.7549816415042e-05,5.7549816415042e-05,5.7549816415042e-05,3698723.5429785,0.017033254892942
38819200,0.99970404697156,0.016856158439792,0.0053804430077247,0.0070627839698763,0.0044129314621911,-0.0012689074888047,0.0012689065970113,9.5202019008301e-09,-1.0412048800329e-08,5.3621193099579e-09,-6.4532417689525e-09,-0.0014267294389917,0.0014267391287396,-0.0014267360348708,0.0014267324520255,-0.0014267332437897,0.0014267351609403,-0.0014267398830858,0.0014267285111203,-0.0011893346790088,0.0011893493585935,-0.0011893541472484,0.0011893297747709,-4.4723235409975e-09,7.0993462563745e-09,-1.0330051121441e-08,1.2737623597637e-08,-0.0018321978378626,0.0018322002851424,-0.0019973995556936,0.0019973904853455,-0.0019973919260313,0.0019973981539699,-0.0019973957577164,0.0019973943266373,-0.0019973881281818,0.001997401988797,-0.001578870381141,0.00157885402949,-0.0015788480446029,0.0015788769186535,-0.0016842858697203,0.0016842846826146,-0.0016842746078315,0.0016842962322941,-1.0183551838811e-08,9.7410913359198e-09,-0.00096398948620763,0.00096398895783043,1.1159039844346e-08,-1.2058005402307e-08,-0.0011192464892331,0.0011192471313038,-0.0011192542464923,0.0011192394208923,-0.0011192398209928,0.0011192537614133,-0.0011192475901759,0.0011192460416635,-0.0010103371500365,0.001010348405314,-0.0010103566779495,0.0010103289605158,0.71844599495938,128566,2924,0.0052732593239116,0.0076027717699386,0.0040130938826616,37.193613271359,5.7548906170874e-05,5.7548906170874e-05,5.7548906170874e-05,3693153.6418711,0.01703381500775
38880000,0.99971063096776,0.016856270463453,0.005380478539876,0.0070628315626732,0.0044129603609041,-0.0012689133443772,0.00126891246257,9.4950985228277e-09,-1.0376993815706e-08,5.3027414775496e-09,-6.3829037088496e-09,-0.0014267543990195,0.0014267640322131,-0.0014267609719272,0.0014267573791833,-0.0014267581578617,0.0014267601104712,-0.0014267647803716,0.0014267534785572,-0.0011893591927525,0.0011893738762696,-0.0011893786132409,0.0011893543450098,-4.5385163071481e-09,7.1721987600158e-09,-1.0414569541638e-08,1.2828122390137e-08,-0.0018322325979098,0.0018322350512124,-0.0019974242705381,0.0019974150982792,-0.0019974165803882,0.0019974228291535,-0.0019974204236559,0.0019974189897316,-0.0019974127396672,0.0019974267080951,-0.0015789050981957,0.0015788886365815,-0.0015788826005655,0.0015789116903783,-0.0016843200406269,0.0016843187894875,-0.0016843086508597,0.001684330467968,-1.0241907216116e-08,9.8105313785392e-09,-0.0009639855818204,0.00096398506454851,1.1078212321159e-08,-1.1964984050786e-08,-0.0011192720322009,0.0011192725815017,-0.0011192797286713,0.0011192649320051,-0.0011192653184394,0.0011192792577477,-0.0011192730328478,0.0011192715929593,-0.0010103377589717,0.0010103492004294,-0.0010103574031085,0.0010103296380635,0.71909629793622,128566,2924,0.0052732837986956,0.0076029145196333,0.0040130790584926,37.193609031166,5.754887224933e-05,5.754887224933e-05,5.754887224933e-05,3691414.8224664,0.017033970492113
