time,ASR_ext,ASR_strain,ASR_strain_xx,ASR_strain_yy,ASR_strain_zz,disp_x_101,disp_x_102,disp_x_103,disp_x_104,disp_x_105,disp_x_106,disp_x_p1_neg,disp_x_p1_pos,disp_x_p2_neg,disp_x_p2_pos,disp_x_p3_neg,disp_x_p3_pos,disp_x_p4_neg,disp_x_p4_pos,disp_x_p5_neg,disp_x_p5_pos,disp_x_p6_neg,disp_x_p6_pos,disp_y_101,disp_y_102,disp_y_103,disp_y_104,disp_y_105,disp_y_106,disp_y_p1_neg,disp_y_p1_pos,disp_y_p2_neg,disp_y_p2_pos,disp_y_p3_neg,disp_y_p3_pos,disp_y_p4_neg,disp_y_p4_pos,disp_y_p5_neg,disp_y_p5_pos,disp_y_p6_neg,disp_y_p6_pos,disp_y_p7_neg,disp_y_p7_pos,disp_y_p8_neg,disp_y_p8_pos,disp_z_101,disp_z_102,disp_z_103,disp_z_104,disp_z_105,disp_z_106,disp_z_p1_neg,disp_z_p1_pos,disp_z_p2_neg,disp_z_p2_pos,disp_z_p3_neg,disp_z_p3_pos,disp_z_p4_neg,disp_z_p4_pos,disp_z_p5_neg,disp_z_p5_pos,disp_z_p6_neg,disp_z_p6_pos,humidity,ndof,nelem,strain_xx,strain_yy,strain_zz,temp,thermal_strain_xx,thermal_strain_yy,thermal_strain_zz,vonmises,vstrain
2419200,0,0,0,0,0,0,0,0,0,0,0,0,0,0,0,0,0,0,0,0,0,0,0,0,0,0,0,0,0,0,0,0,0,0,0,0,0,0,0,0,0,0,0,0,0,0,0,0,0,0,0,0,0,0,0,0,0,0,0,0,0,0,0,0,0,0,0,0,0,0,0,0,0,0,0
2619200,0.019550240263461,0.00040105193312769,0.00013368397770923,0.00013368397770923,0.00013368397770923,-3.4487658838974e-05,3.4489145173181e-05,7.0125616932529e-10,7.7380891154668e-10,-2.0590716058671e-09,3.6333761301217e-09,-3.406563247353e-05,3.4065212070767e-05,-3.4065532180204e-05,3.4065160056387e-05,-3.4063777953231e-05,3.4067073654509e-05,-3.4063752623269e-05,3.4067096802419e-05,-3.5028685475422e-05,3.5031975263361e-05,-3.5028595285906e-05,3.5032027472394e-05,1.7994471928275e-09,-3.7036412023863e-09,-1.7276156871689e-08,1.5458508004738e-08,-3.5690494253495e-05,3.5688665886322e-05,-3.5065751964402e-05,3.505502119937e-05,-3.5055295401078e-05,3.506599934166e-05,-3.5067503622719e-05,3.5053183890212e-05,-3.5057046920442e-05,3.5064162108433e-05,-3.5919949388171e-05,3.5884186068474e-05,-3.5888300617428e-05,3.5916787867776e-05,-3.6145927049765e-05,3.6160317335173e-05,-3.615128240719e-05,3.6154808067152e-05,-3.4984977453045e-09,-3.5689302842642e-09,-3.3267437568114e-05,3.3260309564688e-05,1.2446117894474e-08,-2.0112398671775e-08,-3.299629374289e-05,3.3000138067814e-05,-3.3007084253751e-05,3.2989342065641e-05,-3.2996323606555e-05,3.3000120898928e-05,-3.3007113374e-05,3.2989324371115e-05,-3.4366538659094e-05,3.4348554850163e-05,-3.4366450603009e-05,3.4348604412851e-05,0.81992966230082,128566,2924,0.00014369129476875,0.00014869546377498,0.00013858984907744,31.535837860375,1.2286702882997e-05,1.2286702882997e-05,1.2286702882997e-05,546309.80806232,0.00043106971525252
2819200,0.041143887026012,0.00083706057419027,0.00027930743389368,0.00028112830323458,0.000276624837062,-7.1109670372821e-05,7.1106331516064e-05,-1.6351316735474e-09,-1.6872014116711e-09,3.1227789958447e-09,-6.6167466361013e-09,-7.1172462309008e-05,7.1172375622209e-05,-7.1172402709456e-05,7.1172281488699e-05,-7.1175544345847e-05,7.1169085544106e-05,-7.1175557256838e-05,7.1169063312817e-05,-7.1789188656439e-05,7.1782693743823e-05,-7.1789208570161e-05,7.1782610724437e-05,-2.759866651869e-09,7.0274725534528e-09,-1.4905647318559e-08,1.9025845649398e-08,-7.411275703818e-05,7.4116890365834e-05,-7.3530958991186e-05,7.3520744387691e-05,-7.352005941736e-05,7.3532093390479e-05,-7.352785829689e-05,7.3524010023094e-05,-7.3516959044191e-05,7.353535873067e-05,-7.398650346925e-05,7.3960540401218e-05,-7.3953637693878e-05,7.399430469708e-05,-7.455289894983e-05,7.4558718403726e-05,-7.4543396785593e-05,7.4568509798858e-05,-1.5933509919211e-09,-1.5354099992373e-09,-6.7956608544356e-05,6.7953396652538e-05,1.5016395624223e-08,-1.8761361497651e-08,-6.8514632882624e-05,6.8522747030392e-05,-6.8525855521758e-05,6.851153170677e-05,-6.8514603728272e-05,6.8522756648152e-05,-6.8525829473873e-05,6.8511543862915e-05,-6.997695267597e-05,6.9962606728585e-05,-6.9977036420996e-05,6.9962577903313e-05,0.8213848990617,128566,2924,0.00029623932855329,0.00030876389835164,0.00028310591821246,32.737988884277,2.1903911074216e-05,2.1903911074216e-05,2.1903911074216e-05,734210.34821672,0.00088850408161853
3019200,0.062603104642194,0.0012664798876314,0.00042311282943445,0.00043010352141605,0.00041326353678087,-0.00010450229200742,0.00010449854149431,-1.7768159356569e-09,-1.9584175123465e-09,5.4444671665904e-09,-9.4167749613381e-09,-0.0001051614509468,0.00010516267573353,-0.00010516146617592,0.0001051625696419,-0.00010516616636623,0.00010515768494164,-0.00010516623433414,0.00010515763198065,-0.00010519694452176,0.00010518845497208,-0.00010519712380684,0.00010518827913054,-5.012080571901e-09,9.8763787780254e-09,-1.3581580260792e-08,1.8207266907424e-08,-0.00011009308252306,0.00011009773423277,-0.00010953848215845,0.00010952777670999,-0.00010952819905241,0.00010953837964848,-0.00010953374133208,0.00010953274094866,-0.00010952345800988,0.00010954334416491,-0.00010933387394062,0.00010931221406446,-0.00010930303442717,0.00010934380258668,-0.00011059891824704,0.00011059954373005,-0.00011058442113998,0.00011061444931518,-1.0632392279442e-09,-8.8182137740444e-10,-9.8501610777063e-05,9.8499611050624e-05,1.4593897123438e-08,-1.7085253696773e-08,-9.9859217297769e-05,9.9867811142945e-05,-9.9869770503156e-05,9.9857304672829e-05,-9.9859143157077e-05,9.9867857706966e-05,-9.9869696465604e-05,9.9857351626454e-05,-0.00010181220397339,0.00010179985489067,-0.00010181241613362,0.0001017997113194,0.82013324268224,128566,2924,0.00043532336890881,0.00045862518015993,0.00041033565549915,32.491846812195,1.9934774497564e-05,1.9934774497564e-05,1.9934774497564e-05,994919.20515205,0.001305136150719
3219200,0.083830164636403,0.0016803424342593,0.00056152198368357,0.00057673343123177,0.00054208701934391,-0.00013649347273117,0.00013649012109786,-1.5209787033712e-09,-1.826988760809e-09,6.0651186428053e-09,-9.6529432755619e-09,-0.0001380284611802,0.00013803040899747,-0.00013802853005985,0.00013803027405855,-0.00013803344886405,0.00013802513615339,-0.0001380335633139,0.00013802504620676,-0.00013692068099038,0.00013691240792258,-0.00013692099569533,0.0001369121223909,-5.5282887866385e-09,1.0264304772866e-08,-1.2755975648274e-08,1.7234190668055e-08,-0.00014543956703368,0.00014544407260119,-0.0001452200315009,0.00014520945377526,-0.0001452103017364,0.00014521944214591,-0.00014521497886923,0.00014521471038921,-0.00014520524940608,0.00014522469853269,-0.00014357643156205,0.00014355669680474,-0.00014354732440726,0.00014358648374105,-0.0001457114242107,0.00014571042613219,-0.00014569602954993,0.00014572622712337,-7.9898034313968e-10,-4.8896997993603e-10,-0.00012711980852898,0.00012711847697157,1.4011901459495e-08,-1.5810060503648e-08,-0.00012955205157876,0.00012956065588047,-0.00012956199591332,0.0001295507713121,-0.00012955193907267,0.00012956075021499,-0.00012956188302414,0.0001295508646747,-0.00013163821514476,0.00013162726662177,-0.00013163853690566,0.0001316269821759,0.80675913273476,128566,2924,0.00056855373213956,0.00060582304012519,0.00052952454082524,32.204000286311,1.7632002290485e-05,1.7632002290485e-05,1.7632002290485e-05,1208812.5822178,0.0017053554582194
3419200,0.10479945551004,0.0020750130766634,0.00069300160665245,0.00071976654817206,0.00066224492183891,-0.0001667977784916,0.00016679488656669,-1.2313876858834e-09,-1.6641516905927e-09,6.2185531254966e-09,-9.3535004631211e-09,-0.00016955726859255,0.00016955967665726,-0.00016955738536492,0.00016955950505252,-0.00016956221544151,0.00016955445456599,-0.00016956237295882,0.00016955432328049,-0.000166592238673,0.00016658458594177,-0.00016659268036874,0.00016658417940422,-5.5105374973032e-09,1.0124959316215e-08,-1.2097031261263e-08,1.6450935509536e-08,-0.00017991918129465,0.00017992356131303,-0.00018048942057394,0.00018047923177491,-0.00018048014617774,0.00018048873306954,-0.00018048440486243,0.00018048443047708,-0.00018047513070477,0.00018049393162404,-0.00017634578047572,0.00017632728594398,-0.00017631806955648,0.00017635563884834,-0.00017950985167618,0.00017950841317737,-0.00017949460828255,0.00017952405409874,-6.5973047207986e-10,-2.234796542947e-10,-0.00015369837916403,0.00015369745591091,1.3517792012579e-08,-1.488857356625e-08,-0.00015750967689076,0.00015751817500132,-0.00015751915056783,0.00015750876099197,-0.00015750952444718,0.00015751831352145,-0.00015751899784842,0.0001575088987162,-0.0001591871014751,0.00015917715427275,-0.00015918753507327,0.00015917673432655,0.7858983629017,128566,2924,0.00069474274308312,0.00074938983622887,0.00064020646304416,31.91452113858,1.5316169108639e-05,1.5316169108639e-05,1.5316169108639e-05,1404189.858744,0.0020865151339811
3619200,0.12603003800422,0.002462341871795,0.0008213854972324,0.00086293796549064,0.00077801840907201,-0.00019702087895887,0.00019701852968462,-8.9755778457873e-10,-1.4590936378547e-09,6.0622906405724e-09,-8.6497584759998e-09,-0.00020127440056706,0.00020127711133624,-0.0002012745619832,0.00020127689791453,-0.00020127907003745,0.00020127217726942,-0.00020127926900428,0.00020127200236749,-0.00019576624786345,0.0001957595428648,-0.00019576681255868,0.00019575900925488,-5.1757383614223e-09,9.60725747382e-09,-1.1829548420342e-08,1.6014996317098e-08,-0.0002151630068458,0.00021516721647185,-0.00021706392242098,0.00021705407768596,-0.00021705487571987,0.00021706334221493,-0.00021705917907962,0.00021705898726847,-0.00021705013210498,0.0002170682525189,-0.00020919313119183,0.00020917487053753,-0.00020916610187523,0.00020920253164479,-0.00021357598211237,0.00021357497839799,-0.00021356157512311,0.00021358976757896,-6.3853061613864e-10,-7.8003321593659e-11,-0.00017990308453167,0.00017990232762627,1.3259560818394e-08,-1.4454878183652e-08,-0.0001851536376256,0.00018516202780885,-0.0001851628786981,0.00018515284261889,-0.00018515344431244,0.00018516220778235,-0.00018516268424773,0.00018515302227515,-0.00018630868640859,0.00018629926061487,-0.00018630923769363,0.00018629871309208,0.77011574927525,128566,2924,0.00082057788758949,0.00089611696913215,0.00074932007884553,31.993830013308,1.5950640106466e-05,1.5950640106466e-05,1.5950640106466e-05,1623566.0855831,0.0024690611271966
3819200,0.14786648488571,0.002856477251673,0.00095141924144919,0.0010108003324365,0.00089425767778738,-0.00022805575055547,0.00022805381663217,-6.1676440484387e-10,-1.3267389434372e-09,5.9072558016351e-09,-8.0740818152325e-09,-0.00023392038959834,0.00023392332790108,-0.00023392060492977,0.00023392306230493,-0.0002339248280624,0.0002339186368377,-0.00023392507181907,0.00023391841488436,-0.00022567904326161,0.00022567312810115,-0.00022567974019864,0.00022567245677489,-4.9031251124302e-09,9.0758861861349e-09,-1.1781032474457e-08,1.5720642067705e-08,-0.00025205441372011,0.00025205837520061,-0.00025562646754501,0.00025561675866769,-0.00025561753612972,0.00025562590464702,-0.00025562198747281,0.00025562139532326,-0.00025561304846911,0.00025563054907715,-0.00024331218519665,0.00024329373578495,-0.00024328547734003,0.00024332106931584,-0.00024903373712023,0.00024903314579294,-0.00024902010447904,0.00024904714559121,-6.6348597615096e-10,1.763805228404e-12,-0.00020664751825357,0.00020664681543118,1.3178504102988e-08,-1.4315325949981e-08,-0.00021330178132507,0.0002133101184665,-0.00021331094937396,0.00021330100256221,-0.00021330155584761,0.0002133103289284,-0.00021331071583503,0.0002133012200054,-0.00021420629280579,0.00021419710910177,-0.00021420695561461,0.00021419644713807,0.7714016058201,128566,2924,0.00094977595764631,0.0010496795194062,0.00086066995951316,32.325075178998,1.8600601431985e-05,1.8600601431985e-05,1.8600601431985e-05,1844177.5422401,0.0028642236669112
4019200,0.17029922914404,0.0032585713184866,0.001083626467727,0.001163737847438,0.0010112070033215,-0.00025954530055547,0.00025954366400016,-4.107035764099e-10,-1.2371805280477e-09,5.8218960717983e-09,-7.6873130231875e-09,-0.00026714836336555,0.00026715148286473,-0.00026714861778383,0.00026715118054489,-0.00026715265076276,0.00026714695168731,-0.00026715293504681,0.0002671466886059,-0.00025595667160177,0.00025595132816667,-0.00025595748701179,0.00025595053583518,-4.7731478618298e-09,8.759568754555e-09,-1.1788103456296e-08,1.5549987959704e-08,-0.00029024580539135,0.00029024958742334,-0.0002957511763865,0.00029574149465785,-0.00029574230045997,0.00029575058494199,-0.00029574684149692,0.0002957459814161,-0.00029573796052564,0.00029575507675606,-0.00027844894644859,0.0002784303371335,-0.00027842240314387,0.00027845750414124,-0.00028552882234478,0.0002855284346683,-0.00028551562852715,0.00028554198671426,-7.153883522565e-10,8.6445020910043e-11,-0.0002335265943895,0.00023352592372513,1.3093032306262e-08,-1.4193813899425e-08,-0.00024165701598479,0.00024166526961455,-0.00024166611391987,0.0002416562222032,-0.00024165674332688,0.00024166552641308,-0.00024166583618924,0.00024165648264593,-0.00024245169014039,0.00024244273691492,-0.0002424524809765,0.00024244194610397,0.77299484717928,128566,2924,0.001080849379629,0.0012086278863613,0.00097256987415575,32.662574559946,2.1300596479568e-05,2.1300596479568e-05,2.1300596479568e-05,2050256.3380864,0.0032673791866413
4219200,0.19330245833633,0.003669130305132,0.0012181900555975,0.001322047266271,0.0011288929832635,-0.0002915145001038,0.00029151305971373,-2.4932504026543e-10,-1.2037821686672e-09,5.7707602161801e-09,-7.4378699604283e-09,-0.00030100769191953,0.00030101095073402,-0.00030100799030152,0.00030101060623815,-0.00030101188228783,0.00030100652231847,-0.0003010122089285,0.00030100621646463,-0.00028661096888604,0.00028660604585736,-0.00028661190915209,0.00028660512851359,-4.692665276944e-09,8.5400675784153e-09,-1.1766453804104e-08,1.5395735856485e-08,-0.0003298341978943,0.00032983784592446,-0.00033748450150901,0.00033747484583861,-0.00033747568404068,0.00033748387664701,-0.00033748026451509,0.00033747923138088,-0.00033747144178972,0.00033748826746834,-0.00031474850845188,0.00031472983908876,-0.00031472213629645,0.00031475683259443,-0.00032317871374337,0.00032317842104272,-0.00032316580936604,0.00032319167792707,-7.7523267098654e-10,1.5175216159309e-10,-0.00026051588900861,0.00026051522320303,1.3011071038755e-08,-1.4104316075298e-08,-0.00027032358314352,0.00027033174089796,-0.00027033262311664,0.00027032275030931,-0.00027032326834778,0.00027033203822935,-0.00027033230270894,0.00027032305198677,-0.00027098885789295,0.00027098009124808,-0.00027098977263993,0.00027097917717504,0.77488672694502,128566,2924,0.0012139014467138,0.0013733630186238,0.0010849184861143,33.000312754536,2.4002502036291e-05,2.4002502036291e-05,2.4002502036291e-05,2242021.5603841,0.0036789417098733
4419200,0.21724471491182,0.0040947136748818,0.0013571507320232,0.001488540600414,0.0012490223424445,-0.00032493012536845,0.00032492884048614,-1.2591432477513e-10,-1.1731211700316e-09,5.6860940491145e-09,-7.1952742498842e-09,-0.00033652252357944,0.00033652585659442,-0.00033652284938232,0.00033652548701467,-0.00033652660598539,0.00033652154437878,-0.00033652696883681,0.00033652120299426,-0.00031862655872427,0.00031862200370326,-0.00031862760557957,0.00031862098258208,-4.6181044058157e-09,8.3432244145153e-09,-1.1778152175477e-08,1.5291422545567e-08,-0.00037201479580171,0.00037201832646525,-0.00038196655731833,0.00038195690145894,-0.00038195776566013,0.00038196590584178,-0.00038196240288973,0.00038196120045131,-0.00038195361574297,0.00038197020038901,-0.00035336781300559,0.00035334904325761,-0.00035334154523906,0.00035337593081865,-0.00036322080324894,0.00036322063865546,-0.00036320817703349,0.0003632336136132,-8.4604120361113e-10,2.413236349963e-10,-0.00028846756833853,0.00028846692083835,1.2926918288226e-08,-1.3998260583711e-08,-0.00030027311168342,0.00030028116448986,-0.00030028208269787,0.00030027224120553,-0.00030027273842972,0.00030028151958895,-0.00030028171365457,0.00030027259126453,-0.000300630109933,0.00030062156840501,-0.00030063116607798,0.00030062050999783,0.77612067689789,128566,2924,0.0013529543350279,0.0015488540599742,0.0012012629088629,33.59429520398,2.8754361631837e-05,2.8754361631837e-05,2.8754361631837e-05,2428396.6254583,0.0041115114976299
4619200,0.2422629009027,0.0045373982527506,0.0015009435790742,0.0016644596354225,0.0013719950382539,-0.00035959933920403,0.00035959815271381,4.6476970987645e-12,-1.2066010423701e-09,5.6340954882842e-09,-7.0434172131301e-09,-0.00037349400117832,0.00037349742246191,-0.00037349438598451,0.00037349699516398,-0.0003734980228305,0.00037349317821536,-0.00037349843518138,0.00037349278588308,-0.0003517780826801,0.00035177384020162,-0.00035177927670024,0.00035177267084258,-4.5375374772418e-09,8.1521731185748e-09,-1.1729826213655e-08,1.5138771738312e-08,-0.00041674440892487,0.0004167478339741,-0.00042915398384171,0.00042914437949496,-0.00042914525803955,0.00042915331402173,-0.00042914991868262,0.00042914858419209,-0.00042914119005975,0.00042915752211408,-0.00039424357896202,0.00039422479673952,-0.00039421748906747,0.00039425149765422,-0.00040563056440305,0.00040563047616111,-0.00040561818716066,0.00040564319525298,-8.9398537580896e-10,2.82589972378e-10,-0.00031722085284519,0.0003172201983434,1.2886346054503e-08,-1.3962484038911e-08,-0.00033134325262942,0.00033135124380785,-0.0003313521997788,0.00033134234252422,-0.00033134285333394,0.00033135162417029,-0.00033135179572026,0.00033134272657801,-0.00033121731115654,0.00033120888933203,-0.00033121846669845,0.00033120772903415,0.7769364621595,128566,2924,0.0014972032059695,0.0017349152931472,0.0013209335544269,34.292087976693,3.4336703813544e-05,3.4336703813544e-05,3.4336703813544e-05,2610527.4117546,0.0045634479933542
4819200,0.26832533843021,0.0049964869959604,0.0016491754010337,0.0018497334576264,0.0014975781373003,-0.00039523089776907,0.00039522978489002,9.7175338391366e-11,-1.2264293772127e-09,5.5876873930381e-09,-6.9222601545863e-09,-0.00041162869672313,0.00041163217447848,-0.00041162911859949,0.00041163171221487,-0.00041163266710071,0.00041162798837889,-0.00041163311853874,0.00041162755726649,-0.00038582745903734,0.00038582345908711,-0.00038582876720465,0.0003858221745924,-4.5021695004886e-09,8.0361966359738e-09,-1.1709052866193e-08,1.5042198942648e-08,-0.00046378733647228,0.0004637906847075,-0.000478830965045,0.00047882137524089,-0.00047882227804901,0.00047883027021281,-0.00047882694854951,0.00047882552901542,-0.00047881826078288,0.00047883442482977,-0.0004371246081049,0.000437105819816,-0.00043709863625593,0.00043713239964082,-0.00045016081054903,0.00045016075756178,-0.00045014858570178,0.00045017332192157,-9.5702755934367e-10,3.6035145524202e-10,-0.00034654880409534,0.00034654816394423,1.2819419047474e-08,-1.3878193302851e-08,-0.00036328701181704,0.0003632949184413,-0.00036329590747872,0.00036328606683265,-0.00036328656360408,0.00036329534693834,-0.00036329545836361,0.00036328649573411,-0.00036250060563789,0.00036249238101325,-0.00036250189299667,0.0003624910878324,0.77792179070037,128566,2924,0.0016454343390396,0.0019305601414403,0.0014429861467964,34.992496654128,3.9939973233026e-05,3.9939973233026e-05,3.9939973233026e-05,2787902.6305272,0.005031616973465
5019200,0.29538259011691,0.005469565708401,0.0018009362927082,0.0020435223232481,0.0016251070924447,-0.0004316026802081,0.00043160162148118,1.8739653668282e-10,-1.2633682850203e-09,5.5520536092103e-09,-6.8314247688097e-09,-0.00045073390219258,0.00045073743504385,-0.00045073436747659,0.0004507369312861,-0.00045073783378072,0.00045073329340603,-0.00045073832774184,0.00045073281984028,-0.00042058078253861,0.00042057700229231,-0.00042058221567107,0.00042057559353876,-4.4669654085524e-09,7.9464922293083e-09,-1.1669025975208e-08,1.4951440843422e-08,-0.00051293864703063,0.00051294194365164,-0.00053084539135917,0.00053083583470144,-0.00053083674624797,0.00053084468613074,-0.00053084141469974,0.00053083994601772,-0.00053083276917798,0.00053084879810161,-0.00048178515297411,0.00048176639965957,-0.00048175930675041,0.0004817928497463,-0.00049655256199904,0.00049655253498898,-0.00049654045839302,0.00049656497483422,-1.0157778112164e-09,4.2753326246848e-10,-0.00037630594309831,0.00037630531098864,1.2760352210528e-08,-1.3808175551757e-08,-0.00039596486570914,0.00039597269386966,-0.00039597371737514,0.00039596388475871,-0.00039596437556838,0.000395973164106,-0.00039597322612065,0.00039596435572493,-0.0003942713402673,0.00039426329087168,-0.00039427274997942,0.00039426187260917,0.77677325745379,128566,2924,0.0017967220275062,0.0021349301979492,0.0015668158162404,35.693005632993,4.5544045063942e-05,4.5544045063942e-05,4.5544045063942e-05,2958358.7538929,0.0055136389684127
5219200,0.3227378425369,0.0059461644377961,0.0019527882505429,0.0022413936973799,0.0017519824898733,-0.00046718404619957,0.00046718299860863,2.0286780720881e-10,-1.2680879045945e-09,5.5655737637395e-09,-6.8349563278347e-09,-0.00048917507688038,0.00048917862126169,-0.0004891755374001,0.00048917812462864,-0.00048917900279074,0.00048917448855252,-0.00048917951723598,0.0004891739961968,-0.0004545806692827,0.00045457695181264,-0.00045458216191893,0.00045457548787139,-4.5207778679276e-09,7.9977132295272e-09,-1.1705938485953e-08,1.4987007930872e-08,-0.00056236986971919,0.00056237316441094,-0.00058331652997775,0.00058330690129171,-0.00058330784974902,0.00058331579054328,-0.00058331250738291,0.00058331106002103,-0.00058330385244481,0.00058331992438007,-0.00052650566023098,0.00052648690528437,-0.0005264797819885,0.0005265133927399,-0.00054303359779149,0.00054303352660739,-0.00054302143016905,0.0005430460350895,-1.1289616528448e-09,5.4752604014212e-10,-0.00040521562504447,0.00040521499908024,1.2706604139436e-08,-1.3745927290561e-08,-0.00042795004763804,0.00042795775235394,-0.0004279588474309,0.00042794899393095,-0.00042794946710189,0.00042795831297726,-0.00042795829167063,0.00042794952991137,-0.00042522095641554,0.00042521314361599,-0.00042522255497198,0.00042521153297871,0.77855552308423,128566,2924,0.0019446994861895,0.002340418798947,0.0016871123166462,36.022701570649,4.8181612565195e-05,4.8181612565195e-05,4.8181612565195e-05,3113746.457641,0.0059901344188934
5419200,0.35018598075289,0.0064161079119463,0.0021013598497313,0.0024391612838949,0.00187558677832,-0.00050178692746574,0.00050178588805354,3.0416298344141e-10,-1.3616715516802e-09,5.5840401314999e-09,-6.8462456798792e-09,-0.00052689227620549,0.00052689590847778,-0.00052689280907938,0.00052689533995423,-0.00052689621778273,0.00052689176233332,-0.00052689678854495,0.00052689121250218,-0.00048762684878205,0.00048762329572157,-0.00048762850793529,0.0004876216654657,-4.5149957003629e-09,7.9954408142126e-09,-1.1659400331264e-08,1.4945103639401e-08,-0.0006117170440189,0.00061172034283384,-0.00063594389652522,0.00063593430238169,-0.00063593524479399,0.000635943159904,-0.00063593987953862,0.00063593845309549,-0.00063593124153241,0.0006359472995898,-0.00057092053085009,0.00057090183268457,-0.00057089470537999,0.00057092826130102,-0.00058910058090295,0.00058910046445119,-0.00058908839347059,0.0005891129920794,-1.1689310320559e-09,5.6630186436447e-10,-0.0004332398837298,0.00043323923610951,1.2702164438478e-08,-1.3762476714901e-08,-0.00045935137858434,0.00045935905028317,-0.00045936018732341,0.0004593502822174,-0.00045935078626819,0.0004593596231467,-0.00045935960233146,0.00045935084680077,-0.00045507942175307,0.0004550716660993,-0.00045508110151127,0.00045506997162531,0.76958003305695,128566,2924,0.0020885861406156,0.0025455119792536,0.0018037194448316,36.275617485733,5.0204939885867e-05,5.0204939885867e-05,5.0204939885867e-05,3248985.6483372,0.0064586284618248
5619200,0.37764618735954,0.0068622839559449,0.0022410978166567,0.0026299044612123,0.001991281678076,-0.00053445761597321,0.00053445660036088,3.7666045184333e-10,-1.4110151984781e-09,5.5759706802376e-09,-6.8145036530911e-09,-0.00056331120320082,0.00056331488715012,-0.0005633117769368,0.00056331427864802,-0.00056331513284143,0.0005633107544296,-0.00056331574326915,0.00056331016394279,-0.00051862672861395,0.00051862333139158,-0.00051862850568421,0.00051862157990706,-4.4957264524664e-09,7.9727686560079e-09,-1.1629268544064e-08,1.4912260457062e-08,-0.00065971491674727,0.00065971821269738,-0.00068773816960976,0.00068772860907613,-0.00068772954008663,0.00068773744432089,-0.00068773416777015,0.00068773274393718,-0.00068772554879897,0.00068774156974513,-0.00061352606188286,0.00061350740683148,-0.00061350029520775,0.00061353377409353,-0.00063318719890103,0.00063318709918434,-0.00063317505008294,0.00063319958574156,-1.2348066104762e-09,6.3236886792086e-10,-0.00045945244915108,0.00045945180131828,1.2671433686296e-08,-1.373096132787e-08,-0.00048967810066248,0.00048968570720949,-0.00048968688863811,0.00048967695935501,-0.00048967746366513,0.00048968632517562,-0.0004896862607473,0.00048967756700228,-0.00048242450028784,0.00048241689145115,-0.00048242630499257,0.00048241506992377,0.73637048652698,128566,2924,0.002224418986799,0.0027449520377207,0.0019127864166981,36.526532968041,5.2212263744325e-05,5.2212263744325e-05,5.2212263744325e-05,3365207.2822924,0.0069059472998968
5819200,0.4050370076186,0.007288408743481,0.0023734462859426,0.0028143329152002,0.0021006295423383,-0.00056559203742608,0.00056559102909545,4.42923299534e-10,-1.4706485581684e-09,5.5458942656745e-09,-6.7758764972124e-09,-0.00059889777205988,0.00059890148249815,-0.00059889838772955,0.00059890083195194,-0.00059890167989387,0.00059889737277652,-0.00059890233216792,0.00059889673993926,-0.00054815758486628,0.00054815434007175,-0.00054815948479975,0.00054815246449885,-4.4664167215056e-09,7.9326426934756e-09,-1.1594397266358e-08,1.4867467462222e-08,-0.00070665304371442,0.00070665632968199,-0.00073885871242193,0.00073884919081107,-0.0007388501082463,0.00073885799933935,-0.00073885473231706,0.00073885330181949,-0.00073884613874696,0.0007388621007868,-0.00065467251540331,0.00065465390581132,-0.00065464682638907,0.00065468019347217,-0.00067605258538502,0.00067605251910061,-0.00067604050419018,0.00067606493391748,-1.2954255252038e-09,6.9921021387585e-10,-0.00048417064962645,0.00048417000765086,1.2636259724116e-08,-1.3688491717266e-08,-0.0005191482871285,0.00051915583099544,-0.00051915704936274,0.00051914710840571,-0.0005191476081604,0.0005191564917189,-0.00051915637934361,0.00051914775871202,-0.00050784275284809,0.0005078353001,-0.00050784468013917,0.00050783335275345,0.71317583884807,128566,2924,0.0023538474143986,0.0029399438892055,0.0020156361216246,36.777371162091,5.421896929673e-05,5.421896929673e-05,5.421896929673e-05,3476057.1151198,0.0073362716538925
6019200,0.43187443291657,0.0076954388948891,0.0024989783600616,0.0029921562865398,0.0022043042482877,-0.00059485746670619,0.00059485642338425,4.8333214088781e-10,-1.5463544077073e-09,5.5630485743152e-09,-6.828700351274e-09,-0.00063313293499611,0.00063313667149625,-0.00063313358700426,0.00063313598378767,-0.00063313686541107,0.00063313254018537,-0.00063313755835359,0.00063313186640635,-0.0005762408333146,0.00057623764964631,-0.00057624285256004,0.00057623565382644,-4.5024390540187e-09,7.9675201037594e-09,-1.1632560014718e-08,1.4903774403775e-08,-0.00075191243454922,0.00075191571871456,-0.00078813122722136,0.00078812165358286,-0.0007881225972157,0.00078813048948719,-0.00078812722162473,0.00078812579041556,-0.00078811860634072,0.00078813461261414,-0.00069417186395469,0.00069415320849246,-0.00069414610997983,0.00069417956593824,-0.00071777816570094,0.00071777805874605,-0.00071776602085555,0.00071779053781852,-1.3765830304795e-09,7.5539845309441e-10,-0.00050706159021423,0.00050706092263506,1.2655145360496e-08,-1.3734532819644e-08,-0.00054712557337557,0.0005471330654729,-0.00054713435467272,0.00054712432291421,-0.00054712484673224,0.00054713377397557,-0.00054713364145135,0.00054712501720601,-0.00053131547968954,0.00053130810892409,-0.00053131753399484,0.00053130603174289,0.7026152322975,128566,2924,0.0024754912827832,0.0031279187534781,0.0021108852091477,36.775485536576,5.4203884292608e-05,5.4203884292608e-05,5.4203884292608e-05,3553937.4575017,0.0077442068697059
6219200,0.45808953557408,0.0080942175873131,0.0026217565878854,0.0031668102739514,0.0023056507254764,-0.00062354366988104,0.0006235425910788,5.3051059460373e-10,-1.6290088544694e-09,5.5618774870534e-09,-6.8633346702488e-09,-0.00066665833668947,0.00066666209358413,-0.00066665903182426,0.00066666136166719,-0.00066666228057398,0.00066665795024741,-0.00066666301582656,0.000666657233806,-0.00060391543996776,0.00060391233454268,-0.00060391758362261,0.00060391021302742,-4.5262033737997e-09,7.9757591067988e-09,-1.1634752894138e-08,1.4890417967776e-08,-0.00079643474134068,0.00079643800990275,-0.00083647039935589,0.00083646080214472,-0.00083646177231808,0.00083646963496271,-0.00083646638270043,0.00083646495003356,-0.0008364577704199,0.00083647376922871,-0.00073309001181932,0.00073307136124972,-0.00073306426951067,0.0007330977104509,-0.0007590848747789,0.00075908471542266,-0.0007590726979788,0.00075909722776505,-1.4435587077338e-09,8.120384554995e-10,-0.00052921417612189,0.00052921349775264,1.2645730974364e-08,-1.3736727679095e-08,-0.00057422992934756,0.00057423736717327,-0.00057423870822731,0.00057422862623577,-0.00057422916209557,0.00057423811656237,-0.00057423795339944,0.0005742293630232,-0.00055417744408387,0.00055417018852486,-0.00055417962086203,0.00055416798785157,0.70745491785296,128566,2924,0.0025947142089319,0.00331279235487,0.0022030630637261,36.758773831794,5.4070190654351e-05,5.4070190654351e-05,5.4070190654351e-05,3597051.7060277,0.0081436465078744
6419200,0.48364265073614,0.0084797512175528,0.0027406263939669,0.003336164264293,0.0024029605592929,-0.00065138952510987,0.00065138843208502,5.8700186471472e-10,-1.6998281545547e-09,5.5557465789137e-09,-6.8709638995634e-09,-0.00069917694003423,0.00069918072655611,-0.0006991776774417,0.00069917995190369,-0.00069918088630441,0.00069917658229853,-0.00069918166364807,0.0006991758235994,-0.00063069053870294,0.00063068754250546,-0.00063069280609967,0.00063068529661807,-4.5348574109542e-09,7.9670656217023e-09,-1.1613619489632e-08,1.4852021403794e-08,-0.00083968871067092,0.00083969196188433,-0.00088352763870062,0.00088351804264553,-0.00088351903006016,0.00088352685577006,-0.00088352362124723,0.00088352219072652,-0.00088351502708614,0.00088353099040316,-0.00077082369554991,0.00077080508516876,-0.00077079801041376,0.00077083137665209,-0.00079909962307945,0.00079909942560949,-0.00079908744523434,0.00079911193824374,-1.5059365343748e-09,8.757968045019e-10,-0.00055035175933846,0.00055035108223325,1.261822345667e-08,-1.3707719683444e-08,-0.00060034047319337,0.0006003478514745,-0.00060034923337261,0.00060033912880603,-0.00060033966420803,0.00060034864303743,-0.00060034843664952,0.00060033990813625,-0.00057598677372623,0.00057597966204167,-0.00057598907329752,0.00057597733697521,0.7021089274716,128566,2924,0.0027104324455953,0.0034923618843673,0.0022910180718845,36.741614587757,5.393291670206e-05,5.393291670206e-05,5.393291670206e-05,3637667.3763809,0.0085301036781411
6619200,0.50890905569556,0.0088842461624636,0.0028662165917334,0.0035120775923399,0.0025059519783903,-0.00068091540421604,0.00068091433875389,6.6244041926572e-10,-1.7479640234978e-09,5.4826198586495e-09,-6.768209012037e-09,-0.00073260405010824,0.00073260784696848,-0.00073260482870428,0.0007326070322475,-0.00073260793966931,0.00073260376166164,-0.0007326087587236,0.00073260296138217,-0.00065943552740638,0.00065943273924013,-0.0006594379174948,0.00065943037108466,-4.4576378546352e-09,7.8665003104624e-09,-1.1469000546494e-08,1.4684706555324e-08,-0.00088423424894155,0.00088423747731483,-0.00093189412315859,0.00093188466343448,-0.00093188561248247,0.00093189337235772,-0.00093189016184822,0.00093188875288905,-0.0009318816667714,0.00093189744722456,-0.00080968572403746,0.00080966733983619,-0.00080966034030677,0.000809693317377,-0.0008406925378976,0.00084069239071855,-0.00084068053511973,0.00084070472497356,-1.5457343755873e-09,9.6601115551127e-10,-0.00057280207304813,0.00057280144711043,1.2492061137931e-08,-1.3524963965112e-08,-0.00062715106401585,0.00062715834576817,-0.00062715972156402,0.00062714972554696,-0.00062715021150771,0.00062715918160507,-0.00062715888230265,0.0006271505479423,-0.00059967491878376,0.0005996680851642,-0.00059967734334852,0.00059966563398055,0.7407066611086,128566,2924,0.002833119344801,0.0036772578592254,0.0023844310092023,37.008796567249,5.6070372537996e-05,5.6070372537996e-05,5.6070372537996e-05,3663823.4992361,0.0089346211078289
6819200,0.53498451174141,0.0093355442306497,0.0030078597010168,0.0037062773509086,0.0026214071787243,-0.00071510417072763,0.00071510322568157,6.9512975332202e-10,-1.6608964536733e-09,5.2923633479859e-09,-6.4511744314317e-09,-0.0007697292505992,0.00076973295990308,-0.00076972999267372,0.00076973218724783,-0.00076973295347108,0.00076972906531594,-0.00076973377784173,0.00076972826166078,-0.00069292433091283,0.00069292184032846,-0.00069292673437503,0.00069291946487049,-4.2330366135783e-09,7.6006605676546e-09,-1.1093190367884e-08,1.4269819045529e-08,-0.00093346456912737,0.00093346775823104,-0.00098519822593317,0.00098518912459752,-0.00098518994395718,0.00098519758911075,-0.00098519439970392,0.00098519307168747,-0.00098518617777153,0.00098520147788571,-0.00085268321985166,0.00085266547651805,-0.00085265866158766,0.00085269059524457,-0.00088696677791173,0.00088696687852094,-0.00088695531970586,0.00088697865920693,-1.6184219317786e-09,1.2022734155517e-09,-0.00059913655966618,0.00059913609984919,1.2129278031176e-08,-1.2978151104342e-08,-0.00065708247454091,0.00065708949267972,-0.00065709081037066,0.00065708119430978,-0.00065708149869311,0.00065709045355537,-0.00065708989098311,0.00065708209752716,-0.00062803691772532,0.00062803078655479,-0.0006280395800602,0.0006280280956807,0.79221450456515,128566,2924,0.0029751621329866,0.0038815598525271,0.0024939954392255,38.073355699714,6.4586845597714e-05,6.4586845597714e-05,6.4586845597714e-05,3735301.0518408,0.0093947284818936
7019200,0.56176948817719,0.0097629930981054,0.0031419560371691,0.0038936012661864,0.0027274357947498,-0.00074831995476898,0.00074831913659063,8.4875447309853e-10,-1.6881664729838e-09,5.1771556887747e-09,-6.2027691900708e-09,-0.00080678987157333,0.00080679364938453,-0.00080679067806468,0.00080679281452792,-0.00080679346215321,0.00080678987042323,-0.00080679433856704,0.0008067890147365,-0.0007249445319157,0.0007249424445548,-0.00072494709263753,0.00072493991187191,-4.0711455434158e-09,7.391828525536e-09,-1.0845913022773e-08,1.3977839832088e-08,-0.00098255762449057,0.0009825607687291,-0.001038195476681,0.0010381866252388,-0.001038187360823,0.0010381949094789,-0.0010381917676264,0.0010381904454301,-0.0010381837144467,0.0010381986774199,-0.00089553836931705,0.00089552097000189,-0.00089551431233936,0.00089554556753376,-0.00093247797526048,0.00093247819970536,-0.00093246686133066,0.00093248962846399,-1.6171047848089e-09,1.2784317737285e-09,-0.00062410614856603,0.00062410576693021,1.1926301223067e-08,-1.2684773686229e-08,-0.00068664665882026,0.00068665356190971,-0.0006866548348486,0.0006866454235705,-0.00068664566030617,0.00068665454626286,-0.00068665388122157,0.00068664636107186,-0.00065437916624222,0.00065437337139672,-0.00065438192327338,0.000654370585418,0.73335806882371,128566,2924,0.0031131411333677,0.0040852410545863,0.0025978875314966,39.15750923802,7.3260073904158e-05,7.3260073904158e-05,7.3260073904158e-05,3755592.6671844,0.0098445908495605
7219200,0.58911155417027,0.010181988491192,0.00327350022378,0.0040783395118062,0.0028301487556056,-0.00078121838974001,0.00078121767483127,9.6764493580628e-10,-1.7043114854755e-09,5.1097239774914e-09,-6.02773091237e-09,-0.00084408961138489,0.00084409345717965,-0.00084409046387475,0.00084409257794107,-0.00084409312616417,0.0008440897576761,-0.00084409404469112,0.00084408885920106,-0.00075624548813113,0.00075624370936837,-0.00075624817387958,0.00075624104921415,-3.9738239754347e-09,7.2422150170672e-09,-1.0704727345104e-08,1.3786286852488e-08,-0.0010314379958191,0.0010314410895564,-0.001091264702573,0.0010912559907901,-0.0010912566921559,0.0010912641626102,-0.001091261073881,0.0010912597269456,-0.0010912531236166,0.0010912678493471,-0.00093804324544325,0.0009380260298622,-0.00093801949330486,0.00093805030063449,-0.00097759998203821,0.0009776002805629,-0.00097758910036376,0.0009776114699306,-1.6553503821352e-09,1.3601767376988e-09,-0.00064862961284477,0.00064862927494292,1.1793422103256e-08,-1.2499191483235e-08,-0.00071614724406852,0.00071615404305426,-0.00071615531597793,0.00071614600911546,-0.00071614620567499,0.00071615506793447,-0.00071615432135482,0.00071614698763766,-0.00068006841738202,0.00068006288986884,-0.00068007129334796,0.00068005998431303,0.70718848100261,128566,2924,0.0032497829468196,0.0042879910346297,0.002699924667545,40.242412970155,8.1939303761237e-05,8.1939303761237e-05,8.1939303761237e-05,3794031.4681745,0.010290491112082
7419200,0.61601601421706,0.010579057695671,0.0033981995502988,0.0042542406619832,0.0029266174833892,-0.0008115618973985,0.00081156115321013,1.0340972421108e-09,-1.7994442416016e-09,5.2048204017911e-09,-6.1533392038876e-09,-0.00087930944460692,0.00087931339328132,-0.00087931035394392,0.00087931245443876,-0.00087931303901657,0.00087930961532864,-0.00087931400476974,0.00087930866812627,-0.00078473855634559,0.00078473681957642,-0.00078474138377145,0.00078473401394908,-4.0994298259387e-09,7.333696775274e-09,-1.0939735696672e-08,1.3987120172345e-08,-0.0010774626909435,0.0010774657504619,-0.0011416329637531,0.0011416240084863,-0.0011416248192949,0.0011416323220333,-0.0011416292699344,0.0011416278123771,-0.0011416211752622,0.0011416360867409,-0.00097786795110302,0.00097785032650009,-0.00097784376015648,0.00097787505143855,-0.0010198154223856,0.00101981559904,-0.0010198043102037,0.0010198270194732,-1.7546714938139e-09,1.3543927434501e-09,-0.00067081498116055,0.0006708145360412,1.1964640623589e-08,-1.2784477891189e-08,-0.0007436812697937,0.00074368808490593,-0.00074368949718137,0.00074367989483065,-0.0007436802031555,0.00074368913637337,-0.00074368846581787,0.00074368090973384,-0.00070318457428079,0.00070317889650216,-0.00070318755525949,0.00070317588626519,0.68501443816602,128566,2924,0.0033757962745821,0.0044788522192131,0.0027922394746831,40.770635090856,8.616508072685e-05,8.616508072685e-05,8.616508072685e-05,3835574.1675716,0.010704006759566
7619200,0.64174298830963,0.010949366473153,0.0035142918699407,0.0044188438643849,0.0030162307388275,-0.00083902680362224,0.0008390259420892,1.0305945470109e-09,-1.9119378357611e-09,5.3278860429629e-09,-6.3993326339278e-09,-0.00091211541154528,0.0009121194007215,-0.00091211635225337,0.0009121184246624,-0.00091211912583182,0.00091211550231516,-0.00091212012938719,0.00091211451467341,-0.00081044547748886,0.0008104436186275,-0.00081044841743966,0.00081044069592777,-4.2918102922592e-09,7.5124007400788e-09,-1.1271545805248e-08,1.4304025498751e-08,-0.0011201444033848,0.0011201474481184,-0.0011884758876033,0.0011884665824012,-0.001188467537809,0.0011884751167144,-0.0011884720735939,0.0011884705132235,-0.001188463775516,0.0011884790046225,-0.0010146139027459,0.0010145957522723,-0.0010145890949072,0.001014621127318,-0.0010591959456031,0.0010591959617797,-0.0010591844789596,0.0010592077473281,-1.901140524984e-09,1.353896790057e-09,-0.00069054676186021,0.00069054616628922,1.2198450906463e-08,-1.3183058844919e-08,-0.00076893070994191,0.00076893753845765,-0.00076893914358765,0.00076892914176123,-0.00076892959191091,0.00076893863982209,-0.00076893806676866,0.00076893020170209,-0.00072350902743935,0.00072350312899082,-0.0007235121438133,0.00072349998638704,0.6722324101858,128566,2924,0.0034898420674964,0.0046558124613367,0.0028743510006899,40.851696237779,8.6813569902235e-05,8.6813569902235e-05,8.6813569902235e-05,3866814.745692,0.011081223023326
7819200,0.66625846087244,0.011297813427864,0.0036233188545016,0.0045740029289266,0.0031004916444357,-0.00086488120182133,0.00086488025380921,1.0536509314961e-09,-2.0202776627283e-09,5.3882004575239e-09,-6.5499976869785e-09,-0.00094319208306724,0.0009431961006129,-0.00094319306557316,0.00094319507832127,-0.0009431958657172,0.00094319213105458,-0.00094319691200998,0.00094319109959799,-0.00083456388883518,0.00083456200319811,-0.00083456695460236,0.00083455895203832,-4.4004476544036e-09,7.6150864940995e-09,-1.1394289220874e-08,1.4419877337469e-08,-0.0011606725970293,0.0011606756350133,-0.0012330218817432,0.0012330124219211,-0.0012330134576408,0.0012330210377549,-0.0012330179999296,0.0012330164240622,-0.0012330096266567,0.0012330249975768,-0.0010493867407084,0.0010493684174667,-0.001049361708458,0.0010493940397073,-0.001096501464721,0.0010965013433762,-0.0010964897930281,0.0010965133431132,-1.9952267329466e-09,1.3834225058833e-09,-0.00070886961578041,0.00070886895335943,1.2279738155399e-08,-1.3339531160073e-08,-0.00079240948076313,0.00079241628178252,-0.0007924179929652,0.00079240780636283,-0.00079240832066131,0.00079241742371266,-0.00079241687361641,0.00079240890794723,-0.00074231755161153,0.00074231163387533,-0.00074232079280977,0.00074230837018129,0.66655083540592,128566,2924,0.0035971895756091,0.0048238112629639,0.0029506031457834,40.92159327973,8.7372746237843e-05,8.7372746237843e-05,8.7372746237843e-05,3878910.1901846,0.011436816538374
8019200,0.6895555085598,0.011625440047444,0.0037257830752538,0.0047201254223471,0.0031795315498434,-0.00088925455426582,0.00088925355972005,1.0951809070155e-09,-2.1078185446112e-09,5.4214072284328e-09,-6.6313584235815e-09,-0.00097237098765407,0.00097237504045941,-0.00097237201223138,0.00097237397382831,-0.00097237480840956,0.00097237103215729,-0.00097237589669317,0.00097236995762174,-0.00085711839676805,0.00085711655326454,-0.00085712158723147,0.00085711337510701,-4.4593129974607e-09,7.6703656043607e-09,-1.1418285702268e-08,1.4439526535435e-08,-0.0011989837193633,0.0011989867531417,-0.0012752893664203,0.0012752798501972,-0.0012752809294375,0.0012752884815218,-0.0012752854477363,0.0012752838907243,-0.0012752770608007,0.0012752924802789,-0.0010820994952974,0.0010820811615482,-0.0010820744246149,0.001082106833547,-0.0011315998437173,0.0011315996192422,-0.0011315880596035,0.0011316117340212,-2.0667826016918e-09,1.4378330516303e-09,-0.00072593566627827,0.00072593498581659,1.2290902179287e-08,-1.3372925704828e-08,-0.00081441669874594,0.00081442345619008,-0.00081442522519387,0.00081441496614862,-0.00081441549621336,0.00081442464006986,-0.00081442406373822,0.00081441610976456,-0.00075983185806654,0.00075982603326704,-0.00075983522395151,0.00075982264657058,0.66097249194915,128566,2924,0.0036983785322147,0.004982590328166,0.0030216281605563,40.991060701012,8.7928485608097e-05,8.7928485608097e-05,8.7928485608097e-05,3885341.0817324,0.011771687634599
8219200,0.71177844342606,0.011934968921093,0.0038226606137263,0.0048583027041254,0.0032540056032415,-0.00091257903680629,0.00091257803627404,1.1616608431248e-09,-2.1802574859683e-09,5.4099447460063e-09,-6.6256365150584e-09,-0.0010003484840765,0.0010003525736604,-0.0010003495567905,0.0010003514588159,-0.0010003523016885,0.0010003485687762,-0.0010003534336849,0.0010003474501043,-0.00087868432710934,0.00087868261350155,-0.00087868764741104,0.00087867930500427,-4.4534721423654e-09,7.657979042291e-09,-1.1310294783611e-08,1.4324669766524e-08,-0.0012355028774571,0.0012355059044891,-0.0013157626533796,0.0013157532110243,-0.0013157542898533,0.0013157617659405,-0.0013157587423195,0.0013157572434651,-0.0013157504244694,0.0013157657609182,-0.0011130927228338,0.0011130745886815,-0.0011130678629732,0.0011131000469969,-0.0011649415597961,0.0011649412660142,-0.0011649297859165,0.0011649533690297,-2.1101403274868e-09,1.510548455845e-09,-0.00074217920558395,0.0007421785546142,1.2198757641739e-08,-1.3249785455256e-08,-0.00083530008377494,0.00083530676233888,-0.00083530854110275,0.00083529834163253,-0.00083529884420399,0.00083530798312999,-0.00083530733856801,0.00083529952603397,-0.00077639466449138,0.0007763890582488,-0.00077639815034344,0.00077638555363476,0.65549139612275,128566,2924,0.00379520392439,0.0051339159373001,0.0030892311793544,41.181412117141,8.945129693713e-05,8.945129693713e-05,8.945129693713e-05,3891232.6636076,0.01209124648174
8419200,0.7329790875435,0.012229444546079,0.0039149615098167,0.0049896686633716,0.0033248143728903,-0.00093489516380761,0.00093489416903292,1.2253084993613e-09,-2.238277769501e-09,5.3771657304416e-09,-6.5862296843218e-09,-0.0010269617294362,0.001026965840323,-0.0010269628425335,0.00102696468608,-0.0010269655220665,0.0010269618604445,-0.0010269666959003,0.0010269607000187,-0.00089944614621222,0.0008994445838411,-0.00089944958879723,0.00089944115394058,-4.4216267042217e-09,7.6162331394821e-09,-1.1180100482193e-08,1.4184806516604e-08,-0.0012702756205919,0.0012702786380215,-0.0013544626690293,0.0013544533286068,-0.001354454390518,0.0013544617936895,-0.0013544587805413,0.0013544573372602,-0.0013544505494431,0.0013544657631823,-0.0011424998788441,0.0011424819787421,-0.001142475282863,0.0011425071651255,-0.0011965816118964,0.0011965812941801,-0.0011965699115257,0.0011965933204776,-2.1577513468613e-09,1.5961727920091e-09,-0.00075768876912031,0.00075768815693036,1.2085658253936e-08,-1.3094656002232e-08,-0.00085520242274376,0.00085520900568349,-0.00085521079051524,0.00085520067475755,-0.000855201138039,0.0008552102718565,-0.00085520954489435,0.00085520190219616,-0.00079211834317385,0.00079211298948264,-0.00079212195603171,0.00079210935875568,0.65380935124071,128566,2924,0.0038878340261329,0.0052779803087751,0.0031537811147144,41.430699019556,9.1445592156449e-05,9.1445592156449e-05,9.1445592156449e-05,3895026.3392934,0.012396216322943
8619200,0.75314236417545,0.012509068293896,0.0040027306844035,0.0051142774471105,0.0033920601623816,-0.00095608337252044,0.00095608238266567,1.2919851699366e-09,-2.3001431697191e-09,5.3370127728277e-09,-6.540419729108e-09,-0.0010521975755566,0.0010522017059034,-0.0010521987322327,0.0010522005090765,-0.0010522013403431,0.0010521977544594,-0.0010522025568086,0.0010521965515361,-0.00091919263803728,0.00091919123394044,-0.0009191962060405,0.00091918767902822,-4.3842775422129e-09,7.5667453650643e-09,-1.1071369580024e-08,1.4064316218147e-08,-0.0013032003759837,0.0013032033816998,-0.0013912043064889,0.0013911950580119,-0.0013911961007306,0.0013912034457513,-0.0013912004460786,0.0013911990373886,-0.0013911922875041,0.0013912073864298,-0.0011702656682466,0.0011702479521353,-0.0011702412927531,0.001170272910091,-0.001226540160702,0.0012265398400358,-0.0012265285442554,0.0012265517803359,-2.2052306514618e-09,1.6750269972883e-09,-0.00077239479347407,0.00077239421340735,1.1990743026002e-08,-1.2964382553897e-08,-0.00087407042261048,0.00087407692041627,-0.0008740787161838,0.00087406866391425,-0.00087406909581257,0.00087407822885303,-0.00087407742817966,0.00087406993361038,-0.00080705673343945,0.00080705160927204,-0.00080706047068275,0.00080704785481174,0.65260875462125,128566,2924,0.0039757734104552,0.0054143661890635,0.0032149893402203,41.681474048845,9.3451792390764e-05,9.3451792390764e-05,9.3451792390764e-05,3898728.044485,0.012685367369414
8819200,0.77225973048049,0.012763795107769,0.0040826235144118,0.0052285254110082,0.0034526461823492,-0.00097559340242126,0.00097559241767371,1.3585713467507e-09,-2.3616910526226e-09,5.2955808204921e-09,-6.4931459512894e-09,-0.0010757510314742,0.0010757551803229,-0.001075752231353,0.0010757539410771,-0.0010757547674915,0.0010757512582824,-0.0010757560265809,0.0010757500129209,-0.00093725881843679,0.00093725757331158,-0.00093726251150363,0.00093725389386151,-4.3461597604497e-09,7.5152823087548e-09,-1.0993873334246e-08,1.3973845366616e-08,-0.0013338441820482,0.0013338471748041,-0.0014255735772234,0.0014255644001386,-0.0014255654243116,0.0014255727310894,-0.0014255697457164,0.0014255683493964,-0.0014255616399333,0.001425576642024,-0.0011959975234012,0.0011959799289893,-0.0011959733086999,0.0011960047191816,-0.001254255379922,0.0012542550781623,-0.001254243850252,0.0012542669297675,-2.2563603381026e-09,1.7505611915586e-09,-0.00078580540203774,0.00078580484699861,1.19225665191e-08,-1.2868304009468e-08,-0.00089161113937573,0.00089161756516,-0.00089161937895535,0.00089160936280901,-0.00089160977041525,0.00089161891588307,-0.00089161804854693,0.00089161067481948,-0.00082047628305192,0.00082047136150103,-0.00082048014468672,0.00082046748291148,0.62941992793024,128566,2924,0.0040567402066789,0.0055412822458058,0.0032708112516934,41.932306498365,9.5458451986922e-05,9.5458451986922e-05,9.5458451986922e-05,3912577.5172435,0.012952491266033
9019200,0.78993127053971,0.01299934762768,0.004156575414005,0.0053339488790126,0.0035088233346627,-0.00099278794670963,0.00099278695429993,1.4160547185555e-09,-2.4269213370926e-09,5.2756763874063e-09,-6.4807227876321e-09,-0.0010965517211702,0.001096555891469,-0.0010965529607612,0.0010965546123219,-0.0010965554454291,0.0010965519813067,-0.0010965567466757,0.0010965506937363,-0.00095307084665045,0.00095306972775954,-0.00095307466308617,0.0009530659244949,-4.3358226667702e-09,7.4923550198736e-09,-1.1044844156122e-08,1.4012493159658e-08,-0.0013612556048148,0.0013612585853301,-0.0014565301694279,0.0014565209599394,-0.0014565219851101,0.0014565293217709,-0.0014565263472703,0.0014565248992768,-0.0014565182126293,0.0014565332205084,-0.001218779335899,0.0012187616335704,-0.0012187550368003,0.0012187865086679,-0.0012787912792884,0.0012787910315132,-0.0012787797856847,0.0012788028458859,-2.324387829926e-09,1.8141137985931e-09,-0.00079734045677695,0.00079733989728413,1.1964941162966e-08,-1.2915658966121e-08,-0.0009068531328415,0.00090685953914815,-0.00090686140115812,0.00090685130807746,-0.00090685171872521,0.00090686093501328,-0.00090686002823903,0.00090685266260593,-0.00083202228554552,0.00083201745556646,-0.00083202627255267,0.0008320134510315,0.62977530197434,128566,2924,0.0041280931274894,0.0056547951567792,0.0033188330686959,41.750125132496,9.4001001059966e-05,9.4001001059966e-05,9.4001001059966e-05,3914669.8119792,0.01318845928327
9219200,0.80615076701235,0.013213032570452,0.0042236861360199,0.005429632807591,0.0035597136268414,-0.0010081433542637,0.0010081423564079,1.4772020014359e-09,-2.4934147897045e-09,5.2603693850339e-09,-6.4708933073571e-09,-0.0011151975084214,0.0011152017071809,-0.0011151987899831,0.0011152003855924,-0.0011152012241747,0.0011151978053979,-0.0011152025679173,0.0011151964752853,-0.00096712175847101,0.00096712076732822,-0.00096712569935489,0.00096711683894004,-4.3288485268842e-09,7.4735768308285e-09,-1.1104405238748e-08,1.4060472346163e-08,-0.0013859319836342,0.0013859349526325,-0.0014845143254059,0.0014845050769398,-0.0014845061053794,0.0014845134747574,-0.0014845105113278,0.0014845090076909,-0.0014845023409553,0.0014845173650857,-0.0012392215988413,0.0012392037706553,-0.0012391971950122,0.0012392287526834,-0.0013007106434018,0.0013007104452989,-0.0013006991755729,0.0013007222342856,-2.3915389390572e-09,1.8734150232447e-09,-0.00080753400976974,0.00080753344216803,1.2014886428408e-08,-1.2974571351423e-08,-0.00092045838006827,0.000920464772232,-0.00092046668449908,0.00092045650502023,-0.00092045692342921,0.00092046621049468,-0.00092046526935138,0.00092045790168809,-0.00084225070211219,0.00084224595230829,-0.00084225481372293,0.00084224182371629,0.62300580345231,128566,2924,0.0041918100748091,0.0057569690604391,0.0033612742113624,41.452347282718,9.1618778261744e-05,9.1618778261744e-05,9.1618778261744e-05,3915263.9610921,0.013399595725455
9419200,0.82102748372405,0.013406733933524,0.0042845376959023,0.0055164034894219,0.0036057927482001,-0.001021993924146,0.0010219929238101,1.5407897859683e-09,-2.5594867759495e-09,5.2424211781077e-09,-6.4549033676035e-09,-0.0011320549552838,0.0011320591838435,-0.0011320562800806,0.0011320578182609,-0.0011320586604199,0.0011320552925876,-0.0011320600465352,0.0011320539198127,-0.00097971659770805,0.00097971573989737,-0.00097972066304593,0.0009797116859078,-4.3174450792517e-09,7.4507978622986e-09,-1.1145724968165e-08,1.409064189021e-08,-0.0014082970599263,0.0014083000177854,-0.0015099386229637,0.001509929351198,-0.0015099303797785,0.0015099377724878,-0.001509934820223,0.0015099332699511,-0.0015099266255291,0.0015099416520869,-0.0012577057563125,0.0012576878332303,-0.0012576812812791,0.0012577128889276,-0.0013204918014032,0.0013204916475409,-0.001320480364303,0.0013205034036602,-2.4566287927447e-09,1.932746200729e-09,-0.00081668143548918,0.00081668086172259,1.2048137723839e-08,-1.3014848385362e-08,-0.00093273640380249,0.0009327427734688,-0.000932744733224,0.00093273448123029,-0.00093273490608699,0.0009327442528359,-0.00093274327593674,0.00093273592008398,-0.00085145451258111,0.00085144985626832,-0.00085145874776838,0.00085144560385319,0.61620824140662,128566,2924,0.0042492796108721,0.0058495625980775,0.0033993610476369,41.151582181749,8.9212657453995e-05,8.9212657453995e-05,8.9212657453995e-05,3916484.5748194,0.013590317734807
9619200,0.83466774169367,0.013582209712801,0.0043396686717894,0.0055950561386247,0.003647484902387,-0.0010344860518548,0.0010344850517917,1.6048423882567e-09,-2.6232100409713e-09,5.2223426687828e-09,-6.4344660258915e-09,-0.0011473034184871,0.0011473076766503,-0.0011473047856179,0.0011473062682117,-0.0011473071105371,0.0011473037986175,-0.0011473085389223,0.001147302383382,-0.00099101454310555,0.00099101382361686,-0.00099101873275127,0.00099100964479343,-4.3025664154906e-09,7.4246326002764e-09,-1.1170073138521e-08,1.4103946802871e-08,-0.001428562696698,0.00142856564358,-0.0015330355371593,0.0015330262552261,-0.0015330272814357,0.0015330346891198,-0.0015330317474791,0.0015330301601934,-0.0015330235399762,0.0015330385552494,-0.0012744024131788,0.0012743844276922,-0.0012743779006772,0.0012744095217245,-0.0013383450848847,0.0013383449721694,-0.0013383336877949,0.0013383566887082,-2.5212888351178e-09,1.9942749324811e-09,-0.000824880471478,0.00082487989430004,1.206571868937e-08,-1.30362543418e-08,-0.00094380501373441,0.00094381135118283,-0.00094381335633148,0.0009438030457972,-0.0009438034739448,0.00094381287261172,-0.00094381185673372,0.00094380452692816,-0.00085970589822815,0.00085970134959085,-0.00085971025744759,0.00085969697341247,0.60938040654227,128566,2924,0.0043011099845942,0.0059334556421274,0.0034335006995316,40.850701367149,8.6805610937192e-05,8.6805610937192e-05,8.6805610937192e-05,3918044.8484085,0.013762535127751
9819200,0.84693709802346,0.013740950720784,0.0043895862393776,0.0056660004426872,0.0036853640387195,-0.0010449561960345,0.0010449551917463,1.6587946370305e-09,-2.6815038382041e-09,5.2189408304989e-09,-6.4349370619134e-09,-0.0011601834147231,0.0011601877006304,-0.0011601848144922,0.0011601862589568,-0.001160187101186,0.0011601838281909,-0.0011601885717839,0.0011601823705323,-0.0010004437125991,0.001000443111668,-0.0010004480250981,0.0010004388111147,-4.3045946785874e-09,7.4172691883413e-09,-1.1222663546156e-08,1.4147249089251e-08,-0.0014459792529565,0.001445982190757,-0.0015530029267092,0.0015529936009941,-0.0015529946351205,0.0015530020716279,-0.0015529991335696,0.0015529975089754,-0.0015529908995959,0.0015530059313762,-0.0012886090349,0.0012885909590124,-0.0012885844449164,0.0012886161356952,-0.0013536134250487,0.0013536133551233,-0.0013536020473167,0.0013536250511967,-2.5953724419237e-09,2.0615069847333e-09,-0.00083153910103391,0.00083153851659087,1.2101556471051e-08,-1.3080839793252e-08,-0.00095296694132812,0.00095297324728536,-0.00095297530619383,0.00095296491964688,-0.00095296534981959,0.00095297482048655,-0.00095297376440046,0.00095296644305835,-0.00086645107200635,0.00086644661664471,-0.00086645555644305,0.0008664421141995,0.6121371121534,128566,2924,0.004344549549566,0.0060055472967989,0.003461233085698,40.184606382897,8.1476851063178e-05,8.1476851063178e-05,8.1476851063178e-05,3912358.9966422,0.013907808508939
10019200,0.85796478138208,0.013884700705798,0.0044348230489098,0.0057300362014255,0.0037198414554623,-0.0010541623393129,0.001054161332688,1.7251960297102e-09,-2.7504083386803e-09,5.2161523367259e-09,-6.433741944247e-09,-0.0011715288114275,0.0011715331398349,-0.0011715302568424,0.0011715316514238,-0.0011715324980533,0.001171529266937,-0.0011715340118489,0.0011715277658637,-0.0010087692892201,0.001008768813004,-0.0010087737270634,0.0010087643849101,-4.3067829265614e-09,7.4115707394838e-09,-1.1239692368408e-08,1.4156477666266e-08,-0.0014614038438486,0.0014614067737844,-0.0015706962762779,0.0015706869367925,-0.001570687978048,0.0015706954146243,-0.0015706924861068,0.0015706908414766,-0.00157068424101,0.0015706992752732,-0.0013011768164922,0.0013011587000703,-0.0013011521970664,0.0013011839095837,-0.0013671828970053,0.0013671828258301,-0.0013671715163237,0.0013671945223368,-2.6560373535089e-09,2.1191598226143e-09,-0.00083736949851075,0.00083736891045927,1.2116842244551e-08,-1.3100373682533e-08,-0.00096100242003669,0.00096100869553093,-0.00096101079764103,0.00096100035516998,-0.00096100079022458,0.00096101030719326,-0.00096100921470761,0.00096100191980278,-0.00087242369610462,0.00087241934641793,-0.00087242830119138,0.00087241472284356,0.61574677074542,128566,2924,0.0043827435503548,0.0060693878696896,0.0034855185442207,39.480467570547,7.5843740564376e-05,7.5843740564376e-05,7.5843740564376e-05,3904070.0392133,0.014035918320238
10219200,0.86789008950706,0.014015233085291,0.0044759256842814,0.0057879901464946,0.0037513172545146,-0.0010623121038935,0.0010623110955506,1.7893269637178e-09,-2.8160847721492e-09,5.2082253392891e-09,-6.427868900488e-09,-0.0011815994348577,0.0011816038015042,-0.0011816009245362,0.0011816022685798,-0.0011816031183939,0.0011815999317541,-0.0011816046737537,0.0011815983889045,-0.0010161899309856,0.0010161895815847,-0.0010161944921135,0.0010161850298195,-4.3037002265005e-09,7.4007737527361e-09,-1.1233696185646e-08,1.4142845951823e-08,-0.0014751410157017,0.0014751439379765,-0.001586453992565,0.0015864446572562,-0.0015864457016237,0.0015864531275163,-0.0015864502079278,0.0015864485560887,-0.0015864419675401,0.0015864569849092,-0.0013123591984286,0.0013123410845218,-0.0013123345931538,0.0013123662787949,-0.0013793430893854,0.0013793430132908,-0.0013793317188624,0.0013793547013571,-2.7176975098297e-09,2.1812991794342e-09,-0.00084253599885348,0.00084253541125335,1.2109301099575e-08,-1.3092328535925e-08,-0.00096812907561012,0.00096813530654407,-0.00096813744948319,0.00096812696988926,-0.00096812740573563,0.00096813695816504,-0.00096813582366089,0.00096812857732163,-0.00087771561969065,0.00087771140100166,-0.00087772035092023,0.0008777066523401,0.62007022970057,128566,2924,0.0044165537060438,0.0061262394564872,0.0035070407081786,38.775271609561,7.0202172876492e-05,7.0202172876492e-05,7.0202172876492e-05,3894625.8003758,0.014149705633924
10419200,0.8768509227576,0.014134267260576,0.0045134273111022,0.0058406602894017,0.0037801796600722,-0.0010696196441512,0.001069618637128,1.8534489042575e-09,-2.8787349369598e-09,5.1935357048231e-09,-6.4120775054336e-09,-0.0011906306598303,0.001190635059862,-0.0011906321915229,0.0011906334849638,-0.0011906343333363,0.0011906312004099,-0.0011906359310397,0.0011906296151842,-0.0010229368140083,0.0010229366014279,-0.0010229415002652,0.0010229319246586,-4.292400877629e-09,7.3814813158127e-09,-1.1197619098364e-08,1.4098934346057e-08,-0.0014874788949081,0.0014874818094307,-0.0016006100040676,0.0016006006970814,-0.0016006017387091,0.0016006091408089,-0.0016006062291123,0.0016006045859316,-0.0016005980144489,0.001600612987984,-0.0013223927665103,0.0013223747132944,-0.0013223682387074,0.0013223998278997,-0.0013903154003099,0.0013903153204257,-0.0013903040612041,0.0013903269788359,-2.777808543841e-09,2.2479717863616e-09,-0.00084718312666143,0.00084718254571179,1.2073032706109e-08,-1.304860262159e-08,-0.0009745297882209,0.000974535956746,-0.00097453813548197,0.00097452764676334,-0.00097452807585742,0.00097453765085006,-0.00097453646750103,0.00097452929628837,-0.00088251264385019,0.00088250858160261,-0.00088251749938736,0.00088250370970174,0.6250614281313,128566,2924,0.0044468688903151,0.006177296202319,0.0035264010588153,38.100205050817,6.4801640406536e-05,6.4801640406536e-05,6.4801640406536e-05,3883889.8090336,0.014251888748734
10619200,0.88521637453176,0.014243285492093,0.0045477413018323,0.0058890129978081,0.0038065311924529,-0.0010774032027765,0.0010774022105297,1.9238565555837e-09,-2.9342331328077e-09,5.1459879018501e-09,-6.3489912626751e-09,-0.0012000663375539,0.0012000707571365,-0.0012000679111942,0.0012000691410862,-0.0012000699744999,0.001200066934881,-0.0012000716145736,0.0012000653074588,-0.0010301912946981,0.0010301912578112,-0.0010301961056061,0.0010301864575251,-4.2430966951909e-09,7.3209046329182e-09,-1.1068900917793e-08,1.3959519158684e-08,-0.0014999653619835,0.0014999682657909,-0.0016148077834186,0.0016147985899015,-0.0016147996044822,0.0016148069441148,-0.0016148040437679,0.0016148024422993,-0.0016147959159661,0.001614810754322,-0.0013327036523477,0.0013326858160969,-0.0013326793850445,0.0013327106631963,-0.0014014918894445,0.0014014918190217,-0.0014014806592716,0.0014015033677615,-2.8296843148035e-09,2.3235221662087e-09,-0.00085243843610438,0.00085243787934838,1.1951318632037e-08,-1.2899719317146e-08,-0.00098148365920574,0.00098148971867809,-0.00098149191639477,0.00098148149880708,-0.00098148190402475,0.00098149145571197,-0.00098149020630732,0.00098148319039062,-0.00088789595985304,0.00088789213414612,-0.00088790093957948,0.000887887139046,0.61395112553866,128566,2924,0.0044791571522569,0.0062289659835559,0.0035482853137806,38.029551586142,6.4236412689139e-05,6.4236412689139e-05,6.4236412689139e-05,3880989.7231184,0.014359265846576
10819200,0.89302837426199,0.014343295511169,0.0045791998589274,0.0059334755421994,0.0038306201100427,-0.0010845878350402,0.0010845868562708,1.9947177150849e-09,-2.9918991661866e-09,5.1097124895666e-09,-6.2980487732273e-09,-0.0012088006208941,0.0012088050683288,-0.001208802238322,0.0012088034092243,-0.0012088042300336,0.0012088012744695,-0.0012088059123279,0.0012087996050787,-0.0010368504753459,0.0010368506036091,-0.0010368554097337,0.0010368456796129,-4.2041760161909e-09,7.2710179413929e-09,-1.0969444532705e-08,1.3849599989051e-08,-0.0015115264581091,0.0015115293514651,-0.0016279927608966,0.0016279836556588,-0.0016279846499473,0.001627991938904,-0.0016279890505804,0.0016279874775079,-0.0016279809891495,0.0016279957201518,-0.0013422221207291,0.0013422044479656,-0.0013421980539605,0.0013422290890434,-0.0014118084670033,0.0014118084017267,-0.001411797320494,0.0014118198635781,-2.8823856047197e-09,2.3955895612574e-09,-0.00085727765755394,0.00085727712057152,1.1860681163067e-08,-1.2786964300374e-08,-0.00098790330593933,0.00098790927611929,-0.00098791149634171,0.00098790112306949,-0.0009879015099128,0.00098791105428878,-0.00098790974403859,0.00098790285702917,-0.00089280522880538,0.00089280161380926,-0.0008928103320978,0.00089279649406073,0.60386753943265,128566,2924,0.0045089597483254,0.0062768038684106,0.0035684370146639,37.973706106743,6.3789648853943e-05,6.3789648853943e-05,6.3789648853943e-05,3881536.7700055,0.014458486874816
11019200,0.90032024934438,0.014434851775045,0.0046079793871117,0.0059742852086224,0.0038525871793114,-0.0010911779855778,0.0010911770170777,2.0633012491918e-09,-3.0503831020219e-09,5.0859066141874e-09,-6.2632967483484e-09,-0.0012168425576293,0.001216847038249,-0.0012168442178085,0.0012168453371866,-0.0012168461478913,0.0012168432638818,-0.0012168478724793,0.0012168415523885,-0.0010429392495437,0.0010429395312533,-0.0010429443081245,0.001042934483072,-4.1796502206724e-09,7.2366858340976e-09,-1.0898255797296e-08,1.3768976310813e-08,-0.0015221878289782,0.0015221907129126,-0.0016401910662074,0.0016401820206891,-0.0016401830038,0.0016401902528856,-0.0016401873748399,0.0016401858226769,-0.0016401793616135,0.0016401940145293,-0.0013509718720701,0.001350954319118,-0.0013509479514306,0.0013509788090161,-0.0014212926805389,0.0014212926132306,-0.0014212815911246,0.0014213040164915,-2.9378607861454e-09,2.4662931815741e-09,-0.0008616925351364,0.00086169201380724,1.1794854239976e-08,-1.270339303542e-08,-0.00099378786849582,0.00099379376225349,-0.00099379600949983,0.00099378565866066,-0.00099378603053865,0.00099379558254223,-0.00099379421510443,0.00099378743477561,-0.00089724055531962,0.00089723712847779,-0.00089724578187206,0.00089723188508433,0.59320719869126,128566,2924,0.0045362955725667,0.006320916518438,0.0035868217859798,37.918427223675,6.3347417789401e-05,6.3347417789401e-05,6.3347417789401e-05,3884225.1946643,0.014549641922687
11219200,0.90711454524116,0.014520112005227,0.0046347874877131,0.0060122413999465,0.0038730831175675,-0.0010972405233134,0.0010972395581689,2.1284760203495e-09,-3.1123101281548e-09,5.0822242948856e-09,-6.25573334117e-09,-0.0012242281534452,0.0012242326759001,-0.001224229856112,0.0012242309328019,-0.0012242317401871,0.0012242289053518,-0.001224233507245,0.0012242271515542,-0.0010485526394863,0.0010485530523137,-0.0010485578227023,0.0010485478798339,-4.177893225171e-09,7.2274546143991e-09,-1.0875762799971e-08,1.3739153705991e-08,-0.0015320097902833,0.0015320126669246,-0.0016514537084042,0.0016514446761585,-0.0016514456623314,0.0016514528906545,-0.0016514500203177,0.0016514484744269,-0.0016514420232918,0.0016514566485895,-0.0013590097713935,0.001358992259015,-0.0013589859010223,0.0013590166963885,-0.0014300465780335,0.0014300464970617,-0.001430035498647,0.001430057888265,-2.9974187723515e-09,2.5328211225547e-09,-0.00086574045896959,0.00086573994486318,1.1771913744675e-08,-1.2672305772199e-08,-0.00099916730117731,0.00099917314195518,-0.00099917542432734,0.00099916505620137,-0.00099916542111008,0.00099917500443308,-0.00099917358799197,0.00099916687432102,-0.00090129543913026,0.00090129216062448,-0.00090130078886446,0.00090128679360896,0.5926323639554,128566,2924,0.0045614423065118,0.0063615545460329,0.0036036779921271,37.837645539032,6.2701164312257e-05,6.2701164312257e-05,6.2701164312257e-05,3886989.2855689,0.014633505976296
11419200,0.91340141468676,0.014599588861625,0.0046597939791622,0.0060475286417462,0.0038922662407167,-0.0011026126367232,0.0011026116665814,2.1899576394702e-09,-3.1787801213222e-09,5.09841228669e-09,-6.2771192296693e-09,-0.0012308021771962,0.0012308067494623,-0.0012308039220459,0.0012308049641266,-0.0012308057761077,0.0012308029667317,-0.0012308075861792,0.0012308011700149,-0.0010535320366987,0.0010535325580782,-0.0010535373460209,0.0010535272595278,-4.1997730862856e-09,7.2447981668596e-09,-1.0908255988561e-08,1.3766984657245e-08,-0.0015408374895435,0.001540840361593,-0.0016616069669258,0.0016615978967516,-0.0016615989005758,0.0016616061315594,-0.0016616032655413,0.0016616017084738,-0.0016615952487583,0.0016616099023188,-0.0013661902801429,0.0013661727180182,-0.0013661663518396,0.0013661972138744,-0.0014379128467945,0.0014379127437021,-0.0014379017299746,0.0014379241725401,-3.0613928382929e-09,2.594040867413e-09,-0.00086926884588687,0.00086926832898053,1.179637537183e-08,-1.2699783468236e-08,-0.0010039054152295,0.0010039112284981,-0.0010039135554249,0.0010039031256766,-0.0010039034929705,0.0010039131331019,-0.0010039116777067,0.001003904985179,-0.00090484228153677,0.00090483910477685,-0.00090484775292722,0.00090483361614215,0.59626238240662,128566,2924,0.0045837250104538,0.0063980768627512,0.0036183730526217,37.630675538012,6.1045404304094e-05,6.1045404304094e-05,6.1045404304094e-05,3886449.0363293,0.014708100061572
11619200,0.91921899679314,0.014673520182893,0.0046830675609849,0.0060802825214733,0.0039101701004347,-0.0011075565267379,0.0011075555496145,2.2496476016409e-09,-3.2451487314845e-09,5.1169937848744e-09,-6.3030427133129e-09,-0.0012368530305397,0.0012368576532908,-0.0012368548176527,0.0012368558252595,-0.0012368566446375,0.0012368538552045,-0.0012368584962584,0.00123685201692,-0.0010581358741882,0.0010581364963422,-0.0010581413049948,0.0010581310752154,-4.2225919751254e-09,7.264414656707e-09,-1.0946609473595e-08,1.3801919162373e-08,-0.0015489711236461,0.0015489739922891,-0.0016709566051585,0.0016709474935426,-0.0016709485151345,0.0016709557523965,-0.0016709528902754,0.0016709513190022,-0.0016709448487155,0.0016709595380272,-0.0013728002111479,0.0013727825859663,-0.0013727762097597,0.0013728071559136,-0.0014451710224327,0.001445170896647,-0.0014451598628821,0.0014451823695859,-3.128021308916e-09,2.6544798817995e-09,-0.0008725151930829,0.00087251466978613,1.1834165292138e-08,-1.2744493231284e-08,-0.0010082704649511,0.0010082762573892,-0.0010082786328971,0.0010082681267637,-0.001008268500646,0.0010082782037125,-0.0010082767122722,0.0010082700289458,-0.00090812437365656,0.00090812128894115,-0.00090812997120919,0.00090811567508632,0.59873359192698,128566,2924,0.0046042312416514,0.006431725901274,0.0036318943866003,37.420608223518,5.9364865788144e-05,5.9364865788144e-05,5.9364865788144e-05,3883795.5566602,0.014776788995112
11819200,0.92460367689677,0.014742439549571,0.0047047757532097,0.0061107423063565,0.0039269214900045,-0.0011121172779823,0.0011121162939948,2.3097081618118e-09,-3.3118630507398e-09,5.1319849419177e-09,-6.3251864436606e-09,-0.0012424314883358,0.0012424361589686,-0.0012424333176644,0.0012424342884267,-0.0012424351149217,0.0012424323483879,-0.0012424370085332,0.001242430467904,-0.0010624008329199,0.0010624015601427,-0.001062406387242,0.001062396014806,-4.2423870639285e-09,7.2814693330513e-09,-1.0986145549618e-08,1.3838547343054e-08,-0.0015564779819745,0.0015564808477479,-0.0016795796739344,0.0016795705219732,-0.0016795715590376,0.0016795788063276,-0.0016795759470566,0.0016795743597018,-0.0016795678802439,0.0016795826045528,-0.0013788998438392,0.0013788821526648,-0.0013788757680532,0.0013789067988051,-0.0014518830190249,0.0014518828788648,-0.0014518718230053,0.0014518943889976,-3.1943614401272e-09,2.7144855307789e-09,-0.00087551485515804,0.00087551432528537,1.1869179004817e-08,-1.2786802796545e-08,-0.0010123020023214,0.0010123077721014,-0.0010123101961136,0.0010122996156496,-0.0010122999959205,0.001012309760322,-0.0010123082331583,0.0010123015600087,-0.00091117817920957,0.00091117518666752,-0.00091118390134213,0.00091116944921129,0.60218092322816,128566,2924,0.0046231478677958,0.0064627804756104,0.0036443891081688,37.210422405966,5.7683379247727e-05,5.7683379247727e-05,5.7683379247727e-05,3879665.2198372,0.014840193459165
12019200,0.9295964831859,0.01480842688359,0.0047255962960806,0.0061397027007682,0.0039431278867413,-0.0011164685945722,0.0011164676068066,2.3711964301852e-09,-3.3769926945315e-09,5.1365822789354e-09,-6.3340007966823e-09,-0.0012476935313385,0.0012476982451113,-0.0012476954028269,0.0012476963322191,-0.0012476971625301,0.0012476944299358,-0.0012476990981466,0.0012476925073366,-0.001066524176434,0.0010665250194687,-0.0010665298543,0.0010665193502913,-4.2503991932222e-09,7.2862978507787e-09,-1.1011672030684e-08,1.3860851853784e-08,-0.0015635462227413,0.001563549085293,-0.0016876584006199,0.0016876492252655,-0.0016876502700923,0.0016876575256426,-0.0016876546695753,0.0016876530672756,-0.0016876465868975,0.0016876613284252,-0.0013846719076983,0.0013846541699868,-0.0013846477847482,0.0013846788640922,-0.0014582656931467,0.00145826555264,-0.0014582544850145,0.0014582770767253,-3.2598485159795e-09,2.7754902992473e-09,-0.000878420217307,0.0008784196828271,1.1891547285217e-08,-1.2814184875798e-08,-0.0010161365265987,0.0010161422663853,-0.0010161447370353,0.0010161340932775,-0.0010161344781018,0.0010161442965567,-0.0010161427317468,0.0010161360798371,-0.00091419328637297,0.00091419039695894,-0.00091419913295803,0.00091418453568563,0.61929850339162,128566,2924,0.0046411956196946,0.0064920196428352,0.0036564904530229,37.02804611086,5.6224368886883e-05,5.6224368886883e-05,5.6224368886883e-05,3873111.868511,0.014900476799844
12219200,0.93424388023816,0.014871955057078,0.0047456749480505,0.006167396788747,0.0039588833202805,-0.0011207318203835,0.0011207308334643,2.4352711497887e-09,-3.4401129539494e-09,5.1291166717987e-09,-6.3256337008208e-09,-0.0012527978284057,0.0012528025802259,-0.0012527997422431,0.0012528006248949,-0.001252801454509,0.0012527987702375,-0.0012528034324074,0.0012527968052849,-0.0010706310571691,0.0010706320308832,-0.0010706368593874,0.0010706262372237,-4.2448754984379e-09,7.2766738110806e-09,-1.1016178666715e-08,1.3861326271115e-08,-0.0015703566392344,0.0015703594977823,-0.0016953688715351,0.0016953596954552,-0.0016953607393492,0.0016953679975022,-0.0016953651453975,0.0016953635323869,-0.0016953570608673,0.0016953717953594,-0.001390288877276,0.0013902711252957,-0.0013902647491266,0.0013902958247138,-0.0014644751813017,0.0014644750530939,-0.0014644639879206,0.001464486562564,-3.3230577155994e-09,2.8381525719588e-09,-0.0008813257114521,0.00088132517634347,1.1892775095326e-08,-1.281606029729e-08,-0.0010199241924465,0.001019929890829,-0.0010199324040461,0.0010199217165778,-0.001019922102006,0.0010199319628826,-0.0010199303566805,0.0010199237451175,-0.00091727273192127,0.00091726996434752,-0.00091727870222523,0.0009172639799341,0.63789981052824,128566,2924,0.0046588778834427,0.0065201904951468,0.0036685927112085,36.914351034497,5.5314808275978e-05,5.5314808275978e-05,5.5314808275978e-05,3862764.7033966,0.014959308685606
12419200,0.93857024816292,0.014929117820923,0.0047637144008953,0.0061924672864968,0.0039729361335311,-0.0011245867289334,0.0011245857443024,2.4996507983178e-09,-3.5022083168874e-09,5.1192401473562e-09,-6.313175530527e-09,-0.0012575015056196,0.0012575062945134,-0.0012575034616165,0.0012575042969449,-0.0012575051244943,0.0012575024918521,-0.0012575071444401,0.001257500484792,-0.0010743280744676,0.0010743291813992,-0.001074334000123,0.0010743232638846,-4.2355001662596e-09,7.2630051588838e-09,-1.1012130388564e-08,1.3853104688279e-08,-0.0015766509772217,0.0015766538316122,-0.0017024868791581,0.0017024777105427,-0.0017024787509233,0.001702486008412,-0.0017024831604788,0.0017024815396732,-0.0017024750796749,0.0017024897986873,-0.001395478218624,0.0013954604665926,-0.001395454102211,0.0013954851542797,-0.0014701466494853,0.0014701465354541,-0.0014701354782297,0.0014701580220829,-3.3859239382266e-09,2.9018494713316e-09,-0.00088391840247266,0.00088391786811003,1.1888099887826e-08,-1.2810568226819e-08,-0.001023426292542,0.0010234319462221,-0.0010234345008829,0.0010234237752305,-0.0010234241599934,0.0010234340603824,-0.0010234324112417,0.0010234258460132,-0.00091999608231818,0.0009199934430451,-0.00092000217671275,0.00091998733454535,0.6182660641254,128566,2924,0.0046748665437228,0.0065462235632107,0.0036793961028012,36.802345125788,5.4418761006303e-05,5.4418761006303e-05,5.4418761006303e-05,3851737.5427167,0.015012937725753
12619200,0.94259795086715,0.014979411972145,0.0047795435482193,0.0062147480225861,0.0039851204013398,-0.0011280077023269,0.0011280067203937,2.5643150443327e-09,-3.5642064367834e-09,5.1092181933656e-09,-6.3001529774747e-09,-0.0012617331058519,0.0012617379320343,-0.0012617351040894,0.0012617358922171,-0.0012617367172782,0.0012617341369679,-0.001261738779349,0.0012617320877389,-0.0010775335047489,0.0010775347457111,-0.0010775395541406,0.0010775287042449,-4.225965687355e-09,7.2492653049799e-09,-1.1003703561351e-08,1.3840599441776e-08,-0.0015823332827542,0.0015823361330869,-0.0017089684931736,0.0017089593350194,-0.0017089603716548,0.0017089676258401,-0.0017089647820244,0.0017089631562783,-0.0017089567077191,0.0017089714084392,-0.0014001241167862,0.0014001063732892,-0.0014001000204767,0.0014001310405209,-0.0014751879010029,0.0014751877986678,-0.0014751767520907,0.0014751992621376,-3.4481882068882e-09,2.9659471128093e-09,-0.00088618598796415,0.00088618545540658,1.1879010576616e-08,-1.27994571722e-08,-0.0010265407593912,0.0010265463661153,-0.0010265489611448,0.0010265382017404,-0.0010265385847884,0.0010265485223541,-0.0010265468293131,0.0010265403146936,-0.00092231251005153,0.00092231000314159,-0.00092231872828737,0.0009223037707579,0.58731202118336,128566,2924,0.0046890548540895,0.0065697248582861,0.0036888450165107,36.690403833993,5.3523230671943e-05,5.3523230671943e-05,5.3523230671943e-05,3847310.18199,0.015060796801808
12819200,0.94631392615911,0.01502620750181,0.0047942796474225,0.0062354206346245,0.0039965072197627,-0.0011308344892288,0.001130833505662,2.6289051167128e-09,-3.6304914242322e-09,5.1108934135729e-09,-6.3032637112674e-09,-0.00126523606345,0.0012652409332662,-0.0012652381053306,0.0012652388497937,-0.0012652396767386,0.0012652371363991,-0.0012652417821113,0.0012652350438573,-0.0010801508316498,0.0010801521964247,-0.0010801570085134,0.0010801460277238,-4.2316030614312e-09,7.2522578885585e-09,-1.1013106385513e-08,1.3847330533381e-08,-0.0015871642030851,0.0015871670508057,-0.0017145608530808,0.0017145516844056,-0.0017145527266055,0.0017145599803644,-0.0017145571392641,0.0017145555083521,-0.0017145490594571,0.0017145637660005,-0.0014039961314439,0.0014039783717142,-0.0014039720190363,0.0014040030559469,-0.0014794597548463,0.0014794596461902,-0.0014794485961413,0.0014794711181326,-3.50936518215e-09,3.0269198794457e-09,-0.0008879886922262,0.00088798815938634,1.188019981805e-08,-1.2801141813115e-08,-0.0010290208862787,0.0010290264532675,-0.0010290290893433,0.0010290182875756,-0.0010290186710487,0.0010290286501358,-0.0010290269165369,0.0010290204415313,-0.00092413253369743,0.00092413014613982,-0.00092413887205527,0.00092412379332047,0.59134553445735,128566,2924,0.0047007785991216,0.0065897058946191,0.0036963569360604,36.407045433085,5.1256363464678e-05,5.1256363464678e-05,5.1256363464678e-05,3846323.080778,0.015100613951943
13019200,0.9496993898009,0.015068997495856,0.0048077575913568,0.0062542922812604,0.0040069476232384,-0.0011328928758229,0.0011328918851758,2.6896236027606e-09,-3.6982442967493e-09,5.1266055378118e-09,-6.3263854382675e-09,-0.0012678951838179,0.0012679001025576,-0.0012678972685479,0.0012678979759026,-0.0012678988101233,0.0012678962924474,-0.0012679009580714,0.0012678941573754,-0.001082037171549,0.0010820386415328,-0.0010820434732752,0.0010820323473807,-4.2522118839634e-09,7.272108053679e-09,-1.1037166777014e-08,1.3870439661825e-08,-0.0015910300625975,0.0015910329093923,-0.001719113763399,0.001719104565158,-0.0017191056219447,0.0017191128765929,-0.0017191100366142,0.0017191084024178,-0.001719101941243,0.0017191166760368,-0.0014070027483529,0.0014069849539035,-0.0014069785894369,0.0014070096858998,-0.0014828242425815,0.0014828241079759,-0.0014828130434915,0.001482835620768,-3.5733761309849e-09,3.0872669331364e-09,-0.00088915007596807,0.00088914953930293,1.1899182647197e-08,-1.282442859577e-08,-0.0010307850306158,0.0010307905667326,-0.0010307932479408,0.0010307823867123,-0.0010307827741135,0.0010307928047346,-0.0010307910334424,0.0010307845823493,-0.0009252950796032,0.00092529279681101,-0.00092530154038977,0.00092528632156381,0.59302696511933,128566,2924,0.0047093160760628,0.0066056938627218,0.0037012026952974,35.874478136097,4.6995825088775e-05,4.6995825088775e-05,4.6995825088775e-05,3841297.2669721,0.015130437201721
13219200,0.95278727466174,0.015108203605942,0.0048201097719381,0.006271549817466,0.0040165440165375,-0.0011346737953622,0.0011346727993039,2.7496199246825e-09,-3.7635471423087e-09,5.1374780970155e-09,-6.3426835657826e-09,-0.0012702159593692,0.0012702209235265,-0.0012702180859076,0.001270218754867,-0.0012702195947532,0.0012702171042662,-0.0012702217843723,0.0012702149275659,-0.0010836773757313,0.0010836789538396,-0.0010836837997922,0.0010836725371681,-4.2652254607605e-09,7.284020000189e-09,-1.1046172400721e-08,1.3878218202196e-08,-0.0015944516613817,0.0015944545070353,-0.0017231544792846,0.0017231452662015,-0.0017231463325218,0.0017231535832469,-0.0017231507444289,0.001723149111722,-0.0017231426433871,0.0017231573912341,-0.0014096476193662,0.0014096298151395,-0.0014096234440076,0.0014096545646007,-0.0014857953973973,0.0014857952420491,-0.0014857841728531,0.0014858067794213,-3.6379888600736e-09,3.1501632181981e-09,-0.0008901266024239,0.00089012606396063,1.1907285888531e-08,-1.2834690898987e-08,-0.0010323060366191,0.0010323115348163,-0.0010323142601387,0.0010323033486318,-0.001032303737725,0.0010323138150609,-0.0010323120030195,0.0010323055868234,-0.00092627576317652,0.00092627359794419,-0.00092628234928299,0.00092626699761421,0.59512403403552,128566,2924,0.0047167029307316,0.0066198439164311,0.0037052788483781,35.335761444956,4.2686091559649e-05,4.2686091559649e-05,4.2686091559649e-05,3835202.7801394,0.015156445444678
13419200,0.95560787859201,0.015143429897187,0.0048311989659101,0.0062870889199039,0.0040251420113726,-0.0011361786399211,0.0011361776411917,2.8100575135947e-09,-3.8265320163213e-09,5.1399699285094e-09,-6.3482950239447e-09,-0.0012722240251875,0.0012722290305345,-0.0012722261926754,0.0012722268207772,-0.0012722276630227,0.0012722252087535,-0.0012722298940055,0.0012722229905857,-0.0010850511639188,0.0010850528587009,-0.0010850577092908,0.0010850463201479,-4.2689362215758e-09,7.2861891357469e-09,-1.1041410500665e-08,1.3871891299713e-08,-0.001597457283426,0.001597460127444,-0.0017267239829441,0.0017267147693661,-0.0017267158393154,0.0017267230830256,-0.0017267202459083,0.0017267186171269,-0.0017267121483545,0.0017267268929497,-0.0014119501056584,0.001411932313032,-0.0014119259412338,0.0014119570507244,-0.0014883757413687,0.0014883755756322,-0.0014883645128279,0.0014883871193428,-3.7026914800706e-09,3.2148045081854e-09,-0.00089091178235089,0.00089091124377769,1.1907508782574e-08,-1.283480493433e-08,-0.0010336016818205,0.0010336071365752,-0.0010336099050922,0.0010335989505781,-0.0010335993396663,0.0010336094599852,-0.001033607605087,0.0010336012315472,-0.00092705372191077,0.00092705168232233,-0.0009270604343432,0.00092704495643533,0.58608287299301,128566,2924,0.0047229449019489,0.0066322728656847,0.0037085587312315,34.796809502403,3.8374476019222e-05,3.8374476019222e-05,3.8374476019222e-05,3828807.7684496,0.01517873621122
13619200,0.95820186196639,0.015175403017266,0.004841257707189,0.0063012120199129,0.0040329332901643,-0.0011376426413067,0.0011376416453916,2.8691112832135e-09,-3.8826717832447e-09,5.1294071998038e-09,-6.3349854877183e-09,-0.0012741414432271,0.0012741464811963,-0.0012741436485055,0.0012741442337489,-0.0012741450723379,0.0012741426683626,-0.0012741473427219,0.0012741404105881,-0.0010863868074364,0.0010863886291507,-0.0010863934678969,0.0010863819742022,-4.253451129223e-09,7.2674772964984e-09,-1.1007283969854e-08,1.3834690647756e-08,-0.0016002850753601,0.0016002879162266,-0.0017300773807106,0.0017300681972235,-0.0017300692586188,0.0017300764881931,-0.0017300736537189,0.0017300720344391,-0.0017300655796085,0.0017300802860934,-0.0014141282069689,0.0014141104724991,-0.0014141041142358,0.0014141351364038,-0.001490810923291,0.0014908107672834,-0.0014907997324181,0.0014908222754471,-3.7697903113319e-09,3.2852791179413e-09,-0.00089171834056762,0.0008917178054609,1.1890180702612e-08,-1.2813272199012e-08,-0.0010348625226351,0.0010348679209531,-0.0010348707318171,0.0010348597490622,-0.0010348601339585,0.0010348702908574,-0.0010348683870049,0.0010348620747229,-0.00092784329000122,0.00092784139795189,-0.00092785013446182,0.00092783454068642,0.57889842839661,128566,2924,0.004729017262845,0.0066439669898044,0.0037119249820934,34.356062993761,3.4848503950087e-05,3.4848503950087e-05,3.4848503950087e-05,3825206.2204759,0.015200196220183
13819200,0.96060172563001,0.015204973120088,0.0048505610464325,0.0063142596946457,0.0040401523790096,-0.0011391017994925,0.0011391008112574,2.9419104195054e-09,-3.9477975554461e-09,5.1051498796865e-09,-6.3025944459483e-09,-0.0012760071001832,0.0012760121737298,-0.0012760093524369,0.0012760098800283,-0.0012760107119205,0.0012760083788464,-0.0012760130270086,0.0012760060763581,-0.0010877290477151,0.0010877310272817,-0.0010877358407078,0.0010877242419301,-4.2321034037343e-09,7.242044088936e-09,-1.0977441862392e-08,1.3800996989133e-08,-0.0016029868403104,0.0016029896773896,-0.0017332690285534,0.0017332598787139,-0.0017332609280323,0.0017332681474169,-0.0017332653178588,0.0017332636992912,-0.0017332572631206,0.0017332719306058,-0.0014162270465479,0.0014162093521765,-0.0014162030118831,0.0014162339557131,-0.0014931575740442,0.001493157436277,-0.0014931464252917,0.0014931689009737,-3.8231675663975e-09,3.3468481477234e-09,-0.00089257106669451,0.00089257054001413,1.1848401458498e-08,-1.276209783935e-08,-0.0010361181827486,0.0010361235211785,-0.0010361263624999,0.0010361153788674,-0.0010361157564969,0.0010361259288301,-0.0010361239781139,0.0010361177440624,-0.00092867939447683,0.00092867765702337,-0.00092868635477752,0.00092867068431616,0.57842147422276,128566,2924,0.0047350693456446,0.0066551405371055,0.0037154809787592,34.003772477913,3.2030179823301e-05,3.2030179823301e-05,3.2030179823301e-05,3823519.4603315,0.015221299503124
14019200,0.96282429221441,0.015232360804321,0.0048591787467701,0.0063263323905071,0.0040468496670439,-0.0011404082930715,0.0011404073117196,3.0067398082308e-09,-4.0058478729059e-09,5.0864701974409e-09,-6.2765145026727e-09,-0.0012776867169228,0.0012776918229279,-0.001277689009685,0.0012776894887941,-0.0012776903134558,0.0012776880433178,-0.0012776926700472,0.0012776856995293,-0.0010889334673092,0.0010889355899779,-0.00108894038196,0.0010889286826802,-4.2103653324645e-09,7.2162278390165e-09,-1.0944347379818e-08,1.3764062053235e-08,-0.0016054351286133,0.0016054379618629,-0.001736168944606,0.0017361598294164,-0.0017361608663343,0.0017361680748916,-0.0017361652488139,0.0017361636344695,-0.0017361572173209,0.0017361718416266,-0.0014181205626045,0.0014181029188996,-0.0014180965974088,0.0014181274514658,-0.001495280105083,0.0014952799885152,-0.001495269004209,0.0014952914041071,-3.8852935001086e-09,3.4147345034889e-09,-0.00089332385876864,0.00089332333794512,1.1820626974872e-08,-1.2727734108455e-08,-0.0010372415882522,0.0010372468679305,-0.0010372497469072,0.0010372387466557,-0.0010372391182903,0.001037249319331,-0.0010372473197104,0.0010372411547454,-0.00092941616272413,0.00092941457783274,-0.00092942324887586,0.00092940747867331,0.57820996421051,128566,2924,0.0047404883307682,0.0066652655917388,0.003718620717997,33.653672849038,2.9229382792303e-05,2.9229382792303e-05,2.9229382792303e-05,3821417.5423088,0.015240273000465
14219200,0.96488453606992,0.015256795417377,0.004866852868862,0.0063371729677688,0.0040527695807462,-0.0011415220581665,0.0011415210826154,3.0738746926076e-09,-4.0673193013745e-09,5.0714677359911e-09,-6.2552170340016e-09,-0.0012791602792645,0.0012791654221607,-0.0012791626153343,0.0012791630449969,-0.0012791638643093,0.0012791616542869,-0.0012791662633625,0.0012791592680357,-0.0010899406190633,0.0010899428839785,-0.0010899476585021,0.0010899358518947,-4.1946167023979e-09,7.19700191212e-09,-1.0921015787817e-08,1.3737448971658e-08,-0.0016076086110976,0.0016076114410506,-0.0017387650641066,0.0017387559739271,-0.0017387570022468,0.0017387642022576,-0.0017387613799981,0.0017387597668441,-0.0017387533640919,0.0017387679576527,-0.0014197825482862,0.0014197649375949,-0.0014197586302649,0.0014197894215756,-0.0014971321098642,0.0014971320067021,-0.0014971210415811,0.0014971433882495,-3.9449422831734e-09,3.47932530314e-09,-0.0008939344949102,0.00089393397915469,1.1796942264482e-08,-1.2698352221018e-08,-0.0010382101068068,0.0010382153327381,-0.0010382182482874,0.0010382072286565,-0.001038207595805,0.001038217825297,-0.0010382157793117,0.0010382096785688,-0.00092999178908437,0.00092999034920258,-0.00092999899758715,0.00092998312719741,0.55856305435792,128566,2924,0.0047451080665084,0.0066742537043747,0.003721168924307,33.303656972071,2.6429255776565e-05,2.6429255776565e-05,2.6429255776565e-05,3819583.1525005,0.015256680598078
14419200,0.96676429816523,0.015279341106497,0.0048739391624171,0.0063471411892317,0.0040582607548482,-0.0011419085421153,0.0011419075625103,3.1378936198715e-09,-4.1354463153156e-09,5.0826075261139e-09,-6.2703513186008e-09,-0.0012798255809067,0.0012798307729749,-0.0012798279614289,0.0012798283512574,-0.0012798291752698,0.0012798269956901,-0.0012798316176361,0.0012798245661728,-0.0010902140986986,0.0010902164780792,-0.0010902212657399,0.0010902093184761,-4.2099114968583e-09,7.2118438948841e-09,-1.0948806534947e-08,1.3764657377519e-08,-0.0016088964048819,0.001608899234299,-0.0017404534234241,0.0017404443053864,-0.0017404453444486,0.0017404525513719,-0.0017404497300923,0.0017404481077401,-0.0017404416957262,0.0017404563173532,-0.0014206092012344,0.0014205915440102,-0.0014205852279673,0.0014206160847573,-0.0014981468599604,0.0014981467428466,-0.0014981357592947,0.0014981581554288,-4.0070313391895e-09,3.5379516737182e-09,-0.00089392310080025,0.00089392258150286,1.181623696266e-08,-1.2721768345553e-08,-0.0010384446749983,0.0010384498721124,-0.0010384528314164,0.0010384417530502,-0.0010384421242488,0.001038452404387,-0.0010384503214911,0.0010384442439567,-0.00092991819664368,0.00092991685951601,-0.00092992552511949,0.00092990951716055,0.56383117813045,128566,2924,0.0047467117984716,0.0066795792517826,0.0037211297740646,32.64821234731,2.1185698778481e-05,2.1185698778481e-05,2.1185698778481e-05,3817004.1494742,0.01526367920177
14619200,0.96846631829532,0.015299871969172,0.0048803944258265,0.0063561975642094,0.0040632799791358,-0.001141833735868,0.0011418327522439,3.1894503965257e-09,-4.1913351765494e-09,5.1014667500584e-09,-6.2926548972418e-09,-0.0012799928152083,0.0012799980507471,-0.0012799952293495,0.001279995594881,-0.0012799964212607,0.0012799942621481,-0.0012799989015094,0.001279991793992,-0.001090047299256,0.0010900497718648,-0.0010900545769031,0.0010900424992848,-4.2236767750444e-09,7.2260059810068e-09,-1.0979149426816e-08,1.3795213890156e-08,-0.0016096107452871,0.0016096135749137,-0.0017415222930409,0.0017415131434239,-0.0017415141915093,0.0017415214121424,-0.0017415185884866,0.0017415169572749,-0.0017415105363869,0.0017415251855801,-0.0014209204436857,0.0014209027424203,-0.0014208964212361,0.0014209273394043,-0.0014986201492691,0.001498620031881,-0.0014986090262183,0.0014986314636012,-4.0841050928101e-09,3.6063633720469e-09,-0.0008935184166072,0.0008935178881261,1.1862838164849e-08,-1.277917740774e-08,-0.0010382536051304,0.00103825877726,-0.0010382617937694,0.0010382506264437,-0.00103825100439,0.0010382613601603,-0.0010382592381112,0.0010382531634579,-0.00092945031383012,0.00092944907048405,-0.000929457777261,0.00092944159113781,0.56645233160241,128566,2924,0.0047464028924737,0.0066825322255446,0.0037194562163832,31.823965606606,1.4591724852848e-05,1.4591724852848e-05,1.4591724852848e-05,3810262.3235161,0.015264667469781
14819200,0.97001013437137,0.015318622727692,0.0048862926738119,0.0063644470393175,0.0040678830145626,-0.0011416247945956,0.0011416238080915,3.2524516040916e-09,-4.2568337941483e-09,5.1103974599905e-09,-6.3056345193115e-09,-0.0012799971158559,0.0012800023978469,-0.001279999572011,0.0012799999001653,-0.0012800007281612,0.0012799986028578,-0.0012800032520669,0.0012799960911277,-0.0010897600303357,0.0010897626219284,-0.0010897674365118,0.0010897552224051,-4.2363175488186e-09,7.2380770663023e-09,-1.1010921140682e-08,1.3826365959423e-08,-0.0016101004804813,0.00161010330947,-0.0017423261381238,0.001742316957665,-0.001742318015311,0.0017423252486546,-0.0017423224243613,0.0017423207806768,-0.0017423143523523,0.0017423290295546,-0.0014210546790694,0.001421036926675,-0.0014210305957351,0.0014210615816958,-0.0014988940892793,0.0014988939708616,-0.0014988829475444,0.00149890542678,-4.1486931360813e-09,3.6660013594727e-09,-0.00089302410283849,0.00089302356957423,1.1885719373255e-08,-1.2806914719764e-08,-0.0010379478308006,0.0010379529728085,-0.0010379560353664,0.0010379448058606,-0.0010379451874212,0.0010379555976969,-0.0010379534387219,0.0010379473832158,-0.00092890097383,0.00092889982701627,-0.00092890855756805,0.00092889222999716,0.56961684773153,128566,2924,0.0047455378242466,0.0066845560619244,0.003717409737392,30.995505258628,7.9640420690225e-06,7.9640420690225e-06,7.9640420690225e-06,3802172.8293168,0.015263768852759
15019200,0.97139167872529,0.015335340607363,0.0048915510732999,0.006371798489608,0.0040719910444548,-0.0011407665415913,0.001140765554095,3.2619413928192e-09,-4.2675753564751e-09,5.1178299528006e-09,-6.3129838176778e-09,-0.0012793195980651,0.0012793248829188,-0.0012793220522747,0.0012793223806754,-0.0012793232007296,0.0012793210882177,-0.0012793257400964,0.0012793185563319,-0.0010888292775668,0.0010888318998953,-0.0010888367151591,0.0010888244538267,-4.202120581336e-09,7.2040660891378e-09,-1.0988872119559e-08,1.3802755018721e-08,-0.0016098240382886,0.0016098268631304,-0.001742324039032,0.0017423148710018,-0.0017423159170045,0.0017423231517417,-0.0017423203349033,0.0017423186783207,-0.0017423122845056,0.0017423269047297,-0.0014204807828575,0.001420463081496,-0.0014204567515381,0.0014204876571643,-0.0014984250590429,0.0014984250561745,-0.0014984140416365,0.0014984364342066,-4.279301868019e-09,3.767893225407e-09,-0.00089194726785925,0.00089194670753331,1.1968339099368e-08,-1.2925557335494e-08,-0.0010370240588973,0.0010370291579701,-0.0010370323167348,0.0010370209303273,-0.0010370213315485,0.0010370318659654,-0.0010370296523971,0.0010370235737427,-0.00092775531618832,0.00092775429076062,-0.00092776311094691,0.00092774648763893,0.56737759368335,128566,2924,0.0047419803176051,0.0066834099442787,0.0037129427851089,29.892680694964,-8.5855444028708e-07,-8.5855444028708e-07,-8.5855444028708e-07,3789503.5951117,0.015254460541762
15219200,0.97260969357699,0.015349411724629,0.0048959673649822,0.0063780316557444,0.0040754127039028,-0.0011391750091288,0.0011391740318192,3.3814944080714e-09,-4.3769744482015e-09,5.0680333902775e-09,-6.252241498961e-09,-0.0012778723317136,0.0012778776675329,-0.0012778748671544,0.0012778750929243,-0.0012778759047282,0.0012778739099753,-0.0012778785184575,0.0012778713089765,-0.0010871541625348,0.0010871570542279,-0.0010871618295622,0.0010871493983763,-4.2031387682311e-09,7.1956128377906e-09,-1.111003351022e-08,1.3916116286376e-08,-0.0016086831917876,0.0016086860128101,-0.0017414258579103,0.0017414166252699,-0.0017414176687572,0.0017414249878433,-0.0017414221599291,0.0017414204283245,-0.0017414140311239,0.0017414287362771,-0.0014190990713436,0.0014190811182452,-0.0014190748187398,0.0014191059424383,-0.001497106781477,0.0014971068103547,-0.0014970957332911,0.0014971181717834,-4.2827238840376e-09,3.7880030636948e-09,-0.00089021042205921,0.00089020987685319,1.1948325111546e-08,-1.2882953086797e-08,-0.0010353937804413,0.0010353988678274,-0.0010354020227701,0.0010353906563471,-0.0010353910437068,0.0010354015805824,-0.0010353993462036,0.0010353933128692,-0.00092591674303407,0.00092591576719463,-0.00092592455889406,0.00092590793847408,0.5439118004142,128566,2924,0.0047353820404428,0.0066786878896655,0.0037057327412729,28.487168153079,-1.2102654775371e-05,-1.2102654775371e-05,-1.2102654775371e-05,3773421.0514487,0.015235649290487
15419200,0.9736858052659,0.015363678818094,0.0049004781378766,0.0063841795481625,0.0040790211320551,-0.001137548169755,0.0011375471963178,3.4480714135572e-09,-4.4398062257085e-09,5.0584077942171e-09,-6.2391321525013e-09,-0.0012762866462699,0.0012762920275989,-0.0012762892279589,0.0012762894034282,-0.0012762902187621,0.0012762882708143,-0.0012762928683906,0.0012762856336203,-0.001085458668372,0.0010854616761835,-0.0010854664382397,0.0010854539102971,-4.1811286062147e-09,7.1737150206951e-09,-1.1101582802266e-08,1.3908293096899e-08,-0.0016073527533718,0.0016073555736137,-0.0017403111736194,0.0017403019673621,-0.0017403029953968,0.0017403103148936,-0.0017403074984767,0.0017403057490047,-0.0017402993703585,0.0017403140562525,-0.0014175587924118,0.0014175408209225,-0.0014175345408254,0.0014175656492147,-0.001495679063124,0.0014956791115908,-0.0014956680392047,0.0014956904513028,-4.3475784272225e-09,3.8473926680174e-09,-0.0008884897218624,0.00088848917095157,1.1964288148445e-08,-1.2905856499706e-08,-0.0010336519834347,0.0010336570405797,-0.0010336602466279,0.0010336488125815,-0.001033649212272,0.0010336597919979,-0.0010336575225232,0.0010336515182196,-0.00092411925511832,0.00092411840704268,-0.0009241272125824,0.00092411043461845,0.61487579754424,128566,2924,0.0047286369401393,0.0066731839795498,0.0036985861438618,27.074210640764,-2.3406314873889e-05,-2.3406314873889e-05,-2.3406314873889e-05,3759704.6717661,0.015215957566295
15619200,0.97465582280674,0.015376822506237,0.0049046387497617,0.0063898180426049,0.0040823657138707,-0.0011364084669187,0.0011364075045414,3.6202198239312e-09,-4.6002468836218e-09,5.010531472225e-09,-6.1812352884461e-09,-0.0012752936087106,0.0012752990883907,-0.0012752963115491,0.0012752963452014,-0.0012752971587494,0.0012752953537459,-0.0012752999095358,0.0012752926217198,-0.0010843428245559,0.001084346173001,-0.0010843509000874,0.0010843381265404,-4.2561177558182e-09,7.2573164119652e-09,-1.1208627466478e-08,1.4023485744842e-08,-0.0016066306727049,0.0016066335007716,-0.0017397114741281,0.0017397021662643,-0.0017397032410905,0.0017397105769898,-0.0017397077618484,0.0017397059903908,-0.0017396995530446,0.0017397143795158,-0.0014166913551681,0.0014166731864802,-0.0014166668526888,0.0014166982755568,-0.0014948440806493,0.0014948440182472,-0.0014948328650092,0.0014948555525307,-4.2859070599335e-09,3.8294995972662e-09,-0.00088722303708901,0.00088722252936016,1.1771988450657e-08,-1.2663212911161e-08,-0.0010325566865983,0.0010325616794445,-0.0010325648202019,0.0010325535815446,-0.0010325539510052,0.0010325643946119,-0.0010325621105383,0.0010325562741832,-0.00092285024904338,0.00092284954012098,-0.00092285816135115,0.00092284161256908,0.62694796441282,128566,2924,0.0047239129114074,0.0066701915185166,0.0036933333356312,25.965098218974,-3.2279214248211e-05,-3.2279214248211e-05,-3.2279214248211e-05,3735931.1072378,0.015202793854309
15819200,0.97556817669682,0.015390116109084,0.0049088609782279,0.0063954492164815,0.0040858059143748,-0.0011365436227815,0.0011365426384087,3.5700187234852e-09,-4.5719866643878e-09,5.1030744889284e-09,-6.296494922461e-09,-0.0012755934668208,0.0012755989622803,-0.0012755961393481,0.0012755962466472,-0.0012755970770493,0.0012755951653709,-0.0012755998083168,0.0012755924494144,-0.0010845480453173,0.001084551243512,-0.0010845560491997,0.001084543241279,-4.254800080837e-09,7.2525819304828e-09,-1.0948105497892e-08,1.3759220948833e-08,-0.00160725590456,0.0016072587291126,-0.0017404292731176,0.0017404201287655,-0.0017404212011208,0.001740428367564,-0.0017404255549696,0.0017404239560594,-0.0017404175216146,0.0017404321643676,-0.0014171714478413,0.0014171538152083,-0.001417147472024,0.0014171783535354,-0.0014953763609364,0.0014953761471152,-0.0014953651718644,0.0014953876552354,-4.4558837777798e-09,3.99189347682e-09,-0.00088718167740776,0.00088718116323225,1.1778174415298e-08,-1.267825417889e-08,-0.001032734847172,0.0010327397233786,-0.0010327429775623,0.0010327316277248,-0.0010327319969121,0.0010327425530665,-0.0010327401641582,0.0010327344226793,-0.00092287162989754,0.00092287121928631,-0.00092287985196166,0.0009228629820708,0.66919699330152,128566,2924,0.0047244752636871,0.0066727728719435,0.0036931716357704,25.548436346405,-3.5612509228758e-05,-3.5612509228758e-05,-3.5612509228758e-05,3719812.8647487,0.015205824583832
16019200,0.97642781461969,0.015402609945038,0.0049128282823966,0.0064007466979898,0.0040890349646521,-0.0011366444102712,0.0011366434173695,3.6161715932673e-09,-4.62681883929e-09,5.1377383188196e-09,-6.3402209590724e-09,-0.0012759221936664,0.0012759277356465,-0.0012759248959815,0.0012759249913911,-0.0012759258258025,0.001275923918184,-0.0012759285946593,0.0012759211639837,-0.00108476396018,0.0010847672370588,-0.0010847720779232,0.0010847591237529,-4.2705162936586e-09,7.2698455715021e-09,-1.0828496662801e-08,1.3640991972e-08,-0.0016079281574222,0.0016079309834324,-0.0017411476960437,0.0017411386133539,-0.0017411396943734,0.0017411467789553,-0.0017411439619161,0.0017411424569249,-0.0017411360076602,0.0017411505834498,-0.0014177352295006,0.0014177178526543,-0.0014177114976422,0.0014177421464697,-0.0014959423849542,0.0014959420728906,-0.0014959311762178,0.0014959536015197,-4.5265766844358e-09,4.0734816189162e-09,-0.00088709620713943,0.0008870957040352,1.1723813136144e-08,-1.2611017474255e-08,-0.0010329733908654,0.001032978181899,-0.0010329814763706,0.0010329701317124,-0.001032970486226,0.0010329810662292,-0.001032978617016,0.0010329729725233,-0.00092286925676421,0.00092286903247771,-0.00092287761369972,0.00092286066124806,0.66742792132924,128566,2924,0.0047248955748209,0.006675545551184,0.0036928309762793,25.148632503925,-3.8810939968598e-05,-3.8810939968598e-05,-3.8810939968598e-05,3698659.5382142,0.015208725473215
16219200,0.97723840634818,0.015414338388114,0.0049165515738546,0.0064057238097375,0.0040920630045216,-0.0011366784473935,0.0011366774541746,3.7010173287221e-09,-4.7120088871758e-09,5.1399118938503e-09,-6.3426709992254e-09,-0.0012761736934679,0.0012761792942527,-0.0012761764538112,0.0012761764930146,-0.0012761773285632,0.0012761754744024,-0.0012761801528802,0.0012761726648798,-0.0010849122057017,0.0010849156440436,-0.0010849204877765,0.0010849073690655,-4.2834844584313e-09,7.2835798475765e-09,-1.0797277945159e-08,1.3610436028345e-08,-0.0016085211507253,0.0016085239774438,-0.0017417779684815,0.0017417688980493,-0.0017417699869834,0.0017417770428552,-0.0017417742266264,0.0017417727495673,-0.0017417662901933,0.0017417808576015,-0.0014182287842491,0.0014182114728324,-0.0014182051070531,0.0014182357095878,-0.0014964373659244,0.0014964370050182,-0.0014964261271775,0.0014964485630784,-4.5627029746627e-09,4.120853006762e-09,-0.00088695976647538,0.00088695927480722,1.166495762214e-08,-1.2539296123324e-08,-0.0010331419977215,0.0010331467296232,-0.0010331500414024,0.0010331387214206,-0.0010331390659728,0.0010331496410786,-0.0010331471527549,0.0010331415915101,-0.00092280139583003,0.00092280131104901,-0.00092280983769862,0.00092279285470219,0.664256045907,128566,2924,0.0047250387496006,0.0066779905440354,0.0036922780736487,24.749466638313,-4.2004266893494e-05,-4.2004266893494e-05,-4.2004266893494e-05,3680044.2449392,0.01521079630222
16419200,0.97800609333947,0.015424269104155,0.0049196877450075,0.006410019624385,0.0040945617347627,-0.0011367199039513,0.0011367189101099,3.7910968698393e-09,-4.8026769050702e-09,5.1426520504787e-09,-6.3462321603167e-09,-0.0012764361463897,0.0012764418075448,-0.0012764389654402,0.0012764389471378,-0.0012764397821579,0.001276437987034,-0.0012764426678671,0.0012764351156215,-0.001085041134845,0.001085044752997,-0.0010850495981342,0.0010850362943169,-4.2680587142066e-09,7.2663274220968e-09,-1.0769576796704e-08,1.3581104505227e-08,-0.0016091068837553,0.0016091097087556,-0.001742404982601,0.0017423959387392,-0.0017423970179098,0.0017424040651807,-0.0017424012497499,0.0017423997804607,-0.0017423933332567,0.0017424078679026,-0.0014187214949038,0.0014187042310943,-0.0014186978781909,0.0014187284077443,-0.0014969071981589,0.0014969068526172,-0.0014968959973943,0.0014969183760462,-4.6003228755403e-09,4.1562787566868e-09,-0.00088684332631017,0.00088684283249166,1.167255755735e-08,-1.2548616848064e-08,-0.0010333258019868,0.001033330511295,-0.0010333338498273,0.0010333224989401,-0.0010333228445632,0.0010333334483218,-0.0010333309381566,0.0010333253918958,-0.0009227249181922,0.00092272489123249,-0.00092273342670764,0.00092271636876821,0.59981697584276,128566,2924,0.0047252123175363,0.0066804058173486,0.0036918072232394,24.411972609813,-4.4704219121499e-05,-4.4704219121499e-05,-4.4704219121499e-05,3665404.8830852,0.015212951086267
16619200,0.97873719805329,0.015435530378588,0.004923271536939,0.0064147475275891,0.0040975113140595,-0.0011369798187287,0.0011369788301598,3.8288148018838e-09,-4.8351605636305e-09,5.1215746818797e-09,-6.3193115345468e-09,-0.0012767833179423,0.0012767889932194,-0.0012767861619401,0.0012767861085732,-0.0012767869396298,0.0012767851871334,-0.001276789847408,0.0012767822940609,-0.0010853471223098,0.0010853508245814,-0.0010853556498851,0.0010853423043459,-4.2625183414612e-09,7.2597039694388e-09,-1.0807136175879e-08,1.3617616142645e-08,-0.0016097505145034,0.0016097533385341,-0.0017431288722255,0.001743119808262,-0.0017431208849961,0.001743127958702,-0.0017431251450157,0.0017431236447228,-0.001743117202626,0.0017431317585731,-0.0014192420415434,0.0014192246952121,-0.0014192183474821,0.0014192489497254,-0.0014975051803897,0.0014975048662638,-0.0014974939850827,0.0014975163798751,-4.692286141758e-09,4.2480651565374e-09,-0.00088697857859897,0.00088697808459873,1.1675154349137e-08,-1.2551784981572e-08,-0.0010335614414062,0.0010335660932442,-0.0010335694930443,0.0010335580772592,-0.0010335584242693,0.0010335690902213,-0.0010335665188906,0.0010335610328194,-0.00092289992623917,0.00092290008325732,-0.00092290862024773,0.00092289137508356,0.70235631741871,128566,2924,0.0047262907323975,0.0066830660580524,0.0036923747642765,24.158092160496,-4.6735262716028e-05,-4.6735262716028e-05,-4.6735262716028e-05,3662239.4490651,0.015217323359317
16819200,0.97943386013828,0.015446311552142,0.0049267018816975,0.0064192762117666,0.0041003334586781,-0.0011372052424343,0.001137204257561,3.8995448533719e-09,-4.9022584724316e-09,5.10700722465e-09,-6.3008790459408e-09,-0.0012772327328066,0.0012772384460444,-0.0012772356218469,0.0012772355159546,-0.0012772363427051,0.0012772346516301,-0.0012772392972862,0.0012772317117961,-0.0010857283522694,0.0010857322065502,-0.0010857370171848,0.0010857235485406,-4.2424801445555e-09,7.237066503586e-09,-1.0837897586845e-08,1.3646032631658e-08,-0.0016105338135052,0.001610536635224,-0.0017439023044762,0.0017438932325718,-0.001743894297655,0.0017439014032539,-0.001743898590505,0.0017438970554696,-0.0017438906300287,0.0017439051878578,-0.0014199668597923,0.0014199494417121,-0.0014199431106835,0.0014199737516938,-0.0014982116269799,0.0014982113738825,-0.0014982004755762,0.0014982228429688,-4.7539630586992e-09,4.3022505284238e-09,-0.00088703766752419,0.00088703716590942,1.1711385826231e-08,-1.2596381593783e-08,-0.0010339530004359,0.0010339576321675,-0.0010339610781966,0.001033949590221,-0.0010339499439161,0.0010339606686365,-0.0010339580660844,0.0010339525836852,-0.00092305341203106,0.00092305364576174,-0.00092306221682106,0.00092304482667415,0.70571571563686,128566,2924,0.0047272276419709,0.0066862970971853,0.0036926354303014,23.906252421945,-4.8749980624443e-05,-4.8749980624443e-05,-4.8749980624443e-05,3643573.5599605,0.015221824471156
17019200,0.98009799847999,0.015456383712583,0.0049299034320974,0.0064235219259271,0.0041029583545583,-0.0011373666912585,0.0011373657108782,3.9586927361359e-09,-4.9570137847453e-09,5.0895108335773e-09,-6.2783400919022e-09,-0.0012776192284751,0.0012776249713895,-0.0012776221559052,0.0012776220026536,-0.0012776228257247,0.0012776211896247,-0.0012776258177292,0.0012776182123323,-0.0010860400094539,0.0010860439909016,-0.0010860487839535,0.0010860352230552,-4.2264735149588e-09,7.2190503107331e-09,-1.0881242316046e-08,1.3687557406046e-08,-0.0016112602949413,0.0016112631148383,-0.001744612011894,0.0017446029220661,-0.0017446039781548,0.0017446111206002,-0.0017446083095048,0.0017446067329345,-0.0017446003210569,0.0017446148943741,-0.0014206391102755,0.0014206215941831,-0.0014206152775695,0.0014206459904034,-0.0014988615289789,0.0014988613340481,-0.0014988504087874,0.001498872770298,-4.8270665077166e-09,4.3689003738012e-09,-0.0008870445164268,0.00088704400817389,1.1743658635025e-08,-1.2636200456345e-08,-0.0010342897917244,0.0010342943950506,-0.0010342978940416,0.0010342863285609,-0.0010342866892371,0.0010342974775719,-0.0010342948348887,0.001034289369171,-0.00092315308118921,0.00092315342330684,-0.00092316202429374,0.00092314446541215,0.69245975791322,128566,2924,0.0047278989458183,0.0066892927439753,0.0036926794945171,23.65448989512,-5.0764080839038e-05,-5.0764080839038e-05,-5.0764080839038e-05,3626517.2009185,0.015225596814171
17219200,0.98071616236318,0.015465501219904,0.0049327974979397,0.0064273827858991,0.004105320936065,-0.0011367057133296,0.0011367047464586,4.040575004516e-09,-5.0260328596349e-09,5.0388757966304e-09,-6.211334637814e-09,-0.0012771406529372,0.0012771464234778,-0.0012771436339531,0.0012771434009927,-0.0012771442152414,0.0012771426774468,-0.00127714725334,0.0012771396527566,-0.0010854983794372,0.0010855025483489,-0.0010855072887439,0.0010854936411228,-4.2117126990681e-09,7.2022451282375e-09,-1.1022244561053e-08,1.3826641841877e-08,-0.0016110682664711,0.0016110710844211,-0.0017444116624798,0.0017444024932085,-0.0017444035417221,0.0017444107806395,-0.0017444079737448,0.0017444062897924,-0.0017443998918638,0.0017444145473156,-0.0014204083526808,0.0014203905391944,-0.001420384238837,0.0014204152250321,-0.0014986014716157,0.0014986013885224,-0.0014985903685108,0.0014986127999063,-4.8803073204172e-09,4.4185470639496e-09,-0.00088628429159238,0.0008862837793144,1.1760093231018e-08,-1.2658884454096e-08,-0.0010337854329811,0.0010337900158221,-0.0010337935526307,0.0010337819320596,-0.0010337822999478,0.0010337931299044,-0.0010337904559768,0.0010337850110999,-0.00092243872862417,0.00092243916721203,-0.00092244777982463,0.00092243009567501,0.67475987022525,128566,2924,0.0047251594718369,0.0066884895430795,0.003689534792805,22.994892059071,-5.6040863527431e-05,-5.6040863527431e-05,-5.6040863527431e-05,3607950.9489745,0.015218811082986
17419200,0.98128032542959,0.015473458382012,0.0049353180064878,0.0064307756990829,0.0041073646764409,-0.0011353408945839,0.0011353399299155,4.0955654885099e-09,-5.0785715545678e-09,5.0258815490259e-09,-6.1970857049915e-09,-0.001275904014538,0.001275909810557,-0.0012759070267221,0.001275906754616,-0.0012759075630138,0.001275906076299,-0.0012759106415872,0.0012759030132803,-0.0010842170133695,0.0010842213106203,-0.0010842260407487,0.0010842122881045,-4.1601794195509e-09,7.1454270704019e-09,-1.1051389396875e-08,1.3851090450989e-08,-0.0016100508946284,0.001610053707876,-0.0017433970514075,0.0017433878937763,-0.0017433889116637,0.0017433962019009,-0.0017433933945854,0.0017433916575137,-0.0017433853005968,0.001743399928163,-0.0014193661638696,0.0014193482694229,-0.0014193420104163,0.0014193729955242,-0.0014975264135904,0.0014975264598898,-0.0014975154292694,0.0014975377551295,-4.965196671683e-09,4.4799727710697e-09,-0.00088487452148089,0.00088487398545815,1.188542021113e-08,-1.2809543603314e-08,-0.0010325441161892,0.0010325487138789,-0.0010325523228004,0.0010325405431517,-0.0010325409307572,0.0010325518797314,-0.0010325491806976,0.001032543666991,-0.00092102531275901,0.0009210257680441,-0.0009210344986728,0.00092101656506888,0.64747797916894,128566,2924,0.0047195009633812,0.0066842735623576,0.0036836884631181,21.991929759035,-6.4064561927724e-05,-6.4064561927724e-05,-6.4064561927724e-05,3588873.8428668,0.015202853063527
17619200,0.9817956152253,0.015480440316348,0.004937525667559,0.0064337698058883,0.0041091448429011,-0.0011339104929042,0.0011339095282476,4.1531927588893e-09,-5.1361782968778e-09,5.0252621914542e-09,-6.1963945033425e-09,-0.0012745470877721,0.0012745529189486,-0.0012745501357083,0.0012745498274394,-0.0012745506333472,0.0012745491883713,-0.0012745537527061,0.0012745460834478,-0.0010828298543248,0.0010828342734877,-0.0010828390018117,0.0010828251291161,-4.1404405211489e-09,7.123346866937e-09,-1.1069713919427e-08,1.3867288599617e-08,-0.0016088654480551,0.0016088682591637,-0.0017422336149427,0.0017422244528474,-0.0017422254596417,0.0017422327770185,-0.0017422299685266,0.001742228205672,-0.0017422218644257,0.0017422364869051,-0.0014181531735994,0.0014181352368645,-0.0014181289945524,0.0014181599899965,-0.0014962939071599,0.0014962940125499,-0.0014962829722185,0.0014963052575061,-5.040472131801e-09,4.5432128832325e-09,-0.00088342834249518,0.00088342779422264,1.1947862245216e-08,-1.2885647103825e-08,-0.0010311808440954,0.0010311854265068,-0.0010311890934128,0.00103117721312,-0.001031177609643,0.0010311886412315,-0.0010311859080263,0.001031180380189,-0.00091954539479437,0.00091954591914886,-0.00091955470823463,0.00091953658978402,0.62390233500539,128566,2924,0.0047135700268229,0.006679364843452,0.0036776868113153,20.980547216084,-7.2155622271325e-05,-7.2155622271325e-05,-7.2155622271325e-05,3574543.243012,0.015185756296328
17819200,0.98226746885095,0.015486606005665,0.0049394721093815,0.0064364271429847,0.0041107067532993,-0.001132481485371,0.0011324805249673,4.2408171256427e-09,-5.2195041189246e-09,5.0065844997986e-09,-6.1737625501449e-09,-0.0012731497307818,0.0012731556219056,-0.0012731528475586,0.0012731524623343,-0.0012731532745968,0.0012731518920731,-0.0012731564405083,0.0012731487437373,-0.0010814087503258,0.0010814133199088,-0.0010814180349975,0.0010814040477599,-4.1738885223354e-09,7.1595032076797e-09,-1.1150954129594e-08,1.3950868066674e-08,-0.0016075968857354,0.0016075996992863,-0.0017410045367775,0.0017409953126159,-0.0017409963413767,0.0017410036808588,-0.0017410008803497,0.0017409990768056,-0.0017409927116094,0.00174100742521,-0.0014168542575367,0.0014168361478583,-0.0014168298823766,0.0014168611017635,-0.0014949850966544,0.0014949851560857,-0.0014949740586792,0.0014949965074907,-5.0746497421819e-09,4.5918141355968e-09,-0.00088200543045073,0.00088200489628525,1.1886766842138e-08,-1.2808533940641e-08,-0.0010297749464195,0.0010297794814174,-0.001029783162683,0.0010297713009521,-0.0010297716957016,0.0010297827121553,-0.0010297799378184,0.0010297745077598,-0.00091806607598567,0.00091806677466184,-0.00091807550594042,0.0009180573295306,0.60341628313945,128566,2924,0.0047076445110852,0.0066741145167573,0.0036717784226061,19.990833745994,-8.0073330032045e-05,-8.0073330032045e-05,-8.0073330032045e-05,3564352.621822,0.0151684121195
18019200,0.98270052226274,0.015492260090449,0.0049412573499493,0.0064388605226493,0.0041121422178509,-0.0011310631844498,0.0011310622126167,4.2642856871887e-09,-5.2542918114244e-09,5.0536317019377e-09,-6.2329830321175e-09,-0.0012717255552363,0.0012717314641477,-0.0012717286664243,0.001271728309205,-0.001271729108695,0.0012717277256884,-0.0012717323178909,0.0012717245303629,-0.0010799732130442,0.001079977868066,-0.0010799826241606,0.0010799684598599,-4.1578595906553e-09,7.1417295052424e-09,-1.1028796305785e-08,1.382710096238e-08,-0.0016062644671221,0.0016062672789062,-0.0017397251502566,0.0017397159888291,-0.0017397170066002,0.0017397243001167,-0.0017397214784687,0.0017397197673388,-0.0017397134131235,0.0017397280089467,-0.0014154873970384,0.0014154695930329,-0.0014154633375053,0.0014154942253997,-0.0014936222537329,0.0014936223399034,-0.0014936113271393,0.0014936335812318,-5.1800687341287e-09,4.6819372128013e-09,-0.00088061175466557,0.00088061120553852,1.1954466801804e-08,-1.2892957609943e-08,-0.0010283416779514,0.0010283461571198,-0.001028349917466,0.0010283379534863,-0.001028338337508,0.0010283494776905,-0.0010283466529668,0.0010283411995682,-0.00091660238964657,0.00091660314405311,-0.00091661193752755,0.0009165935809332,0.60265703325995,128566,2924,0.0047017630795736,0.0066686018612011,0.0036659886632019,19.019433265701,-8.7844533874394e-05,-8.7844533874394e-05,-8.7844533874394e-05,3557286.912931,0.015150966195835
18219200,0.98309838509028,0.01549755918204,0.0049429324712528,0.0064411300140873,0.0041134966966995,-0.0011296277297369,0.0011296267566501,4.3444458595582e-09,-5.3356966215099e-09,5.0581608776995e-09,-6.2387009898495e-09,-0.0012702753946433,0.0012702813754562,-0.0012702785754646,0.0012702781516731,-0.001270278967891,0.0012702776171235,-0.0012702822150587,0.0012702743848713,-0.0010785189960659,0.0010785237564454,-0.0010785285189129,0.0010785142391001,-4.1935182118972e-09,7.1799837172495e-09,-1.103469971491e-08,1.3835271793532e-08,-0.0016048816515923,0.0016048844657674,-0.0017383912331074,0.0017383820629019,-0.0017383831024937,0.0017383903618305,-0.0017383875537434,0.0017383858497955,-0.0017383794691207,0.0017383941110354,-0.0014140767766659,0.001414058936463,-0.0014140526539377,0.0014140836314533,-0.0014922148237401,0.0014922147938628,-0.0014922037736559,0.0014922261570226,-5.2185395137772e-09,4.7356204948874e-09,-0.00087921076288977,0.0008792102290755,1.1878088050916e-08,-1.2799730523399e-08,-0.0010268927261698,0.0010268971504709,-0.001026900926961,0.0010268889855916,-0.0010268893706284,0.0010269004861607,-0.001026897615322,0.0010268922789381,-0.00091513422262371,0.00091513518334793,-0.00091514390719208,0.00091512548328865,0.61338751163448,128566,2924,0.0046958105526905,0.0066628809362507,0.0036601681538767,18.048480733746,-9.5612154130036e-05,-9.5612154130036e-05,-9.5612154130036e-05,3549769.3327879,0.015133205754224
18419200,0.98347352833948,0.015502593228467,0.0049445247515018,0.006443280594687,0.0041147878822782,-0.0011289171970388,0.001128916213374,4.390923811321e-09,-5.3921357521235e-09,5.098721507374e-09,-6.2919242450921e-09,-0.0012695769414127,0.0012695829788901,-0.0012695801583702,0.0012695797194722,-0.0012695805469074,0.0012695791882813,-0.0012695838271749,0.0012695759228514,-0.0010778071895974,0.0010778120067251,-0.0010778168102129,0.0010778023939297,-4.2259330746454e-09,7.215770594985e-09,-1.0922467098186e-08,1.3726072025275e-08,-0.0016042703896562,0.0016042732067329,-0.0017378170966065,0.0017378079803174,-0.0017378090385972,0.0017378162039225,-0.0017378133963817,0.0017378117887743,-0.0017378053816764,0.0017378199774989,-0.0014134333879945,0.0014134157868912,-0.0014134094745659,0.0014134402641946,-0.0014915745623817,0.001491574391454,-0.0014915634453267,0.0014915858304365,-5.2885187564649e-09,4.8168842028736e-09,-0.00087850297996087,0.0008785024580773,1.1819775509913e-08,-1.2727258222887e-08,-0.001026185693717,0.0010261900366854,-0.0010261938518983,0.0010261819141067,-0.0010261822889999,0.0010261934208795,-0.0010261904885498,0.0010261852588964,-0.00091439383984788,0.00091439500714428,-0.00091440367846926,0.00091438515644361,0.61738403064617,128566,2924,0.0046928643146882,0.0066603515214634,0.003657228540807,17.475746144193,-0.00010019403084645,-0.00010019403084645,-0.00010019403084645,3545273.2079463,0.015124662585522
18619200,0.98383484881371,0.015507394480649,0.0049460429254252,0.0064453335944663,0.0041160179607572,-0.0011288045305107,0.0011288035380121,4.4441494666667e-09,-5.4543801922416e-09,5.1347886101481e-09,-6.3369538644093e-09,-0.0012694977869481,0.0012695038776844,-0.0012695010394117,0.0012695005834081,-0.0012695014162685,0.0012695000637386,-0.0012695047381031,0.001269496756512,-0.0010777015705427,0.0010777064744125,-0.001077711313279,0.0010776967377661,-4.259698505664e-09,7.2524474224154e-09,-1.0814945764654e-08,1.3621126125006e-08,-0.0016042946617627,0.0016042974815636,-0.0017378764508499,0.0017378673811098,-0.0017378684584029,0.0017378755367917,-0.0017378727244255,0.0017378712163857,-0.0017378647819331,0.0017378793306756,-0.0014134170378989,0.0014133996814118,-0.0014133933425499,0.0014134239388734,-0.0014915641202406,0.0014915638210518,-0.0014915529423895,0.0014915753181419,-5.3502394442178e-09,4.8940249799643e-09,-0.00087836555338758,0.00087836504696844,1.1741823670435e-08,-1.2632195217917e-08,-0.0010260845050423,0.0010260887560264,-0.0010260926026778,0.0010260806942382,-0.001026081050764,0.0010260921898378,-0.001026089196317,0.0010260840820492,-0.00091424483498937,0.00091424620108965,-0.00091425479878563,0.00091423622387419,0.61178640046116,128566,2924,0.004692397386071,0.0066604512717475,0.0036566588980225,17.23077294896,-0.00010215381640832,-0.00010215381640832,-0.00010215381640832,3544319.6891799,0.01512371170304
18819200,0.98418313659717,0.015512336423336,0.0049476103629963,0.0064474226389443,0.0041173034213952,-0.0011287143854445,0.0011287133914102,4.5156516311059e-09,-5.5275126434811e-09,5.1409110128206e-09,-6.3446158816341e-09,-0.0012694307871354,0.0012694369283935,-0.0012694340871147,0.0012694335870615,-0.0012694344205269,0.0012694331103616,-0.0012694377911141,0.0012694297547176,-0.0010776207076843,0.0010776257485813,-0.0010776305939641,0.0010776158683388,-4.276422116181e-09,7.2705891234342e-09,-1.077592399986e-08,1.3583328912096e-08,-0.0016043223615266,0.0016043251825947,-0.0017379427221916,0.0017379336674902,-0.0017379347544625,0.001737941797573,-0.0017379389839608,0.0017379375148852,-0.0017379310674037,0.0017379456024599,-0.0014134022294111,0.0014133849629366,-0.0014133786101351,0.0014134091421271,-0.0014915647204863,0.0014915643646748,-0.0014915535102244,0.0014915758938997,-5.3987327406816e-09,4.9552733685445e-09,-0.00087825227629435,0.00087825178271794,1.1676685049669e-08,-1.2552824030978e-08,-0.0010259930150839,0.0010259971936827,-0.0010260010646622,0.0010259891799392,-0.0010259895233912,0.0010260006649632,-0.0010259976221322,0.001025992603959,-0.000914120792454,0.00091412232484368,-0.00091413086166725,0.00091411224118733,0.64922936855362,128566,2924,0.0046920238780006,0.0066605656162015,0.0036561890100984,16.993815931951,-0.00010404947254439,-0.00010404947254439,-0.00010404947254439,3544006.8432502,0.015122971509747
19019200,0.98451896470352,0.015517406738092,0.0049492227292482,0.0064495453472981,0.0041186386615454,-0.0011286247321918,0.0011286237390998,4.585708810819e-09,-5.5966618528677e-09,5.1378353856612e-09,-6.3405695050716e-09,-0.0012694114804453,0.0012694176682832,-0.0012694148284396,0.0012694142791593,-0.0012694151132521,0.0012694138508694,-0.0012694185284777,0.0012694104508022,-0.001077583043938,0.0010775882192037,-0.0010775930615305,0.0010775782077492,-4.2770808159405e-09,7.271183351928e-09,-1.0757309395288e-08,1.3564649346921e-08,-0.0016044153246811,0.0016044181456911,-0.0017380387735374,0.0017380297328226,-0.0017380308199774,0.0017380378483591,-0.0017380350367257,0.0017380335788773,-0.0017380271308829,0.001738041655276,-0.0014134754663229,0.0014134582317178,-0.0014134518780695,0.0014134823788259,-0.0014916267112743,0.0014916263365231,-0.0014916154943884,0.001491637872016,-5.4532800535505e-09,5.015897017393e-09,-0.00087812362999732,0.00087812314257134,1.1643341519938e-08,-1.2512529167233e-08,-0.0010259690651477,0.0010259731886903,-0.0010259770923194,0.0010259651973695,-0.0010259655365813,0.0010259766968805,-0.0010259736095371,0.0010259686616853,-0.00091401187046324,0.00091401355107612,-0.00091402205748052,0.00091400334927693,0.68719100970779,128566,2924,0.0046916529589851,0.0066609473273426,0.003655659072935,16.757161230387,-0.0001059427101569,-0.0001059427101569,-0.0001059427101569,3537469.1637809,0.01512244596022
19219200,0.98485328218876,0.015522611515599,0.0049508798619295,0.0064517150964793,0.0041200165571899,-0.001129462081082,0.0011294610852275,4.6440963700474e-09,-5.6575631733594e-09,5.1497593811836e-09,-6.3558951279432e-09,-0.0012703858274012,0.001270392060556,-0.0012703892145778,0.0012703886324516,-0.0012703894683548,0.0012703882348927,-0.0012703929241635,0.0012703847943354,-0.0010785230514758,0.0010785283348232,-0.0010785331882209,0.0010785182040202,-4.2798197232688e-09,7.2737715672715e-09,-1.070946206705e-08,1.3516649845096e-08,-0.0016055678480305,0.0016055706689091,-0.0017391631781226,0.0017391541661906,-0.0017391552547523,0.0017391622505477,-0.0017391594387267,0.0017391580147373,-0.0017391515644491,0.0017391660584957,-0.0014146095983727,0.0014145924619442,-0.0014145861040575,0.001414616510382,-0.0014927379095135,0.0014927374999678,-0.0014927266905992,0.0014927490394058,-5.5199861210826e-09,5.0842965135987e-09,-0.00087886290660057,0.00087886242114976,1.1628324783219e-08,-1.2494772431366e-08,-0.0010269247713952,0.0010269288399157,-0.001026932786796,0.0010269208602541,-0.0010269211968089,0.0010269323937326,-0.0010269292595068,0.0010269243687072,-0.00091482813129429,0.00091482995413335,-0.00091483844954645,0.00091481962300423,0.70677987829906,128566,2924,0.0046951265889393,0.0066657102848742,0.0036587386531253,17.022342939561,-0.00010382125648351,-0.00010382125648351,-0.00010382125648351,3532301.9976025,0.015133936759669
19419200,0.98519124311333,0.015527758597983,0.0049525169059443,0.0064538696886537,0.004121372003385,-0.0011307505866599,0.0011307495927925,4.7114694623843e-09,-5.7230981008848e-09,5.1446363063151e-09,-6.3482579645474e-09,-0.0012718521655837,0.0012718584415876,-0.0012718555978922,0.0012718549685132,-0.0012718558033915,0.0012718546194083,-0.0012718593025385,0.0012718511352359,-0.0010799387816346,0.0010799441983927,-0.0010799490461514,0.0010799339403475,-4.2812585058444e-09,7.2753422045838e-09,-1.0717377015371e-08,1.3524672238723e-08,-0.0016072528439925,0.0016072556649617,-0.0017408097267412,0.001740800709246,-0.0017408017987783,0.0017408087982919,-0.0017408059872375,0.0017408045580431,-0.0017407981068652,0.0017408126080286,-0.0014162723723503,0.0014162552185104,-0.0014162488609686,0.0014162792864681,-0.0014943720698964,0.0014943716603787,-0.0014943608446637,0.0014943832041551,-5.5798835570952e-09,5.1459394474158e-09,-0.00088002085457302,0.00088002037077428,1.1615096227371e-08,-1.2479963157983e-08,-0.0010283594781592,0.0010283634994778,-0.0010283674852764,0.0010283555281534,-0.001028355863971,0.0010283670931911,-0.0010283639168976,0.0010283590780454,-0.00091608412385514,0.00091608607882386,-0.00091609456246964,0.00091607562615653,0.69264757956441,128566,2924,0.0047004711678044,0.0066726747974282,0.003663559555769,17.538806429734,-9.9689548562128e-05,-9.9689548562128e-05,-9.9689548562128e-05,3529107.5128962,0.015151330553345
19619200,0.98553272115994,0.015532826503121,0.0049541266962446,0.0064560011612866,0.0041226986455903,-0.0011320367779821,0.0011320357887792,4.781674278725e-09,-5.7886764808671e-09,5.1266562401783e-09,-6.3254336953426e-09,-0.0012733007740514,0.0012733070877998,-0.0012733042528929,0.0012733035681249,-0.0012733043997006,0.0012733032778729,-0.0012733079429801,0.0012732997498572,-0.0010813379929699,0.0010813435572866,-0.0010813483868676,0.0010813331698754,-4.271894842839e-09,7.2650434932612e-09,-1.0751855374905e-08,1.355834053018e-08,-0.0016089246228068,0.0016089274429467,-0.0017424595749423,0.0017424505422107,-0.0017424516262649,0.0017424586526505,-0.0017424558431216,0.0017424543831064,-0.0017424479395683,0.0017424624570274,-0.0014179052939092,0.0014178880620889,-0.0014178817126306,0.0014179122014294,-0.0014959961059251,0.0014959957336356,-0.0014959848967414,0.0014960072622253,-5.6408802721158e-09,5.2035647513415e-09,-0.00088118066693462,0.0008811801796738,1.1631354475311e-08,-1.2499857022014e-08,-0.0010297637548454,0.0010297677463955,-0.0010297717753429,0.0010297597618733,-0.0010297601024635,0.0010297713783735,-0.0010297681661602,0.0010297633526368,-0.00091732922421223,0.00091733128374704,-0.00091733978246797,0.00091732071096671,0.67638953768998,128566,2924,0.0047058056775708,0.0066795853446448,0.003668387174117,18.061479580568,-9.5508163355453e-05,-9.5508163355453e-05,-9.5508163355453e-05,3529238.4916431,0.015168665697529
19819200,0.98587744459005,0.015537789291872,0.0049557006474237,0.0064580997641278,0.0041239888803203,-0.0011333140922954,0.0011333131061521,4.8420343073282e-09,-5.8460698379375e-09,5.1147386054432e-09,-6.3100173033028e-09,-0.0012747195549552,0.0012747259003926,-0.0012747230714189,0.0012747223426775,-0.0012747231700292,0.0012747221008236,-0.0012747267538409,0.0012747185322019,-0.0010827084034078,0.0010827140988529,-0.0010827189164425,0.0010827035916074,-4.2483191266492e-09,7.238917322633e-09,-1.0785365147145e-08,1.3589512836123e-08,-0.0016105645641749,0.001610567381984,-0.001744095553073,0.0017440865119079,-0.0017440875821824,0.0017440946452019,-0.0017440918360728,0.0017440903374984,-0.0017440839130797,0.0017440984314772,-0.001419490619962,0.001419473310057,-0.0014194669803365,0.0014194975095999,-0.0014975900738236,0.0014975897735859,-0.0014975789165811,0.0014976012480209,-5.7134518390105e-09,5.2677061623912e-09,-0.00088233627378772,0.00088233577799203,1.1672052529866e-08,-1.2550242635427e-08,-0.0010311258416099,0.0010311298081555,-0.0010311338909102,0.0010311217948087,-0.0010311221423553,0.0010311334871382,-0.0010311302374815,0.0010311254297671,-0.00091855602720039,0.00091855817836541,-0.00091856671530091,0.0009185474755311,0.65786894779618,128566,2924,0.0047111029920063,0.0066863652409063,0.0036731957470414,18.584387407108,-9.1324900743134e-05,-9.1324900743134e-05,-9.1324900743134e-05,3532321.0509853,0.015185810590301
20019200,0.98621586547863,0.01554284511426,0.0049573063000333,0.0064602257109396,0.0041253131032874,-0.001133787398507,0.0011337864208434,4.9050874959219e-09,-5.9008924437007e-09,5.0812528890596e-09,-6.2667941093887e-09,-0.0012752863474259,0.0012752927145088,-0.0012752899024351,0.0012752891175477,-0.001275289936736,0.0012752889408413,-0.0012752935600092,0.0012752853320881,-0.0010832474814699,0.0010832533267693,-0.0010832581100435,0.0010832427019554,-4.2026113286381e-09,7.1885728599747e-09,-1.0859092332654e-08,1.3659044745618e-08,-0.0016113082051156,0.0016113110187231,-0.0017448514027404,0.0017448423409768,-0.0017448433846075,0.0017448505230142,-0.001744847716336,0.0017448461348589,-0.0017448397469082,0.0017448542767858,-0.0014201832981849,0.0014201658129508,-0.0014201595214952,0.001420190154212,-0.0014983014124132,0.001498301251453,-0.0014982903492797,0.0014983126277587,-5.791596187576e-09,5.3262385839993e-09,-0.00088273223903171,0.00088273172321016,1.1771680292865e-08,-1.2672611522564e-08,-0.0010316489629854,0.0010316529376521,-0.0010316570853097,0.0010316448513169,-0.0010316452178559,0.0010316566627185,-0.0010316533868518,0.0010316485313565,-0.00091898663967051,0.00091898883056522,-0.00091899745988928,0.00091897799509377,0.68048383910389,128566,2924,0.0047130659977903,0.0066894383569186,0.0036748463256284,18.671591523471,-9.0627267812232e-05,-9.0627267812232e-05,-9.0627267812232e-05,3532475.9253623,0.015192600216737
20219200,0.98654557814778,0.015547917361764,0.0049589188739399,0.0064623494735482,0.004126649014276,-0.0011340332167277,0.0011340322466368,4.9783855254785e-09,-5.9666733420116e-09,5.0501415631878e-09,-6.227556515835e-09,-0.0012756395742496,0.00127564597273,-0.001275643176356,0.0012756423286203,-0.0012756431413268,0.0012756422215463,-0.0012756468101727,0.0012756385672587,-0.0010835770986996,0.0010835831088558,-0.0010835878618594,0.00108357235079,-4.1769183318945e-09,7.1602343679315e-09,-1.0954762546642e-08,1.3752375089499e-08,-0.0016118367598061,0.0016118395710598,-0.0017453727309287,0.0017453636227269,-0.0017453646519778,0.0017453718679473,-0.0017453690628907,0.0017453673977896,-0.0017453610309283,0.0017453756044385,-0.0014206795509311,0.0014206618567995,-0.0014206555880134,0.0014206863890621,-0.0014987962836973,0.001498796233624,-0.0014987852708903,0.0014988075587716,-5.8544563540554e-09,5.3788273809072e-09,-0.00088290383958387,0.00088290331320372,1.1829268428352e-08,-1.2741969500359e-08,-0.0010319755196347,0.0010319794887105,-0.001031983685152,0.0010319713593355,-0.0010319717368533,0.0010319832515804,-0.0010319799474555,0.0010319750787215,-0.00091920052533477,0.00091920277871929,-0.00091921146074157,0.00091919182815759,0.69908659770312,128566,2924,0.0047140860151181,0.0066916204158261,0.0036755664646514,18.638390518187,-9.0892875854501e-05,-9.0892875854501e-05,-9.0892875854501e-05,3527771.6930194,0.015196583999489
20419200,0.98686675813987,0.015552865224391,0.0049604917649021,0.0064644213474374,0.0041279521120515,-0.0011342582208947,0.0011342572528206,5.0250845637207e-09,-6.0113906073828e-09,5.040854150456e-09,-6.2158836420803e-09,-0.0012759915488963,0.0012759979708024,-0.0012759951792083,0.0012759942978362,-0.0012759951072106,0.0012759942285829,-0.0012759988081854,0.0012759905417076,-0.0010839024393578,0.0010839085535138,-0.0010839132967516,0.0010838976990643,-4.1576244674264e-09,7.1389501516203e-09,-1.0980781004913e-08,1.3776629044792e-08,-0.0016123723789645,0.0016123751884665,-0.0017458865392541,0.0017458774247535,-0.0017458784423285,0.0017458856883201,-0.0017458828823948,0.0017458811879408,-0.0017458748364254,0.0017458894092232,-0.0014211922110967,0.0014211744581786,-0.0014211682055925,0.0014211990345543,-0.0014992949455445,0.0014992949552415,-0.0014992839776431,0.0014993062341142,-5.9428753045072e-09,5.4535709820663e-09,-0.0008830506966755,0.00088305015641375,1.1901059489243e-08,-1.2829357188063e-08,-0.0010323093206426,0.0010323132728241,-0.0010323175371728,0.0010323050927243,-0.0010323054815519,0.0010323170919752,-0.0010323137469285,0.0010323088645066,-0.00091939837750928,0.00091940071849156,-0.00091940946708728,0.00091938961383338,0.69998400990413,128566,2924,0.0047150199204543,0.0066938305870115,0.0036761853359732,18.602150496317,-9.1182796029465e-05,-9.1182796029465e-05,-9.1182796029465e-05,3520885.8463786,0.015200406719947
20619200,0.98717963736453,0.015557167034374,0.004961852156719,0.0064662570273495,0.0041290578503054,-0.0011344438441593,0.0011344428791144,5.1141697055231e-09,-6.0974375928762e-09,5.0285233167041e-09,-6.2002342623346e-09,-0.0012763096351519,0.0012763161120399,-0.0012763133268818,0.0012763123780487,-0.0012763131869828,0.00127631237621,-0.0012763169437625,0.0012763086336525,-0.0010841773871809,0.0010841836771019,-0.0010841884085848,0.0010841726601661,-4.1592769912959e-09,7.1403696816664e-09,-1.1054313384844e-08,1.3849889734317e-08,-0.0016128695170156,0.0016128723262287,-0.0017463659956422,0.001746356833178,-0.0017463578531667,0.0017463651440547,-0.0017463623406313,0.0017463605947396,-0.0017463542434049,0.0017463688688831,-0.0014216653433539,0.0014216474384476,-0.0014216411862229,0.0014216721691958,-0.0014997452769248,0.0014997453250786,-0.0014997342981257,0.0014997566150208,-5.9812913396535e-09,5.4944023390264e-09,-0.00088316195461005,0.00088316141664631,1.1895881390224e-08,-1.2821909320253e-08,-0.0010326099323125,0.0010326138590918,-0.0010326181473916,0.0010326056801899,-0.0010326060696145,0.0010326177020532,-0.0010326143280727,0.0010326094812408,-0.00091954801981102,0.00091955045338136,-0.00091955919481888,0.00091953926331289,0.63099124909872,128566,2924,0.0047157904030922,0.0066958815491611,0.0036766562063031,18.565795166926,-9.1473638664591e-05,-9.1473638664591e-05,-9.1473638664591e-05,3514834.7836944,0.015203751717543
20819200,0.98746986318289,0.015561476434149,0.0049632197267875,0.0064680712209397,0.0041301854864219,-0.0011331764240117,0.0011331754683795,5.1979645169579e-09,-6.1722021361801e-09,4.9905513626992e-09,-6.1516707803862e-09,-0.0012750388428684,0.0012750453552746,-0.001275042588957,0.0012750415662797,-0.001275042368296,0.0012750416452777,-0.0012750461759167,0.0012750378533633,-0.0010829145136337,0.0010829209891649,-0.0010829256845252,0.0010829098237916,-4.1400176200094e-09,7.1188316213452e-09,-1.1169954962837e-08,1.3963476634668e-08,-0.0016116707424826,0.0016116735496922,-0.0017452020077045,0.001745192786043,-0.0017451937955069,0.0017452011699045,-0.0017451983686282,0.0017451965314844,-0.0017451901969913,0.0017452048828217,-0.0014204378143368,0.0014204196621288,-0.0014204134302077,0.0014204446283553,-0.0014985378397129,0.0014985379933948,-0.0014985268913945,0.0014985492480347,-6.0309123050262e-09,5.5406083366809e-09,-0.00088192183834669,0.00088192129640023,1.1920257484581e-08,-1.2851122645039e-08,-0.0010313372934689,0.0010313412050582,-0.0010313455295094,0.0010313330054767,-0.0010313334010114,0.0010313450781381,-0.0010313416758162,0.0010313368412745,-0.00091826213146879,0.00091826464350721,-0.00091827340587796,0.00091825335161144,0.67642718187984,128566,2924,0.0047105344600381,0.006690921259271,0.0036715056720794,17.742635743747,-9.8058914050022e-05,-9.8058914050022e-05,-9.8058914050022e-05,3508269.1794779,0.015188149889591
21019200,0.98773782415819,0.015565323811142,0.0049644388810538,0.006469699057389,0.0041311858726994,-0.0011317232019947,0.0011317222410809,5.2078763241333e-09,-6.1873579005477e-09,5.0106707330258e-09,-6.1774554989749e-09,-0.0012736234642752,0.0012736299872857,-0.0012736272103473,0.0012736261964821,-0.0012736269969039,0.0012736262700449,-0.0012736308193556,0.0012736224602589,-0.0010814985631837,0.0010815050654147,-0.0010815097771796,0.0010814938487043,-4.1050168393181e-09,7.0804145753126e-09,-1.1070874806609e-08,1.3861246254912e-08,-0.0016103216898155,0.0016103244937431,-0.001743847891431,0.0017438387480648,-0.0017438397351412,0.0017438470718475,-0.0017438442682944,0.0017438424766384,-0.0017438361688002,0.0017438507531576,-0.0014190975866966,0.0014190796284986,-0.001419073421507,0.0014191043705388,-0.0014971681652344,0.0014971683446955,-0.0014971573124236,0.0014971795039139,-6.1595376731408e-09,5.641478505064e-09,-0.00088049083576912,0.00088049026623075,1.2053071401178e-08,-1.3014760338009e-08,-0.0010299510482821,0.0010299549462441,-0.0010299593735085,0.0010299466573999,-0.0010299470722269,0.001029958903463,-0.0010299554512474,0.0010299505613743,-0.00091680003618899,0.00091680262645095,-0.00091681151379991,0.00091679113268753,0.65601665606676,128566,2924,0.0047045088050669,0.0066853368185856,0.00366556506098,16.832024743628,-0.00010534380205097,-0.00010534380205097,-0.00010534380205097,3493885.1189081,0.015170332951027
21219200,0.98798539836072,0.015568902249551,0.0049655733959036,0.0064712097862647,0.0041321190673828,-0.0011302532947486,0.0011302523242961,5.1907138901489e-09,-6.179604205209e-09,5.0468298741719e-09,-6.2239646653871e-09,-0.0012721554188445,0.0012721619384112,-0.0012721591438183,0.0012721581682416,-0.0012721589653354,0.0012721582082714,-0.0012721627921451,0.0012721543906882,-0.0010800412520106,0.0010800477330591,-0.0010800524780938,0.0010800364995556,-4.0827985505421e-09,7.0552238062262e-09,-1.091928504769e-08,1.3706846517895e-08,-0.0016088956729467,0.0016088984741441,-0.0017424313080328,0.001742422261288,-0.0017424232341822,0.0017424304984264,-0.0017424276856043,0.0017424259876531,-0.0017424196956084,0.0017424341510557,-0.0014176738489922,0.0014176562125113,-0.0014176500188722,0.0014176806108991,-0.0014957312692871,0.0014957314324022,-0.0014957205053901,0.0014957425051993,-6.3113522790882e-09,5.7689589461208e-09,-0.00087906086279253,0.0008790602690543,1.2172498833928e-08,-1.3160966626958e-08,-0.0010285087240252,0.0010285125794255,-0.0010285171223141,0.001028504216981,-0.0010285046418036,0.0010285166418015,-0.0010285131209921,0.0010285081992357,-0.00091532608878485,0.00091532880184388,-0.00091533780126607,0.00091531707581719,0.65967102620299,128566,2924,0.004698413587144,0.0066794356442253,0.0036596262885209,15.919053288017,-0.00011264757369586,-0.00011264757369586,-0.00011264757369586,3482616.3779471,0.015152125014505
21419200,0.98821761890073,0.015572282675088,0.0049666456628697,0.0064726339499178,0.0041330030623007,-0.0011291914993894,0.001129190531618,5.3621755050573e-09,-6.3481316367469e-09,5.0363099188545e-09,-6.2111759390151e-09,-0.0012711029611183,0.0012711096080739,-0.0012711068190724,0.0012711057078895,-0.0012711065197535,0.0012711058658467,-0.0012711104420158,0.0012711019569831,-0.0010789959615076,0.0010790027295846,-0.001079007470907,0.0010789912278942,-4.1638626462073e-09,7.144409950886e-09,-1.105529320397e-08,1.3850292291078e-08,-0.0016078924073255,0.0016078952159272,-0.0017414337282804,0.0017414245618644,-0.0017414255852914,0.0017414328728191,-0.0017414300706204,0.0017414283259932,-0.001741421972495,0.0017414366013433,-0.0014166702956264,0.0014166523891192,-0.0014166461347995,0.0014166771236409,-0.0014947164785612,0.0014947165172571,-0.0014947054911437,0.0014947278177522,-6.2417662496528e-09,5.7527562461371e-09,-0.0008780234002547,0.00087802286017351,1.191983678061e-08,-1.284856467526e-08,-0.0010274756240906,0.0010274793944306,-0.0010274838572694,0.001027471197637,-0.0010274715891751,0.0010274834098972,-0.0010274798651144,0.0010274751713743,-0.00091425951605174,0.00091426243997135,-0.00091427119977272,0.00091425074169992,0.6637345466319,128566,2924,0.0046940107760728,0.0066752835286895,0.0036553183045911,15.230517619453,-0.00011815585904438,-0.00011815585904438,-0.00011815585904438,3473792.9068871,0.015139066777711
21619200,0.98843591259251,0.015575489956081,0.0049676635412517,0.0064739823041054,0.0041338441107239,-0.0011281662515072,0.0011281652765922,5.4335752728122e-09,-6.4266012524432e-09,5.0646584269539e-09,-6.2473250963302e-09,-0.0012700917348056,0.0012700984482,-0.0012700956449166,0.0012700944959817,-0.0012700953169976,0.0012700946817588,-0.0012700992867825,0.0012700907265946,-0.0010779900722982,0.0010779969513626,-0.0010780017210528,0.0010779853087058,-4.1993498497446e-09,7.1830407019196e-09,-1.0987690042847e-08,1.3785446477308e-08,-0.0016069236800344,0.0016069264914984,-0.001740467463577,0.0017404583237955,-0.0017404593678377,0.0017404665864477,-0.0017404637845709,0.0017404621101631,-0.0017404557289018,0.0017404703415557,-0.0014157048178242,0.0014156870634319,-0.001415680780157,0.0014157116714822,-0.0014937360369085,0.0014937359531846,-0.0014937249685047,0.0014937473340915,-6.2857607755694e-09,5.8132991264388e-09,-0.00087702269290609,0.00087702216957238,1.1837812191287e-08,-1.2747853037917e-08,-0.0010264875760997,0.0010264912688139,-0.0010264957509922,0.0010264831301875,-0.00102648350788,0.0010264953172552,-0.0010264917206552,0.0010264871421256,-0.00091323198073922,0.0009132350914336,-0.00091324377522343,0.0009132232819475,0.66920856059161,128566,2924,0.0046897595442687,0.0066712741369994,0.003651163082782,14.566177952502,-0.00012347057637998,-0.00012347057637998,-0.00012347057637998,3464842.2077684,0.015126462749117
21819200,0.98864124200361,0.015578461591282,0.0049686061213895,0.0064752339310509,0.0041346215388412,-0.0011271290645818,0.0011271280816425,5.4525538106871e-09,-6.4535687275808e-09,5.09648278953e-09,-6.2879618777868e-09,-0.0012690733419823,0.0012690800771897,-0.0012690772578036,0.0012690761192006,-0.0012690769382858,0.0012690762968101,-0.0012690809330504,0.0012690723158095,-0.0010769750217322,0.0010769819433679,-0.0010769867432338,0.0010769702244686,-4.2168818997996e-09,7.2022937412818e-09,-1.0871416652625e-08,1.3670682938079e-08,-0.0016059413148062,0.0016059441277561,-0.0017394828923432,0.0017394738078936,-0.001739474861164,0.0017394820029111,-0.0017394791913657,0.0017394776163784,-0.0017394712202259,0.0017394857606057,-0.0014147309473965,0.0014147134630713,-0.0014147071639284,0.0014147378123342,-0.0014927406217218,0.0014927404556627,-0.0014927295476679,0.001492751844704,-6.3882105537732e-09,5.9195127496579e-09,-0.00087601164454675,0.00087601112514905,1.1814163903167e-08,-1.2719475958351e-08,-0.0010254976666683,0.0010255012660969,-0.001025505813922,0.0010254931549997,-0.0010254935191682,0.001025505393593,-0.0010255017240474,0.0010254972263401,-0.0009121948663275,0.00091219817260129,-0.00091220683600851,0.0009121861883513,0.65988855570443,128566,2924,0.0046854588555818,0.0066672080693926,0.0036469651154399,13.902493542898,-0.00012878005165682,-0.00012878005165682,-0.00012878005165682,3455282.7138484,0.01511370796324
22019200,0.98884624446586,0.015581380059891,0.0049695313452741,0.0064764654246056,0.0041353832900113,-0.0011277877783153,0.0011277867796867,5.5093585106109e-09,-6.5254408644211e-09,5.1593330673354e-09,-6.3686907590454e-09,-0.0012697720404839,0.0012697788515204,-0.0012697760005699,0.0012697748503337,-0.0012697756852988,0.0012697750234307,-0.0012697797217367,0.0012697709996461,-0.001077662010642,0.0010776689938809,-0.0010776738553913,0.0010776571522098,-4.2679132737085e-09,7.2583110499915e-09,-1.0706589524216e-08,1.3510391130354e-08,-0.0016067415007382,0.0016067443181728,-0.0017402910099074,0.0017402820017875,-0.001740283084017,0.0017402900871266,-0.0017402872749015,0.0017402858454294,-0.0017402794073596,0.0017402938819413,-0.0014154987662711,0.0014154816383612,-0.001415475293652,0.001415505665411,-0.0014935213066029,0.0014935209293493,-0.0014935101280477,0.0014935324292819,-6.4425825726296e-09,5.9913589543061e-09,-0.00087662374847146,0.00087662324745916,1.1717200626093e-08,-1.260107090605e-08,-0.001026168688673,0.0010261721932658,-0.0010261767651702,0.0010261641529045,-0.0010261644999594,0.0010261763615184,-0.0010261726325644,0.0010261682666336,-0.00091283250556708,0.00091283602630367,-0.00091284460229488,0.00091282391792306,0.64982379476594,128566,2924,0.0046881906081638,0.0066705177418716,0.0036495098263278,14.153371831332,-0.00012677302534934,-0.00012677302534934,-0.00012677302534934,3459127.1174832,0.01512242440682
22219200,0.98905211187042,0.015584286689424,0.0049704523800293,0.0064776937404552,0.0041361405689393,-0.0011286276134278,0.001128626613335,5.5899749160189e-09,-6.6077913879705e-09,5.1670353950622e-09,-6.3773328977399e-09,-0.0012706542573529,0.0012706611305172,-0.0012706582759096,0.0012706570716831,-0.0012706579114531,0.0012706572929136,-0.0012706619989148,0.0012706532194432,-0.0010785212374353,0.0010785283609714,-0.0010785332319439,0.001078516373463,-4.2986835956375e-09,7.2921435701959e-09,-1.0679915564734e-08,1.3486388802609e-08,-0.001607725503924,0.0016077283241417,-0.0017412974309068,0.0017412884246905,-0.0017412895254806,0.0017412964898536,-0.0017412936788093,0.0017412922860923,-0.0017412858238018,0.001741300309997,-0.0014164374245163,0.001416420358414,-0.0014164139904312,0.0014164443487031,-0.0014944823177859,0.0014944818519465,-0.0014944710628228,0.0014944934257992,-6.478237872539e-09,6.0474000865348e-09,-0.00087740863372701,0.00087740815293009,1.161645854993e-08,-1.247826121818e-08,-0.0010270098901341,0.0010270133136979,-0.0010270178966916,0.0010270053432834,-0.001027005674597,0.0010270175088202,-0.0010270137296418,0.001027009491656,-0.00091363988850783,0.00091364360470563,-0.00091365208534372,0.00091363139432645,0.64497435931626,128566,2924,0.0046916733207429,0.0066745884034828,0.0036527716867145,14.499759995429,-0.00012400192003657,-0.00012400192003657,-0.00012400192003657,3465834.2717472,0.015133403706289
22419200,0.98925878287015,0.015587335567098,0.0049714202737822,0.0064789732803438,0.0041369420129719,-0.0011294800884164,0.0011294790899869,5.6538923082412e-09,-6.670090866028e-09,5.1611250044367e-09,-6.369618168302e-09,-0.0012715440729557,0.0012715509850346,-0.001271548133246,0.0012715468843114,-0.0012715477222018,0.0012715471520591,-0.0012715518519963,0.0012715430364821,-0.0010793908805123,0.0010793981344757,-0.0010794029992121,0.0010793860219507,-4.29142165872e-09,7.2842046455482e-09,-1.066479574334e-08,1.3470643810372e-08,-0.0016087163712382,0.0016087191908369,-0.001742315823811,0.0017423068325112,-0.0017423079285531,0.0017423148870188,-0.0017423120765044,0.0017423106889376,-0.0017423042322379,0.0017423187016895,-0.001417377502096,0.0014173604618331,-0.0014173540990282,0.0014173844200929,-0.0014954522164746,0.0014954517553493,-0.0014954409768123,0.0014954633133706,-6.5415506225195e-09,6.1126127049108e-09,-0.00087820468923475,0.00087820421038117,1.1603521078867e-08,-1.2463059620638e-08,-0.0010278537552715,0.0010278571280734,-0.0010278617521579,0.0010278491672865,-0.0010278494965911,0.0010278613663726,-0.0010278575423778,0.0010278533584007,-0.00091445984827756,0.00091446370102145,-0.00091447217036534,0.00091445136504346,0.67139354613803,128566,2924,0.0046952084080801,0.0066786876816353,0.0036560796629628,14.848744144071,-0.00012121004684743,-0.00012121004684743,-0.00012121004684743,3472842.9560604,0.01514451201574
22619200,0.98946601530157,0.015590428622739,0.0049724025324959,0.0064802696781408,0.0041377564121026,-0.0011303099044069,0.0011303089121161,5.7239410339275e-09,-6.7341261587324e-09,5.1379483898083e-09,-6.3396054316999e-09,-0.0012724486937163,0.0012724556397798,-0.0012724527995175,0.0012724514933368,-0.001272452326286,0.0012724518234107,-0.0012724564998659,0.0012724476641764,-0.0010802659997347,0.0010802734056549,-0.0010802782468706,0.0010802611644672,-4.2684938547957e-09,7.2590288050646e-09,-1.0699561115399e-08,1.3503383644016e-08,-0.0016097366626046,0.0016097394801705,-0.0017433427077044,0.0017433337090055,-0.0017433347915967,0.0017433417851876,-0.0017433389769793,0.0017433375483412,-0.0017433311099182,0.0017433455846508,-0.0014183601547332,0.001418343027474,-0.0014183366834718,0.0014183670557814,-0.0014964429141224,0.0014964425180103,-0.0014964317182029,0.0014964540304498,-6.6043095780743e-09,6.1705586546807e-09,-0.00087896509236684,0.00087896460856411,1.1624383230542e-08,-1.2489517460136e-08,-0.0010287234048214,0.0010287267492484,-0.0010287314183662,0.0010287187718028,-0.0010287191069071,0.0010287310269067,-0.0010287271674239,0.0010287230041487,-0.00091526084342161,0.00091526479661434,-0.00091527328619384,0.00091525233949375,0.67880268363152,128566,2924,0.0046986499574555,0.0066829067214483,0.0036592422506786,15.186922590971,-0.00011850461927223,-0.00011850461927223,-0.00011850461927223,3475562.4554626,0.01515550069583
22819200,0.98967079888742,0.015593475452953,0.004973369856683,0.0064815479365809,0.0041385576596894,-0.0011307198576217,0.0011307188760229,5.7942203738151e-09,-6.7938914867287e-09,5.0956687499829e-09,-6.2855993983706e-09,-0.0012729356379631,0.0012729426061971,-0.0012729397870857,0.0012729384159804,-0.0012729392388832,0.0012729388214157,-0.0012729434556711,0.0012729346191126,-0.0010807259194485,0.0010807334944528,-0.0010807382933689,0.0010807211261455,-4.2264137096682e-09,7.2128334555949e-09,-1.0792897185752e-08,1.3593040331537e-08,-0.0016103284492483,0.0016103312631168,-0.0017439352469031,0.0017439262136554,-0.0017439272717696,0.0017439343509764,-0.0017439315450866,0.0017439300232009,-0.0017439236185852,0.0017439381210192,-0.0014189246115068,0.0014189072711911,-0.0014189009624737,0.0014189314820505,-0.0014970052853856,0.0014970050325454,-0.0014969941747417,0.0014970164574448,-6.6735678554028e-09,6.2260743216536e-09,-0.00087932121623031,0.00087932071837867,1.1693603116275e-08,-1.2574530575736e-08,-0.0010291898992934,0.0010291932398105,-0.0010291979641992,0.001029185211062,-0.0010291855601016,0.0010291975589787,-0.0010291936714985,0.0010291894852971,-0.00091564845139668,0.00091565246280479,-0.00091566101660737,0.00091563988256552,0.67691803519986,128566,2924,0.0047003504702576,0.0066853522810437,0.0036607261159044,15.303484651154,-0.00011757212279077,-0.00011757212279077,-0.00011757212279077,3474423.8431998,0.015161217554843
23019200,0.98987306137147,0.015596269407757,0.0049742538874292,0.0064827345963823,0.0041392809239451,-0.0011311031720958,0.0011311021978237,5.8585538344574e-09,-6.8509826278689e-09,5.0659281964886e-09,-6.2478408942788e-09,-0.0012733927135027,0.0012733997063793,-0.0012733969021529,0.0012733954759207,-0.0012733962914553,0.0012733959445537,-0.0012734005491583,0.0012733917009773,-0.0010811532572343,0.0010811609824247,-0.0010811657512298,0.0010811484926837,-4.1875344036984e-09,7.1700889122937e-09,-1.0863899035989e-08,1.3660577561144e-08,-0.0016108893343112,0.0016108921446865,-0.0017444997005197,0.0017444906445072,-0.0017444916798937,0.0017444988287575,-0.0017444960245825,0.0017444944273062,-0.0017444880537657,0.0017445025708263,-0.001419455970185,0.0014194384652406,-0.001419432188468,0.0014194628117177,-0.0014975346204872,0.0014975344921324,-0.0014975235912709,0.0014975458338415,-6.7490177417823e-09,6.2840248902989e-09,-0.00087965260965972,0.00087965209408093,1.1781336060212e-08,-1.2682082254977e-08,-0.0010296248604221,0.0010296282033526,-0.0010296329894104,0.0010296201105716,-0.0010296204762148,0.0010296325676312,-0.0010296286528413,0.0010296244286547,-0.00091600550696662,0.00091600956507134,-0.00091601820100713,0.00091599685604199,0.63260003597858,128566,2924,0.0047019404184212,0.0066876701430377,0.0036621069785302,15.414710799636,-0.00011668231360291,-0.00011668231360291,-0.00011668231360291,3473736.7756566,0.015166587871853
23219200,0.99007280063647,0.015599156151574,0.004975169202291,0.0064839509871185,0.0041400359621645,-0.0011314966297432,0.0011314956625154,5.928592758627e-09,-6.9139925318334e-09,5.0385842064207e-09,-6.2125381619883e-09,-0.0012737954573514,0.001273802481165,-0.001273799690768,0.0012737982056641,-0.0012737990152366,0.0012737987394768,-0.0012738033166552,0.0012737944520872,-0.0010815453000455,0.0010815531815118,-0.0010815579227253,0.0010815405634014,-4.1627508707007e-09,7.1426424453527e-09,-1.0950890081825e-08,1.3745192150109e-08,-0.0016113733882496,0.001611376196236,-0.0017450236291518,0.0017450145317219,-0.0017450155532577,0.0017450227732031,-0.0017450199707059,0.0017450182964461,-0.0017450119433839,0.0017450264983929,-0.0014198850458175,0.0014198673505265,-0.0014198610957488,0.0014198918700721,-0.0014980038046038,0.0014980037804831,-0.0014979928239594,0.0014980150713386,-6.8151751723082e-09,6.3396496623785e-09,-0.00088001251506236,0.00088001198866341,1.1836670520576e-08,-1.2749722378009e-08,-0.0010299835808469,0.0010299869141941,-0.0010299917512698,0.0010299787800228,-0.0010299791567223,0.0010299913185832,-0.0010299873736207,0.0010299831393202,-0.00091636786656432,0.00091637199433451,-0.00091638068150432,0.00091635916464089,0.65900010592436,128566,2924,0.0047035717484541,0.0066896733395528,0.0036636019322273,15.525736306312,-0.0001157941095495,-0.0001157941095495,-0.0001157941095495,3479327.0202149,0.01517179455792
23419200,0.99027086716643,0.015601987313453,0.0049760663524935,0.0064851463424308,0.0041407746185288,-0.0011320133076968,0.0011320123442749,6.000874291075e-09,-6.9824003845779e-09,5.0235867535624e-09,-6.1938358508605e-09,-0.0012743607897629,0.0012743678535848,-0.0012743650703153,0.0012743635312832,-0.0012743643381343,0.001274364123286,-0.0012743686843023,0.0012743597885084,-0.0010820850884584,0.0010820931200408,-0.0010820978456544,0.0010820803657166,-4.16754241344e-09,7.1484256001519e-09,-1.1018198536539e-08,1.3813581489509e-08,-0.0016120343890193,0.0016120371977971,-0.0017457039547597,0.0017456948112237,-0.00174569583542,0.0017457030957082,-0.0017457002940068,0.0017456985793571,-0.00174569222268,0.0017457068253145,-0.0014205042473906,0.0014204864209682,-0.0014204801638709,0.0014205110763928,-0.001498638843512,0.001498638851404,-0.0014986278508068,0.0014986501551912,-6.8734448838887e-09,6.3957043701796e-09,-0.00088047660275937,0.00088047607451624,1.1842525378802e-08,-1.2757897255961e-08,-0.001030512838882,0.0010305161385855,-0.0010305210156571,0.0010305079986372,-0.0010305083775293,0.0010305205814811,-0.0010305165996811,0.0010305123971352,-0.0009168527756416,0.00091685701168151,-0.0009168657031899,0.00091684406746867,0.65256369017499,128566,2924,0.0047057145347469,0.0066924068594368,0.0036655321020373,15.704385109779,-0.00011436491912177,-0.00011436491912177,-0.00011436491912177,3481613.810165,0.015178705074339
23619200,0.99047144814407,0.015604922599633,0.0049769974484421,0.0064863809352327,0.0041415442159581,-0.0011331578917242,0.0011331569220773,6.0672721294865e-09,-7.0544928743203e-09,5.0459122073292e-09,-6.2238606055072e-09,-0.0012755594800772,0.0012755666031585,-0.0012755638089094,0.0012755622329154,-0.0012755630470888,0.001275562853763,-0.0012755674385342,0.0012755584752372,-0.0010832550655759,0.0010832632062757,-0.0010832679551115,0.0010832503215991,-4.1944762958637e-09,7.1775049563269e-09,-1.1008334270709e-08,1.3805731308209e-08,-0.0016133551856517,0.0016133579965009,-0.0017470502336441,0.0017470410825894,-0.0017470421230228,0.0017470493589761,-0.0017470465563472,0.0017470448676027,-0.001747038489865,0.0017470531086995,-0.0014217645519103,0.0014217467593127,-0.001421740480235,0.0014217714002015,-0.0014999328031951,0.0014999327454763,-0.0014999217529771,0.0014999441122563,-6.9279854023934e-09,6.4577952312067e-09,-0.0008815416262622,0.00088154110584093,1.1809152815282e-08,-1.2714700628976e-08,-0.0010316522066856,0.0010316554511325,-0.0010316603597088,0.0010316473347926,-0.0010316477077275,0.001031659930517,-0.001031655902844,0.0010316517737772,-0.00091795916537354,0.00091796355145498,-0.00091797221290365,0.00091795048941137,0.66669034645909,128566,2924,0.0047104609531221,0.0066978704322521,0.0036699585605946,16.218882129918,-0.00011024894296065,-0.00011024894296065,-0.00011024894296065,3489058.1137504,0.015193564669474
23819200,0.99067451339223,0.015608059821156,0.0049779947316914,0.0064876901188198,0.0041423749706443,-0.001134324665519,0.001134323690382,6.1355363554951e-09,-7.1285598312773e-09,5.0683768521306e-09,-6.2516457947476e-09,-0.001276803979021,0.0012768111633349,-0.0012768083576452,0.0012768067426674,-0.0012768075641517,0.0012768073937398,-0.0012768120014321,0.0012768029712701,-0.0010844666080674,0.0010844748579564,-0.0010844796298222,0.0010844618412005,-4.2181084259183e-09,7.2027128305378e-09,-1.0982709101952e-08,1.3781226750924e-08,-0.0016147342993831,0.0016147371115411,-0.0017484441937041,0.001748435046839,-0.0017484361022973,0.0017484433041945,-0.0017484405029979,0.0017484388453903,-0.0017484324506486,0.0017484470727706,-0.0014230876535418,0.0014230699209134,-0.0014230636236008,0.0014230945196868,-0.0015012819489786,0.0015012818228336,-0.0015012708427403,0.0015012932445363,-6.9807170759844e-09,6.5178544200059e-09,-0.00088261870499825,0.00088261819156774,1.1775590883929e-08,-1.2674069430891e-08,-0.0010328411815796,0.0010328443726971,-0.0010328493117111,0.0010328362786375,-0.0010328366476444,0.0010328488869181,-0.0010328448145913,0.001032840757638,-0.00091908987568699,0.00091909441242461,-0.00091910304127328,0.00091908123149066,0.70079155119987,128566,2924,0.0047152995835432,0.0067035740578351,0.0036744368074539,16.741482199035,-0.00010606814240772,-0.00010606814240772,-0.00010606814240772,3494389.3767133,0.01520881508222
24019200,0.99087992237691,0.015611270939288,0.0049790157720378,0.0064890289691435,0.0041432261981069,-0.0011354837209326,0.0011354827403055,6.1921650812874e-09,-7.1907192445026e-09,5.0906312560716e-09,-6.2797524023453e-09,-0.0012780890357535,0.0012780962700994,-0.0012780934531115,0.0012780918104231,-0.0012780926365522,0.0012780924846034,-0.001278097114426,0.0012780880218889,-0.001085709660767,0.0010857180074645,-0.0010857228013202,0.0010857048715463,-4.231821169474e-09,7.2179611931813e-09,-1.0930379496939e-08,1.3730241300141e-08,-0.0016161795015306,0.0016161823150608,-0.0017498766384006,0.0017498675163139,-0.0017498685795978,0.0017498757401995,-0.0017498729373187,0.0017498713255004,-0.0017498649192597,0.0017498795175496,-0.0014244924980432,0.0014244748807406,-0.0014244685717769,0.0014244993745161,-0.0015026882121428,0.0015026880269925,-0.0015026770795118,0.001502699474626,-7.0480381349237e-09,6.5869827965188e-09,-0.0008836720346171,0.00088367152295695,1.17667203428e-08,-1.266317306955e-08,-0.0010340840692521,0.0010340872087845,-0.0010340921915962,0.0010340791226263,-0.0010340794890701,0.001034091769023,-0.0010340876497898,0.0010340836461796,-0.00092021840982977,0.00092022308684275,-0.00092023170707423,0.00092020977430541,0.70866200835416,128566,2924,0.0047201066407623,0.00670954849678,0.0036788199783362,17.264387069112,-0.0001018849034471,-0.0001018849034471,-0.0001018849034471,3494972.6281975,0.015224213547199
24219200,0.99108629197186,0.01561435505739,0.004979994347956,0.0064903248531267,0.0041440358563072,-0.0011364481120109,0.0011364471245332,6.2255646814599e-09,-7.2311403938536e-09,5.1181189806107e-09,-6.3137542447888e-09,-0.0012791889203821,0.0012791961832783,-0.0012791933532163,0.0012791917087636,-0.0012791925335714,0.0012791923879721,-0.0012791970435325,0.0012791878898643,-0.0010867651427508,0.0010867735614491,-0.0010867783788936,0.0010867603207606,-4.2106816781533e-09,7.1939693939967e-09,-1.082102640413e-08,1.3618340954208e-08,-0.0016174448515735,0.0016174476628667,-0.0017511244909142,0.001751115446179,-0.0017511164940771,0.0017511236045384,-0.0017511207949532,0.001751119249272,-0.0017511128578483,0.0017511273576249,-0.0014257212956683,0.0014257039047879,-0.0014256976106727,0.0014257281511113,-0.0015039123235729,0.0015039121302738,-0.0015039012584638,0.0015039235028833,-7.1470190164933e-09,6.66938173366e-09,-0.00088453591206822,0.00088453538396383,1.1839019748691e-08,-1.2754449898255e-08,-0.0010351482911691,0.0010351513998303,-0.0010351564593869,0.0010351432687197,-0.0010351436410359,0.0010351560301873,-0.0010351518660307,0.0010351478435175,-0.00092115363751642,0.00092115839249278,-0.00092116708394575,0.00092114493058121,0.68010063578603,128566,2924,0.0047241064345169,0.0067147781013543,0.0036824170284942,17.692266406272,-9.846186874982e-05,-9.846186874982e-05,-9.846186874982e-05,3493883.3568372,0.015237238527105
24419200,0.99129046205352,0.015617403025824,0.0049809612790286,0.0064916060373103,0.004144835709485,-0.0011369729296195,0.0011369719493688,6.2856247767001e-09,-7.2841664349727e-09,5.0913522812194e-09,-6.2788801581682e-09,-0.0012797981312696,0.0012798054146296,-0.0012798025982333,0.0012798009065645,-0.0012798017199486,0.0012798016440482,-0.0012798062716318,0.001279797102955,-0.0010873466761014,0.0010873552448055,-0.0010873600348905,0.0010873418832678,-4.2077646633249e-09,7.1911231054783e-09,-1.087463651279e-08,1.3671922975903e-08,-0.0016181900919166,0.0016181929028793,-0.0017518762803835,0.0017518671923905,-0.0017518682409481,0.0017518753943354,-0.0017518725816433,0.0017518709983265,-0.0017518646096542,0.0017518791423105,-0.0014264208548592,0.0014264033667513,-0.0014263970757704,0.0014264277109589,-0.0015046289021008,0.0015046287667357,-0.0015046178565635,0.0015046401214002,-7.2159219052192e-09,6.7423540426239e-09,-0.00088499292494341,0.00088499240087338,1.181850782961e-08,-1.2729757761854e-08,-0.0010357202724892,0.0010357233183308,-0.0010357284207086,0.0010357152064231,-0.001035715571133,0.0010357280001605,-0.0010357237848283,0.0010357198240368,-0.00092164987825151,0.00092165477989652,-0.00092166345054515,0.00092164119156896,0.67934589873585,128566,2924,0.0047262829631539,0.0067178579786295,0.0036843209698362,17.884779102064,-9.6921767183489e-05,-9.6921767183489e-05,-9.6921767183489e-05,3494153.1991837,0.01524450946819
24619200,0.99149232255866,0.015620562473592,0.0049819654970565,0.0064929244900808,0.0041456724864543,-0.0011374946571101,0.0011374936818027,6.3629804111379e-09,-7.3564548849096e-09,5.0707602693262e-09,-6.2535576178721e-09,-0.0012803930990615,0.0012804004265961,-0.001280397620215,0.0012803958642404,-0.001280396676355,0.0012803966662993,-0.0012804012750673,0.001280392080822,-0.0010879225694533,0.0010879312918003,-0.001087936065122,0.0010879178009302,-4.2024339038818e-09,7.1854734975405e-09,-1.0921248654527e-08,1.3718303584654e-08,-0.0016189187483214,0.0016189215590637,-0.0017526122383695,0.0017526031284932,-0.0017526041743419,0.0017526113572353,-0.0017526085480939,0.0017526069260526,-0.0017526005423059,0.0017526151056188,-0.0014271046915227,0.0014270870962913,-0.0014270808107407,0.001427111544956,-0.0015053331089074,0.0015053330033951,-0.0015053220634032,0.0015053443605788,-7.265825126346e-09,6.7977359847804e-09,-0.0008854479311028,0.0008854474124089,1.1800881716517e-08,-1.2705570457286e-08,-0.0010362762404764,0.0010362792465433,-0.0010362843789589,0.0010362711444697,-0.0010362715083119,0.0010362839590588,-0.0010362797038389,0.0010362758012795,-0.00092214454408364,0.00092214957963415,-0.00092215823228617,0.00092213587631148,0.70944458530414,128566,2924,0.0047284466837497,0.0067208696417969,0.0036862159936363,18.071597555754,-9.542721955397e-05,-9.542721955397e-05,-9.542721955397e-05,3494532.68497,0.015251688897869
24819200,0.99169183728841,0.015623452772192,0.0049828808563656,0.0064941462166237,0.0041464256992025,-0.0011379958577566,0.0011379948841825,6.4358897061766e-09,-7.4275726056491e-09,5.0636840240962e-09,-6.2445343614087e-09,-0.0012810091870794,0.0012810165633228,-0.0012810137603784,0.0012810119481433,-0.0012810127633591,0.0012810128035707,-0.001281017405529,0.0012810081749615,-0.0010885025917216,0.0010885114485264,-0.0010885162146664,0.0010884978298021,-4.1884992121065e-09,7.1700047183364e-09,-1.0923146900772e-08,1.3718804345885e-08,-0.0016196815991318,0.0016196844085031,-0.0017533607203106,0.0017533516239529,-0.0017533526611589,0.001753359847712,-0.0017533570442333,0.0017533554069054,-0.0017533490343881,0.0017533635904679,-0.0014278391378474,0.0014278215164732,-0.0014278152419318,0.0014278459799059,-0.0015060584745072,0.0015060583832811,-0.0015060474438607,0.0015060697245563,-7.3228725757952e-09,6.8516654583455e-09,-0.00088587104543169,0.00088587052354501,1.1817446165161e-08,-1.272562115211e-08,-0.001036866134763,0.0010368691174799,-0.0010368742900496,0.0010368609985769,-0.0010368613701178,0.0010368738623981,-0.0010368695732047,0.0010368656970673,-0.00092261720136353,0.00092262234419175,-0.00092263101239902,0.00092260851835491,0.66112227598113,128566,2924,0.0047305257022291,0.0067240207673158,0.0036879811371777,18.25820170532,-9.393438635744e-05,-9.393438635744e-05,-9.393438635744e-05,3491174.5808962,0.01525879343729
25019200,0.99189124772886,0.015626306573567,0.0049837841252199,0.0064953545669056,0.004147167881441,-0.0011388425244054,0.001138841558554,6.513580279941e-09,-7.4974039987997e-09,5.0299955359182e-09,-6.2035497052854e-09,-0.0012819120569578,0.0012819194591509,-0.0012819166743557,0.0012819148047445,-0.0012819156034741,0.0012819157326645,-0.0012819203064952,0.0012819110516514,-0.0010893808224172,0.0010893898822333,-0.0010893946269738,0.0010893761064286,-4.2356708668096e-09,7.2240127045471e-09,-1.1059971429347e-08,1.3862779688067e-08,-0.0016207239741167,0.0016207267913254,-0.0017544295485334,0.0017544203310351,-0.0017544213949773,0.0017544286611281,-0.001754425833905,0.0017544241566024,-0.0017544177417358,0.0017544324279004,-0.0014288169448411,0.0014287991080653,-0.0014287928147666,0.0014288238399535,-0.0015070755205686,0.001507075438795,-0.0015070644061519,0.0015070868564148,-7.3557254463169e-09,6.9265278398493e-09,-0.00088664490929596,0.00088664442766882,1.1670069066518e-08,-1.2530237504904e-08,-0.0010377102493328,0.0010377131130746,-0.0010377182854975,0.0010377051168407,-0.0010377054411774,0.0010377179006432,-0.0010377135412373,0.0010377098445354,-0.00092342488617682,0.00092343026164894,-0.00092343877855179,0.00092341635410913,0.65362537502129,128566,2924,0.0047340364513514,0.0067283316598725,0.0036911990186862,18.629652889125,-9.0962776887003e-05,-9.0962776887003e-05,-9.0962776887003e-05,3497192.9438534,0.015270002005424
25219200,0.99209376631046,0.01562930640951,0.0049847349736652,0.0064966176829609,0.0041479537528838,-0.0011402048282012,0.001140203848925,6.5629831690291e-09,-7.5602675095339e-09,5.0853005502537e-09,-6.2728610732236e-09,-0.0012833293064869,0.0012833367815691,-0.0012833339666139,0.001283332077517,-0.0012833328992034,0.0012833330028615,-0.0012833376282061,0.0012833282909284,-0.001090770588392,0.0010907796721292,-0.001090784461712,0.0010907658037491,-4.2196436604885e-09,7.2042638555668e-09,-1.0882615753147e-08,1.368098136541e-08,-0.0016222951251244,0.0016222979372629,-0.0017560362501003,0.0017560271686904,-0.0017560282232611,0.0017560353598478,-0.001756032555474,0.0017560309712114,-0.0017560245747379,0.001756039125058,-0.0014303080033822,0.0014302904840368,-0.0014302841853503,0.0014303148690725,-0.0015086204901987,0.0015086203062567,-0.001508609392766,0.0015086317160895,-7.4412982025618e-09,6.9839307562103e-09,-0.00088791113791468,0.00088791062961697,1.175748466612e-08,-1.2649805972358e-08,-0.0010390471313024,0.0010390499993166,-0.0010390552425199,0.0010390419247833,-0.0010390422843514,0.0010390548263021,-0.0010390504407927,0.0010390467082985,-0.00092473721900576,0.00092474266984899,-0.00092475127928222,0.0009247285936689,0.67454673600292,128566,2924,0.0047396852460855,0.0067348307899946,0.0036964612993736,19.270475942367,-8.583619246106e-05,-8.583619246106e-05,-8.583619246106e-05,3507594.4228774,0.01528767877465
25419200,0.99229927486698,0.015632612603446,0.0049857863803051,0.0064979931309309,0.0041488330922097,-0.0011415930464458,0.0011415920598774,6.6185045632508e-09,-7.6229644253287e-09,5.1129691051179e-09,-6.3086706429129e-09,-0.0012848027762097,0.0012848103099997,-0.0012848074819023,0.0012848055618296,-0.0012848063963119,0.0012848065060382,-0.001284811157841,0.001284801758453,-0.0010922122132231,0.0010922213711987,-0.0010922261856333,0.0010922073996954,-4.215907256986e-09,7.2000914432664e-09,-1.0787173467961e-08,1.3585191809068e-08,-0.0016239365016864,0.0016239393134593,-0.0017576968098981,0.0017576877935826,-0.0017576888457244,0.0017576959197454,-0.0017576931219034,0.0017576915893054,-0.001757685193611,0.0017576996881228,-0.0014318784659182,0.001431861112124,-0.001431854813438,0.0014318853259714,-0.0015102314357282,0.0015102311789334,-0.0015102203297497,0.0015102425988183,-7.5146820017628e-09,7.0478627380577e-09,-0.00088919079702391,0.00088919027954195,1.1795253159583e-08,-1.2697574213111e-08,-0.0010404478765232,0.0010404507231151,-0.0010404560211796,0.001040442615008,-0.0010404429890333,0.0010404555901859,-0.0010404511680759,0.0010404474495542,-0.00092608109981306,0.00092608666321741,-0.00092609531171443,0.00092607243783428,0.72789189943233,128566,2924,0.0047454418579718,0.0067416188394806,0.0037017816621928,19.917840691742,-8.0657274466064e-05,-8.0657274466064e-05,-8.0657274466064e-05,3514735.2703421,0.015305818646069
25619200,0.99250755728334,0.015635984221771,0.0049868585046597,0.0064993962741539,0.0041497294429574,-0.0011429670488828,0.0011429660652099,6.6878447119807e-09,-7.6894547319264e-09,5.1037036611102e-09,-6.2959884532863e-09,-0.0012863371903946,0.0012863447594362,-0.001286341936581,0.0012863399727798,-0.0012863407982623,0.001286340968822,-0.0012863456108007,0.0012863361701009,-0.0010936993384537,0.0010937086582657,-0.001093713464118,0.001093694537431,-4.2371490488874e-09,7.2232740397011e-09,-1.0836427498755e-08,1.3636185085612e-08,-0.0016256755177841,0.0016256783313236,-0.001759411859203,0.0017594027874606,-0.0017594038537314,0.0017594109564485,-0.0017594081503139,0.0017594066046009,-0.0017594001928427,0.0017594147341144,-0.0014335728926369,0.0014335554705843,-0.00143354915704,0.0014335797712814,-0.0015119250343427,0.001511924786527,-0.0015119139003817,0.0015119362339713,-7.5676032537847e-09,7.1144514811151e-09,-0.00089043312443961,0.00089043262071081,1.1727169583843e-08,-1.2614520900383e-08,-0.0010419322179989,0.0010419349828131,-0.0010419403073056,0.001041926930165,-0.0010419272851435,0.0010419398956327,-0.0010419354201616,0.0010419317989218,-0.00092742065597316,0.00092742638326406,-0.00092743496782952,0.00092741205777084,0.73243473758719,128566,2924,0.0047511402586453,0.0067488067697598,0.0037069525354154,20.565442793371,-7.5476457653032e-05,-7.5476457653032e-05,-7.5476457653032e-05,3514602.7060837,0.015324156301045
25819200,0.99271321355513,0.015639221034778,0.0049878862610808,0.0065007502780361,0.0041505844956608,-0.0011435612757031,0.0011435602917179,6.7596068662918e-09,-7.7618420689426e-09,5.1038736143208e-09,-6.2958095342227e-09,-0.0012870836175461,0.0012870912376379,-0.0012870884141221,0.0012870863985051,-0.0012870872286232,0.0012870874433104,-0.0012870920852754,0.0012870825992905,-0.0010944053157936,0.0010944147642043,-0.0010944195698865,0.001094400510354,-4.1860360895297e-09,7.1670171630159e-09,-1.0795866289048e-08,1.3590930198588e-08,-0.0016266069895609,0.0016266097984331,-0.0017603159132758,0.0017603069069644,-0.0017603079412469,0.0017603150410043,-0.0017603122431076,0.0017603106839308,-0.0017603043120098,0.0017603187856891,-0.0014344731186181,0.0014344557310615,-0.0014344494580755,0.001434479956214,-0.0015128149848573,0.0015128147992936,-0.0015128039450623,0.0015128261474907,-7.6358133033178e-09,7.1573191553229e-09,-0.00089093137737321,0.00089093084796954,1.1847551585461e-08,-1.2763880194639e-08,-0.0010426531167575,0.0010426559130238,-0.0010426612994519,0.0010426477669867,-0.0010426481501831,0.0010426608594729,-0.0010426563718475,0.0010426526758524,-0.00092799243661198,0.00092799816673871,-0.00092800686655892,0.00092798372247315,0.71386318027914,128566,2924,0.0047536051174869,0.0067526533244401,0.0037090328863536,20.804851207431,-7.3561190340552e-05,-7.3561190340552e-05,-7.3561190340552e-05,3509298.2588567,0.015332680141119
26019200,0.99291168858548,0.015642216570299,0.0049888354942214,0.0065020119234228,0.0041513691526545,-0.0011434580591731,0.0011434570891705,6.8265937756138e-09,-7.8148594144562e-09,5.048933751001e-09,-6.2260348808493e-09,-0.0012870842551776,0.0012870918864166,-0.0012870890913008,0.0012870870096276,-0.0012870878243923,0.0012870881351524,-0.0012870927222134,0.001287083250085,-0.0010943815533874,0.0010943911800983,-0.0010943959308135,0.0010943768064883,-4.1717097980116e-09,7.151399091549e-09,-1.0945475552412e-08,1.3739462944074e-08,-0.001626752762065,0.0016267555698179,-0.0017604496703483,0.0017604405684814,-0.0017604415966059,0.0017604488080281,-0.0017604460078555,0.001760444337679,-0.0017604379778273,0.0017604525421402,-0.0014345921448248,0.0014345744552099,-0.0014345681957835,0.0014345989753137,-0.0015129295124548,0.001512929458849,-0.0015129185056192,0.001512940775015,-7.7018204162116e-09,7.226523848792e-09,-0.00089077527772204,0.00089077475141283,1.1843364590077e-08,-1.2756292809253e-08,-0.00104264033602,0.0010426430845053,-0.0010426485130255,0.0010426349442895,-0.00104263532331,0.0010426480775624,-0.0010426435416913,0.0010426398972647,-0.00092787130586673,0.0009278771735597,-0.00092788586489308,0.00092786260043541,0.68688290603792,128566,2924,0.0047531776435073,0.0067532511105185,0.0037083924796016,20.675819424058,-7.4593444607535e-05,-7.4593444607535e-05,-7.4593444607535e-05,3502371.0133072,0.015332204725279
26219200,0.99310316665666,0.015645283903865,0.0049898100111977,0.0065032912546974,0.00415218263797,-0.001143350511832,0.0011433495461102,6.8899631087352e-09,-7.8740130498947e-09,5.031233778247e-09,-6.203542993961e-09,-0.0012870277848831,0.0012870354459343,-0.0012870326593827,0.0012870305293656,-0.0012870313383941,0.0012870317092903,-0.0012870362792338,0.0012870267819922,-0.0010943224788309,0.0010943322475718,-0.0010943369819465,0.0010943177491584,-4.1507379499225e-09,7.1282159957179e-09,-1.0992612320769e-08,1.3784599235544e-08,-0.0016268203568953,0.0016268231626254,-0.0017605264716955,0.0017605173531331,-0.0017605183687817,0.0017605256228222,-0.0017605228222648,0.0017605211087778,-0.0017605147664904,0.0017605293399442,-0.0014346207473607,0.0014346029575878,-0.0014345967158468,0.0014346275620702,-0.0015129806690344,0.0015129806925957,-0.0015129697107438,0.001512991958953,-7.7722737874113e-09,7.2887161858579e-09,-0.00089062972098218,0.00089062918623778,1.1888310656711e-08,-1.2810851626493e-08,-0.0010425584160613,0.0010425611436161,-0.0010425666243815,0.001042552972022,-0.0010425533573816,0.0010425661827087,-0.0010425616106253,0.0010425579674442,-0.00092774416608941,0.00092775011729664,-0.00092775884918567,0.00092773541912333,0.7252466009112,128566,2924,0.0047527318049399,0.006753527959833,0.0037077923810478,20.537782371015,-7.5697741031877e-05,-7.5697741031877e-05,-7.5697741031877e-05,3499286.8970255,0.015331424177531
26419200,0.9932879305652,0.015648330856787,0.0049907790656345,0.006504557003307,0.0041529947878458,-0.0011432382651476,0.001143237302087,6.9556357604329e-09,-7.9370018257965e-09,5.0194592347232e-09,-6.1887824053574e-09,-0.0012870094701417,0.001287017168402,-0.0012870143880068,0.0012870122082929,-0.0012870130153566,0.0012870134398806,-0.0012870179986693,0.0012870084703661,-0.0010942937795578,0.0010943036839392,-0.0010943084069303,0.0010942890614368,-4.1442521937637e-09,7.1210507330823e-09,-1.103405075897e-08,1.3825430008427e-08,-0.0016269377730846,0.0016269405782027,-0.0017606231739038,0.0017606140330239,-0.0017606150452027,0.0017606223294273,-0.0017606195295447,0.0017606177834275,-0.0017606114467653,0.0017606260425465,-0.0014347232884193,0.0014347054115781,-0.0014346991758823,0.0014347300989887,-0.0015130735918942,0.0015130736541739,-0.0015130626455248,0.001513084908221,-7.8366369552067e-09,7.3508323860925e-09,-0.00089046640890463,0.00089046587181363,1.1904689490349e-08,-1.2829985079071e-08,-0.0010425316121832,0.0010425343077446,-0.0010425398328296,0.0010425261237798,-0.0010425265119116,0.0010425393884579,-0.001042534776449,0.0010425311619129,-0.00092761724761334,0.00092762331007934,-0.0009276320561401,0.00092760848662594,0.74502754466862,128566,2924,0.0047522671002915,0.0067540086890469,0.0037071214674267,20.399405569807,-7.6804755441547e-05,-7.6804755441547e-05,-7.6804755441547e-05,3491416.472453,0.015330761106653
26619200,0.99347031205152,0.01565131007275,0.0049917260953238,0.0065057966763808,0.0041537873010457,-0.0011437953916324,0.0011437944204469,7.0204349936109e-09,-8.0096900626386e-09,5.0503119900034e-09,-6.2288984679569e-09,-0.0012876981621423,0.001287705922078,-0.0012877031258248,0.0012877009155092,-0.0012877017306794,0.0012877021694438,-0.0012877067591887,0.0012876971540167,-0.0010949613907086,0.001094971397269,-0.0010949761507908,0.0010949566405496,-4.1675793857811e-09,7.1464261022351e-09,-1.0973641997828e-08,1.3766752650745e-08,-0.0016278049176646,0.0016278077243532,-0.0017614553893285,0.0017614462736001,-0.0017614472998338,0.0017614545286246,-0.0017614517294446,0.0017614500400006,-0.0017614436854052,0.0017614582583461,-0.0014355703262912,0.001435552583507,-0.0014355463263262,0.0014355771515609,-0.0015139090907302,0.0015139090676283,-0.0015138980976944,0.0015139203725378,-7.8941237981205e-09,7.4112671618387e-09,-0.00089093689631844,0.00089093636259504,1.188391128955e-08,-1.2805323959754e-08,-0.0010431997804201,0.0010432024254592,-0.0010432079861892,0.0010431942556934,-0.0010431946410179,0.0010432075449998,-0.0010432028901192,0.0010431993332863,-0.0009281569231553,0.00092816312013383,-0.00092817184888628,0.00092814818049456,0.73848439024548,128566,2924,0.0047545781511392,0.0067575896686028,0.0037090854937567,20.629732913174,-7.496213669461e-05,-7.496213669461e-05,-7.496213669461e-05,3486527.1621316,0.015338740572904
26819200,0.99365251254395,0.015654210915894,0.0049926470328898,0.0065070088874342,0.0041545549955698,-0.0011447222918783,0.0011447213253926,7.0355531487781e-09,-8.0199657476421e-09,5.0361235774975e-09,-6.2098909591527e-09,-0.0012887591801363,0.0012887669354547,-0.0012887641471058,0.001288761928315,-0.0012887627310667,0.0012887632000717,-0.0012887677754481,0.0012887581722026,-0.0010959945077568,0.0010960045743612,-0.0010960093155034,0.0010959897794482,-4.256364265464e-09,7.2440286497208e-09,-1.1097200624491e-08,1.389823887099e-08,-0.0016290617056921,0.0016290645202876,-0.0017626866646127,0.0017626774023033,-0.0017626784848405,0.001762685751587,-0.001762682937901,0.001762681237992,-0.0017626748155838,0.0017626895382417,-0.0014367918421661,0.0014367739383318,-0.0014367676138641,0.0014367987412966,-0.0015151324023367,0.0015151323088243,-0.0015151212456758,0.0015151437816081,-7.9843032226606e-09,7.5512638785894e-09,-0.00089176393342257,0.00089176344975495,1.1651473773533e-08,-1.2517380923249e-08,-0.0010442246731146,0.001044227109792,-0.0010442326987386,0.0010442191199754,-0.001044219450738,0.0010442323127175,-0.0010442275321588,0.0010442242689811,-0.00092905941471828,0.00092906604422511,-0.0009290745468675,0.00092905089610228,0.72121904163267,128566,2924,0.0047584222535577,0.0067627829346636,0.0037125304097969,21.064274691884,-7.1485802464928e-05,-7.1485802464928e-05,-7.1485802464928e-05,3486015.123363,0.015351417194143
27019200,0.99383443275282,0.015657024350571,0.0049935388621229,0.0065081903769795,0.0041552951114682,-0.0011456567453823,0.0011456557689932,7.0992794860485e-09,-8.0935322263243e-09,5.0738606773866e-09,-6.2584059298771e-09,-0.0012898061464227,0.0012898139682855,-0.0012898111596118,0.0012898089122108,-0.0012898097258642,0.0012898102021202,-0.0012898148165916,0.0012898051299065,-0.0010970135535726,0.0010970237108022,-0.0010970284922395,0.0010970087839121,-4.2670187888579e-09,7.2550089532212e-09,-1.0993229198923e-08,1.3794522799562e-08,-0.0016302952430873,0.0016302980581659,-0.0017639127154265,0.0017639035271178,-0.0017639046128092,0.0017639117966156,-0.0017639089847172,0.0017639073669927,-0.0017639009368911,0.0017639155902091,-0.0014379770487755,0.0014379593593267,-0.0014379530259466,0.00143798395177,-0.0015163343136556,0.001516334124296,-0.0015163231346769,0.0015163456203567,-8.0437170978097e-09,7.6096026657131e-09,-0.00089260417743018,0.00089260369271383,1.1649002780755e-08,-1.2515775276228e-08,-0.0010452248291866,0.0010452272266031,-0.0010452328556245,0.0010452192360253,-0.0010452195686387,0.001045232467235,-0.0010452276490314,0.0010452244249663,-0.00092996242600831,0.000929969170102,-0.0009299776740536,0.00092995390415728,0.70228504766657,128566,2924,0.0047622972860312,0.006767881229224,0.0037160283642197,21.503853100297,-6.7969175197621e-05,-6.7969175197621e-05,-6.7969175197621e-05,3488312.0185557,0.015364082002284
27219200,0.99401591519794,0.015659741828721,0.0049943988015789,0.0065093378291139,0.0041560051980281,-0.0011465975025563,0.0011465965159414,7.1974282762512e-09,-8.201883960317e-09,5.1128050563133e-09,-6.3083697122238e-09,-0.001290831729351,0.0012908396438463,-0.0012908368153739,0.0012908345142836,-0.0012908353427363,0.0012908358443413,-0.001290840497534,0.0012908307063923,-0.0010980132803512,0.0010980235878926,-0.0010980284059933,0.0010980084680675,-4.2563407471824e-09,7.2435228179971e-09,-1.0848485653975e-08,1.3649049865837e-08,-0.0016314891660027,0.0016314919803491,-0.0017651179656066,0.0017651088833735,-0.0017651099606828,0.0017651170516341,-0.001765114245975,0.0017651127116752,-0.001765106287681,0.001765120841881,-0.0014391095388125,0.001439092113481,-0.0014390857853709,0.0014391164303326,-0.0015174981052552,0.001517497827472,-0.0015174869353659,0.0015175093132509,-8.0750534274843e-09,7.6268411492382e-09,-0.00089345230535552,0.00089345180661556,1.1706781928407e-08,-1.2588712504821e-08,-0.0010461885493714,0.0010461909645235,-0.001046196623571,0.0010461829263944,-0.0010461832766669,0.0010461962167824,-0.0010461913966115,0.0010461881351939,-0.00093085981425253,0.00093086655921551,-0.00093087512296717,0.00093085123439192,0.68191771576325,128566,2924,0.0047661981406055,0.0067728171326321,0.0037195569436792,21.943621918211,-6.4451024654312e-05,-6.4451024654312e-05,-6.4451024654312e-05,3493101.096972,0.015376638557337
27419200,0.99419537623292,0.015662516115864,0.0049952779073726,0.0065105032948674,0.0041567349136237,-0.0011473061623258,0.0011473051782322,7.2602487460609e-09,-8.262248561703e-09,5.1032684310992e-09,-6.2959151549961e-09,-0.001291588750931,0.0012915967011049,-0.0012915938781117,0.0012915915317865,-0.0012915923575674,0.0012915929096604,-0.001291597552675,0.0012915877302278,-0.0010987546701229,0.0010987651093558,-0.0010987699169705,0.0010987498682406,-4.2467158211585e-09,7.2329271062183e-09,-1.08542733504e-08,1.3653945753153e-08,-0.0016323886996612,0.0016323915131223,-0.001766047208242,0.0017660381231078,-0.0017660391954254,0.0017660462994601,-0.0017660434940187,0.0017660419456125,-0.001766035528667,0.001766050083323,-0.0014399403431327,0.0014399228970193,-0.0014399165768409,0.0014399472280334,-0.0015183749561132,0.0015183747019284,-0.0015183638047587,0.0015183861672515,-8.1415085383777e-09,7.6926110923103e-09,-0.00089408663698796,0.00089408613752427,1.1707444687689e-08,-1.2590269932019e-08,-0.0010468810044114,0.0010468833750972,-0.0010468890791382,0.0010468753365746,-0.0010468756874852,0.0010468886717855,-0.0010468838080635,0.0010468805893593,-0.0009315230808391,0.00093152995385649,-0.0009315385199974,0.00093151449982192,0.70214877387608,128566,2924,0.0047691363667516,0.0067765368453414,0.0037221950651325,22.251970367859,-6.1984237057129e-05,-6.1984237057129e-05,-6.1984237057129e-05,3498676.9104586,0.015386077698226
27619200,0.99437228900515,0.015665294299388,0.0049961587359035,0.006511667874718,0.0041574676887661,-0.0011479387956831,0.0011479378130838,7.3286053482842e-09,-8.3291783352582e-09,5.0971986522326e-09,-6.2880148888144e-09,-0.0012922915486047,0.0012922995413089,-0.0012922967213765,0.0012922943257813,-0.0012922951513662,0.0012922957536341,-0.0012923003899577,0.001292290529374,-0.0010994367657827,0.0010994473409535,-0.0010994521409909,0.001099431968246,-4.2175504027891e-09,7.2001450339234e-09,-1.0828967819643e-08,1.3625262115889e-08,-0.0016332349208716,0.0016332377309913,-0.0017669076152175,0.0017668985653278,-0.001766899620163,0.0017669067225735,-0.0017669039216357,0.001766902366124,-0.0017668959725222,0.001766910486715,-0.0014407313263021,0.0014407139066595,-0.0014407076070937,0.0014407381852275,-0.0015191923333741,0.0015191921169854,-0.0015191812398498,0.0015192035229567,-8.2086635481691e-09,7.7455262927587e-09,-0.00089464052723093,0.0008946400136646,1.1769350269516e-08,-1.2668236142434e-08,-0.001047530735956,0.0010475331004035,-0.0010475388578899,0.0010475250143608,-0.0010475253797696,0.0010475384363292,-0.0010475335456128,0.0010475303079237,-0.00093211509743749,0.0009321220303354,-0.00093213065698214,0.00093210645622879,0.71252806115339,128566,2924,0.0047717597577497,0.0067800347830606,0.0037245005762894,22.519001113806,-5.9847991089554e-05,-5.9847991089554e-05,-5.9847991089554e-05,3500745.8866405,0.015394635198546
27819200,0.99454658413953,0.015668078298012,0.0049970419782746,0.0065128321278785,0.0041582041918588,-0.0011485688579477,0.0011485678802035,7.3937890312267e-09,-8.3895512654693e-09,5.0779472442396e-09,-6.2636158721876e-09,-0.0012930032167221,0.0012930112415545,-0.0012930084315033,0.0012930059848031,-0.0012930068055366,0.001293007468914,-0.0012930120859706,0.0012930022025141,-0.0011001278186387,0.0011001385372479,-0.0011001433192607,0.0011001230425972,-4.2032213492965e-09,7.18498159845e-09,-1.0867546577618e-08,1.3663237720525e-08,-0.0016340917837196,0.0016340945931677,-0.0017677708827027,0.0017677618142244,-0.0017677628608129,0.0017677699997117,-0.0017677671983855,0.0017677656058247,-0.0017677592226469,0.0017677737539763,-0.0014415379283696,0.0014415204213529,-0.0014415141354203,0.0014415447792545,-0.0015200178435019,0.0015200176808123,-0.0015200067787066,0.0015200290576196,-8.2742285645724e-09,7.8097510202751e-09,-0.00089518650435112,0.00089518598926134,1.17808623873e-08,-1.2681153576272e-08,-0.0010481935066367,0.0010481958341045,-0.0010482016366975,0.0010481877403743,-0.0010481881072201,0.001048201213526,-0.0010481962814922,0.0010481930770869,-0.00093270593708638,0.00093271298691852,-0.00093272162348658,0.00093269728651206,0.72383355422512,128566,2924,0.0047743726449608,0.0067835760073798,0.0037267742868888,22.784992593675,-5.7720059250597e-05,-5.7720059250597e-05,-5.7720059250597e-05,3501308.4984645,0.015403194213516
28019200,0.9947182058705,0.015670869922169,0.0049979282526712,0.0065139967148967,0.0041589449546014,-0.0011491963531731,0.0011491953801788,7.4577007033333e-09,-8.4487410633101e-09,5.059338140314e-09,-6.2397766648708e-09,-0.0012937247831381,0.0012937328390934,-0.0012937300385147,0.0012937275418197,-0.0012937283574413,0.0012937290809189,-0.0012937336795336,0.0012937237732435,-0.0011008291133663,0.0011008399726543,-0.0011008447365968,0.0011008243566953,-4.1936716454452e-09,7.1744779401531e-09,-1.0915497058822e-08,1.3710330402111e-08,-0.0016349626973714,0.0016349655059521,-0.0017686398317873,0.0017686307372553,-0.0017686317786635,0.0017686389551745,-0.0017686361535534,0.0017686345225641,-0.0017686281474742,0.0017686427022458,-0.0014423638206937,0.0014423462141052,-0.001442339936941,0.0014423706654016,-0.0015208554318182,0.0015208553211477,-0.0015208443878476,0.0015208666765583,-8.3400392739368e-09,7.876117521131e-09,-0.00089572465870446,0.00089572414404261,1.1781911156966e-08,-1.2681854262353e-08,-0.0010488705053678,0.0010488727893691,-0.0010488786355643,0.0010488646955667,-0.0010488650615107,0.0010488782133995,-0.0010488732367897,0.0010488700759305,-0.00093329619218003,0.00093330337032128,-0.00093331200646503,0.00093328754170805,0.73612508716909,128566,2924,0.0047769750168957,0.0067871745545025,0.0037290166253918,23.050944604876,-5.5592443160994e-05,-5.5592443160994e-05,-5.5592443160994e-05,3500459.3263153,0.015411769406946
28219200,0.99488643815438,0.015673660072595,0.004998814699877,0.0065151577750494,0.0041596875976689,-0.0011496934129496,0.001149692444934,7.5181408245724e-09,-8.5044470975398e-09,5.040521049779e-09,-6.2149155604781e-09,-0.0012943272631818,0.0012943353470663,-0.0012943325562289,0.0012943300120534,-0.0012943308219673,0.0012943316042047,-0.0012943361839129,0.0012943262572982,-0.0011014117713195,0.0011014227654345,-0.0011014275111347,0.0011014070336479,-4.1900098117823e-09,7.1704874040024e-09,-1.0974948728556e-08,1.3769477723848e-08,-0.0016357178756751,0.0016357206839558,-0.0017693834922044,0.0017693743607256,-0.0017693754006241,0.001769382618747,-0.0017693798157306,0.0017693781443664,-0.0017693717728832,0.0017693863621978,-0.0014430822463111,0.0014430645241158,-0.0014430582521635,0.0014430890905022,-0.0015215769636598,0.0015215769023392,-0.0015215659281207,0.0015215882453411,-8.4083159837e-09,7.9469435456431e-09,-0.00089613672389632,0.00089613621157937,1.1774139181601e-08,-1.2672149165678e-08,-0.0010494389218072,0.0010494411549923,-0.0010494470451123,0.0010494330681084,-0.001049433430736,0.0010494466265624,-0.0010494416010126,0.0010494384941792,-0.00093376374063788,0.00093377106165354,-0.00093377968747458,0.00093375509857146,0.74948916191705,128566,2924,0.0047790366663327,0.0067902934951763,0.003730736281827,23.250806949692,-5.399354440246e-05,-5.399354440246e-05,-5.399354440246e-05,3497476.9576707,0.01541877820082
28419200,0.99505118865432,0.015676449726653,0.004999701650542,0.0065163155924431,0.0041604324836678,-0.0011501658632376,0.0011501648912688,7.5948694603723e-09,-8.5850065180284e-09,5.0528635006539e-09,-6.23202089851e-09,-0.0012949173520955,0.0012949254968363,-0.0012949226991136,0.001294920106194,-0.0012949209224982,0.0012949217416849,-0.0012949263346769,0.0012949163439101,-0.0011019845968692,0.0011019957251283,-0.0011020004829606,0.0011019798436316,-4.1684631023724e-09,7.1466923595718e-09,-1.0921182594545e-08,1.3713677699913e-08,-0.0016364684971235,0.0016364713033448,-0.0017701121353304,0.001770103057494,-0.0017701040831892,0.001770111274151,-0.0017701084759309,0.0017701068232592,-0.0017701004684421,0.0017701150042339,-0.001443802289698,0.0014437846525449,-0.0014437783957528,0.0014438091144264,-0.0015222944719804,0.0015222944099507,-0.0015222834766934,0.0015223057155821,-8.4653670029739e-09,7.9877541854318e-09,-0.00089652154647317,0.0008965210178974,1.1850970831476e-08,-1.2766524406756e-08,-0.0010500002663957,0.0010500025105069,-0.0010500084489985,0.001049994364201,-0.0010499947447905,0.0010500080121907,-0.0010500029701517,0.0010499998245849,-0.00093421046598457,0.00093421781425949,-0.00093422651518194,0.00093420175003171,0.76402415741591,128566,2924,0.00478099637413,0.0067933927479972,0.0037323438415791,23.441434434012,-5.2468524527902e-05,-5.2468524527902e-05,-5.2468524527902e-05,3493122.5577012,0.01542555006606
28619200,0.99521246239659,0.015679199392871,0.0050005760069774,0.0065174562432817,0.0041611671426122,-0.0011506271381965,0.0011506261710257,7.6417901649567e-09,-8.6270870172701e-09,5.0352660064457e-09,-6.2091324477953e-09,-0.0012955105997445,0.0012955187624093,-0.0012955159745556,0.001295513345943,-0.0012955141545827,0.0012955150236743,-0.0012955195987886,0.0012955095944276,-0.0011025617887747,0.0011025730308398,-0.0011025777707501,0.0011025570562067,-4.1887462012671e-09,7.1690423763235e-09,-1.1008707465838e-08,1.380307948322e-08,-0.0016372319821072,0.0016372347902274,-0.0017708430654467,0.0017708339102953,-0.0017708349501274,0.0017708421928025,-0.0017708393890816,0.0017708376936324,-0.001770831323416,0.0017708459353012,-0.0014445413921867,0.0014445236031447,-0.0014445173322674,0.0014445482358854,-0.0015230250008928,0.001523024965751,-0.0015230139700163,0.0015230363065755,-8.5410348171076e-09,8.0784422924797e-09,-0.00089689100122308,0.00089689048763681,1.1786472251246e-08,-1.2685641677798e-08,-0.0010505689452591,0.0010505710969137,-0.0010505770764439,0.0010505630021616,-0.0010505633657077,0.0010505766568869,-0.0010505715444592,0.0010505685159511,-0.00093464737233647,0.00093465494133962,-0.00093466357771748,0.00093463872126669,0.76896078616555,128566,2924,0.0047829098652708,0.0067965443287216,0.0037338888001132,23.631817372208,-5.0945461022334e-05,-5.0945461022334e-05,-5.0945461022334e-05,3487586.3341055,0.015432264993223
28819200,0.99537028963134,0.01568181754098,0.0050014074504013,0.0065185472275287,0.0041618628630502,-0.001151078455542,0.0011510774842994,7.7132200922884e-09,-8.7025798844669e-09,5.0494777160009e-09,-6.2279263881827e-09,-0.0012960964874541,0.0012961047077039,-0.0012961019120113,0.0012960992399555,-0.0012961000539873,0.0012961009562539,-0.0012961055464083,0.0012960954791319,-0.0011031306587171,0.0011031420252174,-0.0011031467800975,0.0011031259094297,-4.1855174636675e-09,7.1653913926821e-09,-1.0968585064314e-08,1.3762549250509e-08,-0.0016379932859238,0.0016379960936336,-0.0017715702095206,0.001771561088358,-0.001771562125128,0.0017715693387256,-0.0017715665373216,0.0017715648674685,-0.0017715584999204,0.0017715730796032,-0.0014452795166513,0.0014452618026818,-0.0014452555334789,0.0014452863558693,-0.0015237529850648,0.0015237529252353,-0.0015237419586207,0.0015237642627856,-8.5985291719813e-09,8.1291743367186e-09,-0.00089725106192863,0.00089725054156909,1.1818266051379e-08,-1.272480753797e-08,-0.0010511309406165,0.001051133075015,-0.001051139097045,0.0010511249549317,-0.0010511253262079,0.0010511386695883,-0.0010511335278906,0.0010511305057643,-0.00093507433684412,0.00093508198421222,-0.00093509065091731,0.00093506565471576,0.74978434020585,128566,2924,0.004784782004615,0.0067996866711063,0.003735394905142,23.824412147765,-4.940470281788e-05,-4.940470281788e-05,-4.940470281788e-05,3482284.4926874,0.015438889110635
29019200,0.99552580849315,0.015684253706547,0.0050021790171727,0.0065195716653345,0.00416250302404,-0.001151755672764,0.0011517546994108,7.7680265778923e-09,-8.7593625860141e-09,5.0580798575221e-09,-6.2391058536577e-09,-0.0012968843832462,0.001296892643897,-0.0012968898441867,0.0012968871408542,-0.0012968879554267,0.0012968888872429,-0.0012968934860388,0.0012968833721702,-0.001103905074371,0.0011039165451742,-0.0011039213086741,0.0011039003179206,-4.2078409255246e-09,7.1898228319066e-09,-1.0967967280717e-08,1.3763823886628e-08,-0.0016389507225226,0.0016389535321493,-0.001772512488246,0.0017725033505705,-0.0017725044012746,0.0017725116039626,-0.001772508799593,0.0017725071468711,-0.0017725007617632,0.0017725153595549,-0.0014461959183602,0.0014461782237036,-0.001446171936443,0.0014462027745463,-0.0015246799775732,0.0015246798772458,-0.0015246689084074,0.0015246912582211,-8.6658383461495e-09,8.2055300956862e-09,-0.00089783061517006,0.00089783010399156,1.1775471126646e-08,-1.267169830093e-08,-0.0010518746332978,0.0010518766955004,-0.0010518827566252,0.0010518686085564,-0.0010518689697511,0.0010518823391767,-0.001051877140576,0.0010518742063442,-0.00093571118979914,0.00093571901571001,-0.00093572764190042,0.00093570254906568,0.71130252890542,128566,2924,0.0047875904382293,0.0068036418740197,0.003737810792608,24.140174255056,-4.6878605959555e-05,-4.6878605959555e-05,-4.6878605959555e-05,3481570.2995649,0.015448212448409
29219200,0.99567897224936,0.015686593722386,0.005002919201396,0.0065205595900202,0.0041631149309697,-0.0011524477251486,0.0011524467482661,7.8330369060883e-09,-8.8278946204463e-09,5.0721287299618e-09,-6.2569140512177e-09,-0.0012976341133228,0.0012976424262684,-0.0012976396191819,0.0012976368777715,-0.0012976376963091,0.0012976386583989,-0.0012976432711856,0.0012976330990263,-0.0011046501514411,0.0011046617373416,-0.0011046665146763,0.0011046453798861,-4.2166590991354e-09,7.1993918813434e-09,-1.0933956883417e-08,1.3730450939913e-08,-0.0016398431343946,0.001639845944648,-0.001773424496608,0.0017734153775265,-0.0017734164329426,0.0017734236064336,-0.0017734208026053,0.0017734191791698,-0.001773412787265,0.0017734273685619,-0.0014470234844877,0.0014470058620521,-0.001446999567695,0.0014470303467781,-0.0015255505917937,0.0015255504501978,-0.001525539503923,0.0015255618512523,-8.7260564880284e-09,8.2669526165516e-09,-0.00089843816526737,0.00089843765531869,1.1766527623629e-08,-1.2661322250034e-08,-0.0010525607968924,0.0010525628140817,-0.001052568914422,0.0010525547328263,-0.0010525550933336,0.0010525684976721,-0.0010525632575178,0.0010525603714261,-0.00093634996449672,0.000936357917537,-0.00093636653635486,0.0009363413307219,0.69516966640554,128566,2924,0.0047904597803121,0.0068073310340007,0.0037403388950117,24.458911447613,-4.4328708419098e-05,-4.4328708419098e-05,-4.4328708419098e-05,3486022.8645767,0.015457439807794
29419200,0.99582970911304,0.015688735714807,0.0050035942325683,0.0065214751135186,0.0041636663687199,-0.0011531430565053,0.0011531420746672,7.8995663773425e-09,-8.8993739192271e-09,5.0813898542136e-09,-6.2714044824862e-09,-0.0012983646021273,0.0012983729647,-0.0012983701546527,0.0012983673696272,-0.0012983681936587,0.0012983691883654,-0.0012983738137697,0.0012983635835838,-0.0011053723228315,0.0011053840292153,-0.0011053888191269,0.00110536753839,-4.222733068521e-09,7.2059828069952e-09,-1.0905051140232e-08,1.3701981677453e-08,-0.0016406960101062,0.0016406988208047,-0.0017743140983739,0.0017743049947307,-0.0017743060536098,0.0017743132040469,-0.0017743104008129,0.001774308800018,-0.0017743024030946,0.0017743169711227,-0.0014478023402216,0.0014477847765234,-0.0014477784768,0.0014478092064792,-0.0015263805835318,0.0015263804089473,-0.0015263694814242,0.0015263918247125,-8.7841211125929e-09,8.3260996880169e-09,-0.00089905322717158,0.00089905271838673,1.1759118068191e-08,-1.265255988062e-08,-0.0010532184551735,0.0010532204296891,-0.0010532265679886,0.0010532123531304,-0.0010532127131627,0.0010532261516363,-0.0010532208713345,0.0010532180314193,-0.00093698082230107,0.00093698889842104,-0.00093699751093189,0.00093697219495353,0.65089857257936,128566,2924,0.0047933425456271,0.0068108581260976,0.003742896070998,24.777760939799,-4.1777912481605e-05,-4.1777912481605e-05,-4.1777912481605e-05,3492422.7303873,0.015466545248777
29619200,0.99597786912285,0.015690809097027,0.0050042471341311,0.006522363292381,0.0041641986705145,-0.0011538368869113,0.001153835904021,7.9619915476787e-09,-8.9628351332975e-09,5.0838357613182e-09,-6.2747951785498e-09,-0.001299033090245,0.0012990414954273,-0.0012990386846264,0.0012990358586222,-0.0012990366836233,0.0012990377173233,-0.0012990423457297,0.0012990320704793,-0.0011060379523277,0.0011060497793626,-0.0011060545722433,0.0011060331649928,-4.2252882645203e-09,7.2087076553412e-09,-1.089569845648e-08,1.369276121925e-08,-0.0016414512640105,0.0016414540748531,-0.0017751444328319,0.0017751353331649,-0.0017751363935981,0.0017751435367208,-0.0017751407333259,0.0017751391403812,-0.0017751327414061,0.0017751473055129,-0.0014484578871919,0.0014484403435081,-0.0014484340418364,0.001448464755377,-0.0015271239193614,0.0015271237338581,-0.0015271128119071,0.0015271351543637,-8.8481045193739e-09,8.3914666853454e-09,-0.0008996821110132,0.00089968160362526,1.1751607524339e-08,-1.2643541594193e-08,-0.0010537911418086,0.0010537930689157,-0.0010537992490151,0.0010537849979676,-0.0010537853565486,0.0010537988341201,-0.0010537935093187,0.0010537907192945,-0.000937599399739,0.00093760760921681,-0.0009376162148452,0.00093759077942374,0.6419138595188,128566,2924,0.0047962184954062,0.0068139848354683,0.0037455059850797,25.087387467077,-3.9300900263383e-05,-3.9300900263383e-05,-3.9300900263383e-05,3504077.3993955,0.015475288966471
29819200,0.99612290477608,0.015692965400645,0.0050049282573047,0.0065232771961197,0.0041647599472203,-0.0011544394602224,0.0011544384773917,8.0266621393564e-09,-9.0274529747043e-09,5.0832677447093e-09,-6.274172222816e-09,-0.0012995951404798,0.0012996035885682,-0.0012996007780953,0.0012995979084334,-0.0012995987336305,0.0012995998106845,-0.001299604438525,0.001299594120907,-0.0011065962195032,0.0011066081730156,-0.001106612965225,0.0011065914324693,-4.2236253935552e-09,7.2067436129295e-09,-1.0900045469564e-08,1.3696855954335e-08,-0.0016420806803052,0.0016420834908832,-0.0017758567593105,0.0017758476579381,-0.0017758487174879,0.0017758558640775,-0.001775853061142,0.0017758514637428,-0.001775845066181,0.0017758596318974,-0.0014489867575604,0.0014489692034351,-0.0014489629031502,0.001448993624307,-0.0015277441313663,0.0015277439511924,-0.0015277330268254,0.0015277553688099,-8.9119683407291e-09,8.4535110020618e-09,-0.00090022721454047,0.00090022670533316,1.1759918756613e-08,-1.2653900769063e-08,-0.001054257786195,0.0010542596759336,-0.001054265899746,0.0010542515985759,-0.001054251959125,0.0010542654829003,-0.001054260117848,0.0010542573621052,-0.00093813051485029,0.00093813884035118,-0.00093814745374694,0.00093812188667134,0.67837703419647,128566,2924,0.0047987160932682,0.0068165917909116,0.0037477668009702,25.33966672852,-3.728266617184e-05,-3.728266617184e-05,-3.728266617184e-05,3515280.4400315,0.015482766004107
30019200,0.99626478703522,0.015695109119481,0.0050056059115075,0.0065241835380115,0.0041653196699622,-0.001155035868825,0.00115503488729,8.0914274630665e-09,-9.0909355465784e-09,5.0795671983651e-09,-6.2690578568799e-09,-0.0013002067162106,0.0013002152053242,-0.0013002123964444,0.0013002094825152,-0.0013002103063829,0.0013002114303914,-0.0013002160541362,0.0013002056978738,-0.0011071895028747,0.0011072015863495,-0.0011072063745333,0.0011071847201562,-4.2198052431405e-09,7.2025236545523e-09,-1.0910704860103e-08,1.3707155327402e-08,-0.0016427706766157,0.0016427734868398,-0.0017765967136462,0.0017765876076207,-0.0017765886649819,0.0017765958209113,-0.0017765930180518,0.0017765914107837,-0.0017765850163956,0.0017765995859629,-0.0014496002067658,0.0014495826291689,-0.0014495763323924,0.0014496070709056,-0.0015284111883751,0.0015284110229668,-0.0015284000917696,0.0015284224323238,-8.9761294741928e-09,8.5163047549672e-09,-0.00090075052949709,0.00090075001887592,1.1767274276466e-08,-1.2662851556903e-08,-0.0010547950277351,0.0010547968790928,-0.0010548031466278,0.0010547887964472,-0.0010547891583013,0.0010548027284846,-0.0010547973224933,0.0010547946022262,-0.00093866706315785,0.00093867550596046,-0.00093868412619404,0.00093865842819757,0.68873090050585,128566,2924,0.0048011888693047,0.0068194463464869,0.0037499412131579,25.59055641356,-3.5275548691517e-05,-3.5275548691517e-05,-3.5275548691517e-05,3520279.3849519,0.015490383637215
30219200,0.99640350200346,0.015697109220818,0.0050062367254932,0.0065250358722208,0.0041658366231041,-0.0011556240557182,0.001155623075802,8.1562846066591e-09,-9.1541738957094e-09,5.0753139457623e-09,-6.2630792712862e-09,-0.0013008289860272,0.0013008375160758,-0.0013008347089601,0.0013008317504636,-0.0013008325728679,0.0013008337444545,-0.0013008383632215,0.0013008279693357,-0.0011077868929286,0.0011077991066615,-0.0011078038897555,0.0011077821151899,-4.2145261754124e-09,7.1966584363189e-09,-1.0919536625299e-08,1.3715459894468e-08,-0.0016434723467251,0.0016434751564178,-0.0017773382581169,0.0017773291496668,-0.001777330203973,0.0017773373686101,-0.0017773345662006,0.0017773329490201,-0.0017773265589192,0.0017773411300149,-0.0014502317852992,0.0014502141864284,-0.0014502078940629,0.001450238645435,-0.0015290838524582,0.0015290837029103,-0.0015290727664619,0.0015290951014532,-9.0405579198543e-09,8.5789704248029e-09,-0.00090126206304,0.00090126155061369,1.1776427987444e-08,-1.2674025113609e-08,-0.0010553495930051,0.001055351407039,-0.0010553577187084,0.0010553433175997,-0.0010553436812875,0.0010553572987454,-0.0010553518521261,0.001055349165816,-0.00093919772393106,0.00093920628289728,-0.00093921491167334,0.00093918908056079,0.66008312648948,128566,2924,0.0048036277404719,0.0068223482749224,0.0037520679363373,25.841393554716,-3.326885156227e-05,-3.326885156227e-05,-3.326885156227e-05,3523480.6171637,0.015497967242807
30419200,0.99653933142381,0.015698954390823,0.0050068169466152,0.006525830131963,0.0041663073122453,-0.0011562831370014,0.0011562821597289,8.2231798424784e-09,-9.2183955037125e-09,5.0666171421477e-09,-6.2518138373199e-09,-0.0013014855303312,0.0013014941000827,-0.0013014912970366,0.0013014882908572,-0.0013014891104007,0.0013014903350969,-0.0013014949447407,0.001301484516447,-0.0011084212128817,0.0011084335645079,-0.0011084383386633,0.0011084164449845,-4.2098390317779e-09,7.1912735682935e-09,-1.09327672737e-08,1.3728061417735e-08,-0.0016441897721373,0.0016441925812125,-0.0017781195390319,0.0017781104248198,-0.0017781114767601,0.0017781186525691,-0.0017781158502558,0.0017781142209297,-0.0017781078346822,0.0017781224104116,-0.0014508608695489,0.0014508432415787,-0.0014508369529087,0.0014508677258523,-0.0015297782849017,0.0015297781532636,-0.0015297672095558,0.0015297895422224,-9.1018716485542e-09,8.6417089510828e-09,-0.00090185128464972,0.00090185077363904,1.1770982447654e-08,-1.2666880638686e-08,-0.0010559212718607,0.0010559230417127,-0.0010559293933156,0.0010559149562931,-0.0010559153185739,0.0010559289746393,-0.0010559234854011,0.0010559208458417,-0.00093979126779498,0.00093979995354107,-0.00093980857705083,0.00093978262996167,0.62526527440738,128566,2924,0.0048063601043355,0.0068253175007268,0.0037545145118353,26.129324634896,-3.0965402920832e-05,-3.0965402920832e-05,-3.0965402920832e-05,3530975.7902659,0.015506240929048
30619200,0.99667306182087,0.01570089298405,0.0050074287227359,0.006526654806552,0.0041668094547617,-0.0011571618775136,0.0011571609031542,8.2878902249588e-09,-9.2802345229854e-09,5.0596525583687e-09,-6.2417840003127e-09,-0.0013023152677733,0.001302323877128,-0.0013023210766631,0.0013023180255029,-0.0013023188420807,0.0013023201172821,-0.001302324719055,0.0013023142571612,-0.0011092401179644,0.0011092526019265,-0.0011092573682409,0.0011092353594293,-4.1977262601677e-09,7.1777893758734e-09,-1.091609016088e-08,1.3710079529893e-08,-0.0016450598647431,0.0016450626726293,-0.0017790822447687,0.0017790731494085,-0.0017790741939785,0.0017790813659578,-0.0017790785645306,0.0017790769366532,-0.001779070560141,0.0017790851152939,-0.0014516188545213,0.001451601250881,-0.0014515949716527,0.0014516257012099,-0.0015306374070912,0.0015306372883577,-0.0015306263563316,0.0015306486519046,-9.1657273589421e-09,8.70652580533e-09,-0.00090265783302845,0.00090265732287109,1.1769489864075e-08,-1.2664224783467e-08,-0.0010566381442538,0.0010566398703006,-0.0010566462641391,0.0010566317866,-0.0010566321482316,0.0010566458459825,-0.0010566403131244,0.0010566377189942,-0.00094059023414409,0.00094059904819836,-0.0009406076703006,0.00094058159839782,0.66318230291916,128566,2924,0.0048100027793388,0.0068289208982818,0.0037578603400775,26.523506235275,-2.7811950117798e-05,-2.7811950117798e-05,-2.7811950117798e-05,3544098.1191169,0.015516994963325
30819200,0.99680461446572,0.015702891231854,0.00500806079019,0.006527498593019,0.0041673318486451,-0.0011580460579755,0.0011580450858818,8.3522916483484e-09,-9.342408823665e-09,5.054435116666e-09,-6.2340248697018e-09,-0.0013032124755527,0.0013032211249327,-0.001303218326598,0.0013032152312068,-0.0013032160459135,0.0013032173697442,-0.0013032219643459,0.0013032114668174,-0.0011101113118667,0.0011101239259268,-0.0011101286847071,0.0011101065584008,-4.190443356126e-09,7.1698724823761e-09,-1.0907013652867e-08,1.3700475373882e-08,-0.0016460114473166,0.0016460142545439,-0.001780090234475,0.0017800811496421,-0.0017800821894787,0.0017800893592227,-0.0017800865591658,0.0017800849318461,-0.0017800785608004,0.0017800931036692,-0.001452483854812,0.0014524662634738,-0.0014524599898636,0.0014524906952815,-0.0015315646088413,0.0015315644975711,-0.0015315535725175,0.0015315758460959,-9.230124969654e-09,8.77080480534e-09,-0.00090344901105987,0.00090344850093155,1.176535684166e-08,-1.2660293935616e-08,-0.0010574422089936,0.001057443889862,-0.0010574503264722,0.0010574358086319,-0.0010574361702222,0.001057449908638,-0.001057444332664,0.0010574417840602,-0.00094140403253137,0.00094141297560808,-0.00094142159395796,0.0009413953996356,0.69236328225136,128566,2924,0.0048136687597615,0.0068328580689789,0.0037611468709569,26.920271512994,-2.4637827896051e-05,-2.4637827896051e-05,-2.4637827896051e-05,3550484.2842144,0.015528053727124
31019200,0.99693389365964,0.015704915867285,0.0050087021685806,0.0065283497061445,0.0041678639925598,-0.0011589244814861,0.0011589235106633,8.4167177560831e-09,-9.4056327216091e-09,5.0508761029025e-09,-6.2292596868631e-09,-0.0013041491131228,0.001304157803647,-0.0013041550067313,0.001304151867415,-0.0013041526807558,0.0013041540512264,-0.0013041586417173,0.0013041481057686,-0.0011110165923571,0.0011110293353934,-0.0011110340903085,0.0011110118429259,-4.1863828304076e-09,7.1653733405865e-09,-1.0902373807199e-08,1.3695452935667e-08,-0.0016470189118681,0.0016470217186918,-0.0017811244716827,0.0017811153923603,-0.0017811164297502,0.0017811235987784,-0.0017811207991686,0.0017811191717542,-0.001781112803877,0.0017811273404139,-0.0014534245279626,0.0014534069428331,-0.0014534006722718,0.0014534313650178,-0.0015325396146471,0.0015325395081735,-0.0015325285869514,0.001532550848519,-9.2935529913171e-09,8.8349296177046e-09,-0.00090422056988883,0.00090422006048817,1.1761340891139e-08,-1.2655433203591e-08,-0.0010583004953752,0.0010583021314682,-0.0010583086098974,0.001058294053197,-0.0010582944141088,0.0010583081927774,-0.0010583025735689,0.0010583000711492,-0.00094221923457366,0.00094222830615187,-0.00094223692069803,0.00094221060515506,0.7121583216526,128566,2924,0.0048173113427344,0.0068370238808203,0.0037643553156768,27.317134628567,-2.1462922971465e-05,-2.1462922971465e-05,-2.1462922971465e-05,3552197.6091243,0.015539243252021
31219200,0.99706191842837,0.015707022904328,0.0050093711794941,0.0065292291620197,0.0041684225628139,-0.0011600869278285,0.001160085952346,8.4816595240611e-09,-9.4751085758169e-09,5.0749132248478e-09,-6.2587301025621e-09,-0.001305402615248,0.0013054113640105,-0.0013054085537268,0.0013054053828279,-0.0013054062013899,0.0013054075943757,-0.0013054122068712,0.0013054016037323,-0.0011122424695878,0.001112255323751,-0.0011122600991853,0.001112237696666,-4.1511435163562e-09,7.1264357239863e-09,-1.07940453715e-08,1.3583974818011e-08,-0.0016483644447523,0.0016483672487472,-0.0017824760324872,0.00178246704835,-0.0017824680616363,0.0017824751814831,-0.0017824723840449,0.001782470802539,-0.0017824644599905,0.0017824788981493,-0.0014547083803175,0.001454690982688,-0.0014546847396881,0.0014547151875612,-0.0015338487334657,0.0015338486193204,-0.0015338377770889,0.0015338598860319,-9.3609208107765e-09,8.8884308959023e-09,-0.00090524672950751,0.00090524620610353,1.1831481361278e-08,-1.2740126104281e-08,-0.0010594683988177,0.001059470031967,-0.0010594765650583,0.0010594619030547,-0.0010594622772264,0.0010594761332739,-0.0010594704882358,0.0010594679609584,-0.0009433136508109,0.0009433227723558,-0.00094333145521628,0.00094330495514521,0.74546029681074,128566,2924,0.0048221317809479,0.0068425865096648,0.003768623673413,27.866554922799,-1.7067560617611e-05,-1.7067560617611e-05,-1.7067560617611e-05,3553066.1656406,0.015554125043699
31419200,0.99718864378307,0.015709007839888,0.0050100000621254,0.0065300646016467,0.0041689431761157,-0.0011612607705321,0.0011612598027785,8.5447466101211e-09,-9.5305421309871e-09,5.0404044731418e-09,-6.2154421835666e-09,-0.0013067183470188,0.0013067271166837,-0.001306724325587,0.001306721096806,-0.0013067219071038,0.0013067233728327,-0.0013067279521018,0.0013067173429456,-0.0011135166028778,0.0011135296061117,-0.001113534351113,0.0011135118677482,-4.1865528992121e-09,7.1654990275704e-09,-1.0897397153585e-08,1.3690439262949e-08,-0.0016497979489532,0.0016498007557901,-0.0017838870876376,0.0017838780075626,-0.0017838790456874,0.0017838862141282,-0.0017838834142859,0.001783881787723,-0.0017838754189971,0.0017838899566292,-0.001456099128813,0.0014560815512901,-0.0014560752804878,0.0014561059667542,-0.0015352383555896,0.0015352382456607,-0.0015352273269098,0.00153524958707,-9.4181179412724e-09,8.9680171959466e-09,-0.00090626843305434,0.00090626793222858,1.1719993912996e-08,-1.2604455548607e-08,-0.0010607104296801,0.0010607119568449,-0.0010607185130071,0.0010607039100821,-0.0010607042626916,0.0010607181041439,-0.0010607123907115,0.0010607100139117,-0.00094442634300874,0.00094443570750603,-0.00094444428156997,0.00094441775442701,0.7124263019982,128566,2924,0.0048269997746447,0.0068485103216023,0.0037728772908923,28.434636097838,-1.2522911217293e-05,-1.2522911217293e-05,-1.2522911217293e-05,3550135.6080784,0.01556940867324
31619200,0.99731388479477,0.015710874332288,0.0050105901276074,0.006530856626267,0.0041694275784141,-0.0011624299576878,0.0011624289891512,8.6084934111229e-09,-9.5950918070968e-09,5.0425933851232e-09,-6.2185667309961e-09,-0.0013079816615632,0.0013079904751456,-0.0013079876824407,0.001307984411997,-0.0013079852230368,0.0013079867289724,-0.001307991311229,0.0013079806568074,-0.0011147580509751,0.001114771176361,-0.0011147759235363,0.0011147533111698,-4.1888710281007e-09,7.1679817085497e-09,-1.089386529754e-08,1.3687058537639e-08,-0.0016511678720863,0.0016511706790613,-0.0017852623746819,0.0017852532994971,-0.0017852543382894,0.0017852615003207,-0.0017852587005602,0.0017852570805366,-0.0017852507107372,0.0017852652436983,-0.0014574020857393,0.0014573845185836,-0.0014573782462635,0.0014574089245283,-0.0015365756834734,0.0015365755665151,-0.0015365646507183,0.0015365869124134,-9.4814524503492e-09,9.0317208520329e-09,-0.00090729852387189,0.00090729802343931,1.1718131072934e-08,-1.2602117507602e-08,-0.0010618820481045,0.0010618835326721,-0.0010618901307338,0.0010618754864943,-0.0010618758387506,0.0010618897222115,-0.001061883966124,0.0010618816327446,-0.00094552143159153,0.00094553092086036,-0.00094553949434428,0.00094551284301287,0.68057767036857,128566,2924,0.0048318476863994,0.0068541735276892,0.003777162391633,29.003220055265,-7.9742395578827e-06,-7.9742395578827e-06,-7.9742395578827e-06,3552663.9274267,0.015584437682392
31819200,0.99743534233722,0.015712618988562,0.0050111407487064,0.0065316015539196,0.0041698766859356,-0.0011630227698377,0.0011630217911781,8.665448725508e-09,-9.662347007919e-09,5.0785054078462e-09,-6.2646694387077e-09,-0.0013086102757667,0.0013086191477894,-0.0013086163375757,0.0013086130426125,-0.0013086138643818,0.001308615374426,-0.0013086199932328,0.0013086092603363,-0.0011153725039795,0.001115385712738,-0.0011153904957664,0.0011153677240438,-4.187853240664e-09,7.1668952065063e-09,-1.0862386069974e-08,1.3655481567294e-08,-0.0016518721008365,0.001651874907737,-0.0017860012884453,0.0017859922351012,-0.0017859932727638,0.0017860004143093,-0.0017859976150579,0.0017859960151834,-0.0017859896457783,0.0017860041569174,-0.0014580349016127,0.0014580173956908,-0.0014580111246179,0.0014580417396035,-0.0015372570050411,0.0015372568682412,-0.0015372459722063,0.0015372682103046,-9.5568231663348e-09,9.0873233567611e-09,-0.00090780482737657,0.00090780430687034,1.1814130388191e-08,-1.2720867790712e-08,-0.0010624339948242,0.0010624354873997,-0.0010624421485752,0.0010624273700546,-0.0010624277418185,0.0010624417203755,-0.0010624359401732,0.0010624335599744,-0.00094605026314089,0.0009460597905024,-0.00094606845419003,0.00094604158402171,0.65805653323583,128566,2924,0.004834305302555,0.0068570856515678,0.0037792678694536,29.26564837436,-5.8748130051226e-06,-5.8748130051226e-06,-5.8748130051226e-06,3556281.0654245,0.015592029780005
32019200,0.99755141694659,0.015714452490122,0.0050117220963789,0.006532372051369,0.0041703583423738,-0.00116316335981,0.0011631623746156,8.7323176603109e-09,-9.7356040024532e-09,5.0911041567039e-09,-6.2842334572169e-09,-0.0013087362719496,0.001308745194943,-0.0013087423809301,0.0013087390433042,-0.0013087398716605,0.0013087414110066,-0.0013087460461204,0.0013087352496086,-0.0011154982597123,0.001115511588885,-0.0011155163880596,0.0011154934634396,-4.224565725417e-09,7.2061401274244e-09,-1.0953932386238e-08,1.3749565857084e-08,-0.0016520457234111,0.0016520485326227,-0.0017862279074706,0.0017862187671844,-0.0017862198288864,0.0017862270098758,-0.0017862242088176,0.0017862225728917,-0.0017862161768499,0.0017862307789653,-0.0014581380149815,0.0014581203522315,-0.0014581140521925,0.0014581448814721,-0.0015374205113024,0.0015374203632524,-0.0015374094042897,0.0015374317827202,-9.6166834724652e-09,9.1424636014731e-09,-0.00090790224319953,0.00090790171834263,1.1828959906895e-08,-1.2740913054034e-08,-0.0010624968541665,0.0010624983166403,-0.0010625050199737,0.0010624901869022,-0.0010624905629736,0.0010625045881035,-0.0010624987728335,0.0010624964154526,-0.00094614224582373,0.00094615186995325,-0.00094616054990371,0.00094613355052605,0.71766339077956,128566,2924,0.0048348877404729,0.0068578050644847,0.0037796717414552,29.280977049673,-5.7521836026153e-06,-5.7521836026153e-06,-5.7521836026153e-06,3559883.7967636,0.015593760972056
32219200,0.9976623036114,0.015716245220132,0.0050122910399896,0.0065331230361523,0.0041708311439901,-0.0011632777949548,0.001163276805783,8.7976674883928e-09,-9.8047827366719e-09,5.0992561870988e-09,-6.2968379543934e-09,-0.0013089169882573,0.0013089259593168,-0.0013089231422849,0.0013089197628756,-0.0013089205948624,0.0013089221682676,-0.0013089268149801,0.0013089159628613,-0.0011156608796562,0.0011156743300024,-0.001115679141705,0.0011156560747871,-4.2463937736439e-09,7.2307971569926e-09,-1.1010980504927e-08,1.3808925152698e-08,-0.0016523007341458,0.0016523035458888,-0.0017864825202834,0.0017864733294346,-0.0017864744048953,0.0017864816118166,-0.0017864788069253,0.0017864771507745,-0.0017864707376001,0.0017864853961736,-0.0014583645499732,0.0014583467905639,-0.0014583404769023,0.0014583714368326,-0.0015376472724054,0.0015376471196514,-0.0015376361201613,0.0015376585859138,-9.6764307939204e-09,9.2032705501999e-09,-0.00090795312757719,0.00090795260332887,1.1838355429927e-08,-1.2749487871897e-08,-0.001062647735048,0.0010626491637309,-0.0010626559068723,0.0010626410282401,-0.0010626414037294,0.0010626554750499,-0.0010626496197029,0.0010626472969591,-0.00094622470125138,0.00094623443839747,-0.00094624312415407,0.00094621600103083,0.73340852284232,128566,2924,0.0048353628533673,0.0068588566623866,0.0037798882901373,29.290205695521,-5.6783544358322e-06,-5.6783544358322e-06,-5.6783544358322e-06,3554659.7839254,0.015595533157039
32419200,0.99776822951198,0.015718002750102,0.0050128494188646,0.0065338565605315,0.0041712967707062,-0.0011633779412891,0.0011633769482733,8.85047077984e-09,-9.8613478450372e-09,5.1129755039077e-09,-6.3146507790474e-09,-0.0013091025064098,0.0013091115201058,-0.0013091086958903,0.0013091052870263,-0.0013091061227725,0.0013091077185897,-0.0013091123795416,0.0013091014765707,-0.0011158314693135,0.0011158450130663,-0.0011158498380215,0.0011158266485598,-4.2473337398109e-09,7.2316928281599e-09,-1.099915356682e-08,1.3797001800124e-08,-0.0016525735571183,0.0016525763687936,-0.001786739359473,0.0017867301776122,-0.0017867312532105,0.0017867384504018,-0.0017867356454935,0.0017867339995156,-0.0017867275858945,0.0017867422347103,-0.0014586177289307,0.001458599995144,-0.0014585936806335,0.0014586246156673,-0.0015378912251452,0.0015378910631793,-0.0015378800719507,0.0015379025299838,-9.7536210102277e-09,9.2718310671128e-09,-0.00090798867999467,0.00090798814699054,1.1883092035725e-08,-1.2803982284157e-08,-0.0010628140214254,0.0010628154256148,-0.0010628222258396,0.0010628072574561,-0.0010628076410741,0.001062821785749,-0.001062815890264,0.0010628135744687,-0.00094630270282826,0.00094631254043504,-0.000946321267805,0.00094629396126702,0.75109425943751,128566,2924,0.0048357788356133,0.006859980716322,0.0037800428221335,29.299202209891,-5.6063823208745e-06,-5.6063823208745e-06,-5.6063823208745e-06,3547831.7638245,0.015597256430613
32619200,0.99786915556858,0.015719545355714,0.0050133376618848,0.0065345089140456,0.0041716987797841,-0.0011633684228799,0.0011633674306676,8.9005344222389e-09,-9.9106537116052e-09,5.1090549764639e-09,-6.3098599955202e-09,-0.0013091996561436,0.0013092087002297,-0.0013092058782044,0.0013092024348771,-0.0013092032692369,0.001309204902395,-0.0013092095594014,0.0013091986264228,-0.0011159111922637,0.0011159248389413,-0.0011159296606584,0.0011159063757556,-4.2417455819371e-09,7.2255280481956e-09,-1.0987289503201e-08,1.3784593808827e-08,-0.0016527687153334,0.0016527715264562,-0.0017869041714982,0.0017868949991538,-0.0017868960715545,0.0017869032654421,-0.0017869004606284,0.0017868988179816,-0.0017868924084226,0.0017869070452867,-0.001458805761048,0.0014587880475917,-0.0014587817362544,0.0014588126422633,-0.0015380533534585,0.0015380531963836,-0.0015380422131669,0.0015380646496572,-9.8324748613316e-09,9.3487395605046e-09,-0.000907917389597,0.00090791685483416,1.1893108398437e-08,-1.281584642873e-08,-0.0010629059302417,0.0010629072874659,-0.001062914141373,0.0010628991125843,-0.0010628994972725,0.0010629137002554,-0.0010629077543902,0.0010629054809783,-0.00094627640773477,0.0009462863861868,-0.00094629512330794,0.00094626765651623,0.69653886793221,128566,2924,0.0048357402619051,0.0068607821820489,0.0037797552420491,29.262923622161,-5.8966110227105e-06,-5.8966110227105e-06,-5.8966110227105e-06,3538909.2004053,0.015597741981437
32819200,0.99796520618612,0.015720894089153,0.0050137627766068,0.0065350872291178,0.0041720440834287,-0.0011633175126704,0.00116331652443,8.9938297589943e-09,-9.999980749362e-09,5.0936888681692e-09,-6.290181066992e-09,-0.001309175767549,0.0013091848663282,-0.0013091820522831,0.0013091785388908,-0.0013091793704436,0.0013091810790117,-0.0013091857206703,0.0013091747432105,-0.0011158871762856,0.0011159010140305,-0.0011159058204244,0.0011158823758112,-4.2320056615438e-09,7.2148828251057e-09,-1.0998959008882e-08,1.3795461987459e-08,-0.001652811672987,0.0016528144833093,-0.0017869635360737,0.0017869543624513,-0.0017869554291848,0.0017869626360947,-0.0017869598329504,0.001786958173279,-0.0017869517714089,0.0017869664105157,-0.0014588097318398,0.0014587919847189,-0.0014587856818478,0.0014588166065806,-0.0015380807083596,0.0015380805749739,-0.0015380695848392,0.0015380920119048,-9.8642473590823e-09,9.3893114450411e-09,-0.00090783344745,0.00090783292134183,1.1854121433933e-08,-1.276746372764e-08,-0.0010628548359715,0.0010628561497225,-0.0010628630191166,0.0010628480029005,-0.0010628483803575,0.0010628625852294,-0.0010628566070401,0.0010628543963916,-0.0009461982771319,0.00094620836792869,-0.00094621706678838,0.00094618956421906,0.64446135835105,128566,2924,0.0048355290914777,0.0068609583206128,0.0037794093209743,29.204465413661,-6.3642766907107e-06,-6.3642766907107e-06,-6.3642766907107e-06,3537784.6175361,0.015597355159824
33019200,0.99805662757419,0.015722289778479,0.0050142045575075,0.0065356767581381,0.0041724084628337,-0.0011632902485912,0.0011632892634435,9.0449788247674e-09,-1.0048023313881e-08,5.0815356070974e-09,-6.2743589255829e-09,-0.0013090935705777,0.0013091026951644,-0.001309099887388,0.0013090963353693,-0.0013090971634541,0.0013090989177087,-0.001309103547336,0.0013090925484265,-0.0011158219775933,0.0011158359266052,-0.0011158407201803,0.001115817188721,-4.2176057859795e-09,7.1989741649867e-09,-1.0969250229347e-08,1.3764387905986e-08,-0.0016527592385748,0.001652762047547,-0.0017869724839582,0.001786963339271,-0.001786964396817,0.0017869715923019,-0.0017869687899341,0.001786967140493,-0.0017869607496674,0.0017869753557976,-0.0014586910541813,0.0014586733580565,-0.0014586670661828,0.0014586979171141,-0.0015380315268386,0.0015380314034841,-0.0015380204340554,0.0015380428075618,-9.9409560529454e-09,9.4685001738145e-09,-0.00090779571495159,0.00090779519134416,1.1841775999019e-08,-1.2752349269944e-08,-0.001062720483606,0.0010627217379423,-0.0010627286569313,0.0010627136009433,-0.0010627139753614,0.0010627282261298,-0.0010627221935184,0.0010627200457878,-0.00094613287604092,0.00094614312990871,-0.00094615181698011,0.00094612417508331,0.69524135637692,128566,2924,0.0048354152344445,0.0068607443828349,0.0037792491046098,29.145453748317,-6.836370013467e-06,-6.836370013467e-06,-6.836370013467e-06,3543853.265326,0.015596857077486
33219200,0.99814365575652,0.01572368881231,0.0050146483938803,0.0065362630108905,0.0041727774075389,-0.0011632570882696,0.0011632561057817,9.1142393695082e-09,-1.0114678903647e-08,5.0693192007267e-09,-6.2595159652604e-09,-0.001309078457675,0.0013090876215222,-0.0013090848200339,0.0013090812163681,-0.001309082041873,0.0013090838528296,-0.001309088470826,0.0013090774385887,-0.0011158026046941,0.0011158166977645,-0.001115821479993,0.0011157978276711,-4.2053551105822e-09,7.1855682836448e-09,-1.0948736959484e-08,1.3742846499649e-08,-0.001652792037603,0.0016527948455142,-0.0017870216897087,0.0017870125664888,-0.0017870136164481,0.001787020805216,-0.0017870180042774,0.0017870163589548,-0.0017870099774249,0.0017870245603729,-0.0014586926753457,0.0014586750103255,-0.0014586687271629,0.0014586995279696,-0.0015380503463395,0.0015380502326722,-0.0015380392785629,0.0015380616125121,-9.9981816301992e-09,9.5304634405622e-09,-0.00090773270539777,0.00090773218664158,1.181762810822e-08,-1.2722649487747e-08,-0.0010626809573745,0.0010626821590366,-0.0010626891130821,0.0010626740396726,-0.001062674409637,0.0010626886867624,-0.0010626826097108,0.0010626805244701,-0.00094607565771014,0.00094608605121045,-0.0009460947158136,0.00094606697905192,0.72922790963641,128566,2924,0.0048352779376542,0.0068608791585658,0.0037789890696777,29.086420983103,-7.3086321351772e-06,-7.3086321351772e-06,-7.3086321351772e-06,3542110.5264366,0.015596590603744
33419200,0.99822785462222,0.015725069616859,0.0050150868041939,0.0065368400113236,0.0041731428013419,-0.0011637429740861,0.0011637420046368,9.1520120269324e-09,-1.0139246685272e-08,5.0294452677726e-09,-6.206045438866e-09,-0.0013096397838707,0.0013096489471989,-0.0013096461646547,0.0013096425249476,-0.0013096433336232,0.0013096452119595,-0.0013096497867585,0.0013096387751607,-0.0011163487287909,0.0011163629348756,-0.0011163676753091,0.00111634399947,-4.2516164629767e-09,7.2365294626393e-09,-1.1039794304744e-08,1.383801608346e-08,-0.0016534377940752,0.0016534406057733,-0.0017876544990138,0.0017876452814491,-0.0017876463621823,0.0017876535858215,-0.0017876507792397,0.0017876491098813,-0.0017876426941639,0.0017876573711145,-0.0014593178412323,0.0014593000390644,-0.0014592937186325,0.0014593247315211,-0.0015386699269204,0.0015386697963059,-0.0015386587747097,0.0015386812658888,-1.0076718993222e-08,9.6449282204017e-09,-0.00090814784520182,0.00090814736286173,1.163938362782e-08,-1.2504215462506e-08,-0.0010632153877671,0.0010632164257215,-0.0010632234082137,0.001063208440586,-0.0010632087729181,0.001063223020975,-0.0010632168434802,0.0010632149874472,-0.00094653661204484,0.00094654735692449,-0.00094655585115883,0.00094652810245116,0.74278652775834,128566,2924,0.0048372932396888,0.006863546775571,0.0037807190422139,29.311742304019,-5.5060615678457e-06,-5.5060615678457e-06,-5.5060615678457e-06,3539431.443031,0.015603105626217
33619200,0.99830961524959,0.015726410899607,0.0050155126409142,0.0065374006967389,0.0041734975619537,-0.0011643665430821,0.0011643655650643,9.2496573627874e-09,-1.0245478762892e-08,5.070042738419e-09,-6.2562566622417e-09,-0.0013103607205851,0.0013103699778551,-0.0013103671722868,0.0013103634829368,-0.0013103643041109,0.001310366209403,-0.0013103708232349,0.0013103597075215,-0.0011170548229859,0.0011170691807698,-0.0011170739567169,0.0011170500483345,-4.2016775497527e-09,7.1819583628078e-09,-1.0847914462483e-08,1.3642298646964e-08,-0.0016542524775111,0.0016542552858324,-0.0017884444843827,0.0017884354386505,-0.0017884364828676,0.0017884436041172,-0.0017884408032504,0.0017884392269865,-0.0017884328470471,0.0017884473557699,-0.0014601134539708,0.0014600959890403,-0.001460089708397,0.0014601203024443,-0.0015394577187577,0.0015394575421071,-0.0015394466594478,0.0015394689153397,-1.0112500889469e-08,9.6604092819668e-09,-0.0009086802224221,0.00090867971945349,1.1740208248226e-08,-1.2626336078301e-08,-0.0010639020403048,0.0010639031187684,-0.0010639101393574,0.0010638950567561,-0.0010638954115871,0.0010639097270692,-0.0010639035546802,0.0010639016229758,-0.0009471272516459,0.00094713795498704,-0.00094714654831572,0.00094711864378813,0.74303042382613,128566,2924,0.0048398793949277,0.0068669119998444,0.0037829375079541,29.613454612459,-3.0923631003291e-06,-3.0923631003291e-06,-3.0923631003291e-06,3536359.0490916,0.015611405674569
33819200,0.99838894819599,0.015727716507226,0.0050159272068136,0.0065379463729463,0.0041738429274664,-0.0011649828760613,0.0011649819025832,9.2911136553629e-09,-1.0282513356759e-08,5.0514922651803e-09,-6.2325464340435e-09,-0.0013110747867983,0.0013110840582934,-0.0013110812633909,0.0013110775403986,-0.0013110783550073,0.0013110803058477,-0.0013110849005419,0.001311073776188,-0.0011177595697717,0.0011177740279028,-0.001117778786421,0.001117754816674,-4.2171434581621e-09,7.1985522912864e-09,-1.0888321414784e-08,1.3683529435039e-08,-0.0016550661955925,0.0016550690045629,-0.0017892337065415,0.0017892246153368,-0.0017892256716058,0.0017892328145549,-0.0017892300121464,0.0017892284172884,-0.0017892220261388,0.0017892365766643,-0.0014609047361628,0.0014608872039702,-0.0014608809099158,0.0014609115968923,-0.0015402469804409,0.00154024680758,-0.0015402358932801,0.001540258208519,-1.0193742801087e-08,9.7560037355731e-09,-0.0009092059825706,0.00090920549423056,1.1660330545582e-08,-1.2530947669131e-08,-0.0010645814437311,0.0010645824172575,-0.0010645894823313,0.0010645744149257,-0.0010645747543602,0.0010645890867786,-0.0010645828399374,0.0010645810391302,-0.00094771032340166,0.00094772127081671,-0.00094772978978802,0.00094770178987187,0.74517769056522,128566,2924,0.004842435399459,0.0068702730559925,0.0037851288559695,29.917115638795,-6.6307488964122e-07,-6.6307488964122e-07,-6.6307488964122e-07,3533801.0626223,0.015619643231436
34019200,0.9984658578114,0.015728943633508,0.0050163163029478,0.006538461871711,0.0041741654588497,-0.0011655892069553,0.0011655882303116,9.3765847218797e-09,-1.0371165771726e-08,5.066708186666e-09,-6.2512112345525e-09,-0.0013117797416716,0.0013117890812462,-0.0013117862774186,0.0013117825026408,-0.001311783322214,0.0013117853156846,-0.0013117899246799,0.0013117787289716,-0.0011184557433822,0.0011184703525874,-0.0011184751251771,0.0011184509738979,-4.1990803207433e-09,7.178648584684e-09,-1.0817067961764e-08,1.3610602754252e-08,-0.0016558745312018,0.001655877338503,-0.0017900170026969,0.001790007974558,-0.001790009018517,0.0017900161210873,-0.0017900133225984,0.0017900117616899,-0.0017900053842432,0.0017900198713535,-0.0014616904238248,0.0014616730153884,-0.0014616667339427,0.0014616972678291,-0.0015410318967634,0.0015410317070852,-0.0015410208430303,0.0015410430741977,-1.0239650039202e-08,9.7911257020623e-09,-0.00090972234394072,0.00090972184489007,1.1705199084762e-08,-1.2587564368116e-08,-0.0010652514957668,0.0010652524675646,-0.0010652595699115,0.0010652444296044,-0.0010652447808591,0.0010652591622473,-0.0010652528991457,0.0010652510818823,-0.0009482833081499,0.00094829429371967,-0.00094830285767305,0.00094827472951614,0.72426545098351,128566,2924,0.0048449498493724,0.0068736117176492,0.0037872812518068,30.220851318696,1.7668105495672e-06,1.7668105495672e-06,1.7668105495672e-06,3531536.5991483,0.015627776263781
34219200,0.99854163731692,0.015730119547502,0.0050166886878633,0.0065389580579917,0.0041744728016474,-0.0011667787827344,0.001166777814041,9.417625072298e-09,-1.0404081554124e-08,5.0368630495652e-09,-6.2133288048935e-09,-0.001313047953848,0.0013130573011172,-0.0013130545128518,0.0013130507014961,-0.0013130515105272,0.0013130535606987,-0.0013130581398034,0.0013130469480005,-0.0011197196872019,0.0011197344072396,-0.0011197391504502,0.0011197149520405,-4.2084111248113e-09,7.1891044859104e-09,-1.0869248528624e-08,1.3663910712672e-08,-0.0016572464918296,0.0016572493003085,-0.0017913821238244,0.0017913730502217,-0.0017913741006241,0.0017913812376383,-0.0017913784347305,0.0017913768468171,-0.0017913704617222,0.0017913849929889,-0.0014630120831852,0.001462994583663,-0.0014629882961674,0.0014630189366221,-0.00154238709243,0.0015423869250207,-0.0015423760255912,0.0015423983071991,-1.0321381722673e-08,9.8910804407168e-09,-0.00091078867795485,0.00091078819725329,1.161969068669e-08,-1.248102010451e-08,-0.0010664419803287,0.0010664428428062,-0.0010664499884501,0.0010664348713914,-0.0010664352027788,0.001066449600503,-0.0010664432591737,0.0010664415824048,-0.00094941315302703,0.00094942439181742,-0.00094943287484953,0.00094940465631712,0.70594348644212,128566,2924,0.0048498820721,0.0068792833469629,0.0037917163042216,30.832224367492,6.6577949399365e-06,6.6577949399365e-06,6.6577949399365e-06,3536042.1993083,0.015643052054832
34419200,0.99861629234207,0.015731282845252,0.0050170571688586,0.0065394486725085,0.0041747770038847,-0.00116803769559,0.0011680367269339,9.4946383417683e-09,-1.0481226091074e-08,5.0430892939202e-09,-6.2191071247228e-09,-0.0013143631096581,0.0013143725137487,-0.0013143697207004,0.0013143658603669,-0.0013143666711167,0.001314368767709,-0.0013143733506824,0.001314362104373,-0.0011210322724684,0.0011210471341919,-0.001121051880892,0.001121027529869,-4.1876483083952e-09,7.1663491451881e-09,-1.0827132895934e-08,1.3619975460805e-08,-0.0016586531226051,0.0016586559291904,-0.0017927996838404,0.0017927906564147,-0.0017927916930487,0.0017927988098077,-0.0017927960109036,0.0017927944364368,-0.0017927880676808,0.0017928025512083,-0.0014643546085352,0.0014643371757022,-0.0014643309041787,0.0014643614443899,-0.0015437812301595,0.0015437810714726,-0.0015437702020571,0.0015437924121674,-1.0376928148685e-08,9.9368100296651e-09,-0.00091192314508892,0.00091192265450902,1.1661722496765e-08,-1.2534364535421e-08,-0.0010676637968391,0.0010676646494054,-0.0010676718380985,0.0010676566446667,-0.0010676569868493,0.0010676714395457,-0.0010676650740965,0.0010676633905206,-0.00095059949947885,0.0009506107997877,-0.00095061932273171,0.00095059096128718,0.70867958443929,128566,2924,0.0048551013946278,0.0068850997792424,0.0037964324095936,31.476029179139,1.180823343311e-05,1.180823343311e-05,1.180823343311e-05,3543439.7414354,0.015659051441154
34619200,0.99868968808951,0.015732474651881,0.0050174354075524,0.0065399482017334,0.0041750910425956,-0.0011693024603339,0.0011693014942891,9.5547425832426e-09,-1.0538770053767e-08,5.031955966442e-09,-6.2055651412446e-09,-0.0013156871481016,0.0013156965853136,-0.0013156937980466,0.0013156898937151,-0.0013156907008776,0.0013156928480457,-0.0013156974202621,0.0013156861452548,-0.0011223526716411,0.0011223676612238,-0.0011223723976151,0.0011223479410749,-4.1926474659685e-09,7.1716675644199e-09,-1.0868551107048e-08,1.3661628264987e-08,-0.0016600662978111,0.0016600691046426,-0.0017942225455722,0.0017942134848787,-0.0017942145257874,0.0017942216685249,-0.0017942188682333,0.0017942172692964,-0.0017942108972075,0.0017942254131612,-0.0014657044526563,0.0014656869427327,-0.0014656806671051,0.001465711292962,-0.0015451809116349,0.0015451807730877,-0.0015451698759082,0.0015451921237705,-1.0444578055604e-08,1.0006997218244e-08,-0.00091305858253478,0.00091305809450247,1.1648375203133e-08,-1.2518229321371e-08,-0.0010688926709132,0.0010688934696077,-0.0010689007017288,0.0010688854751923,-0.001068885814337,0.001068900306212,-0.0010688938921786,0.0010688922664734,-0.00095178936830986,0.00095180081440023,-0.00095180932550802,0.00095178084213851,0.73613738642492,128566,2924,0.00486034502988,0.006890943115267,0.0038011527625825,32.120724634361,1.6965797074885e-05,1.6965797074885e-05,1.6965797074885e-05,3550248.8850592,0.015675107599284
34819200,0.99876281865816,0.015733672681067,0.0050178157710433,0.0065404499618304,0.004175406948193,-0.0011710998422013,0.0011710988749471,9.629491376744e-09,-1.061445035986e-08,5.0429246947078e-09,-6.2184185265825e-09,-0.0013175929519555,0.0013176024482565,-0.0013175996533808,0.0013175957033762,-0.0013175965139274,0.0013175987011012,-0.0013176032817615,0.0013175919485529,-0.0011242459228813,0.0011242610483201,-0.0011242657904187,0.0011242411809052,-4.1650627001935e-09,7.1413383876025e-09,-1.0806721467254e-08,1.3597301369483e-08,-0.0016620865922844,0.0016620893964569,-0.0017962291045947,0.0017962201049075,-0.0017962211274273,0.0017962282418274,-0.0017962254473198,0.0017962238672598,-0.0017962175169677,0.0017962319690869,-0.0014676633875746,0.001467645975298,-0.0014676397207899,0.0014676702052973,-0.0015471786573203,0.0015471785268388,-0.0015471676785678,0.0015471898296464,-1.050336864981e-08,1.0053463968951e-08,-0.00091467452322279,0.00091467402307425,1.1695035505605e-08,-1.257715262513e-08,-0.0010706849683101,0.0010706857569483,-0.0010706930357635,0.0010706777254737,-0.0010706780786663,0.001070692626307,-0.0010706861898482,0.0010706845527685,-0.00095349629144774,0.00095350779468457,-0.00095351635557204,0.00095348771722817,0.74236047238837,128566,2924,0.0048677972691189,0.0068992954052792,0.0038078722935641,33.051261298214,2.4410090385712e-05,2.4410090385712e-05,2.4410090385712e-05,3556599.2716094,0.015697987857784
35019200,0.99883583651675,0.015734831734089,0.0050181832635301,0.006540938153728,0.0041757103168313,-0.0011730828137967,0.0011730818446041,9.7110107169503e-09,-1.069807060195e-08,5.0561524753269e-09,-6.2333628736312e-09,-0.0013197011854198,0.0013197107461127,-0.0013197079440095,0.0013197039446191,-0.0013197047597875,0.0013197069877777,-0.0013197115791693,0.0013197001821526,-0.0011263386012276,0.0011263538693317,-0.0011263586225992,0.0011263338474871,-4.1353701886323e-09,7.1086219964187e-09,-1.0735930270759e-08,1.352380272011e-08,-0.0016643183319222,0.001664321133497,-0.0017984429711931,0.0017984340367685,-0.0017984350411867,0.0017984421259642,-0.0017984393362015,0.0017984377768195,-0.0017984314477654,0.0017984458344879,-0.0014698275947762,0.001469810291175,-0.0014698040581859,0.0014698343869231,-0.0015493861141858,0.001549385986536,-0.0015493751851352,0.001549397231249,-1.0555999829876e-08,1.0091485481957e-08,-0.00091645136744774,0.00091645085267301,1.1759652190904e-08,-1.2658458332955e-08,-0.0010726670898876,0.001072667884857,-0.0010726752085033,0.0010726598026114,-0.0010726601720591,0.0010726747824093,-0.001072668329528,0.0010726666625099,-0.00095537564466484,0.00095538718170274,-0.00095539580648229,0.00095536700807855,0.72136488096764,128566,2924,0.0048760188022331,0.0069085213701671,0.0038152615584443,34.083253071387,3.2666024571098e-05,3.2666024571098e-05,3.2666024571098e-05,3563333.7978959,0.015723218157975
35219200,0.99890846280834,0.015735950877698,0.0050185376761697,0.0065414120217102,0.0041760011798177,-0.0011750749115445,0.0011750739375399,9.8040109483828e-09,-1.0796009795025e-08,5.079448909964e-09,-6.2618669733211e-09,-0.0013217922381569,0.0013218018780772,-0.0013217990637266,0.0013217950098369,-0.0013217958338673,0.0013217980997192,-0.001321802711436,0.0013217912329872,-0.0011284182619063,0.0011284336851601,-0.001128438459194,0.0011284134869534,-4.1087102351344e-09,7.0793395359778e-09,-1.0652298110428e-08,1.3437769232786e-08,-0.001666519603633,0.0016665224027756,-0.0018006445595071,0.0018006356949057,-0.0018006366834387,0.0018006437282772,-0.0018006409452283,0.0018006394138041,-0.0018006331034635,0.001800647422354,-0.001471943682226,0.0014719265095974,-0.0014719202947372,0.0014719504512145,-0.0015515715590102,0.0015515714170602,-0.001551560671143,0.0015515826164511,-1.0598590179101e-08,1.0113785389123e-08,-0.00091823592101853,0.00091823538589518,1.1853670298039e-08,-1.2775234241659e-08,-0.0010746133141575,0.0010746141404206,-0.0010746215058964,0.0010746059852178,-0.0010746063781526,0.0010746210562048,-0.0010746146010446,0.0010746128703259,-0.00095725231206307,0.00095726383504118,-0.00095727255020421,0.00095724358713889,0.70214229106494,128566,2924,0.0048842775905101,0.0069176226501693,0.0038226810298186,35.117811717463,4.0942493739706e-05,4.0942493739706e-05,4.0942493739706e-05,3572772.3894832,0.015748389972511
35419200,0.99897956049968,0.015737011191479,0.0050188730056639,0.00654186360794,0.0041762745778751,-0.0011766499512577,0.001176648975143,9.8665802724071e-09,-1.0860861569502e-08,5.0748249889514e-09,-6.2583300212549e-09,-0.001323431918849,0.0013234415943844,-0.001323438786719,0.001323434686846,-0.0013234355118821,0.0013234378205794,-0.0013234424317313,0.0013234309112153,-0.0011300526086593,0.0011300681601341,-0.0011300729374539,0.0011300478400819,-4.1574997997055e-09,7.1328773643751e-09,-1.0767564948811e-08,1.355731132868e-08,-0.0016682487689698,0.001668251572545,-0.0018023923992787,0.0018023834190615,-0.001802384440342,0.0018023915397732,-0.0018023887497162,0.0018023871749007,-0.001802380826419,0.0018023952681138,-0.0014735850207931,0.0014735676537387,-0.001473561404097,0.0014735918331309,-0.0015532893041719,0.0015532891469444,-0.0015532783128434,0.0015533004436846,-1.0658957705468e-08,1.0181991770366e-08,-0.00091963784378942,0.00091963731630353,1.1822939411022e-08,-1.2737326783075e-08,-0.0010761188059179,0.0010761195721159,-0.0010761269733878,0.0010761114416737,-0.0010761118260446,0.0010761265324244,-0.0010761200259284,0.0010761183695381,-0.00095871787990968,0.00095872956147437,-0.00095873824340019,0.00095870918797268,0.6816229734658,128566,2924,0.0048908069380579,0.0069247727127722,0.0038285088801123,35.930004481571,4.7440035852565e-05,4.7440035852565e-05,4.7440035852565e-05,3582081.0272944,0.01576820583011
35619200,0.99904832490904,0.015737996377799,0.0050191840157669,0.0065422861507942,0.0041765262112375,-0.0011779135717562,0.0011779125904565,9.9063858433522e-09,-1.090575086749e-08,5.0774538610382e-09,-6.2663077237181e-09,-0.0013247224205386,0.0013247321197992,-0.0013247293135797,0.0013247251869361,-0.0013247260136152,0.0013247283447302,-0.0013247329657163,0.0013247214053437,-0.0011313446790637,0.0011313603134834,-0.0011313651021565,0.0011313399034046,-4.216739751848e-09,7.1978116840291e-09,-1.0913851345509e-08,1.3708687850879e-08,-0.0016696058852507,0.0016696086939581,-0.0018037866689604,0.0018037775551788,-0.0018037786134738,0.0018037857760615,-0.0018037829768713,0.0018037813548707,-0.0018037749629687,0.0018037895425025,-0.001474849965062,0.0014748323620097,-0.0014748260704381,0.0014748568276157,-0.001554640495315,0.0015546403286907,-0.0015546293923797,0.0015546517407412,-1.0739503897951e-08,1.0272628987669e-08,-0.00092075747818811,0.0009207569605536,1.178377925375e-08,-1.2687507734565e-08,-0.0010772803955485,0.0010772810823401,-0.001077288530824,0.0010772729839001,-0.0010772733556163,0.0010772881027161,-0.001077281529488,0.0010772799662075,-0.00095987598853792,0.00095988786859307,-0.00095989650995038,0.00095986733526072,0.65729899082043,128566,2924,0.0048960449007612,0.0069303856997694,0.0038331615085247,36.574398085312,5.25951846825e-05,5.25951846825e-05,5.25951846825e-05,3591899.7743984,0.015783954043609
35819200,0.99911464297562,0.01573900834557,0.0050195045389107,0.0065427154532888,0.0041767883533702,-0.0011791871755239,0.001179186186117,9.9487338949204e-09,-1.095598023248e-08,5.1009897358919e-09,-6.2990713476354e-09,-0.0013259838747292,0.0013259936144882,-0.001325990796564,0.0013259866509955,-0.0013259874841542,0.0013259898215563,-0.001325994469375,0.0013259828499178,-0.0011326135648136,0.0011326292675838,-0.0011326340797674,0.001132608758683,-4.2311920378112e-09,7.2136982197064e-09,-1.0930342933585e-08,1.3726429436709e-08,-0.0016709103788759,0.0016709131887825,-0.0018051483918945,0.0018051392614494,-0.0018051403276434,0.0018051474908546,-0.0018051446893538,0.0018051430717444,-0.0018051366697058,0.0018051512653746,-0.0014760496438457,0.0014760320261647,-0.0014760257234946,0.0014760565165492,-0.0015559480200406,0.0015559478404914,-0.0015559368955155,0.0015559592791752,-1.0825125785976e-08,1.0350231455639e-08,-0.00092189220972621,0.000921891683948,1.1827751690952e-08,-1.2740073824717e-08,-0.0010783967051976,0.0010783973604196,-0.0010784048709177,0.0010783892312531,-0.0010783896093466,0.0010784044362585,-0.0010783978169904,0.0010783962661942,-0.00096103598960127,0.00096104798317269,-0.00096105666524801,0.00096102729539137,0.69619235051976,128566,2924,0.0049013239278077,0.006935783153139,0.0038378738651816,37.214617799983,5.7716942399861e-05,5.7716942399861e-05,5.7716942399861e-05,3604401.4291963,0.015799584847469
36019200,0.99917842931347,0.015740041860642,0.0050198328213452,0.0065431499012154,0.0041770591380812,-0.0011804553841231,0.0011804543908495,1.0012488698659e-08,-1.1023480564592e-08,5.1109894206492e-09,-6.3129963877055e-09,-0.001327298647946,0.0013273084357214,-0.0013273056137851,0.0013273014282015,-0.0013273022654235,0.0013273046347255,-0.0013273092943603,0.0013272976193112,-0.0011339210995672,0.0011339369188071,-0.0011339417419916,0.0011339162812006,-4.2451776261493e-09,7.228959543601e-09,-1.0954752510242e-08,1.3751951257152e-08,-0.001672282710574,0.0016722855216283,-0.0018065431100362,0.0018065339547004,-0.0018065350297678,0.0018065422007792,-0.0018065393981493,0.0018065377746744,-0.0018065313620475,0.0018065459852733,-0.0014773440759506,0.0014773264197486,-0.0014773201068076,0.0014773509600017,-0.001557309524007,0.0015573093329464,-0.0015572983703456,0.0015573208007797,-1.0888649290562e-08,1.0411062774179e-08,-0.00092300631817065,0.00092300578959808,1.1843349264515e-08,-1.2758930251663e-08,-0.0010795879742748,0.0010795885970551,-0.0010795961516011,0.0010795804563026,-0.0010795808371556,0.0010795957141097,-0.0010795890561742,0.0010795875327412,-0.00096220332539395,0.00096221542654199,-0.00096222412313314,0.00096219461727618,0.73586309789607,128566,2924,0.0049065813779262,0.0069414579696377,0.003842504840757,37.854677576556,6.283742061245e-05,6.283742061245e-05,6.283742061245e-05,3610500.8030726,0.015815395227696
36219200,0.99923753803133,0.015740967667258,0.0050201264657193,0.0065435414582075,0.0041772997433314,-0.00118043242752,0.0011804314268354,1.0067633235484e-08,-1.1086185496696e-08,5.1298708936953e-09,-6.3394322348733e-09,-0.0013273594569828,0.0013273692912895,-0.0013273664614923,0.0013273622448279,-0.0013273630888355,0.0013273654756178,-0.0013273701575607,0.0013273584205474,-0.0011339682517967,0.0011339841646392,-0.0011339890102782,0.0011339634101441,-4.2762815078882e-09,7.263046677086e-09,-1.1036174237806e-08,1.3835965799978e-08,-0.0016724058725409,0.0016724086862408,-0.0018066544763926,0.0018066452473408,-0.0018066463423412,0.0018066535492984,-0.0018066507428836,0.001806649089643,-0.0018066426538703,0.0018066573551377,-0.0014774455055908,0.0014774277130158,-0.001477421378456,0.0014774524164329,-0.0015574050536271,0.0015574048575802,-0.0015573938370759,0.0015574163878946,-1.0961661533276e-08,1.0475831353699e-08,-0.00092291128359283,0.00092291074639922,1.1891720647509e-08,-1.281754333439e-08,-0.0010796218854881,0.0010796224892586,-0.0010796300978965,0.0010796143133846,-0.0010796147019653,0.0010796296527065,-0.0010796229570844,0.0010796214353346,-0.00096214319118956,0.00096215538261343,-0.00096216412178012,0.00096213443920582,0.71361055078848,128566,2924,0.0049064865607787,0.0069419627535703,0.0038421173263396,37.827186725944,6.2617493807553e-05,6.2617493807553e-05,6.2617493807553e-05,3603516.4364912,0.01581542029154
36419200,0.99929146207768,0.015741800562841,0.0050203904843262,0.0065438943949097,0.0041775156836045,-0.0011798414412359,0.0011798404422832,1.0129460087624e-08,-1.1146181656667e-08,5.1250251451064e-09,-6.3329424836013e-09,-0.0013267977914547,0.0013268076640207,-0.0013268048360403,0.0013268005771789,-0.0013268014188952,0.0013268038522729,-0.0013268085290869,0.0013267967565081,-0.0011334155577281,0.0011334315963808,-0.0011334364376257,0.0011334107224857,-4.2841475943494e-09,7.2716133040874e-09,-1.1112351871866e-08,1.3912795292066e-08,-0.0016718721539878,0.0016718749683431,-0.0018061248391265,0.0018061155562959,-0.0018061166567431,0.001806123908565,-0.0018061211002958,0.0018061194042683,-0.0018061129636351,0.0018061277192426,-0.0014768885158426,0.0014768705816179,-0.0014768642424631,0.001476895434297,-0.0015568589806254,0.0015568588210273,-0.0015568477499862,0.0015568703661681,-1.1030199327658e-08,1.0540821262008e-08,-0.00092229258198242,0.00092229204108786,1.1916213874022e-08,-1.2846348725678e-08,-0.001079045170686,0.0010790457438501,-0.0010790534003532,0.0010790375505652,-0.0010790379420894,0.0010790529522298,-0.0010790462156124,0.0010790447166767,-0.00096152687850378,0.00096153917868737,-0.00096154793823977,0.00096151810570968,0.70434019942091,128566,2924,0.0049040363504412,0.0069397526174789,0.0038395517654043,37.496465038561,5.9971720308491e-05,5.9971720308491e-05,5.9971720308491e-05,3596003.3049829,0.015808080583924
36619200,0.99934069825759,0.015742516916268,0.0050206169258108,0.0065442008475566,0.0041776991429008,-0.0011792374867954,0.0011792364911855,1.0192819128277e-08,-1.1206130571711e-08,5.1109831455854e-09,-6.3153929331398e-09,-0.0013261999075308,0.0013262098137793,-0.0013262069927599,0.0013262026859232,-0.001326203523971,0.0013262060126248,-0.0013262106760096,0.0013261988755718,-0.001132832217651,0.0011328483919593,-0.0011328532192602,0.0011328273957028,-4.2710548694408e-09,7.2572333873251e-09,-1.1127772792885e-08,1.3927081688861e-08,-0.0016712892930179,0.0016712921062123,-0.0018055535804517,0.0018055442972757,-0.0018055453895391,0.0018055526582199,-0.0018055498504703,0.0018055481359578,-0.0018055417061488,0.0018055564591072,-0.001476281374509,0.0014762634031053,-0.0014762570744942,0.0014762882827901,-0.001556269015574,0.0015562688927959,-0.001556257814063,0.0015562804097783,-1.1095336738562e-08,1.0607851545864e-08,-0.00092167156924543,0.00092167103025635,1.1910185300985e-08,-1.283808091305e-08,-0.0010784310274164,0.001078431553493,-0.0010784392520158,0.0010784233651737,-0.0010784237544217,0.0010784388061963,-0.0010784320237525,0.0010784305749158,-0.0009608977442088,0.00096091017862096,-0.00096091893183953,0.00096088897761426,0.66675280837953,128566,2924,0.0049015322963293,0.0069373404504797,0.0038369747303688,37.158096168347,5.7264769346777e-05,5.7264769346777e-05,5.7264769346777e-05,3590035.4036619,0.015800468708607
36819200,0.99938571021601,0.015743153562136,0.0050208179163094,0.0065444742951488,0.0041778613506778,-0.0011786449284876,0.0011786439348691,1.0261869385967e-08,-1.1273239048213e-08,5.101204026941e-09,-6.3034084541986e-09,-0.001325555254876,0.0013255652018831,-0.0013255623858724,0.0013255580277414,-0.0013255588647247,0.001325561407298,-0.0013255660613094,0.0013255542252378,-0.0011322105467205,0.0011322268614706,-0.0011322316784446,0.0011322057323786,-4.2428212024305e-09,7.2262668256853e-09,-1.1071937328326e-08,1.3868801083882e-08,-0.0016706318571543,0.0016706346678635,-0.0018049402640983,0.0018049310370729,-0.0018049321114324,0.0018049393582467,-0.0018049365540558,0.0018049348551379,-0.0018049284467157,0.0018049431398431,-0.0014755805757371,0.0014755626932597,-0.0014755563852324,0.0014755874602581,-0.0015556171985435,0.0015556170915331,-0.001555606053276,0.0015556285512394,-1.115649317192e-08,1.0666025090417e-08,-0.00092108282009792,0.00092108227818899,1.1922489815738e-08,-1.2853476747851e-08,-0.001077755287661,0.0010777557808817,-0.0010777635220333,0.0010777475827395,-0.0010777479755148,0.0010777630726935,-0.0010777562533756,0.0010777548328011,-0.00096027344551787,0.00096028598604463,-0.00096029475177617,0.00096026466657917,0.6495783368409,128566,2924,0.004899074942915,0.0069346231783586,0.003834527011084,36.819433260272,5.4555466082176e-05,5.4555466082176e-05,5.4555466082176e-05,3589489.0261435,0.015792723896426
37019200,0.99942808382725,0.015743793707326,0.0050210206956567,0.0065447459317348,0.0041780270799349,-0.0011790545860828,0.0011790535891292,1.0322928794144e-08,-1.1337469088814e-08,5.1130362136817e-09,-6.3191656751792e-09,-0.0013259095370117,0.0013259195316624,-0.0013259167100623,0.0013259123160309,-0.0013259131560493,0.0013259157280733,-0.0013259203944051,0.0013259085043153,-0.0011325793606225,0.0011325957862615,-0.0011326006153936,0.0011325745347767,-4.2517845287247e-09,7.2361215016905e-09,-1.0953458916584e-08,1.3751126419586e-08,-0.0016710005345696,0.0016710033460699,-0.0018053671461896,0.0018053579914441,-0.0018053590698981,0.0018053662334763,-0.0018053634300284,0.0018053618158301,-0.0018053553990485,0.0018053700214981,-0.0014758780072012,0.0014758603636872,-0.0014758540451932,0.0014758848953511,-0.0015559903274617,0.0015559901244437,-0.001555979164497,0.0015560016037022,-1.1213109399142e-08,1.0739702712066e-08,-0.00092146105847345,0.000921460534069,1.1834155941071e-08,-1.2745148310612e-08,-0.0010780444835071,0.0010780448847526,-0.0010780526524689,0.0010780367520433,-0.0010780371279032,0.0010780522199316,-0.0010780453403023,0.0010780440454811,-0.00096064101345512,0.00096065376370306,-0.00096066244771119,0.00096063231709676,0.68961815572035,128566,2924,0.0049007725399225,0.0069361513909255,0.0038360943947932,37.016128885841,5.612903108673e-05,5.612903108673e-05,5.612903108673e-05,3597932.206047,0.015797590729039
37219200,0.99946821361554,0.015744442029356,0.0050212266640328,0.0065450182024201,0.0041781971629025,-0.0011796982280987,0.001179697227736,1.0381624933216e-08,-1.1399576538942e-08,5.1258079951155e-09,-6.3356660691035e-09,-0.0013265727469951,0.0013265827882418,-0.0013265799602136,0.0013265755322443,-0.0013265763755504,0.0013265789752173,-0.0013265836541298,0.0013265717104357,-0.0011332347170976,0.0011332512493954,-0.0011332560898958,0.0011332298766318,-4.2483080322822e-09,7.2323989168247e-09,-1.0816126492701e-08,1.3613555283348e-08,-0.0016717060991017,0.0016717089102516,-0.0018060953874634,0.0018060863249663,-0.001806087399558,0.0018060944746126,-0.0018060916732319,0.0018060901468679,-0.0018060837314326,0.0018060982602407,-0.0014765350466872,0.0014765176707458,-0.001476511352008,0.0014765419289083,-0.0015566813242068,0.001556681037454,-0.0015566701703203,0.0015566925103091,-1.1275525125528e-08,1.081200214774e-08,-0.00092204457651447,0.00092204406227459,1.1776796205813e-08,-1.2675858012781e-08,-0.0010786595205892,0.0010786598443263,-0.001078667647128,0.0010786517538991,-0.0010786521200148,0.0010786672243589,-0.00107866029033,0.0010786590918061,-0.00096125087898159,0.00096126381082297,-0.00096127244382266,0.00096124223368369,0.73362543146699,128566,2924,0.0049034409839729,0.0069390693445578,0.0038385194609142,37.342824870287,5.8742598962297e-05,5.8742598962297e-05,5.8742598962297e-05,3601662.3541274,0.015805729283455
37419200,0.99950617432736,0.015745012390135,0.0050214072332922,0.0065452607057281,0.0041783444511144,-0.0011803283169044,0.001180327321245,1.0450339146136e-08,-1.1463634429256e-08,5.1158490391912e-09,-6.3206639204677e-09,-0.0013272898699227,0.0013272999517215,-0.0013272971278358,0.0013272926521674,-0.0013272934905155,0.0013272961470012,-0.0013273008134749,0.0013272888386912,-0.0011339321013101,0.0011339487754844,-0.0011339536055094,0.0011339272760733,-4.2502342369674e-09,7.2343425863881e-09,-1.0776210263409e-08,1.3573638948706e-08,-0.0016724913587662,0.001672494170037,-0.0018068645111181,0.0018068554736681,-0.0018068565493571,0.0018068635971912,-0.0018068607958548,0.0018068592971162,-0.0018068528795874,0.0018068673840673,-0.0014773005928971,0.0014772832963047,-0.0014772769748801,0.0014773074756533,-0.0015574362256174,0.0015574359083656,-0.0015574250659401,0.0015574473841583,-1.1328571101004e-08,1.0881649506831e-08,-0.00092259580023703,0.00092259530283191,1.1689838088382e-08,-1.2570363410635e-08,-0.0010793505108061,0.0010793507462872,-0.0010793585737994,0.0010793427195909,-0.0010793430693076,0.0010793581673939,-0.001079351175874,0.0010793500986907,-0.00096185528895925,0.0009618684230436,-0.00096187697482835,0.00096184672479226,0.6866555903168,128566,2924,0.0049060539631688,0.0069423132169429,0.0038408153423363,37.672880303056,6.1383042424451e-05,6.1383042424451e-05,6.1383042424451e-05,3599274.5696927,0.015814013641555
37619200,0.99954203431784,0.015745532026976,0.0050215714610964,0.0065454829487143,0.0041784776171653,-0.001180972260951,0.001180971268642,1.0517040695339e-08,-1.1527075231067e-08,5.1056925835742e-09,-6.3069967968125e-09,-0.0013279512365963,0.0013279613572789,-0.0013279585383238,0.0013279540147758,-0.00132795484957,0.0013279575606407,-0.0013279622158854,0.0013279502090069,-0.0011345932117837,0.0011346100247648,-0.0011346148446649,0.0011345883988287,-4.2443843856175e-09,7.2279308667911e-09,-1.0743714899238e-08,1.3540643273701e-08,-0.0016731904350656,0.0016731932458257,-0.0018075856528823,0.001807576639359,-0.0018075777112644,0.0018075847419798,-0.0018075819415015,0.0018075804588553,-0.0018075740453824,0.0018075885249402,-0.0014779479679793,0.0014779307302225,-0.0014779244125092,0.0014779548454587,-0.0015581252835583,0.0015581249562432,-0.0015581141358095,0.0015581364201268,-1.1386446736048e-08,1.094915480166e-08,-0.00092317181757478,0.00092317133002706,1.1638502902431e-08,-1.2507873150115e-08,-0.0010799524199318,0.0010799525853324,-0.0010799604451692,0.0010799445964351,-0.0010799449367339,0.0010799600482721,-0.001079953005451,0.001079952017368,-0.0009624567100233,0.00096247001406034,-0.00096247851866088,0.00096244819268557,0.66415285874919,128566,2924,0.0049087234224963,0.0069452044125328,0.0038432091554756,38.003065453333,6.4024523626663e-05,6.4024523626663e-05,6.4024523626663e-05,3603694.1241914,0.015822094195121
37819200,0.99957495040496,0.015745990108391,0.005021715947837,0.0065456802231313,0.0041785939374228,-0.0011806330079539,0.0011806320182602,1.0587238456452e-08,-1.1594819175321e-08,5.096399785143e-09,-6.2942684131853e-09,-0.0013275761745884,0.001327586336664,-0.0013275835224447,0.0013275789478753,-0.0013275797805917,0.0013275825468086,-0.0013275871926285,0.0013275751498068,-0.0011342285776798,0.0011342455335216,-0.0011342503446121,0.0011342237740434,-4.2476697426051e-09,7.2314369059782e-09,-1.0832687351837e-08,1.3629802815586e-08,-0.0016728048154571,0.0016728076264629,-0.001807242434825,0.0018072333615024,-0.001807234436415,0.0018072415232117,-0.0018072387217235,0.001807237182848,-0.001807230767961,0.0018072453085246,-0.0014775205379359,0.0014775031267845,-0.0014774968096003,0.0014775274209587,-0.0015577400196911,0.0015577397442976,-0.001557728862701,0.0015577512143033,-1.1448678311788e-08,1.1004295396774e-08,-0.00092283148346836,0.00092283098851308,1.1675031366659e-08,-1.2553276127291e-08,-0.0010795489539431,0.0010795491008384,-0.0010795570069677,0.0010795410841355,-0.0010795414319206,0.0010795566027236,-0.001079549527817,0.001079548544724,-0.00096208898703771,0.00096210237346165,-0.00096211091150258,0.00096208043537875,0.64016141322258,128566,2924,0.0049073164088783,0.0069436112195001,0.003841793505658,37.804272496303,6.2434179970425e-05,6.2434179970425e-05,6.2434179970425e-05,3604515.1005569,0.015817607024928
38019200,0.99960511636165,0.015746428475233,0.0050218545404479,0.0065458674437826,0.0041787064910027,-0.0011802193333435,0.0011802183451658,1.065297368704e-08,-1.1658954611587e-08,5.0896994982053e-09,-6.2860680561123e-09,-0.0013270829038647,0.001327093105897,-0.0013270902948758,0.0013270856734963,-0.0013270865050043,0.0013270893207131,-0.0013270939601273,0.0013270818806066,-0.0011337541427693,0.0011337712320142,-0.0011337760363598,0.0011337493453573,-4.2381326756618e-09,7.220940711865e-09,-1.0908218735876e-08,1.3704465922973e-08,-0.0016722782998836,0.0016722811100395,-0.0018067764249102,0.0018067673084519,-0.0018067683783156,0.001806775519969,-0.0018067727185392,0.0018067711228586,-0.0018067647163031,0.0018067792986634,-0.0014769437908853,0.0014769262245095,-0.0014769199163689,0.0014769506679777,-0.0015572229902751,0.0015572227828684,-0.0015572118527416,0.001557234233661,-1.1517977332952e-08,1.106046896848e-08,-0.00092243473666667,0.00092243422842239,1.1740627189928e-08,-1.2633661948155e-08,-0.001079021252491,0.0010790213933744,-0.001079029354197,0.0010790133279443,-0.0010790136887121,0.0010790289369378,-0.0010790218330541,0.0010790208305314,-0.00096164826222926,0.0009616617099649,-0.00096167031010153,0.00096163964890619,0.66569813603222,128566,2924,0.0049056005893708,0.0069414374302533,0.0038401404975134,37.560024866498,6.0480198931986e-05,6.0480198931986e-05,6.0480198931986e-05,3607682.8412078,0.015811974055154
38219200,0.99963278609305,0.015746833878826,0.0050219827696266,0.0065460402979674,0.0041788108112324,-0.0011797978514898,0.0011797968642617,1.0713572614387e-08,-1.1718586076242e-08,5.0854132588492e-09,-6.2808227056483e-09,-0.0013266241957609,0.0013266344354037,-0.0013266316263728,0.0013266269628023,-0.0013266277933668,0.0013266306536322,-0.0013266352887262,0.0013266231729527,-0.0011333033123713,0.0011333205247663,-0.0011333253240322,0.0011332985187135,-4.2258669559594e-09,7.2075149080141e-09,-1.0956266413876e-08,1.375148593872e-08,-0.0016717945735461,0.0016717973826147,-0.0018063268358042,0.0018063176947282,-0.0018063187577057,0.0018063259386109,-0.0018063231374069,0.00180632150078,-0.0018063151042736,0.0018063297085631,-0.0014764305680974,0.0014764128993533,-0.0014764066017769,0.0014764374364245,-0.0015567376897257,0.0015567375387981,-0.0015567265785152,0.001556748963544,-1.1592407582731e-08,1.1121113480393e-08,-0.00092202167963641,0.00092202115742544,1.1810510063172e-08,-1.2719033087478e-08,-0.0010785468907242,0.0010785470239679,-0.0010785550433068,0.0010785389076594,-0.0010785392817485,0.0010785546127181,-0.0010785474774491,0.0010785464548989,-0.00096121182937398,0.00096122534341271,-0.00096123400857699,0.00096120315110045,0.67076171485703,128566,2924,0.0049038529267762,0.0069394382532836,0.0038384229496495,37.314486315328,5.8515890522625e-05,5.8515890522625e-05,5.8515890522625e-05,3606269.6041045,0.01580642216331
38419200,0.99965835982958,0.015747234204333,0.0050221098001489,0.0065462090882505,0.0041789153159339,-0.001179612848138,0.0011796118617301,1.0779662931815e-08,-1.178378520555e-08,5.0816588779326e-09,-6.2764278889657e-09,-0.0013264158893253,0.0013264261710342,-0.001326423363854,0.0013264186546656,-0.0013264194843983,0.0013264223917109,-0.0013264270234449,0.0013264148677285,-0.001133099585593,0.001133116929354,-0.0011331217258985,0.0011330947964924,-4.2324572497481e-09,7.2147084309039e-09,-1.0992939940878e-08,1.3788717093275e-08,-0.0016715719323849,0.0016715747420246,-0.0018061313479923,0.0018061221789678,-0.0018061232464528,0.0018061304474436,-0.0018061276454675,0.0018061259895778,-0.0018061195883442,0.0018061342221014,-0.0014761801004306,0.0014761623638837,-0.001476156061545,0.0014761869744388,-0.0015565105564578,0.0015565104165813,-0.0015564994313448,0.0015565218557036,-1.1654753074217e-08,1.1182812575146e-08,-0.00092183403828069,0.0009218335154292,1.1816203585209e-08,-1.2725489196707e-08,-0.001078321970475,0.0010783220660649,-0.0010783301273887,0.0010783139454336,-0.0010783143202682,0.0010783296960684,-0.0010783225199773,0.0010783215342889,-0.0009610139255314,0.00096102755747051,-0.00096103622725598,0.00096100524301501,0.71253732104634,128566,2924,0.0049030858100108,0.0069385184101804,0.0038376425258029,37.1966930618,5.7573544494401e-05,5.7573544494401e-05,5.7573544494401e-05,3605511.4913405,0.01580391518307
38619200,0.99968214917711,0.015747608674917,0.0050222286545951,0.0065463668719397,0.0041790131483822,-0.001179626922288,0.0011796259335732,1.0834077686591e-08,-1.1840483362459e-08,5.0907333381461e-09,-6.2880105357709e-09,-0.001326475311525,0.0013264856341938,-0.0013264828224925,0.0013264780813986,-0.0013264789128689,0.0013264818486778,-0.0013264864893815,0.0013264742870557,-0.0011331493260073,0.0011331667712303,-0.0011331715764957,0.0011331445276393,-4.2353563106543e-09,7.2178859578915e-09,-1.0967501565709e-08,1.3763523513922e-08,-0.001671649300441,0.0016716521103276,-0.0018061971315288,0.0018061879766778,-0.0018061890456765,0.0018061962289647,-0.0018061934264647,0.0018061917899409,-0.001806185386085,0.0018062000050722,-0.001476254777552,0.0014762370946446,-0.0014762307891695,0.0014762616527698,-0.0015565682147041,0.0015565680538752,-0.0015565570850909,0.0015565794969737,-1.1727062749003e-08,1.1254821798837e-08,-0.00092181864592184,0.00092181812280425,1.1818367430517e-08,-1.2727916148661e-08,-0.0010783816245712,0.0010783816725337,-0.0010783897822602,0.0010783735511376,-0.0010783739256311,0.0010783893511894,-0.0010783821272455,0.0010783811875334,-0.00096102317082951,0.00096103694067013,-0.0009610456122503,0.0009610144865755,0.7162596587016,128566,2924,0.004903144748464,0.0069388358566175,0.0038375824447646,37.193727266012,5.7549818128096e-05,5.7549818128096e-05,5.7549818128096e-05,3600142.5312213,0.015804238186696
38819200,0.99970428215773,0.015747958297892,0.0050223396436742,0.0065465141091373,0.0041791045450806,-0.0011796410730853,0.0011796400844031,1.0938402337486e-08,-1.1944796222029e-08,5.090829291349e-09,-6.2880129676966e-09,-0.0013265373046751,0.0013265476992724,-0.0013265448877557,0.0013265400748381,-0.0013265409083129,0.001326543911545,-0.0013265485525237,0.0013265362827071,-0.0011332025544263,0.0011332201976534,-0.0011332250034611,0.0011331977565484,-4.2398414156375e-09,7.2227627620849e-09,-1.0971541953748e-08,1.3767911467638e-08,-0.001671734691683,0.0016717375019641,-0.0018062678283194,0.0018062586702481,-0.0018062597419227,0.0018062669232331,-0.0018062641223253,0.0018062624843539,-0.0018062560771601,0.0018062707047402,-0.001476340813605,0.0014763231195755,-0.0014763168111911,0.0014763476928502,-0.001556635845105,0.0015566356719099,-0.0015566247003366,0.0015566471311242,-1.1746501869328e-08,1.1282043857555e-08,-0.00092180333547866,0.00092180282016753,1.1781939124259e-08,-1.2682892313837e-08,-0.0010784446189137,0.0010784446342863,-0.0010784527518243,0.0010784365377562,-0.0010784369067674,0.0010784523261511,-0.001078445079179,0.001078444191789,-0.00096103205128849,0.00096104590793128,-0.00096105454450256,0.00096102340169587,0.71844599483566,128566,2924,0.004903203984172,0.0069391863612201,0.0038375228086627,37.19361328357,5.7548906268556e-05,5.7548906268556e-05,5.7548906268556e-05,3595040.5179775,0.015804595500991
38880000,0.99971086092344,0.015748062348996,0.00502237267865,0.0065465579125624,0.0041791317577841,-0.0011796431219571,0.0011796421331022,1.0947088920779e-08,-1.1953688738416e-08,5.0913850029974e-09,-6.2887282688446e-09,-0.001326555328692,0.0013265657286707,-0.0013265629166992,0.0013265580989304,-0.0013265589320407,0.0013265619410923,-0.0013265665824786,0.0013265543056961,-0.0011332234189951,0.0011332410812246,-0.0011332458866636,0.0011332186191996,-4.2367254435341e-09,7.2193983495713e-09,-1.0952594634752e-08,1.3748737862378e-08,-0.0016717614538126,0.0016717642638013,-0.0018062896585518,0.0018062805144432,-0.001806281583998,0.0018062887548236,-0.0018062859539823,0.0018062843269834,-0.0018062779220963,0.0018062925335176,-0.0014763674648981,0.0014763498080431,-0.001476343501803,0.0014763743414486,-0.0015566574800765,0.0015566573021873,-0.0015566463436405,0.0015566687532386,-1.1777077794705e-08,1.1311565242869e-08,-0.00092179588470684,0.00092179536833565,1.1784469716157e-08,-1.2686442108632e-08,-0.0010784630237252,0.0010784630192556,-0.0010784711580063,0.0010784549212437,-0.0010784552908073,0.0010784707319224,-0.0010784634658892,0.0010784625947689,-0.0009610334329479,0.00096104734329571,-0.00096105598315174,0.00096102477994118,0.71909629781295,128566,2924,0.0049032126451262,0.0069392961619674,0.0038374931725475,37.193609021414,5.7548872171309e-05,5.7548872171309e-05,5.7548872171309e-05,3593436.2921217,0.015804686257197
