time,ASR_ext,ASR_strain,ASR_strain_xx,ASR_strain_yy,ASR_strain_zz,disp_x_101,disp_x_102,disp_x_103,disp_x_104,disp_x_105,disp_x_106,disp_x_p1_neg,disp_x_p1_pos,disp_x_p2_neg,disp_x_p2_pos,disp_x_p3_neg,disp_x_p3_pos,disp_x_p4_neg,disp_x_p4_pos,disp_x_p5_neg,disp_x_p5_pos,disp_x_p6_neg,disp_x_p6_pos,disp_y_101,disp_y_102,disp_y_103,disp_y_104,disp_y_105,disp_y_106,disp_y_p1_neg,disp_y_p1_pos,disp_y_p2_neg,disp_y_p2_pos,disp_y_p3_neg,disp_y_p3_pos,disp_y_p4_neg,disp_y_p4_pos,disp_y_p5_neg,disp_y_p5_pos,disp_y_p6_neg,disp_y_p6_pos,disp_y_p7_neg,disp_y_p7_pos,disp_y_p8_neg,disp_y_p8_pos,disp_z_101,disp_z_102,disp_z_103,disp_z_104,disp_z_105,disp_z_106,disp_z_p1_neg,disp_z_p1_pos,disp_z_p2_neg,disp_z_p2_pos,disp_z_p3_neg,disp_z_p3_pos,disp_z_p4_neg,disp_z_p4_pos,disp_z_p5_neg,disp_z_p5_pos,disp_z_p6_neg,disp_z_p6_pos,humidity,ndof,nelem,strain_xx,strain_yy,strain_zz,temp,thermal_strain_xx,thermal_strain_yy,thermal_strain_zz,vonmises,vstrain
2419200,0,0,0,0,0,0,0,0,0,0,0,0,0,0,0,0,0,0,0,0,0,0,0,0,0,0,0,0,0,0,0,0,0,0,0,0,0,0,0,0,0,0,0,0,0,0,0,0,0,0,0,0,0,0,0,0,0,0,0,0,0,0,0,0,0,0,0,0,0,0,0,0,0,0,0
2619200,0.019550901281873,0.00040106522372038,0.00013368840790679,0.00013368840790679,0.00013368840790679,-3.4461455166918e-05,3.4462826659375e-05,6.4036659346026e-10,7.2052700673635e-10,-1.9167983648111e-09,3.3704161318709e-09,-3.4045779481071e-05,3.4045375363705e-05,-3.4045675549223e-05,3.4045324878539e-05,-3.4044052678463e-05,3.4047100424717e-05,-3.4044025999636e-05,3.4047127016548e-05,-3.5011842150201e-05,3.5014875654205e-05,-3.501174696248e-05,3.5014937203671e-05,1.7305823769956e-09,-3.5617462864414e-09,-1.7660817903108e-08,1.5912582511049e-08,-3.5698755218375e-05,3.5696996954425e-05,-3.5075545282642e-05,3.5064540193878e-05,-3.5064821144808e-05,3.5075800261416e-05,-3.5077229236562e-05,3.5062773100157e-05,-3.5066505001133e-05,3.5074032916252e-05,-3.5928920172195e-05,3.5892472417203e-05,-3.5896461418154e-05,3.5925910008474e-05,-3.6148066017042e-05,3.6162599691614e-05,-3.6153215616587e-05,3.6157300011988e-05,-3.5544084849895e-09,-3.6359562531727e-09,-3.3275128505299e-05,3.3267876264023e-05,1.2667431076362e-08,-2.0467672739011e-08,-3.3005333378027e-05,3.3009251242029e-05,-3.3016314771606e-05,3.2998263948756e-05,-3.3005366225129e-05,3.3009229715234e-05,-3.3016346468513e-05,3.2998241118792e-05,-3.4368428988299e-05,3.4350119230793e-05,-3.4368333571177e-05,3.4350183685537e-05,0.81992966253805,128566,2924,0.00014358188968418,0.00014873002521968,0.00013862163114753,31.536296471509,1.2290371772071e-05,1.2290371772071e-05,1.2290371772071e-05,547124.52696625,0.00043102663525771
2819200,0.04114446191834,0.00083704351842862,0.00027925865347618,0.00028114417474248,0.00027664069020996,-7.1039022306034e-05,7.1035733471188e-05,-1.6124459004602e-09,-1.6593525301736e-09,3.1959080287921e-09,-6.6411960155057e-09,-7.1120472347129e-05,7.1120458420277e-05,-7.1120410647015e-05,7.1120365880167e-05,-7.1123577920933e-05,7.1117142191474e-05,-7.1123590246736e-05,7.1117122908438e-05,-7.1742059221963e-05,7.1735580808367e-05,-7.174207213859e-05,7.1735500754387e-05,-2.7811954715271e-09,7.0189824820209e-09,-1.5059654512818e-08,1.914943119968e-08,-7.4129973039499e-05,7.4134076306308e-05,-7.3550035726837e-05,7.3539696735705e-05,-7.353905364462e-05,7.3551130887658e-05,-7.3546924700424e-05,7.3542972757739e-05,-7.3535942886937e-05,7.3554406445796e-05,-7.4005023639992e-05,7.3978773809442e-05,-7.3971896810191e-05,7.4012807606888e-05,-7.4557143090418e-05,7.4563002104743e-05,-7.454762213287e-05,7.4572810699335e-05,-1.5668033783003e-09,-1.5166260945483e-09,-6.7972355037361e-05,6.7969188204076e-05,1.510171144246e-08,-1.8803562526468e-08,-6.8532877502215e-05,6.8541092511145e-05,-6.8544152648287e-05,6.8529824566264e-05,-6.8532850444438e-05,6.8541099240134e-05,-6.8544128015869e-05,6.8529832956236e-05,-6.9979444060336e-05,6.9965087440098e-05,-6.9979520787549e-05,6.9965066940553e-05,0.82138489930989,128566,2924,0.0002959451562409,0.00030883554556739,0.00028317160175217,32.738039301313,2.1904314410508e-05,2.1904314410508e-05,2.1904314410508e-05,736514.8102902,0.00088834710269945
3019200,0.062603109805556,0.001266354276298,0.00042289201371366,0.00043015438866411,0.00041330787392027,-0.00010436168633676,0.00010435789182958,-1.8065016388374e-09,-1.9714743295246e-09,5.6355962436265e-09,-9.6593683200753e-09,-0.00010505021496066,0.00010505152503959,-0.00010505022437806,0.00010505142683485,-0.00010505506011657,0.0001050463980955,-0.00010505512603245,0.00010504635190979,-0.00010510158733158,0.00010509290231716,-0.0001051017549125,0.00010509274020042,-5.1884259995921e-09,1.0229980826417e-08,-1.3563863382759e-08,1.8358386801992e-08,-0.00011012503403742,0.00011012985559803,-0.00010957601288377,0.00010956525808142,-0.00010956569241448,0.00010957589929063,-0.00010957109562965,0.00010957040650728,-0.00010956077721274,0.00010958104544553,-0.00010936964448063,0.00010934821432265,-0.00010933868796156,0.00010937992520665,-0.00011060274251646,0.00011060305878295,-0.00011058772746885,0.00011061849578239,-1.0085352863628e-09,-8.1782258539366e-10,-9.852946225888e-05,9.8527581611984e-05,1.4515329938307e-08,-1.6883273784391e-08,-9.989353537972e-05,9.9902159878758e-05,-9.9904003936006e-05,9.9891737981422e-05,-9.9893456551232e-05,9.9902210505991e-05,-9.9903927632395e-05,9.9891786502275e-05,-0.00010181021602614,0.00010179807952846,-0.00010181043304052,0.00010179792972874,0.82013324291729,128566,2924,0.00043473768636882,0.000458758599596,0.00041045189665274,32.491843938507,1.9934751508059e-05,1.9934751508059e-05,1.9934751508059e-05,998481.85140524,0.0013047996972054
3219200,0.083829392842435,0.0016800690396758,0.00056106229386135,0.00057683579732497,0.00054217094848947,-0.00013626729041666,0.00013626384315809,-1.5734943939468e-09,-1.8692865433507e-09,6.3557126597831e-09,-1.0050904400836e-08,-0.00013784375667163,0.00013784582523162,-0.00013784382194182,0.00013784569572003,-0.00013784895574204,0.00013784033096205,-0.00013784907013702,0.00013784024660686,-0.00013676526193897,0.00013675666104981,-0.00013676556892133,0.00013675638317549,-5.7688195599709e-09,1.0724575743801e-08,-1.2605191300794e-08,1.7291511724267e-08,-0.00014549035929198,0.00014549507427365,-0.00014528219074963,0.00014527161660191,-0.00014527249266708,0.00014528157008277,-0.00014527690551872,0.00014527711338315,-0.00014526720907021,0.00014528706509505,-0.00014363364063996,0.0001436144523373,-0.00014360463426651,0.00014364413612621,-0.00014571347795493,0.00014571196875732,-0.00014569739707033,0.00014572847281654,-7.473794151877e-10,-4.2888996750001e-10,-0.00012716230613895,0.00012716108692716,1.3879874395232e-08,-1.5559436423513e-08,-0.00012960611528041,0.00012961470901931,-0.00012961594031061,0.00012960494316372,-0.00012960599776026,0.00012961480630337,-0.00012961582590921,0.0001296050389169,-0.00013163031825461,0.00013161960968047,-0.00013163064489079,0.00013161931887791,0.80675913296017,128566,2924,0.00056761166904928,0.00060603497216008,0.00052970173841115,32.203993807757,1.7631950462057e-05,1.7631950462057e-05,1.7631950462057e-05,1213497.1608588,0.0017048015971012
3419200,0.10479774994068,0.0020745620693258,0.0006922523847378,0.00071993321491457,0.00066237646967343,-0.00016647432704988,0.00016647134638651,-1.2791355728727e-09,-1.7047242483915e-09,6.5303918916354e-09,-9.7667766096935e-09,-0.00016928759026619,0.00016929013603799,-0.00016928770438019,0.00016928996879272,-0.00016929275364314,0.00016928468023618,-0.000169292912135,0.00016928455358941,-0.00016636720091751,0.00016635921798562,-0.00016636763719746,0.00016635881553867,-5.7393709797077e-09,1.0639908309171e-08,-1.1863296788971e-08,1.6491714803235e-08,-0.00017999183819327,0.00017999649449003,-0.00018058166853811,0.00018057157084959,-0.00018057245893297,0.00018058100358131,-0.00018057640777917,0.00018057702128269,-0.0001805671996669,0.00018058645238795,-0.00017642721803303,0.00017640944644768,-0.00017639970363789,0.00017643759805237,-0.00017950740573202,0.00017950545051206,-0.00017949143546836,0.00017952183578353,-6.0844590366322e-10,-1.6116338221383e-10,-0.00015375715205041,0.00015375634275737,1.3338248771046e-08,-1.4586766857529e-08,-0.00015758630539884,0.0001575947601526,-0.00015759562773759,0.00015758549861236,-0.00015758614754997,0.00015759490292246,-0.00015759547239543,0.00015758563935856,-0.00015917261298742,0.00015916294355858,-0.00015917305420514,0.0001591625149013,0.78589836312237,128566,2924,0.00069339583318315,0.00074969290292446,0.00064045140184628,31.914514449983,1.5316115599861e-05,1.5316115599861e-05,1.5316115599861e-05,1409674.0612972,0.0020857145886758
3619200,0.12602731090617,0.0024616901185295,0.0008203064967069,0.00086318213803816,0.00077820148378444,-0.00019659000104506,0.00019658757590822,-9.4098481716591e-10,-1.491394364611e-09,6.3769719329744e-09,-9.0531934215524e-09,-0.00020090679884734,0.00020090965713721,-0.00020090695537474,0.00020090945042792,-0.00020091168415712,0.00020090449247744,-0.00020091188407473,0.0002009043227082,-0.00019546753244307,0.00019546051081162,-0.00019546809119129,0.000195459982496,-5.4160465579366e-09,1.0113477441089e-08,-1.1597833241523e-08,1.6036383004779e-08,-0.00021526098210985,0.00021526544634526,-0.00021719158312258,0.00021718181122486,-0.00021718260669657,0.00021719100247321,-0.00021718659187522,0.00021718697498932,-0.00021717761826916,0.00021719616328404,-0.00020930226648146,0.0002092847286154,-0.00020927545352574,0.0002093121691525,-0.00021356597189862,0.00021356442363008,-0.00021355083731663,0.00021357995721371,-5.9537376660224e-10,-1.430358472763e-11,-0.00017997890070742,0.00017997825067917,1.3055094223612e-08,-1.4134014428789e-08,-0.00018525742845954,0.00018526574906177,-0.00018526650196654,0.00018525673115628,-0.0001852572253603,0.00018526593708217,-0.00018526630315577,0.00018525691627452,-0.00018628272467548,0.00018627359108006,-0.00018628328923236,0.00018627302764659,0.77011574948852,128566,2924,0.00081878397429332,0.00089652533223738,0.00074963591826675,31.993831396901,1.5950651175205e-05,1.5950651175205e-05,1.5950651175205e-05,1629598.6139982,0.0024679888145805
3819200,0.147862707196,0.0028556068361397,0.00094997581715305,0.001011137569918,0.00089449344906864,-0.00022750803040287,0.00022750602922377,-6.5530494679178e-10,-1.3554070632823e-09,6.2170808099029e-09,-8.4640853903469e-09,-0.00023344186853436,0.0002334449570133,-0.00023344207914274,0.00023344469813171,-0.00023344651685257,0.00023344004194104,-0.00023344676209087,0.0002334398247395,-0.00022530227862822,0.00022529606270945,-0.00022530297098326,0.00022529539529467,-5.1408688636836e-09,9.5723628141588e-09,-1.1560915591479e-08,1.5747209241758e-08,-0.00025218199569578,0.00025218620526764,-0.00025579801548606,0.00025578837101058,-0.00025578914849618,0.00025579744974276,-0.00025579329115101,0.00025579325791508,-0.0002557844202933,0.00025580234039033,-0.00024345384141021,0.00024343608776507,-0.00024342733342568,0.00024346321710178,-0.0002490112550247,0.00024901013127054,-0.00024899690797871,0.00024902486253313,-6.2930596757584e-10,6.0803062524261e-11,-0.00020674006243278,0.00020673945269029,1.2974507352626e-08,-1.400841247234e-08,-0.00021343415136728,0.00021344240761181,-0.00021344315612965,0.00021343345473566,-0.00021343391437264,0.00021344262785779,-0.00021344291679161,0.00021343367903562,-0.00021416427367716,0.00021415536799585,-0.0002141649535521,0.00021415468608404,0.77140160602278,128566,2924,0.00094749598314749,0.0010502110177808,0.00086105534734302,32.325082519228,1.8600660153823e-05,1.8600660153823e-05,1.8600660153823e-05,1851215.1204233,0.002862856731324
4019200,0.17029436381464,0.0032574613645221,0.0010817771599369,0.0011641844385611,0.0010114997660241,-0.00025886927707052,0.00025886758081133,-4.3807153695009e-10,-1.2696466503082e-09,6.125485516005e-09,-8.063445755723e-09,-0.0002665464727601,0.00026654975031548,-0.00026654672939329,0.00026654944752534,-0.0002665509657534,0.0002665449999309,-0.0002665512539107,0.00026654473886422,-0.00025549152742044,0.00025548590488535,-0.00025549234545971,0.00025548510827398,-4.9922881389801e-09,9.2276617580027e-09,-1.1568216000986e-08,1.5567389942894e-08,-0.00029040796951896,0.00029041199013834,-0.00029597469473783,0.00029596508801296,-0.00029596588807817,0.00029597410600837,-0.00029597013258253,0.0002959698072222,-0.00029596132009038,0.00029597883077943,-0.00027862845178495,0.00027861051505337,-0.00027860210987535,0.000278637475659,-0.00028548994739646,0.00028548905389813,-0.00028547607793105,0.0002855032974783,-6.8587720398381e-10,1.314271220091e-10,-0.00023363647346878,0.00023363587698949,1.2902575629024e-08,-1.3919718463531e-08,-0.00024182112343298,0.00024182929773003,-0.00024183007540848,0.00024182039585481,-0.00024182084452061,0.00024182955902674,-0.00024182979257078,0.0002418206622918,-0.00024239182202001,0.00024238311019028,-0.00024239262768863,0.00024238230202934,0.77299484737199,128566,2924,0.0010780358043321,0.001209303171166,0.0009730273000221,32.66258233314,2.1300658665122e-05,2.1300658665122e-05,2.1300658665122e-05,2058562.3969015,0.00326569291128
4219200,0.19329645173169,0.003667752298804,0.0012158853261239,0.0013226202824917,0.0011292466901884,-0.00029069656084809,0.00029069506538774,-2.7521290897774e-10,-1.2332678123787e-09,6.07131416897e-09,-7.8063511706685e-09,-0.00030027273293953,0.00030027615049991,-0.00030027303242466,0.00030027580659797,-0.00030027712548148,0.00030027150672668,-0.00030027745640326,0.00030027120254418,-0.00028604841035302,0.00028604321722712,-0.00028604935392788,0.00028604229420697,-4.9131099207468e-09,9.0037200603708e-09,-1.156194633652e-08,1.5422959517409e-08,-0.00033003827240977,0.00033004215337745,-0.00033776766854126,0.00033775807567712,-0.00033775891254172,0.00033776704245738,-0.00033776320495185,0.00033776269289296,-0.00033775444419843,0.00033777166415176,-0.00031497182647129,0.000314953801773,-0.00031494563445619,0.00031498061086516,-0.00032312722764559,0.0003231264375248,-0.00032311365349604,0.00032314038011932,-7.5358571205282e-10,1.9589784342272e-10,-0.00026064213433664,0.0002606415338901,1.2821320356567e-08,-1.3839894121082e-08,-0.00027052422718884,0.00027053229786363,-0.00027053312462378,0.00027052344936486,-0.00027052390312591,0.0002705326029531,-0.00027053279778054,0.000270523758443,-0.00027090514454113,0.00027089661113617,-0.00027090607832608,0.00027089567563092,0.77488672712856,128566,2924,0.0012104978077178,0.0013742125307453,0.0010854439099911,33.000320578331,2.4002564626652e-05,2.4002564626652e-05,2.4002564626652e-05,2251490.7403545,0.0036769056577988
4419200,0.21723752111071,0.0040930305237346,0.0013543111428364,0.0014892702184262,0.0012494491624721,-0.00032394904455931,0.0003239477059175,-1.4615296814921e-10,-1.2069018109619e-09,5.9876610591953e-09,-7.563500234892e-09,-0.00033563698901187,0.00033564048645769,-0.00033563731987537,0.00033564011318187,-0.0003356412746133,0.00033563595795885,-0.00033564164423799,0.00033563561565092,-0.00031795333350185,0.00031794851707096,-0.00031795439107392,0.00031794748273093,-4.8358804689065e-09,8.8006229672888e-09,-1.158216023072e-08,1.5323838936122e-08,-0.00037226844266084,0.0003722722028379,-0.00038231592622207,0.00038230632914647,-0.000382307192569,0.00038231527314539,-0.00038231154880984,0.00038231085604531,-0.00038230281865388,0.00038231979631222,-0.00035363637709882,0.00035361823044857,-0.00035361027418252,0.00035364494897671,-0.00036316467492796,0.00036316402009454,-0.00036315138539059,0.00036317767420761,-8.2753689842471e-10,2.7799949169813e-10,-0.00028861307258405,0.00028861247973469,1.2747802016884e-08,-1.3755615652903e-08,-0.00030051501677782,0.00030052298494745,-0.0003005238569675,0.00030051419210079,-0.00030051463656323,0.00030052334552813,-0.00030052348192519,0.00030051454884528,-0.00030051720708033,0.00030050887565771,-0.00030051828089037,0.00030050779790755,0.77612067707076,128566,2924,0.0013488725440418,0.0015499095987246,0.001201868329931,33.594308674,2.8754469392004e-05,2.8754469392004e-05,2.8754469392004e-05,2439131.7308944,0.0041090808727196
4619200,0.24225448033688,0.0045353670475198,0.0014974898357379,0.0016653729566027,0.0013725042551792,-0.00035843443170058,0.00035843320054976,-2.1860692090899e-11,-1.2250397054007e-09,5.9256860396375e-09,-7.3922687086035e-09,-0.00037244107288349,0.00037244464881111,-0.0003724414531988,0.00037244422775151,-0.00037244528634318,0.00037244020046086,-0.00037244570152567,0.00037243981212068,-0.00035098101360745,0.00035097651554961,-0.00035098220626969,0.00035097534707201,-4.7645915625718e-09,8.6189007538953e-09,-1.1564462718749e-08,1.5201909643772e-08,-0.00041705492235665,0.00041705857700137,-0.00042957928203346,0.00042956970862666,-0.00042957059281336,0.00042957860582139,-0.00042957498571389,0.00042957414994303,-0.00042956629788076,0.00042958304593046,-0.00039456320367992,0.00039454499937543,-0.00039453722843307,0.00039457158442148,-0.00040557434089058,0.00040557377255061,-0.00040556129085163,0.00040558718159841,-8.8694218028395e-10,3.3501093816211e-10,-0.00031738687450105,0.00031738627881904,1.2699041757153e-08,-1.370715826992e-08,-0.00033162942986271,0.00033163732236064,-0.00033163823713924,0.00033162856083097,-0.00033162901202914,0.00033163772002051,-0.00033163782099675,0.00033162895797293,-0.00033107051198062,0.0003310623300276,-0.00033107170354579,0.00033106113150372,0.77693646232174,128566,2924,0.0014923575107452,0.001736207100566,0.0013216241969914,34.292104032716,3.433683226173e-05,3.433683226173e-05,3.433683226173e-05,2622492.3035834,0.0045605719004187
4819200,0.26831567458913,0.0049940639413888,0.0016450331952063,0.0018508542175243,0.0014981765286582,-0.00039386317120244,0.00039386201499178,8.2005461658003e-11,-1.2549140383496e-09,5.8785908297187e-09,-7.2689368258372e-09,-0.00041039242476014,0.00041039606540106,-0.00041039285116348,0.0004103955999671,-0.00041039658692764,0.00041039167522683,-0.00041039704568895,0.00041039124311079,-0.00038489551658789,0.0003848912775235,-0.00038489683748998,0.00038488998014085,-4.715475459638e-09,8.4921249273245e-09,-1.1536914672558e-08,1.5101561205612e-08,-0.00046416095832022,0.00046416453906448,-0.00047934240026613,0.00047933285510716,-0.00047933375335474,0.00047934170842832,-0.00047933816137448,0.00047933723602274,-0.00047932951399414,0.00047934608987877,-0.00043750316347384,0.00043748494996879,-0.00043747730785423,0.00043751141074855,-0.00045010489306753,0.00045010437562635,-0.00045009201097727,0.00045011761292447,-9.4718670413405e-10,3.9985921757423e-10,-0.00034673589833822,0.00034673530685933,1.2646534004582e-08,-1.3647928341889e-08,-0.00036361833956048,0.00036362615666488,-0.00036362710963592,0.00036361743074321,-0.00036361788038853,0.00036362659509154,-0.0003636266508676,0.00036361786993485,-0.00036231590328666,0.00036230788732667,-0.0003623172184095,0.00036230656375514,0.77792179085291,128566,2924,0.0016397460596442,0.0019321140513338,0.0014437642391941,34.992512936444,3.9940103491555e-05,3.9940103491555e-05,3.9940103491555e-05,2801142.3054908,0.0050282441051936
5019200,0.29537171257955,0.0054667144366419,0.0017960386973076,0.0020448720079337,0.0016258037314006,-0.0004300153572744,0.00043001425910028,1.7489290771157e-10,-1.2906530249436e-09,5.8374961784197e-09,-7.1685630757893e-09,-0.00044929881986502,0.00044930251508688,-0.00044929928996031,0.00044930200762393,-0.00044930293847645,0.00044929817411715,-0.0004493034401556,0.00044929769902737,-0.00041950174500705,0.00041949773625502,-0.00041950319202379,0.00041949631249078,-4.6708160679224e-09,8.3958986668824e-09,-1.1500483298571e-08,1.5017464591442e-08,-0.00051338122158369,0.00051338475377341,-0.00053145284004637,0.00053144333379071,-0.00053144423241941,0.00053145214649817,-0.0005314486466233,0.00053144766658513,-0.00053144003840096,0.00053145647984713,-0.0004822305954485,0.0004822124050654,-0.00048220485598012,0.00048223874603695,-0.00049649664854163,0.00049649617965697,-0.00049648390360182,0.00049650927629136,-1.0085971182195e-09,4.6858680548601e-10,-0.00037651514298152,0.00037651455840155,1.259206644044e-08,-1.3583962302213e-08,-0.00039634109062588,0.00039634883072332,-0.00039634982058056,0.00039634014349539,-0.0003963405879911,0.00039634931253671,-0.00039634931848754,0.00039634062582728,-0.00039404737586429,0.00039403953373067,-0.00039404881699979,0.00039403808203993,0.77677325759697,128566,2924,0.0017901217753279,0.0021367703589413,0.0015676856248634,35.693021956851,4.5544175654809e-05,4.5544175654809e-05,4.5544175654809e-05,2972884.541814,0.0055097276294955
5219200,0.32272579691775,0.005942859330521,0.0019470895436636,0.0022429876365996,0.0017527821502577,-0.00046536614682433,0.00046536506464357,2.0397970029731e-10,-1.3041770441018e-09,5.8435870921709e-09,-7.1594690360913e-09,-0.00048753155189081,0.00048753526579742,-0.00048753202608082,0.00048753475612961,-0.00048753565973218,0.00048753093886042,-0.00048753618757526,0.00048753043880007,-0.00045334656272344,0.0004533426455599,-0.00045334808604324,0.00045334114860046,-4.705498479575e-09,8.4263963978448e-09,-1.1524190358336e-08,1.5038571214325e-08,-0.0005628847501412,0.00056288827911628,-0.00058402692989532,0.00058401737430609,-0.000584018297568,0.00058402621364362,-0.00058402270501045,0.00058402173942868,-0.00058401409460206,0.00058403055691359,-0.00052702128695705,0.00052700310329077,-0.00052699553774682,0.00052702945810131,-0.00054297613872674,0.00054297565012748,-0.00054296336421232,0.00054298877974861,-1.1137615208004e-09,5.7982056922543e-10,-0.00040544717147436,0.00040544659234359,1.2542725286632e-08,-1.3527022953212e-08,-0.0004283696275665,0.00042837725399929,-0.00042837831043763,0.00042836861262561,-0.00042836904180456,0.00042837781899029,-0.00042837774771367,0.00042836915591593,-0.00042495570596508,0.00042494808466586,-0.00042495732449135,0.00042494645246584,0.77855552322125,128566,2924,0.001937141982047,0.002342558974332,0.0016880748018205,36.022709708195,4.8181677665559e-05,4.8181677665559e-05,4.8181677665559e-05,3129506.8754076,0.0059856534033774
5419200,0.35017285476785,0.0064123370944027,0.0020948330599581,0.0024410102932282,0.0018764937412164,-0.00049973169240388,0.00049973062981053,2.7469311064399e-10,-1.3558053558598e-09,5.8441819029447e-09,-7.1407239688138e-09,-0.00052503592981504,0.00052503969432613,-0.00052503644341188,0.00052503914635819,-0.00052504002886558,0.00052503537860055,-0.00052504059882626,0.00052503483621913,-0.00048623350906247,0.00048622974032706,-0.0004862351566115,0.00048622812129934,-4.6964276012723e-09,8.4226537031815e-09,-1.1499766631229e-08,1.5020818974262e-08,-0.00061230772109884,0.00061231125623643,-0.00063676270364424,0.00063675316370281,-0.00063675407726476,0.0006367619954003,-0.0006367584776344,0.00063675752789741,-0.00063674987989219,0.00063676633297996,-0.00057150703170416,0.00057148888807948,-0.0005714813196301,0.00057151520288495,-0.00058904270377283,0.0005890422208642,-0.00058902994294853,0.000589055336545,-1.1846912962937e-09,6.4577116983854e-10,-0.00043349362760063,0.00043349304304179,1.2514790715925e-08,-1.3502953527436e-08,-0.00045981340666747,0.00045982096049026,-0.00045982206853778,0.00045981233946155,-0.00045981277418708,0.00045982157290188,-0.00045982146052556,0.00045981292784546,-0.00045477438830905,0.00045476691063782,-0.00045477613645443,0.00045476514547837,0.769580033188,128566,2924,0.0020800436851452,0.0025479664920306,0.0018047739912736,36.275623499791,5.0204987998326e-05,5.0204987998326e-05,5.0204987998326e-05,3265805.9648337,0.0064535632065122
5619200,0.3776321006017,0.0068580550590073,0.0022337453407381,0.0026320123171094,0.0019922974011598,-0.00053214787170512,0.00053214683554392,3.5693835082067e-10,-1.4122444611974e-09,5.8299540328289e-09,-7.0996154625622e-09,-0.00056123006591012,0.00056123388445141,-0.00056123062668391,0.00056123329002975,-0.0005612341479642,0.00056122958749559,-0.00056123476140747,0.00056122900052901,-0.00051705666332085,0.00051705306967795,-0.00051705844077858,0.00051705131879098,-4.666479855126e-09,8.3904771537118e-09,-1.1462632706733e-08,1.4982643584082e-08,-0.00066038814894675,0.00066039168277266,-0.00068867298414502,0.00068866348622153,-0.00068866438041905,0.00068867229364988,-0.00068866877833052,0.00068866782834921,-0.00068866020133754,0.00068867661159975,-0.00061417878597384,0.000614160685142,-0.00061415313733669,0.00061418693338293,-0.00063313507566061,0.000633134621306,-0.00063312236812213,0.00063314768132138,-1.2456957948789e-09,7.0555049722177e-10,-0.00045973325045843,0.00045973266425088,1.2486594773395e-08,-1.3475113077422e-08,-0.00049018769692197,0.00049019518924133,-0.00049019634024337,0.00049018658630502,-0.00049018702490474,0.00049019584198296,-0.00049019569025486,0.00049018721671809,-0.00048209344927258,0.00048208611093161,-0.00048209531760323,0.00048208422261705,0.73637048665036,128566,2924,0.0022148205313785,0.0027477487581248,0.001913953185216,36.526538839388,5.2212310715101e-05,5.2212310715101e-05,5.2212310715101e-05,3382822.5811107,0.0069002742059789
5819200,0.40502210294967,0.0072837345393536,0.0023652530902523,0.0028167184067621,0.0021017630423392,-0.0005629989156994,0.00056299791115399,4.3791944867486e-10,-1.4622838077186e-09,5.8015903291543e-09,-7.0383542260509e-09,-0.00059656037011256,0.0005965642339195,-0.00059656097459083,0.00059656359590105,-0.00059656442352448,0.00059655996674419,-0.00059656507941847,0.00059655933650254,-0.00054636485697753,0.00054636145067296,-0.00054636676056788,0.00054635957200153,-4.6254803537797e-09,8.339376022081e-09,-1.1425898715167e-08,1.4936989336523e-08,-0.00070741723993916,0.00070742076483202,-0.00073993310325149,0.00073992365396638,-0.00073992452591866,0.00073993243366232,-0.00073992892754412,0.00073992796401038,-0.00073992037559947,0.00073993672065319,-0.00065540775142705,0.00065538968822042,-0.00065538217902024,0.00065541585751715,-0.00067597402715666,0.00067597362631455,-0.0006759614070656,0.00067598659501792,-1.3073324839194e-09,7.7223556705153e-10,-0.00048448538364978,0.00048448480211037,1.2452232572416e-08,-1.3434643022059e-08,-0.00051971640358239,0.00051972383230793,-0.00051972502207903,0.00051971525382416,-0.0005197156891169,0.00051972452831447,-0.00051972432921737,0.00051971592754802,-0.00050749846072815,0.00050749127794216,-0.00050750045293968,0.00050748926225469,0.71317583896311,128566,2924,0.0023430734885954,0.0029431175052777,0.0020169436726287,36.777377023183,5.4219016185461e-05,5.4219016185461e-05,5.4219016185461e-05,3495446.1069337,0.0073299336601852
6019200,0.43185878288838,0.0076903076076484,0.0024899035954971,0.0029948474285021,0.0022055565836491,-0.00059199023043971,0.00059198919712163,4.7416993519132e-10,-1.5276475759944e-09,5.809643836445e-09,-7.0753885661772e-09,-0.00063053631127239,0.00063054019049145,-0.0006305369436262,0.00063053952404482,-0.00063054037570855,0.00063053591373064,-0.0006305410710294,0.00063053524376817,-0.00057422697031712,0.00057422363571013,-0.00057422898957789,0.00057422164065836,-4.6497537476265e-09,8.3631617485316e-09,-1.1462509686697e-08,1.497220928299e-08,-0.00075276579501768,0.00075276931860826,-0.00078935739295825,0.00078934789680697,-0.00078934878706596,0.00078935670667269,-0.00078935319538268,0.00078935222869298,-0.00078934462621063,0.00078936100411698,-0.00069499452434178,0.00069497642114844,-0.00069496890036458,0.00069500264749278,-0.00071764060345966,0.00071764019514961,-0.00071762795311782,0.00071765319466072,-1.3965330275869e-09,8.4064523699465e-10,-0.0005074037117876,0.00050740310878974,1.2464016886634e-08,-1.3469064754629e-08,-0.00054774752608375,0.00054775489041557,-0.00054775615366794,0.00054774630193546,-0.000547746753575,0.00054775564477436,-0.0005477554147209,0.00054774702263512,-0.00053095917086088,0.00053095208909128,-0.00053096129827367,0.00053094993473998,0.702615232411,128566,2924,0.0024635809176718,0.0031314615677053,0.0021123061627467,36.775485796095,5.4203886368763e-05,5.4203886368763e-05,5.4203886368763e-05,3573869.4020919,0.0077372075517311
6219200,0.45807326217241,0.0080886321652381,0.0026118084082369,0.0031698056451663,0.0023070181118349,-0.00062039150865435,0.00062039044722882,5.2923187139395e-10,-1.6110380171792e-09,5.8094281605356e-09,-7.103298780804e-09,-0.0006637946762735,0.00066379858509236,-0.00066379535524601,0.00066379787077924,-0.00066379875382809,0.00066379429720619,-0.00066379949274276,0.00066379358317972,-0.00060168153949485,0.00060167829611158,-0.00060168368720613,0.00060167617076942,-4.6726254177656e-09,8.3651798272337e-09,-1.1470551625874e-08,1.4959394277567e-08,-0.00079738052679822,0.00079738402945615,-0.00083785134825012,0.0008378418227129,-0.00083784274268449,0.00083785063208772,-0.0008378471415318,0.00083784616327163,-0.00083783857276225,0.00083785493853694,-0.00073399176713679,0.00073397365330998,-0.00073396614837375,0.00073399988071187,-0.00075888539744501,0.00075888493872799,-0.00075887272082705,0.00075889796630797,-1.4629573056356e-09,8.9494466882536e-10,-0.00052958304439971,0.00052958242869018,1.2459877827491e-08,-1.3478626870983e-08,-0.00057490596249085,0.00057491327602364,-0.00057491459248906,0.00057490468427934,-0.00057490515104682,0.00057491406951522,-0.0005749138112788,0.0005749054480416,-0.00055379588933401,0.00055378891803145,-0.00055379813957716,0.00055378663889642,0.70745491796527,128566,2924,0.0025816230995217,0.0033167177315709,0.0022045944935501,36.758773469859,5.4070187758872e-05,5.4070187758872e-05,5.4070187758872e-05,3617861.7364253,0.0081359512861013
6419200,0.48362583869751,0.0084737006218695,0.0027297869162609,0.003339474898353,0.0024044388072557,-0.00064796128481317,0.00064796020790292,5.8709821099383e-10,-1.6844891896364e-09,5.8018570601869e-09,-7.1107985866901e-09,-0.00069605600338271,0.0006960599416126,-0.00069605672594867,0.00069605918317522,-0.000696060083563,0.00069605565307381,-0.00069606086532285,0.00069605489594721,-0.00062824012592183,0.00062823699358024,-0.00062824239979158,0.00062823474123372,-4.6829850310807e-09,8.3525783056133e-09,-1.1455891104273e-08,1.4921843576098e-08,-0.00084072655504233,0.00084073003469519,-0.00088506054387009,0.00088505101205126,-0.000885051954452,0.00088505980423083,-0.00088505633715944,0.0008850553520665,-0.0008850477837391,0.0008850641106322,-0.00077181081340247,0.00077179272519577,-0.00077178524387106,0.0007718189034651,-0.00079884800284918,0.0007988475042668,-0.00079883532712904,0.00079886053107268,-1.5270224024393e-09,9.5876979204291e-10,-0.00055074325383853,0.00055074263772317,1.2436461329261e-08,-1.3455489341617e-08,-0.0006010715301114,0.00060107878510766,-0.0006010801447716,0.00060107020824825,-0.0006010706765377,0.00060107962143712,-0.00060107932085873,0.00060107101558431,-0.00057558197878625,0.00057557514847617,-0.00057558435366409,0.00057557274277927,0.70210892758278,128566,2924,0.002696197825195,0.0034966680142993,0.0022926428054523,36.741614189356,5.3932913514852e-05,5.3932913514852e-05,5.3932913514852e-05,3658406.3692277,0.0085217305546072
6619200,0.50889185908854,0.0088777306847705,0.0028544886146653,0.0035156993763515,0.0025075426937538,-0.00067720760533183,0.00067720655204636,6.6572355408217e-10,-1.739735300532e-09,5.7326989854921e-09,-7.0161108341301e-09,-0.00072922375227981,0.00072922770568839,-0.00072922452061498,0.00072922690250528,-0.00072922778155724,0.00072922347075261,-0.00072922860675654,0.00072922267017521,-0.0006567592150214,0.00065675628827604,-0.00065676161696424,0.00065675390803287,-4.6136910072891e-09,8.2550330009083e-09,-1.1322023513306e-08,1.4760294741128e-08,-0.00088536562709148,0.00088536907889171,-0.00093357994556804,0.00093357053732739,-0.000933571450231,0.00093357922948831,-0.00093357579279099,0.00093357482112025,-0.00093356733167224,0.00093358348131677,-0.00081077972419104,0.00081076184030861,-0.00081075443585976,0.00081078772560372,-0.00084037989473084,0.00084037943170391,-0.00084036737904019,0.00084039229542536,-1.5662450251333e-09,1.0450003599531e-09,-0.00057321931650646,0.00057321874810496,1.2319777498078e-08,-1.32860380317e-08,-0.00062793919662588,0.00062794636183498,-0.00062794771742233,0.00062793787862732,-0.0006279383022616,0.0006279472398114,-0.00062794685097146,0.00062793872911019,-0.00059924571298923,0.00059923914925235,-0.00059924821215228,0.00059923661804751,0.74070666121449,128566,2924,0.0028177274165562,0.0036819506526334,0.0023861619631766,37.008802467572,5.6070419740578e-05,5.6070419740578e-05,5.6070419740578e-05,3686042.592216,0.0089255745282811
6819200,0.53496710921689,0.0093285292032235,0.0029951690532399,0.0037102329809505,0.0026231271690331,-0.00071111553349742,0.00071111458629962,8.3988964656547e-10,-1.808276933537e-09,5.56526926973e-09,-6.7370158237322e-09,-0.00076608521932122,0.00076608922542503,-0.00076608608466596,0.00076608832921772,-0.00076608911876189,0.00076608512477408,-0.00076609000942454,0.00076608425860927,-0.00069002015142291,0.00069001767263537,-0.00069002274850612,0.00069001509792742,-4.4050976428202e-09,8.0008575387942e-09,-1.0923742288377e-08,1.4318574234592e-08,-0.0009346940712342,0.00093469747939208,-0.00098704742739638,0.00098703841656294,-0.00098703921271579,0.00098704681104814,-0.00098704343769511,0.00098704253072492,-0.00098703522754916,0.00098705092284058,-0.00085387896804824,0.00085386166813776,-0.00085385443930412,0.00085388675221061,-0.00088656492579003,0.00088656455122165,-0.00088655281478172,0.00088657699748435,-1.5079420504725e-09,1.1204735532639e-09,-0.00059958003554357,0.00059957960329707,1.2022120319477e-08,-1.2836942384281e-08,-0.00065792529147747,0.00065793234946728,-0.00065793358025792,0.00065792409847219,-0.00065792440614126,0.00065793321972379,-0.00065793269293642,0.00065792497000901,-0.00062757309971377,0.00062756697536488,-0.00062757565787328,0.00062756438466919,0.79221450468066,128566,2924,0.0029586084350429,0.0038866581896235,0.0024958343965077,38.07337965174,6.4587037213918e-05,6.4587037213918e-05,6.4587037213918e-05,3758178.0036754,0.0093850238077385
7019200,0.56175198151334,0.009755425681452,0.0031282253791749,0.0038979113369126,0.0027292889653645,-0.00074402312766091,0.00074402229485963,9.4679632790077e-10,-1.8012465477207e-09,5.4578958337824e-09,-6.5095448690785e-09,-0.00080287244917957,0.0008028764897946,-0.00080287334709619,0.0008028755636235,-0.00080287623789639,0.00080287250377328,-0.00080287716645542,0.00080287159937342,-0.00072180680731097,0.00072180466201666,-0.00072180951248348,0.00072180197642743,-4.261891800778e-09,7.808560747888e-09,-1.0705271090081e-08,1.4053068117592e-08,-0.00098389433410624,0.00098389769504161,-0.0010402054215307,0.0010401966351546,-0.0010401973649337,0.0010402048660907,-0.001040201541173,0.0010402006378561,-0.001040193486427,0.0010402088635502,-0.00089681539834049,0.00089679842553606,-0.00089679134257717,0.0008968230123104,-0.00093204476106788,0.00093204451796147,-0.0009320329842925,0.00093205661774353,-1.5485417324531e-09,1.2392784813324e-09,-0.00062457692851888,0.00062457657512214,1.1821820793195e-08,-1.2546782048241e-08,-0.00068754763778719,0.0006875545560528,-0.00068755576320734,0.00068754646875137,-0.00068754669851906,0.00068755548117854,-0.00068755482828065,0.00068754738782056,-0.0006538953760303,0.00065388963403318,-0.00065389807681349,0.00065388690078658,0.73335806892101,128566,2924,0.003095312389798,0.0040907821554917,0.0025998391820371,39.157534630365,7.326027704292e-05,7.326027704292e-05,7.326027704292e-05,3777175.2074852,0.0098341554629582
7219200,0.58909413378228,0.010173881262375,0.0032587250565329,0.0040830039990857,0.0028321522067565,-0.00077660177187486,0.0007766010317229,1.0556118511962e-09,-1.8176367973187e-09,5.3953370208266e-09,-6.3502206060606e-09,-0.00083989224343586,0.00083989634500225,-0.00083989318371934,0.0008398953778289,-0.00083989596096344,0.00083989243361011,-0.00083989693250048,0.00083989148586052,-0.00075286949596356,0.00075286764159121,-0.00075287232637152,0.00075286482976508,-4.1770515190904e-09,7.6690667848328e-09,-1.0575267926736e-08,1.3870329977528e-08,-0.0010328833572093,0.0010328866652583,-0.0010934397238778,0.0010934310605897,-0.0010934317662575,0.0010934391864378,-0.0010934359150218,0.0010934349888721,-0.001093427960017,0.001093443107992,-0.00093940476160817,0.00093938797467903,-0.00093938101099514,0.00093941224110588,-0.00097713823917909,0.00097713806212782,-0.00097712668379598,0.00097714993497825,-1.5939158263406e-09,1.328217467647e-09,-0.00064912920368741,0.00064912889413417,1.169353795753e-08,-1.2366149938842e-08,-0.00071711178815621,0.00071711860127814,-0.00071711981198646,0.00071711061583871,-0.00071711080448447,0.00071711957126244,-0.00071711883274149,0.00071711157905172,-0.00067955501768033,0.00067954955067371,-0.00067955784866017,0.00067954668732037,0.70718848107492,128566,2924,0.0032306315017626,0.0042939806336776,0.0027019952851323,40.242438513571,8.1939508108569e-05,8.1939508108569e-05,8.1939508108569e-05,3815086.4804845,0.010279288448916
7419200,0.61599882639146,0.010570441965252,0.0033824100573886,0.004259252392187,0.0029287795156764,-0.00080663081178529,0.00080663004314052,1.0721378694075e-09,-1.8622042768689e-09,5.4789081558355e-09,-6.4632960327722e-09,-0.00087484430925038,0.0008748484590482,-0.00087484525915066,0.0008748474796218,-0.00087484808319418,0.00087484449217405,-0.00087484908545591,0.00087484351311579,-0.00078111894165724,0.00078111708242776,-0.00078112185963396,0.0007811141812178,-4.2964668365344e-09,7.7515003598966e-09,-1.0822971180248e-08,1.408097358304e-08,-0.0010790164832522,0.001079019754245,-0.0011439727355889,0.0011439638091294,-0.001143964622436,0.0011439720989812,-0.0011439688513583,0.0011439678151644,-0.0011439607606557,0.0011439760782818,-0.00097930942347236,0.00097929224622573,-0.00097928526352698,0.0009793169432863,-0.0010193248053586,0.00101932457296,-0.0010193130823913,0.0010193366159242,-1.7412663692338e-09,1.3795187788702e-09,-0.00067134460747131,0.00067134419980307,1.1847240182739e-08,-1.2624428973701e-08,-0.00074472210009638,0.00074472887641603,-0.00074473025094859,0.00074472076336149,-0.00074472104028245,0.00074472992091225,-0.00074472921584759,0.00074472178203303,-0.0007026388357864,0.00070263330373598,-0.00070264183326833,0.00070263027412934,0.68501443822301,128566,2924,0.0033553440737886,0.0044852895033358,0.0027944344933478,40.770648239739,8.6165185917911e-05,8.6165185917911e-05,8.6165185917911e-05,3855624.2973525,0.010692063430135
7619200,0.6417261504462,0.010940287961506,0.0034975529861929,0.004424186231911,0.0030185487434024,-0.00083379982038227,0.0008337989405549,1.0902171243193e-09,-1.9902100121734e-09,5.5925524142009e-09,-6.693417444221e-09,-0.00090739965073608,0.00090740385294884,-0.0009074006460422,0.00090740282171661,-0.00090740353933092,0.00090739977003966,-0.00090740458646145,0.00090739874434499,-0.00080658518563116,0.00080658323999357,-0.00080658823753123,0.0008065802008104,-4.4769462811877e-09,7.9145386437478e-09,-1.1138315877478e-08,1.4377765417753e-08,-0.0011218006533079,0.0011218039058276,-0.0011909829873991,0.0011909737269846,-0.0011909746781237,0.0011909822249815,-0.0011909789908557,0.0011909778489596,-0.0011909707071495,0.0011909863204811,-0.0010161378985634,0.0010161202135783,-0.0010161131565921,0.0010161455339803,-0.0010586682213302,0.0010586678303976,-0.0010586561642454,0.0010586802231365,-1.8696565811682e-09,1.3654207900982e-09,-0.00069110594533932,0.00069110539179023,1.2074923246383e-08,-1.3011749456017e-08,-0.00077000616103507,0.0007700129605906,-0.00077001451507618,0.00077000464401293,-0.00077000506238211,0.00077001404249784,-0.00077001343877699,0.00077000570352623,-0.00072294465229501,0.00072293889603735,-0.00072294777041528,0.00072293574869962,0.6722324102391,128566,2924,0.0034681663107708,0.0046626725058946,0.0028766684928175,40.851698737965,8.681358990372e-05,8.681358990372e-05,8.681358990372e-05,3885883.7834301,0.011068589734329
7819200,0.66624207335232,0.011288306389794,0.0036056902117015,0.0045796600505865,0.003102956127506,-0.00085937012845055,0.00085936916538094,1.1163901373675e-09,-2.0985146078023e-09,5.6465709831913e-09,-6.834356352193e-09,-0.00093818671670312,0.00093819094647268,-0.00093818775521019,0.00093818986789958,-0.00093819066924232,0.00093818679730905,-0.00093819175934821,0.0009381857275025,-0.00083049226728839,0.00083049030498175,-0.00083049544642543,0.00083048713567368,-4.5786668425768e-09,8.0062934738184e-09,-1.1255249154629e-08,1.4483867348559e-08,-0.0011624217879361,0.0011624250297754,-0.0012356808918282,0.001235671483537,-0.0012356725126982,0.0012356800578152,-0.0012356768330886,0.0012356756704759,-0.0012356684786933,0.0012356842196536,-0.0010509873113546,0.0010509694573688,-0.0010509623585046,0.0010509950115036,-0.0010959193775122,0.0010959188567779,-0.0010959071320548,0.0010959314473859,-1.9632217067884e-09,1.3973760630515e-09,-0.0007094598938878,0.00070945927656891,1.2150448580283e-08,-1.3159033219737e-08,-0.00079355081871362,0.00079355758870095,-0.00079355924683256,0.00079354919780006,-0.00079354967805544,0.00079355871118919,-0.00079355812730737,0.00079355029979353,-0.00074172756716326,0.00074172180186391,-0.00074173081179938,0.00074171853133226,0.66655083545648,128566,2924,0.0035743395565806,0.0048310544406263,0.0029530493588035,40.92159496545,8.7372759723601e-05,8.7372759723601e-05,8.7372759723601e-05,3897584.9045672,0.011423509143987
8019200,0.68953964452762,0.011615526856494,0.0037073135500353,0.0047260790711003,0.0031821342353588,-0.00088346961779255,0.00088346860946581,1.1596970225557e-09,-2.1865660534352e-09,5.6739979758449e-09,-6.908616443304e-09,-0.00096711774548403,0.00096712200843853,-0.00096711882688105,0.0009671208847783,-0.00096712173213259,0.0009671178247427,-0.00096712286492647,0.0009671167111819,-0.00085283507530402,0.00085283316148526,-0.00085283837963311,0.00085282986382381,-4.6332717707278e-09,8.0532681081285e-09,-1.1275451953153e-08,1.4495696601419e-08,-0.0012008184853532,0.0012008217189376,-0.0012780872010988,0.0012780777402262,-0.0012780788127819,0.0012780863261572,-0.0012780831096289,0.0012780819613359,-0.0012780747449944,0.0012780905228306,-0.0010837657125643,0.0010837478515647,-0.0010837407332227,0.00108377344418,-0.0011309793466079,0.0011309787270222,-0.0011309670011858,0.0011309914207433,-2.035293971442e-09,1.4538162054294e-09,-0.0007265547356558,0.00072655410183171,1.2157309304428e-08,-1.3186369513359e-08,-0.0008155972107822,0.00081560393451016,-0.00081560564985053,0.00081559553232317,-0.00081559602713809,0.00081560509953344,-0.00081560448714788,0.00081559667741036,-0.00075920860914838,0.00075920294364744,-0.00075921198027095,0.000759199548601,0.66097249199712,128566,2924,0.0036743970951863,0.0049901858692393,0.0030241933846836,40.991062330249,8.7928498641994e-05,8.7928498641994e-05,8.7928498641994e-05,3903897.3144401,0.011757708299866
8219200,0.71176316989639,0.011924668915678,0.0038033891849738,0.0048645371565753,0.0032567425741291,-0.00090653228859881,0.00090653127393076,1.2272885624618e-09,-2.2603687949872e-09,5.6610570880808e-09,-6.9017595816882e-09,-0.00099485821334711,0.00099486251299482,-0.00099485934403428,0.00099486134005072,-0.00099486219637716,0.0009948583333508,-0.00099486337347603,0.00099485717508736,-0.00087422156353193,0.00087421978283329,-0.00087422500053604,0.00087421635257459,-4.6280469492837e-09,8.0379404080262e-09,-1.1169639720585e-08,1.4379548895299e-08,-0.0012374210334048,0.0012374242567597,-0.0013186915944286,0.0013186822046814,-0.0013186832796465,0.0013186907143225,-0.0013186875117915,0.0013186864167648,-0.0013186792152915,0.0013186949066379,-0.0011148418991807,0.0011148242318964,-0.0011148171288104,0.0011148496122376,-0.0011642960241353,0.0011642953337,-0.0011642836908924,0.0011643080141754,-2.0797460914143e-09,1.5277377983189e-09,-0.00074282204855883,0.00074282144439392,1.2066121095224e-08,-1.3063890001589e-08,-0.00083652730746486,0.00083653395254295,-0.00083653567818057,0.00083652561889419,-0.00083652608631827,0.00083653515486382,-0.00083653447346095,0.00083652680568973,-0.00077572206405048,0.00077571662025631,-0.00077572555900272,0.00077571310359634,0.65549139616561,128566,2924,0.0037701409800192,0.0051418547132985,0.0030918946936979,41.181416460014,8.945133168011e-05,8.945133168011e-05,8.945133168011e-05,3910026.0223428,0.012076615245513
8419200,0.73296445512007,0.012218769858581,0.0038949226381282,0.0049961709368016,0.0033276762836513,-0.00092859061651416,0.00092858960736438,1.2917728693028e-09,-2.3194085857073e-09,5.6297374515121e-09,-6.8641209234352e-09,-0.0010212325905217,0.0010212369129559,-0.001021233762151,0.0010212357000888,-0.0010212365497548,0.0010212327573024,-0.0010212377693593,0.0010212315565991,-0.00089480336943682,0.00089480174087396,-0.00089480693067894,0.00089479818690281,-4.5993032493252e-09,7.9962303077706e-09,-1.104416801913e-08,1.4241393618907e-08,-0.0012722709584075,0.001272274169132,-0.0013575154132826,0.001357506119243,-0.0013575071815825,0.001357514541359,-0.0013575113523405,0.0013575103088003,-0.0013575031402208,0.0013575187091532,-0.0011443293041604,0.0011443118630312,-0.0011443047917116,0.001144336977387,-0.0011959007892361,0.0011959000710893,-0.0011958885269555,0.0011959126779172,-2.1290699103941e-09,1.614580128775e-09,-0.00075835853429457,0.00075835796841762,1.1956119817658e-08,-1.2912331024694e-08,-0.00085647664911521,0.00085648319928564,-0.00085648493242204,0.00085647495327261,-0.00085647538181427,0.00085648444788088,-0.00085648368371328,0.00085647618390617,-0.00079141420534981,0.00079140901409793,-0.00079141783008886,0.00079140536889533,0.65380935127737,128566,2924,0.0038617060567466,0.0052862365579256,0.0031565561446015,41.4307048267,9.1445638613604e-05,9.1445638613604e-05,9.1445638613604e-05,3913853.0465102,0.012380937021273
8619200,0.75312841327856,0.012498032974086,0.0039819560505246,0.0051210308393646,0.0033950460841966,-0.00094953436836244,0.00094953336386077,1.3592742770855e-09,-2.3824043088258e-09,5.5925343122024e-09,-6.8215513005844e-09,-0.0010462494637829,0.001046253808146,-0.0010462506796491,0.0010462525520379,-0.0010462533973255,0.0010462496788646,-0.0010462546602527,0.0010462484350086,-0.00091437962915282,0.000914378158373,-0.00091438331764175,0.00091437447746297,-4.5662241658685e-09,7.9485461503124e-09,-1.09396779727e-08,1.4122628192226e-08,-0.0013052717163728,0.0013052749128646,-0.0013943777359309,0.0013943685273884,-0.0013943695753004,0.0013943768742018,-0.0013943737012432,0.0013943726897845,-0.0013943655594129,0.0013943810151765,-0.0011721755133146,0.0011721582499342,-0.0011721512154692,0.0011721831415648,-0.0012258271774268,0.0012258264499004,-0.0012258149932497,0.0012258389767291,-2.1782216904292e-09,1.6946371802267e-09,-0.0007730880397883,0.00077308750555833,1.1864041421178e-08,-1.2785336597597e-08,-0.00087538500407473,0.00087539146973111,-0.00087539321519654,0.00087538329609392,-0.00087538369382936,0.00087539276145866,-0.00087539192319679,0.00087538456994944,-0.00080632216132507,0.00080631720006376,-0.00080632591337739,0.00080631342808072,0.65260875465189,128566,2924,0.0039486362263534,0.0054229348626482,0.0032178614852154,41.681479965779,9.345183972623e-05,9.345183972623e-05,9.345183972623e-05,3917446.0124342,0.012669476736011
8819200,0.77224649327865,0.012752422422254,0.0040611580374639,0.0052355147676223,0.0034557496171681,-0.00096881268440243,0.00096881168454539,1.4265498029379e-09,-2.4451096473732e-09,5.5547176486079e-09,-6.7783286080668e-09,-0.0010695941173022,0.0010695984828595,-0.0010695953769972,0.0010695971838015,-0.0010695980246974,0.0010695943805134,-0.0010695993309448,0.0010695930935401,-0.00093227644588583,0.0009322751333916,-0.00093228026182751,0.00093227132570635,-4.5328642376973e-09,7.899892732935e-09,-1.0868365332311e-08,1.4036314281469e-08,-0.0013359895359135,0.0013359927174238,-0.0014288623914086,0.0014288532462394,-0.0014288542803392,0.0014288615398984,-0.001428858383189,0.0014288573812576,-0.0014288502906548,0.0014288656535061,-0.0011979755132574,0.0011979583624369,-0.00119795136667,0.0011979830961201,-0.0012535247314304,0.0012535240170314,-0.0012535126267942,0.0012535364622601,-2.2315459977869e-09,1.7709893140436e-09,-0.00078651788303523,0.00078651737248159,1.180033495872e-08,-1.2695170124783e-08,-0.00089296361290048,0.00089297000767011,-0.00089297177341841,0.00089296188480064,-0.00089296225953256,0.00089297134266499,-0.00089297043811682,0.00089296320189975,-0.00081972326925041,0.00081971850874011,-0.0008197271486797,0.00081971460965782,0.62941992795495,128566,2924,0.004028646573277,0.0055501550750191,0.0032737628719389,41.932312429292,9.5458499434339e-05,9.5458499434339e-05,9.5458499434339e-05,3930831.4139802,0.012936016473178
9019200,0.78991873920231,0.012987667472052,0.0041344755694144,0.005341155744211,0.0035120361584265,-0.00098579288366402,0.00098579187590362,1.4824465008983e-09,-2.5090109898927e-09,5.5378060940825e-09,-6.7691439265643e-09,-0.0010902028006264,0.0010902071871126,-0.0010902040976019,0.0010902058505523,-0.0010902066969549,0.0010902030960266,-0.0010902080459851,0.0010902017662723,-0.00094792674908735,0.00094792556152986,-0.00094793068951666,0.00094792162906608,-4.5262966366859e-09,7.8788741949193e-09,-1.0921865571974e-08,1.4075608619466e-08,-0.0013634704344477,0.0013634736018412,-0.0014599302704169,0.0014599210865369,-0.0014599221255882,0.0014599294137455,-0.0014599262682103,0.0014599252151528,-0.0014599181472963,0.0014599335154938,-0.0012208145289447,0.0012207972719776,-0.0012207903000155,0.0012208220892537,-0.0012780494175828,0.0012780487556132,-0.0012780373483471,0.0012780611644728,-2.3038203654887e-09,1.8381939957413e-09,-0.00079807071597997,0.00079807020038246,1.1843229368443e-08,-1.2743723182971e-08,-0.00090823943469783,0.00090824580603318,-0.00090824762306026,0.00090823765530142,-0.00090823803222149,0.000908247190103,-0.00090824624420879,0.00090823901598891,-0.00083125695126307,0.00083125228492913,-0.00083126095967519,0.00083124825625014,0.62977530200136,128566,2924,0.0040991147935197,0.0056639536619077,0.0033218581057862,41.750121366704,9.4000970933635e-05,9.4000970933635e-05,9.4000970933635e-05,3932864.8177097,0.013171448340132
9219200,0.80613892636889,0.013201072866271,0.0042010080259605,0.0054370390060154,0.0035630258342949,-0.0010009545877195,0.0010009535737898,1.5491841574598e-09,-2.5818629891531e-09,5.52486672859e-09,-6.7624034836272e-09,-0.0011086724963722,0.00110867691896,-0.0011086738417595,0.0011086755333839,-0.0011086763887896,0.0011086728316328,-0.0011086777813214,0.0011086714582936,-0.0009618373990734,0.00096183634060445,-0.00096184146760923,0.00096183227868129,-4.5234643263287e-09,7.8626562571897e-09,-1.0980848707904e-08,1.4121423071042e-08,-0.0013882102525447,0.0013882134068179,-0.0014880166965814,0.0014880074736157,-0.0014880085198323,0.0014880158332194,-0.001488012703171,0.0014880115931398,-0.0014880045445234,0.0014880199315047,-0.0012413058695175,0.0012412884816828,-0.0012412815301836,0.0012413134112866,-0.0012999600741904,0.0012999594440589,-0.0012999480155094,0.0012999718426044,-2.3677278288085e-09,1.8938319940432e-09,-0.00080827802203981,0.00080827749780744,1.1893300330162e-08,-1.2803219254127e-08,-0.00092187477524087,0.00092188113686194,-0.00092188300257674,0.00092187294712669,-0.00092187333502282,0.00092188255859046,-0.00092188158088097,0.00092187435062396,-0.00084146019561835,0.0008414556096983,-0.00084146432960814,0.00084145145582264,0.62300580348398,128566,2924,0.0041620325704902,0.005766388332069,0.0033643558614908,41.452340417574,9.1618723340591e-05,9.1618723340591e-05,9.1618723340591e-05,3933094.1596103,0.013382093178084
9419200,0.82101631502319,0.013394520488135,0.0042613335073659,0.0055239938594106,0.0036091931213585,-0.0010146304410226,0.0010146294235403,1.6112965139093e-09,-2.6475147783666e-09,5.5094864049134e-09,-6.7500172723116e-09,-0.0011253689860668,0.001125373438027,-0.0011253703733796,0.001125372009916,-0.0011253728690522,0.0011253693601232,-0.0011253743043693,0.0011253679436951,-0.0009743082758532,0.00097430734899705,-0.00097431247039925,0.0009743031602082,-4.5155069020696e-09,7.8419394044282e-09,-1.1022633063479e-08,1.41506527978e-08,-0.0014106333195246,0.0014106364612756,-0.0015135349212114,0.0015135256706594,-0.0015135267202761,0.0015135340547728,-0.0015135309360785,0.0015135297812942,-0.0015135227544636,0.0015135381430381,-0.0012598394045452,0.00125982192601,-0.0012598149977938,0.0012598469257643,-0.0013197398817832,0.0013197392918616,-0.0013197278509292,0.0013197516597345,-2.4364327023666e-09,1.9564920130694e-09,-0.0008174376860568,0.00081743715543533,1.1925508806598e-08,-1.2842773741918e-08,-0.00093418146476875,0.00093418780022312,-0.0009341897156863,0.00093417958683261,-0.00093417998053889,0.00093418926596594,-0.00093418825063032,0.00093418103378401,-0.00085063933823441,0.00085063484983189,-0.00085064359939785,0.00085063056850595,0.6162082414429,128566,2924,0.0042187814713117,0.0058592201839285,0.0034024929827851,41.151575096807,8.9212600774459e-05,8.9212600774459e-05,8.9212600774459e-05,3934018.8272564,0.013572374085975
9619200,0.83465722123963,0.013569765480759,0.0043159858571394,0.005602815531129,0.0036509640924908,-0.0010269642965105,0.0010269632780021,1.6755531904763e-09,-2.7127197575325e-09,5.4913433202402e-09,-6.7329043081009e-09,-0.0011404712651245,0.0011404757476261,-0.0011404726952206,0.0011404742762014,-0.0011404751366006,0.0011404716813776,-0.0011404766150355,0.001140470221659,-0.00098549910978861,0.00098549832045481,-0.00098550343083286,0.00098549400461596,-4.5037685857848e-09,7.8178480461086e-09,-1.1047538896211e-08,1.4163388945425e-08,-0.0014309496420903,0.00143095277174,-0.0015367183893749,0.0015367091257095,-0.0015367101758716,0.0015367175225665,-0.00153671441553,0.0015367132244744,-0.0015367062212159,0.0015367215989926,-0.0012765778310174,0.0012765602915215,-0.0012765533876726,0.0012765853288411,-0.00133758683062,0.0013375862762607,-0.0013375748354,0.0013375986091252,-2.502910391381e-09,2.0195828791133e-09,-0.00082564613181639,0.0008256455975032,1.1942915001321e-08,-1.2864266214419e-08,-0.00094527443658634,0.00094528073821585,-0.00094528270038876,0.00094527251196284,-0.00094527290901555,0.00094528224725343,-0.00094528119220389,0.00094527400199228,-0.00085885531223686,0.00085885093394543,-0.00085885970015353,0.00085884652622705,0.60938040658297,128566,2924,0.0042699590929862,0.0059433216765219,0.0034366709203287,40.850694271822,8.6805554174576e-05,8.6805554174576e-05,8.6805554174576e-05,3935377.7236556,0.013744176924527
9819200,0.84692718041995,0.013728298800294,0.0043654760621961,0.0056739123318426,0.0036889104062554,-0.0010372955364129,0.0010372945135306,1.7333975186935e-09,-2.7750356129004e-09,5.487334956079e-09,-6.7330181882102e-09,-0.001153218445094,0.0011532229589229,-0.001153219911753,0.0011532214503322,-0.0011532223121501,0.0011532188971716,-0.0011532238339564,0.0011532173938453,-0.00099483752788892,0.00099483686159272,-0.00099484197555619,0.00099483241921455,-4.5062355360093e-09,7.8098440455665e-09,-1.1094982034032e-08,1.4200437148334e-08,-0.0014484116862911,0.0014484148056766,-0.0015567646560027,0.0015567553524422,-0.0015567564116178,0.0015567637809544,-0.0015567606801518,0.0015567594528127,-0.0015567524616064,0.001556767852309,-0.001290817681321,0.0012908000572415,-0.0012907931673499,0.0012908251695712,-0.0013528456347613,0.001352845114208,-0.0013528336552247,0.0013528574307561,-2.5756273858881e-09,2.0855969810381e-09,-0.00083231320127702,0.00083231265982654,1.1976396997704e-08,-1.2906171205767e-08,-0.00095445989940065,0.00095446617014223,-0.00095446818508849,0.00095445792198442,-0.0009544583224212,0.00095446772863427,-0.00095446663418843,0.00095445945483452,-0.00086556788943008,0.00086556360684354,-0.00086557240362796,0.00086555907187194,0.61213711220392,128566,2924,0.0043128260095194,0.00601560027336,0.0034644376518321,40.184591133697,8.1476729069578e-05,8.1476729069578e-05,8.1476729069578e-05,3929771.8860658,0.013889091509835
10019200,0.85795542567337,0.013871862476153,0.0044103318229083,0.0057380844230108,0.0037234462302343,-0.0010463761586233,0.0010463751334866,1.8013319820941e-09,-2.8451740828191e-09,5.4830054673915e-09,-6.7306696360745e-09,-0.0011644452818944,0.0011644498400888,-0.0011644467969199,0.0011644482823133,-0.0011644491498797,0.0011644457772168,-0.0011644507142715,0.0011644442310903,-0.001003080469275,0.0010030799279731,-0.0010030850412231,0.0010030753596163,-4.5077343739856e-09,7.8021458547409e-09,-1.1104600409904e-08,1.4200912022121e-08,-0.0014638786297157,0.0014638817399125,-0.0015745288164605,0.0015745195053813,-0.0015745205720286,0.0015745279341769,-0.0015745248457908,0.0015745236002033,-0.0015745166199828,0.0015745320070244,-0.0013034180431798,0.0013034003878789,-0.0013033935101103,0.0013034255206808,-0.0013664077202396,0.0013664071897931,-0.001366395736739,0.0013664195097931,-2.6371683109948e-09,2.1448493278708e-09,-0.00083814967474319,0.00083814913062235,1.1984966580821e-08,-1.2917783122755e-08,-0.00096251394616021,0.00096252018347539,-0.00096252224139012,0.0009625119257044,-0.00096251233168068,0.00096252177943967,-0.00096252064688257,0.00096251350212343,-0.00087151555970186,0.0008715113951122,-0.00087152020184891,0.00087150673280431,0.6157467708068,128566,2924,0.004350502595327,0.0060796147663816,0.0034887479192679,39.480451083138,7.5843608665103e-05,7.5843608665103e-05,7.5843608665103e-05,3921443.331201,0.01401687594394
10219200,0.86788125726206,0.014002228999895,0.0044510942919906,0.0057961596561755,0.0037549750517284,-0.0010544144754752,0.0010544134487892,1.8647107489916e-09,-2.9100416061328e-09,5.474692601638e-09,-6.7238153144105e-09,-0.0011744101985463,0.0011744147923544,-0.0011744117556339,0.0011744131924186,-0.0011744140611654,0.0011744107350854,-0.0011744156687654,0.0011744091455787,-0.0010104244270463,0.0010104240176434,-0.0010104291273163,0.0010104193207706,-4.5042742478665e-09,7.7898583994672e-09,-1.109489655335e-08,1.4182460780735e-08,-0.0014776554263362,0.0014776585278151,-0.0015903501278118,0.0015903408214116,-0.0015903418915831,0.0015903492417304,-0.0015903461612876,0.0015903449118252,-0.0015903379450219,0.0015903533086649,-0.0013146305267509,0.0013146128869869,-0.0013146060230738,0.0013146379903676,-0.001378562687747,0.0013785621567914,-0.0013785507216192,0.0013785744590376,-2.7017393960028e-09,2.2108708140489e-09,-0.00084332286286427,0.00084332232015391,1.1971466680793e-08,-1.2902853057506e-08,-0.00096965836407758,0.00096966454959885,-0.00096966664944575,0.00096965630167467,-0.00096965670557434,0.00096966618957393,-0.00096966501201895,0.00096965792105161,-0.00087678391558756,0.00087677988789852,-0.00087678868397195,0.00087677509972407,0.62007022977301,128566,2924,0.0043838533470156,0.0061366292431153,0.0035102973993688,38.775255042578,7.0202040340627e-05,7.0202040340627e-05,7.0202040340627e-05,3911986.3703591,0.014130388212266
10419200,0.87684257796235,0.014121114127286,0.0044882906168464,0.0058489384935792,0.0037838850168606,-0.0010616215086706,0.0010616204831705,1.9299525112958e-09,-2.97398025147e-09,5.4601522322113e-09,-6.7083171288106e-09,-0.0011833463842034,0.0011833510125404,-0.0011833479843814,0.0011833493695521,-0.0011833502372124,0.001183346965173,-0.0011833518877804,0.0011833453327006,-0.0010170938064842,0.0010170935347627,-0.0010170986330484,0.0010170887117533,-4.4936450266408e-09,7.7703352619445e-09,-1.1058059763453e-08,1.4136881263628e-08,-0.0014900300018554,0.0014900330946713,-0.0016045642994615,0.0016045550214222,-0.0016045560899206,0.0016045634140734,-0.0016045603427385,0.0016045591017354,-0.0016045521527028,0.0016045674712169,-0.0013246944210618,0.0013246768431992,-0.0013246699966387,0.001324701864837,-0.0013895299818058,0.0013895294440874,-0.0013895180458264,0.0013895417178565,-2.7631120007221e-09,2.279106790148e-09,-0.000847974780315,0.0008479742445322,1.1934211963487e-08,-1.2857729862601e-08,-0.00097607356512612,0.00097607968695912,-0.00097608182329948,0.00097607146631114,-0.00097607186343078,0.0009760813701376,-0.00097608014261725,0.00097607312888794,-0.00088154995573046,0.00088154608885365,-0.00088155485153864,0.00088154117412056,0.62506142821434,128566,2924,0.0044137543465421,0.0061878367827062,0.0035296771905255,38.100189174034,6.4801513392271e-05,6.4801513392271e-05,6.4801513392271e-05,3901299.1406955,0.014232322042378
10619200,0.88520850508104,0.014229995518655,0.0045223228511636,0.0058973920999978,0.0038102805674931,-0.0010693094096225,0.0010693083979251,2.0010698855397e-09,-3.0311511627551e-09,5.4154164004907e-09,-6.6490371097745e-09,-0.0011926935820704,0.0011926982317592,-0.0011926952247683,0.0011926965470702,-0.001192697400485,0.0011926942196526,-0.0011926990945363,0.0011926925438862,-0.0010242841382676,0.0010242840424668,-0.0010242890928398,0.0010242790925065,-4.4478990490313e-09,7.7127379905016e-09,-1.0935868268731e-08,1.4003367452384e-08,-0.0015025506499232,0.0015025537314135,-0.0016188156084636,0.0016188064366595,-0.0016188074809445,0.0016188147442888,-0.0016188116845541,0.0016188104830652,-0.0016188035776382,0.0016188187663033,-0.001335035447941,0.0013350180774075,-0.0013350112728692,0.001335042842804,-0.0014007026068371,0.0014007020766576,-0.0014006907742871,0.001400714246177,-2.8171578458829e-09,2.3558771659378e-09,-0.00085323289678582,0.00085323238426413,1.1818135922648e-08,-1.2715474708991e-08,-0.00098304132053555,0.00098304733511165,-0.00098304949245603,0.00098303920074013,-0.00098303957466508,0.00098304906256954,-0.00098304776882327,0.00098304090623705,-0.00088691575499263,0.00088691212219446,-0.00088692077751126,0.00088690708175081,0.61395112562351,128566,2924,0.004445648580793,0.0062396467165626,0.0035515729051608,38.029549184892,6.4236393479138e-05,6.4236393479138e-05,6.4236393479138e-05,3898307.2276111,0.014339451305133
10819200,0.89302096151925,0.014329880430785,0.0045535213549357,0.0059419477891317,0.0038344112867173,-0.0010764057142771,0.0010764047156344,2.0730743229583e-09,-3.0901919173844e-09,5.3806657538289e-09,-6.6000311860483e-09,-0.0012013448675044,0.0012013495468528,-0.001201346554908,0.001201347818173,-0.0012013486593714,0.0012013455619286,-0.0012013503964633,0.0012013438433583,-0.0010308885322752,0.0010308886026266,-0.0010308936126281,0.0010308835265956,-4.410834233336e-09,7.6642743651497e-09,-1.0841754743599e-08,1.3898283782912e-08,-0.0015141437002838,0.0015141467708014,-0.0016320506221257,0.0016320415335816,-0.0016320425592873,0.0016320497736406,-0.0016320467264469,0.001632045550562,-0.0016320386825724,0.001632053767813,-0.0013445824396663,0.001344565223209,-0.0013445584552556,0.0013445897926813,-0.0014110153585821,0.0014110148331473,-0.0014110036065238,0.0014110269192303,-2.8718879148838e-09,2.4291645794377e-09,-0.00085807340754967,0.00085807291396999,1.1731902122767e-08,-1.2608004138473e-08,-0.00098947409246785,0.00098948001912431,-0.00098948220085256,0.00098947194830246,-0.00098947230464552,0.00098948178862341,-0.00098948043380048,0.0009894736972092,-0.00089180462277209,0.00089180119997367,-0.00089180977244516,0.00089179603185942,0.60386753951858,128566,2924,0.004475087340681,0.0062876156834598,0.0035717297448662,37.973704748167,6.3789637985333e-05,6.3789637985333e-05,6.3789637985333e-05,3898689.2076422,0.014438439613321
11019200,0.9003132734956,0.014421321950435,0.0045820606579966,0.0059828438594324,0.0038564174330061,-0.0010829159042538,0.0010829149143635,2.1421833221505e-09,-3.1507120223839e-09,5.3608501850872e-09,-6.570721587907e-09,-0.0012093091692834,0.0012093138842597,-0.001209310900218,0.0012093121127663,-0.0012093129453353,0.0012093099157169,-0.0012093147256733,0.001209308154088,-0.0010369286717394,0.0010369288936635,-0.0010369338791551,0.0010369236906378,-4.3911493958708e-09,7.6345525442486e-09,-1.0781988076489e-08,1.3828781138876e-08,-0.0015248343940223,0.0015248374548235,-0.0016442952323548,0.0016442861925636,-0.0016442872106677,0.0016442943892607,-0.0016442913524114,0.0016442901929883,-0.0016442833495804,0.0016442983668801,-0.001353360553586,0.0013533434379757,-0.0013533366938714,0.0013533678784762,-0.0014204970492017,0.0014204965197977,-0.0014204853448155,0.0014205085561074,-2.9300006691526e-09,2.5004610930252e-09,-0.00086248973317026,0.00086248925312402,1.1676272313219e-08,-1.2537058565484e-08,-0.00099537068725777,0.00099537654189562,-0.00099537875374896,0.00099536851300052,-0.00099536885636141,0.00099537835460794,-0.00099537694357063,0.00099537030506636,-0.0008962180706368,0.00089621482942891,-0.00089622334656463,0.0008962095345871,0.59320719877815,128566,2924,0.0045020938829257,0.0063318486715108,0.0035901201941392,37.918425924118,6.3347407392942e-05,6.3347407392942e-05,6.3347407392942e-05,3901199.8692509,0.014529386732177
11219200,0.90710798527487,0.01450647628215,0.0046086464443618,0.0060208803878943,0.0038769494498935,-0.0010889043913314,0.001088903403768,2.2081401190097e-09,-3.2144128044744e-09,5.3588346986332e-09,-6.5659792708992e-09,-0.0012166226476754,0.0012166274058281,-0.0012166244218912,0.0012166255914695,-0.0012166264216888,0.0012166234396637,-0.0012166282454016,0.0012166216348046,-0.0010424933266221,0.0010424936799853,-0.0010424986613241,0.0010424883498282,-4.3917006249723e-09,7.627296485975e-09,-1.0766452659026e-08,1.3805528707986e-08,-0.0015346838336615,0.0015346868867901,-0.0016556011646998,0.0016555921318041,-0.0016555931548818,0.0016556003154534,-0.0016555972865523,0.0016555961300459,-0.0016555892956026,0.0016556042907306,-0.0013614258263311,0.0013614087392662,-0.0013614020040372,0.0013614331404806,-0.0014292500153291,0.0014292494722996,-0.0014292383171292,0.0014292615008752,-2.9919275378825e-09,2.5678790316869e-09,-0.00086653897693364,0.00086653850259222,1.1659645918556e-08,-1.2513933848155e-08,-0.0010007616820291,0.001000767485838,-0.0010007697353607,0.0010007594701008,-0.0010007598078985,0.0010007693417907,-0.0010007678821844,0.0010007613051726,-0.00090025358576935,0.00090025048956939,-0.00090025898791274,0.00090024506829902,0.59263236404338,128566,2924,0.0045269356504731,0.006372599480554,0.0036069815728343,37.837643677778,6.2701149422224e-05,6.2701149422224e-05,6.2701149422224e-05,3903813.1179987,0.01461305944286
11419200,0.91339524613426,0.014585855655103,0.0046334481029827,0.0060562418906864,0.0038961656614335,-0.0010942085393478,0.0010942075465332,2.2708386897015e-09,-3.2823265192119e-09,5.37441062302e-09,-6.587030904198e-09,-0.0012231303255815,0.0012231351338092,-0.0012231321427853,0.0012231332764235,-0.0012231341114065,0.0012231311558744,-0.0012231359791066,0.0012231293071106,-0.0010474295956043,0.0010474300605396,-0.0010474350594473,0.0010474246015499,-4.4134030315669e-09,7.6439345022244e-09,-1.0800883010085e-08,1.3834746672809e-08,-0.0015435372529884,0.001543540300993,-0.0016657950596486,0.001665785987396,-0.0016657870284357,0.001665794192612,-0.0016657911683844,0.0016657899989563,-0.0016657831567624,0.001665798180299,-0.0013686330241787,0.0013686158836664,-0.0013686091411613,0.0013686403464155,-0.0014371148874588,0.0014371143240179,-0.0014371031529104,0.0014371263890616,-3.0577355916755e-09,2.6304052077886e-09,-0.00087006825246127,0.00087006777477766,1.1684987193662e-08,-1.2542906791621e-08,-0.0010055107325427,0.0010055165080019,-0.0010055188036457,0.0010055084744815,-0.0010055088150804,0.0010055184071797,-0.0010055169081075,0.0010055103518803,-0.00090378117959329,0.00090377818681355,-0.00090378670634379,0.00090377264109409,0.59626238249705,128566,2924,0.0045489384724371,0.0064092273702096,0.003621680029494,37.630670843268,6.1045366746142e-05,6.1045366746142e-05,6.1045366746142e-05,3903156.3551247,0.014687478682415
11619200,0.91921319690877,0.01465969727993,0.0046565329584088,0.0060890643153592,0.0039141000061624,-0.0010990896141733,0.0010990886143411,2.3315979228979e-09,-3.349969096588e-09,5.3916733110813e-09,-6.6116192979218e-09,-0.0012291194724503,0.0012291243310983,-0.001229121332871,0.00122912243003,-0.0012291232727377,0.0012291203385138,-0.0012291251826269,0.0012291184475166,-0.0010519925430792,0.0010519931112008,-0.0010519981301268,0.0010519875276375,-4.4351497996298e-09,7.6617826802102e-09,-1.0837305407818e-08,1.3867102260839e-08,-0.0015516944195712,0.0015516974635105,-0.0016751825478049,0.0016751734360123,-0.0016751744945494,0.001675181663654,-0.0016751786441048,0.0016751774602221,-0.0016751706090574,0.0016751856653968,-0.0013752663497024,0.0013752491485399,-0.0013752423977176,0.0013752736815011,-0.0014443701282794,0.0014443695423075,-0.001444358353009,0.0014443816487875,-3.1261579054704e-09,2.6925165384602e-09,-0.00087331561619818,0.00087331513198776,1.1721447022781e-08,-1.2586465695773e-08,-0.0010098860157875,0.001009891768475,-0.0010098941139356,0.0010098837078457,-0.0010098840553946,0.0010098937103935,-0.0010098921742829,0.0010098856292752,-0.00090704783757384,0.00090704494137659,-0.00090705349404767,0.00090703926639114,0.59873359202001,128566,2924,0.0045691860520435,0.0064429729931901,0.0036352053378616,37.420603320881,5.9364826567046e-05,5.9364826567046e-05,5.9364826567046e-05,3900468.2731375,0.014756005881424
11819200,0.92459822386685,0.01472853399715,0.00467806718681,0.0061195872272442,0.0039308795830963,-0.0011035922782723,0.001103591271843,2.3932051649639e-09,-3.417986799043e-09,5.4046994809423e-09,-6.6316376614922e-09,-0.0012346414030652,0.0012346463093528,-0.001234643306505,0.0012346443650493,-0.0012346452143326,0.00123464230583,-0.0012346471673814,0.0012346403714856,-0.0010562196653798,0.0010562203436863,-0.0010562253795301,0.0010562146325186,-4.453313266219e-09,7.6765481593702e-09,-1.0874669736892e-08,1.3900900820669e-08,-0.0015592229040648,0.0015592259444823,-0.0016838406878186,0.0016838315377579,-0.0016838326111201,0.001683839789465,-0.0016838367731745,0.0016838355731738,-0.001683828714774,0.0016838438022597,-0.0013813872644943,0.0013813700008693,-0.0013813632434123,0.0013813946044157,-0.0014510780366299,0.0014510774385042,-0.0014510662296452,0.0014510895779045,-3.1938351851028e-09,2.7541474155064e-09,-0.0008763156956821,0.00087631520521068,1.1753367081115e-08,-1.2625280865539e-08,-0.001013926414624,0.0010139321416267,-0.0010139345362554,0.0010139240575231,-0.0010139244109846,0.0010139341266095,-0.0010139325534981,0.0010139260219205,-0.0009100879374818,0.00091008513816455,-0.00091009372077297,0.00091007933722226,0.60218092332384,128566,2924,0.0045878636481637,0.006474116272739,0.003647701503422,37.210417482949,5.7683339863591e-05,5.7683339863591e-05,5.7683339863591e-05,3896386.7047639,0.014819258052819
12019200,0.92959135682802,0.014794444642056,0.0046987266351523,0.0061486058349984,0.0039471121719053,-0.0011078902128885,0.0011078892030385,2.4562653078802e-09,-3.4843131206261e-09,5.4078815743896e-09,-6.6386145350005e-09,-0.0012398508750362,0.0012398558246151,-0.0012398528215171,0.0012398538370548,-0.0012398546898046,0.0012398518176217,-0.0012398566858655,0.0012398498401681,-0.0010603092909129,0.001060310089384,-0.001060315131482,0.0010603042514529,-4.4600928184024e-09,7.6795299254558e-09,-1.08973735826e-08,1.3919753041747e-08,-0.0015663110739615,0.0015663141105524,-0.0016919523911599,0.0016919432201838,-0.0016919443008759,0.0016919514858391,-0.0016919484733229,0.0016919472588989,-0.0016919404011395,0.0016919555021102,-0.0013871757906912,0.0013871584854096,-0.0013871517288403,0.0013871831303109,-0.0014574554183317,0.0014574548203324,-0.0014574436022617,0.0014574669703647,-3.2606066363451e-09,2.816908347152e-09,-0.00087922140042946,0.00087922090580448,1.1772536868168e-08,-1.2648933067959e-08,-0.0010177694937033,0.0010177751877579,-0.0010177776296291,0.0010177670893631,-0.0010177674468636,0.0010177772158031,-0.0010177756035994,0.0010177690969203,-0.00091308959881709,0.00091308690823045,-0.00091309550946141,0.00091308098067954,0.61929850348971,128566,2924,0.004605691761747,0.0065034371435877,0.0036598040888531,37.028041807138,5.6224334457107e-05,5.6224334457107e-05,5.6224334457107e-05,3889931.4395871,0.014879401518139
12219200,0.934239062667,0.014857901475243,0.0047186553347796,0.0061763538120712,0.0039628923283922,-0.0011121036211202,0.0011121026122369,2.5217530148639e-09,-3.5487251296765e-09,5.3999031665748e-09,-6.629606306431e-09,-0.0012449072359607,0.0012449122242278,-0.0012449092257163,0.0012449101933695,-0.0012449110452869,0.0012449082228285,-0.0012449130845597,0.001244906202103,-0.0010643851524154,0.0010643860847817,-0.001064391120057,0.0010643801196474,-4.4542274143512e-09,7.6690612242086e-09,-1.0899679270633e-08,1.3917532707694e-08,-0.0015731401071063,0.0015731431391931,-0.0016996940266596,0.0016996848564331,-0.0016996859362747,0.0016996931221449,-0.0016996901140763,0.0016996888897101,-0.0016996820416597,0.0016996971330587,-0.0013928056370776,0.0013927883216756,-0.0013927815750289,0.0013928129668487,-0.0014636578885958,0.0014636573020912,-0.0014636460885453,0.0014636694361868,-3.3252373722606e-09,2.8812862578692e-09,-0.0008821271314218,0.00088212663649382,1.1771549591593e-08,-1.264821178226e-08,-0.0010215649378116,0.0010215705880452,-0.0010215730732324,0.0010215624901713,-0.0010215628479381,0.0010215726590654,-0.001021571004134,0.0010215645407115,-0.00091615616954082,0.00091615360566976,-0.00091616220684771,0.00091614755201118,0.63789981062741,128566,2924,0.0046231692580397,0.006531684276059,0.0036719070660492,36.91434828594,5.5314786287517e-05,5.5314786287517e-05,5.5314786287517e-05,3879748.8798028,0.014938102631528
12419200,0.93856572181092,0.014914998769391,0.0047365564923153,0.0062014740388054,0.0039769682382706,-0.001115912124467,0.0011159111179553,2.5875037442426e-09,-3.6121251690245e-09,5.3898092624955e-09,-6.6167733191759e-09,-0.0012495673649583,0.0012495723910541,-0.0012495693977664,0.0012495703170957,-0.0012495711668741,0.0012495683972095,-0.0012495732491116,0.001249566333451,-0.0010680521375721,0.0010680532061068,-0.0010680582313635,0.0010680471143419,-4.4446943990488e-09,7.6548165684318e-09,-1.089325950687e-08,1.3906518847513e-08,-0.0015794520897328,0.0015794551172403,-0.0017068407214073,0.0017068315600947,-0.0017068326366,0.0017068398199656,-0.0017068368164552,0.0017068355853789,-0.0017068287494694,0.0017068438230025,-0.0013980103195333,0.0013979930086534,-0.0013979862744823,0.0013980176369125,-0.0014693256782211,0.0014693251045896,-0.0014693139009462,0.0014693372148373,-3.3895183552376e-09,2.946722550192e-09,-0.00088471894976717,0.00088471845591223,1.1764630702608e-08,-1.2640124658758e-08,-0.0010250739171747,0.0010250795203193,-0.0010250820476776,0.0010250714273671,-0.0010250717841073,0.001025081634535,-0.0010250799353022,0.0010250735211649,-0.00091886621766885,0.00091886378704512,-0.00091887238198679,0.00091885760625648,0.61826606422554,128566,2924,0.004638967276277,0.0065577895596836,0.0036827065407292,36.802342502364,5.4418740018913e-05,5.4418740018913e-05,5.4418740018913e-05,3868778.2669108,0.01499160648865
12619200,0.94259369888834,0.014965233274696,0.0047522587215016,0.0062238006152187,0.0039891739379758,-0.0011192900429061,0.0011192890390775,2.6535327758731e-09,-3.6755032877545e-09,5.3797405710136e-09,-6.6037609093431e-09,-0.0012537583970126,0.0012537634612996,-0.0012537604729839,0.0012537613442138,-0.0012537621914759,0.0012537594750856,-0.0012537643167869,0.0012537573682147,-0.0010712309543525,0.0010712321597457,-0.0010712371746976,0.0010712259412209,-4.4353221229537e-09,7.6408569241247e-09,-1.0883556670285e-08,1.3892346513938e-08,-0.0015851510359584,0.0015851540590132,-0.0017133486716726,0.0017133395213515,-0.0017133405944836,0.0017133477732356,-0.0017133447742219,0.0017133435388054,-0.0017133367147095,0.0017133517685394,-0.0014026725516408,0.0014026552519128,-0.0014026485296358,0.0014026798566199,-0.0014743664405711,0.0014743658774168,-0.0014743546858583,0.0014743779644521,-3.4532251699848e-09,3.0124591018926e-09,-0.00088698493606566,0.00088698444422493,1.1754219138174e-08,-1.2627418828168e-08,-0.0010281943285371,0.001028199882886,-0.001028202451444,0.0010281917975495,-0.0010281921523617,0.0010282020402314,-0.0010282002958887,0.0010281939345136,-0.0009211673632631,0.00092116506908965,-0.0009211736543458,0.00092115876148602,0.5873120212842,128566,2924,0.0046529786999758,0.0065813589588543,0.0036921484844623,36.690401215969,5.3523209727756e-05,5.3523209727756e-05,5.3523209727756e-05,3864318.3222208,0.015039347139911
12819200,0.94630992924563,0.015011974143248,0.0047668785009562,0.0062445151677578,0.0040005804745341,-0.0011220784343873,0.001122077428833,2.7189563473878e-09,-3.7427334436632e-09,5.381585848206e-09,-6.6071598948006e-09,-0.0012572227036417,0.0012572278122419,-0.0012572248238623,0.0012572256508764,-0.0012572265001012,0.0012572238241099,-0.0012572286694108,0.0012572216732286,-0.0010738262933209,0.0010738276243011,-0.0010738326430829,0.0010738212763736,-4.4408526290005e-09,7.6434490298788e-09,-1.0890852304761e-08,1.389668750803e-08,-0.0015899968210392,0.0015899998412038,-0.0017189653394886,0.0017189561799324,-0.001718957258701,0.0017189644355217,-0.0017189614394652,0.0017189601999433,-0.0017189533759438,0.0017189684336313,-0.0014065593471364,0.0014065420353111,-0.0014065353135934,0.0014065666523232,-0.0014786375112658,0.0014786369407468,-0.001478625747536,0.0014786490355771,-3.5163280451489e-09,3.0754532197836e-09,-0.00088878621486342,0.00088878572282419,1.1754645912283e-08,-1.2628193783185e-08,-0.0010306786911895,0.0010306842039487,-0.0010306868147435,0.0010306761179145,-0.0010306764730515,0.0010306864032577,-0.0010306846170011,0.0010306782971372,-0.00092297231571402,0.00092297014510246,-0.00092297873049511,0.00092296371334217,0.5913455345603,128566,2924,0.0046645445791117,0.0066014008795488,0.0036996542266124,36.407039017159,5.125631213727e-05,5.125631213727e-05,5.125631213727e-05,3863276.9851149,0.015079058768479
13019200,0.94969562641358,0.015054714650233,0.0047802510854401,0.0062634247137687,0.0040110388510245,-0.0011241024170754,0.0011241014039793,2.7775529155584e-09,-3.8089049363281e-09,5.3990120889014e-09,-6.6321800622163e-09,-0.0012598470961954,0.0012598522528005,-0.0012598492577247,0.001259850049751,-0.0012598509064568,0.0012598482507101,-0.0012598531175545,0.0012598460579402,-0.0010756918657506,0.0010756932977598,-0.001075698337581,0.0010756868262441,-4.4604523359488e-09,7.6618765188729e-09,-1.090951770684e-08,1.3913972683156e-08,-0.0015938758666336,0.0015938788854538,-0.0017235402361825,0.0017235310504588,-0.0017235321433807,0.0017235393183682,-0.0017235363234204,0.0017235350833549,-0.0017235282482307,0.0017235433291139,-0.0014095787789738,0.0014095614435407,-0.0014095547116458,0.0014095860963026,-0.00148200088184,0.0014820002849296,-0.0014819890809427,0.0014820124163638,-3.5856609330933e-09,3.1401978190956e-09,-0.00088994629085425,0.00088994579401616,1.1777526758142e-08,-1.2656593253485e-08,-0.0010324472953245,0.0010324527755498,-0.0010324554355357,0.0010324446728086,-0.0010324450323797,0.0010324550195484,-0.0010324531933801,0.0010324468964397,-0.00092412293893421,0.00092412087753844,-0.0009241294841334,0.00092411431492688,0.59302696522676,128566,2924,0.0046729404631602,0.0066174428778722,0.003704494379815,35.87446603861,4.6995728308881e-05,4.6995728308881e-05,4.6995728308881e-05,3858209.4830825,0.015108786828706
13219200,0.95278372607738,0.015093875961948,0.0047925076944476,0.0062807165178656,0.0040206517496348,-0.0011258522394889,0.0011258512209383,2.8411412536805e-09,-3.8778510455904e-09,5.4088391532005e-09,-6.6476638745494e-09,-0.0012621367613578,0.001262141965338,-0.0012621389672567,0.0012621397179413,-0.0012621405803387,0.0012621379546135,-0.0012621428352129,0.0012621357178424,-0.0010773128569565,0.0010773144044277,-0.0010773194578217,0.0010773078037114,-4.4751045151583e-09,7.6753204521111e-09,-1.0920257180639e-08,1.3923389821822e-08,-0.0015973094114179,0.0015973124288865,-0.001727601097785,0.0017275918948524,-0.0017275929985722,0.0017276001693927,-0.0017275971760937,0.001727595936972,-0.001727589093939,0.0017276041898726,-0.0014122351437713,0.0014122177954709,-0.0014122110560106,0.0014122424691925,-0.0014849705591832,0.0014849699390036,-0.0014849587298203,0.0014849820990648,-3.649656405037e-09,3.2024809845209e-09,-0.00089092173564197,0.00089092123705877,1.1784365994443e-08,-1.2665332348533e-08,-0.0010339725028246,0.001033977944739,-0.0010339806485083,0.0010339698365076,-0.0010339701979425,0.0010339802306093,-0.0010339783639573,0.001033972102473,-0.00092509339900277,0.00092509145478286,-0.00092510006865571,0.00092508476820835,0.59512403414804,128566,2924,0.004680199399885,0.0066316418637884,0.0037085658599568,35.335748889107,4.2685991112857e-05,4.2685991112857e-05,4.2685991112857e-05,3852079.7844614,0.01513470962181
13419200,0.95560452781288,0.015129061831787,0.0048035102863331,0.0062962866414561,0.004029264903998,-0.0011273287944488,0.0011273277724495,2.9032373307946e-09,-3.943182279035e-09,5.4137051229879e-09,-6.6562329690048e-09,-0.0012641168932378,0.0012641221405251,-0.0012641191413866,0.0012641198507578,-0.0012641207165714,0.0012641181255288,-0.0012641230140822,0.001264115846152,-0.001078669387491,0.0010786710527936,-0.0010786761136006,0.0010786643268856,-4.4817404824929e-09,7.6802991342511e-09,-1.0921585138306e-08,1.3922963237089e-08,-0.0016003258747733,0.0016003288905863,-0.0017311888734239,0.0017311796644715,-0.001731180773703,0.0017311879395111,-0.0017311849477224,0.0017311837106645,-0.001731176865297,0.0017311919637614,-0.0014145481794986,0.0014145308330482,-0.0014145240911982,0.0014145555071192,-0.0014875501942678,0.0014875495618789,-0.0014875383544107,0.0014875617333587,-3.7153928404884e-09,3.2681405034195e-09,-0.00089170583427829,0.0008917053355246,1.1785370784512e-08,-1.2666438616485e-08,-0.0010352718402746,0.0010352772387315,-0.0010352799865355,0.0010352691299972,-0.001035269491389,0.001035279568445,-0.0010352776583138,0.0010352714395476,-0.00092586172610137,0.0009258599094958,-0.00092586852466081,0.00092585309517515,0.58608287310958,128566,2924,0.0046863249984873,0.0066441152204953,0.0037118410683341,34.796796953294,3.8374375626348e-05,3.8374375626348e-05,3.8374375626348e-05,3845636.9307992,0.015156922137068
13619200,0.95819869478499,0.015160998196929,0.0048134900180204,0.0063104380621902,0.0040370701167186,-0.0011287671849915,0.0011287661646926,2.963453418683e-09,-4.0016072259395e-09,5.4051952069213e-09,-6.6465146638335e-09,-0.0012660084637127,0.0012660137457092,-0.001266010750764,0.0012660114171261,-0.0012660122801328,0.0012660097376929,-0.0012660146182351,0.0012660074176699,-0.0010799893490067,0.0010799911416651,-0.0010799961937667,0.0010799842962384,-4.4690707969549e-09,7.6644805844381e-09,-1.0891967523339e-08,1.3890268377248e-08,-0.0016031635072727,0.0016031665199168,-0.0017345589333995,0.0017345497498266,-0.0017345508524771,0.0017345580050486,-0.0017345550159112,0.0017345537874344,-0.0017345469542233,0.0017345620191994,-0.0014167363301092,0.0014167190350541,-0.0014167123044791,0.0014167436437673,-0.0014899845493575,0.0014899839239337,-0.0014899727421918,0.0014899960661895,-3.7841843560026e-09,3.339500236572e-09,-0.00089251168750482,0.00089251119146474,1.1771438393726e-08,-1.2649020173994e-08,-0.0010365359157889,0.0010365412587129,-0.0010365440504631,0.001036533161511,-0.0010365335194676,0.0010365436358012,-0.0010365416765229,0.0010365355166285,-0.00092664269362991,0.00092664102377898,-0.00092664962672263,0.00092663407538007,0.57889842851599,128566,2924,0.0046922919851966,0.0066558496818672,0.0037152042232354,34.356052612757,3.4848420902056e-05,3.4848420902056e-05,3.4848420902056e-05,3841964.6142667,0.015178312525293
13819200,0.96059872976809,0.015190534527245,0.004822720626837,0.0063235118324592,0.0040443020679493,-0.001130203458155,0.0011302024442589,3.033229745281e-09,-4.0650028801127e-09,5.384557076687e-09,-6.6189376275871e-09,-0.0012678503238438,0.0012678556406486,-0.0012678526555887,0.0012678532679437,-0.0012678541248127,0.0012678516486223,-0.0012678565069415,0.0012678492843894,-0.0010813179960314,0.0010813199404193,-0.0010813249706938,0.0010813129659844,-4.4490330078603e-09,7.6404321113377e-09,-1.08601885544e-08,1.3854685284228e-08,-0.0016058741274147,0.0016058771362533,-0.0017377659017457,0.001737756751067,-0.0017377578425841,0.0017377649836816,-0.0017377619987328,0.0017377607737718,-0.0017377539583652,0.0017377689833002,-0.0014188440542614,0.0014188268064693,-0.0014188200934601,0.0014188513488481,-0.0014923297793165,0.0014923291709017,-0.0014923180144568,0.0014923412697983,-3.8435759244049e-09,3.405717065584e-09,-0.00089336358086625,0.00089336309181058,1.1736554745662e-08,-1.2606387281058e-08,-0.0010377945226029,0.0010377998049401,-0.0010378026319246,0.0010377917331911,-0.0010377920844902,0.0010378022239692,-0.0010378002158319,0.0010377941304145,-0.00092747012114284,0.0009274686073035,-0.00092747717780837,0.00092746153553918,0.5784214743447,128566,2924,0.0046982499421164,0.0066670595483806,0.003718756566366,34.003764185975,3.2030113487799e-05,3.2030113487799e-05,3.2030113487799e-05,3840197.2304904,0.015199352964593
14019200,0.96282145605015,0.015217891105372,0.0048312712791327,0.0063356086398537,0.0040510111863858,-0.001131489121802,0.0011314881145103,3.1031035865085e-09,-4.128409641407e-09,5.3654074435738e-09,-6.5926643842755e-09,-0.0012695079896052,0.0012695133423498,-0.0012695103658195,0.0012695109253974,-0.001269511775835,0.0012695093652597,-0.001269514202193,0.0012695069568642,-0.0010825097230418,0.0010825118186686,-0.0010825168278932,0.001082504714269,-4.4302555945562e-09,7.617811737904e-09,-1.083285755652e-08,1.3823680349878e-08,-0.0016083307103879,0.0016083337155308,-0.0017406799983174,0.0017406708770829,-0.0017406719582193,0.0017406790898291,-0.0017406761088332,0.0017406748857845,-0.0017406680873241,0.0017406830755825,-0.0014207458769281,0.0014207286687837,-0.0014207219724251,0.0014207531533669,-0.0014944512200359,0.0014944506290766,-0.0014944394949113,0.0014944626866616,-3.9033233947673e-09,3.4715045292293e-09,-0.00089411581066483,0.00089411532774801,1.1706829788974e-08,-1.2569770426291e-08,-0.0010389209230978,0.0010389261476463,-0.0010389290106585,0.0010389180976078,-0.0010389184431662,0.0010389286086003,-0.0010389265525682,0.0010389205369354,-0.00092819915111168,0.00092819778853241,-0.00092820633080999,0.00092819059316222,0.57820996433515,128566,2924,0.0047035832599127,0.0066772186382615,0.0037218937749692,33.653664715287,2.9229317722298e-05,2.9229317722298e-05,2.9229317722298e-05,3838016.7436954,0.015218271063874
14219200,0.96488184881943,0.015242297272563,0.0048388838573767,0.0063464714705488,0.0040569419446378,-0.0011325837258176,0.0011325827240862,3.1712882997347e-09,-4.1911488598252e-09,5.350698347331e-09,-6.5719788262051e-09,-0.0012709612569503,0.0012709666475599,-0.0012709636773478,0.0012709641866714,-0.0012709650321308,0.0012709626817244,-0.0012709675016224,0.0012709602303562,-0.0010835051202295,0.0010835073593775,-0.0010835123518473,0.0010835001285332,-4.414410531612e-09,7.598242422792e-09,-1.0810831717277e-08,1.3798098996371e-08,-0.0016105115588846,0.0016105145605236,-0.0017432890286657,0.0017432799320031,-0.0017432810045567,0.0017432881281012,-0.0017432851511633,0.0017432839282839,-0.0017432771445691,0.0017432921024425,-0.0014224151349369,0.0014223979568263,-0.0014223912749455,0.001422422395526,-0.0014963024520696,0.0014963018750067,-0.001496290759565,0.0014963138985769,-3.9648145674858e-09,3.5379116467737e-09,-0.00089472599856011,0.00089472552069223,1.1683426864711e-08,-1.2540700775267e-08,-0.0010398922794436,0.0010398974494241,-0.00103990035024,0.0010398894161452,-0.0010398897573671,0.0010398999525775,-0.0010398978489851,0.001039891898711,-0.00092876783188751,0.00092876661844445,-0.00092877513816408,0.00092875929593143,0.55856305448306,128566,2924,0.0047081241587508,0.0066862369843313,0.0037244399482695,33.303648845003,2.6429190760027e-05,2.6429190760027e-05,2.6429190760027e-05,3836101.938377,0.01523462689382
14419200,0.96676174679536,0.015264817074395,0.0048459141728694,0.00635645996628,0.0040624429352454,-0.0011329544377318,0.0011329534336629,3.2272046265257e-09,-4.2495958388095e-09,5.3586405728926e-09,-6.5817802653661e-09,-0.0012716084372702,0.0012716138680944,-0.0012716108943624,0.0012716113701303,-0.0012716122166835,0.0012716098979434,-0.0012716147260481,0.001271607406486,-0.0010837684834223,0.0010837708310698,-0.0010837758305774,0.0010837634814707,-4.418741435247e-09,7.6011326078518e-09,-1.0822706117228e-08,1.380848848045e-08,-0.0016118054885881,0.0016118084886611,-0.0017449887672716,0.0017449796571519,-0.001744980733701,0.0017449878624929,-0.0017449848854402,0.0017449836572707,-0.0017449768728269,0.001744991837804,-0.0014232483680604,0.0014232311735145,-0.0014232244921387,0.0014232556302992,-0.0014973160477155,0.0014973154743537,-0.0014973043527781,0.0014973274993166,-4.0395213688766e-09,3.6077121729265e-09,-0.00089471452440031,0.00089471404142778,1.1709583712167e-08,-1.2572684467935e-08,-0.0010401291068512,0.0010401342413486,-0.0010401371949748,0.001040126190696,-0.0010401265354016,0.0010401367939147,-0.0010401346474234,0.0010401287195989,-0.00092868863020405,0.0009286875289631,-0.00092869607244898,0.0009286800693554,0.56383117825834,128566,2924,0.004709662863174,0.0066915877944242,0.0037244003149877,32.648197542155,2.118558033724e-05,2.118558033724e-05,2.118558033724e-05,3833436.7863655,0.015241584456167
14619200,0.96846389016395,0.015285324588383,0.0048523189745156,0.0063655346525517,0.0040674709613158,-0.0011328668652655,0.0011328658616211,3.2883604453842e-09,-4.3105228327695e-09,5.3575160107307e-09,-6.5796340288733e-09,-0.0012717607657678,0.0012717662364498,-0.0012717632637058,0.0012717636981404,-0.0012717645447233,0.0012717622675977,-0.0012717670942784,0.001271759735744,-0.0010835934823256,0.0010835959493513,-0.0010836009475918,0.0010835884817584,-4.4150962264292e-09,7.5945672301842e-09,-1.085342242116e-08,1.383639617383e-08,-0.0016125251723442,0.0016125281700013,-0.0017460675408467,0.0017460584127964,-0.0017460594881494,0.0017460666381649,-0.0017460636624877,0.0017460624092601,-0.0017460556304181,0.0017460706104264,-0.0014235652673588,0.0014235480095725,-0.0014235413352474,0.0014235725249203,-0.0014977879906564,0.0014977874410756,-0.0014977763004476,0.0014977994535384,-4.1114279335996e-09,3.6725163713829e-09,-0.00089430949675394,0.00089430900643325,1.1747988501104e-08,-1.2619703643017e-08,-0.0010399398509438,0.0010399449611242,-0.0010399479676934,0.0010399368824327,-0.0010399372341124,0.0010399475595091,-0.0010399453742576,0.0010399394572802,-0.00092821558117147,0.00092821457995582,-0.00092822315751271,0.00092820698513244,0.56645233173542,128566,2924,0.0047093012855168,0.0066945627938849,0.0037227251964141,31.823946785106,1.459157428085e-05,1.459157428085e-05,1.459157428085e-05,3826616.348303,0.015242539971524
14819200,0.97000781849969,0.015304054270928,0.0048581717123163,0.006373800661575,0.004072081897037,-0.0011326469215292,0.0011326459180718,3.3578361176339e-09,-4.3796194914918e-09,5.3553972927281e-09,-6.5780441563252e-09,-0.00127175217007,0.0012717576864703,-0.0012717547144186,0.0012717551015959,-0.0012717559482767,0.0012717537182587,-0.0012717585432753,0.0012717511406426,-0.0010832991730463,0.0010833017759593,-0.0010833067733162,0.0010832941753759,-4.4175877428445e-09,7.5961961145994e-09,-1.0886166202683e-08,1.3868273080895e-08,-0.0016130196503435,0.0016130226468118,-0.001746880194182,0.0017468710422982,-0.0017468721211461,0.0017468792885753,-0.0017468763148291,0.001746875039755,-0.0017468682613824,0.0017468832625987,-0.0014237045406038,0.0014236872177935,-0.0014236805431255,0.0014237117990652,-0.0014980615290509,0.0014980609968397,-0.0014980498375424,0.0014980730181458,-4.1733306027839e-09,3.7308301385476e-09,-0.0008938152037741,0.0008938147099141,1.1762514973624e-08,-1.263788953267e-08,-0.0010396356067973,0.0010396406847888,-0.0010396437351988,0.0010396325943045,-0.0010396329500957,0.0010396433228265,-0.0010396411009261,0.0010396352096974,-0.00092766146475637,0.000927660568109,-0.00092766916123822,0.00092765285513052,0.56961684787135,128566,2924,0.0047083908250649,0.0066966062099794,0.0037206786649843,30.995486140792,7.9638891263368e-06,7.9638891263368e-06,7.9638891263368e-06,3818472.4091752,0.015241615090735
15019200,0.97138946323143,0.015320753393531,0.0048633896544283,0.0063811668311985,0.0040761969079045,-0.0011317800051979,0.0011317789986959,3.3326010797033e-09,-4.3574519859476e-09,5.3729550366324e-09,-6.5975680203552e-09,-0.0012710639623314,0.001271069450259,-0.0012710664685424,0.0012710668934127,-0.0012710677209652,0.0012710654860597,-0.0012710703203826,0.0012710628950523,-0.0010823627351337,0.0010823653311847,-0.0010823703236519,0.0010823576990623,-4.3703892866073e-09,7.5420089247456e-09,-1.0818741052358e-08,1.3791731966938e-08,-0.0016127471581835,0.0016127501425293,-0.0017468856156411,0.001746876492399,-0.0017468775568542,0.0017468847046219,-0.001746881739501,0.0017468804743918,-0.0017468737518392,0.001746888629651,-0.0014231347389971,0.0014231175936653,-0.0014231109009237,0.0014231419356768,-0.0014975918921733,0.0014975915193875,-0.0014975804076075,0.0014976033903211,-4.3504551478425e-09,3.8593110732565e-09,-0.00089273823925687,0.00089273770131579,1.1878009701781e-08,-1.2811261701412e-08,-0.0010387130674274,0.0010387180791726,-0.0010387212618201,0.0010387099104262,-0.0010387102893343,0.0010387208375753,-0.0010387185469049,0.0010387126019259,-0.00092651186104687,0.00092651107506683,-0.0009265198043904,0.00092650311985825,0.56737759383108,128566,2924,0.0047047974511348,0.0066954764307695,0.0037162110273373,29.892655585155,-8.5875531875833e-07,-8.5875531875833e-07,-8.5875531875833e-07,3805732.0803856,0.015232286430525
15219200,0.9726075663934,0.015334808241098,0.0048677707650838,0.006387412845258,0.0040796246307558,-0.0011301822513681,0.0011301812561031,3.4927633361486e-09,-4.5066130228195e-09,5.3224030933621e-09,-6.5357380679236e-09,-0.0012696081544624,0.0012696137446092,-0.0012696107912908,0.001269611070133,-0.0012696119116442,0.0012696097978881,-0.0012696145869094,0.0012696071337281,-0.0010806829746953,0.0010806858468241,-0.0010806908123179,0.0010806780126246,-4.3804826446739e-09,7.5511662040558e-09,-1.0956532053408e-08,1.3930574148757e-08,-0.0016116094825385,0.0016116124723743,-0.0017459936219319,0.0017459844480267,-0.0017459855061904,0.0017459927336245,-0.0017459897720481,0.0017459884126227,-0.0017459816689574,0.0017459966864856,-0.0014217565813786,0.0014217390789184,-0.0014217324385195,0.001421763804433,-0.001496273399876,0.0014962729775638,-0.0014962617782698,0.0014962849372199,-4.3100326419172e-09,3.8503328008233e-09,-0.00089100121771145,0.00089100070825866,1.1830356330411e-08,-1.2723702114048e-08,-0.0010370836917811,0.0010370887277443,-0.0010370918728503,0.0010370805774485,-0.0010370809534028,0.0010370914461689,-0.0010370891492695,0.0010370832821841,-0.00092467015554689,0.00092466945279764,-0.00092467811455145,0.00092466147781544,0.54391180055687,128566,2924,0.0046981732362078,0.0066907676009477,0.003709000209647,28.48713620377,-1.2102910369842e-05,-1.2102910369842e-05,-1.2102910369842e-05,3789543.237429,0.015213461857638
15419200,0.97368375631459,0.015349060609052,0.0048722500762518,0.0063935721142833,0.0040832384185172,-0.0011285514156787,0.0011285504220488,3.5542000449997e-09,-4.5662484727021e-09,5.3169298993788e-09,-6.5287343302948e-09,-0.0012680149628622,0.0012680205857184,-0.0012680176328516,0.0012680178750199,-0.0012680187108952,0.0012680166469873,-0.0012680214325391,0.0012680139399751,-0.0010789848604577,0.0010789878779666,-0.0010789928362111,0.0010789799011035,-4.3751724650138e-09,7.5438666784042e-09,-1.0958619403464e-08,1.3931169149286e-08,-0.0016102813045028,0.0016102842916736,-0.0017448841457479,0.0017448749689958,-0.0017448760262697,0.0017448832607199,-0.0017448802947902,0.0017448789351898,-0.0017448721990698,0.0017448872022724,-0.0014202190425999,0.0014202015490104,-0.0014201949152171,0.0014202262609621,-0.0014948443655981,0.0014948439694207,-0.0014948327733514,0.0014948558955039,-4.3790686756233e-09,3.919008448744e-09,-0.00088928055776373,0.00088928004670666,1.1831269496838e-08,-1.2726681811074e-08,-0.001035342476171,0.0010353474582258,-0.0010353506552388,0.0010353393139877,-0.0010353396859493,0.0010353502291344,-0.0010353478897755,0.0010353420605854,-0.00092286994197848,0.00092286935860706,-0.00092287802235359,0.00092286126195993,0.61487579771718,128566,2924,0.0046914113009236,0.0066852731865604,0.0037018537534505,27.074178308435,-2.3406573532522e-05,-2.3406573532522e-05,-2.3406573532522e-05,3775744.2980009,0.015193763203395
15619200,0.97465384495954,0.015362190979177,0.0048763823136614,0.0063992208369562,0.004086587828559,-0.0011274064246075,0.0011274054229856,3.5958334565981e-09,-4.6156487322083e-09,5.3484332676931e-09,-6.5692781648261e-09,-0.0012670168006374,0.0012670224626227,-0.001267019494036,0.0012670197288457,-0.0012670205648967,0.0012670185078616,-0.0012670233248188,0.0012670157626282,-0.0010778666478349,0.0010778697463117,-0.0010778747358746,0.0010778616575324,-4.3911105215289e-09,7.5606626158293e-09,-1.0876981566444e-08,1.3850206842747e-08,-0.0016095620975161,0.00160956508534,-0.001744289505678,0.0017442803641009,-0.001744281430854,0.0017442886096285,-0.0017442856363478,0.0017442843490234,-0.0017442776002974,0.0017442925547807,-0.0014193533252541,0.0014193360268237,-0.0014193293808706,0.0014193605539049,-0.0014940079737218,0.0014940075153149,-0.0014939963745747,0.0014940194516207,-4.4601676643475e-09,4.0057724420229e-09,-0.00088801320922975,0.00088801270393945,1.1805826719774e-08,-1.2694265646706e-08,-0.0010342482791259,0.001034253183601,-0.0010342564308083,0.001034245066852,-0.0010342454256916,0.0010342560173291,-0.0010342536172402,0.001034247861403,-0.00092159725723685,0.00092159683990943,-0.00092160548000553,0.00092158860265691,0.62694796460595,128566,2924,0.0046866653626498,0.0066822925734669,0.0036965980567184,25.965072566514,-3.2279419467884e-05,-3.2279419467884e-05,-3.2279419467884e-05,3751987.6918241,0.015180586651954
15819200,0.97556626676818,0.015375471888473,0.0048805776194128,0.0064048616547053,0.0040900326143544,-0.0011275346179157,0.0011275336048482,3.6705468642614e-09,-4.7016187792499e-09,5.3944713271774e-09,-6.6277840531584e-09,-0.0012673112978417,0.0012673170422995,-0.0012673140506438,0.0012673142500756,-0.0012673151027724,0.0012673130469535,-0.001267317909743,0.0012673102544428,-0.001078067231987,0.0010780704230079,-0.0010780754579319,0.0010780621956445,-4.4570851955773e-09,7.6317351923168e-09,-1.0776633699003e-08,1.3754290485985e-08,-0.0016101903220524,0.0016101933142742,-0.0017450126505544,0.0017450035395099,-0.0017450046456646,0.0017450117123607,-0.0017450087427382,0.0017450075641782,-0.0017450007650179,0.0017450157092297,-0.0014198352961809,0.0014198182222271,-0.0014198115218663,0.0014198425709009,-0.0014945387751975,0.0014945381033427,-0.0014945270238709,0.0014945501939538,-4.4972596400514e-09,4.0670390199298e-09,-0.00088797121848278,0.00088797073783445,1.167894258385e-08,-1.2539972656981e-08,-0.0010344276277756,0.0010344324365117,-0.0010344356928416,0.0010344244063165,-0.0010344247469962,0.0010344352975415,-0.0010344328400063,0.0010344272400078,-0.00092161597300802,0.00092161578717417,-0.00092162430994652,0.00092160743578406,0.66919699349877,128566,2924,0.0046871992332638,0.0066848861688479,0.0036964337019179,25.54842600584,-3.5612591953276e-05,-3.5612591953276e-05,-3.5612591953276e-05,3735948.0442621,0.015183598182295
16019200,0.97642596893023,0.015387953793201,0.004884519544201,0.006410168203699,0.0040932660453007,-0.0011276279508401,0.0011276269291517,3.7204454455613e-09,-4.7599674101316e-09,5.4290911310367e-09,-6.6721648994717e-09,-0.0012676358900143,0.0012676416827069,-0.0012676386733346,0.0012676388603262,-0.001267639715265,0.0012676376668114,-0.0012676425645662,0.0012676348332336,-0.0010782779460545,0.0010782812263382,-0.0010782862971625,0.0010782728763837,-4.4863556622082e-09,7.6638431554405e-09,-1.0690602181912e-08,1.3670745047946e-08,-0.0016108657092632,0.0016108687039629,-0.0017457360568774,0.0017457269789351,-0.0017457281019697,0.0017457351003964,-0.0017457321235956,0.0017457310299833,-0.0017457242071416,0.0017457391119267,-0.0014204008520929,0.0014203839844557,-0.0014203772606112,0.0014204081480546,-0.0014951039438446,0.0014951031738103,-0.0014950921493754,0.0014951153091977,-4.5644982879366e-09,4.1506950739887e-09,-0.00088788502995885,0.00088788456587852,1.1599008569956e-08,-1.2440961223305e-08,-0.0010346673509063,0.0010346720602678,-0.0010346753511614,0.0010346640951855,-0.0010346644141155,0.0010346749770064,-0.0010346724538055,0.001034666973248,-0.00092161196739846,0.00092161198817322,-0.0009216204358622,0.00092160350594569,0.6674279215287,128566,2924,0.0046875891231804,0.0066876715976977,0.0036960899271597,25.148623310566,-3.881101351547e-05,-3.881101351547e-05,-3.881101351547e-05,3714880.7359943,0.015186477976477
16219200,0.97723662140598,0.01539967104993,0.0048882189511852,0.0064151538190221,0.0040962982797224,-0.0011276547777175,0.0011276537545141,3.791762043458e-09,-4.8327994560916e-09,5.4369342903785e-09,-6.6814220275551e-09,-0.001267883358509,0.0012678892063707,-0.0012678861930097,0.0012678863331941,-0.001267887192546,0.0012678851818071,-0.0012678900867448,0.001267882303233,-0.0010784226409837,0.0010784260450555,-0.0010784311224916,0.0010784175635759,-4.501929648963e-09,7.6800583225489e-09,-1.0642704759381e-08,1.3623316061575e-08,-0.0016114616051825,0.0016114646004339,-0.0017463711039608,0.0017463620508388,-0.0017463631830461,0.0017463701369452,-0.001746367163368,0.0017463661094589,-0.0017463592748811,0.0017463741621984,-0.0014208955352118,0.001420878763734,-0.0014208720276181,0.0014209028410401,-0.0014955986375022,0.0014955977961255,-0.0014955868027538,0.0014956099714962,-4.6175935076365e-09,4.2124477061288e-09,-0.00088774767355148,0.00088774721832124,1.155164856283e-08,-1.2383720344846e-08,-0.001034836601584,0.0010348412493893,-0.0010348445701515,0.0010348333159771,-0.0010348336293478,0.0010348442015876,-0.0010348416315447,0.0010348362353652,-0.00092154101242376,0.00092154119719185,-0.00092154960133633,0.00092153259428064,0.66425604610799,128566,2924,0.004687702888071,0.0066901284024948,0.0036955330273091,24.749457539008,-4.2004339687933e-05,-4.2004339687933e-05,-4.2004339687933e-05,3696344.9420733,0.015188526895157
16419200,0.97800436614401,0.015409591481764,0.0048913329433935,0.0064194575670468,0.0040988009713241,-0.0011276895414031,0.0011276885158409,3.8417411452319e-09,-4.885075834907e-09,5.4462298628003e-09,-6.6935311029841e-09,-0.001268141838718,0.0012681477217382,-0.0012681447035128,0.001268144817857,-0.0012681456759334,0.0012681436945944,-0.00126814860812,0.001268140776912,-0.0010785481513588,0.0010785516600699,-0.0010785567443669,0.0010785430623088,-4.4790007438959e-09,7.6544351522603e-09,-1.0573754601349e-08,1.355198156503e-08,-0.0016120502258756,0.0016120532187823,-0.0017470023992343,0.0017469934015505,-0.0017469945185336,0.001747001444738,-0.0017469984699102,0.0017469974476905,-0.0017469906304,0.001747005450125,-0.0014213898299919,0.0014213731899684,-0.001421366472537,0.001421397116862,-0.0014960684486038,0.0014960676165732,-0.0014960566755279,0.0014960797341393,-4.7004719811549e-09,4.2863725594031e-09,-0.00088762987990022,0.00088762941576686,1.1592802630161e-08,-1.2433873476901e-08,-0.0010350209553685,0.0010350255676728,-0.0010350289495725,0.0010350176089495,-0.0010350179271479,0.0010350285757141,-0.0010350259630033,0.0010350205759715,-0.00092146221051783,0.00092146249536498,-0.00092147094051312,0.00092145375267387,0.59981697604472,128566,2924,0.0046878491572926,0.0066925554182761,0.0036950563730408,24.411964853454,-4.470428117237e-05,-4.470428117237e-05,-4.470428117237e-05,3681762.2465543,0.015190659984053
16619200,0.97873552607409,0.015420842644534,0.0048948951518307,0.0064241931110168,0.004101754381687,-0.0011279444085737,0.0011279433902043,3.9225451720037e-09,-4.9587393882864e-09,5.4178101206142e-09,-6.6572158025681e-09,-0.0012684840348267,0.0012684899591034,-0.0012684869557734,0.0012684870005921,-0.0012684878555257,0.0012684859492424,-0.0012684908345879,0.0012684829846374,-0.0010788529448684,0.0010788566192131,-0.0010788616767945,0.0010788478872294,-4.4749812742762e-09,7.649672578989e-09,-1.0631052207711e-08,1.3608523814527e-08,-0.001612696174236,0.0016126991663287,-0.0017477303329934,0.0017477213021747,-0.0017477224184871,0.0017477293812425,-0.0017477264109808,0.0017477253415659,-0.0017477185283015,0.0017477333878938,-0.0014219119453336,0.0014218951752576,-0.0014218884606048,0.0014219192285947,-0.0014966651874367,0.0014966643902103,-0.0014966534084499,0.0014966765100815,-4.7504428366623e-09,4.3409516757618e-09,-0.00088776454604534,0.00088776408657282,1.1572000831612e-08,-1.2408321688529e-08,-0.0010352569707274,0.0010352615419801,-0.0010352649542941,0.0010352535937783,-0.0010352539116443,0.0010352645810926,-0.001035261928391,0.0010352566003498,-0.00092163392988669,0.00092163435129097,-0.00092164277560651,0.00092162549255459,0.70235631761767,128566,2924,0.0046889069731472,0.0066952251464393,0.0036956213158839,24.158086273196,-4.6735309814429e-05,-4.6735309814429e-05,-4.6735309814429e-05,3678623.154824,0.01519501823233
16819200,0.97943224090388,0.015431614136964,0.0048983048287476,0.0064287290977527,0.0041045802104633,-0.001128162810163,0.0011281617987128,3.9981164913297e-09,-5.0275089962304e-09,5.3913899162499e-09,-6.6231327807222e-09,-0.001268930552448,0.0012689365143865,-0.0012689335240095,0.0012689335048179,-0.0012689343560056,0.001268932521343,-0.001268937380359,0.0012689295120927,-0.001079230217383,0.0010792340508323,-0.0010792390825319,0.001079225186578,-4.4566372191451e-09,7.6291224809568e-09,-1.0686087682004e-08,1.366155426713e-08,-0.0016134825730908,0.001613485563186,-0.0017485078311861,0.0017484987799691,-0.0017484998857001,0.0017485068912829,-0.001748503924966,0.0017485028032072,-0.0017484960056532,0.0017485108874097,-0.0014226376390398,0.0014226207391701,-0.0014226140409804,0.0014226449087537,-0.0014973703574207,0.0014973696229673,-0.0014973586064206,0.0014973817124981,-4.80964304612e-09,4.3965062597048e-09,-0.00088782270887572,0.00088782224558728,1.1589240867647e-08,-1.2429907324425e-08,-0.0010356495660271,0.0010356541114217,-0.0010356575659088,0.0010356461470799,-0.0010356464716244,0.001035657186134,-0.0010356544987173,0.0010356491950479,-0.00092178606782605,0.00092178659413414,-0.00092179503439459,0.00092177761355656,0.70571571583261,128566,2924,0.0046898153509054,0.0066984687537847,0.0036958779910777,23.90624670022,-4.8750026398239e-05,-4.8750026398239e-05,-4.8750026398239e-05,3660081.7672843,0.015199499062334
17019200,0.98009642964659,0.015441677162647,0.0049014867795373,0.0064329817080786,0.0041072086750309,-0.001128316553749,0.0011283155471458,4.0626618122406e-09,-5.0873101832421e-09,5.3720547334926e-09,-6.5985053052512e-09,-0.0012693144669295,0.00126932045961,-0.0012693174786869,0.0012693174090836,-0.001269318254898,0.0012693164818339,-0.0012693213216283,0.0012693134303945,-0.0010795386049506,0.0010795425823022,-0.0010795475947311,0.0010795335926954,-4.4311064177406e-09,7.6007400779609e-09,-1.0722032632498e-08,1.3694915304385e-08,-0.0016142123674685,0.001614215354972,-0.0017492212056603,0.0017492121468112,-0.0017492132376167,0.0017492202815557,-0.001749217316093,0.0017492161528728,-0.0017492093761336,0.001749224258463,-0.0014233108905426,0.0014232939053715,-0.0014232872287802,0.001423318140738,-0.0014980194641125,0.0014980188051065,-0.0014980077680467,0.0014980308381699,-4.8814477022227e-09,4.4594918160439e-09,-0.00088782788332858,0.00088782741100515,1.1632583857901e-08,-1.2483359709272e-08,-0.0010359872606551,0.0010359917835435,-0.001035995291723,0.0010359837880103,-0.0010359841205195,0.0010359949040095,-0.0010359921804811,0.001035986880108,-0.00092188378458814,0.00092188439966235,-0.00092189288052207,0.00092187528930733,0.6924597581073,128566,2924,0.0046904553058396,0.0067014778071373,0.0036959149719218,23.65448417238,-5.0764126620958e-05,-5.0764126620958e-05,-5.0764126620958e-05,3643096.8675288,0.015203246003833
17219200,0.98071464021548,0.01545078627781,0.0049043627377343,0.0064368489258319,0.0041095746142438,-0.0011276494269629,0.0011276484114656,4.0811168528764e-09,-5.1151929474918e-09,5.4054534388119e-09,-6.6399792674265e-09,-0.001268833893994,0.0012688399073169,-0.001268836910522,0.0012688368503326,-0.0012688376976025,0.0012688359164644,-0.0012688407862773,0.0012688328360792,-0.0010789947963793,0.0010789988130202,-0.0010790038499333,0.0010789897362673,-4.3139347513134e-09,7.4705766196005e-09,-1.0572489238064e-08,1.3533513914087e-08,-0.0016140232001227,0.0016140261760359,-0.0017490238705238,0.0017490149739913,-0.001749015991419,0.0017490230134283,-0.0017490200501714,0.0017490189067523,-0.001749012220107,0.0017490268983042,-0.0014230809881517,0.0014230642441841,-0.0014230576568112,0.0014230881389863,-0.0014977588533049,0.0014977583486661,-0.0014977474246322,0.0014977701024385,-5.0179208721916e-09,4.5356963068495e-09,-0.00088706558884221,0.00088706505605383,1.1910359344139e-08,-1.2830032757083e-08,-0.0010354834488507,0.001035488039086,-0.0010354916765989,0.0010354798475077,-0.0010354802278961,0.0010354912405001,-0.0010354885037682,0.0010354829999107,-0.00092116739435891,0.00092116791983175,-0.00092117666883904,0.00092115863271005,0.67475987041986,128566,2924,0.0046876906534241,0.0067006862006575,0.0036927615050236,22.994877588294,-5.604097929365e-05,-5.604097929365e-05,-5.604097929365e-05,3624514.5586419,0.01519643779646
17419200,0.98127884570179,0.01545873590576,0.0049068669088865,0.0064402475661634,0.00411162143071,-0.0011262806099219,0.0011262796202325,4.1951036110636e-09,-5.2036981293982e-09,5.3069138578914e-09,-6.5130616024388e-09,-0.0012675958002827,0.0012676018415756,-0.0012675988955894,0.0012675987104982,-0.0012675995403409,0.0012675979167422,-0.0012676026876979,0.0012675947773706,-0.0010777120901187,0.0010777163797182,-0.0010777213196039,0.001077707138416,-4.3392978588408e-09,7.4982110649166e-09,-1.0855540808856e-08,1.3818583332588e-08,-0.0016130079312876,0.0016130109089574,-0.0017480117105758,0.0017480026109413,-0.0017480036498905,0.0017480108397654,-0.0017480078812772,0.0017480065537867,-0.001747999850665,0.0017480147523746,-0.0014220402170807,0.0014220229015109,-0.0014220163001798,0.0014220473966558,-0.0014966835219249,0.0014966831355756,-0.0014966720145542,0.0014966949695026,-5.0340366872928e-09,4.5757734647928e-09,-0.00088565416830478,0.00088565365922909,1.1808220079982e-08,-1.270217114005e-08,-0.0010342425107995,0.0010342470402219,-0.0010342506731904,0.0010342389133943,-0.0010342392800445,0.0010342502522273,-0.0010342474733522,0.0010342420938725,-0.00091975252540328,0.00091975323299365,-0.00091976187984715,0.00091974386387617,0.64747797936761,128566,2924,0.004682015734512,0.0066964788248527,0.0036869083807042,21.991907486279,-6.4064740109767e-05,-6.4064740109767e-05,-6.4064740109767e-05,3605358.8641255,0.01518046533594
17619200,0.98179417429327,0.015465711071832,0.0049090598334713,0.0064432468357195,0.0041134044026417,-0.0011248479053111,0.0011248469319746,4.3067069143891e-09,-5.298630049292e-09,5.2418296646045e-09,-6.4312306588474e-09,-0.0012662372055738,0.0012662432940627,-0.0012662403789296,0.0012662400835029,-0.0012662409064315,0.0012662394047571,-0.0012662441153095,0.0012662362115363,-0.0010763251058525,0.0010763296311265,-0.0010763345162951,0.0010763202273862,-4.3768394939696e-09,7.5392156063148e-09,-1.1078947189474e-08,1.4045240503897e-08,-0.0016118238253435,0.0016118268062859,-0.0017468501238088,0.0017468408724114,-0.0017468419354249,0.0017468492361076,-0.0017468462817992,0.0017468448299014,-0.0017468381022017,0.0017468531834353,-0.0014208286967326,0.0014208109390978,-0.0014208043161244,0.0014208359111161,-0.0014954504426384,0.0014954500981306,-0.0014954388270438,0.0014954620428645,-5.0470094170253e-09,4.6150679196812e-09,-0.00088420681376701,0.00088420633078277,1.1697625812473e-08,-1.2561847576289e-08,-0.0010328796014398,0.0010328840679368,-0.0010328876936606,0.0010328760118438,-0.0010328763638274,0.0010328872874267,-0.0010328844658823,0.0010328792209709,-0.00091827131008526,0.00091827220890917,-0.00091828074629469,0.00091826275543742,0.62390233520816,128566,2924,0.0046760752459295,0.0066915756337269,0.003680901912447,20.980524435963,-7.2155804512294e-05,-7.2155804512294e-05,-7.2155804512294e-05,3590925.6684624,0.015163359970549
17819200,0.98226606351433,0.015471870654191,0.0049109929484283,0.0064459088415893,0.0041149688641732,-0.0011234181965526,0.0011234172101249,4.3306108932437e-09,-5.3354531290943e-09,5.292413628312e-09,-6.4964298098816e-09,-0.0012648382928736,0.0012648444164576,-0.0012648414754709,0.0012648411932002,-0.0012648420200802,0.0012648404992732,-0.0012648452590638,0.0012648372752823,-0.0010749062066964,0.00107491077077,-0.0010749157015468,0.0010749012715742,-4.3381645429922e-09,7.496298496756e-09,-1.0934705230026e-08,1.3897121174782e-08,-0.0016105559715468,0.0016105589486,-0.0017456223696439,0.0017456132288241,-0.001745614266841,0.0017456215026918,-0.0017456185435976,0.0017456171690485,-0.0017456104699091,0.0017456254128977,-0.0014195305113279,0.0014195130448259,-0.0014195064488639,0.0014195376905354,-0.0014941412735805,0.0014941409368239,-0.0014941297697423,0.0014941527706061,-5.1606626186781e-09,4.6994887548577e-09,-0.00088278292974115,0.00088278241748168,1.1840182859394e-08,-1.2736211233487e-08,-0.0010314736961199,0.0010314781601618,-0.001031481880269,0.0010314700123494,-0.0010314703830085,0.0010314814545516,-0.0010314785961514,0.0010314732767832,-0.0009167899651061,0.00091679089675678,-0.00091679956745902,0.00091678127901189,0.6034162833443,128566,2924,0.0046701466552982,0.0066863282626733,0.0036749893674859,19.990811454006,-8.0073508367949e-05,-8.0073508367949e-05,-8.0073508367949e-05,3580626.7980972,0.015146011817043
18019200,0.98269914965131,0.015477519176638,0.0049127660632072,0.0064483464691513,0.004116406644279,-0.0011220001509609,0.001121999163822,4.4157311278918e-09,-5.4211589964491e-09,5.2947986934793e-09,-6.4997993431211e-09,-0.00126341255959,0.001263418750574,-0.0012634158083465,0.0012634154622082,-0.0012634162983132,0.0012634148221352,-0.0012634195851719,0.0012634115508301,-0.0010734716851036,0.0010734763873465,-0.0010734813224291,0.0010734667496688,-4.3794479654591e-09,7.5410624534243e-09,-1.0976345959224e-08,1.3941847747357e-08,-0.0016092238936483,0.0016092268737479,-0.0017443441196275,0.0017443349344121,-0.0017443359984293,0.0017443432279582,-0.0017443402751606,0.0017443388944243,-0.0017443321644959,0.0017443471760251,-0.0014181647515351,0.0014181472020095,-0.0014181405751097,0.0014181719628063,-0.0014927784704163,0.0014927780533286,-0.0014927668544288,0.0014927900012936,-5.1967113840932e-09,4.7515642504333e-09,-0.00088138880609708,0.00088138831000062,1.1759094152863e-08,-1.2637224683471e-08,-0.0010300401555606,0.0010300445567914,-0.0010300482906141,0.0010300364580772,-0.0010300368220779,0.0010300478717326,-0.0010300449681075,0.001030039761246,-0.00091532534396079,0.0009153264614224,-0.00091533505850033,0.00091531673208466,0.6026570334666,128566,2924,0.0046642660810195,0.0066808171221118,0.0036691977864618,19.019411350315,-8.7844709197483e-05,-8.7844709197483e-05,-8.7844709197483e-05,3573453.1218299,0.015128566795767
18219200,0.98309704258407,0.015482813163843,0.0049144300941129,0.0064506198477638,0.0041177632219658,-0.0011205655242871,0.0011205645278072,4.459867295042e-09,-5.4746087352444e-09,5.332108206611e-09,-6.547113359181e-09,-0.0012619613320129,0.0012619675671198,-0.0012619646065531,0.001261964252711,-0.0012619650910052,0.0012619636183209,-0.0012619684177376,0.0012619603067267,-0.0010720186423322,0.0010720234247997,-0.0010720283955672,0.0010720136691752,-4.3907867710663e-09,7.5530673503889e-09,-1.0884404655497e-08,1.3850413036213e-08,-0.0016078413206068,0.0016078443012913,-0.0017430110862646,0.0017430019450851,-0.0017430030156077,0.0017430101861231,-0.0017430072264671,0.0017430059204017,-0.0017429991806768,0.0017430141352505,-0.001416754746262,0.0014167374076098,-0.0014167307703348,0.0014167619643131,-0.0014913710766053,0.0014913705988058,-0.0014913594600223,0.0014913825473408,-5.2782803431164e-09,4.8312108642472e-09,-0.00087998750502953,0.00087998700703239,1.176984202964e-08,-1.2649970437901e-08,-0.0010285908630086,0.0010285952077413,-0.0010285989968414,0.0010285871101577,-0.0010285874688248,0.0010285985829491,-0.0010285956279647,0.0010285904593802,-0.00091385645654604,0.00091385770306939,-0.00091386630824555,0.00091384783682034,0.6133875118442,128566,2924,0.0046583167207274,0.0066750973111636,0.003663375934846,18.048458842421,-9.5612329260631e-05,-9.5612329260631e-05,-9.5612329260631e-05,3565838.7077891,0.015110809686651
18419200,0.98347221445783,0.015487842413189,0.004916011968191,0.0064527740760658,0.0041190563689319,-0.0011198547514338,0.0011198537472574,4.5405599016754e-09,-5.5627754845693e-09,5.3619603580104e-09,-6.5856582604843e-09,-0.0012612617555096,0.0012612680689199,-0.001261265093444,0.0012612646921242,-0.0012612655443421,0.0012612640903254,-0.0012612689206752,0.0012612607304898,-0.0010713072778688,0.0010713121757219,-0.0010713171779237,0.0010713022764673,-4.4438949899408e-09,7.6108107836607e-09,-1.0836768290226e-08,1.380695900935e-08,-0.0016072305604659,0.0016072335454812,-0.00174243808715,0.0017424289519534,-0.0017424300540082,0.0017424371551717,-0.0017424341987512,0.0017424329574525,-0.0017424261761117,0.0017424411481908,-0.0014161121127537,0.0014160948826807,-0.0014160882033828,0.0014161193699424,-0.0014907307094134,0.0014907300737093,-0.0014907189618579,0.0014907421535968,-5.3118934782931e-09,4.8873165578643e-09,-0.00087927926752599,0.00087927879228769,1.1660426521856e-08,-1.2514712126557e-08,-0.0010278837070342,0.001027887970158,-0.0010278917675631,0.0010278799461967,-0.0010278802896377,0.0010278913684908,-0.0010278883615323,0.0010278833325981,-0.00091311522425266,0.00091311668101748,-0.00091312518405337,0.00091310670696672,0.61738403085812,128566,2924,0.0046553694205267,0.006672570009665,0.0036604344250354,17.475732766154,-0.00010019413787077,-0.00010019413787077,-0.00010019413787077,3561290.5398059,0.015102265828804
18619200,0.98383356270867,0.015492639072181,0.0049175201753188,0.0064548305721433,0.0041202883247189,-0.0011197411831159,0.0011197401679033,4.5804833601845e-09,-5.613618922837e-09,5.4057760991902e-09,-6.6415347772597e-09,-0.0012611813231775,0.0012611876842622,-0.0012611846870381,0.0012611842816428,-0.0012611851396706,0.0012611836779519,-0.0012611885512962,0.001261180282038,-0.0010712036571888,0.0010712086148916,-0.0010712136599167,0.0010711986115755,-4.4712205397523e-09,7.6408901161107e-09,-1.0707899564666e-08,1.3680460773196e-08,-0.0016072554341327,0.0016072584214618,-0.0017424987212448,0.0017424896468344,-0.0017424907645045,0.0017424977702694,-0.0017424948088165,0.0017424936766758,-0.0017424868726579,0.0017425017779274,-0.0014160962319398,0.0014160792896716,-0.001416072585351,0.001416103507612,-0.0014907197340223,0.0014907189761806,-0.001490707947189,0.0014907310989637,-5.3918497529007e-09,4.9753834472202e-09,-0.00087914095037719,0.00087914048358902,1.1615969899799e-08,-1.2460723934751e-08,-0.001027782549982,0.0010277867268993,-0.0010277905716594,0.0010277787414518,-0.0010277790718472,0.0010277901855432,-0.0010277871148368,0.001027782178374,-0.00091296354120722,0.00091296518987637,-0.00091297365155156,0.00091295506606467,0.61178640067414,128566,2924,0.0046548988295696,0.0066726722227362,0.0036598610157174,17.230767025303,-0.00010215386379757,-0.00010215386379757,-0.00010215386379757,3560315.5736175,0.015101309926335
18819200,0.98418187731372,0.015497576545132,0.0049190779537173,0.0064569229955251,0.0041215755958896,-0.0011196498319053,0.0011196488131737,4.638578072657e-09,-5.6751955126263e-09,5.4196081189991e-09,-6.6592616544217e-09,-0.0012611127285598,0.0012611191340122,-0.0012611161299335,0.0012611156941831,-0.0012611165529086,0.0012611151199971,-0.0012611200069569,0.0012611116813099,-0.0010711208723697,0.0010711259410853,-0.0010711309997258,0.0010711158127895,-4.4843031694399e-09,7.6551012636758e-09,-1.0647396786278e-08,1.3620931579949e-08,-0.0016072837901986,0.0016072867785133,-0.0017425661608614,0.0017425571150369,-0.0017425582400272,0.0017425652008944,-0.0017425622368842,0.0017425611566851,-0.001742554341962,0.0017425692152403,-0.0014160821137304,0.0014160653072298,-0.001416058591317,0.0014160893978107,-0.0014907209006603,0.0014907200854392,-0.0014907090957636,0.0014907322277278,-5.4574109473068e-09,5.0489450914993e-09,-0.00087902779477916,0.00087902733615993,1.1573934367603e-08,-1.2409470255983e-08,-0.0010276911149629,0.0010276952199609,-0.0010276991029862,0.0010276872680938,-0.0010276875880483,0.0010276987273879,-0.001027695602568,0.001027690748573,-0.00091284064537196,0.00091284246133588,-0.00091285088386843,0.00091283220942126,0.64922936876716,128566,2924,0.0046545203500055,0.006672789273646,0.0036593915917457,16.993810570004,-0.00010404951543996,-0.00010404951543996,-0.00010404951543996,3559980.9616196,0.015100567902221
19019200,0.98451773131449,0.015502642491764,0.0049206809140129,0.0064590489794173,0.004122912598334,-0.0011195586459864,0.0011195576273679,4.7081743150525e-09,-5.7447607646519e-09,5.4191680182141e-09,-6.6589436743711e-09,-0.0012610930911859,0.0012610995440842,-0.0012610965400693,0.0012610960570708,-0.0012610969164614,0.0012610955292124,-0.0012611004159446,0.0012610920455866,-0.0010710830663439,0.0010710882682162,-0.0010710933274499,0.0010710780080065,-4.4883050614789e-09,7.6596138821125e-09,-1.0626175888503e-08,1.3600187898478e-08,-0.0016073774973302,0.0016073804861012,-0.0017426636128264,0.0017426545798423,-0.0017426557069935,0.0017426626504691,-0.0017426596872882,0.0017426586232931,-0.0017426518050889,0.0017426666687423,-0.0014161555377464,0.0014161387722842,-0.0014161320526933,0.0014161628245316,-0.0014907812621993,0.0014907804216679,-0.0014907694458119,0.00149079257609,-5.5137750759673e-09,5.1122150569237e-09,-0.00087889821849336,0.00087889776685079,1.1537762095758e-08,-1.2365312173268e-08,-0.0010276673228656,0.001027671369347,-0.0010276752857015,0.0010276634428217,-0.0010276637571048,0.0010276749156357,-0.0010276717442333,0.0010276669643425,-0.00091273050831051,0.00091273247776747,-0.00091274086676878,0.00091272210519354,0.68719100991994,128566,2924,0.0046541432673031,0.0066731739829916,0.0036588577269173,16.757155891296,-0.00010594275286963,-0.00010594275286963,-0.00010594275286963,3553459.2571547,0.015100035195635
19219200,0.98485207483766,0.015507842905049,0.0049223286373808,0.0064612219902395,0.0041242922774282,-0.0011203920293864,0.0011203910099611,4.7783610513756e-09,-5.8154445045178e-09,5.4251924853142e-09,-6.6659731512724e-09,-0.0012620668316085,0.0012620733368422,-0.0012620703295911,0.0012620698010424,-0.0012620706631682,0.0012620693155352,-0.0012620742075271,0.0012620657870526,-0.0010720227899461,0.0010720281191589,-0.0010720331831754,0.0010720177274356,-4.5044955187539e-09,7.6769834091324e-09,-1.0610844227816e-08,1.3585871983878e-08,-0.0016085315097889,0.0016085344995438,-0.0017437899127499,0.0017437808813683,-0.001743782018429,0.0017437889396294,-0.0017437859782248,0.0017437849339432,-0.0017437781036916,0.0017437929712655,-0.0014172900882084,0.0014172733579583,-0.0014172666238786,0.0014172973854212,-0.0014918909484611,0.0014918900607451,-0.0014918790939015,0.001491902255168,-5.5692462249794e-09,5.1748586740751e-09,-0.00087963607522624,0.00087963563115633,1.1493753559777e-08,-1.2312731119397e-08,-0.0010286237036202,0.0010286276882537,-0.0010286316365028,0.0010286197914751,-0.0010286201004523,0.0010286312719158,-0.001028628053507,0.0010286233544216,-0.00091354526434931,0.00091354739509832,-0.00091355574527587,0.00091353690114419,0.70677987851113,128566,2924,0.004657600972901,0.0066779428672184,0.0036619313138168,17.022348337884,-0.00010382121329693,-0.00010382121329693,-0.00010382121329693,3548359.8501622,0.015111509583291
19419200,0.98519006224333,0.015512985608906,0.0049239561906876,0.0064633798664727,0.0041256495517462,-0.0011216748296497,0.0011216738119397,4.8427199573986e-09,-5.8780220089962e-09,5.4204756236353e-09,-6.6596873128887e-09,-0.0012635322614703,0.0012635388068339,-0.0012635358016326,0.0012635352293275,-0.0012635360891308,0.0012635347895967,-0.0012635396766012,0.0012635312189391,-0.0010734382561606,0.0010734437168307,-0.001073448776249,0.0010734332001791,-4.51484837954e-09,7.6884232670644e-09,-1.0625910857129e-08,1.3601995409318e-08,-0.0016102184239414,0.001610221414779,-0.0017454385696276,0.0017454295214056,-0.0017454306648511,0.0017454375911542,-0.0017454346278042,0.0017454335818061,-0.0017454267433293,0.0017454416295773,-0.0014189532752778,0.0014189365237351,-0.0014189297827673,0.0014189605819428,-0.0014935232910823,0.0014935223938181,-0.0014935114162851,0.0014935346091462,-5.6320193648251e-09,5.2442424294655e-09,-0.00088079223088113,0.00088079179334623,1.1461583763807e-08,-1.2272747773759e-08,-0.0010300592817688,0.001030063203915,-0.0010300671902563,0.0010300553317718,-0.0010300556342142,0.0010300668319434,-0.0010300635636743,0.0010300589385216,-0.00091479901200477,0.00091480130193383,-0.00091480962113939,0.00091479067932029,0.69264757977621,128566,2924,0.0046629226024027,0.0066849149846872,0.0036667446556191,17.538817748187,-9.9689458014507e-05,-9.9689458014507e-05,-9.9689458014507e-05,3545243.475916,0.01512887984351
19619200,0.98553156709073,0.015518049139908,0.0049255564308103,0.0064655146400476,0.0041269780690502,-0.0011229556487289,0.0011229546308865,4.9057590751189e-09,-5.9413936321126e-09,5.4216118694238e-09,-6.6604984070515e-09,-0.0012649794357235,0.0012649860230719,-0.0012649830171927,0.0012649824037303,-0.0012649832635983,0.0012649820059265,-0.0012649868932216,0.0012649783919669,-0.0010748379732874,0.0010748435575314,-0.0010748486164003,0.001074832912774,-4.4843261999716e-09,7.6547838186676e-09,-1.0599193990134e-08,1.3572402871232e-08,-0.001611891859813,0.0016118948478041,-0.0017470905493226,0.0017470815375652,-0.0017470826621495,0.0017470895888747,-0.0017470866278627,0.0017470855768637,-0.0017470787619402,0.001747093605114,-0.0014205869818059,0.0014205702635547,-0.0014205635470512,0.0014205942638765,-0.00149514551182,0.001495144657206,-0.0014951337003609,0.0014951568056085,-5.7058992621722e-09,5.3030322968955e-09,-0.00088195018946527,0.00088194973663943,1.1528938896183e-08,-1.2357342714201e-08,-0.0010314642991365,0.0010314682118676,-0.0010314722574039,0.0010314602899066,-0.0010314606066001,0.0010314718847657,-0.0010314685871331,0.0010314639402452,-0.00091604183574438,0.00091604418720197,-0.00091605257260949,0.00091603343643382,0.67638953790012,128566,2924,0.0046682355080891,0.0066918320584674,0.0036715644251862,18.061491361778,-9.5508069105774e-05,-9.5508069105774e-05,-9.5508069105774e-05,3545424.726397,0.015146191418858
19819200,0.98587631761004,0.015523007560543,0.0049271207940469,0.0064676165494471,0.0041282702170485,-0.0011242280219672,0.0011242270108722,4.9742256086291e-09,-6.0032096313189e-09,5.3954051781434e-09,-6.6269922055841e-09,-0.0012663963384815,0.0012664029565001,-0.0012663999639133,0.001266399293854,-0.0012664001472242,0.0012663989590325,-0.0012664038200054,0.0012663953017702,-0.0010762091813461,0.0010762149192926,-0.0010762199523986,0.0010762041486003,-4.471780465294e-09,7.6409237149078e-09,-1.0663068251114e-08,1.3635085163684e-08,-0.0016135331624196,0.0016135361492049,-0.001748728614625,0.0017487195674771,-0.0017487206855115,0.0017487276623031,-0.0017487247017931,0.0017487235979654,-0.0017487167935141,0.0017487316700988,-0.0014221734338525,0.0014221565796761,-0.0014221498746211,0.001422180707831,-0.0014967376255491,0.0014967368375766,-0.0014967258391044,0.0014967489606185,-5.7712128972127e-09,5.3664868224401e-09,-0.00088310411099568,0.00088310365618668,1.1538932155896e-08,-1.2369628932614e-08,-0.0010328270020053,0.0010328308777781,-0.0010328349681158,0.0010328229479359,-0.0010328232668009,0.0010328345934645,-0.0010328312548716,0.0010328266415033,-0.00091726609574511,0.00091726856434189,-0.00091727695903717,0.00091725768697056,0.65786894800387,128566,2924,0.0046735129689453,0.0066986172960945,0.0036763658868254,18.584399197307,-9.1324806421546e-05,-9.1324806421546e-05,-9.1324806421546e-05,3548546.231854,0.015163314049743
20019200,0.98621476492852,0.015528059087179,0.0049287170068849,0.0064697457427454,0.0041295963375485,-0.0011246979432569,0.0011246969391595,5.0295902210815e-09,-6.0519790113275e-09,5.3679608981594e-09,-6.5910673612399e-09,-0.001266961364258,0.0012669680000555,-0.0012669650211919,0.0012669643042716,-0.0012669651492093,0.0012669640260861,-0.0012669688588687,0.0012669603310734,-0.0010767496113303,0.0010767554852929,-0.0010767604896091,0.0010767446031341,-4.4083095182879e-09,7.5712126025933e-09,-1.0695703702653e-08,1.3662046010461e-08,-0.0016142776449603,0.0016142806260614,-0.0017494861406423,0.0017494771098739,-0.0017494781899362,0.0017494852267994,-0.0017494822683493,0.0017494810981568,-0.0017494743435422,0.0017494891873696,-0.0014228669155123,0.0014228499612889,-0.0014228433082737,0.0014228741416686,-0.0014974468890509,0.0014974462536704,-0.0014974352385484,0.0014974582346048,-5.8621355922448e-09,5.4305354981977e-09,-0.00088349881353184,0.00088349833127756,1.1672120638256e-08,-1.2533998817451e-08,-0.0010333504965983,0.0010333543899135,-0.0010333585583936,0.0010333463644028,-0.0010333467074152,0.0010333581597141,-0.0010333547960795,0.0010333501069232,-0.00091769492055845,0.00091769740905253,-0.00091770592765377,0.0009176863868176,0.68048383931019,128566,2924,0.0046754623224732,0.0067016937119597,0.0036780111017655,18.67159399816,-9.0627248014717e-05,-9.0627248014717e-05,-9.0627248014717e-05,3548698.3477227,0.015170087611858
20219200,0.98654450331537,0.01553312714285,0.0049303203572695,0.0064718726667512,0.0041309341188288,-0.0011249407847203,0.001124939791286,5.1109472045308e-09,-6.1226184069363e-09,5.3245310386159e-09,-6.5364815835039e-09,-0.001267313495929,0.0012673201629091,-0.0012673172060806,0.0012673164147517,-0.0012673172513231,0.0012673162192203,-0.0012673210093911,0.0012673124757768,-0.0010770801105756,0.0010770861705779,-0.0010770911324807,0.0010770751476564,-4.3866608185231e-09,7.5471687095883e-09,-1.0818501527852e-08,1.3782749252471e-08,-0.0016148070767415,0.0016148100557192,-0.0017500091427858,0.0017500000458594,-0.0017500011145235,0.0017500082433166,-0.001750005287511,0.0017500040168452,-0.0017499972805824,0.0017500121910249,-0.0014233634132379,0.0014233461943827,-0.0014233395605312,0.0014233706244562,-0.0014979396864669,0.0014979391682293,-0.0014979280746705,0.0014979511114581,-5.917992113212e-09,5.4816760696728e-09,-0.00088366914431628,0.00088366865723202,1.170089709889e-08,-1.2567995635563e-08,-0.0010336774191595,0.0010336812958159,-0.0010336855046763,0.0010336732466795,-0.0010336735965151,0.0010336850993035,-0.0010336817045447,0.0010336770272283,-0.00091790736250324,0.00091790993573543,-0.00091791848088185,0.00091789880297486,0.69908659790755,128566,2924,0.0046764703865172,0.0067038792276742,0.0036787258635202,18.63838993283,-9.0892880537357e-05,-9.0892880537357e-05,-9.0892880537357e-05,3544010.417631,0.015174057270309
20419200,0.98686570838462,0.015538070937159,0.0049318842759273,0.0064739476061761,0.0041322390550553,-0.0011251627252171,0.001125161738985,5.1956743119828e-09,-6.2001806776248e-09,5.2957529319437e-09,-6.4997717215532e-09,-0.0012676646782969,0.0012676713878783,-0.0012676684454557,0.0012676675822478,-0.0012676684148657,0.0012676674621374,-0.0012676722243962,0.0012676636686971,-0.0010774054920109,0.0010774117298731,-0.0010774166647647,0.0010774005592211,-4.383629915174e-09,7.5436314939419e-09,-1.0924922436648e-08,1.3888705563696e-08,-0.001615343761031,0.0016153467395281,-0.0017505246145661,0.0017505154542137,-0.0017505165222463,0.0017505237182714,-0.0017505207648644,0.0017505194196444,-0.0017505126875956,0.0017505276666911,-0.001423876768276,0.001423859329683,-0.0014238527007621,0.0014238839796778,-0.0014984364499438,0.0014984359989643,-0.0014984248347904,0.0014984479447258,-5.9650623371498e-09,5.531276973493e-09,-0.00088381463398836,0.00088381414925646,1.1696484240994e-08,-1.2561270276236e-08,-0.0010340117765501,0.0010340156232275,-0.0010340198618615,0.0010340075742527,-0.0010340079250236,0.00103401945586,-0.001034016026335,0.0010340113904978,-0.00091810418616381,0.00091810687089898,-0.00091811540844575,0.00091809563287253,0.69998401010673,128566,2924,0.0046773920189548,0.0067060936046649,0.003679338979309,18.602149679986,-9.1182802560112e-05,-9.1182802560112e-05,-9.1182802560112e-05,3537151.108096,0.015177865927739
20619200,0.98717861206673,0.015542368865349,0.0049332360693998,0.0064757862221491,0.0041333465737997,-0.0011253452589746,0.0011253442699719,5.2377715281641e-09,-6.2450226568133e-09,5.3046869859778e-09,-6.5115901416262e-09,-0.0012679819684158,0.0012679887065668,-0.0012679857593358,0.0012679848752989,-0.001267985707146,0.001267984777972,-0.0012679895495358,0.0012679809512696,-0.0010776805356243,0.0010776868612754,-0.0010776918042553,0.0010776755905423,-4.3588697596385e-09,7.5162423512497e-09,-1.0889918044538e-08,1.3851320575194e-08,-0.0016158419299208,0.0016158449060542,-0.0017510054905993,0.0017509963670495,-0.0017509974192378,0.0017510046088841,-0.0017510016536972,0.001751000318928,-0.0017509936060598,0.0017510085351936,-0.0014243507132429,0.0014243333396836,-0.0014243267298673,0.0014243579037667,-0.0014988853343093,0.0014988849190861,-0.0014988737819476,0.0014988968002975,-6.0603576574652e-09,5.608173005492e-09,-0.00088392455000509,0.0008839240467058,1.1787559034075e-08,-1.2672929705366e-08,-0.0010343128712472,0.0010343167053345,-0.001034321019499,0.0010343085935034,-0.0010343089580488,0.0010343205994189,-0.0010343171305916,0.0010343124628284,-0.00091825313919969,0.00091825589405409,-0.00091826451822045,0.00091824449997493,0.63099124930119,128566,2924,0.0046781500850924,0.0067081486227757,0.0036798041290942,18.565794348707,-9.1473645210344e-05,-9.1473645210344e-05,-9.1473645210344e-05,3531108.4559881,0.015181196607772
20819200,0.98746886029155,0.015546674650939,0.0049345956428667,0.0064776031324579,0.0041344758756144,-0.0011240784554176,0.0011240774724907,5.2893588800883e-09,-6.2914068973056e-09,5.2826971482798e-09,-6.481022667971e-09,-0.0012667103374438,0.0012667170959954,-0.0012667141604482,0.0012667132317492,-0.0012667140581282,0.0012667131857623,-0.0012667179328212,0.0012667093239026,-0.0010764202620419,0.0010764267070633,-0.0010764316228441,0.0010764153331768,-4.3098159338463e-09,7.461902122424e-09,-1.0914689312204e-08,1.3871032559594e-08,-0.0016146430164007,0.0016146459873901,-0.0017498420279194,0.0017498329141206,-0.0017498339382782,0.0017498411737499,-0.0017498382228912,0.0017498368318447,-0.0017498301586763,0.0017498450657125,-0.0014231238152795,0.0014231063600557,-0.0014230997898673,0.0014231309687571,-0.0014976768425653,0.0014976765434912,-0.0014976653909884,0.0014976883165672,-6.1524693168279e-09,5.6768196134018e-09,-0.00088268388875288,0.00088268336128607,1.1899421757363e-08,-1.2813691282639e-08,-0.0010330400909881,0.0010330439309817,-0.0010330483210937,0.0010330357366909,-0.0010330361240722,0.0010330478791868,-0.0010330443795625,0.0010330396586715,-0.00091696693324972,0.00091696973787351,-0.00091697846526755,0.0009169581870505,0.67642718208167,128566,2924,0.0046728965553649,0.0067031878030679,0.0036746512498031,17.742618146294,-9.8059054829651e-05,-9.8059054829651e-05,-9.8059054829651e-05,3524448.439679,0.015165594631627
21019200,0.98773684192699,0.015550518713654,0.0049358074674448,0.0064792334544404,0.0041354777917687,-0.0011226258875245,0.0011226249066562,5.3434799769208e-09,-6.3430364574238e-09,5.2705126262475e-09,-6.467991422596e-09,-0.0012652952962704,0.0012653020843716,-0.00126529915507,0.0012652981858371,-0.0012652990103256,0.0012652981831728,-0.0012653029200157,0.0012652942864771,-0.0010750055525914,0.0010750121126599,-0.0010750170209865,0.0010750006400822,-4.3015521128886e-09,7.4534065417229e-09,-1.0950896519864e-08,1.3907502242235e-08,-0.0016132940347052,0.0016132970060018,-0.0017484884624546,0.0017484793321713,-0.0017484803501075,0.0017484876165003,-0.0017484846638472,0.0017484832446844,-0.0017484765759995,0.0017484915025631,-0.001421783908303,0.0014217663738831,-0.0014217598145953,0.0014217910580923,-0.0014963061610703,0.0014963058975281,-0.0014962947257328,0.001496317656416,-6.2296001906393e-09,5.7527865617799e-09,-0.00088125210567693,0.00088125157703751,1.1920318716475e-08,-1.2834251244191e-08,-0.0010316538647829,0.0010316576669811,-0.0010316621105622,0.0010316494584771,-0.0010316498469108,0.0010316616662645,-0.0010316581180326,0.0010316534318118,-0.00091550455193564,0.00091550748953834,-0.00091551623514144,0.00091549579051972,0.65601665627069,128566,2924,0.0046668735269259,0.0066976036855811,0.0036687074140135,16.832004358881,-0.00010534396512895,-0.00010534396512895,-0.00010534396512895,3509998.5256769,0.015147777807154
21219200,0.98798443523211,0.015554094106545,0.0049369352440409,0.0064807464628784,0.004136412399626,-0.0011211573025891,0.0011211563234239,5.4733755426048e-09,-6.4710461420879e-09,5.2629899634108e-09,-6.4589109819384e-09,-0.0012638274427276,0.0012638343157897,-0.001263831390341,0.0012638303287559,-0.0012638311536351,0.0012638304161496,-0.0012638351468417,0.0012638264377928,-0.0010735499807141,0.0010735567920047,-0.001073561694699,0.0010735450775261,-4.331592008014e-09,7.4852922512834e-09,-1.1018682352053e-08,1.397669729655e-08,-0.0016118678753644,0.0016118708480979,-0.001747072287911,0.001747063096505,-0.001747064134872,0.0017470714233924,-0.0017470684722472,0.0017470670266561,-0.0017470603374982,0.0017470753330915,-0.0014203606760151,0.0014203430203117,-0.0014203364361412,0.00142036784719,-0.0014948685725798,0.0014948682888267,-0.0014948570690903,0.0014948801190572,-6.2214213601587e-09,5.7616853332401e-09,-0.00087982158469085,0.00087982107344884,1.1838190513082e-08,-1.2733162959924e-08,-0.0010302114450832,0.0010302152068148,-0.001030219633423,0.0010302070549709,-0.001030207429511,0.0010302192035953,-0.0010302156371678,0.0010302110318874,-0.00091403034666025,0.00091403337148478,-0.00091404203968366,0.00091402166293588,0.65967102640844,128566,2924,0.0046607836377603,0.0066917019944974,0.0036627664254545,15.919032686055,-0.00011264773851156,-0.00011264773851156,-0.00011264773851156,3498648.284223,0.015129572893718
21419200,0.98821667377727,0.015557471686937,0.0049380012174671,0.0064821727524562,0.0041372977170137,-0.0011200964188122,0.001120095428877,5.4900508915006e-09,-6.4982488531286e-09,5.3043291186273e-09,-6.5123501635257e-09,-0.0012627751772197,0.0012627820844399,-0.0012627791381841,0.0012627780840418,-0.0012627789175577,0.001262778154799,-0.0012627829274896,0.0012627741603592,-0.0010725063831965,0.0010725132003829,-0.0010725181446269,0.0010725014382076,-4.3668551948066e-09,7.5237325202537e-09,-1.092134049278e-08,1.3882160121714e-08,-0.0016108645509867,0.001610867526584,-0.0017460750102089,0.0017460658593022,-0.0017460669180139,0.0017460741233808,-0.001746071169052,0.0017460698155616,-0.0017460630983302,0.0017460780561029,-0.0014193571360526,0.0014193397016091,-0.0014193330880757,0.0014193643323937,-0.0014938530424869,0.0014938526300878,-0.0014938414729105,0.0014938645299017,-6.3245191190212e-09,5.8734779894984e-09,-0.00087878362827434,0.00087878312597626,1.179668278538e-08,-1.2681221577053e-08,-0.0010291782988893,0.0010291819643858,-0.0010291864540339,0.0010291738455793,-0.0010291742099055,0.0010291860340526,-0.0010291823875669,0.0010291778924205,-0.00091296343159129,0.00091296670183712,-0.00091297533200259,0.00091295478731714,0.66373454683783,128566,2924,0.0046563844800542,0.0066875496613001,0.0036584562612793,15.230501835565,-0.00011815598531548,-0.00011815598531548,-0.00011815598531548,3489769.8774903,0.015116516209499
21619200,0.98843498441927,0.015560676298737,0.0049390131944285,0.0064835230972714,0.0041381400070373,-0.0011190720597285,0.0011190710619047,5.6093958372819e-09,-6.6253793574074e-09,5.335532352048e-09,-6.5523254072506e-09,-0.0012617642730018,0.0012617712805428,-0.0012617683186132,0.0012617671961384,-0.0012617680394406,0.0012617673250223,-0.0012617721289793,0.0012617632511261,-0.0010715017356453,0.0010715087563058,-0.0010715137323952,0.0010714967601883,-4.4089544368213e-09,7.5703386425274e-09,-1.0866627313407e-08,1.3831513170708e-08,-0.001609895760551,0.0016098987401188,-0.0017451090896809,0.0017450999503731,-0.001745101034059,0.0017451081768386,-0.0017451052223655,0.0017451039341477,-0.0017450971831073,0.001745112141634,-0.00141839182598,0.0014183745205326,-0.0014183678726645,0.0014183990541663,-0.0014928717988803,0.001492871261236,-0.001492860135864,0.0014928832570453,-6.3212392470757e-09,5.8890864427264e-09,-0.00087778240789082,0.00087778192465239,1.1703919335563e-08,-1.2566940808886e-08,-0.0010281901859433,0.0010281937995698,-0.0010281982750477,0.0010281857468478,-0.0010281860951902,0.0010281978709437,-0.0010281942021187,0.0010281898003216,-0.00091193579178909,0.00091193916754108,-0.00091194771046087,0.0009119272346989,0.66920856079738,128566,2924,0.0046521368455844,0.0066835400402545,0.0036542988853274,14.566162921344,-0.00012347069662925,-0.00012347069662925,-0.00012347069662925,3480766.9370757,0.015103913688069
21819200,0.98864032978792,0.015563645437324,0.0049399502521848,0.0064847765856613,0.0041389185994779,-0.0011180357791166,0.0011180347740178,5.643877329521e-09,-6.6670837247034e-09,5.36504017254e-09,-6.5896202145081e-09,-0.0012607463514673,0.0012607533982397,-0.0012607504216402,0.0012607492896759,-0.0012607501389366,0.001260749421864,-0.0012607542548116,0.0012607453212525,-0.0010704878692502,0.0010704949381322,-0.0010704999427144,0.0010704828634505,-4.434899904911e-09,7.5983913144199e-09,-1.0780926945964e-08,1.3747644515779e-08,-0.0016089133686286,0.0016089163501331,-0.0017441247759241,0.0017441156757138,-0.0017441167741456,0.0017441238462219,-0.0017441208899011,0.0017441196787039,-0.0017441129068328,0.0017441278280145,-0.0014174181162038,0.0014174010009297,-0.0014173943310373,0.0014174253619887,-0.0014918758393942,0.0014918751970239,-0.0014918641260463,0.0014918872423833,-6.408258648303e-09,5.9845999146004e-09,-0.00087677082030048,0.00087677034582729,1.1657267027082e-08,-1.2510619900547e-08,-0.0010272002413995,0.001027203767149,-0.0010272082950599,0.0010271957497999,-0.0010271960884161,0.0010272079006479,-0.0010272041621193,0.0010271998632099,-0.00091089856667125,0.00091090216130842,-0.00091091066157661,0.00091089005213169,0.65988855591089,128566,2924,0.0046478398296977,0.0066794738902474,0.003650098660049,13.902478581756,-0.00012878017134595,-0.00012878017134595,-0.00012878017134595,3471157.580674,0.015091160533023
22019200,0.98884534845242,0.015566561434494,0.0049408699996392,0.0064860099263912,0.004139681508464,-0.0011186931475128,0.0011186921260494,5.6724652445548e-09,-6.7115125393748e-09,5.4298934392216e-09,-6.6730533525065e-09,-0.0012614441783229,0.0012614512799848,-0.0012614482706612,0.001261447149879,-0.0012614480121641,0.0012614472576296,-0.0012614521550033,0.0012614431293151,-0.0010711754560574,0.0010711825406916,-0.0010711876090484,0.0010711703862321,-4.4818875691171e-09,7.6498835014278e-09,-1.060478142756e-08,1.357556551538e-08,-0.0016097139375193,0.0016097169231073,-0.0017449337921706,0.0017449247748853,-0.0017449258996662,0.0017449328317118,-0.001744929871337,0.0017449288136689,-0.0017449220031213,0.0017449368440194,-0.0014181863529952,0.0014181696246839,-0.001418162912675,0.0014181936299219,-0.0014926555642733,0.0014926547214872,-0.0014926437650792,0.0014926668587516,-6.4950821601929e-09,6.0839288448788e-09,-0.00087738235175232,0.00087738189051405,1.1587279249279e-08,-1.2424869001073e-08,-0.0010278714881362,0.0010278749099506,-0.0010278794869462,0.0010278669474757,-0.0010278672705033,0.0010278791075836,-0.0010278752948316,0.0010278711195716,-0.00091153552361605,0.00091153935597023,-0.00091154779388059,0.00091152707429144,0.64982379497097,128566,2924,0.0046505662640537,0.0066827850341987,0.0036526409156551,14.153376428679,-0.00012677298857057,-0.00012677298857057,-0.00012677298857057,3475023.473165,0.015099870401526
22219200,0.98905123217911,0.015569465589248,0.004941785547722,0.0064872400942992,0.0041404399472272,-0.0011195313152551,0.001119530292378,5.753759419e-09,-6.7943597144701e-09,5.4371967713176e-09,-6.6815030043755e-09,-0.0012623250978111,0.0012623322609197,-0.0012623292481236,0.0012623280738274,-0.0012623289398148,0.001262328230363,-0.001262333134966,0.0012623240507319,-0.0010720354549557,0.0010720426849834,-0.0010720477615812,0.0010720303793651,-4.5148147705667e-09,7.686096402972e-09,-1.0588061827391e-08,1.3561732623083e-08,-0.0016106982932711,0.0016107012817976,-0.0017459411635327,0.0017459321391787,-0.0017459332839121,0.0017459401832795,-0.00174593722315,0.001745936198282,-0.0017459293619429,0.0017459442215391,-0.0014191254873196,0.0014191088053524,-0.0014191020677912,0.0014191327904426,-0.0014936155545038,0.0014936146286129,-0.0014936036781508,0.0014936268422362,-6.5319009163427e-09,6.1419821046531e-09,-0.00087816663373619,0.0008781661937051,1.1482088709895e-08,-1.2296418238027e-08,-0.0010287128544759,0.001028716191351,-0.0010287207792171,0.0010287083028832,-0.0010287086081825,0.0010287204177066,-0.0010287165528677,0.0010287125094606,-0.00091234197559765,0.00091234600776845,-0.0009123543460228,0.00091233362438163,0.64497435951946,128566,2924,0.0046540423504283,0.0066868570364434,0.0036559002012233,14.499767644071,-0.00012400185884743,-0.00012400185884743,-0.00012400185884743,3481745.0905941,0.015110841491247
22419200,0.98925791957835,0.01557251196964,0.0049427479101268,0.0064885214996853,0.0041412425598282,-0.0011203821668817,0.0011203811450656,5.8112401842778e-09,-6.8508282096683e-09,5.4337254345539e-09,-6.6768145743685e-09,-0.0012632134897607,0.0012632206878463,-0.0012632176766525,0.0012632164639237,-0.0012632173277007,0.0012632166613167,-0.0012632215620499,0.001263212442339,-0.0010729058091464,0.0010729131581536,-0.0010729182304926,0.0010729007360227,-4.5049693736309e-09,7.6753663467679e-09,-1.056011010312e-08,1.3532980856489e-08,-0.0016116894950852,0.0016116924828112,-0.0017469605578121,0.0017469515575101,-0.0017469526956856,0.0017469595832158,-0.0017469566228473,0.0017469556109123,-0.0017469487818944,0.0017469636131265,-0.0014200659858824,0.0014200493568288,-0.0014200426265171,0.0014200732807929,-0.0014945842403382,0.0014945833188046,-0.0014945723877781,0.0014945955078389,-6.6047209898295e-09,6.2141786566632e-09,-0.00087896210361359,0.00087896166299289,1.1481358481174e-08,-1.2296235669236e-08,-0.0010295568624414,0.0010295601485186,-0.00102956478541,0.0010295522618131,-0.0010295525664782,0.0010295644245436,-0.001029560511981,0.0010295565154817,-0.0009131609651124,0.00091316513540133,-0.00091317347377177,0.00091315261342928,0.67139354633971,128566,2924,0.0046575709916706,0.0066909575893295,0.0036592056595815,14.848752002433,-0.00012120998398053,-0.00012120998398053,-0.00012120998398053,3488766.3862328,0.015121941758725
22619200,0.98946516846184,0.015575602514006,0.0049437246082546,0.0064898197721415,0.0041420581336096,-0.001121209949754,0.0011212089345895,5.8917686576147e-09,-6.9248091013022e-09,5.4091676656702e-09,-6.6447526177216e-09,-0.0012641171220244,0.0012641243617296,-0.0012641213629206,0.0012641200838504,-0.0012641209439308,0.0012641203515722,-0.0012641252267885,0.0012641160833425,-0.0010737812493946,0.0010737887670012,-0.0010737938132899,0.0010737762002126,-4.4842734064079e-09,7.6525106282297e-09,-1.0602698060793e-08,1.3573612515102e-08,-0.0016127103203288,0.0016127133060312,-0.0017479885751417,0.0017479795623074,-0.0017479806884907,0.001747987612817,-0.0017479846567606,0.0017479835985315,-0.0017479767863137,0.0017479916308096,-0.0014210489725253,0.0014210322376366,-0.0014210255235836,0.0014210562514921,-0.001495573536486,0.00149557267613,-0.0014955617186631,0.0014955848289274,-6.6584004212722e-09,6.2650261355986e-09,-0.00087972164387254,0.00087972120048722,1.1488107341706e-08,-1.230642019657e-08,-0.0010304267668989,0.0010304300240917,-0.0010304346983103,0.0010304221287958,-0.0010304224386933,0.0010304343325984,-0.0010304303875066,0.0010304264200324,-0.00091396088517115,0.00091396515723988,-0.00091397350300654,0.00091395252500946,0.67880268383189,128566,2924,0.0046610044853339,0.0066951786912882,0.0036623645577035,15.186930231485,-0.00011850455814812,-0.00011850455814812,-0.00011850455814812,3491515.5395436,0.015132920394191
22819200,0.98966996825494,0.015578646865473,0.0049446864373044,0.0064910998834896,0.0041428605446789,-0.0011216183103117,0.0011216173060726,5.9586820332989e-09,-6.9809996222603e-09,5.365885909196e-09,-6.5895567906221e-09,-0.0012646034298576,0.0012646106883528,-0.0012646077109697,0.001264606369596,-0.0012646072185154,0.0012646067108218,-0.0012646115434786,0.0012646024018165,-0.0010742417468746,0.0010742494299386,-0.0010742544340682,0.0010742367417521,-4.4414057913371e-09,7.6055582095938e-09,-1.0689158217613e-08,1.365643077312e-08,-0.0016133026278656,0.0016133056099719,-0.0017485821323408,0.0017485730897169,-0.0017485741908783,0.0017485811977609,-0.0017485782428064,0.0017485770962919,-0.0017485703183852,0.0017485851849679,-0.0014216137398557,0.001421596807146,-0.0014215901298197,0.001421620988493,-0.00149613476822,0.0014961340500309,-0.0014961230387592,0.001496146111685,-6.7326137678922e-09,6.3266489706303e-09,-0.00088007678886089,0.00088007633242161,1.1555144819905e-08,-1.2387946188117e-08,-0.0010308935248947,0.0010308967725721,-0.0010309015049715,0.0010308888288311,-0.0010308891511198,0.0010309011268654,-0.0010308971493535,0.0010308931648917,-0.00091434748840996,0.00091435183052092,-0.00091436023809226,0.00091433906625719,0.67691803539884,128566,2924,0.0046626987042222,0.0066976262798443,0.0036638442527258,15.303487537847,-0.00011757209969722,-0.00011757209969722,-0.00011757209969722,3490388.6286573,0.015138628589424
23019200,0.98987224675363,0.015581438402415,0.0049455650922063,0.006492288358904,0.0041435849513046,-0.0011220000488312,0.0011219990515654,6.0186202672289e-09,-7.0340548726181e-09,5.3374988199223e-09,-6.5535589395671e-09,-0.0012650598187702,0.0012650670984477,-0.0012650641352727,0.0012650627435186,-0.0012650635842025,0.0012650631442596,-0.0012650679484734,0.0012650587953337,-0.0010746697538191,0.001074677581309,-0.0010746825563664,0.0010746647756647,-4.3989770052721e-09,7.5589497372154e-09,-1.0746053314506e-08,1.3709628314619e-08,-0.0016138640259452,0.0016138670043037,-0.0017491475405017,0.0017491384855286,-0.0017491395615385,0.0017491466320974,-0.0017491436779137,0.0017491424641688,-0.0017491357198247,0.0017491505875043,-0.0014221455845239,0.0014221285164591,-0.0014221218735151,0.0014221528011362,-0.0014966630842024,0.0014966624917349,-0.0014966514474365,0.0014966744590183,-6.8150408537645e-09,6.3902159237831e-09,-0.00088040722566257,0.00088040675013911,1.1647936811791e-08,-1.2501973071224e-08,-0.0010313287120371,0.0010313319591617,-0.0010313367587204,0.0010313239488852,-0.0010313242878006,0.0010313363639748,-0.0010313323563964,0.0010313283316166,-0.0009147035105664,0.00091470790264305,-0.0009147163974978,0.0009146950012119,0.63260003617661,128566,2924,0.0046642824158108,0.0066999461436423,0.0036652210279965,15.414713326475,-0.0001166822933882,-0.0001166822933882,-0.0001166822933882,3489711.1946537,0.015143990361285
23219200,0.99007200184433,0.015584322756338,0.0049464750922778,0.0064935065445594,0.004144341119501,-0.001122392791987,0.0011223918020334,6.0892896488884e-09,-7.0974358526875e-09,5.3091774956046e-09,-6.5170050263817e-09,-0.0012654610152537,0.0012654683259431,-0.0012654653770894,0.0012654639254632,-0.0012654647601007,0.0012654643924609,-0.0012654691682258,0.0012654599995166,-0.001075063067563,0.0010750710527316,-0.0010750759992424,0.0010750581184306,-4.3735813547976e-09,7.5307751130485e-09,-1.0829113128204e-08,1.3790195908981e-08,-0.0016143481636591,0.0016143511395205,-0.0017496722866496,0.0017496631932553,-0.0017496642550805,0.0017496713943211,-0.0017496684421428,0.001749667153215,-0.0017496604298272,0.0017496753326314,-0.0014225750997607,0.0014225578479831,-0.0014225512274882,0.0014225822984188,-0.0014971315597962,0.0014971310696942,-0.0014971199725769,0.0014971429853181,-6.8825792154551e-09,6.4475983698025e-09,-0.00088076681780463,0.00088076633186622,1.1700356541727e-08,-1.2566233920713e-08,-0.001031687463212,0.0010316906982754,-0.0010316955494763,0.0010316826484484,-0.0010316829981839,0.0010316951440928,-0.0010316911048716,0.0010316870735851,-0.00091506497160908,0.00091506943930828,-0.00091507798297025,0.00091505641368851,0.65900010612109,128566,2924,0.0046659109237908,0.0067019496499316,0.0036667146030478,15.525738807672,-0.00011579408953862,-0.00011579408953862,-0.00011579408953862,3495283.4468164,0.015149192966797
23419200,0.99027008409576,0.015587151547277,0.004947366978463,0.0064947036793835,0.0041450808894305,-0.0011229081163526,0.001122907125685,6.1488057595136e-09,-7.1575105413203e-09,5.3094823824247e-09,-6.5187735022971e-09,-0.0012660251734193,0.0012660325238461,-0.0012660295747934,0.0012660280829389,-0.0012660289180894,0.0012660285894343,-0.0012660333655497,0.0012660241559434,-0.0010756031973625,0.001075611298735,-0.0010756162432992,0.0010755982445826,-4.3603175170576e-09,7.5149831328944e-09,-1.0842856583292e-08,1.3801454374925e-08,-0.0016150094772768,0.0016150124505168,-0.0017503535380048,0.0017503444425867,-0.0017503454977864,0.0017503526509548,-0.0017503497021612,0.0017503483926425,-0.0017503416817924,0.0017503565799217,-0.0014231945462654,0.0014231772591633,-0.0014231706437567,0.0014232017291923,-0.0014977657718076,0.0014977653186398,-0.0014977542170788,0.0014977772080914,-6.9587157762781e-09,6.5107754887762e-09,-0.00088123047331354,0.00088122997490032,1.175441836397e-08,-1.2634394897702e-08,-0.0010322169302816,0.0010322201475428,-0.0010322250565223,0.0010322120565772,-0.001032212418447,0.001032224639594,-0.0010322205650568,0.0010322165278988,-0.00091554926850022,0.00091555381957863,-0.0009155624171227,0.00091554065763881,0.65256369037032,128566,2924,0.0046680483172602,0.0067046843750019,0.0036686428746946,15.704389056439,-0.00011436488754849,-0.00011436488754849,-0.00011436488754849,3497578.3297077,0.015156097158369
23619200,0.99047068109639,0.015590084428476,0.0049482927349503,0.0064959400781466,0.0041458516153786,-0.0011240504860428,0.0011240494894706,6.2096781529699e-09,-7.2243438766025e-09,5.3333933453711e-09,-6.548855615721e-09,-0.0012672220909852,0.0012672294955243,-0.0012672265344334,0.0012672250133377,-0.0012672258535426,0.0012672255443255,-0.0012672303446252,0.0012672210678924,-0.0010767732971885,0.0010767815023545,-0.0010767864733541,0.0010767683233564,-4.3904901125996e-09,7.5488394787827e-09,-1.0818575866051e-08,1.3780685967209e-08,-0.0016163308342041,0.0016163338110635,-0.0017517010531202,0.0017516919542212,-0.0017516930266563,0.0017517001497781,-0.0017516971962483,0.0017516959268864,-0.0017516891907153,0.0017517040992237,-0.0014244553505785,0.0014244381331246,-0.0014244314988144,0.0014244625609236,-0.0014990588702843,0.0014990583424969,-0.0014990472524692,0.0014990702919515,-7.0204365202627e-09,6.5804519636967e-09,-0.00088229502067016,0.00088229452986389,1.1726328166253e-08,-1.2597548926835e-08,-0.0010333566752018,0.0010333598334559,-0.0010333647794891,0.0010333517654411,-0.0010333521190704,0.0010333643701242,-0.0010333602453684,0.0010333562798999,-0.00091665462481908,0.00091665933138693,-0.00091666789928986,0.00091664604331861,0.66669034665261,128566,2924,0.0046727859136886,0.0067101501343051,0.0036730672544242,16.218893347668,-0.00011024885321865,-0.00011024885321865,-0.00011024885321865,3505051.3855074,0.015170947589958
23819200,0.99067376258188,0.015593219194445,0.0049492845693445,0.0064972511041855,0.0041466835209147,-0.001125214635687,0.0011252136342384,6.2802801949753e-09,-7.2996562634486e-09,5.3521439334818e-09,-6.5733616910184e-09,-0.0012684649499176,0.0012684724145475,-0.0012684694438997,0.0012684678822178,-0.0012684687284162,0.0012684684470234,-0.0012684732665949,0.0012684639241189,-0.001077984549359,0.0010779928732168,-0.0010779978637845,0.001077979557505,-4.4208520434164e-09,7.5818801133552e-09,-1.0809736809137e-08,1.377413982166e-08,-0.001617710641293,0.001617713620468,-0.0017530963561456,0.0017530872456492,-0.0017530883367115,0.0017530954340622,-0.001753092480596,0.0017530912377381,-0.0017530844784792,0.001753099406472,-0.0014257789813187,0.0014257617971005,-0.0014257551382991,0.0014257862141946,-0.0015004070507826,0.0015004064532688,-0.0015003953668784,0.0015004184720584,-7.0715603984009e-09,6.642369172696e-09,-0.00088337143431685,0.00088337095438719,1.1674606801511e-08,-1.2533586792594e-08,-0.0010345461038967,0.0010345491985544,-0.0010345541717205,0.0010345411668179,-0.0010345415117137,0.0010345537711305,-0.0010345495980488,0.0010345457207704,-0.00091778423231778,0.00091778910381077,-0.00091779762300044,0.00091777570001415,0.70079155139425,128566,2924,0.0046776140814585,0.0067158564679371,0.0036775426303474,16.741493927513,-0.00010606804857989,-0.00010606804857989,-0.00010606804857989,3510415.8964425,0.015186186900606
24019200,0.99087918800156,0.015596427820273,0.0049503000738807,0.0064985918252646,0.004147535921128,-0.0011263705442103,0.0011263695374582,6.3305736666214e-09,-7.3552993162023e-09,5.3742513655984e-09,-6.600995610527e-09,-0.0012697488738714,0.0012697563819559,-0.0012697533999712,0.0012697518172353,-0.0012697526658738,0.0012697524010687,-0.001269757242109,0.0012697478397445,-0.0010792270341309,0.001079235448715,-0.0010792404603921,0.0010792220191204,-4.4373484694031e-09,7.6000513455895e-09,-1.07504366186e-08,1.3716380242881e-08,-0.0016191568301962,0.0016191598109269,-0.0017545302619414,0.0017545211779995,-0.0017545222779988,0.001754529329442,-0.0017545263721539,0.001754525184601,-0.0017545184116993,0.0017545333103234,-0.0014271844915615,0.0014271674445979,-0.0014271607724101,0.0014271917364544,-0.0015018122487598,0.0015018115876879,-0.0015018005389039,0.0015018236315834,-7.1479170727642e-09,6.7191291908974e-09,-0.0008844237317755,0.00088442325226295,1.1670809476399e-08,-1.2529286850854e-08,-0.0010357896055666,0.0010357926438218,-0.0010357976677465,0.0010357846178925,-0.0010357849593205,0.0010357972703771,-0.0010357930460137,0.0010357892199006,-0.00091891166993069,0.00091891668533088,-0.00091892520141952,0.00091890314018434,0.70866200855016,128566,2924,0.0046824086224972,0.006721834767626,0.0036819213622842,17.264398856308,-0.00010188480914954,-0.00010188480914954,-0.00010188480914954,3511052.2242586,0.015201571774924
24219200,0.99108557409213,0.015599509452993,0.004951273111269,0.0064998895814448,0.0041483467602796,-0.001127331839917,0.001127330826338,6.5056022934957e-09,-7.5371305820743e-09,5.4021290251848e-09,-6.6356265360466e-09,-0.0012708476251419,0.0012708552914994,-0.001270852296808,0.001270850582754,-0.0012708514643091,0.0012708512654333,-0.0012708561318785,0.0012708466083979,-0.0010802817629643,0.0010802904218002,-0.0010802954558642,0.0010802767133766,-4.414334940333e-09,7.5730336047864e-09,-1.076349381924e-08,1.3725640090529e-08,-0.0016204232132943,0.0016204261902037,-0.0017557795945869,0.0017557705416509,-0.0017557716274937,0.0017557786724857,-0.0017557757458049,0.0017557745053771,-0.001755767752619,0.0017557826630848,-0.0014284144120678,0.0014283972479346,-0.0014283905890878,0.0014284216312821,-0.0015030354467506,0.0015030347650131,-0.0015030237127056,0.001503046833775,-7.0973819562722e-09,6.6714330326376e-09,-0.00088528639395721,0.00088528591835708,1.1633889462986e-08,-1.2489873974198e-08,-0.0010368543299352,0.0010368574072582,-0.0010368623934555,0.0010368493797517,-0.0010368497420442,0.0010368619758958,-0.0010368577784266,0.0010368539744617,-0.00091984580910557,0.00091985083418052,-0.00091985931995907,0.00091983730915028,0.6801006359803,128566,2924,0.0046863961126625,0.0067270684177919,0.003685513245849,17.692276146822,-9.8461790825427e-05,-9.8461790825427e-05,-9.8461790825427e-05,3510003.0703874,0.015214582879408
24419200,0.99128976043892,0.015602554969677,0.0049522345713925,0.0065011726155797,0.004149147782705,-0.0011278548002196,0.0011278537980426,6.4424903645641e-09,-7.4628115249404e-09,5.3584026061366e-09,-6.5795595047382e-09,-0.0012714554075243,0.0012714629753032,-0.0012714600011504,0.0012714583430184,-0.0012714591826685,0.0012714590113889,-0.0012714638357936,0.0012714543727811,-0.0010808632883714,0.0010808719512121,-0.001080876945136,0.001080858290234,-4.4244467935993e-09,7.585619519766e-09,-1.0754918778849e-08,1.371947243724e-08,-0.0016211689781953,0.0016211719575178,-0.0017565325355358,0.0017565234503074,-0.0017565245432485,0.0017565316095812,-0.0017565286480548,0.0017565274539503,-0.0017565206908911,0.0017565355765325,-0.0014291148425368,0.001429097790661,-0.0014290911294652,0.0014291220783284,-0.0015037512842564,0.0015037506629055,-0.0015037396108513,0.0015037626662145,-7.2979251304813e-09,6.8682958622981e-09,-0.00088574272439036,0.00088574224420181,1.1672105187257e-08,-1.2532045902039e-08,-0.0010374267128195,0.0010374296474367,-0.0010374347718695,0.0010374216246619,-0.0010374219622678,0.0010374343786882,-0.0010374300547744,0.0010374263220403,-0.00092034120740136,0.000920346502763,-0.00092035502052442,0.00092033267623432,0.67934589892838,128566,2924,0.0046885652933363,0.0067301503473091,0.0036874141822815,17.884783713379,-9.692173029297e-05,-9.692173029297e-05,-9.692173029297e-05,3510280.8545374,0.015221845241843
24619200,0.99149163703059,0.015605711980199,0.0049532333544271,0.0065024929060242,0.0041499857197473,-0.0011283750376858,0.0011283740384715,6.5414677591281e-09,-7.5587822917108e-09,5.3461069275682e-09,-6.5643602244776e-09,-0.0012720489310379,0.0012720565663891,-0.0012720535987067,0.0012720518605583,-0.0012720527051125,0.001272052603943,-0.0012720574162333,0.0012720479074282,-0.0010814390654001,0.0010814479057514,-0.0010814528885935,0.0010814340791294,-4.4077877714622e-09,7.5672959327743e-09,-1.0785052629869e-08,1.3748130877803e-08,-0.0016218981975813,0.0016219011754218,-0.0017572695935584,0.0017572605079756,-0.0017572615907428,0.0017572686790742,-0.0017572657272039,0.0017572644906307,-0.0017572577412759,0.001757272642324,-0.0014297996639382,0.0014297825186555,-0.0014297758705659,0.0014298068861305,-0.0015044549837092,0.001504454394665,-0.0015044433259228,0.0015044663849194,-7.3292843843214e-09,6.9004626320895e-09,-0.00088619721888049,0.00088619673939874,1.1670963662189e-08,-1.2529779114396e-08,-0.0010379830393648,0.0010379859603368,-0.001037991105002,0.0010379779310648,-0.0010379782755625,0.0010379907047693,-0.0010379863593714,0.0010379826569962,-0.00092083496724774,0.00092084034636874,-0.0009208488620544,0.00092082643740235,0.70944458549568,128566,2924,0.0046907231469418,0.0067331642318766,0.0036893069199945,18.071601779333,-9.5427185765334e-05,-9.5427185765334e-05,-9.5427185765334e-05,3510675.5392051,0.015229018492904
24819200,0.9916911676697,0.015608599885617,0.0049541433810505,0.0065037164379301,0.0041507400666365,-0.0011288742580256,0.0011288732617914,6.5986707605643e-09,-7.6130121311702e-09,5.3346074141057e-09,-6.5493860628103e-09,-0.0012726640551423,0.0012726717193677,-0.0012726687575275,0.0012726669785984,-0.0012726678183547,0.0012726677677283,-0.0012726725685269,0.0012726630321902,-0.0010820182857608,0.0010820272529824,-0.0010820322240053,0.0010820133109727,-4.3966988319275e-09,7.5550300597824e-09,-1.0794414023179e-08,1.3756427361763e-08,-0.001622661850003,0.0016226648267941,-0.0017580192269451,0.001758010140469,-0.0017580112164663,0.0017580183191806,-0.0017580153658201,0.0017580141173852,-0.001758007376979,0.0017580222723419,-0.0014305351268888,0.0014305179617357,-0.0014305113229177,0.0014305423407527,-0.0015051799439478,0.0015051793880504,-0.0015051683135113,0.0015051913485778,-7.4040917001416e-09,6.9730249149921e-09,-0.00088661950647464,0.00088661902465058,1.1683333856347e-08,-1.2544811159705e-08,-0.0010385734566083,0.0010385763331507,-0.0010385815292415,0.0010385682968242,-0.0010385686415392,0.0010385811288481,-0.001038576736556,0.0010385730699544,-0.00092130670320278,0.00092131221008124,-0.00092132073704029,0.00092129816216797,0.66112227617091,128566,2924,0.0046927943500778,0.0067363185232825,0.0036910684693878,18.258205913839,-9.3934352689291e-05,-9.3934352689291e-05,-9.3934352689291e-05,3507344.8325458,0.015236114527275
25019200,0.99189059406965,0.015611451307573,0.0049550413445832,0.0065049265880363,0.0041514833749532,-0.0011297191124268,0.0011297181159274,6.683213963798e-09,-7.6974853703366e-09,5.3328537239389e-09,-6.5493168788062e-09,-0.0012735649996852,0.0012735727241649,-0.0012735697629784,0.0012735679235391,-0.0012735687667825,0.0012735687691105,-0.001273573570345,0.0012735639823837,-0.0010828960727071,0.0010829051952826,-0.0010829101688719,0.0010828911035012,-4.4100655549951e-09,7.5703762301439e-09,-1.0815837496471e-08,1.3779877428498e-08,-0.0016237047045821,0.0016237076834569,-0.0017590891643412,0.0017590800605769,-0.0017590811442323,0.0017590882512473,-0.0017590852987364,0.0017590840433149,-0.0017590772912998,0.0017590922177833,-0.0014315137753345,0.0014314965652803,-0.0014314899182141,0.0014315210017146,-0.0015061968342984,0.0015061962531047,-0.0015061851654632,0.0015062082563871,-7.4434825339276e-09,7.0237059959772e-09,-0.00088739314777473,0.00088739267712247,1.1641067067509e-08,-1.2488591925395e-08,-0.0010394177793058,0.0010394206075525,-0.0010394258236991,0.0010394126003448,-0.0010394129382441,0.001039425429049,-0.0010394209970503,0.0010394174075702,-0.00092211375949256,0.00092211940843945,-0.00092212789384664,0.00092210526184419,0.65362537520854,128566,2924,0.0046962978911071,0.0067406312863222,0.0036942852157814,18.62966104353,-9.0962711651763e-05,-9.0962711651763e-05,-9.0962711651763e-05,3513385.6518264,0.015247316269319
25219200,0.99209312894232,0.015614448716593,0.0049559867915742,0.0065061915405724,0.0041522703844463,-0.0011310788986272,0.0011310778973713,6.7284533479901e-09,-7.7474707414498e-09,5.3545480770608e-09,-6.5753049523589e-09,-0.0012749797705887,0.0012749875323228,-0.0012749845603002,0.0012749827043449,-0.0012749835483803,0.0012749835664461,-0.0012749883861928,0.0012749787413463,-0.0010842854631054,0.0010842946706666,-0.0010842996590599,0.0010842804656372,-4.4316379196212e-09,7.5925959744636e-09,-1.0769377178743e-08,1.3733675392585e-08,-0.0016252763576454,0.0016252793365227,-0.0017606972634645,0.0017606881718291,-0.0017606892685079,0.0017606963318493,-0.0017606933781263,0.0017606921735591,-0.0017606854070707,0.0017607003089687,-0.0014330057888359,0.001432988699702,-0.001432982030375,0.0014330130253148,-0.0015077410172661,0.0015077403777727,-0.00150772931991,0.0015077524103937,-7.5254945292931e-09,7.1058715534971e-09,-0.0008886589982273,0.00088865852868317,1.161290320322e-08,-1.2460734064281e-08,-0.0010407549103604,0.0010407576632432,-0.0010407629316683,0.0010407496778458,-0.0010407500098979,0.0010407625446364,-0.0010407580548513,0.0010407545353504,-0.00092342463671123,0.00092343045380674,-0.00092343891725254,0.00092341615814049,0.67454673618809,128566,2924,0.0047019366689924,0.0067471323729989,0.0036995458345039,19.270490069866,-8.5836079441074e-05,-8.5836079441074e-05,-8.5836079441074e-05,3523824.9747887,0.015264982773008
25419200,0.99229865404347,0.015617752412526,0.0049570326492576,0.0065075688764683,0.0041531508868004,-0.0011324641907958,0.0011324631854819,6.7757053436598e-09,-7.7988293296201e-09,5.3692425151429e-09,-6.5946782798112e-09,-0.001276451165872,0.0012764589638484,-0.0012764559842938,0.0012764541072633,-0.0012764549501382,0.0012764549907318,-0.0012764598268024,0.0012764501294185,-0.0010857263837144,0.0010857356860416,-0.0010857406924371,0.0010857213741297,-4.4433371192775e-09,7.6058935696429e-09,-1.0728087341237e-08,1.3693880073893e-08,-0.0016269185242223,0.0016269215047563,-0.0017623593860503,0.0017623503098897,-0.0017623514133381,0.001762358449151,-0.0017623554885372,0.0017623543243963,-0.001762347547548,0.0017623624298834,-0.0014345771147153,0.0014345601282894,-0.0014345534513849,0.0014345843622233,-0.0015093509594884,0.0015093502836024,-0.0015093392514593,0.0015093623278381,-7.6039827720643e-09,7.1882026378905e-09,-0.00088993801731967,0.00088993755121165,1.1605297124904e-08,-1.2448683131526e-08,-0.0010421560232847,0.0010421587136962,-0.0010421640329349,0.0010421507402404,-0.0010421510646879,0.0010421636526246,-0.001042159107103,0.001042155646534,-0.00092476701848615,0.000924772988802,-0.00092478144341765,0.00092475854996228,0.72789189962419,128566,2924,0.0047076816401952,0.0067539235243193,0.0037048634022595,19.917855265844,-8.0657157873249e-05,-8.0657157873249e-05,-8.0657157873249e-05,3531018.8125238,0.015283110752324
25619200,0.99250695323585,0.015621121485964,0.0049580991177364,0.0065089739427501,0.004154048425478,-0.0011338343851475,0.0011338333781633,6.8550157942634e-09,-7.8798702559841e-09,5.3772884305406e-09,-6.6042446992695e-09,-0.001277984361321,0.0012779922221356,-0.0012779892385957,0.0012779873068728,-0.0012779881567712,0.0012779882380198,-0.0012779930815426,0.0012779833284153,-0.0010872120977837,0.0010872215331835,-0.0010872265472043,0.0010872070803906,-4.4469331376569e-09,7.6097794619904e-09,-1.0713025416545e-08,1.3679017476112e-08,-0.0016286588687146,0.0016286618495008,-0.0017640761449991,0.0017640670813851,-0.00176406818701,0.0017640752057974,-0.001764072250473,0.0017640710929983,-0.0017640643131942,0.0017640791944503,-0.0014362725691725,0.0014362555992011,-0.0014362489195116,0.0014362798193996,-0.0015110435799997,0.0015110428720553,-0.0015110318484886,0.0015110549380403,-7.652790653528e-09,7.2382758357934e-09,-0.0008911791828729,0.00089117871796466,1.1597900821415e-08,-1.2440088248589e-08,-0.0010436408755322,0.0010436435340177,-0.0010436488850504,0.0010436355607285,-0.0010436358891481,0.0010436485006936,-0.0010436439209874,0.0010436405052391,-0.00092610528715747,0.00092611137621882,-0.00092611982399022,0.00092609682535071,0.7324347377857,128566,2924,0.0047133649096082,0.0067611166851545,0.0037100292063626,20.565457411452,-7.5476340708384e-05,-7.5476340708384e-05,-7.5476340708384e-05,3530968.6882506,0.015301432854843
25819200,0.99271262597166,0.015624355794345,0.0049591212982601,0.0065103298369941,0.004154904659091,-0.0011344257510356,0.0011344247330181,6.9235367672392e-09,-7.9597762130105e-09,5.4157493270204e-09,-6.6540232643333e-09,-0.0012787299324208,0.0012787378570475,-0.0012787348538644,0.0012787328958343,-0.0012787337541814,0.0012787338484273,-0.0012787387306364,0.0012787288832772,-0.0010879164164847,0.0010879259683621,-0.0010879310189343,0.0010879113509715,-4.3510926534591e-09,7.5041906761848e-09,-1.0516183454402e-08,1.3473456137693e-08,-0.0016295914504788,0.0016295944228805,-0.0017649815665459,0.0017649726921655,-0.0017649737357266,0.0017649806846939,-0.001764977733217,0.0017649766399869,-0.0017649699318925,0.001764984600724,-0.0014371740427401,0.0014371574014743,-0.0014371507953222,0.0014371812123329,-0.0015119328221259,0.0015119321764687,-0.0015119212947416,0.0015119440277602,-7.7353496994206e-09,7.2663761037346e-09,-0.00089167644549708,0.00089167592562031,1.1853470574758e-08,-1.2756846548418e-08,-0.0010443622430229,0.0010443649978758,-0.0010443704399649,0.0010443568382911,-0.00104435721522,0.001044370005506,-0.001044365442581,0.0010443618149135,-0.00092667658844924,0.00092668252548729,-0.00092669122226436,0.0009266678801415,0.71386318047629,128566,2924,0.0047158183978475,0.0067649676152265,0.0037121051729852,20.804857084869,-7.3561143321046e-05,-7.3561143321046e-05,-7.3561143321046e-05,3525713.1675817,0.015309944991843
26019200,0.99291111680042,0.015627348928777,0.0049600651816543,0.0065115932940257,0.0041556904530969,-0.0011343208570433,0.0011343198636614,6.9938216390184e-09,-8.005456121541e-09,5.3233543390963e-09,-6.5351846188899e-09,-0.0012787298230773,0.0012787377446897,-0.0012787347897358,0.001278732742957,-0.00127873358024,0.0012787338028269,-0.0012787385906771,0.0012787288031603,-0.0010878916912953,0.0010879014412861,-0.0010879063973395,0.0010878867278931,-4.3734995048275e-09,7.5292373944365e-09,-1.0796738221588e-08,1.3756360276225e-08,-0.0016297379538961,0.0016297409283046,-0.0017651163292369,0.0017651072451939,-0.0017651083091819,0.0017651154337135,-0.0017651124827289,0.0017651112070261,-0.001765104483332,0.001765119372737,-0.0014372944249179,0.0014372772303469,-0.001437270610146,0.0014373016211457,-0.0015120470532185,0.0015120465442548,-0.0015120354685129,0.001512058458149,-7.7916416924263e-09,7.3532340117852e-09,-0.00089151951630619,0.00089151902704441,1.1721385057174e-08,-1.2591220311277e-08,-0.0010443498507503,0.001044352491713,-0.0010443579512498,0.0010443444279883,-0.0010443447800735,0.0010443575434024,-0.001044352902342,0.0010443494570307,-0.00092655519705748,0.0009265614215007,-0.00092656998432704,0.0009265466230731,0.68688290623305,128566,2924,0.004715384261284,0.0067655683072868,0.0037114612372488,20.675816961625,-7.4593464306999e-05,-7.4593464306999e-05,-7.4593464306999e-05,3518796.3657207,0.015309462205459
26219200,0.99310261011581,0.015630413940325,0.0049610345203983,0.0065128743798342,0.0041565050400923,-0.0011342122318224,0.0011342112425177,7.06025262375e-09,-8.0677991819236e-09,5.3066195071906e-09,-6.5140640049337e-09,-0.001278672169076,0.0012786801250344,-0.0012786771774551,0.0012786750788758,-0.0012786759123926,0.00127867619452,-0.0012786809669152,0.0012786711532856,-0.0010878320928903,0.0010878419841706,-0.0010878469274524,0.0010878271468462,-4.3584922279366e-09,7.5126442986971e-09,-1.0843667874037e-08,1.3801880223798e-08,-0.0016298061414518,0.0016298091144358,-0.0017651940034609,0.0017651849061246,-0.0017651859602158,0.0017651931188367,-0.001765190168576,0.0017651888560647,-0.0017651821460225,0.0017651970458008,-0.0014373239905784,0.0014373066976167,-0.0014373000907665,0.0014373311753448,-0.0015120981434773,0.0015120976935976,-0.0015120865902183,0.0015121095758185,-7.8590644389338e-09,7.4160355482377e-09,-0.00089137347573163,0.00089137298169144,1.1751067205287e-08,-1.2626253835212e-08,-0.0010442681296919,0.0010442707447492,-0.001044276252198,0.0010442626589367,-0.0010442630157483,0.0010442758396322,-0.001044271159768,0.0010442677316291,-0.00092642770230046,0.00092643402871426,-0.00092644261635778,0.0009264191011149,0.7252466011019,128566,2924,0.0047149340917655,0.0067658475469535,0.0037108590458421,20.537779284764,-7.5697765721886e-05,-7.5697765721886e-05,-7.5697765721886e-05,3515703.8843679,0.015308677568347
26419200,0.99328738874294,0.015633458641728,0.00496199855307,0.0065141418304109,0.0041573182582472,-0.0011340983822748,0.0011340973943625,7.1255014323261e-09,-8.1316683776357e-09,5.3000825757496e-09,-6.5057850272626e-09,-0.001278653325316,0.0012786613206369,-0.0012786583764491,0.0012786562311739,-0.0012786570635091,0.0012786573948327,-0.0012786621612396,0.0012786523107598,-0.0010878018688798,0.0010878118927539,-0.0010878168295197,0.0010877969283497,-4.352137071494e-09,7.5056292011212e-09,-1.0868281053004e-08,1.3825900274296e-08,-0.0016299244636508,0.001629927436048,-0.0017652916221254,0.0017652825139141,-0.0017652835642067,0.0017652907418399,-0.0017652877917646,0.0017652864591377,-0.0017652797545593,0.0017652946640676,-0.0014374273288791,0.0014374099841602,-0.0014374033831546,0.0014374345093425,-0.0015121908876244,0.0015121904661834,-0.0015121793471492,0.0015122023343833,-7.9256783191277e-09,7.4792827680123e-09,-0.00089120944385844,0.00089120894633787,1.1771699771094e-08,-1.265092299308e-08,-0.0010442417894216,0.0010442443729586,-0.0010442499269498,0.00104423627202,-0.0010442366321655,0.001044249511076,-0.0010442447913028,0.0010442413880747,-0.00092630101207446,0.0009263074469397,-0.00092631605319676,0.00092629239211596,0.74502754485339,128566,2924,0.0047144629610628,0.0067663319096446,0.0037101850527171,20.399402449881,-7.680478040095e-05,-7.680478040095e-05,-7.680478040095e-05,3507840.0347592,0.01530800856476
26619200,0.99346978485418,0.015636435639995,0.0049629406270133,0.0065153831803253,0.0041581118326565,-0.0011346525490777,0.0011346515505649,7.1959683818665e-09,-8.2123131316434e-09,5.3384511880542e-09,-6.5568375420551e-09,-0.0012793411440633,0.0012793492108814,-0.001279346246913,0.0012793440692698,-0.0012793449130456,0.0012793452536417,-0.0012793500599645,0.0012793401207582,-0.0010884671352341,0.0010884772638674,-0.0010884822402679,0.001088462156099,-4.3693640529274e-09,7.5243727232253e-09,-1.0783958081483e-08,1.3742948587942e-08,-0.0016307929440189,0.0016307959177909,-0.0017661250263437,0.0017661159649076,-0.0017661170247505,0.0017661241348307,-0.0017661211859314,0.0017661199206255,-0.0017661132019808,0.0017661280703424,-0.0014382753277639,0.0014382581560373,-0.0014382515383219,0.0014382825177505,-0.0015130263628565,0.0015130258472336,-0.0015130147856077,0.0015130377582358,-7.980465515069e-09,7.5324633986306e-09,-0.00089167900520358,0.00089167850637235,1.177903631232e-08,-1.2658616584626e-08,-0.0010449106664212,0.0010449132191269,-0.0010449188105032,0.0010449051114943,-0.0010449054744251,0.0010449183912685,-0.0010449136372336,0.001044910264598,-0.00092684099844474,0.00092684753512532,-0.00092685615133666,0.00092683237170091,0.73848439043026,128566,2924,0.0047167621606833,0.0067699181990369,0.0037121451174206,20.629737672536,-7.4962098619713e-05,-7.4962098619713e-05,-7.4962098619713e-05,3502993.3529207,0.01531597722115
26819200,0.9936520000174,0.015639334276865,0.0049638566247765,0.0065165970606525,0.0041588805914356,-0.0011355758520529,0.0011355748482325,7.2500377068541e-09,-8.2717611567147e-09,5.3628123057432e-09,-6.5863387169909e-09,-0.0012804007149694,0.0012804088307795,-0.0012804058551797,0.0012804036534318,-0.0012804045014373,0.0012804048575828,-0.0012804096862009,0.0012803996852875,-0.0010894978677545,0.0010895080874711,-0.0010895130854654,0.0010894928641239,-4.4170167118773e-09,7.5766687462648e-09,-1.0759502889984e-08,1.3722621943084e-08,-0.0016320512398178,0.0016320542177119,-0.0017673575668778,0.0017673484878994,-0.0017673495764727,0.0017673566453427,-0.0017673536924586,0.0017673524786549,-0.0017673457222766,0.0017673606139029,-0.0014394977752815,0.0014394806866721,-0.0014394740318144,0.0014395050029587,-0.0015142499649236,0.0015142493432112,-0.0015142382911777,0.0015142613497032,-8.044550335649e-09,7.6140622645591e-09,-0.00089250508210081,0.00089250460098119,1.1690661780866e-08,-1.2551252338814e-08,-0.0010459362796215,0.0010459387350291,-0.0010459443577526,0.0010459306935155,-0.0010459310380827,0.0010459439572183,-0.0010459391369858,0.0010459358945456,-0.00092774395069636,0.00092775071109645,-0.00092775924246732,0.00092773540721592,0.72121904181711,128566,2924,0.0047205918182921,0.0067751174453172,0.0037155858755854,21.064284268856,-7.1485725849154e-05,-7.1485725849154e-05,-7.1485725849154e-05,3502527.9957966,0.015328640771971
27019200,0.99383393488446,0.015642145517053,0.0049647435330762,0.0065177802111006,0.0041596217728765,-0.0011365060961789,0.0011365050930876,7.2940102113147e-09,-8.3149553305665e-09,5.3619274678479e-09,-6.5849467583378e-09,-0.0012814451785693,0.0012814533209797,-0.0012814503457512,0.0012814481174274,-0.0012814489613564,0.0012814493508259,-0.0012814541793742,0.0012814441486509,-0.0010905154355901,0.0010905257502538,-0.0010905307500324,0.0010905104373887,-4.4666017893225e-09,7.6318775463209e-09,-1.0790155746678e-08,1.3758439025661e-08,-0.001633286375952,0.0016332893590022,-0.001768585067183,0.0017685759354414,-0.0017685770540398,0.0017685841177628,-0.0017685811565935,0.0017685799636938,-0.001768573168307,0.0017685881187583,-0.0014406841771608,0.0014406670718659,-0.001440660379598,0.0014406914466769,-0.0015154526715446,0.0015154519813692,-0.0015154409036211,0.0015154640851355,-8.1178352404594e-09,7.7128033063141e-09,-0.00089334442299412,0.00089334396723693,1.1576427425912e-08,-1.2408432371459e-08,-0.0010469375280926,0.0010469398623621,-0.001046945518197,0.0010469319093479,-0.0010469322266749,0.001046945144317,-0.0010469402427358,0.0010469371653618,-0.00092864693109693,0.0009286539625494,-0.00092866238288676,0.00092863849730348,0.70228504784852,128566,2924,0.0047244498558239,0.0067802221265756,0.0037190800684425,21.503863020493,-6.7969095836054e-05,-6.7969095836054e-05,-6.7969095836054e-05,3504854.8527804,0.015341290723248
27219200,0.99401543195866,0.01564486081192,0.0049655985699782,0.0065189293165859,0.004160332925356,-0.0011374393146419,0.0011374383016151,7.3771770316659e-09,-8.4080150168537e-09,5.4003634647208e-09,-6.6340755222525e-09,-0.0012824654550201,0.0012824736784825,-0.0012824706830499,0.0012824684120096,-0.0012824692689059,0.0012824696758631,-0.0012824745425783,0.0012824644171073,-0.0010915113773538,0.0010915218155026,-0.0010915268531712,0.0010915063364141,-4.4544414069315e-09,7.6176265790899e-09,-1.0672159975897e-08,1.363835336049e-08,-0.0016344827946455,0.0016344857756701,-0.001769792973001,0.0017697839338404,-0.0017697850433589,0.0017697920290628,-0.0017697890747769,0.0017697879493615,-0.0017697811640234,0.0017697960232325,-0.0014418193976304,0.0014418025095759,-0.0014417958241723,0.0014418266520855,-0.0015166188545469,0.0015166181011932,-0.0015166071050113,0.0015166301857466,-8.1649863719512e-09,7.7483761674424e-09,-0.00089419272134618,0.00089419225422166,1.1620354690817e-08,-1.2465003278008e-08,-0.0010479034068357,0.0010479057391375,-0.0010479114331553,0.0010478977491653,-0.0010478980804987,0.0010479110454604,-0.0010479061272615,0.0010479030353178,-0.00092954427777202,0.0009295513532153,-0.00092955981840942,0.00092953579870078,0.68191771594125,128566,2924,0.0047283198353673,0.0067851681402214,0.0037226093186249,21.943631875426,-6.4450944996595e-05,-6.4450944996595e-05,-6.4450944996595e-05,3509799.6998781,0.015353826594325
27419200,0.99419490743464,0.015647632907121,0.0049664727550351,0.0065200964425488,0.0041610637095373,-0.0011381448499907,0.0011381438458569,7.3951905917592e-09,-8.4172543838153e-09,5.366656408371e-09,-6.5904438546406e-09,-0.0012832197750899,0.0012832279859269,-0.0012832250084836,0.0012832227168444,-0.0012832235596831,0.0012832240142741,-0.0012832288478024,0.0012832187427517,-0.0010922514758609,0.0010922619903114,-0.0010922669945029,0.0010922464715072,-4.4706273998135e-09,7.634936384052e-09,-1.0748842280364e-08,1.3716201787509e-08,-0.0016353833147235,0.0016353862972813,-0.001770723392055,0.0017707142855635,-0.0017707154055727,0.0017707224409907,-0.0017707194776291,0.0017707183177494,-0.0017707115198665,0.0017707264420086,-0.0014426511282855,0.0014426341132947,-0.0014426274191898,0.0014426583981938,-0.0015174962801491,0.0015174955567732,-0.00151748450717,0.0015175076585466,-8.2736642408783e-09,7.8716827554897e-09,-0.00089482688095552,0.00089482642819515,1.1558448666974e-08,-1.2387172390275e-08,-0.0010485965815063,0.0010485987994983,-0.0010486045572907,0.0010485908610735,-0.0010485911732586,0.0010486041883254,-0.0010485991789388,0.001048596220146,-0.00093020861436369,0.00093021596223579,-0.00093022436789145,0.00093020019443652,0.70214877405231,128566,2924,0.0047312453568984,0.0067888918106806,0.0037252467263876,22.251977515971,-6.1984179872232e-05,-6.1984179872232e-05,-6.1984179872232e-05,3515356.4820657,0.015363255907531
27619200,0.99437183443784,0.015650408922824,0.0049673487183773,0.0065212626631125,0.004161797541334,-0.0011387742212187,0.0011387732214048,7.4567970842213e-09,-8.4745725228039e-09,5.3502028475105e-09,-6.5692636223292e-09,-0.0012839202978706,0.0012839285397364,-0.0012839255698936,0.0012839232301668,-0.0012839240684404,0.0012839245805573,-0.0012839293970496,0.0012839192681213,-0.0010929314952704,0.001092942143554,-0.0010929471312722,0.0010929265063075,-4.4503242255321e-09,7.6129747949046e-09,-1.077648401834e-08,1.3742204232094e-08,-0.0016362305313072,0.001636233511889,-0.0017715849871848,0.001771575876171,-0.0017715769845748,0.0017715840472203,-0.0017715810865374,0.0017715798941306,-0.0017715731134,0.0017715880331997,-0.0014434429154484,0.0014434258359188,-0.001443419156749,0.0014434501697253,-0.0015183142353365,0.0015183135757066,-0.0015183025096551,0.0015183256349266,-8.3459971019623e-09,7.939439519908e-09,-0.00089538060794368,0.00089538015071673,1.1574261141149e-08,-1.2408204146732e-08,-0.0010492471507824,0.0010492493291593,-0.0010492551374666,0.0010492413789235,-0.001049241695305,0.001049254765127,-0.0010492497132987,0.0010492467838809,-0.00093080231295374,0.00093080978015902,-0.00093081820110837,0.00093079387715803,0.71252806132854,128566,2924,0.0047338554973573,0.0067923937321038,0.003727551546369,22.519007222445,-5.9847942220437e-05,-5.9847942220437e-05,-5.9847942220437e-05,3517415.1554052,0.015371803117455
27819200,0.99454614359785,0.015653190780243,0.004968227152482,0.0065224285361952,0.0041625350915663,-0.001139398856574,0.0011393978579781,7.5474820805849e-09,-8.5640749109347e-09,5.3441552303309e-09,-6.5618888180362e-09,-0.0012846286785602,0.0012846369797591,-0.0012846340128236,0.0012846316071515,-0.0012846324470582,0.0012846330224539,-0.0012846378331636,0.0012846276522534,-0.0010936174130026,0.0010936282356212,-0.0010936332170848,0.0010936124286958,-4.4205660826229e-09,7.5802787358644e-09,-1.0771793604805e-08,1.3734891130445e-08,-0.0016370890678305,0.0016370920457686,-0.0017724496856131,0.0017724405999647,-0.0017724416901284,0.0017724487635498,-0.0017724458078096,0.0017724445943154,-0.0017724378367588,0.0017724527310338,-0.0014442504071076,0.0014442333096123,-0.0014442266533912,0.0014442576376014,-0.0015191410647614,0.0015191404522256,-0.0015191293930403,0.0015191524562892,-8.3910103986936e-09,7.9731924776414e-09,-0.00089592678087865,0.0008959263123254,1.1626741023513e-08,-1.247316031278e-08,-0.0010499108808373,0.0010499130633987,-0.0010499189089709,0.0010499050717132,-0.0010499054015652,0.0010499185230545,-0.0010499134560439,0.0010499105052831,-0.00093139633209546,0.00093140383318804,-0.00093141230462454,0.00093138784614102,0.72383355439993,128566,2924,0.0047364461728661,0.0067959417207689,0.0037298260110608,22.784998630297,-5.7720010957625e-05,-5.7720010957625e-05,-5.7720010957625e-05,3518021.99421,0.015380347036791
28019200,0.99471777914492,0.015655980285223,0.0049691086629444,0.0065235947249471,0.0041632768973314,-0.001140019102789,0.0011400181063335,7.6314764780254e-09,-8.6459642777726e-09,5.3347609713264e-09,-6.5500795952116e-09,-0.0012853462570159,0.0012853546100653,-0.0012853516480096,0.0012853491805831,-0.0012853500203531,0.0012853506581983,-0.0012853554595747,0.0012853452342359,-0.0010943111444995,0.0010943221337287,-0.0010943271054113,0.0010943061690367,-4.3999290123654e-09,7.5575566207741e-09,-1.0780223499278e-08,1.3741450454121e-08,-0.0016379623824017,0.0016379653584582,-0.0017733203346428,0.0017733112569317,-0.0017733123349292,0.0017733194247223,-0.0017733164721521,0.0017733152353343,-0.0017733084937936,0.0017733233795769,-0.0014450775471144,0.0014450604128642,-0.0014450537731025,0.0014450847617811,-0.001519980704576,0.0015199801324653,-0.0015199690695075,0.0015199920984686,-8.4416805076941e-09,8.0157383112988e-09,-0.00089646531619869,0.00089646483942802,1.166486925134e-08,-1.2520456358039e-08,-0.001050588966089,0.0010505911396846,-0.001050597024359,0.0010505831179073,-0.0010505834574853,0.001050596628744,-0.0010505915385458,0.001050588584255,-0.00093199080947182,0.00093199837076155,-0.00093200687906897,0.00093198228733155,0.73612508734447,128566,2924,0.0047390188238541,0.0067995500232828,0.0037320698422296,23.050950642427,-5.5592394860581e-05,-5.5592394860581e-05,-5.5592394860581e-05,3517264.3504075,0.015388903295023
28219200,0.9948860249632,0.015658768342302,0.0049699903995363,0.0065247573659529,0.0041640205768126,-0.0011405117503385,0.0011405107572976,7.7230231710041e-09,-8.7343268765999e-09,5.3214415746715e-09,-6.5325314478837e-09,-0.0012859465429933,0.0012859549504671,-0.0012859519954735,0.0012859494598215,-0.0012859502980903,0.0012859510076663,-0.0012859557952131,0.0012859455249272,-0.0010948902645757,0.0010949014385328,-0.0010949063968053,0.0010948853019356,-4.3896304839784e-09,7.5465645843968e-09,-1.081405329386e-08,1.3774703182097e-08,-0.0016387193529304,0.0016387223283456,-0.0017740654281429,0.0017740563351176,-0.0017740574072803,0.0017740645247398,-0.0017740615739199,0.0017740603052579,-0.0017740535715627,0.0017740684740824,-0.0014457971047319,0.0014457798915702,-0.0014457732622312,0.001445804313981,-0.001520703301058,0.0015207027666021,-0.0015206916803969,0.0015207147147508,-8.482672957912e-09,8.0539864973467e-09,-0.00089687703652788,0.00089687655684519,1.1679480470653e-08,-1.2538769248004e-08,-0.001051158285237,0.0010511604422225,-0.0010511663561073,0.0010511524080718,-0.0010511527520125,0.001051165956384,-0.0010511608425325,0.0010511579025192,-0.00093246093542259,0.00093246856649401,-0.00093247708696263,0.00093245239981713,0.74948916209307,128566,2924,0.0047410625372625,0.0068026762019109,0.0037337879592132,23.250811564371,-5.3993507485032e-05,-5.3993507485032e-05,-5.3993507485032e-05,3514319.8960863,0.015395899520634
28419200,0.99505078872028,0.015661555939527,0.0049708727117426,0.0065259167392272,0.0041647664885569,-0.0011409795856662,0.0011409785930181,7.7725751651548e-09,-8.7833748054903e-09,5.3179072164544e-09,-6.5289684599658e-09,-0.0012865344689638,0.001286542905943,-0.0012865399527517,0.0012865373837558,-0.0012865382203506,0.0012865389663443,-0.0012865437514164,0.0012865334503612,-0.0010954594920365,0.0010954707692957,-0.0010954757245686,0.001095454532811,-4.3856354920226e-09,7.5419301103298e-09,-1.0826333995751e-08,1.378638899975e-08,-0.0016394717867691,0.0016394747616357,-0.0017747956810465,0.0017747865816539,-0.0017747876516449,0.0017747947802593,-0.0017747918283594,0.0017747905499197,-0.0017747838198001,0.0017747987255292,-0.0014465190042939,0.0014465017673073,-0.0014464951407541,0.0014465262097513,-0.001521421224257,0.0015214207088226,-0.0015214096161458,0.0015214326463604,-8.5643502277808e-09,8.1329868486975e-09,-0.00089726122373171,0.00089726074134902,1.1695407762262e-08,-1.2557418188706e-08,-0.0010517207267093,0.0010517228376567,-0.0010517288079287,0.0010517147930855,-0.0010517151385401,0.0010517284064744,-0.0010517232414924,0.0010517203401039,-0.00093291021460897,0.00093291798587323,-0.00093292652132912,0.00093290166498471,0.76402415759333,128566,2924,0.0047430035223324,0.0068057827512204,0.0037353928103671,23.44143877517,-5.2468489798637e-05,-5.2468489798637e-05,-5.2468489798637e-05,3510003.0419846,0.015402656902596
28619200,0.99521207544509,0.015664303588299,0.004971742510391,0.0065270589170393,0.0041655021608692,-0.0011414352616239,0.0011414342686729,7.8234278030442e-09,-8.8344769658722e-09,5.3188260651011e-09,-6.5299999429253e-09,-0.0012871248882297,0.001287133358542,-0.0012871304050882,0.0012871278031793,-0.001287128639422,0.001287129419097,-0.0012871342052037,0.0012871238682747,-0.0010960311896506,0.0010960425685357,-0.001096047524448,0.0010960262292639,-4.3858792208122e-09,7.5421062024797e-09,-1.0832054510405e-08,1.3792028393353e-08,-0.0016402373227475,0.0016402402975526,-0.0017755284186741,0.0017755193145301,-0.0017755203848347,0.0017755275177723,-0.001775524565079,0.0017755232837317,-0.0017755165535537,0.0017755314622953,-0.0014472607260358,0.0014472434802365,-0.0014472368536825,0.0014472679316111,-0.0015221514186216,0.0015221509089766,-0.0015221398121151,0.0015221628440906,-8.6437628876867e-09,8.2107677503449e-09,-0.00089762996818959,0.0008976294841404,1.1704636067138e-08,-1.2568640931842e-08,-0.0010522906566134,0.0010522927195,-0.0010522987438156,0.0010522846689116,-0.0010522850150836,0.001052298341658,-0.0010522931257097,0.0010522902675771,-0.00093335069255952,0.00093335860665527,-0.00093336715056427,0.00093334213486758,0.76896078634433,128566,2924,0.0047448942386551,0.0068089425770405,0.0037369346805867,23.631821700764,-5.094542639389e-05,-5.094542639389e-05,-5.094542639389e-05,3504534.5152285,0.015409353814075
28819200,0.99536991539027,0.015666919765394,0.0049725694960128,0.0065281513944166,0.0041661988749642,-0.0011418808933103,0.0011418798987889,7.8753291391834e-09,-8.8879706630298e-09,5.3231903600855e-09,-6.5365584955072e-09,-0.0012877079346376,0.0012877164419721,-0.0012877134861614,0.0012877108519043,-0.0012877116889523,0.0012877124993863,-0.0012877172903249,0.0012877069128334,-0.0010965946196055,0.0010966060983283,-0.0010966110592286,0.0010965896541289,-4.3901993775402e-09,7.5468750503829e-09,-1.0829397027001e-08,1.3789764100819e-08,-0.0016410005277477,0.0016410035029093,-0.0017762573241193,0.0017762482184004,-0.0017762492913719,0.0017762564204282,-0.0017762534672009,0.0017762521911941,-0.0017762454576533,0.0017762603676124,-0.0014480015869891,0.0014479843507634,-0.0014479777199967,0.001448008795179,-0.00152287925152,0.0015228787332438,-0.0015228676387197,0.0015228906771115,-8.7206762177799e-09,8.2875026304467e-09,-0.00089798931798016,0.00089798883378174,1.1706701985878e-08,-1.2570657899477e-08,-0.0010528539792228,0.0010528559914645,-0.001052862067205,0.0010528479400735,-0.0010528482859583,0.0010528616653408,-0.0010528563983522,0.0010528535894476,-0.00093378162143419,0.00093378968238553,-0.00093379822792424,0.00093377306195559,0.74978434038392,128566,2924,0.0047467432559047,0.0068120925412116,0.0037384377583322,23.824416517308,-4.9404667861538e-05,-4.9404667861538e-05,-4.9404667861538e-05,3499285.8881614,0.015415958998258
29019200,0.99552544680556,0.015669354002,0.0049733366972971,0.0065291772927802,0.0041668400119226,-0.0011425521614486,0.0011425511642129,7.9603219325262e-09,-8.9755230711961e-09,5.3343695895935e-09,-6.5507550166956e-09,-0.0012884919784105,0.0012885005500492,-0.0012884975887766,0.0012884949015837,-0.0012884957418275,0.0012884965983608,-0.0012885014005085,0.0012884909548533,-0.0010973623755515,0.0010973740102263,-0.0010973789823623,0.0010973573998855,-4.4090672117879e-09,7.5674748897778e-09,-1.0820812121676e-08,1.3782718877399e-08,-0.0016419596407605,0.0016419626174826,-0.0017772015023806,0.0017771923908696,-0.0017771934753218,0.0017772005871894,-0.0017771976333879,0.0017771963761867,-0.0017771896279932,0.0017772045483918,-0.0014489209876675,0.0014489037794658,-0.0014488971337013,0.0014489282101283,-0.0015238054724373,0.0015238049097981,-0.0015237938193319,0.0015238168951532,-8.7604880662905e-09,8.3340697551756e-09,-0.00089856844991792,0.00089856797258449,1.1675085389655e-08,-1.2531371956338e-08,-0.0010535989518026,0.0010536009192968,-0.0010536070168535,0.0010535928908252,-0.0010535932307119,0.0010536066209221,-0.0010536013187471,0.0010535985694441,-0.00093442269483452,0.00093443087315369,-0.00093443938833988,0.00093441416628512,0.71130252908009,128566,2924,0.0047495274501671,0.0068160544527962,0.0037408518110254,24.140181296001,-4.687854963199e-05,-4.687854963199e-05,-4.687854963199e-05,3498632.3749103,0.015425262477169
29219200,0.99567862293057,0.015671692122468,0.0049740725926451,0.0065301666530591,0.0041674528767637,-0.001143240610953,0.0011432396110804,8.0394476246215e-09,-9.0572809191942e-09,5.3448439311702e-09,-6.5640679561709e-09,-0.0012892387260842,0.0012892473570669,-0.0012892443904478,0.0012892416545509,-0.0012892424978993,0.001289243396809,-0.0012892482095383,0.0012892377006456,-0.0010981051371466,0.0010981169167558,-0.0010981218994617,0.0010981001506537,-4.4222554875422e-09,7.5818661526052e-09,-1.0802938006071e-08,1.3765898141261e-08,-0.0016428531711522,0.0016428561489439,-0.0017781146719052,0.0017781055652864,-0.0017781066573585,0.0017781137486125,-0.0017781107946089,0.0017781095590654,-0.0017781028006783,0.0017781177195599,-0.0014497503035688,0.0014497331383055,-0.0014497264825263,0.001449757536131,-0.001524677003673,0.0015246764014194,-0.001524665321847,0.001524688415886,-8.8074238803785e-09,8.3854113962733e-09,-0.00089917584668895,0.00089917537377223,1.1653102206521e-08,-1.2504467386778e-08,-0.0010542860056932,0.0010542879291706,-0.0010542940552588,0.0010542799161985,-0.0010542802523845,0.00105429366293,-0.0010542883237382,0.0010542856282512,-0.00093506412726255,0.00093507242424065,-0.00093508091890719,0.00093505561883963,0.69516966657605,128566,2924,0.0047523821438697,0.0068197480947133,0.0037433792290012,24.45891868083,-4.4328650553361e-05,-4.4328650553361e-05,-4.4328650553361e-05,3503070.7077478,0.015434478594803
29419200,0.99582937197075,0.015673832264264,0.0049747434409727,0.0065310835780239,0.0041680052452672,-0.0011439328272628,0.0011439318243173,8.0777105904605e-09,-9.0986180964122e-09,5.3568066229921e-09,-6.5793804283854e-09,-0.001289966031065,0.0012899746939391,-0.0012899717211752,0.0012899689654643,-0.0012899698113495,0.0012899707250706,-0.0012899755496509,0.0012899650020082,-0.0010988253243584,0.0010988371709959,-0.0010988421654749,0.0010988203252518,-4.4274454926381e-09,7.5874145302826e-09,-1.0769471894085e-08,1.3732706079609e-08,-0.0016437068292121,0.0016437098072787,-0.0017790053838294,0.0017789962956961,-0.001778997390626,0.0017790044568074,-0.0017790015026208,0.0017790002935179,-0.0017789935309764,0.0017790084308118,-0.0014505304025063,0.0014505133081085,-0.0014505066477591,0.0014505376381832,-0.0015255079283294,0.0015255072950281,-0.0015254962372721,0.0015255193186871,-8.8972566577657e-09,8.4752840136199e-09,-0.00089979101898431,0.0008997905461833,1.165025921899e-08,-1.2501477414113e-08,-0.001054944448546,0.0010549463097073,-0.0010549524956732,0.0010549382990602,-0.0010549386347128,0.0010549521038829,-0.0010549467045509,0.0010549440706521,-0.00093569755189213,0.00093570602573658,-0.00093571451838476,0.00093568904542269,0.65089857274414,128566,2924,0.004755252209156,0.0068232783241302,0.0037459368228563,24.777768203727,-4.1777854370181e-05,-4.1777854370181e-05,-4.1777854370181e-05,3509440.1796967,0.015443574520225
29619200,0.9959775439504,0.015675903831163,0.0049753922478272,0.0065319731319717,0.0041685384513646,-0.0011446235767066,0.0011446225732348,8.141439543831e-09,-9.1628599157335e-09,5.3592215479586e-09,-6.5821039193611e-09,-0.0012906289162216,0.0012906376230249,-0.001290634649336,0.0012906318517188,-0.0012906326982011,0.0012906336525264,-0.0012906384793397,0.0012906278865281,-0.0010994902544479,0.0010995022244873,-0.0010995072211905,0.0010994852531778,-4.429946909751e-09,7.5899316591507e-09,-1.0759193990656e-08,1.3722400536495e-08,-0.0016444623273926,0.0016444653054433,-0.0017798372986306,0.0017798282151015,-0.0017798293117864,0.0017798363697688,-0.0017798334156451,0.0017798322146914,-0.0017798254501769,0.0017798403454489,-0.0014511871211556,0.001451170048289,-0.0014511633859857,0.0014511943584073,-0.0015262512427019,0.0015262505976657,-0.0015262395465076,0.0015262626260356,-8.9620462296652e-09,8.5417567006244e-09,-0.00090042071802277,0.0009004202469173,1.1641091676993e-08,-1.2490573068775e-08,-0.0010555181925949,0.0010555200052206,-0.0010555262329823,0.001055512001138,-0.0010555123351489,0.0010555258428367,-0.0010555203983188,0.0010555178162996,-0.00093631695500698,0.00093632556550102,-0.00093633404964895,0.00093630845706381,0.64191385967867,128566,2924,0.004758115452906,0.0068264060315505,0.0037485501085326,25.087394542258,-3.9300843661933e-05,-3.9300843661933e-05,-3.9300843661933e-05,3521092.4423772,0.015452309527762
29819200,0.99612259131337,0.015678058331496,0.0049760693241569,0.0065328883977837,0.0041691006095557,-0.0011452227836562,0.0011452217823727,8.2110983412732e-09,-9.2304146273642e-09,5.3508063892675e-09,-6.5711515931236e-09,-0.001291184886465,0.0012911936344495,-0.0012911906648862,0.0012911878175924,-0.001291188661591,0.0012911896704703,-0.0012911944886781,0.001291183858282,-0.0011000490931914,0.0011000612058669,-0.0011000661952803,0.0011000441005509,-4.4259990324736e-09,7.5856569155059e-09,-1.0777519860754e-08,1.3740348580077e-08,-0.0016450920657369,0.0016450950433431,-0.0017805515301461,0.001780542436489,-0.0017805435313794,0.0017805506030832,-0.0017805476495562,0.0017805464336188,-0.0017805396728753,0.0017805545757629,-0.0014517167314462,0.0014516996209101,-0.0014516929620428,0.0014517239668893,-0.0015268711121563,0.001526870490131,-0.001526859426215,0.0015268825100718,-9.0223422812192e-09,8.6033788190319e-09,-0.00090096654898643,0.000900966079265,1.1631114803662e-08,-1.2479540503049e-08,-0.0010559860361862,0.0010559878026401,-0.0010559940694581,0.0010559798054361,-0.0010559801379392,0.0010559936812572,-0.0010559881945706,0.0010559856608673,-0.00093684707621007,0.00093685581489531,-0.00093686428994864,0.00093683858751129,0.67837703435385,128566,2924,0.0047605991362901,0.0068290143284987,0.0037508139354807,25.339672560983,-3.7282619512135e-05,-3.7282619512135e-05,-3.7282619512135e-05,3532312.0981279,0.015459776647548
30019200,0.99626448502974,0.015680200264785,0.0049767429867266,0.0065337960858384,0.0041696611922205,-0.0011458153702368,0.0011458143686398,8.2782790109903e-09,-9.2978681659822e-09,5.34707056792e-09,-6.5677482445053e-09,-0.0012917918602031,0.0012918006511424,-0.0012917976842834,0.0012917947886652,-0.0012917956340877,0.0012917966887953,-0.0012918015050066,0.0012917908328479,-0.0011006420783091,0.001100654323158,-0.0011006593092877,0.0011006370873225,-4.4157865263998e-09,7.5742038046847e-09,-1.0764527839417e-08,1.37263070798e-08,-0.0016457828716143,0.0016457858482451,-0.0017812933304218,0.001781284253049,-0.0017812853412606,0.0017812924100467,-0.0017812894578256,0.0017812882419801,-0.0017812814888631,0.0017812963763474,-0.0014523307265877,0.0014523136316964,-0.0014523069810795,0.0014523379527436,-0.001527538167359,0.0015275375516553,-0.0015275264983204,0.0015275495517898,-9.0868794302658e-09,8.6633907986888e-09,-0.00090149006192622,0.00090148958757598,1.1655544450206e-08,-1.2508636092336e-08,-0.0010565244811862,0.0010565262198516,-0.0010565325329838,0.0010565182044675,-0.0010565185422431,0.001056532139166,-0.0010565266155185,0.0010565241024393,-0.0009373829561303,0.00093739179589321,-0.00093740029389746,0.00093737444429974,0.68873090066138,128566,2924,0.0047630562279971,0.0068318721730444,0.0037529891241839,25.590562155433,-3.5275502756536e-05,-3.5275502756536e-05,-3.5275502756536e-05,3537336.9152386,0.015467382303947
30219200,0.99640321120216,0.015682198624571,0.0049773699072203,0.0065346497364299,0.0041701789809211,-0.0011464001271396,0.0011463991279475,8.3446256618368e-09,-9.3618102556384e-09,5.3397100087323e-09,-6.5578941204832e-09,-0.001292410727004,0.0012924195575541,-0.001292416594022,0.0012924136521993,-0.0012924144947027,0.0012924156013515,-0.0012924204095844,0.0012924097016275,-0.0011012382051342,0.001101250587235,-0.0011012555655068,0.0011012332226645,-4.4113069812468e-09,7.5692076144913e-09,-1.0783313235359e-08,1.3744616928211e-08,-0.0016464852422875,0.0016464882184218,-0.0017820363798964,0.0017820272922973,-0.0017820283781499,0.0017820354623452,-0.0017820325098748,0.0017820312785889,-0.0017820245293124,0.0017820394250111,-0.0014529627012205,0.001452945567511,-0.0014529389208526,0.0014529699242208,-0.0015282106030723,0.0015282100100825,-0.0015281989448363,0.0015282219996031,-9.1509045559083e-09,8.7282247871514e-09,-0.00090200169116265,0.00090200121759853,1.1652181580204e-08,-1.2504397780218e-08,-0.0010570800713168,0.0010570817647707,-0.0010570881201215,0.0010570737523846,-0.0010570740889557,0.001057087727564,-0.0010570821601831,0.0010570796928512,-0.00093791456668603,0.00093792353463931,-0.00093793202929865,0.00093790605827439,0.66008312664233,128566,2924,0.0047654810746884,0.0068347769209771,0.0037551162104145,25.841399284002,-3.3268805727982e-05,-3.3268805727982e-05,-3.3268805727982e-05,3540547.4207088,0.015474954734173
30419200,0.99653905160267,0.015684042103044,0.0049779463447385,0.0065354452784594,0.0041706504798457,-0.0011470569491897,0.0011470559516604,8.4108143492462e-09,-9.4263263839431e-09,5.3351059624011e-09,-6.5516971463259e-09,-0.001293064068457,0.0012930729409233,-0.0012930699792216,0.0012930669917479,-0.0012930678328251,0.0012930689880181,-0.0012930737909843,0.0012930630450383,-0.0011018728186436,0.001101885333227,-0.0011018903061543,0.0011018678413989,-4.4054480150578e-09,7.5626487869178e-09,-1.0783840545956e-08,1.3744502827403e-08,-0.0016472030035657,0.0016472059790476,-0.0017828187666905,0.0017828096828796,-0.0017828107652716,0.0017828178526003,-0.001782814901015,0.0017828136647515,-0.0017828069202223,0.0017828218113635,-0.0014535924026046,0.0014535752632058,-0.0014535686211022,0.0014535996206401,-0.0015289050789352,0.0015289044968532,-0.0015288934324324,0.0015289164750756,-9.2156824655648e-09,8.791922816509e-09,-0.00090259101367075,0.00090259053904944,1.1657359075947e-08,-1.2510667339427e-08,-0.0010576523383259,0.001057653991984,-0.0010576603912001,0.0010576459755134,-0.0010576463133949,0.0010576599973393,-0.0010576543881676,0.0010576519590684,-0.00093850772963465,0.00093851681922117,-0.00093852531890478,0.00093849921630011,0.62526527455703,128566,2924,0.0047682041839175,0.006837747501635,0.0037575631748829,26.129331182903,-3.0965350536773e-05,-3.0965350536773e-05,-3.0965350536773e-05,3548009.1011396,0.015483220593121
30619200,0.99667279283018,0.015685979018704,0.0049785543761763,0.0065362712253198,0.0041711534172083,-0.0011479340270841,0.0011479330320078,8.4782872988082e-09,-9.4912705632365e-09,5.3279742202599e-09,-6.542209763806e-09,-0.0012938901614517,0.0012938990749664,-0.0012938961163045,0.0012938930817718,-0.001293893920284,0.0012938951276181,-0.0012938999226517,0.0012938891404635,-0.0011026927238845,0.001102705376559,-0.0011027103414903,0.0011026877549011,-4.3991848199823e-09,7.5556084048202e-09,-1.0780257453476e-08,1.3740203867674e-08,-0.0016480730131964,0.0016480759879263,-0.0017837824902428,0.0017837734126331,-0.0017837744913432,0.0017837815796385,-0.0017837786288383,0.0017837773901323,-0.0017837706507096,0.0017837855338818,-0.0014543506865725,0.0014543335498797,-0.0014543269126261,0.001454357899091,-0.0015297634271755,0.0015297628552826,-0.00152975179485,0.0015297748208646,-9.2779424452858e-09,8.8564868345766e-09,-0.0009033980380402,0.00090339756581492,1.1645229371501e-08,-1.249567981509e-08,-0.0010583695799291,0.0010583711846209,-0.0010583776238025,0.0010583631771153,-0.0010583635126655,0.0010583772322889,-0.0010583715785677,0.0010583692028521,-0.0009393063292487,0.00093931555383054,-0.0009393240427245,0.00093929782726685,0.66318230306596,128566,2924,0.0047718400070288,0.0068413505760991,0.0037609109805545,26.523515107947,-2.7811879136423e-05,-2.7811879136423e-05,-2.7811879136423e-05,3561076.9869773,0.015493969073462
30819200,0.99680435613197,0.015687975599088,0.0049791827321939,0.0065371162751923,0.0041716765917018,-0.0011488149354324,0.0011488139410835,8.5419659014853e-09,-9.554335969347e-09,5.3267789503665e-09,-6.5399147903276e-09,-0.0012947838433948,0.0012947927986929,-0.0012947898405481,0.0012947867631755,-0.0012947876011576,0.0012947888524574,-0.0012947936456587,0.0012947828231285,-0.0011035618728074,0.0011035746509451,-0.0011035796140031,0.0011035569050839,-4.3956678353649e-09,7.5515781132958e-09,-1.0770531379071e-08,1.3729999318063e-08,-0.0016490251870721,0.0016490281613503,-0.0017847919503853,0.0017847828814345,-0.0017847839579951,0.0017847910418158,-0.0017847880914647,0.0017847868563019,-0.0017847801196871,0.0017847949935868,-0.0014552168314853,0.0014551997113069,-0.0014551930771114,0.0014552240412116,-0.0015306893119332,0.0015306887399286,-0.0015306776856321,0.0015307006972447,-9.3442159718258e-09,8.9226771479353e-09,-0.00090418941346347,0.0009041889410905,1.1645480534563e-08,-1.2496297130014e-08,-0.001059174740388,0.0010591763010918,-0.0010591827845163,0.001059168293338,-0.001059168629076,0.0010591823928535,-0.0010591766950722,0.00105917436333,-0.00094012061216544,0.00094012996655214,-0.00094013845520396,0.00094011210968905,0.69236328239726,128566,2924,0.0047754926284845,0.0068452901239225,0.0037641982969309,26.920280585716,-2.4637755314274e-05,-2.4637755314274e-05,-2.4637755314274e-05,3567506.85962,0.01550501723314
31019200,0.99693364579994,0.015689998580176,0.0049798204325479,0.0065379686406424,0.0041722095069855,-0.0011496892004468,0.001149688206141,8.6067973948615e-09,-9.6191722464615e-09,5.3263455493713e-09,-6.5396072437818e-09,-0.0012957173833948,0.0012957263818256,-0.001295723423794,0.0012957203031084,-0.0012957211409339,0.0012957224358096,-0.0012957272286286,0.0012957163633205,-0.0011044653145478,0.0011044782198761,-0.0011044831827143,0.0011044603471008,-4.3951957139056e-09,7.5510295872294e-09,-1.0767412612818e-08,1.3726809650741e-08,-0.0016500334650393,0.0016500364392296,-0.0017858278642532,0.0017858187976473,-0.001785819873942,0.0017858269558945,-0.0017858240057114,0.0017858227721889,-0.0017858160359715,0.0017858309073819,-0.0014561586796823,0.0014561415652105,-0.0014561349312498,0.0014561658888033,-0.0015316624381192,0.0015316618649069,-0.0015316508131124,0.0015316738216487,-9.4088184789437e-09,8.9876055922588e-09,-0.0009049609132814,0.00090496044125625,1.164333679073e-08,-1.2493705521004e-08,-0.0010600344182764,0.0010600359345894,-0.0010600424608533,0.0010600279283768,-0.0010600282638232,0.001060042069495,-0.0010600363282165,0.0010600340415564,-0.00094093597216411,0.00094094545531797,-0.00094095394193098,0.00094092747145323,0.71215832179933,128566,2924,0.0047791182893677,0.0068494591700626,0.0037674064462685,27.317143722697,-2.1462850218422e-05,-2.1462850218422e-05,-2.1462850218422e-05,3569300.4757601,0.015516192332028
31219200,0.99706168096593,0.015692103959684,0.0049804857563766,0.0065388493500214,0.0041727688532863,-0.001150847765725,0.0011508467758273,8.6726404740091e-09,-9.6804045541608e-09,5.3077218473402e-09,-6.5165275346746e-09,-0.0012969688361526,0.0012969778674517,-0.0012969749192647,0.0012969717468902,-0.001296972579976,0.0012969739352651,-0.0012969787106027,0.0012969678211333,-0.0011056892233161,0.0011057022718292,-0.0011057072179076,0.001105684276989,-4.409154196307e-09,7.5666182136546e-09,-1.0807441581255e-08,1.3768355959471e-08,-0.0016513806154505,0.0016513835911586,-0.0017871808694641,0.00178717176766,-0.0017871728529609,0.0017871799537846,-0.0017871770015542,0.0017871757523264,-0.0017871690053031,0.0017871839150612,-0.0014574436280939,0.0014574264450192,-0.0014574198010623,0.0014574508497534,-0.0015329782431646,0.0015329776696736,-0.0015329665897514,0.001532989656378,-9.4680832505889e-09,9.0605467485006e-09,-0.00090598538025563,0.00090598492194321,1.1581663099466e-08,-1.2416364720395e-08,-0.0010612034122236,0.0010612048514457,-0.0010612114086736,0.0010611968915275,-0.0010611972137379,0.0010612110304856,-0.0010612052320942,0.001061203048931,-0.0009420311462856,0.00094204081900055,-0.00094204924600957,0.00094202270571409,0.74546029696631,128566,2924,0.0047839231166163,0.0068550282733129,0.0037716677458613,27.866567342263,-1.7067461261895e-05,-1.7067461261895e-05,-1.7067461261895e-05,3570101.2122307,0.015531057397591
31419200,0.99718841661618,0.015694087270132,0.0049811110103495,0.006539686022449,0.0041732902373335,-0.0011520179498288,0.0011520169533046,8.737109791137e-09,-9.751590709496e-09,5.3383670960221e-09,-6.5543929664411e-09,-0.0012982832547332,0.0012982923475498,-0.0012982893821135,0.0012982861808083,-0.0012982870210553,0.001298288392355,-0.0012982931959795,0.0012982822319932,-0.0011069641284018,0.0011069772795155,-0.0011069822515786,0.0011069591472096,-4.3755464128253e-09,7.5293378369563e-09,-1.0691428513257e-08,1.3648944684227e-08,-0.0016528156530076,0.001652818625275,-0.0017885932405477,0.0017885842389627,-0.0017885853020158,0.0017885923430609,-0.0017885893958458,0.0017885881991206,-0.0017885814779692,0.0017885962801369,-0.0014588367013623,0.0014588197231634,-0.0014588131022676,0.001458843891616,-0.0015343667214871,0.0015343661355698,-0.0015343551376721,0.0015343780515819,-9.5404020083024e-09,9.1117683470165e-09,-0.00090700548429383,0.00090700500493892,1.1671608042445e-08,-1.2529677620501e-08,-0.0010624463603902,0.0010624478061267,-0.0010624544248452,0.001062439777836,-0.0010624401205121,0.001062454026129,-0.0010624482068814,0.0010624459761062,-0.00094314267455875,0.00094315237773671,-0.00094316089550564,0.00094313414412118,0.71242630215394,128566,2924,0.0047887765453766,0.0068609581513232,0.0037759144730096,28.434649082103,-1.2522807343176e-05,-1.2522807343176e-05,-1.2522807343176e-05,3567237.777859,0.015546325122239
31619200,0.99731366780284,0.015695952174661,0.0049816975232828,0.0065404792536067,0.0041737753977714,-0.0011531831735056,0.001153182178039,8.8020747724481e-09,-9.8155525227987e-09,5.3324073734882e-09,-6.5470706696616e-09,-0.0012995442980738,0.0012995534303617,-0.0012995504691703,0.0012995472213291,-0.001299548060477,0.0012995494801777,-0.001299554278122,0.0012995432767515,-0.0011082035931663,0.0011082168767789,-0.0011082218450234,0.0011081986208854,-4.3851268143271e-09,7.5399278435565e-09,-1.0713194422205e-08,1.3671655375666e-08,-0.0016541866272241,0.0016541896004787,-0.0017899699427082,0.0017899609160785,-0.0017899619860313,0.0017899690393402,-0.0017899660906614,0.0017899648838262,-0.0017899581545055,0.0017899729840877,-0.0014601400715257,0.0014601230548406,-0.0014601164271866,0.0014601472713432,-0.0015357038722223,0.0015357032822645,-0.0015356922675053,0.0015357152186855,-9.6027176456153e-09,9.1797201364071e-09,-0.0009080342428817,0.00090803376918735,1.1646202520272e-08,-1.2498193391032e-08,-0.0010636189683247,0.0010636203564383,-0.0010636270132174,0.0010636123480162,-0.0010636126851627,0.0010636266199896,-0.0010636207517244,0.0010636185898164,-0.00094423944698546,0.00094424930387313,-0.00094425779545068,0.00094423094254584,0.68057767052013,128566,2924,0.0047936084486858,0.0068666254827885,0.0037801940263789,29.003233126127,-7.9741349909811e-06,-7.9741349909811e-06,-7.9741349909811e-06,3569708.2677323,0.015561336128327
31819200,0.99743513516721,0.015697695304655,0.0049822447197196,0.0065412253438523,0.0041742252410831,-0.0011537736179545,0.0011537726191917,8.8660558824721e-09,-9.8828754698558e-09,5.3368041546236e-09,-6.5545300985459e-09,-0.0013001705981445,0.0013001797747132,-0.0013001768129662,0.0013001735220376,-0.0013001743642727,0.0013001758203778,-0.0013001806259404,0.0013001695735148,-0.001108819078487,0.0011088324832403,-0.001108837459156,0.0011088140989471,-4.4140773254382e-09,7.5714442791628e-09,-1.0790024109405e-08,1.3750734064219e-08,-0.0016548915214427,0.0016548944969675,-0.001790710027734,0.0017907009322415,-0.001790702020784,0.0017907091075566,-0.0017907061560737,0.0017907049201328,-0.0017906981698029,0.0017907130725352,-0.0014607730789555,0.0014607559315476,-0.0014607492835057,0.0014607803031605,-0.0015363859854287,0.0015363853907979,-0.0015363743211851,0.0015363973867046,-9.6659421229156e-09,9.2444634228962e-09,-0.00090854002525817,0.00090853955293514,1.1642105850158e-08,-1.2493057028566e-08,-0.0010641712708431,0.0010641726148761,-0.0010641793127734,0.0010641646093357,-0.0010641649450798,0.0010641789212445,-0.0010641730086903,0.001064170893875,-0.0009447678717634,0.00094477785892163,-0.00094478634496973,0.00094475937181844,0.6580565333842,128566,2924,0.0047960564726744,0.0068695402862947,0.0037822973347441,29.265654765996,-5.8747618720288e-06,-5.8747618720288e-06,-5.8747618720288e-06,3573301.8566047,0.015568918837768
32019200,0.99755121912751,0.015699527330683,0.0049828227618204,0.0065419969634912,0.0041747076053711,-0.0011539130038104,0.0011539119934433,8.9155025178157e-09,-9.9440306003851e-09,5.3753326232322e-09,-6.604851875309e-09,-0.0013002941203229,0.0013003033511717,-0.0013003003708079,0.001300297060586,-0.0013002979147758,0.0013002993672492,-0.0013003042128633,0.0013002930826269,-0.0011089458045318,0.0011089592763977,-0.0011089642905555,0.0011089407800514,-4.4204900516515e-09,7.578235314466e-09,-1.0770559668501e-08,1.3731409298225e-08,-0.0016550653581459,0.0016550683337636,-0.0017909375079696,0.0017909284215285,-0.0017909295140461,0.0017909365823632,-0.0017909336316368,0.0017909324135813,-0.0017909256590673,0.0017909405515505,-0.0014608765381328,0.0014608594355313,-0.0014608527813826,0.001460883766352,-0.0015365494299824,0.0015365488117138,-0.0015365377533977,0.0015365608188297,-9.7518360529591e-09,9.3071174023307e-09,-0.00090863729310448,0.00090863679727429,1.1751898327661e-08,-1.2629883270499e-08,-0.0010642344405747,0.0010642357936426,-0.001064242563292,0.0010642277066103,-0.0010642280650007,0.0010642421494438,-0.0010642362097863,0.0010642340403285,-0.00094485989833393,0.00094486992731419,-0.00094487851613996,0.00094485129463672,0.71766339092642,128566,2924,0.0047966339220045,0.006870260592153,0.0037827005410665,29.280977730421,-5.7521781566334e-06,-5.7521781566334e-06,-5.7521781566334e-06,3576883.6458104,0.015570645138394
32219200,0.99766211472499,0.015701318642488,0.004983388529981,0.0065427490261657,0.0041751810863408,-0.0011540251427836,0.0011540241294437,8.9835670674169e-09,-1.0014805104075e-08,5.3781654541544e-09,-6.6114793915488e-09,-0.0013004735241977,0.0013004828020022,-0.0013004798215648,0.0013004764655709,-0.001300477322515,0.0013004788149649,-0.0013004836670871,0.0013004724847589,-0.0011091078781902,0.0011091214805629,-0.0011091265028341,0.0011091028514557,-4.4441250720884e-09,7.6043446571964e-09,-1.0837594347755e-08,1.3800836319218e-08,-0.0016553212968125,0.0016553242749161,-0.0017911931565329,0.0017911840111567,-0.0017911851184265,0.0017911922187859,-0.0017911892644767,0.0017911880200941,-0.0017911812469243,0.0017911962047333,-0.0014611036376614,0.0014610864174734,-0.0014610797477307,0.0014611108866213,-0.0015367761050703,0.0015367754831753,-0.0015367643793871,0.0015367875418507,-9.8104950308573e-09,9.3687930568739e-09,-0.00090868736941962,0.00090868687657235,1.1745707153003e-08,-1.2619703317109e-08,-0.0010643860672172,0.0010643873779291,-0.0010643941852811,0.001064379296236,-0.0010643796517054,0.001064393773689,-0.0010643877914911,0.0010643856702677,-0.00094494306983866,0.0009449532244987,-0.00094496180651744,0.0009449344746755,0.73340852298738,128566,2924,0.0047970997244733,0.0068713159288929,0.0037829136906871,29.290205929163,-5.6783525666983e-06,-5.6783525666983e-06,-5.6783525666983e-06,3571672.7211125,0.015572408204261
32419200,0.99776804916083,0.015703074813834,0.0049839438620449,0.0065434835818459,0.0041756473699436,-0.0011541228730894,0.0011541218580488,9.04952385569e-09,-1.0082399025227e-08,5.3826329943193e-09,-6.6176557683941e-09,-0.0013006579761847,0.0013006673003889,-0.0013006643181432,0.0013006609194511,-0.0013006617781388,0.0013006633097633,-0.0013006681671472,0.0013006569350521,-0.0011092776038307,0.0011092913317046,-0.0011092963590593,0.0011092725717435,-4.4522901874733e-09,7.613223780063e-09,-1.0859941663707e-08,1.3823808781248e-08,-0.0016555950850132,0.0016555980637586,-0.001791451034349,0.0017914418691043,-0.0017914429815802,0.0017914500919041,-0.0017914471367975,0.0017914458836717,-0.0017914391045534,0.0017914540835843,-0.0014613575339443,0.0014613402755646,-0.0014613336002702,0.0014613647897471,-0.0015370204018963,0.0015370197785449,-0.0015370086593478,0.0015370318540708,-9.8737583187735e-09,9.4310909201985e-09,-0.00090872205453807,0.00090872156063464,1.1754468631728e-08,-1.2629750618831e-08,-0.0010645531230285,0.0010645543974409,-0.001064561247595,0.0010645463092192,-0.0010645466656893,0.0010645608350104,-0.0010645548119365,0.0010645527251703,-0.00094502196362607,0.00094503223357456,-0.0009450408234587,0.00094501336079507,0.75109425958058,128566,2924,0.0047975059431148,0.0068724438537363,0.0037830645811515,29.299202418187,-5.6063806545027e-06,-5.6063806545027e-06,-5.6063806545027e-06,3564866.4337777,0.015574121793982
32619200,0.99786898334645,0.015704616143741,0.0049844292336302,0.0065441369064446,0.0041760500036659,-0.0011541110217019,0.0011541100082701,9.1160547972688e-09,-1.0147358702812e-08,5.3759343655902e-09,-6.609279927388e-09,-0.0013007544803604,0.0013007638450992,-0.0013007608661825,0.0013007574202543,-0.0013007582773568,0.0013007598593168,-0.0013007647102269,0.0013007534410231,-0.0011093567517702,0.0011093706146975,-0.0011093756356612,0.0011093517262938,-4.4475521428644e-09,7.608052923735e-09,-1.0862104401284e-08,1.382558083729e-08,-0.0016557912630381,0.0016557942413883,-0.0017916167842929,0.0017916076209225,-0.001791608730571,0.0017916158448327,-0.0017916128900922,0.0017916116320667,-0.001791604856716,0.0017916198332206,-0.0014615463589529,0.001461529093077,-0.0014615224216002,0.0014615536112036,-0.0015371829444081,0.0015371823315499,-0.0015371712115231,0.0015371943975708,-9.9363697804242e-09,9.496070863457e-09,-0.00090864974116191,0.00090864924958131,1.1746965658321e-08,-1.2619668729939e-08,-0.0010646457286112,0.0010646469569882,-0.0010646538474167,0.0010646388745273,-0.0010646392288202,0.0010646534370117,-0.0010646473691622,0.0010646453331105,-0.00094499674602781,0.00094500714923285,-0.00094501573094639,0.00094498815116475,0.69653886807427,128566,2924,0.0047974579761488,0.006873249402279,0.0037827726930152,29.262922836895,-5.8966173048411e-06,-5.8966173048411e-06,-5.8966173048411e-06,3555963.774212,0.015574597608272
32819200,0.99796504169973,0.015705963683161,0.0049848516538448,0.0065447161327278,0.0041763958965879,-0.0011540589742221,0.0011540579631843,9.1804706789666e-09,-1.0209433682108e-08,5.3660070469291e-09,-6.5966093258191e-09,-0.0013007291289987,0.0013007385306773,-0.0013007355568493,0.0013007320636957,-0.0013007329185357,0.0013007345524198,-0.0013007393935394,0.0013007280918905,-0.0011093334290907,0.0011093474258594,-0.0011093524366698,0.001109328412844,-4.4324863711134e-09,7.5915184957328e-09,-1.0836874347692e-08,1.3799029510532e-08,-0.0016558346878802,0.001655837664915,-0.0017916769232933,0.0017916677863446,-0.0017916688864378,0.0017916759926854,-0.001791673039353,0.0017916717868645,-0.0017916650230518,0.0017916799704562,-0.0014615511342354,0.0014615339077079,-0.0014615272477279,0.0014615583742076,-0.0015372107671091,0.0015372101668568,-0.0015371990648775,0.0015372222009427,-1.0002105542464e-08,9.5629456851269e-09,-0.0009085652724917,0.00090856478207436,1.1741527947587e-08,-1.2612968414974e-08,-0.0010645948494751,0.0010645960306313,-0.0010646029641779,0.0010645879524094,-0.0010645883055205,0.0010646025550251,-0.0010645964417405,0.0010645944551449,-0.00094491888007583,0.00094492941815234,-0.00094493799460076,0.00094491029037531,0.64446135849344,128566,2924,0.0047972421785628,0.006873427449439,0.0037824245259881,29.20446410395,-6.3642871684033e-06,-6.3642871684033e-06,-6.3642871684033e-06,3554836.9406568,0.015574205748421
33019200,0.99805647045255,0.015707358228255,0.0049852908562205,0.006545306534015,0.0041767608380195,-0.0011540317085312,0.00115403070116,9.2481426083194e-09,-1.0273402096424e-08,5.3521627044158e-09,-6.5784197391455e-09,-0.001300644624327,0.0013006540626882,-0.0013006510962916,0.001300647552009,-0.0013006484034239,0.0013006500951643,-0.001300654922269,0.0013006435907636,-0.0011092695544343,0.0011092836943224,-0.001109288691027,0.0011092645527043,-4.4216020761505e-09,7.5793784640142e-09,-1.0825990215901e-08,1.3786998418603e-08,-0.0016557820144231,0.0016557849903316,-0.0017916864158602,0.0017916772925852,-0.00179167838617,0.0017916854915839,-0.001791682539273,0.0017916812853962,-0.0017916745300128,0.0017916894616367,-0.0014614328378238,0.0014614156248103,-0.0014614089732716,0.0014614400689583,-0.0015371614754501,0.0015371608891137,-0.0015371497948768,0.0015371728996017,-1.0063080118865e-08,9.629447029551e-09,-0.00090852780399411,0.00090852731914251,1.1714480560425e-08,-1.2579812649926e-08,-0.0010644604262171,0.0010644615503572,-0.0010644685209713,0.00106445349202,-0.0010644538397641,0.0010644681171975,-0.0010644619560285,0.0010644600373095,-0.00094485351086076,0.00094486419939655,-0.00094487275047873,0.00094484494690492,0.6952413565182,128566,2924,0.0047971282114401,0.0068732126050736,0.0037822654103734,29.145452391072,-6.8363808714273e-06,-6.8363808714273e-06,-6.8363808714273e-06,3560880.0130524,0.015573707719826
33219200,0.99814350564758,0.015708756159247,0.0049857322173811,0.006545893623283,0.0041771303185824,-0.0011539976349664,0.00115399662997,9.3143589799842e-09,-1.033730741752e-08,5.340834512385e-09,-6.5648417030629e-09,-0.0013006283529477,0.0013006378289867,-0.0013006348684098,0.0013006312750306,-0.001300632123919,0.0013006338697247,-0.0013006386861164,0.0013006273220099,-0.0011092505714375,0.0011092648492727,-0.0011092698355757,0.0011092455803644,-4.4104178714085e-09,7.5671424138759e-09,-1.0805852351922e-08,1.376593065315e-08,-0.0016558151873371,0.0016558181622781,-0.0017917362769424,0.0017917271740379,-0.0017917282606522,0.0017917353591927,-0.0017917324080388,0.0017917311590301,-0.0017917244121237,0.0017917393214512,-0.0014614347631782,0.0014614175818677,-0.0014614109382394,0.0014614419848115,-0.0015371802260087,0.0015371796480226,-0.0015371685690797,0.0015371916360701,-1.0125497191826e-08,9.6960225616884e-09,-0.00090846425019976,0.00090846376962721,1.1693265059808e-08,-1.2553655812089e-08,-0.0010644212497874,0.0010644223193965,-0.0010644293288873,0.0010644142767128,-0.0010644146203703,0.0010644289292322,-0.0010644227209185,0.0010644208650457,-0.00094479672525069,0.00094480755976818,-0.00094481609102717,0.00094478818070931,0.72922790977543,128566,2924,0.0047969871939993,0.0068733489016467,0.0037820030953372,29.086419625041,-7.3086429996743e-06,-7.3086429996743e-06,-7.3086429996743e-06,3559128.6130253,0.015573436708958
33419200,0.9982277113288,0.01571013589412,0.004986168224192,0.0065464714350284,0.0041774962348998,-0.0011544807180283,0.001154479718493,9.3806617382028e-09,-1.0398018152374e-08,5.3372907290404e-09,-6.5560506592114e-09,-0.0013011882984344,0.0013011978180468,-0.0013011948563211,0.0013011912221532,-0.0013011920652485,0.0013011938630926,-0.001301198669965,0.0013011872730013,-0.0011097953109357,0.0011098097235821,-0.001109814700135,0.0011097903300334,-4.409626584523e-09,7.5661723151e-09,-1.0766476556473e-08,1.3726523397191e-08,-0.0016564619303153,0.0016564649051437,-0.0017923700872113,0.0017923610106405,-0.0017923620962755,0.0017923691693956,-0.0017923662187796,0.0017923649951646,-0.0017923582485749,0.0017923731309917,-0.0014620605641886,0.0014620434602361,-0.0014620368155547,0.0014620677837393,-0.0015377995630384,0.0015377989609039,-0.001537787909056,0.0015378109476365,-1.0186681138457e-08,9.7670749604191e-09,-0.00090887883306307,0.00090887836263833,1.1641749704744e-08,-1.2490586003367e-08,-0.0010649563314756,0.0010649573286986,-0.0010649643724302,0.0010649493241219,-0.0010649496578209,0.0010649639827535,-0.0010649577204837,0.0010649559563942,-0.00094525859572341,0.00094526960700846,-0.00094527809086339,0.00094525009919108,0.74278652789874,128566,2924,0.0047989911598694,0.0068760204560657,0.0037837306324814,29.311747160943,-5.5060227124578e-06,-5.5060227124578e-06,-5.5060227124578e-06,3556493.4480934,0.015579941631746
33619200,0.99830947858369,0.015711476139005,0.0049865917229327,0.0065470329087278,0.0041778515073443,-0.0011551013624149,0.0011551003644247,9.4464750899792e-09,-1.0462369179482e-08,5.3336038963121e-09,-6.5506448466494e-09,-0.0013019080535921,0.0013019176150412,-0.001301914654905,0.0013019109759844,-0.0013019118174396,0.0013019136631081,-0.001301918465676,0.0013019070299581,-0.0011105005551579,0.0011105150992263,-0.0011105200717426,0.0011104955786023,-4.4043494831466e-09,7.5604941320352e-09,-1.0729025074943e-08,1.368862201217e-08,-0.0016572777207829,0.0016572806952494,-0.0017931612871366,0.0017931522394115,-0.0017931533213596,0.0017931603726088,-0.0017931574225053,0.0017931562202674,-0.0017931494771829,0.0017931643302831,-0.0014628570481851,0.0014628400145972,-0.0014628333732516,0.0014628642625448,-0.0015385877166342,0.001538587099864,-0.0015385760725384,0.0015385990746946,-1.0248200538556e-08,9.834665206271e-09,-0.00090941020687807,0.00090940974261418,1.1610292474476e-08,-1.2452201577106e-08,-0.0010656438221773,0.0010656447590245,-0.0010656518399888,0.0010656367777026,-0.0010656371054149,0.0010656514561861,-0.0010656451449498,0.0010656434530939,-0.00094584953239253,0.00094586069959993,-0.00094586915393696,0.0009458410649538,0.7430304239687,128566,2924,0.0048015655993688,0.0068793900946405,0.0037859449015824,29.613461447638,-3.0923084188945e-06,-3.0923084188945e-06,-3.0923084188945e-06,3553459.0803189,0.015588229857309
33819200,0.99838881796143,0.015712780741618,0.004987004017114,0.0065475793507403,0.0041781973737634,-0.0011557151070686,0.001155714109158,9.5144738251461e-09,-1.0530336605559e-08,5.3348597920483e-09,-6.5518333632822e-09,-0.0013026212023866,0.0013026308106395,-0.0013026278494675,0.0013026241256023,-0.0013026249674698,0.0013026268573198,-0.0013026316604585,0.0013026201790872,-0.001111205141523,0.001111219816571,-0.001111224789568,0.0011112001635942,-4.3992037246989e-09,7.5547771932132e-09,-1.0700984474858e-08,1.3660030592618e-08,-0.0016580925111467,0.0016580954850342,-0.001793951593925,0.0017939425684638,-0.0017939436469354,0.0017939506817327,-0.0017939477332551,0.0017939465450703,-0.0017939398059763,0.001793954636319,-0.0014636488400401,0.0014636318564929,-0.0014636252187429,0.0014636560497804,-0.0015393774285486,0.0015393768019268,-0.0015393657941352,0.0015393887677763,-1.0309454490389e-08,9.8966968212055e-09,-0.00090993472960703,0.00090993426620618,1.1601270292038e-08,-1.2442092007817e-08,-0.0010663235432689,0.0010663244340503,-0.0010663315552218,0.0010663164584065,-0.0010663167859828,0.0010663311717671,-0.0010663248186828,0.0010663231752912,-0.000946432751814,0.0009464440479265,-0.00094645249526264,0.00094642429124647,0.74517769070982,128566,2924,0.0048041112748277,0.0068827554120143,0.0037881309729069,29.917122634508,-6.6301892393892e-07,-6.6301892393892e-07,-6.6301892393892e-07,3550921.406474,0.015596455742386
34019200,0.99846573381157,0.01571400690013,0.0049873909198922,0.0065480955888463,0.0041785203913913,-0.0011563189611913,0.0011563179639148,9.5762244221489e-09,-1.0591473200316e-08,5.3320648887781e-09,-6.5483160429693e-09,-0.0013033251768774,0.0013033348240201,-0.0013033318645131,0.0013033280987772,-0.0013033289394775,0.0013033308734424,-0.0013033356739264,0.0013033241538661,-0.0011119015436561,0.0011119163435046,-0.0011119213139185,0.0011118965687984,-4.4020579305049e-09,7.5580230692892e-09,-1.0700702437239e-08,1.3660120462814e-08,-0.0016589019100425,0.0016589048843183,-0.0017947360144411,0.0017947269863477,-0.0017947280665762,0.0017947351006282,-0.0017947321511193,0.0017947309656488,-0.0017947242240122,0.0017947390568191,-0.001464435148545,0.0014644181688343,-0.0014644115288525,0.0014644423609185,-0.0015401626268257,0.0015401619959158,-0.001540150987723,0.0015401739664372,-1.0376372911342e-08,9.9661779912496e-09,-0.00091044993571932,0.00091044947492811,1.1586656449246e-08,-1.2424525515356e-08,-0.0010669939708342,0.0010669948073347,-0.0010670019715795,0.0010669868430439,-0.0010669871675432,0.0010670015910692,-0.0010669951900243,0.0010669936049342,-0.000947006094523,0.00094701753595801,-0.00094702597000055,0.00094699764712849,0.72426545112731,128566,2924,0.0048066158651477,0.0068860983189078,0.0037902784786415,30.220858322526,1.7668665802054e-06,1.7668665802054e-06,1.7668665802054e-06,3548671.5993585,0.015604577955128
34219200,0.99854151948778,0.015715181867265,0.0049877611546507,0.0065485925002843,0.0041788282123304,-0.001157506145542,0.0011575051582229,9.6333239142766e-09,-1.0638454315292e-08,5.2930950599156e-09,-6.4987723312015e-09,-0.0013045919252519,0.0013046015846328,-0.0013045986452244,0.0013045948277874,-0.0013045956551631,0.0013045976656842,-0.0013046024275863,0.0013045909093352,-0.0011131666044175,0.001113181552527,-0.0011131864858002,0.0011131616715505,-4.4259156620793e-09,7.584444775183e-09,-1.0795843445334e-08,1.375743113404e-08,-0.0016602747361494,0.0016602777122513,-0.0017961023169726,0.0017960932069382,-0.0017960943041479,0.0017961013880134,-0.0017960984347582,0.0017960972060911,-0.0017960904478411,0.0017961053585338,-0.0014657572610411,0.0014657401199498,-0.0014657334608519,0.0014657644937403,-0.0015415178949478,0.0015415172930922,-0.0015415062174009,0.0015415293072806,-1.0442341915268e-08,1.0055727400737e-08,-0.00091151524448134,0.00091151480771143,1.1464339965989e-08,-1.2275731783485e-08,-0.0010681846533231,0.0010681853686449,-0.0010681925608959,0.0010681774965339,-0.0010681777955986,0.0010681922071248,-0.0010681857304339,0.0010681843078488,-0.00094813532085182,0.00094814702292436,-0.00094815534154806,0.00094812698853281,0.70594348658268,128566,2924,0.004811538637075,0.0068917733684525,0.0037947091563771,30.832238125075,6.6579050006e-06,6.6579050006e-06,6.6579050006e-06,3553164.30173,0.015619842853539
34419200,0.99861618059444,0.015716344233297,0.0049881275190614,0.0065490838294358,0.0041791328847993,-0.001158762998444,0.0011587620083162,9.7046691819739e-09,-1.0712698123931e-08,5.3095974998583e-09,-6.518370224617e-09,-0.001305905245337,0.0013059149645719,-0.0013059120146921,0.0013059081560945,-0.0013059089881898,0.001305911031143,-0.0013059158090036,0.001305904228982,-0.0011144807694027,0.001114495839609,-0.0011145007872994,0.0011144758184378,-4.3972243068746e-09,7.5527697784795e-09,-1.0721115156409e-08,1.3680111003882e-08,-0.0016616819779625,0.0016616849518002,-0.0017975209216288,0.0017975118894826,-0.0017975129661742,0.0017975200123679,-0.0017975170620513,0.0017975158649847,-0.0017975091288029,0.0017975239628587,-0.0014671000914372,0.0014670830767451,-0.0014670764407019,0.0014671072999426,-0.0015429120888387,0.0015429114854929,-0.0015429004653061,0.0015429234417862,-1.0506256050248e-08,1.0105717566955e-08,-0.00091264867774255,0.00091264822673171,1.1533600861646e-08,-1.2360164509367e-08,-0.0010694065500692,0.0010694072664444,-0.001069414510773,0.0010693993416616,-0.0010693996557737,0.0010694141406162,-0.001069407640764,0.0010694061922992,-0.00094932109046431,0.00094933284081355,-0.0009493412258379,0.0009493126906854,0.70867958457738,128566,2924,0.0048167498239492,0.0068975921859266,0.0037994208587731,31.476044006565,1.1808352052517e-05,1.1808352052517e-05,1.1808352052517e-05,3560526.5264331,0.015635831575077
34619200,0.99868958231888,0.015717535119639,0.0049885036668863,0.0065495840655715,0.0041794473871813,-0.0011600256246465,0.0011600246298577,9.7764633901366e-09,-1.078930078707e-08,5.3317176930593e-09,-6.54608927976e-09,-0.0013072275907405,0.0013072373734155,-0.0013072344112094,0.0013072305136683,-0.0013072313526251,0.0013072334223567,-0.0013072382192571,0.0013072265708494,-0.0011158028000724,0.0011158179895999,-0.0011158229553832,0.0011157978253613,-4.3693620289893e-09,7.5220297551543e-09,-1.0644618773674e-08,1.3601019407546e-08,-0.0016630958651066,0.0016630988362756,-0.0017989448223205,0.0017989358569097,-0.0017989369160408,0.0017989439275601,-0.0017989409829462,0.001798939811553,-0.0017989330957166,0.0017989478609604,-0.0014684500881383,0.0014684331968881,-0.0014684265804803,0.0014684572720589,-0.0015443119255869,0.0015443113190017,-0.0015443003540467,0.0015443232238266,-1.0572095580366e-08,1.015107241282e-08,-0.00091378288565157,0.00091378241419989,1.1620849377675e-08,-1.2469837744463e-08,-0.0010706355372652,0.0010706362638703,-0.0010706435652846,0.0010706282718159,-0.0010706286077957,0.0010706431733528,-0.0010706366562295,0.0010706351612294,-0.00095051018285742,0.00095052196110164,-0.0009505304327599,0.00095050169735342,0.73613738656693,128566,2924,0.004821984996027,0.0069034383080512,0.0038041359646965,32.120739557695,1.6965916461562e-05,1.6965916461562e-05,1.6965916461562e-05,3567297.9584659,0.015651876291333
34819200,0.99876271886493,0.015718732231097,0.0049888819430781,0.006550086532209,0.0041797637558095,-0.0011618199856399,0.0011618189866972,9.860669453361e-09,-1.0877317085495e-08,5.3531954177862e-09,-6.5727208935943e-09,-0.0013091319883166,0.0013091418439007,-0.001309138869658,0.0013091349234931,-0.0013091357704533,0.0013091378744646,-0.001309142690082,0.0013091309667119,-0.0011176975824356,0.0011177129147138,-0.0011177178972775,0.001117692587797,-4.3329324350648e-09,7.4819374067716e-09,-1.0533130250454e-08,1.34862779997e-08,-0.0016651172568214,0.00166512022476,-0.001800952569055,0.0018009436986772,-0.0018009447342651,0.0018009516937107,-0.0018009487562334,0.0018009476248947,-0.0018009409354203,0.0018009556055072,-0.0014704093985169,0.0014703926861355,-0.0014703860964897,0.0014704165515155,-0.0015463097851222,0.0015463091645798,-0.0015462982808543,0.0015463210072512,-1.0626069074887e-08,1.0184557764773e-08,-0.00091539724695767,0.00091539675517119,1.1708204483184e-08,-1.2578607762509e-08,-0.0010724281456745,0.001072428891728,-0.0010724362425108,0.0010724208314041,-0.0010724211904272,0.0010724358268126,-0.0010724293010192,0.0010724277522725,-0.0009522164725297,0.00095222825639494,-0.0009522368188091,0.00095220790105524,0.74236047253841,128566,2924,0.0048294253406962,0.0069117948825072,0.0038108487891316,33.051282532756,2.441026026205e-05,2.441026026205e-05,2.441026026205e-05,3573607.5390511,0.015674741534733
35019200,0.99883574269731,0.015719890373269,0.0049892473592421,0.006550575427099,0.004180067586928,-0.0011637952968848,0.0011637942984597,9.9414619420515e-09,-1.0957748864684e-08,5.3533695140982e-09,-6.5718024752396e-09,-0.0013112369652198,0.0013112468758031,-0.0013112439022107,0.0013112399014476,-0.0013112407496341,0.0013112429059535,-0.0013112477198858,0.0013112359451969,-0.0011197885041108,0.0011198039912093,-0.0011198089737746,0.0011197835127541,-4.3246413428226e-09,7.4728503350813e-09,-1.0503861399303e-08,1.3456240574028e-08,-0.0016673512502582,0.001667354217414,-0.0018031687840209,0.0018031599317262,-0.0018031609637456,0.0018031679120588,-0.0018031649769488,0.0018031638522865,-0.0018031571675947,0.0018031718204457,-0.001472575628977,0.00147255895763,-0.0014725523734981,0.001472582775493,-0.001548516755555,0.001548516127749,-0.0015485052597221,0.0015485279573483,-1.0677932381082e-08,1.0231226884348e-08,-0.00091717315329191,0.00091717265632478,1.1728235474722e-08,-1.2605029839638e-08,-0.0010744115136443,0.0010744122382926,-0.0010744196272383,0.001074404161524,-0.0010744045271081,0.0010744192051781,-0.00107441265088,0.0010744111167834,-0.00095409564560946,0.00095410751207031,-0.00095411609505759,0.00095408705511835,0.721364881117,128566,2924,0.0048376158965206,0.0069210298505326,0.0038182340279982,34.083276922016,3.2666215376125e-05,3.2666215376125e-05,3.2666215376125e-05,3580420.1806466,0.015699944914135
35219200,0.9989083749261,0.015721008607349,0.0049895996966015,0.0065510499974366,0.004180358913311,-0.0011657781299815,0.0011657771321347,1.002421212144e-08,-1.1040048151546e-08,5.3509810670636e-09,-6.568556343642e-09,-0.0013133215022407,0.001313331467188,-0.0013133284957195,0.0013133244375588,-0.0013133252865488,0.0013133274985479,-0.0013133323094023,0.0013133204842162,-0.0011218671753887,0.0011218828231922,-0.0011218878042412,0.0011218621889688,-4.3299877249061e-09,7.4788583403055e-09,-1.0506700069878e-08,1.3459686367291e-08,-0.0016695546923906,0.0016695576601474,-0.001805373678558,0.0018053648176576,-0.0018053658539029,0.0018053728031323,-0.0018053698685737,0.0018053687416496,-0.0018053620518739,0.0018053767171538,-0.0014746943304655,0.0014746776504016,-0.0014746710617634,0.0014747014818453,-0.0015506997125407,0.0015506990727812,-0.0015506881990272,0.0015507109169858,-1.0725956339051e-08,1.0277986227914e-08,-0.000918957070096,0.00091895657181808,1.173784081755e-08,-1.2616484385384e-08,-0.0010763597360095,0.0010763604348075,-0.0010763678569844,0.0010763523507713,-0.0010763527190551,0.0010763674323641,-0.0010763608472268,0.0010763593394338,-0.00095597089553786,0.00095598285389088,-0.00095599144255995,0.00095596229893922,0.70214229120762,128566,2924,0.0048458370515638,0.0069301398010195,0.0038256507504779,35.117835819221,4.0942686553767e-05,4.0942686553767e-05,4.0942686553767e-05,3590026.4622775,0.015725083995829
35419200,0.99897947840609,0.015722068021948,0.0049899329761409,0.0065515022778915,0.0041806327679159,-0.0011673496550728,0.0011673486562294,1.0071096742022e-08,-1.1088114967981e-08,5.340902707787e-09,-6.5582332356529e-09,-0.0013149581052152,0.0013149680902922,-0.001314965127901,0.0013149610333153,-0.0013149618800946,0.0013149641313239,-0.0013149689375179,0.0013149570841394,-0.0011235043668216,0.0011235201202457,-0.0011235251003939,0.0011234993898484,-4.3848503630666e-09,7.5389757358192e-09,-1.0659756909567e-08,1.3617451831959e-08,-0.0016712844054949,0.0016712873781005,-0.0018071231159648,0.0018071141147861,-0.0018071151867393,0.0018071222100485,-0.0018071192659633,0.001807118080526,-0.001807111349743,0.0018071261596534,-0.0014763355949846,0.0014763186596367,-0.0014763120331776,0.0014763427950167,-0.0015524162417264,0.0015524156057669,-0.001552404619842,0.0015524275531771,-1.0800066621566e-08,1.0368863032286e-08,-0.00092035745944748,0.00092035697769486,1.1668468579353e-08,-1.2530079294208e-08,-0.0010778656570596,0.0010778662621298,-0.0010778737232248,0.001077858232969,-0.0010778585821261,0.0010778733180474,-0.0010778666610421,0.0010778652747221,-0.00095743518457934,0.00095744736847659,-0.00095745588508237,0.00095742665741585,0.68162297359951,128566,2924,0.0048523523763784,0.0069372919162806,0.0038314721403207,35.930023711949,4.7440189695596e-05,4.7440189695596e-05,4.7440189695596e-05,3599281.2501211,0.015744880712576
35619200,0.99904824839587,0.015723052342857,0.0049902420144655,0.0065519254896998,0.0041808848386918,-0.0011686111650903,0.0011686101585904,1.0108483183733e-08,-1.1133045449153e-08,5.3555960556156e-09,-6.5810904846149e-09,-0.0013162460728449,0.001316256087805,-0.0013162531197463,0.0013162490051189,-0.0013162498563802,0.0013162521180766,-0.0013162569454569,0.0013162450417626,-0.0011247971948966,0.0011248130161567,-0.0011248180174092,0.0011247921967546,-4.429219221099e-09,7.5875499168525e-09,-1.0772101458342e-08,1.3733536782643e-08,-0.0016726416350879,0.0016726446114597,-0.001808518547936,0.0018085094487184,-0.0018085105477158,0.0018085176174772,-0.0018085146662867,0.0018085134470152,-0.0018085066844425,0.001808521594565,-0.0014776000622341,0.0014775829492835,-0.0014775762916775,0.0014776072992528,-0.00155376661681,0.0015537659770212,-0.0015537549145685,0.0015537780086214,-1.088678142135e-08,1.0459557525991e-08,-0.00092147604194446,0.00092147556394405,1.165805241856e-08,-1.2515604047557e-08,-0.001079027369595,0.0010790279090533,-0.0010790354251922,0.0010790198901023,-0.0010790202327042,0.0010790350266007,-0.0010790283070049,0.0010790269883472,-0.00095859319213024,0.00095860555301068,-0.00095861405659454,0.00095858467594619,0.65729899094492,128566,2924,0.0048575819541351,0.0069429052430261,0.0038361202997676,36.574413358536,5.2595306868288e-05,5.2595306868288e-05,5.2595306868288e-05,3609022.7208471,0.0157606158624
35819200,0.99911457184024,0.015724063472599,0.0049905606276825,0.0065523554423552,0.0041811474025612,-0.0011698815359064,0.0011698805197335,1.0166398183683e-08,-1.120045527718e-08,5.3859021567262e-09,-6.6214099849995e-09,-0.0013175031799041,0.0013175132510018,-0.0013175102684489,0.0013175061247692,-0.001317506986599,0.0013175092568538,-0.0013175141173154,0.0013175021390991,-0.0011260665363305,0.0011260824458318,-0.0011260874768038,0.001126061501605,-4.4412443616216e-09,7.6006693172403e-09,-1.0770674250883e-08,1.3733050377914e-08,-0.001673946430728,0.0016739494080347,-0.0018098820796242,0.0018098729778549,-0.001809874083473,0.0018098811420195,-0.0018098781908113,0.0018098769833286,-0.001809870211928,0.001809885127673,-0.0014787985356712,0.0014787814356861,-0.0014787747688981,0.0014788057811981,-0.0015550734541388,0.001555072788124,-0.0015550617265748,0.001555084844749,-1.0960872221866e-08,1.0519775828927e-08,-0.00092261041275322,0.00092260992069853,1.1727689304907e-08,-1.2600776085557e-08,-0.0010801442279376,0.0010801447608673,-0.0010801523351383,0.0010801366900753,-0.0010801370467872,0.0010801519223147,-0.0010801451718879,0.0010801438333584,-0.00095975234013757,0.00095976476760443,-0.00095977333684645,0.00095974375878766,0.69619235064163,128566,2924,0.0048628478734059,0.0069483038677337,0.003840831066404,37.214632829655,5.7717062637242e-05,5.7717062637242e-05,5.7717062637242e-05,3621532.6938104,0.015776232558763
36019200,0.99917836334732,0.01572509616973,0.0049908870486586,0.0065527905251211,0.0041814185959499,-0.0011711464964478,0.0011711454762975,1.0225918428656e-08,-1.1263793363524e-08,5.3933017128091e-09,-6.6336515818506e-09,-0.0013188147865151,0.0013188249007839,-0.001318821915539,0.0013188177343338,-0.0013188185991121,0.0013188209008063,-0.0013188257715421,0.0013188137415041,-0.0011273744312714,0.001127390453089,-0.0011273954943477,0.0011273693871119,-4.4593630728721e-09,7.6205382264352e-09,-1.0814826131838e-08,1.3778757245424e-08,-0.001675320280579,0.0016753232594556,-0.0018112790128553,0.0018112698691552,-0.0018112709864524,0.0018112780647057,-0.0018112751109761,0.0018112738882078,-0.0018112671031572,0.0018112820626256,-0.0014800932016549,0.00148007602909,-0.0014800693486961,0.0014801004620276,-0.0015564350384031,0.0015564343681524,-0.0015564232770869,0.0015564464625362,-1.1029738364891e-08,1.0587669274795e-08,-0.00092372165985679,0.00092372116676984,1.173476748535e-08,-1.2608893618515e-08,-0.0010813351765173,0.0010813356673858,-0.0010813432882151,0.0010813275921819,-0.0010813279491727,0.0010813428749734,-0.0010813360800409,0.0010813347803284,-0.00096091634096318,0.00096092889415196,-0.0009609374700852,0.00096090775369948,0.7358630980245,128566,2924,0.0048680923011065,0.006953984802025,0.0038454500498283,37.854692588753,6.2837540710025e-05,6.2837540710025e-05,6.2837540710025e-05,3627822.3292031,0.01579202340276
36219200,0.99923747680789,0.0157260212132,0.0049911789665578,0.0065531826727731,0.0041816595738693,-0.0011711215716788,0.0011711205415481,1.02890522821e-08,-1.1337059531208e-08,5.4237778461903e-09,-6.6745200699934e-09,-0.0013188747317406,0.0013188849059619,-0.0013188819063762,0.0013188776929885,-0.001318878568329,0.0013188808816723,-0.0013188857855269,0.0013188736770024,-0.0011274202519597,0.0011274363717078,-0.0011274414456888,0.0011274151720901,-4.4767271398235e-09,7.6394214594477e-09,-1.0854486867348e-08,1.3819824375146e-08,-0.0016754442307674,0.0016754472110266,-0.0018113914067351,0.0018113822270709,-0.0018113833552305,0.0018113904484202,-0.0018113874936112,0.0018113862575625,-0.0018113794597271,0.001811394458914,-0.0014801943765158,0.0014801771369543,-0.0014801704448208,0.0014802016517978,-0.0015565305130256,0.0015565298334319,-0.001556518714601,0.001556541964841,-1.1099437455584e-08,1.0641006577065e-08,-0.00092362498137489,0.00092362447155496,1.1818581592416e-08,-1.2711779563317e-08,-0.0010813693452333,0.0010813698416983,-0.0010813775196188,0.0010813617037596,-0.001081362077357,0.0010813770896653,-0.0010813702699478,0.0010813689332772,-0.00096085711499019,0.00096086971128351,-0.00096087836537041,0.00096084844873452,0.71361055091604,128566,2924,0.0048679895898069,0.0069544927211393,0.0038450556046657,37.827186899553,6.2617495196421e-05,6.2617495196421e-05,6.2617495196421e-05,3620826.5560558,0.015792036631711
36419200,0.99929140516072,0.015726853417567,0.0049914414172899,0.0065535361454625,0.0041818758548146,-0.0011705301780395,0.0011705291505852,1.0351894571763e-08,-1.1397109040499e-08,5.4114033699978e-09,-6.6594145507508e-09,-0.00131831226423,0.001318322472281,-0.0013183194794846,0.0013183152193491,-0.0013183160912276,0.0013183184577343,-0.0013183233500519,0.0013183112119681,-0.0011268690116731,0.0011268852655802,-0.0011268903290773,0.001126863946207,-4.4884987477384e-09,7.6524142333509e-09,-1.0942898413083e-08,1.3909251516855e-08,-0.0016749106509657,0.0016749136322992,-0.0018108624917121,0.0018108532445176,-0.0018108543813686,0.0018108615273508,-0.0018108585699107,0.0018108572843114,-0.0018108504780511,0.0018108655458585,-0.0014796371141084,0.0014796197102772,-0.0014796130105497,0.0014796444007411,-0.0015559842683479,0.001555983626454,-0.0015559724470282,0.0015559957810894,-1.1167297246172e-08,1.0709609238953e-08,-0.00092300512169315,0.00092300461248341,1.1822820107814e-08,-1.2715621695463e-08,-0.0010807927570539,0.0010807932107101,-0.0010808009334675,0.001080785070816,-0.0010807854431084,0.0010808005049109,-0.0010807936388173,0.0010807923454584,-0.00096024063674245,0.00096025336425921,-0.0009602620197475,0.00096023196953486,0.70434019954831,128566,2924,0.004865537737365,0.0069522831405135,0.0038424851919783,37.496457698601,5.997166158881e-05,5.997166158881e-05,5.997166158881e-05,3613281.8085427,0.015784691069591
36619200,0.99934064527307,0.015727569145857,0.0049916664411002,0.0065538430825509,0.0041820596222057,-0.0011699262828141,0.0011699252554864,1.041689518001e-08,-1.1461939005157e-08,5.4093595899284e-09,-6.6572863685888e-09,-0.0013177135727656,0.0013177238233143,-0.0013177208312145,0.001317716526018,-0.0013177173986409,0.0013177198095692,-0.0013177247002454,0.0013177125207224,-0.0011262873350026,0.0011263037163754,-0.0011263087770928,0.0011262822692639,-4.4605396752218e-09,7.6217839255564e-09,-1.0897601834274e-08,1.3861597394185e-08,-0.0016743277337493,0.0016743307126967,-0.0018102917962855,0.001810282599373,-0.0018102837180233,0.001810290848685,-0.0018102878942717,0.0018102866185571,-0.0018102798337477,0.0018102948476284,-0.0014790295305683,0.0014790121959617,-0.0014790055170703,0.0014790367936474,-0.001555394062608,0.0015553934433218,-0.001555382298153,0.0015554055407588,-1.1237002327669e-08,1.0769493711374e-08,-0.00092238324293448,0.00092238272387667,1.1871909731836e-08,-1.2775386752915e-08,-0.0010801786498393,0.0010801790872811,-0.0010801868627842,0.0010801709108624,-0.0010801712930475,0.0010801864240729,-0.0010801795245323,0.001080178228971,-0.00095961140148029,0.00095962421056483,-0.00095963291220812,0.00095960268816341,0.66675280851028,128566,2924,0.0048630338994564,0.0069498707545788,0.0038399045023921,37.15808826791,5.7264706143278e-05,5.7264706143278e-05,5.7264706143278e-05,3607280.9663415,0.015777075652763
36819200,0.99938566082813,0.015728205223837,0.0049918661448104,0.0065541169701907,0.0041822221088358,-0.0011693345331638,0.0011693335124535,1.0483018937192e-08,-1.1521448753379e-08,5.3830351132959e-09,-6.6235334711285e-09,-0.0013170675721216,0.0013170778505596,-0.0013170748724046,0.0013170705123337,-0.0013170713779056,0.0013170738573598,-0.0013170787219079,0.0013170665262262,-0.0011256676564196,0.0011256841890337,-0.0011256892246255,0.0011256626190228,-4.4504649635856e-09,7.6106443548627e-09,-1.0918639150598e-08,1.3881667418883e-08,-0.0016736697994517,0.0016736727774369,-0.0018096789024464,0.0018096696957819,-0.0018096708090874,0.0018096779608598,-0.0018096750065171,0.0018096737086472,-0.0018096669318762,0.0018096819525131,-0.0014783283707715,0.0014783109878106,-0.0014783043172792,0.0014783356269303,-0.0015547418208334,0.0015547412368665,-0.0015547300777288,0.0015547533117882,-1.1298883595608e-08,1.0841409215009e-08,-0.00092179420588334,0.00092179369690574,1.1824292267488e-08,-1.2716737777264e-08,-0.0010795027980962,0.0010795031651204,-0.0010795109753508,0.0010794950243829,-0.001079495396377,0.0010795105471215,-0.0010795035930686,0.0010795023866913,-0.00095898684536739,0.00095899982923294,-0.00095900848585905,0.00095897817735613,0.64957833697565,128566,2924,0.0048605797312973,0.0069471515212605,0.0038374556216029,36.819425342221,5.4555402737772e-05,5.4555402737772e-05,5.4555402737772e-05,3606684.9213101,0.015769331049934
37019200,0.9994280378526,0.015728844832021,0.004992067708318,0.0065543890234135,0.0041823881002894,-0.0011697438386091,0.0011697428141791,1.0545017341657e-08,-1.1586989408679e-08,5.395239605003e-09,-6.6404136663913e-09,-0.0013174196972222,0.0013174300243138,-0.0013174270403506,0.0013174226439982,-0.0013174235126873,0.0013174260216602,-0.0013174308992843,0.0013174186480244,-0.0011260381897969,0.00112605483476,-0.0011260598836496,0.0011260331401343,-4.4624523267328e-09,7.6238397091654e-09,-1.0810746865045e-08,1.3774873065789e-08,-0.0016740381316615,0.0016740411106985,-0.0018101065000478,0.0018100973567872,-0.0018100984761069,0.0018101055499397,-0.001810102596007,0.0018101013781703,-0.001810094590876,0.0018101095500463,-0.0014786253210179,0.0014786081584669,-0.0014786014750472,0.0014786325830011,-0.0015551142361219,0.0015551135572617,-0.0015551024701039,0.0015551256585714,-1.1356454855644e-08,1.0916228613308e-08,-0.00092217233968682,0.00092217184845627,1.1736132044369e-08,-1.2608178437022e-08,-0.0010797919294503,0.0010797922041553,-0.0010798000413297,0.0010797841287027,-0.0010797844834907,0.0010797996301994,-0.0010797926149549,0.0010797915350326,-0.00095935350084296,0.00095936669589606,-0.0009593752710847,0.00095934491487417,0.68961815585341,128566,2924,0.0048622758612185,0.0069486783434916,0.0038390225685024,37.016132834227,5.6129062673815e-05,5.6129062673815e-05,5.6129062673815e-05,3615120.5209762,0.015774194398612
37219200,0.99946817088027,0.015729492640448,0.0049922725138279,0.0065546616933587,0.0041825584332613,-0.0011703860229206,0.0011703849970266,1.0608436630664e-08,-1.1651949681146e-08,5.4006911995855e-09,-6.6472227192029e-09,-0.0013180814606138,0.0013180918329895,-0.0013180888467376,0.0013180844102726,-0.0013180852802089,0.0013180878264955,-0.0013180927096365,0.0013180804100116,-0.0011266939565674,0.0011267107216395,-0.0011267157763777,0.0011266889011642,-4.4659135096431e-09,7.6275924042878e-09,-1.070893310268e-08,1.3673290964759e-08,-0.0016747440157173,0.0016747469950172,-0.0018108356140006,0.0018108265355305,-0.0018108276558378,0.0018108346606586,-0.0018108317075393,0.0018108305593948,-0.0018108237682919,0.0018108386630704,-0.0014792822593504,0.0014792652993567,-0.0014792586111358,0.0014792895217664,-0.0015558046633616,0.0015558039104974,-0.0015557928899354,0.001555816018182,-1.1414385130248e-08,1.0989818357991e-08,-0.00092275519087984,0.00092275471553635,1.1654571581691e-08,-1.2508844993124e-08,-0.0010804072210556,0.0010804074072161,-0.0010804152728737,0.0010803993918214,-0.0010803997311673,0.0010804148771774,-0.0010804078027307,0.001080406841931,-0.00095996281690083,0.00095997621609918,-0.00095998471552985,0.00095995430630991,0.73362543160222,128566,2924,0.0048649384754536,0.0069515975476091,0.0038414448301969,37.342832341538,5.8742658732302e-05,5.8742658732302e-05,5.8742658732302e-05,3618864.5886594,0.015782325278987
37419200,0.99950613465601,0.015730062518321,0.0049924519904172,0.0065549045715326,0.0041827059563712,-0.0011710139594206,0.0011710129377836,1.0675680012782e-08,-1.1714958407144e-08,5.3943584567542e-09,-6.6365116532421e-09,-0.0013187980416961,0.0013188084561055,-0.0013188054714915,0.0013188009902565,-0.0013188018557732,0.0013188044553372,-0.0013188093287238,0.0013187969955361,-0.00112739109075,0.0011274079933027,-0.0011274130384061,0.001127386045398,-4.4613204762512e-09,7.6225159067243e-09,-1.0649707795208e-08,1.361363403106e-08,-0.0016755300510159,0.0016755330298792,-0.0018116056319941,0.0018115965955748,-0.0018115977124103,0.0018116046807905,-0.0018116017287163,0.001811600616173,-0.0018115938280696,0.0018116086799305,-0.0014800479326847,0.0014800310857868,-0.0014800243997192,0.0014800551899199,-0.0015565591735153,0.0015565583904905,-0.0015565474097237,0.0015565704886243,-1.1473109150975e-08,1.1060724263471e-08,-0.00092330515295428,0.00092330469000181,1.158832554155e-08,-1.2428547309605e-08,-0.0010810986877215,0.0010810987940979,-0.0010811066910222,0.0010810908272352,-0.0010810911546398,0.0010811063072957,-0.0010810991776979,0.0010810983205476,-0.00096056736219956,0.00096058094878193,-0.00096058938754563,0.00096055891208622,0.68665559044926,128566,2924,0.0048675429068813,0.0069548444651414,0.0038437353709148,37.672888027569,6.1383104220553e-05,6.1383104220553e-05,6.1383104220553e-05,3616509.2861883,0.01579059848081
37619200,0.99954199754,0.015730581702438,0.004992615193034,0.0065551271656234,0.0041828393437811,-0.00117165660196,0.0011716555838456,1.0742168007748e-08,-1.1778007534562e-08,5.3846315435132e-09,-6.6231276037627e-09,-0.0013194577828992,0.0013194682363807,-0.0013194652560011,0.0013194607275297,-0.0013194615893296,0.001319464243292,-0.0013194691056599,0.0013194567404487,-0.0011280532126385,0.0011280702530708,-0.0011280752871835,0.0011280481781399,-4.4522818441988e-09,7.6125835731503e-09,-1.0609955340559e-08,1.3573076528711e-08,-0.0016762292186388,0.0016762321966862,-0.0018123276054327,0.0018123186014344,-0.001812319712202,0.0018123266593047,-0.0018123237084557,0.0018123226156075,-0.0018123158341922,0.0018123306519808,-0.0014806950386505,0.0014806782642801,-0.0014806715842595,0.0014807022876662,-0.0015572478610004,0.0015572470695134,-0.0015572361161365,0.0015572591486708,-1.1534166921416e-08,1.1130036856315e-08,-0.00092388031666812,0.00092387986220285,1.1544100631562e-08,-1.2374659180478e-08,-0.0010817007801064,0.001081700818571,-0.0010817087508061,0.0010816928843012,-0.0010816932035641,0.0010817083752855,-0.0010817011940951,0.001081700421062,-0.00096116833409257,0.00096118208888979,-0.00096119048666339,0.00096115992441196,0.6641528588778,128566,2924,0.0048702071832292,0.0069577359664481,0.0038461255821705,38.003073198285,6.4024585586281e-05,6.4024585586281e-05,6.4024585586281e-05,3620926.6459185,0.01579867024472
37819200,0.99957491626262,0.01573103936988,0.0049927587439177,0.0065553247608731,0.0041829558650892,-0.0011713178418322,0.0011713168290188,1.0813808303072e-08,-1.1844543245792e-08,5.3643857723752e-09,-6.5964896331815e-09,-0.0013190815240044,0.0013190920133093,-0.0013190890432877,0.0013190844581487,-0.0013190853151969,0.0013190880353183,-0.0013190928774481,0.0013190804869484,-0.0011276902828952,0.0011277074774636,-0.0011277124917475,0.0011276852683771,-4.4430084680235e-09,7.6022981768327e-09,-1.0694556364585e-08,1.3656786667895e-08,-0.0016758431149354,0.0016758460921328,-0.001811984729058,0.0018119756761742,-0.001811976782312,0.0018119837897713,-0.0018119808388187,0.001811979683447,-0.0018119729103484,0.0018119877759138,-0.0014802669880969,0.0014802500408292,-0.001480243371105,0.0014802742328457,-0.0015568621847879,0.0015568614667947,-0.0015568504566767,0.0015568735255129,-1.1597878236402e-08,1.1187654991598e-08,-0.00092353965282411,0.00092353919194631,1.1575155482093e-08,-1.2413487627372e-08,-0.0010812971893637,0.0010812972049358,-0.0010813051837835,0.0010812892469481,-0.0010812895726874,0.0010813048019978,-0.0010812975864284,0.0010812968245745,-0.0009608005143438,0.00096081436007682,-0.0009608227862666,0.00096079207541053,0.64016141335291,128566,2924,0.0048688021040849,0.0069561408392158,0.0038447085670536,37.804268483427,6.2434147867417e-05,6.2434147867417e-05,6.2434147867417e-05,3621706.5899011,0.01579418176895
38019200,0.99960508463272,0.015731477356491,0.0049928964773792,0.0065555122768176,0.0041830686022942,-0.0011709053332806,0.0011709043236123,1.0881761495439e-08,-1.190928972129e-08,5.3510706628817e-09,-6.5798729547508e-09,-0.0013185869856214,0.0013185975124625,-0.0013185945490695,0.0013185899127958,-0.0013185907670508,0.0013185935441108,-0.0013185983733542,0.0013185859517843,-0.0011272177800783,0.0011272351172221,-0.0011272401184587,0.0011272127785478,-4.4283630739008e-09,7.5860885094386e-09,-1.0768822893029e-08,1.3729641039302e-08,-0.0016753159002173,0.0016753188760467,-0.0018115189370755,0.0018115098453134,-0.0018115109433511,0.001811518007593,-0.0018115150571109,0.00181151384202,-0.0018115070812948,0.0018115219834786,-0.001479689632363,0.0014796725289909,-0.001479665872311,0.0014796968670796,-0.0015563443844642,0.0015563437434158,-0.0015563326861279,0.0015563557720521,-1.1667037568601e-08,1.1245289595639e-08,-0.00092314291580108,0.00092314244327675,1.1631970434229e-08,-1.248326286498e-08,-0.001080769191886,0.0010807691962777,-0.0010807772286675,0.0010807611959167,-0.0010807615330501,0.0010807768354636,-0.0010807695888567,0.0010807688160252,-0.00096035910296906,0.00096037301940405,-0.00096038149970681,0.00096035061033045,0.66569813616333,128566,2924,0.0048670908916772,0.0069539642893805,0.0038430556321975,37.56001922902,6.0480153832161e-05,6.0480153832161e-05,6.0480153832161e-05,3624830.2662217,0.015788550839149
38219200,0.99963275657838,0.015731882410825,0.0049930239182147,0.0065556854027003,0.00418317308991,-0.0011704844997196,0.0011704834913796,1.0942957701871e-08,-1.1969173188922e-08,5.3450427332771e-09,-6.5724219383154e-09,-0.0013181276324189,0.0013181381961872,-0.0013181352356853,0.0013181305560287,-0.0013181314089582,0.0013181342325986,-0.0013181390558328,0.0013181265993128,-0.0011267680864204,0.0011267855493816,-0.0011267905437627,0.0011267630901021,-4.4143550960114e-09,7.570853799378e-09,-1.0811465736143e-08,1.3771204199341e-08,-0.0016748318659614,0.0016748348406097,-0.0018110695729387,0.0018110604611043,-0.0018110615511461,0.0018110686521656,-0.0018110657020385,0.001811064448305,-0.0018110576988861,0.0018110726180673,-0.0014791760052653,0.0014791588090745,-0.0014791521642435,0.0014791832299016,-0.0015558587198525,0.0015558581353399,-0.0015558470515021,0.0015558701341802,-1.1743036745384e-08,1.1307679361493e-08,-0.00092272963858486,0.00092272915225883,1.1699691521631e-08,-1.2566260069253e-08,-0.0010802947510658,0.001080294745268,-0.0010803028371179,0.0010802866956276,-0.0010802870459063,0.0010803024307797,-0.0010802951515731,0.0010802943614263,-0.00095992231396477,0.00095993630134811,-0.00095994484495835,0.00095991375791825,0.67076171498846,128566,2924,0.0048653457815282,0.0069519639149046,0.0038413371815457,37.314480569893,5.8515844559143e-05,5.8515844559143e-05,5.8515844559143e-05,3623386.954075,0.015782999518583
38419200,0.99965833236581,0.015732282411511,0.0049931502151769,0.006555854445932,0.004183277750402,-0.0011702997479712,0.0011702987378903,1.1004249365221e-08,-1.2032071310418e-08,5.3506503626517e-09,-6.5803226696005e-09,-0.0013179187230271,0.0013179293307823,-0.0013179263673306,0.00131792164941,-0.0013179225037108,0.001317925362977,-0.0013179301921936,0.0013179176879432,-0.0011265652815886,0.0011265828613326,-0.0011265878613484,0.0011265602794101,-4.4178129865517e-09,7.5745416830686e-09,-1.0824248389348e-08,1.3784199297585e-08,-0.0016746090523508,0.0016746120271967,-0.001810874377231,0.0018108652544576,-0.0018108663467262,0.001810873454336,-0.0018108705037467,0.0018108692443365,-0.0018108624924922,0.0018108774224185,-0.0014789251941346,0.001478907976107,-0.0014789013284167,0.0014789324210205,-0.0015556311568167,0.0015556305747801,-0.0015556194834266,0.0015556425809745,-1.1813223135613e-08,1.137276170721e-08,-0.00092254168658379,0.00092254119518953,1.1725305117801e-08,-1.2597261207733e-08,-0.0010800698257756,0.0010800697883838,-0.0010800779302619,0.0010800617202862,-0.0010800620752437,0.0010800775191996,-0.0010800701998927,0.0010800694308282,-0.00095972400514521,0.00095973810015191,-0.00095974666806136,0.00095971542550608,0.71253732117538,128566,2924,0.004864579644197,0.0069510433989464,0.0038405554583652,37.196690138948,5.7573521111581e-05,5.7573521111581e-05,5.7573521111581e-05,3622613.9496864,0.015780491581734
38619200,0.99968212362479,0.015732656579559,0.0049932683860741,0.0065560124651647,0.00418337572832,-0.0011703130218413,0.0011703120080154,1.1066527179868e-08,-1.2098041280491e-08,5.3650557575106e-09,-6.5988675375381e-09,-0.0013179782207239,0.0013179888783522,-0.0013179859075586,0.0013179811542776,-0.001317982012102,0.0013179848997843,-0.0013179897434175,0.0013179771816481,-0.0011266144947012,0.0011266321862302,-0.0011266372003685,0.0011266094775202,-4.4278255229697e-09,7.5855458766039e-09,-1.0803454460882e-08,1.3764287909041e-08,-0.0016746867841327,0.0016746897598451,-0.001810940621982,0.0018109315064377,-0.0018109326044265,0.0018109396925749,-0.0018109367414449,0.0018109355034297,-0.0018109287436429,0.001810943667568,-0.0014789997302518,0.0014789825604543,-0.0014789759045841,0.0014790069645403,-0.0015556885299111,0.0015556879150768,-0.0015556768371344,0.0015556999423297,-1.1878833564748e-08,1.143831285458e-08,-0.00092252551565977,0.0009225250242544,1.1725170779287e-08,-1.2597014372777e-08,-0.0010801297577115,0.0010801296763271,-0.0010801378619273,0.0010801216084429,-0.0010801219632804,0.0010801374509349,-0.0010801300880274,0.001080129362431,-0.00095973355682996,0.00095974777929816,-0.00095975634757481,0.00095972497709274,0.71625965882902,128566,2924,0.0048646354049145,0.006951362286263,0.0038404921035199,37.193727037809,5.7549816302471e-05,5.7549816302471e-05,5.7549816302471e-05,3617261.0008853,0.015780809518213
38819200,0.99970425838412,0.015733005921601,0.0049933787392744,0.0065561599211056,0.004183467261221,-0.0011703264123964,0.0011703253948555,1.112726419386e-08,-1.21625377489e-08,5.3796953026998e-09,-6.6173759371192e-09,-0.0013180403306456,0.0013180510367445,-0.0013180480584672,0.0013180432713443,-0.0013180441324722,0.0013180470477519,-0.0013180519057157,0.0013180392870739,-0.0011266680307962,0.0011266858315548,-0.0011266908598897,0.0011266629980392,-4.4285204154471e-09,7.5862876690015e-09,-1.0753783533471e-08,1.3714636101164e-08,-0.0016747725235116,0.0016747754992475,-0.0018110117672172,0.0018110026833945,-0.0018110037812683,0.0018110108367164,-0.0018110078856836,0.0018110066814263,-0.0018109999204711,0.0018110148115899,-0.001479085585639,0.0014790685151805,-0.0014790618577069,0.0014790928191204,-0.0015557557356335,0.0015557550877867,-0.001555744042231,0.0015557671142041,-1.1947488578756e-08,1.1503845143752e-08,-0.00092250919018422,0.00092250869567842,1.1738249771203e-08,-1.2613617853004e-08,-0.001080193012685,0.0010801928928437,-0.0010802011262405,0.0010801848155749,-0.0010801851729075,0.0010802007127114,-0.0010801933080705,0.0010801926137242,-0.00095974292116613,0.00095975726057172,-0.00095976584179294,0.00095973432852275,0.71844599496155,128566,2924,0.0048646916331996,0.0069517141630402,0.0038404281881546,37.193613270764,5.754890616611e-05,5.754890616611e-05,5.754890616611e-05,3612166.7394721,0.015781160848945
38880000,0.99971083767854,0.015733109889445,0.0049934115855383,0.006556203789301,0.0041834945146059,-0.0011703281750129,0.001170327158692,1.1148191562628e-08,-1.2182261862317e-08,5.3756783888825e-09,-6.611985262036e-09,-0.0013180582642958,0.0013180689821683,-0.0013180660060455,0.0013180612032923,-0.0013180620632641,0.0013180649961837,-0.0013180698500487,0.0013180572223309,-0.0011266898462891,0.0011267076907233,-0.0011267127159514,0.0011266848195843,-4.4326162552043e-09,7.5907922790358e-09,-1.0761207581789e-08,1.3722431636427e-08,-0.0016747993675871,0.0016748023437362,-0.0018110337637995,0.0018110246721491,-0.0018110257727042,0.0018110328311185,-0.0018110298796038,0.0018110286730091,-0.0018110219088064,0.001811036809113,-0.0014791121742203,0.0014790950910718,-0.001479088430528,0.001479119411312,-0.0015557775129745,0.001555776861834,-0.001555765810277,0.001555788897067,-1.1964075712027e-08,1.152544514934e-08,-0.00092250137257269,0.0009225008830962,1.1716706389045e-08,-1.2586637468853e-08,-0.0010802115730432,0.0010802114293751,-0.0010802196705855,0.0010802033682101,-0.0010802037207285,0.0010802192618386,-0.0010802118395269,0.001080211179309,-0.00095974422539102,0.00095975862420782,-0.00095976718388651,0.00095973565409948,0.71909629793838,128566,2924,0.0048646991561601,0.0069518242788334,0.0038403970325734,37.193609026319,5.754887221055e-05,5.754887221055e-05,5.754887221055e-05,3610558.5491326,0.015781249233691
