time,ASR_ext,ASR_strain,ASR_strain_xx,ASR_strain_yy,ASR_strain_zz,disp_x_101,disp_x_102,disp_x_103,disp_x_104,disp_x_105,disp_x_106,disp_x_p1_neg,disp_x_p1_pos,disp_x_p2_neg,disp_x_p2_pos,disp_x_p3_neg,disp_x_p3_pos,disp_x_p4_neg,disp_x_p4_pos,disp_x_p5_neg,disp_x_p5_pos,disp_x_p6_neg,disp_x_p6_pos,disp_y_101,disp_y_102,disp_y_103,disp_y_104,disp_y_105,disp_y_106,disp_y_p1_neg,disp_y_p1_pos,disp_y_p2_neg,disp_y_p2_pos,disp_y_p3_neg,disp_y_p3_pos,disp_y_p4_neg,disp_y_p4_pos,disp_y_p5_neg,disp_y_p5_pos,disp_y_p6_neg,disp_y_p6_pos,disp_y_p7_neg,disp_y_p7_pos,disp_y_p8_neg,disp_y_p8_pos,disp_z_101,disp_z_102,disp_z_103,disp_z_104,disp_z_105,disp_z_106,disp_z_p1_neg,disp_z_p1_pos,disp_z_p2_neg,disp_z_p2_pos,disp_z_p3_neg,disp_z_p3_pos,disp_z_p4_neg,disp_z_p4_pos,disp_z_p5_neg,disp_z_p5_pos,disp_z_p6_neg,disp_z_p6_pos,humidity,ndof,nelem,strain_xx,strain_yy,strain_zz,temp,thermal_strain_xx,thermal_strain_yy,thermal_strain_zz,vonmises,vstrain
2419200,0,0,0,0,0,0,0,0,0,0,0,0,0,0,0,0,0,0,0,0,0,0,0,0,0,0,0,0,0,0,0,0,0,0,0,0,0,0,0,0,0,0,0,0,0,0,0,0,0,0,0,0,0,0,0,0,0,0,0,0,0,0,0,0,0,0,0,0,0,0,0,0,0,0,0
2619200,0.019573689850943,0.0004015233683537,0.00013384112278457,0.00013384112278457,0.00013384112278457,-3.3538226393052e-05,3.353845846917e-05,9.6563442929481e-11,1.3350010515248e-10,-4.0730753520167e-10,6.5712931721661e-10,-3.333156740883e-05,3.3331434665385e-05,-3.3331471718113e-05,3.3331363615295e-05,-3.3331186047327e-05,3.3331747967108e-05,-3.333117349467e-05,3.3331760032023e-05,-3.4406455189373e-05,3.4407001702295e-05,-3.4406399959841e-05,3.4407018833234e-05,3.4882464302528e-10,-7.1718978383705e-10,-1.8679039015722e-08,1.8327249881683e-08,-3.5988151208595e-05,3.5987797314601e-05,-3.5421030035788e-05,3.5408911082661e-05,-3.5409208698914e-05,3.54213219564e-05,-3.5421368534559e-05,3.5408555181028e-05,-3.5409547263606e-05,3.5420966089961e-05,-3.6237161073191e-05,3.6200138993525e-05,-3.6201381863271e-05,3.6236995106375e-05,-3.6212508142257e-05,3.6225454749785e-05,-3.6213544703427e-05,3.6224386316834e-05,-3.9547933254811e-09,-3.9916242468456e-09,-3.3542349302091e-05,3.3534335557605e-05,1.3993856217227e-08,-2.2612659112741e-08,-3.3329308262741e-05,3.333361721819e-05,-3.3341442813366e-05,3.3321481704496e-05,-3.3329321930244e-05,3.3333606357024e-05,-3.3341456233107e-05,3.3321470571178e-05,-3.4416807456619e-05,3.4396629883717e-05,-3.4416768109414e-05,3.4396662658231e-05,0.81992967057937,128566,2924,0.00013973329799652,0.00014993857924289,0.00013973329799419,31.552099928518,1.2416799428147e-05,1.2416799428147e-05,1.2416799428147e-05,601845.3525129,0.00042949761494615
2819200,0.041163518743187,0.00083632218034876,0.0002772712765148,0.00028177962742064,0.00027727127641332,-6.8533952216754e-05,6.8531265863411e-05,-1.3307371156548e-09,-1.3333857015717e-09,4.4594242763856e-09,-7.3415863740096e-09,-6.9212954739174e-05,6.9214177106831e-05,-6.9212931110659e-05,6.921415301326e-05,-6.9216711293484e-05,6.9210232485956e-05,-6.9216713935321e-05,6.9210232075088e-05,-7.0030398521965e-05,7.0023830719236e-05,-7.0030392524321e-05,7.0023815896413e-05,-3.7882109413737e-09,8.0173705979125e-09,-5.7545718177774e-09,9.8026471121059e-09,-7.4743798982002e-05,7.4747868120664e-05,-7.4245060904002e-05,7.4240139765262e-05,-7.4240033981236e-05,7.4245315343688e-05,-7.4241312716023e-05,7.42440826958e-05,-7.4236287121382e-05,7.4249257003976e-05,-7.467596086421e-05,7.4668639825648e-05,-7.4660868233856e-05,7.4684096063548e-05,-7.467346203501e-05,7.467114351443e-05,-7.4661986273305e-05,7.4682972641543e-05,6.5203370791925e-10,6.5473859777006e-10,-6.8531973925632e-05,6.8533244081273e-05,8.2650633324922e-09,-7.2249642575742e-09,-6.9210282540072e-05,6.9216753645861e-05,-6.9215450962372e-05,6.9211594937993e-05,-6.9210264847871e-05,6.9216739082149e-05,-6.9215438676683e-05,6.9211583177259e-05,-7.0029054114611e-05,7.0025169791014e-05,-7.0029089318128e-05,7.0025203524758e-05,0.82138490772768,128566,2924,0.00028551183412303,0.00031139222491356,0.00028551183397065,32.739768925629,2.1918151405036e-05,2.1918151405036e-05,2.1918151405036e-05,875960.88293669,0.00088280587312661
3019200,0.062602492140696,0.0012619132171393,0.00041494130131475,0.00043203061466625,0.00041494130115826,-9.9501324974988e-05,9.9498181570024e-05,-1.5420504103939e-09,-1.5851455915056e-09,7.029322172507e-09,-1.0460268679141e-08,-0.00010111810243511,0.00010112075977467,-0.00010111814102945,0.00010112077114953,-0.00010112369234913,0.00010111494466344,-0.00010112371629635,0.00010111493838265,-0.00010171281470881,0.00010170392901432,-0.00010171286657523,0.00010170389262389,-5.9861429017044e-09,1.1529765138156e-08,3.6645507155205e-09,1.5920747884176e-09,-0.00011124375392788,0.00011124904271452,-0.00011092707274242,0.00011092724485847,-0.00011092767007016,0.00011092649845782,-0.00011092147774498,0.00011093307839064,-0.00011092207638542,0.00011093233074533,-0.00011064086441255,0.00011065395408313,-0.00011064281393902,0.00011065183524075,-0.00011065347314837,0.00011064095624805,-0.00011063641195563,0.00011065850491674,2.2343645185313e-09,2.2761890179998e-09,-9.9497500942358e-05,9.9502005500034e-05,1.2702456863295e-09,3.2916262487942e-09,-0.00010111747420539,0.00010112128897594,-0.00010111685068717,0.00010112194975861,-0.00010111744322924,0.00010112128742118,-0.00010111682441122,0.00010112194987858,-0.0001017057887478,0.00010171098455543,-0.00010170585730396,0.00010171097527491,0.82013325088996,128566,2924,0.00041449673239277,0.00046341855329449,0.00041449673217835,32.491742866074,1.9933942928596e-05,1.9933942928596e-05,1.9933942928596e-05,1201121.4687009,0.0012932488180492
3219200,0.083802594550361,0.0016706932241868,0.00054513373970073,0.0005804257449707,0.00054513373951538,-0.00012861090914617,0.0001286079884186,-1.4173067962827e-09,-1.5002880833195e-09,8.0646416420592e-09,-1.131150455219e-08,-0.00013147880546291,0.00013148232382921,-0.00013147887279077,0.00013148233742543,-0.00013148499900497,0.00013147589161239,-0.00013148503265383,0.00013147586835782,-0.00013134359718444,0.00013133432535815,-0.00013134366633773,0.00013133422806045,-6.678120675321e-09,1.2726998307747e-08,9.8206713187398e-09,-4.100305137397e-09,-0.00014722294634564,0.00014722870187852,-0.00014746012629355,0.00014746402586282,-0.00014746456919388,0.0001474593236996,-0.0001474538997007,0.00014747047166353,-0.00014745834391809,0.00014746576825553,-0.00014562983670302,0.00014565565156858,-0.00014564327557927,0.00014564175369437,-0.0001456513624576,0.00014563355522187,-0.00014563244544409,0.00014565298575158,2.9439152421955e-09,3.025417467093e-09,-0.00012860647093377,0.00012861242651336,-3.7658683019076e-09,9.9799133934146e-09,-0.00013147985855891,0.00013148116066648,-0.00013147534733269,0.00013148572182939,-0.00013147981902654,0.00013148117707895,-0.00013147531096748,0.00013148573822587,-0.0001313336686177,0.00013134427846382,-0.00013133375709636,0.00013134421148932,0.80675914060653,128566,2924,0.00053573017711408,0.00061325140072127,0.00053573017686862,32.203770423697,1.7630163389577e-05,1.7630163389577e-05,1.7630163389577e-05,1470274.8424912,0.0016861339438874
3419200,0.10474006566293,0.0020593707878763,0.00066688172687349,0.00072560733434408,0.00066688172665871,-0.00015571148988091,0.00015570901718336,-1.1784172625586e-09,-1.3011103270836e-09,8.2738762080395e-09,-1.1083892262832e-08,-0.00016016977266397,0.00016017374716078,-0.00016016985838167,0.00016017375263354,-0.00016017595549399,0.00016016732680741,-0.0001601759981181,0.0001601672860902,-0.00015866583815743,0.00015865704545312,-0.00015866591541199,0.00015865687863248,-6.5527485896315e-09,1.2825558600518e-08,1.357238613967e-08,-7.642840658148e-09,-0.00018242075837523,0.00018242672275473,-0.00018374153608956,0.00018374805083181,-0.00018374837109375,0.00018374092371331,-0.00018373530378316,0.00018375447369221,-0.00018374214005052,0.0001837473453688,-0.00017922857149197,0.00017926174572235,-0.00017924908767542,0.0001792406049729,-0.00017925481281334,0.00017923484602199,-0.00017923591862957,0.00017925424423498,3.1779268565302e-09,3.2992787170964e-09,-0.0001557070304456,0.00015571347648906,-7.0454907058084e-09,1.389367024933e-08,-0.00016017203083647,0.00016017137554019,-0.00016016513141016,0.00016017832888701,-0.00016017198143577,0.00016017140861025,-0.00016016508306846,0.00016017835990946,-0.0001586546632639,0.00015866822465427,-0.00015865477639153,0.00015866810413823,0.78589837060822,128566,2924,0.00064858458535842,0.00075980764552302,0.0006485845850886,31.9142842336,1.5314273868803e-05,1.5314273868803e-05,1.5314273868803e-05,1708279.0160034,0.0020590971615511
3619200,0.12593649912201,0.0024400566799943,0.00078436436605602,0.00087132794811923,0.00078436436581906,-0.00018244986337495,0.00018244786034341,-9.2439305247319e-10,-1.0908883512609e-09,8.1115814335944e-09,-1.0447676137651e-08,-0.00018869582977643,0.00018870002279271,-0.00018869593126656,0.0001887000210029,-0.00018870175302633,0.00018869387503847,-0.00018870181396745,0.00018869381734448,-0.00018539180556928,0.0001853837913646,-0.00018539191940294,0.00018538355697214,-6.2107271873197e-09,1.2398652306043e-08,1.5092212173756e-08,-9.2341628334581e-09,-0.00021848681042191,0.00021849270055215,-0.00022148586950656,0.00022149358898924,-0.00022149372936511,0.00022148543484445,-0.00022147987729441,0.00022149975250233,-0.00022148774455647,0.00022149159110052,-0.00021303382688979,0.00021306972705484,-0.00021305736426146,0.00021304550126984,-0.00021306158800771,0.00021304128471088,-0.00021304345919134,0.00021305989957538,3.0155712349299e-09,3.1726098120026e-09,-0.00018244579075327,0.00018245193283787,-8.7310644310043e-09,1.5352613207934e-08,-0.00018869889726635,0.00018869685332357,-0.00018869094727347,0.00018870485113639,-0.0001886988329644,0.00018869690138013,-0.0001886908903776,0.00018870489128912,-0.00018538061695902,0.00018539497039484,-0.00018538074927383,0.00018539481745267,0.77011575672417,128566,2924,0.00075991905950824,0.00090995566285412,0.0007599190592439,31.993879434012,1.5951035472098e-05,1.5951035472098e-05,1.5951035472098e-05,1961644.3168105,0.0024327526357616
3819200,0.14773836437595,0.0028270719660196,0.00090240962328546,0.0010222527197617,0.00090240962297248,-0.00020972551958867,0.00020972386210813,-7.3482488447781e-10,-9.3799965363708e-10,7.9080169131348e-09,-9.8907428724916e-09,-0.0002177954743794,0.00021779977470243,-0.00021779559293815,0.00021779976059299,-0.0002178011532817,0.00021779388179219,-0.00021780122657278,0.00021779381657724,-0.00021273263219777,0.00021272524041771,-0.00021273276554664,0.00021272496913647,-5.9530620128727e-09,1.187830735954e-08,1.5353325221549e-08,-9.7429015939632e-09,-0.00025633950619327,0.00025634514517691,-0.00026147076928249,0.00026147875089264,-0.00026147889067967,0.00026147034528625,-0.00026146502750358,0.00026148465151194,-0.00026147315177641,0.00026147624303625,-0.00024815708680118,0.00024819321992486,-0.00024818136103923,0.00024816825468734,-0.00024818485036069,0.00024816478783597,-0.0002481674699243,0.00024818263439757,2.6637436637734e-09,2.8635723807954e-09,-0.00020972195568646,0.0002097274258425,-9.4006123557454e-09,1.5378667428333e-08,-0.00021779906424291,0.00021779609199642,-0.00021779088208102,0.00021780431905532,-0.00021779898834705,0.00021779615208177,-0.00021779080821739,0.00021780437535296,-0.00021272193710375,0.00021273591758687,-0.00021272211718178,0.00021273571318357,0.77140161289956,128566,2924,0.00087347870545817,0.001067516228004,0.00087347870510943,32.32533547584,1.8602683806724e-05,1.8602683806724e-05,1.8602683806724e-05,2223782.6840527,0.0028184442200248
4019200,0.17013548117322,0.0032214061972818,0.0010213089108251,0.0011787883759939,0.0010213089104629,-0.00023711851161888,0.00023711706177677,-6.1181689095991e-10,-8.5531988292635e-10,7.7594618492857e-09,-9.5290191719832e-09,-0.00024718517938531,0.0002471895311781,-0.00024718531157729,0.00024718950485261,-0.00024719069383465,0.00024718381221345,-0.00024719078354676,0.00024718373551351,-0.00024022797337455,0.0002402209989149,-0.00024022814916536,0.00024022068774356,-5.8261240595121e-09,1.1495974004768e-08,1.5217237244245e-08,-9.8499373949533e-09,-0.00029567392014771,0.00029567931290501,-0.00030323990762199,0.00030324780325949,-0.00030324802530847,0.00030323941154734,-0.00030323432839886,0.00030325353406864,-0.00030324244945806,0.00030324513901362,-0.00028439656474776,0.00028443225611649,-0.0002844208096872,0.00028440732276072,-0.00028442398518724,0.00028440417609367,-0.00028440709926911,0.0002844215159825,2.3332203385819e-09,2.5721898427993e-09,-0.00023711536617533,0.00023712020701927,-9.6931109407614e-09,1.5055777050773e-08,-0.00024718911855335,0.00024718550634267,-0.00024718094628952,0.00024719372139618,-0.00024718902953856,0.00024718558044033,-0.00024718085986008,0.00024719379019734,-0.00024021778451953,0.00024023116972955,-0.00024021800171358,0.00024023092915926,0.77299485391059,128566,2924,0.00098751511895721,0.0012312170137544,0.00098751511853936,32.66285077323,2.1302806185838e-05,2.1302806185838e-05,2.1302806185838e-05,2470177.826428,0.0032114014902065
4219200,0.19310188122689,0.0036234139142472,0.0011410745615416,0.0013412647915575,0.0011410745611481,-0.0002646107533083,0.00026460943114959,-5.2882026646728e-10,-8.1196939248544e-10,7.6421090547976e-09,-9.2797286200723e-09,-0.00027698468490663,0.00027698905512942,-0.00027698482968171,0.00027698901481474,-0.00027699008021392,0.00027698346140515,-0.00027699018512601,0.00027698337361449,-0.00026786259485186,0.00026785590827623,-0.00026786281090247,0.00026785556003376,-5.731492440752e-09,1.1222361448385e-08,1.4996011709474e-08,-9.7980217122359e-09,-0.00033660485658771,0.00033661007767416,-0.0003467929908342,0.00034680074793821,-0.0003468010228986,0.00034679244982603,-0.00034678752951911,0.00034680635558778,-0.00034679556482003,0.00034679805426375,-0.00032197823498821,0.00032201336714443,-0.00032200220563033,0.00032198869566707,-0.00032200524056005,0.00032198570072999,-0.00032198871012883,0.00032200267729585,2.0639569381012e-09,2.3427492712592e-09,-0.00026460792399649,0.00026461226024408,-9.803067125352e-09,1.4670709286323e-08,-0.00027698885337625,0.00027698480533667,-0.00027698077478316,0.00027699292516181,-0.00027698875150854,0.00027698489298425,-0.00027698067485548,0.00027699300714898,-0.00026785282769268,0.00026786565828821,-0.00026785308356405,0.00026786537809575,0.77488673335626,128566,2924,0.0011019533904086,0.0014015326263999,0.0011019533899569,33.000590102145,2.4004720817158e-05,2.4004720817158e-05,2.4004720817158e-05,2696699.314341,0.0036119589950112
4419200,0.21700683297607,0.0040395105211957,0.0012634616977637,0.0015125871260751,0.001263461697357,-0.00029309220108227,0.00029309096860837,-4.6101275250003e-10,-7.9098196436939e-10,7.5281875015431e-09,-9.0728278720864e-09,-0.00030808625226998,0.00030809061519527,-0.0003080864041337,0.00030809056330296,-0.00030809153817389,0.00030808513635392,-0.00030809166677345,0.00030808502865343,-0.00029652194545201,0.00029651552064378,-0.00029652222787581,0.00029651510789298,-5.6467837117661e-09,1.1002247505832e-08,1.4477911026418e-08,-9.406989705157e-09,-0.00038029621692702,0.00038030130906965,-0.000393291142567,0.00039329856829934,-0.0003932988791441,0.00039329058340355,-0.00039328577288887,0.00039330408007732,-0.00039329352515142,0.00039329607955729,-0.00036207653786598,0.00036211056926916,-0.00036209963919837,0.00036208677276905,-0.00036210275826487,0.00036208370157206,-0.00036208654499702,0.00036210035856663,1.8043734780498e-09,2.1157984789216e-09,-0.00029308966278286,0.00029309350667051,-9.6229139238351e-09,1.3995435855682e-08,-0.00030809053212444,0.00030808625568459,-0.00030808273283318,0.00030809409501951,-0.00030809041347869,0.00030808636080548,-0.00030808262830603,0.00030809418177212,-0.00029651268955072,0.0002965247574175,-0.00029651295709641,0.00029652446381357,0.77612068293683,128566,2924,0.0012204976798126,0.001583301040906,0.0012204976793206,33.594772779982,2.8758182239858e-05,2.8758182239858e-05,2.8758182239858e-05,2916050.0559419,0.0040324215311819
4619200,0.24198771599459,0.0044717167165293,0.0013889138914845,0.0016938889339591,0.0013889138910857,-0.00032239036236896,0.00032238918412548,-4.1472229721978e-10,-7.8362332880387e-10,7.4364540200225e-09,-8.9231862295064e-09,-0.00034031467643807,0.000340319026842,-0.00034031483794016,0.00034031895768812,-0.00034031988625772,0.00034031362956158,-0.00034032002717983,0.00034031350909301,-0.00032605722722837,0.00032605097245765,-0.0003260575420448,0.00032605052013841,-5.5768794923802e-09,1.0828647340639e-08,1.3952576569334e-08,-8.9782216677851e-09,-0.00042667917499394,0.00042668416902968,-0.00044271101285984,0.00044271810659388,-0.00044271844327487,0.00044271044506918,-0.00044270572091554,0.00044272353736392,-0.0004427131676616,0.0004427158594106,-0.00040457840932549,0.00040461132375569,-0.000404600582538,0.00040458847802493,-0.00040460385533495,0.00040458524790482,-0.00040458787526898,0.00040460166579604,1.5951151634949e-09,1.9470532665538e-09,-0.00032238804278411,0.00032239150337023,-9.347260963932e-09,1.3325526271713e-08,-0.00034031899182091,0.00034031463245479,-0.00034031150626762,0.0003403221562506,-0.00034031886060034,0.00034031475103057,-0.00034031138823425,0.00034032225735394,-0.00032604838049713,0.00032605979534858,-0.00032604868778478,0.00032605945780692,0.7769364678269,128566,2924,0.0013424294978206,0.0017762290177938,0.0013424294971146,34.292657744236,3.434126195389e-05,3.434126195389e-05,3.434126195389e-05,3129406.8057349,0.0044710762955089
4819200,0.26801363871638,0.0049194007131443,0.0015171932757598,0.0018850141620929,0.0015171932752916,-0.00035226847622809,0.00035226732904543,-3.7975507980549e-10,-7.8795808818082e-10,7.3605181713556e-09,-8.8125531114487e-09,-0.0003733955160432,0.00037339984966136,-0.00037339568699484,0.00037339976294996,-0.0003734006687938,0.00037339451524846,-0.00037340082119715,0.00037339438067317,-0.00035623280873783,0.00035622668372035,-0.00035623315488258,0.00035622618775394,-5.521721723574e-09,1.0695394557479e-08,1.3523369548005e-08,-8.6213055724886e-09,-0.00047549261583092,0.00047549753642356,-0.00049483164777174,0.0004948384720217,-0.00049483882546013,0.00049483107549787,-0.00049482641716202,0.0004948438392203,-0.00049483361025531,0.0004948364271715,-0.00044917924889155,0.00044921125442468,-0.00044920066163606,0.00044918919607519,-0.00044920406479982,0.00044918582497942,-0.00044918826470371,0.00044920205635997,1.4554869200327e-09,1.847568883389e-09,-0.00035226629359092,0.00035226951126785,-9.0855849005738e-09,1.2807899426296e-08,-0.00037339982063468,0.00037339546638546,-0.00037339259331183,0.0003734027301367,-0.00037339967711251,0.00037339559862125,-0.00037339246233012,0.00037340284566362,-0.00035622425343227,0.00035623520974428,-0.0003562245983766,0.00035623482930563,0.77792179602884,128566,2924,0.0014667634222507,0.0019792233025737,0.001466763421389,34.993073996565,3.9944591972518e-05,3.9944591972518e-05,3.9944591972518e-05,3336024.0533233,0.004924868079781
5019200,0.29503624917153,0.0053803240951613,0.0016476287226546,0.0020850666503817,0.001647628722125,-0.0003825761493498,0.00038257501824135,-3.5194547358218e-10,-7.9976335151041e-10,7.2931755209674e-09,-8.725470727594e-09,-0.00040719082270255,0.00040719513504913,-0.0004071910024358,0.00040719503039954,-0.00040719592855468,0.00040718985274914,-0.00040719609176719,0.00040718970282886,-0.00038687971088885,0.00038687369101678,-0.00038688008819802,0.00038687314926486,-5.4738204117497e-09,1.0587671448302e-08,1.3177070313371e-08,-8.3298373722596e-09,-0.00052651563230459,0.00052652049713265,-0.00054948118397256,0.00054948779465283,-0.00054948815590916,0.0005494806121244,-0.00054947600433206,0.0005494931092976,-0.00054948299102498,0.0005494859119144,-0.00049558814334549,0.00049561941561216,-0.00049560894197458,0.00049559799616785,-0.00049561244654336,0.00049559451349743,-0.00049559679667078,0.00049561058889193,1.3679209023589e-09,1.7998348153228e-09,-0.00038257404352854,0.00038257712360073,-8.8463681465696e-09,1.2417374275366e-08,-0.00040719508507286,0.0004071907930291,-0.00040718806557683,0.00040719784727338,-0.00040719492939712,0.00040719093934755,-0.00040718792221888,0.00040719797722165,-0.00038687135739978,0.00038688200909914,-0.00038687173867454,0.0003868815863905,0.7767732624549,128566,2924,0.001592873985811,0.0021913579749888,0.0015928739848512,35.693584263072,4.5548674104575e-05,4.5548674104575e-05,4.5548674104575e-05,3532273.9397097,0.005391628905576
5219200,0.32235933790795,0.0058444644522378,0.001777539913435,0.0022893846259373,0.0017775399128655,-0.0004120098636199,0.00041200873317212,-3.2814710037453e-10,-8.2267841730463e-10,7.2432428545618e-09,-8.6715283779516e-09,-0.00044025604978545,0.00044026033699398,-0.00044025623613986,0.00044026022066008,-0.00044026111752708,0.00044025509718829,-0.00044026130056091,0.00044025492312758,-0.00041672721234966,0.00041672129203698,-0.00041672764906295,0.00041672068023081,-5.4377614480322e-09,1.0522102872598e-08,1.3241455782556e-08,-8.4198562196427e-09,-0.00057783610336971,0.00057784094185739,-0.0006046760416794,0.00060468270335821,-0.00060468305326495,0.00060467547444588,-0.00060467088943976,0.00060468799003888,-0.00060467792839809,0.00060468073365863,-0.00054199692411873,0.0005420283075481,-0.00054201789345287,0.0005420067169842,-0.00054202125999917,0.0005420033685588,-0.00054200572708242,0.00054201932145948,1.3899955988064e-09,1.8546984209864e-09,-0.00041200771923936,0.00041201087714509,-8.891569943024e-09,1.2539094759959e-08,-0.00044026029596702,0.00044025601108944,-0.00044025321406116,0.00044026312641865,-0.0004402601239873,0.00044025617579859,-0.00044025306718246,0.00044026326186615,-0.00041671883479606,0.00041672963239244,-0.00041671922639825,0.00041672919390038,0.77855552787052,128566,2924,0.0017153392570052,0.0024046777902737,0.0017153392561574,36.02298997797,4.8183919823758e-05,4.8183919823758e-05,4.8183919823758e-05,3707700.509944,0.0058524675815776
5419200,0.34977904729733,0.0063020774571176,0.0019042613723223,0.0024935547130926,0.0019042613717027,-0.0004405306359184,0.00044052949888046,-3.1091942960831e-10,-8.4590741467994e-10,7.2023981161778e-09,-8.6346190453152e-09,-0.00047270253944147,0.00047270680744398,-0.00047270273628778,0.00047270667573212,-0.00047270758496766,0.0004727015953871,-0.00047270778008037,0.00047270140528549,-0.00044565277857169,0.0004456469187967,-0.00044565325323363,0.00044564626292711,-5.4181059164952e-09,1.0460076401434e-08,1.3324469652304e-08,-8.5442681870307e-09,-0.00062906413054235,0.0006290689269385,-0.00066005173633683,0.0006600584478623,-0.00066005881045848,0.00066005114991731,-0.00066004660825207,0.00066006371046951,-0.00066005371340986,0.00066005638123002,-0.00058796576175483,0.00058799728308302,-0.00058798693450871,0.00058797548436755,-0.00058799017980996,0.00058797225802698,-0.00058797472601561,0.00058798812798945,1.4091966222835e-09,1.9129899392591e-09,-0.00044052844854047,0.00044053168584891,-8.9552090598045e-09,1.2682876863243e-08,-0.00047270677707015,0.00047270249098335,-0.00047269962495651,0.00047270967468936,-0.00047270659228179,0.0004727026700349,-0.00047269946661917,0.00047270982357174,-0.00044564433898782,0.00044565531895604,-0.00044564476562035,0.00044565484176855,0.76958003763444,128566,2924,0.0018339989321233,0.0026175602042899,0.0018339989312713,36.275830718315,5.0206645746519e-05,5.0206645746519e-05,5.0206645746519e-05,3854473.7372601,0.0063054199655616
5619200,0.37721541325397,0.006736596726153,0.0020230488247459,0.0026904990772677,0.0020230488241393,-0.00046725343670291,0.00046725229358033,-2.9414606369775e-10,-8.6814713571167e-10,7.1671511706252e-09,-8.6033489315957e-09,-0.00050405992686543,0.00050406418122236,-0.00050406013577996,0.00050406403394823,-0.00050406495596216,0.00050405899153109,-0.00050406516222112,0.00050405878792856,-0.00047246839183379,0.00047246258483248,-0.00047246890033007,0.00047246189028332,-5.4095401701728e-09,1.039886621304e-08,1.3360836453647e-08,-8.6318784493915e-09,-0.00067895600694372,0.00067896075143482,-0.00071459030101629,0.00071459702424403,-0.00071459741396099,0.00071458968223037,-0.00071458519557959,0.00071460226423414,-0.00071459233838467,0.00071459489208398,-0.00063204392103153,0.0006320754869034,-0.0006320652085935,0.00063205356620878,-0.0006320683742342,0.00063205042295607,-0.00063205298334187,0.00063206622735678,1.4146644878625e-09,1.9589822703734e-09,-0.0004672512198811,0.0004672545100163,-8.9890224309762e-09,1.2771308733007e-08,-0.00050406415806803,0.0005040598732014,-0.00050405696585598,0.00050406709547799,-0.00050406396096782,0.00050406006532465,-0.00050405679391556,0.00050406725912357,-0.00047245991113124,0.00047247102322585,-0.0004724603787188,0.00047247050375995,0.73637049083659,128566,2924,0.0019451740633748,0.0028248368472826,0.001945174062572,36.526740918462,5.2213927347696e-05,5.2213927347696e-05,5.2213927347696e-05,3969861.9508777,0.0067378632490455
5819200,0.40458813562127,0.0071521933750541,0.0021355576892019,0.0028810779972191,0.0021355576886331,-0.00049252064736635,0.00049251949946019,-2.7650722772488e-10,-8.9008669842518e-10,7.1364071767072e-09,-8.5759893781025e-09,-0.00053458317830309,0.00053458742246939,-0.00053458339964468,0.00053458726079019,-0.00053458819252205,0.00053458225273399,-0.00053458841135828,0.000534582035662,-0.00049762060826367,0.00049761485490604,-0.00049762115264452,0.00049761411909407,-5.4029409225106e-09,1.0344562752003e-08,1.3350813095971e-08,-8.668172947943e-09,-0.00072780580057555,0.00072781049818489,-0.00076852605761936,0.00076853276265719,-0.00076853317845263,0.00076852540986479,-0.00076852097175433,0.00076853798280757,-0.0007685281215745,0.00076853060081017,-0.00067465151850448,0.00067468304267998,-0.00067467282846304,0.00067466109553034,-0.00067467594983892,0.00067465799933731,-0.0006746606156147,0.00067467374579769,1.4087366320583e-09,1.9930062056829e-09,-0.00049251841408832,0.00049252173239773,-8.9875020884217e-09,1.2799391762923e-08,-0.00053458740107948,0.0005345831249868,-0.00053458020036015,0.00053459035495068,-0.00053458719099175,0.00053458333029389,-0.00053458001507821,0.00053459053221436,-0.00049761211527127,0.00049762330237825,-0.00049761262233281,0.00049762274375991,0.71317584286592,128566,2924,0.0020502908507117,0.0030277333345981,0.0020502908500037,36.777578914011,5.4220631312088e-05,5.4220631312088e-05,5.4220631312088e-05,4079944.4352529,0.0071538791513226
6019200,0.43141221173901,0.0075496798430754,0.0022423205367362,0.0030650387701562,0.002242320536183,-0.00051593651838515,0.0005159353703557,-2.5783822779266e-10,-9.0862690164844e-10,7.1088117938678e-09,-8.5463864531133e-09,-0.00056358740955754,0.00056359165078968,-0.0005635876478147,0.0005635914740976,-0.00056359241204154,0.00056358649756194,-0.00056359264036635,0.00056358627217637,-0.0005208984767039,0.00052089276736579,-0.00052089904791276,0.00052089200636211,-5.3963488053953e-09,1.0290881401255e-08,1.348580427576e-08,-8.8489047649747e-09,-0.00077502107749815,0.00077502572890762,-0.00082091085761239,0.00082091764304198,-0.00082091808305533,0.0008209101799254,-0.00082090579384494,0.00082092283981851,-0.00082091304090355,0.00082091535492896,-0.00071563854893368,0.00071567030715166,-0.00071566015367295,0.00071564805575664,-0.00071566314493755,0.00071564509044032,-0.00071564785507533,0.00071566078703656,1.4293329199064e-09,2.0559204107182e-09,-0.00051593424281751,0.00051593764575103,-9.101855279569e-09,1.3004370623272e-08,-0.00056359164861994,0.00056358734108846,-0.0005635843462667,0.00056359467213513,-0.00056359142786821,0.00056358755682264,-0.00056358414326445,0.00056359486686868,-0.00052088988655395,0.00052090131513037,-0.000520890446287,0.0005209007056381,0.70261523626163,128566,2924,0.0021477042288351,0.0032237947087661,0.0021477042284749,36.775494810606,5.4203958484849e-05,5.4203958484849e-05,5.4203958484849e-05,4167785.9112238,0.0075476595838979
6219200,0.45761710874048,0.0079391083321744,0.002346583252256,0.0032459418281261,0.0023465832517923,-0.00053859387890866,0.00053859273055004,-2.377076505768e-10,-9.2881023509609e-10,7.083652438569e-09,-8.5202474025845e-09,-0.00059180753649509,0.00059181177311724,-0.00059180778775169,0.00059181158434609,-0.00059181252394293,0.0005918066385384,-0.00059181276680414,0.0005918063991824,-0.00054343473721633,0.00054342908699663,-0.00054343535165386,0.0005434282843147,-5.3915171041769e-09,1.0242482215023e-08,1.3538296613243e-08,-8.9436266459628e-09,-0.00082160001129682,0.00082160462015353,-0.00087258457305127,0.00087259138168108,-0.00087259184572135,0.00087258386846506,-0.00087257952594247,0.00087259656064969,-0.00087258681979654,0.00087258902621918,-0.00075614103891595,0.00075617288439902,-0.00075616278657174,0.00075615048207404,-0.00075616569648134,0.00075614760341475,-0.00075615045842637,0.00075616324529887,1.4335168323564e-09,2.0993081480141e-09,-0.00053859157896184,0.00053859503035396,-9.1469780922157e-09,1.3103356204502e-08,-0.00059181178156864,0.00059180746001936,-0.0005918044310895,0.00059181483861173,-0.00059181154670519,0.00059180768956292,-0.000591804215784,0.00059181504553243,-0.00054342611159127,0.00054343766965063,-0.00054342670744292,0.00054343702543211,0.70745492177554,128566,2924,0.0022419602334604,0.0034171709884647,0.0022419602331621,36.758761125694,5.4070089005549e-05,5.4070089005549e-05,5.4070089005549e-05,4238222.8619589,0.0079325260324063
6419200,0.48316240115275,0.0083151728361217,0.002446744698256,0.0034216834399876,0.0024467446978781,-0.00056024522195777,0.0005602440731243,-2.1794814636131e-10,-9.4885747397421e-10,7.0594278464381e-09,-8.4953586555069e-09,-0.00061907331018894,0.00061907754339305,-0.00061907357420517,0.00061907734100489,-0.00061907828361627,0.00061907242571457,-0.00061907853948006,0.00061907217274891,-0.0005649151475967,0.00056490955253211,-0.00056491580164069,0.00056490871097922,-5.3860971606936e-09,1.019666000783e-08,1.3526923741853e-08,-8.9717430439967e-09,-0.0008670107643646,0.00086701533349903,-0.00092307021253766,0.00092307700369004,-0.00092307749078661,0.00092306948436163,-0.00092306518117369,0.0009230821657745,-0.00092307248063327,0.00092307462525021,-0.00079554957511964,0.00079558138212818,-0.00079557133859825,0.00079555896021129,-0.000795574210997,0.00079555612270695,-0.00079555902216147,0.00079557171263347,1.4234721042352e-09,2.1289676891488e-09,-0.00056024291181159,0.00056024638315061,-9.1432867322489e-09,1.3122761345947e-08,-0.00061907755411788,0.00061907323279111,-0.00061907019904795,0.00061908061563923,-0.00061907730588089,0.00061907347556817,-0.00061906997052482,0.00061908083572102,-0.00056490651791284,0.00056491813809937,-0.00056490715310089,0.00056491745595236,0.70210893135506,128566,2924,0.0023320307913649,0.003605654980012,0.0023320307911148,36.741600444526,5.3932803556205e-05,5.3932803556205e-05,5.3932803556205e-05,4301134.4241428,0.0083041689309494
6619200,0.50842398937316,0.0087098919567387,0.0025528149552224,0.0036042620466319,0.0025528149548844,-0.00058325423222925,0.00058325307609656,-2.0071415800775e-10,-9.7260940667323e-10,7.0509857586157e-09,-8.4951444007287e-09,-0.00064713949520441,0.00064714373064968,-0.00064713977006649,0.00064714351499127,-0.00064714446499981,0.00064713861746516,-0.00064714473605614,0.00064713834927648,-0.0005881119059191,0.00058810635331727,-0.00058811260833764,0.00058810547039928,-5.3995279748032e-09,1.0173299743941e-08,1.3252396622909e-08,-8.7332358518453e-09,-0.00091380741646046,0.00091381194946362,-0.00097490303021638,0.00097490961908254,-0.00097491014323795,0.00097490227280475,-0.00097489800019113,0.00097491477980091,-0.00097490513756271,0.00097490740919914,-0.00083648249632527,0.00083651376542689,-0.00083650376396434,0.00083649184538016,-0.00083650679660813,0.00083648885580611,-0.00083649162448467,0.00083650443397137,1.3693226222827e-09,2.1133961891162e-09,-0.00058325195299495,0.00058325535498415,-8.9236694901402e-09,1.2829737453335e-08,-0.00064714369717355,0.00064713946160681,-0.00064713651067153,0.00064714667560482,-0.00064714343408745,0.00064713971840074,-0.00064713627053306,0.00064714690670344,-0.00058810339867427,0.00058811481087587,-0.00058810406923325,0.00058811409760778,0.74070666480678,128566,2924,0.0024277445343801,0.0037998511304576,0.002427744533663,37.009005769708,5.6072046157668e-05,5.6072046157668e-05,5.6072046157668e-05,4369468.6703374,0.0086930981403603
6819200,0.53449798326923,0.0091497837581066,0.0026720278277567,0.003805728102871,0.0026720278274789,-0.00061017850687684,0.00061017732373304,-1.8848837955939e-10,-1.0102726072487e-09,7.0876651870926e-09,-8.5639691176808e-09,-0.00067845308335982,0.0006784573346448,-0.00067845336095528,0.00067845710821484,-0.00067845807696577,0.00067845219533307,-0.0006784583739604,0.00067845190028086,-0.00061573301939928,0.0006157274878009,-0.00061573380614388,0.00061572653321538,-5.4677019946631e-09,1.0211487901907e-08,1.247592801958e-08,-7.9864066730229e-09,-0.00096546959057488,0.000965474093769,-0.0010317212212883,0.0010317272365967,-0.0010317278383056,0.0010317204114473,-0.001031716146918,0.0010317324440404,-0.0010317228087894,0.0010317255739749,-0.00088197100075832,0.00088200080881401,-0.00088199081783065,0.0008819803718636,-0.00088199439328553,0.00088197684947011,-0.00088197915482444,0.00088199251309653,1.2378865268189e-09,2.0115831569938e-09,-0.00061017633114834,0.0006101794984248,-8.2830685373831e-09,1.1933894918841e-08,-0.00067845716164115,0.00067845318447801,-0.00067845047349117,0.00067845989995908,-0.0006784568781192,0.00067845346020204,-0.00067845023265245,0.00067846013063364,-0.00061572488542904,0.00061573555644373,-0.00061572556116917,0.00061573484736062,0.79221450859599,128566,2924,0.0025397347967583,0.0040141906890306,0.0025397347946192,38.07420495005,6.4593639600398e-05,6.4593639600398e-05,6.4593639600398e-05,4482017.5490217,0.0091353574250347
7019200,0.56128399509625,0.0095646139988913,0.0027821154884155,0.0040003830222321,0.0027821154882436,-0.00063568004574756,0.00063567884834084,-1.7750324359996e-10,-1.035348762041e-09,7.1014765811456e-09,-8.5927050579352e-09,-0.00070942889696967,0.00070943316387083,-0.00070942918601591,0.0007094329179317,-0.00070943390694121,0.00070942800603483,-0.00070943421150464,0.0007094277008314,-0.00064149236721413,0.00064148683116994,-0.00064149317452403,0.00064148584883983,-5.5015113450754e-09,1.0219901143624e-08,1.1917042009312e-08,-7.4539008967677e-09,-0.0010171206558521,0.0010171251330639,-0.0010886133086674,0.0010886189277771,-0.0010886195798564,0.0010886124686599,-0.0010886082203818,0.0010886241494682,-0.0010886145355854,0.0010886176456864,-0.00092720742059722,0.00092723613724876,-0.00092722618686413,0.00092721680785036,-0.00092723013640197,0.00092721287847173,-0.00092721484773574,0.00092722859005864,1.1354755445411e-09,1.9525553389558e-09,-0.00063567794560142,0.000635680947599,-7.8445126123479e-09,1.1304890795116e-08,-0.00070943288926689,0.00070942909575907,-0.00070942655735236,0.00070943545530778,-0.00070943259447464,0.00070942938223416,-0.00070942629887312,0.00070943570355559,-0.0006414844617322,0.00064149467501592,-0.0006414851909596,0.00064149391261387,0.73335807221549,128566,2924,0.0026458111178609,0.0042284191658943,0.0026458111160245,39.158409271552,7.3267274172419e-05,7.3267274172419e-05,7.3267274172419e-05,4523483.6662415,0.0095657614411308
7219200,0.58863137660889,0.0099709404711997,0.0028892212009152,0.0041924980696718,0.0028892212006126,-0.00066075924950852,0.00066075804409583,-1.6166229152833e-10,-1.0590396884168e-09,7.1034886502628e-09,-8.604160606829e-09,-0.00074046737392224,0.00074047165169979,-0.00074046767343332,0.00074047138931823,-0.0007404723873788,0.00074046648796129,-0.00074047270469007,0.00074046616954717,-0.00066652820043541,0.0006665226905033,-0.00066652904464415,0.00066652166887073,-5.5192384911703e-09,1.0213969933906e-08,1.1503554847208e-08,-7.0646342638314e-09,-0.001068548982216,0.0010685534354464,-0.0011458011574472,0.0011458064870015,-0.0011458071757914,0.0011458002972534,-0.0011457960655952,0.0011458117121819,-0.0011458021262142,0.0011458054796516,-0.00097194092205457,0.00097196882589594,-0.00097195891678644,0.00097195031036603,-0.0009719631297067,0.00097194609672683,-0.00097194782628235,0.00097196182683032,1.0563940318764e-09,1.9133955029714e-09,-0.00066075720570758,0.00066076008705687,-7.522402001253e-09,1.0841067274648e-08,-0.00074047130499304,0.00074046764180719,-0.00074046523269661,0.00074047374198126,-0.00074047099673309,0.0007404679408867,-0.00074046496039923,0.00074047400340633,-0.00066652047715512,0.0006665303541422,-0.00066652124670132,0.00066652955273296,0.70718848351683,128566,2924,0.002750131765686,0.0044416639828525,0.0027501317639485,40.24331802375,8.1946544190001e-05,8.1946544190001e-05,8.1946544190001e-05,4565451.3491838,0.0099918134930064
7419200,0.61554461023324,0.010356138146415,0.0029902959684002,0.0043755462100622,0.0029902959679525,-0.00068347275988635,0.0006834715729958,-1.2953799099925e-10,-1.0735658789065e-09,7.0513342898939e-09,-8.5276900815687e-09,-0.00076953432142722,0.0007695385810678,-0.00076953462798165,0.00076953831056962,-0.00076953928395023,0.0007695334677562,-0.00076953962370793,0.00076953312491205,-0.00068889726025212,0.00068889187621704,-0.00068889816854348,0.00068889078204159,-5.466925609587e-09,1.0133378182282e-08,1.1715360106232e-08,-7.3043630406642e-09,-0.0011170823752217,0.0011170868009068,-0.0012003269385192,0.0012003324239413,-0.0012003330951155,0.0012003260921145,-0.0012003218799486,0.0012003376118429,-0.0012003280941555,0.0012003312219261,-0.0010137994463262,0.0010138277473833,-0.0010138179242801,0.0010138087771071,-0.0010138218612986,0.0010138048049887,-0.0010138066998072,0.001013820369304,1.0862718760534e-09,1.9762273602564e-09,-0.00068347068008408,0.00068347365237703,-7.6954714432769e-09,1.109932557081e-08,-0.00076953827779815,0.0007695345462179,-0.00076953205375558,0.00076954079872846,-0.00076953795121783,0.00076953486495381,-0.00076953177889082,0.00076954106354943,-0.00068888948241702,0.00068889960595371,-0.0006888902589897,0.00068889879423223,0.68501444014266,128566,2924,0.0028446186826931,0.004642849181775,0.002844618681809,40.771100550638,8.6168804405108e-05,8.6168804405108e-05,8.6168804405108e-05,4592003.8013477,0.010385992392234
7619200,0.64128352554635,0.0107160573958,0.0030845592192631,0.0045469389574325,0.0030845592191042,-0.00070377605630857,0.000703774898236,-9.7061750407357e-11,-1.0783870153258e-09,6.9766377158964e-09,-8.4197877803511e-09,-0.00079606484027046,0.0007960690817687,-0.00079606516481881,0.00079606880024986,-0.00079606974632007,0.00079606402759864,-0.00079607009749051,0.00079606367460224,-0.00070863435666972,0.00070862908748316,-0.0007086352965514,0.00070862796803792,-5.3903017345115e-09,1.0024578253016e-08,1.219480598293e-08,-7.8153327728896e-09,-0.0011621240823164,0.0011621284764963,-0.0012512637283791,0.0012512695679435,-0.0012512702012107,0.0012512629023598,-0.0012512587280769,0.0012512746930627,-0.001251265257802,0.0012512679696075,-0.0010524278779761,0.0010524570558655,-0.0010524473095325,0.0010524371002974,-0.0010524508132859,0.0010524335758269,-0.00105243582324,0.0010524489560298,1.1590764921448e-09,2.0913624868116e-09,-0.00070377389562772,0.00070377705905118,-8.0869924252855e-09,1.1696513703452e-08,-0.00079606886408443,0.00079606498290654,-0.00079606231493176,0.00079607156113753,-0.00079606852615698,0.0007960653143774,-0.00079606202460643,0.00079607184193782,-0.00070862635936137,0.00070863704608604,-0.00070862718392335,0.00070863618366918,0.67223241203323,128566,2924,0.0029290834225522,0.004829515750417,0.0029290834228258,40.851784527168,8.6814276217342e-05,8.6814276217342e-05,8.6814276217342e-05,4604314.4786089,0.010745391000063
7819200,0.66581342954289,0.011055098121931,0.0031732849678265,0.0047085281860603,0.0031732849680445,-0.00072274670943922,0.00072274557183097,-6.7362950972058e-11,-1.0878388440669e-09,6.9291917278737e-09,-8.3501434388203e-09,-0.00082094405162702,0.00082094828887067,-0.00082094439474205,0.00082094799840064,-0.00082094892243339,0.00082094327355625,-0.00082094928873945,0.00082094291081983,-0.00072687237112753,0.00072686719674615,-0.00072687335469567,0.00072686604909045,-5.3461677322455e-09,9.9488250702233e-09,1.2504194163922e-08,-8.1558143731752e-09,-0.0012047904109392,0.0012047947740345,-0.0012996796536826,0.0012996857151096,-0.0012996863330912,0.0012996788282605,-0.001299674691617,0.0012996907988322,-0.0012996814258618,0.0012996838561875,-0.0010889307243577,0.0010889604658302,-0.0010889507686363,0.0010889398547996,-0.0010889540014042,0.0010889366311023,-0.0010889391235648,0.0010889518974124,1.200177255769e-09,2.1729532173967e-09,-0.00072274449485013,0.0007227477865426,-8.3376456324138e-09,1.2091739162807e-08,-0.00082094812601324,0.00082094414466127,-0.00082094136392482,0.00082095093571441,-0.00082094777539236,0.00082094448897393,-0.00082094105936679,0.00082095123055277,-0.00072686423439799,0.00072687529717522,-0.00072686510209685,0.00072687439316376,0.66655083715684,128566,2924,0.0030080028429744,0.0050063019267701,0.0030080028432303,40.921653130063,8.7373225040503e-05,8.7373225040503e-05,8.7373225040503e-05,4608059.9336687,0.01108371276232
8019200,0.68912648009369,0.01137378577534,0.0032565311253265,0.0048607235243096,0.0032565311257039,-0.00074051439013252,0.00074051326689933,-4.0435479124604e-11,-1.1004402476139e-09,6.896695396346e-09,-8.3016046710287e-09,-0.00084420708900306,0.00084421132754161,-0.0008442074494797,0.00084421102762005,-0.00084421193546567,0.00084420633938562,-0.00084421231703933,0.00084420596591953,-0.0007439024503354,0.00074389735432369,-0.00074390347659079,0.00074389617376542,-5.3189650844442e-09,9.892293574104e-09,1.2694624748281e-08,-8.3754521966845e-09,-0.0012450629113931,0.0012450672452796,-0.0013455287384207,0.0013455349327237,-0.0013455355481187,0.0013455279064173,-0.0013455238026884,0.0013455399878331,-0.0013455306662435,0.001345532906795,-0.0011232873335232,0.0011233174195427,-0.00112330776597,0.0011232963942066,-0.0011233108202413,0.0011232933651935,-0.0011232960209561,0.0011233085496977,1.2125121216164e-09,2.2253786526151e-09,-0.00074051214857357,0.00074051550860164,-8.5008854129035e-09,1.2334617759082e-08,-0.00084421120727693,0.00084420714422283,-0.00084420431118506,0.00084421406921541,-0.00084421084338211,0.00084420750148577,-0.00084420399287351,0.00084421437737555,-0.00074389423499592,0.00074390553582858,-0.00074389514350041,0.00074390459215397,0.6609724936092,128566,2924,0.0030819178124826,0.0051731353150509,0.0030819178127816,40.991118840325,8.7928950722601e-05,8.7928950722601e-05,8.7928950722601e-05,4612239.4344586,0.011401957581129
8219200,0.71136683872346,0.011674688583928,0.0033350080678788,0.0050046724477307,0.0033350080683181,-0.00075746792997112,0.00075746681017956,-1.9057462996925e-11,-1.118298941384e-09,6.8906937616661e-09,-8.2925482044622e-09,-0.00086635461364749,0.00086635886518979,-0.00086635498990301,0.00086635855339351,-0.00086635945732636,0.00086635388139261,-0.0008663598525383,0.00086635349682143,-0.0007601918610802,0.00076018680984085,-0.0007601929244191,0.00076018559418362,-5.3236179433614e-09,9.8706879903162e-09,1.26636025234e-08,-8.3706920729854e-09,-0.0012834428187227,0.0012834471263172,-0.0013893448079962,0.0013893509707834,-0.0013893516068578,0.0013893439546877,-0.0013893398778017,0.0013893560191412,-0.0013893467285376,0.0013893489503429,-0.0011560082476024,0.0011560382638371,-0.0011560286341648,0.0011560172688272,-0.0011560317008683,0.0011560142442466,-0.0011560169164949,0.0011560294172417,1.1901202157179e-09,2.2434040740836e-09,-0.00075746569170456,0.0007574690484844,-8.4831224611378e-09,1.2319111610452e-08,-0.00086635874239389,0.0008663546733294,-0.00086635185814217,0.00086636158660023,-0.00086635836557873,0.0008663550430951,-0.00086635152537932,0.00086636190876366,-0.00076018365290912,0.0007601949801343,-0.00076018460463561,0.0007601939951061,0.65549139760275,128566,2924,0.0031524443773139,0.0053320994694755,0.0031524443774013,41.181566052199,8.9452528417595e-05,8.9452528417595e-05,8.9452528417595e-05,4618291.8675558,0.011705484728851
8419200,0.73258603268561,0.011960809586491,0.0034096175097357,0.0051415745666395,0.0034096175101153,-0.00077366114879853,0.00077366002866334,8.2315787882713e-13,-1.1383727924135e-09,6.8949099471568e-09,-8.2970789847559e-09,-0.00088741465418878,0.00088741892158235,-0.00088741504381445,0.00088741859721481,-0.00088741950107955,0.00088741393500131,-0.00088741991043077,0.00088741353725847,-0.00077584401456285,0.00077583899999578,-0.00077584511675615,0.00077583774337855,-5.3390043861397e-09,9.8625037093992e-09,1.2529428572146e-08,-8.2600459666186e-09,-0.0013200290290812,0.001320033313153,-0.0014311906996188,0.001431196756252,-0.0014311974205639,0.0014311898224196,-0.0014311857663693,0.0014312018070811,-0.0014311925392549,0.0014311948205424,-0.0011871826649931,0.001187212419979,-0.0011872028142455,0.0011871916681713,-0.0011872059647053,0.0011871885581562,-0.0011871911734319,0.0011872037380637,1.1513923597446e-09,2.2443581995934e-09,-0.00077365892975364,0.0007736622477201,-8.3810629832789e-09,1.2176960279739e-08,-0.00088741877681314,0.00088741473683464,-0.00088741197287831,0.00088742156976338,-0.00088741838620183,0.00088741511991288,-0.00088741162707248,0.00088742190464064,-0.00077583586360377,0.00077584711082025,-0.00077583685394969,0.0007758460882986,0.65380935250221,128566,2924,0.0032198065754953,0.0054836082745803,0.0032198065755267,41.430904805566,9.1447238444526e-05,9.1447238444526e-05,9.1447238444526e-05,4623423.9996156,0.011995152814109
8619200,0.75276867941923,0.012232398282747,0.0034804410396178,0.0052715162031717,0.0034804410399579,-0.00078900148104667,0.0007890003617946,2.1151725187771e-11,-1.1576153398214e-09,6.8979174375852e-09,-8.2992157237741e-09,-0.00090733630258318,0.00090734058632792,-0.00090733670581712,0.00090734024869497,-0.00090734115173952,0.0009073355975074,-0.00090734157453141,0.00090733518726284,-0.00079075119393623,0.00079074621618683,-0.00079075233265141,0.00079074492086038,-5.3511532762347e-09,9.8540777903347e-09,1.2382285458149e-08,-8.133774483714e-09,-0.0013547280359368,0.0013547322991857,-0.0014709336871589,0.0014709396323607,-0.0014709403217748,0.001470932790528,-0.0014709287524678,0.0014709446842012,-0.0014709354383177,0.0014709377903768,-0.0012167417732217,0.001216771239097,-0.0012167616583331,0.001216750762422,-0.0012167648987307,0.0012167475568817,-0.0012167501024599,0.0012167627414473,1.1079477904721e-09,2.2409623394044e-09,-0.00078899928663705,0.00078900255625026,-8.2717458137257e-09,1.2016170719975e-08,-0.00090734041955114,0.00090733640800068,-0.00090733370509834,0.00090734315143133,-0.00090734001547245,0.00090733680380244,-0.00090733334546817,0.00090734349958271,-0.00079074310838015,0.00079075426057566,-0.00079074413973891,0.00079075319855316,0.65260875567083,128566,2924,0.0032836205689378,0.0056272769726792,0.0032836205690398,41.681683811028,9.3453470488224e-05,9.3453470488224e-05,9.3453470488224e-05,4629265.1282292,0.012269783115619
8819200,0.77190597960825,0.012479505513619,0.0035443179419641,0.0053908696293576,0.0035443179422975,-0.00080295483709237,0.00080295372003247,4.2119925353428e-11,-1.1763139678092e-09,6.8958379484522e-09,-8.2947952342582e-09,-0.00092585692769872,0.00092586122528181,-0.00092585734410567,0.00092586087398449,-0.00092586177533207,0.00092585623802792,-0.00092586221135235,0.00092585581494644,-0.00080420459720222,0.00080419966171128,-0.00080420577232383,0.00080419832654967,-5.3567245472715e-09,9.8406890982912e-09,1.2246430615363e-08,-8.0171183437731e-09,-0.0013870733962702,0.0013870776403905,-0.0015081640070473,0.0015081698531477,-0.0015081705622322,0.0015081630965757,-0.0015081590746117,0.0015081749021732,-0.0015081656804428,0.0015081680942085,-0.0012441795119776,0.0012442087073344,-0.0012441991546296,0.0012441884858232,-0.0012442024702086,0.0012441851995384,-0.0012441876802815,0.0012442003766709,1.0656388746367e-09,2.2385927275031e-09,-0.00080295266694211,0.00080295589023714,-8.1722200361993e-09,1.186647573789e-08,-0.00092586103990763,0.00092585705200635,-0.0009258544078951,0.00092586371296129,-0.00092586062244408,0.00092585746064983,-0.00092585403459224,0.00092586407442501,-0.00080419657501607,0.00080420764087961,-0.00080419764654582,0.00080420653944674,0.62941992877027,128566,2924,0.0033416673521311,0.0057611763177515,0.0033416673522504,41.932516593416,9.5460132747328e-05,9.5460132747328e-05,9.5460132747328e-05,4638972.4342482,0.012522917863875
9019200,0.78959690709585,0.012707988119433,0.0036034589110286,0.0055010702970297,0.0036034589113747,-0.00081498513491949,0.00081498403097302,6.8469712892859e-11,-1.1904212146688e-09,6.8579562390764e-09,-8.2380228495862e-09,-0.00094200663902011,0.00094201092918439,-0.00094200706670953,0.00094201056573221,-0.00094201145489863,0.00094200597517215,-0.00094201190513513,0.00094200553608899,-0.00081580562485251,0.00081580077413375,-0.00081580683997636,0.00081579939072227,-5.3190487871813e-09,9.782171887246e-09,1.2341425942144e-08,-8.1330839244571e-09,-0.0014160949522782,0.0014160991757926,-0.0015417618810325,0.0015417678059388,-0.0015417685045429,0.0015417609825266,-0.0015417569770494,0.0015417728241856,-0.0015417636547088,0.0015417659460758,-0.0012685937260114,0.0012686230828816,-0.0012686136066648,0.0012686026694089,-0.0012686167574012,0.001268599496058,-0.0012686020550028,0.0012686145581655,1.0484947168274e-09,2.2604244069591e-09,-0.00081498297040208,0.00081498619590428,-8.2777674980615e-09,1.1966899872902e-08,-0.00094201078827741,0.00094200672095205,-0.00094200408595894,0.00094201345250274,-0.00094201035646915,0.00094200714466855,-0.00094200370198004,0.00094201382545334,-0.00081579759746906,0.00081580877014429,-0.00081579869884501,0.00081580763474867,0.62977530289712,128566,2924,0.0033917186274481,0.0058812986993288,0.003391718628286,41.749991452113,9.3999931616901e-05,9.3999931616901e-05,9.3999931616901e-05,4640178.7769439,0.012745964693949
9219200,0.8058351979408,0.012915181655827,0.0036570049906539,0.0056011716738534,0.0036570049913202,-0.000825590335308,0.00082558924267507,9.363663524448e-11,-1.2046339889406e-09,6.8188545991653e-09,-8.1881553117699e-09,-0.00095644092237768,0.00095644520892957,-0.00095644136523132,0.00095644483287981,-0.00095644571044363,0.00095644028383824,-0.00095644617403366,0.0009564398330229,-0.00082605508022873,0.0008260503062332,-0.0008260563301431,0.00082604888650595,-5.2841283007429e-09,9.726632771869e-09,1.2443156572755e-08,-8.2551844046654e-09,-0.0014422802351486,0.0014422844381574,-0.0015721882096167,0.001572194217702,-0.0015721949067089,0.0015721873190756,-0.0015721833346665,0.0015721992051158,-0.0015721900847658,0.0015721922527472,-0.0012905265982669,0.0012905561222229,-0.0012905466843054,0.001290535480903,-0.001290549717961,0.0012905324497824,-0.001290535105502,0.0012905474283758,1.0342737754991e-09,2.2863310132061e-09,-0.0008255881707254,0.00082559140780467,-8.3808972037551e-09,1.2088503300929e-08,-0.00095644510886138,0.00095644096376216,-0.0009564383328351,0.00095644776924776,-0.00095644466429908,0.00095644140011423,-0.00095643793453101,0.00095644815610399,-0.00082604702417651,0.00082605832608197,-0.00082604816897474,0.00082605714765843,0.62300580454034,128566,2924,0.003435844063353,0.0059896660333702,0.0034358440644887,41.452104003038,9.1616832024305e-05,9.1616832024305e-05,9.1616832024305e-05,4639373.6792884,0.012945146212745
9419200,0.82073009713052,0.013102952726975,0.0037054710688315,0.005692010588508,0.0037054710696356,-0.00083508722141993,0.00083508613768879,1.1781761019773e-10,-1.219860251514e-09,6.7930978981251e-09,-8.1531030207698e-09,-0.00096945999190759,0.0009694642810416,-0.00096946044945276,0.0009694638924726,-0.00096946476121659,0.00096945937569426,-0.00096946523811694,0.00096945891279322,-0.00083519031936141,0.0008351856113075,-0.00083519160790826,0.00083518415649444,-5.2627545443435e-09,9.6859371466218e-09,1.2491420557441e-08,-8.3226316818444e-09,-0.0014660376959963,0.0014660418799053,-0.0015998785415857,0.0015998845893611,-0.0015998852764949,0.0015998776513769,-0.0015998736864736,0.0015998895555252,-0.0015998804734144,0.0015998825647424,-0.0013103644151694,0.0013103940115614,-0.0013103846072672,0.0013103732522166,-0.001310387570988,0.0013103703045485,-0.0013103730182562,0.0013103852245578,1.0157869392776e-09,2.3079726156693e-09,-0.00083508505919815,0.00083508830032987,-8.4356180376888e-09,1.2151055922771e-08,-0.00096946420464002,0.00096946001100638,-0.0009694573901547,0.00096946685500966,-0.00096946374716556,0.00096946046018103,-0.00096945697793407,0.00096946725560257,-0.00083518225324912,0.00083519363853732,-0.00083518343999357,0.00083519241945759,0.61620824265932,128566,2924,0.0034753595391985,0.0060879734400515,0.0034753595400705,41.151331062763,8.9210648502106e-05,8.9210648502106e-05,8.9210648502106e-05,4638996.8204314,0.013124831639117
9619200,0.83438784348236,0.013273029965038,0.0037493158504285,0.0057743982633291,0.00374931585128,-0.00084359075143871,0.00084358967385776,1.406544444121e-10,-1.2366590961787e-09,6.7796434470777e-09,-8.1331314659165e-09,-0.00098116300079355,0.00098116729862946,-0.00098116347235161,0.00098116689749924,-0.00098116775980684,0.00098116240420327,-0.00098116825028749,0.00098116192860019,-0.00084334803921176,0.00084334338652662,-0.00084334936634563,0.00084334189362701,-5.2539841880954e-09,9.6601156878614e-09,1.2487539301481e-08,-8.3358074372165e-09,-0.0014875743181676,0.0014875784850306,-0.0016250788947965,0.0016250849399303,-0.0016250856329486,0.0016250779986139,-0.0016250740504134,0.0016250898942904,-0.0016250808401508,0.0016250829006317,-0.0013282581081709,0.0013282876846114,-0.0013282783068091,0.0013282669150821,-0.00132828124796,0.0013282639947138,-0.0013282667284709,0.001328278881461,9.9308419958806e-10,2.3251237000992e-09,-0.00084358859497617,0.00084359183074703,-8.4423223946694e-09,1.2154022921596e-08,-0.00098116722946523,0.00098116301345379,-0.00098116041156502,0.00098116986093879,-0.00098116675880921,0.00098116347582314,-0.00098115998596769,0.00098117027485812,-0.00084333998166539,0.00084335140440039,-0.00084334120810897,0.00084335014592619,0.60938040795274,128566,2924,0.0035107428065234,0.0061770817536972,0.0035107428074113,40.850449914132,8.6803599313059e-05,8.6803599313059e-05,8.6803599313059e-05,4638802.7942246,0.013286851045316
9819200,0.84667338014986,0.013426919841051,0.0037891051863059,0.0058487094675645,0.0037891051871805,-0.00085050697893472,0.00085050590978624,1.6491766108454e-10,-1.2528931130234e-09,6.7562098036763e-09,-8.0990909547131e-09,-0.00099086861881809,0.00099087291760259,-0.00099086910256442,0.00099087250525476,-0.00099087335785165,0.00099086804406928,-0.00099087386361587,0.00099086755322812,-0.0008499917146928,0.00084998713292457,-0.00084999308436353,0.00084998559302991,-5.2328465690705e-09,9.6221540080941e-09,1.2572091608172e-08,-8.4370638852545e-09,-0.0015061323790085,0.0015061365292049,-0.0016469546391703,0.0016469607461298,-0.0016469614357969,0.001646953744754,-0.0016469498114175,0.0016469656823321,-0.0016469566630382,0.0016469586252056,-0.0013435286455066,0.0013435583736903,-0.0013435490349865,0.0013435374194374,-0.001343551865715,0.0013435345978703,-0.0013435374063607,0.0013435494168577,9.7943208548166e-10,2.3501439275797e-09,-0.00085050482145149,0.00085050806793334,-8.5266687352407e-09,1.2249566338474e-08,-0.00099087288067189,0.00099086860044194,-0.00099086600104306,0.00099087550968352,-0.00099087239547141,0.00099086907769352,-0.00099086556446142,0.00099087593479034,-0.00084998364230169,0.00084999516939171,-0.00084998490006758,0.00084999387764662,0.61213711391415,128566,2924,0.0035395271245211,0.0062538575735602,0.0035395271258923,40.184066284299,8.147253027439e-05,8.147253027439e-05,8.147253027439e-05,4632564.5549648,0.013423019221227
10019200,0.85771611476451,0.013566323728124,0.0038252775588663,0.0059157686094496,0.0038252775598082,-0.00085654886906461,0.0008565478056551,1.8728939924256e-10,-1.2697848375006e-09,6.7436905585535e-09,-8.0798208199613e-09,-0.00099938186603293,0.0009993861736903,-0.00099938236417584,0.0009993857485585,-0.0009993865957948,0.0009993813103722,-0.00099938711454017,0.00099938080714996,-0.00085584771607415,0.00085584318687298,-0.00085584912292225,0.00085584161080544,-5.2238114748511e-09,9.5983326127625e-09,1.2604036980028e-08,-8.4837603357688e-09,-0.0015225869451556,0.0015225910806749,-0.0016663710995566,0.001666377228856,-0.0016663779220607,0.0016663702006548,-0.0016663662822596,0.0016663821534637,-0.0016663731586751,0.0016663750705557,-0.0013570790051985,0.0013571087840481,-0.0013570994698116,0.0013570877526052,-0.0013571022564289,0.0013570849784732,-0.001357087826256,0.0013570997645453,9.6101175335354e-10,2.3716806714411e-09,-0.00085654671278173,0.00085654996249694,-8.5638619900712e-09,1.2291906702457e-08,-0.0009993861510062,0.00099938183426521,-0.00099937924545368,0.00099938876953835,-0.00099938565307721,0.00099938232443614,-0.00099937879517588,0.00099938920839511,-0.00085583963427013,0.00085585123183564,-0.00085584093291837,0.0008558498990011,0.6157467728927,128566,2924,0.0035646747460537,0.0063219240572094,0.0035646747472101,39.479883121049,7.5839064968395e-05,7.5839064968395e-05,7.5839064968395e-05,4624269.4599544,0.013543003604045
10219200,0.86765541376477,0.013692960438762,0.0038582599518683,0.0059764405340233,0.0038582599528699,-0.0008618879190592,0.00086188685857517,2.0829896202513e-10,-1.2878601837166e-09,6.739863662161e-09,-8.0735142972095e-09,-0.0010069264823941,0.0010069308039225,-0.0010069269949849,0.0010069303655565,-0.0010069312101352,0.0010069259431211,-0.0010069317415394,0.0010069254280519,-0.00086104570144486,0.00086104121473626,-0.00086104714548197,0.00086103960430268,-5.224651519953e-09,9.5867626015126e-09,1.2584171377732e-08,-8.47633532948e-09,-0.0015372464299615,0.001537250553009,-0.0016836685090387,0.001683674620888,-0.0016836753232143,0.001683667600813,-0.0016836636954073,0.0016836795412536,-0.0016836705620437,0.0016836724679039,-0.0013691924867137,0.0013692222202723,-0.0013692129174196,0.0013692012137529,-0.0013692157136554,0.0013691984402151,-0.0013692012926111,0.001369213220198,9.3823351050734e-10,2.3890453860281e-09,-0.00086188576675729,0.00086188901142816,-8.552555377451e-09,1.2278106096983e-08,-0.0010069307795926,0.0010069264527306,-0.0010069238831849,0.0010069333789683,-0.0010069302690678,0.0010069269554023,-0.0010069234186391,0.0010069338319116,-0.00086103762624245,0.00086104925205384,-0.00086103896740077,0.00086104787761647,0.62007023224033,128566,2924,0.0035868986940559,0.0063825585762571,0.0035868986952019,38.774684923218,7.0197479385748e-05,7.0197479385748e-05,7.0197479385748e-05,4615291.7622302,0.013649539011789
10419200,0.87662926352244,0.01380849481245,0.0038884666905445,0.0060315614303346,0.0038884666915708,-0.00086667910255806,0.00086667804230636,2.2836993789266e-10,-1.3075326261648e-09,6.7463108644442e-09,-8.0806851032051e-09,-0.0010136974475329,0.0010137017873088,-0.0010136979733851,0.0010137013361417,-0.0010137021799123,0.0010136969220593,-0.0010137027250639,0.0010136963938483,-0.00086576751492189,0.00086576306432165,-0.00086576899917659,0.00086576141446693,-5.2361156495552e-09,9.5880581484051e-09,1.2502152239537e-08,-8.4045247487733e-09,-0.0015504256745168,0.0015504297873128,-0.0016992166143671,0.0016992226608743,-0.0016992233786207,0.0016992156922778,-0.0016992117960676,0.0016992275858174,-0.0016992186131625,0.0016992205635907,-0.0013800854974108,0.0013801150744505,-0.0013801057747666,0.0013800942157867,-0.0013801086331346,0.00138009138774,-0.0013800942016908,0.0013801061826565,9.0980107243337e-10,2.4001098490117e-09,-0.0008666769589731,0.0008666801863734,-8.4843347973664e-09,1.2193303983171e-08,-0.0010137017440532,0.0010136974369886,-0.0010136948981293,0.0010137043127328,-0.0010137012200478,0.0010136979528654,-0.0010136944204896,0.0010137047785489,-0.00086575947198289,0.00086577106698459,-0.00086576085182858,0.00086576965519255,0.62506143104683,128566,2924,0.0036068435249621,0.0064370655967626,0.0036068435259691,38.099642808738,6.4797142469906e-05,6.4797142469906e-05,6.4797142469906e-05,4605135.448822,0.013745250836971
10619200,0.88500744253089,0.013914297985339,0.0039160541513116,0.0060821896816922,0.0039160541523357,-0.0008720581262965,0.00087205705755018,2.4458392394887e-10,-1.3316448207397e-09,6.7914964896739e-09,-8.1368595686138e-09,-0.0010210027627021,0.0010210071403802,-0.0010210033000224,0.0010210066763735,-0.0010210075271254,0.0010210022422944,-0.0010210080871267,0.0010210016996052,-0.00087110371405788,0.00087109926651117,-0.00087110524321551,0.00087109757464234,-5.2889256567752e-09,9.6355482772613e-09,1.2180121362359e-08,-8.088030798858e-09,-0.001563718497555,0.0015637226047688,-0.0017147217832091,0.0017147275799917,-0.0017147283402848,0.0017147208261312,-0.0017147169311208,0.0017147325398578,-0.0017147235433392,0.0017147257300777,-0.0013912067845594,0.0013912357660731,-0.0013912264407332,0.0013912155325525,-0.0013912295742223,0.0013912124388038,-0.0013912150513677,0.0013912273335101,8.5841227999666e-10,2.3876051058944e-09,-0.00087205601036118,0.00087205917359258,-8.2010856401984e-09,1.1841461869294e-08,-0.0010210070109268,0.0010210028374923,-0.0010210003742336,0.0010210095039261,-0.0010210064724071,0.0010210033671785,-0.0010209998846199,0.0010210099812484,-0.00087109578959783,0.00087110714409831,-0.00087109720556888,0.00087110569927785,0.61395112851827,128566,2924,0.003629227698375,0.0064920395308164,0.0036292276986135,38.029466794667,6.4235734357334e-05,6.4235734357334e-05,6.4235734357334e-05,4602654.1749517,0.013846391880621
10819200,0.8928316467677,0.014011341457596,0.0039412856422858,0.0061287701720344,0.0039412856432759,-0.00087700647076617,0.0008770053963978,2.6116658171851e-10,-1.3537107846198e-09,6.8223180974589e-09,-8.1733919648977e-09,-0.001027744180638,0.0010277485894075,-0.0010277447304811,0.0010277481097066,-0.0010277489683483,0.0010277436672277,-0.0010277495394104,0.0010277431121569,-0.00087597811082385,0.00087597366879394,-0.00087597966976791,0.00087597193931621,-5.3250480052034e-09,9.6671426565453e-09,1.1916258362722e-08,-7.8292416707471e-09,-0.0015760302596594,0.0015760343619135,-0.0017291254670927,0.0017291310662382,-0.0017291318582496,0.0017291244869551,-0.0017291205942317,0.0017291360477242,-0.001729127038042,0.0017291294149965,-0.0014014837936153,0.0014015122753757,-0.0014015029463363,0.0014014925729978,-0.0014015062874416,0.001401489249511,-0.0014014916938681,0.0014015042138386,8.1078385175693e-10,2.3803461707831e-09,-0.00087700438093505,0.0008770074865103,-7.9755965239126e-09,1.1548928713407e-08,-0.0010277483919793,0.0010277443225957,-0.0010277419280157,0.0010277508162355,-0.0010277478410238,0.0010277448643399,-0.0010277414237499,0.0010277513080627,-0.0008759702798584,0.00087598145348891,-0.00087597173890034,0.00087597996530727,0.60386754245091,128566,2924,0.0036498197498594,0.0065429531165319,0.0036498197504492,37.973657872587,6.3789262980697e-05,6.3789262980697e-05,6.3789262980697e-05,4602004.3568792,0.013939790477024
11019200,0.90013517870125,0.014100164809642,0.0039643081481158,0.0061715485124316,0.003964308149095,-0.00088152237265097,0.00088152129515938,2.7937477839891e-10,-1.374932766961e-09,6.8389934485715e-09,-8.1935590680124e-09,-0.0010339241026151,0.0010339285341859,-0.0010339246645238,0.0010339280398022,-0.0010339289025278,0.0010339235990812,-0.0010339294860552,0.0010339230306005,-0.00088039098532163,0.00088038656618697,-0.00088039257978184,0.00088038479595691,-5.3456459881256e-09,9.6830223884892e-09,1.1721146679309e-08,-7.6392281159425e-09,-0.0015873910864537,0.0015873951837025,-0.0017424587698038,0.0017424642258791,-0.0017424650387246,0.0017424577763432,-0.0017424538852216,0.0017424692195657,-0.0017424602064791,0.0017424627169058,-0.0014109433494289,0.0014109714589356,-0.0014109621324337,0.0014109521454177,-0.0014109656186843,0.0014109486658908,-0.001410950988208,0.0014109636672768,7.6894034087284e-10,2.3781480488446e-09,-0.00088152030450121,0.00088152336367572,-7.8113393915906e-09,1.1331659339675e-08,-0.001033928290473,0.0010339242897711,-0.001033921953,0.0010339306569072,-0.0010339277263338,0.0010339248443424,-0.0010339214352128,0.0010339311620645,-0.00088038322996462,0.0008803942738719,-0.00088038472835132,0.00088039274652528,0.59320720174365,128566,2924,0.0036686122171825,0.0065899318291487,0.0036686122179485,37.918381211323,6.3347049690583e-05,6.3347049690583e-05,6.3347049690583e-05,4602854.165088,0.014025556502314
11219200,0.90694055681222,0.014182897275511,0.003985780045543,0.0062113371834438,0.0039857800465238,-0.00088566859951614,0.00088566752329535,2.9977592182158e-10,-1.3940136309707e-09,6.8346096824815e-09,-8.1876983387596e-09,-0.0010395760588967,0.001039580501715,-0.0010395766331209,0.0010395799932885,-0.0010395808554227,0.0010395755696673,-0.0010395814517533,0.0010395749876879,-0.00088443806699898,0.00088443369123023,-0.00088443969836878,0.00088443188044536,-5.3432991817601e-09,9.6746507230025e-09,1.1643893269583e-08,-7.5681342108125e-09,-0.001597864092077,0.001597868183234,-0.0017547782551341,0.0017547836603318,-0.0017547844781283,0.0017547772613777,-0.0017547733739496,0.0017547886505339,-0.0017547796492163,0.0017547821985313,-0.0014196622751808,0.0014196902290509,-0.0014196809184579,0.0014196710677807,-0.0014196844430037,0.0014196675431355,-0.0014196698221729,0.0014196825336933,7.378292206565e-10,2.3866266888455e-09,-0.00088566654417477,0.00088566957903162,-7.7524548495317e-09,1.1244579772874e-08,-0.0010395802461444,0.0010395762572981,-0.0010395739568393,0.0010395825762783,-0.0010395796687432,0.0010395768249629,-0.0010395734258037,0.0010395830945708,-0.00088443034840283,0.00088444136099195,-0.00088443188544814,0.00088443979505143,0.59263236704708,128566,2924,0.0036858659110245,0.0066332378500689,0.0036858659118484,37.837579535318,6.2700636282544e-05,6.2700636282544e-05,6.2700636282544e-05,4604191.2840879,0.014104482347865
11419200,0.91323783972113,0.014260044083112,0.0040058613676949,0.0062483213467339,0.0040058613686836,-0.00088928451732568,0.00088928344708513,3.2226518394999e-10,-1.4107302977414e-09,6.8099077015439e-09,-8.1558297683813e-09,-0.0010445607146801,0.0010445651582206,-0.0010445613021337,0.0010445646360156,-0.0010445654932217,0.0010445602444101,-0.0010445661019636,0.0010445596495189,-0.0008879808575652,0.00088797654266589,-0.00088798252418948,0.00088797469342015,-5.3190313592431e-09,9.6425638985271e-09,1.1698486097398e-08,-7.6304843261769e-09,-0.001607295300721,0.0016072993842,-0.0017659094228295,0.0017659148780759,-0.0017659156855028,0.0017659084403503,-0.0017659045601309,0.0017659198490032,-0.0017659108741628,0.0017659133591188,-0.0014274916978271,0.0014275197386741,-0.0014275104578088,0.001427500467652,-0.0014275139055298,0.0014274970134092,-0.0014274993369172,0.0014275119477507,7.1946523647611e-10,2.408073817894e-09,-0.00088928246399567,0.00088928550090221,-7.8098348172896e-09,1.1302951604294e-08,-0.0010445649268765,0.0010445608888828,-0.0010445585993604,0.0010445672461252,-0.0010445643366822,0.001044561469466,-0.0010445580547033,0.0010445677781059,-0.00088797312835972,0.00088798422375619,-0.00088797470535714,0.00088798261717644,0.59626238558564,128566,2924,0.0037009148528474,0.0066722336232576,0.0037009148538588,37.630509207467,6.1044073659737e-05,6.1044073659737e-05,6.1044073659737e-05,4602828.664568,0.014174569421806
11619200,0.91906522318027,0.014331828877706,0.0040245920878372,0.0062826447010252,0.0040245920888436,-0.00089260806243382,0.0008926069987202,3.4530812834393e-10,-1.4273350892671e-09,6.7827403770715e-09,-8.1219334187739e-09,-0.0010491519026262,0.0010491563456689,-0.0010491525036047,0.0010491558108356,-0.001049156661216,0.0010491514522915,-0.0010491572835646,0.0010491508443322,-0.00089125917245105,0.00089125492394526,-0.00089126087956954,0.00089125303603954,-5.2920979955095e-09,9.607414609902e-09,1.1789074148877e-08,-7.7289113568281e-09,-0.0016159894435156,0.0016159935191007,-0.0017761642278313,0.0017761697577797,-0.0017761705520737,0.0017761632571094,-0.0017761593848816,0.0017761747080319,-0.0017761657606915,0.001776168155009,-0.0014347103465877,0.0014347385452604,-0.0014347292886283,0.001434719083889,-0.0014347326379245,0.0014347157365975,-0.0014347181307917,0.0014347306098792,7.0561930916189e-10,2.4336686455107e-09,-0.00089260600630089,0.00089260905528604,-7.8975320038478e-09,1.1405625056234e-08,-0.0010491561473275,0.0010491520441669,-0.0010491497564192,0.0010491584647876,-0.0010491555438866,0.0010491526380391,-0.0010491491987082,0.0010491590097956,-0.00089125141992168,0.00089126262743035,-0.00089125303512735,0.00089126098284855,0.59873359519914,128566,2924,0.0037147478376511,0.0067081795627849,0.0037147478385549,37.42043430615,5.9363474449203e-05,5.9363474449203e-05,5.9363474449203e-05,4599749.2256989,0.014239100573481
11819200,0.92445911990527,0.014398768241198,0.0040421060448851,0.0063145561504137,0.0040421060458995,-0.00089567478698849,0.00089567372957474,3.6813867893591e-10,-1.4439835967182e-09,6.7581668633601e-09,-8.090463246519e-09,-0.0010533901785227,0.0010533946224819,-0.0010533907931573,0.0010533940749522,-0.0010533949190265,0.0010533897477402,-0.0010533955547212,0.0010533891268705,-0.00089430307973227,0.00089429889446329,-0.00089430482587009,0.00089429696836029,-5.2678190848018e-09,9.5751593147497e-09,1.1885762922396e-08,-7.8333060622297e-09,-0.0016240149722121,0.0016240190400726,-0.0017856240324499,0.0017856296394625,-0.0017856304219145,0.0017856230714359,-0.0017856192075873,0.0017856345707106,-0.0017856256484482,0.0017856279505095,-0.0014413725456341,0.0014414009155145,-0.0014413916820185,0.0014413812533911,-0.0014413949310427,0.0014413780110384,-0.0014413804789256,0.0014413928282279,6.9310701738359e-10,2.4607328421542e-09,-0.0008956727264581,0.00089567579050119,-7.9890081778135e-09,1.15146696014e-08,-0.0010533944566849,0.0010533902880837,-0.0010533879991766,0.0010533967753262,-0.0010533938401626,0.001053390895181,-0.0010533874282777,0.0010533973335666,-0.00089429529910866,0.00089430662578333,-0.00089429695314624,0.00089430494237598,0.60218092659462,128566,2924,0.0037275126387399,0.0067413591724435,0.0037275126395676,37.210248086273,5.7681984690181e-05,5.7681984690181e-05,5.7681984690181e-05,4595557.9523923,0.014298662026589
12019200,0.92946060371413,0.014462909985392,0.0040590210331913,0.0063448679179899,0.0040590210342108,-0.00089864246662861,0.00089864141361223,3.9003663349417e-10,-1.4615700668764e-09,6.74169629151e-09,-8.0696722043475e-09,-0.0010574172569187,0.0010574217063,-0.0010574178853158,0.0010574211461558,-0.0010574219855237,0.0010574168439858,-0.0010574226346754,0.0010574162103342,-0.000897297543189,0.00089729341344255,-0.00089729932899513,0.00089729144962594,-5.2524663693461e-09,9.5527124006052e-09,1.1960656462567e-08,-7.9150329035897e-09,-0.0016315658264323,0.0016315698874111,-0.0017944802559209,0.0017944859199917,-0.001794486695968,0.0017944792993039,-0.0017944754430967,0.0017944908385354,-0.0017944819343768,0.0017944841658411,-0.0014476736763308,0.0014477021808308,-0.0014476929615401,0.0014476823597152,-0.0014476961389395,0.0014476791973014,-0.0014476817244541,0.001447693978375,6.7917594926596e-10,2.4863872306687e-09,-0.00089864040210245,0.00089864347850355,-8.0595063477604e-09,1.160069633304e-08,-0.0010574215649062,0.001057417342558,-0.0010574150554773,0.00105742388174,-0.0010574209352657,0.0010574179628263,-0.0010574144713035,0.0010574244532101,-0.00089728973933855,0.00089730116760965,-0.00089729143243494,0.00089729944538735,0.61929850684327,128566,2924,0.003739864880871,0.006772575033098,0.003739864881638,37.027893721423,5.6223149771385e-05,5.6223149771385e-05,5.6223149771385e-05,4590239.3954099,0.014355396782598
12219200,0.93411620200785,0.014524707689195,0.0040754402977873,0.0063738270926007,0.0040754402988066,-0.0009016012081987,0.00090160015710218,4.1074291614468e-10,-1.4803393153982e-09,6.7365233117561e-09,-8.0628484233388e-09,-0.0010613860519876,0.0010613905126829,-0.0010613866939795,0.00106138993974,-0.0010613907769606,0.0010613856543406,-0.0010613914394822,0.0010613850078486,-0.00090034877040776,0.00090034468534594,-0.00090035059574444,0.00090034268393152,-5.2491999706029e-09,9.5437009216056e-09,1.1989730386026e-08,-7.9497339832014e-09,-0.0016388373600511,0.0016388414153835,-0.0018029178433533,0.0018029235267592,-0.0018029243039046,0.0018029168844688,-0.0018029130343551,0.0018029284411581,-0.0018029195459722,0.0018029217470341,-0.0014537936141626,0.0014538221715984,-0.0014538129584948,0.0014538022844596,-0.0014538161103607,0.001453799153791,-0.0014538017083346,0.0014538139240335,6.6129134916314e-10,2.508093771342e-09,-0.00090159914240727,0.00090160222319292,-8.0878543781593e-09,1.1635379301582e-08,-0.0010613903809779,0.0010613861283163,-0.0010613838506378,0.0010613926884226,-0.0010613897381918,0.0010613867616917,-0.0010613832531708,0.0010613932731106,-0.00090034095705135,0.00090035244836043,-0.0009003426894639,0.00090035068737643,0.63789981401838,128566,2924,0.0037521804371985,0.0068026333821286,0.0037521804378313,36.914253796435,5.5314030371484e-05,5.5314030371484e-05,5.5314030371484e-05,4582164.6798657,0.014410886010389
12419200,0.938450301135,0.014580283325426,0.004090109228614,0.006400064867183,0.0040901092296286,-0.00090422487717718,0.00090422382748098,4.3113193816008e-10,-1.4994006225172e-09,6.7364369652616e-09,-8.0605527977921e-09,-0.0010650543789525,0.0010650588533607,-0.0010650550342303,0.001065058267265,-0.0010650591034777,0.0010650539957408,-0.0010650597790577,0.0010650533361382,-0.00090305314017768,0.00090304909527576,-0.00090305500327125,0.00090304705485011,-5.2502831489832e-09,9.5398926534161e-09,1.1999085690757e-08,-7.9640434884676e-09,-0.0016455721329199,0.0016455761833285,-0.0018107081639418,0.0018107138510113,-0.0018107146321762,0.0018107072008485,-0.001810703355649,0.0018107187644241,-0.0018107098748265,0.0018107120625516,-0.0014594437726701,0.001459472347256,-0.0014594631427887,0.0014594524400385,-0.0014594662822532,0.0014594493153022,-0.0014594518811596,0.0014594640810815,6.4148138225212e-10,2.5278270320637e-09,-0.00090422281219265,0.00090422589277236,-8.1004890444436e-09,1.1646741571273e-08,-0.0010650587256405,0.001065054451714,-0.0010650521872749,0.001065061019812,-0.0010650580697784,0.0010650550982425,-0.00106505157664,0.0010650616177358,-0.00090304532373691,0.00090305686210712,-0.00090304709466621,0.00090305506228023,0.61826606765042,128566,2924,0.0037631049502737,0.0068304682452785,0.0037631049509167,36.80225210511,5.4418016840884e-05,5.4418016840884e-05,5.4418016840884e-05,4571360.993164,0.01446130149325
12619200,0.94248528454605,0.014629135707767,0.0041028615575871,0.0064234125915768,0.0041028615586032,-0.00090651277713305,0.00090651172778746,4.5099913491836e-10,-1.5190018200736e-09,6.7392390151792e-09,-8.0629956719287e-09,-0.0010683112288641,0.0010683157187196,-0.0010683118973867,0.0010683151194727,-0.0010683159553711,0.0010683108592981,-0.0010683166441123,0.0010683101866392,-0.00090534748218997,0.00090534347423897,-0.00090534938341793,0.00090534139489723,-5.2548377534314e-09,9.5402893990017e-09,1.1986011522987e-08,-7.9551550934137e-09,-0.0016516547730565,0.0016516588192789,-0.0018178093080683,0.0018178149820882,-0.0018178157693759,0.001817808339268,-0.0018178044980487,0.0018178198971114,-0.0018178110101614,0.0018178132027102,-0.0014644980840943,0.0014645266344677,-0.0014645174330826,0.0014645067495476,-0.0014645205827311,0.0014645036137015,-0.0014645061764168,0.0014645183844563,6.1967646530567e-10,2.5455725074691e-09,-0.00090651071447136,0.00090651379080524,-8.0919927717048e-09,1.1633715408968e-08,-0.0010683155885439,0.0010683113042369,-0.0010683090572997,0.0010683178652034,-0.0010683149195324,0.0010683119638999,-0.0010683084334246,0.0010683184763396,-0.00090533967042403,0.00090535123657561,-0.00090534148004765,0.00090534939776075,0.58731202473418,128566,2924,0.0037726315122671,0.0068556073806592,0.0037726315130126,36.690311080598,5.3522488644787e-05,5.3522488644787e-05,5.3522488644787e-05,4565158.8856868,0.014506146756972
12819200,0.94620801956328,0.014674607098609,0.0041147708904193,0.0064450653167523,0.0041147708914379,-0.00090834443702826,0.00090834338993184,4.716696410552e-10,-1.5376250358926e-09,6.7355153093532e-09,-8.055623945071e-09,-0.0010709108012152,0.0010709153027215,-0.0010709114830155,0.0010709146901266,-0.0010709155245214,0.0010709104468062,-0.0010709162259951,0.0010709097610916,-0.00090714967181077,0.0009071457068832,-0.0009071516091544,0.00090714358767951,-5.2506172201893e-09,9.5316864728152e-09,1.2006772168529e-08,-7.9804268293207e-09,-0.0016568327708422,0.0016568368126074,-0.0018239651300348,0.0018239708191255,-0.0018239716067718,0.0018239641608789,-0.0018239603240935,0.0018239757296353,-0.0018239668512524,0.0018239690202221,-0.0014687421712289,0.0014687707573167,-0.0014687615700263,0.0014687508333248,-0.0014687646907595,0.0014687477139281,-0.0014687502938871,0.001468762469382,6.0141251506932e-10,2.5669073653504e-09,-0.00090834237435099,0.00090834545310808,-8.1188530706705e-09,1.1661044313039e-08,-0.0010709151810771,0.0010709108685265,-0.0010709086320457,0.0010709174472435,-0.0010709144991319,0.0010709115412865,-0.0010709079949079,0.0010709180718075,-0.0009071418521816,0.00090715347919895,-0.00090714369982009,0.00090715160085341,0.59134553808409,128566,2924,0.0037802582995922,0.0068770096546841,0.0037802583006261,36.406818163549,5.125454530839e-05,5.125454530839e-05,5.125454530839e-05,4562320.6664579,0.014543344332964
13019200,0.94959966193113,0.014716197054792,0.0041256848975454,0.0064648272586704,0.0041256848985762,-0.00090953732076908,0.00090953627848544,4.9361000932694e-10,-1.5552495240947e-09,6.7217877205635e-09,-8.0342861937776e-09,-0.0010727861041347,0.0010727906114043,-0.0010727867989258,0.0010727899856674,-0.0010727908161195,0.0010727857672893,-0.0010727915306155,0.0010727850679339,-0.00090831235588304,0.00090830844410029,-0.00090831432932881,0.00090830628376227,-5.2364542415644e-09,9.5123312129286e-09,1.2082089818744e-08,-8.0610733835062e-09,-0.001661004042049,0.0016610080786717,-0.0018290164443099,0.0018290221902254,-0.0018290229713905,0.0018290154804985,-0.0018290116486762,0.0018290270895554,-0.0018290182265328,0.0018290203282425,-0.001472084685175,0.0014721134081457,-0.0014721042454124,0.0014720933392821,-0.0014721072836337,0.001472090283557,-0.0014720929150232,0.0014721049990156,5.8759365685095e-10,2.5923560125473e-09,-0.00090953525519281,0.00090953834474667,-8.1870494805817e-09,1.1737377563746e-08,-0.001072790512324,0.0010727861495217,-0.0010727839149521,0.0010727927765858,-0.0010727898173036,0.0010727868357496,-0.0010727832651373,0.0010727934141591,-0.00090830451484531,0.00090831624117674,-0.00090830639897214,0.00090831432382594,0.59302696890746,128566,2924,0.0037852305588622,0.0068942490930878,0.00378523056027,35.8740486877,4.6992389501603e-05,4.6992389501603e-05,4.6992389501603e-05,4554383.5426829,0.014570932313956
13219200,0.95269322970397,0.014754316005894,0.0041357117748054,0.0064828924552267,0.0041357117758621,-0.00091054321875973,0.00091054217860657,5.1443206108968e-10,-1.5738440325634e-09,6.7116341007165e-09,-8.0238554207835e-09,-0.0010744081368306,0.0010744126531649,-0.0010744088455556,0.0010744120149721,-0.0010744128422191,0.0010744078159004,-0.0010744135703758,0.0010744071040215,-0.00090929787500304,0.00090929401225291,-0.00090929988991691,0.00090929181559295,-5.2280532893842e-09,9.4992538433745e-09,1.2119624428146e-08,-8.1028660792974e-09,-0.001664700484265,0.0016647045164743,-0.0018335061860147,0.0018335119606604,-0.0018335127384643,0.0018335052239618,-0.0018335013973357,0.0018335168526856,-0.0018335080002836,0.0018335100646401,-0.001475034923054,0.0014750637127432,-0.0014750545494036,0.0014750435538623,-0.0014750575604385,0.0014750405505318,-0.0014750432161869,0.0014750552501894,5.7104750371244e-10,2.6154741237768e-09,-0.00091054115037858,0.00091054424757207,-8.2213875224016e-09,1.1785489228064e-08,-0.001074412566722,0.0010744081694837,-0.0010744059422033,0.0010744148236765,-0.0010744118584767,0.0010744088687693,-0.0010744052788596,0.001074415474516,-0.00090929002138238,0.00090930181883484,-0.00090929194593695,0.00090929986280619,0.59512403800533,128566,2924,0.0037894248141514,0.0069095254504822,0.003789424815368,35.335317137925,4.2682537103397e-05,4.2682537103397e-05,4.2682537103397e-05,4545595.2010106,0.014594949859938
13419200,0.95551906678245,0.014788562568359,0.00414470029523,0.006499161976833,0.0041447002962956,-0.00091135146877855,0.000911350429962,5.3489500206015e-10,-1.592841795475e-09,6.7072180214997e-09,-8.0187146934763e-09,-0.0010757928038228,0.0010757973317138,-0.001075793525982,0.0010757966805673,-0.001075797506342,0.0010757924976236,-0.0010757982478109,0.0010757917729097,-0.00091008325689825,0.00091007943769906,-0.00091008531158893,0.00091007720371562,-5.2250327547183e-09,9.4925219539702e-09,1.2127562045304e-08,-8.1142895609061e-09,-0.0016679551021092,0.0016679591307279,-0.0018374796577682,0.0018374854383684,-0.00183748621617,0.0018374786948144,-0.0018374748722079,0.0018374903272007,-0.0018374814810331,0.0018374835324055,-0.0014776095424248,0.0014776383444276,-0.0014776291837177,0.0014776181624295,-0.0014776321856908,0.0014776151750236,-0.001477617852372,0.001477629867141,5.5153038096736e-10,2.6354956424746e-09,-0.00091134940044727,0.00091135249877269,-8.2294376435642e-09,1.179656219904e-08,-0.0010757972490375,0.0010757928330506,-0.0010757906182379,0.0010757994935436,-0.001075796527705,0.0010757935453908,-0.0010757899416104,0.001075800157575,-0.00091007540208545,0.00091008724445016,-0.00091007736612399,0.0009100852499966,0.58608287710946,128566,2924,0.0037927970481844,0.0069229748380795,0.0037927970491845,34.796364788662,3.83709183093e-05,3.83709183093e-05,3.83709183093e-05,4536230.0748958,0.014615445910159
13619200,0.95811791039753,0.01481964629224,0.0041528480086448,0.0065139502738824,0.0041528480097126,-0.00091218101334573,0.00091217997343568,5.5466345532027e-10,-1.6135043728649e-09,6.7129027598569e-09,-8.026863746793e-09,-0.0010771345162715,0.0010771390605492,-0.0010771352509341,0.001077138397009,-0.0010771392225237,0.0010771342228351,-0.0010771399785649,0.001077133483845,-0.00091088224115812,0.00091087845899881,-0.00091088433920178,0.00091087618439179,-5.2350638320993e-09,9.5002683353236e-09,1.2074326467615e-08,-8.0632557480129e-09,-0.0016710066732383,0.0016710106996219,-0.0018412022817244,0.0018412080187387,-0.001841208804958,0.0018412013110274,-0.001841197489475,0.0018412129145967,-0.0018412040650412,0.0018412061536444,-0.0014800355102295,0.0014800642167454,-0.0014800550476667,0.0014800441291727,-0.0014800580978355,0.0014800411049831,-0.0014800437523381,0.0014800558148675,5.2556147427022e-10,2.6480945321548e-09,-0.00091217895088593,0.00091218203625731,-8.170458070732e-09,1.1725884208763e-08,-0.0010771389617962,0.0010771345613901,-0.0010771323728009,0.0010771411801245,-0.0010771382265098,0.0010771352874465,-0.0010771316841179,0.0010771418559953,-0.00091087441432653,0.00091088623551231,-0.00091087641510442,0.00091088420618378,0.57889843261532,128566,2924,0.0037962556052137,0.0069355860712029,0.0037962556059766,34.35569544251,3.4845563540079e-05,3.4845563540079e-05,3.4845563540079e-05,4530067.4581117,0.014635266169318
13819200,0.96052231175412,0.014848399776288,0.0041603948924212,0.006527609990382,0.0041603948934844,-0.00091305765918033,0.00091305661671332,5.7280502479527e-10,-1.6340239360983e-09,6.7263733814986e-09,-8.0437677040652e-09,-0.0010784656160685,0.0010784701817349,-0.0010784663642347,0.001078469504293,-0.0010784703331178,0.0010784653331004,-0.0010784711012247,0.001078464581968,-0.00091172921541425,0.0009117254571406,-0.00091173134914525,0.00091172314634499,-5.2492085972217e-09,9.5131309290861e-09,1.1969241925875e-08,-7.9595609676996e-09,-0.0016739116037057,0.0016739156286253,-0.0018447345678527,0.001844740226693,-0.0018447410246945,0.0018447335880372,-0.0018447297677344,0.0018447451307244,-0.0018447362751314,0.0018447384407215,-0.0014823643974284,0.0014823929038806,-0.0014823837285239,0.0014823730251956,-0.0014823868671388,0.0014823699125272,-0.0014823724941845,0.0014823846532671,4.9593035669744e-10,2.6587578864003e-09,-0.00091305560503816,0.0009130586711717,-8.0875434732749e-09,1.1622064154259e-08,-0.0010784700567593,0.0010784656872755,-0.0010784635306838,0.0010784722429994,-0.0010784693088068,0.0010784664258046,-0.0010784628277382,0.0010784729330375,-0.00091172141975939,0.00091173320127702,-0.00091172346227044,0.00091173113063109,0.57842147853424,128566,2924,0.0037999080122356,0.0069475922673293,0.0037999080129051,34.003478309036,3.2027826472286e-05,3.2027826472286e-05,3.2027826472286e-05,4526470.7459125,0.014654865483937
14019200,0.96274910837139,0.014875035583871,0.0041673941573042,0.0065402472682061,0.0041673941583612,-0.0009138322644388,0.0009138312205646,5.917723649498e-10,-1.6544232516757e-09,6.7374369327757e-09,-8.0554130603664e-09,-0.0010796583325076,0.0010796629173109,-0.0010796590931968,0.0010796622259638,-0.0010796630570412,0.001079658060825,-0.001079663837913,0.001079657296393,-0.00091248161138827,0.00091247788199305,-0.00091248378157691,0.00091247553115315,-5.2609852282185e-09,9.5237495459299e-09,1.1877803866128e-08,-7.8695590925481e-09,-0.001676546855184,0.0016765508787182,-0.0018479470351728,0.0018479526258384,-0.0018479534342388,0.0018479460479719,-0.0018479422276861,0.0018479575374424,-0.0018479486773109,0.0018479509082024,-0.0014844714568623,0.0014844997906489,-0.001484490617343,0.0014844800989125,-0.001484493823634,0.001484476905171,-0.0014844794265587,0.0014844916659892,4.6684160159261e-10,2.6691696010065e-09,-0.0009138302194703,0.00091383326589084,-8.0104496782021e-09,1.152046947184e-08,-0.0010796627688054,0.0010796584269987,-0.0010796563020294,0.0010796649233908,-0.0010796620077754,0.0010796591786335,-0.0010796555859163,0.0010796656266405,-0.00091247384948504,0.00091248559287128,-0.00091247593019727,0.00091248348340065,0.57820996861925,128566,2924,0.0038031357243501,0.0069584836929531,0.0038031357250985,33.65338438738,2.9227075099041e-05,2.9227075099041e-05,2.9227075099041e-05,4522578.3385939,0.014672471819747
14219200,0.96481329668456,0.014898786238308,0.0041735906930809,0.0065516048510894,0.0041735906941381,-0.00091445984052488,0.00091445879542297,6.108485783831e-10,-1.674750645816e-09,6.7450423061206e-09,-8.0643524915964e-09,-0.0010806887515008,0.0010806933538907,-0.0010806895249588,0.0010806926488987,-0.0010806934815109,0.0010806884916902,-0.0010806942753135,0.0010806877140736,-0.00091307568865805,0.00091307199086253,-0.00091307789623792,0.00091306960060969,-5.269800846378e-09,9.5313198141928e-09,1.1799680992081e-08,-7.7927959420802e-09,-0.0016788917238227,0.0016788957460079,-0.0018508287808475,0.0018508343141116,-0.0018508351306849,0.0018508277882411,-0.001850823968046,0.0018508392311656,-0.0018508303683079,0.001850832654036,-0.0014863241965299,0.0014863523820224,-0.0014863432082932,0.0014863328463096,-0.0014863464740352,0.0014863295888114,-0.0014863320604067,0.0014863443660076,4.3897602739251e-10,2.6808153379592e-09,-0.00091445780348408,0.00091446083285831,-7.9436645140607e-09,1.1434155616771e-08,-0.0010806931857737,0.0010806888652345,-0.0010806867698147,0.0010806953107859,-0.0010806924115877,0.0010806896299267,-0.001080686040427,0.0010806960272473,-0.00091306795619287,0.00091307967196601,-0.00091307007565729,0.0009130775235774,0.55856305878749,128566,2924,0.00380575200476,0.0069681744255928,0.0038057520055845,33.303369045279,2.6426952362229e-05,2.6426952362229e-05,2.6426952362229e-05,4518489.2674571,0.014687619283085
14419200,0.96669665182997,0.01492070919604,0.0041793328305115,0.0065620435339582,0.00417933283157,-0.00091446678137812,0.00091446574012922,6.3246770343551e-10,-1.692878616187e-09,6.7328901909568e-09,-8.0460538695185e-09,-0.0010809706150064,0.0010809752235809,-0.0010809714009717,0.0010809745053877,-0.0010809753348122,0.0010809703718868,-0.0010809761418014,0.0010809695801722,-0.00091301647248395,0.00091301282679066,-0.00091301871674062,0.00091301039389363,-5.2567243682672e-09,9.5151424469885e-09,1.1842238713442e-08,-7.8385787626818e-09,-0.0016803143368416,0.0016803183559619,-0.0018527628433135,0.0018527684117337,-0.0018527692217915,0.0018527618574077,-0.0018527580393818,0.0018527733193536,-0.0018527644691601,0.0018527667128511,-0.0014873139250063,0.0014873421852702,-0.0014873330326461,0.0014873225702829,-0.0014873362402246,0.0014873193529533,-0.0014873218526135,0.0014873340948036,4.2228620964837e-10,2.7031151025568e-09,-0.00091446474417759,0.0009144677779318,-7.9830670997799e-09,1.1474698231483e-08,-0.0010809750700321,0.0010809707144578,-0.0010809686269419,0.0010809771871207,-0.0010809742825631,0.0010809714927576,-0.0010809678851919,0.001080977916256,-0.00091300873192045,0.00091302051859753,-0.00091301088706295,0.00091301833248606,0.56383118266288,128566,2924,0.0038057878620208,0.0069740545114337,0.0038057878632636,32.647686884079,2.1181495072633e-05,2.1181495072633e-05,2.1181495072633e-05,4512667.3230962,0.014693661136604
14619200,0.96840192777459,0.014940679140163,0.0041845774478548,0.0065715242433865,0.004184577448922,-0.00091407863184845,0.00091407759524025,6.5388033034593e-10,-1.709844024226e-09,6.7146897941025e-09,-8.022322268532e-09,-0.0010808198201661,0.0010808244333226,-0.0010808206204772,0.0010808237013816,-0.0010808245275019,0.0010808195944392,-0.0010808253461894,0.0010808187912601,-0.00091256803509458,0.00091256444183644,-0.00091257031357785,0.00091256197457219,-5.2360192662644e-09,9.4905884765661e-09,1.1925759528527e-08,-7.925737177052e-09,-0.0016811459872473,0.0016811500027138,-0.0018540439290202,0.001854049566155,-0.0018540503641113,0.0018540429533675,-0.0018540391406449,0.0018540544572463,-0.0018540456245719,0.0018540477948962,-0.0014877703208532,0.0014877987262738,-0.00148778959172,0.0014877789467431,-0.0014877927179529,0.0014877758112049,-0.0014877783697947,0.0014877905103008,4.1007491839714e-10,2.7313866013823e-09,-0.00091407658890273,0.00091407963876473,-8.0688921753828e-09,1.15783865337e-08,-0.0010808243073015,0.0010808198924075,-0.0010808178027617,0.0010808264264462,-0.0010808235076099,0.001080820683005,-0.0010808170463536,0.0010808271703149,-0.00091256026020493,0.00091257216825865,-0.00091256245781068,0.00091256993894448,0.56645233632118,128566,2924,0.0038041823898334,0.0069774909941518,0.0038041823910279,31.823297431804,1.4586379454436e-05,1.4586379454436e-05,1.4586379454436e-05,4502401.7814038,0.01469389233184
14819200,0.96994871002489,0.014958923698316,0.0041893834702858,0.0065801567566695,0.0041893834713611,-0.00091359770379261,0.00091359667019304,6.7529616077245e-10,-1.7281685359177e-09,6.7003178351321e-09,-8.0060013623304e-09,-0.0010805491320761,0.0010805537514009,-0.0010805499460036,0.001080553007031,-0.0010805538292619,0.0010805489229741,-0.0010805546618536,0.0010805481068491,-0.00091203637089276,0.00091203283138184,-0.00091203869140524,0.00091203032649556,-5.2225488848341e-09,9.4738511856435e-09,1.1995163266349e-08,-7.9980152168899e-09,-0.00168174056934,0.001681744581851,-0.0018550359758742,0.0018550416664713,-0.0018550424563908,0.0018550350061044,-0.0018550311970345,0.0018550465477734,-0.0018550377267974,0.0018550398373366,-0.0014880323953099,0.0014880609281431,-0.0014880517970427,0.0014880409990891,-0.0014880548655324,0.0014880379389541,-0.001488040549704,0.0014880526112905,3.9636129248974e-10,2.7569225175161e-09,-0.00091359565586188,0.00091359871857637,-8.128231780128e-09,1.1655691497307e-08,-0.0010805536458462,0.0010805491839787,-0.0010805470958976,0.0010805557635705,-0.0010805528329342,0.0010805499878313,-0.0010805463264463,0.0010805565203174,-0.00091202857529372,0.00091204057659754,-0.00091203081191662,0.0009120383098468,0.56961685269406,128566,2924,0.0038021911291576,0.0069799472994407,0.0038021911301002,30.99482763324,7.9586210659168e-06,7.9586210659168e-06,7.9586210659168e-06,4491123.658878,0.01469234585871
15019200,0.97133290294293,0.014975191931171,0.0041936716781025,0.0065878485738884,0.00419367167918,-0.00091253131316043,0.00091253028368035,6.9670523964971e-10,-1.7457199054428e-09,6.6850307072959e-09,-7.9850771831379e-09,-0.0010796513174876,0.0010796559421524,-0.0010796521452079,0.0010796551845211,-0.0010796560036402,0.0010796511254002,-0.0010796568485668,0.0010796502967185,-0.00091090749875209,0.00091090401065145,-0.00091090985442374,0.00091090146818248,-5.2057507675933e-09,9.4535640832829e-09,1.209506495195e-08,-8.1010617871232e-09,-0.0016815515297516,0.0016815555391533,-0.001855191106836,0.0018551968737806,-0.0018551976532997,0.0018551901448945,-0.0018551863404023,0.0018552017420306,-0.0018551929350643,0.0018551949641724,-0.0014875644720925,0.0014875931870646,-0.0014875840732414,0.0014875730622376,-0.0014875870485735,0.0014875700869347,-0.0014875727652341,0.0014875847210632,3.8577102811798e-10,2.7862545277306e-09,-0.000912529258064,0.00091253233939398,-8.2227411448729e-09,1.1769368723523e-08,-0.0010796558660661,0.0010796513407705,-0.0010796492475628,0.0010796579888564,-0.0010796550405014,0.0010796521575322,-0.0010796484644669,0.001079658759513,-0.00091089966567244,0.00091091179570818,-0.00091090194192606,0.0009109094879548,0.56737759893064,128566,2924,0.0037977679489603,0.0069791632802017,0.0037977679502364,29.891791566785,-8.6566746572238e-07,-8.6566746572238e-07,-8.6566746572238e-07,4474439.6795629,0.0146825756581
15219200,0.97255324416415,0.014988875803242,0.004197249573214,0.006594376655731,0.004197249574297,-0.00091080242029433,0.00091080139552566,7.1785442826424e-10,-1.7625427497832e-09,6.6699430973738e-09,-7.9629261234553e-09,-0.0010780366650739,0.0010780412959122,-0.0010780375076157,0.0010780405244824,-0.001078041341173,0.0010780364903448,-0.0010780421968455,0.0010780356504226,-0.00090908414723762,0.00090908070641472,-0.0009090865330149,0.00090907813016888,-5.1870602692223e-09,9.4316280804716e-09,1.2211391090914e-08,-8.2205520967174e-09,-0.0016804763232155,0.0016804803296087,-0.001854417185081,0.001854423041787,-0.0018544238095576,0.0018544162320715,-0.0018544124331052,0.0018544278947533,-0.0018544191026691,0.0018544210393894,-0.0014862613502392,0.0014862902749119,-0.001486281183366,0.0014862699280025,-0.0014862840538984,0.0014862670452779,-0.0014862698004425,0.0014862816388686,3.7693779515836e-10,2.8182920292431e-09,-0.00091080035608032,0.00091080346041622,-8.33989178806e-09,1.1909352410094e-08,-0.0010780412542353,0.0010780366548606,-0.0010780345524048,0.0010780433862902,-0.0010780404169251,0.0010780374838075,-0.0010780337544751,0.0010780441724015,-0.00090907626219321,0.00090908854591059,-0.00090907858171122,0.0009090861925693,0.54391180549917,128566,2924,0.0037905921271992,0.0069747155286117,0.0037905921285874,28.486036863653,-1.2111705090773e-05,-1.2111705090773e-05,-1.2111705090773e-05,4453168.7572582,0.014663501151725
15419200,0.97363141697279,0.015002786204553,0.0042009977248865,0.0066007907536907,0.0042009977259758,-0.00090909939201429,0.00090909836889047,7.3932395345116e-10,-1.7823417879831e-09,6.6619510370644e-09,-7.9544675928576e-09,-0.0010763063588966,0.0010763109980435,-0.0010763072136215,0.0010763102151599,-0.0010763110274746,0.0010763061995501,-0.0010763118996769,0.0010763053447917,-0.00090728802800571,0.00090728464279494,-0.00090729046438758,0.00090728202273892,-5.1819300023013e-09,9.4241139950805e-09,1.2282914737798e-08,-8.2940425997507e-09,-0.0016791854044514,0.0016791894086704,-0.0018534056453452,0.001853411549434,-0.0018534123138662,0.0018534046933007,-0.001853400895476,0.00185341639995,-0.0018534076128168,0.001853409494261,-0.0014847892635798,0.0014848183309667,-0.0014848092340326,0.0014847978248311,-0.0014848120542027,0.001484795014223,-0.0014847978217552,0.0014848095930139,3.6358561419619e-10,2.8426294802677e-09,-0.00090909732247907,0.00090910043892526,-8.3892605276142e-09,1.1976420711232e-08,-0.0010763109735441,0.0010763063312835,-0.0010763042307904,0.0010763131036797,-0.0010763101217195,0.0010763071745878,-0.0010763034218472,0.0010763139003434,-0.00090728013027585,0.00090729249233993,-0.00090728248206537,0.00090729010892645,0.61487580368916,128566,2924,0.0037835205689249,0.006969379671165,0.0037835205699602,27.073064474163,-2.3415484206695e-05,-2.3415484206695e-05,-2.3415484206695e-05,4435867.4288567,0.01464373472942
15619200,0.9746033117196,0.0150156067172,0.0042044684665667,0.0066066697829753,0.0042044684676577,-0.00090782829272351,0.0009078272643585,7.5866847189381e-10,-1.8062292452943e-09,6.6771192638196e-09,-7.9800496318144e-09,-0.0010752263785073,0.0010752310376339,-0.0010752272439552,0.0010752302448652,-0.0010752310565336,0.0010752262295965,-0.0010752319475088,0.001075225356997,-0.00090604519562377,0.00090604184912387,-0.00090604769033595,0.00090603917807273,-5.2058574266879e-09,9.448709728286e-09,1.2204153560839e-08,-8.2141845465358e-09,-0.0016785425451823,0.0016785465501514,-0.0018529029022397,0.0018529087346188,-0.0018529095147834,0.0018529019350638,-0.0018528981331221,0.0018529136056492,-0.0018529048023026,0.0018529067484705,-0.0014840052899556,0.0014840342322328,-0.0014840250985974,0.0014840138491402,-0.0014840280093121,0.0014840109873339,-0.0014840137509518,0.0014840256141712,3.348811830215e-10,2.8498334766262e-09,-0.00090782623046215,0.00090782932690876,-8.2843105194414e-09,1.1858361957808e-08,-0.0010752309847583,0.0010752263783735,-0.0010752243117573,0.0010752330810515,-0.0010752301166308,0.0010752272372936,-0.0010752234942318,0.001075233885652,-0.00090603735151515,0.00090604963925384,-0.00090603972994029,0.00090604723340256,0.62694797126611,128566,2924,0.0037782496864933,0.0069667147559112,0.0037782496871173,25.964187371365,-3.2286501029083e-05,-3.2286501029083e-05,-3.2286501029083e-05,4409400.0574912,0.014630338232196
15819200,0.97551746651823,0.015028588991513,0.0042080296704528,0.006612529649517,0.0042080296715431,-0.00090778103311229,0.0009077799936515,7.7927298762382e-10,-1.836891229199e-09,6.7203890701259e-09,-8.04077229222e-09,-0.0010754269910679,0.0010754316802668,-0.0010754278618062,0.001075430882472,-0.0010754316918672,0.0010754268499681,-0.0010754326112165,0.0010754259482539,-0.0009061006650117,0.00090609736203976,-0.00090610324665944,0.00090609460731363,-5.2681758336092e-09,9.5152099198685e-09,1.1956329381521e-08,-7.9621193363668e-09,-0.0016792557889856,0.0016792597979893,-0.0018537264486214,0.0018537320658735,-0.0018537328864803,0.0018537254453911,-0.0018537216268476,0.001853736992559,-0.0018537281446898,0.0018537302904284,-0.0014845797332786,0.0014846082679543,-0.0014845990701998,0.0014845883204757,-0.001484602213518,0.0014845852690386,-0.0014845878759318,0.0014846000002824,2.8671610223496e-10,2.8297229311385e-09,-0.00090777899859175,0.00090778202803356,-7.9567323633469e-09,1.1465635889132e-08,-0.0010754315366948,0.0010754270799443,-0.0010754250902196,0.0010754335561557,-0.0010754306469183,0.0010754279596697,-0.0010754242746013,0.0010754343585633,-0.00090609299529296,0.00090610496780757,-0.00090609537006622,0.0009061025695697,0.66919700029974,128566,2924,0.0037780624406806,0.0069696563692628,0.0037780624404471,25.548069867116,-3.561544106307e-05,-3.561544106307e-05,-3.561544106307e-05,4393132.7605417,0.014632947600375
16019200,0.97637880831243,0.015040789821766,0.0042113740898198,0.0066180416410381,0.0042113740909085,-0.00090767798808286,0.0009076769402952,7.8405182369983e-10,-1.850479881825e-09,6.7710045084049e-09,-8.0950066336334e-09,-0.001075686329972,0.0010756910736787,-0.0010756872283041,0.0010756902450426,-0.0010756910871143,0.0010756861848794,-0.0010756919903545,0.0010756852996773,-0.00090615365378924,0.00090615025283248,-0.0009061561806572,0.000906147546526,-5.2988396146165e-09,9.5485784681881e-09,1.1608457392242e-08,-7.6128017682493e-09,-0.0016800303309535,0.0016800343417474,-0.0018545439964228,0.0018545493873706,-0.0018545502324504,0.0018545429790609,-0.0018545391761375,0.0018545543122081,-0.0018545454471747,0.0018545478680533,-0.0014852426602788,0.0014852704633715,-0.0014852612838127,0.0014852513121618,-0.0014852647258053,0.001485247885732,-0.0014852502499183,0.0014852627319576,2.4179892623452e-10,2.8449862458455e-09,-0.00090767596598115,0.00090767896247897,-7.8222648369728e-09,1.1279897333731e-08,-0.0010756908620358,0.0010756864872845,-0.0010756845455031,0.0010756928333624,-0.0010756899752028,0.0010756873641117,-0.0010756836877132,0.0010756936778751,-0.00090614594147304,0.0009061579110333,-0.00090614844038702,0.00090615538563828,0.66742792840519,128566,2924,0.003777647273128,0.006972846314161,0.0037776472733113,25.148307220504,-3.8813542235969e-05,-3.8813542235969e-05,-3.8813542235969e-05,4371034.4042399,0.014635348844995
16219200,0.97719101127257,0.015052243357934,0.0042145121270623,0.0066232191027202,0.0042145121281516,-0.00090752276930663,0.00090752171773117,8.0665008766559e-10,-1.8770432979333e-09,6.7915277553879e-09,-8.1189381913937e-09,-0.0010758720499447,0.0010758768088077,-0.001075872950987,0.0010758759742698,-0.0010758768094477,0.0010758719168814,-0.0010758777400444,0.0010758710025546,-0.0009061459335198,0.00090614259862185,-0.00090614854136389,0.00090613980326003,-5.3281561465459e-09,9.5798061417923e-09,1.1458154570714e-08,-7.4609350096157e-09,-0.0016807164430472,0.0016807204554868,-0.0018552671888388,0.0018552724521718,-0.0018552733182475,0.0018552661553054,-0.0018552623364618,0.0018552774096745,-0.0018552685252622,0.0018552710524773,-0.001485829156802,0.0014858567197059,-0.0014858475275539,0.0014858378395116,-0.0014858510683691,0.0014858343016428,-0.0014858365630623,0.0014858491743362,2.0657162945388e-10,2.8395261344083e-09,-0.00090752076675384,0.00090752372066355,-7.6223409841563e-09,1.1029496385277e-08,-0.0010758765454997,0.0010758722578397,-0.0010758703662308,0.001075878466528,-0.0010758756367257,0.0010758731567173,-0.0010758695105207,0.0010758793091965,-0.00090613835303715,0.00090615012475527,-0.0009061408432126,0.00090614760649646,0.66425605303793,128566,2924,0.0037770149894937,0.0069756706685894,0.0037770149902901,24.749144080621,-4.2006847355032e-05,-4.2006847355032e-05,-4.2006847355032e-05,4351010.4128524,0.014636937594457
16419200,0.9779602304466,0.015061925252807,0.004217113730505,0.0066276977907062,0.0042171137315953,-0.00090738641907757,0.00090738536582717,8.2344297198906e-10,-1.8953544005717e-09,6.7982421823752e-09,-8.1286412155024e-09,-0.0010760690547499,0.0010760738350339,-0.0010760699729498,0.0010760729830639,-0.0010760738250682,0.0010760689320071,-0.001076074762077,0.0010760680116747,-0.00090612878082334,0.00090612545742953,-0.0009061314069276,0.00090612264458763,-5.3332307846957e-09,9.5844560349178e-09,1.1341783828642e-08,-7.3448127353656e-09,-0.0016813867017427,0.0016813907138875,-0.0018559780079518,0.0018559831968171,-0.0018559840678598,0.0018559769727822,-0.0018559731584631,0.0018559881516361,-0.0018559792660734,0.0018559818790811,-0.0014864003457828,0.001486427667459,-0.0014864184713493,0.0014864090300976,-0.0014864221133183,0.0014864053982409,-0.0014864075854012,0.001486420298522,1.775438440692e-10,2.8544422488544e-09,-0.00090738442284024,0.00090738736240958,-7.5471398103241e-09,1.0939889079413e-08,-0.0010760735449506,0.0010760692889976,-0.001076067425919,0.0010760754374925,-0.001076072627068,0.0010760701967917,-0.001076066549926,0.0010760763002725,-0.00090612120936796,0.00090613297234453,-0.00090612376024696,0.00090613039461097,0.59981698301023,128566,2924,0.0037764601118474,0.0069784298491304,0.0037764601125793,24.411697623404,-4.4706419012767e-05,-4.4706419012767e-05,-4.4706419012767e-05,4334360.0636185,0.014638616880331
16619200,0.97869280094628,0.015072935855474,0.0042201648449915,0.0066326061643997,0.0042201648460827,-0.00090752318655142,0.00090752213551548,8.4488616813105e-10,-1.9145605227807e-09,6.7893796387853e-09,-8.1169787760172e-09,-0.0010763165498001,0.0010763213370671,-0.0010763174793897,0.0010763204730154,-0.0010763213114523,0.00107631644246,-0.0010763222636564,0.0010763155067399,-0.00090633165564645,0.00090632838651465,-0.00090633432682891,0.00090632552812543,-5.3241624266102e-09,9.5742061171045e-09,1.1334346706018e-08,-7.3384996325206e-09,-0.0016820768963214,0.001682080907272,-0.0018567806365923,0.0018567858245426,-0.0018567866910559,0.0018567796067836,-0.0018567757913127,0.0018567907750093,-0.0018567818974634,0.0018567845046221,-0.0014869867742418,0.0014870140800213,-0.0014870048932205,0.0014869954533771,-0.0014870085209619,0.0014869918332248,-0.0014869940159709,0.001487006708862,1.5648972829475e-10,2.8717249379688e-09,-0.00090752119340473,0.00090752412892518,-7.5354326716162e-09,1.0922717527018e-08,-0.0010763210476644,0.0010763167831306,-0.0010763149362866,0.0010763229238938,-0.0010763201152143,0.0010763177055263,-0.0010763140492866,0.0010763237976643,-0.00090632410177291,0.00090633588336027,-0.00090632668454164,0.00090633327377056,0.7023563244816,128566,2924,0.0037770331491687,0.0069812797048686,0.0037770331497283,24.157883767499,-4.6736929860006e-05,-4.6736929860006e-05,-4.6736929860006e-05,4330886.624776,0.014642671808173
16819200,0.97939086323918,0.015083477121894,0.004223084973287,0.0066373071742274,0.0042230849743791,-0.00090756348880049,0.00090756244202956,8.6680531594995e-10,-1.9323729988193e-09,6.7712236464457e-09,-8.0934726059087e-09,-0.0010767250116907,0.0010767298024005,-0.0010767259544842,0.0010767289252287,-0.0010767297597056,0.0010767249217431,-0.0010767307251386,0.0010767239726211,-0.00090655670350839,0.00090655349086387,-0.00090655941299724,0.00090655059272523,-5.3050092987839e-09,9.5523492334644e-09,1.139309166087e-08,-7.3997752764741e-09,-0.0016829562506518,0.001682960259142,-0.0018576290563883,0.0018576342948059,-0.0018576351495708,0.0018576280371378,-0.0018576242242987,0.0018576392314708,-0.0018576303692036,0.0018576329211851,-0.0014878035168321,0.0014878309248111,-0.0014878217553314,0.0014878121809112,-0.0014878253144786,0.0014878086252778,-0.0014878108485972,0.0014878234578615,1.4317031916782e-10,2.8976291216036e-09,-0.00090756149161005,0.00090756443953637,-7.5859092892078e-09,1.0985797400889e-08,-0.001076729530656,0.0010767252275991,-0.0010767233814648,0.0010767314062322,-0.0010767285851513,0.0010767261632621,-0.0010767224815745,0.0010767322930361,-0.00090654913405563,0.00090656100422483,-0.0009065517545186,0.00090655835629636,0.70571572258797,128566,2924,0.0037772140296045,0.0069849009908939,0.0037772140302711,23.906049120935,-4.8751607032517e-05,-4.8751607032517e-05,-4.8751607032517e-05,4311021.2816418,0.014646720204396
17019200,0.98005633951591,0.015093323213379,0.0042258041864999,0.0066417148392862,0.0042258041875928,-0.00090754382980429,0.00090754278766138,8.8870269237513e-10,-1.9497796480578e-09,6.7501541336177e-09,-8.0669838032116e-09,-0.0010770752407239,0.0010770800335465,-0.0010770761972331,0.0010770791433221,-0.0010770799735604,0.0010770751684826,-0.0010770809518664,0.0010770742066209,-0.00090672403469752,0.00090672087959972,-0.00090672678194598,0.00090671794404541,-5.2825255288241e-09,9.5268933401833e-09,1.1482587324722e-08,-7.4919570650896e-09,-0.0016837734369124,0.0016837774427198,-0.0018584102377727,0.00185841554921,-0.0018584163897284,0.0018584092305391,-0.00185840542142,0.0018584204694454,-0.0018584116244851,0.0018584140987619,-0.0014885630730792,0.0014885906401591,-0.0014885814871365,0.0014885717165477,-0.0014885849571716,0.001488568251754,-0.0014885705367613,0.0014885830366888,1.3243559454379e-10,2.9265718873806e-09,-0.00090754182568435,0.000907544792132,-7.6673029753336e-09,1.1087791119719e-08,-0.0010770797888736,0.0010770754299634,-0.0010770735791559,0.0010770816691468,-0.0010770788305196,0.0010770763786463,-0.001077072665793,0.0010770825694919,-0.00090671643515136,0.00090672842387642,-0.00090671909506692,0.00090672573595897,0.69245976480698,128566,2924,0.0037771463012982,0.0069882642457154,0.0037771463020352,23.654286985597,-5.0765704115224e-05,-5.0765704115224e-05,-5.0765704115224e-05,4292204.7450267,0.014650001814033
17219200,0.98067573971256,0.01510223351958,0.0042282549007774,0.0066457237169317,0.004228254901871,-0.000906759888006,0.00090675885503841,9.1612352848337e-10,-1.9689298419883e-09,6.7101865017375e-09,-8.0137217570071e-09,-0.0010765756003666,0.0010765803803531,-0.0010765765660416,0.0010765794806876,-0.0010765802973767,0.0010765755527501,-0.0010765812965664,0.0010765745690494,-0.00090607275183983,0.00090606969672057,-0.00090607555767078,0.00090606669352793,-5.2474957074317e-09,9.4873853576544e-09,1.1768153467225e-08,-7.7820786080168e-09,-0.0016836501725251,0.0016836541750062,-0.0018582655424573,0.0018582710592428,-0.0018582718738272,0.0018582645552787,-0.0018582607437775,0.0018582759601405,-0.001858267138408,0.0018582693921259,-0.0014884003730578,0.0014884284950964,-0.0014884193811571,0.0014884089948926,-0.0014884225836316,0.0014884057728467,-0.0014884082445399,0.0014884204523275,1.3013354825575e-10,2.9564907812411e-09,-0.00090675787516786,0.00090676086845936,-7.8080180473495e-09,1.1252514191555e-08,-0.0010765801884417,0.0010765757378495,-0.0010765738710151,0.0010765820857322,-0.0010765792134559,0.0010765767037609,-0.0010765729532111,0.0010765829910073,-0.00090606513273263,0.00090607726350623,-0.00090606780447306,0.00090607456236859,0.67475987713993,128566,2924,0.0037739024241112,0.0069877407111458,0.0037739024253093,22.994378001025,-5.6044975991797e-05,-5.6044975991797e-05,-5.6044975991797e-05,4270272.2488707,0.014642892142758
17419200,0.98124102376867,0.015110005884143,0.0042303786604382,0.0066492485621717,0.0042303786615333,-0.00090533554212395,0.00090533451727364,9.3691547696538e-10,-1.98163517802e-09,6.6747918252669e-09,-7.9689024583529e-09,-0.0010753333908959,0.0010753381682635,-0.0010753343752936,0.001075337253962,-0.0010753380674902,0.0010753333627354,-0.0010753390722983,0.0010753323726266,-0.00090471918764976,0.00090471618324461,-0.00090472201025172,0.00090471316451721,-5.2021087212671e-09,9.4375079356107e-09,1.1978606814314e-08,-7.9964738828589e-09,-0.0016826760880818,0.00168268008558,-0.0018572873014414,0.0018572929857135,-0.0018572937723641,0.0018572863364272,-0.0018572825394913,0.0018572978488114,-0.0018572890620926,0.0018572911468734,-0.0014874048691414,0.0014874333535524,-0.0014874242653706,0.0014874134479529,-0.0014874272881854,0.0014874104141761,-0.0014874130299773,0.0014874250174022,1.3668833927609e-10,3.0085447333374e-09,-0.00090533350345925,0.00090533655665631,-8.0941003562019e-09,1.1606779215578e-08,-0.0010753380605495,0.0010753334461796,-0.0010753315365865,0.0010753399995274,-0.0010753370760048,0.0010753344220082,-0.0010753305986319,0.0010753409253793,-0.000904711427975,0.00090472389343417,-0.00090471415922081,0.00090472112896415,0.64747798622943,128566,2924,0.0037679959558464,0.006983702122405,0.0037679959573264,21.991139141289,-6.4070886869686e-05,-6.4070886869686e-05,-6.4070886869686e-05,4246849.4338484,0.014626810630114
17619200,0.98175733870309,0.015116822930747,0.004232231202179,0.0066523605252912,0.0042322312032763,-0.00090388735943356,0.00090388633851737,9.5899301678559e-10,-1.9996533212506e-09,6.6521408733298e-09,-7.9435941286227e-09,-0.0010739666396197,0.0010739714177925,-0.0010739676372988,0.0010739704919149,-0.0010739712995559,0.0010739666291429,-0.0010739723194655,0.0010739656256066,-0.00090328917262251,0.00090328623163264,-0.00090329204227843,0.00090328317480466,-5.1797108642121e-09,9.4119844561002e-09,1.2168068452214e-08,-8.1884035239519e-09,-0.001681511181428,0.0016815151763428,-0.0018561485421622,0.0018561543652785,-0.0018561551359417,0.0018561475873357,-0.0018561437944525,0.001856159213559,-0.0018561504421219,0.0018561523807504,-0.0014862207749916,0.0014862496200245,-0.0014862405346397,0.0014862293200018,-0.0014862434123705,0.0014862264589416,-0.0014862292059346,0.001486241016848,1.3382720965958e-10,3.0447586539879e-09,-0.00090388530500891,0.00090388839345086,-8.2552873526675e-09,1.1812747971934e-08,-0.0010739713611948,0.0010739666439355,-0.0010739647148432,0.0010739733198699,-0.0010739703627473,0.0010739676336402,-0.0010739637645085,0.0010739742577928,-0.00090328135015736,0.0009032940029914,-0.00090328411846034,0.00090329120378004,0.62390234221495,128566,2924,0.003761986760648,0.0069788787798993,0.0037619867617078,20.979737727075,-7.2162098183396e-05,-7.2162098183396e-05,-7.2162098183396e-05,4228543.0138836,0.014609722572794
17819200,0.98223013311042,0.015122840816033,0.0042338585181241,0.0066551237786871,0.004233858519222,-0.00090247138887349,0.00090247036820124,9.7866457806084e-10,-2.0190193117259e-09,6.6473084353821e-09,-7.9399233804086e-09,-0.001072555269426,0.0010725600590362,-0.0010725562813167,0.0010725591203306,-0.001072559927304,0.0010725552729189,-0.0010725609601334,0.0010725542573097,-0.00090184657473085,0.00090184367421429,-0.00090184948269738,0.00090184058198307,-5.1754080294255e-09,9.4064694735203e-09,1.2255682627426e-08,-8.2769778301265e-09,-0.0016802464558421,0.0016802504497698,-0.0018549359657997,0.0018549418499127,-0.0018549426167806,0.0018549350118787,-0.001854931221831,0.0018549466944112,-0.0018549379256103,0.0018549398027673,-0.001484935668873,0.0014849646820127,-0.0014849555923383,0.001484944200644,-0.0014849584138259,0.0014849414089406,-0.0014849442179394,0.0014849559620264,1.2280674449818e-10,3.0737945562249e-09,-0.00090246932513817,0.00090247243244127,-8.3407758418469e-09,1.1922668801382e-08,-0.0010725600269883,0.0010725552494642,-0.0010725533165986,0.0010725619896056,-0.0010725590156936,0.0010725562519148,-0.0010725523522703,0.00107256294138,-0.00090183871119247,0.0009018514861954,-0.00090184152107409,0.00090184864640489,0.60341629042867,128566,2924,0.0037561082303451,0.0069736463794301,0.0037561082314044,19.990041425546,-8.0079668595631e-05,-8.0079668595631e-05,-8.0079668595631e-05,4214812.4318995,0.014592483370006
18019200,0.98266405164948,0.015128360454338,0.0042353533956186,0.0066576536620036,0.0042353533967159,-0.00090109115263593,0.00090109012989407,9.9692703376932e-10,-2.0393287460627e-09,6.6590398863068e-09,-7.9535063438995e-09,-0.0010711148728939,0.0010711196823736,-0.0010711158983789,0.0010711187299045,-0.0010711195398817,0.0010711148869203,-0.001071120584781,0.0010711138593039,-0.00090040723368703,0.00090040435832193,-0.00090041017713003,0.00090040123036038,-5.1867058498142e-09,9.4184264430078e-09,1.2247562615016e-08,-8.2683694407539e-09,-0.0016789045030077,0.0016789084973676,-0.0018536670113114,0.0018536728833198,-0.0018536736576889,0.0018536660500684,-0.001853662260563,0.0018536777347453,-0.0018536689580738,0.0018536708494654,-0.0014835723901579,0.0014836013924441,-0.0014835922961031,0.0014835809325518,-0.0014835951392469,0.0014835781154009,-0.0014835809174759,0.0014835926934195,1.0225018378296e-10,3.0936574754171e-09,-0.00090108908824039,0.00090109219478096,-8.3429038203386e-09,1.1923262710455e-08,-0.0010711196475051,0.0010711148558475,-0.0010711129370249,0.0010711215959961,-0.0010711186235495,0.0010711158709296,-0.0010711119584005,0.0010711225619876,-0.00090039936179389,0.00090041217867488,-0.00090040221333253,0.00090040929733536,0.60265704061804,128566,2924,0.0037503756021975,0.0069680977350328,0.0037503756032264,19.018655716683,-8.7850754266539e-05,-8.7850754266539e-05,-8.7850754266539e-05,4204671.7868779,0.014575218430695
18219200,0.98306271043129,0.015133536019289,0.0042367620660397,0.0066600118861128,0.0042367620671369,-0.00089970261931268,0.00089970159319065,1.015122141572e-09,-2.060851784114e-09,6.6763406822316e-09,-7.974327620912e-09,-0.0010696581961092,0.0010696630279593,-0.0010696592345775,0.0010696620621814,-0.0010696628755825,0.0010696582199758,-0.0010696639336205,0.0010696571788609,-0.00089895816713242,0.00089895531463133,-0.00089896114880622,0.00089895214710297,-5.2054281599193e-09,9.4384670480752e-09,1.2189962165847e-08,-8.2097041805844e-09,-0.0016775103783038,0.0016775143737477,-0.001852339643809,0.0018523454656901,-0.0018523462524807,0.0018523386715364,-0.0018523348803968,0.0018523503302114,-0.0018523415403818,0.0018523434838354,-0.0014821629090139,0.0014821918108597,-0.001482182703788,0.0014821714681823,-0.0014821856076869,0.0014821685852878,-0.0014821713480512,0.0014821832009796,7.6553584651199e-11,3.1072463781549e-09,-0.00089970055945095,0.00089970365355142,-8.2908894505772e-09,1.1856692240822e-08,-0.0010696629747847,0.0010696581973346,-0.0010696563034585,0.0010696648982344,-0.001069661937593,0.0010696592255709,-0.0010696553118812,0.0010696658772473,-0.0008989503129103,0.00089896311740024,-0.00089895320252615,0.00089896019755626,0.61338751910449,128566,2924,0.0037446081835827,0.0069623337733177,0.0037446081846256,18.047704266066,-9.5618365871472e-05,-9.5618365871472e-05,-9.5618365871472e-05,4194247.6977409,0.014557664846473
18419200,0.98343861238549,0.015138454034753,0.0042381040138051,0.0066622460060457,0.0042381040149024,-0.00089900248491774,0.00089900144980544,1.0352131501143e-09,-2.0898314575657e-09,6.7038613550473e-09,-8.0169032822254e-09,-0.0010689485400898,0.0010689533986829,-0.0010689495883484,0.0010689524227724,-0.0010689532367837,0.0010689485736985,-0.0010689543186734,0.0010689475117011,-0.00089823627636972,0.00089823346018718,-0.00089823932929179,0.00089823023008393,-5.2509361740925e-09,9.4857526691202e-09,1.2028856384753e-08,-8.0465572091418e-09,-0.001676900755829,0.0016769047550039,-0.0018517793513606,0.0018517850359073,-0.0018517858476669,0.0018517783576986,-0.0018517745519147,0.0018517899371419,-0.0018517811122594,0.0018517831955148,-0.0014815296138334,0.0014815582555775,-0.001481549109229,0.001481538190996,-0.001481552172512,0.0014815351816249,-0.0014815378440144,0.0014815498746869,3.8207579398647e-11,3.0993056622457e-09,-0.00089900044327528,0.00089900349164624,-8.05775896623e-09,1.1581355718424e-08,-0.0010689532789739,0.0010689486064639,-0.0010689467695154,0.0010689551475075,-0.0010689522252799,0.0010689496504744,-0.001068945773348,0.0010689561304541,-0.00089822853898761,0.0008982411371332,-0.00089823144627926,0.000898238209374,0.61738403819679,128566,2924,0.0037417009085629,0.0069598126187743,0.0037417009090126,17.475271900533,-0.00010019782479573,-0.00010019782479573,-0.00010019782479573,4188180.195722,0.014549206614519
18619200,0.98380067063609,0.015143144415104,0.0042393826774212,0.0066643790591674,0.0042393826785158,-0.00089887048646079,0.00089886944313781,1.0434541884408e-09,-2.1060515108083e-09,6.7516809541803e-09,-8.0710513717443e-09,-0.0010688485102159,0.0010688534126783,-0.0010688495769361,0.0010688524158084,-0.0010688532505737,0.0010688485417363,-0.0010688543289495,0.0010688474821326,-0.00089810550977912,0.00089810264268398,-0.0008981085517398,0.000898099419563,-5.2828134954975e-09,9.5225630144718e-09,1.169285147459e-08,-7.7063992259112e-09,-0.0016769350952686,0.0016769390972898,-0.0018518587900861,0.0018518642430601,-0.0018518650817757,0.0018518577780635,-0.001851853979491,0.0018518691562792,-0.0018518603123657,0.0018518626499136,-0.0014815295119883,0.0014815574772649,-0.0014815483192796,0.0014815381381956,-0.0014815516709778,0.0014815348094664,-0.0014815372403305,0.0014815496047643,-8.3572124814983e-12,3.1071474270891e-09,-0.00089886846084965,0.00089887146908051,-7.8886381911653e-09,1.1360754163639e-08,-0.0010688532273583,0.0010688486417716,-0.0010688468597106,0.0010688550395715,-0.0010688521668111,0.0010688496925096,-0.0010688458343469,0.0010688560516149,-0.00089809778920496,0.00089811030745061,-0.00089810077917767,0.00089810729207445,0.61178640804904,128566,2924,0.0037411537353738,0.0069599538075761,0.0037411537360815,17.230562953133,-0.00010215549637494,-0.00010215549637494,-0.00010215549637494,4186648.2306485,0.014548239416442
18819200,0.98414967091904,0.015147977210721,0.0042407153497839,0.0066665465100585,0.0042407153508782,-0.00089876504195784,0.00089876399568401,1.0664070867271e-09,-2.1319091825834e-09,6.7697937473763e-09,-8.0914533630363e-09,-0.0010687582532793,0.0010687631723412,-0.001068759326208,0.0010687621675556,-0.0010687629972596,0.001068758297693,-0.0010687640997155,0.0010687572115219,-0.00089799907957644,0.00089799627037552,-0.00089800219160095,0.00089799296923779,-5.3091481962258e-09,9.5515077098782e-09,1.153564526225e-08,-7.5471090246469e-09,-0.001676970150542,0.0016769741544092,-0.0018519443159385,0.0018519496380543,-0.0018519504958369,0.0018519432890631,-0.0018519394785419,0.0018519545792523,-0.0018519457178278,0.0018519481700461,-0.0014815300519748,0.0014815577531961,-0.0014815485828932,0.0014815387076076,-0.0014815520394274,0.0014815352586521,-0.001481537582262,0.0014815500802812,-4.5644845232045e-11,3.1000655360238e-09,-0.00089876303773677,0.00089876600037609,-7.6850731847895e-09,1.1103022956223e-08,-0.0010687629338611,0.0010687584374207,-0.0010687567088275,0.0010687646920652,-0.0010687618539911,0.0010687595076283,-0.0010687556827154,0.0010687657053038,-0.00089799148383405,0.00089800381117579,-0.00089799447502382,0.00089800079151062,0.6492293761618,128566,2924,0.0037407163867993,0.0069600986593427,0.0037407163877871,16.993625483999,-0.00010405099612801,-0.00010405099612801,-0.00010405099612801,4185944.5838314,0.014547498462277
19019200,0.98448618689763,0.015152939693358,0.0042420967383609,0.0066687462155415,0.0042420967394554,-0.00089863418879352,0.00089863313970553,1.0823886050248e-09,-2.1508078106922e-09,6.7827732171179e-09,-8.1076305471286e-09,-0.0010687377769296,0.0010687427199861,-0.0010687388664221,0.0010687416978108,-0.0010687425355714,0.0010687378302021,-0.0010687436444406,0.0010687367377119,-0.00089792092053008,0.00089791811666696,-0.00089792405006155,0.00089791479698307,-5.3197953840791e-09,9.563107309342e-09,1.1374372661311e-08,-7.385015144739e-09,-0.001677089916036,0.001677093920718,-0.0018520613421884,0.0018520665570954,-0.0018520674234534,0.0018520603108567,-0.0018520565029903,0.001852071500402,-0.0018520626329003,0.0018520652047326,-0.0014816308705432,0.0014816582456582,-0.0014816490725276,0.0014816395395717,-0.0014816526620441,0.0014816359509958,-0.001481638167358,0.0014816508109517,-7.920113952573e-11,3.1107072078122e-09,-0.00089863219500018,0.00089863513405889,-7.5699245572951e-09,1.0960619021256e-08,-0.0010687424424662,0.0010687379997437,-0.0010687363084726,0.0010687441633509,-0.0010687413531761,0.0010687390792737,-0.0010687352623424,0.0010687451965453,-0.00089791335204028,0.00089792563115221,-0.00089791640219703,0.00089792255181511,0.68719101726665,128566,2924,0.0037401769602592,0.0069605896069652,0.0037401769614311,16.756971938086,-0.00010594422449531,-0.00010594422449531,-0.00010594422449531,4178785.6187769,0.014546903911515
19219200,0.98482119805617,0.015158035848466,0.004243521297402,0.0066709932525673,0.0042435212984968,-0.00089936244419324,0.0008993613933533,1.1033633285775e-09,-2.1731052729493e-09,6.792025730539e-09,-8.1201586074049e-09,-0.0010697056295949,0.0010697105893958,-0.001069706729876,0.0010697095557791,-0.0010697103920082,0.0010697056956062,-0.0010697115183928,0.0010697045852246,-0.00089878148835718,0.00089877872980961,-0.00089878467180317,0.00089877535845354,-5.334370066362e-09,9.5784301529455e-09,1.1264086262897e-08,-7.2737975093026e-09,-0.00167829723585,0.0016783012413015,-0.0018532192577609,0.0018532243874913,-0.0018532252640676,0.0018532182183613,-0.0018532144056763,0.0018532293442275,-0.0018532204672314,0.0018532231189783,-0.0014828147973826,0.0014828419756202,-0.0014828327873186,0.0014828234728146,-0.0014828364669803,0.0014828198093968,-0.0014828219552412,0.001482834693194,-1.1164340790913e-10,3.1141916548262e-09,-0.00089936046362763,0.0008993633742145,-7.4213695976648e-09,1.0782768038989e-08,-0.0010697102706142,0.0010697058928773,-0.001069704241424,0.0010697119516134,-0.0010697091659876,0.0010697069875421,-0.00106970318648,0.0010697129934969,-0.00089877399664471,0.00089878616272751,-0.00089877707333746,0.00089878305880697,0.70677988585354,128566,2924,0.0037432091073663,0.006965573459629,0.0037432091080004,17.022534526953,-0.00010381972378438,-0.00010381972378438,-0.00010381972378438,4174311.1485201,0.014558117730578
19419200,0.98515986547922,0.015163073999529,0.0042449243435058,0.0066732253114227,0.0042449243446007,-0.00090050402075167,0.00090050296856447,1.1240389633941e-09,-2.1953911023828e-09,6.7913834659135e-09,-8.1229866398046e-09,-0.0010711556998844,0.0010711606715958,-0.0010711568109247,0.0010711596262608,-0.0010711604601182,0.0010711557799951,-0.0010711616049239,0.0010711546535858,-0.00090009316082277,0.00090009045314619,-0.00090009639799187,0.00090008703012185,-5.3399988015845e-09,9.583569029721e-09,1.1223269109597e-08,-7.2332678113982e-09,-0.0016800489650575,0.0016800529714762,-0.0018549061542529,0.0018549112537514,-0.001854912131027,0.0018549051156954,-0.0018549012956015,0.0018549162162996,-0.001854907333733,0.0018549100171974,-0.0014845369462044,0.0014845640591512,-0.0014845548675651,0.0014845456205292,-0.0014845585738897,0.0014845419381387,-0.0014845440607273,0.0014845568218345,-1.3805144861014e-10,3.123943736052e-09,-0.00090050204805551,0.00090050494162698,-7.316246732655e-09,1.0660956616456e-08,-0.0010711603249038,0.0010711559903724,-0.001071154368386,0.0010711619782315,-0.0010711592051509,0.001071157099828,-0.0010711533039443,0.0010711630290243,-0.00090008572792047,0.00090009782438606,-0.00090008883245045,0.00090009469754416,0.69264758710704,128566,2924,0.0037479597283668,0.0069728059865229,0.0037479597291584,17.539208231113,-9.9686334151094e-05,-9.9686334151094e-05,-9.9686334151094e-05,4172106.0850147,0.014575101457142
19619200,0.98550205847173,0.015168032993349,0.0042462994197081,0.0066754341528386,0.0042462994208028,-0.00090164763991218,0.00090164659114384,1.1420690904648e-09,-2.2099383246626e-09,6.7855771119168e-09,-8.1106063520139e-09,-0.0010725739928923,0.0010725789774833,-0.0010725751208876,0.0010725779153933,-0.0010725787528698,0.0010725740858612,-0.0010725799014987,0.0010725729533138,-0.00090139311630666,0.00090139042895211,-0.00090139636372396,0.00090138699214021,-5.3232806662532e-09,9.5656897973311e-09,1.1186576409711e-08,-7.1979737156674e-09,-0.0016817783177918,0.0016817823216911,-0.0018565967545667,0.0018566018419292,-0.0018566027133654,0.0018565957233395,-0.0018565919135072,0.0018566067872628,-0.0018565979212223,0.001856600619034,-0.0014862268810561,0.0014862538890167,-0.0014862447183903,0.001486235554748,-0.0014862484335399,0.0014862318411374,-0.0014862339352411,0.0014862467058883,-1.5148321530095e-10,3.1568501360961e-09,-0.00090164565967921,0.00090164857187538,-7.4028993750645e-09,1.0762931856877e-08,-0.0010725786507941,0.001072574264134,-0.0010725726374393,0.0010725803070851,-0.001072577521635,0.0010725753833864,-0.0010725715521323,0.0010725813793951,-0.00090138562069306,0.00090139786864558,-0.00090138878669253,0.00090139467491903,0.67638954517296,128566,2924,0.0037527179478267,0.0069799468371658,0.003752717948875,18.061896791712,-9.5504825666302e-05,-9.5504825666302e-05,-9.5504825666302e-05,4173022.8883845,0.014592006645191
19819200,0.98584750442136,0.015172887226132,0.0042476386661879,0.0066776098926612,0.0042476386672828,-0.00090279142470928,0.00090279037950655,1.1647358796331e-09,-2.2292990193497e-09,6.7681639590825e-09,-8.089084679045e-09,-0.0010739495032479,0.0010739544902718,-0.0010739506428842,0.0010739534164896,-0.001073954248113,0.0010739496139636,-0.0010739554130463,0.0010739484649226,-0.00090266809315133,0.00090266547027028,-0.00090267138735426,0.00090266198314072,-5.3070664034702e-09,9.5476301002777e-09,1.1275484025997e-08,-7.2885790270903e-09,-0.0016834667963786,0.0016834707985898,-0.0018582737975618,0.0018582789527429,-0.0018582798137053,0.0018582727747707,-0.001858268964823,0.0018582838894594,-0.0018582750352304,0.0018582776564826,-0.0014878649635401,0.0014878921436467,-0.0014878829844514,0.001487873622682,-0.0014878866108324,0.0014878699972536,-0.0014878721522733,0.0014878848211868,-1.6470137419931e-10,3.1806670326055e-09,-0.0009027894410628,0.00090279236374435,-7.4471518518287e-09,1.0818454869305e-08,-0.0010739541811772,0.0010739497568232,-0.0010739481322655,0.0010739558353973,-0.0010739530374176,0.0010739508909145,-0.0010739470370777,0.0010739569177284,-0.00090266059385591,0.00090267291412278,-0.00090266378787432,0.00090266969096958,0.65786895519184,128566,2924,0.0037574754253204,0.0069869203008834,0.0037574754265589,18.584805511141,-9.1321555910874e-05,-9.1321555910874e-05,-9.1321555910874e-05,4176877.6898496,0.014608739551017
20019200,0.98618662840372,0.015177835185236,0.0042490115232643,0.0066798121376125,0.0042490115243593,-0.00090318222571668,0.00090318119114668,1.189537690804e-09,-2.244150234725e-09,6.7331470260776e-09,-8.0362763257746e-09,-0.0010744801208238,0.0010744851010239,-0.001074481274267,0.0010744840143655,-0.0010744848382204,0.0010744802545476,-0.0010744860148123,0.0010744790910486,-0.0009031381794903,0.00090313562928024,-0.00090314150476303,0.00090313209908914,-5.2655866457071e-09,9.5024868419027e-09,1.1509251465974e-08,-7.5264543047521e-09,-0.0016842401010755,0.0016842440997451,-0.0018590598924699,0.0018590652272772,-0.0018590660614974,0.0018590588930484,-0.0018590550879556,0.0018590701348804,-0.0018590613108505,0.0018590637454664,-0.0014885967167931,0.0014886243255911,-0.0014886152206087,0.0014886053642638,-0.0014886186139742,0.0014886019256376,-0.0014886042267582,0.0014886166480643,-1.6333912461841e-10,3.2212780779743e-09,-0.00090318022709654,0.00090318319048244,-7.6632332562784e-09,1.1068543605742e-08,-0.0010744848589711,0.0010744803093674,-0.0010744786556295,0.0010744865427322,-0.0010744837029404,0.0010744814571844,-0.001074477548227,0.0010744876384891,-0.00090313060035482,0.00090314315878134,-0.00090313382968038,0.00090313989548979,0.68048384644996,128566,2924,0.0037591035833483,0.0069901119845425,0.0037591035848065,18.671679019688,-9.0626567842499e-05,-9.0626567842499e-05,-9.0626567842499e-05,4176612.681158,0.014615283364168
20219200,0.98651702461567,0.015182801303842,0.0042503952760811,0.006682010750585,0.0042503952771761,-0.00090334676121486,0.0009033457327356,1.2125950617848e-09,-2.2607090014693e-09,6.6961459454334e-09,-7.9959459750744e-09,-0.0010748145546003,0.0010748195285882,-0.0010748157223376,0.001074818430313,-0.0010748192461799,0.001074814708392,-0.0010748204369273,0.0010748135320409,-0.00090339702639192,0.00090339454997664,-0.00090340039597277,0.00090339098472078,-5.2294626453294e-09,9.4620592834663e-09,1.1760850154983e-08,-7.7813389113199e-09,-0.0016848052939205,0.0016848092887241,-0.0018596087462604,0.0018596142685086,-0.0018596150778528,0.001859607763873,-0.0018596039660121,0.0018596191507744,-0.001859610352014,0.0018596125904844,-0.0014891343680269,0.0014891624458424,-0.001489153342102,0.0014891429597985,-0.0014891565422959,0.0014891397594099,-0.0014891422390826,0.0014891544153177,-1.6095609284303e-10,3.263256491597e-09,-0.00090334474225129,0.00090334775233243,-7.8712505471694e-09,1.133788774129e-08,-0.0010748193540746,0.0010748146759372,-0.001074812992481,0.0010748210670553,-0.0010748181842499,0.0010748158369989,-0.0010748118716739,0.0010748221758139,-0.00090338936350095,0.00090340216013252,-0.0009033926331614,0.00090339885820374,0.69908660498342,128566,2924,0.003759793410824,0.0069924414167555,0.0037597934121395,18.638369692345,-9.0893042461238e-05,-9.0893042461238e-05,-9.0893042461238e-05,4171052.487207,0.01461904922983
20419200,0.98683887105878,0.015187645905931,0.0042517452926175,0.0066841553196002,0.0042517452937129,-0.0009034824022039,0.00090348137731644,1.2337027547994e-09,-2.2782459182709e-09,6.6744249537448e-09,-7.9709965844082e-09,-0.0010751571409496,0.001075162116912,-0.0010751583229861,0.0010751610057247,-0.0010751618178741,0.0010751573113305,-0.0010751630217451,0.0010751561238182,-0.00090364590567923,0.00090364348532664,-0.00090364931520958,0.00090363988671433,-5.2057759635883e-09,9.435650364123e-09,1.1943916148737e-08,-7.9666626722768e-09,-0.0016853844673052,0.0016853884599024,-0.0018601498576067,0.0018601555157083,-0.0018601563078348,0.0018601488872043,-0.0018601450941767,0.0018601603801432,-0.0018601515974039,0.0018601536977853,-0.0014896932955807,0.0014897217152758,-0.0014897126211323,0.0014897018594444,-0.0014897156769831,0.0014896988173639,-0.0014897014215003,0.0014897134268941,-1.6285037492989e-10,3.3018682829212e-09,-0.00090348036590587,0.00090348341411054,-8.0518621565499e-09,1.1564027262869e-08,-0.0010751619974607,0.0010751572076534,-0.0010751555018223,0.0010751637331033,-0.0010751608148983,0.0010751583813186,-0.0010751543665002,0.0010751648558974,-0.00090363816534321,0.00090365117278389,-0.00090364147737812,0.0009036478305173,0.69998401711996,128566,2924,0.0037603646247202,0.0069948268473774,0.003760364625756,18.602121885918,-9.1183024912658e-05,-9.1183024912658e-05,-9.1183024912658e-05,4163094.2428639,0.014622632106574
20619200,0.98715240022552,0.015191851356411,0.0042528961009986,0.006686059153318,0.0042528961020941,-0.00090358041046813,0.00090357938776731,1.254301873856e-09,-2.2966954790479e-09,6.662196017358e-09,-7.9563823648332e-09,-0.001075465248008,0.0010754702307167,-0.0010754664441707,0.0010754691065986,-0.0010754699168245,0.0010754654336727,-0.0010754711333723,0.0010754642338937,-0.00090384646340587,0.00090384409089133,-0.00090384991064626,0.00090384045646884,-5.1924472443598e-09,9.4206702185797e-09,1.208250556269e-08,-8.1067182770272e-09,-0.0016859231294638,0.0016859271205417,-0.0018606550720301,0.0018606608302129,-0.0018606616126942,0.001860654107402,-0.0018606503181553,0.0018606656847415,-0.0018606569108681,0.0018606589089976,-0.0014902090118346,0.0014902376931472,-0.0014902286048035,0.0014902175599895,-0.001490231555245,0.0014902146285268,-0.0014902173259326,0.0014902292117872,-1.6983352499283e-10,3.3349365474699e-09,-0.00090357836181773,0.00090358143688854,-8.1869847894403e-09,1.1730298110059e-08,-0.0010754701517585,0.0010754652747534,-0.0010754635567836,0.0010754718995285,-0.0010754689564246,0.0010754664612728,-0.001075462407577,0.0010754730362197,-0.00090383866429209,0.00090385183770336,-0.00090384201715912,0.00090384845472196,0.63099125630985,128566,2924,0.0037607794211676,0.0069970446657882,0.0037607794221516,18.565766118575,-9.1473871051398e-05,-9.1473871051398e-05,-9.1473871051398e-05,4155670.2824341,0.014625727431585
20819200,0.98744321870698,0.015196069452163,0.0042540660023972,0.0066879374462728,0.0042540660034928,-0.00090234547701584,0.00090234446105838,1.2782495524345e-09,-2.3144817917628e-09,6.6367582936927e-09,-7.9202800254113e-09,-0.0010741869960227,0.0010741919767042,-0.0010741882049105,0.0010741908402868,-0.0010741916435203,0.0010741872016309,-0.0010741928748012,0.0010741859858809,-0.0009025821672525,0.00090257986385459,-0.0009025856548305,0.00090257618106251,-5.165554739672e-09,9.3911832916203e-09,1.231733882946e-08,-8.3443955017982e-09,-0.0016847125153279,0.0016847165035428,-0.0018594935680196,0.0018594994950162,-0.0018595002595413,0.0018594926158688,-0.0018594888306764,0.0018595043321189,-0.0018594955771574,0.0018594973967122,-0.0014889876378863,0.0014890167648254,-0.0014890077034286,0.0014889961718979,-0.001489010446847,0.0014889934225124,-0.0014889962719735,0.0014890079391578,-1.6942772982158e-10,3.3723665439572e-09,-0.0009023434133603,0.00090234652558672,-8.3779921139742e-09,1.1957369103343e-08,-0.0010741919573741,0.0010741869642478,-0.0010741852218642,0.0010741937292196,-0.0010741907484457,0.0010741881649592,-0.0010741840620968,0.0010741948769319,-0.00090257430058148,0.00090258768462211,-0.00090257768259528,0.0009025842678414,0.67642718907045,128566,2924,0.0037556515215768,0.0069920375334323,0.003755651523374,17.742009588371,-9.8063923293033e-05,-9.8063923293033e-05,-9.8063923293033e-05,4146122.1753605,0.01461023865405
21019200,0.98771172579579,0.015199833781417,0.0042551050072803,0.0066896237657602,0.0042551050083765,-0.00090091581693515,0.00090091480136598,1.2972748391368e-09,-2.3328697987335e-09,6.6303780686134e-09,-7.9148781901102e-09,-0.0010727970732654,0.0010728020643751,-0.0010727982966177,0.0010728009150176,-0.001072801718213,0.0010727972921242,-0.0010728029611812,0.0010727960656913,-0.00090115625565585,0.00090115399084571,-0.00090115977997032,0.00090115027829071,-5.1571759691671e-09,9.3814396752223e-09,1.2401740793685e-08,-8.4297184931217e-09,-0.0016833694776202,0.0016833734648014,-0.0018581381598312,0.0018581441489453,-0.0018581449071671,0.0018581372111907,-0.0018581334296523,0.0018581489787181,-0.0018581402293822,0.0018581419873995,-0.0014876581640717,0.0014876874476929,-0.0014876783831216,0.001487666680636,-0.0014876810737515,0.0014876640061338,-0.0014876669147438,0.0014876785115949,-1.8078283009466e-10,3.4027246582757e-09,-0.00090091374310708,0.00090091687576965,-8.4825103640428e-09,1.2089220027763e-08,-0.0010728020758285,0.0010727970109604,-0.0010727952636547,0.0010728038525858,-0.0010728008542416,0.0010727982241357,-0.0010727940885553,0.001072805015419,-0.00090114833689777,0.00090116186072353,-0.00090115176507569,0.00090115840012088,0.65601666333266,128566,2924,0.0037497175113135,0.0069864795213378,0.0037497175125068,16.831301603664,-0.00010534958717069,-0.00010534958717069,-0.00010534958717069,4128308.9252563,0.01459255805698
21219200,0.98795980495976,0.015203335818432,0.0042560737775829,0.0066911882621695,0.0042560737786793,-0.00089949172464621,0.00089949070718553,1.3163974241572e-09,-2.3537500601453e-09,6.63619522042e-09,-7.9236548031966e-09,-0.0010713493885606,0.0010713543959787,-0.0010713506251742,0.0010713532337446,-0.0010713540382125,0.0010713496192991,-0.0010713552950562,0.0010713483795756,-0.00089970669436415,0.00089970446372888,-0.00089971025983503,0.00089970071172805,-5.1657303680126e-09,9.3905218068283e-09,1.2416728931454e-08,-8.4441228616664e-09,-0.001681936375549,0.0016819403634541,-0.0018567162528496,0.0018567222467814,-0.0018567230093509,0.0018567152991771,-0.001856711516614,0.0018567270827192,-0.0018567183261621,0.0018567200811491,-0.0014862366624697,0.0014862659829613,-0.0014862569087026,0.0014862451809739,-0.0014862596038669,0.0014862425094422,-0.0014862454296544,0.0014862570332549,-2.0167102036633e-10,3.4208682095367e-09,-0.00089948965098988,0.00089949278133184,-8.4786270491166e-09,1.2084861207179e-08,-0.0010713544059593,0.0010713493277022,-0.0010713475963125,0.0010713561671856,-0.0010713531710528,0.001071350554012,-0.0010713464083473,0.0010713573427243,-0.00089969877645357,0.00089971233102493,-0.00089970224271621,0.00089970883362521,0.65967103352385,128566,2924,0.0037438044421922,0.0069805516759356,0.0037438044432139,15.918323530138,-0.00011265341175889,-0.00011265341175889,-0.00011265341175889,4113957.4357349,0.01457454357438
21419200,0.98819250212112,0.015206644803685,0.0042569910295688,0.0066926627434507,0.0042569910306653,-0.00089845950130684,0.00089845847626032,1.3314027405418e-09,-2.3758762171368e-09,6.6652242936477e-09,-7.9640142400964e-09,-0.0010703131725349,0.0010703182100867,-0.0010703144230454,0.0010703170339813,-0.0010703178461047,0.0010703134086162,-0.0010703191144243,0.0010703121585704,-0.000898663241752,0.00089866101533276,-0.0008986668428608,0.00089865723366541,-5.1958335703216e-09,9.4232240746788e-09,1.2245445151586e-08,-8.2701340018478e-09,-0.0016809307315081,0.0016809347217785,-0.0018557167603899,0.0018557226241192,-0.001855723407012,0.0018557157898268,-0.0018557120055709,0.0018557274797324,-0.001855718702176,0.0018557205945928,-0.0014852378478992,0.00148526684884,-0.0014852577425445,0.0014852463816963,-0.0014852606064915,0.0014852435625347,-0.0014852463723777,0.0014852581613821,-2.3553576972774e-10,3.4289189845212e-09,-0.00089845743640308,0.00089846054150903,-8.3579449944881e-09,1.1941526454257e-08,-0.0010703181797656,0.0010703131511532,-0.0010703114594373,0.0010703199011957,-0.0010703169322019,0.0010703143896019,-0.0010703102556434,0.0010703210920874,-0.00089865535902761,0.00089866884418471,-0.00089865887264314,0.0008986653022452,0.66373455397082,128566,2924,0.0037395189184934,0.0069763913789275,0.0037395189192308,15.229957881993,-0.00011816033694405,-0.00011816033694405,-0.00011816033694405,4102870.545621,0.014561625783951
21619200,0.98841124463183,0.015209784960193,0.0042578632992263,0.0066940583606444,0.0042578633003227,-0.00089746250247923,0.00089746147129917,1.3481204221553e-09,-2.3988121040445e-09,6.6961990678528e-09,-8.0005098839148e-09,-0.0010693218293562,0.0010693268962128,-0.0010693230920291,0.001069325705669,-0.0010693265248702,0.0010693220718939,-0.0010693278059259,0.0010693208084354,-0.00089765898637707,0.00089765676875705,-0.00089766262308736,0.00089765294681857,-5.2291397783104e-09,9.459602525048e-09,1.2057783327231e-08,-8.0800394205774e-09,-0.0016799612025639,0.0016799651954633,-0.0018547476306944,0.0018547533500716,-0.001854754155609,0.0018547466423902,-0.0018547428531704,0.0018547582288594,-0.0018547494279881,0.0018547514704345,-0.0014842777336368,0.001484306387944,-0.0014842972687965,0.0014842863056234,-0.0014843002914867,0.0014842833061718,-0.0014842859868875,0.0014842979708322,-2.7443009116527e-10,3.4291108318157e-09,-0.00089746045461715,0.00089746351964831,-8.1833465638209e-09,1.171836950285e-08,-0.0010693268106688,0.0010693218626917,-0.0010693202219102,0.0010693284810231,-0.0010693255499715,0.0010693231140259,-0.00106931900502,0.0010693296850176,-0.00089765117365865,0.00089766452907486,-0.00089765472507583,0.00089766094814031,0.66920856792624,128566,2924,0.0037353798476585,0.0069723801909889,0.0037353798486812,14.565645302371,-0.00012347483758103,-0.00012347483758103,-0.00012347483758103,4091718.6980432,0.014549156903242
21819200,0.98861699659218,0.015212694015476,0.0042586699591657,0.0066953540960484,0.0042586699602621,-0.00089645369825144,0.0008964526616603,1.3658209283876e-09,-2.4218807264833e-09,6.723001152562e-09,-8.0331695300086e-09,-0.0010683283312469,0.0010683334249597,-0.0010683296060955,0.0010683322219964,-0.001068333045152,0.0010683285821983,-0.0010683343401526,0.0010683273030112,-0.00089664609100353,0.00089664389121663,-0.00089664976863267,0.00089664002329563,-5.2582563279374e-09,9.490839181966e-09,1.1871245127257e-08,-7.8917989521356e-09,-0.0016789794491165,0.0016789834437979,-0.0018537588657628,0.0018537644426163,-0.0018537652690199,0.0018537578614164,-0.0018537540678466,0.0018537693433389,-0.0018537605235801,0.0018537627085959,-0.001483309108315,0.0014833374198744,-0.0014833282860776,0.001483317709102,-0.0014833314623066,0.0014833145468003,-0.0014833171022987,0.0014833292681543,-3.120674397543e-10,3.4296418086251e-09,-0.00089645166664334,0.00089645469377414,-8.0118574594601e-09,1.1502956544006e-08,-0.0010683332867602,0.0010683284169895,-0.0010683268249173,0.0010683349077333,-0.0010683320122241,0.0010683296824746,-0.001068325596866,0.0010683361233538,-0.00089663835241938,0.00089665157764988,-0.00089664193661029,0.00089664796229345,0.65988856306421,128566,2924,0.0037311919793815,0.0069683180889604,0.0037311919804373,13.901962718326,-0.00012878429825339,-0.00012878429825339,-0.00012878429825339,4079925.0207771,0.014536537808691
22019200,0.98882243044714,0.015215550794038,0.0042594607615578,0.0066966292698258,0.0042594607626543,-0.00089706948769057,0.00089706843745251,1.3756726608504e-09,-2.4444966677675e-09,6.7760423054633e-09,-8.1070831567333e-09,-0.0010690063544432,0.0010690114939844,-0.0010690076444765,0.0010690102746356,-0.0010690111140742,0.0010690066033662,-0.001069012417163,0.0010690053205115,-0.00089730132497347,0.00089729909334093,-0.00089730503096498,0.00089729521506775,-5.310953917474e-09,9.5490334018784e-09,1.1457370133442e-08,-7.4720026932114e-09,-0.0016797924365357,0.0016797964368758,-0.0018545832799852,0.0018545885579397,-0.0018545894191581,0.0018545822498143,-0.0018545784512567,0.0018545934904064,-0.0018545846329707,0.0018545871395387,-0.0014840949101652,0.0014841224335445,-0.0014841132447882,0.0014841035395557,-0.0014841168017382,0.0014841000421936,-0.0014841023276135,0.001484114901394,-3.6376321923004e-10,3.4251257356978e-09,-0.00089706747639371,0.0008970704486892,-7.7250622144756e-09,1.1165649287978e-08,-0.0010690112611113,0.0010690065327256,-0.0010690050118788,0.0010690128118917,-0.0010690099754007,0.0010690078080337,-0.0010690037621913,0.0010690140477462,-0.00089729366939815,0.00089730668711497,-0.00089729731930084,0.00089730301516418,0.64982380207505,128566,2924,0.0037337511073017,0.006971678151362,0.0037337511072233,14.153535143725,-0.0001267717188502,-0.0001267717188502,-0.0001267717188502,4084687.1544908,0.014545140094581
22219200,0.98902873276784,0.015218395697725,0.0042602471677442,0.0066979013611413,0.0042602471688398,-0.0008978591507036,0.00089785809738007,1.3976052196107e-09,-2.4699237708677e-09,6.8017522756755e-09,-8.1320034085544e-09,-0.0010698548783171,0.0010698600408789,-0.0010698561768021,0.0010698588093495,-0.0010698596491245,0.001069855138678,-0.0010698609716472,0.0010698538328453,-0.00089812340028645,0.00089812120757395,-0.00089812715899674,0.0008981172593973,-5.3425173315863e-09,9.5840215737785e-09,1.1268088548218e-08,-7.2804747107892e-09,-0.0016807870075408,0.001680791010377,-0.0018556080521494,0.0018556131800036,-0.0018556140639428,0.0018556070053137,-0.0018556031962004,0.0018556181405395,-0.0018556092616635,0.0018556119114216,-0.0014850504854287,0.0014850776739891,-0.0014850684873433,0.0014850591664965,-0.0014850721706271,0.0014850554902538,-0.0014850576403923,0.0014850703896592,-4.0706569305669e-10,3.4134122051186e-09,-0.00089785716710043,0.00089786008136192,-7.4709499582835e-09,1.083567291977e-08,-0.0010698597348085,0.0010698551293583,-0.0010698536725352,0.0010698612211682,-0.0010698584331356,0.0010698564210712,-0.0010698524183216,0.0010698624622715,-0.00089811588085383,0.00089812867008669,-0.00089811954191562,0.00089812498129209,0.64497436656024,128566,2924,0.0037370318422405,0.0069757897953154,0.0037370318430417,14.5000313841,-0.0001239997489272,-0.0001239997489272,-0.0001239997489272,4092503.7484322,0.014555969012658
22419200,0.98923584073629,0.015221381593836,0.0042610780536985,0.0066992254853433,0.0042610780547941,-0.00089866056190343,0.00089865950916589,1.416856345752e-09,-2.4886920050099e-09,6.801908917245e-09,-8.1308254721278e-09,-0.0010707065775547,0.0010707117543561,-0.0010707078897973,0.001070710508246,-0.0010707113493775,0.0010707068508871,-0.0010707126828706,0.001070705533644,-0.0008989550920406,0.0008989529321424,-0.00089895888219227,0.00089894895071773,-5.34162719325e-09,9.5830508933145e-09,1.1171711961045e-08,-7.1842895723557e-09,-0.0016817875244626,0.0016817915271621,-0.0018566459365099,0.0018566510025985,-0.0018566518875435,0.0018566448917466,-0.0018566410828351,0.0018566559608158,-0.0018566470842794,0.0018566497987008,-0.0014860073266709,0.0014860343197836,-0.0014860251402084,0.0014860160133345,-0.0014860288850318,0.001486012266082,-0.0014860143514292,0.0014860271660942,-4.3509321534248e-10,3.4265922490416e-09,-0.00089865858643269,0.000898661485081,-7.3956238095633e-09,1.0740687735885e-08,-0.0010707114261425,0.001070706850548,-0.0010707054218121,0.0010707128843135,-0.0010707101122517,0.0010707081545617,-0.0010707041524748,0.0010707141406615,-0.00089894760198338,0.00089896036633897,-0.00089895130759908,0.00089895663216046,0.67139355332743,128566,2924,0.0037403611778445,0.00697992636309,0.0037403611787764,14.84902285414,-0.00012120781716688,-0.00012120781716688,-0.00012120781716688,4100679.0971593,0.014566921780413
22619200,0.98944351147666,0.015224411080927,0.0042619221047359,0.0067005668703597,0.0042619221058316,-0.00089941896030431,0.00089941791195061,1.4387778946851e-09,-2.5063083238926e-09,6.7834099555686e-09,-8.1071440239327e-09,-0.0010715858908606,0.0010715910711882,-0.0010715872163805,0.0010715898118287,-0.0010715906489063,0.0010715861816119,-0.0010715919954769,0.0010715848512741,-0.00089977760495828,0.00089977550158187,-0.00089978143344818,0.00089977148151223,-5.321479579334e-09,9.5608908269952e-09,1.1204696029757e-08,-7.2190994858779e-09,-0.0016828327813751,0.0016828367822577,-0.0018576942743657,0.0018576993750098,-0.0018577002475192,0.0018576932414287,-0.0018576894343656,0.001857704318996,-0.001857695457872,0.0018576981342063,-0.0014870164667115,0.001487043510396,-0.0014870343468729,0.0014870251378142,-0.0014870380416704,0.0014870214398533,-0.0014870235484137,0.0014870362971676,-4.5065555714053e-10,3.4507386179432e-09,-0.00089941698276411,0.0008994198899457,-7.4256518561389e-09,1.0779538895645e-08,-0.0010715907549606,0.0010715861519463,-0.0010715847278995,0.0010715922084613,-0.0010715894279952,0.0010715874691737,-0.0010715834452924,0.0010715934781494,-0.00089977010807281,0.00089978294301354,-0.00089977385252198,0.00089977916963636,0.67880269077389,128566,2924,0.0037435143571497,0.0069842448547401,0.0037435143581021,15.187193437448,-0.00011850245250042,-0.00011850245250042,-0.00011850245250042,4104179.310174,0.014577703549413
22819200,0.98964872626537,0.015227395078131,0.0042627527675726,0.0067018895418906,0.0042627527686683,-0.0008997698965683,0.00089976885652683,1.4618339942102e-09,-2.5214272589978e-09,6.7480234474992e-09,-8.0607708959823e-09,-0.0010720598211645,0.0010720649959098,-0.0010720611608238,0.0010720637232167,-0.0010720645535661,0.0010720601326047,-0.0010720659118794,0.0010720587905849,-0.00090019062548586,0.00090018859037918,-0.00090019448735178,0.00090018453495921,-5.2804823245955e-09,9.5160232704917e-09,1.1370599353995e-08,-7.3886864541712e-09,-0.0016834490082096,0.0016834530055526,-0.001858303427749,0.0018583086645068,-0.0018583095104226,0.0018583024178613,-0.0018582986162378,0.0018583135785947,-0.0018583047474419,0.0018583072827591,-0.0014876069313439,0.0014876342695882,-0.0014876251415631,0.0014876155736254,-0.0014876286673182,0.0014876120328987,-0.0014876142514548,0.0014876268028503,-4.5193290700991e-10,3.4904206914321e-09,-0.00089976790412097,0.00089977084956474,-7.6024505660596e-09,1.0996037893394e-08,-0.0010720647355665,0.0010720600272834,-0.0010720585791104,0.0010720662132566,-0.001072063396136,0.0010720613573716,-0.0010720572820782,0.0010720674976459,-0.00090018305841576,0.0009001961053955,-0.00090018684435539,0.00090019228873311,0.67691804229302,128566,2924,0.0037449759698702,0.0069867882799614,0.0037449759710936,15.303586920432,-0.00011757130463654,-0.00011757130463654,-0.00011757130463654,4102929.6099214,0.014583251993251
23019200,0.9898514147658,0.015230128685806,0.0042635048204434,0.0067031190438229,0.0042635048215395,-0.00090009599616172,0.00090009496317574,1.48602569731e-09,-2.5385032786264e-09,6.7123976183695e-09,-8.0184611058703e-09,-0.0010725021159404,0.0010725072845552,-0.0010725034690345,0.0010725060002019,-0.0010725068217881,0.0010725024486093,-0.0010725081952446,0.0010725010918402,-0.00090057301480006,0.00090057105735307,-0.00090057692239846,0.00090056695936595,-5.2453090734083e-09,9.4771058588625e-09,1.1592331866219e-08,-7.6135181472467e-09,-0.0016840322483748,0.001684036242424,-0.0018588845650065,0.0018588899689032,-0.0018588907909106,0.0018588835731881,-0.0018588797762915,0.0018588948595557,-0.0018588860530602,0.0018588884120967,-0.0014881622310352,0.0014881899846221,-0.0014881808703597,0.0014881708321046,-0.0014881842091677,0.0014881675001075,-0.0014881698712679,0.001488182196488,-4.5292609914651e-10,3.5274843798604e-09,-0.0009000939884882,0.00090009697133457,-7.7708263157372e-09,1.1209949679206e-08,-0.00107250708012,0.0010725022665493,-0.0010725007958044,0.001072508580427,-0.0010725057268827,0.0010725036105498,-0.0010724994871525,0.0010725098763436,-0.00090056538825818,0.0009005786299056,-0.00090056920882444,0.00090057477942673,0.63260004303791,128566,2924,0.0037463341984447,0.0069891955015222,0.0037463341994598,15.41480037343,-0.00011668159701256,-0.00011668159701256,-0.00011668159701256,4102037.7640714,0.014588452268055
23219200,0.99005157500294,0.015232955078473,0.0042642884540354,0.0067043781693056,0.0042642884551317,-0.00090046199962433,0.00090046097259905,1.5087539683979e-09,-2.5553599005293e-09,6.6847457688737e-09,-7.9840978992309e-09,-0.0010728662186669,0.0010728713857485,-0.0010728675857061,0.0010728700888886,-0.0010728709044436,0.0010728665706065,-0.0010728722911767,0.0010728652008156,-0.00090094097031037,0.00090093907781579,-0.00090094491746365,0.00090093494212873,-5.2157014998406e-09,9.4444069194398e-09,1.1785797012403e-08,-7.8097382211523e-09,-0.0016845153341892,0.0016845193254506,-0.0018594236657739,0.0018594292150555,-0.0018594300168437,0.0018594226891972,-0.0018594188972366,0.0018594340847433,-0.0018594252990211,0.0018594275073012,-0.0014886016508698,0.0014886297633815,-0.0014886206664722,0.0014886102225611,-0.001488623840832,0.0014886070616942,-0.0014886095634904,0.0014886216958886,-4.5474427605834e-10,3.5653456113094e-09,-0.00090045997647705,0.00090046299618207,-7.9439944973917e-09,1.142523302607e-08,-0.001072871235706,0.0010728663155323,-0.0010728648226614,0.001072872758172,-0.0010728698693965,0.0010728676728262,-0.0010728635008021,0.0010728740673867,-0.00090093327493626,0.0009009467196001,-0.00090093713453808,0.00090094283004604,0.65900011293763,128566,2924,0.0037478541885628,0.0069911935908363,0.0037478541894752,15.525825122802,-0.00011579339901758,-0.00011579339901758,-0.00011579339901758,4108010.3333821,0.014593562822983
23419200,0.99025005988698,0.015235726616311,0.0042650553785167,0.0067056158581808,0.004265055379613,-0.0009009274507701,0.00090092642608231,1.5305214174779e-09,-2.5746224553521e-09,6.6725181045455e-09,-7.970074617309e-09,-0.0010734033099641,0.0010734084833736,-0.0010734046907301,0.0010734071748851,-0.0010734079868565,0.0010734036788058,-0.0010734093877397,0.0010734022938993,-0.00090143980594739,0.00090143796674497,-0.00090144379500738,0.00090143378916447,-5.2050219301529e-09,9.4326042680615e-09,1.1923880235114e-08,-7.9486919285648e-09,-0.0016851914724377,0.0016851954626613,-0.0018601222388984,0.001860127884647,-0.0018601286783813,0.0018601212664763,-0.0018601174768466,0.0018601327482401,-0.0018601239689444,0.0018601260762719,-0.001489239434051,0.0014892678122766,-0.001489258715062,0.0014892479877895,-0.0014892617884135,0.0014892449410254,-0.0014892475376537,0.0014892595527209,-4.6370412196987e-10,3.5946784003277e-09,-0.00090092541812443,0.00090092845908123,-8.0451095589254e-09,1.1552698508129e-08,-0.0010734083651264,0.0010734033756669,-0.0010734018757273,0.0010734098946594,-0.0010734069851236,0.0010734047468182,-0.0010734005422367,0.001073411215916,-0.00090143207103438,0.00090144564710609,-0.00090143596636089,0.00090144172127735,0.65256369713829,128566,2924,0.0037497893565565,0.0069939873609066,0.0037497893573017,15.70452522653,-0.00011436379818776,-0.00011436379818776,-0.00011436379818776,4110624.1156206,0.014600325165751
23619200,0.9904510680403,0.015238601092282,0.0042658537344994,0.0067068936221873,0.0042658537355958,-0.00090199393183971,0.00090199290224569,1.5467444056911e-09,-2.5952789554948e-09,6.6870207563818e-09,-7.9933075995573e-09,-0.0010745544840603,0.0010745596800908,-0.0010745558791107,0.0010745583575963,-0.0010745591744906,0.0010745548606105,-0.0010745605871176,0.0010745534665226,-0.00090255638723787,0.00090255456487993,-0.0009025604133205,0.00090255036068963,-5.2198421321118e-09,9.4484953183067e-09,1.1887707519931e-08,-7.9110623515344e-09,-0.0016865315818709,0.0016865355732055,-0.00186149498334,0.0018615005973971,-0.0018615013999444,0.0018614940016185,-0.0018614902131849,0.0018615054690503,-0.0018614966786297,0.0018614988238064,-0.0014905242153245,0.0014905525279192,-0.0014905434044451,0.0014905327664301,-0.0014905465421443,0.0014905296850457,-0.0014905322626272,0.0014905443412828,-4.8415287439769e-10,3.6166207547626e-09,-0.00090199189523468,0.00090199493901282,-8.0461534175068e-09,1.1563915089903e-08,-0.0010745595577977,0.0010745545531075,-0.0010745530663468,0.0010745610740407,-0.0010745581651754,0.0010745559360447,-0.0010745517162446,0.0010745624110271,-0.00090254863435622,0.00090256225987629,-0.00090255257894113,0.00090255828893989,0.66669035335765,128566,2924,0.0037542205547969,0.0069995269526351,0.0037542205551676,16.219279739081,-0.00011024576208735,-0.00011024576208735,-0.00011024576208735,4119573.2358231,0.014614938748815
23819200,0.99065456620918,0.015241675333426,0.0042667139936387,0.0067082473450522,0.0042667139947354,-0.00090306774894625,0.00090306671644556,1.5647109909989e-09,-2.616516480669e-09,6.7058499124452e-09,-8.0125763951147e-09,-0.001075756428528,0.0010757616471115,-0.0010757578361055,0.0010757603105697,-0.0010757611317285,0.0010757568144655,-0.0010757625564552,0.0010757554068693,-0.00090370368384297,0.0009037018815189,-0.00090370774363347,0.00090369763611283,-5.2383969968028e-09,9.4686797636857e-09,1.184795848653e-08,-7.870432869796e-09,-0.0016879391437873,0.0016879431362142,-0.0018629172295632,0.0018629228058103,-0.0018629236211585,0.0018629162368143,-0.0018629124470304,0.0018629276904365,-0.0018629188871469,0.001862921071907,-0.0014918793871905,0.0014919076339885,-0.0014918985118271,0.0014918879685995,-0.0014919016861165,0.0014918848187556,-0.0014918873623605,0.0014918995069847,-5.0848534370267e-10,3.6320452857284e-09,-0.00090306571608112,0.00090306874965393,-8.0143242159259e-09,1.1514024543819e-08,-0.0010757615109593,0.001075756511589,-0.00107575504642,0.0010757630053975,-0.0010757601055051,0.0010757579077961,-0.0010757536831888,0.0010757643558412,-0.00090369594021693,0.00090370957120176,-0.00090369992206488,0.00090370556048946,0.70079155812718,128566,2924,0.0037586837691449,0.0070053435372514,0.0037586837698686,16.741899112541,-0.00010606480709967,-0.00010606480709967,-0.00010606480709967,4126188.4454354,0.014629899571675
24019200,0.99086041333388,0.015244822259259,0.0042675953773231,0.0067096315035162,0.0042675953784196,-0.0009041081519732,0.00090410711639077,1.5837744913775e-09,-2.6387250922012e-09,6.7211306947565e-09,-8.0306643218645e-09,-0.0010770140920735,0.0010770193311736,-0.0010770155119908,0.0010770179817448,-0.0010770188051855,0.0010770144886633,-0.0010770202447508,0.0010770130660797,-0.00090486431990555,0.00090486254718041,-0.00090486842244908,0.00090485825646094,-5.2555634836137e-09,9.4873149949804e-09,1.1809029005152e-08,-7.8303072287832e-09,-0.0016894308420443,0.0016894348359251,-0.0018643804948107,0.0018643860340244,-0.0018643868600582,0.0018643794927857,-0.0018643756994257,0.0018643909317054,-0.0018643821156318,0.0018643843386572,-0.0014933296776682,0.0014933578634744,-0.0014933487332988,0.0014933382763534,-0.0014933519490472,0.0014933350765134,-0.0014933375923649,0.0014933497953386,-5.327855573129e-10,3.6455578429603e-09,-0.00090410612332318,0.00090410914547788,-7.96501106285e-09,1.1450398381024e-08,-0.0010770191782724,0.0010770141918384,-0.0010770127499758,0.0010770206496734,-0.0010770177590302,0.0010770156017647,-0.0010770113753266,0.001077022011544,-0.00090485659853845,0.0009048702149593,-0.00090486061328572,0.0009048661706955,0.708662015336,128566,2924,0.0037630114599638,0.007011503867879,0.00376301146088,17.264805157793,-0.00010188155873766,-0.00010188155873766,-0.00010188155873766,4127551.3251769,0.014644936454505
24219200,0.99106722240913,0.015247842942289,0.0042684353719812,0.0067109721972299,0.0042684353730777,-0.00090495474579375,0.0009049537103725,1.6030596504314e-09,-2.6580669897606e-09,6.7302306085802e-09,-8.0352582387e-09,-0.0010780916990359,0.0010780969547265,-0.0010780931309016,0.0010780955904491,-0.0010780964166268,0.0010780921064876,-0.0010780978676698,0.0010780906711605,-0.00090583615103573,0.00090583440660511,-0.0009058402853235,0.00090583007888874,-5.2628222405696e-09,9.4950272936103e-09,1.1794875171895e-08,-7.8163771822189e-09,-0.0016907441037191,0.0016907480975864,-0.0018656579921762,0.0018656635172895,-0.0018656643487238,0.0018656569857234,-0.0018656531917469,0.0018656684187975,-0.0018656595980304,0.0018656618367033,-0.0014946064984422,0.001494634657071,-0.0014946255407385,0.0014946151214504,-0.0014946287613118,0.0014946118818129,-0.0014946143804065,0.0014946266054105,-5.5713406291659e-10,3.6613484104241e-09,-0.00090495272217467,0.00090495573438686,-7.9408964815339e-09,1.1406705100293e-08,-0.0010780967926457,0.0010780918082037,-0.0010780903867509,0.0010780982427694,-0.0010780953601994,0.0010780932309,-0.0010780889982394,0.0010780996186795,-0.00090582843776156,0.0009058420679327,-0.0009058324922656,0.00090583798159258,0.68010064270551,128566,2924,0.0037665350907509,0.0070169250548705,0.0037665350915606,17.692612450559,-9.845910039553e-05,-9.845910039553e-05,-9.845910039553e-05,4126623.4894136,0.014657591961205
24419200,0.99127182520849,0.015250828301417,0.0042692653939332,0.0067122975124536,0.0042692653950298,-0.00090540153097741,0.00090540049662928,1.6231456483565e-09,-2.67721337453e-09,6.7211031784721e-09,-8.0264812025089e-09,-0.0010786721835158,0.0010786774484107,-0.0010786736296327,0.0010786760716085,-0.001078676895993,0.0010786726063264,-0.0010786783602068,0.0010786711582364,-0.00090635666833617,0.0009063549698969,-0.00090636084150881,0.00090635060315903,-5.2527888172602e-09,9.4840193196611e-09,1.1811735825696e-08,-7.8339584742402e-09,-0.0016915167523501,0.001691520745511,-0.001866433838319,0.0018664393810273,-0.0018664402061839,0.0018664328382672,-0.0018664290452744,0.0018664442755089,-0.0018664354626007,0.0018664376826218,-0.0014953405812611,0.0014953687662396,-0.001495359652419,0.0014953491903178,-0.0014953628518827,0.0014953459803455,-0.0014953484936415,0.001495360687804,-5.7176085632993e-10,3.6866710043666e-09,-0.00090539950265716,0.00090540252559907,-7.9839421587828e-09,1.1464363118367e-08,-0.0010786773001337,0.0010786722791634,-0.0010786708615081,0.0010786787470556,-0.0010786758549968,0.0010786737150029,-0.0010786694595786,0.0010786801365085,-0.00090634893768533,0.00090636265037476,-0.00090635303129612,0.00090635852451153,0.67934590559388,128566,2924,0.0037683955611395,0.0070201140743001,0.0037683955624823,17.884942802721,-9.6920457578232e-05,-9.6920457578232e-05,-9.6920457578232e-05,4126606.7121365,0.014664605094149
24619200,0.99147411362285,0.015253924840092,0.0042701323353787,0.0067136601682384,0.0042701323364752,-0.0009058507731764,0.00090584974030574,1.6440254413186e-09,-2.6963864778257e-09,6.711739160439e-09,-8.0168290865803e-09,-0.0010792372059564,0.0010792424793545,-0.0010792386654934,0.0010792410899306,-0.0010792419118415,0.0010792376439034,-0.0010792433900245,0.0010792361824012,-0.00090687356303621,0.00090687191389243,-0.00090687777871329,0.00090686750858467,-5.2441230382291e-09,9.4739920362818e-09,1.1835462065111e-08,-7.8586604156717e-09,-0.0016922705299104,0.0016922745219927,-0.0018671928207682,0.0018671983848876,-0.0018671992046446,0.0018671918251746,-0.0018671880336542,0.0018672032737046,-0.0018671944675606,0.0018671966630445,-0.0014960567774545,0.0014960850048124,-0.0014960758895757,0.0014960653710223,-0.0014960790689806,0.0014960621994744,-0.0014960647320383,0.0014960768915955,-5.8941588063179e-10,3.7081853313815e-09,-0.00090584874313026,0.00090585177081266,-8.0021255949677e-09,1.1491367479671e-08,-0.0010792423388864,0.0010792372935405,-0.0010792358851594,0.0010792437765754,-0.0010792408804631,0.0010792387427658,-0.0010792344703699,0.0010792451787421,-0.00090686582838913,0.00090687959581654,-0.00090686996065577,0.0009068754329487,0.7094445921262,128566,2924,0.0037702656538987,0.0070232258690443,0.0037702656548593,18.071747624461,-9.5426019004309e-05,-9.5426019004309e-05,-9.5426019004309e-05,4126863.204631,0.014671559172916
24819200,0.9916740515306,0.015256754732789,0.0042709151046694,0.0067149245223536,0.0042709151057661,-0.00090626154969908,0.00090626051797527,1.664491070819e-09,-2.7156775907239e-09,6.7041329264954e-09,-8.0084468018004e-09,-0.0010798373707069,0.0010798426531947,-0.0010798388433747,0.0010798412507531,-0.0010798420711943,0.0010798378232229,-0.0010798435629495,0.0010798363484703,-0.00090738079772572,0.00090737919480205,-0.00090738505340638,0.00090737475044168,-5.2370093256658e-09,9.4662143583551e-09,1.1852925299915e-08,-7.8766374383683e-09,-0.0016930726690512,0.0016930766605489,-0.0018679642510864,0.0018679698311245,-0.0018679706462067,0.0018679632594865,-0.0018679594686606,0.0018679747151604,-0.0018679659141446,0.0018679680922775,-0.0014968311596804,0.0014968594172217,-0.0014968503048821,0.0014968397451551,-0.0014968534643031,0.0014968365975483,-0.0014968391433782,0.0014968512755637,-6.0854791625682e-10,3.7283874155402e-09,-0.00090625951954179,0.00090626254854587,-8.0083434260173e-09,1.1500139496543e-08,-0.001079842516796,0.0010798374541067,-0.001079836057971,0.001079843942432,-0.0010798410451144,0.0010798389165896,-0.0010798346301746,0.0010798453574992,-0.00090737306433486,0.00090738687516624,-0.00090737723486258,0.00090738267447536,0.66112228273609,128566,2924,0.0037719783596451,0.0070265345523003,0.003771978360509,18.258350965025,-9.3933192279804e-05,-9.3933192279804e-05,-9.3933192279804e-05,4122913.4728803,0.014678395512675
25019200,0.9918738869031,0.015259548728325,0.0042716868100821,0.0067161751070644,0.0042716868111788,-0.00090703309701233,0.00090703206360783,1.6834406819288e-09,-2.73593719297e-09,6.7075976303e-09,-8.0160705766346e-09,-0.0010806912451231,0.0010806965433435,-0.0010806927313399,0.0010806951280119,-0.0010806959493355,0.0010806917096364,-0.0010806974542758,0.0010806902222524,-0.00090820091873761,0.00090819934997787,-0.00090820521461226,0.00090819486989235,-5.2416992093931e-09,9.471233361381e-09,1.1800268732243e-08,-7.823344060915e-09,-0.0016941326933114,0.0016941366851583,-0.0018690588849658,0.001869064427466,-0.0018690652458423,0.0018690578905297,-0.0018690540996736,0.0018690693147395,-0.00186906051057,0.0018690627269838,-0.0014978371664144,0.0014978653232926,-0.0014978561974822,0.0014978457457218,-0.0014978594087883,0.0014978425671436,-0.0014978450825721,0.0014978572616918,-6.3251902437872e-10,3.7444354714453e-09,-0.00090703106951895,0.00090703409136912,-7.9668500833751e-09,1.145547669918e-08,-0.001080696395097,0.0010806913399833,-0.0010806899652357,0.0010806977992589,-0.0010806949100658,0.0010806928154492,-0.0010806885237243,0.0010806992278557,-0.00090819319985311,0.00090820701298374,-0.00090819741182298,0.00090820277264507,0.65362538168693,128566,2924,0.0037751853839387,0.0070309145567781,0.0037751853845151,18.629942378334,-9.0960460973329e-05,-9.0960460973329e-05,-9.0960460973329e-05,4129530.3946308,0.014689348640978
25219200,0.99207683987481,0.01526248718322,0.0042725027964704,0.0067174815891822,0.004272502797567,-0.00090830109823619,0.00090830006157874,1.7034504480927e-09,-2.7594348619941e-09,6.7197737154025e-09,-8.0322309602695e-09,-0.0010820413868099,0.0010820467048367,-0.0010820428853377,0.0010820452760013,-0.0010820460990137,0.0010820418632401,-0.0010820476204308,0.0010820403603783,-0.00090952184912541,0.00090952031466432,-0.00090952619232538,0.00090951578702378,-5.2617198771284e-09,9.4922255281435e-09,1.1731860955936e-08,-7.7541997059335e-09,-0.0016957231503184,0.001695727144079,-0.0018706968122521,0.0018707022980262,-0.001870703127051,0.0018706958095838,-0.0018706920120663,0.0018707072002293,-0.00187069838022,0.0018707006584582,-0.0014993579653304,0.0014993860090617,-0.0014993768769718,0.0014993665626532,-0.0014993801501094,0.0014993633159299,-0.0014993657856761,0.0014993780421834,-6.6365496118252e-10,3.7489403937201e-09,-0.00090829908269404,0.00090830207729827,-7.8369598232863e-09,1.1294549044441e-08,-0.001082046518235,0.0010820415194982,-0.0010820401830169,0.0010820478854619,-0.0010820450198844,0.0010820430082466,-0.0010820387310835,0.0010820493242926,-0.00090951419314216,0.00090952791254173,-0.00090951843683596,0.00090952364384786,0.6745467425945,128566,2924,0.0037804534831796,0.0070374889027984,0.0037804534835686,19.270977043749,-8.5832183650006e-05,-8.5832183650006e-05,-8.5832183650006e-05,4141571.8517233,0.01470671139929
25419200,0.99228278957831,0.015265728894674,0.0042734132586201,0.006718902376337,0.0042734132597169,-0.0009095767608994,0.00090957572228051,1.7214836662233e-09,-2.779291558196e-09,6.7328005568973e-09,-8.0466026827526e-09,-0.0010834569419347,0.0010834622796843,-0.0010834584531968,0.0010834608373709,-0.0010834616633354,0.0010834574283259,-0.0010834631959394,0.0010834559122086,-0.00091088159912533,0.00091088008901403,-0.00091088597509326,0.00091087552315168,-5.271599768128e-09,9.5039540590802e-09,1.1631797392574e-08,-7.652635427476e-09,-0.0016973968805409,0.00169740087478,-0.0018723905840951,0.0018723959943461,-0.0018723968330868,0.0018723895743026,-0.0018723857778652,0.0018724009035018,-0.0018723920788578,0.0018723944306107,-0.0015009672299164,0.0015009950789944,-0.0015009859406589,0.001500975842813,-0.0015009892917971,0.0015009725064863,-0.0015009749068896,0.0015009872575975,-6.9039028130081e-10,3.7632458108828e-09,-0.00090957475109563,0.00090957773249767,-7.7800843533223e-09,1.1220383044705e-08,-0.0010834620741935,0.0010834570934499,-0.0010834557826321,0.0010834634145043,-0.0010834605624832,0.0010834585955326,-0.00108345431672,0.0010834648674923,-0.00091087396252286,0.00091088767032828,-0.00091087824556205,0.00091088335835073,0.72789190625563,128566,2924,0.0037857554519174,0.0070444050693276,0.0037857554527881,19.918357580145,-8.0653139358841e-05,-8.0653139358841e-05,-8.0653139358841e-05,4150123.8131332,0.014724491544393
25619200,0.99249151925471,0.01526903473016,0.0042743415174578,0.006720351694148,0.0042743415185547,-0.00091079952334391,0.0009107984835169,1.7399039481544e-09,-2.7989398295992e-09,6.74077226756e-09,-8.0550062819402e-09,-0.0010849582680555,0.0010849636232478,-0.0010849597924594,0.0010849621671362,-0.0010849629954581,0.0010849587655549,-0.0010849645400293,0.0010849572375341,-0.00091225942080102,0.00091225793872524,-0.00091226383146931,0.00091225333765584,-5.2777141780429e-09,9.5102865338039e-09,1.1562924634531e-08,-7.5836902903496e-09,-0.0016991967705499,0.0016992007650237,-0.0018741423353669,0.0018741476977885,-0.0018741485414566,0.0018741413227714,-0.0018741375256836,0.0018741526103728,-0.0018741437823702,0.0018741461839284,-0.0015027202821712,0.0015027479979601,-0.0015027388612281,0.0015027289050083,-0.0015027422637374,0.0015027255094547,-0.0015027278624894,0.0015027402730478,-7.1430728236792e-10,3.7803444391275e-09,-0.00091079751664131,0.00091080049063086,-7.7410117050825e-09,1.1171061021838e-08,-0.0010849634039324,0.0010849584332688,-0.0010849571426031,0.0010849647241605,-0.0010849618793459,0.0010849599482857,-0.0010849556623172,0.0010849661915481,-0.00091225179500905,0.00091226550979062,-0.00091225612016478,0.00091226115544086,0.73243474464035,128566,2924,0.003790842742989,0.0070518364545265,0.0037908427438517,20.565961200275,-7.5472310397799e-05,-7.5472310397799e-05,-7.5472310397799e-05,4150569.4873198,0.014742362439861
25819200,0.99269761344307,0.015272207269056,0.0042752282722358,0.0067217507234875,0.0042752282733326,-0.00091127320122841,0.00091127216717111,1.7630819882926e-09,-2.8169107543511e-09,6.7250366628786e-09,-8.0278222113067e-09,-0.0010856899776789,0.0010856953361425,-0.0010856915148347,0.0010856938664742,-0.0010856946903221,0.001085690493097,-0.0010856962488192,0.0010856889501515,-0.00091287034784377,0.00091286892433209,-0.00091287479618478,0.00091286427757177,-5.2568210333729e-09,9.4874925066164e-09,1.1617374847938e-08,-7.6406169628083e-09,-0.0017001827866258,0.0017001867788343,-0.001875074581344,0.0018750799915606,-0.0018750808235498,0.0018750735806021,-0.0018750697845661,0.0018750848900456,-0.0018750760790862,0.0018750784261239,-0.0015036765011805,0.0015037043106212,-0.0015036952130612,0.0015036851301416,-0.0015036985252044,0.001503681777787,-0.00150368415959,0.0015036964842811,-7.2172055040318e-10,3.8105006843602e-09,-0.00091127118696264,0.00091127418207453,-7.8558634302647e-09,1.1298981942825e-08,-0.0010856951511769,0.0010856901096595,-0.0010856888081328,0.0010856964818864,-0.0010856936137769,0.0010856916381993,-0.0010856873166781,0.0010856979611175,-0.00091286268428421,0.00091287654018319,-0.00091286704011524,0.0009128721501343,0.71386318728392,128566,2924,0.0037928195219549,0.0070559017331837,0.0037928195232556,20.805059639017,-7.3559522887867e-05,-7.3559522887867e-05,-7.3559522887867e-05,4144237.9106155,0.014750504198717
26019200,0.99289650776314,0.015275141955919,0.0042760434849972,0.006723054984828,0.0042760434860941,-0.00091109907175506,0.00091109804360974,1.7853003949565e-09,-2.8332617414841e-09,6.6913844991092e-09,-7.9895224270741e-09,-0.0010856826847977,0.0010856880388576,-0.0010856842358852,0.0010856865568378,-0.0010856873743664,0.0010856832197103,-0.0010856889458056,0.0010856816647911,-0.00091278076338355,0.00091277940710248,-0.00091278525049574,0.00091277472554057,-5.222277324836e-09,9.4493078346613e-09,1.1806918055758e-08,-7.8330634449945e-09,-0.0017003629389426,0.0017003669282739,-0.0018752261303935,0.0018752316903285,-0.0018752324984681,0.001875225148538,-0.0018752213575098,0.0018752365641848,-0.0018752277769861,0.0018752299700888,-0.0015038358629793,0.0015038640219563,-0.0015038549357049,0.0015038444485068,-0.0015038580885314,0.0015038412819325,-0.0015038437960359,0.0015038559210701,-7.2657699835086e-10,3.8461384161643e-09,-0.00091109704454615,0.00091110007152978,-7.9983093334637e-09,1.1482395088119e-08,-0.0010856879018032,0.0010856827690585,-0.0010856814518013,0.0010856892486604,-0.0010856863512122,0.0010856843108191,-0.0010856799462632,0.0010856907419032,-0.0009127730444833,0.00091278707718437,-0.00091277744261776,0.00091278264615131,0.68688291297196,128566,2924,0.0037921036139884,0.0070566376728879,0.0037921036154572,20.675731918841,-7.4594144649273e-05,-7.4594144649273e-05,-7.4594144649273e-05,4135378.6771712,0.014749800432952
26219200,0.99308839035804,0.015278149576638,0.0042768867897476,0.0067243759960458,0.0042768867908445,-0.00091094749692054,0.00091094647305116,1.8068706269051e-09,-2.8505105330761e-09,6.6683491543544e-09,-7.9626734978493e-09,-0.0010856058193355,0.0010856111744424,-0.0010856073842518,0.0010856096798474,-0.0010856104928329,0.0010856063716274,-0.001085612077394,0.0010856048045137,-0.00091267401806369,0.0009126727209394,-0.00091267854545469,0.00091266800426605,-5.1987179967926e-09,9.4231471372056e-09,1.1960342386926e-08,-7.9885533138857e-09,-0.0017004468045148,0.0017004507916757,-0.001875317424099,0.0018753230996662,-0.001875323891179,0.0018753164541143,-0.0018753126675443,0.0018753279565701,-0.0018753191854356,0.0018753212593128,-0.0015038927165895,0.0015039211600644,-0.0015039120811514,0.0015039012725211,-0.0015039151117975,0.0015038982487822,-0.0015039008682586,0.0015039128418615,-7.3544109393933e-10,3.8775251859984e-09,-0.0009109454597396,0.00091094851071787,-8.1107763023808e-09,1.1625391012512e-08,-0.0010856110747296,0.0010856058663655,-0.0010856045403758,0.0010856124304377,-0.0010856095110669,0.0010856074212024,-0.0010856030209377,0.0010856139373112,-0.00091266625493964,0.00091268043296736,-0.00091267069430056,0.00091267596216523,0.72524660768944,128566,2924,0.0037914782475708,0.0070569794806597,0.0037914782485815,20.537672950213,-7.5698616398296e-05,-7.5698616398296e-05,-7.5698616398296e-05,4130974.1817989,0.014748878387634
26419200,0.99327354484584,0.015281138286704,0.0042777279849184,0.0067256823157701,0.0042777279860152,-0.00091077274080429,0.00091077171895044,1.8275894563268e-09,-2.8691845281546e-09,6.6553940579197e-09,-7.9481198567471e-09,-0.0010855861729701,0.0010855915342404,-0.0010855877516707,0.0010855900271418,-0.0010855908377199,0.0010855867407916,-0.0010855924354025,0.0010855851606041,-0.00091258375876258,0.00091258251156116,-0.0009125883254764,0.00091257775716492,-5.1857190737243e-09,9.4087557917925e-09,1.205910572001e-08,-8.0884755447419e-09,-0.00170059744802,0.0017006014339033,-0.0018754275789751,0.0018754333267912,-0.0018754341091533,0.0018754266150968,-0.0018754228313071,0.0018754381745956,-0.0018754294122909,0.0018754314112007,-0.0015040330210687,0.0015040616489606,-0.0015040525740704,0.0015040415606813,-0.0015040555262443,0.0015040386233441,-0.0015040413108461,0.0015040531911455,-7.4723681577379e-10,3.905326581132e-09,-0.00091077069621084,0.0009107737639842,-8.1949925102511e-09,1.1730290936607e-08,-0.0010855914617883,0.0010855861931529,-0.0010855848647948,0.0010855928198432,-0.001085589884993,0.0010855877611835,-0.001085583332118,0.0010855943399531,-0.00091257596204626,0.00091259025703075,-0.00091258044059775,0.00091258574744668,0.74502755123917,128566,2924,0.0037907592773133,0.0070575940533025,0.0037907592782317,20.399294879521,-7.6805640963829e-05,-7.6805640963829e-05,-7.6805640963829e-05,4121379.718949,0.014748045396675
26619200,0.99345631522414,0.015284060431914,0.0042785493380865,0.0067269617546443,0.0042785493391833,-0.00091122518890074,0.00091122416136948,1.845839263633e-09,-2.8924575581073e-09,6.6694313332082e-09,-7.9735191709626e-09,-0.0010862655352067,0.0010862709180428,-0.001086267127374,0.0010862693987453,-0.0010862702115457,0.0010862661123895,-0.001086271825255,0.0010862645184796,-0.00091316630175219,0.00091316508374486,-0.00091317091899551,0.00091316029075238,-5.2054000163085e-09,9.4298599392518e-09,1.1987150877004e-08,-8.0144287618203e-09,-0.0017015130281258,0.0017015170156629,-0.0018762825646531,0.0018762882515453,-0.0018762890457678,0.0018762815888796,-0.0018762778030615,0.0018762931140658,-0.0018762843369137,0.0018762863980468,-0.0015049310833682,0.0015049595877931,-0.0015049504747158,0.001504939615934,-0.0015049535214072,0.00150493663116,-0.0015049392787053,0.0015049512503217,-7.7029777470747e-10,3.9199584815428e-09,-0.00091122314462818,0.00091122620584795,-8.1478151848096e-09,1.1686818603276e-08,-0.0010862708306451,0.0010862655694223,-0.0010862642628414,0.0010862721670108,-0.0010862692399869,0.0010862671505245,-0.0010862627179316,0.0010862736985552,-0.00091315852063611,0.00091317280817633,-0.00091316303706962,0.00091316826587616,0.73848439681511,128566,2924,0.0037926470133199,0.0070613689889006,0.0037926470137846,20.629902280587,-7.4960781755303e-05,-7.4960781755303e-05,-7.4960781755303e-05,4115654.6176715,0.014755711291656
26819200,0.99363890627301,0.015286905047144,0.0042793459398693,0.0067282131663083,0.0042793459409666,-0.00091203348647717,0.00091203245380096,1.8622984334325e-09,-2.9141682149847e-09,6.7008761621748e-09,-8.0075874805815e-09,-0.0010873027133993,0.0010873081253509,-0.0010873043177891,0.0010873065918349,-0.0010873074117893,0.0010873032972176,-0.0010873090367918,0.0010873016903274,-0.00091410742645107,0.00091410621504582,-0.00091411207531907,0.00091410138363219,-5.2362587993586e-09,9.4637133311127e-09,1.1859727151476e-08,-7.8849383053119e-09,-0.0017028179463953,0.0017028219362286,-0.0018775406148623,0.0018775461993484,-0.0018775470145867,0.0018775396217998,-0.0018775358329831,0.0018775510830861,-0.0018775422842772,0.0018775444530334,-0.0015062055443592,0.001506233817678,-0.001506224700164,0.0015062141199715,-0.0015062278574024,0.001506210989486,-0.0015062135442908,0.001506225666434,-8.0480786335972e-10,3.9260379174811e-09,-0.00091203145451825,0.00091203448594435,-8.0264014725622e-09,1.1524600689469e-08,-0.0010873079963921,0.0010873027890891,-0.0010873015229876,0.0010873092920685,-0.0010873063927666,0.0010873043833485,-0.0010872999643696,0.0010873108376651,-0.00091409968929825,0.00091411389812712,-0.00091410424512107,0.00091410931402043,0.72121904818973,128566,2924,0.003796012273703,0.0070667540473006,0.0037960122740991,21.064613930648,-7.1483088554813e-05,-7.1483088554813e-05,-7.1483088554813e-05,4114923.6468087,0.014768009559914
27019200,0.9938212167075,0.015289663135271,0.00428011493553,0.0067294332631142,0.0042801149366272,-0.00091285891647119,0.00091285787909081,1.8793048177006e-09,-2.9359257654317e-09,6.7242875744134e-09,-8.0356681396778e-09,-0.001088313973184,0.0010883194108869,-0.0010883155903068,0.0010883178634056,-0.001088318688868,0.0010883145651733,-0.0010883203261688,0.0010883129455546,-0.00091504084885976,0.00091503965211285,-0.00091504553240178,0.00091503478186221,-5.2607156545714e-09,9.4905671710405e-09,1.174257811677e-08,-7.765847636803e-09,-0.0017040901695279,0.0017040941614858,-0.0018787927710633,0.0018787982635809,-0.001878799095246,0.001878791765302,-0.0018787879729156,0.0018788031640953,-0.0018787943480047,0.0018787966140766,-0.001507437353676,0.0015074654124235,-0.0015074562842696,0.0015074459559272,-0.0015074595464767,0.0015074427065687,-0.0015074451810801,0.0015074574338476,-8.3648855821271e-10,3.9344492181323e-09,-0.00091285689445707,0.00091285990147653,-7.9140912246514e-09,1.1382542621449e-08,-0.0010883192447214,0.0010883140858233,-0.0010883128560349,0.0010883205042717,-0.0010883176281031,0.0010883156930174,-0.0010883112837229,0.0010883220636105,-0.00091503315262643,0.00091504729508125,-0.00091503774815587,0.00091504267062452,0.70228505413603,128566,2924,0.0037994470946363,0.0070720058330353,0.0037994470954167,21.504205117243,-6.7966359062052e-05,-6.7966359062052e-05,-6.7966359062052e-05,4117191.3842407,0.014780312711057
27219200,0.99400308856806,0.015292326223671,0.0042808537503676,0.0067306187218387,0.0042808537514647,-0.00091369924231326,0.00091369820112561,1.8972493513052e-09,-2.9577241820403e-09,6.7420890866244e-09,-8.0578111804584e-09,-0.001089289614714,0.001089295075259,-0.0010892912445617,0.0010892935142112,-0.0010892943432621,0.0010892902162443,-0.00108929599374,0.0010892885830864,-0.00091596048224257,0.00091595930759877,-0.00091596520369279,0.00091595439681781,-5.279860088075e-09,9.5113895189908e-09,1.1636111892593e-08,-7.6579719315671e-09,-0.0017053132967769,0.0017053172901507,-0.0018800241498148,0.0018800295597847,-0.0018800304047992,0.0018800231338063,-0.0018800193387331,0.0018800344739242,-0.001880025644887,0.0018800279959174,-0.0015086100521744,0.0015086379149537,-0.0015086287759629,0.001508618672966,-0.0015086321316057,0.0015086153249149,-0.001508617727675,0.0015086300920086,-8.6525652923491e-10,3.944853642237e-09,-0.00091369722800613,0.00091370021591521,-7.8217569219892e-09,1.1267997956378e-08,-0.0010892948788844,0.0010892897571399,-0.0010892885585473,0.0010892961070996,-0.0010892932490725,0.001089291377465,-0.0010892869733194,0.0010892976793945,-0.00091595282110953,0.00091596691564646,-0.00091595745430506,0.00091596225282561,0.68191772209405,128566,2924,0.0038029418659102,0.0070770570028101,0.0038029418669204,21.94397499488,-6.4448200040958e-05,-6.4448200040958e-05,-6.4448200040958e-05,4122370.3807922,0.014792532886044
27419200,0.99418293372046,0.015295046172791,0.0042816120202372,0.0067318221312193,0.0042816120213344,-0.00091433304915652,0.00091433200886668,1.9173067824579e-09,-2.9768760754937e-09,6.7425308503273e-09,-8.0557842817317e-09,-0.0010899918887321,0.0010899973622923,-0.0010899935313085,0.0010899957877588,-0.0010899966167141,0.0010899925036679,-0.0010899982800011,0.0010899908573023,-0.000916636995898,0.00091663586011498,-0.00091664175421258,0.00091663091009075,-5.2788059238084e-09,9.5102801626456e-09,1.1611067134869e-08,-7.6332110514067e-09,-0.0017062280195342,0.0017062320127643,-0.0018809752244432,0.0018809806187556,-0.0018809814637864,0.0018809742096684,-0.0018809704139008,0.0018809855320189,-0.0018809767044094,0.0018809790709728,-0.0015094697885405,0.0015094976009089,-0.0015094884705916,0.0015094784159351,-0.001509491834577,0.0015094750461658,-0.0015094774298236,0.0015094898073179,-8.8698052820298e-10,3.9627197668059e-09,-0.00091433103758482,0.00091433402094919,-7.8052506096575e-09,1.1243214189779e-08,-0.0010899971609825,0.0010899920362542,-0.0010899908542689,0.0010899983725169,-0.0010899955179762,0.001089993669758,-0.0010899892559058,0.0010899999580378,-0.00091662934355627,0.00091664346036396,-0.00091663401494797,0.0009166387586981,0.70214878014449,128566,2924,0.0038055768242828,0.0070808358052661,0.0038055768253436,22.252223514647,-6.1982211882825e-05,-6.1982211882825e-05,-6.1982211882825e-05,4128298.3743126,0.014801715428781
27619200,0.99436022489897,0.015297770443765,0.0042823730348198,0.0067330243730281,0.0042823730359169,-0.00091488337041622,0.00091488233233136,1.9380564980426e-09,-2.9954941558119e-09,6.7332842019035e-09,-8.0439211417307e-09,-0.0010906528775606,0.001090658359629,-0.0010906545334403,0.0010906567717144,-0.0010906575989244,0.0010906535077505,-0.0010906592750829,0.0010906518485744,-0.00091724936937243,0.00091724828032432,-0.00091725416563484,0.0009172432927162,-5.2692569941687e-09,9.4996893857748e-09,1.1636932451054e-08,-7.6600144890507e-09,-0.001707098996124,0.0017071029885577,-0.0018818565258871,0.0018818619438314,-0.0018818627826776,0.0018818555169706,-0.0018818517221029,0.0018818668500595,-0.0018818580295055,0.0018818603716961,-0.0015102945030302,0.0015103223592224,-0.0015103132364146,0.0015103031226083,-0.0015103165714278,0.0015102997835257,-0.0015103021844767,0.0015103145243266,-9.0546727140522e-10,3.983780360444e-09,-0.00091488135861975,0.00091488434458545,-7.8147908488862e-09,1.125557390936e-08,-0.0010906581628416,0.001090653020552,-0.0010906518491318,0.0010906593640168,-0.0010906565069677,0.0010906546670147,-0.0010906502373265,0.0010906609629594,-0.00091724171547365,0.00091725588133157,-0.00091724642671316,0.00091725114040654,0.71252806738314,128566,2924,0.0038078665474231,0.0070844319557907,0.0038078665483745,22.519217745752,-5.9846258033984e-05,-5.9846258033984e-05,-5.9846258033984e-05,4130334.3606485,0.014810013310126
27819200,0.9945348929467,0.015300500994457,0.0042831375281026,0.0067342259371548,0.0042831375291997,-0.00091542264264268,0.0009154216068096,1.9589681538896e-09,-3.0140609555614e-09,6.7211760517882e-09,-8.0302592665622e-09,-0.0010913276513339,0.0010913331403756,-0.0010913293207086,0.0010913315397251,-0.0010913323641967,0.0010913282971959,-0.0010913340537125,0.0010913266248858,-0.00091786459685605,0.00091786355827965,-0.00091786943303959,0.00091785853238219,-5.2568692243713e-09,9.4859430521276e-09,1.1671267239209e-08,-7.6954238922589e-09,-0.0017079863870883,0.0017079903782441,-0.0018827414476699,0.0018827468953691,-0.0018827477264699,0.0018827404453178,-0.0018827366523245,0.0018827517929872,-0.0018827429818804,0.0018827452912915,-0.0015111385821323,0.0015111664970354,-0.001511157377838,0.0015111471860557,-0.0015111606780745,0.0015111438919486,-0.0015111463190923,0.0015111586097149,-9.2132414818521e-10,4.0073961254586e-09,-0.00091542062783687,0.00091542362205125,-7.8465557051975e-09,1.1298696604879e-08,-0.0010913329553815,0.0010913277825783,-0.0010913266168376,0.001091334150791,-0.0010913312863139,0.0010913294422387,-0.0010913249918763,0.001091335762836,-0.00091785693266753,0.00091787116894218,-0.00091786168267663,0.00091786638950527,0.72383356044182,128566,2924,0.0038101113557504,0.0070880947705805,0.0038101113566623,22.785206691407,-5.7718346468747e-05,-5.7718346468747e-05,-5.7718346468747e-05,4130778.7229364,0.014818288407017
28019200,0.99470688199718,0.015303239627278,0.004283906079519,0.006735427467143,0.0042839060806162,-0.00091595080512547,0.00091594977164309,1.9798588319787e-09,-3.0326243913663e-09,6.7099138116139e-09,-8.0164323269363e-09,-0.001092017012135,0.0010920225082435,-0.0010920186947604,0.001092020894705,-0.0010920217167206,0.0010920176735006,-0.001092023419535,0.0010920159880404,-0.00091848367684423,0.00091848268779112,-0.00091848855232539,0.00091847762342306,-5.2447788876052e-09,9.4725286496343e-09,1.1710116643798e-08,-7.7354406310691e-09,-0.0017088938670325,0.0017088978569912,-0.0018836329270751,0.0018836384077667,-0.0018836392311331,0.0018836319313283,-0.0018836281398773,0.0018836432969329,-0.0018836344948397,0.0018836367686851,-0.0015120064911684,0.0015120344741546,-0.0015120253627713,0.001512015083768,-0.001512028621584,0.0015120118335819,-0.001512014287809,0.0015120265259512,-9.3679299654347e-10,4.0313859670965e-09,-0.00091594878708918,0.0009159517900857,-7.8850136177759e-09,1.1347344333637e-08,-0.0010920223366329,0.0010920171301134,-0.0010920159691638,0.0010920235272741,-0.0010920206543881,0.0010920188030427,-0.0010920143311376,0.0010920251523985,-0.00091847599969596,0.0009184903115061,-0.00091848078815946,0.00091848549368785,0.73612509340406,128566,2924,0.003812311035832,0.0070918393596507,0.0038123110366827,23.051158667031,-5.5590730663752e-05,-5.5590730663752e-05,-5.5590730663752e-05,4129685.8324316,0.014826555586615
28219200,0.99487547396468,0.015305977433381,0.0042846762438915,0.0067366249445008,0.0042846762449887,-0.00091634915566616,0.00091634812508463,2.0010572809817e-09,-3.051142767805e-09,6.6989824822571e-09,-8.0008278915823e-09,-0.0010925968369097,0.0010926023397596,-0.0010925985326879,0.0010926007133268,-0.0010926015328248,0.0010925975141736,-0.0010926032488405,0.0010925958150459,-0.00091898403723449,0.00091898309801015,-0.0009189889507249,0.00091897799321666,-5.2321601512165e-09,9.4587552400496e-09,1.1764629927043e-08,-7.7911897503836e-09,-0.0017096893791408,0.0017096933679864,-0.0018843976690909,0.0018844031933365,-0.0018844040086277,0.0018843966803846,-0.0018843928901297,0.0018844080738824,-0.00188439928105,0.0018844015086106,-0.0015127699083482,0.001512797990112,-0.0015127888939662,0.0015127784960773,-0.0015127920932575,0.0015127752941384,-0.0015127777828058,0.0015127899557695,-9.5091828439143e-10,4.0563753269759e-09,-0.00091634713377803,0.00091635014741103,-7.9399482624131e-09,1.1411452174243e-08,-0.0010926021859172,0.0010925969375973,-0.0010925957787671,0.0010926033745198,-0.0010926004906006,0.0010925986239519,-0.0010925941281645,0.0010926050125116,-0.00091897634155136,0.00091899074200328,-0.0009189811666515,0.00091898588613964,0.74948916817318,128566,2924,0.0038139725835298,0.0070951197199152,0.0038139725844376,23.250970594902,-5.3992235240782e-05,-5.3992235240782e-05,-5.3992235240782e-05,4126026.3692269,0.014833259942384
28419200,0.99504057673767,0.015308715434182,0.0042854484071653,0.0067378186187544,0.0042854484082622,-0.00091671739506828,0.0009167163659173,2.0206926985156e-09,-3.0692508070241e-09,6.6909704259353e-09,-7.9915769461041e-09,-0.0010931698469816,0.0010931753587537,-0.0010931715559946,0.0010931737188249,-0.001093174537775,0.0010931705377873,-0.0010931762650775,0.0010931688266761,-0.00091946837715243,0.00091946747899112,-0.00091947332480922,0.00091946234133836,-5.2235458999642e-09,9.4488310434623e-09,1.1824195968753e-08,-7.8518489344048e-09,-0.0017104854428101,0.0017104894301556,-0.0018851476492685,0.0018851532179242,-0.0018851540284216,0.001885146663156,-0.0018851428773104,0.0018851580915745,-0.0018851493056977,0.0018851514858015,-0.0015135399413741,0.0015135681309411,-0.0015135590337266,0.0015135485163798,-0.0015135621910303,0.0015135453683853,-0.0015135478970431,0.001513560016709,-9.6850486810212e-10,4.0799397907085e-09,-0.00091671537063037,0.00091671839079199,-7.9729700950012e-09,1.1453733313843e-08,-0.0010931752163783,0.0010931699359127,-0.0010931687850029,0.0010931763963167,-0.0010931735080544,0.0010931716351768,-0.0010931671196072,0.0010931780489677,-0.00091946066430888,0.0009194751395657,-0.00091946553349503,0.00091947023960844,0.76402416371948,128566,2924,0.0038155100749632,0.0070984010242975,0.0038155100758731,23.441588511628,-5.2467291906976e-05,-5.2467291906976e-05,-5.2467291906976e-05,4120801.4644648,0.014839714008684
28619200,0.99520219543518,0.01531141446559,0.0042862100531037,0.0067389943582861,0.0042862100542006,-0.00091706685543105,0.00091706582741589,2.0413922072554e-09,-3.0887481410026e-09,6.6861559000158e-09,-7.9861289933294e-09,-0.001093750231966,0.0010937557548329,-0.0010937519548128,0.0010937541025361,-0.0010937549193587,0.0010937509379815,-0.0010937566612566,0.0010937492137781,-0.00091994897701303,0.00091994812521976,-0.00091995396734001,0.00091994294727152,-5.2189220235734e-09,9.4436411287165e-09,1.1855403193512e-08,-7.8834923267797e-09,-0.0017112998702168,0.0017113038574464,-0.0018859004214236,0.0018859060134847,-0.0018859068196025,0.0018858994387662,-0.0018858956520128,0.0018859108840775,-0.0018859021006381,0.0018859042579466,-0.0015143344690488,0.0015143627179662,-0.0015143536236678,0.0015143430373629,-0.0015143567536944,0.0015143399191672,-0.0015143424713838,0.0015143545570373,-9.8441303500641e-10,4.102757536505e-09,-0.00091706482786164,0.00091706785538494,-8.0100945028172e-09,1.1500207600195e-08,-0.0010937556243239,0.0010937503097048,-0.0010937491650922,0.0010937567987374,-0.0010937539027566,0.0010937520220527,-0.0010937474870988,0.001093758463731,-0.00091994125248552,0.00091995579727277,-0.00091994615831143,0.0009199508619732,0.76896079251516,128566,2924,0.0038169706481396,0.0071017567875722,0.0038169706489752,23.631970828563,-5.0944233371499e-05,-5.0944233371499e-05,-5.0944233371499e-05,4114177.9946287,0.014846088081677
28819200,0.99536036038464,0.015313983755823,0.0042869322757256,0.0067401192032752,0.0042869322768225,-0.00091740570640559,0.00091740467820217,2.061189034281e-09,-3.1087271680126e-09,6.6865024817993e-09,-7.9868705831743e-09,-0.0010943232196788,0.001094328755907,-0.0010943249557626,0.0010943270906328,-0.0010943279072875,0.0010943239388303,-0.0010943296626816,0.0010943222013189,-0.00092041978059536,0.00092041896780277,-0.00092042481066819,0.00092041375060724,-5.2195611096968e-09,9.4442711077652e-09,1.1869238275389e-08,-7.8973222732255e-09,-0.0017121119337569,0.0017121159209449,-0.001886649241921,0.0018866548426186,-0.0018866556489445,0.0018866482585848,-0.0018866444720047,0.0018866597137712,-0.0018866509297123,0.0018866530780876,-0.0015151287036056,0.0015151569807853,-0.0015151478849512,0.0015151372712007,-0.0015151510068037,0.0015151341623981,-0.001515136724161,0.0015151488015281,-1.0027475162627e-09,4.1235235339241e-09,-0.00091740367745289,0.00091740670756679,-8.0252595720641e-09,1.15187177084e-08,-0.0010943286297986,0.0010943232931301,-0.0010943221592329,0.001094329793463,-0.0010943268950221,0.0010943250186118,-0.0010943204683063,0.0010943314713043,-0.00092041205005805,0.00092042664612284,-0.00092041699370439,0.00092042167303156,0.74978434653007,128566,2924,0.0038183873856062,0.0071051023880059,0.0038183873864681,23.824567327637,-4.9403461378902e-05,-4.9403461378902e-05,-4.9403461378902e-05,4107657.8428603,0.014852362853897
29019200,0.99551621299032,0.015316373080063,0.0042875984509514,0.0067411761770636,0.0042875984520484,-0.00091797020231502,0.00091796917165811,2.0805806941567e-09,-3.1303043048205e-09,6.6952162933741e-09,-7.999961429905e-09,-0.0010950785557954,0.0010950841098626,-0.0010950803046975,0.001095082432103,-0.0010950832493931,0.0010950792864671,-0.0010950850197772,0.0010950775345837,-0.00092109332962174,0.00092109255175061,-0.00092109840497916,0.00092108729309354,-5.2309483460599e-09,9.4565473644398e-09,1.1830211280166e-08,-7.8572655168731e-09,-0.0017131112171425,0.0017131152051309,-0.0018876155828773,0.0018876211495793,-0.0018876219632961,0.0018876145925177,-0.0018876108044674,0.0018876260297275,-0.0018876172375016,0.0018876194190913,-0.0015160961222778,0.0015161243340588,-0.0015161152222717,0.0015161046919462,-0.0015161183897724,0.0015161015522605,-0.0015161040902728,0.0015161162169354,-1.0244217543392e-09,4.139855238874e-09,-0.00091796817446946,0.00091797119982506,-7.9980439031312e-09,1.1489671254564e-08,-0.0010950839748897,0.0010950786377802,-0.0010950775219821,0.0010950851203535,-0.0010950822263493,0.0010950803767581,-0.0010950758191951,0.0010950868097962,-0.00092108561093155,0.00092110021639383,-0.00092109059008554,0.00092109520937316,0.71130253511081,128566,2924,0.0038207393711366,0.0071092243111147,0.0038207393718209,24.140423914454,-4.6876608684365e-05,-4.6876608684365e-05,-4.6876608684365e-05,4106521.6338655,0.014861322606642
29219200,0.9956697055745,0.015318667594274,0.0042882359141542,0.0067421957648681,0.0042882359152512,-0.00091857443077964,0.00091857339851676,2.099045129261e-09,-3.1504440973215e-09,6.7057488751642e-09,-8.0112285609372e-09,-0.0010957745140584,0.0010957800870533,-0.0010957762760805,0.0010957783955155,-0.0010957792154609,0.0010957752557863,-0.0010957809978986,0.0010957734914864,-0.00092175311279294,0.00092175236119171,-0.00092175822258847,0.00092174706544575,-5.2408265231707e-09,9.4674144351642e-09,1.1795632491936e-08,-7.8220501600898e-09,-0.0017140241561944,0.0017140281449986,-0.0018885495612848,0.0018885551001794,-0.0018885559203515,0.0018885485656927,-0.0018885447768176,0.0018885599866212,-0.0018885511872393,0.0018885533998024,-0.0015169599513701,0.0015169881005157,-0.0015169789885172,0.0015169685355817,-0.0015169821869122,0.0015169653511313,-0.0015169678635568,0.0015169800345885,-1.0486187672198e-09,4.1558585968271e-09,-0.00091857240654001,0.00091857542311277,-7.9635808798353e-09,1.1442580782917e-08,-0.0010957799394472,0.0010957746087187,-0.0010957735141863,0.0010957810637261,-0.0010957781780888,0.0010957763605433,-0.0010957717975153,0.0010957827671619,-0.00092174540462013,0.00092176001662976,-0.0009217504241748,0.00092175496844639,0.69516967246539,128566,2924,0.0038232526511263,0.0071129939283076,0.003823252651874,24.459168399891,-4.432665280087e-05,-4.432665280087e-05,-4.432665280087e-05,4111205.2720627,0.014870249823523
29419200,0.99582076612285,0.01532076610457,0.0042888121911511,0.0067431417211708,0.0042888121922481,-0.00091919314525041,0.0009191921115437,2.1178172043183e-09,-3.1706744391663e-09,6.7137990767287e-09,-8.020750273026e-09,-0.0010964419668534,0.0010964475575005,-0.0010964437419729,0.0010964458525431,-0.0010964466742501,0.0010964427201073,-0.0010964484693653,0.0010964409430081,-0.00092239818340061,0.00092239746188263,-0.00092240333002343,0.0009223921280897,-5.2489832135776e-09,9.476319613823e-09,1.1761763397849e-08,-7.7875801496544e-09,-0.0017148883184423,0.0017148923078921,-0.0018894592638271,0.001889464775476,-0.0018894656011503,0.0018894582638267,-0.0018894544740615,0.0018894696674093,-0.0018894608622862,0.0018894631038849,-0.0015177661502509,0.0015177942376688,-0.001517785121561,0.0015177747428024,-0.0015177883526319,0.0015177715224094,-0.0015177740114929,0.0015177862232225,-1.0719693317933e-09,4.1723673917167e-09,-0.00091919112390416,0.0009191941332949,-7.9317762665914e-09,1.1402154780248e-08,-0.0010964473989781,0.001096442072368,-0.0010964409978782,0.0010964485031987,-0.0010964456245611,0.001096443837189,-0.0010964392676641,0.0010964502201612,-0.00092239048566417,0.00092240510697624,-0.00092239554480567,0.00092240001894426,0.65089857843768,128566,2924,0.0038258241717893,0.0071165643526474,0.0038258241726375,24.778018494392,-4.1775852044867e-05,-4.1775852044867e-05,-4.1775852044867e-05,4118126.2122524,0.01487909233522
29619200,0.99596924427935,0.015322797121544,0.0042893687195385,0.0067440596813703,0.0042893687206355,-0.00091983852818046,0.00091983749407497,2.137282091229e-09,-3.1905234124741e-09,6.7181055012862e-09,-8.0251595380025e-09,-0.0010970234948463,0.0010970291010437,-0.0010970252830116,0.0010970273827913,-0.0010970282051476,0.0010970242606693,-0.0010970300132409,0.0010970224704817,-0.00092300863559191,0.00092300794907764,-0.00092301382015692,0.0009230025764998,-5.2529697917316e-09,9.4807446825225e-09,1.1737466402282e-08,-7.7629824616263e-09,-0.0017156313940309,0.0017156353838321,-0.0018903089409533,0.0018903144341593,-0.0018903152626799,0.0018903079390036,-0.0018903041484657,0.001890319328844,-0.0018903105210034,0.0018903127819311,-0.0015184317003264,0.0015184597424671,-0.0015184506260706,0.0015184402986164,-0.0015184538770048,0.0015184370544652,-0.0015184395265626,0.0015184517629132,-1.0941719532483e-09,4.1897245150241e-09,-0.00091983650917807,0.00091983951346931,-7.9112369107899e-09,1.137500513324e-08,-0.0010970289357204,0.0010970236071661,-0.0010970225504621,0.0010970300221476,-0.0010970271481844,0.0010970253850919,-0.0010970208070318,0.0010970317523411,-0.00092300094606119,0.00092301558579941,-0.00092300604389021,0.00092301045896602,0.64191386520539,128566,2924,0.0038285021968063,0.0071196396761867,0.0038285021976259,25.087638148851,-3.9298894809193e-05,-3.9298894809193e-05,-3.9298894809193e-05,4131090.3584661,0.014887646012651
29819200,0.9961145910477,0.015324910961751,0.0042899537433873,0.0067450034738789,0.0042899537444843,-0.00092040226840786,0.00092040123528107,2.1574097474844e-09,-3.2096886264296e-09,6.7158652061246e-09,-8.0214671871248e-09,-0.0010974993510101,0.0010975049689127,-0.0010975011519498,0.0010975032376948,-0.0010975040590487,0.001097500130648,-0.001097505880235,0.0010974983269195,-0.00092352423486811,0.00092352359003354,-0.00092352945771763,0.0009235181779533,-5.2495667391631e-09,9.4772845939905e-09,1.1737544239963e-08,-7.7631699223113e-09,-0.0017162443918436,0.0017162483813077,-0.0018910409035128,0.0018910463980925,-0.0018910472252147,0.0018910399029732,-0.0018910361130588,0.0018910512908226,-0.0018910424859237,0.0018910447432509,-0.0015189670358792,0.0015189950754433,-0.0015189859610511,0.0015189756331078,-0.0015189892066572,0.0015189723924687,-0.0015189748636568,0.0015189870938419,-1.1137676284705e-09,4.2096619906933e-09,-0.00092040024982278,0.00092040325432959,-7.9157165065884e-09,1.137905464482e-08,-0.0010975048057094,0.0010974994611854,-0.0010974984173484,0.0010975058789745,-0.0010975030047425,0.0010975012525782,-0.0010974966609788,0.0010975076221314,-0.00092351654557637,0.00092353122735942,-0.00092352168108161,0.00092352606184369,0.67837703979597,128566,2924,0.003830840269054,0.007122178558228,0.0038308402700194,25.339873167462,-3.7281014660304e-05,-3.7281014660304e-05,-3.7281014660304e-05,4143578.7546145,0.014894965037222
30019200,0.99625677768701,0.015327012752594,0.0042905366648198,0.0067459394218574,0.004290536665917,-0.00092093254221533,0.00092093150996553,2.1776624922053e-09,-3.2290628777235e-09,6.7110197613941e-09,-8.0162422878889e-09,-0.0010980485639301,0.0010980541930012,-0.0010980503784164,0.0010980524485434,-0.0010980532689159,0.0010980493579576,-0.0010980551033948,0.0010980475415054,-0.00092405993510687,0.0009240593330902,-0.00092406519714286,0.00092405388336826,-5.2453720721897e-09,9.4723861806337e-09,1.1747738564592e-08,-7.773948321215e-09,-0.0017169414759458,0.0017169454650171,-0.0018918028116121,0.0018918083162995,-0.0018918091402505,0.0018918018139566,-0.0018917980242424,0.0018918132057189,-0.0018918044037331,0.001891806651529,-0.0015196011520472,0.0015196292091216,-0.001519620097191,0.0015196097431023,-0.001519623331975,0.0015196065176564,-0.0015196089975414,0.0015196212108633,-1.132747611645e-09,4.2299827411928e-09,-0.00092093052328217,0.0009209335293012,-7.9198400205591e-09,1.1386047338662e-08,-0.0010980540318871,0.0010980486720203,-0.0010980476401025,0.0010980550935218,-0.0010980522180502,0.0010980504762466,-0.0010980458704014,0.0010980568499469,-0.00092405224518563,0.00092406697020735,-0.00092405742030405,0.00092406176612821,0.68873090603985,128566,2924,0.0038330431196683,0.0071250604782268,0.0038330431205109,25.590759600793,-3.5273923193659e-05,-3.5273923193659e-05,-3.5273923193659e-05,4149265.4428794,0.01490236075064
30219200,0.99639579029331,0.015328972594851,0.0042910761275177,0.0067468203387184,0.004291076128615,-0.0009214462426028,0.0009214452113742,2.1978595475557e-09,-3.2482481752644e-09,6.706762058135e-09,-8.010915406298e-09,-0.0010986156160551,0.0010986212560909,-0.0010986174437205,0.0010986194985888,-0.0010986203178999,0.0010986164242461,-0.0010986221655367,0.0010986145946938,-0.00092459349330067,0.00092459293409389,-0.00092459879403748,0.00092458744584188,-5.2407291685566e-09,9.4672396898555e-09,1.1757068415042e-08,-7.7837292878838e-09,-0.001717657685654,0.0017176616742608,-0.0018925661870397,0.0018925717007152,-0.0018925725217753,0.0018925651920215,-0.0018925614028241,0.0018925765868785,-0.0018925677884367,0.0018925700263121,-0.001520256347305,0.0015202844195064,-0.0015202753107192,0.0015202649341122,-0.0015202785332557,0.0015202617218183,-0.0015202642084899,0.0015202764053698,-1.1515786976348e-09,4.2506310002436e-09,-0.00092144422324034,0.0009214472311346,-7.9288247030244e-09,1.1397312815307e-08,-0.0010986210985816,0.0010986157205956,-0.0010986147000645,0.0010986221488269,-0.001098619271593,0.0010986175379856,-0.0010986129172137,0.0010986239183972,-0.00092458580121943,0.00092460057333722,-0.00092459101498385,0.00092459533063324,0.66008313192959,128566,2924,0.003835178296531,0.0071280200141757,0.0038351782973646,25.84159665505,-3.3267226759597e-05,-3.3267226759597e-05,-3.3267226759597e-05,4152935.6693753,0.014909698882115
30419200,0.99653191143227,0.015330779313391,0.0042915686169684,0.0067476420783573,0.0042915686180657,-0.00092204413488192,0.00092204310399811,2.217781787456e-09,-3.2677601817047e-09,6.7048949362846e-09,-8.0092003634266e-09,-0.0010991988965471,0.0010992045490163,-0.001099200737447,0.0010992027784288,-0.0010992035971918,0.0010991997183235,-0.0010992054580726,0.0010991978757811,-0.00092517427317077,0.00092517375451197,-0.0009251796132049,0.00092516822824559,-5.2390057597938e-09,9.4652768784062e-09,1.1757683015561e-08,-7.7844963484506e-09,-0.0017183760309942,0.0017183800194007,-0.0018933696825803,0.0018933751977739,-0.0018933760177552,0.0018933686884623,-0.0018933648995708,0.0018933800826893,-0.001893371285567,0.0018933735215859,-0.0015208985888225,0.0015209266610922,-0.0015209175511842,0.001520907171783,-0.0015209207733359,0.0015209039647941,-0.0015209064531221,0.0015209186461143,-1.1712753636983e-09,4.2704104459988e-09,-0.00092204211553628,0.000922045123708,-7.9291154748768e-09,1.1399050665099e-08,-0.001099204392157,0.0010991990003789,-0.0010991979930108,0.0010992054292351,-0.0010992025519981,0.0010992008308479,-0.0010991961969017,0.0010992072119636,-0.00092516658151942,0.00092518139271922,-0.00092517183439248,0.00092517611144812,0.62526527973538,128566,2924,0.0038376604892785,0.0071309917090782,0.0038376604900455,26.129556379466,-3.0963548964274e-05,-3.0963548964274e-05,-3.0963548964274e-05,4161509.7744519,0.014917752116935
30619200,0.99666592971167,0.015332679079948,0.0042920923046996,0.0067484944694518,0.0042920923057969,-0.00092286958482575,0.00092286855325569,2.2372456051034e-09,-3.2876893625951e-09,6.708732622851e-09,-8.0146301272864e-09,-0.0010999285527,0.0010999342207064,-0.0010999304069647,0.0010999324373577,-0.0010999332565051,0.0010999293872855,-0.0010999351303498,0.0010999275313599,-0.00092594527836159,0.00092594479485218,-0.00092595065704049,0.00092593923068935,-5.2432413218708e-09,9.4700616977627e-09,1.173370714336e-08,-7.7599257620064e-09,-0.0017192326035308,0.0017192365923294,-0.0018943590376905,0.0018943645342867,-0.0018943653573347,0.0018943580407984,-0.0018943542518336,0.0018943694225595,-0.0018943606224,0.0018943628770622,-0.001521661657303,0.0015216896851975,-0.0015216805685835,0.0015216702401417,-0.0015216838163331,0.0015216670151262,-0.0015216694890943,0.0015216817079315,-1.1934731765446e-09,4.2877897330859e-09,-0.0009228675673396,0.00092287057099665,-7.9074182287716e-09,1.1373979179247e-08,-0.0010999340571616,0.001099928663202,-0.0010999276736813,0.0010999350762561,-0.001099932203749,0.0010999305069006,-0.0010999258644945,0.0010999368722224,-0.00092593759434657,0.00092595242407362,-0.00092594288655515,0.00092594710359683,0.66318230814702,128566,2924,0.0038410845192759,0.0071345390790787,0.0038410845198197,26.523821353764,-2.7809429169888e-05,-2.7809429169888e-05,-2.7809429169888e-05,4176841.3868455,0.014928299579082
30819200,0.99679776560253,0.015334638180462,0.0042926359958731,0.0067493661876179,0.0042926359969705,-0.00092366723465672,0.00092366620263218,2.2566737494748e-09,-3.3077313917752e-09,6.7121133660974e-09,-8.0178330448218e-09,-0.0011007490277688,0.0011007547107034,-0.0011007508948498,0.0011007529137346,-0.0011007537336368,0.0011007498747515,-0.0011007556207388,0.0011007480058896,-0.00092674889808221,0.00092674845024574,-0.00092675431499933,0.00092674284660736,-5.2465538433226e-09,9.4736258885262e-09,1.1717341453379e-08,-7.7435025615474e-09,-0.0017201969527569,0.0017202009417971,-0.0018953969105696,0.001895402394426,-0.0018954032196557,0.0018953959123288,-0.0018953921224354,0.0018954072847355,-0.0018953984823478,0.0018954007508279,-0.0015225507643497,0.0015225787625889,-0.0015225696483344,0.0015225593547166,-0.0015225729063261,0.0015225561095089,-0.0015225585707946,0.0015225708069541,-1.2147497914483e-09,4.3058415965362e-09,-0.0009236652188609,0.00092366821878871,-7.8926893578461e-09,1.1353163602954e-08,-0.0011007545420281,0.0011007491433484,-0.0011007481701827,0.0011007555449356,-0.0011007526755592,0.0011007510000858,-0.0011007463477849,0.0011007573539345,-0.00092674122079932,0.00092675607406142,-0.00092674655099505,0.00092675071555719,0.6923632874465,128566,2924,0.0038443972812705,0.007138526845937,0.0038443972820287,26.920593167328,-2.4635254661377e-05,-2.4635254661377e-05,-2.4635254661377e-05,4184817.9781971,0.014939071440609
31019200,0.99692732314921,0.015336623652438,0.0042931892345695,0.006750245182202,0.0042931892356669,-0.00092443639902512,0.0009244353668251,2.2762822245891e-09,-3.3275597263407e-09,6.7141837749838e-09,-8.0197605056451e-09,-0.0011016254023257,0.0011016310994723,-0.0011016272824709,0.0011016292892743,-0.0011016301094973,0.0011016262621557,-0.0011016320096785,0.0011016243801146,-0.00092756887721073,0.00092756846626574,-0.00092757433231638,0.00092756282363896,-5.2485383572265e-09,9.4756566317237e-09,1.1707273445127e-08,-7.7334494018998e-09,-0.0017212355252833,0.0017212395143579,-0.0018964623996928,0.0018964678756631,-0.001896468702327,0.0018964614003805,-0.0018964576102498,0.0018964727672866,-0.0018964639636953,0.0018964662401977,-0.0015235257427037,0.0015235537224222,-0.001523544608596,0.0015235343361545,-0.0015235478744454,0.0015235310803493,-0.0015235335342183,0.0015235457809144,-1.2353724348837e-09,4.3246343239028e-09,-0.00092443438415871,0.00092443738207381,-7.8839884934457e-09,1.1341515619029e-08,-0.0011016309277907,0.0011016255209274,-0.0011016245626598,0.0011016319157555,-0.0011016290481949,0.0011016273907882,-0.0011016227271413,0.001101633737901,-0.00092756120331848,0.00092757608692013,-0.00092756657190468,0.00092757068969792,0.71215832687868,128566,2924,0.0038475948235873,0.0071428175711589,0.0038475948243891,27.317456935545,-2.146034451564e-05,-2.146034451564e-05,-2.146034451564e-05,4187672.7413143,0.014949919185626
31219200,0.99705562441456,0.015338690887198,0.0042937690330694,0.0067511528199613,0.0042937690341668,-0.00092545519036921,0.00092545415568182,2.2945357812514e-09,-3.3483079820876e-09,6.7196353772683e-09,-8.0301075954603e-09,-0.0011028156329252,0.0011028213471219,-0.0011028175263878,0.0011028195236352,-0.0011028203456737,0.0011028165041926,-0.0011028222594943,0.0011028146105538,-0.0009286790076151,0.00092867862822011,-0.00092868450342867,0.00092867294943865,-5.2566654087742e-09,9.4839285734921e-09,1.168647790224e-08,-7.7122816549717e-09,-0.0017226282706334,0.0017226322608141,-0.0018978508534125,0.0018978563131051,-0.0018978571427125,0.0018978498516788,-0.0018978460589519,0.0018978612095138,-0.0018978523985482,0.001897854697584,-0.0015248570683757,0.0015248850141826,-0.0015248758905103,0.0015248656603397,-0.0015248791871962,0.0015248623879019,-0.0015248648316756,0.00152487710688,-1.2593171580488e-09,4.3406517276322e-09,-0.00092545317797635,0.00092545616834378,-7.8359314199386e-09,1.1288676683967e-08,-0.001102821160546,0.0011028157659834,-0.0011028148294516,0.0011028221278759,-0.0011028192679228,0.0011028176485457,-0.0011028129799406,0.0011028239635624,-0.00092867135022136,0.00092868622915763,-0.00092867676061563,0.00092868079428842,0.74546030234381,128566,2924,0.0038518311895485,0.007148569762068,0.0038518311901286,27.8669952978,-1.7064037617604e-05,-1.7064037617604e-05,-1.7064037617604e-05,4190032.5736235,0.014964360632425
31419200,0.99718262355692,0.015340637120914,0.0042943106968207,0.0067520157261749,0.0042943106979183,-0.00092645831381735,0.00092645727946405,2.3148887855657e-09,-3.3682171894805e-09,6.7247620341028e-09,-8.0332707636219e-09,-0.0011040804774552,0.0011040862068657,-0.0011040823838652,0.0011040843703871,-0.0011040851923827,0.0011040813616189,-0.0011040871190011,0.0011040794529679,-0.00092981893911035,0.00092981859643236,-0.00092982447238436,0.00092981287593757,-5.2601262575771e-09,9.4879311419223e-09,1.1645587704995e-08,-7.6711187450586e-09,-0.001724128687835,0.0017241326774673,-0.0018993000591503,0.0018993054861693,-0.0018993063208824,0.0018992990532514,-0.0018992952620116,0.0018993103859859,-0.0018993015747634,0.0018993039009816,-0.0015263126439022,0.0015263405105717,-0.0015263313877671,0.0015263212455117,-0.0015263347107432,0.0015263179353412,-0.0015263203483129,0.0015263326605503,-1.2783712143593e-09,4.3600645045011e-09,-0.0009264563016591,0.00092645929197611,-7.840516283786e-09,1.1290190251688e-08,-0.0011040860202929,0.0011040806108414,-0.0011040796861004,0.0011040869745162,-0.0011040841143674,0.001104082506857,-0.0011040778245037,0.0011040888226674,-0.0009298112798176,0.00092982620151166,-0.00092981672532546,0.00092982072794927,0.712426307536,128566,2924,0.0038560056935582,0.0071547627694606,0.0038560056943037,28.435097503869,-1.2519219969051e-05,-1.2519219969051e-05,-1.2519219969051e-05,4188053.0184898,0.014979126161315
31619200,0.99730813509827,0.015342466161828,0.004294815896051,0.0067528343686278,0.0042948158971487,-0.00092747684934774,0.00092747581442957,2.3340873909879e-09,-3.3881566984965e-09,6.725618538463e-09,-8.0349544319222e-09,-0.0011052727021681,0.0011052784453592,-0.0011052746216111,0.001105276595547,-0.0011052774179978,0.0011052735990828,-0.0011052793577778,0.0011052716777235,-0.00093093249251708,0.00093093218621271,-0.00093093806348015,0.00093092642718589,-5.2614049281616e-09,9.4893010050739e-09,1.1641925751513e-08,-7.66742272544e-09,-0.0017255460782603,0.0017255500679928,-0.0019007134343195,0.0019007188594148,-0.0019007196948507,0.0019007124277999,-0.001900708636445,0.0019007237600229,-0.0019007149478201,0.0019007172766407,-0.001527670050013,0.0015276979105919,-0.0015276887874157,0.0015276786527284,-0.0015276921132257,0.0015276753371165,-0.0015276777484301,0.0015276900654133,-1.2989097476988e-09,4.3792407216822e-09,-0.00092747483777265,0.00092747782647852,-7.8288712710037e-09,1.1276590951258e-08,-0.0011052782548442,0.0011052728393126,-0.0011052719295353,0.0011052791943852,-0.0011052763358227,0.0011052747484579,-0.0011052700545963,0.0011052810558603,-0.00093092483768056,0.00093093978825505,-0.00093093032178061,0.00093093427525012,0.68057767575952,128566,2924,0.0038602411562586,0.0071606161478698,0.0038602411572528,29.00368343319,-7.9705325344792e-06,-7.9705325344792e-06,-7.9705325344792e-06,4191981.7612694,0.014993668361004
31819200,0.99742985333182,0.015344175013833,0.0042952851140013,0.006753604784733,0.0042952851150989,-0.00092797936652818,0.00092797833634842,2.3562157502409e-09,-3.4056418672667e-09,6.7088786679427e-09,-8.0112117134225e-09,-0.0011058359750773,0.0011058417221486,-0.0011058379077338,0.0011058398590839,-0.0011058406777672,0.0011058368893933,-0.0011058426303449,0.0011058349544537,-0.00093146388654174,0.00093146363585336,-0.00093146949417925,0.00093145783688982,-5.2430577666548e-09,9.46901291492e-09,1.1740100751275e-08,-7.7675725109917e-09,-0.0017262695831353,0.00172627357101,-0.0019014792424087,0.0019014847433371,-0.0019014855669503,0.0019014782457533,-0.0019014744568613,0.0019014896309181,-0.0019014808322229,0.001901483081453,-0.0015283319265478,0.0015283599664622,-0.0015283508618747,0.0015283405187142,-0.0015283540927765,0.0015283372873168,-0.0015283397626016,0.001528351973297,-1.3120858956839e-09,4.4052069498849e-09,-0.00092797735114171,0.0009279803522955,-7.8963224435343e-09,1.1355058562792e-08,-0.0011058415542962,0.0011058360900108,-0.0011058351805021,0.0011058424934895,-0.0011058396223415,0.0011058380123621,-0.0011058332926669,0.0011058443680746,-0.00093145620999262,0.00093147126105181,-0.00093146173175696,0.00093146570924244,0.65805653851505,128566,2924,0.0038623302277593,0.0071636051361146,0.0038623302289239,29.265875224707,-5.8729982023461e-06,-5.8729982023461e-06,-5.8729982023461e-06,4196093.2714263,0.015000943397019
32019200,0.99754617576854,0.015345972926865,0.0042957862405103,0.0067544004447469,0.004295786241608,-0.00092808237707985,0.00092808135233498,2.3786399719849e-09,-3.4227186841124e-09,6.6849968118829e-09,-7.9809823757021e-09,-0.0011059052985361,0.0011059110457887,-0.0011059072448578,0.0011059091704074,-0.0011059099835678,0.0011059062315141,-0.0011059119492982,0.0011059042830227,-0.00093154564750134,0.00093154545867794,-0.00093155129383455,0.00093153962082232,-5.2172315464516e-09,9.4406309493813e-09,1.1863677530795e-08,-7.8934441595816e-09,-0.0017264415196436,0.0017264455050551,-0.0019017225889299,0.0019017281859947,-0.0019017289928943,0.0019017216057009,-0.0019017178206957,0.0019017330556962,-0.0019017242758037,0.0019017264229732,-0.0015284462082508,0.0015284744722359,-0.0015284653836121,0.0015284547764431,-0.0015284684998251,0.0015284516637692,-0.0015284542230517,0.0015284662954557,-1.3196960512908e-09,4.4368488384326e-09,-0.00092808035215415,0.00092808337784607,-8.0140953325063e-09,1.1500729440179e-08,-0.0011059109167008,0.001105905375365,-0.0011059044553719,0.0011059118662039,-0.0011059089715884,0.0011059073111314,-0.0011059025547508,0.001105913753785,-0.0009315379272819,0.00093155312814748,-0.00093154348675257,0.00093154753747979,0.71766339600465,128566,2924,0.0038627573544727,0.0071643174862103,0.003862757355689,29.281000502917,-5.751995976667e-06,-5.751995976667e-06,-5.751995976667e-06,4199633.5252085,0.015002531840457
32219200,0.99765729914957,0.015347731233414,0.0042962777467254,0.0067551757388654,0.0042962777478231,-0.0009281247054331,0.00092812368320666,2.3994345952694e-09,-3.4410291398109e-09,6.6698311343916e-09,-7.963591038319e-09,-0.0011060663956066,0.0011060721479118,-0.00110606835546,0.0011060702598103,-0.0011060710700857,0.0011060673443137,-0.0011060730493281,0.0011060653835347,-0.00093164444095894,0.00093164430433539,-0.0009316501280808,0.00093163842992567,-5.2010113987895e-09,9.4226560142679e-09,1.19489481616e-08,-7.9801080747055e-09,-0.0017267272599684,0.0017267312441173,-0.0019019940404698,0.0019019997044395,-0.0019020004997595,0.0019019930663885,-0.0019019892833379,0.001902004562337,-0.0019019957935501,0.0019019978723727,-0.0015287032346329,0.0015287316556665,-0.001528722574832,0.001528711784563,-0.0015287256174259,0.0015287087560982,-0.0015287113737859,0.00152872335453,-1.3311123358418e-09,4.4651369010591e-09,-0.0009281226728566,0.00092812571624336,-8.0987529418627e-09,1.160733437049e-08,-0.0011060720463296,0.001106066445137,-0.0011060655218612,0.0011060729994553,-0.001106070088149,0.001106068393941,-0.001106063607748,0.0011060749003021,-0.00093163668759271,0.00093165200582602,-0.00093164228681237,0.00093164637709095,0.73340852800378,128566,2924,0.0038629379772311,0.0071654933928583,0.0038629379781935,29.2902139775,-5.6782881799983e-06,-5.6782881799983e-06,-5.6782881799983e-06,4193397.1551516,0.015004094527528
32419200,0.99776345123046,0.015349455517683,0.0042967614339641,0.0067559326486566,0.0042967614350618,-0.00092814536809534,0.0009281443473486,2.4198037903464e-09,-3.4599069957642e-09,6.6616225785949e-09,-7.9538986130042e-09,-0.0011062425100814,0.00110624827098,-0.0011062444834112,0.0011062463701125,-0.0011062471788625,0.0011062434734028,-0.0011062491711812,0.0011062414996617,-0.00093174535521351,0.00093174526442991,-0.00093175108133127,0.00093173935243008,-5.1925253276214e-09,9.413232240393e-09,1.2009183447277e-08,-8.0411286522158e-09,-0.0017270373331657,0.0017270413164958,-0.0019022666352457,0.001902272344408,-0.0019022731336935,0.001902265665238,-0.0019022618838878,0.001902277196273,-0.0019022684331613,0.0019022704652903,-0.0015289932786434,0.0015290218121282,-0.0015290127349768,0.0015290018187678,-0.0015290157283967,0.0015289988436264,-0.0015290015024457,0.0015290134248834,-1.3461389080789e-09,4.4896150974895e-09,-0.00092814333122829,0.00092814638462341,-8.1510682706653e-09,1.1671778118552e-08,-0.0011062481864543,0.0011062425428359,-0.0011062416234299,0.0011062491357027,-0.001106246215194,0.0011062445047716,-0.0011062396961046,0.0011062510497818,-0.00093173758146436,0.0009317529861202,-0.00093174321977853,0.00093174731868564,0.75109426452824,128566,2924,0.0038630301372777,0.0071667678495734,0.0038630301381321,29.299209591558,-5.6063232675328e-06,-5.6063232675328e-06,-5.6063232675328e-06,4185305.0773982,0.015005578431993
32619200,0.99786459264832,0.015350967614136,0.0042971805263248,0.0067566065603886,0.0042971805274226,-0.00092805318219132,0.00092805216170152,2.4392336465607e-09,-3.479149031657e-09,6.6618783553822e-09,-7.9528938413464e-09,-0.0011063423823053,0.0011063481560063,-0.0011063443691293,0.0011063462424112,-0.0011063470516086,0.0011063433590047,-0.0011063490559514,0.0011063413719865,-0.00093175137594361,0.00093175132121214,-0.00093175713658005,0.00093174537112001,-5.1915033957819e-09,9.4123322675925e-09,1.2033876478981e-08,-8.0658566771446e-09,-0.0017272756156511,0.0017272795989455,-0.0019024454884471,0.0019024512146459,-0.0019024520032509,0.0019024445185806,-0.001902440737986,0.0019024560659508,-0.001902447303228,0.0019024493182284,-0.0015292227326445,0.0015292513122566,-0.0015292422395582,0.001529231275257,-0.0015292452126045,0.001529228312219,-0.0015292309861105,0.0015292428901268,-1.3653434138577e-09,4.5104581699786e-09,-0.00092805114468986,0.00092805419962207,-8.1707960958762e-09,1.1691425578617e-08,-0.0011063480774152,0.0011063424096754,-0.0011063415018353,0.0011063490150961,-0.0011063460931298,0.0011063443849437,-0.0011063395612572,0.0011063509429221,-0.00093174359279268,0.00093175905334488,-0.0009317492703631,0.00093175334472934,0.6965388729868,128566,2924,0.0038626551880851,0.0071677433496511,0.0038626551889554,29.262895930195,-5.896832558436e-06,-5.896832558436e-06,-5.896832558436e-06,4174583.2984505,0.015005811368542
32819200,0.99796084817971,0.015352288475371,0.0042975419042023,0.0067572046658682,0.0042975419053003,-0.00092796291150157,0.00092796188925172,2.4583901888103e-09,-3.5000588920097e-09,6.6675175335779e-09,-7.9610758699498e-09,-0.0011062948753347,0.0011063006652431,-0.0011062968749714,0.0011062987381939,-0.0011062995484903,0.0011062958633972,-0.0011063015670624,0.0011062938634083,-0.00093168054595036,0.00093168052597325,-0.00093168634870006,0.00093167453668174,-5.1987269964e-09,9.4199752253995e-09,1.2014134409676e-08,-8.0456729253914e-09,-0.0017273291620517,0.0017273331458389,-0.0019025165108984,0.0019025222190686,-0.0019025230120242,0.0019025155369092,-0.0019025117552383,0.0019025270753125,-0.0019025183072718,0.0019025203412577,-0.0015292470233269,0.0015292755704172,-0.0015292664903032,0.001529255569678,-0.001529269487206,0.0015292525867527,-0.0015292552477968,0.0015292671799839,-1.3862540332217e-09,4.5282241078554e-09,-0.00092796087465527,0.00092796392654938,-8.1572128156596e-09,1.1675746896053e-08,-0.0011063005818967,0.0011062949070911,-0.0011062940155458,0.0011063015033675,-0.0011062985844017,0.0011062968953187,-0.0011062920620362,0.0011063034436405,-0.00093167276852866,0.00093168825229174,-0.00093167848354564,0.00093168250762251,0.64446136341764,128566,2924,0.0038622828320789,0.0071679617688837,0.0038622828330214,29.204418753925,-6.3646499686005e-06,-6.3646499686005e-06,-6.3646499686005e-06,4172511.2905156,0.015005277145248
33019200,0.99805246465473,0.015353656867241,0.0042979216820802,0.0067578135019823,0.0042979216831782,-0.00092793849254234,0.0009279374687025,2.4773167495892e-09,-3.5204507145211e-09,6.6769722866498e-09,-7.9723282114926e-09,-0.0011061619670701,0.0011061677752586,-0.0011061639797294,0.0011061658350168,-0.001106166647015,0.0011061629665152,-0.0011061686786171,0.0011061609533973,-0.00093159830030311,0.0009315983108045,-0.00093160414192381,0.00093159228327417,-5.2086045628236e-09,9.4306666873121e-09,1.1977854564412e-08,-8.0086627643793e-09,-0.0017272562619328,0.0017272602464547,-0.0019025332476576,0.0019025389258281,-0.0019025397252328,0.0019025322680472,-0.0019025284853545,0.0019025437888912,-0.001902535013766,0.0019025370792565,-0.0015291254083513,0.0015291538910378,-0.0015291448038599,0.0015291339628018,-0.0015291478387827,0.0015291309430321,-0.0015291335791718,0.0015291455568821,-1.4095923381955e-09,4.5443344193177e-09,-0.00092793645847649,0.00092793950315173,-8.1255407526311e-09,1.1636206905777e-08,-0.0011061676809585,0.0011061620096826,-0.0011061611382222,0.0011061685822659,-0.0011061656703094,0.0011061640109829,-0.0011061591715409,0.0011061705357171,-0.00093159053374174,0.00093160602527398,-0.00093159628786699,0.00093160024222519,0.69524136140404,128566,2924,0.003862178226646,0.0071676647646485,0.0038621782274483,29.145405700948,-6.8367543924141e-06,-6.8367543924141e-06,-6.8367543924141e-06,4178699.7526315,0.01500475975575
33219200,0.99813967859984,0.015355029280179,0.0042983053649594,0.0067584185491622,0.0042983053660574,-0.00092787504135036,0.00092787401495772,2.4957056174727e-09,-3.5413973612841e-09,6.6872042556216e-09,-7.9858384912629e-09,-0.0011061275516339,0.0011061333785464,-0.0011061295772994,0.0011061314250674,-0.0011061322393408,0.0011061285618384,-0.0011061342840578,0.0011061265356603,-0.00093154590092869,0.00093154593955697,-0.00093155178080275,0.0009315398733327,-5.219906206625e-09,9.4430995603787e-09,1.1927073510974e-08,-7.9568718822611e-09,-0.0017272976203676,0.0017273016058582,-0.00190259182432,0.0019025974619466,-0.0019025982688374,0.001902590838397,-0.0019025870544379,0.001902602333012,-0.0019025935497516,0.0019025956576579,-0.0015291404729124,0.001529168863707,-0.0015291597679466,0.0015291490365283,-0.0015291628516958,0.0015291459674411,-0.0015291485698565,0.0015291606061201,-1.4341615756682e-09,4.5591890806224e-09,-0.00092787301096786,0.00092787604577151,-8.0797989746581e-09,1.1579799383573e-08,-0.0011061332692944,0.0011061276090206,-0.0011061267604283,0.0011061341477225,-0.0011061312454664,0.0011061296233688,-0.0011061247805434,0.0011061361142895,-0.00093153815092041,0.00093155363770267,-0.00093154394358598,0.00093154781583859,0.72922791458214,128566,2924,0.0038619163597523,0.0071678341670517,0.0038619163606551,29.086372860546,-7.309017115634e-06,-7.309017115634e-06,-7.309017115634e-06,4176273.8550212,0.015004400345554
33419200,0.99822405827023,0.015356384104667,0.0042986851173183,0.0067590138689324,0.0042986851184163,-0.00092828105414087,0.00092828002162829,2.5130481736677e-09,-3.5643022588244e-09,6.7086128731784e-09,-8.0178338018869e-09,-0.0011066727681638,0.0011066786206324,-0.0011066748068544,0.0011066766542181,-0.0011066774725782,0.0011066737864133,-0.0011066795318075,0.0011066717470812,-0.00093202765485957,0.00093202771350925,-0.00093203358002727,0.00093202161024901,-5.2458483951677e-09,9.4712196997983e-09,1.1791826265272e-08,-7.8191192472743e-09,-0.0017279772785818,0.0017279812662472,-0.001903241289189,0.0019032468212865,-0.0019032476450511,0.0019032402886412,-0.0019032365016376,0.00190325171094,-0.0019032429090506,0.001903245125902,-0.0015297984574089,0.0015298266026215,-0.0015298174726742,0.0015298070275184,-0.001529820695314,0.0015298038513341,-0.0015298063690154,0.0015298185526507,-1.4641767127374e-09,4.5679361637818e-09,-0.00092827903073454,0.00092828204524216,-7.9671201954175e-09,1.1451939471152e-08,-0.0011066784755112,0.0011066728604187,-0.0011066720461046,0.0011066793195996,-0.0011066764380572,0.0011066748876794,-0.0011066700532347,0.0011066812985983,-0.0009320199455825,0.00093203536624205,-0.00093202577801647,0.00093202950847872,0.74278653275108,128566,2924,0.0038636075173074,0.0071706380840855,0.0038636075177703,29.31191417259,-5.5046866192837e-06,-5.5046866192837e-06,-5.5046866192837e-06,4173405.8836628,0.015010682430768
33619200,0.99830599478653,0.015357700157623,0.0042990539200978,0.0067595923163288,0.0042990539211962,-0.00092879978835876,0.00092879875300196,2.5305943968871e-09,-3.5847696278453e-09,6.7293085344254e-09,-8.0393707353307e-09,-0.0011073723487003,0.0011073782251017,-0.0011073744000811,0.0011073762446516,-0.0011073770678924,0.0011073733762799,-0.0011073791381123,0.0011073713240616,-0.0009326460657462,0.00093264614063946,-0.00093265202144047,0.00093263999924463,-5.2654914703206e-09,9.4926646772572e-09,1.1685247371479e-08,-7.7113854664673e-09,-0.001728835909525,0.0017288398985383,-0.001904051096571,0.0019040565473856,-0.0019040573851095,0.0019040500855949,-0.001904046296568,0.001904061450323,-0.0019040526352214,0.0019040549372397,-0.0015306373243009,0.0015306652707,-0.0015306561407885,0.0015306459237885,-0.0015306594492475,0.0015306426347874,-0.0015306450767646,0.0015306573729592,-1.4963751565106e-09,4.5763883715042e-09,-0.0009287977761052,0.00092880076551401,-7.8575809275022e-09,1.1308317092796e-08,-0.0011073780437342,0.0011073724772051,-0.0011073716990898,0.001107378851539,-0.0011073759935014,0.0011073745175305,-0.001107369692337,0.0011073808448897,-0.00093263839729454,0.00093265375455131,-0.00093264426992244,0.00093264785391162,0.7430304288935,128566,2924,0.0038657682534955,0.0071741799272295,0.0038657682540444,29.613697107427,-3.0904231405858e-06,-3.0904231405858e-06,-3.0904231405858e-06,4170335.0130453,0.01501866765739
33819200,0.99838549840403,0.015358981261348,0.0042994130278675,0.0067601552045146,0.0042994130289659,-0.00092930886093412,0.00092930782384869,2.5494288191922e-09,-3.6053937248039e-09,6.738781351008e-09,-8.0502694599704e-09,-0.0011080633154346,0.0011080692100418,-0.0011080653792335,0.0011080672158221,-0.0011080680409339,0.0011080643541228,-0.0011080701245219,0.0011080622888044,-0.00093325807530844,0.00093325818058452,-0.0009332640693124,0.00093325199911229,-5.2754336939454e-09,9.5034995396714e-09,1.1607028508541e-08,-7.6324750530086e-09,-0.0017296932072889,0.0017296971971129,-0.0019048622354321,0.0019048676280204,-0.0019048684729955,0.0019048612198832,-0.0019048574285488,0.001904872537861,-0.0019048637165159,0.0019048660783287,-0.0015314746163344,0.0015315024162313,-0.0015314932847771,0.0015314832296296,-0.0015314966531399,0.0015314798711281,-0.0015314822593018,0.0015314946281229,-1.5225012166513e-09,4.5895362208225e-09,-0.00092930685479736,0.0009293098303487,-7.7888397007054e-09,1.1222134739653e-08,-0.00110806900679,0.0011080634654098,-0.0011080627131378,0.0011080697888448,-0.0011080669433773,0.0011080655188367,-0.0011080606933237,0.0011080717950674,-0.00093325043520894,0.00093326576664619,-0.00093325634560151,0.00093325982850947,0.74517769570254,128566,2924,0.0038678891598273,0.0071777157537829,0.0038678891605906,29.917363399825,-6.6109280140332e-07,-6.6109280140332e-07,-6.6109280140332e-07,4167722.4345409,0.015026565712603
34019200,0.99846257345788,0.01536018497606,0.0042997489054188,0.0067606871641237,0.0042997489065172,-0.0009298081448046,0.00092980710735927,2.5691650203328e-09,-3.6254823370499e-09,6.7419214160223e-09,-8.0537386993993e-09,-0.0011087445157514,0.0011087504252794,-0.0011087465924005,0.0011087484177723,-0.001108749243162,0.0011087455673021,-0.001108751340139,0.0011087434884205,-0.00093386017690105,0.00093386031920429,-0.0009338662099278,0.00093385409751234,-5.2787805121142e-09,9.5070304375107e-09,1.1556420668693e-08,-7.5817283682262e-09,-0.0017305450569038,0.001730549046883,-0.0019056679606192,0.0019056733175882,-0.001905674165498,0.0019056669438343,-0.0019056631513321,0.0019056782299193,-0.0019056694070171,0.0019056718043815,-0.0015323076234624,0.0015323353268228,-0.0015323261952966,0.0015323162414866,-0.0015323295992518,0.0015323128446921,-0.0015323151990919,0.0015323276076927,-1.5453751834445e-09,4.6056109326215e-09,-0.00092980614211345,0.00092980911044774,-7.7478793080467e-09,1.1172396244877e-08,-0.0011087502093916,0.0011087446782217,-0.0011087439455245,0.0011087509718481,-0.0011087481327759,0.0011087467448026,-0.0011087419129424,0.0011087529908414,-0.00093385255465112,0.00093386788721461,-0.00093385850247195,0.00093386191148185,0.72426545609243,128566,2924,0.0038699695155714,0.0071812288240459,0.0038699695164053,30.221099528501,1.7687962280066e-06,1.7687962280066e-06,1.7687962280066e-06,4165307.6785562,0.015034358253754
34219200,0.99853851693965,0.015361338165518,0.0043000693994264,0.0067611993655673,0.0043000694005247,-0.00093086617330289,0.00093086513281403,2.5879797716562e-09,-3.6467145141507e-09,6.7490122763812e-09,-8.068580021713e-09,-0.0011099515989142,0.0011099575266816,-0.0011099536886867,0.0011099555064053,-0.0011099563325686,0.0011099526615147,-0.0011099584442402,0.0011099505698848,-0.00093501055973475,0.00093501073595002,-0.00093501663900923,0.00093500447830986,-5.2896606776149e-09,9.5185206891385e-09,1.1477047439197e-08,-7.5011734837109e-09,-0.0017319568280346,0.0017319608187987,-0.0019070659960673,0.0019070712940101,-0.0019070721489764,0.0019070649730379,-0.001907061179332,0.0019070762141996,-0.0019070673836749,0.0019070698410552,-0.0015336785814602,0.0015337061386547,-0.0015336969802762,0.0015336871898889,-0.0015337004689384,0.0015336837472216,-0.0015336860565895,0.0015336985427671,-1.5704370192767e-09,4.6195597821049e-09,-0.00093086417387164,0.00093086713239974,-7.6790443246729e-09,1.1101394173973e-08,-0.0011099572903297,0.0011099517809113,-0.0011099510725733,0.0011099580283078,-0.0011099551999548,0.0011099538603576,-0.0011099490267158,0.0011099600598078,-0.00093500296328879,0.00093501827296257,-0.00093500895165787,0.00093501226123489,0.70594349143788,128566,2924,0.00387436841547,0.0071870589557423,0.0038743684158288,30.832711705374,6.6616936429927e-06,6.6616936429927e-06,6.6616936429927e-06,4171441.6398268,0.015049208664318
34419200,0.99861333358023,0.015362479018678,0.0043003866099006,0.006761705797778,0.004300386610999,-0.00093199812033521,0.00093199707979093,2.6072108225046e-09,-3.666220607345e-09,6.7524521630248e-09,-8.0707189418704e-09,-0.0011111896245827,0.0011111955675495,-0.0011111917271938,0.0011111935333664,-0.001111194360476,0.0011111906997551,-0.0011111964844848,0.0011111885955509,-0.00093621032600905,0.00093621053595141,-0.00093621643994681,0.00093620423922533,-5.2917412052327e-09,9.5210979766394e-09,1.1447366934916e-08,-7.4713849864937e-09,-0.0017333945880927,0.0017333985790527,-0.0019085173716412,0.0019085226492359,-0.0019085235062443,0.0019085163479786,-0.0019085125540526,0.0019085275705673,-0.0019085187391235,0.0019085212179606,-0.0015350643574886,0.0015350918569616,-0.0015350827062319,0.0015350729778186,-0.0015350862077307,0.0015350695010072,-0.001535071787284,0.0015350842985149,-1.5934912541217e-09,4.6364562395088e-09,-0.00093199612446077,0.00093199907594986,-7.6485725426531e-09,1.1058721290634e-08,-0.0011111953209599,0.0011111898167169,-0.0011111891276731,0.0011111960398239,-0.0011111932178255,0.001111191909108,-0.0011111870681271,0.0011111980849307,-0.00093620274279394,0.00093621806311254,-0.00093620876971745,0.00093621201123381,0.70867958934853,128566,2924,0.0038790725209812,0.0071929987257914,0.0038790725215924,31.476554701239,1.1812437609912e-05,1.1812437609912e-05,1.1812437609912e-05,4180875.2202089,0.015064789093116
34619200,0.99868688813461,0.015363648299855,0.0043007135681325,0.0067622211624917,0.0043007135692309,-0.00093313179416548,0.00093313075545433,2.6276793128551e-09,-3.6850415361503e-09,6.7499384455194e-09,-8.0643567612895e-09,-0.0011124358165918,0.0011124417710096,-0.0011124379323598,0.0011124397237494,-0.0011124405499607,0.0011124369064861,-0.0011124426863929,0.0011124347886073,-0.00093741510025568,0.00093741535139242,-0.00093742124926295,0.00093740901454326,-5.2875832999597e-09,9.516573461272e-09,1.1451527440462e-08,-7.4761210669862e-09,-0.0017348409996837,0.0017348449902577,-0.0019099742666035,0.001909979549582,-0.001909980404414,0.0019099732457481,-0.0019099694517176,0.0019099844680917,-0.0019099756400856,0.0019099781127763,-0.0015364581861703,0.0015364856899429,-0.0015364765512146,0.0015364668107959,-0.0015364800372927,0.0015364633349032,-0.0015364656213625,0.0015364781192021,-1.6128122071831e-09,4.6566121990136e-09,-0.00093312979918154,0.0009331327507928,-7.6521618766191e-09,1.1058693180604e-08,-0.0011124415254454,0.001112436008226,-0.0011124353310518,0.0011124422323656,-0.0011124394093015,0.0011124381139424,-0.0011124332586866,0.0011124442908214,-0.00093740751678397,0.0009374228796947,-0.00093741358150094,0.00093741678806802,0.7361373914702,128566,2924,0.003883783967858,0.0071989740556278,0.0038837839686056,32.121253487368,1.6970027898943e-05,1.6970027898943e-05,1.6970027898943e-05,4189689.5748987,0.015080421043297
34819200,0.99876017770981,0.015364823718452,0.004301042450476,0.0067627388164014,0.0043010424515744,-0.00093473981223027,0.00093473877205018,2.645065355183e-09,-3.7035270476886e-09,6.7528200302187e-09,-8.0715047751285e-09,-0.0011142537339238,0.0011142597043596,-0.0011142558630581,0.0011142576431117,-0.0011142584722065,0.0011142548342427,-0.0011142606181018,0.0011142527064071,-0.00093915189374547,0.00093915216890031,-0.00093915807297606,0.00093914580806824,-5.2900683994534e-09,9.5188096303115e-09,1.1457553250437e-08,-7.4818866717921e-09,-0.0017369190203255,0.0017369230107322,-0.0019120263606519,0.001912031647015,-0.0019120325039971,0.0019120253364888,-0.001912021546803,0.0019120365655362,-0.0019120277358182,0.0019120302066849,-0.0015384831142297,0.0015385106251,-0.0015385014649606,0.0015384917250395,-0.0015385049763599,0.001538488261528,-0.0015384905528034,0.0015385030641452,-1.6382098037635e-09,4.6743494810236e-09,-0.00093473781966019,0.00093474076480017,-7.6076813965261e-09,1.1014078719029e-08,-0.0011142594456856,0.0011142539374889,-0.0011142532828509,0.001114260129571,-0.0011142573167238,0.0011142560555562,-0.0011142511934252,0.0011142622045352,-0.0009391443137274,0.00093915968884915,-0.00093915043200387,0.00093915354744636,0.74236047771379,128566,2924,0.0038904682446619,0.0072075566548593,0.0038904682450687,33.05201420772,2.4416113661759e-05,2.4416113661759e-05,2.4416113661759e-05,4198798.5560689,0.015102707577448
35019200,0.9988333545154,0.015365960411613,0.0043013588324501,0.0067632427456138,0.0043013588335487,-0.00093650475039836,0.00093650371083534,2.6672987594972e-09,-3.7251556644707e-09,6.7523959121587e-09,-8.0697947286633e-09,-0.0011162638265172,0.0011162698091766,-0.0011162659686717,0.0011162677363304,-0.0011162685618792,0.001116264942698,-0.0011162707258688,0.0011162627980823,-0.00094106403350737,0.00094106436264682,-0.00094107026479492,0.00094105794825238,-5.2919338298187e-09,9.520792030927e-09,1.1431512767897e-08,-7.4559431163499e-09,-0.0017392180275663,0.0017392220182108,-0.0019142930823611,0.0019142983469346,-0.0019142992045839,0.0019142920583991,-0.0019142882640542,0.0019143032691111,-0.001914294438236,0.0019142969278728,-0.0015407240742684,0.0015407515420387,-0.0015407423905775,0.0015407326924477,-0.0015407459050239,0.0015407292085003,-0.0015407314852407,0.0015407440056905,-1.6516364049963e-09,4.6958199678608e-09,-0.00093650275427855,0.00093650570712412,-7.6361548128298e-09,1.1048226973696e-08,-0.0011162695581881,0.0011162640232366,-0.0011162633719172,0.0011162702394363,-0.0011162674154108,0.0011162661553946,-0.0011162612738643,0.0011162723232576,-0.00094105645485715,0.0009410718831134,-0.00094106259636255,0.00094106571735502,0.72136488626912,128566,2924,0.0038978053911915,0.0072170510883505,0.0038978053915652,34.084098459839,3.2672787678712e-05,3.2672787678712e-05,3.2672787678712e-05,4208576.796555,0.015127246337888
35219200,0.99890613872608,0.015367057514662,0.0043016626852936,0.006763732142976,0.004301662686392,-0.00093828211101227,0.00093828107332803,2.6871509483794e-09,-3.7433306696313e-09,6.748500620216e-09,-8.0621242891076e-09,-0.0011182381532859,0.0011182441469815,-0.0011182403086129,0.0011182420603714,-0.0011182428856785,0.001118239283477,-0.0011182450611439,0.0011182371266126,-0.00094296302263401,0.00094296339089134,-0.00094296928686616,0.00094295694035343,-5.2857827139076e-09,9.5140145545625e-09,1.1472698663166e-08,-7.4979759613341e-09,-0.0017414775818801,0.0017414815717583,-0.0019165509084012,0.0019165562061675,-0.0019165570600548,0.0019165498878547,-0.0019165460951925,0.0019165611230135,-0.0019165522969027,0.0019165547536594,-0.0015429140293302,0.0015429415722277,-0.0015429324327883,0.0015429226493632,-0.0015429359057579,0.0015429191920117,-0.0015429214936069,0.0015429339736186,-1.6690831458652e-09,4.7190159459028e-09,-0.00093828011329973,0.00093828307132423,-7.6638392522951e-09,1.1078023506031e-08,-0.0011182439034577,0.0011182383428314,-0.0011182376990163,0.001118244577044,-0.0011182417479828,0.0011182404878727,-0.0011182355868249,0.0011182466752425,-0.00094295543073764,0.00094297092667586,-0.00094296161318308,0.00094296471836856,0.70214229613353,128566,2924,0.0039051924280042,0.0072263843945344,0.0039051924286064,35.118665660703,4.0949325285624e-05,4.0949325285624e-05,4.0949325285624e-05,4221482.5825714,0.015151721972592
35419200,0.99897739016138,0.015368096440478,0.0043019488069997,0.0067641988253806,0.0043019488080981,-0.00093968110834474,0.00093968007617901,2.7095583809617e-09,-3.7606418008119e-09,6.7276758864911e-09,-8.0328626675889e-09,-0.0011197661648509,0.0011197721597205,-0.0011197683332618,0.0011197700602981,-0.0011197708806728,0.0011197673132648,-0.0011197730694991,0.0011197651426301,-0.00094444263187223,0.00094444306036583,-0.0009444489334741,0.00094443656754101,-5.2618750515644e-09,9.4879210390544e-09,1.15857333058e-08,-7.6132731740246e-09,-0.0017432484785682,0.0017432524663424,-0.0019183468974707,0.0019183522840223,-0.0019183531224313,0.0019183458903159,-0.0019183420997845,0.0019183571843199,-0.0019183483756108,0.0019183507388436,-0.001544614625512,0.0015446423744217,-0.0015446332610672,0.0015446232338344,-0.0015446366170367,0.0015446198758436,-0.0015446222503639,0.0015446346008268,-1.6768991466983e-09,4.7500776574612e-09,-0.00093967910217685,0.00093968208285909,-7.7777912358461e-09,1.1213095182661e-08,-0.0011197719525144,0.0011197663188912,-0.0011197656651231,0.0011197726360522,-0.0011197697839501,0.0011197684774457,-0.0011197635405906,0.0011197747469581,-0.00094443499994679,0.00094445063948533,-0.00094444121727633,0.00094444439353538,0.68162297822176,128566,2924,0.0039110061140646,0.007233700197882,0.0039110061151293,35.930685753234,4.7445486025875e-05,4.7445486025875e-05,4.7445486025875e-05,4233454.0759366,0.015170953947423
35619200,0.99904630260819,0.015369061217958,0.0043022126943062,0.0067646358282473,0.0043022126954048,-0.00094080483324652,0.00094080380911408,2.7332113298583e-09,-3.7763011216696e-09,6.7019381624833e-09,-7.99839987658e-09,-0.0011209469296283,0.0011209529255295,-0.0011209491126022,0.0011209508144773,-0.0011209516258443,0.0011209480992284,-0.0011209538287687,0.0011209459165133,-0.00094560591021105,0.00094560640500532,-0.00094561225273963,0.00094559987602027,-5.2330213092617e-09,9.4560500979251e-09,1.1732015290692e-08,-7.7621007027399e-09,-0.0017446305589595,0.0017446345441556,-0.0019197823062037,0.0019197878074535,-0.0019197886266936,0.001919781314845,-0.0019197775280101,0.0019197926872315,-0.0019197838992756,0.0019197861428769,-0.0015459237504298,0.0015459517670307,-0.0015459426709313,0.0015459323307664,-0.0015459458944494,0.0015459291129661,-0.0015459315868578,0.0015459437774278,-1.688393794269e-09,4.7779464448435e-09,-0.00094080282227227,0.00094080582065877,-7.9146378540993e-09,1.1372005427874e-08,-0.0011209527660522,0.0011209470376086,-0.0011209463807244,0.0011209534526856,-0.0011209505842681,0.0011209492091752,-0.0011209442429005,0.0011209555765842,-0.00094559823629198,0.00094561402804326,-0.00094560449239721,0.00094560774360001,0.65729899525377,128566,2924,0.0039156742526518,0.0072394117469071,0.0039156742538409,36.574939435614,5.2599515484911e-05,5.2599515484911e-05,5.2599515484911e-05,4245539.0924997,0.015186230144018
35819200,0.99911276328702,0.015370052940294,0.0043024867467023,0.006765079445791,0.004302486747801,-0.00094195364785123,0.00094195262821536,2.7552014720782e-09,-3.7936926749156e-09,6.6841429379608e-09,-7.9765107578952e-09,-0.0011220834602319,0.0011220894607595,-0.0011220856574288,0.0011220873375517,-0.0011220881436597,0.0011220846477296,-0.0011220903602871,0.0011220824526547,-0.00094675998906176,0.00094676054026026,-0.00094676637268157,0.00094675397576293,-5.2143511508575e-09,9.4353342926023e-09,1.184416031668e-08,-7.8758977857289e-09,-0.0017459469569422,0.0017459509404221,-0.0019211853935534,0.0019211909803423,-0.0019211917865126,0.0019211844116122,-0.0019211806281748,0.0019211958468748,-0.0019211870716717,0.0019211892265755,-0.0015471576425026,0.0015471858664593,-0.0015471767764995,0.0015471661996874,-0.0015471799077854,0.0015471630884971,-0.00154716563974,0.0015471777161561,-1.7004932090593e-09,4.8052180871533e-09,-0.00094195163076392,0.00094195464576237,-8.0097021125691e-09,1.1488901619127e-08,-0.0011220893334477,0.0011220835369041,-0.001122082878039,0.0011220900220967,-0.0011220871385562,0.0011220857213901,-0.0011220807268168,0.0011220921591011,-0.00094675228166494,0.00094676819655448,-0.0009467585777087,0.00094676187352428,0.69619235486133,128566,2924,0.0039204438689017,0.0072448553032208,0.0039204438698672,37.215149351146,5.7721194809169e-05,5.7721194809169e-05,5.7721194809169e-05,4260927.0586397,0.015201439045591
36019200,0.99917668667051,0.015371066326828,0.0043027691216213,0.0067655280824863,0.00430276912272,-0.00094306880154145,0.00094306778429523,2.7760651397479e-09,-3.8121860882193e-09,6.6742548966623e-09,-7.9640987203979e-09,-0.0011232973015081,0.0011233033101051,-0.0011232995123594,0.0011233011743594,-0.0011233019777625,0.0011232985046527,-0.0011233042077182,0.0011232962966572,-0.00094793835048833,0.00094793895007871,-0.00094794477339107,0.00094793234767769,-5.2037636780034e-09,9.4235901625539e-09,1.191769430909e-08,-7.9504318585288e-09,-0.0017473564162595,0.0017473603987058,-0.0019226225039989,0.0019226281455175,-0.001922628944315,0.0019226215273091,-0.0019226177457954,0.0019226330045775,-0.0019226242366872,0.0019226263347891,-0.0015485030079357,0.0015485313690073,-0.001548522284482,0.0015485115537692,-0.0015485253545197,0.0015485085073951,-0.0015485111085491,0.001548523113082,-1.7150417750407e-09,4.8299988159288e-09,-0.00094306678022991,0.00094306980603079,-8.0768232995041e-09,1.1569169640464e-08,-0.0011233032049706,0.0011232973565289,-0.0011232967006801,0.001123303890613,-0.0011233009969839,0.0011232995541402,-0.0011232945363558,0.0011233060406892,-0.00094793061881392,0.00094794663091552,-0.00094793695343215,0.00094794026948465,0.73586310246035,128566,2924,0.0039250776875885,0.0072506785565622,0.0039250776884796,37.855209219922,6.2841673759376e-05,6.2841673759376e-05,6.2841673759376e-05,4269301.9034012,0.015216761066013
36219200,0.99923592068602,0.015371973629499,0.0043030204712772,0.0067659326858459,0.004303020472376,-0.00094295565013082,0.00094295464000295,2.7995425896548e-09,-3.8289265146478e-09,6.6446808598219e-09,-7.9246600518692e-09,-0.0011233390751101,0.0011233450803989,-0.0011233412995439,0.0011233429321968,-0.0011233437285795,0.0011233402984908,-0.0011233459723818,0.0011233380766256,-0.00094790178237874,0.00094790245070605,-0.00094790824387982,0.00094789580602959,-5.1713737669047e-09,9.3882120982706e-09,1.2069767846877e-08,-8.1054190407768e-09,-0.0017475187567489,0.0017475227364021,-0.0019227502095942,0.0019227559707459,-0.0019227567482238,0.0019227492506558,-0.0019227454726095,0.0019227608074229,-0.0019227520627866,0.001922754034869,-0.0015486456109571,0.0015486742491974,-0.0015486651942068,0.0015486541357633,-0.0015486681105532,0.0015486512276074,-0.0015486539288232,0.0015486657598058,-1.7208420389698e-09,4.8626124381473e-09,-0.00094295361920703,0.00094295667161837,-8.2291388737208e-09,1.1748296163792e-08,-0.001123345026089,0.0011233390804531,-0.001123338411416,0.0011233457249333,-0.0011233428050017,0.0011233412915076,-0.0011233362349298,0.0011233478874155,-0.00094789400051131,0.00094791018637026,-0.00094790036955944,0.00094790378799371,0.71361055532202,128566,2924,0.0039246144506716,0.0072513416474927,0.0039246144521042,37.827192628694,6.2617541029552e-05,6.2617541029552e-05,6.2617541029552e-05,4260376.2469411,0.01521649677342
36419200,0.99928995831353,0.015372789814939,0.0043032462083557,0.0067662973971283,0.0043032462094545,-0.00094232572534932,0.00094232472063463,2.8216701351826e-09,-3.8459052462549e-09,6.6219834134375e-09,-7.8947559919178e-09,-0.001122764989557,0.0011227709954419,-0.0011227672276957,0.0011227688346836,-0.0011227696260648,0.0011227662310456,-0.0011227718829214,0.0011227639963598,-0.00094729588580356,0.00094729661418069,-0.00094730238567845,0.00094728993163496,-5.1457712475735e-09,9.3601081948256e-09,1.2197950716567e-08,-8.2359145729337e-09,-0.0017470011601328,0.0017470051375,-0.00192222916989,0.001922235031756,-0.0019222357920087,0.0019222282245675,-0.0019222244501379,0.0019222398501581,-0.0019222311236191,0.0019222329907176,-0.0015481124300365,0.0015481413022068,-0.0015481322672672,0.0015481209346714,-0.001548135062714,0.001548118144698,-0.0015481209310027,0.0015481326206026,-1.7303389990574e-09,4.8926941181864e-09,-0.00094232368657336,0.00094232676012839,-8.350671434161e-09,1.1892799995546e-08,-0.001122770981705,0.0011227649552164,-0.0011227642790524,0.0011227716876424,-0.0011227687476615,0.0011227671794992,-0.0011227620894295,0.0011227738634258,-0.00094728806121156,0.00094730439434301,-0.00094729446816643,0.00094729795667024,0.70434020394844,128566,2924,0.0039220025759648,0.0072491973108233,0.0039220025774485,37.4962049235,5.9969639388e-05,5.9969639388e-05,5.9969639388e-05,4250538.7866681,0.015209017124448
36619200,0.99933929820883,0.015373491371954,0.0043034385193773,0.0067666143321008,0.0043034385204763,-0.00094170086779272,0.00094169986389776,2.8416125341582e-09,-3.8649209907631e-09,6.616174014032e-09,-7.8892640739862e-09,-0.001122153692665,0.00112215970896,-0.0011221559445385,0.001122157535528,-0.0011221583257825,0.0011221549481739,-0.0011221605957163,0.00112215270117,-0.00094667331020469,0.00094667408145913,-0.00094667985022589,0.0009466673641561,-5.1403202663326e-09,9.3537637141157e-09,1.2250603433592e-08,-8.2891014915217e-09,-0.0017464254848378,0.0017464294616704,-0.0019216632074965,0.0019216691080196,-0.0019216698637643,0.0019216622645378,-0.0019216584918168,0.0019216739221943,-0.0019216651987924,0.0019216670269751,-0.0015475218936229,0.0015475508651131,-0.0015475418254908,0.0015475303845429,-0.0015475445889082,0.0015475276458501,-0.0015475304694918,0.0015475421137881,-1.7485467230758e-09,4.9143947581494e-09,-0.00094169882697275,0.00094170190522878,-8.3857100559316e-09,1.1937289115667e-08,-0.001122159708007,0.0011221536456479,-0.0011221529794477,0.0011221604040553,-0.001122157460889,0.0011221558828727,-0.0011221507760584,0.0011221625933888,-0.00094666547166885,0.00094668187316348,-0.00094667192012747,0.00094667539584622,0.66675281302416,128566,2924,0.003919410017666,0.0072468150213592,0.0039194100187321,37.157816522379,5.7262532179033e-05,5.7262532179033e-05,5.7262532179033e-05,4242588.6219533,0.015201334291554
36819200,0.99938440503711,0.015374114724954,0.0043036087447575,0.0067668972343404,0.0043036087458564,-0.00094112159693536,0.00094112059114391,2.8603917437677e-09,-3.8854821887148e-09,6.6243887880377e-09,-7.9004820577257e-09,-0.0011214782290242,0.0011214842632708,-0.0011214804941895,0.0011214820768814,-0.0011214828685619,0.0011214794960306,-0.001121485151744,0.0011214772361094,-0.00094603765396382,0.00094603845588544,-0.00094604423328509,0.00094603170089934,-5.1496451632869e-09,9.3640003791573e-09,1.2229687915488e-08,-8.2672938030845e-09,-0.0017457509873826,0.0017457549649811,-0.0019210521995308,0.0019210580799029,-0.0019210588414369,0.0019210512507506,-0.0019210474775642,0.0019210629006817,-0.0019210541701445,0.0019210560198382,-0.0015468188353347,0.0015468477719832,-0.0015468387220063,0.0015468273307686,-0.0015468415147969,0.00154682456743,-0.001546827377999,0.0015468390571803,-1.7717949596743e-09,4.9305863927735e-09,-0.00094111955849552,0.00094112263007017,-8.3647308226563e-09,1.1910658862049e-08,-0.0011214842556054,0.0011214781887122,-0.0011214775428071,0.0011214849313551,-0.0011214819952974,0.0011214804389674,-0.0011214753261609,0.0011214871337953,-0.00094602982285847,0.0009460462397906,-0.00094603631051732,0.00094603972402014,0.6495783416253,128566,2924,0.0039170024510298,0.0072440296826632,0.0039170024520475,36.819152622205,5.4553220977639e-05,5.4553220977639e-05,5.4553220977639e-05,4240895.2438124,0.015193615294837
37019200,0.99942686893204,0.015374742055687,0.0043037820374712,0.0067671779796451,0.0043037820385702,-0.00094151329114154,0.00094151227390471,2.8747265741886e-09,-3.9106188520715e-09,6.674036157613e-09,-7.9660352406209e-09,-0.0011217729538186,0.0011217790288132,-0.0011217752317958,0.001121776829039,-0.001121777630804,0.00112177422312,-0.0011217799276144,0.0011217719505026,-0.00094638290927633,0.00094638370345778,-0.00094638953135331,0.00094637691270198,-5.2046045211398e-09,9.4240989493637e-09,1.1995501916298e-08,-8.0281519729386e-09,-0.0017461035834907,0.0017461075658548,-0.0019214933892427,0.0019214990811784,-0.0019214998784567,0.0019214924098743,-0.0019214886303588,0.0019215039406393,-0.001921495170185,0.0019214972177242,-0.0015471153426805,0.0015471438581668,-0.0015471347589424,0.0015471238746702,-0.001547137791769,0.0015471208918446,-0.0015471235483854,0.0015471355039907,-1.8143938566234e-09,4.9276525649643e-09,-0.0009415112692648,0.00094151429593305,-8.1544545924508e-09,1.1655598232902e-08,-0.0011217789519708,0.0011217729816432,-0.0011217723934915,0.0011217795699504,-0.0011217766781365,0.0011217752446959,-0.0011217701632444,0.0011217817854253,-0.00094637515301641,0.00094639140735567,-0.00094638168210136,0.00094638485412911,0.68961816044548,128566,2924,0.0039186255794932,0.0072454921100893,0.0039186255798348,37.01626899068,5.6130151925442e-05,5.6130151925442e-05,5.6130151925442e-05,4250313.3673228,0.015198392646387
37219200,0.9994670844653,0.015375377831429,0.0043039593486981,0.0067674591329337,0.0043039593497971,-0.00094209450792301,0.00094209348067744,2.8895802447004e-09,-3.9353752295144e-09,6.7235003908584e-09,-8.02664776095e-09,-0.0011223969234504,0.0011224030383037,-0.0011223992135336,0.0011224008243879,-0.0011224016362308,0.0011223981958334,-0.0011224039460308,0.001122395909692,-0.00094698971384208,0.00094699050028931,-0.00094699637273657,0.00094698366905011,-5.2575596611025e-09,9.4823000654184e-09,1.1746641765687e-08,-7.7747417892693e-09,-0.0017468228672745,0.0017468268542611,-0.0019222391983622,0.0019222446932691,-0.001922245525891,0.0019222381903242,-0.0019222344035832,0.0019222495900627,-0.0019222407818449,0.0019222430353057,-0.0015477922308322,0.0015478202941962,-0.001547811163098,0.0015478008137463,-0.0015478144257449,0.0015477975873608,-0.0015478000741036,0.0015478123098314,-1.858506475958e-09,4.9228388731948e-09,-0.00094209250625812,0.00094209548267073,-7.9267192605207e-09,1.1369674982943e-08,-0.0011224028868,0.0011223970251334,-0.0011223964983317,0.0011224034433411,-0.0011224005995928,0.0011223993012184,-0.0011223942550144,0.0011224056717995,-0.00094698204352915,0.00094699811888522,-0.00094698861093139,0.00094699152724035,0.73362543626664,128566,2924,0.0039210404123921,0.0072484644825464,0.0039210404130955,37.343089277166,5.8744714217332e-05,5.8744714217332e-05,5.8744714217332e-05,4254571.47448,0.015206314060532
37419200,0.99950512627155,0.015375936683265,0.0043041134239682,0.0067677098342298,0.0043041134250672,-0.00094262994627165,0.00094262891299008,2.9062480921047e-09,-3.9580689894795e-09,6.7593845392657e-09,-8.0679552876217e-09,-0.0011230987227928,0.0011231048701976,-0.0011231010250803,0.0011231026420501,-0.0011231034607674,0.0011231000017276,-0.0011231057832461,0.0011230977021598,-0.00094761463786989,0.00094761543027328,-0.00094762133244881,0.00094760855827089,-5.2942993702002e-09,9.5225054081139e-09,1.1540499174848e-08,-7.56579115545e-09,-0.0017476484816237,0.0017476524715584,-0.0019230255584511,0.0019230308946083,-0.0019230317525222,0.0019230245310203,-0.0019230207388286,0.0019230358170361,-0.0019230269835781,0.0019230294017698,-0.0015485981300695,0.0015486258131815,-0.001548616667867,0.0015486067551525,-0.0015486201058375,0.0015486033314041,-0.00154860567644,0.0015486181270738,-1.896748261172e-09,4.9240767418797e-09,-0.00094262796093774,0.00094263089877587,-7.7495367655007e-09,1.1144892431855e-08,-0.0011231046602522,0.0011230988824725,-0.0011230984049097,0.0011231051674526,-0.0011231023598601,0.0011231011715681,-0.0011230961484946,0.001123107409079,-0.00094760703599404,0.00094762298172007,-0.00094761364098933,0.00094761635113558,0.68665559501945,128566,2924,0.0039232697103279,0.0072518704946175,0.003923269711277,37.673153889652,6.1385231117216e-05,6.1385231117216e-05,6.1385231117216e-05,4251826.220165,0.015214302205735
37619200,0.99954106283574,0.015376445647465,0.0043042529767106,0.0067679396929442,0.0043042529778096,-0.00094320401907254,0.00094320298197905,2.9241427318879e-09,-3.9796495507712e-09,6.7808597777211e-09,-8.0935323011438e-09,-0.0011237098817079,0.0011237160541601,-0.0011237121964429,0.0011237138121478,-0.0011237146348203,0.0011237111697824,-0.0011237169703712,0.0011237088569861,-0.00094821528000774,0.00094821609168074,-0.0009482220122216,0.0009482091801155,-5.3168516252443e-09,9.5472889169359e-09,1.138961137025e-08,-7.4129927477483e-09,-0.0017483618678747,0.0017483658597985,-0.0019237648988324,0.0019237701220574,-0.001923770995904,0.0019237638603286,-0.0019237600640852,0.0019237750603707,-0.001923766211856,0.0019237687469442,-0.0015492673852419,0.0015492947876275,-0.0015492856312514,0.0015492760342796,-0.0015492891956005,0.0015492724766241,-0.0015492747194982,0.0015492873187797,-1.9306943434587e-09,4.9296010916366e-09,-0.0009432020465644,0.00094320495494989,-7.6155702178221e-09,1.0976487149444e-08,-0.0011237158017559,0.0011237100832954,-0.0011237096465756,0.0011237162680364,-0.0011237134880764,0.0011237123854151,-0.0011237073769767,0.0011237185227629,-0.00094820773211511,0.00094822358881163,-0.00094821437566928,0.00094821691960833,0.66415286331717,128566,2924,0.0039256547082128,0.0072548185092707,0.0039256547091823,38.003339763676,6.4026718109408e-05,6.4026718109408e-05,6.4026718109408e-05,4257092.7794927,0.015222138063949
37819200,0.99957404847815,0.015376894091449,0.0043043751121585,0.0067681438660328,0.0043043751132575,-0.00094286792887841,0.00094286689972834,2.9473394492294e-09,-3.9953053899885e-09,6.7509017466868e-09,-8.0524118078173e-09,-0.0011233053307288,0.0011233115001638,-0.0011233076586199,0.0011233092448048,-0.0011233100608241,0.0011233066391134,-0.0011233124088363,0.0011233043133645,-0.00094783587573662,0.00094783675437832,-0.00094784264206854,0.000947829802343,-5.282002922907e-09,9.50939550873e-09,1.1475095650116e-08,-7.5015400076903e-09,-0.0017479644427632,0.0017479684317734,-0.0019234248714006,0.0019234301732787,-0.0019234310255968,0.0019234238535608,-0.0019234200602374,0.0019234350868573,-0.0019234262647348,0.0019234287159474,-0.001548838003052,0.0015488655481303,-0.0015488564275711,0.0015488466336069,-0.0015488598778778,0.0015488431694528,-0.0015488454678306,0.0015488579338186,-1.9414509127315e-09,4.9586094542213e-09,-0.00094286595194967,0.00094286887740946,-7.7069094928817e-09,1.1082186272811e-08,-0.0011233112798777,0.0011233055007772,-0.0011233050596262,0.0011233117505802,-0.001123308953355,0.0011233078161265,-0.0011233027767897,0.0011233140188796,-0.00094782830119038,0.00094784428212183,-0.00094783498194511,0.00094783757269165,0.64016141785084,128566,2924,0.0039242572875467,0.0072531782655212,0.0039242572891022,37.804130172314,6.243304137851e-05,6.243304137851e-05,6.243304137851e-05,4257181.4572371,0.015217633307225
38019200,0.99960427810987,0.0153773234848,0.0043044929902413,0.006768337503218,0.0043044929913403,-0.00094248485330683,0.00094248383193031,2.9711353991398e-09,-4.01125144382e-09,6.7133110312356e-09,-8.0076775226837e-09,-0.0011227761174983,0.0011227822806356,-0.0011227784591704,0.0011227800129817,-0.0011227808204525,0.001122777447219,-0.0011227831822975,0.001122775108508,-0.00094736988719136,0.00094737084112941,-0.00094737669612365,0.00094736385280788,-5.2431336112202e-09,9.4666629047112e-09,1.1620045188949e-08,-7.6496187828677e-09,-0.0017474099640207,0.0017474139497486,-0.0019229604440159,0.0019229658657041,-0.0019229666923705,0.0019229594476658,-0.0019229556591306,0.0019229707521759,-0.0019229619580211,0.0019229642826187,-0.0015482462435131,0.0015482740472516,-0.001548264943996,0.0015482548312869,-0.0015482682564058,0.0015482515286684,-0.0015482539288144,0.0015482662150329,-1.9486181133042e-09,4.9906230976107e-09,-0.00094248286703577,0.00094248581870986,-7.8270920074472e-09,1.1236255079462e-08,-0.0011227821034244,0.0011227762446926,-0.0011227757922524,0.0011227825855017,-0.0011227797637284,0.0011227785732405,-0.0011227734963597,0.0011227848666812,-0.00094736227310652,0.0009473784059952,-0.00094736899348339,0.00094737165884316,0.66569814068765,128566,2924,0.0039226619917838,0.0072508923784446,0.0039226619928457,37.559825112606,6.0478600900851e-05,6.0478600900851e-05,6.0478600900851e-05,4260094.1252701,0.015212069632273
38219200,0.99963200626605,0.015377720626215,0.0043046021731318,0.0067685162788521,0.0043046021742309,-0.00094207540293552,0.00094207438824274,2.9942185221997e-09,-4.0277166161693e-09,6.6831582164367e-09,-7.970048203763e-09,-0.0011223019111818,0.001122308071485,-0.0011223042664961,0.0011223057912641,-0.0011223065919547,0.0011223032607779,-0.0011223089671845,0.0011223009089684,-0.00094691797601638,0.00094691899783912,-0.00094692482467194,0.00094691197141753,-5.2110020001129e-09,9.4313316680562e-09,1.1756591976009e-08,-7.7889687455867e-09,-0.0017469157736196,0.0017469197565121,-0.001922512450556,0.0019225179821549,-0.0019225187876842,0.0019225114718325,-0.0019225076873567,0.0019225228460863,-0.0019225140751504,0.001922516284106,-0.0015477290911531,0.001547757141099,-0.001547748058014,0.0015477376489034,-0.0015477512391975,0.0015477344841293,-0.0015477369775373,0.0015477491030641,-1.9562269696787e-09,5.0222673406673e-09,-0.00094207340765943,0.00094207638398066,-7.9468950748693e-09,1.1384643871398e-08,-0.0011223079351506,0.0011223019979987,-0.0011223015350445,0.0011223084277582,-0.0011223055823975,0.0011223043397681,-0.0011222992261582,0.0011223107219703,-0.00094691032066648,0.00094692660407881,-0.00094691707937006,0.00094691981861303,0.67076171952366,128566,2924,0.0039209601181026,0.0072488520153606,0.0039209601190686,37.314282783933,5.8514262271461e-05,5.8514262271461e-05,5.8514262271461e-05,4257971.1749945,0.015206541118998
38419200,0.99965763415661,0.015378113086208,0.0043047112042655,0.0067686906765784,0.0043047112053646,-0.0009418888830655,0.00094188787017275,3.0147971231037e-09,-4.046394053847e-09,6.6731852488577e-09,-7.9590474682102e-09,-0.0011220785939587,0.0011220847624868,-0.0011220809628753,0.0011220824695241,-0.0011220832679797,0.0011220799587189,-0.0011220856565099,0.001122077594237,-0.00094670715246598,0.00094670822205083,-0.00094671404110289,0.00094670115876971,-5.2007903952469e-09,9.420092604696e-09,1.1823488567128e-08,-7.856619626134e-09,-0.0017466890069051,0.0017466929889356,-0.0019223209652352,0.0019223265474009,-0.0019223273457597,0.0019223199917198,-0.001922316209113,0.0019223314040703,-0.0019223226400887,0.0019223247969821,-0.0015474784993184,0.0015475066736706,-0.0015474975917706,0.0015474870424626,-0.0015475007207768,0.0015474839412012,-0.0015474864816,0.0015474985415441,-1.9699145710815e-09,5.0481775180106e-09,-0.00094188688221158,0.00094188987140426,-8.0092934715823e-09,1.1464030207602e-08,-0.0011220846462042,0.0011220786608824,-0.0011220781993047,0.0011220851374897,-0.0011220822803405,0.0011220810156812,-0.0011220758770168,0.0011220874449619,-0.00094669947201913,0.00094671585246871,-0.00094670627043479,0.00094670902829188,0.71253732562919,128566,2924,0.0039201847157457,0.007247916230126,0.0039201847165433,37.196589876076,5.7572719008609e-05,5.7572719008609e-05,5.7572719008609e-05,4256867.5800392,0.01520401590072
38619200,0.99968147400876,0.015378480210804,0.0043048132574696,0.0067688536947659,0.0043048132585687,-0.00094186119163182,0.00094186017727333,3.0338912777592e-09,-4.0669185610553e-09,6.6801425649433e-09,-7.9676300615473e-09,-0.001122143116277,0.0011221493017144,-0.0011221454984777,0.001122146995646,-0.0011221477953988,0.001122144492829,-0.0011221501972676,0.0011221421152004,-0.00094672515280931,0.0009467262548683,-0.00094673208062813,0.00094671915273022,-5.2083990710424e-09,9.4283730509105e-09,1.1826998236852e-08,-7.8595320821605e-09,-0.0017467896140735,0.0017467935967199,-0.001922393485863,0.0019223990655387,-0.0019223998684437,0.0019223925077837,-0.001922388724575,0.0019224039275212,-0.0019223951577119,0.0019223973183641,-0.001547571913503,0.0015476001001673,-0.0015475910128197,0.0015475804626498,-0.0015475941494671,0.0015475773527507,-0.0015475798950202,0.0015475919688214,-1.9893204308139e-09,5.0679441888482e-09,-0.00094185918985184,0.00094186217943447,-8.0183386711106e-09,1.1473547731795e-08,-0.0011221491864696,0.0011221431822903,-0.0011221427333855,0.0011221496650931,-0.0011221468075182,0.0011221455501168,-0.0011221403980805,0.0011221519855584,-0.00094671746638114,0.0009467338914637,-0.00094672430294207,0.00094672702919481,0.71625966322714,128566,2924,0.0039200733731689,0.0072483279873646,0.0039200733739733,37.193719618807,5.7549756950454e-05,5.7549756950454e-05,5.7549756950454e-05,4250743.9817581,0.015204210322043
38819200,0.9997036539887,0.015378822992285,0.0043049085977072,0.0067690057957716,0.0043049085988063,-0.00094183368318799,0.00094183266685119,3.0525127439321e-09,-4.0875322621608e-09,6.6903425027889e-09,-7.9797199663855e-09,-0.0011222104998046,0.0011222167036252,-0.0011222128948653,0.0011222143844196,-0.001122215186214,0.0011222118874026,-0.0011222176010671,0.0011222094965246,-0.00094674640235601,0.00094674753313399,-0.0009467533676813,0.00094674039189308,-5.2190399955577e-09,9.4400687553206e-09,1.1823390448832e-08,-7.8550605547626e-09,-0.001746898414112,0.0017469023976411,-0.0019224700619072,0.0019224756323455,-0.0019224764418584,0.0019224690774095,-0.0019224652933495,0.0019224805018836,-0.0019224717239497,0.0019224738953403,-0.0015476775496144,0.0015477057365767,-0.0015476966427994,0.0015476861090772,-0.001547699794155,0.0015476829793354,-0.0015476855175472,0.0015476976165958,-2.011243463299e-09,5.0855335974018e-09,-0.00094183168274152,0.00094183466775628,-8.0058533472345e-09,1.1455156858023e-08,-0.0011222165829059,0.0011222105713326,-0.001122210139949,0.0011222170439762,-0.0011222141906594,0.0011222129523872,-0.0011222077915474,0.0011222193775397,-0.00094673871841105,0.00094675516804729,-0.00094674559332774,0.00094674826704351,0.71844599930699,128566,2924,0.0039199628617246,0.0072487733943853,0.0039199628626862,37.19361282132,5.7548902570559e-05,5.7548902570559e-05,5.7548902570559e-05,4244833.1250724,0.015204440543617
38880000,0.99971024672475,0.015378925012413,0.004304936985168,0.0067690510409779,0.0043049369862671,-0.00094182125517914,0.00094182023805371,3.0580922816943e-09,-4.0939416576571e-09,6.6947638181454e-09,-7.9847363119631e-09,-0.0011222301228027,0.0011222363328733,-0.0011222325218525,0.0011222340096891,-0.0011222348123322,0.0011222315135445,-0.0011222372311424,0.0011222291186233,-0.00094675339743157,0.00094675453585252,-0.00094676037421503,0.00094674738262257,-5.2236257248786e-09,9.4450376231722e-09,1.181177169713e-08,-7.8431261330569e-09,-0.0017469333867669,0.0017469373706606,-0.0019224935253113,0.001922499085116,-0.0019224998975261,0.0019224925381818,-0.0019224887536432,0.0019225039578465,-0.001922495176523,0.0019224973592771,-0.0015477117057345,0.0015477398729183,-0.0015477307771918,0.0015477202701971,-0.0015477339414595,0.0015477171253793,-0.0015477196548613,0.0015477317713835,-2.0186890311417e-09,5.0900432949112e-09,-0.00094181925580299,0.00094182223789162,-7.9958711449781e-09,1.1441401911011e-08,-0.0011222362085261,0.0011222301980177,-0.0011222297733614,0.0011222366628414,-0.001122233812299,0.0011222325830802,-0.0011222274210097,0.0011222390003895,-0.00094674571675805,0.00094676216758888,-0.00094675260321518,0.00094675525481396,0.71909630226794,128566,2924,0.0039199125107859,0.0072489164747275,0.003919912511753,37.193608958183,5.7548871665466e-05,5.7548871665466e-05,5.7548871665466e-05,4242929.4957543,0.015204484330836
