time,ASR_ext,ASR_strain,ASR_strain_xx,ASR_strain_yy,ASR_strain_zz,disp_x_101,disp_x_102,disp_x_103,disp_x_104,disp_x_105,disp_x_106,disp_x_p1_neg,disp_x_p1_pos,disp_x_p2_neg,disp_x_p2_pos,disp_x_p3_neg,disp_x_p3_pos,disp_x_p4_neg,disp_x_p4_pos,disp_x_p5_neg,disp_x_p5_pos,disp_x_p6_neg,disp_x_p6_pos,disp_y_101,disp_y_102,disp_y_103,disp_y_104,disp_y_105,disp_y_106,disp_y_p1_neg,disp_y_p1_pos,disp_y_p2_neg,disp_y_p2_pos,disp_y_p3_neg,disp_y_p3_pos,disp_y_p4_neg,disp_y_p4_pos,disp_y_p5_neg,disp_y_p5_pos,disp_y_p6_neg,disp_y_p6_pos,disp_y_p7_neg,disp_y_p7_pos,disp_y_p8_neg,disp_y_p8_pos,disp_z_101,disp_z_102,disp_z_103,disp_z_104,disp_z_105,disp_z_106,disp_z_p1_neg,disp_z_p1_pos,disp_z_p2_neg,disp_z_p2_pos,disp_z_p3_neg,disp_z_p3_pos,disp_z_p4_neg,disp_z_p4_pos,disp_z_p5_neg,disp_z_p5_pos,disp_z_p6_neg,disp_z_p6_pos,humidity,ndof,nelem,strain_xx,strain_yy,strain_zz,temp,thermal_strain_xx,thermal_strain_yy,thermal_strain_zz,vonmises,vstrain
2419200,0,0,0,0,0,0,0,0,0,0,0,0,0,0,0,0,0,0,0,0,0,0,0,0,0,0,0,0,0,0,0,0,0,0,0,0,0,0,0,0,0,0,0,0,0,0,0,0,0,0,0,0,0,0,0,0,0,0,0,0,0,0,0,0,0,0,0,0,0,0,0,0,0,0,0
2619200,0.019573689849278,0.0004015233683203,0.00013384112277343,0.00013384112277343,0.00013384112277343,-3.3538436344338e-05,3.3538248514988e-05,-1.1211712466328e-10,-7.4277203297859e-11,3.295467999062e-10,-5.3137150727954e-10,-3.3331424723949e-05,3.3331509236048e-05,-3.3331410374896e-05,3.3331520150519e-05,-3.3331698751709e-05,3.3331221445235e-05,-3.3331686038937e-05,3.333123389672e-05,-3.440697186212e-05,3.4406462981265e-05,-3.4406933559555e-05,3.4406498821573e-05,-2.7446852695064e-10,5.6523972747057e-10,-2.2077587640624e-10,4.9840990661984e-10,-3.598783471905e-05,3.5988113803263e-05,-3.5415223878111e-05,3.5414990699795e-05,-3.5414994096346e-05,3.5415231861369e-05,-3.5414957113939e-05,3.5415270938893e-05,-3.5414727434516e-05,3.5415512098652e-05,-3.621899199995e-05,3.6218841611323e-05,-3.6218297192153e-05,3.6219558380229e-05,-3.6219067306569e-05,3.6218764328153e-05,-3.621825024105e-05,3.6219605466955e-05,-6.0653105768883e-11,-9.8036754584539e-11,-3.3538422519992e-05,3.3538262338029e-05,2.7907449771934e-10,-4.5163656473501e-10,-3.3331414437588e-05,3.33315125095e-05,-3.3331657007762e-05,3.3331270634307e-05,-3.3331425686328e-05,3.3331498877896e-05,-3.3331668569203e-05,3.3331257214467e-05,-3.440693619303e-05,3.4406497852905e-05,-3.4406901625617e-05,3.440653648033e-05,0.81992967057937,128566,2924,0.00013973329799049,0.00014993857923809,0.00013973329798777,31.552099927355,1.2416799418841e-05,1.2416799418841e-05,1.2416799418841e-05,601845.32533745,0.00042949761492889
2819200,0.041163518711682,0.00084158899532157,0.00027899417662635,0.00028360064210698,0.00027899417658824,-6.8922054868036e-05,6.8922402195248e-05,1.6685371400333e-10,1.799252611362e-10,-3.8510023651806e-10,7.5121215837392e-10,-6.9532892895318e-05,6.9532859139334e-05,-6.9532921330673e-05,6.9532895625236e-05,-6.9532547043064e-05,6.9533253775457e-05,-6.9532542226394e-05,6.9533258291277e-05,-7.0448669411702e-05,7.0449378957599e-05,-7.044866115042e-05,7.0449398277356e-05,3.1096814857769e-10,-8.3675959007625e-10,6.9955274113476e-09,-7.5055321993308e-09,-7.5194924778328e-05,7.5194414107188e-05,-7.4638667680636e-05,7.4643279687293e-05,-7.4643297117003e-05,7.4638416240181e-05,-7.4639027828027e-05,7.4642896489997e-05,-7.4643656612777e-05,7.4638033715055e-05,-7.5195265040864e-05,7.520860658862e-05,-7.5209285006311e-05,7.5194166391366e-05,-7.5203918572667e-05,7.5199723895412e-05,-7.5205033015471e-05,7.5198576486153e-05,1.5955295790639e-09,1.5828106619733e-09,-6.8920626780081e-05,6.8923830279625e-05,-5.4557082486337e-09,8.8956853007877e-09,-6.953370484772e-05,6.9532086213257e-05,-6.9528947855212e-05,6.9536843537876e-05,-6.9533710768024e-05,6.9532082972914e-05,-6.9528952537564e-05,6.9536840353065e-05,-7.0445051012192e-05,7.0452999002621e-05,-7.0445039300514e-05,7.0453010071728e-05,0.82138490772767,128566,2924,0.00028713475599173,0.00031326175955761,0.00028713475598475,32.739768905901,2.1918151247209e-05,2.1918151247209e-05,2.1918151247209e-05,898454.19321334,0.00088792580918178
3019200,0.06260138848641,0.0012756984066047,0.0004195751686435,0.00043654806931795,0.00041957516864323,-0.00010054850944036,0.00010054866344321,8.25858914998e-11,7.1767653678159e-11,-2.6187240408489e-10,4.2694070218476e-10,-0.00010200490001197,0.00010200482779385,-0.00010200496220758,0.00010200488195629,-0.00010200470546256,0.00010200508555093,-0.00010200470952439,0.00010200508318446,-0.00010276693057747,0.0001027673245577,-0.00010276695721768,0.00010276733232397,2.4729369010487e-10,-4.9269029665331e-10,1.332653509946e-08,-1.3559851998186e-08,-0.00011236343625471,0.00011236320159373,-0.00011193812027358,0.00011194696834086,-0.00011194678639852,0.00011193796188109,-0.00011193835956336,0.00011194672205434,-0.00011194702500491,0.00011193771628919,-0.00011189565677838,0.00011192155607871,-0.00011192166431124,0.00011189480806512,-0.00011191260397029,0.00011190418253357,-0.0001119133227258,0.00011190344534153,2.4766737056079e-09,2.4898881029098e-09,-0.00010054608157598,0.00010055109131377,-1.05271547662e-08,1.5969617245166e-08,-0.00010200684990412,0.00010200294005961,-0.00010199805575386,0.00010201173069413,-0.00010200684668038,0.00010200294481192,-0.00010199805141581,0.00010201173594638,-0.00010276022244314,0.00010277404797384,-0.00010276023607416,0.00010277403332491,0.82013325088996,128566,2924,0.00041886497093546,0.00046807011870521,0.00041886497094989,32.491742862891,1.9933942903128e-05,1.9933942903128e-05,1.9933942903128e-05,1225407.6038438,0.0013066542243138
3219200,0.083799491148787,0.0016959052303175,0.00055350830610213,0.00058888861812334,0.00055350830609205,-0.00013050673684042,0.00013050680126509,5.0835275606839e-11,1.4930778725128e-11,-1.4186983692239e-10,2.1243521520956e-10,-0.00013311359600619,0.00013311355307583,-0.00013311367799361,0.00013311361031845,-0.0001331135151515,0.00013311370610457,-0.00013311352538562,0.00013311369320981,-0.0001331918102148,0.00013319202970789,-0.00013319185948771,0.00013319201089086,1.3420359985597e-10,-2.6202726610718e-10,1.7243079959398e-08,-1.7363695938883e-08,-0.00014931834835637,0.00014931822701058,-0.00014941647443242,0.00014942789391692,-0.00014942770843449,0.00014941631466459,-0.00014941660531944,0.00014942776187601,-0.00014942783869017,0.000149416183273,-0.00014789011925457,0.0001479238123699,-0.00014792360730795,0.00014788940941423,-0.00014791230088654,0.00014790109821305,-0.00014791268511952,0.00014790070589274,2.8586911839868e-09,2.8966376427974e-09,-0.00013050386915051,0.00013050966895012,-1.3889318664117e-08,2.0258807285554e-08,-0.0001331164681099,0.00013311075234106,-0.00013310512998527,0.00013312208765733,-0.00013311645636228,0.00013311076507142,-0.00013310511703275,0.0001331221008059,-0.00013318332399624,0.0001332005290119,-0.00013318336332117,0.00013320049173484,0.80675914060652,128566,2924,0.00054363125912924,0.00062196437212623,0.00054363125912164,32.20377044255,1.7630163540401e-05,1.7630163540401e-05,1.7630163540401e-05,1496696.7104658,0.0017106904717959
3419200,0.1047342138116,0.0020983425203785,0.00067954014655053,0.00073926222728545,0.00067954014654255,-0.00015857539716929,0.00015857541550163,4.0399757476905e-11,-2.0446135741651e-11,-7.077006245148e-11,9.2217467238794e-11,-0.00016270120009528,0.00016270118323156,-0.00016270129675722,0.00016270123854022,-0.00016270118509977,0.00016270127613541,-0.0001627012023948,0.00016270125366723,-0.00016138863579458,0.00016138877029378,-0.00016138869694713,0.00016138871445023,6.8388504998704e-11,-1.339712321017e-10,1.9650756824897e-08,-1.971269719758e-08,-0.00018580503520859,0.00018580497303958,-0.00018699940056541,0.00018701240468322,-0.00018701223570791,0.0001869992463892,-0.00018699946841588,0.00018701233687685,-0.00018701230295493,0.00018699917920138,-0.00018271880055487,0.00018275727715125,-0.0001827568960222,0.00018271816068766,-0.00018274419515741,0.00018273128716035,-0.00018274439068869,0.00018273108856241,2.9813315411202e-09,3.0441540035967e-09,-0.00015857237388109,0.00015857843878692,-1.6049975463458e-08,2.2787827151257e-08,-0.00016270475651355,0.00016269770319711,-0.00016269185950289,0.00016271059822556,-0.00016270473641256,0.00016269772417593,-0.00016269183822751,0.00016271061962708,-0.00016137916685586,0.00016139823995385,-0.00016137923099763,0.00016139817883618,0.78589837060821,128566,2924,0.00066051468445248,0.00077388498536196,0.00066051468444976,31.914284250929,1.5314274007432e-05,1.5314274007432e-05,1.5314274007432e-05,1734976.6534642,0.0020971129099328
3619200,0.12592743192633,0.0024955054717695,0.00080189243955544,0.0008917205926623,0.00080189243955175,-0.00018641077424476,0.00018641082741851,7.1087357924681e-11,-1.6697132251107e-11,-1.2741437721289e-10,1.8606917226598e-10,-0.00019236306514345,0.00019236304107637,-0.00019236317072464,0.00019236309029904,-0.00019236300091465,0.00019236318538382,-0.00019236302975887,0.00019236315355714,-0.00018912190543155,0.00018912215465397,-0.00018912198554041,0.00018912205637542,1.2302504708838e-10,-2.1734461580794e-10,2.0251110678911e-08,-2.0340526454548e-08,-0.00022354201184618,0.00022354192221997,-0.00022652108334684,0.00022653452917357,-0.00022653437163392,0.00022652097464174,-0.0002265211920877,0.00022653441643287,-0.0002265344827273,0.00022652085956523,-0.00021802760641118,0.00021806720985966,-0.00021806690109693,0.00021802689311908,-0.00021805371416001,0.00021804051120888,-0.00021805404883731,0.00021804016844866,2.7337254196789e-09,2.8193548418818e-09,-0.00018640800949154,0.00018641359217229,-1.6885438762179e-08,2.3185191786019e-08,-0.00019236707753662,0.00019235910699353,-0.00019235376694519,0.00019237241563509,-0.00019236704868816,0.00019235913738025,-0.00019235373985262,0.00019237244347472,-0.00018911250543214,0.00018913154370431,-0.00018911258676597,0.00018913146373191,0.77011575672415,128566,2924,0.00077641416544286,0.00093098640573072,0.0007764141654476,31.993879438933,1.5951035511466e-05,1.5951035511466e-05,1.5951035511466e-05,1995659.2152613,0.0024869053291611
3819200,0.1477216606555,0.0029020587914243,0.00092561784162911,0.0010508231081835,0.00092561784161164,-0.0002149741260801,0.00021497422101987,1.0280749838559e-10,-7.0418195840182e-12,-2.0107277156016e-10,3.0504484209682e-10,-0.00022279334049307,0.00022279330366072,-0.00022279345602609,0.00022279334314651,-0.00022279321519806,0.00022279350858888,-0.00022279325166937,0.0002227934744,-0.00021765026028279,0.00021765062872874,-0.00021765034776455,0.00021765050962391,1.9575250817466e-10,-3.5212644886693e-10,1.9955539725107e-08,-2.0104441455511e-08,-0.00026341479333634,0.00026341464388475,-0.00026872434706228,0.0002687376370759,-0.00026873749244934,0.00026872426730155,-0.0002687245239929,0.00026873745303582,-0.00026873766691561,0.00026872408565653,-0.00025490701709281,0.00025494595645991,-0.00025494579307294,0.00025490619303613,-0.00025493265101827,0.00025491975805923,-0.00025493317902481,0.0002549192152248,2.3704208572644e-09,2.4837047480255e-09,-0.00021497173619658,0.00021497661089647,-1.6948061689349e-08,2.2546463138682e-08,-0.00022279761099678,0.00022278911230602,-0.00022278449293261,0.00022280222841119,-0.00022279757573313,0.00022278914976843,-0.00022278445443849,0.00022280226801556,-0.00021764134181374,0.00021765952947394,-0.0002176414571708,0.00021765941435586,0.77140161289957,128566,2924,0.00089533185040098,0.0010969514590376,0.0008953318503901,32.325335443032,1.8602683544253e-05,1.8602683544253e-05,1.8602683544253e-05,2273389.2782594,0.0028917927429256
4019200,0.17010556008373,0.0033182573236047,0.0010508043983159,0.001216648527004,0.0010508043982848,-0.00024379458326388,0.00024379469515984,1.2377904983904e-10,-1.1306802281729e-11,-2.3702382937194e-10,3.6026012290348e-10,-0.00025371218740409,0.00025371214547595,-0.0002537123105188,0.00025371217629086,-0.00025371203110577,0.00025371237857117,-0.00025371207986221,0.0002537123394548,-0.00024650531986045,0.0002465057607903,-0.0002465054335751,0.00024650561652686,2.2261850201052e-10,-4.1600203408518e-10,1.9460808386692e-08,-1.9645301088625e-08,-0.00030512295434907,0.00030512276909887,-0.00031312840921238,0.00031314138352481,-0.0003131412555867,0.00031312833561361,-0.00031312861586772,0.00031314116897503,-0.00031314145982278,0.00031312812353852,-0.00029324517456735,0.00029328311369379,-0.00029328301732391,0.00029324428645073,-0.00029327012725443,0.00029325760298941,-0.00029327074313495,0.00029325696810302,2.0721045606409e-09,2.2098715638336e-09,-0.00024379249088511,0.00024379678751496,-1.6759857619641e-08,2.1784138730107e-08,-0.00025371659347171,0.00025370781859223,-0.00025370379492262,0.00025372061498594,-0.00025371654996775,0.00025370786464375,-0.00025370374868904,0.00025372066277701,-0.00024649687264183,0.00024651419079835,-0.00024649701056901,0.00024651405227034,0.77299485391063,128566,2924,0.0010153070943736,0.0012705252495819,0.0010153070943277,32.662850722224,2.1302805777792e-05,2.1302805777792e-05,2.1302805777792e-05,2534812.9415967,0.0033066002163705
4219200,0.19305571769899,0.0037442692650738,0.0011773923665123,0.0013894845320973,0.0011773923664642,-0.00027280870551884,0.00027280882032467,1.3764768132133e-10,-2.237197640327e-11,-2.5389229497285e-10,3.8159865084963e-10,-0.00028532629919014,0.00028532625574029,-0.00028532642911738,0.00028532627693763,-0.00028532612890117,0.00028532649895188,-0.00028532618956729,0.00028532645500146,-0.00027559281565674,0.00027559329642051,-0.00027559295516401,0.00027559312876242,2.3178646295031e-10,-4.449560731474e-10,1.894570429718e-08,-1.9149246066839e-08,-0.00034894528441078,0.00034894508000478,-0.00035982885703556,0.00035984149418556,-0.00035984138200877,0.00035982878676784,-0.00035982907623725,0.00035984126692126,-0.00035984159895403,0.00035982856183483,-0.00033349169569566,0.00033352861432065,-0.00033352855144438,0.00033349077787423,-0.00033351596440941,0.00033350379292194,-0.00033351661671313,0.00033350311863323,1.8303858952256e-09,1.9929387301374e-09,-0.00027280684663932,0.00027281067917219,-1.6491245532254e-08,2.1049811463968e-08,-0.00028533077341613,0.0002853218597307,-0.00028531831130451,0.00028533431950512,-0.0002853307216429,0.00028532191421479,-0.00028531825707118,0.00028533437569005,-0.0002755847754227,0.0002756013208498,-0.00027558493698136,0.00027560115777101,0.77488673335632,128566,2924,0.0011360760448912,0.001452863348487,0.0011360760448278,33.000590042302,2.4004720338415e-05,2.4004720338415e-05,2.4004720338415e-05,2768794.5791958,0.0037319703492886
4419200,0.21694473278831,0.0041870680866508,0.0013071547148309,0.0015727586570498,0.0013071547147701,-0.00030292111306358,0.00030292123221083,1.5026146720815e-10,-3.0535932521226e-11,-2.8155969067661e-10,4.1491125687826e-10,-0.00031840706298782,0.00031840701481434,-0.00031840719974646,0.0003184070207518,-0.00031840687476431,0.00031840727091866,-0.00031840694017927,0.00031840722609401,-0.00030578113417811,0.00030578164767875,-0.00030578127942949,0.00030578146972834,2.575518743935e-10,-4.9091402917809e-10,1.8271449975775e-08,-1.8494239569514e-08,-0.0003959878013631,0.00039598757757713,-0.00041001372670084,0.00041002593731665,-0.00041002583554633,0.00041001367569665,-0.00041001397332046,0.00041002568205633,-0.00041002607167775,0.00041001343100741,-0.0003766128051919,0.00037664836657996,-0.00037664837007292,0.00037661186782735,-0.00037663617242934,0.00037662447877887,-0.00037663688230531,0.00037662374534109,1.5729921115581e-09,1.7644472148102e-09,-0.00030291950270951,0.00030292284248471,-1.6083598474916e-08,2.0130115261364e-08,-0.00031841155852955,0.00031840259353781,-0.00031839954214591,0.00031841460749851,-0.0003184115012674,0.00031840265354857,-0.00031839947420958,0.00031841467747444,-0.00030577355235566,0.00030578920919267,-0.00030577375484171,0.00030578900569956,0.77612068293694,128566,2924,0.0012614036055119,0.0016485613032538,0.0012614036053485,33.594772675654,2.8758181405235e-05,2.8758181405235e-05,2.8758181405235e-05,2998371.7639163,0.0041800925335209
4619200,0.24191049531619,0.0046489646829368,0.0014406413531499,0.0017676819767442,0.0014406413530428,-0.00033399105390907,0.00033399117398751,1.6533754154976e-10,-4.4527219400167e-11,-3.0467615212659e-10,4.3994847947889e-10,-0.00035273970263968,0.00035273964542697,-0.00035273983987372,0.00035273964074822,-0.00035273949292116,0.00035273991849667,-0.00035273957247648,0.00035273986042665,-0.00033689363733786,0.00033689420895466,-0.00033689381817385,0.00033689398445865,2.6938948735078e-10,-5.1927759961696e-10,1.7669516033193e-08,-1.7908127835605e-08,-0.00044614031547137,0.00044614007576345,-0.00046365493433127,0.00046366674927219,-0.00046366666138689,0.00046365489316097,-0.00046365519131855,0.00046366648387142,-0.00046366691460935,0.000463654631719,-0.00042234331582838,0.00042237769850387,-0.00042237775856623,0.00042234237677805,-0.00042236589594964,0.00042235463086814,-0.00042236665816008,0.00042235384480981,1.3821145259557e-09,1.5941355345749e-09,-0.00033398962799794,0.0003339925997578,-1.5700077087363e-08,1.9355828589639e-08,-0.00035274418421118,0.00035273523322336,-0.00035273254798369,0.00035274686710984,-0.00035274411596012,0.00035273530422639,-0.00035273247725657,0.00035274693999132,-0.00033688645032041,0.00033690136906915,-0.00033688666054074,0.00033690115819456,0.77693646782707,128566,2924,0.0013907031898058,0.0018571523896516,0.0013907031895163,34.292657595092,3.4341260760734e-05,3.4341260760734e-05,3.4341260760734e-05,3225346.8785121,0.0046493496849213
4819200,0.26792194583481,0.0051293765275331,0.0015776378530511,0.0019741008216084,0.0015776378528737,-0.00036578133351967,0.00036578144819104,1.7485467700817e-10,-5.9269257001329e-11,-3.1600819771243e-10,4.4626732508955e-10,-0.00038801280332351,0.00038801274368307,-0.0003880129440555,0.00038801272504095,-0.00038801258660191,0.00038801301978168,-0.00038801267284896,0.00038801295349787,-0.00036868451216125,0.00036868510596186,-0.0003686847080453,0.00036868485345557,2.7254043751789e-10,-5.3371642852064e-10,1.7203019542944e-08,-1.7452525592205e-08,-0.00049913591496161,0.00049913566424498,-0.00052055530682311,0.00052056681174708,-0.00052056673621751,0.00052055526784117,-0.00052055556954188,0.00052056654129695,-0.00052056699585557,0.00052055500054239,-0.00047033512013248,0.0004703685832527,-0.0004703686816219,0.00047033418575315,-0.00047035709775846,0.00047034614187392,-0.00047035787622017,0.00047034534003628,1.2575661970964e-09,1.4949618927912e-09,-0.00036578001925442,0.00036578276228669,-1.5372310378043e-08,1.8778468789044e-08,-0.00038801724536068,0.00038800836584279,-0.00038800590921873,0.000388019699791,-0.00038801716924867,0.00038800844461135,-0.00038800582936262,0.00038801978172566,-0.0003686775812049,0.00036869200371413,-0.0003686778186789,0.0003686917659428,0.77792179602907,128566,2924,0.0015229873824275,0.0020775177615183,0.0015229873820781,34.993073800977,3.994459040782e-05,3.994459040782e-05,3.994459040782e-05,3445923.7922901,0.0051366618257557
5019200,0.29493051398038,0.005625927563319,0.0017174082668282,0.0021911110298918,0.001717408266599,-0.00039810842872532,0.00039810853608109,1.8369196069515e-10,-7.5221118737403e-11,-3.1962667779443e-10,4.4270807202817e-10,-0.00042407426092821,0.00042407420223089,-0.00042407440479623,0.00042407417023796,-0.00042407404253244,0.0004240744765878,-0.00042407413554568,0.00042407440045969,-0.00040096513000936,0.00040096574116815,-0.00040096534367249,0.00040096545765196,2.6960208484137e-10,-5.3671639380023e-10,1.6856271970947e-08,-1.7111610698363e-08,-0.00055480011615408,0.00055479985958827,-0.00058059685517378,0.00058060812661089,-0.00058060805949157,0.00058059681327094,-0.00058059711839975,0.00058060785623995,-0.00058060831931326,0.00058059654638149,-0.00052035304430348,0.00052038582855209,-0.00052038594644602,0.0005203521176352,-0.0005203745791314,0.00052036384356942,-0.00052037535668923,0.00052036304278023,1.1879933052266e-09,1.4502337736444e-09,-0.00039810716906796,0.00039810979552982,-1.510260188757e-08,1.8374538955036e-08,-0.00042407864854567,0.0004240698738647,-0.00042406753521351,0.00042408098509789,-0.00042407856404191,0.00042406996083382,-0.0004240674470695,0.00042408107521335,-0.00040095836110418,0.00040097247006181,-0.00040095862310883,0.00040097220843968,0.77677326245519,128566,2924,0.0016574927312455,0.0023089229395377,0.0016574927308147,35.693584054934,4.5548672439474e-05,4.5548672439474e-05,4.5548672439474e-05,3656417.7038514,0.0056397810791431
5219200,0.32223989151099,0.0061276624417183,0.0018569752674183,0.0024137119071413,0.0018569752671586,-0.00042958838405258,0.00042958847741465,1.8305384143925e-10,-8.9045471212528e-11,-3.0380047108484e-10,4.1353959306106e-10,-0.00045941101715462,0.00045941097446818,-0.00045941117284718,0.00045941092349381,-0.00045941082409485,0.00045941122278058,-0.00045941090745675,0.00045941115000889,-0.00043240604971403,0.00043240661017251,-0.00043240623294667,0.00043240633606621,2.5075667279107e-10,-5.1890148200415e-10,1.6945176412757e-08,-1.7201893957683e-08,-0.00061115930468193,0.00061115904677347,-0.0006417037696939,0.00064171509528406,-0.00064171503592583,0.00064170370856734,-0.00064170403229486,0.00064171482661486,-0.00064171527329069,0.00064170346494821,-0.0005705928978613,0.00057062583862968,-0.00057062594419313,0.00057059198028292,-0.00057061456658642,0.0005706037017436,-0.00057061527295835,0.00057060296778894,1.2253513290942e-09,1.524111447873e-09,-0.00042958706198245,0.00042958979954331,-1.5143843740616e-08,1.8523544770824e-08,-0.0004594153872028,0.00045940666111852,-0.00045940422247032,0.00045941782368786,-0.00045941530151494,0.00045940674937826,-0.00045940411145565,0.00045941793708028,-0.00043239913461969,0.00043241348624828,-0.00043239946306361,0.00043241315429577,0.77855552787084,128566,2924,0.0017884629880732,0.0025431563836251,0.0017884629881942,36.022989858792,4.8183918870339e-05,4.8183918870339e-05,4.8183918870339e-05,3844045.8667964,0.0061388857174929
5419200,0.34964648752297,0.0066239251345357,0.0019934012755286,0.0026371225836924,0.0019934012753147,-0.00046012509312173,0.00046012517745428,1.9143470152738e-10,-1.062416485899e-10,-2.9098660224011e-10,3.9077567657132e-10,-0.00049411986792842,0.00049411983584295,-0.0004941200291104,0.00049411977528456,-0.00049411968507385,0.00049412007245431,-0.00049411977625607,0.0004941199892582,-0.00046285118294495,0.00046285175155216,-0.00046285139358201,0.00046285144815002,2.345126724753e-10,-4.9849910016526e-10,1.706154412745e-08,-1.7314206784985e-08,-0.00066779103320921,0.00066779077934004,-0.00070345137298077,0.00070346276763128,-0.00070346271088344,0.00070345129964516,-0.00070345162611312,0.00070346250823216,-0.00070346293477377,0.00070345107029901,-0.00062062860270364,0.00062066178967247,-0.00062066187088022,0.0006206276927429,-0.00062065044141218,0.00062063947248276,-0.00062065111744002,0.00062063877144225,1.2685427738559e-09,1.5914589856151e-09,-0.00046012370997402,0.0004601265607461,-1.5201525749882e-08,1.8697189138983e-08,-0.00049412422836188,0.00049411553023196,-0.00049411298641284,0.00049412676975005,-0.00049412413351164,0.00049411562710145,-0.00049411286786786,0.0004941268904842,-0.00046284416833326,0.00046285872461903,-0.00046284451799652,0.00046285837304936,0.76958003763479,128566,2924,0.0019155005209012,0.0027784597277115,0.0019155005212009,36.275830622422,5.0206644979379e-05,5.0206644979379e-05,5.0206644979379e-05,4006892.4722387,0.0066313990962089
5619200,0.37707022986649,0.0070971215924257,0.0021215843139677,0.0028539529645542,0.0021215843139038,-0.00048880316010944,0.00048880324003269,2.0203607448808e-10,-1.2111285649357e-10,-2.8099640351746e-10,3.7565582051666e-10,-0.00052782469938949,0.00052782467919855,-0.00052782486743092,0.00052782460969991,-0.00052782452361794,0.00052782490745863,-0.0005278246233772,0.00052782481520947,-0.00049119089285544,0.00049119147505682,-0.00049119113123592,0.00049119114727178,2.2344798255281e-10,-4.8303034160757e-10,1.7113051929158e-08,-1.7361490572028e-08,-0.00072348802855842,0.00072348777900526,-0.00076477543755513,0.00076478686047753,-0.00076478680580038,0.00076477535773983,-0.00076477568118879,0.0007647866108277,-0.00076478702225111,0.00076477513619115,-0.00066911969360262,0.00066915299792926,-0.00066915305800038,0.00066911878840473,-0.00066914161038773,0.0006691305935964,-0.00066914226735117,0.00066912991295818,1.2948508225234e-09,1.6420133064092e-09,-0.00048880173486649,0.00048880466546365,-1.5209574101687e-08,1.8788617765864e-08,-0.00052782904611935,0.00052782038624886,-0.00052781777158965,0.00052783165832469,-0.00052782894247908,0.00052782049159134,-0.00052781764524726,0.00052783178672891,-0.0004911838203213,0.00049119850654532,-0.00049118419294055,0.00049119813265762,0.73637049083701,128566,2924,0.0020348008662786,0.0030098157880392,0.0020348008666701,36.526740824002,5.2213926592015e-05,5.2213926592015e-05,5.2213926592015e-05,4144986.6216926,0.0071045959869084
5819200,0.404430144941,0.0075519632481428,0.0022433608818227,0.0030652414845115,0.0022433608818086,-0.00051599006468589,0.00051599014220753,2.1342595864891e-10,-1.3481832450656e-10,-2.7580474516042e-10,3.6748545545394e-10,-0.00056079309769876,0.00056079308773154,-0.0005607932725557,0.00056079300886228,-0.00056079292528885,0.00056079331113753,-0.00056079303347679,0.00056079321027254,-0.00051790177782028,0.00051790237806158,-0.0005179020419844,0.00051790202667565,2.1793715572831e-10,-4.7431553133904e-10,1.7116021042688e-08,-1.7361383452065e-08,-0.00077867912602848,0.00077867887962198,-0.00082602647570224,0.0008260378993174,-0.00082603784610052,0.00082602639434162,-0.00082602671446816,0.00082603765475333,-0.00082603805834609,0.00082602617719748,-0.00071665861774312,0.00071669193530892,-0.00071669198594538,0.00071665771863868,-0.00071668054486013,0.00071666951837734,-0.00071668119051548,0.00071666885028207,1.295694548806e-09,1.6674727744671e-09,-0.00051598862449781,0.00051599158259784,-1.5198558157305e-08,1.8805557530355e-08,-0.00056079743991698,0.00056078879798176,-0.00056078616355792,0.00056080007187731,-0.00056079732767901,0.00056078891165326,-0.00056078602911764,0.00056080020826877,-0.00051789468924819,0.0005179094261123,-0.00051789508606962,0.00051790902843791,0.71317584286646,128566,2924,0.0021478955746935,0.0032390073913191,0.0021478955751148,36.777578817988,5.4220630543901e-05,5.4220630543901e-05,5.4220630543901e-05,4266356.4992138,0.0075633331297796
6019200,0.43124195959335,0.0079890476868729,0.0023593167502462,0.003270414186378,0.0023593167502486,-0.00054132429712656,0.00054132438049754,2.306823365694e-10,-1.4687041287468e-10,-2.8871957305879e-10,3.8785727578528e-10,-0.00059231240927384,0.00059231239726822,-0.00059231258781468,0.00059231231500099,-0.00059231221927462,0.00059231263738769,-0.00059231234424453,0.00059231252155699,-0.00054267990432456,0.00054268056577461,-0.00054268021568095,0.00054268016920611,2.3376512348888e-10,-4.8854435001134e-10,1.7317244640034e-08,-1.7561041760493e-08,-0.00083268459119785,0.00083268434644314,-0.00088626871938329,0.0008862802814167,-0.00088628021497949,0.00088626864795096,-0.00088626896145461,0.00088628003288999,-0.00088628044302567,0.0008862684142636,-0.00076275327232708,0.00076278699575859,-0.0007627870543518,0.00076275236408563,-0.0007627754383102,0.00076276432918215,-0.00076277612918168,0.00076276360852836,1.3103571003853e-09,1.702611125602e-09,-0.00054132283450625,0.0005413258435491,-1.5359760902907e-08,1.9019692253986e-08,-0.00059231679466385,0.00059230806517004,-0.00059230538801211,0.00059231946938376,-0.00059231666956059,0.00059230819209975,-0.00059230525307288,0.00059231960668783,-0.00054267276330961,0.00054268767710814,-0.00054267316092695,0.00054268727532206,0.70261523626216,128566,2924,0.0022532830035769,0.0034632166270455,0.0022532830044694,36.775494814218,5.4203958513742e-05,5.4203958513742e-05,5.4203958513742e-05,4357680.5911116,0.0080017231837384
6219200,0.45743666461414,0.0084182066973183,0.002472645674321,0.0034729153484785,0.0024726456745188,-0.00056582681320029,0.0005658269013574,2.4481011030373e-10,-1.5639326076621e-10,-2.9745904250047e-10,4.0188221456833e-10,-0.00062305435672432,0.00062305435137962,-0.0006230545457897,0.00062305426046902,-0.00062305416080647,0.0006230545973573,-0.00062305429322405,0.00062305447616412,-0.00056662821005489,0.00056662890078375,-0.00056662854313756,0.00056662849171256,2.4562045755186e-10,-4.9970114562007e-10,1.743529022994e-08,-1.7678346798993e-08,-0.00088634240438962,0.0008863421604327,-0.00094623826515183,0.0009462499140069,-0.00094624983761168,0.00094623820037132,-0.00094623851395715,0.00094624965839524,-0.00094625007327768,0.00094623795827704,-0.00080835222487844,0.00080838617135591,-0.0008083862313292,0.00080835130419631,-0.00080837452909672,0.00080836336283799,-0.00080837523890571,0.00080836262161326,1.3203650240159e-09,1.7387595270932e-09,-0.00056582532905669,0.00056582838596881,-1.5453591641354e-08,1.9167029663469e-08,-0.00062305876568291,0.00062304999679503,-0.00062304728189999,0.00062306147816045,-0.0006230586336679,0.00062305013084184,-0.00062304713691688,0.00062306162579212,-0.00056662100769074,0.00056663607732126,-0.00056662143682293,0.000566635643727,0.70745492177606,128566,2924,0.0023552090812016,0.0036859284099964,0.0023552090821719,36.758761132457,5.4070089059659e-05,5.4070089059659e-05,5.4070089059659e-05,4426687.5526223,0.0084318163004048
6419200,0.48297352119737,0.008833018189393,0.0025814403127459,0.0036701375634716,0.0025814403131755,-0.00058916827575471,0.0005891683666607,2.5861665347185e-10,-1.6745483430045e-10,-3.0337696710073e-10,4.1076604982032e-10,-0.00065248336688523,0.00065248336788338,-0.00065248356542312,0.00065248326937475,-0.00065248316640738,0.00065248361876383,-0.00065248330738895,0.00065248348994248,-0.00058916754012055,0.00058916826325901,-0.00058916790287563,0.00058916783455246,2.5317227699602e-10,-5.0703480655235e-10,1.7488717064081e-08,-1.7731537445761e-08,-0.00093883083076088,0.00093883058706107,-0.0010052393301462,0.0010052510202326,-0.0010052509378969,0.0010052392697778,-0.0010052395839144,0.0010052507594752,-0.0010052511781458,0.0010052390228142,-0.00085247945580792,0.00085251350204587,-0.00085251356344432,0.00085247852712852,-0.00085250182004502,0.00085249063211014,-0.00085250254344833,0.00085248987736956,1.3214560750444e-09,1.7647674693373e-09,-0.00058916677865482,0.00058916986430526,-1.5492064497358e-08,1.9238511418047e-08,-0.00065248778769516,0.00065247900205438,-0.00065247626765226,0.00065249051977401,-0.00065248764769479,0.00065247914425561,-0.00065247611415221,0.0006524906758945,-0.00058916031271119,0.00058917546853284,-0.00058916076599959,0.00058917501088439,0.70210893135556,128566,2924,0.0024523050463725,0.0039037330632695,0.0024523050475035,36.741600452954,5.3932803623629e-05,5.3932803623629e-05,5.3932803623629e-05,4492415.0925018,0.0088473992723575
6619200,0.50822833298098,0.0092667652619429,0.0026961413203799,0.0038744826206171,0.0026961413209459,-0.00061368048836701,0.00061368057306611,2.6860799672846e-10,-1.8264804270377e-10,-2.7700853258499e-10,3.7531083392341e-10,-0.00068247492663351,0.00068247495091007,-0.0006824751344719,0.00068247484538381,-0.00068247474646319,0.00068247518147621,-0.00068247489722189,0.00068247504519196,-0.00061326360709968,0.00061326433234111,-0.00061326400574308,0.00061326388814679,2.2342382932008e-10,-4.7452120879103e-10,1.7255986483252e-08,-1.7496200420734e-08,-0.00099264209872082,0.0009926418575885,-0.0010654612645589,0.0010654727829024,-0.0010654727204914,0.0010654611881428,-0.0010654614978827,0.0010654725436916,-0.0010654729412431,0.0010654609617365,-0.00089838094723089,0.00089841455857747,-0.00089841458829413,0.00089838003353819,-0.0008984030513247,0.00089839196138499,-0.00089840372131106,0.00089839127399401,1.2927408861404e-09,1.7606786165214e-09,-0.00061367900309167,0.0006136820588696,-1.5273351833056e-08,1.8992612884013e-08,-0.00068247930153497,0.00068247063111911,-0.00068246793555685,0.00068248199476122,-0.00068247915278663,0.0006824707814226,-0.00068246777377314,0.0006824821586045,-0.0006132564607738,0.00061327144936245,-0.00061325693978938,0.00061327097082155,0.74070666480732,128566,2924,0.0025542649049484,0.0041269720660195,0.002554264906057,37.009005666857,5.6072045334855e-05,5.6072045334855e-05,5.6072045334855e-05,4542798.5279204,0.0092784555844901
6819200,0.53429710980062,0.0097475057046854,0.0028246468507174,0.0040982120025282,0.0028246468514397,-0.00064203977214537,0.00064203983292806,2.7592966778438e-10,-2.113633133837e-10,-1.7245082997714e-10,2.3985814435128e-10,-0.00071590430748074,0.000715904388904,-0.00071590451396332,0.00071590428222156,-0.00071590419310759,0.0007159045510205,-0.00071590436860335,0.00071590439154223,-0.00064182917788647,0.00064182987743906,-0.00064182966033516,0.00064182937527397,1.054555362587e-10,-3.4420411594759e-10,1.6498145165519e-08,-1.6727071367363e-08,-0.00105129940882,0.0010512991790126,-0.0011304650217205,0.0011304759548481,-0.0011304759711147,0.0011304648829064,-0.0011304651625612,0.0011304758117228,-0.0011304761241678,0.0011304647278033,-0.00094979181027247,0.00094982405368708,-0.00094982398984127,0.00094979099007247,-0.00094981309623221,0.00094980231577901,-0.00094981357100547,0.00094980184982053,1.2123579033626e-09,1.6942477662536e-09,-0.0006420383467673,0.00064204125836138,-1.4549427349835e-08,1.8114691805329e-08,-0.00071590852144243,0.00071590022644589,-0.00071589767427459,0.00071591107136431,-0.00071590835504682,0.00071590039244858,-0.00071589751901285,0.0007159112271539,-0.0006418223589931,0.00064183664211744,-0.0006418228227905,0.00064183619148765,0.79221450859629,128566,2924,0.0026722126018253,0.0043702504064734,0.002672212601974,38.074204573022,6.459363658418e-05,6.459363658418e-05,6.459363658418e-05,4613198.1704475,0.0097622155395388
7019200,0.56108128630189,0.010203445953546,0.0029443422302415,0.0043147614923035,0.0029443422310015,-0.00066932768763635,0.00066932772778264,2.768572514602e-10,-2.3203356063499e-10,-9.1989668405613e-11,1.3374246681827e-10,-0.00074909965171664,0.0007490997858807,-0.00074909986624645,0.00074909966677429,-0.00074909960078458,0.00074909988360319,-0.00074909977962334,0.00074909971738367,-0.00066876638198799,0.00066876700908683,-0.00066876686765269,0.00066876649355799,2.1597977902483e-11,-2.4164087103726e-10,1.582056246547e-08,-1.6031904425707e-08,-0.0011099097899369,0.0011099095775079,-0.0011960555568343,0.0011960659962422,-0.0011960660667348,0.0011960553820383,-0.0011960556367298,0.0011960659173889,-0.001196066159773,0.0011960552892403,-0.0009999200163029,0.00099995098861383,-0.00099995086394629,0.00099991929564244,-0.00099994053132543,0.00099993003473726,-0.0009999408227885,0.00099992976589542,1.1344533873776e-09,1.644683695128e-09,-0.00066932631762143,0.00066932909791328,-1.3951626968167e-08,1.7367230790698e-08,-0.00074910373358666,0.00074909575280266,-0.00074909333575543,0.00074910614843981,-0.00074910355986502,0.00074909592442704,-0.00074909316832781,0.0007491063153321,-0.00066875979139113,0.00066877354465302,-0.00066876029653557,0.00066877305405579,0.73335807221607,128566,2924,0.0027857093468922,0.0046132590234951,0.0027857093471627,39.158408838712,7.32672707097e-05,7.32672707097e-05,7.32672707097e-05,4668383.9157641,0.010236950275624
7219200,0.58842887257426,0.010651229795399,0.0030610483545643,0.0045291330861164,0.0030610483547183,-0.00069623679130801,0.00069623681738473,2.8221684370812e-10,-2.512702241873e-10,-3.8297478084289e-11,6.5001358459e-11,-0.00078227673865624,0.00078227690739902,-0.00078227695778095,0.00078227677595296,-0.00078227672630212,0.00078227696315285,-0.00078227691177506,0.00078227678760383,-0.00069492645185288,0.00069492704731642,-0.00069492695666106,0.00069492650435446,-2.9960124268181e-11,-1.7035521076525e-10,1.5291682429657e-08,-1.5484248296785e-08,-0.0011684688494167,0.0011684686560039,-0.0012624057734491,0.001262415839293,-0.0012624159396329,0.0012624055856495,-0.0012624058150137,0.0012624158004321,-0.0012624159917177,0.0012624055353241,-0.0010492813170461,0.001049311286495,-0.0010493111333015,0.0010492806862003,-0.001049301216266,0.0010492909681413,-0.001049301377684,0.0010492908231654,1.0674588673248e-09,1.6030354826449e-09,-0.00069623547071013,0.00069623813736995,-1.3492971344723e-08,1.6772625536597e-08,-0.00078228071881307,0.00078227297258143,-0.00078227066967235,0.0007822830194084,-0.00078228053658989,0.00078227315206266,-0.00078227049347709,0.00078228319481724,-0.00069492006076652,0.00069493338430392,-0.00069492059179644,0.00069493286871569,0.70718848351773,128566,2924,0.0028976317261611,0.0048559828043018,0.0028976317249082,40.243317675305,8.1946541402444e-05,8.1946541402444e-05,8.1946541402444e-05,4728372.7089605,0.010708443867254
7419200,0.61534351071902,0.011076869032328,0.0031713086035723,0.0047342518254394,0.0031713086033166,-0.0007207856700713,0.00072078570516883,2.9532506322424e-10,-2.5732633386104e-10,-9.2210621550866e-11,1.3288683439843e-10,-0.00081313439622251,0.0008131345461563,-0.00081313462680726,0.00081313439813301,-0.00081313435001458,0.00081313463413957,-0.0008131345330894,0.00081313445844166,-0.00071835380382111,0.00071835443940514,-0.00071835429208749,0.00071835388581189,3.7941407857211e-11,-2.2716063604556e-10,1.5339986948105e-08,-1.5521433327102e-08,-0.0012240381465763,0.0012240379644481,-0.0013262280235278,0.001326238178318,-0.0013262382291062,0.0013262278912504,-0.0013262281128734,0.0013262380900434,-0.0013262383142179,0.0013262278061692,-0.0010953803797899,0.001095410380049,-0.0010954102901786,0.0010953797515091,-0.0010954002505118,0.0010953900841373,-0.0010954004979016,0.0010953898269709,1.0486567995745e-09,1.6152121215397e-09,-0.00072078436061416,0.00072078701434089,-1.3581817435183e-08,1.683195291543e-08,-0.00081313839681803,0.00081313059038264,-0.00081312830532784,0.00081314067956222,-0.00081313821240178,0.00081313077314819,-0.00081312811188522,0.00081314087325811,-0.00071834739289233,0.00071836081828304,-0.00071834797017898,0.00071836024602471,0.68501444014383,128566,2924,0.0029997451019099,0.0050862455343032,0.0029997451013093,40.77110031979,8.616880255832e-05,8.616880255832e-05,8.616880255832e-05,4771745.8773085,0.011147726340935
7619200,0.6410848753359,0.011475423189856,0.0032742645021797,0.0049268941859009,0.0032742645017751,-0.0007428424978749,0.00074284255553446,3.2011864154745e-10,-2.6069604664304e-10,-2.0232450892477e-10,2.681928866267e-10,-0.00084125598276554,0.00084125608012185,-0.00084125622027721,0.00084125592599387,-0.00084125585228954,0.00084125625149663,-0.00084125604862697,0.00084125606554975,-0.00073914623297071,0.00073914701055936,-0.00073914676271693,0.00073914641907978,1.6002057254018e-10,-3.4953684030123e-10,1.5752077471199e-08,-1.5932920249811e-08,-0.0012758489502345,0.0012758487686999,-0.0013864503876149,0.0013864608930865,-0.0013864608597547,0.0013864503341054,-0.001386450554821,0.0013864607235753,-0.0013864610255574,0.001386450165532,-0.0011378955435941,0.0011379262808982,-0.001137926265247,0.0011378948283211,-0.0011379157908587,0.0011379056019081,-0.001137916285325,0.0011379050923953,1.0696912723828e-09,1.6583578623443e-09,-0.00074284116730906,0.00074284388569833,-1.3950962231915e-08,1.7270942121831e-08,-0.00084126006487268,0.00084125204220832,-0.00084124970099767,0.00084126240404336,-0.00084125987080347,0.00084125223584068,-0.00084124950281763,0.00084126260300134,-0.00073913972577387,0.00073915349208716,-0.00073914031128287,0.00073915290890571,0.67223241203446,128566,2924,0.0030914999806161,0.0053008744033541,0.0030914999797761,40.851784473593,8.6814275788748e-05,8.6814275788748e-05,8.6814275788748e-05,4791150.7228787,0.011550431897375
7819200,0.66561872425846,0.01185155834206,0.0033713848435941,0.0051087886551043,0.0033713848433615,-0.00076354054931503,0.00076354062391015,3.4075942703341e-10,-2.6498008684992e-10,-2.8847922423676e-10,3.7350865809629e-10,-0.00086767341626601,0.00086767347490398,-0.00086767366474486,0.0008676733152902,-0.00086767322333782,0.00086767371067932,-0.00086767342945465,0.00086767351751044,-0.00075861130393969,0.00075861218499338,-0.0007586118621909,0.00075861157482005,2.5202536591572e-10,-4.4928994950045e-10,1.6108153312679e-08,-1.6295597647913e-08,-0.0013250598813664,0.0013250596931364,-0.0014438824956443,0.001443893295435,-0.0014438932019264,0.0014438824954946,-0.0014438827241382,0.0014438930621438,-0.0014438934306031,0.0014438822615211,-0.0011779674473146,0.0011779988228185,-0.0011779988651352,0.0011779666493885,-0.0011779880388908,0.0011779777956689,-0.0011779887223498,0.0011779770933007,1.0831846401807e-09,1.6971982949607e-09,-0.00076353919907505,0.00076354197369223,-1.427793197092e-08,1.7662570785371e-08,-0.00086767757633381,0.00086766936143941,-0.0008676669735906,0.00086767996224633,-0.00086767737429788,0.00086766956412273,-0.00086766676748916,0.00086768016979675,-0.00075860469124114,0.00075861877224685,-0.00075860530206546,0.00075861816294143,0.6665508371581,128566,2924,0.00317760410945,0.005504684084067,0.0031776041084987,40.921653104838,8.7373224838702e-05,8.7373224838702e-05,8.7373224838702e-05,4789485.0217867,0.011930914273669
8019200,0.68893724172225,0.012205816608761,0.0034627799750067,0.0052802566588224,0.0034627799749314,-0.00078293662928269,0.00078293671631011,3.5921558146975e-10,-2.7159082846033e-10,-3.5254394167348e-10,4.5191958307871e-10,-0.0008925711492229,0.00089257118116891,-0.00089257140865632,0.0008925710157692,-0.00089257091010609,0.00089257146477618,-0.00089257112601061,0.00089257126470373,-0.000776799976726,0.00077680094124082,-0.00077680056339037,0.00077680031037376,3.1765354296113e-10,-5.2642021240033e-10,1.6400939147979e-08,-1.659876241179e-08,-0.0013716800247505,0.0013716798259938,-0.0014984218352463,0.0014984328691804,-0.0014984327357124,0.0014984218684879,-0.0014984221098653,0.0014984325877494,-0.0014984330104539,0.0014984215864734,-0.0012157850189817,0.0012158169227691,-0.0012158170121658,0.0012157841526327,-0.0012158059052223,0.0012157955944695,-0.0012158067280395,0.001215794749638,1.0914715265e-09,1.7306768308968e-09,-0.00078293526274633,0.00078293808252992,-1.4549765690822e-08,1.7987749616604e-08,-0.00089257537863705,0.00089256700089519,-0.000892564577729,0.00089257779995609,-0.00089257516872716,0.00089256721242788,-0.00089256436351247,0.00089257801620177,-0.00077679327546783,0.00077680761996796,-0.00077679391021935,0.0007768069852088,0.66097249361049,128566,2924,0.0032582919853194,0.0056977218798354,0.003258291984663,40.99111881234,8.7928950498723e-05,8.7928950498723e-05,8.7928950498723e-05,4784707.7072479,0.012289669495724
8219200,0.7111842829376,0.01254083198713,0.0035491114765138,0.005442609034115,0.0035491114765013,-0.00080140030629707,0.00080140039708078,3.7339422653695e-10,-2.8187868016832e-10,-3.7072612860985e-10,4.7339910830573e-10,-0.0009162940353615,0.00091629406735803,-0.00091629430730651,0.00091629389590256,-0.0009162937850221,0.00091629436351313,-0.00091629401018412,0.0009162941586739,-0.00079412191700251,0.00079412292095011,-0.00079412253259522,0.00079412227661936,3.3264597736432e-10,-5.5176987198563e-10,1.6524071425608e-08,-1.6731465032934e-08,-0.0014161925938185,0.0014161923853282,-0.0015505966818673,0.0015506078057187,-0.0015506076668811,0.001550596716962,-0.0015505969705256,0.0015506075094348,-0.0015506079533223,0.0015505964224908,-0.0012517426493053,0.0012517747781667,-0.001251774875821,0.0012517417453558,-0.0012517636772665,0.0012517533080558,-0.0012517645393698,0.0012517524299823,1.0808159824166e-09,1.7459112789443e-09,-0.00080139893710448,0.00080140176590166,-1.467331678398e-08,1.8128793780807e-08,-0.00091629831048077,0.00091628984400483,-0.00091628742267259,0.00091630073002436,-0.00091629809327192,0.00091629006315802,-0.00091628719870811,0.00091630095611023,-0.00079411517529816,0.00079412963783219,-0.0007941158395046,0.00079412897571853,0.6554913976041,128566,2924,0.003335098730112,0.0058819962283307,0.0033350987293544,41.181565985223,8.9452527881783e-05,8.9452527881783e-05,8.9452527881783e-05,4783318.4703894,0.012631816998291
8419200,0.73241103441974,0.01285961602395,0.0036312431034491,0.0055971298170216,0.0036312431034788,-0.00081898234980704,0.00081898243971715,3.8566344222084e-10,-2.950486610652e-10,-3.5928808858192e-10,4.6141433863809e-10,-0.00093881610132483,0.00093881614844835,-0.0009388163832464,0.00093881597032951,-0.00093881585902808,0.00093881643717339,-0.0009388160939281,0.00093881622494617,-0.00081064765255165,0.0008106486738307,-0.00081064829654341,0.00081064800570575,3.1735786552329e-10,-5.4357868469137e-10,1.6543939129192e-08,-1.6758163445728e-08,-0.0014586727020614,0.0014586724866618,-0.0016004899824398,0.0016005011073687,-0.0016005009831296,0.0016004900028089,-0.0016004902632228,0.0016005008188357,-0.001600501261765,0.0016004897161104,-0.0012859624497034,0.001285994625934,-0.0012859947196355,0.0012859615438135,-0.0012859835228991,0.0012859731085588,-0.0012859843626155,0.0012859722529831,1.0633988759366e-09,1.7533932345904e-09,-0.00081898098423566,0.00081898380508232,-1.4699683811809e-08,1.8149526234321e-08,-0.0009388204014976,0.00093881190199414,-0.00093880949748059,0.00093882280419635,-0.00093882017599595,0.00093881212971833,-0.00093880926539515,0.00093882303858121,-0.00081064090601366,0.0008106553977976,-0.00081064159319696,0.00081065471230712,0.65380935250364,128566,2924,0.0034082363044172,0.0060578237537945,0.0034082363040024,41.430904719164,9.1447237753312e-05,9.1447237753312e-05,9.1447237753312e-05,4783849.2722948,0.012958089865542
8619200,0.75260182323317,0.013162269603687,0.0037092044198249,0.0057438607640164,0.0037092044198453,-0.00083559600083099,0.00083559608832562,3.9699368960794e-10,-3.089376791979e-10,-3.3820160115669e-10,4.3821802174024e-10,-0.00096006909819188,0.00096006916589315,-0.00096006938958536,0.00096006898055595,-0.00096006887085766,0.00096006944022407,-0.00096006911479812,0.00096006922013534,-0.00082632509191426,0.00082632612066255,-0.00082632576068038,0.00082632542733479,2.9316171911072e-10,-5.2342069662172e-10,1.6526000264271e-08,-1.6744256930092e-08,-0.0014990379250295,0.0014990377055727,-0.001647963723345,0.0016479748195462,-0.001647974714862,0.0016479637258552,-0.001647963989472,0.0016479745458493,-0.0016479749789663,0.0016479634539089,-0.0013184150310179,0.0013184471873935,-0.0013184472719164,0.0013184141373495,-0.0013184361119039,0.0013184256606772,-0.0013184369077112,0.0013184248474291,1.0434999796871e-09,1.7585985083352e-09,-0.00083559464116069,0.00083559744785071,-1.4691890147841e-08,1.8127621174264e-08,-0.00096007341577329,0.00096006490327388,-0.00096006252123618,0.00096007579596472,-0.00096007318191311,0.00096006513949492,-0.00096006228090366,0.0009600760387287,-0.00082631834985438,0.00082633284221276,-0.00082631906080516,0.00082633213209628,0.65260875567234,128566,2924,0.0034773454562173,0.0062248662046147,0.0034773454559266,41.681683712808,9.3453469702463e-05,9.3453469702463e-05,9.3453469702463e-05,4785405.5660192,0.013267401864348
8819200,0.77174767086079,0.013438490748664,0.0037797275364933,0.0058790356756667,0.0037797275365041,-0.00085073754591872,0.00085073762993105,4.0783426224838e-10,-3.2326290811111e-10,-3.1108580188972e-10,4.0754619844927e-10,-0.00097971518409127,0.00097971527589192,-0.00097971548463253,0.00097971508288686,-0.00097971497607609,0.00097971553117035,-0.00097971522880237,0.00097971530314923,-0.00084045728697252,0.00084045831773815,-0.0008404579802885,0.00084045759950161,2.6360621442286e-10,-4.9512050905537e-10,1.6473391520079e-08,-1.6693048892462e-08,-0.0015368453150152,0.0015368450941747,-0.0016926804366008,0.001692691478588,-0.0016926913957514,0.0016926804199653,-0.001692680683775,0.0016926912242366,-0.001692691640911,0.0016926801673746,-0.0013484710692004,0.0013485031418395,-0.0013485032109448,0.0013484701956931,-0.0013484921207098,0.001348481645437,-0.0013484928593774,0.001348480888819,1.0210106733818e-09,1.7612630791049e-09,-0.00085073619436333,0.00085073898131871,-1.4651808540571e-08,1.806702654588e-08,-0.00097971951145598,0.00097971100421017,-0.00097970864999792,0.00097972186380254,-0.00097971926921746,0.00097971124878421,-0.00097970840126247,0.00097972211498073,-0.00084045056025749,0.00084046502431989,-0.00084045129566331,0.00084046428962504,0.62941992877186,128566,2924,0.0035403347418598,0.0063812932863245,0.0035403347415217,41.932516508586,9.5460132068687e-05,9.5460132068687e-05,9.5460132068687e-05,4792425.1708037,0.013553646073287
9019200,0.78944722756606,0.013694001422958,0.0038450251026717,0.006003951217595,0.0038450251026911,-0.00086383292082239,0.00086383300792277,4.2218076505345e-10,-3.3532030295899e-10,-3.273280092768e-10,4.2935521075774e-10,-0.00099681968008447,0.00099681976833392,-0.00099681998768475,0.00099681956945038,-0.00099681945754974,0.00099682003885475,-0.00099681972135051,0.00099681979967559,-0.00085257616547217,0.00085257724187779,-0.00085257688851088,0.00085257648868562,2.8054020445403e-10,-5.1523872316362e-10,1.6613152138194e-08,-1.6835941051381e-08,-0.0015709485209722,0.0015709482970944,-0.0017332607183719,0.0017332718609258,-0.0017332717690561,0.0017332607111925,-0.0017332609750715,0.0017332715963996,-0.0017332720285156,0.0017332604436385,-0.0013753636761274,0.0013753960187422,-0.0013753961114091,0.0013753627954485,-0.0013753848848726,0.0013753743569033,-0.0013753856627016,0.0013753735505643,1.0117377323035e-09,1.7757639034497e-09,-0.00086383156897455,0.00086383435979722,-1.4786261771676e-08,1.8203479567172e-08,-0.00099682405456912,0.0009968154507005,-0.00099681310026217,0.00099682640312318,-0.00099682380226923,0.00099681570582154,-0.00099681284616008,0.00099682666011078,-0.00085256940829878,0.00085258398876871,-0.00085257015774194,0.00085258323520048,0.62977530289866,128566,2924,0.0035948169157563,0.0065223718365672,0.0035948169158035,41.74999150012,9.3999932000958e-05,9.3999932000958e-05,9.3999932000958e-05,4792897.065282,0.013807157361214
9219200,0.80569399415123,0.013925908568992,0.0039041765363529,0.0061175554962649,0.0039041765363743,-0.00087537828257356,0.00087537837245909,4.3586698164378e-10,-3.4657268510609e-10,-3.4479188945107e-10,4.5040453656823e-10,-0.0010120540672048,0.0010120541536377,-0.0010120543845274,0.0010120539478213,-0.0010120538324484,0.0010120544375335,-0.001012054104987,0.0010120541903031,-0.00086322942381188,0.0008632305384382,-0.00086323017121586,0.00086322976344762,2.9768360626428e-10,-5.3638225483148e-10,1.6748093267953e-08,-1.6974542933071e-08,-0.0016018735892497,0.0016018733616986,-0.001770206098449,0.0017702173413019,-0.0017702172401948,0.0017702061001739,-0.0017702063675647,0.0017702170638163,-0.0017702175119862,0.0017702058196869,-0.001399560901318,0.0013995934966705,-0.0013995936053066,0.0013995600037386,-0.0013995822645879,0.0013995716797088,-0.0013995830784756,0.0013995708338332,1.0011114492637e-09,1.7904123119619e-09,-0.00087537692979262,0.00087537972503169,-1.4920533869167e-08,1.8344291103277e-08,-0.0010120584891921,0.0010120497894375,-0.0010120474433674,0.0010120608333508,-0.0010120582285633,0.0010120500530999,-0.0010120471810167,0.0010120610987643,-0.00086322262554766,0.00086323732763195,-0.00086322340073933,0.00086323654767447,0.62300580454179,128566,2924,0.0036428540272062,0.006650283313488,0.003642854026767,41.452104100336,9.1616832802685e-05,9.1616832802685e-05,9.1616832802685e-05,4791171.8243136,0.014034306750811
9419200,0.82059713217813,0.014136232618665,0.0039577233802972,0.0062207858580081,0.0039577233803593,-0.00088569116756444,0.00088569125814128,4.4862614995002e-10,-3.5847833827937e-10,-3.5150826507923e-10,4.5729332859095e-10,-0.0010257583097941,0.0010257584013945,-0.0010257586371839,0.0010257581878679,-0.0010257580714944,0.0010257586894934,-0.0010257583522143,0.0010257584352751,-0.00087282570261511,0.00087282684538477,-0.00087282647469907,0.00087282605050884,3.0291578218961e-10,-5.4497857174931e-10,1.682607416369e-08,-1.7055572497438e-08,-0.0016299915136563,0.0016299912829981,-0.0018039480955234,0.0018039593938859,-0.0018039592911961,0.0018039480986958,-0.0018039483697375,0.0018039591111912,-0.001803959566905,0.0018039478141549,-0.0014214140663561,0.0014214468085264,-0.001421446919397,0.0014214131556687,-0.00142143552607,0.0014214248965426,-0.001421436352883,0.0014214240409475,9.8699746947466e-10,1.8018622917666e-09,-0.0008856898157944,0.00088569260963384,-1.5002338540738e-08,1.8428090236042e-08,-0.0010257627672727,0.0010257540025963,-0.0010257516670298,0.001025765100933,-0.0010257624988224,0.0010257542740958,-0.0010257513955042,0.0010257653754963,-0.00087281887873771,0.00087283365814212,-0.00087281968169013,0.00087283285185419,0.61620824266069,128566,2924,0.0036857657134476,0.0067665683288759,0.0036857657128727,41.151331157594,8.9210649260756e-05,8.9210649260756e-05,8.9210649260756e-05,4790675.9669442,0.014239316323389
9619200,0.83426281499658,0.014326873873729,0.0040061724539097,0.0063145289658109,0.0040061724540086,-0.00089490744084422,0.00089490753080844,4.6090780606085e-10,-3.7126762425474e-10,-3.4876689473062e-10,4.5376389588328e-10,-0.0010380771420854,0.0010380772436169,-0.0010380774787062,0.0010380770224331,-0.0010380769061633,0.0010380775297486,-0.0010380771955412,0.001038077267688,-0.00088130576420684,0.00088130692899644,-0.00088130656245207,0.00088130611135957,2.9866971131592e-10,-5.4292482243112e-10,1.6857192782861e-08,-1.7088774145092e-08,-0.0016555425014702,0.0016555422686926,-0.0018347581424775,0.0018347694586215,-0.0018347693604575,0.0018347581417918,-0.0018347584147234,0.0018347691779703,-0.0018347696340456,0.0018347578594614,-0.0014411621869265,0.0014411949922475,-0.0014411951016047,0.0014411612747734,-0.0014411836934449,0.001441173033579,-0.0014411845142678,0.0014411721854492,9.703107694827e-10,1.8103025300514e-09,-0.00089490609256866,0.00089490887886249,-1.5039129692558e-08,1.845840570294e-08,-0.0010380816241777,0.0010380728210855,-0.0010380705014717,0.0010380839418563,-0.0010380813474812,0.0010380731008624,-0.0010380702214875,0.0010380842249073,-0.00088129893219393,0.00088131375079499,-0.00088129975988538,0.00088131291985818,0.60938040795402,128566,2924,0.003724116884407,0.0068722247765774,0.003724116883949,40.850450012613,8.6803600100907e-05,8.6803600100907e-05,8.6803600100907e-05,4790311.1738781,0.014424330956301
9819200,0.84655578575879,0.014499247134618,0.004050085247354,0.0063990766397931,0.004050085247471,-0.0009024355757998,0.00090243566880684,4.7337364161497e-10,-3.8176780689463e-10,-3.6610344310178e-10,4.7761443088346e-10,-0.0010483381082667,0.0010483382095032,-0.0010483384562368,0.0010483379774908,-0.0010483378624844,0.0010483385061967,-0.0010483381558728,0.0010483382395112,-0.0008881910473785,0.0008881922378088,-0.00088819185209318,0.00088819140195556,3.1798167546632e-10,-5.6601058282404e-10,1.6981816093469e-08,-1.7217113363123e-08,-0.0016777269997545,0.0016777267633794,-0.0018617260116089,0.0018617374259466,-0.0018617373174317,0.0018617260215702,-0.0018617263008498,0.0018617371274528,-0.0018617376011792,0.0018617257282527,-0.0014581508484867,0.0014581838732734,-0.0014581840133135,0.0014581499318236,-0.0014581724894079,0.0014581617726417,-0.0014581733343219,0.0014581608849903,9.593378234597e-10,1.8263960629969e-09,-0.00090243422748303,0.00090243701702223,-1.5177521629956e-08,1.8595940966165e-08,-0.0010483426374175,0.001048333741035,-0.0010483314263207,0.0010483449501825,-0.0010483423553868,0.0010483340267953,-0.0010483311343309,0.0010483452458556,-0.00088818416345893,0.00088819911978807,-0.00088818502447721,0.00088819824999774,0.61213711391526,128566,2924,0.0037554501095902,0.006963950012401,0.0037554501093535,40.184066496686,8.1472531973485e-05,8.1472531973485e-05,8.1472531973485e-05,4784147.51106,0.014580999487255
10019200,0.85760543173879,0.01465522047995,0.0040899422903697,0.0064753358990651,0.0040899422905155,-0.00090899577808688,0.00090899587240573,4.8761333081731e-10,-3.9471407622719e-10,-3.7699616951293e-10,4.8933480309884e-10,-0.0010573638527494,0.00105736395471,-0.0010573642084682,0.0010573637168144,-0.0010573635973003,0.0010573642611377,-0.0010573639027907,0.0010573639842066,-0.00089422730375659,0.00089422853909623,-0.00089422814707514,0.00089422767151702,3.2680851304779e-10,-5.7822956383668e-10,1.7073711840117e-08,-1.7312061165238e-08,-0.0016974676715767,0.0016974674321334,-0.0018857517554305,0.0018857632330402,-0.0018857631201994,0.0018857517690727,-0.0018857520490213,0.0018857629298162,-0.0018857634131895,0.0018857514661882,-0.0014732579515996,0.0014732911578522,-0.0014732913033689,0.0014732570198727,-0.0014732797037697,0.0014732689490379,-0.0014732805771169,0.0014732680346975,9.4693761816717e-10,1.8369866452427e-09,-0.00090899443065763,0.0009089972194347,-1.5259581079067e-08,1.8680648834085e-08,-0.0010573684159454,0.0010573594521776,-0.0010573571466782,0.0010573707195396,-0.0010573681239893,0.0010573597478679,-0.0010573568490577,0.0010573710207295,-0.00089422040837195,0.00089423543078412,-0.00089422128412225,0.00089423454734924,0.61574677289363,128566,2924,0.0037827573457657,0.0070455619372534,0.0037827573449216,39.479883342978,7.5839066743826e-05,7.5839066743826e-05,7.5839066743826e-05,4775154.7874342,0.014719255605519
10219200,0.86755113612744,0.014796723990902,0.0041262214235416,0.0065442811436349,0.0041262214237252,-0.00091477120456344,0.0009147712984071,4.9987960734098e-10,-4.0716381375684e-10,-3.782987019494e-10,4.892654442177e-10,-0.0010653825504518,0.0010653826597977,-0.0010653829151975,0.001065382414811,-0.0010653822947537,0.0010653829671825,-0.0010653826089733,0.0010653826821418,-0.00089958285568792,0.0008995841156343,-0.00089958372516125,0.00089958322645621,3.2644352637435e-10,-5.8004774882179e-10,1.71123153591e-08,-1.7352625687432e-08,-0.0017151169953403,0.0017151167538488,-0.001907232364049,0.0019072438667615,-0.001907243755298,0.0019072323759343,-0.0019072326584626,0.0019072435627845,-0.0019072440485712,0.001907232072858,-0.0014868023637196,0.0014868356451374,-0.0014868357869203,0.0014868014233525,-0.0014868241668382,0.0014868133858978,-0.0014868250443819,0.0014868124727245,9.3149427494703e-10,1.8469566941291e-09,-0.00091476985902979,0.00091477264363275,-1.5302714052913e-08,1.8722484586984e-08,-0.0010653871386189,0.0010653781331688,-0.0010653758408637,0.0010653894290169,-0.0010653868379969,0.0010653784374597,-0.0010653755349067,0.0010653897384727,-0.00089957594823563,0.00089959101788624,-0.00089957685001996,0.00089959010973163,0.62007023224108,128566,2924,0.0038068000175495,0.0071185197319653,0.0038068000169045,38.774685140434,7.0197481123468e-05,7.0197481123468e-05,7.0197481123468e-05,4764366.638669,0.014842118489592
10419200,0.87653092032137,0.014925638997774,0.0041593888198911,0.0066068613577896,0.0041593888200933,-0.00091993348177482,0.00091993357365029,5.1137103222334e-10,-4.2036247870977e-10,-3.667061610421e-10,4.7480726916973e-10,-0.0010725926523314,0.0010725927772817,-0.0010725930265343,0.0010725925242739,-0.0010725924058773,0.0010725930756148,-0.0010725927282812,0.0010725927833648,-0.00090441918945957,0.00090442046209223,-0.00090442008386226,0.00090441955273825,3.132257638738e-10,-5.6747459704059e-10,1.7083809350704e-08,-1.7324752285004e-08,-0.001731018581074,0.0017310183389082,-0.0019265528976564,0.001926564373491,-0.0019265642715959,0.0019265529006764,-0.0019265531842257,0.0019265640776788,-0.0019265645559727,0.0019265526068324,-0.0014990803414004,0.0014991135738788,-0.0014991137041701,0.0014990794053942,-0.0014991021248864,0.0014990913350225,-0.0014991029775478,0.0014990904512982,9.1263857474962e-10,1.8535563278692e-09,-0.00091993214085325,0.00091993491432034,-1.5282315422607e-08,1.8692118982763e-08,-0.0010725972498972,0.0010725882419264,-0.0010725859694098,0.0010725995204617,-0.0010725969412893,0.0010725885540786,-0.0010725856543891,0.0010725998388816,-0.00090441228974821,0.00090442735615332,-0.00090441321881016,0.00090442642195001,0.6250614310474,128566,2924,0.0038282920066935,0.0071842459281212,0.0038282920061707,38.099643030111,6.4797144240892e-05,6.4797144240892e-05,6.4797144240892e-05,4751974.8472009,0.014952475918883
10619200,0.88491478326511,0.015043787495304,0.0041896955732027,0.006664396348691,0.0041896955734099,-0.00092565166029881,0.00092565174397114,5.1979851419234e-10,-4.3609916725231e-10,-3.0560697221089e-10,4.0267338575153e-10,-0.0010803049886654,0.0010803051600011,-0.0010803053727541,0.0010803048970718,-0.0010803047878601,0.0010803054120726,-0.0010803051167548,0.0010803051139713,-0.00090984040553163,0.00090984164640163,-0.0009098413224334,0.00090984072314934,2.4957790956618e-10,-4.9914356885954e-10,1.6793166620346e-08,-1.7029917199602e-08,-0.0017468641399169,0.0017468639019154,-0.0019455784461125,0.0019455896911988,-0.0019455896311205,0.0019455784118902,-0.0019455786915749,0.0019455894378465,-0.0019455898706594,0.0019455781642749,-0.0015115187847688,0.001511551484538,-0.0015115515636296,0.0015115178932332,-0.0015115402758753,0.0015115295482341,-0.0015115409972788,0.0015115288064919,8.7922710001709e-10,1.8466040053295e-09,-0.00092565033486428,0.00092565306905289,-1.5016323157841e-08,1.8385853389198e-08,-0.0010803095368983,0.0010803006735739,-0.0010802984484273,0.0010803117600617,-0.001080309221121,0.0010803009923311,-0.0010802981224739,0.0010803120889597,-0.0009098335878751,0.00090984845302972,-0.00090983455080127,0.00090984748932169,0.61395112851879,128566,2924,0.0038520898779161,0.0072497356533459,0.0038520898772015,38.029466826729,6.4235734613831e-05,6.4235734613831e-05,6.4235734613831e-05,4746668.6413562,0.01506728708438
10819200,0.89274442581973,0.015152251923114,0.0042174320836747,0.0067173877555619,0.0042174320838775,-0.00093089114632763,0.00093089122382004,5.2990628623405e-10,-4.5240882986469e-10,-2.5421860335867e-10,3.4527292188454e-10,-0.0010873935482321,0.0010873937565817,-0.0010873939384243,0.0010873934854848,-0.0010873933815111,0.0010873939737715,-0.0010873937203571,0.0010873936648414,-0.00091476787599713,0.00091476910535213,-0.00091476882060118,0.00091476814685856,1.9757186525631e-10,-4.4141765322899e-10,1.6527907385128e-08,-1.6759758228479e-08,-0.0017615636891347,0.001761563456116,-0.0019632895929325,0.0019633006280323,-0.0019633006023436,0.0019632895302335,-0.001963289800724,0.0019633004132819,-0.0019633008078779,0.0019632893176071,-0.0015230075584658,0.0015230397794689,-0.0015230398294199,0.0015230067207892,-0.0015230287713992,0.0015230181232604,-0.0015230293889915,0.0015230174828875,8.48709078432e-10,1.8401442759492e-09,-0.00093088983736232,0.00093089253258609,-1.4768760658647e-08,1.8091232255105e-08,-0.0010873980482009,0.0010873893180875,-0.0010873871379182,0.00108740022638,-0.0010873977226823,0.0010873896464694,-0.0010873868055579,0.0010874005616795,-0.00091476115175914,0.0009147758206334,-0.00091476213161635,0.00091477483852923,0.6038675424514,128566,2924,0.0038738962017212,0.007310484689306,0.0038738962013102,37.97365789369,6.3789263149522e-05,6.3789263149522e-05,6.3789263149522e-05,4744104.3247143,0.015173253895623
11019200,0.90005314897223,0.015251641447052,0.0042427622998177,0.0067661168472227,0.004242762300012,-0.00093566438219677,0.00093566445464974,5.4002873019887e-10,-4.6749542130666e-10,-2.1451267537141e-10,2.9983995750688e-10,-0.0010938718332971,0.0010938720735458,-0.0010938722312334,0.0010938717933227,-0.0010938716945428,0.0010938722622196,-0.0010938720414526,0.0010938719445831,-0.00091921668773586,0.00091921790810855,-0.00091921765459199,0.0009192169235072,1.5784041414252e-10,-3.9608131204662e-10,1.6294325800473e-08,-1.6521164176128e-08,-0.0017751526771181,0.0017751524491844,-0.0019797469422793,0.0019797577987171,-0.0019797577989552,0.0019797468593139,-0.0019797471226588,0.0019797576121812,-0.001979757976449,0.0019797466755509,-0.0015335589206741,0.0015335907112722,-0.0015335907354609,0.0015335581237889,-0.0015335798823687,0.0015335693118978,-0.0015335804165284,0.0015335687559986,8.1956449649588e-10,1.8363110004741e-09,-0.00093566308809857,0.00093566574857279,-1.4554376361793e-08,1.7836780307628e-08,-0.0010938762918278,0.0010938676756299,-0.0010938655372741,0.0010938784282135,-0.0010938759577144,0.0010938680122839,-0.0010938651963331,0.0010938787718634,-0.00091921003983033,0.00091922454649283,-0.00091921104495441,0.0009192235390932,0.59320720174411,128566,2924,0.0038937625715917,0.0073666409768163,0.0038937625712307,37.918381224278,6.3347049794224e-05,6.3347049794224e-05,6.3347049794224e-05,4743519.674936,0.015270628476514
11219200,0.90686346501369,0.015344187547263,0.0042663736057668,0.0068114403355351,0.0042663736059613,-0.00094003744679557,0.00094003751691227,5.5147253448821e-10,-4.8125250401769e-10,-1.9355032213743e-10,2.7686596152316e-10,-0.0010997923854899,0.0010997926463129,-0.0010997927911292,0.0010997923568776,-0.0010997922611034,0.0010997928200997,-0.0010997926160201,0.0010997924937505,-0.00092329299477518,0.00092329422242499,-0.00092329398410589,0.00092329321137151,1.3803097613078e-10,-3.7194847181774e-10,1.6129638614142e-08,-1.635257830931e-08,-0.001787701413354,0.0017877011894073,-0.001995001530051,0.0019950122668157,-0.0019950122807175,0.001995001439649,-0.0019950016961384,0.0019950120950078,-0.0019950124438837,0.0019950012706406,-0.0015432693311887,0.0015433008130991,-0.0015433008277252,0.0015432685617803,-0.0015432901059412,0.001543279606404,-0.0015432905953588,0.0015432790922417,7.9445690684639e-10,1.8365193486864e-09,-0.00094003616474087,0.00094003879872484,-1.4405188083275e-08,1.7655614302536e-08,-0.0010997968158,0.0010997882760656,-0.0010997861709574,0.0010997989189378,-0.0010997964732306,0.0010997886210599,-0.00109978582153,0.0010997992710135,-0.00092328640461048,0.00092330080296416,-0.00092328743446489,0.00092329977062726,0.5926323670475,128566,2924,0.0039119633692661,0.0074184964192047,0.0039119633687599,37.837579572144,6.2700636577149e-05,6.2700636577149e-05,6.2700636577149e-05,4743632.988589,0.015360260935379
11419200,0.91316540151185,0.0154304078099,0.0042884315936275,0.0068535446224416,0.0042884315938306,-0.00094385680171738,0.00094385687242416,5.6459647656446e-10,-4.9399131286737e-10,-1.9903915161371e-10,2.8350264618876e-10,-0.0011050398504676,0.0011050401157179,-0.0011050402638104,0.0011050398181932,-0.0011050397212774,0.0011050402942341,-0.0011050400853875,0.001105039958352,-0.00092687380209225,0.00092687506138069,-0.00092687481656795,0.00092687402031498,1.4491607297227e-10,-3.7690244830069e-10,1.6068528952882e-08,-1.6289649481861e-08,-0.0017990634609482,0.001799063238855,-0.0020088599999532,0.0020088707003886,-0.0020088707093594,0.0020088599161249,-0.0020088601691794,0.0020088705253848,-0.0020088708771657,0.002008859742431,-0.0015520231058521,0.0015520544668199,-0.0015520544886286,0.0015520223394089,-0.0015520437918777,0.0015520333493995,-0.0015520442940611,0.0015520328196175,7.7958592023858e-10,1.8462839574565e-09,-0.00094385552317269,0.00094385815075762,-1.4345984180678e-08,1.7587709316168e-08,-0.0011050442691087,0.001105035756967,-0.0011050336658055,0.0011050463582871,-0.0011050439175975,0.0011050361109536,-0.001105033308943,0.0011050467178579,-0.00092686724047235,0.00092688161423348,-0.00092686829141566,0.00092688055949721,0.596262385586,128566,2924,0.0039278621147527,0.0074654451326222,0.0039278621143048,37.630509275018,6.1044074200144e-05,6.1044074200144e-05,6.1044074200144e-05,4740966.9437106,0.015440241511711
11619200,0.91899716279144,0.015510572179898,0.0043089865075354,0.0068925991646154,0.0043089865077472,-0.0009473589778197,0.00094735904990701,5.7785462484596e-10,-5.0570134772231e-10,-2.1325754364681e-10,2.9864348094077e-10,-0.0011098974528493,0.0011098977183709,-0.001109897874862,0.0011098974125008,-0.0011098973141249,0.0011098979064763,-0.0011098976865417,0.0011098975626026,-0.00093019291188966,0.00093019420646957,-0.00093019395131651,0.00093019314324665,1.5974266873583e-10,-3.9135652526797e-10,1.6041054520795e-08,-1.6261596679737e-08,-0.0018095561438202,0.0018095559223231,-0.00202164122139,0.0020216519141366,-0.0020216519132651,0.0020216411484415,-0.0020216414006017,0.0020216517290605,-0.0020216520904344,0.0020216409652765,-0.0015601291924972,0.0015601604892175,-0.0015601605182727,0.0015601284149533,-0.0015601498245931,0.0015601394294649,-0.0015601503559685,0.0015601388729138,7.6302010559593e-10,1.8553005998338e-09,-0.00094735770362457,0.00094736032383712,-1.4323346155783e-08,1.7558182396076e-08,-0.0011099018707179,0.0011098933602632,-0.0011098912849155,0.0011099039441188,-0.0011099015108225,0.0011098937225393,-0.0011098909192591,0.0011099043123324,-0.00093018636696049,0.00093020074097985,-0.00093018744465613,0.00093019966073146,0.59873359519942,128566,2924,0.0039424416573572,0.0075087984808262,0.0039424416568055,37.420434387634,5.9363475101069e-05,5.9363475101069e-05,5.9363475101069e-05,4736532.8711375,0.015513896466866
11819200,0.92439517250328,0.015585253018182,0.0043281854662797,0.0069288820854038,0.0043281854664985,-0.00095057841667018,0.0009505784905265,5.9135026504135e-10,-5.1737002800421e-10,-2.304865089222e-10,3.175582331669e-10,-0.0011143912621823,0.0011143915260626,-0.0011143916928008,0.0011143912117366,-0.001114391111698,0.0011143917260338,-0.001114391492396,0.0011143913739782,-0.00093327864961761,0.00093327998219417,-0.00093327971347334,0.0009332788953155,1.7766427536069e-10,-4.0952585508977e-10,1.6035922806978e-08,-1.6256512098067e-08,-0.0018192580576021,0.0018192578360055,-0.0020334383371702,0.0020334490387121,-0.0020334490264548,0.0020334382765136,-0.0020334385283983,0.002033448841463,-0.0020334492153505,0.002033438081475,-0.0015676578857385,0.0015676891599397,-0.0015676892004894,0.0015676570956055,-0.0015676784881309,0.0015676681313263,-0.0015676790550452,0.0015676675404979,7.4798670574384e-10,1.8656288692208e-09,-0.0009505771457213,0.00095057976126343,-1.4321566514856e-08,1.7551660397424e-08,-0.0011143956843393,0.001114387163815,-0.0011143851013919,0.0011143977447858,-0.0011143953161813,0.0011143875343837,-0.0011143847271511,0.0011143981216153,-0.0009332721145598,0.00093328650637582,-0.00093327321791009,0.00093328540085433,0.60218092659485,128566,2924,0.0039558451896985,0.0075488816746366,0.0039558451892587,37.210248143777,5.7681985150213e-05,5.7681985150213e-05,5.7681985150213e-05,4730796.1935689,0.015581845541813
12019200,0.9294005224042,0.015656608197521,0.0043466758702109,0.006963256456877,0.0043466758704331,-0.00095367508111379,0.00095367515652431,6.0485633305422e-10,-5.2920207955596e-10,-2.4683036077948e-10,3.3504216986816e-10,-0.00111867887286,0.001118679135537,-0.001118679312035,0.0011186788130928,-0.0011186787111067,0.0011186793468772,-0.0011186791005271,0.0011186789864741,-0.00093632161487062,0.00093632298581284,-0.00093632270498278,0.00093632187495872,1.9416390372014e-10,-4.2670366714293e-10,1.6044877755586e-08,-1.6265913069462e-08,-0.0018283764705184,0.0018283762484421,-0.0020444513147612,0.0020444620332705,-0.0020444620106584,0.0020444512651234,-0.0020444515169856,0.0020444618248839,-0.0020444622107462,0.0020444510587683,-0.0015748338167367,0.0015748650975795,-0.0015748651467641,0.0015748330118882,-0.0015748544093484,0.001574844079411,-0.0015748550109229,0.0015748434568051,7.3404633560339e-10,1.8768862990847e-09,-0.00095367381213189,0.00095367642532365,-1.4331872018089e-08,1.7560732800657e-08,-0.0011186833031548,0.0011186747652452,-0.001118672713641,0.0011186853527809,-0.0011186829265053,0.0011186751442768,-0.0011186723310551,0.0011186857379051,-0.00093631508483353,0.00093632950411222,-0.00093631621308468,0.00093632837444383,0.61929850684344,128566,2924,0.0039687372252226,0.0075865517072113,0.0039687372248496,37.027893778928,5.6223150231421e-05,5.6223150231421e-05,5.6223150231421e-05,4723402.749859,0.015646307105282
12219200,0.93405976446112,0.015725158049829,0.0043645762929438,0.0069960054637166,0.0043645762931682,-0.00095675254223393,0.00095675261859682,6.1802907418749e-10,-5.4129579775932e-10,-2.5666013413923e-10,3.4556812630742e-10,-0.0011229279161863,0.0011229281814941,-0.0011229283639389,0.0011229278508665,-0.0011229277477077,0.0011229283996628,-0.0011229281457152,0.0011229280309574,-0.00093943043963694,0.00093943184342554,-0.00093943155564296,0.00093943070897711,2.0406200651636e-10,-4.3704883675216e-10,1.6048949078681e-08,-1.6270271275263e-08,-0.0018371338360365,0.0018371336136587,-0.0020548862708785,0.0020548969987184,-0.002054896969849,0.002054886227818,-0.0020548864797748,0.002054896783556,-0.00205489717658,0.0020548860147347,-0.0015818550776075,0.0015818863597717,-0.0015818864140452,0.0015818542637818,-0.0015818756629738,0.0015818653499028,-0.0015818762852606,0.0015818647083355,7.2007013419175e-10,1.8881654335002e-09,-0.00095675127490649,0.00095675388574808,-1.4337407364635e-08,1.7564613855949e-08,-0.0011229323548697,0.0011229238029911,-0.0011229217621159,0.0011229343937513,-0.0011229319697823,0.0011229241904352,-0.0011229213711214,0.0011229347872543,-0.00093942391336793,0.0009394383573264,-0.00093942506678186,0.00093943720317331,0.63789981401851,128566,2924,0.0039815496177943,0.0076227263023146,0.0039815496174384,36.914253833674,5.5314030669392e-05,5.5314030669392e-05,5.5314030669392e-05,4712610.5186611,0.015709091097716
12419200,0.93839729480032,0.01578693196562,0.0043805990573639,0.007025733850669,0.0043805990575876,-0.00095948833052049,0.0009594884080174,6.3111226556931e-10,-5.5340003186925e-10,-2.6342850226361e-10,3.5436146085356e-10,-0.0011268575788158,0.0011268578482324,-0.0011268580350238,0.0011268575092554,-0.0011268574053051,0.0011268580716185,-0.0011268578116297,0.0011268576944419,-0.00094218275301045,0.00094218418698755,-0.0009421838924897,0.00094218302709957,2.1167309212057e-10,-4.4500990554697e-10,1.6062862178057e-08,-1.628450617222e-08,-0.0018452754128947,0.0018452751902085,-0.0020645522068029,0.0020645629488712,-0.0020645629153871,0.0020645521688158,-0.0020645524207397,0.0020645627284062,-0.0020645631271043,0.002064551950486,-0.001588349597246,0.0015883809014979,-0.0015883809648586,0.0015883487816364,-0.0015883701910001,0.0015883598834722,-0.0015883708268359,0.0015883592244391,7.0668240269798e-10,1.9000610750138e-09,-0.00095948706467736,0.00095948967367377,-1.4353567473484e-08,1.7577379556657e-08,-0.0011268620294265,0.0011268534580905,-0.0011268514269505,0.0011268640585462,-0.0011268616359788,0.0011268538540313,-0.0011268510276288,0.001126864460528,-0.00094217622541313,0.00094219070324246,-0.00094217740322636,0.00094218952394575,0.61826606765051,128566,2924,0.0039929439238729,0.0076563518968106,0.0039929439234887,36.802252138712,5.4418017109695e-05,5.4418017109695e-05,5.4418017109695e-05,4699318.0043891,0.015766410351411
12619200,0.94243550813513,0.015841436407082,0.0043945758569362,0.0070522846929844,0.004394575857161,-0.0009618647518761,0.00096186482992266,6.4394646396578e-10,-5.6581183173198e-10,-2.6900150486882e-10,3.6061163285627e-10,-0.0011303013306429,0.0011303016051219,-0.0011303017954461,0.0011303012579732,-0.0011303011532897,0.0011303018325308,-0.0011303015681335,0.0011303014469933,-0.00094449652094818,0.00094449798382905,-0.000944497684878,0.00094449679893597,2.1739962735532e-10,-4.5104293512441e-10,1.6080671788809e-08,-1.6302554077987e-08,-0.001852642120296,0.0018526418973619,-0.0020734121730663,0.002073422930765,-0.0020734228937537,0.0020734121388461,-0.0020734123908294,0.002073422706333,-0.0020734231092952,0.002073411916552,-0.001594105493779,0.0015941368290706,-0.0015941368969575,0.0015941046744331,-0.0015941261034829,0.0015941157951372,-0.0015941267507122,0.0015941151243489,6.9351034778271e-10,1.9121330341327e-09,-0.00096186348691057,0.00096186609469948,-1.4372548421629e-08,1.7595124382079e-08,-0.0011303057948056,0.0011302972015733,-0.001130295180033,0.0011303078143185,-0.0011303053929196,0.0011302976059809,-0.0011302947723325,0.0011303082247017,-0.00094448999010979,0.00094450450390543,-0.00094449119230027,0.00094450329958158,0.58731202473442,128566,2924,0.0040028424758405,0.0076867767094406,0.0040028424754516,36.690311123432,5.3522488987453e-05,5.3522488987453e-05,5.3522488987453e-05,4691551.2960084,0.015817441824535
12819200,0.94616125340193,0.015892111976258,0.004407613144708,0.0070768856866167,0.0044076131449336,-0.00096376287916255,0.00096376295913258,6.5736112251747e-10,-5.7779040925163e-10,-2.7975156551148e-10,3.7514800601534e-10,-0.0011330468048478,0.0011330470808514,-0.0011330472781222,0.0011330467253261,-0.0011330466192559,0.0011330473168182,-0.0011330470424485,0.0011330469225398,-0.00094630318010836,0.00094630467672685,-0.00094630436570734,0.00094630346355176,2.2966199121911e-10,-4.6426080338643e-10,1.61509669054e-08,-1.6373806778678e-08,-0.0018589694464883,0.0018589692226325,-0.0020811826916339,0.0020811935036613,-0.0020811934590841,0.0020811826648086,-0.0020811829175077,0.0020811932706415,-0.0020811936828543,0.0020811824338302,-0.0015989560089318,0.0015989874741402,-0.0015989875585588,0.0015989551875195,-0.001598976694228,0.0015989663629999,-0.0015989773631352,0.0015989656622386,6.8356652198072e-10,1.9272073697738e-09,-0.00096376161306412,0.00096376422510153,-1.444450788314e-08,1.766879656678e-08,-0.0011330512959804,0.0011330426507382,-0.0011330406326868,0.0011330533119738,-0.0011330508858057,0.0011330430637133,-0.0011330402169131,0.0011330537307175,-0.0009462966275064,0.00094631122123907,-0.00094629785229903,0.00094630999154203,0.59134553808426,128566,2924,0.0040107494041072,0.0077129108949184,0.0040107494038278,36.40681824746,5.1254545979684e-05,5.1254545979684e-05,5.1254545979684e-05,4687670.1423909,0.015860066796944
13019200,0.94955566196639,0.01593843447401,0.004419554069567,0.0070993263346448,0.004419554069798,-0.00096502215460359,0.00096502223721039,6.7104037374154e-10,-5.8921405095506e-10,-2.9910357922884e-10,3.9822913813789e-10,-0.001135068266643,0.0011350685395594,-0.0011350687488645,0.0011350681759125,-0.0011350680674234,0.0011350687896656,-0.0011350684988952,0.0011350683871957,-0.00094747846039216,0.00094747999667668,-0.00094747966846478,0.00094747875814778,2.5007629534084e-10,-4.8664465022234e-10,1.6279206506416e-08,-1.6503822320851e-08,-0.0018641931348994,0.001864192909266,-0.0020877053072789,0.0020877162173209,-0.0020877161596609,0.0020877052920771,-0.0020877055472159,0.0020877159697485,-0.0020877163971557,0.002087705046861,-0.001602862176218,0.0016028938784496,-0.0016028939803215,0.0016028613401864,-0.00160288300172,0.0016028726246687,-0.0016028837102811,0.0016028718798443,6.7678152993404e-10,1.9457868714061e-09,-0.00096502088409136,0.00096502350760439,-1.4569903462097e-08,1.7806326176894e-08,-0.0011350727986654,0.0011350640688993,-0.0011350620481587,0.0011350748173668,-0.0011350723802637,0.0011350644903334,-0.0011350616239123,0.0011350752447867,-0.00094747186592088,0.0009474865849779,-0.00094747311508512,0.00094748532902574,0.59302696890754,128566,2924,0.0040160014653278,0.0077344850208121,0.0040160014650658,35.874048830766,4.6992390646126e-05,4.6992390646126e-05,4.6992390646126e-05,4678730.2787729,0.015892665516577
13219200,0.95265177247509,0.015980859160279,0.0044305168957077,0.0071198253686242,0.0044305168959472,-0.00096608698579509,0.00096608706926301,6.8425869249899e-10,-6.0125739405454e-10,-3.11021081854e-10,4.097682448614e-10,-0.0011368315702524,0.0011368318447939,-0.0011368320612872,0.0011368314735322,-0.0011368313631665,0.0011368321029118,-0.0011368318037102,0.0011368316923763,-0.00094847767877337,0.00094847925025603,-0.0009484789158656,0.00094847799011491,2.6066830329168e-10,-4.9884371878446e-10,1.6379457515052e-08,-1.6605325140539e-08,-0.0018688534677916,0.0018688532408913,-0.0020935348060998,0.0020935457889305,-0.0020935457237989,0.0020935347962351,-0.0020935350534025,0.0020935455338433,-0.0020935459688988,0.0020935345432514,-0.0016063381069989,0.0016063699990253,-0.0016063701002454,0.001606337252486,-0.0016063590499466,0.0016063486277259,-0.001606359784062,0.0016063478635627,6.6808410094887e-10,1.9623823892783e-09,-0.00096608571100115,0.00096608834389727,-1.4659800403337e-08,1.7910833136192e-08,-0.001136836135776,0.0011368273408197,-0.0011368253203363,0.0011368381542143,-0.0011368357087201,0.0011368277707297,-0.0011368248876604,0.001136838589832,-0.00094847105357992,0.00094848586707814,-0.00094847232856873,0.00094848458774017,0.59512403800532,128566,2924,0.0040204443090475,0.0077537316096601,0.0040204443087151,35.335317284794,4.2682538278349e-05,4.2682538278349e-05,4.2682538278349e-05,4668836.7813906,0.0159212554172
13419200,0.95547994872697,0.016019006072179,0.0044403525358622,0.0071383010002108,0.0044403525361058,-0.00096694882081418,0.00096694890443659,6.9700690974456e-10,-6.1374788132351e-10,-3.1545414186824e-10,4.1406933305434e-10,-0.0011383462880317,0.0011383465682554,-0.001138346787882,0.0011383461890517,-0.0011383460782289,0.00113834682947,-0.0011383465273292,0.0011383464106216,-0.00094927557916823,0.00094927717869037,-0.00094927684200725,0.0009492758949557,2.6465724066767e-10,-5.0356545465632e-10,1.644993415298e-08,-1.6676442616243e-08,-0.0018729920626118,0.0018729918350303,-0.0020987359827846,0.0020987470146244,-0.0020987469466491,0.0020987359744825,-0.002098736233032,0.0020987467566082,-0.0020987471946156,0.0020987357186716,-0.0016093888189932,0.0016094208464353,-0.0016094209481444,0.0016093879579272,-0.0016094098484529,0.0016093993871448,-0.0016094105919566,0.0016093986154201,6.5739106524244e-10,1.976950674479e-09,-0.00096694754381149,0.00096695018130412,-1.472776273184e-08,1.7985149495845e-08,-0.00113835088241,0.0011383420359624,-0.0011383400196045,0.0011383528966999,-0.0011383504469404,0.0011383424743025,-0.0011383395785612,0.0011383533407264,-0.00094926893016271,0.0009492838191357,-0.00094927023026665,0.00094928251524266,0.58608287710936,128566,2924,0.0040240427381321,0.0077708224767401,0.0040240427378528,34.796364944913,3.8370919559306e-05,3.8370919559306e-05,3.8370919559306e-05,4658412.2279572,0.015945939853912
13619200,0.95808095798633,0.016053648721072,0.0044492725316038,0.0071551036576197,0.0044492725318486,-0.00096782276462575,0.00096782284663447,7.0910976372391e-10,-6.2716351838557e-10,-3.0538777180621e-10,4.013576349174e-10,-0.0011397979467831,0.0011397982410686,-0.0011397984547692,0.001139797854252,-0.0011397977439507,0.0011397984953446,-0.0011397982022869,0.0011397980676208,-0.00095008071958282,0.00095008233731273,-0.00095008201099817,0.00095008102899584,2.5313567099666e-10,-4.9128683223039e-10,1.6448744919839e-08,-1.6674514587143e-08,-0.0018768463556017,0.0018768461287185,-0.0021035878398119,0.0021035988628081,-0.0021035988018438,0.0021035878241651,-0.0021035880818275,0.0021035986133311,-0.0021035990426623,0.0021035875757567,-0.0016122328840488,0.0016122649187466,-0.0016122650070295,0.0016122320269133,-0.0016122539269252,0.0016122434460801,-0.0016122546508554,0.0016122426986422,6.4320733810807e-10,1.9877393102815e-09,-0.00096782148808023,0.00096782412303225,-1.4721055026403e-08,1.7977790679114e-08,-0.0011398025520026,0.0011397936980195,-0.0011397916931009,0.0011398045548703,-0.0011398021075318,0.0011397941451943,-0.0011397912441882,0.0011398050066006,-0.00095007407206211,0.00095008897493169,-0.00095007539609152,0.00095008764882233,0.57889843261515,128566,2924,0.0040276890272361,0.0077867400934727,0.0040276890269383,34.355695580624,3.4845564644991e-05,3.4845564644991e-05,3.4845564644991e-05,4651420.6850398,0.015969529125747
13819200,0.96048737551043,0.01608568214715,0.0044575317313365,0.0071706186842328,0.0044575317315811,-0.0009687393122985,0.00096873939177027,7.2049910541786e-10,-6.4093714347957e-10,-2.8535555005073e-10,3.7821421246249e-10,-0.001141226436475,0.0011412267510918,-0.0011412269530007,0.0011412263558905,-0.0011412262479896,0.0011412269910172,-0.0011412267145749,0.0011412265549246,-0.00095093245387821,0.00095093407943485,-0.00095093376993518,0.00095093274717083,2.3263338179811e-10,-4.6896334755047e-10,1.6385628651998e-08,-1.6609802717046e-08,-0.0018804866209942,0.0018804863957222,-0.0021081665976454,0.0021081775660295,-0.0021081775180922,0.0021081665699041,-0.0021081668258618,0.0021081773307381,-0.0021081777447886,0.0021081663360591,-0.0016149392684942,0.0016149711932992,-0.0016149712661491,0.0016149384273984,-0.0016149602561748,0.0016149497765873,-0.0016149609385035,0.0016149490727005,6.260509448969e-10,1.9958822286496e-09,-0.00096873803891856,0.00096874066501815,-1.4664043172547e-08,1.7911203068604e-08,-0.0011412310398127,0.0011412222100594,-0.0011412202221006,0.0011412330256527,-0.0011412305869745,0.00114122266549,-0.0011412197646789,0.0011412334858727,-0.00095092582260199,0.00095094070038657,-0.00095092717203513,0.00095093934936701,0.578421478534,128566,2924,0.004031510109653,0.0078017747297276,0.0040315101093892,34.003478417825,3.2027827342599e-05,3.2027827342599e-05,3.2027827342599e-05,4647136.2708602,0.015992576032366
14019200,0.96271605017207,0.016115346271883,0.0044651892441087,0.0071849677834219,0.0044651892443522,-0.00096955262441679,0.00096955270162924,7.3185141104654e-10,-6.5459987850807e-10,-2.6558856738172e-10,3.5626108546839e-10,-0.0011425126412812,0.00114251297623,-0.0011425131663448,0.0011425125720706,-0.0011425124669318,0.0011425132018435,-0.0011425129413954,0.0011425127577048,-0.00095168864879518,0.00095169028128906,-0.00095168998681209,0.00095168892442166,2.1309528132072e-10,-4.4738630177323e-10,1.631022772121e-08,-1.6532681184821e-08,-0.0018838043455766,0.0018838041220549,-0.002112354808077,0.0021123657148341,-0.0021123656795859,0.0021123547692608,-0.0021123550232218,0.0021123654929286,-0.0021123658924436,0.0021123545496061,-0.0016173992966752,0.0016174310859496,-0.0016174311477367,0.0016173984752896,-0.0016174202116912,0.001617409742349,-0.001617420851849,0.0016174090795699,6.0816787652119e-10,2.0034060954945e-09,-0.00096955135540597,0.00096955397053944,-1.4598101717366e-08,1.7831756559763e-08,-0.0011425172397642,0.0011425084399779,-0.0011425064708067,0.0011425192068333,-0.0011425167788344,0.0011425089034616,-0.0011425060045602,0.0011425196758822,-0.00095168203726281,0.00095169688323056,-0.0009516834122818,0.00095169550592294,0.57820996861895,128566,2924,0.004034901325512,0.0078154770479743,0.0040349013253087,33.653384477903,2.9227075823228e-05,2.9227075823228e-05,2.9227075823228e-05,4642580.3367078,0.016013395748547
14219200,0.96478198872312,0.016141866546392,0.0044719853334885,0.007197895879172,0.0044719853337314,-0.00097021735439862,0.00097021742955921,7.4345538048338e-10,-6.6825265088451e-10,-2.4828358246176e-10,3.3681221320632e-10,-0.0011436255136206,0.0011436258671127,-0.0011436260468288,0.0011436254544142,-0.0011436253512112,0.0011436260804671,-0.0011436258341922,0.0011436256278499,-0.00095228335996772,0.0009522850031172,-0.00095228472232967,0.00095228362059472,1.9570501875778e-10,-4.280098539457e-10,1.6235282366915e-08,-1.6455994340786e-08,-0.0018867829361079,0.0018867827143415,-0.0021161454534581,0.0021161562997141,-0.0021161562757102,0.0021161454050155,-0.0021161456564601,0.002116156090253,-0.0021161564766831,0.0021161451975311,-0.0016195657249559,0.0016195973795806,-0.0016195974302664,0.0016195649203749,-0.0016195865656531,0.0016195761122507,-0.0016195871695769,0.0016195754852421,5.9047789567877e-10,2.0108960679944e-09,-0.00097021608969257,0.00097021869415355,-1.4528462497914e-08,1.7749608117378e-08,-0.0011436301053619,0.0011436213373482,-0.0011436193867763,0.0011436320538489,-0.0011436296359049,0.0011436218092793,-0.0011436189121783,0.0011436325311704,-0.00095227677167647,0.0009522915818425,-0.00095227817095025,0.00095229018009744,0.55856305878788,128566,2924,0.0040376746187989,0.0078277782527419,0.0040376746185712,33.303369141468,2.6426953131743e-05,2.6426953131743e-05,2.6426953131743e-05,4637960.2437737,0.016031536733612
14419200,0.96666694838013,0.016166314388996,0.0044782749087919,0.0072097645711687,0.0044782749090357,-0.00097025411695584,0.00097025419365447,7.5616243259681e-10,-6.8007283783135e-10,-2.521478357589e-10,3.4492965516522e-10,-0.0011439671712629,0.0011439675309607,-0.0011439677134942,0.001143967108646,-0.0011439670061322,0.0011439677472666,-0.0011439674957947,0.0011439672870717,-0.00095221889451809,0.00095222056157271,-0.00095222027237037,0.00095221915338844,2.0256960763754e-10,-4.3493009665468e-10,1.6245604338115e-08,-1.6466602798235e-08,-0.001888756676426,0.001888756454475,-0.0021188994285499,0.002118910286955,-0.0021189102587973,0.0021188993844785,-0.0021188996368727,0.0021189100717322,-0.0021189104629965,0.0021188991733542,-0.001620808814077,0.0016208404808849,-0.001620840549505,0.0016208080179249,-0.0016208296596597,0.0016208192088193,-0.0016208302681677,0.0016208185646603,5.7773762914436e-10,2.0239377214669e-09,-0.00097025285382878,0.0009702554566834,-1.455042761913e-08,1.7764505143774e-08,-0.001143971776138,0.0011439629883113,-0.0011439610465392,0.0011439737158058,-0.0011439712993127,0.0011439634679471,-0.0011439605625658,0.0011439742028894,-0.0009522122979302,0.00095222715214275,-0.0009522137232512,0.00095222572044254,0.56383118266313,128566,2924,0.0040378370798762,0.0078359310503086,0.004037837079654,32.647687079763,2.1181496638102e-05,2.1181496638102e-05,2.1181496638102e-05,4632118.6286147,0.016040155008109
14619200,0.96837368299407,0.016188566353059,0.0044840153356789,0.0072205356814523,0.0044840153359279,-0.00096990150109155,0.00096990157979704,7.7003043498849e-10,-6.9220252001468e-10,-2.6851291079504e-10,3.6392129286607e-10,-0.001143884078019,0.0011438844353543,-0.0011438846275735,0.0011438840057776,-0.0011438838998267,0.0011438846645717,-0.0011438843997094,0.0011438841946039,-0.00095177221872508,0.00095177392876052,-0.00095177362605654,0.00095177249032798,2.1842733948883e-10,-4.5229739250748e-10,1.6304126671357e-08,-1.6526435531151e-08,-0.0018900944212839,0.0018900941980827,-0.0021209283490571,0.0021209392547517,-0.0021209392165852,0.0021209283147521,-0.0021209285667709,0.002120939029863,-0.0021209394331068,0.0021209280908496,-0.001621504014274,0.0016215357893879,-0.0016215358709622,0.0016215032072682,-0.0016215249157396,0.0016215144618491,-0.0016215255602093,0.0016215137790915,5.6716991677483e-10,2.0377808356584e-09,-0.00096990023746257,0.00096990284327559,-1.4599070591297e-08,1.7816298786707e-08,-0.0011438887018692,0.0011438798734763,-0.0011438779371856,0.0011438906361744,-0.001143888215566,0.0011438803627201,-0.0011438774463345,0.0011438911300025,-0.00095176561567052,0.00095178052607183,-0.00095176706044361,0.00095177907477555,0.56645233632129,128566,2924,0.0040363819367874,0.007841456291789,0.0040363819364542,31.82329765878,1.4586381270237e-05,1.4586381270237e-05,1.4586381270237e-05,4621811.2287945,0.016042815987391
14819200,0.96992179317477,0.016208876406036,0.0044892711950886,0.0072303340156055,0.0044892711953418,-0.000969455061805,0.00096945514171849,7.8325484344777e-10,-7.0380201618963e-10,-2.829285845072e-10,3.7826175859822e-10,-0.0011436829360321,0.0011436832947265,-0.0011436834957708,0.0011436828564015,-0.0011436827497711,0.0011436835326978,-0.0011436832570258,0.0011436830559433,-0.000951244155226,0.00095124589777287,-0.00095124558628995,0.000951244442343,2.3254923289821e-10,-4.6775870364563e-10,1.6344461902438e-08,-1.6567687556871e-08,-0.0018911507138874,0.0018911504897744,-0.0021225919946834,0.0021226029379986,-0.0021226028901145,0.002122591969091,-0.0021225922236049,0.0021226027018391,-0.0021226031150528,0.0021225917368363,-0.0016219943699465,0.0016220262109537,-0.0016220262960055,0.001621993542783,-0.0016220153073063,0.0016220048496343,-0.0016220159787578,0.0016220041450755,5.5562103964944e-10,2.0519445004856e-09,-0.00096945379674187,0.00096945640654489,-1.4639026349029e-08,1.7864671809953e-08,-0.0011436875773658,0.0011436787156181,-0.0011436767848512,0.001143689506321,-0.001143687083663,0.0011436792122017,-0.0011436762841827,0.0011436900099487,-0.00095123753752358,0.00095125250679768,-0.00095123901313076,0.00095125102726881,0.569616852694,128566,2924,0.0040345365228805,0.0078458186818025,0.0040345365223835,30.994827888581,7.9586231086465e-06,7.9586231086465e-06,7.9586231086465e-06,4610371.2078643,0.016043502026371
15019200,0.97130717815423,0.016226984009749,0.0044939604355131,0.0072390631384676,0.0044939604357687,-0.00096842250825329,0.00096842259224609,7.9787303753925e-10,-7.1515797717475e-10,-3.0372171184291e-10,4.0666134418684e-10,-0.0011428529218434,0.0011428532742638,-0.0011428534888604,0.0011428528299802,-0.0011428527186452,0.001142853531548,-0.0011428532354,0.0011428530428707,-0.00095012424845009,0.00095012603844655,-0.00095012570286741,0.00095012454499813,2.5564431624162e-10,-4.9230892635906e-10,1.6440397956598e-08,-1.6665224665885e-08,-0.0018913751096238,0.001891374883959,-0.0021233451245305,0.0021233561434219,-0.0021233560818311,0.002123345112748,-0.0021233453673368,0.0021233558943091,-0.0021233563251296,0.0021233448623065,-0.0016217360274374,0.0016217680478479,-0.0016217681639048,0.0016217351969589,-0.0016217570606451,0.0016217465904777,-0.0016217577778236,0.0016217458247779,5.473533758845e-10,2.0682962964624e-09,-0.0009684212419726,0.00096842385824967,-1.4729080182711e-08,1.7955822901475e-08,-0.0011428575917559,0.0011428486675864,-0.0011428467373505,0.0011428595206871,-0.0011428570885402,0.0011428491751486,-0.0011428462313828,0.0011428600308999,-0.00095011761121841,0.00095013267070464,-0.00095011910219302,0.0009501311707957,0.56737759893041,128566,2924,0.0040302567798639,0.0078467439091024,0.0040302567792507,29.89179187739,-8.6566498087919e-07,-8.6566498087919e-07,-8.6566498087919e-07,4593596.9920763,0.016035748416066
15219200,0.97252857300281,0.016242261436909,0.0044978844006777,0.0072464926352874,0.0044978844009437,-0.0009667272743515,0.00096672736093283,8.1158691609519e-10,-7.2643151548821e-10,-3.3161747137822e-10,4.3723387157006e-10,-0.0011412919368246,0.0011412922816704,-0.0011412925128604,0.0011412918278961,-0.0011412917143857,0.0011412925570099,-0.0011412922393116,0.0011412920615,-0.00094831081659223,0.00094831265159535,-0.0009483122954834,0.00094831113786597,2.833158288959e-10,-5.2346171860382e-10,1.6571186454805e-08,-1.6799058846813e-08,-0.001890654828898,0.001890654600097,-0.0021230964866579,0.0021231076099306,-0.002123107530478,0.0021230964899178,-0.0021230967488604,0.0021231073395022,-0.0021231077914077,0.0021230962204032,-0.0016205996148454,0.0016206318687629,-0.0016206320024687,0.0016205987577937,-0.0016206207791728,0.00162061027444,-0.0016206215540144,0.0016206094529822,5.4124975459961e-10,2.0875722288606e-09,-0.00096672600276669,0.00096672863232302,-1.4855168887435e-08,1.8098155639147e-08,-0.0011412966454988,0.0011412876361069,-0.0011412857021214,0.0011412985777419,-0.0011412961342523,0.0011412881508646,-0.0011412851863485,0.0011412990969615,-0.00094830413828976,0.00094831932675728,-0.00094830565586453,0.00094831779976839,0.5439118054989,128566,2924,0.0040232239730969,0.0078437669314187,0.0040232239726611,28.486037246866,-1.2111702025068e-05,-1.2111702025068e-05,-1.2111702025068e-05,4572564.0358476,0.016018434994902
15419200,0.97360767872215,0.01625762495307,0.0045019542395419,0.0072537164737184,0.0045019542398101,-0.00096504932865674,0.00096504941724258,8.253364740299e-10,-7.3777490016401e-10,-3.4907670390771e-10,4.5592788477491e-10,-0.0011396017568314,0.0011396021001453,-0.0011396023420071,0.0011396016382075,-0.0011396015224821,0.0011396023871631,-0.0011396020560526,0.0011396018841758,-0.0009465230692029,0.0009465249438725,-0.00094652457656466,0.00094652341081339,3.0017739502193e-10,-5.4304071159667e-10,1.6664121116892e-08,-1.6894214914331e-08,-0.0018896447473623,0.0018896445163814,-0.0021225297200338,0.0021225409159496,-0.0021225408252279,0.0021225297322748,-0.0021225299945657,0.0021225406327668,-0.002122541097612,0.0021225294510108,-0.001619262611501,0.0016192950348469,-0.0016192951736616,0.0016192617301799,-0.0016192838773408,0.001619273342393,-0.0016192846880647,0.00161927248852,5.3250659634416e-10,2.1043767540361e-09,-0.00096504805300778,0.00096505069254828,-1.4943540109166e-08,1.8201686734134e-08,-0.0011396064961841,0.0011395974238929,-0.0011395954893964,0.0011396084287726,-0.0011396059767728,0.001139597946842,-0.0011395949647575,0.0011396089568646,-0.00094651636149058,0.00094653164507452,-0.00094651790714557,0.00094653009347746,0.61487580368846,128566,2924,0.0040162591023392,0.0078395968033844,0.0040162591016125,27.073064906759,-2.341548074593e-05,-2.341548074593e-05,-2.341548074593e-05,4555766.905461,0.01600004424747
15619200,0.97458041600679,0.016271761898658,0.0045057186625716,0.0072603245732457,0.0045057186628411,-0.00096382529938046,0.00096382538325279,8.3386611184135e-10,-7.4983125867705e-10,-3.3867974500745e-10,4.3391162659177e-10,-0.0011386455485118,0.0011386459126012,-0.0011386461467591,0.0011386454386692,-0.0011386453299931,0.0011386461826396,-0.0011386458664145,0.0011386456802176,-0.00094531779473236,0.00094531966232419,-0.00094531931673683,0.00094531813633057,2.871005257466e-10,-5.2877812619121e-10,1.6599620700806e-08,-1.6827980550157e-08,-0.0018893487034235,0.0018893484739173,-0.0021224417040859,0.00212245285573,-0.0021224527719287,0.0021224417083594,-0.0021224419758437,0.0021224525758675,-0.0021224530299471,0.0021224414424728,-0.0016187429184789,0.0016187752082944,-0.0016187753070179,0.0016187420197998,-0.0016187641150887,0.0016187535809781,-0.0016187648945638,0.0016187527903589,5.1601581144617e-10,2.1179010141679e-09,-0.00096382402129572,0.00096382666128668,-1.4912900883291e-08,1.8184390945538e-08,-0.0011386502934085,0.0011386412301041,-0.0011386393087685,0.0011386522131096,-0.001138649769477,0.0011386417566494,-0.0011386387675991,0.0011386527565001,-0.00094531107066558,0.00094532637427196,-0.0009453126683117,0.00094532477949411,0.62694797126513,128566,2924,0.0040111864977703,0.00783836655211,0.0040111864977006,25.964187688844,-3.2286498489245e-05,-3.2286498489245e-05,-3.2286498489245e-05,4528143.9423811,0.015988490957987
15819200,0.97549536521738,0.016286004621047,0.004509564501935,0.0072668756169075,0.0045095645022047,-0.00096381087917139,0.00096381095378903,8.4344874366286e-10,-7.6668090758826e-10,-2.8738333626686e-10,3.6532661575795e-10,-0.0011389748262783,0.0011389752300514,-0.0011389754318604,0.0011389747484048,-0.0011389746449171,0.0011389754609479,-0.001138975192453,0.0011389749498583,-0.00094540536093816,0.00094540721741444,-0.00094540692612376,0.00094540567297199,2.2900437836755e-10,-4.659849495973e-10,1.6345532754194e-08,-1.6569168724269e-08,-0.0018904123424227,0.0018904121171465,-0.0021236473300203,0.0021236582756537,-0.0021236582280436,0.0021236472983156,-0.0021236475608136,0.0021236580375367,-0.0021236584478256,0.0021236470720239,-0.00161961438803,0.0016196462203716,-0.0016196462426693,0.0016196135011383,-0.0016196353248476,0.0016196248496947,-0.0016196360062023,0.0016196241965543,4.892925020639e-10,2.115624189409e-09,-0.00096380960906088,0.00096381222408899,-1.46581866904e-08,1.7915423085587e-08,-0.0011389795219049,0.0011389705955012,-0.0011389687100194,0.001138981405229,-0.0011389789877719,0.0011389711304785,-0.0011389681608711,0.0011389819553595,-0.00094539872233527,0.00094541383637989,-0.00094540034485798,0.00094541222449246,0.66919700029865,128566,2924,0.0040111375285994,0.0078427521308457,0.0040111375290901,25.548069997051,-3.5615440023593e-05,-3.5615440023593e-05,-3.5615440023593e-05,4510088.1780782,0.015992852116637
16019200,0.97635745739383,0.016299391265541,0.004513177243142,0.0072730367789856,0.0045131772434129,-0.0009637402286947,0.00096374030067214,8.554566744336e-10,-7.8277265868295e-10,-2.3228436588861e-10,3.1534146277007e-10,-0.0011393885146515,0.0011393889546519,-0.0011393891249244,0.0011393884653501,-0.0011393883656743,0.0011393891538209,-0.001139388923415,0.0011393886281281,-0.00094549810729773,0.00094549995546218,-0.00094549969275876,0.00094549835894203,1.7868077624847e-10,-4.0936179280764e-10,1.6115178787821e-08,-1.6334255205069e-08,-0.0018915656632417,0.0018915654428817,-0.0021248328771808,0.0021248436345254,-0.0021248436210099,0.002124832817869,-0.0021248330698571,0.0021248434359424,-0.0021248438092425,0.0021248326239031,-0.0016206217872965,0.0016206532138137,-0.0016206532440732,0.0016206209897172,-0.0016206424936626,0.0016206320818555,-0.0016206430618041,0.0016206315011003,4.6358835668289e-10,2.1123189938253e-09,-0.00096373897431999,0.00096374155498318,-1.4426959227358e-08,1.7626163631527e-08,-0.0011393931618355,0.0011393843695918,-0.0011393825190993,0.0011393950102586,-0.001139392617724,0.0011393849159505,-0.0011393819667441,0.0011393955651188,-0.00094549155829292,0.0009455064930413,-0.00094549318682633,0.00094550486578598,0.66742792840402,128566,2924,0.0040108596028789,0.0078475018896236,0.0040108596027658,25.148307320308,-3.8813541437536e-05,-3.8813541437536e-05,-3.8813541437536e-05,4485512.7377655,0.015997120652388
16219200,0.97717036970569,0.016311957605724,0.0045165671531711,0.0072788232991109,0.0045165671534424,-0.00096360275616992,0.00096360282439529,8.6630311908032e-10,-7.977317925572e-10,-1.9313904067422e-10,2.7322100993275e-10,-0.0011396996366397,0.0011397001077798,-0.0011397002542298,0.0011396996098718,-0.0011396995138031,0.0011397002805505,-0.0011397000803793,0.0011396997450007,-0.00094552055651713,0.0009455223999561,-0.00094552216499599,0.00094552077224018,1.395069958041e-10,-3.6641429064788e-10,1.5905832211038e-08,-1.6121750093189e-08,-0.0018926001826017,0.0018925999656563,-0.0021258993093003,0.0021259099025669,-0.0021259099150353,0.0021258992288522,-0.0021258994744707,0.002125909731919,-0.0021259100769107,0.0021258990616003,-0.0016215181949503,0.0016215492396946,-0.0016215492511684,0.0016215174389442,-0.0016215386808942,0.0016215283334736,-0.0016215391681957,0.0016215278278916,4.4001940379381e-10,2.1136332874686e-09,-0.00096360151212109,0.00096360406838203,-1.4229530719722e-08,1.7397675441123e-08,-0.0011397042442123,0.0011396955615652,-0.0011396937422616,0.0011397060615272,-0.001139703691049,0.0011396961170067,-0.0011396931823624,0.0011397066239408,-0.00094551407504484,0.00094552887069846,-0.00094551572460527,0.00094552722017042,0.6642560530367,128566,2924,0.0040103039066821,0.0078517606045296,0.0040103039065612,24.749144193421,-4.2006846452635e-05,-4.2006846452635e-05,-4.2006846452635e-05,4463248.9036688,0.016000325032063
16419200,0.97794026229311,0.016322657078073,0.0045193962187893,0.0072838646402224,0.0045193962190611,-0.00096347893637812,0.00096347900180986,8.7733348800902e-10,-8.1127193908006e-10,-1.7077620349612e-10,2.4670954107522e-10,-0.0011399946288989,0.0011399951229122,-0.0011399952552538,0.0011399946156082,-0.0011399945229178,0.0011399952784007,-0.0011399950968644,0.0011399947355888,-0.00094552679831474,0.00094552864504279,-0.00094552842920943,0.0009455269971945,1.1649665775413e-10,-3.4096678722811e-10,1.5739737344828e-08,-1.5953382184831e-08,-0.0018935903120015,0.001893590097314,-0.0021269396754967,0.0021269501456023,-0.002126950173328,0.0021269395828516,-0.0021269398259599,0.0021269499901479,-0.0021269503184477,0.0021269394328634,-0.0016223446743727,0.0016223754064164,-0.0016223753984719,0.0016223439354225,-0.0016223649746468,0.0016223546899528,-0.0016223654137801,0.0016223542377715,4.1855057210042e-10,2.1183529097139e-09,-0.00096347769939242,0.00096348023875229,-1.4079453742706e-08,1.7229974035796e-08,-0.0011399992068985,0.0011399906056569,-0.0011399888115958,0.0011400009990053,-0.0011399986458087,0.0011399911688022,-0.0011399882419655,0.0011400015709546,-0.00094552036483509,0.00094553506594567,-0.00094552204387432,0.00094553338748562,0.59981698300894,128566,2924,0.0040098039272548,0.0078558364520751,0.0040098039271818,24.411697730693,-4.4706418154453e-05,-4.4706418154453e-05,-4.4706418154453e-05,4444799.4500216,0.016003456764514
16619200,0.97867347561982,0.016334681509892,0.0045226787463923,0.0072893240168347,0.0045226787466655,-0.00096360251701578,0.00096360258097266,8.8990822555244e-10,-8.2490958852472e-10,-1.6183134408264e-10,2.3491010112825e-10,-0.0011402802882363,0.0011402807957354,-0.0011402809221736,0.0011402802804846,-0.0011402801880913,0.0011402809452615,-0.0011402807715892,0.0011402803926738,-0.00094572870837567,0.00094573057628059,-0.00094573036856756,0.00094572890107614,1.065277375331e-10,-3.2943570573003e-10,1.5627426378498e-08,-1.583956195449e-08,-0.0018945088086887,0.0018945085953758,-0.0021280340036886,0.0021280443925953,-0.0021280444272135,0.0021280339060764,-0.002128034146359,0.0021280442455531,-0.0021280445664939,0.0021280337624142,-0.001623090889611,0.0016231214105834,-0.0016231213905237,0.0016230901556106,-0.001623111055832,0.0016231008290408,-0.0016231114795602,0.0016231003994062,3.9954927068559e-10,2.1239453952947e-09,-0.00096360128595229,0.00096360381202661,-1.3965543633405e-08,1.7102950107862e-08,-0.0011402848438536,0.0011402763004414,-0.0011402745277281,0.0011402866145718,-0.0011402842735584,0.0011402768726531,-0.0011402739507635,0.001140287193782,-0.00094572232086298,0.00094573694937388,-0.0009457240222706,0.00094573524981971,0.70235632448031,128566,2924,0.0040103240262068,0.0078596253810733,0.0040103240262119,24.157883839967,-4.6736929280264e-05,-4.6736929280264e-05,-4.6736929280264e-05,4440356.8264464,0.016008364025629
16819200,0.97937215167084,0.016346194946186,0.0045258218607674,0.0072945512243756,0.0045258218610428,-0.00096367154276237,0.00096367160817016,9.0299323113619e-10,-8.3694832713434e-10,-1.6576890580754e-10,2.4228646790295e-10,-0.0011408300420158,0.00114083055543,-0.0011408306841145,0.0011408300310648,-0.0011408299383197,0.0011408307082743,-0.0011408305298137,0.0011408301473984,-0.00094600285764647,0.00094600475305711,-0.00094600453902739,0.00094600305142636,1.1219281835112e-10,-3.353655594006e-10,1.5578507322648e-08,-1.5791035987631e-08,-0.0018957156205755,0.0018957154070252,-0.0021291735006483,0.0021291838611663,-0.0021291838928014,0.0021291734075853,-0.0021291736472333,0.0021291837098087,-0.0021291840354804,0.0021291732602151,-0.0016242207301703,0.0016242511510565,-0.001624251145773,0.0016242200027887,-0.001624240826766,0.0016242306426336,-0.0016242412569169,0.0016242301963244,3.8488461383888e-10,2.1348288874264e-09,-0.00096367031491993,0.00096367283593735,-1.392399482034e-08,1.7051496821602e-08,-0.001140834591126,0.0011408260666082,-0.0011408243060307,0.0011408363497669,-0.0011408340126245,0.0011408266471839,-0.0011408237204511,0.0011408369377127,-0.00094599648836979,0.00094601110965746,-0.00094599821421744,0.00094600938405605,0.70571572258666,128566,2924,0.0040106266874311,0.0078645934852093,0.0040106266872859,23.906049191873,-4.8751606465014e-05,-4.8751606465014e-05,-4.8751606465014e-05,4418257.7364999,0.016014034000809
17019200,0.98003821430569,0.016356960053284,0.004528751606458,0.0072994568400917,0.0045287516067341,-0.00096366287000741,0.00096366293719315,9.1658008433369e-10,-8.4886018957249e-10,-1.7896629127985e-10,2.5764234867369e-10,-0.0011413039378037,0.0011413044517587,-0.0011413045881591,0.0011413039189855,-0.0011413038245426,0.0011413046142352,-0.0011413044246251,0.0011413040446471,-0.00094620353120773,0.00094620546298927,-0.00094620523744902,0.0009462037354187,1.2584498187513e-10,-3.5010125211766e-10,1.5574821649713e-08,-1.5788283193315e-08,-0.0018968409070303,0.001896840692549,-0.0021302331270438,0.0021302434937864,-0.0021302435171393,0.0021302330426495,-0.0021302332826913,0.0021302433330681,-0.0021302436692186,0.0021302328855575,-0.0016252658753613,0.0016252962800422,-0.001625296285943,0.0016252651384829,-0.0016252859492459,0.0016252757947363,-0.0016252864072957,0.0016252753193295,3.7251368094805e-10,2.1476942763865e-09,-0.00096366164295975,0.00096366416418138,-1.3919869690418e-08,1.7047159601519e-08,-0.0011413084898565,0.0011412999600411,-0.0011412982073857,0.0011413102405601,-0.0011413079028082,0.0011413005492079,-0.0011412976135798,0.0011413108367753,-0.0009461971691109,0.00094621181262603,-0.00094619891896832,0.00094621006252543,0.69245976480571,128566,2924,0.0040106077416936,0.0078692231274002,0.0040106077415798,23.654287053635,-5.0765703570922e-05,-5.0765703570922e-05,-5.0765703570922e-05,4397021.0047175,0.016018706313432
17219200,0.9806581613181,0.016366716398949,0.0045313956244642,0.0073039251497436,0.0045313956247408,-0.00096288257460798,0.00096288264867941,9.3315772100121e-10,-8.6011785084197e-10,-2.1618820472742e-10,3.0889825095871e-10,-0.001140898477677,0.0011408989745088,-0.0011408991343817,0.0011408984337592,-0.0011408983332228,0.0011408991684507,-0.001140898943885,0.0011408985864818,-0.00094557750019457,0.00094557949631991,-0.0009455792292745,0.00094557772452835,1.6846767248707e-10,-3.9645088269767e-10,1.5743098549263e-08,-1.5960511275219e-08,-0.0018969773302708,0.0018969771121006,-0.0021303434425084,0.0021303539448369,-0.0021303539420502,0.0021303433837732,-0.0021303436243341,0.0021303537561566,-0.002130354124789,0.0021303431941311,-0.0016253255976891,0.0016253563092436,-0.001625356377396,0.0016253248572026,-0.0016253458358777,0.0016253356590828,-0.0016253463750328,0.001625335070173,3.6819114752972e-10,2.165918036029e-09,-0.00096288134580432,0.00096288387726895,-1.4054995918346e-08,1.7180529779575e-08,-0.0011409030646192,0.0011408944486963,-0.0011408926901855,0.0011409048210827,-0.0011409024680473,0.001140895048005,-0.0011408920915562,0.0011409054226653,-0.00094557111148027,0.00094558588017625,-0.00094557287101154,0.00094558411200926,0.67475987713861,128566,2924,0.0040073827262254,0.0078697696332844,0.004007382725737,22.994378168887,-5.6044974648903e-05,-5.6044974648903e-05,-5.6044974648903e-05,4373278.0020213,0.016012713249195
17419200,0.98122394519743,0.01637524835071,0.0045336922589966,0.0073078638324409,0.0045336922592725,-0.00096146260877746,0.00096146268853691,9.4652652554746e-10,-8.6801311296492e-10,-2.7203140592875e-10,3.6979625427239e-10,-0.0011397194875229,0.0011397199621917,-0.001139720155844,0.0011397194120487,-0.0011397193085447,0.0011397201919745,-0.0011397199232445,0.0011397196067596,-0.00094424781112082,0.00094424986178576,-0.00094424955271014,0.00094424808224107,2.2424901628766e-10,-4.5723632592057e-10,1.596722336464e-08,-1.6188753981619e-08,-0.0018962121407353,0.0018962119185683,-0.0021295945886211,0.0021296052784438,-0.0021296052390211,0.0021295945631817,-0.0021295948122979,0.002129605046953,-0.0021296054563276,0.0021295943383454,-0.0016244871835985,0.0016245182873181,-0.0016245183884156,0.0016244863888912,-0.0016245076420147,0.0016244974150659,-0.0016245082858522,0.0016244967234359,3.6878816667907e-10,2.1960675164481e-09,-0.00096146136702969,0.0009614639302056,-1.4314845210717e-08,1.7480487524717e-08,-0.0011397241449498,0.0011397153666519,-0.0011397135885161,0.0011397259213108,-0.0011397235421971,0.0011397159724503,-0.0011397129767056,0.001139726536408,-0.00094424132227818,0.00094425634557757,-0.00094424312254958,0.00094425453775569,0.64747798622804,128566,2924,0.0040014981113549,0.0078665951498539,0.0040014981111602,21.991139400619,-6.4070884795048e-05,-6.4070884795048e-05,-6.4070884795048e-05,4348792.3926453,0.015997533154606
17619200,0.98174071724469,0.016382748143417,0.0045356997419196,0.0073113486593008,0.0045356997421962,-0.0009600154201137,0.00096001550393854,9.6142264334893e-10,-8.780894026436e-10,-3.161187181578e-10,4.1570025223088e-10,-0.0011383821203554,0.0011383825785057,-0.0011383827986131,0.0011383820203318,-0.0011383819122968,0.0011383828376676,-0.001138382535305,0.0011383822454095,-0.00094283325190472,0.00094283536227572,-0.00094283502307082,0.00094283356647082,2.6660027677984e-10,-5.0421815106983e-10,1.619389496886e-08,-1.6419115078599e-08,-0.0018952060167798,0.0018952057905738,-0.0021286605561779,0.0021286714241502,-0.0021286713569987,0.0021286605535257,-0.0021286608097153,0.0021286711625601,-0.0021286716031845,0.002128660299343,-0.0016233952195602,0.0016234267357115,-0.0016234268483377,0.0016233943698725,-0.0016234159160348,0.0016234056195282,-0.0016234166519978,0.0016234048513305,3.6755079009037e-10,2.2207038509105e-09,-0.00096001416715239,0.00096001675678156,-1.4529565160346e-08,1.7732738267039e-08,-0.0011383868392848,0.0011383779217155,-0.0011383761285627,0.0011383886304784,-0.0011383862285416,0.0011383785353237,-0.0011383755071998,0.0011383892547892,-0.00094282669072343,0.00094284191501178,-0.00094282852051322,0.00094284008098243,0.62390234221353,128566,2924,0.0039954960645351,0.0078624304118859,0.0039954960642863,20.979737995473,-7.2162096036217e-05,-7.2162096036217e-05,-7.2162096036217e-05,4330132.6427683,0.015981106376327
17819200,0.98221393070538,0.016389382264954,0.004537466565181,0.0073144491343146,0.0045374665654581,-0.00095860014375323,0.00095860022964313,9.762443451756e-10,-8.9064272481568e-10,-3.427627460356e-10,4.430027403939e-10,-0.0011369747359103,0.0011369751855287,-0.0011369754216227,0.0011369746212824,-0.0011369745079621,0.0011369754651455,-0.0011369751426387,0.0011369748616993,-0.00094139950263749,0.00094140166796986,-0.00094140130998054,0.00094139984025492,2.9240989443138e-10,-5.3270314146116e-10,1.6387729789575e-08,-1.6615125618317e-08,-0.0018940586683556,0.0018940584397792,-0.0021276301517844,0.0021276411616698,-0.0021276410771135,0.0021276301625235,-0.0021276304209912,0.0021276408845163,-0.00212764134362,0.0021276298879563,-0.0016221515976971,0.0016221834836161,-0.0016221836033832,0.0016221507154787,-0.0016221725109333,0.0016221621437758,-0.0016221733107187,0.0016221613203008,3.6464574677495e-10,2.2411961939189e-09,-0.0009585988823176,0.00095860149104898,-1.4687722609745e-08,1.7916725023175e-08,-0.0011369795042834,0.0011369704794765,-0.0011369686773391,0.0011369813045489,-0.0011369788834713,0.001136971103246,-0.0011369680503657,0.0011369819343557,-0.00094139289587448,0.00094140826518662,-0.00094139474256515,0.00094140641569028,0.6034162904272,128566,2924,0.0039896227220969,0.0078576867906103,0.0039896227220433,19.990041688814,-8.0079666489484e-05,-8.0079666489484e-05,-8.0079666489484e-05,4316655.1572306,0.015964351652364
18019200,0.98264823422549,0.016395464686504,0.0045390890097085,0.0073172866668103,0.0045390890099855,-0.00095722118623975,0.00095722127302267,9.8907592319256e-10,-9.0263299211252e-10,-3.4999034683846e-10,4.5161582985816e-10,-0.0011355214171807,0.0011355218714698,-0.0011355221123094,0.0011355212982111,-0.00113552118502,0.0011355221555123,-0.0011355218270793,0.0011355215447694,-0.00093996258934932,0.00093996478208241,-0.0009399644181153,0.0009399629330259,2.9965540008616e-10,-5.4109375595718e-10,1.6505479422816e-08,-1.673394075042e-08,-0.0018927993514106,0.0018927991217827,-0.0021265223116216,0.0021265334047337,-0.0021265333149323,0.0021265223255473,-0.0021265225867962,0.002126533121176,-0.0021265335853807,0.0021265220468093,-0.0016207927254006,0.001620824834232,-0.0016208249601862,0.0016207918363113,-0.0016208137827463,0.0016208033482977,-0.001620814594176,0.0016208025107771,3.5780381522324e-10,2.2602179198738e-09,-0.00095721991904747,0.00095722254015845,-1.4804106238363e-08,1.8046875980246e-08,-0.001135526226867,0.0011355171244423,-0.0011355153189987,0.0011355280303825,-0.0011355255983567,0.0011355177558916,-0.0011355146825106,0.0011355286697511,-0.00093995593543478,0.00093997142695919,-0.00093995781008132,0.00093996954926668,0.60265704061652,128566,2924,0.0039838971040691,0.0078524844052426,0.0039838971039591,19.018655954398,-8.7850752364816e-05,-8.7850752364816e-05,-8.7850752364816e-05,4307213.6835899,0.015947429955795
18219200,0.98304724702228,0.016401158214851,0.0045406155508588,0.0073199271128565,0.0045406155511357,-0.00095583809724936,0.00095583818361045,1.0016970388541e-09,-9.1576328648047e-10,-3.4487677182121e-10,4.4657211241086e-10,-0.00113405801531,0.0011340584804589,-0.0011340587185938,0.001134057899202,-0.0011340577861145,0.0011340587616842,-0.0011340584371511,0.0011340581417959,-0.00093851877044622,0.00093852098552302,-0.00093852062506916,0.00093851910924954,2.945648271879e-10,-5.3574078513382e-10,1.6578032280552e-08,-1.6806332477903e-08,-0.0018914778135629,0.001891477584101,-0.0021253396857614,0.0021253508228299,-0.0021253507358496,0.0021253396958507,-0.0021253399569676,0.0021253505432327,-0.0021253510033237,0.0021253394200321,-0.0016193872084618,0.0016194194646513,-0.0016194195880796,0.0016193863242766,-0.0016194083672274,0.0016193978762631,-0.001619409168781,0.0016193970460728,3.4841044876686e-10,2.275765186995e-09,-0.00095583682680728,0.00095583945396447,-1.4868942121731e-08,1.8117852103744e-08,-0.0011340628545492,0.0011340537040753,-0.0011340519009817,0.0011340646557091,-0.0011340622172258,0.0011340543443766,-0.0011340512567141,0.0011340653029096,-0.0009385120905745,0.00093852765686392,-0.00093851398789108,0.00093852575600155,0.61338751910292,128566,2924,0.0039781538865147,0.0078470255382624,0.0039781538863352,18.04770451349,-9.5618363892081e-05,-9.5618363892081e-05,-9.5618363892081e-05,4297453.9123023,0.015930212266153
18419200,0.98342348307076,0.01640656412147,0.0045420688524026,0.0073224264163879,0.0045420688526797,-0.00095514475916813,0.00095514483901323,1.0113424823009e-09,-9.3049958162277e-10,-3.1139021347618e-10,4.002619749773e-10,-0.0011333572107211,0.0011333577065401,-0.0011333579234419,0.0011333571160294,-0.0011333570082788,0.0011333579595405,-0.0011333576673242,0.0011333573340506,-0.00093780455998142,0.00093780676839531,-0.00093780644608027,0.0009378048818768,2.5698253459526e-10,-4.9538501944535e-10,1.648014111859e-08,-1.6705379057666e-08,-0.0018909543460298,0.0018909541193267,-0.0021249169455482,0.0021249279956203,-0.0021249279311744,0.0021249169322428,-0.0021249171925743,0.0021249277405105,-0.0021249281717858,0.0021249166841577,-0.001618785134381,0.0016188172200762,-0.0016188172882909,0.0016187842523168,-0.0016188062127098,0.0016187957099518,-0.0016188069463823,0.0016187949765337,3.2995950564742e-10,2.2840522632634e-09,-0.00095514348896201,0.00095514610923117,-1.4779438597119e-08,1.8032274926713e-08,-0.0011333620443016,0.001133352935,-0.0011333511502737,0.0011333638268398,-0.001133361398814,0.0011333535821775,-0.0011333504949968,0.0011333644839322,-0.000937797895941,0.00093781341759668,-0.00093779982794669,0.00093781148975319,0.61738403819517,128566,2924,0.0039752759795831,0.0078448624291389,0.0039752759796603,17.475272071472,-0.00010019782342822,-0.00010019782342822,-0.00010019782342822,4291572.017013,0.015922166394961
18619200,0.9837858634308,0.016411722105003,0.0045434542678281,0.0073248135690706,0.0045434542681045,-0.0009550189397219,0.00095501901463901,1.0216564666146e-09,-9.4626334261606e-10,-2.5607746996679e-10,3.4222055239703e-10,-0.0011332721014,0.0011332726373078,-0.0011332728216142,0.0011332720384778,-0.0011332719360089,0.0011332728536423,-0.001133272603684,0.0011332722177698,-0.00093768140678082,0.00093768359742716,-0.00093768331403308,0.00093768167726375,2.0275161425383e-10,-4.3541573375998e-10,1.6277575385775e-08,-1.649816541496e-08,-0.0018910822558158,0.0018910820340771,-0.0021251312376143,0.0021251421184651,-0.0021251420891816,0.0021251311937854,-0.0021251314466463,0.0021251419027136,-0.0021251422934511,0.0021251309829736,-0.001618828860596,0.0016188605895502,-0.0016188606356519,0.0016188280412674,-0.00161884974931,0.0016188392766767,-0.0016188503661713,0.0016188386455691,3.0576704198815e-10,2.2846293616463e-09,-0.00095501767990768,0.00095502027436036,-1.4586520040296e-08,1.7803014965384e-08,-0.0011332769008995,0.0011332678997153,-0.0011332661464285,0.0011332786522795,-0.0011332762466229,0.0011332685563248,-0.0011332654841861,0.0011332793169529,-0.00093767480410088,0.00093769018742619,-0.00093767675585512,0.00093768823652152,0.61178640804739,128566,2924,0.0039747552037932,0.0078453898031631,0.0039747552036258,17.230563019303,-0.00010215549584558,-0.00010215549584558,-0.00010215549584558,4289972.0322792,0.015921644198921
18819200,0.98413517454659,0.016417013187961,0.0045448924309024,0.007327228325879,0.0045448924311792,-0.00095491901178558,0.00095491908232326,1.0322720466836e-09,-9.6160419608754e-10,-2.1288594084829e-10,2.9553885560847e-10,-0.0011331960442301,0.0011331966134309,-0.0011331967718242,0.001133196005781,-0.0011331959077766,0.0011331968002726,-0.0011331965842684,0.0011331961547584,-0.00093758178585852,0.00093758396790811,-0.00093758371615074,0.00093758201698057,1.5991032279058e-10,-3.8792799788948e-10,1.6082203985825e-08,-1.6298946921183e-08,-0.0018912026583826,0.0018912024405683,-0.0021253441591187,0.0021253548827913,-0.0021253548814879,0.0021253440910453,-0.0021253443379217,0.0021253546978213,-0.0021253550567267,0.0021253439097361,-0.0016188703673902,0.0016189017442033,-0.0016189017684696,0.0016188695944053,-0.001618891057363,0.0016188806324453,-0.0016188915848037,0.0016188800853087,2.8243989423231e-10,2.2861361555219e-09,-0.00095491776161347,0.00095492033242866,-1.4399710163915e-08,1.7585226701047e-08,-0.0011332008083631,0.0011331919108103,-0.0011331901876127,0.0011332025296114,-0.0011332001452007,0.0011331925763254,-0.0011331895177668,0.0011332032019975,-0.00093757524531189,0.0009375904978481,-0.00093757721821054,0.00093758852335621,0.64922937616011,128566,2924,0.0039743413606073,0.0078458869235705,0.0039743413604784,16.993625551387,-0.00010405099558891,-0.00010405099558891,-0.00010405099558891,4289255.0077423,0.015921308142381
19019200,0.98447199055196,0.016422426277398,0.0045463785011299,0.0073296692748614,0.004546378501407,-0.00095480496607177,0.0009548050327848,1.0430825706005e-09,-9.7625345140401e-10,-1.7983606565186e-10,2.5812155868121e-10,-0.0011332309334648,0.001133231530827,-0.0011332316690616,0.001133230914306,-0.001133230820021,0.0011332316941434,-0.0011332315049465,0.0011332310399571,-0.0009375256756732,0.00093752785538877,-0.00093752763003959,0.00093752587853238,1.2648166166029e-10,-3.5097501801294e-10,1.5902986930489e-08,-1.6116662683724e-08,-0.001891448606763,0.0018914483920502,-0.0021255876363381,0.0021255982203512,-0.0021255982408063,0.0021255875495232,-0.002125587792105,0.0021255980590095,-0.0021255983930958,0.0021255873917173,-0.0016190800734175,0.0016191111218322,-0.0016191111237983,0.0016190793310446,-0.0016191005736627,0.0016190902025292,-0.0016191010324105,0.0016190897251848,2.6024036695675e-10,2.2893353187892e-09,-0.00095480372384509,0.00095480627496236,-1.4230947940485e-08,1.7393297244838e-08,-0.001133235665179,0.0011332268602013,-0.0011332251642329,0.0011332373591717,-0.0011332349934186,0.001133227534172,-0.0011332244859345,0.0011332380399305,-0.00093751919072686,0.00093753432988811,-0.00093752118807094,0.00093753233041356,0.68719101726541,128566,2924,0.0039738727334956,0.0078468978905285,0.0039738727334014,16.756971997873,-0.00010594422401702,-0.00010594422401702,-0.00010594422401702,4281408.3695413,0.015921385133854
19219200,0.98480730071475,0.016427975715001,0.0045479089468434,0.0073321578210367,0.0045479089471207,-0.00095555035444899,0.00095555041718434,1.0549129564109e-09,-9.9138604644956e-10,-1.4640841517819e-10,2.1851146880109e-10,-0.001134285240973,0.0011342858665273,-0.0011342859837946,0.0011342852421005,-0.0011342851499382,0.0011342860067262,-0.0011342858453367,0.0011342853423131,-0.00093841827710452,0.00093842046147459,-0.00093842026576792,0.00093841845746411,9.1681760479268e-11,-3.1291411968844e-10,1.5676252321899e-08,-1.5886809961508e-08,-0.0018928290370257,0.0018928288253051,-0.0021268791924247,0.0021268896030179,-0.0021268896461815,0.0021268790859066,-0.0021268793232028,0.0021268894674648,-0.0021268897761331,0.0021268789512162,-0.0016204407226233,0.0016204713544664,-0.0016204713243777,0.0016204400029879,-0.0016204609746542,0.0016204506902018,-0.0016204613693088,0.0016204502858618,2.353714601039e-10,2.2884768091296e-09,-0.00095554912261511,0.00095555164887887,-1.3999446651161e-08,1.7136758758124e-08,-0.0011342899222162,0.0011342812456249,-0.0011342795820178,0.0011342915837876,-0.0011342892409622,0.0011342819287781,-0.0011342788969204,0.0011342922710482,-0.00093841187785631,0.00093842684637352,-0.0009384138967191,0.0009384248289422,0.70677988585225,128566,2924,0.003976976778308,0.0078525908458326,0.0039769767780438,17.022534466161,-0.00010381972427071,-0.00010381972427071,-0.00010381972427071,4275363.2933022,0.015933480708877
19419200,0.98514627079746,0.016433469480611,0.0045494181752713,0.0073346331297901,0.0045494181755494,-0.00095670002958971,0.00095670008859415,1.064224910301e-09,-1.0038832165968e-09,-1.244651143784e-10,1.8927348588375e-10,-0.001135828169717,0.0011358288200446,-0.0011358289228402,0.0011358281852814,-0.0011358280983879,0.0011358289399712,-0.001135828798549,0.0011358282719123,-0.00093976495345221,0.00093976713178584,-0.00093976695837159,0.00093976511905362,6.6425468100487e-11,-2.8517429906209e-10,1.5435347655901e-08,-1.5643442174227e-08,-0.0018947741454139,0.0018947739361863,-0.0021287060773534,0.0021287163162104,-0.0021287163759173,0.0021287059576836,-0.0021287061944458,0.0021287161952726,-0.0021287164857283,0.0021287058442784,-0.0016223607911326,0.001622390959379,-0.0016223908999273,0.0016223600817377,-0.0016223807607146,0.001622370578288,-0.001622381100741,0.0016223702439281,2.1190705046595e-10,2.2941918637114e-09,-0.00095669880453909,0.00095670131375851,-1.3811241196474e-08,1.69345160805e-08,-0.0011358328102432,0.0011358242391337,-0.0011358226030683,0.001135834444465,-0.0011358321222816,0.0011358249286955,-0.0011358219048924,0.0011358351444716,-0.00093975860591189,0.00093977346261497,-0.00093976066501859,0.00093977140861818,0.69264758710572,128566,2924,0.0039817621428702,0.0078606132257404,0.0039817621431529,17.539208103322,-9.968633517342e-05,-9.968633517342e-05,-9.968633517342e-05,4271055.3333297,0.015951360731195
19619200,0.98548877003825,0.016438885301943,0.0045508993400093,0.0073370866216455,0.0045508993402884,-0.00095783805455238,0.00095783811463108,1.0775328502545e-09,-1.016741753006e-09,-1.1731513119518e-10,1.8687765760407e-10,-0.0011373153945466,0.0011373160564034,-0.0011373161550158,0.0011373154124453,-0.0011373153257983,0.0011373161734868,-0.0011373160343909,0.0011373154954741,-0.00094108735868111,0.00094108955883059,-0.00094108938347042,0.00094108751269263,6.2550928053261e-11,-2.8052091280808e-10,1.5308548965161e-08,-1.5516407516284e-08,-0.001896671821383,0.0018966716124952,-0.0021305395659856,0.0021305497185831,-0.002130549782524,0.0021305394453415,-0.0021305396793178,0.0021305496012585,-0.0021305498901671,0.0021305393338255,-0.0016242062006654,0.0016242361236933,-0.00162423608214,0.001624205515624,-0.0016242260111094,0.0016242159059669,-0.001624226337146,0.0016242155686413,1.9257406806426e-10,2.2994302425952e-09,-0.0009578368383137,0.00095783933081016,-1.3684215662252e-08,1.6779892034753e-08,-0.0011373200051788,0.0011373115052464,-0.0011373098909663,0.0011373216174248,-0.0011373193085431,0.0011373122037224,-0.0011373091854403,0.0011373223252235,-0.00094108106397045,0.00094109584026415,-0.00094108314241439,0.00094109376201381,0.67638954517162,128566,2924,0.003986498572333,0.0078684402833951,0.0039864985722244,18.061896663793,-9.5504826689652e-05,-9.5504826689652e-05,-9.5504826689652e-05,4269966.5741879,0.01596894208117
19819200,0.98583452558054,0.016444196771135,0.0045523443560221,0.0073395080588113,0.0045523443563015,-0.00095897091541279,0.00095897097601038,1.090901544135e-09,-1.0299746919721e-09,-1.2207716614108e-10,1.9254421837688e-10,-0.0011387368472501,0.0011387375141567,-0.0011387376151926,0.0011387368619585,-0.0011387367739195,0.0011387376355862,-0.0011387374922948,0.0011387369475584,-0.00094237726967798,0.00094237950212717,-0.00094237932141403,0.00094237742464025,6.7940767632656e-11,-2.8603876071221e-10,1.5227264937332e-08,-1.5435279452455e-08,-0.001898504381067,0.0018985041720053,-0.0021323581784834,0.0021323682797299,-0.0021323683411942,0.0021323580622526,-0.0021323582944194,0.0021323681597885,-0.0021323684534322,0.0021323579461321,-0.0016259613576419,0.0016259911204234,-0.0016259910868379,0.0016259606731085,-0.0016259810547277,0.0016259710169046,-0.0016259813936681,0.0016259706646384,1.7635111529301e-10,2.3074536204392e-09,-0.00095896970413139,0.00095897218736977,-1.3595841295322e-08,1.6679473972069e-08,-0.0011387414377319,0.0011387329828422,-0.001138731385087,0.0011387430334857,-0.0011387407320555,0.0011387336904768,-0.0011387306725755,0.0011387437483743,-0.00094237101626852,0.0009423857434659,-0.00094237311433913,0.00094238364371369,0.65786895519048,128566,2924,0.0039912118656583,0.0078760003374512,0.0039912118658316,18.584805376267,-9.1321556989861e-05,-9.1321556989861e-05,-9.1321556989861e-05,4272249.8974204,0.01598620422757
20019200,0.9861739539021,0.016449598388871,0.0045538225319883,0.0073419533246151,0.0045538225322678,-0.0009593519350539,0.00095935200317188,1.1058681588141e-09,-1.0384577804467e-09,-1.617039577959e-10,2.4610715212485e-10,-0.0011392953619353,0.0011392960131495,-0.0011392961392978,0.0011392953513253,-0.0011392952601232,0.0011392961644258,-0.0011392959835838,0.0011392954690669,-0.00094285869796971,0.00094286098100006,-0.00094286075783182,0.00094285887832671,1.1320871884547e-10,-3.3456928584386e-10,1.5330122580161e-08,-1.5541495619271e-08,-0.001899388478269,0.0018993882659367,-0.0021332763069088,0.0021332865062526,-0.0021332865403944,0.002133276218306,-0.0021332764547049,0.0021332863531725,-0.002133286681373,0.0021332760721537,-0.0016267690039567,0.0016267989316336,-0.0016267989577879,0.0016267683094027,-0.0016267887781648,0.0016267787547274,-0.0016267891924395,0.0016267782990468,1.6941357325222e-10,2.3281520083323e-09,-0.00095935072200484,0.00095935321606543,-1.3726587586642e-08,1.6811470451995e-08,-0.0011392999856271,0.001139291449652,-0.0011392898475539,0.0011393015856223,-0.0011392992726157,0.0011392921654018,-0.0011392891249757,0.0011393023116818,-0.00094285240286605,0.00094286726997421,-0.00094285452891161,0.00094286513498685,0.68048384644859,128566,2924,0.0039928008191132,0.0078796449720027,0.0039928008187561,18.671678990681,-9.0626568074552e-05,-9.0626568074552e-05,-9.0626568074552e-05,4271039.2586613,0.015993137816506
20219200,0.98650464695515,0.016455010839013,0.0045553103665137,0.0073443901057066,0.0045553103667926,-0.00095951748860286,0.00095951756176031,1.1228924845708e-09,-1.0501052361265e-09,-2.1526799904495e-10,3.031842981631e-10,-0.0011396788366036,0.0011396794636369,-0.0011396796213487,0.0011396787949848,-0.0011396786955788,0.0011396796538127,-0.0011396794317271,0.0011396789472339,-0.0009431391730577,0.00094314153606356,-0.0009431412741554,0.00094313940193106,1.6528020433262e-10,-3.9230966150325e-10,1.5546362273245e-08,-1.5762421732836e-08,-0.0019000824746088,0.0019000822575837,-0.0021339528662532,0.00213396323979,-0.002133963240104,0.0021339528077256,-0.0021339530474736,0.0021339630523697,-0.002133963419362,0.0021339526222045,-0.0016274158262024,0.0016274461498509,-0.0016274461998667,0.0016274150740806,-0.0016274358132874,0.0016274257557775,-0.0016274363469267,0.0016274251903283,1.6792830742386e-10,2.3493181738579e-09,-0.00095951626727167,0.00095951878301532,-1.3891941617837e-08,1.7007189149432e-08,-0.0011396835035552,0.0011396748568539,-0.0011396732427705,0.0011396851156273,-0.0011396827806036,0.0011396755824368,-0.0011396725146499,0.0011396858466413,-0.00094313284145028,0.0009431478583484,-0.00094313498419231,0.00094314571044405,0.69908660498203,128566,2924,0.0039934963984805,0.0078825025502324,0.0039934963983132,18.638369699075,-9.0893042407402e-05,-9.0893042407402e-05,-9.0893042407402e-05,4264375.3170013,0.015997457355787
20419200,0.98682678286905,0.016460290621846,0.004556762001032,0.0073467666195032,0.0045567620013111,-0.00095965659150297,0.0009596566692476,1.1368576794474e-09,-1.0592118580938e-09,-2.6146620801182e-10,3.5313001747331e-10,-0.0011400829605713,0.0011400835703214,-0.0011400837559725,0.0011400828927452,-0.0011400827901746,0.0011400837905313,-0.0011400835322597,0.0011400830788119,-0.00094341378316417,0.00094341620003677,-0.00094341590445805,0.000943414053553,2.1118689162072e-10,-4.427546922069e-10,1.5742399280096e-08,-1.5962192388097e-08,-0.0019008029415402,0.0019008027206729,-0.0021346196868871,0.0021346302206744,-0.0021346301909336,0.00213461965443,-0.0021346199020656,0.0021346299986401,-0.0021346303993851,0.002134619439122,-0.001628104573612,0.0016281352439334,-0.0016281353171661,0.0016281037734585,-0.0016281247552104,0.0016281146519044,-0.0016281253801257,0.0016281140009741,1.6580436043582e-10,2.3754614396614e-09,-0.00095965535950474,0.00095965790117441,-1.4102066205499e-08,1.7250939076176e-08,-0.0011400876862828,0.0011400789053117,-0.0011400772768558,0.0011400893126837,-0.0011400869560683,0.0011400796381153,-0.0011400765370521,0.0011400900552649,-0.00094340737454214,0.00094342259809973,-0.00094340955289369,0.0009434204167178,0.69998401711857,128566,2924,0.0039940837774432,0.0078854673483897,0.0039940837772994,18.602121900934,-9.1183024792525e-05,-9.1183024792525e-05,-9.1183024792525e-05,4255067.1586873,0.016001666874767
20619200,0.98714059432688,0.016464906681696,0.0045580075655153,0.0073488915503858,0.0045580075657947,-0.00095975500558827,0.00095975508730835,1.152617330045e-09,-1.0710389994861e-09,-2.9879019888879e-10,3.9477854619817e-10,-0.0011404429027756,0.0011404434977873,-0.0011404437062398,0.0011404428131608,-0.0011404427048893,0.0011404437460413,-0.0011404434580145,0.0011404430237072,-0.00094363625385608,0.00094363873300854,-0.00094363840810817,0.00094363655538947,2.4859353116768e-10,-4.8371177664314e-10,1.5956177206269e-08,-1.6179020038926e-08,-0.0019014747811004,0.0019014745571338,-0.0021352500019896,0.0021352606997122,-0.0021352606451205,0.0021352499904733,-0.0021352502409225,0.0021352604532826,-0.0021352608809846,0.0021352497471668,-0.0016287313643183,0.0016287624332692,-0.0016287625300834,0.0016287305293947,-0.0016287517750162,0.0016287416074579,-0.0016287524817363,0.0016287408748143,1.6394636058982e-10,2.3972996348012e-09,-0.00095975376512475,0.00095975632767274,-1.4284174869498e-08,1.74579324638e-08,-0.0011404476809482,0.0011404387807575,-0.0011404371406224,0.0011404493191015,-0.0011404469412676,0.0011404395231394,-0.0011404363945681,0.0011404500679652,-0.0009436297931294,0.00094364518318372,-0.00094363198987409,0.0009436429837032,0.63099125630842,128566,2924,0.0039945021991629,0.0078882311172137,0.0039945021989631,18.565766127918,-9.1473870976657e-05,-9.1473870976657e-05,-9.1473870976657e-05,4246383.4348512,0.01600532891572
20819200,0.98743167493864,0.016469512140794,0.0045592675191432,0.0073509771022276,0.0045592675194227,-0.00095851030157125,0.00095851039092064,1.1696462636867e-09,-1.081546880984e-09,-3.518046068534e-10,4.6036623636278e-10,-0.0011391522257781,0.0011391527953394,-0.0011391530372072,0.0011391521034567,-0.0011391519876084,0.0011391530850533,-0.0011391527506398,0.0011391523508196,-0.00094237410973798,0.00094237666313915,-0.00094237628684068,0.00094237444670947,3.0411644403962e-10,-5.4422774086315e-10,1.6315440131915e-08,-1.654316405087e-08,-0.0019003003955049,0.0019003001662728,-0.0021341881316618,0.0021341990980721,-0.0021341990088384,0.0021341881497509,-0.0021341884067536,0.0021341988144173,-0.0021341992837897,0.0021341878656379,-0.001627495133033,0.0016275268706023,-0.001627527018952,0.0016274942658759,-0.0016275159331861,0.0016275056420435,-0.0016275167541461,0.0016275047813803,1.6947118609696e-10,2.4264058447386e-09,-0.00095850904851426,0.00095851164398829,-1.4605203084954e-08,1.7809232593862e-08,-0.0011391570920005,0.0011391479914061,-0.0011391463261786,0.0011391587547544,-0.0011391563429867,0.0011391487438035,-0.0011391455743541,0.0011391595100201,-0.00094236754845664,0.00094238322073282,-0.00094236975930785,0.00094238099882887,0.67642718906901,128566,2924,0.0039893357697976,0.0078833773058295,0.0039893357697903,17.742009778226,-9.8063921774194e-05,-9.8063921774194e-05,-9.8063921774194e-05,4237047.3300342,0.015989897024903
21019200,0.98770042420536,0.016473630820126,0.0045603888190539,0.0073528531817389,0.0045603888193334,-0.0009570939487585,0.00095709404112231,1.1832141918392e-09,-1.0916120445979e-09,-3.8376092734504e-10,4.9427622767112e-10,-0.0011377943029653,0.0011377948635856,-0.0011377951256933,0.0011377941635104,-0.0011377940456935,0.0011377951742414,-0.0011377948148166,0.0011377944341431,-0.00094097081582205,0.00094097341257299,-0.00094097301476876,0.00094097118348816,3.3716133018809e-10,-5.815005009118e-10,1.658711349501e-08,-1.6818352011126e-08,-0.0018990364363577,0.0018990362038872,-0.0021329265166177,0.0021329376865677,-0.0021329375741253,0.0021329265528433,-0.0021329268167618,0.0021329373776227,-0.0021329378703702,0.0021329262475673,-0.0016262195095784,0.001626251752019,-0.0016262519164601,0.0016262186007198,-0.0016262406239145,0.0016262302096642,-0.0016262415087335,0.0016262292871398,1.6960584294469e-10,2.4543743914281e-09,-0.00095709268190503,0.00095709530780038,-1.4874428639592e-08,1.8117827112382e-08,-0.0011377992503819,0.0011377899795385,-0.0011377882952427,0.0011378009323471,-0.001137798494101,0.0011377907393446,-0.0011377875324205,0.0011378016989389,-0.00094096414987786,0.00094098007191841,-0.00094096639559786,0.00094097781802153,0.65601666333119,128566,2924,0.0039834591107985,0.0078781501205075,0.0039834591104237,16.831301817591,-0.00010534958545927,-0.00010534958545927,-0.00010534958545927,4219146.3369206,0.015972645414542
21219200,0.98794872726895,0.016477459483002,0.0045614336005358,0.0073545922816502,0.0045614336008158,-0.00095567731140471,0.00095567740348361,1.1959316182001e-09,-1.104434345465e-09,-3.9312346047497e-10,5.0189570643068e-10,-0.0011363576396442,0.0011363582034357,-0.0011363584709488,0.0011363574949563,-0.0011363573765142,0.0011363585192545,-0.0011363581550964,0.0011363577717056,-0.00093953653747136,0.00093953916654213,-0.00093953876625984,0.00093953691549878,3.4450081379544e-10,-5.8955698885044e-10,1.676801830308e-08,-1.6999649012509e-08,-0.0018976519054878,0.0018976516725999,-0.0021315864402093,0.0021315977343265,-0.0021315976152452,0.0021315864797099,-0.0021315867452548,0.0021315974199781,-0.0021315979164394,0.0021315861691972,-0.001624814410864,0.0016248470048702,-0.0016248471641899,0.0016248134870211,-0.0016248357516018,0.0016248252322539,-0.0016248366536683,0.0016248242979237,1.6614654892154e-10,2.4766668782011e-09,-0.00095567603435307,0.00095567868042361,-1.5049431574784e-08,1.8319574605239e-08,-0.0011363626465729,0.0011363532598172,-0.0011363515660759,0.0011363643383078,-0.0011363618816518,0.0011363540279276,-0.0011363507942216,0.0011363651132412,-0.00093952980436964,0.00093954589188066,-0.00093953207669324,0.00093954361498519,0.65967103352234,128566,2924,0.0039775787954428,0.0078724277892252,0.0039775787952135,15.918323736128,-0.00011265341011097,-0.00011265341011097,-0.00011265341011097,4205006.4003542,0.015954882109666
21419200,0.98818163456325,0.016481074571712,0.0045624222743788,0.0073562300226742,0.0045624222746589,-0.00095465348971906,0.00095465358072143,1.2117130727216e-09,-1.1190430496686e-09,-3.6806070255333e-10,4.7259406339929e-10,-0.0011353363476316,0.0011353369331757,-0.0011353371890431,0.0011353362230678,-0.0011353361015207,0.0011353372403946,-0.0011353368899301,0.0011353364732559,-0.00093850734592173,0.00093850999580392,-0.00093850960825915,0.00093850770678505,3.1827206224226e-10,-5.5894870214789e-10,1.6820174852322e-08,-1.7047609314061e-08,-0.0018966973916562,0.0018966971606973,-0.0021306635675522,0.0021306748719755,-0.0021306747723863,0.0021306635839806,-0.002130663851498,0.0021306745847291,-0.0021306750610759,0.0021306632893537,-0.0016238396719432,0.0016238723869732,-0.0016238724998973,0.0016238387403777,-0.0016238611045225,0.0016238505096418,-0.0016238619765198,0.0016238496379715,1.5185488750912e-10,2.4841791644619e-09,-0.00095465221366139,0.00095465485629746,-1.5041125153951e-08,1.8315654734196e-08,-0.001135341371366,0.0011353319746901,-0.0011353302932688,0.0011353430494468,-0.001135340595104,0.0011353327557422,-0.0011353295205761,0.0011353438289327,-0.00093850061807571,0.00093851671110213,-0.000938502901202,0.00093851441447224,0.66373455396929,128566,2924,0.0039733295650952,0.0078684820505501,0.0039733295641114,15.229958066503,-0.00011816033546797,-0.00011816033546797,-0.00011816033546797,4194008.6395784,0.015942238716207
21619200,0.98840057472532,0.016484502636792,0.0045633618869393,0.0073577788626299,0.0045633618872226,-0.00095366643396238,0.00095366651739646,1.2148341642219e-09,-1.1313578284299e-09,-3.3125187279149e-10,4.2830676199301e-10,-0.0011343640030989,0.0011343646242296,-0.001134364854768,0.0011343638956398,-0.0011343637891936,0.0011343648899224,-0.0011343645789583,0.0011343641325558,-0.00093751905890601,0.00093752166747584,-0.00093752132236087,0.00093751938922287,2.80256119015e-10,-5.1918791528322e-10,1.6698900713634e-08,-1.6925036441166e-08,-0.0018957797167144,0.0018957794889945,-0.0021297667230662,0.0021297779348732,-0.0021297778555661,0.0021297667230087,-0.0021297669892662,0.0021297776605416,-0.0021297781078341,0.0021297664627283,-0.0016229085169922,0.0016229410048673,-0.0016229411061564,0.0016229076360272,-0.0016229298493863,0.0016229192365207,-0.0016229306107771,0.0016229184563313,1.3594495237576e-10,2.5037171315399e-09,-0.00095366515370249,0.0009536677976514,-1.5047529240252e-08,1.8319183513069e-08,-0.0011343690467364,0.0011343596435468,-0.0011343579723163,0.0011343707160923,-0.0011343682675347,0.0011343604255678,-0.0011343571762318,0.0011343715146691,-0.00093751228319576,0.00093752843461651,-0.0009375146273294,0.00093752608861272,0.66920856792469,128566,2924,0.0039692331591285,0.007864688230867,0.0039692331591357,14.565645460864,-0.00012347483631308,-0.00012347483631308,-0.00012347483631308,4182887.8856047,0.015930060651821
21819200,0.98860651271136,0.016487680869001,0.0045642314874455,0.0073592178938267,0.0045642314877287,-0.00095266891354205,0.00095266899301673,1.2333767276692e-09,-1.1539779278127e-09,-2.9277831401649e-10,3.860512292823e-10,-0.0011333936352035,0.0011333942790384,-0.0011333944868443,0.0011333935506114,-0.0011333934347542,0.0011333945320593,-0.0011333942501802,0.0011333937459165,-0.00093652402025914,0.00093652667684065,-0.00093652635844813,0.00093652431331066,2.4000938776031e-10,-4.756767718129e-10,1.6696493572288e-08,-1.6920016753397e-08,-0.0018948513258892,0.0018948511010383,-0.0021288464488151,0.0021288576200359,-0.0021288575658749,0.0021288464236961,-0.002128846674002,0.0021288573882993,-0.0021288578050855,0.0021288461776247,-0.0016219732033767,0.0016220057553575,-0.0016220058303429,0.0016219723562362,-0.0016219945867097,0.0016219839361198,-0.0016219953040878,0.0016219831974133,1.1971888388719e-10,2.497930388405e-09,-0.00095266764268412,0.00095267026382101,-1.4879674208167e-08,1.812369043828e-08,-0.0011333986494496,0.0011333893277424,-0.0011333876813214,0.0011334002931823,-0.0011333978530473,0.0011333901271928,-0.0011333868957348,0.0011334010820255,-0.00093651735320379,0.00093653333455243,-0.00093651966596331,0.00093653101686704,0.65988856306264,128566,2924,0.0039650935874281,0.0078608497111166,0.0039650935873221,13.901962878127,-0.00012878429697498,-0.00012878429697498,-0.00012878429697498,4171061.7321027,0.015917749938337
22019200,0.9888121323733,0.016490804329679,0.0045650846076627,0.0073606351140704,0.0045650846079462,-0.00095328231058487,0.00095328237936868,1.2387396415491e-09,-1.1682432139317e-09,-2.1629841880163e-10,2.9199354262124e-10,-0.0011340834008354,0.0011340841043231,-0.0011340842649495,0.001134083363417,-0.001134083262145,0.0011340842945578,-0.0011340840792886,0.0011340835089725,-0.00093718486926844,0.00093718746613897,-0.00093718722168051,0.00093718511411783,1.5952698032496e-10,-3.8742804428037e-10,1.6305016013424e-08,-1.6520940184147e-08,-0.001895720605163,0.0018957203877168,-0.0021297416005435,0.0021297524671676,-0.0021297524634153,0.0021297415295261,-0.0021297417775117,0.0021297522851949,-0.0021297526410349,0.0021297413467717,-0.0016227923410377,0.0016228241626396,-0.0016228241543346,0.0016227915367795,-0.0016228133211884,0.0016228027567935,-0.0016228138671789,0.0016228022167446,8.5663062627606e-11,2.4971221046586e-09,-0.00095328105006685,0.00095328363969004,-1.4572545787376e-08,1.7792115934326e-08,-0.0011340883568206,0.0011340792101721,-0.0011340776076891,0.0011340899571704,-0.0011340875549511,0.0011340800140016,-0.0011340768043804,0.0011340907626657,-0.00093717826954814,0.00093719404793879,-0.00093718063965206,0.00093719168349864,0.64982380207349,128566,2924,0.0039676428805884,0.0078644387557615,0.0039676428802383,14.153535105561,-0.00012677171915551,-0.00012677171915551,-0.00012677171915551,4175372.4750719,0.015926576637696
22219200,0.98901862141253,0.016493916452037,0.0045659333949057,0.0073620496619419,0.0045659333951897,-0.00095406548118651,0.00095406554487769,1.2479190757634e-09,-1.1835057984681e-09,-1.5547050305454e-10,2.2957084147426e-10,-0.001134934780175,0.0011349355282937,-0.0011349356526355,0.0011349347763031,-0.0011349346834524,0.0011349356758385,-0.0011349355063167,0.0011349348825662,-0.00093800851960383,0.00093801108590059,-0.00093801088110233,0.00093800870482236,1.0122040402143e-10,-3.2266507803865e-10,1.5952337565861e-08,-1.6163230427935e-08,-0.0018967647109046,0.0018967644987046,-0.0021308389887492,0.0021308495871278,-0.0021308496226018,0.002130838885497,-0.0021308391264151,0.0021308494450196,-0.0021308497585759,0.0021308387449756,-0.0016237674625195,0.0016237986272556,-0.0016237986030541,0.0016237667343136,-0.001623788059401,0.0016237776097979,-0.001623788472063,0.0016237771850527,5.4433309805632e-11,2.4938308556769e-09,-0.00095406423753124,0.00095406678842371,-1.4269596496622e-08,1.7434143553221e-08,-0.0011349396696508,0.0011349307001649,-0.0011349291416521,0.0011349412258835,-0.0011349388599879,0.0011349315120596,-0.0011349283279953,0.0011349420422931,-0.00093800201522879,0.00093801757828427,-0.00093800441259298,0.00093801517942593,0.64497436655868,128566,2924,0.0039708966003867,0.0078687508167569,0.0039708966001759,14.500031308238,-0.0001239997495341,-0.0001239997495341,-0.0001239997495341,4182814.791677,0.015937569154741
22419200,0.98922591696257,0.016497174098573,0.0045668280193401,0.0073635180596083,0.0045668280196242,-0.00095486024978632,0.00095486031037001,1.2594059067236e-09,-1.1982606733304e-09,-1.2552919251125e-10,1.9662005921569e-10,-0.0011357883617823,0.0011357891366402,-0.001135789242296,0.0011357883748369,-0.0011357882855955,0.0011357892626589,-0.0011357891170172,0.0011357884608225,-0.00093884052777875,0.00093884309504267,-0.00093884291290772,0.00093884068674509,7.1507927834831e-11,-2.8966168085801e-10,1.5683449543029e-08,-1.5891526388365e-08,-0.0018978107791025,0.0018978105698592,-0.0021319488966868,0.0021319592993642,-0.0021319593550044,0.0021319487783197,-0.0021319490139191,0.0021319591780456,-0.0021319594703891,0.002131948658722,-0.0016247406707181,0.0016247713285773,-0.0016247712895036,0.0016247399752251,-0.0016247609572578,0.0016247506272918,-0.0016247613064617,0.001624750263644,2.7212686220748e-11,2.492932241651e-09,-0.0009548590193041,0.00095486154074846,-1.4015961325297e-08,1.7144811826642e-08,-0.0011357931922372,0.0011357843667977,-0.0011357828446687,0.0011357947121682,-0.0011357923739608,0.0011357851872348,-0.0011357820220249,0.0011357955374721,-0.00093883411454046,0.00093884949639093,-0.00093883653766514,0.00093884707144264,0.67139355332587,128566,2924,0.0039741982156013,0.0078730714276706,0.0039741982153961,14.849022769592,-0.00012120781784327,-0.00012120781784327,-0.00012120781784327,4190659.0252467,0.015948667586389
22619200,0.9894337759288,0.016500477661467,0.0045677364738417,0.007365004713499,0.004567736474126,-0.00095562050215553,0.00095562056283645,1.2725340433758e-09,-1.2113203224499e-09,-1.2269350376643e-10,1.9410036742583e-10,-0.0011366969039986,0.0011366976895265,-0.001136697792864,0.0011366969184047,-0.0011366968294871,0.001136697813463,-0.00113669766943,0.0011366970029095,-0.00093967429845855,0.00093967688921413,-0.00093967670812691,0.00093967445477825,6.9056928064133e-11,-2.867232697421e-10,1.550536825482e-08,-1.5713031106333e-08,-0.001898931853634,0.0018989316448272,-0.0021330743612146,0.0021330846450458,-0.0021330847036317,0.0021330742431732,-0.0021330744768026,0.0021330845254107,-0.0021330848171951,0.0021330741254546,-0.0016258106706045,0.0016258409803845,-0.00162584094395,0.0016258099821459,-0.0016258307288867,0.0016258205118123,-0.0016258310718726,0.0016258201531067,5.2497831227292e-12,2.4973713968876e-09,-0.00095561928083898,0.00095562178404876,-1.3850337761983e-08,1.6957262534592e-08,-0.0011367016937828,0.0011366929599474,-0.0011366914636313,0.0011367031878817,-0.0011367008667972,0.0011366937890601,-0.0011366906320984,0.0011367040220881,-0.00093966795087503,0.00093968322479248,-0.00093967039994898,0.00093968077360538,0.67880269077233,128566,2924,0.0039773592903801,0.0078776984326232,0.0039773592901722,15.187193356744,-0.00011850245314605,-0.00011850245314605,-0.00011850245314605,4193433.9375287,0.015959793632099
22819200,0.98963917686547,0.016503732580698,0.0045686307726551,0.0073664710351038,0.0045686307729394,-0.0009559744499615,0.00095597451432322,1.2881967187502e-09,-1.2241137469348e-09,-1.5079304410763e-10,2.2866437004869e-10,-0.0011372057183725,0.0011372064944018,-0.0011372066137582,0.0011372057135841,-0.0011372056207941,0.0011372066392044,-0.0011372064720967,0.0011372058183884,-0.0009401025067938,0.00094010515375256,-0.00094010494691289,0.00094010268266158,9.9592020473314e-11,-3.2075819476321e-10,1.5494545355511e-08,-1.5705603110547e-08,-0.0018996260180118,0.0018996258061382,-0.0021337612416332,0.0021337715360575,-0.0021337715764416,0.0021337611431299,-0.0021337613763777,0.0021337713953318,-0.0021337717117035,0.0021337610018378,-0.001626466292269,0.0016264965645679,-0.0016264965635196,0.0016264655931585,-0.001626486295718,0.0016264761511811,-0.0016264867024573,0.0016264757166427,-8.2087614742952e-12,2.5077173930354e-09,-0.0009559732330493,0.00095597573123878,-1.3812966901049e-08,1.6908671105818e-08,-0.0011372104957207,0.0011372017767216,-0.0011372002917142,0.0011372119784933,-0.0011372096592766,0.0011372026149252,-0.0011371994531053,0.0011372128188129,-0.00094009619467886,0.00094011145667975,-0.00094009866039235,0.00094010898758337,0.67691804229147,128566,2924,0.0039788341697289,0.0078805604628019,0.0039788341697284,15.30358689545,-0.0001175713048364,-0.0001175713048364,-0.0001175713048364,4191397.8294114,0.015965700484191
23019200,0.98984204935377,0.016506728303935,0.0045694438947369,0.007367840514177,0.0045694438950206,-0.00095630097212605,0.00095630104136404,1.3030372220816e-09,-1.2335747997466e-09,-1.9347991424606e-10,2.7487544321448e-10,-0.0011376765466212,0.0011376773075982,-0.001137677452877,0.0011376765190315,-0.0011376764220174,0.0011376774820046,-0.0011376772796293,0.0011376766536704,-0.00094049686382612,0.00094049956516656,-0.00094049932533642,0.00094049707783061,1.4138058668483e-10,-3.6593620848826e-10,1.5544325730519e-08,-1.5757991902811e-08,-0.0019002820184039,0.0019002818036259,-0.0021344194805567,0.0021344298356013,-0.002134429849888,0.002134419406978,-0.0021344196455923,0.002134429665123,-0.0021344300128504,0.0021344192384657,-0.0016270766853547,0.0016271070220023,-0.0016271070421006,0.0016270759413131,-0.0016270966994422,0.0016270865988819,-0.0016270971908769,0.0016270860877757,-1.7661411904519e-11,2.5267834805386e-09,-0.00095629975202433,0.00095630226141897,-1.3885442426324e-08,1.6998701617766e-08,-0.0011376813425875,0.0011376725720718,-0.0011376710866581,0.0011376828257546,-0.0011376804981203,0.0011376734187987,-0.0011376702378435,0.001137683677285,-0.00094049053019443,0.00094050588704386,-0.00094049302974225,0.00094050338488429,0.63260004303635,128566,2924,0.0039801949837551,0.0078832650176329,0.0039801949836655,15.414800346607,-0.00011668159722714,-0.00011668159722714,-0.00011668159722714,4189776.9378037,0.015971215420128
23219200,0.99004239141095,0.016509816109053,0.0045702886922626,0.007369238724244,0.0045702886925465,-0.00095665547995663,0.00095665555397541,1.318461518799e-09,-1.2442586991241e-09,-2.3441923619736e-10,3.2136017519665e-10,-0.0011380273319525,0.0011380280774376,-0.0011380282471598,0.0011380272800546,-0.0011380271786286,0.0011380282806656,-0.0011380280449589,0.0011380274439728,-0.00094085952538693,0.00094086228543959,-0.00094086201246389,0.00094085977359867,1.8297388656748e-10,-4.1151342019455e-10,1.5636311940639e-08,-1.5853432580458e-08,-0.0019007873108108,0.0019007870925232,-0.0021350260734181,0.0021350365164239,-0.0021350365046187,0.0021350260244576,-0.002135026266993,0.0021350363167546,-0.0021350366960514,0.002135025826827,-0.0016275013160726,0.0016275318039793,-0.001627531854724,0.0016275005378741,-0.0016275213959572,0.0016275113147451,-0.0016275219717486,0.001627510717446,-2.5649287990682e-11,2.5452982928338e-09,-0.0009566542568027,0.00095665677702091,-1.3975719645123e-08,1.7101448756153e-08,-0.0011380321513339,0.001138023318498,-0.0011380218315274,0.0011380336361239,-0.0011380312982972,0.0011380241740063,-0.0011380209737617,0.0011380344966625,-0.00094085317079147,0.0009408686281946,-0.00094085569681006,0.00094086609976984,0.65900011293608,128566,2924,0.003981667459138,0.0078853527460584,0.0039816674589208,15.525825096624,-0.00011579339922701,-0.00011579339922701,-0.00011579339922701,4195694.7179191,0.015976327597953
23419200,0.99024105670296,0.016512846495365,0.0045711161655077,0.0073706141640661,0.0045711161657916,-0.00095712202598553,0.0009571221021001,1.3316788219956e-09,-1.2553227860747e-09,-2.6700799623606e-10,3.54440849193e-10,-0.0011385791894085,0.0011385799257069,-0.0011385801141485,0.0011385791181896,-0.0011385790151264,0.0011385801480417,-0.0011385798894845,0.0011385793063645,-0.00094136470245935,0.00094136750924508,-0.00094136721528906,0.00094136498059057,2.1404569334511e-10,-4.4628126400196e-10,1.5726696466924e-08,-1.5946866981631e-08,-0.0019015180994867,0.0019015178781793,-0.002135795838529,0.0021358063630748,-0.0021358063309533,0.0021357958078946,-0.0021357960549568,0.0021358061389829,-0.0021358065419494,0.002135795589895,-0.0016281710957014,0.0016282017360352,-0.0016282018007698,0.0016281702834088,-0.0016281912507004,0.0016281811661911,-0.0016281918915079,0.0016281805136442,-3.2649957000049e-11,2.5664756121675e-09,-0.00095712079633512,0.00095712333184993,-1.4085965983232e-08,1.723284098843e-08,-0.0011385840413741,0.0011385751338993,-0.001138573642504,0.0011385855305873,-0.0011385831805401,0.0011385759966043,-0.0011385727730506,0.0011385864016653,-0.00094135831002553,0.00094137388922033,-0.00094136086866357,0.00094137133144625,0.65256369713675,128566,2924,0.0039836073572839,0.0078883693573764,0.0039836073575164,15.704525170462,-0.00011436379863631,-0.00011436379863631,-0.00011436379863631,4197972.877278,0.015983335280657
23619200,0.99044224766759,0.016515984749219,0.0045719763916618,0.0073720319656118,0.0045719763919454,-0.00095818275566955,0.00095818283128662,1.3457211981154e-09,-1.268903938259e-09,-2.7276537959092e-10,3.5622708403652e-10,-0.0011397399582154,0.0011397407001605,-0.0011397408918953,0.0011397398854942,-0.0011397397808451,0.00113974092676,-0.0011397406650796,0.0011397400748297,-0.00094248201436653,0.00094248485477787,-0.00094248456144863,0.00094248230301137,2.1763476599552e-10,-4.502502609283e-10,1.577517192715e-08,-1.5995226845917e-08,-0.0019029123461266,0.0019029121246102,-0.0021372409083574,0.0021372514669434,-0.0021372514315695,0.0021372408783242,-0.0021372411265143,0.0021372512419206,-0.0021372516463808,0.0021372406570366,-0.0016294864688097,0.0016295172036855,-0.0016295172512671,0.0016294856326818,-0.0016295066811531,0.0016294965743457,-0.0016295073385828,0.0016294959216883,-4.377397882323e-11,2.5805866473158e-09,-0.00095818152297448,0.00095818406404855,-1.4109548556506e-08,1.7270941589127e-08,-0.0011397448261893,0.0011397358923894,-0.0011397344062064,0.00113974631,-0.0011397439556774,0.0011397367644377,-0.0011397335292297,0.0011397471888437,-0.00094247561464198,0.00094249123751509,-0.00094247819890691,0.00094248865745183,0.66669035335612,128566,2924,0.0039880144132387,0.0078941271319569,0.0039880144134322,16.219279615867,-0.00011024576307306,-0.00011024576307306,-0.00011024576307306,4206403.2433247,0.015998141414165
23819200,0.99064593104697,0.016519330885432,0.0045729008305431,0.0073735292240619,0.0045729008308275,-0.00095925396353764,0.00095925404056392,1.3594445782726e-09,-1.2821588367165e-09,-2.6743615222236e-10,3.5688654983147e-10,-0.0011409670636746,0.0011409678159325,-0.001140968005694,0.0011409669927197,-0.0011409668878549,0.001140968041888,-0.0011409677807864,0.0011409671794126,-0.00094363586245407,0.00094363872627618,-0.00094363842907831,0.00094363613910505,2.1570905817752e-10,-4.4755768959627e-10,1.5832991495272e-08,-1.6052883346609e-08,-0.0019043918446245,0.0019043916234765,-0.0021387400914613,0.0021387506857201,-0.00213875065193,0.0021387400603531,-0.0021387403074705,0.0021387504630195,-0.0021387508658185,0.0021387398398604,-0.0016308987643293,0.0016309296159199,-0.0016309296837255,0.0016308979521625,-0.0016309190565327,0.0016309089088125,-0.0016309197014528,0.0016309082462993,-5.423221055937e-11,2.5957144181507e-09,-0.00095925273034862,0.0009592552736324,-1.4160218645805e-08,1.7314487027023e-08,-0.0011409719551627,0.0011409629852101,-0.0011409615031847,0.0011409734349841,-0.0011409710758646,0.0011409638669167,-0.0011409606188828,0.0011409743219034,-0.00094362944471066,0.0009436451317712,-0.00094363204880034,0.00094364252642336,0.70079155812564,128566,2924,0.0039924667803147,0.0079002348375765,0.003992466780079,16.741899019414,-0.00010606480784469,-0.00010606480784469,-0.00010606480784469,4212235.5101915,0.016013396400629
24019200,0.99085196566115,0.016522754724155,0.004573847697139,0.0073750593295921,0.0045738476974234,-0.0009602977168303,0.00096029779333954,1.3720860013763e-09,-1.2955140564408e-09,-2.6300101621088e-10,3.5230229923012e-10,-0.0011422801902319,0.0011422809538364,-0.0011422811412252,0.0011422801217479,-0.0011422800177109,0.0011422811766012,-0.0011422809190515,0.001142280305691,-0.00094481491389168,0.00094481779828779,-0.00094481750419303,0.00094481518548843,2.1134498408522e-10,-4.4264716672702e-10,1.5888230659871e-08,-1.6107700962381e-08,-0.001905991887958,0.0019059916672809,-0.0021402872652658,0.0021402978931897,-0.0021402978616988,0.0021402872312703,-0.0021402874784676,0.0021402976732369,-0.0021402980721861,0.002140287014089,-0.0016324583046077,0.0016324892668075,-0.0016324893322887,0.0016324574971781,-0.0016324786740962,0.0016324684805928,-0.001632479308401,0.0016324678267441,-6.4165928563531e-11,2.6124087210156e-09,-0.00096029648020444,0.00096029902993211,-1.4216548795193e-08,1.7377311502384e-08,-0.0011422851084663,0.0011422760965448,-0.0011422746171126,0.0011422865857623,-0.0011422842205593,0.001142276986927,-0.0011422737237274,0.0011422874818043,-0.00094480847017148,0.0009448242309098,-0.00094481110044964,0.00094482159830052,0.70866201533443,128566,2924,0.0039968089540241,0.0079068356305,0.0039968089539675,17.264805032064,-0.00010188155974349,-0.00010188155974349,-0.00010188155974349,4212251.5055925,0.016028930820663
24219200,0.99105896325526,0.016526050345339,0.0045747523523208,0.0073765456404134,0.0045747523526053,-0.00096114341792826,0.00096114349481745,1.385477018981e-09,-1.3088068358418e-09,-2.6045477944887e-10,3.5175795238895e-10,-0.0011434129396216,0.0011434137128444,-0.0011434138993004,0.0011434128721069,-0.0011434127680294,0.0011434139348976,-0.001143413678323,0.0011434130546587,-0.00094580531397342,0.00094580822325138,-0.00094580792886364,0.0009458055816312,2.1039314092808e-10,-4.4152072184502e-10,1.5973019719094e-08,-1.6192511884877e-08,-0.0019074154604178,0.0019074152398158,-0.0021416516146474,0.0021416622976797,-0.0021416622663456,0.0021416515796797,-0.0021416518267787,0.0021416620786172,-0.0021416624763117,0.002141651362778,-0.0016338436503234,0.0016338747803294,-0.0016338748514199,0.0016338428498678,-0.0016338641325099,0.0016338538814041,-0.0016338647620349,0.0016338532242651,-7.3358856464864e-11,2.6291622512573e-09,-0.00096114217795225,0.00096114473468558,-1.4290922201489e-08,1.7456556996304e-08,-0.0011434178890617,0.0011434088247197,-0.0011434073463776,0.0011434193652728,-0.0011434169923218,0.0011434097240906,-0.0011434064447403,0.0011434202697269,-0.000945798841174,0.00094581468651904,-0.00094580149499586,0.00094581202876912,0.68010064270395,128566,2924,0.004000330006597,0.0079127055948433,0.0040003300063727,17.692612312121,-9.8459101503034e-05,-9.8459101503034e-05,-9.8459101503034e-05,4209852.857011,0.016042054528181
24419200,0.99126375271663,0.016529307394045,0.0045756462060238,0.0073780149817128,0.0045756462063083,-0.00096158135933598,0.00096158143764843,1.3992589538531e-09,-1.3215259097408e-09,-2.6856969337654e-10,3.6282324341073e-10,-0.0011440175225439,0.0011440182991429,-0.0011440184911383,0.0011440174498585,-0.0011440173447251,0.001144018527914,-0.0011440182636749,0.0011440176383864,-0.00094633456781198,0.00094633750961495,-0.00094633720608178,0.00094633483939953,2.1950396212816e-10,-4.5135844554461e-10,1.609982150721e-08,-1.6320108015903e-08,-0.0019082572751139,0.0019082570536959,-0.0021425058911251,0.0021425166630631,-0.0021425166256081,0.0021425058606154,-0.0021425061092087,0.0021425164377774,-0.0021425168417574,0.0021425056371568,-0.0016346283353486,0.00163465970767,-0.0016346597896221,0.0016346275317668,-0.0016346489700197,0.0016346386530327,-0.0016346496162162,0.0016346379733763,-8.0043000779873e-11,2.6486142622852e-09,-0.00096158011400186,0.00096158268291275,-1.4409210167403e-08,1.758622122065e-08,-0.0011440225134361,0.0011440133700555,-0.0011440118881886,0.0011440239930789,-0.001144021607914,0.0011440142784037,-0.0011440109781393,0.0011440249061964,-0.0009463280512622,0.00094634401883205,-0.00094633072895883,0.00094634133461075,0.67934590559234,128566,2924,0.0040021549215717,0.0079161758848896,0.0040021549214151,17.884942749773,-9.6920458001815e-05,-9.6920458001815e-05,-9.6920458001815e-05,4208921.7329876,0.016049290993346
24619200,0.99146622580855,0.016532676315847,0.0045765775033046,0.0073795213089537,0.0045765775035889,-0.00096202458796257,0.0009620246663313,1.4125368593619e-09,-1.3343562517453e-09,-2.7538128869875e-10,3.6810938039346e-10,-0.0011446052938902,0.0011446060757552,-0.0011446062717997,0.0011446052180996,-0.0011446051122266,0.0011446063084018,-0.0011446060401006,0.0011446054107619,-0.00094686077032699,0.00094686374308404,-0.0009468634379168,0.00094686105141427,2.2467333479561e-10,-4.5750829708263e-10,1.6199290746729e-08,-1.6420228964923e-08,-0.0019090768645817,0.0019090766425548,-0.0021433391291799,0.0021433499703871,-0.002143349928513,0.0021433391007912,-0.0021433393512632,0.0021433497411059,-0.0021433501482569,0.0021433388738146,-0.0016353949240697,0.0016354264879056,-0.0016354265633146,0.0016353941049965,-0.0016354156821548,0.0016354053089708,-0.0016354163417464,0.0016354046229401,-8.8069973754373e-11,2.6672705601179e-09,-0.00096202333656542,0.00096202591765681,-1.4506290780774e-08,1.7701498050402e-08,-0.0011446103217319,0.0011446011098186,-0.0011445996261626,0.0011446118031388,-0.0011446094074817,0.0011446020267697,-0.0011445987068826,0.0011446127252898,-0.00094685421554565,0.00094687028819913,-0.00094685692158488,0.00094686757850183,0.70944459212465,128566,2924,0.0040040009251344,0.007919555437119,0.0040040009249913,18.071747573502,-9.542601941198e-05,-9.542601941198e-05,-9.542601941198e-05,4208407.3807171,0.016056477797834
24819200,0.99166634636918,0.016535770058853,0.004577422142262,0.0073809257740446,0.0045774221425466,-0.00096243733491272,0.00096243741319897,1.4256970018066e-09,-1.3474836166265e-09,-2.7821166189639e-10,3.7025641509714e-10,-0.0011452513689431,0.0011452521580708,-0.0011452523559412,0.0011452512918999,-0.0011452511857772,0.0011452523924056,-0.0011452521225793,0.0011452514862851,-0.00094738614796201,0.00094738914839509,-0.00094738884236587,0.00094738643221707,2.2723279372354e-10,-4.6011164755206e-10,1.6277935448775e-08,-1.6498833859716e-08,-0.0019099747180141,0.0019099744959685,-0.002144189834913,0.0021442007299319,-0.002144200685484,0.0021441898074374,-0.0021441900587782,0.0021442004989135,-0.0021442009069421,0.0021441895788344,-0.0016362591552566,0.0016362908718586,-0.0016362909449279,0.001636258330311,-0.0016362800119191,0.0016362695915239,-0.0016362806776597,0.0016362689020109,-9.7498210520491e-11,2.6842731890154e-09,-0.00096243607937511,0.00096243866865864,-1.4579730109547e-08,1.7785695105204e-08,-0.0011452564273769,0.0011452471616977,-0.0011452456795326,0.0011452579074227,-0.00114525550434,0.0011452480873499,-0.0011452447513251,0.0011452588383894,-0.00094737956438782,0.0009473957221149,-0.00094738229690797,0.00094739298677009,0.66112228273448,128566,2924,0.0040057230137209,0.0079232548335006,0.0040057230135675,18.258350920862,-9.3933192633103e-05,-9.3933192633103e-05,-9.3933192633103e-05,4203360.390286,0.016063739737341
25019200,0.99186636442017,0.016538826191733,0.0045782551966894,0.0073823157980694,0.004578255196974,-0.00096319278592371,0.00096319286239486,1.438260226255e-09,-1.3614682875818e-09,-2.6735242172696e-10,3.559885977927e-10,-0.00114610222786,0.0011461030325846,-0.0011461032237476,0.0011461021578983,-0.001146102052817,0.0011461032586929,-0.0011461029987968,0.0011461023438407,-0.00094820126645757,0.00094820428452176,-0.00094820399006834,0.00094820154455549,2.1521514479564e-10,-4.4707160421055e-10,1.6269554211581e-08,-1.6489389268888e-08,-0.0019110775082844,0.0019110772872448,-0.0021453561785806,0.0021453670603161,-0.0021453670228575,0.00214535614354,-0.0021453563942629,0.0021453668378495,-0.0021453672363327,0.0021453559232983,-0.001637276939029,0.0016373086480729,-0.0016373087050169,0.0016372761166933,-0.0016372978004504,0.001637287362659,-0.0016372984447467,0.0016372867014726,-1.1159172004882e-10,2.6964340822943e-09,-0.00096319152992137,0.00096319411829482,-1.4567395032434e-08,1.7775362155025e-08,-0.0011461072955397,0.0011460980268573,-0.0011460965551331,0.0011461087651514,-0.0011461063635641,0.0011460989612494,-0.0011460956181489,0.0011461097046874,-0.00094819468371542,0.00094821085550516,-0.00094819744293065,0.00094820809567129,0.65362538168534,128566,2924,0.0040088636927767,0.0079278064697424,0.0040088636925845,18.629942291946,-9.0960461664431e-05,-9.0960461664431e-05,-9.0960461664431e-05,4209408.2621112,0.016074747503651
25219200,0.99206950303513,0.01654203349983,0.0045791343438359,0.0073837648118729,0.0045791343441208,-0.00096444415857524,0.00096444423067552,1.4502582282868e-09,-1.3771720423475e-09,-2.4412249811128e-10,3.2443068562996e-10,-0.0011474449076902,0.0011474457356469,-0.0011474459120344,0.0011474448529405,-0.0011474447497725,0.0011474459445311,-0.0011474457062536,0.001147445020097,-0.00094951420535262,0.00094951723319605,-0.00094951696354614,0.00094951446795675,1.8906489513841e-10,-4.1890499703401e-10,1.6182057346491e-08,-1.6399820843789e-08,-0.0019127099219948,0.0019127097032668,-0.0021470687719601,0.0021470795791973,-0.0021470795569732,0.0021470687219763,-0.0021470689693354,0.0021470793759105,-0.0021470797538042,0.0021470685193892,-0.0016388075960498,0.0016388391547164,-0.0016388391785423,0.0016388067789591,-0.0016388283771674,0.0016388179487346,-0.0016388289766677,0.0016388173467371,-1.2990174227844e-10,2.7031579493333e-09,-0.00096444290550684,0.00096444548375449,-1.4457300670741e-08,1.7660517878455e-08,-0.001147449959838,0.0011474407449479,-0.0011474392933339,0.0011474514096384,-0.0011474490184296,0.0011474416883085,-0.0011474383484963,0.0011474523566084,-0.00094950765934394,0.00094952376365552,-0.00094951044358544,0.00094952098350971,0.67454674259294,128566,2924,0.0040140624701937,0.0079345475560351,0.0040140624702615,19.27097688475,-8.5832184921998e-05,-8.5832184921998e-05,-8.5832184921998e-05,4220938.7664561,0.016092162509993
25419200,0.99227564125749,0.016545555700777,0.0045801113592944,0.0073853329819029,0.0045801113595802,-0.00096571151738809,0.00096571158812753,1.4620147674543e-09,-1.390808079838e-09,-2.212534824113e-10,3.0263852883598e-10,-0.0011488781730045,0.0011488790228712,-0.0011488791859422,0.0011488781306073,-0.0011488780303777,0.001148879216297,-0.0011488789941586,0.0011488782831715,-0.0009508764229928,0.00095087945548534,-0.00095087919843807,0.00095087666159499,1.6814214419644e-10,-3.9506510244407e-10,1.6072327351844e-08,-1.6287878813542e-08,-0.0019144515421638,0.0019144513253551,-0.0021488403519782,0.0021488510723133,-0.0021488510649065,0.0021488402896667,-0.0021488405352062,0.0021488508834623,-0.0021488512465006,0.0021488401025402,-0.0016404679946441,0.0016404993501118,-0.0016404993724795,0.0016404672119889,-0.0016404886590667,0.0016404782614805,-0.0016404892094229,0.0016404776991504,-1.4873894341047e-10,2.7114242379482e-09,-0.00096571026992393,0.00096571283553836,-1.4372880730418e-08,1.7555001896646e-08,-0.0011488832141003,0.0011488740432772,-0.0011488726111506,0.001148884644126,-0.0011488822642363,0.0011488749952953,-0.0011488716570642,0.0011488856006197,-0.00095086990203508,0.00095088596469181,-0.00095087271137483,0.00095088315475554,0.727891906254,128566,2924,0.0040193298668524,0.0079417369958718,0.0040193298667598,19.918357430721,-8.0653140554228e-05,-8.0653140554228e-05,-8.0653140554228e-05,4228660.1869401,0.016110174311518
25619200,0.99248456213875,0.016549147777564,0.0045811076459578,0.0073869324853621,0.0045811076462437,-0.00096693680339032,0.00096693687297625,1.4742503475719e-09,-1.4043758191064e-09,-2.0492104287266e-10,2.86169250667e-10,-0.001150443919898,0.0011504447881522,-0.0011504449413717,0.0011504438864259,-0.0011504437883328,0.0011504449701317,-0.0011504447602304,0.0011504440286723,-0.00095227598192083,0.00095227902584612,-0.00095227877991184,0.00095227620626256,1.5231983673354e-10,-3.7777900634597e-10,1.5973536226551e-08,-1.6187926486075e-08,-0.0019163753219262,0.0019163751064363,-0.0021506808886604,0.0021506915344349,-0.0021506915377064,0.0021506808179049,-0.0021506810612814,0.002150691356213,-0.0021506917080278,0.0021506806420445,-0.0016423517392986,0.0016423829107816,-0.0016423829284303,0.001642350976218,-0.0016423722972013,0.0016423619327949,-0.0016423728112881,0.00164236140118,-1.6682086512311e-10,2.7201208576354e-09,-0.00096693556050586,0.00096693811579648,-1.4289300848197e-08,1.7457171874458e-08,-0.0011504489487662,0.0011504398205859,-0.0011504384065023,0.0011504503607752,-0.0011504479903844,0.00115044078118,-0.0011504374431869,0.0011504513265836,-0.00095226948752845,0.00095228550911642,-0.00095227232356583,0.00095228267156375,0.73243474463867,128566,2924,0.0040244284266858,0.0079496713982259,0.004024428426565,20.565961052397,-7.5472311580825e-05,-7.5472311580825e-05,-7.5472311580825e-05,4227451.4624016,0.016128603698988
25819200,0.99269084527882,0.016552601005357,0.004582060859227,0.0073884792866169,0.004582060859513,-0.00096741087357712,0.00096741094824407,1.4899074254685e-09,-1.4161562349587e-09,-2.2135683470616e-10,3.1416522670327e-10,-0.001151235428527,0.0011512362932915,-0.001151236457733,0.0011512353836332,-0.0011512352815844,0.0011512364918999,-0.001151236262913,0.0011512355385616,-0.00095290998058238,0.0009529130688282,-0.00095291279806381,0.00095291020952116,1.6489386166454e-10,-3.9028090459803e-10,1.5976198210346e-08,-1.619112511083e-08,-0.0019174741442172,0.0019174739282677,-0.0021517000866325,0.0021517107401729,-0.0021517107373421,0.0021517000243419,-0.0021517002658218,0.0021517105553133,-0.0021517109174713,0.0021516998383694,-0.0016434227953125,0.0016434539679291,-0.0016434540246297,0.0016434220535924,-0.0016434433438277,0.0016434330052125,-0.0016434438734702,0.0016434324288885,-1.7696785269659e-10,2.7352090379684e-09,-0.00096740963233281,0.00096741218919182,-1.4342511276714e-08,1.7499625394436e-08,-0.0011512404744443,0.001151231309457,-0.0011512298989112,0.0011512418829051,-0.0011512395067778,0.0011512322806215,-0.0011512289296912,0.0011512428560679,-0.000952903479279,0.00095291956569628,-0.00095290633122841,0.00095291670411544,0.71386318728225,128566,2924,0.0040264086059592,0.0079541965427263,0.0040264086053036,20.80505957931,-7.3559523365516e-05,-7.3559523365516e-05,-7.3559523365516e-05,4219589.3337916,0.016137231023223
26019200,0.99288992208718,0.016555803081633,0.0045829390673678,0.0073899249466119,0.0045829390676536,-0.00096723299531759,0.00096723307113994,1.5021051668984e-09,-1.4276599813097e-09,-2.5131987866088e-10,3.4375242789341e-10,-0.0011512632972275,0.0011512641559989,-0.0011512643374757,0.0011512632344614,-0.0011512631339503,0.0011512643703342,-0.0011512641213808,0.0011512634147444,-0.00095283452507746,0.00095283764949525,-0.00095283736073606,0.00095283477753246,2.1287314181282e-10,-4.4443216907878e-10,1.6145232486701e-08,-1.6365499192469e-08,-0.0019177323393356,0.0019177321198035,-0.0021519294422832,0.0021519402487526,-0.002151940210744,0.0021519294134669,-0.0021519296579613,0.0021519400245101,-0.0021519404204122,0.0021519291967485,-0.0016436484998873,0.0016436799643558,-0.00164368005989,0.0016436477104044,-0.0016436692107138,0.0016436588393588,-0.0016436698291074,0.0016436581670243,-1.8694205958517e-10,2.7542603037006e-09,-0.00096723175023951,0.00096723431621789,-1.4399176787327e-08,1.7569395703693e-08,-0.0011512683600261,0.0011512591553397,-0.0011512577465823,0.0011512697682833,-0.0011512673860916,0.0011512601319958,-0.0011512567633953,0.0011512707544005,-0.00095282799927168,0.00095284416886206,-0.00095283089074282,0.00095284127341167,0.6868829129703,128566,2924,0.0040256791202992,0.0079552522391054,0.0040256791202783,20.675731948757,-7.4594144409945e-05,-7.4594144409945e-05,-7.4594144409945e-05,4209732.9189043,0.01613682393295
26219200,0.99308198083844,0.016559072529652,0.0045838444799838,0.0073913835693993,0.0045838444802686,-0.00096707252405282,0.00096707260362127,1.5184083574537e-09,-1.4392195657243e-09,-2.8627023231002e-10,3.8016705015758e-10,-0.0011511951276234,0.0011511959734479,-0.0011511961761223,0.0011511950456799,-0.0011511949387763,0.0011511962137955,-0.0011511959364862,0.0011511952459274,-0.00095272982051042,0.00095273300789884,-0.00095273269287687,0.00095273010865787,2.3671934803347e-10,-4.6996682554196e-10,1.6209169404883e-08,-1.6430383203248e-08,-0.0019178606374302,0.0019178604150645,-0.0021520879353671,0.0021520987892822,-0.0021520987396374,0.0021520879151186,-0.0021520881652134,0.0021520985520237,-0.0021520989671502,0.0021520876802712,-0.0016437287707915,0.0016437603448311,-0.0016437604306329,0.0016437279436908,-0.0016437495261834,0.0016437391684953,-0.0016437502083395,0.0016437384578986,-1.9398888501905e-10,2.7722736495183e-09,-0.00096707127390899,0.000967073853758,-1.4511391853058e-08,1.770542857051e-08,-0.0011512002249276,0.0011511909384304,-0.0011511895262867,0.0011512016348959,-0.0011511992405862,0.0011511919255053,-0.0011511885365422,0.0011512026275058,-0.00095272326829055,0.00095273955015698,-0.00095272618098035,0.00095273663371671,0.72524660768781,128566,2924,0.0040250181432254,0.007955776091792,0.0040250181432167,20.537672977898,-7.5698616176813e-05,-7.5698616176813e-05,-7.5698616176813e-05,4204812.3719351,0.016136013371877
26419200,0.99326730539426,0.016562316598071,0.0045847465555003,0.0073928234867849,0.0045847465557855,-0.00096690192980011,0.00096690201161616,1.5328352398878e-09,-1.4513991928684e-09,-3.0776452673291e-10,4.0419790303152e-10,-0.0011512182188663,0.001151219060517,-0.0011512192762154,0.0011512181242182,-0.0011512180147701,0.00115121931612,-0.0011512190219184,0.0011512183395457,-0.00095265819565072,0.00095266142698674,-0.0009526610959114,0.00095265850255842,2.5696570216831e-10,-4.9226123116905e-10,1.627833017901e-08,-1.6501308336593e-08,-0.0019180931741472,0.0019180929500211,-0.0021522675879743,0.0021522785016632,-0.0021522784387335,0.0021522675792385,-0.0021522678318206,0.002152278250093,-0.0021522786804793,0.0021522673298987,-0.0016439495606203,0.0016439812575986,-0.0016439813568604,0.0016439487155272,-0.0016439703796221,0.0016439600166226,-0.001643971104404,0.0016439592632647,-2.0334893440317e-10,2.7891946354201e-09,-0.00096690067667582,0.00096690326464443,-1.4585047061941e-08,1.7788974733216e-08,-0.001151223340899,0.0011512140007734,-0.0011512125899627,0.0011512247496559,-0.0011512223476564,0.0011512149968409,-0.0011512115916921,0.0011512257508367,-0.00095265162343808,0.00095266798984795,-0.00095265456142985,0.00095266504826486,0.74502755123759,128566,2924,0.00402431799914,0.0079567268437895,0.0040243179989457,20.39929491105,-7.6805640711603e-05,-7.6805640711603e-05,-7.6805640711603e-05,4194336.8799994,0.016135559243572
26619200,0.9934502437277,0.016565490139513,0.0045856278528873,0.0073942344334535,0.0045856278531726,-0.0009673543377957,0.00096735441613374,1.543942190556e-09,-1.4648658956689e-09,-2.9603674567217e-10,3.8391897000959e-10,-0.0011519510433624,0.0011519519032265,-0.0011519521110452,0.0011519509576655,-0.0011519508514408,0.0011519521465256,-0.0011519518656863,0.001151951164192,-0.00095325920829651,0.00095326244911813,-0.00095326213598741,0.00095325951298716,2.4835144462208e-10,-4.8346337876094e-10,1.6242530338142e-08,-1.6464807359966e-08,-0.0019191106863054,0.0019191104628342,-0.0021531953443526,0.0021532062318564,-0.0021532061732352,0.0021531953302549,-0.0021531955848679,0.002153205984529,-0.0021532064079333,0.0021531950886541,-0.0016449548737328,0.001644986502026,-0.0016449865711489,0.0016449540109924,-0.001644975656291,0.0016449652959485,-0.0016449763684496,0.0016449645776704,-2.2095353578953e-10,2.8002594062924e-09,-0.00096735308471954,0.00096735566916066,-1.4524895607586e-08,1.7735174521824e-08,-0.0011519561621174,0.0011519468462176,-0.0011519454511078,0.0011519575553813,-0.0011519551608744,0.001151947849843,-0.0011519444410613,0.0011519585677273,-0.00095325264605356,0.00095326899543699,-0.00095325562163343,0.0009532660233003,0.73848439681352,128566,2924,0.0040262070535535,0.0079609172563876,0.0040262070534971,20.629902236562,-7.4960782107504e-05,-7.4960782107504e-05,-7.4960782107504e-05,4187219.3968659,0.016143660591241
26819200,0.99363300265977,0.016568583954058,0.0045864837154972,0.0073956165227772,0.0045864837157836,-0.00096815172096927,0.0009681517974961,1.5588191856549e-09,-1.4818789041559e-09,-2.7569288360988e-10,3.6331412394408e-10,-0.0011530276821502,0.0011530285598686,-0.001153028755437,0.0011530276072728,-0.0011530274989286,0.0011530287933797,-0.0011530285285028,0.0011530277963754,-0.00095420721739212,0.00095421048577296,-0.00095421018802857,0.00095420750405328,2.130023336308e-10,-4.4424743807512e-10,1.6113855929409e-08,-1.6332939793607e-08,-0.0019205079634652,0.0019205077433637,-0.0021545280310812,0.0021545388053605,-0.0021545387693916,0.0021545279966444,-0.0021545282422075,0.0021545385873708,-0.002154538983846,0.0021545277757647,-0.0016463184691797,0.0016463498830497,-0.0016463499371915,0.001646317648498,-0.0016463391324516,0.0016463288007295,-0.0016463397794215,0.001646328138737,-2.3579204629572e-10,2.8065433068888e-09,-0.00096815047183899,0.000968153046465,-1.4449763976629e-08,1.7644302069686e-08,-0.0011530327923042,0.0011530235111212,-0.0011530221314806,0.0011530341701998,-0.0011530317796983,0.0011530245260397,-0.0011530211187872,0.0011530351850377,-0.00095420069748289,0.00095421699261265,-0.00095420367959377,0.00095421401301452,0.72121904818815,128566,2924,0.0040295283618581,0.0079666766365818,0.0040295283615509,21.064613837087,-7.1483089303303e-05,-7.1483089303303e-05,-7.1483089303303e-05,4185001.1757373,0.016156266886712
27019200,0.99381548082246,0.016571588826533,0.0045873111935125,0.0073969664392212,0.0045873111937989,-0.00096896060261784,0.00096896067611414,1.5674782389448e-09,-1.4938541856944e-09,-2.4234822702177e-10,3.2809233865133e-10,-0.0011540580741279,0.001154058982646,-0.0011540591585173,0.0011540580182033,-0.0011540579183514,0.0011540591889592,-0.0011540589493875,0.0011540581888099,-0.0009551392159593,0.00095514246334077,-0.00095514218788397,0.00095513947067487,1.9579732758487e-10,-4.2518490465773e-10,1.6038239461558e-08,-1.6255973114533e-08,-0.001921850375679,0.0019218501568525,-0.0021558534034827,0.0021558641235764,-0.0021558640989837,0.0021558533595532,-0.0021558536080867,0.0021558639124915,-0.0021558642972198,0.0021558531550237,-0.0016476050835979,0.0016476363480212,-0.0016476363987329,0.0016476042856476,-0.0016476256698586,0.0016476153422248,-0.0016476262672146,0.0016476147244872,-2.5855148527151e-10,2.8161669284204e-09,-0.0009689593593311,0.00096896191928381,-1.4337564964173e-08,1.7511243988367e-08,-0.0011540631683439,0.0011540539498784,-0.0011540525939585,0.0011540645222557,-0.0011540621494201,0.0011540549711139,-0.0011540515661704,0.0011540655526371,-0.00095513270954433,0.00095514895836248,-0.0009551357351629,0.00095514593175571,0.70228505413447,128566,2924,0.0040328956282906,0.0079722115744834,0.0040328956280602,21.504205020852,-6.7966359833185e-05,-6.7966359833185e-05,-6.7966359833185e-05,4186055.9247416,0.0161687374807
27219200,0.99399752010732,0.016574495964346,0.0045881076251711,0.0073982807137176,0.0045881076254575,-0.00096978284164898,0.00096978291311555,1.581507916618e-09,-1.5100728497968e-09,-2.2528154038263e-10,3.088247853795e-10,-0.001155034877594,0.0011550358036183,-0.0011550359691796,0.0011550348316603,-0.0011550347309558,0.0011550360006384,-0.0011550357746901,0.0011550349874962,-0.00095605247074469,0.00095605574141941,-0.00095605547905821,0.00095605270973246,1.70012937045e-10,-3.9689700783356e-10,1.5936425095858e-08,-1.6152032034273e-08,-0.0019231215560818,0.0019231213394041,-0.0021571541449707,0.0021571647765884,-0.0021571647692534,0.0021571540858086,-0.0021571543284898,0.002157164587208,-0.0021571649525509,0.0021571538967748,-0.0016488003555355,0.0016488314446011,-0.0016488314784974,0.0016487995811307,-0.0016488208424462,0.001648810539091,-0.0016488213938033,0.0016488099677049,-2.7351496404824e-10,2.8240414382786e-09,-0.000969781601293,0.00096978415346999,-1.426640837337e-08,1.7430353146348e-08,-0.0011550399640824,0.0011550307783479,-0.0011550294373447,0.001155041303121,-0.001155038934868,0.0011550318100238,-0.0011550284047276,0.0011550423383677,-0.0009560459975758,0.00095606220408394,-0.00095604903672748,0.0009560591626708,0.68191772209252,128566,2924,0.0040363160649658,0.0079774551415305,0.0040363160649734,21.943974898597,-6.4448200811224e-05,-6.4448200811224e-05,-6.4448200811224e-05,4190396.2910541,0.01618101894464
27419200,0.99417753091748,0.016577459436494,0.0045889235654814,0.0073996123052448,0.0045889235657678,-0.00097039841302596,0.00097039848452423,1.5937122285457e-09,-1.5223974155991e-09,-2.1797021300153e-10,3.0299776003818e-10,-0.0011557227360069,0.0011557236758572,-0.0011557238372069,0.0011557226937327,-0.0011557225954022,0.001155723866849,-0.0011557236454992,0.0011557228470279,-0.00095671835889872,0.00095672164354654,-0.00095672138431997,0.0009567185905766,1.6823301424395e-10,-3.9496657504225e-10,1.5918307519161e-08,-1.6133971279429e-08,-0.001924060578472,0.0019240603619924,-0.0021581688466586,0.0021581794683653,-0.0021581794620677,0.0021581687875896,-0.0021581690307717,0.0021581792780076,-0.0021581796423777,0.0021581686013847,-0.0016496516012353,0.0016496826518626,-0.0016496826938909,0.0016496508358053,-0.0016496720689059,0.0016496617684835,-0.0016496726086659,0.0016496612003157,-2.8966965893046e-10,2.8364177182625e-09,-0.00097039717500995,0.0009703997224511,-1.4234641893697e-08,1.7389868489058e-08,-0.0011557278230448,0.00115571865017,-0.0011557173220975,0.0011557291492421,-0.0011557267860149,0.0011557196896652,-0.0011557162784496,0.0011557301956698,-0.00095671189002917,0.00095672810267259,-0.00095671496107738,0.00095672502845055,0.70214878014298,128566,2924,0.0040388757509959,0.0079813300264078,0.0040388757508109,22.25222344818,-6.198221241456e-05,-6.198221241456e-05,-6.198221241456e-05,4195910.5033833,0.016190158785295
27619200,0.99435498548838,0.01658042533563,0.0045897419349523,0.0074009414654393,0.0045897419352385,-0.0009709398442449,0.00097093991641815,1.6077569150379e-09,-1.5356603526765e-09,-2.2370776004325e-10,3.0920633289995e-10,-0.001156391139119,0.0011563920840206,-0.001156392248621,0.0011563910935403,-0.0011563909937366,0.0011563922796192,-0.0011563920536403,0.0011563912499676,-0.0009573308354589,0.00095733415384931,-0.00095733389047282,0.00095733107295216,1.7236111301572e-10,-3.993757452863e-10,1.5919137598509e-08,-1.6134963451648e-08,-0.0019249777080064,0.001924977491204,-0.0021591152244733,0.0021591258475569,-0.0021591258391431,0.0021591151674966,-0.0021591154105492,0.0021591256553492,-0.0021591260229896,0.0021591149775724,-0.0016505018091499,0.001650532860138,-0.0016505329016402,0.0016505010387128,-0.0016505222719044,0.0016505119818113,-0.0016505228228616,0.0016505114049099,-3.0191350865029e-10,2.8499666471508e-09,-0.00097093860576149,0.00097094115482152,-1.4243348416953e-08,1.7401343641034e-08,-0.0011563962360307,0.0011563870483425,-0.0011563857275005,0.0011563975548702,-0.0011563951896353,0.0011563880971996,-0.0011563846759107,0.0011563986091434,-0.00095732436769976,0.00095734061127836,-0.00095732746236561,0.00095733751390444,0.71252806738163,128566,2924,0.0040411291195191,0.0079851126280969,0.0040411291193573,22.519217668782,-5.9846258649745e-05,-5.9846258649745e-05,-5.9846258649745e-05,4197349.6595586,0.0161985836772
27819200,0.99452981459538,0.016583395399459,0.0045905634131627,0.0074022685728477,0.0045905634134491,-0.00097147226753382,0.0009714723404885,1.621304683321e-09,-1.5483070702649e-09,-2.3166661546083e-10,3.1753972773223e-10,-0.0011570837740567,0.0011570847234467,-0.0011570848926545,0.0011570837240434,-0.001157083623576,0.0011570849241669,-0.0011570846920192,0.0011570838861901,-0.00095794943351479,0.00095795278338509,-0.00095795251447829,0.00095794967874498,1.8062455669084e-10,-4.0849624948469e-10,1.5938716732792e-08,-1.6155218072824e-08,-0.0019259212914042,0.0019259210739091,-0.0021600657652713,0.0021600764071502,-0.0021600763933929,0.002160065713097,-0.0021600659574249,0.0021600762087542,-0.0021600765826408,0.0021600655176915,-0.0016513872908863,0.0016514183739285,-0.0016514184185608,0.0016513865107498,-0.0016514077682681,0.0016513974806865,-0.0016514083365158,0.0016513968887735,-3.1428301200207e-10,2.8645374590427e-09,-0.00097147102812494,0.00097147357980867,-1.4258596378903e-08,1.7420824118222e-08,-0.0011570888821627,0.0011570796765452,-0.0011570783624336,0.0011570901942858,-0.0011570878270758,0.0011570807340673,-0.0011570773015327,0.0011570912578274,-0.00095794296103904,0.00095795924487479,-0.00095794608342668,0.0009579561205271,0.72383356044031,128566,2924,0.0040433462754223,0.0079890030372934,0.0040433462752467,22.785206632759,-5.7718346937926e-05,-5.7718346937926e-05,-5.7718346937926e-05,4197003.7091902,0.016207045255446
28019200,0.99470196231705,0.016586371430273,0.0045913885865697,0.0074035942568471,0.0045913885868562,-0.00097199511825682,0.00097199519226337,1.6351870538565e-09,-1.5611310795156e-09,-2.4072370860925e-10,3.2769063909944e-10,-0.0011578004317652,0.0011578013845937,-0.0011578015592245,0.0011578003765173,-0.0011578002748478,0.0011578015918554,-0.001157801352368,0.0011578005448948,-0.00095857483555212,0.00095857821946679,-0.00095857794338459,0.00095857508858038,1.8945020936732e-10,-4.1815824555263e-10,1.5962226123714e-08,-1.6179436651375e-08,-0.0019268942287426,0.0019268940105162,-0.0021610236257277,0.0021610342885163,-0.0021610342691471,0.0021610235786739,-0.002161023823749,0.0021610340841084,-0.0021610344645817,0.0021610233769523,-0.0016523112001384,0.0016523423235376,-0.0016523423739399,0.0016523104120991,-0.0016523316963868,0.001652321410833,-0.0016523322833423,0.0016523208005256,-3.259420280661e-10,2.879277609585e-09,-0.00097199387774537,0.00097199643267652,-1.4282467123845e-08,1.7448663045803e-08,-0.0011578055531513,0.0011577963244792,-0.0011577950161154,0.0011578068595474,-0.001157804489155,0.0011577973909418,-0.0011577939465501,0.0011578079317559,-0.0009585683573351,0.00095858468668624,-0.0009585715052393,0.00095858153694073,0.73612509340255,128566,2924,0.0040455249277386,0.0079930131201905,0.0040455249275434,23.051158607432,-5.5590731140544e-05,-5.5590731140544e-05,-5.5590731140544e-05,4194934.6140176,0.01621555090296
28219200,0.99487070990366,0.016589343628382,0.0045922148071551,0.0074049140137855,0.0045922148074418,-0.00097238991823154,0.00097238999406041,1.6491174300761e-09,-1.5735364978138e-09,-2.5192927912867e-10,3.4221481821927e-10,-0.0011584158391719,0.0011584167938963,-0.0011584169755581,0.0011584157767548,-0.0011584156740578,0.0011584170095134,-0.0011584167599768,0.0011584159538182,-0.00095908438145911,0.00095908779968091,-0.00095908751236952,0.00095908464181583,2.0241265160891e-10,-4.3224666180825e-10,1.600898776553e-08,-1.6227313876641e-08,-0.0019277628481355,0.0019277626288099,-0.0021618552440368,0.002161865946043,-0.0021618659186503,0.002161855204611,-0.002161855450969,0.0021618657323126,-0.0021618661226002,0.002161854993923,-0.0016531431312784,0.0016531743367634,-0.001653174402436,0.0016531423385458,-0.00165316367166,0.0016531533797848,-0.0016531642820408,0.0016531527396707,-3.3685251443287e-10,2.895096907228e-09,-0.00097238867645217,0.00097239123570857,-1.4327319029885e-08,1.7495864007066e-08,-0.0011584209788886,0.0011584117156753,-0.0011584104114286,0.0011584222811456,-0.0011584199062379,0.0011584127909369,-0.0011584093328604,0.0011584233624943,-0.0009590778893577,0.00095909428229404,-0.00095908106296685,0.00095909110516352,0.74948916817167,128566,2924,0.0040471730577969,0.0079965907590142,0.004047173057523,23.250970548263,-5.3992235613896e-05,-5.3992235613896e-05,-5.3992235613896e-05,4190180.4707804,0.016222539388832
28419200,0.99503596515062,0.016592312940315,0.0045930424581729,0.0074062280236826,0.0045930424584594,-0.00097275500038617,0.00097275507708524,1.6630197192494e-09,-1.5864469348096e-09,-2.6317972339856e-10,3.5363572461254e-10,-0.0011590312683502,0.001159032225314,-0.0011590324137195,0.001159031199747,-0.0011590310955868,0.0011590324487761,-0.0011590321908202,0.0011590313840762,-0.00095958056159372,0.00095958401579984,-0.00095958372099976,0.00095958083241336,2.1250941557146e-10,-4.4336903955665e-10,1.6054063535202e-08,-1.6273173952059e-08,-0.0019286398589067,0.0019286396387722,-0.0021626724467824,0.0021626831848088,-0.00216268315068,0.002162672413064,-0.0021626726604482,0.0021626829642546,-0.0021626833618132,0.0021626721951173,-0.0016539943811732,0.0016540256687952,-0.0016540257369733,0.0016539935751042,-0.0016540149666651,0.0016540046652895,-0.0016540156000504,0.0016540040058994,-3.4749597631366e-10,2.9107960252493e-09,-0.00097275375620844,0.00097275632117775,-1.4370555408103e-08,1.7547688011061e-08,-0.0011590364270536,0.0011590271282128,-0.0011590258278221,0.0011590377254826,-0.001159035345423,0.0011590282124593,-0.0011590247406532,0.0011590388154048,-0.00095957405674936,0.00095959051040102,-0.00095957725614308,0.00095958730837813,0.76402416371792,128566,2924,0.0040486989898189,0.0080002014639898,0.0040486989896485,23.441588449805,-5.2467292401562e-05,-5.2467292401562e-05,-5.2467292401562e-05,4183701.7246509,0.016229313680743
28619200,0.99519773317701,0.016595239179427,0.0045938586857376,0.0074075218076657,0.0045938586860241,-0.00097310107808862,0.00097310115586689,1.6769289080483e-09,-1.5991866698748e-09,-2.7146508289313e-10,3.6319447318756e-10,-0.0011596595811637,0.0011596605419432,-0.0011596607354953,0.0011596595077493,-0.0011596594024721,0.0011596607714573,-0.0011596605067369,0.001159659697863,-0.00096007470953879,0.00096007819721801,-0.00096007789600714,0.00096007498836299,2.2071671137362e-10,-4.5241105827036e-10,1.6095644270822e-08,-1.6315460051248e-08,-0.001929542717281,0.0019295424964501,-0.0021634929297637,0.0021635037004745,-0.0021635036608937,0.0021634929006655,-0.0021634931489725,0.0021635034741658,-0.0021635038777116,0.0021634926768258,-0.0016548813655806,0.0016549127293945,-0.0016549128027046,0.0016548805518138,-0.0016549019948307,0.0016548916821916,-0.0016549026452074,0.0016548910054365,-3.5886072241707e-10,2.9259108525082e-09,-0.00097309983234424,0.0009731024014549,-1.4410695709432e-08,1.7592914094601e-08,-0.0011596647585078,0.0011596554263485,-0.0011596541308373,0.0011596660520431,-0.0011596636679801,0.0011596565195146,-0.0011596530349246,0.0011596671507069,-0.00096006819249811,0.00096008470361816,-0.0009600714180046,0.00096008147612938,0.76896079251361,128566,2924,0.0040501473176444,0.0080039171437881,0.004050147317327,23.631970797247,-5.0944233622026e-05,-5.0944233622026e-05,-5.0944233622026e-05,4175662.0337287,0.01623603751972
28819200,0.99535604433321,0.016598029079866,0.004594633760146,0.007408761559287,0.0045946337604327,-0.00097343253061866,0.00097343260857689,1.6902061250432e-09,-1.6123445460175e-09,-2.762476725236e-10,3.6789273936464e-10,-0.0011602764863777,0.0011602774532176,-0.0011602776497288,0.0011602764102771,-0.0011602763046556,0.0011602776858438,-0.0011602774177358,0.0011602766035769,-0.00096055396903958,0.00096055748564634,-0.00096055718114693,0.00096055425116322,2.2552173687751e-10,-4.5758413258944e-10,1.6128276137353e-08,-1.6348385210819e-08,-0.0019304416911125,0.001930441469921,-0.0021643085436413,0.0021643193389951,-0.0021643192961455,0.0021643085170376,-0.0021643087662429,0.0021643191093132,-0.0021643195161973,0.0021643082899691,-0.0016557640451168,0.0016557954694237,-0.001655795544225,0.0016557632257407,-0.0016557847097726,0.0016557743848572,-0.0016557853705422,0.0016557736993418,-3.7061094147984e-10,2.9408441621275e-09,-0.00097343128330824,0.00097343385579074,-1.4440441834708e-08,1.7627165420374e-08,-0.0011602816803609,0.0011602723210354,-0.0011602710314954,0.0011602829679193,-0.0011602805810165,0.0011602734230271,-0.001160269926613,0.0011602840755536,-0.00096054744126006,0.00096056400313046,-0.00096055069301031,0.0009605607489979,0.74978434652852,128566,2924,0.0040515352039587,0.0080076162655598,0.0040515352037669,23.824567283693,-4.9403461730455e-05,-4.9403461730455e-05,-4.9403461730455e-05,4167721.9335297,0.016242621684368
29019200,0.99551204107014,0.016600632072557,0.0045953508026834,0.007409930466903,0.0045953508029702,-0.0009739812235614,0.00097398129995394,1.7032704890076e-09,-1.626471806981e-09,-2.7208917233314e-10,3.5966456755317e-10,-0.0011610522782565,0.0011610532568081,-0.0011610534504201,0.0011610522056678,-0.0011610521000186,0.0011610534858626,-0.0011610532230532,0.0011610523943971,-0.00096122373199749,0.00096122727320626,-0.00096122697638659,0.00096122401421489,2.1827321749127e-10,-4.4978986581658e-10,1.6117610426183e-08,-1.6336977605607e-08,-0.0019315048576211,0.0019315046371147,-0.0021653384468227,0.0021653492302061,-0.0021653491912833,0.0021653384155916,-0.0021653386642395,0.0021653490062107,-0.0021653494071326,0.0021653381932619,-0.0016567836087537,0.0016568150189749,-0.0016568150765159,0.0016567827833341,-0.0016568042682992,0.0016567939380218,-0.0016568049204262,0.0016567932725417,-3.8406970938254e-10,2.9534118962139e-09,-0.00097397997527074,0.00097398254820764,-1.4428269687147e-08,1.7620607106116e-08,-0.0011610574798809,0.0011610481168017,-0.0011610468367841,0.0011610587579609,-0.001161056371297,0.001161049227836,-0.0011610457235559,0.0011610598737226,-0.0009612172081918,0.00096123378421319,-0.00096122048591583,0.00096123050714655,0.71130253510929,128566,2924,0.0040538230046338,0.0080119962345298,0.0040538230045853,24.140423844889,-4.6876609240884e-05,-4.6876609240884e-05,-4.6876609240884e-05,4165407.373315,0.016251725628972
29219200,0.99566567566698,0.016603135342022,0.0045960378075121,0.0074110597267101,0.0045960378077993,-0.00097456328859727,0.00097456336467786,1.716023449895e-09,-1.6398423350848e-09,-2.6276387814095e-10,3.5177665640579e-10,-0.0011617333716132,0.0011617343642238,-0.0011617345525886,0.0011617333036681,-0.0011617331994494,0.0011617345870886,-0.0011617343305562,0.0011617334870768,-0.00096186746007381,0.00096187101812561,-0.00096187072588886,0.0009618677321416,2.1106157739016e-10,-4.4169361009281e-10,1.6101731521802e-08,-1.6320539757007e-08,-0.0019324397889459,0.0019324395690259,-0.0021663289594534,0.0021663397279639,-0.0021663396938622,0.0021663289240508,-0.0021663291721582,0.0021663395085854,-0.0021663399042381,0.0021663287070985,-0.0016576376371485,0.0016576690201121,-0.0016576690817988,0.0016576368274725,-0.0016576582859911,0.0016576479510737,-0.0016576589186982,0.0016576472965913,-3.9871749689166e-10,2.9656770199842e-09,-0.00097456204181226,0.00097456461133038,-1.4415417518419e-08,1.7599712278097e-08,-0.0011617385801674,0.0011617292173859,-0.0011617279485968,0.0011617398469792,-0.0011617374629967,0.0011617303370671,-0.0011617268261417,0.0011617409720835,-0.00096186093770292,0.0009618775297121,-0.0009618642414882,0.00096187422457607,0.6951696724639,128566,2924,0.0040562449684353,0.0080158520806734,0.0040562449681721,24.459168329629,-4.4326653362967e-05,-4.4326653362967e-05,-4.4326653362967e-05,4169523.2798992,0.016260567147103
29419200,0.99581687603695,0.016605435439079,0.0045966615480733,0.0074121123426454,0.0045966615483605,-0.00097516218702745,0.00097516226231832,1.7288082166692e-09,-1.6535064416755e-09,-2.5520442817806e-10,3.4360516315695e-10,-0.001162373466956,0.0011623744728509,-0.0011623746567423,0.0011623734032947,-0.0011623733000488,0.0011623746903937,-0.0011623744398103,0.0011623735815733,-0.0009624949098892,0.00096249848729779,-0.00096249820061463,0.00096249517493168,2.0370890218581e-10,-4.3363629741466e-10,1.6083661692529e-08,-1.63019057095e-08,-0.0019333101090497,0.0019333098897389,-0.0021672916933705,0.0021673024452852,-0.0021673024159344,0.0021672916537203,-0.0021672919010393,0.0021673022309979,-0.0021673026211681,0.0021672914419523,-0.0016584113010172,0.0016584426533379,-0.0016584427112612,0.0016584104989509,-0.0016584319360549,0.0016584215984429,-0.0016584325528145,0.0016584209587628,-4.1304493057707e-10,2.978000456065e-09,-0.00097516094102672,0.00097516350822572,-1.439884973926e-08,1.7579823503215e-08,-0.0011623786815203,0.0011623693199932,-0.0011623680621405,0.0011623799373881,-0.0011623775555525,0.0011623704484774,-0.0011623669307402,0.0011623810714695,-0.00096248839104877,0.00096250499572855,-0.0009624917208513,0.0009625016640159,0.65089857843624,128566,2924,0.0040587343593518,0.0080194442320416,0.0040587343591686,24.778018424843,-4.1775852601254e-05,-4.1775852601254e-05,-4.1775852601254e-05,4176253.6707235,0.016269276946376
29619200,0.99596549168099,0.016607663552386,0.0045972643618464,0.0074131348284059,0.0045972643621336,-0.0009757808169309,0.00097578089181697,1.7418665940848e-09,-1.6669865477943e-09,-2.4961858745585e-10,3.379216579606e-10,-0.0011628925766104,0.0011628935945752,-0.0011628937751736,0.0011628925160591,-0.0011628924134249,0.0011628938083295,-0.0011628935619335,0.0011628926906371,-0.000963073182627,0.00096307678158996,-0.00096307649883983,0.00096307344300682,1.9837346253277e-10,-4.277854389779e-10,1.6067810620238e-08,-1.6285629815129e-08,-0.0019340151772032,0.0019340149583412,-0.0021681854396376,0.0021681961776558,-0.0021681961517606,0.0021681853969373,-0.0021681856436194,0.0021681959670773,-0.0021681963532902,0.002168185188872,-0.0016589820397379,0.0016590133645758,-0.0016590134204611,0.0016589812439366,-0.0016590026616994,0.0016589923240515,-0.001659003266591,0.0016589916945021,-4.2738036083805e-10,2.9902422325228e-09,-0.00097577957185378,0.00097578213676978,-1.4384330060532e-08,1.7561964569163e-08,-0.0011628977972119,0.0011628884356568,-0.0011628871886229,0.0011628990422596,-0.001162896662414,0.0011628895729773,-0.0011628860483609,0.0011629001852178,-0.0009630666678018,0.00096308328604638,-0.00096307002359612,0.00096307992821352,0.64191386520399,128566,2924,0.0040613006130431,0.0080223603869854,0.0040613006127936,25.08763807491,-3.929889540072e-05,-3.929889540072e-05,-3.929889540072e-05,4189685.975145,0.016277453319815
29819200,0.99611097309031,0.01660997360467,0.0045978957483775,0.0074141821076274,0.0045978957486648,-0.00097632136431518,0.00097632143946626,1.7551873870684e-09,-1.6802145366366e-09,-2.4927849680862e-10,3.3855583135175e-10,-0.001163309069569,0.0011633100963955,-0.0011633102769231,0.0011633090089313,-0.0011633089063162,0.0011633103102422,-0.0011633100635376,0.0011633091835703,-0.0009635568369646,0.00096356046159838,-0.00096356017774436,0.00096355709574773,1.9854110194091e-10,-4.2789800100979e-10,1.6067243880964e-08,-1.6285096102022e-08,-0.0019345864538629,0.001934586234981,-0.0021689587924664,0.0021689695301077,-0.0021689695043158,0.0021689587499234,-0.0021689589965154,0.0021689693194344,-0.0021689697059077,0.0021689585417123,-0.0016594185374256,0.001659449860925,-0.0016594499203034,0.0016594177450817,-0.00165943915852,0.001659428821539,-0.0016594397623888,0.0016594281899556,-4.4079038347621e-10,3.0033709647156e-09,-0.00097632011974324,0.0009763226839205,-1.4384724573656e-08,1.7560046472835e-08,-0.0011633142989693,0.0011633049287099,-0.0011633036908928,0.0011633155347886,-0.001163313155376,0.0011633060749263,-0.0011633025418524,0.0011633166866152,-0.00096355032238393,0.00096356696665203,-0.00096355370353439,0.00096356358240116,0.67837703979459,128566,2924,0.0040635415447115,0.0080247255529952,0.0040635415444701,25.339873107815,-3.7281015137479e-05,-3.7281015137479e-05,-3.7281015137479e-05,4202764.3087088,0.016284408230974
30019200,0.99625329149155,0.0166122687326,0.0045985244637897,0.0074152198047333,0.0045985244640771,-0.00097684204887247,0.00097684212394702,1.7685067761775e-09,-1.6934406467751e-09,-2.5080706986728e-10,3.3935737174759e-10,-0.001163843340313,0.0011638443752712,-0.0011638445565731,0.0011638432790536,-0.0011638431762398,0.0011638445898848,-0.0011638443424386,0.0011638434545127,-0.0009640790087912,0.00096408266079428,-0.00096408237698129,0.00096407927021292,1.9961179429082e-10,-4.2918059241574e-10,1.6066468285187e-08,-1.6284421860855e-08,-0.0019352891665396,0.0019352889475629,-0.002169768916511,0.0021697796544486,-0.0021697796277905,0.002169768874579,-0.0021697691213649,0.0021697794429846,-0.0021697798301834,0.0021697686656284,-0.0016600241958187,0.0016600555171719,-0.0016600555741242,0.00166002339908,-0.0016600448145875,0.0016600344801935,-0.0016600454219566,0.0016600338480208,-4.5415657069432e-10,3.0165981129129e-09,-0.000976840804104,0.00097684336859187,-1.4383745298337e-08,1.7560933539509e-08,-0.0011638485781876,0.0011638391990586,-0.0011638379701684,0.001163849805083,-0.0011638474256983,0.0011638403540747,-0.0011638368121928,0.0011638509657562,-0.00096407249492982,0.00096408916421181,-0.00096407590278046,0.00096408575431153,0.68873090603849,128566,2924,0.0040657044061909,0.0080276282722892,0.0040657044059434,25.59075955717,-3.5273923542639e-05,-3.5273923542639e-05,-3.5273923542639e-05,4208405.214599,0.016291753852507
30219200,0.99639243296694,0.016614415282003,0.004599107914241,0.0074161994532334,0.0045991079145286,-0.00097735063654693,0.00097735071169992,1.7818351975475e-09,-1.706664817306e-09,-2.5249939273783e-10,3.4091395743026e-10,-0.0011644077772582,0.0011644088201495,-0.0011644090023945,0.0011644077151031,-0.0011644076121107,0.0011644090358353,-0.0011644087871834,0.0011644078916498,-0.00096460454251543,0.00096460822179873,-0.00096460793691664,0.00096460480543805,2.0115408164559e-10,-4.3085241122517e-10,1.6065803978187e-08,-1.6283847183176e-08,-0.0019360250626306,0.0019360248435282,-0.0021705834853473,0.0021705942238054,-0.002170594196189,0.0021705834442915,-0.0021705836912806,0.002170594011287,-0.0021705943996541,0.0021705832342976,-0.0016606719288132,0.0016607032478429,-0.0016607033050247,0.0016606711300022,-0.0016606925444427,0.001660682213539,-0.0016606931555024,0.0016606815787913,-4.6748527109439e-10,3.029829782279e-09,-0.00097734939182928,0.00097735195630984,-1.4383033300088e-08,1.756061147815e-08,-0.0011644130234015,0.0011644036356458,-0.0011644024157418,0.0011644142413166,-0.0011644118620678,0.0011644047995012,-0.0011644012489034,0.0011644154108419,-0.00096459802954797,0.0009646147242315,-0.00096460146351389,0.00096461128835939,0.66008313192828,128566,2924,0.0040678183528425,0.0080306664268515,0.0040678183526294,25.841596600238,-3.3267227198092e-05,-3.3267227198092e-05,-3.3267227198092e-05,4211841.8381156,0.016299138749833
30419200,0.99652868034042,0.016616401636888,0.0045996424080614,0.007417116820478,0.004599642408349,-0.00097793650335629,0.00097793657834142,1.7950824862398e-09,-1.7199648264699e-09,-2.5244863713948e-10,3.4026165288713e-10,-0.0011649629364474,0.0011649639883266,-0.0011649641704213,0.0011649628744749,-0.0011649627714815,0.0011649642037712,-0.0011649639554564,0.0011649630507878,-0.00096516580642344,0.00096516951172122,-0.00096516922762561,0.00096516607008747,2.0079641068984e-10,-4.3047535944973e-10,1.6055890958494e-08,-1.6273865362996e-08,-0.0019367325722039,0.0019367323531372,-0.0021714335186801,0.002171444250318,-0.0021714442229375,0.0021714334773671,-0.0021714337244056,0.0021714440380756,-0.0021714444261993,0.0021714332676168,-0.0016612631954984,0.0016612944953506,-0.0016612945500801,0.0016612623950695,-0.0016612837984903,0.0016612734736753,-0.0016612844098077,0.0016612728409103,-4.8137270950077e-10,3.0425199209082e-09,-0.00097793525902653,0.00097793782256612,-1.4373720331887e-08,1.7551140929104e-08,-0.0011649681889323,0.0011649587974138,-0.0011649575875104,0.0011649693968372,-0.0011649670187074,0.001164959970109,-0.0011649564117773,0.0011649705751952,-0.00096515929712841,0.00096517600992143,-0.00096516275752022,0.00096517254824979,0.62526527973411,128566,2924,0.0040702501395616,0.0080335912301634,0.0040702501393577,26.129556315227,-3.0963549478185e-05,-3.0963549478185e-05,-3.0963549478185e-05,4220587.1068802,0.016307052849437
30619200,0.9966628229453,0.016618481172439,0.0046002084078581,0.0074180643564353,0.0046002084081458,-0.0009787413168033,0.00097874139040626,1.8078330714075e-09,-1.733733983565e-09,-2.4766747334046e-10,3.3229128425877e-10,-0.001165638237849,0.0011656393019157,-0.0011656394806708,0.0011656381790992,-0.0011656380768922,0.0011656395128681,-0.0011656392699521,0.001165638351519,-0.00096590379693436,0.00096590752412575,-0.00096590724695471,0.00096590405925896,1.946526265547e-10,-4.239901719207e-10,1.6022290378321e-08,-1.6239803586501e-08,-0.0019375456325058,0.0019375454138485,-0.0021724622274568,0.0021724729332191,-0.0021724729094477,0.0021724621823824,-0.0021724624291366,0.0021724727250329,-0.0021724731084715,0.0021724619770673,-0.0016619300572633,0.0016619612951266,-0.0016619613381338,0.0016619292541967,-0.0016619506235552,0.0016619403088281,-0.0016619512259581,0.0016619396932103,-4.9642754942582e-10,3.0540332621789e-09,-0.00097874007317399,0.00097874263397359,-1.4340324690218e-08,1.7517858473105e-08,-0.0011656434913306,0.0011656341097319,-0.0011656329121274,0.0011656446868876,-0.0011656423121945,0.001165635290957,-0.0011656317271994,0.0011656458741002,-0.00096589729839367,0.00096591401001613,-0.00096590078623422,0.00096591052294404,0.66318230814577,128566,2924,0.0040735873087905,0.0080369568498738,0.0040735873086895,26.523821264031,-2.7809429887754e-05,-2.7809429887754e-05,-2.7809429887754e-05,4236491.6414294,0.016317253289949
30819200,0.99679478117971,0.016620620051536,0.0046007946618931,0.0074190307274619,0.0046007946621811,-0.00097953212804503,0.0009795322016845,1.8209708893356e-09,-1.7471252734604e-09,-2.4237021874516e-10,3.2828015509013e-10,-0.0011664514633015,0.0011664525390236,-0.0011664527148511,0.0011664514073243,-0.0011664513055705,0.0011664527470531,-0.0011664525072041,0.0011664515764563,-0.00096669428396125,0.00096669803272765,-0.0009666977571229,0.00096669453922177,1.9038054459328e-10,-4.1893227761237e-10,1.5994900904992e-08,-1.6211872558422e-08,-0.0019385189626656,0.0019385187445707,-0.0021735475637895,0.002173558248555,-0.0021735582279379,0.0021735475166397,-0.0021735477623617,0.0021735580436299,-0.0021735584240103,0.0021735473143066,-0.0016627992007011,0.0016628303881639,-0.001662830435062,0.0016627984088732,-0.0016628197375397,0.0016628094326987,-0.0016628203282184,0.0016628088226716,-5.1118815196462e-10,3.0657673028444e-09,-0.00097953088639982,0.00097953344325354,-1.4315942674249e-08,1.7485963960109e-08,-0.0011664567192877,0.0011664473444571,-0.0011664461587722,0.0011664579030149,-0.0011664555313707,0.001166448534729,-0.0011664449652776,0.0011664590990509,-0.00096668779409256,0.00096670451136211,-0.0009666913066037,0.00096670099780235,0.69236328744525,128566,2924,0.0040768712327891,0.0080409784171982,0.0040768712326462,26.920593079303,-2.4635255365579e-05,-2.4635255365579e-05,-2.4635255365579e-05,4244321.389726,0.016328015506122
31019200,0.99692445899894,0.016622784204566,0.0046013903697672,0.0074200034647437,0.0046013903700553,-0.00098030376467855,0.00098030383834589,1.8342067027939e-09,-1.760403213924e-09,-2.3948243541165e-10,3.2596535439394e-10,-0.001167351674111,0.0011673527602387,-0.0011673529344018,0.0011673516195898,-0.0011673515180745,0.0011673529665006,-0.0011673527284677,0.0011673517869981,-0.00096751488657622,0.00096751865925426,-0.00096751838504629,0.00096751513924607,1.8784688711242e-10,-4.1622770429405e-10,1.5974494183697e-08,-1.6191366252993e-08,-0.0019396030288075,0.0019396028108774,-0.0021746668156843,0.0021746774853713,-0.0021746774665539,0.0021746667672389,-0.0021746670125035,0.0021746772821699,-0.0021746776608771,0.0021746665666,-0.0016638093087463,0.0016638404578247,-0.0016638405055362,0.0016638085214253,-0.0016638298229641,0.0016638195265955,-0.0016638304072393,0.001663818920305,-5.255380334275e-10,3.0779398114688e-09,-0.00098030252426305,0.0009803050786571,-1.4297635557695e-08,1.7463841898309e-08,-0.001167356934026,0.0011673475617233,-0.0011673463869276,0.0011673581068237,-0.0011673557372966,0.0011673487608642,-0.0011673451846304,0.0011673593117285,-0.00096750840332844,0.0009675251314853,-0.0009675119415927,0.00096752159178146,0.71215832687743,128566,2924,0.0040800790775841,0.0080454528636721,0.0040800790773797,27.317456847693,-2.1460345218456e-05,-2.1460345218456e-05,-2.1460345218456e-05,4246546.4376103,0.016339085682199
31219200,0.99705287940897,0.01662503146632,0.0046020132264509,0.0074210050131297,0.0046020132267392,-0.00098132727552118,0.00098132734736317,1.8469061218685e-09,-1.7743604871777e-09,-2.3330928571037e-10,3.1513177188186e-10,-0.0011685819225673,0.0011685830220226,-0.0011685831918242,0.0011685818728144,-0.0011685817718776,0.0011685832226595,-0.0011685829916501,0.0011685820346211,-0.00096863308128595,0.00096863687529697,-0.0009686366107161,0.00096863333299475,1.7863547063252e-10,-4.0634408540829e-10,1.5927452162387e-08,-1.6143447306178e-08,-0.0019410636944966,0.0019410634773524,-0.0021761140124116,0.0021761246453322,-0.0021761246319593,0.0021761139583832,-0.0021761142031673,0.0021761244486899,-0.0021761248203149,0.0021761137642819,-0.001665215839993,0.0016652469036385,-0.0016652469319512,0.0016652150475253,-0.0016652363042092,0.001665226021562,-0.0016652368752834,0.0016652254413896,-5.4079739967794e-10,3.0892426347397e-09,-0.00098132603548068,0.00098132858735546,-1.425326139906e-08,1.7422081867538e-08,-0.0011685871809964,0.0011685778246378,-0.0011685766624932,0.0011685883411488,-0.0011685859752382,0.0011685790325176,-0.0011685754511879,0.0011685895547706,-0.00096862661205116,0.00096864333058759,-0.00096863017828559,0.00096863976627323,0.74546030234249,128566,2924,0.0040843351910368,0.0080514796723832,0.004084335190971,27.86699518726,-1.7064038501924e-05,-1.7064038501924e-05,-1.7064038501924e-05,4247872.404723,0.016353866080198
31419200,0.99717999652962,0.016627153559676,0.0046025966861594,0.0074219601870685,0.004602596686448,-0.00098234098869336,0.0009823410603496,1.8598566043449e-09,-1.7877922795605e-09,-2.2639297112771e-10,3.0915775173702e-10,-0.0011699095045401,0.001169910616761,-0.0011699107825955,0.0011699094584901,-0.0011699093583581,0.0011699108130827,-0.0011699105865009,0.001169909616057,-0.00096979301436497,0.00096979682788798,-0.00096979656613903,0.00096979325756112,1.7360554117577e-10,-4.0064122397974e-10,1.5895180322329e-08,-1.61107644245e-08,-0.0019426646610716,0.0019426644443702,-0.0021776276511628,0.0021776382597441,-0.0021776382499573,0.0021776275944493,-0.0021776278385101,0.0021776380666444,-0.0021776384347382,0.0021776274040142,-0.00166678430408,0.001666815307231,-0.0016668153388989,0.0016667835226844,-0.0016668047326404,0.0016667944609548,-0.0016668052906408,0.0016667938883451,-5.5574322105475e-10,3.1009647912443e-09,-0.00098233975066313,0.00098234229833111,-1.4222102901989e-08,1.7383114096863e-08,-0.0011699147637577,0.0011699054186838,-0.0011699042687356,0.0011699159117223,-0.0011699135492583,0.001169906635452,-0.0011699030485974,0.0011699171344109,-0.00096978655490149,0.00096980327532097,-0.00096979014628212,0.00096979968357132,0.71242630753468,128566,2924,0.0040885543399058,0.0080580809653042,0.0040885543398251,28.43509736306,-1.2519221095516e-05,-1.2519221095516e-05,-1.2519221095516e-05,4244523.1384363,0.016369157561718
31619200,0.99730562471034,0.016629153628188,0.0046031422320282,0.0074228691638432,0.004603142232317,-0.00098335683239969,0.00098335690366241,1.8728017953322e-09,-1.801421958597e-09,-2.2325786096383e-10,3.0613134283879e-10,-0.0011711265858288,0.0011711277085983,-0.0011711278725067,0.0011711265412335,-0.0011711264415431,0.0011711279027247,-0.0011711276785815,0.0011711266968438,-0.00097090707524905,0.00097091091167446,-0.00097091065164322,0.00097090731375374,1.7081188552003e-10,-3.9742122081921e-10,1.5873079116093e-08,-1.6088361882235e-08,-0.0019441375604723,0.0019441373440467,-0.0021790976726789,0.0021791082646678,-0.0021791082569951,0.0021790976145392,-0.0021790978580127,0.0021791080736318,-0.00217910843981,0.002179097426097,-0.0016681862229694,0.0016682171849144,-0.0016682172179136,0.0016681854479393,-0.0016682066262143,0.0016681963638359,-0.0016682071772829,0.001668195795549,-5.6989839067734e-10,3.1132947027716e-09,-0.00098335559543151,0.00098335814066204,-1.4201010460643e-08,1.7357658103082e-08,-0.001171131848012,0.0011711225074486,-0.001171121368326,0.0011711329851508,-0.0011711306247086,0.0011711237330756,-0.0011711201394001,0.0011711342166119,-0.00097090062319778,0.00097091735315169,-0.00097090423948674,0.00097091373500623,0.68057767575823,128566,2924,0.0040927788918238,0.0080641575163272,0.004092778891905,29.003683306567,-7.970533547462e-06,-7.970533547462e-06,-7.970533547462e-06,4247651.5505528,0.016383924358132
31819200,0.99742745610642,0.016631026488962,0.0046036499169852,0.0074237266547026,0.004603649917274,-0.00098385262744839,0.00098385270235545,1.88752329681e-09,-1.8132362104502e-09,-2.3985480469595e-10,3.3036803801262e-10,-0.001171683133018,0.0011716842539479,-0.0011716844287977,0.0011716830773615,-0.0011716829758431,0.0011716844617389,-0.0011716842211452,0.0011716832467683,-0.00097142744270268,0.00097143131904747,-0.00097143103894064,0.0009714276899771,1.9133553683069e-10,-4.2015364747683e-10,1.5949816269061e-08,-1.6167485969872e-08,-0.0019448741284067,0.0019448739101351,-0.0021799111876337,0.0021799218444173,-0.002179921823682,0.0021799111428549,-0.0021799113866921,0.0021799216384307,-0.0021799220201289,0.0021799109400153,-0.0016688331340685,0.0016688642319739,-0.0016688643010102,0.0016688323583635,-0.0016688536134473,0.0016688433371574,-0.0016688541980307,0.0016688427149163,-5.7956693585404e-10,3.1300387878478e-09,-0.00098385138973118,0.00098385394002091,-1.426935821396e-08,1.742428771888e-08,-0.0011716884178427,0.0011716790309433,-0.0011716778936238,0.0011716895533925,-0.0011716871861723,0.0011716802653233,-0.0011716766561069,0.0011716907939789,-0.0009714209716181,0.00097143778280686,-0.00097142461141569,0.00097143413746308,0.65805653851378,128566,2924,0.0040948402011026,0.0080671975997409,0.0040948402009837,29.265875170949,-5.8729986324102e-06,-5.8729986324102e-06,-5.8729986324102e-06,4251654.2886836,0.016391204870758
32019200,0.99754388672871,0.016632985353623,0.0046041891839338,0.0074246069854668,0.0046041891842223,-0.00098394798882829,0.00098394806747572,1.9026039722767e-09,-1.8246936722811e-09,-2.7137556577488e-10,3.6643034792205e-10,-0.0011717283838229,0.0011717294944413,-0.0011717296883409,0.0011717283094468,-0.0011717282041903,0.0011717297248524,-0.0011717294583563,0.0011717285006765,-0.00097149357156577,0.00097149749982779,-0.00097149719394935,0.00097149384463454,2.2257929312009e-10,-4.5398945869837e-10,1.6076628917022e-08,-1.6296475494566e-08,-0.0019450325055744,0.0019450322847314,-0.002180192876844,0.0021802036357198,-0.0021802035956713,0.0021801928493267,-0.0021801930970834,0.0021802034082761,-0.0021802038135123,0.0021801926242467,-0.0016689023458347,0.0016689336709831,-0.0016689337583787,0.0016689015438509,-0.0016689229479395,0.0016689126509839,-0.0016689235969571,0.0016689119646366,-5.8580639829973e-10,3.1503398025039e-09,-0.00098394674579625,0.00098394931051939,-1.4396860134099e-08,1.7568795466913e-08,-0.0011717337066302,0.0011717242336432,-0.0011717230915692,0.0011717348466501,-0.0011717324659233,0.0011717254772731,-0.001171721845415,0.0011717360959352,-0.00097148706145464,0.00097150400310887,-0.00097149072679356,0.00097150033146229,0.71766339600339,128566,2924,0.0040952354026075,0.0080678538664271,0.0040952354026213,29.281000496188,-5.7519960304922e-06,-5.7519960304922e-06,-5.7519960304922e-06,4255561.9380059,0.01639267352565
32219200,0.99765511348702,0.016634898981067,0.004604717641593,0.0074254636975924,0.0046047176418815,-0.00098400002820932,0.00098400010874643,1.9170628443512e-09,-1.8368048350355e-09,-2.9640990609591e-10,3.9172000822264e-10,-0.0011719253626403,0.0011719264676724,-0.0011719266764806,0.0011719252743506,-0.0011719251663881,0.0011719267148394,-0.0011719264298814,0.001171925482327,-0.00097160330126234,0.00097160727621438,-0.00097160695454832,0.00097160359925528,2.4612915762907e-10,-4.8014266332416e-10,1.6188015298774e-08,-1.6409855802934e-08,-0.0019453745416571,0.0019453743187624,-0.0021805117115591,0.0021805225592902,-0.0021805225034173,0.0021805116972015,-0.0021805119481922,0.0021805223151942,-0.0021805227375504,0.0021805114556117,-0.0016692175671322,0.001669249094772,-0.0016692491877194,0.0016692167337021,-0.0016692382833515,0.0016692279587799,-0.0016692389848303,0.001669227228464,-5.9343922544196e-10,3.1693304261016e-09,-0.00098399877950928,0.00098400135742177,-1.4501159976517e-08,1.7693143762434e-08,-0.0011719307193495,0.0011719211730755,-0.0011719200283973,0.0011719318620141,-0.0011719294697466,0.0011719224254407,-0.0011719187731587,0.0011719331201234,-0.00097159675811152,0.00097161380997077,-0.00097160045139486,0.0009716101134637,0.73340852800254,128566,2924,0.0040954570914576,0.0080692606368784,0.0040954570914153,29.290213975037,-5.6782881997074e-06,-5.6782881997074e-06,-5.6782881997074e-06,4248782.7076871,0.016394556489923
32419200,0.99776136434628,0.016636772896797,0.0046052370561462,0.0074262987842158,0.0046052370564349,-0.00098403107541409,0.00098403115766037,1.9312483533594e-09,-1.8491772201327e-09,-3.1319440106721e-10,4.1012138907308e-10,-0.0011721468830382,0.0011721479869205,-0.0011721482060477,0.0011721467850682,-0.00117214667531,0.0011721482458783,-0.0011721479477512,0.0011721470046409,-0.00097172038035539,0.00097172439504624,-0.00097172406086887,0.00097172069336973,2.63106905147e-10,-4.9877600408839e-10,1.6281288322347e-08,-1.6504512021899e-08,-0.0019457515159414,0.0019457512916162,-0.0021808316785876,0.0021808425988179,-0.0021808425315706,0.0021808316735114,-0.0021808319268435,0.0021808423427576,-0.0021808427773206,0.0021808314200093,-0.0016695822593074,0.0016696139583105,-0.0016696140604008,0.0016695814087172,-0.001669603074453,0.0016695927214099,-0.0016696038116479,0.0016695919567747,-6.0231630556392e-10,3.1870216708429e-09,-0.00098402982278361,0.00098403241020057,-1.4587711548837e-08,1.779179080214e-08,-0.0011721522701039,0.0011721426622021,-0.0011721415176606,0.0011721534126474,-0.0011721510116765,0.0011721439234242,-0.0011721402535542,0.0011721546796223,-0.00097171380907922,0.0009717309565155,-0.00097171752889318,0.00097172723431021,0.75109426452701,128566,2924,0.0040955934294727,0.0080708093137696,0.0040955934292962,29.299209590622,-5.6063232750242e-06,-5.6063232750242e-06,-5.6063232750242e-06,4239925.7843355,0.016396411015312
32619200,0.99786259990482,0.016638424070468,0.0046056890394142,0.0074270459913505,0.004605689039703,-0.00098394906563459,0.00098394914958818,1.9453965270854e-09,-1.8620044581028e-09,-3.2156104146106e-10,4.2226331938074e-10,-0.001172299927565,0.0011723010344628,-0.0011723012593613,0.0011722998241437,-0.001172299713018,0.0011723013007433,-0.0011723009946304,0.001172300049877,-0.000971744666527,0.00097174871566043,-0.0009717483720814,0.00097174498397475,2.7152677710217e-10,-5.0759383776845e-10,1.6350097960083e-08,-1.6573813341379e-08,-0.0019460669965922,0.0019460667718749,-0.0021810585161464,0.0021810694865571,-0.0021810694138277,0.0021810585161328,-0.0021810587696384,0.0021810692251836,-0.002181069665634,0.0021810582563367,-0.0016698987376093,0.0016699305677806,-0.0016699306843571,0.0016698978893408,-0.0016699196333382,0.0016699092521602,-0.001669920384065,0.001669908463815,-6.1238127066151e-10,3.2030389076348e-09,-0.00098394781111587,0.00098395040386006,-1.4657080776832e-08,1.7863663203508e-08,-0.0011723053413614,0.0011722956833848,-0.0011722945415338,0.0011723064814221,-0.0011723040741317,0.0011722969539379,-0.0011722932694041,0.0011723077567017,-0.00097173807409167,0.00097175529990548,-0.00097174181695099,0.00097175155314064,0.69653887298557,128566,2924,0.0040952622755324,0.0080721013131926,0.0040952622750139,29.262895952344,-5.896832381245e-06,-5.896832381245e-06,-5.896832381245e-06,4228285.1924338,0.016397055156358
32819200,0.99795894505102,0.016639873713722,0.0046060805578311,0.0074277125977707,0.0046060805581201,-0.00098385141096845,0.00098385149377746,1.9580449165167e-09,-1.8755969867102e-09,-3.2002592709856e-10,4.180410033696e-10,-0.0011722486702412,0.0011722497872713,-0.0011722500111388,0.0011722485680206,-0.0011722484576706,0.0011722500513365,-0.0011722497479506,0.0011722487922489,-0.00097166707447831,0.00097167114647155,-0.00097167080674738,0.00097166739176804,2.6961361207746e-10,-5.0577525038387e-10,1.6378974517042e-08,-1.6602657357332e-08,-0.0019461326757343,0.001946132450932,-0.0021811649428224,0.0021811759314628,-0.0021811758593866,0.0021811649408256,-0.0021811651953589,0.0021811756709076,-0.0021811761096011,0.0021811646825678,-0.0016699144905096,0.0016699463772257,-0.0016699464841622,0.0016699136351326,-0.0016699354239059,0.0016699250194154,-0.0016699361740538,0.0016699242399161,-6.2437935413932e-10,3.2178821077294e-09,-0.00098385015417695,0.0009838527504658,-1.4681941704347e-08,1.7895788794551e-08,-0.0011722541016664,0.0011722444185,-0.001172243283192,0.0011722552350004,-0.0011722528255498,0.0011722456975515,-0.001172242001623,0.0011722565195139,-0.00097166046921071,0.000971677743032,-0.00097166423986882,0.00097167396897925,0.64446136341641,128566,2924,0.0040948600529198,0.0080723691076046,0.0040948600527114,29.204418766784,-6.3646498657254e-06,-6.3646498657254e-06,-6.3646498657254e-06,4226072.6171248,0.016396509746152
33019200,0.99805064684007,0.016641367130264,0.0046064898503764,0.0074283874292223,0.0046064898506654,-0.00098381031207563,0.00098381039433847,1.9710704337946e-09,-1.8890057530425e-09,-3.1259400363137e-10,4.1009507558282e-10,-0.001172066074711,0.0011720672050266,-0.0011720674245378,0.0011720659768819,-0.0011720658673189,0.0011720674639015,-0.0011720671663086,0.0011720661961209,-0.00097156032395147,0.00097156441635546,-0.00097156408262778,0.00097156063678316,2.6251697111026e-10,-4.9829740800329e-10,1.6386750551725e-08,-1.6610114894803e-08,-0.0019460158533594,0.0019460156289595,-0.0021812046796097,0.002181215668934,-0.0021812156010212,0.0021812046730736,-0.0021812049273903,0.0021812154131224,-0.0021812158463284,0.0021812044197614,-0.0016697085956703,0.0016697405022614,-0.0016697406039146,0.0016697077451431,-0.0016697295494866,0.0016697191254979,-0.0016697302845342,0.0016697183604101,-6.3774998301954e-10,3.2311767884095e-09,-0.00098380905487355,0.00098381165134935,-1.468856929135e-08,1.7902856023273e-08,-0.0011720715193659,0.0011720618230464,-0.001172060696484,0.0011720726439861,-0.0011720702344542,0.0011720631108439,-0.0011720594058945,0.0011720739374731,-0.00097155371320023,0.00097157101743747,-0.0009715575108661,0.00097156721756868,0.69524136140279,128566,2924,0.0040946857968779,0.0080718917923258,0.0040946857964876,29.145405712569,-6.8367542994474e-06,-6.8367542994474e-06,-6.8367542994474e-06,4232937.2202975,0.016395666704184
33219200,0.99813794201522,0.016642860722394,0.0046069023502392,0.007429056021626,0.0046069023505283,-0.00098374823561069,0.00098374831608172,1.9834311243035e-09,-1.9031995710597e-09,-3.0177631702338e-10,3.9684171211104e-10,-0.0011720381442527,0.0011720392898848,-0.0011720395029326,0.0011720380529348,-0.001172037944763,0.0011720395407608,-0.001172039252649,0.0011720382641744,-0.0009715078709422,0.00097151197956296,-0.00097151165550907,0.00097150817379327,2.5106612363167e-10,-4.8565237171223e-10,1.6370177885597e-08,-1.6592466943054e-08,-0.0019460750537049,0.0019460748303213,-0.0021812943098394,0.0021813052808374,-0.0021813052200055,0.0021812942963258,-0.0021812945497987,0.0021813050331761,-0.0021813054575059,0.0021812940511402,-0.00166973138911,0.0016697632712233,-0.0016697633627537,0.0016697305466868,-0.0016697523354274,0.0016697419002593,-0.0016697530480135,0.001669741160203,-6.5208132323451e-10,3.2433788457894e-09,-0.00098374697862052,0.0009837495729494,-1.4672528312391e-08,1.7884941566498e-08,-0.0011720435964928,0.0011720339002472,-0.0011720327848694,0.0011720447099095,-0.0011720423027074,0.0011720351968604,-0.0011720314854226,0.0011720460122169,-0.00097150126224923,0.00097151857910335,-0.00097150508563342,0.00097151475297257,0.72922791458096,128566,2924,0.0040944300065333,0.0080721346442294,0.0040944300062868,29.086372873767,-7.3090170098676e-06,-7.3090170098676e-06,-7.3090170098676e-06,4230432.9355762,0.016395393794042
33419200,0.99822240028476,0.016644333660896,0.0046073102854452,0.0074297130897168,0.0046073102857344,-0.00098416039844431,0.00098416047542977,1.9961358311044e-09,-1.9188169841144e-09,-2.7625833570887e-10,3.6561545687523e-10,-0.0011726195917837,0.0011726207611558,-0.001172620958365,0.0011726195161601,-0.0011726194092717,0.0011726209944376,-0.0011726207282636,0.0011726197071763,-0.00097200013159038,0.00097200425186096,-0.00097200395176817,0.00097200041755383,2.1591053584604e-10,-4.4706113653033e-10,1.624646164969e-08,-1.6465502897189e-08,-0.0019468130311819,0.001946812810792,-0.0021819819951604,0.0021819928601033,-0.0021819928216991,0.0021819819604459,-0.0021819822097946,0.0021819926386523,-0.0021819930366788,0.0021819817386325,-0.001670454709445,0.0016704863777379,-0.0016704864341347,0.0016704538884424,-0.0016704755407958,0.0016704651241128,-0.0016704761892001,0.0016704644588893,-6.7039704575323e-10,3.2499260032727e-09,-0.00098415914505386,0.0009841617286581,-1.4571464643934e-08,1.7775369764169e-08,-0.0011726250311246,0.0011726153839068,-0.0011726142879246,0.0011726261249956,-0.0011726237275349,0.0011726166900862,-0.001172612981491,0.0011726274340584,-0.00097199355918085,0.00097201081263922,-0.00097199740438262,0.00097200696728524,0.74278653274989,128566,2924,0.0040961472370674,0.0080751760595093,0.0040961472367546,29.311914125712,-5.5046869943011e-06,-5.5046869943011e-06,-5.5046869943011e-06,4226824.0967524,0.016401978866219
33619200,0.99830441313874,0.016645764505458,0.0046077064792131,0.0074303515467427,0.0046077064795024,-0.000984684748531,0.00098468482157889,2.0064905946172e-09,-1.9331092882517e-09,-2.4219814912677e-10,3.2705553320737e-10,-0.0011733611527873,0.0011733623522585,-0.001173362528685,0.0011733610971935,-0.0011733609956749,0.0011733625597962,-0.0011733623213611,0.001173361265789,-0.0009726322503229,0.00097263636226456,-0.00097263608931864,0.00097263250706308,1.8950732509307e-10,-4.1823113614941e-10,1.6123873751784e-08,-1.6340900489119e-08,-0.0019477395203002,0.0019477393021467,-0.0021828324799765,0.0021828432501712,-0.0021828432283301,0.0021828324308819,-0.0021828326784402,0.002182843045332,-0.0021828434239991,0.002182832228904,-0.0016713718506062,0.0016714032927205,-0.0016714033330304,0.0016713710532074,-0.0016713925568237,0.0016713821652997,-0.0016713931470288,0.0016713815580196,-6.9210923409497e-10,3.2566465937905e-09,-0.00098468350102188,0.00098468606896174,-1.4436210864197e-08,1.7621372154324e-08,-0.0011733665702979,0.0011733569965202,-0.001173355924901,0.0011733676399324,-0.0011733652586011,0.0011733583106067,-0.001173354607481,0.0011733689599514,-0.0009726257131218,0.00097264288804336,-0.00097262959036768,0.00097263901063559,0.74303042889228,128566,2924,0.0040983319618894,0.0080789938418121,0.0040983319616472,29.613697042793,-3.090423657659e-06,-3.090423657659e-06,-3.090423657659e-06,4222819.2556997,0.01641030431593
33819200,0.99838399084268,0.01664715712144,0.0046080921908931,0.0074309727393646,0.0046080921911826,-0.00098519399846371,0.00098519406910386,2.0181628986742e-09,-1.9473359187962e-09,-2.1781591196715e-10,3.0069088274699e-10,-0.0011740885919825,0.0011740898148632,-0.0011740899765847,0.0011740885503409,-0.0011740884520105,0.0011740900051025,-0.0011740897857025,0.0011740887027348,-0.00097325258038007,0.00097325669650022,-0.00097325644120178,0.00097325281507363,1.6788540562786e-10,-3.9417443941792e-10,1.6007160633819e-08,-1.6222162821002e-08,-0.0019486589966502,0.001948658780586,-0.0021836829693168,0.0021836936484641,-0.0021836936409989,0.0021836829084196,-0.0021836831529457,0.0021836934587885,-0.0021836938212196,0.0021836827222322,-0.0016722774764632,0.0016723087028427,-0.001672308733566,0.001672276703414,-0.0016722980592305,0.0016722877009554,-0.0016722986015229,0.0016722871380241,-7.1185386981983e-10,3.2640442527906e-09,-0.00098519275646596,0.00098519531098672,-1.4322069899949e-08,1.7489465537992e-08,-0.0011740939906856,0.0011740844777237,-0.001174083427426,0.0011740950392039,-0.0011740926703499,0.0011740858004017,-0.0011740821005073,0.0011740963686478,-0.00097324607798481,0.00097326318806142,-0.00097324998243713,0.00097325928259139,0.7451776957013,128566,2924,0.0041004545296026,0.0080827818168334,0.0041004545293765,29.917363328914,-6.6109336868445e-07,-6.6109336868445e-07,-6.6109336868445e-07,4219247.5288827,0.016418472915464
34019200,0.99846113773429,0.016648467960886,0.0046084535198404,0.0074315609209158,0.0046084535201299,-0.00098569051294258,0.00098569058234094,2.0312674328801e-09,-1.9616705700615e-09,-2.0342817435928e-10,2.8513779594194e-10,-0.001174801010587,0.0011748022506729,-0.0011748024034753,0.0011748009772745,-0.0011748008797311,0.0011748024314226,-0.0011748022229319,0.0011748011191381,-0.00097386074513133,0.00097386487846167,-0.00097386463355879,0.00097386096773733,1.5049823449989e-10,-3.7537001852713e-10,1.5901274398512e-08,-1.611511966898e-08,-0.0019495698802921,0.0019495696654008,-0.0021845275368878,0.0021845381338637,-0.0021845381384657,0.0021845274659868,-0.0021845277079986,0.0021845379570417,-0.0021845383073588,0.0021845272914239,-0.0016731735701596,0.0016732046018975,-0.0016732046226374,0.0016731728137839,-0.0016731940380807,0.0016731837175527,-0.0016731945459129,0.0016731831885862,-7.2945809633529e-10,3.2720831435408e-09,-0.00098568927536313,0.00098569181980312,-1.4230759310483e-08,1.7385683024804e-08,-0.0011748063945863,0.0011747969279714,-0.0011747958954359,0.0011748074251582,-0.0011748050651382,0.0011747982597811,-0.001174794560562,0.001174808762591,-0.0009738542762744,0.00097387133632976,-0.00097385820401515,0.00097386740720235,0.72426545609119,128566,2924,0.0041025243642061,0.0080865339943101,0.004102524363973,30.221099462065,1.7687956965204e-06,1.7687956965204e-06,1.7687956965204e-06,4215879.9715945,0.016426497851693
34219200,0.99853715200638,0.01664972574067,0.0046087987654112,0.0074321282095584,0.0046087987657008,-0.00098673447446566,0.00098673454060058,2.0436001172207e-09,-1.9763012647725e-09,-1.8576442350599e-10,2.6009397660167e-10,-0.001176014072949,0.0011760153334948,-0.0011760154745151,0.0011760140516376,-0.0011760139555232,0.0011760155003214,-0.0011760153085689,0.0011760141791988,-0.00097500355425462,0.00097500770142277,-0.00097500747690854,0.0009750037691653,1.2882272096607e-10,-3.5200116801771e-10,1.5765155528967e-08,-1.5977103017529e-08,-0.0019510202570402,0.0019510200439616,-0.0021859612615672,0.0021859717552833,-0.00218597177344,0.0021859611783542,-0.0021859614181144,0.0021859715939201,-0.0021859719283105,0.0021859610187839,-0.0016745758194034,0.0016746066006374,-0.0016746065891306,0.001674575063981,-0.001674596138455,0.0016745858672063,-0.0016745966105495,0.001674585392013,-7.4924501840252e-10,3.2786988069993e-09,-0.0009867332408606,0.00098673577407971,-1.4098921883203e-08,1.7248499644653e-08,-0.00117601943285,0.0011760100341987,-0.0011760090228694,0.0011760204422677,-0.0011760180941007,0.001176011374883,-0.0011760076792428,0.0011760217880443,-0.00097499713069855,0.00097501410880565,-0.00097500108664828,0.00097501015694404,0.70594349143667,128566,2924,0.0041068651187824,0.0080925170561326,0.0041068651185635,30.832711580208,6.661692641668e-06,6.661692641668e-06,6.661692641668e-06,4221177.299771,0.016441405813256
34419200,0.99861203840003,0.01665096979259,0.0046091403829288,0.007432689026442,0.0046091403832187,-0.00098784950434684,0.00098784956878935,2.0556201749132e-09,-1.9904140931668e-09,-1.747190136912e-10,2.4742127133235e-10,-0.0011772433313316,0.0011772446076168,-0.0011772447412009,0.0011772433156064,-0.0011772432216728,0.0011772447653908,-0.0011772445831444,0.0011772434362851,-0.0009761903996508,0.00097619456093405,-0.00097619434437339,0.00097619060145608,1.1880452242692e-10,-3.406791163692e-10,1.5665543702334e-08,-1.5876500011705e-08,-0.0019524770074555,0.0019524767952295,-0.0021874453114803,0.0021874557331671,-0.0021874557585276,0.0021874452228086,-0.0021874454615683,0.0021874555782154,-0.0021874559058272,0.0021874450707859,-0.0016759641832282,0.0016759947747081,-0.0016759947595732,0.0016759634426479,-0.001675984382298,0.0016759741575433,-0.0016759848331189,0.0016759737041257,-7.6706931432369e-10,3.2877531294015e-09,-0.00098784827506867,0.000987850798164,-1.4005084316405e-08,1.7140738758186e-08,-0.0011772486744884,0.0011772393244969,-0.0011772383315838,0.0011772496654677,-0.0011772473271073,0.0011772406734261,-0.0011772369782161,0.0011772510204685,-0.00097618400785117,0.0009762009394254,-0.00097618798995504,0.00097619695938369,0.70867958934734,128566,2924,0.0041114988180117,0.00809852911112,0.004111498818245,31.476554552145,1.1812436417163e-05,1.1812436417163e-05,1.1812436417163e-05,4230096.1813107,0.016456937871954
34619200,0.99868566154413,0.01665224195098,0.0046094917701731,0.0074332584103442,0.004609491770463,-0.0009889689304833,0.00098896899607059,2.069310419193e-09,-2.0032398846885e-09,-1.7123525966345e-10,2.4733339925208e-10,-0.0011784856164563,0.0011784869031898,-0.0011784870352209,0.0011784856024187,-0.0011784855084089,0.0011784870602219,-0.0011784868779815,0.0011784857215229,-0.00097738531730649,0.00097738950226546,-0.00097738928378548,0.0009773855140471,1.1751502452608e-10,-3.3910000390412e-10,1.5602764186029e-08,-1.5813679963461e-08,-0.0019539461181975,0.0019539459061988,-0.0021889349497621,0.0021889453294003,-0.0021889453564729,0.0021889348614449,-0.002188935098799,0.0021889451756303,-0.0021889455029512,0.0021889347103259,-0.0016773675372933,0.0016773980062215,-0.0016773980025452,0.0016773668086568,-0.0016773876591087,0.001677377472257,-0.0016773881017843,0.0016773770155086,-7.835555954475e-10,3.2979320522291e-09,-0.00098896770545347,0.000988970221054,-1.3947596215274e-08,1.7070183768211e-08,-0.0011784909509334,0.0011784816291233,-0.0011784806507731,0.001178491927309,-0.0011784895948147,0.0011784829872198,-0.0011784792889812,0.0011784932914327,-0.0009773789477816,0.00097739585945443,-0.00097738295486327,0.00097739185204811,0.73613739146898,128566,2924,0.0041161508808217,0.008104592096596,0.0041161508807422,32.121253348193,1.6970026785546e-05,1.6970026785546e-05,1.6970026785546e-05,4238395.615608,0.01647255953828
34819200,0.99875901946908,0.016653520449258,0.0046098451491539,0.0074338301506606,0.0046098451494439,-0.00099056612772389,0.00099056619082294,2.0825761580036e-09,-2.0177015916236e-09,-1.7004863346186e-10,2.3733690234408e-10,-0.0011803242582953,0.0011803255561077,-0.00118032568585,0.001180324247621,-0.0011803241525447,0.0011803257103403,-0.0011803255333096,0.0011803243623105,-0.00097911987146636,0.00097912408636588,-0.00097912387834505,0.00097912007649955,1.0834581405093e-10,-3.2979076923602e-10,1.5523048622814e-08,-1.5733206034061e-08,-0.0019560804312214,0.0019560802198139,-0.0021910266179204,0.0021910369388656,-0.0021910369711307,0.0021910265240227,-0.0021910267604966,0.0021910367924543,-0.0021910371129779,0.0021910263787139,-0.0016794477271505,0.0016794780488891,-0.0016794780099706,0.0016794469760002,-0.0016794677546012,0.0016794576057148,-0.0016794681947653,0.0016794571820323,-7.9912587740005e-10,3.3081216546469e-09,-0.0009905649026806,0.00099056741601458,-1.3867885746904e-08,1.700037364134e-08,-0.0011803295803379,0.0011803202936693,-0.0011803193290936,0.0011803305429778,-0.0011803282145806,0.0011803216609326,-0.0011803179591933,0.0011803319145962,-0.00097911353318774,0.00097913040534821,-0.00097911756744352,0.00097912637839098,0.74236047771249,128566,2924,0.0041227901129196,0.0081133981125927,0.0041227901132964,33.052013999218,2.4416111993747e-05,2.4416111993747e-05,2.4416111993747e-05,4246443.8610759,0.016495012055767
35019200,0.99883226453085,0.016654759337262,0.0046101857022438,0.0074343879324834,0.0046101857025343,-0.00099231602252242,0.00099231608640186,2.0955343286588e-09,-2.0303324728098e-09,-1.6487410067815e-10,2.3560736906249e-10,-0.0011823561308955,0.0011823574405921,-0.0011823575673792,0.0011823561221599,-0.0011823560284973,0.0011823575914654,-0.001182357416252,0.0011823562354895,-0.00098102740165705,0.00098103163416995,-0.00098103142568631,0.00098102759881837,1.0918792391329e-10,-3.3033335836618e-10,1.5482169434939e-08,-1.5692353144265e-08,-0.0019584419223923,0.0019584417110294,-0.0021933361771839,0.0021933464726245,-0.0021933465050799,0.0021933360844029,-0.0021933363213426,0.002193346324708,-0.0021933466463766,0.0021933359393333,-0.0016817495313918,0.0016817797695555,-0.0016817797445765,0.0016817487941308,-0.0016817695055854,0.0016817593830177,-0.0016817699385827,0.0016817589526899,-8.1485669360831e-10,3.3199520047718e-09,-0.00099231480053214,0.00099231730839377,-1.3828300567557e-08,1.6948647949508e-08,-0.0011823614497725,0.0011823521813393,-0.0011823512297369,0.0011823623994041,-0.0011823600757308,0.0011823535570186,-0.0011823498498451,0.0011823637812736,-0.00098102107395945,0.00098103794541738,-0.00098102513648166,0.00098103388723107,0.72136488626782,128566,2924,0.0041300649209186,0.0081231402898916,0.0041300649209659,34.084098212701,3.2672785701609e-05,3.2672785701609e-05,3.2672785701609e-05,4254942.0164587,0.016519709502629
35219200,0.99890511664521,0.016655957335689,0.0046105132984571,0.007434930738484,0.0046105132987477,-0.00099407045560897,0.00099407052139161,2.1093562141707e-09,-2.0427992209476e-09,-1.6979863071692e-10,2.4517834014648e-10,-0.0011843298446473,0.0011843311597446,-0.0011843312897946,0.0011843298318746,-0.0011843297377243,0.0011843313151391,-0.0011843311336568,0.0011843299502098,-0.00098291048235181,0.00098291474448835,-0.00098291452729368,0.000982910680187,1.1686607358638e-10,-3.3859697938882e-10,1.5483631619682e-08,-1.5694616467064e-08,-0.0019607392804978,0.0019607390683886,-0.0021956333730566,0.0021956436739706,-0.0021956437026029,0.0021956332851596,-0.0021956335221217,0.0021956435205103,-0.002195643848668,0.0021956331347961,-0.001683962871634,0.001683993106447,-0.0016839931003982,0.0016839621414185,-0.0016839828388992,0.0016839727291964,-0.0016839832816806,0.0016839722767462,-8.2780428149302e-10,3.3338416820308e-09,-0.0009940692348352,0.00099407174210692,-1.383191884955e-08,1.6945914864893e-08,-0.0011843351703413,0.0011843258938558,-0.0011843249501499,0.0011843361120555,-0.0011843337877053,0.0011843272784253,-0.0011843235613395,0.0011843375030904,-0.00098290415540303,0.00098292105755241,-0.0009829082426378,0.00098291697159155,0.70214229613229,128566,2924,0.0041373566530169,0.0081326198802304,0.0041373566529197,35.118665415949,4.0949323327595e-05,4.0949323327595e-05,4.0949323327595e-05,4266839.377707,0.016544173550341
35419200,0.9989764345715,0.01665709427043,0.0046108223584813,0.0074354495531767,0.0046108223587719,-0.0009954468793722,0.0009954469505829,2.1251687631413e-09,-2.0542574973816e-09,-1.9743585209341e-10,2.8365820767176e-10,-0.0011858409396006,0.0011858422452956,-0.0011858423931908,0.001185840908699,-0.0011858408104813,0.0011858424234816,-0.0011858422158004,0.001185841048183,-0.0009843694989618,0.00098437381364934,-0.00098437356556198,0.00098436971318084,1.4473179436656e-10,-3.6875254798043e-10,1.5584802029466e-08,-1.5798248330005e-08,-0.0019625229103457,0.0019625226959237,-0.0021974637977256,0.0021974741824024,-0.0021974741941531,0.0021974637270111,-0.0021974639643183,0.0021974740099442,-0.0021974743594974,0.0021974635562728,-0.00168565151787,0.0016856819340798,-0.0016856819722883,0.0016856507871842,-0.0016856715833924,0.0016856614611776,-0.0016856720754374,0.0016856609359553,-8.3459102775265e-10,3.352824388067e-09,-0.0009954456563908,0.0009954481734337,-1.3943142731208e-08,1.7058506434288e-08,-0.0011858462967017,0.0011858369488349,-0.0011858360015166,0.0011858472420639,-0.001185844905136,0.0011858383429496,-0.0011858346053749,0.001185848641064,-0.0009843631440863,0.00098438015972597,-0.0009843672498446,0.00098437604894164,0.6816229782206,128566,2924,0.0041430763487628,0.0081399808784076,0.0041430763484797,35.930685571293,4.7445484570341e-05,4.7445484570341e-05,4.7445484570341e-05,4278293.4222728,0.016563286652132
35619200,0.9990454113411,0.016658152868059,0.0046111080695889,0.0074359367285901,0.0046111080698795,-0.00099654776014428,0.0009965478350298,2.1402626525609e-09,-2.0655767655644e-09,-2.3689875256381e-10,3.2581575949337e-10,-0.0011869893087565,0.0011869906003559,-0.0011869907716805,0.0011869892552126,-0.0011869891529965,0.0011869908054799,-0.0011869905670854,0.0011869894219188,-0.0009855071782564,0.00098551154943185,-0.00098551127238166,0.00098550742648563,1.8496405706326e-10,-4.1297535618046e-10,1.5758163727797e-08,-1.5974872856247e-08,-0.0019638940235524,0.0019638938057756,-0.0021989277356779,0.0021989382612097,-0.0021989382467227,0.0021989276880799,-0.002198927930428,0.0021989380600986,-0.002198938439393,0.0021989274891025,-0.0016869166740023,0.0016869474020776,-0.0016869474584583,0.0016869158997887,-0.0016869369109109,0.0016869267529244,-0.0016869374880224,0.0016869261487703,-8.3865834636834e-10,3.3756615686935e-09,-0.00099654652910602,0.00099654906610719,-1.4100889865317e-08,1.724326164327e-08,-0.0011869947112334,0.0011869852586192,-0.0011869843024306,0.0011869956654233,-0.0011869933108815,0.0011869866615405,-0.0011869828969376,0.0011869970737363,-0.00098550077209145,0.00098551794581497,-0.00098550490632987,0.00098551380789111,0.65729899525269,128566,2924,0.0041476490894532,0.0081456418462812,0.0041476490895379,36.574939292443,5.2599514339544e-05,5.2599514339544e-05,5.2599514339544e-05,4290278.5811967,0.016578338287786
35819200,0.99911193406429,0.0166592366879,0.0046114036781928,0.0074364293312241,0.0046114036784834,-0.00099767091115867,0.00099767098937744,2.1553070469999e-09,-2.0770674118094e-09,-2.6935166124899e-10,3.611726692464e-10,-0.0011880768908975,0.0011880781723707,-0.0011880783634176,0.0011880768188582,-0.0011880767131267,0.0011880784000659,-0.0011880781361241,0.001188077008144,-0.00098662830870089,0.00098663273202297,-0.00098663243115056,0.00098662858645689,2.1797069649778e-10,-4.4955496681612e-10,1.5926848399773e-08,-1.6146500694075e-08,-0.0019651764223836,0.0019651762016844,-0.00220035321812,0.0022003638762543,-0.0022003638398447,0.0022003531889808,-0.0022003534357587,0.0022003636517137,-0.0022003640550342,0.0022003529669533,-0.0016880760776288,0.001688107113324,-0.0016881071866294,0.0016880752680694,-0.0016880964911545,0.0016880862852983,-0.0016880971373847,0.0016880856151591,-8.4353955016636e-10,3.3976121627411e-09,-0.00099766967250433,0.00099767222800307,-1.4255346061198e-08,1.7421904472653e-08,-0.001188082339712,0.001188072784674,-0.0011880718204748,0.0011880833019774,-0.0011880809306207,0.0011880741963441,-0.0011880704057643,0.0011880847194207,-0.00098662185154866,0.00098663917790632,-0.00098662601382471,0.00098663501371289,0.69619235486027,128566,2924,0.0041523110551384,0.0081509406002327,0.0041523110550921,37.215149233747,5.7721193869975e-05,5.7721193869975e-05,5.7721193869975e-05,4305913.1442473,0.016593201724861
36019200,0.99917591713234,0.016660340593282,0.0046117073970838,0.0074369257988233,0.0046117073973746,-0.0009987739769443,0.0009987740575545,2.1698191241953e-09,-2.0892329181147e-09,-2.938883315235e-10,3.8808990129638e-10,-0.0011892859800581,0.0011892872557615,-0.0011892874618706,0.0011892858938688,-0.0011892857854405,0.0011892875007585,-0.0011892872174642,0.0011892860999993,-0.00098779184306465,0.00098779631218506,-0.00098779599240636,0.00098779214098693,2.4246419317945e-10,-4.7638906822921e-10,1.6077050997304e-08,-1.6298688866772e-08,-0.0019666012843961,0.0019666010615938,-0.0022018216006125,0.0022018323731492,-0.0022018323205203,0.0022018215847883,-0.0022018218349508,0.0022018321315658,-0.0022018325525372,0.002201821345579,-0.0016894197602937,0.0016894510739113,-0.0016894511612247,0.0016894189269905,-0.0016894403364386,0.0016894300793247,-0.0016894410340056,0.0016894293591485,-8.4922129364263e-10,3.4185459793671e-09,-0.00099877273154105,0.00099877530294215,-1.4395933394881e-08,1.7581929137597e-08,-0.0011892914731601,0.0011892818241351,-0.0011892808539568,0.0011892924413898,-0.0011892900552242,0.0011892832447883,-0.0011892794304494,0.0011892938676862,-0.00098778533864884,0.0009878028055273,-0.00098778952696242,0.00098779861542322,0.73586310245932,128566,2924,0.0041568942550944,0.0081568219494057,0.0041568942550763,37.855209080541,6.2841672644325e-05,6.2841672644325e-05,6.2841672644325e-05,4313924.044365,0.016608500715982
36219200,0.99923520647294,0.016661331198226,0.0046119783009243,0.0074373745960867,0.0046119783012152,-0.00099866823304026,0.00099866832057683,2.1859455726169e-09,-2.0998206153345e-09,-3.3975533183651e-10,4.4685409191423e-10,-0.0011893607253702,0.0011893619807069,-0.0011893622160366,0.0011893606100423,-0.0011893604965382,0.0011893622608612,-0.0011893619370736,0.0011893608503769,-0.00098776421152208,0.00098776874362314,-0.00098776837815453,0.0009877645374871,2.9133421217509e-10,-5.2925002536325e-10,1.6338217711958e-08,-1.6563886405228e-08,-0.0019668095110914,0.0019668092843781,-0.0022019829413572,0.0022019939166809,-0.002201993832958,0.0022019829536601,-0.0022019832081598,0.0022019936410405,-0.0022019940979855,0.0022019826798656,-0.0016896093275609,0.0016896411199249,-0.0016896412643279,0.0016896084763837,-0.0016896301792259,0.0016896198445837,-0.0016896309671314,0.0016896190094004,-8.4892693622144e-10,3.4449996561078e-09,-0.00099866697905843,0.00099866957461148,-1.4651184879418e-08,1.7854903538696e-08,-0.0011893662885216,0.0011893564801668,-0.0011893554934389,0.0011893672732672,-0.001189364861922,0.0011893579101452,-0.0011893540618739,0.0011893687082699,-0.00098775762590247,0.00098777532573091,-0.00098776183452664,0.000987771107578,0.71361055532098,128566,2924,0.0041564628878159,0.0081576731297642,0.0041564628878943,37.827192638821,6.2617541110569e-05,6.2617541110569e-05,6.2617541110569e-05,4304501.7138781,0.016608492193305
36419200,0.99928929458235,0.016662222886506,0.0046122217235144,0.0074377794391863,0.004612221723805,-0.0009980392167375,0.00099803930834853,2.2015298831372e-09,-2.1112213807285e-09,-3.8269747183103e-10,4.9338362717474e-10,-0.001188796095282,0.0011887973337409,-0.0011887975955216,0.0011887959553735,-0.0011887958367766,0.001188797644282,-0.0011887972872414,0.0011887962248135,-0.00098715816627653,0.0009871627613228,-0.00098716236466985,0.00098715853029815,3.3023281979051e-10,-5.7216997036487e-10,1.6579614261283e-08,-1.6808575599494e-08,-0.0019663018642665,0.0019663016341932,-0.0022014830986531,0.0022014942580677,-0.0022014941479367,0.0022014831324829,-0.0022014833917017,0.0022014939552466,-0.002201494440066,0.002201482830947,-0.0016890768474545,0.0016891090883999,-0.0016891092524492,0.0016890759538839,-0.0016890979628085,0.0016890875448466,-0.0016890988344033,0.0016890866302853,-8.4934238920243e-10,3.4707233211406e-09,-0.00099803795127917,0.00099804057391724,-1.4886552698328e-08,1.8125004013104e-08,-0.0011888017263504,0.0011887917660329,-0.0011887907630824,0.0011888027273448,-0.0011888002908029,0.0011887932050774,-0.0011887893232503,0.0011888041706439,-0.00098715150450195,0.00098716941870134,-0.00098715573789843,0.00098716517701083,0.70434020394741,128566,2924,0.0041538560363199,0.0081555713687213,0.0041538560365352,37.496204996035,5.9969639968277e-05,5.9969639968277e-05,5.9969639968277e-05,4294567.2815192,0.016601055880149
36619200,0.99933868057513,0.016662992055386,0.0046124297639885,0.0074381325271186,0.0046124297642792,-0.00099741376273919,0.00099741385497422,2.2155369805774e-09,-2.1240687695663e-09,-3.990869211299e-10,5.0830999312569e-10,-0.0011881840284338,0.0011881852662021,-0.0011881855380591,0.0011881838799882,-0.0011881837595112,0.0011881855875694,-0.0011881852195566,0.0011881841594283,-0.00098653219738211,0.00098653683231837,-0.00098653642815117,0.00098653257974271,3.43696614422e-10,-5.8733683185119e-10,1.672797324937e-08,-1.6958107815917e-08,-0.0019657240974875,0.0019657238661781,-0.0022009335464634,0.0022009448127193,-0.0022009446922234,0.0022009335867873,-0.0022009338490103,0.0022009445004917,-0.0022009449940428,0.0022009332753778,-0.0016884717789197,0.0016885043026701,-0.0016885044615579,0.0016884708589251,-0.0016884930692091,0.0016884825806021,-0.0016884939738732,0.0016884816429907,-8.5544506164498e-10,3.4909524739149e-09,-0.00099741248931857,0.00099741512845117,-1.5027610208176e-08,1.8291006829479e-08,-0.0011881897077389,0.0011881796505226,-0.0011881786423411,0.0011881907139723,-0.00118818826307,0.0011881810984803,-0.0011881771937362,0.0011881921658164,-0.00098652548531174,0.00098654353753425,-0.00098652974619546,0.00098653927163389,0.6667528130231,128566,2924,0.0041512619327384,0.008153182499313,0.0041512619328631,37.157816581465,5.7262532651717e-05,5.7262532651717e-05,5.7262532651717e-05,4286679.7879604,0.016593352735989
36819200,0.99938382954937,0.016663676517624,0.0046126141589581,0.0074384481994168,0.0046126141592488,-0.00099682555221224,0.0009968256434557,2.22792460728e-09,-2.1373566762843e-09,-3.938631922094e-10,5.0160624786168e-10,-0.0011874737655425,0.0011874750157005,-0.0011874752846663,0.0011874736203563,-0.0011874735014267,0.0011874753323722,-0.001187474969213,0.0011874738964842,-0.00098587896777939,0.0009858836207583,-0.00098588322213321,0.00098587934633785,3.4326601310599e-10,-5.8705635530191e-10,1.6814680516229e-08,-1.704490154037e-08,-0.0019650068847006,0.0019650066532289,-0.0022003298342054,0.0022003411581074,-0.0022003410369763,0.0022003298729346,-0.002200330137425,0.0022003408453027,-0.0022003413378291,0.0022003295625261,-0.001687697165426,0.0016877298574926,-0.0016877300121422,0.0016876962419659,-0.0016877185688874,0.0016877080202041,-0.0016877194713576,0.001687707086392,-8.6620014290448e-10,3.5076079693565e-09,-0.00099682427503245,0.0009968269206638,-1.5094675935423e-08,1.8366895536934e-08,-0.0011874794761856,0.0011874693687487,-0.0011874683640791,0.0011874804788548,-0.0011874780231413,0.0011874708250572,-0.001187466905504,0.0011874819406211,-0.00098587222361896,0.00098589035779104,-0.0009858765141621,0.00098588606290217,0.6495783416242,128566,2924,0.0041488173905184,0.0081502240544965,0.0041488173905871,36.819152696106,5.455322156885e-05,5.455322156885e-05,5.455322156885e-05,4285614.9036855,0.016585371945868
37019200,0.99942633311716,0.016664362311921,0.0046128011213133,0.0074387600690033,0.0046128011216041,-0.00099719913478619,0.0009971992180198,2.2378026154162e-09,-2.1540925296182e-09,-3.3933339637708e-10,4.3397791544905e-10,-0.0011877229881747,0.0011877242806776,-0.0011877245161934,0.0011877228767878,-0.0011877227639879,0.0011877245567991,-0.0011877242411846,0.0011877231124874,-0.00098619731787747,0.00098620195288206,-0.00098620160590004,0.00098619765876414,2.8486759707869e-10,-5.2354597150054e-10,1.6653897466276e-08,-1.6879230411039e-08,-0.0019653109330326,0.0019653107063611,-0.0022007762770089,0.0022007874576169,-0.002200787372545,0.0022007762807821,-0.0022007765406949,0.0022007871858505,-0.0022007876338949,0.0022007760114026,-0.0016879130498819,0.0016879454675197,-0.001687945560966,0.0016879121554722,-0.0016879343204233,0.0016879237648003,-0.0016879351118264,0.0016879229627357,-8.8881238605164e-10,3.5115281124315e-09,-0.00099719786177242,0.00099720049098955,-1.4936389614609e-08,1.8198013394205e-08,-0.0011877286785635,0.0011877186533015,-0.0011877176751759,0.0011877296547337,-0.001187727216381,0.0011877201181556,-0.0011877162074365,0.0011877311250856,-0.00098619061490646,0.00098620864296534,-0.00098619493499727,0.00098620432479092,0.6896181604444,128566,2924,0.004150364537863,0.0081514855617714,0.0041503645378157,37.01626894559,5.6130151564724e-05,5.6130151564724e-05,5.6130151564724e-05,4295501.5871721,0.016589796875571
37219200,0.99946658622431,0.016665054747088,0.0046129918036655,0.0074390711394664,0.0046129918039565,-0.00099777504831284,0.00099777512459084,2.2474233274328e-09,-2.1710771799859e-09,-2.7186029330318e-10,3.6057918890623e-10,-0.0011883466578694,0.0011883479984976,-0.0011883481936043,0.0011883465849995,-0.0011883464798203,0.0011883482277762,-0.001188347965405,0.0011883467738741,-0.00098679601363237,0.00098680061910773,-0.00098680032265491,0.00098679629426681,2.2026812196007e-10,-4.5234490199728e-10,1.6419219239829e-08,-1.6639079289961e-08,-0.0019660348827984,0.0019660346617379,-0.0022015380102775,0.0022015489941567,-0.0022015489508599,0.0022015379767575,-0.0022015382293098,0.0022015487679667,-0.0022015491678349,0.0022015377523687,-0.0016885845842778,0.0016886165862033,-0.0016886166439478,0.0016885837563308,-0.0016886056338479,0.0016885951087274,-0.0016886062886201,0.0016885944353876,-9.1548727398852e-10,3.5110453940588e-09,-0.00099777378651125,0.00099777638641875,-1.4707290767539e-08,1.7930307677353e-08,-0.0011883523076488,0.0011883424111773,-0.0011883414689541,0.0011883532478704,-0.0011883508364404,0.0011883438850381,-0.0011883399927258,0.0011883547268326,-0.00098678937856406,0.00098680724377008,-0.00098679372240542,0.00098680289897262,0.73362543626553,128566,2924,0.0041527571939281,0.00815447447943,0.0041527571940055,37.343089207136,5.8744713657088e-05,5.8744713657088e-05,5.8744713657088e-05,4299508.9510842,0.016597700768497
37419200,0.99950466357653,0.016665666169745,0.0046131581764725,0.0074393498165088,0.0046131581767636,-0.00099831695117694,0.00099831702178182,2.2576599005379e-09,-2.1870427536399e-09,-2.1756253366357e-10,3.0044343812979e-10,-0.0011890879223103,0.0011890893042142,-0.0011890894664989,0.0011890878811042,-0.0011890877820139,0.0011890894950893,-0.0011890892759721,0.0011890880324353,-0.00098743077153475,0.00098743535836742,-0.00098743510347883,0.00098743100585857,1.6402112138498e-10,-3.9057088244529e-10,1.6172937616681e-08,-1.6388135514533e-08,-0.0019669140038135,0.0019669137875011,-0.0022023514026494,0.0022023621881976,-0.0022023621814649,0.0022023513370908,-0.0022023515831819,0.0022023620012557,-0.0022023623596735,0.0022023511524742,-0.0016894515474301,0.0016894831045703,-0.0016894831288503,0.0016894507730203,-0.0016894723505148,0.0016894618775146,-0.0016894728880897,0.0016894613201119,-9.4130424758998e-10,3.5118862224731e-09,-0.00099831569971517,0.00099831827329984,-1.4485565823672e-08,1.7675718226824e-08,-0.0011890935299755,0.0011890837585745,-0.0011890828497434,0.0011890944368239,-0.0011890920500885,0.0011890852409943,-0.0011890813644786,0.0011890959248141,-0.00098742420501979,0.00098744191506509,-0.00098742857456056,0.00098743754354789,0.68665559501836,128566,2924,0.0041550139163914,0.0081580974720418,0.0041550139165227,37.673153819231,6.1385230553852e-05,6.1385230553852e-05,6.1385230553852e-05,4295956.7403009,0.016605976230667
37619200,0.9995406337224,0.016666224162999,0.0046133091355018,0.0074396058917043,0.0046133091357929,-0.00099888353267976,0.00099888359820869,2.2683675041614e-09,-2.2027710017828e-09,-1.730634887498e-10,2.5012578053498e-10,-0.0011896894094376,0.0011896908267556,-0.00118969096182,0.0011896893941902,-0.0011896893001086,0.0011896909858824,-0.0011896908027317,0.0011896895143123,-0.00098801863544648,0.00098802321160559,-0.00098802299217661,0.00098801883227552,1.1892791648085e-10,-3.4096150491889e-10,1.5947068967519e-08,-1.6158383506711e-08,-0.0019676244066605,0.0019676241942968,-0.0022031085492132,0.0022031191568578,-0.0022031191796796,0.002203108458337,-0.0022031086989019,0.0022031190017719,-0.0022031193270926,0.0022031083055378,-0.0016901052028812,0.001690136347737,-0.0016901363423208,0.0016901044693514,-0.0016901257712399,0.0016901153596661,-0.0016901262158411,0.0016901148963059,-9.6634665332454e-10,3.5133239883408e-09,-0.00099888229095563,0.00099888484001117,-1.4273191225629e-08,1.7434216782553e-08,-0.0011896949750791,0.0011896853224638,-0.0011896844456337,0.0011896958499295,-0.0011896934862785,0.0011896868135866,-0.0011896829514759,0.0011896973466859,-0.0009880121372942,0.00098802969993222,-0.00098801653262497,0.00098802530226305,0.66415286331596,128566,2924,0.0041573675381476,0.0081610305473099,0.0041573675383223,38.003339692808,6.4026717542461e-05,6.4026717542461e-05,6.4026717542461e-05,4301111.3054314,0.016613743746708
37819200,0.99957365019625,0.0166667170755,0.0046134415552277,0.0074398339647531,0.0046134415555188,-0.00099854242900695,0.00099854249777534,2.2826495954692e-09,-2.2147463645798e-09,-1.8500018558639e-10,2.6961707291291e-10,-0.0011892573491091,0.0011892587671313,-0.001189258909703,0.0011892573249088,-0.0011892572295583,0.0011892589364531,-0.0011892587401978,0.0011892574555889,-0.00098762382030974,0.00098762843169045,-0.00098762819469198,0.00098762402011005,1.3398974058775e-10,-3.5691723342352e-10,1.5908661112264e-08,-1.6121226483421e-08,-0.0019671910054712,0.00196719079202,-0.0022027768485678,0.002202787440431,-0.002202787455365,0.0022027767680446,-0.0022027770081617,0.0022027872747202,-0.0022027876125977,0.0022027766046923,-0.0016896151809004,0.001689646239237,-0.0016896462653007,0.0016896144562183,-0.0016896356801803,0.0016896253227064,-0.0016896361468452,0.0016896248181816,-9.8115686480738e-10,3.5249443525829e-09,-0.00099854119196674,0.00099854373493369,-1.424532490622e-08,1.7390818637651e-08,-0.0011892629095454,0.0011892532681284,-0.0011892524038227,0.0011892637718672,-0.0011892614121743,0.0011892547682144,-0.0011892509010722,0.0011892652776614,-0.00098761734004995,0.00098763490689605,-0.00098762175820511,0.00098763048095289,0.64016141784961,128566,2924,0.0041559492419679,0.0081592439664296,0.0041559492421908,37.804130213675,6.2433041709404e-05,6.2433041709404e-05,6.2433041709404e-05,4301793.4301026,0.016609041585616
38019200,0.99960390808539,0.016667187622535,0.0046135689984791,0.0074400496252852,0.0046135689987702,-0.0009981492813936,0.00099814935269429,2.2973210273313e-09,-2.2262772786708e-09,-2.1479870821419e-10,2.9978200568903e-10,-0.0011886830606441,0.0011886844708253,-0.0011886846306859,0.0011886830199851,-0.0011886829214943,0.0011886846597827,-0.0011886844410989,0.0011886831710127,-0.0009871341857172,0.00098713884730289,-0.00098713859070096,0.00098713441548821,1.6211432340105e-10,-3.881180727887e-10,1.5913101912777e-08,-1.6128021975176e-08,-0.0019665763413637,0.001966576125489,-0.0022023115276187,0.0022023221412646,-0.0022023221383738,0.0022023114641341,-0.0022023117071014,0.002202321955461,-0.0022023223148495,0.0022023112815061,-0.0016889315026411,0.0016889625498635,-0.0016889625855978,0.0016889307426206,-0.0016889519717036,0.0016889416645178,-0.0016889525002743,0.0016889411088817,-9.9378642515393e-10,3.5391478001102e-09,-0.00099814804389555,0.0009981505902325,-1.4253534085494e-08,1.7408448756784e-08,-0.0011886886245032,0.0011886789682975,-0.0011886781107794,0.001188689480089,-0.001188687118507,0.0011886804768115,-0.0011886765985884,0.0011886909950442,-0.00098712771212042,0.00098714531202389,-0.00098713215950916,0.00098714086062669,0.66569814068642,128566,2924,0.0041543117020952,0.0081567128318469,0.0041543117021824,37.559825169416,6.0478601355332e-05,6.0478601355332e-05,6.0478601355332e-05,4305568.2129646,0.016603134954349
38219200,0.99963166216194,0.016667622611626,0.0046136869934361,0.0074402486244623,0.0046136869937272,-0.00099773935632273,0.00099773943090246,2.3124472974952e-09,-2.2380052989241e-09,-2.4443758003906e-10,3.3263106164351e-10,-0.0011881956930017,0.0011881970942501,-0.0011881972715381,0.0011881956349782,-0.0011881955328331,0.0011881973044008,-0.0011881970617641,0.0011881958062709,-0.00098667343677321,0.00098667814992756,-0.00098667787036687,0.00098667369221344,1.9245006313562e-10,-4.2135982880529e-10,1.5944542723694e-08,-1.6161894630213e-08,-0.001966056260744,0.0019660560423506,-0.002201867500209,0.0022018781532953,-0.0022018781315703,0.0022018674547818,-0.0022018677001569,0.0022018779466974,-0.002201878329291,0.0022018672504258,-0.0016883731681114,0.0016884042567936,-0.0016884043116823,0.0016883723806952,-0.0016883936379104,0.0016883833712272,-0.0016883942310532,0.0016883827525981,-1.0055451461647e-09,3.5534382848003e-09,-0.00099773811893557,0.00099774066830986,-1.42735183784e-08,1.7433333705005e-08,-0.0011882012631925,0.0011881915853264,-0.0011881907340001,0.001188202112578,-0.0011881997480692,0.001188193103013,-0.0011881892135065,0.0011882036358194,-0.00098666696780158,0.0009866846092142,-0.00098667144039636,0.00098668013365603,0.67076171952243,128566,2924,0.00415260800118,0.0081545680203379,0.0041526080012304,37.314282848023,5.8514262784187e-05,5.8514262784187e-05,5.8514262784187e-05,4303804.8680766,0.016597488928461
38419200,0.99965731400962,0.016668050722745,0.00461380440099,0.0074404419204736,0.0046138044012811,-0.00099755372872453,0.00099755380487873,2.3264948171252e-09,-2.2502064844114e-09,-2.6318819599818e-10,3.5186905458309e-10,-0.001187966928791,0.0011879683282603,-0.0011879685164548,0.0011879668602245,-0.0011879667562615,0.0011879685508196,-0.0011879682939281,0.0011879670443642,-0.00098645627220854,0.00098646102584785,-0.00098646073331301,0.00098645654513346,2.1021875978472e-10,-4.4093318367626e-10,1.595411475751e-08,-1.6172882680006e-08,-0.0019658137888344,0.0019658135689114,-0.0022016810363605,0.0022016917073699,-0.0022016916745368,0.00220168100145,-0.0022016812488596,0.0022016914881276,-0.0022016918843521,0.0022016807849329,-0.001688097376703,0.0016881284712223,-0.0016881285330856,0.0016880965686346,-0.0016881178350317,0.0016881075961779,-0.0016881184669304,0.0016881069448814,-1.0179218343521e-09,3.567773931267e-09,-0.00099755249071978,0.00099755504290761,-1.4285231230874e-08,1.7451012903415e-08,-0.001187972506243,0.0011879628120021,-0.0011879619675501,0.0011879733487589,-0.0011879709824322,0.0011879643383131,-0.0011879604378505,0.0011879748810911,-0.0009864498043051,0.0009864674826006,-0.00098645430469581,0.00098646298090233,0.71253732562799,128566,2924,0.0041518364039065,0.0081535686529587,0.0041518364039758,37.196589903576,5.7572719228607e-05,5.7572719228607e-05,5.7572719228607e-05,4302869.0324798,0.016594903285191
38619200,0.99968117614761,0.016668451112837,0.0046139142832421,0.0074406225460614,0.0046139142835333,-0.00099753764844642,0.00099753772468431,2.3399517265626e-09,-2.2633825091858e-09,-2.6895783833332e-10,3.5671370217067e-10,-0.0011880663035257,0.0011880677084271,-0.0011880678997354,0.0011880662317837,-0.0011880661272098,0.0011880679346611,-0.0011880676739381,0.0011880664192475,-0.00098648497179899,0.00098648975621382,-0.00098648946082968,0.0009864852505644,2.1726899746362e-10,-4.4865400316347e-10,1.595488539038e-08,-1.6174122329312e-08,-0.0019659489603996,0.0019659487399355,-0.0022017677326095,0.0022017784082627,-0.0022017783710352,0.0022017677016852,-0.002201767949928,0.0022017781843786,-0.0022017785858908,0.0022017674799998,-0.0016882374655888,0.0016882685572011,-0.0016882686178435,0.0016882366465478,-0.0016882579145951,0.0016882476904017,-0.0016882585634454,0.0016882470269164,-1.0311512738728e-09,3.5808178919355e-09,-0.00099753641033684,0.00099753896287448,-1.4276632437267e-08,1.7445196299807e-08,-0.0011880718859369,0.0011880621869751,-0.0011880613517348,0.0011880727192085,-0.0011880703530547,0.0011880637222497,-0.001188059813297,0.0011880742601256,-0.00098647850893939,0.00098649620684927,-0.00098648303574028,0.00098649168009234,0.71625966322596,128566,2924,0.0041517739737847,0.0081541222779159,0.0041517739739795,37.193719616547,5.754975693238e-05,5.754975693238e-05,5.754975693238e-05,4296225.0862847,0.016595341666893
38819200,0.99970337686262,0.016668824855665,0.0046140169146854,0.0074407910260028,0.0046140169149766,-0.00099752081658516,0.00099752089382125,2.3534112407145e-09,-2.2762104557681e-09,-2.7239070424471e-10,3.627662727982e-10,-0.0011881668005138,0.001188168211882,-0.0011881684057158,0.0011881667261719,-0.0011881666213587,0.0011881684411713,-0.001188168176635,0.0011881669169935,-0.00098651605106214,0.00098652086373814,-0.00098652056287857,0.00098651633008518,2.1888345526069e-10,-4.5024548813293e-10,1.5956408139978e-08,-1.6175802697155e-08,-0.0019660933338682,0.0019660931133143,-0.0022018584678638,0.0022018691458066,-0.0022018691077276,0.0022018584383391,-0.0022018586861254,0.0022018689205784,-0.0022018693234062,0.002201858215746,-0.0016883905259162,0.0016884216189854,-0.0016884216898872,0.0016883897137039,-0.001688410975371,0.0016884007520198,-0.0016884116241938,0.0016884000814733,-1.0434942577057e-09,3.5949818700979e-09,-0.00099751957852606,0.00099752213194397,-1.4289892566003e-08,1.7455829932923e-08,-0.0011881723936669,0.0011881626799846,-0.0011881618517375,0.0011881732200346,-0.0011881708522459,0.0011881642239651,-0.0011881603045303,0.0011881747699375,-0.00098650958459061,0.00098652732004816,-0.00098651413602696,0.0009865227664175,0.71844599930583,128566,2924,0.0041517084673659,0.0081547136398098,0.0041517084675121,37.19361282167,5.7548902573361e-05,5.7548902573361e-05,5.7548902573361e-05,4289842.8310606,0.016595812122582
38880000,0.99970997576201,0.016668936067583,0.0046140474665367,0.0074408411342178,0.004614047466828,-0.00099751184540017,0.00099751192263055,2.3573955395374e-09,-2.2802867938433e-09,-2.7062898336371e-10,3.6141646073992e-10,-0.0011881960013985,0.0011881974163081,-0.0011881976092012,0.0011881959279148,-0.0011881958232497,0.0011881976445855,-0.0011881973811612,0.0011881961176083,-0.00098652418868973,0.00098652900795112,-0.0009865287080086,0.00098652446594464,2.1801504567236e-10,-4.4934376985627e-10,1.5967986537207e-08,-1.6187386180346e-08,-0.0019661401489693,0.00196613992845,-0.0022018867037025,0.0022018973887264,-0.0022018973511428,0.0022018866735633,-0.0022018869213311,0.0022018971640962,-0.002201897566252,0.0022018864514538,-0.0016884398801262,0.0016884709966021,-0.0016884710681862,0.0016884390699101,-0.0016884603462807,0.0016884501136786,-0.0016884609924503,0.001688449443659,-1.0470369798272e-09,3.5994422080297e-09,-0.00099751060693296,0.00099751316115309,-1.4298924476672e-08,1.7465134823797e-08,-0.0011882016002489,0.0011881918787289,-0.0011881910521907,0.0011882024248588,-0.0011882000561486,0.0011881934254576,-0.001188189502387,0.0011882039774162,-0.00098651771809498,0.00098653546865372,-0.00098652227705838,0.00098653090708343,0.71909630226679,128566,2924,0.0041516726499827,0.0081549053343664,0.0041516726501095,37.19360896033,5.7548871682636e-05,5.7548871682636e-05,5.7548871682636e-05,4287812.3206803,0.016595934937945
