time,ASR_ext,ASR_strain,ASR_strain_xx,ASR_strain_yy,ASR_strain_zz,disp_x_101,disp_x_102,disp_x_103,disp_x_104,disp_x_105,disp_x_106,disp_x_p1_neg,disp_x_p1_pos,disp_x_p2_neg,disp_x_p2_pos,disp_x_p3_neg,disp_x_p3_pos,disp_x_p4_neg,disp_x_p4_pos,disp_x_p5_neg,disp_x_p5_pos,disp_x_p6_neg,disp_x_p6_pos,disp_y_101,disp_y_102,disp_y_103,disp_y_104,disp_y_105,disp_y_106,disp_y_p1_neg,disp_y_p1_pos,disp_y_p2_neg,disp_y_p2_pos,disp_y_p3_neg,disp_y_p3_pos,disp_y_p4_neg,disp_y_p4_pos,disp_y_p5_neg,disp_y_p5_pos,disp_y_p6_neg,disp_y_p6_pos,disp_y_p7_neg,disp_y_p7_pos,disp_y_p8_neg,disp_y_p8_pos,disp_z_101,disp_z_102,disp_z_103,disp_z_104,disp_z_105,disp_z_106,disp_z_p1_neg,disp_z_p1_pos,disp_z_p2_neg,disp_z_p2_pos,disp_z_p3_neg,disp_z_p3_pos,disp_z_p4_neg,disp_z_p4_pos,disp_z_p5_neg,disp_z_p5_pos,disp_z_p6_neg,disp_z_p6_pos,humidity,ndof,nelem,strain_xx,strain_yy,strain_zz,temp,thermal_strain_xx,thermal_strain_yy,thermal_strain_zz,vonmises,vstrain
2419200,0,0,0,0,0,0,0,0,0,0,0,0,0,0,0,0,0,0,0,0,0,0,0,0,0,0,0,0,0,0,0,0,0,0,0,0,0,0,0,0,0,0,0,0,0,0,0,0,0,0,0,0,0,0,0,0,0,0,0,0,0,0,0,0,0,0,0,0,0,0,0,0,0,0,0
2619200,0.019573689813177,0.00040152336759597,0.00013384112253199,0.00013384112253199,0.00013384112253199,-3.3538197248036e-05,3.3538487299241e-05,1.2350781216313e-10,1.6426773389562e-10,-5.0790264931074e-10,8.192497978064e-10,-3.3331585929797e-05,3.3331423475568e-05,-3.333148128788e-05,3.3331346005405e-05,-3.3331117026352e-05,3.3331820496648e-05,-3.3331103101767e-05,3.3331833751589e-05,-3.4406383713342e-05,3.4407071967083e-05,-3.4406323057133e-05,3.4407090930519e-05,3.8876016222478e-10,-8.0059320529478e-10,-2.0338226448464e-08,1.9945161618899e-08,-3.5988171771403e-05,3.5987776427804e-05,-3.5421555361611e-05,3.540836294896e-05,-3.5408687160369e-05,3.5421872987813e-05,-3.5421933338367e-05,3.5407966024184e-05,-3.5409065031231e-05,3.5421475983302e-05,-3.6238784038013e-05,3.6198464396456e-05,-3.6199835102121e-05,3.6238582800698e-05,-3.6211929792622e-05,3.6226040011726e-05,-3.6213087757552e-05,3.6224849386207e-05,-4.317346734535e-09,-4.3575569275034e-09,-3.3542716373955e-05,3.353396819255e-05,1.5275546241232e-08,-2.4683419810691e-08,-3.3329111633807e-05,3.3333814161481e-05,-3.3342357440624e-05,3.3320567496027e-05,-3.3329126936164e-05,3.3333802633087e-05,-3.3342372564235e-05,3.3320555807095e-05,-3.4417731845584e-05,3.4395705034194e-05,-3.4417687649382e-05,3.4395739661934e-05,0.81992967057936,128566,2924,0.00013973329734054,0.00014993857856868,0.00013973329738409,31.552099902147,1.2416799217177e-05,1.2416799217177e-05,1.2416799217177e-05,601845.17975306,0.00042949761300476
2819200,0.041163518741303,0.00083632217700622,0.00027727127586014,0.00028177962510125,0.00027727127604483,-6.8533991770715e-05,6.8531226184196e-05,-1.3752158052215e-09,-1.3677100362356e-09,4.5225737403487e-09,-7.4875999606815e-09,-6.9212966812971e-05,6.9214179930309e-05,-6.9212926927956e-05,6.9214149218732e-05,-6.9216788460827e-05,6.9210156625983e-05,-6.9216788658925e-05,6.9210157435663e-05,-7.0030476061522e-05,7.0023752223397e-05,-7.0030463114723e-05,7.0023741271885e-05,-3.8586355930997e-09,8.1902825233329e-09,-8.3259187159131e-09,1.2473130169266e-08,-7.4743748785488e-05,7.4747917370777e-05,-7.4245890312741e-05,7.4239270926286e-05,-7.4239179207606e-05,7.4246204899544e-05,-7.4242067095645e-05,7.4243293073241e-05,-7.4235360265071e-05,7.4250222682886e-05,-7.4678408484115e-05,7.4666120404404e-05,-7.4658243215269e-05,7.4686791499973e-05,-7.4672662964355e-05,7.4671951321377e-05,-7.4660959025091e-05,7.4684015981385e-05,2.8873518047033e-10,2.8130146713048e-10,-6.8532347293144e-05,6.853287070124e-05,1.0542656214056e-08,-1.0335402762618e-08,-6.9209752930897e-05,6.9217286100833e-05,-6.921670429882e-05,6.9210344202784e-05,-6.9209736859753e-05,6.9217269266907e-05,-6.9216697003019e-05,6.9210327524991e-05,-7.0030325876811e-05,7.0023893724074e-05,-7.0030348903917e-05,7.0023944244272e-05,0.82138490772768,128566,2924,0.00028551183386221,0.000311392222943,0.00028551183394502,32.739768961101,2.1918151688809e-05,2.1918151688809e-05,2.1918151688809e-05,875960.81419125,0.00088280587086735
3019200,0.062602492129735,0.0012619132139386,0.00041494130046048,0.00043203061296221,0.0004149413005159,-9.9501338394778e-05,9.9498167758269e-05,-1.5651487249568e-09,-1.5895612156367e-09,7.052866522687e-09,-1.0512563326296e-08,-0.00010111811304963,0.0001011207666176,-0.00010111813376433,0.00010112077375151,-0.00010112372570824,0.00010111491652236,-0.00010112374420311,0.00010111491582677,-0.00010171284474185,0.00010170388726734,-0.00010171288141109,0.00010170386901318,-6.0005939571354e-09,1.1563795039003e-08,3.5565567586397e-10,4.9196616226041e-09,-0.0001112437441968,0.00011124905162548,-0.00011092814197139,0.00011092614040684,-0.0001109265991788,0.00011092761357571,-0.0001109225344117,0.00011093198625133,-0.00011092099363866,0.00011093345735764,-0.00011064406020271,0.00011065066413144,-0.00011063957665445,0.00011065514665528,-0.00011065238847095,0.00011064204677805,-0.00011063528459458,0.00011065963971533,1.8066309753695e-09,1.833694613426e-09,-9.949793979052e-05,9.9501566348816e-05,4.2159109591487e-09,-6.4180053449132e-10,-0.00010111675884342,0.0001011220104492,-0.00010111841528268,0.0001011203913126,-0.00010111673210915,0.00010112200446486,-0.0001011183945441,0.00010112038566811,-0.00010170737348721,0.00010170938770878,-0.00010170742795927,0.00010170939648256,0.82013325088996,128566,2924,0.00041449673157667,0.00046341855158708,0.00041449673154742,32.491742859082,1.9933942872657e-05,1.9933942872657e-05,1.9933942872657e-05,1201121.4200421,0.00129324881489
3219200,0.083802594547754,0.0016706932212603,0.00054513374017642,0.00058042574089113,0.00054513374019276,-0.00012861091595095,0.00012860798165116,-1.4366846616719e-09,-1.4946559862831e-09,8.0724871982496e-09,-1.1333764419486e-08,-0.00013147881802414,0.0001314823290615,-0.00013147886653739,0.00013148234181963,-0.00013148501993837,0.00013147587716519,-0.0001314850467026,0.00013147586218266,-0.00013134361475974,0.00013133429431842,-0.00013134366666795,0.00013133422512809,-6.6798190428341e-09,1.2740161370801e-08,6.096125221162e-09,-3.645376157143e-10,-0.00014722293967486,0.00014722870637203,-0.00014746132563051,0.00014746278584789,-0.00014746335753917,0.0001474605732013,-0.00014745509848773,0.00014746923210634,-0.0001474571324851,0.00014746701735442,-0.00014563344333489,0.00014565194595328,-0.00014563964966168,0.00014564546543739,-0.00014565013057536,0.00014563479735247,-0.00014563120446008,0.00014565423787306,2.5168977713183e-09,2.576814255692e-09,-0.00012860691129355,0.00012861198627063,-4.4033753999777e-10,5.6489903291177e-09,-0.00013147901185791,0.00013148201542817,-0.00013147703985413,0.00013148403727468,-0.00013147897885434,0.0001314820252729,-0.00013147701115588,0.00013148404538895,-0.00013133539071355,0.00013134254608618,-0.00013133545838663,0.00013134250419143,0.80675914060652,128566,2924,0.00053573017719171,0.00061325139618773,0.00053573017711187,32.203770428681,1.7630163429446e-05,1.7630163429446e-05,1.7630163429446e-05,1470274.7934549,0.001686133939667
3419200,0.10474006565612,0.0020593707836792,0.00066688172626429,0.00072560733117444,0.00066688172624052,-0.00015571115916457,0.00015570934658871,-8.672155599182e-10,-9.5824619778301e-10,7.0891343022641e-09,-9.1880290393139e-09,-0.00016016996109184,0.00016017356903466,-0.00016017000845966,0.00016017355852142,-0.00016017514840375,0.00016016815648281,-0.00016017518213737,0.0001601681265166,-0.00015866501261831,0.00015865786292325,-0.00015866506529632,0.00015865773004718,-5.5025321306926e-09,1.0772336035896e-08,5.1650219159127e-09,-1.9269017747676e-10,-0.00018242124017945,0.00018242624175993,-0.00018374406961024,0.00018374544748624,-0.00018374580517181,0.00018374362276114,-0.00018373882767284,0.00018375082926304,-0.00018374056519396,0.00018374900257271,-0.00017923723143046,0.00017925285224526,-0.00017924239525509,0.00017924749109075,-0.00017925118589581,0.0001792385491842,-0.00017923531410639,0.00017925483226076,1.9226713841591e-09,2.0159381827526e-09,-0.00015570830768972,0.00015571219800996,-4.7368098717981e-10,4.5001110278744e-09,-0.00016017061878177,0.0001601727888858,-0.00016016901232533,0.00016017444687485,-0.00016017058243354,0.00016017281752892,-0.00016016897671304,0.00016017447039486,-0.00015865860574483,0.00015866427502636,-0.00015865868322932,0.00015866417733169,0.78589837060822,128566,2924,0.00064858458262897,0.00075980764720765,0.00064858458251673,31.914284235019,1.5314273880155e-05,1.5314273880155e-05,1.5314273880155e-05,1708279.2513084,0.0020590971579263
3619200,0.12593649912274,0.0024400566767492,0.00078436436468379,0.00087132794744591,0.00078436436461952,-0.00018244945188629,0.00018244827334866,-5.3874316108885e-10,-6.5650737279709e-10,6.3907043791639e-09,-7.82792238619e-09,-0.00018869614374923,0.00018869971646805,-0.00018869620222666,0.00018869968928703,-0.00018870066997665,0.00018869498644966,-0.00018870070842833,0.0001886949532345,-0.00018539071452783,0.00018538488850741,-0.00018539076994082,0.00018538473486706,-4.7780133337592e-09,9.3912148590457e-09,3.8636468835045e-09,4.8748159303666e-10,-0.00021848756896548,0.00021849194419057,-0.00022148927856622,0.0002214900855515,-0.00022149039320525,0.00022148892517589,-0.00022148471733138,0.00022149475808175,-0.00022148582398665,0.00022149360553354,-0.00021304546914448,0.00021305780934863,-0.00021304870093183,0.00021305443645556,-0.0002130567821663,0.00021304621380079,-0.00021304294839518,0.0002130604121728,1.374338059821e-09,1.5072274049766e-09,-0.00018244745213351,0.00018245027304212,3.5001535035954e-11,2.9033226895204e-09,-0.00018869697833683,0.0001886987713371,-0.0001886960716318,0.00018869972363438,-0.00018869693423326,0.00018869880882509,-0.00018869601795152,0.00018869976538982,-0.00018538581321343,0.00018538978217983,-0.0001853859402441,0.00018538962752623,0.77011575672416,128566,2924,0.00075991906266516,0.00090995566739478,0.00075991906254117,31.99387943607,1.5951035488561e-05,1.5951035488561e-05,1.5951035488561e-05,1961644.1241986,0.0024327526467827
3819200,0.14773836442062,0.0028270719717869,0.00090240962682286,0.0010222527182636,0.00090240962670043,-0.00020972513759468,0.00020972424562145,-3.7952292025901e-10,-5.303312723124e-10,5.9979182046144e-09,-7.1337368701472e-09,-0.00021779587504798,0.00021779938430031,-0.00021779594286239,0.0002177993431978,-0.00021780004885957,0.00021779501780378,-0.00021780009873073,0.00021779497572361,-0.00021273150821235,0.00021272636023331,-0.00021273159054574,0.00021272617220286,-4.4737206539931e-09,8.609293338932e-09,2.5864570392261e-09,1.3081179488652e-09,-0.00025634036821127,0.00025634428300268,-0.00026147469434088,0.00026147471857333,-0.00026147513912022,0.00026147426036196,-0.00026147048617412,0.000261479027183,-0.00026147092113619,0.00026147857886461,-0.00024817026250639,0.00024817972971689,-0.00024817146769937,0.00024817844306096,-0.00024817952221154,0.00024817023549447,-0.00024816674139854,0.00024818336014933,9.6046122766759e-10,1.1266781598727e-09,-0.00020972368199984,0.00020972570111947,6.5552358843964e-10,1.4549273755848e-09,-0.00021779674019919,0.00021779841515749,-0.0002177965215746,0.00021779867612026,-0.00021779668589859,0.00021779846330428,-0.00021779645590293,0.00021779872985764,-0.00021272766546168,0.00021273018788492,-0.00021272782743898,0.00021272999946334,0.77140161289955,128566,2924,0.00087347870862038,0.0010675162276782,0.00087347870841839,32.325335476895,1.860268381516e-05,1.860268381516e-05,1.860268381516e-05,2223782.7110299,0.0028184442261872
4019200,0.17013548121668,0.0032214062024764,0.0010213089143357,0.0011787883739888,0.0010213089141519,-0.00023711819005816,0.00023711738488208,-3.1948986354019e-10,-5.041682383885e-10,5.8127942140919e-09,-6.855286704013e-09,-0.00024718563528907,0.00024718908792136,-0.00024718571182548,0.00024718903394727,-0.00024718966023355,0.00024718487930838,-0.0002471897221634,0.00024718482602251,-0.00024022692331969,0.0002402220510601,-0.00024022704011371,0.00024022182803255,-4.3892714373293e-09,8.233563235442e-09,1.6883423327271e-09,1.9268346801996e-09,-0.00029567479933612,0.00029567843234101,-0.00030324410074279,0.0003032434994276,-0.00030324405708184,0.00030324355080202,-0.00030324004143388,0.00030324765543141,-0.00030323998898621,0.00030324771571077,-0.00028441046614386,0.00028441801985675,-0.00028441021033697,0.00028441823533814,-0.00028441845153984,0.00028440982759599,-0.00028440611793824,0.00028442249710969,7.0567228613217e-10,9.0438897533517e-10,-0.00023711701873751,0.00023711855606318,1.1468381844542e-09,4.6157139736419e-10,-0.00024718647218967,0.00024718815206736,-0.00024718674571013,0.00024718791761655,-0.00024718640663628,0.00024718821158512,-0.00024718667008616,0.00024718798237841,-0.00024022368787299,0.00024022526939003,-0.00024022387936678,0.00024022504998376,0.77299485391058,128566,2924,0.00098751512217168,0.0012312170108967,0.00098751512188072,32.662850774131,2.1302806193052e-05,2.1302806193052e-05,2.1302806193052e-05,2470177.7802827,0.0032114014939159
4219200,0.19310188128218,0.0036234139226165,0.0011410745667601,0.001341264789324,0.0011410745665324,-0.00026461048709864,0.00026460970410063,-2.9184915425738e-10,-5.0987546105607e-10,5.7055766984858e-09,-6.7217655526911e-09,-0.00027698517280996,0.00027698857815376,-0.00027698525867899,0.00027698851159454,-0.00027698912367415,0.00027698445212018,-0.00027698919742445,0.00027698438821792,-0.00026786162435438,0.00026785688656755,-0.00026786177271015,0.00026785662951001,-4.3589220156745e-09,8.0250644955824e-09,1.0219762852819e-09,2.423491976116e-09,-0.00033660573390008,0.00033660919571343,-0.00034679734774377,0.00034679627324165,-0.00034679692880521,0.00034679671573305,-0.00034679336542027,0.00034680034978367,-0.00034679293820601,0.00034680080067817,-0.00032199253395294,0.00032199870146771,-0.0003219911569367,0.00032200006963951,-0.00032199961587376,0.00032199143458646,-0.00032198751283467,0.00032200386690615,5.4383713565019e-10,7.7557616178909e-10,-0.00026460947382509,0.00026461071721194,1.5625596286406e-09,-2.65141862125e-10,-0.00027698594929186,0.00027698770769758,-0.00027698660111051,0.00027698709239207,-0.00027698587220083,0.00027698777799925,-0.00027698651486759,0.00027698716833861,-0.00026785877465523,0.00026785971736904,-0.00026785899659912,0.00026785946403288,0.77488673335625,128566,2924,0.0011019534044391,0.0014015326167388,0.0011019534041009,33.000590102209,2.4004720817674e-05,2.4004720817674e-05,2.4004720817674e-05,2696698.9996001,0.0036119590135916
4419200,0.21700683307475,0.0040395105363246,0.0012634617078622,0.0015125871208531,0.0012634617076093,-0.00029309197748436,0.00029309119456348,-2.7795372310897e-10,-5.2379385344101e-10,5.6387604536634e-09,-6.652366367715e-09,-0.00030808676460502,0.00030809013963737,-0.00030808686236878,0.00030809005661042,-0.00030809068110894,0.00030808605542714,-0.00030809075917287,0.00030808598711104,-0.00029652107859527,0.00029651639777586,-0.00029652123675305,0.00029651612581785,-4.3447413571192e-09,7.8922672717406e-09,3.8232298451585e-10,2.9507568293161e-09,-0.00038029708495777,0.00038030043330921,-0.00039329557314304,0.00039329405602862,-0.00039329478315722,0.00039329488569559,-0.00039329164309954,0.00039329807864945,-0.00039329083519829,0.00039329892635976,-0.00036209093649012,0.00036209578404555,-0.00036208841840674,0.00036209832712081,-0.00036209717043172,0.00036208938949057,-0.00036208519515045,0.00036210168966948,4.0622231493896e-10,6.7649311601258e-10,-0.00029309108400233,0.00029309208785193,2.0237042100785e-09,-9.8544807017126e-10,-0.00030808745253609,0.0003080893611256,-0.00030808849974645,0.0003080883480405,-0.00030808736727532,0.00030808943911818,-0.00030808839614479,0.00030808844213014,-0.0002965185440704,0.00029651890970858,-0.00029651881641531,0.00029651860146871,0.77612068293682,128566,2924,0.0012204976847114,0.0015833010248842,0.0012204976843083,33.594772791375,2.8758182330999e-05,2.8758182330999e-05,2.8758182330999e-05,2916049.8935752,0.0040324215250201
4619200,0.24198771611671,0.004471716741018,0.0013889139114724,0.0016938889183382,0.0013889139112074,-0.00032239016954947,0.00032238938271224,-2.656881974971e-10,-5.3980933916035e-10,5.590476633859e-09,-6.6066347413436e-09,-0.00034031521769789,0.00034031857279348,-0.00034031532721704,0.00034031847394407,-0.00034031911302223,0.00034031451612473,-0.00034031919570526,0.00034031444251006,-0.00032605642109804,0.00032605178119791,-0.00032605659038008,0.00032605149237429,-4.3359520482736e-09,7.7993197431355e-09,-1.5149264966531e-10,3.4054669860565e-09,-0.00042668003011453,0.00042668329832183,-0.00044271547471237,0.00044271359227162,-0.00044271437075677,0.0004427147476041,-0.00044271158293251,0.0004427175756653,-0.00044271045115008,0.00044271875900217,-0.00040459279069711,0.00040459654394117,-0.00040458930450967,0.00040460008186183,-0.00040459832043888,0.00040459087452155,-0.00040458643347749,0.00040460308618845,3.1089793735771e-10,6.1923228687479e-10,-0.00032238935124904,0.00032239020078771,2.4381260563049e-09,-1.5720344169856e-09,-0.00034031580920997,0.00034031789308379,-0.0003403171916282,0.00034031654227285,-0.0003403157153973,0.00034031797912066,-0.00034031707118441,0.00034031665380889,-0.00032605412161837,0.00032605405375175,-0.00032605444327089,0.00032605369268882,0.7769364678269,128566,2924,0.001342429509789,0.0017762289855113,0.0013424295093215,34.292657738788,3.4341261910303e-05,3.4341261910303e-05,3.4341261910303e-05,3129406.2580684,0.0044710762873565
4819200,0.26801363884908,0.0049194007418627,0.001517193305338,0.0018850141314693,0.0015171933050553,-0.00035226830846187,0.00035226751707232,-2.5009225370994e-10,-5.5989236290433e-10,5.5545217840997e-09,-6.5737207258589e-09,-0.00037339603808983,0.00037339937661881,-0.00037339615575485,0.0003733992664646,-0.00037339991300298,0.0003733953458739,-0.00037340000932653,0.00037339525795892,-0.00035623204544061,0.00035622746527414,-0.00035623225396223,0.00035622713186981,-4.3340197578773e-09,7.7363026663669e-09,-5.4607694122429e-10,3.7428170474496e-09,-0.00047549346473292,0.00047549667508492,-0.00049483606946504,0.00049483390989792,-0.00049483472692502,0.00049483531076263,-0.0004948321977183,0.00049483787284846,-0.00049483083041868,0.00049483929879248,-0.00044919360230355,0.00044919656889226,-0.00044918941944303,0.00044920082528533,-0.00044919861600934,0.00044919142728844,-0.00044918680189843,0.00044920356379295,2.6379249281123e-10,6.0279228965827e-10,-0.00035226751989293,0.00035226830535725,2.7530501895006e-09,-1.965481232929e-09,-0.00037339654066787,0.00037339878801925,-0.00037339815500557,0.0003733972036561,-0.0003733964346199,0.0003733988866159,-0.00037339802696084,0.00037339732388205,-0.00035622991244812,0.00035622956888262,-0.00035623025530614,0.00035622918295974,0.77792179602884,128566,2924,0.0014667634643717,0.0019792232767693,0.0014667634637809,34.993073992995,3.9944591943962e-05,3.9944591943962e-05,3.9944591943962e-05,3336024.1557087,0.004924868138763
5019200,0.29503624926862,0.0053803241167094,0.001647628733688,0.0020850666496743,0.0016476287333471,-0.00038257598636929,0.00038257518927045,-2.3616766221705e-10,-5.7926334140882e-10,5.5255871513591e-09,-6.5490516761432e-09,-0.00040719133876262,0.00040719466504893,-0.00040719146570914,0.00040719454245141,-0.00040719519828535,0.0004071906535734,-0.00040719530503579,0.00040719055359408,-0.00038687896422499,0.00038687442878499,-0.00038687920323102,0.00038687406039304,-4.3312122143664e-09,7.6866823030732e-09,-8.2874008795624e-10,3.9818818651688e-09,-0.00052651648071889,0.0005265196468709,-0.00054948561451574,0.000549483255831,-0.00054948410072905,0.00054948483125231,-0.00054948175936714,0.0005494872020571,-0.00054948022214983,0.00054948880118215,-0.00049560241432615,0.00049560481058213,-0.00049559772919001,0.00049560958308788,-0.0004956070554005,0.00049560004885386,-0.00049559529504372,0.0004956121297952,2.3927889631253e-10,6.1132824709329e-10,-0.00038257520276648,0.00038257597254466,2.9948773105392e-09,-2.2342584242587e-09,-0.00040719176291762,0.00040719415574714,-0.00040719354490591,0.00040719240230705,-0.00040719164608611,0.00040719426606303,-0.00040719340667084,0.00040719253407302,-0.00038687692910547,0.00038687643290007,-0.00038687730218126,0.0003868760127706,0.7767732624549,128566,2924,0.0015928740025392,0.0021913579711908,0.0015928740018555,35.693584262931,4.5548674103448e-05,4.5548674103448e-05,4.5548674103448e-05,3532274.3645983,0.0053916289356705
5219200,0.32235933801005,0.0058444644694932,0.0017775399203302,0.0022893846292137,0.0017775399199493,-0.00041200970393748,0.00041200889762931,-2.1685155390373e-10,-6.0758511034081e-10,5.5070649880983e-09,-6.538102308286e-09,-0.00044025656143664,0.00044025987034711,-0.00044025669147795,0.00044025974554923,-0.00044026039835593,0.00044025588397615,-0.00044026053338321,0.00044025575415991,-0.00041672646178883,0.00041672201260968,-0.00041672678510428,0.00041672155709798,-4.3271959125764e-09,7.668668632702e-09,-6.8169572351652e-10,3.8230522652893e-09,-0.00057783694591195,0.0005778400998585,-0.00060468046223546,0.00060467818470998,-0.00060467902849062,0.000604679669419,-0.00060467660150649,0.0006046821369389,-0.00060467517120014,0.00060468361835784,-0.00054201108630574,0.00054201380379207,-0.00054200673560543,0.00054201822938094,-0.0005420159065998,0.00054200884821681,-0.00054200420632896,0.00054202086578685,3.0877701793619e-10,6.9961865198014e-10,-0.00041200883579509,0.00041200976553084,2.9102106999431e-09,-1.9860183889045e-09,-0.00044025696290417,0.00044025938532201,-0.00044025862124532,0.00044025775455678,-0.00044025682731336,0.00044025951589921,-0.00044025849061457,0.00044025788008101,-0.00041672434754614,0.00041672409903813,-0.0004167246976902,0.0004167236975428,0.77855552787052,128566,2924,0.0017153392669241,0.0024046777914552,0.0017153392664213,36.02298998968,4.8183919917442e-05,4.8183919917442e-05,4.8183919917442e-05,3707701.0136513,0.0058524676030671
5419200,0.34977904740049,0.0063020774726298,0.0019042613763494,0.0024935547203836,0.0019042613758968,-0.00044053047702999,0.00044052966143775,-2.0024470438784e-10,-6.3312313008372e-10,5.4909355211761e-09,-6.5298204164832e-09,-0.00047270304576249,0.00047270634233228,-0.00047270318168554,0.00047270621181126,-0.00047270686728014,0.00047270237404247,-0.00047270702396503,0.00047270222125436,-0.00044565203269945,0.00044564764716888,-0.00044565242053347,0.00044564712720188,-4.3258576251072e-09,7.645077559746e-09,-5.0293751275127e-10,3.6227018410631e-09,-0.00062906496409475,0.00062906809608479,-0.00066005613310637,0.00066005395354184,-0.00066005480721277,0.00066005532189332,-0.00066005226911899,0.00066005790943412,-0.00066005096864591,0.00066005925208243,-0.00058797981964746,0.0005879829043405,-0.00058797585873149,0.00058798692637191,-0.00058798486702453,0.00058797770999977,-0.00058797321373802,0.00058798967691897,3.5972054646805e-10,7.7488180821573e-10,-0.00044052954012134,0.00044053059813376,2.7823496787007e-09,-1.7237435623882e-09,-0.0004727034515407,0.00047270585487135,-0.00047270497170428,0.0004727043608501,-0.00047270330014418,0.00047270600236828,-0.00047270484188339,0.00047270448684788,-0.0004456498232407,0.00044564983033723,-0.00044565017253435,0.00044564942694088,0.76958003763444,128566,2924,0.0018339989397374,0.0026175602099568,0.0018339989392926,36.27583072215,5.0206645777197e-05,5.0206645777197e-05,5.0206645777197e-05,3854473.8181374,0.0063054199870015
5619200,0.37721541334924,0.0067365967398989,0.0020230488281245,0.0026904990840692,0.0020230488277051,-0.00046725327732527,0.00046725245537252,-1.8790049739562e-10,-6.5125772404741e-10,5.4737549810077e-09,-6.5182419510062e-09,-0.00050406042534786,0.00050406371913208,-0.00050406057439013,0.00050406357594947,-0.00050406424272094,0.00050405975918107,-0.00050406440668089,0.00050405959819374,-0.00047246765856269,0.00047246329902167,-0.00047246806840836,0.00047246275740397,-4.3257970737511e-09,7.6146255789155e-09,-3.7978344672934e-10,3.470086979313e-09,-0.00067895683053642,0.00067895993274402,-0.00071459465762301,0.00071459254829516,-0.0007145934195029,0.0007145938235354,-0.00071459080369733,0.00071459649446377,-0.000714589589941,0.00071459774465318,-0.00063205790292468,0.00063206120873357,-0.00063205419582961,0.00063206496384524,-0.00063206310885487,0.00063205585043655,-0.00063205147546157,0.00063206779714108,3.7903679317696e-10,8.3017388228532e-10,-0.00046725229925114,0.00046725343331496,2.6883216450014e-09,-1.5480492583471e-09,-0.00050406084294638,0.00050406322219113,-0.00050406227594532,0.00050406181432926,-0.00050406068246916,0.00050406337911612,-0.00050406213202252,0.00050406195504557,-0.00047246535834473,0.00047246557200911,-0.00047246575119833,0.00047246512564364,0.73637049083657,128566,2924,0.0019451740683579,0.0028248368575138,0.0019451740680828,36.526740918298,5.2213927346385e-05,5.2213927346385e-05,5.2213927346385e-05,3969861.54809,0.0067378632699149
5819200,0.40458813570102,0.0071521933821051,0.0021355576899746,0.0028810780025063,0.0021355576896242,-0.00049252048638228,0.00049251966121111,-1.7286076501548e-10,-6.6899950946926e-10,5.4552231168604e-09,-6.5022370135049e-09,-0.00053458367322049,0.00053458696417876,-0.00053458383405815,0.00053458680988686,-0.00053458748261552,0.00053458301622707,-0.00053458765705982,0.00053458284454046,-0.00049761987711956,0.00049761555826732,-0.00049762031898316,0.00049761498594846,-4.3220678564114e-09,7.5824881080461e-09,-3.1122407264174e-10,3.3740847434389e-09,-0.00072780661391421,0.00072780968835689,-0.0007685303895195,0.00076852831881926,-0.00076852920450723,0.00076852953715225,-0.00076852654798432,0.00076853225246242,-0.00076852538513184,0.00076853344801189,-0.00067466541597939,0.00067466883864633,-0.00067466186052002,0.00067467243355742,-0.00067467070470265,0.00067466339342251,-0.00067465910085126,0.00067467531016382,3.8296613828706e-10,8.6776938811448e-10,-0.0004925194855836,0.00049252066192067,2.6307209261639e-09,-1.4438701984211e-09,-0.00053458410192698,0.00053458645847509,-0.00053458548194466,0.0005345851031874,-0.00053458393078394,0.00053458662612339,-0.00053458532644326,0.00053458525543372,-0.0004976175329863,0.00049761787461798,-0.00049761796077814,0.00049761739575093,0.71317584286591,128566,2924,0.0020502908522751,0.0030277333419466,0.0020502908520887,36.777578913963,5.4220631311705e-05,5.4220631311705e-05,5.4220631311705e-05,4079944.6274583,0.0071538791624156
6019200,0.43141221181806,0.0075496798477243,0.0022423205358585,0.0030650387763289,0.0022423205355369,-0.00051593635579389,0.0005159355323544,-1.5727551403494e-10,-6.8263928792327e-10,5.4355921693573e-09,-6.47938985347e-09,-0.00056358790169656,0.00056359119585152,-0.00056358807937368,0.00056359102767952,-0.00056359170552277,0.00056358725753886,-0.00056359188458106,0.00056358708195364,-0.00052089775581746,0.00052089346487442,-0.0005208982118001,0.00052089288192093,-4.314071000004e-09,7.5458171157903e-09,-1.0452555043383e-10,3.1396229355274e-09,-0.00077502188201225,0.00077502492845957,-0.00082091516335066,0.00082091322928741,-0.00082091412454602,0.00082091429288788,-0.00082091134140203,0.00082091714240473,-0.00082091031296294,0.000820918195083,-0.00071565238052607,0.00071565617539072,-0.00071564923102986,0.00071565934706236,-0.00071565792284596,0.00071565046268869,-0.00071564634213609,0.00071566235225632,4.1210487664526e-10,9.3415811487691e-10,-0.00051593530758661,0.00051593658062568,2.4607213817097e-09,-1.1677167784823e-09,-0.00056358836379707,0.00056359066042992,-0.00056358960224342,0.00056358944651547,-0.00056358818576302,0.00056359083478862,-0.00056358942867069,0.00056358961647176,-0.00052089527977421,0.0005208959167522,-0.00052089576169615,0.00052089538674338,0.70261523626162,128566,2924,0.0021477042275679,0.0032237947172823,0.002147704227698,36.775494814802,5.4203958518416e-05,5.4203958518416e-05,5.4203958518416e-05,4167786.0541706,0.0075476595904489
6219200,0.45761710882022,0.007939108336872,0.0023465832508588,0.0032459418353832,0.0023465832506301,-0.00053859371513397,0.00053859289370601,-1.3901850737139e-10,-6.9864973677308e-10,5.4174949769834e-09,-6.458314922177e-09,-0.00059180802589984,0.00059181131907106,-0.00059180821459896,0.00059181114224525,-0.00059181181769051,0.00059180739600416,-0.00059181201017397,0.00059180720798907,-0.00054343400160004,0.00054342976454164,-0.00054343449824197,0.00054342914475968,-4.307480115204e-09,7.5122956191137e-09,2.1962627792091e-11,2.9871342366583e-09,-0.00082160080905339,0.00082160382933969,-0.00087258885344158,0.00087258699768283,-0.00087258790339995,0.00087258796691137,-0.0008725850441323,0.0008725908972579,-0.00087258410406357,0.00087259185615087,-0.00075615478795453,0.00075615882016487,-0.0007561519069158,0.0007561617072048,-0.00075616048316591,0.00075615294600428,-0.00075614894338297,0.00075616479266785,4.2237681158643e-10,9.7663675008174e-10,-0.0005385926410007,0.00053859396793599,2.3553108731637e-09,-1.0002874583106e-09,-0.00059180851426464,0.00059181076018787,-0.00059180966115303,0.00059180963758416,-0.00059180832377597,0.00059181094672393,-0.000591809478229,0.00059180981663835,-0.00054343146871854,0.00054343227388626,-0.00054343197808824,0.00054343171861588,0.70745492177553,128566,2924,0.0022419602321327,0.0034171710029538,0.0022419602323316,36.758761128566,5.4070089028528e-05,5.4070089028528e-05,5.4070089028528e-05,4238223.2405563,0.0079325260448567
6419200,0.48316240122497,0.0083151728367817,0.0024467446931126,0.0034216834506865,0.0024467446929826,-0.00056024505656423,0.00056024423630749,-1.2171679847175e-10,-7.1463382158521e-10,5.3993991092584e-09,-6.438228021671e-09,-0.0006190737963306,0.00061907708920345,-0.00061907399658352,0.00061907690201691,-0.00061907757796035,0.0006190731793804,-0.00061907778184407,0.00061907298035562,-0.00056491442099471,0.00056491023068896,-0.00056491495151726,0.0005649095790921,-4.3003154482561e-09,7.4800757472322e-09,8.1530113163949e-11,2.9030600963597e-09,-0.00086701155310815,0.00086701454884293,-0.00092307447136425,0.00092307265076277,-0.00092307356683042,0.00092307357130139,-0.0009230706741839,0.00092307653733228,-0.00092306977971561,0.00092307744748143,-0.00079556324830062,0.00079556738518851,-0.00079556050348958,0.00079557012452731,-0.00079556900979926,0.00079556143979943,-0.00079555750866121,0.00079557324605275,4.1885329943686e-10,1.0062966271928e-09,-0.00056024396970626,0.00056024532329559,2.3013975485317e-09,-9.1381164809594e-10,-0.00061907430184935,0.00061907651539372,-0.00061907540257746,0.00061907543877049,-0.00061907410000049,0.00061907671294868,-0.00061907520862453,0.00061907562868488,-0.00056491185947633,0.00056491276827394,-0.00056491240191545,0.0005649121815612,0.70210893135505,128566,2924,0.0023320307867437,0.0036056549886072,0.0023320307870125,36.741600444963,5.3932803559703e-05,5.3932803559703e-05,5.3932803559703e-05,4301134.7005458,0.0083041689308602
6619200,0.50842398942316,0.0087098919538859,0.0025528149464112,0.0036042620611374,0.0025528149463372,-0.00058325406517364,0.00058325323960895,-1.0721058983051e-10,-7.337010043303e-10,5.3976403216453e-09,-6.443127810427e-09,-0.0006471399782539,0.00064714327814839,-0.0006471401886478,0.00064714307980323,-0.00064714376198102,0.00064713936765497,-0.00064714397793609,0.00064713915726493,-0.00058811119813766,0.00058810703794156,-0.00058811176584491,0.00058810635466296,-4.3125726249548e-09,7.4701638848563e-09,-1.2134204823078e-10,3.0841244511739e-09,-0.00091380820054472,0.00091381117449834,-0.00097490725986699,0.00097490529073895,-0.00097490623273519,0.00097490634015742,-0.00097490346134658,0.00097490917875604,-0.00097490244507754,0.00097491021700055,-0.00083649611758513,0.00083649985721655,-0.00083649299604038,0.0008365029727122,-0.000836501634396,0.0008364941683931,-0.00083649013561542,0.00083650597904142,3.6727106484718e-10,9.8766108343333e-10,-0.00058325301052364,0.00058325429415186,2.4566164235251e-09,-1.1408529132197e-09,-0.00064714046474478,0.00064714272363194,-0.00064714169141663,0.00064714152090005,-0.00064714025087805,0.00064714293215145,-0.00064714148667309,0.00064714172095445,-0.00058810873184047,0.00058810947317038,-0.00058810930727996,0.00058810885752565,0.74070666480677,128566,2924,0.0024277445269659,0.0037998511494995,0.0024277445267472,37.009005759719,5.6072046077751e-05,5.6072046077751e-05,5.6072046077751e-05,4369468.5502383,0.0086930981451579
6819200,0.53449798327393,0.0091497837513989,0.002672027817086,0.003805728117207,0.0026720278171059,-0.00061017834127829,0.00061017749013542,-1.106358114644e-10,-7.5411087261408e-10,5.4428071493325e-09,-6.5200119324345e-09,-0.00067845355082046,0.00067845688880347,-0.00067845377983899,0.0006784566659312,-0.00067845739029745,0.00067845292077238,-0.00067845759648301,0.00067845272088456,-0.00061573247519123,0.00061572822439277,-0.00061573301889715,0.00061572757733098,-4.3799996017834e-09,7.5215313353219e-09,-8.4618182722602e-10,3.7928717601654e-09,-0.00096547036773351,0.00096547332555668,-0.0010317254081316,0.0010317229306051,-0.0010317239402662,0.0010317244452853,-0.0010317215875041,0.0010317268432163,-0.0010317200987361,0.0010317283784792,-0.00088198467678176,0.00088198698167147,-0.00088198010914744,0.00088199156774777,-0.00088198935206732,0.00088198217797316,-0.00088197769954803,0.00088199416618542,2.2531911463365e-10,8.9521350974435e-10,-0.00061017739119103,0.00061017843932401,3.0160701331866e-09,-1.9531398659265e-09,-0.00067845394318108,0.00067845642441215,-0.00067845563893443,0.0006784547524331,-0.00067845372777258,0.00067845663242465,-0.00067845540113408,0.00067845498415335,-0.00061573025050303,0.00061573039845075,-0.00061573092675817,0.00061572969152492,0.79221450859597,128566,2924,0.0025397347983648,0.0040141907078041,0.0025397347965164,38.074204923273,6.4593639386181e-05,6.4593639386181e-05,6.4593639386181e-05,4482015.1845507,0.0091353574476812
7019200,0.56128399509359,0.0095646139882278,0.0027821154894153,0.0040003830092339,0.0027821154895787,-0.00063567989586251,0.00063567903019629,-9.8194990703085e-11,-7.8076172711211e-10,5.4647675742047e-09,-6.5576728383609e-09,-0.00070942929693263,0.00070943264802354,-0.00070942952921303,0.00070943241406548,-0.00070943314999228,0.00070942866400626,-0.0007094333742878,0.00070942844544269,-0.00064149183512087,0.0006414876067333,-0.00064149243305782,0.00064148690061578,-4.4162187631953e-09,7.5451295047081e-09,-1.3574864674555e-09,4.2904034042093e-09,-0.0010171214056493,0.0010171243501047,-0.0010886174983092,0.0010886146546097,-0.0010886157061358,0.0010886165107669,-0.0010886136570902,0.0010886185875182,-0.0010886118456892,0.0010886204635888,-0.00092722090889276,0.00092722223856901,-0.00092721538556047,0.00092722783184857,-0.00092722497032098,0.00092721806899101,-0.00092721327053935,0.00092723010534996,1.2864991823037e-10,8.2586665671737e-10,-0.00063567902353167,0.00063567990174994,3.4228011595976e-09,-2.5529383769937e-09,-0.00070942961719475,0.00070943225214849,-0.0007094316385032,0.00070943025494842,-0.00070942938639581,0.00070943247474212,-0.00070943139682882,0.00070943049026603,-0.00064148986771503,0.00064148952816319,-0.00064149055237496,0.00064148881335441,0.73335807221546,128566,2924,0.0026458111846714,0.0042284190979119,0.0026458111830684,39.158409277852,7.3267274222816e-05,7.3267274222816e-05,7.3267274222816e-05,4523483.938231,0.0095657615078455
7219200,0.58863137669943,0.0099709404442424,0.0028892211829667,0.0041924980783018,0.0028892211829738,-0.00066075906674947,0.00066075819444993,-8.4731965810945e-11,-8.007067543209e-10,5.4711629027546e-09,-6.5709514611492e-09,-0.00074046791458356,0.00074047127706939,-0.00074046815491859,0.00074047102924924,-0.00074047177424055,0.00074046728541632,-0.00074047200917088,0.00074046705508329,-0.00066652766278578,0.00066652345393368,-0.00066652829032854,0.00066652271189342,-4.4318015485636e-09,7.5488149947366e-09,-1.6957404752925e-09,4.6159994507971e-09,-0.0010685498416085,0.0010685527737984,-0.0011458051752897,0.0011458020937307,-0.0011458031708639,0.0011458041755301,-0.0011458013263402,0.0011458060341685,-0.0011457993045608,0.0011458081339114,-0.00097195468589492,0.00097195536260278,-0.00097194853815703,0.00097196162502674,-0.00097195833431086,0.00097195162655777,-0.00097194661941402,0.0009719636749479,5.8750009824954e-11,7.8897788404709e-10,-0.0006607582459037,0.00066075901436944,3.6853247249182e-09,-2.9449421992648e-09,-0.00074046818903822,0.00074047092499975,-0.00074047042568588,0.00074046871272946,-0.00074046794667961,0.0007404711584009,-0.0007404701729725,0.00074046895883202,-0.00066652584896603,0.00066652522135917,-0.00066652656622115,0.00066652447489779,0.70718848351672,128566,2924,0.0027501316980148,0.0044416643915612,0.0027501316960977,40.243318095678,8.1946544765422e-05,8.1946544765422e-05,8.1946544765422e-05,4565450.525408,0.0099918137690058
7419200,0.61554461032403,0.010356138137965,0.0029902960525809,0.0043755460329074,0.0029902960524763,-0.00068347260155503,0.00068347174878781,-5.6255971260605e-11,-8.1085595048273e-10,5.4215140901388e-09,-6.4958496941625e-09,-0.00076953486217643,0.00076953820838295,-0.00076953510933192,0.00076953795328127,-0.00076953867443202,0.00076953426380062,-0.000769538926812,0.00076953401387736,-0.00068889673094899,0.00068889263365788,-0.00068889740751836,0.00068889183088084,-4.3763589787667e-09,7.4765010699656e-09,-1.4356754643059e-09,4.3390909171333e-09,-0.0011170831409292,0.0011170860565785,-0.0012003309406658,0.0012003280529301,-0.001200329101556,0.0012003299625882,-0.0012003271252754,0.0012003319562241,-0.0012003252809666,0.0012003338717167,-0.0010138130068984,0.0010138141732965,-0.0010138074207679,0.0010138198998856,-0.0010138169193343,0.0010138101629087,-0.0010138053374294,0.0010138220536673,9.3222057453665e-11,8.5143483139235e-10,-0.00068347174306394,0.00068347260700755,3.4720726207412e-09,-2.6404577835216e-09,-0.00076953517315975,0.00076953782041323,-0.00076953723228341,0.00076953578620891,-0.00076953491646859,0.00076953806986022,-0.00076953697653518,0.000769536036386,-0.00068889483956695,0.00068889449214565,-0.00068889556326087,0.00068889373356754,0.68501444014255,128566,2924,0.0028446187192143,0.0046428492249213,0.002844618718641,40.771100558661,8.6168804469292e-05,8.6168804469292e-05,8.6168804469292e-05,4592003.6251117,0.010385992510273
7619200,0.64128352563684,0.01071605739808,0.0030845593105536,0.0045469387767196,0.0030845593108064,-0.00070377590213175,0.00070377507788954,-2.5410106459278e-11,-8.1401408277576e-10,5.3504170499134e-09,-6.392964252801e-09,-0.00079606537972196,0.00079606870577911,-0.00079606564040269,0.00079606844431538,-0.00079606913343212,0.00079606482096756,-0.00079606939943717,0.00079606455894119,-0.00070863380328766,0.00070862982877951,-0.00070863451920079,0.00070862898958912,-4.2987120530622e-09,7.3772737534685e-09,-9.3014263683974e-10,3.8124304343966e-09,-0.0011621248352551,0.0011621277297741,-0.0012512677233018,0.0012512652064295,-0.0012512662083234,0.0012512667718839,-0.0012512639600787,0.0012512690535391,-0.0012512624464287,0.0012512706178924,-0.0010524413843544,0.0010524434951234,-0.0010524367996478,0.0010524481756739,-0.001052445849241,0.0010524389124766,-0.0010524344457764,0.0010524506176057,1.6923591451688e-10,9.6003434667864e-10,-0.0007037749638026,0.00070377601646629,3.0664414682298e-09,-2.0286253468546e-09,-0.0007960657636315,0.00079606824716566,-0.00079606748610935,0.00079606655038329,-0.00079606549546633,0.00079606850964522,-0.00079606722103435,0.00079606680988039,-0.00070863170368667,0.00070863190063329,-0.00070863245375963,0.00070863111371568,0.67223241203312,128566,2924,0.002929083475588,0.0048295157623812,0.0029290834761012,40.851784523205,8.6814276185642e-05,8.6814276185642e-05,8.6814276185642e-05,4604314.5588654,0.010745391119941
7819200,0.6658134296343,0.011055098124897,0.0031732850618041,0.0047085280006984,0.0031732850623942,-0.00072274655840997,0.0007227457535428,2.4954297222173e-13,-8.2049230960587e-10,5.3057363118977e-09,-6.3271585046214e-09,-0.00082094458581223,0.00082094790639611,-0.00082094486251701,0.00082094763705655,-0.00082094830530933,0.00082094405825642,-0.0008209485826809,0.00082094378828882,-0.00072687182244294,0.00072686793089282,-0.00072687257225426,0.00072686707200421,-4.2540938926458e-09,7.3095839124643e-09,-5.9731661350512e-10,3.4572667735203e-09,-0.001204791150203,0.0012047940223072,-0.0012996836444827,0.0012996813675188,-0.0012996823461847,0.0012996826986204,-0.0012996799170543,0.0012996851763141,-0.0012996786188618,0.0012996865073402,-0.0010889441791075,0.0010889469024559,-0.0010889402420733,0.0010889508867054,-0.0010889490124895,0.0010889419310976,-0.0010889377134558,0.0010889535295771,2.1587193638185e-10,1.0411219105832e-09,-0.00072274556310256,0.00072274674907139,2.8008138646472e-09,-1.6115923616733e-09,-0.0008209450225834,0.00082094739859143,-0.00082094652190953,0.00082094592525194,-0.0008209447445024,0.0008209476716121,-0.00082094624422098,0.00082094619725151,-0.0007268695714055,0.00072687015686907,-0.00072687036121042,0.00072686933241663,0.66655083715674,128566,2924,0.0030080029068159,0.0050063019001129,0.0030080029072776,40.921653132286,8.7373225058287e-05,8.7373225058287e-05,8.7373225058287e-05,4608060.1394146,0.011083712864975
8019200,0.68912648017819,0.011373785774106,0.0032565312163703,0.0048607233406237,0.0032565312171124,-0.00074051423922673,0.00074051344566548,2.2523301318311e-11,-8.3140549812377e-10,5.2789325593865e-09,-6.2878785869195e-09,-0.00084420765894235,0.00084421098022913,-0.00084420795010518,0.00084421070271463,-0.00084421135782219,0.0008442071543957,-0.00084421164754893,0.00084420687517113,-0.0007439019389146,0.00074389811231409,-0.00074390272659925,0.00074389722786867,-4.2311475138184e-09,7.2648673924056e-09,-4.0792644765645e-10,3.2465429879285e-09,-0.0012450636583122,0.0012450665090363,-0.0013455326629492,0.0013455305176188,-0.00134553148989,0.0013455317120957,-0.0013455289567265,0.0013455343035788,-0.0013455277834492,0.0013455354982915,-0.0011233009781593,0.0011233040500534,-0.0011232974168239,0.0011233076257511,-0.0011233060226844,0.001123298851933,-0.001123294787814,0.0011233103849447,2.330080437348e-10,1.0916488754396e-09,-0.00074051321388795,0.00074051447125367,2.6453971069637e-09,-1.3722192335267e-09,-0.00084420813432302,0.00084421043693702,-0.00084420950437817,0.00084420909320042,-0.00084420784541311,0.00084421072084631,-0.00084420921504934,0.00084420937632739,-0.00074389960705106,0.00074390042289846,-0.0007439004317714,0.00074389956627227,0.6609724936091,128566,2924,0.0030819178700248,0.0051731353353832,0.0030819178705457,40.991118839795,8.7928950718362e-05,8.7928950718362e-05,8.7928950718362e-05,4612236.3914064,0.011401957718583
8219200,0.71136683880298,0.011674688587603,0.0033350081963717,0.005004672194059,0.0033350081971723,-0.0007574677893951,0.00075746699652205,3.9762858919013e-11,-8.4759119776286e-10,5.2766340645469e-09,-6.28651993669e-09,-0.00086635517163099,0.00086635850404755,-0.00086635547558033,0.00086635821735893,-0.0008663588694321,0.00086635467980729,-0.00086635917174153,0.00086635439052022,-0.00076019133888553,0.00076018754874824,-0.00076019216418272,0.00076018663562933,-4.2382743189229e-09,7.2530505508726e-09,-4.2076805682469e-10,3.2406709147869e-09,-0.0012834435261208,0.0012834463580184,-0.0013893487521017,0.0013893465866741,-0.0013893475746019,0.0013893477820161,-0.0013893450467522,0.0013893503713496,-0.0013893438693881,0.0013893515665655,-0.0011560217368905,0.0011560247820601,-0.001156018153833,0.0011560283491547,-0.0011560267729558,0.0011560195895483,-0.0011560155469136,0.0011560311230157,2.1743410119923e-10,1.1092857451973e-09,-0.00075746676230236,0.00075746802373092,2.6563365193015e-09,-1.3708043366727e-09,-0.00086635565619852,0.00086635795231524,-0.00086635703002104,0.00086635660509392,-0.00086635535585457,0.0008663582472339,-0.00086635672934591,0.00086635689884399,-0.0007601890082005,0.00076018985495424,-0.00076018986796615,0.00076018896784959,0.65549139760265,128566,2924,0.003152444472395,0.0053320993420428,0.0031524444726498,41.1815660492,8.9452528393598e-05,8.9452528393598e-05,8.9452528393598e-05,4618292.1924947,0.011705484792906
8419200,0.73258603275706,0.011960809586915,0.0034096176366828,0.0051415743128894,0.0034096176373425,-0.00077366101165544,0.00077366021630842,5.5149238816845e-11,-8.6515651515711e-10,5.2852420634204e-09,-6.2974180834944e-09,-0.00088741521097051,0.00088741855875301,-0.00088741552647047,0.00088741826066367,-0.00088741891555818,0.00088741472751609,-0.00088741922847198,0.00088741442784326,-0.00077584350836243,0.00077583974005422,-0.00077584436530554,0.0007758387974632,-4.2558598555792e-09,7.2542608240761e-09,-5.3093553487209e-10,3.3345370057716e-09,-0.0013200297343405,0.0013200325499713,-0.0014311946377984,0.0014311923832,-0.0014311933944984,0.0014311936461389,-0.0014311909263983,0.0014311961739329,-0.0014311896824992,0.001431197437462,-0.0011871961219213,0.0011871989549057,-0.0011871923389803,0.0011872027265567,-0.0011872010365131,0.0011871938834692,-0.0011871897897311,0.0011872054366496,1.8592922528759e-10,1.1114031235822e-09,-0.00077365999816299,0.00077366122981966,2.7418124792167e-09,-1.4870335609943e-09,-0.00088741569012947,0.00088741801291473,-0.00088741713171056,0.00088741659807761,-0.00088741537896859,0.00088741831838843,-0.00088741681921463,0.00088741690332155,-0.00077584121922949,0.00077584200473956,-0.00077584211463874,0.00077584108436308,0.65380935250212,128566,2924,0.0032198066803494,0.0054836081533421,0.0032198066803969,41.430904804581,9.144723843665e-05,9.144723843665e-05,9.144723843665e-05,4623424.2883518,0.011995152904022
8619200,0.75276867947033,0.012232398280108,0.0034804411656177,0.0052715159482772,0.0034804411662126,-0.00078900133981423,0.00078900054291186,7.1170911755441e-11,-8.825442386385e-10,5.2921165361177e-09,-6.3059680780626e-09,-0.00090733686660394,0.00090734022902059,-0.00090733719269172,0.00090733991952647,-0.0009073405758613,0.00090733639260926,-0.00090734089996969,0.0009073360816319,-0.00079075067832866,0.00079074693672984,-0.00079075156773897,0.00079074596031757,-4.2701711881425e-09,7.254686361488e-09,-6.5019776366934e-10,3.439741243972e-09,-0.0013547287437073,0.0013547315453206,-0.001470937610031,0.0014709352625131,-0.0014709362945004,0.0014709366011046,-0.0014709338934548,0.001470939058439,-0.0014709325775394,0.0014709403974139,-0.0012167552363695,0.0012167578397502,-0.0012167512372439,0.001216761836261,-0.0012167600143157,0.0012167529068916,-0.0012167487530059,0.0012167644742543,1.5201578445412e-10,1.1106403955885e-09,-0.00078900034360779,0.00078900153919381,2.8345844224799e-09,-1.61829794327e-09,-0.00090733733937602,0.00090733968934835,-0.0009073388552901,0.00090733820025568,-0.00090733701678158,0.00090734000576967,-0.00090733853166148,0.00090733851619896,-0.00079074844069969,0.00079074914999109,-0.00079074936888145,0.00079074819858771,0.65260875567076,128566,2924,0.0032836206517254,0.0056272768756342,0.0032836206518905,41.681683797486,9.3453470379892e-05,9.3453470379892e-05,9.3453470379892e-05,4629265.2344144,0.012269783185462
8819200,0.77190597965586,0.01247950551164,0.0035443180730726,0.0053908693649112,0.0035443180736561,-0.00080295469971506,0.00080295390270024,8.7830246998817e-11,-8.9915791000215e-10,5.2937306219923e-09,-6.3077756434604e-09,-0.00092585748781778,0.00092586086246958,-0.00092585782452035,0.00092586054136355,-0.0009258611980715,0.00092585702466854,-0.00092586153311436,0.00092585670250513,-0.00080420409275223,0.00080420038256789,-0.0008042050137522,0.00080419937277352,-4.2778872044235e-09,7.2497562503348e-09,-7.5522106275023e-10,3.5319923711752e-09,-0.0013870740908828,0.0013870768798003,-0.0015081679246359,0.0015081654985093,-0.0015081665459503,0.0015081669037303,-0.0015081642068661,0.0015081692954993,-0.0015081628277773,0.0015081707011171,-0.0012441929096334,0.0012441953070893,-0.0012441887207359,0.0012441995020943,-0.0012441975617846,0.0012441905039493,-0.0012441862975208,0.0012442020739376,1.1925326405641e-10,1.1111595377672e-09,-0.00080295372023524,0.00080295488226594,2.9143817165803e-09,-1.7343995265883e-09,-0.00092585795620459,0.00092586032686535,-0.0009258595371806,0.00092585877279535,-0.00092585762233084,0.00092586065414864,-0.00092585920225162,0.00092585909966865,-0.00080420190214207,0.00080420254767855,-0.00080420286371812,0.00080420156437724,0.6294199287702,128566,2924,0.0033416674462342,0.0057611761796451,0.0033416674464211,41.932516592847,9.5460132742776e-05,9.5460132742776e-05,9.5460132742776e-05,4638972.6496887,0.012522917915107
9019200,0.78959690714593,0.012707988115639,0.0036034590418423,0.0055010700313606,0.0036034590424361,-0.00081498499779803,0.00081498421101444,1.0938976348252e-10,-9.1093434161849e-10,5.2584036131126e-09,-6.2587559973299e-09,-0.00094200720036641,0.0009420105674352,-0.00094200754755838,0.0009420102352171,-0.00094201088285179,0.00094200675798096,-0.00094201122860921,0.00094200642378175,-0.00081580512226603,0.00081580148143312,-0.00081580607443733,0.00081580043663939,-4.2428162952863e-09,7.1996549757767e-09,-6.3120267119167e-10,3.3930681959781e-09,-0.0014160956463084,0.0014160984204734,-0.0015417657854783,0.0015417634584453,-0.0015417644919404,0.0015417647771083,-0.0015417620943799,0.001541767227182,-0.0015417608011359,0.0015417685455336,-0.0012686071076367,0.0012686097212568,-0.0012686031879029,0.0012686136670703,-0.0012686118721622,0.0012686047978429,-0.0012686006863087,0.001268616275188,1.1144362931553e-10,1.1363357295714e-09,-0.0008149840156802,0.00081498519352884,2.7911411983464e-09,-1.5973532169796e-09,-0.00094200770622836,0.00094200999531949,-0.00094200920071646,0.00094200852789125,-0.00094200736124256,0.0009420103341294,-0.00094200885532139,0.00094200886548949,-0.00081580290280271,0.00081580368358896,-0.00081580389441645,0.00081580266856755,0.62977530289704,128566,2924,0.0033917187165878,0.0058812985708266,0.0033917187174039,41.749991459256,9.3999931674049e-05,9.3999931674049e-05,9.3999931674049e-05,4640178.8050193,0.012745964744772
9219200,0.80583519798848,0.012915181650401,0.0036570051227232,0.0056011714041746,0.0036570051235029,-0.00082559019942509,0.00082558942214463,1.3052313593132e-10,-9.2291956288478e-10,5.2237307760756e-09,-6.2138992136738e-09,-0.00095644148232644,0.00095644484375786,-0.00095644184152233,0.00095644450133126,-0.00095644513909189,0.00095644106084701,-0.0009564454962228,0.00095644071599059,-0.00082605458658941,0.00082605101355319,-0.00082605557111341,0.00082604993658851,-4.2102784790002e-09,7.1517950915103e-09,-4.9891623274568e-10,3.245741063662e-09,-0.0014422809189702,0.0014422836781401,-0.0015721921086922,0.0015721898847065,-0.0015721909049837,0.0015721911098147,-0.0015721884430691,0.0015721936264513,-0.0015721872395989,0.0015721948512781,-0.0012905399284676,0.0012905427751484,-0.0012905362772094,0.0012905464401254,-0.0012905448230103,0.0012905377202262,-0.0012905337157255,0.0012905491178043,1.0628871194362e-10,1.1643731491669e-09,-0.0008255892105044,0.00082559041148783,2.6663424413628e-09,-1.444229179198e-09,-0.00095644202638938,0.00095644423390772,-0.00095644342905987,0.00095644285853153,-0.00095644167044994,0.00095644458381657,-0.00095644307247341,0.00095644320720649,-0.00082605232645795,0.00082605325493938,-0.00082605335119471,0.00082605220711088,0.62300580454026,128566,2924,0.0034358441539641,0.0059896658741501,0.0034358441548422,41.452104004881,9.1616832039045e-05,9.1616832039045e-05,9.1616832039045e-05,4639373.9214804,0.012945146235288
9419200,0.82073009717034,0.013102952720177,0.0037054712005148,0.0056920103182544,0.0037054712014077,-0.00083508708600568,0.00083508631545844,1.5043912641589e-10,-9.361097729909e-10,5.2022374509099e-09,-6.185574325068e-09,-0.0009694605582084,0.00096946392107984,-0.00096946092944658,0.00096946356843919,-0.00096946419892165,0.00096946015473722,-0.00096946456751212,0.00096945979945579,-0.00083518985410496,0.00083518633682038,-0.00083519087281572,0.00083518522947569,-4.1920531221841e-09,7.1194332596127e-09,-4.2571829783352e-10,3.1586318840818e-09,-0.001466038404914,0.0014660411502056,-0.0015998824050222,0.0015998802361184,-0.0015998812520223,0.0015998814070549,-0.0015998787553217,0.0015998839608512,-0.0015998776024081,0.0015998851316513,-0.0013103778464577,0.001310380819861,-0.0013103743449696,0.0013103843199849,-0.0013103828124302,0.0013103756920562,-0.0013103717553917,0.0013103870410952,9.6368054777591e-11,1.187672211182e-09,-0.00083508609321162,0.00083508730861465,2.5963234025434e-09,-1.3549852706393e-09,-0.00096946112867369,0.0009694632855426,-0.0009694624789339,0.0009694619627733,-0.00096946076179855,0.00096946364642695,-0.00096946211106748,0.00096946232254318,-0.00083518757169478,0.00083518859892753,-0.00083518863007627,0.00083518751881368,0.61620824265925,128566,2924,0.0034753596268667,0.0060879733946625,0.0034753596276237,41.151331057734,8.9210648461874e-05,8.9210648461874e-05,8.9210648461874e-05,4638995.3827097,0.013124831770936
9619200,0.83438784351964,0.013273029957641,0.003749315988493,0.0057743979797257,0.0037493159894228,-0.00084359061721523,0.00084358985089274,1.6910789483313e-10,-9.505848180879e-10,5.192434281844e-09,-6.171298100138e-09,-0.0009811635613583,0.00098116693154866,-0.00098116394426751,0.00098116656842857,-0.00098116719411475,0.00098116317325134,-0.00098116757398945,0.0009811628072393,-0.00084334755835341,0.00084334408579003,-0.00084334861055199,0.00084334294704736,-4.18581995925e-09,7.1008636884297e-09,-4.0579322053095e-10,3.1264271101508e-09,-0.0014875749986993,0.0014875777316985,-0.0016250827687805,0.0016250806124686,-0.0016250816316787,0.0016250817656061,-0.0016250791266349,0.0016250843289171,-0.0016250779896039,0.00162508548194,-0.0013282714251614,0.0013282744293364,-0.0013282679713137,0.0013282778747682,-0.0013282764082256,0.0013282692822846,-0.0013282653754394,0.0013282806073172,8.1658057225934e-11,1.206112717708e-09,-0.00084358962435552,0.00084359084410997,2.5740886084776e-09,-1.3259602235174e-09,-0.00098116414791661,0.0009811662803303,-0.00098116548144204,0.00098116497442395,-0.00098116377010516,0.00098116665228306,-0.00098116510244854,0.0009811653452328,-0.00084334527172821,0.00084334635208158,-0.00084334636308347,0.00084334523993687,0.60938040795267,128566,2924,0.0035107428954161,0.0061770816011528,0.0035107428961633,40.85044991392,8.6803599311359e-05,8.6803599311359e-05,8.6803599311359e-05,4638802.9297396,0.013286851071231
9819200,0.84667338018787,0.013426919831998,0.0037891053236245,0.0058487091838019,0.0037891053245717,-0.00085050684573817,0.00085050608684135,1.8841844174006e-10,-9.6306905822649e-10,5.1705820752724e-09,-6.1388923733754e-09,-0.00099086917793497,0.00099087254961882,-0.0009908695737562,0.00099087217417318,-0.0009908727951206,0.00099086880754962,-0.00099087318333563,0.00099086843258878,-0.00084999125305061,0.00084998782861321,-0.00084999232791513,0.00084998666308644,-4.1650088868375e-09,7.0673450107553e-09,-2.9582271811314e-10,3.0038243892856e-09,-0.0015061330493254,0.0015061357698053,-0.0016469585078925,0.0016469564350604,-0.0016469574473891,0.0016469575085454,-0.001646954884672,0.0016469601312302,-0.0016469538203361,0.0016469612085024,-0.0013435419222877,0.001343545117795,-0.0013435386966068,0.0013435483478783,-0.0013435470174006,0.0013435398490581,-0.0013435360262871,0.0013435511202446,7.5297021117397e-11,1.2339266927813e-09,-0.00085050584634212,0.00085050708688658,2.4656652287374e-09,-1.1973030653474e-09,-0.00099086979952866,0.00099087186450316,-0.00099087105663636,0.00099087063513611,-0.00099086941262278,0.00099087224619149,-0.00099087066457872,0.00099087101939549,-0.00084998892362064,0.00084999014468086,-0.00084999005301006,0.00084998899248383,0.61213711391407,128566,2924,0.0035395272156863,0.0062538573876364,0.0035395272170227,40.184066290402,8.1472530323214e-05,8.1472530323214e-05,8.1472530323214e-05,4632564.8619791,0.013423019218177
10019200,0.85771611479694,0.013566323718355,0.0038252776954886,0.0059157683263306,0.0038252776965362,-0.00085654873565395,0.00085654798108562,2.0772219161566e-10,-9.7814766943085e-10,5.1590426173776e-09,-6.1229921783214e-09,-0.00099938242821821,0.00099938580501259,-0.00099938283474164,0.00099938542060044,-0.00099938603492812,0.00099938207382352,-0.00099938643665256,0.00099938168634827,-0.00085584727137902,0.00085584390035841,-0.00085584838724902,0.0008558426966536,-4.1560423539354e-09,7.0473920426577e-09,-2.3794634007911e-10,2.9351717896931e-09,-0.0015225876190434,0.0015225903286703,-0.0016663749561938,0.0016663729215338,-0.0016663739339919,0.0016663739539487,-0.0016663713402234,0.0016663766095281,-0.0016663703172843,0.0016663776426827,-0.0013570922736229,0.0013570955782636,-0.0013570891712624,0.001357098672597,-0.0013570974335315,0.0013570902448267,-0.0013570864755184,0.0013571014834231,6.5179674088786e-11,1.2555263520754e-09,-0.00085654773227614,0.0008565489850049,2.414658794596e-09,-1.129722376937e-09,-0.00099938307286175,0.00099938509715421,-0.00099938428921244,0.00099938390866478,-0.00099938267381743,0.00099938549111663,-0.00099938388805515,0.00099938430194633,-0.00085584493007228,0.00085584622654144,-0.0008558460851429,0.00085584504899475,0.61574677289264,128566,2924,0.0035646748331624,0.0063219238938002,0.003564674834285,39.47988311668,7.583906493344e-05,7.583906493344e-05,7.583906493344e-05,4624269.5288349,0.013543003615494
10219200,0.86765541379043,0.013692960428774,0.0038582600890612,0.0059764402495448,0.0038582600901685,-0.00086188781501765,0.00086188706259085,2.2518786053676e-10,-9.9337844473889e-10,5.1556129008479e-09,-6.1176873527331e-09,-0.0010069269716537,0.0010069303589101,-0.0010069273898422,0.0010069299640452,-0.001006930575807,0.0010069266305467,-0.0010069309885929,0.0010069262326092,-0.0008610451994111,0.00086104186525239,-0.00086104634816108,0.00086104063202153,-4.1561904210003e-09,7.0382596149412e-09,-2.2983219007847e-10,2.9178365790954e-09,-0.001537246935195,0.0015372496355702,-0.0016836725038364,0.0016836704710428,-0.0016836714890329,0.0016836714942292,-0.0016836688906806,0.0016836741558404,-0.0016836678745879,0.0016836751802955,-0.0013692049441697,0.0013692082613377,-0.001369201861016,0.0013692113255514,-0.0013692101146382,0.0013692029167972,-0.0013691991660966,0.0013692141481985,5.0043837842164e-11,1.2737615555733e-09,-0.00086188681071444,0.00086188806736959,2.405159473882e-09,-1.1131280690821e-09,-0.0010069276300116,0.0010069296377707,-0.001006928838129,0.0010069284576381,-0.00100692722004,0.0010069300426733,-0.0010069284256067,0.001006928862098,-0.00086104285338347,0.00086104419498355,-0.00086104404280706,0.00086104298437426,0.62007023224029,128566,2924,0.0035868989040443,0.0063825577266854,0.0035868989050342,38.774684914984,7.0197479319868e-05,7.0197479319868e-05,7.0197479319868e-05,4615299.7835184,0.013649538577543
10419200,0.87662926354216,0.013808494788385,0.003888466797688,0.0060315611918752,0.0038884667988217,-0.00086667896356424,0.00086667821044936,2.4133833339355e-10,-1.0100174308988e-09,5.1625944606561e-09,-6.1265798977484e-09,-0.0010136979892988,0.0010137013927684,-0.0010136984189817,0.0010137009869075,-0.0010137015990591,0.0010136976587758,-0.0010137020227139,0.0010136972505474,-0.00086576705832785,0.00086576375006543,-0.00086576823943836,0.00086576248687729,-4.1676145765884e-09,7.0425431754343e-09,-2.8859854274792e-10,2.9695035200588e-09,-0.0015504263161448,0.001550429009367,-0.0016992205070501,0.0016992184256218,-0.0016992194560555,0.0016992194849534,-0.0016992168889306,0.0016992221154797,-0.0016992158360065,0.001699223176733,-0.0013800985397441,0.0013801017456781,-0.0013800953422028,0.0013801049143625,-0.001380103648102,0.0013800964631013,-0.0013800926856753,0.0013801077141836,2.8506036428537e-11,1.2855023154857e-09,-0.00086667796356883,0.00086667921086977,2.4563999091983e-09,-1.1717412737647e-09,-0.001013698647916,0.0010137006713414,-0.0010136998929938,0.0010136994543156,-0.0010136982270758,0.0010137010868552,-0.0010136994688638,0.0010136998700944,-0.0008657647310119,0.00086576605941203,-0.00086576595513358,0.00086576481586284,0.62506143104679,128566,2924,0.0036068435859859,0.006437065314616,0.0036068435868758,38.099642809543,6.4797142476346e-05,6.4797142476346e-05,6.4797142476346e-05,4605136.3755789,0.013745250675458
10619200,0.88500744254204,0.013914297959611,0.003916054258506,0.0060821894414721,0.0039160542596332,-0.00087205799008655,0.00087205722705684,2.5331670463532e-10,-1.0310485875367e-09,5.2083992623196e-09,-6.1863915756604e-09,-0.0010210032932548,0.0010210067338281,-0.0010210037337201,0.0010210063165314,-0.0010210069375544,0.0010210029642898,-0.0010210073725496,0.0010210025457459,-0.00087110325225183,0.00087109993420881,-0.00087110446968811,0.00087109864279738,-4.221679244244e-09,7.0941512900771e-09,-5.9559864534081e-10,3.274017595951e-09,-0.0015637191526511,0.0015637218432522,-0.0017147256695758,0.0017147233497631,-0.0017147244206055,0.0017147246129025,-0.0017147220175596,0.0017147270750464,-0.0017147207662241,0.0017147283405772,-0.0013912198440623,0.0013912224814554,-0.00139121603937,0.0013912262448215,-0.0013912246278413,0.0013912175370972,-0.0013912135674296,0.0013912289017598,-1.7172707185216e-11,1.2730514944035e-09,-0.00087205701352385,0.00087205820353812,2.7315949771485e-09,-1.5048088308502e-09,-0.0010210039027705,0.0010210060603179,-0.0010210053498858,0.0010210046412539,-0.0010210034706408,0.001021006486224,-0.0010210049140719,0.0010210050679635,-0.00087110102983454,0.00087110212974347,-0.00087110229017421,0.00087110085520383,0.61395112851824,128566,2924,0.0036292277680445,0.0064920393099149,0.0036292277679029,38.02946678084,6.4235734246721e-05,6.4235734246721e-05,6.4235734246721e-05,4602654.3548941,0.013846391798199
10819200,0.89283164677757,0.014011341431498,0.0039412857492005,0.006128769932041,0.0039412857502565,-0.00087700633488636,0.00087700556546887,2.6677895245377e-10,-1.0507460309263e-09,5.2424030599976e-09,-6.225788669018e-09,-0.0010277447139103,0.0010277481829984,-0.0010277451634264,0.0010277477531581,-0.0010277483818034,0.0010277443888851,-0.0010277488271945,0.0010277439581666,-0.00087597764384801,0.00087597432734602,-0.00087597888971974,0.00087597299841594,-4.2591624723336e-09,7.1299602191389e-09,-8.4832888754657e-10,3.5244117618752e-09,-0.0015760309169038,0.001576033605313,-0.0017291293489668,0.0017291268371125,-0.0017291279382273,0.0017291282697314,-0.0017291256729182,0.0017291305873925,-0.0017291242604064,0.0017291320218458,-0.0014014968512298,0.0014014990168308,-0.0014014925710788,0.0014015032924733,-0.0014015013538989,0.0014014943558383,-0.0014014902196437,0.0014015057883344,-5.8809954414644e-11,1.2641564586003e-09,-0.00087700538185321,0.00087700651858198,2.9494685202613e-09,-1.7873940010452e-09,-0.0010277452852961,0.0010277475470652,-0.0010277468979809,0.0010277459623436,-0.0010277448418638,0.0010277479840528,-0.0010277464515865,0.0010277463996338,-0.00087597551493527,0.000875976432485,-0.00087597680535192,0.00087597512680378,0.60386754245089,128566,2924,0.0036498198192425,0.0065429529101022,0.0036498198194147,37.973657871428,6.3789262971425e-05,6.3789262971425e-05,6.3789262971425e-05,4602004.4281513,0.01393979040861
11019200,0.90013517870993,0.014100164783043,0.0039643082549919,0.0061715482720248,0.003964308256026,-0.00088152222057275,0.00088152144746511,2.8148165695433e-10,-1.0690979204447e-09,5.2592633946465e-09,-6.2466075906613e-09,-0.0010339246756285,0.0010339281646805,-0.0010339251347875,0.0010339277225609,-0.0010339283554688,0.00103392435773,-0.0010339288114271,0.0010339239153827,-0.00088039052697603,0.000880387226863,-0.00088039180286671,0.00088038586286625,-4.279117734714e-09,7.1475126346306e-09,-1.023724896613e-09,3.6970859760906e-09,-0.001587391816966,0.0015873945027452,-0.0017424625783127,0.0017424599372657,-0.0017424610565954,0.0017424614873402,-0.0017424588900873,0.001742463700278,-0.0017424573666868,0.0017424652520841,-0.0014109567237768,0.0014109585573816,-0.0014109521111044,0.0014109631839173,-0.0014109610260627,0.0014109541034315,-0.0014109498548123,0.0014109655723452,-9.4103286098911e-11,1.2618169970798e-09,-0.00088152128574903,0.00088152238252388,3.0991395792367e-09,-1.9831397714789e-09,-0.0010339252238868,0.0010339275506005,-0.0010339269509883,0.0010339258514715,-0.0010339247692425,0.0010339279985446,-0.001033926493589,0.0010339262995992,-0.00088038846527543,0.00088038926427774,-0.00088038978778907,0.00088038792661925,0.59320720174363,128566,2924,0.0036686122168179,0.0065899319281561,0.0036686122173126,37.918381210085,6.3347049680684e-05,6.3347049680684e-05,6.3347049680684e-05,4602851.5404958,0.014025556601881
11219200,0.90694055682504,0.01418289725204,0.0039857801624614,0.0062113369260849,0.0039857801634943,-0.00088566847556709,0.0008856677025641,2.9812069614678e-10,-1.085571451708e-09,5.2592610354906e-09,-6.2458855837475e-09,-0.0010395765873018,0.0010395800870038,-0.0010395770563659,0.0010395796329948,-0.0010395802664839,0.0010395762801466,-0.0010395807331191,0.0010395758261193,-0.00088443764849304,0.00088443438131624,-0.00088443895532066,0.00088443298273906,-4.2802139371082e-09,7.1452317017233e-09,-1.1041798498282e-09,3.773981838563e-09,-0.0015978647399926,0.0015978674222515,-0.0017547821247696,0.0017547794288691,-0.0017547805535327,0.0017547810326356,-0.0017547784367248,0.0017547831917799,-0.0017547768641251,0.0017547847969068,-0.0014196753418227,0.0014196770170914,-0.0014196705826488,0.0014196818062422,-0.0014196795420797,0.0014196726694509,-0.0014196683712397,0.0014196841351219,-1.2105017934386e-10,1.2677522386666e-09,-0.00088566755214103,0.00088566862625926,3.1630576577892e-09,-2.0745391148101e-09,-0.0010395771310503,0.0010395794767887,-0.0010395789093993,0.001039577726373,-0.0010395766652382,0.0010395799358106,-0.0010395784411833,0.001039578185248,-0.00088443562292445,0.00088443638254575,-0.00088443697692728,0.00088443501318034,0.59263236704706,128566,2924,0.0036858660264256,0.0066332376152315,0.0036858660269869,37.837579546415,6.2700636371323e-05,6.2700636371323e-05,6.2700636371323e-05,4604191.1372809,0.014104482344066
11419200,0.91323783973509,0.014260044056932,0.0040058614813088,0.0062483210932655,0.0040058614823577,-0.00088928438537868,0.00088928361690904,3.168067483816e-10,-1.0999151829348e-09,5.2388105589243e-09,-6.2198636428176e-09,-0.0010445612551911,0.0010445647549181,-0.0010445617348633,0.0010445642895694,-0.001044564919006,0.0010445609634377,-0.0010445653964206,0.0010445604980884,-0.00088798040187122,0.0008879771864657,-0.0008879817396305,0.0008879757539288,-4.259477323421e-09,7.1191229662684e-09,-1.0567363660764e-09,3.7212488194618e-09,-0.0016072959554041,0.001607298632463,-0.0017659132904818,0.0017659106379377,-0.0017659117526599,0.0017659122089563,-0.0017659096174174,0.0017659143852378,-0.0017659080783473,0.0017659159575292,-0.0014275047718359,0.0014275065250685,-0.0014275001152262,0.0014275112191904,-0.0014275090071229,0.0014275021422703,-0.0014274978807953,0.001427513559338,-1.3543655109457e-10,1.2863356223513e-09,-0.00088928346272788,0.00088928453997319,3.1134999825951e-09,-2.0230462300286e-09,-0.0010445618195096,0.0010445641239822,-0.0010445635642202,0.0010445624072723,-0.0010445613427112,0.001044564594113,-0.0010445630850995,0.0010445628770992,-0.00088797836760739,0.00088797919773442,-0.00088797975328923,0.00088797779615073,0.59626238558561,128566,2924,0.0037009149317871,0.0066722334213147,0.0037009149326443,37.630509214594,6.1044073716753e-05,6.1044073716753e-05,6.1044073716753e-05,4602829.0824731,0.014174569377508
11619200,0.91906522319345,0.014331828850389,0.0040245922006635,0.0062826444479892,0.0040245922017365,-0.00089260793057011,0.00089260716734661,3.3587736578365e-10,-1.1137786569062e-09,5.2139618689079e-09,-6.1901186558006e-09,-0.0010491524443371,0.0010491559425547,-0.0010491529355143,0.0010491554664713,-0.001049156090421,0.0010491521691017,-0.0010491565789564,0.0010491516931895,-0.00089125871493335,0.00089125555507658,-0.00089126008614761,0.00089125409228623,-4.2352336155202e-09,7.0888714804305e-09,-9.6680189345403e-10,3.625721975153e-09,-0.0016159901053635,0.0016159927767668,-0.0017761680903741,0.0017761655113277,-0.0017761666128725,0.0017761670202213,-0.0017761644350148,0.0017761692402615,-0.0017761629559518,0.0017761707507298,-0.0014347234452369,0.0014347253567663,-0.0014347189642506,0.0014347298626606,-0.0014347277665749,0.0014347208879072,-0.0014347166945744,0.0014347322533851,-1.4530693592506e-10,1.3096143865338e-09,-0.00089260700356441,0.00089260809470853,3.0303562589611e-09,-1.9221799000112e-09,-0.0010491530374408,0.0010491552828708,-0.0010491547212667,0.0010491536271113,-0.0010491525497588,0.0010491557638957,-0.0010491542308598,0.0010491541081012,-0.0008912566544864,0.00089125759122031,-0.00089125807394474,0.00089125615690587,0.59873359519911,128566,2924,0.0037147479142728,0.0067081793948402,0.003714747915019,37.420434307259,5.936347445807e-05,5.936347445807e-05,5.936347445807e-05,4599749.2528199,0.014239100558887
11819200,0.92445911991868,0.014398768212893,0.0040421061574806,0.0063145558968516,0.0040421061585606,-0.00089567469306984,0.00089567393537966,3.5515185843539e-10,-1.1275280498683e-09,5.191190004172e-09,-6.1612366970364e-09,-0.0010533906552925,0.0010533941527764,-0.0010533911579143,0.0010533936661452,-0.0010533942845469,0.001053390396577,-0.0010533947842496,0.0010533899098402,-0.00089430265366657,0.00089429954874101,-0.00089430405835968,0.00089429805472997,-4.2122600364061e-09,7.0598980926064e-09,-8.6965982766569e-10,3.5228670487122e-09,-0.0016240154102915,0.0016240180759766,-0.0017856280612808,0.0017856255592655,-0.001785626648195,0.0017856270012141,-0.0017856244225322,0.001785629270812,-0.0017856230079145,0.0017856307143169,-0.0014413847667501,0.0014413868518634,-0.0014413804788304,0.0014413911579166,-0.0014413891843545,0.0014413822849107,-0.0014413781629679,0.0014413935987342,-1.5381780765538e-10,1.3341226532477e-09,-0.00089567376043449,0.00089567486828731,2.940405880707e-09,-1.8129982271119e-09,-0.0010533912787802,0.0010533934632214,-0.0010533928965637,0.0010533918735415,-0.0010533907801748,0.0010533939552975,-0.0010533923951645,0.0010533923655374,-0.00089430056368815,0.00089430161422025,-0.00089430201583192,0.00089430014790686,0.60218092659459,128566,2924,0.0037275128746337,0.006741358090498,0.0037275128752055,37.21024809045,5.7681984723603e-05,5.7681984723603e-05,5.7681984723603e-05,4595566.5545813,0.014298661409652
12019200,0.92946060372526,0.01446290995121,0.0040590211321212,0.0063448676858835,0.004059021133205,-0.00089864233069404,0.00089864157672445,3.7347615598627e-10,-1.1422370601025e-09,5.1756180118029e-09,-6.1420811008738e-09,-0.0010574177893202,0.0010574212901415,-0.0010574183034634,0.0010574207930739,-0.0010574214072958,0.0010574175456208,-0.001057421918322,0.00105741704815,-0.00089729709958095,0.00089729404237629,-0.00089729853789485,0.00089729251706705,-4.1973978078488e-09,7.0397756936849e-09,-7.8858900350019e-10,3.4368033724279e-09,-0.0016315664673338,0.0016315691279639,-0.0017944841500458,0.0017944817092766,-0.0017944827905537,0.001794483095094,-0.001794480522433,0.001794485409165,-0.0017944791614405,0.0017944867965128,-0.0014476866357179,0.0014476888686237,-0.0014476825069299,0.001447693005125,-0.0014476911386966,0.0014476842134543,-0.0014476801524928,0.0014476954937158,-1.6322936659828e-10,1.3577344971293e-09,-0.00089864139245589,0.00089864251522853,2.8664428690497e-09,-1.7208386977888e-09,-0.0010574184407817,0.0010574205729886,-0.0010574200034828,0.00105741903843,-0.0010574179312007,0.0010574210761296,-0.0010574194910578,0.0010574195414078,-0.00089729498315017,0.00089729613460909,-0.00089729646778513,0.0008972946360085,0.61929850684324,128566,2924,0.0037398649381994,0.0067725747876371,0.0037398649387609,37.027893719893,5.6223149759146e-05,5.6223149759146e-05,5.6223149759146e-05,4590240.0863711,0.014355396650526
12219200,0.93411620201966,0.014524707654693,0.0040754403972986,0.0063738268590131,0.0040754403983812,-0.00090160107328399,0.00090160032084283,3.9076579462872e-10,-1.1579818600906e-09,5.1712751774e-09,-6.136233219199e-09,-0.0010613865804099,0.0010613900903817,-0.001061387105893,0.0010613895826821,-0.0010613901951512,0.0010613863493423,-0.0010613907173902,0.0010613858410415,-0.0009003483259753,0.00090034530621989,-0.00090034979770468,0.00090034374949108,-4.1941596610072e-09,7.0324636574743e-09,-7.4981999374918e-10,3.3940664826576e-09,-0.0016388380063307,0.0016388406629758,-0.0018029217308146,0.0018029193161566,-0.0018029203972373,0.0018029206745056,-0.0018029181064363,0.0018029230125529,-0.001802916771382,0.0018029243724207,-0.0014538065964237,0.001453808902017,-0.001453802545249,0.0014538129558565,-0.0014538111453411,0.0014538041995131,-0.0014538001697123,0.0014538154696389,-1.7631700071019e-10,1.3776490391738e-09,-0.00090160013207784,0.00090160126225614,2.8299938589831e-09,-1.6753466660419e-09,-0.0010613872522643,0.0010613893531953,-0.0010613887878104,0.0010613878458166,-0.0010613867316875,0.001061389867342,-0.0010613882643769,0.00106138835975,-0.00090034619532588,0.00090034741262069,-0.00090034771253141,0.0009003458819642,0.63789981401835,128566,2924,0.0037521804978057,0.0068026331618691,0.0037521804982461,36.914253801919,5.5314030415356e-05,5.5314030415356e-05,5.5314030415356e-05,4582164.6611012,0.014410885910379
12419200,0.93845030114626,0.014580283290797,0.0040901093285497,0.0064000646326184,0.0040901093296291,-0.00090422474862364,0.00090422399701563,4.0765126014044e-10,-1.1740931027612e-09,5.1712652240828e-09,-6.1349384004313e-09,-0.0010650549117184,0.0010650584330255,-0.0010650554483185,0.0010650579144342,-0.0010650585261835,0.0010650546924575,-0.0010650590593989,0.00106505417316,-0.00090305270573492,0.00090304971919402,-0.00090305420946261,0.00090304813004213,-4.195169645447e-09,7.0301038222127e-09,-7.2787881156665e-10,3.3687461068247e-09,-0.0016455727741954,0.0016455754274705,-0.0018107120527099,0.0018107096504961,-0.0018107107341613,0.001810710993021,-0.0018107084286081,0.0018107133464508,-0.0018107071085997,0.0018107146904801,-0.0014594567346758,0.0014594590827372,-0.0014594527307308,0.0014594630913229,-0.0014594613128983,0.0014594543492986,-0.0014594503376926,0.0014594656170542,-1.910056885838e-10,1.3959546881845e-09,-0.00090422380601889,0.0009042249398551,2.8086637026636e-09,-1.6504760647114e-09,-0.0010650556008068,0.0010650576788992,-0.0010650571210237,0.0010650561868446,-0.0010650550692696,0.0010650582040742,-0.0010650565866179,0.0010650567117738,-0.00090305056637448,0.00090305183513045,-0.00090305211577062,0.00090305027219168,0.61826606765038,128566,2924,0.0037631050360348,0.0068304680077609,0.003763105036529,36.802252105886,5.4418016847089e-05,5.4418016847089e-05,5.4418016847089e-05,4571361.1737148,0.014461301426839
12619200,0.94248528455681,0.014629135674153,0.0041028616581378,0.0064234123567976,0.0041028616592177,-0.00090651264656038,0.00090651189496235,4.2414466993802e-10,-1.1906061531621e-09,5.1740747541212e-09,-6.1377590019697e-09,-0.0010683117601729,0.001068315294433,-0.0010683123078669,0.0010683147649425,-0.0010683153766084,0.0010683115520292,-0.0010683159208792,0.001068311021784,-0.0009053470462468,0.00090534409010791,-0.00090534858232566,0.00090534246867597,-4.1993223205268e-09,7.031448061206e-09,-7.2645042032067e-10,3.3645065802805e-09,-0.0016516554132718,0.0016516580637334,-0.0018178131882569,0.0018178107831414,-0.0018178118713416,0.0018178121237461,-0.0018178095622533,0.0018178144809558,-0.0018178082438815,0.0018178158230593,-0.0014645110416557,0.0014645133942878,-0.0014645070431146,0.001464517397203,-0.0014645156269497,0.0014645086531666,-0.0014645046462596,0.001464519926319,-2.0751518903871e-10,1.4124462031852e-09,-0.00090651170396921,0.00090651283781376,2.8059798139487e-09,-1.6476134331077e-09,-0.0010683124623223,0.0010683145274021,-0.0010683139807062,0.0010683130371855,-0.0010683119197719,0.0010683150635738,-0.0010683134352805,0.0010683135730869,-0.00090534490514753,0.00090534620808438,-0.00090534648689075,0.0009053446128699,0.58731202473415,128566,2924,0.0037726315888722,0.0068556071415632,0.0037726315894196,36.690311080624,5.3522488644994e-05,5.3522488644994e-05,5.3522488644994e-05,4565159.0381817,0.014506146670297
12819200,0.9462080195725,0.014674607064627,0.0041147709909542,0.006445065081638,0.0041147709920353,-0.00090834430744111,0.00090834355771362,4.4144860133502e-10,-1.2062149749039e-09,5.1699679364199e-09,-6.130606524826e-09,-0.001070911334465,0.0010709148776898,-0.0010709118932271,0.0010709143371681,-0.001070914947418,0.0010709111390122,-0.0010709155024537,0.0010709105977317,-0.00090714924554812,0.00090714632623353,-0.00090715081234386,0.0009071446715799,-4.1949606957715e-09,7.0238779626437e-09,-6.9095478627616e-10,3.3257302588117e-09,-0.0016568334097251,0.0016568360569624,-0.001823969003818,0.001823966623762,-0.0018239677109239,0.0018239679395822,-0.0018239653815475,0.0018239703175064,-0.0018239640871046,0.0018239716349304,-0.0014687551239242,0.0014687575419204,-0.0014687512016046,0.0014687614759471,-0.001468759748738,0.0014687527587034,-0.0014687487775114,0.0014687640175342,-2.2063049174103e-10,1.4323219039488e-09,-0.00090834336266466,0.00090834450287652,2.7702168093957e-09,-1.6065771535485e-09,-0.0010709120562787,0.0010709140913968,-0.0010709135492712,0.0010709126265616,-0.0010709115028586,0.001070914638591,-0.0010709129928844,0.0010709131735451,-0.00090714709127285,0.00090714845949402,-0.00090714870464446,0.00090714683159968,0.59134553808406,128566,2924,0.0037802583794545,0.0068770094126535,0.0037802583802568,36.406818159469,5.1254545275751e-05,5.1254545275751e-05,5.1254545275751e-05,4562320.7278404,0.014543344249911
13019200,0.94959966193735,0.014716197020503,0.00412568499811,0.0064648270231928,0.0041256849992005,-0.00090953719019171,0.0009095364440205,4.595397493761e-10,-1.2209298655792e-09,5.1563361272649e-09,-6.1127640741947e-09,-0.0010727866400846,0.00107279018746,-0.0010727872102519,0.0010727896361736,-0.001072790242997,0.0010727864591923,-0.0010727908089299,0.0010727859072055,-0.00090831191345381,0.00090830903947893,-0.00090831351181553,0.00090830735286969,-4.1808183845152e-09,7.0057222752875e-09,-6.1375069045535e-10,3.2446576285249e-09,-0.0016610046890249,0.00166100733239,-0.0018290203112142,0.0018290179900124,-0.0018290190694351,0.0018290192526621,-0.0018290166993332,0.0018290216727873,-0.0018290154557486,0.0018290229372988,-0.0014720976570521,0.0014721002155888,-0.0014720938884835,0.0014721039932374,-0.0014721023630117,0.0014720953481567,-0.0014720914222183,0.0014721065744683,-2.2965071032844e-10,1.4563723153324e-09,-0.00090953623971145,0.0009095373949832,2.6980626338915e-09,-1.5175899079605e-09,-0.0010727873891112,0.0010727893743133,-0.0010727888288825,0.0010727879627392,-0.001072786824867,0.001072789932475,-0.001072788261361,0.0010727885208991,-0.00090830973195639,0.00090831120125724,-0.00090831137774495,0.00090830954043054,0.59302696890744,128566,2924,0.0037852306318897,0.0068942488867878,0.0037852306328907,35.874048674554,4.699238939643e-05,4.699238939643e-05,4.699238939643e-05,4554383.6205723,0.014570932252949
13219200,0.95269322970712,0.014754315971231,0.004135711875517,0.0064828922190963,0.0041357118766179,-0.00091054308331828,0.00091054233941704,4.7724091057917e-10,-1.2363869143977e-09,5.1477367186235e-09,-6.1019156896936e-09,-0.0010744086792114,0.0010744122332826,-0.001074409260655,0.001074411671632,-0.0010744122756628,0.0010744085117698,-0.0010744128530595,0.001074407948742,-0.00090929743385254,0.0009092946017124,-0.00090929906659877,0.0009092928834198,-4.1733668755655e-09,6.9947400330228e-09,-5.6718084777914e-10,3.1947542557446e-09,-0.0016647011144069,0.0016647037544589,-0.0018335100588103,0.0018335077717367,-0.0018335088474616,0.0018335090020723,-0.0018335064525763,0.0018335114485842,-0.0018335052398532,0.0018335126803195,-0.0014750478433083,0.0014750504879279,-0.0014750441661581,0.001475054165824,-0.001475052600848,0.0014750455693192,-0.0014750416787697,0.001475056777302,-2.4204954345333e-10,1.4767648448311e-09,-0.0009105421295474,0.00091054329355711,2.6592265115143e-09,-1.4674547445305e-09,-0.0010744094480206,0.0010744114006176,-0.0010744108580697,0.0010744100187378,-0.0010744088726771,0.0010744119699368,-0.0010744102798029,0.0010744105876277,-0.00090929523849367,0.00090929677639033,-0.00090929691634113,0.00090929508400973,0.59512403800532,128566,2924,0.0037894248672635,0.0069095251773041,0.003789424868034,35.335317122014,4.2682536976111e-05,4.2682536976111e-05,4.2682536976111e-05,4545595.7982876,0.014594949690891
13419200,0.95551906678635,0.014788562533418,0.0041447003959011,0.0064991617405087,0.0041447003970079,-0.00091135134178638,0.00091135059894786,4.9427454938783e-10,-1.2522762818446e-09,5.1442046280319e-09,-6.0977517748395e-09,-0.001075793315646,0.0010757968793334,-0.0010757939083477,0.0010757963069357,-0.0010757969097623,0.0010757931604355,-0.0010757974982735,0.00107579258666,-0.00091008284212301,0.00091008004618404,-0.00091008450815021,0.00091007829679456,-4.1706910048997e-09,6.9893918461121e-09,-5.5285111254271e-10,3.1779535177015e-09,-0.00166795568997,0.0016679583274482,-0.0018374835609432,0.0018374812839681,-0.0018374823591415,0.0018374825037163,-0.001837479957259,0.001837484958063,-0.0018374787539706,0.001837486179333,-0.0014776222772965,0.0014776249472887,-0.0014776186272167,0.0014776285914166,-0.0014776270493323,0.0014776200127402,-0.0014776161361529,0.0014776312141913,-2.5708863465361e-10,1.4947167626086e-09,-0.0009113503868124,0.00091135155423941,2.6458622791353e-09,-1.4489311708008e-09,-0.0010757940987253,0.0010757960326845,-0.0010757954982441,0.0010757946613606,-0.0010757935124253,0.0010757966129212,-0.0010757949088863,0.0010757952412405,-0.00091008064199724,0.00091008222512231,-0.00091008235280053,0.00091008050075121,0.58608287710945,128566,2924,0.0037927971368138,0.0069229743939282,0.003792797137479,34.796364795408,3.8370918363264e-05,3.8370918363264e-05,3.8370918363264e-05,4536232.224379,0.014615445640131
13619200,0.95811791040242,0.014819646254663,0.0041528481063478,0.0065139500408587,0.0041528481074565,-0.00091218087946859,0.00091218013507002,5.102388668819e-10,-1.2695423502634e-09,5.1507873074981e-09,-6.1074984587321e-09,-0.0010771350512298,0.0010771386299179,-0.0010771356548654,0.0010771380468882,-0.001077138650418,0.0010771349058764,-0.0010771392505131,0.0010771343209695,-0.00091088179073372,0.00091087902229503,-0.00091088349174548,0.00091087724113134,-4.1799755006765e-09,6.9973023927445e-09,-6.0396984201826e-10,3.2278182914257e-09,-0.0016710073097662,0.0016710099458153,-0.0018412061521044,0.0018412038343605,-0.0018412049169831,0.0018412050878239,-0.0018412025426215,0.0018412075146236,-0.0018412013065221,0.0018412087690325,-0.0014800484114487,0.0014800509874753,-0.0014800446570786,0.0014800547242795,-0.0014800531288799,0.0014800461081786,-0.0014800422028849,0.0014800573298783,-2.7847236151124e-10,1.5060654576215e-09,-0.00091217992839237,0.00091218108636009,2.6952798057873e-09,-1.5059685398428e-09,-0.0010771358346228,0.0010771377827503,-0.0010771372691777,0.0010771363763349,-0.0010771352370352,0.0010771383740571,-0.0010771366690111,0.0010771369667873,-0.00091087961071382,0.00091088117926403,-0.00091088135397704,0.00091087942388055,0.5788984326153,128566,2924,0.0037962556635643,0.0069355858281696,0.0037962556640223,34.355695453787,3.4845563630295e-05,3.4845563630295e-05,3.4845563630295e-05,4530068.0991702,0.014635266041484
13819200,0.96052231175942,0.014848399738285,0.0041603949899968,0.0065276097571882,0.0041603949910995,-0.00091305752696247,0.00091305677965359,5.2487902003049e-10,-1.2868724151435e-09,5.1646390711598e-09,-6.125184914276e-09,-0.0010784661527172,0.0010784697508369,-0.0010784667678624,0.001078469155879,-0.0010784697631852,0.0010784660151464,-0.0010784703730579,0.0010784654207943,-0.00091172875173609,0.00091172599953048,-0.0009117304820648,0.00091172418991166,-4.19403219796e-09,7.0108247241171e-09,-7.0335425730436e-10,3.3265780529122e-09,-0.0016739122438211,0.0016739148792371,-0.0018447384341383,0.0018447360428743,-0.0018447371363277,0.0018447373612607,-0.0018447348167927,0.0018447397313479,-0.0018447335158749,0.0018447410529814,-0.0014823772946869,0.0014823796816301,-0.0014823733438093,0.0014823836168578,-0.0014823819017698,0.0014823749149412,-0.0014823709467381,0.0014823861688344,-3.037037042331e-10,1.5147717676874e-09,-0.00091305658269566,0.00091305772407287,2.7723836880226e-09,-1.6010079932193e-09,-0.0010784669302446,0.0010784689093715,-0.0010784684231841,0.0010784674445455,-0.0010784663223589,0.0010784695107754,-0.0010784678105725,0.0010784680472679,-0.00091172659854015,0.00091172812865476,-0.00091172837813004,0.00091172633799801,0.57842147853422,128566,2924,0.0037999080767059,0.0069475920406049,0.0037999080770379,34.003478314711,3.2027826517687e-05,3.2027826517687e-05,3.2027826517687e-05,4526471.4439452,0.01465486538489
14019200,0.96274910837472,0.014875035545297,0.0041673942546625,0.0065402470348774,0.0041673942557573,-0.00091383213605333,0.00091383138707186,5.4093966087975e-10,-1.304698365746e-09,5.1754464578471e-09,-6.1368628959334e-09,-0.001079658859087,0.0010796624729828,-0.0010796594835785,0.0010796618671775,-0.0010796624757515,0.0010796587307814,-0.0010796630977367,0.0010796581236527,-0.00091248121426735,0.0009124784883974,-0.00091248297905518,0.00091247664091019,-4.2072229889904e-09,7.0236607647496e-09,-7.8416793820776e-10,3.4067606240367e-09,-0.0016765474813025,0.0016765501161833,-0.001847950899314,0.0018479484447691,-0.0018479495485901,0.001847949818585,-0.0018479472722302,0.0018479521433102,-0.0018479459209823,0.0018479535177116,-0.0014844843676616,0.0014844866079885,-0.0014844802697444,0.0014844907056122,-0.0014844888870541,0.0014844819310967,-0.0014844779081358,0.0014844932046433,-3.285712284848e-10,1.5218210230856e-09,-0.00091383120039981,0.00091383232294311,2.851767618898e-09,-1.7038956569027e-09,-0.0010796596290638,0.0010796616387307,-0.0010796611809689,0.0010796601150123,-0.0010796590093416,0.0010796622520225,-0.0010796605589653,0.0010796607271843,-0.00091247909904379,0.00091248058044839,-0.00091248090616568,0.00091247876176505,0.57820996861923,128566,2924,0.0038031358044454,0.0069584834106978,0.0038031358049052,33.653384373907,2.9227074991256e-05,2.9227074991256e-05,2.9227074991256e-05,4522577.9599572,0.014672471696436
14219200,0.96481329668733,0.014898786198441,0.004173590789684,0.0065516046179791,0.0041735907907775,-0.00091445970913679,0.00091445895862446,5.5648205474124e-10,-1.3217852847758e-09,5.1838651865155e-09,-6.1468168015543e-09,-0.0010806892873594,0.0010806929172164,-0.0010806899228618,0.0010806922997333,-0.0010806929105432,0.0010806891684056,-0.0010806935427017,0.0010806885506342,-0.00091307527318938,0.00091307256992776,-0.00091307706734585,0.00091307069106055,-4.2162994642985e-09,7.0322512670803e-09,-8.5917069427799e-10,3.4811656564846e-09,-0.0016788923624947,0.0016788949967873,-0.0018508326425161,0.0018508301329157,-0.0018508312443793,0.0018508315566414,-0.0018508290102928,0.001850833836761,-0.0018508276104826,0.0018508352622168,-0.0014863371168667,0.0014863392139983,-0.0014863328744179,0.0014863434639133,-0.0014863415511258,0.0014863346251399,-0.0014863305530929,0.0014863459170283,-3.5242017180199e-10,1.5312011011162e-09,-0.0009144587803483,0.00091445988766584,2.9147304459562e-09,-1.7845882471e-09,-0.0010806900539398,0.0010806920861111,-0.0010806916539504,0.001080690514226,-0.0010806894235488,0.001080692709961,-0.0010806910203972,0.0010806911379186,-0.00091307318282875,0.00091307463692194,-0.00091307502393698,0.00091307278412804,0.55856305878883,128566,2924,0.0038057520713763,0.0069681741963314,0.0038057520719081,33.303369043257,2.6426952346058e-05,2.6426952346058e-05,2.6426952346058e-05,4518489.4101618,0.014687619185965
14419200,0.96669665183278,0.014920709156028,0.004179332927071,0.0065620433007923,0.0041793329281651,-0.00091446665043662,0.00091446590348651,5.7472472296231e-10,-1.3368199751342e-09,5.1721672068587e-09,-6.1292471396189e-09,-0.0010809711539054,0.0010809747877412,-0.0010809717996342,0.001080974159328,-0.0010809747671042,0.0010809710491692,-0.0010809754104106,0.0010809704193336,-0.0009130160640097,0.00091301340617121,-0.00091301788903258,0.00091301149085924,-4.203620712508e-09,7.0171400707758e-09,-8.1234018491791e-10,3.4317807719237e-09,-0.0016803149743953,0.0016803176062984,-0.0018527667032359,0.0018527642313632,-0.0018527653359564,0.0018527656241404,-0.0018527630792876,0.0018527679264143,-0.0018527617115302,0.0018527693196808,-0.0014873268446898,0.0014873290258139,-0.0014873227061179,0.001487333188274,-0.0014873313225501,0.0014873243916131,-0.0014873203494771,0.0014873356490839,-3.6501282741015e-10,1.5509601475166e-09,-0.0009144657205303,0.00091446683385549,2.8729595269703e-09,-1.7399799588443e-09,-0.0010809719393462,0.0010809739380406,-0.0010809735099881,0.0010809723955153,-0.0010809712977674,0.0010809745734142,-0.0010809728664058,0.0010809730295466,-0.00091301396386387,0.00091301548576986,-0.00091301583385753,0.00091301360217818,0.56383118266409,128566,2924,0.0038057879298697,0.0069740542789682,0.0038057879308243,32.647686886035,2.1181495088281e-05,2.1181495088281e-05,2.1181495088281e-05,4512667.4025185,0.01469366103876
14619200,0.96840192777728,0.014940679100006,0.0041845775443699,0.0065715240101639,0.0041845775454723,-0.00091407850172964,0.00091407775902857,5.9250429812835e-10,-1.3505617331681e-09,5.1542841197299e-09,-6.1064503962497e-09,-0.0010808203620291,0.0010808239985554,-0.0010808210201645,0.0010808233585318,-0.0010808239634696,0.0010808202721855,-0.001080824616025,0.0010808196335114,-0.00091256762293496,0.00091256500940105,-0.00091256947520534,0.00091256306731253,-4.1827831774333e-09,6.9930774511076e-09,-7.2714777866391e-10,3.3436213011938e-09,-0.0016811466272964,0.0016811492562783,-0.0018540477890181,0.0018540453877813,-0.0018540464794541,0.0018540467208802,-0.0018540441808715,0.0018540490661481,-0.0018540428678563,0.0018540504029264,-0.0014877832417328,0.0014877855712032,-0.0014877792684621,0.0014877895660717,-0.0014877878039328,0.0014877808520404,-0.0014877768690872,0.001487792068087,-3.7315369611109e-10,1.5770612245726e-09,-0.00091407756488342,0.00091407869631591,2.7839926436416e-09,-1.6306446583974e-09,-0.0010808211779228,0.0010808231187153,-0.0010808226846175,0.0010808216402367,-0.0010808205265106,0.0010808237640562,-0.0010808220282129,0.0010808222871679,-0.00091256548487599,0.00091256712716476,-0.00091256739216931,0.00091256520610834,0.56645233632228,128566,2924,0.003804182460273,0.006977490773436,0.0038041824611835,31.823297432079,1.4586379456629e-05,1.4586379456629e-05,1.4586379456629e-05,4502401.9853153,0.014693892251144
14819200,0.96994871002625,0.014958923658252,0.0041893835668488,0.0065801565234454,0.0041893835679583,-0.00091359757073684,0.00091359683080796,6.1068705905086e-10,-1.3658605325877e-09,5.1402324025884e-09,-6.0906830743423e-09,-0.001080549671023,0.0010805533114459,-0.0010805503404333,0.0010805526611726,-0.0010805532623386,0.0010805495954078,-0.0010805539268763,0.0010805489456479,-0.00091203596781536,0.00091203340184326,-0.00091203785655879,0.00091203142811369,-4.169921795575e-09,6.9776392454401e-09,-6.5459857081594e-10,3.2688780748422e-09,-0.0016817412149077,0.0016817438414889,-0.0018550398205012,0.0018550374740967,-0.0018550385577639,0.0018550387578954,-0.0018550362210609,0.0018550411435373,-0.0018550349556919,0.0018550424300511,-0.0014880453676011,0.0014880478314687,-0.0014880415303558,0.0014880516708589,-0.0014880500070497,0.001488043033077,-0.0014880391037217,0.0014880542237904,-3.8305539664116e-10,1.5995149321557e-09,-0.00091359662841051,0.00091359777345934,2.7253526619646e-09,-1.5532659088846e-09,-0.0010805505108848,0.0010805524076915,-0.0010805519721345,0.0010805509747852,-0.0010805498483423,0.0010805530641895,-0.0010805513051592,0.0010805516320989,-0.00091203380933179,0.0009120355385157,-0.00091203574837932,0.00091203358707919,0.56961685269507,128566,2924,0.0038021911868908,0.0069799471023773,0.0038021911875702,30.994827619411,7.9586209552866e-06,7.9586209552866e-06,7.9586209552866e-06,4491122.874677,0.014692345776233
15019200,0.97133290294395,0.014975191890463,0.0041936717745664,0.0065878483402195,0.0041936717756772,-0.00091253118317799,0.0009125304475706,6.2946972755838e-10,-1.3806976752913e-09,5.1245206076116e-09,-6.0683186933529e-09,-0.0010796518611988,0.0010796555028675,-0.001079652540745,0.0010796548427746,-0.001079655439109,0.0010796518007753,-0.0010796561158436,0.0010796511384166,-0.00091090709113585,0.00091090457676828,-0.00091090901429023,0.00091090256486581,-4.1533954516788e-09,6.9580754508065e-09,-5.4520464013719e-10,3.1565862612212e-09,-0.0016815521692318,0.0016815547930886,-0.0018551949624142,0.0018551926965239,-0.0018551937695497,0.0018551939078523,-0.0018551913733247,0.0018551963549164,-0.0018551901802727,0.0018551975665214,-0.0014875773832639,0.0014875800537243,-0.0014875737725024,0.0014875836770494,-0.0014875821416088,0.0014875751312936,-0.0014875712737002,0.0014875862773052,-3.8943345743549e-10,1.6250669472132e-09,-0.00091253023365176,0.00091253139762459,2.6311377901054e-09,-1.4412750201873e-09,-0.0010796527329141,0.0010796545682171,-0.0010796541242203,0.0010796532051994,-0.0010796520586474,0.0010796552367936,-0.0010796534480374,0.0010796538720017,-0.00091090490205157,0.00091090674734167,-0.00091090686728663,0.00091090476789951,0.56737759893157,128566,2924,0.0037977680198654,0.0069791630590475,0.0037977680209528,29.891791564023,-8.6566748781299e-07,-8.6566748781299e-07,-8.6566748781299e-07,4474439.942652,0.014682575577982
15219200,0.97255324416441,0.014988875762513,0.0041972496696373,0.0065943764221203,0.0041972496707549,-0.0009108022917385,0.00091080156042313,6.4805364288951e-10,-1.3952669487426e-09,5.1072518367691e-09,-6.0457726127967e-09,-0.0010780372165873,0.0010780408599559,-0.001078037907394,0.0010780401896458,-0.0010780407813451,0.0010780371716121,-0.0010780414695924,0.0010780364979629,-0.00090908375045414,0.00090908128615237,-0.00090908570660374,0.00090907924065144,-4.1353907085937e-09,6.9370453424383e-09,-4.2009500679767e-10,3.0286701951457e-09,-0.0016804769632757,0.0016804795843279,-0.0018544210403868,0.0018544188670789,-0.0018544199283813,0.0018544199942666,-0.0018544174634471,0.001854422512586,-0.0018544163518829,0.0018544236393705,-0.0014862742612874,0.0014862771654367,-0.0014862708977164,0.0014862805372959,-0.0014862791575316,0.0014862721007154,-0.001486268327935,0.0014862832052045,-3.9406992014584e-10,1.6528591257727e-09,-0.00091080133268683,0.00091080252005887,2.5214414781054e-09,-1.3056127780931e-09,-0.0010780381244867,0.0010780398895952,-0.0010780394340293,0.001078038608385,-0.001078037439155,0.0010780405694811,-0.0010780387474493,0.0010780392857103,-0.00090908151939302,0.00090908350006886,-0.00090908351494012,0.00090908148934598,0.54391180550003,128566,2924,0.0037905922030965,0.0069747153102582,0.0037905922042985,28.486036853418,-1.2111705172652e-05,-1.2111705172652e-05,-1.2111705172652e-05,4453168.9026247,0.014663501084639
15419200,0.97363141697167,0.015002786164052,0.0042009978214122,0.0066007905201065,0.0042009978225338,-0.00090909926701468,0.00090909853639895,6.6457432886669e-10,-1.4108484705277e-09,5.1031936604918e-09,-6.0426521633301e-09,-0.0010763068907598,0.001076310544237,-0.00107630759383,0.001076309863133,-0.0010763104540703,0.001076306857705,-0.0010763111526177,0.0010763061745863,-0.00090728766937292,0.00090728523836908,-0.00090728965736505,0.0009072831666361,-4.1317292583308e-09,6.9317399372795e-09,-3.7316538281841e-10,2.9804895009152e-09,-0.0016791860279256,0.0016791886475219,-0.0018534095119786,0.0018534073722718,-0.001853408431088,0.0018534084660145,-0.0018534059387641,0.0018534110140369,-0.001853404856603,0.0018534121090825,-0.0014848021250671,0.0014848051157733,-0.001484798841413,0.0014848083855536,-0.0014848070777972,0.0014847999941387,-0.0014847962576146,0.0014848110967283,-4.0565602830297e-10,1.6749193001261e-09,-0.00090909830230808,0.00090909950148507,2.4769483378697e-09,-1.2435106364722e-09,-0.0010763078212752,0.0010763095513956,-0.0010763090966232,0.0010763083043388,-0.0010763071255215,0.0010763102415358,-0.0010763083978721,0.0010763089937024,-0.00090728541378997,0.00090728747424179,-0.00090728744627515,0.0009072854281868,0.61487580368995,128566,2924,0.0037835206579797,0.0069693793862999,0.0037835206587699,27.073064451841,-2.3415484385268e-05,-2.3415484385268e-05,-2.3415484385268e-05,4435868.1346563,0.014643734621392
15619200,0.9746033117175,0.015015606676001,0.0042044685625816,0.006606669549715,0.004204468563704,-0.00090782816206634,0.00090782742492192,6.769934357215e-10,-1.4290809821687e-09,5.1219595851744e-09,-6.0739265763006e-09,-0.0010752269158794,0.0010752305933779,-0.0010752276319271,0.0010752299003423,-0.0010752304974793,0.0010752268878583,-0.0010752312051794,0.001075226197825,-0.00090604480334188,0.00090604237689838,-0.0009060468210639,0.000906040286485,-4.1537635440809e-09,6.9548087547195e-09,-4.8448076932741e-10,3.0934012115399e-09,-0.0016785431739113,0.0016785457946223,-0.0018529067736427,0.0018529045491341,-0.0018529056225073,0.0018529057142299,-0.0018529031884066,0.001852908203931,-0.0018529020313704,0.0018529093750926,-0.0014840182249435,0.0014840210061092,-0.001484014693583,0.0014840244803446,-0.0014840230618864,0.0014840160023248,-0.0014840122012827,0.0014840271710788,-4.3153609286858e-10,1.6843840853906e-09,-0.00090782720136275,0.00090782838582463,2.5640530624096e-09,-1.3363924568116e-09,-0.0010752278410365,0.0010752296047901,-0.001075229178866,0.0010752282953099,-0.0010752271354354,0.001075230303957,-0.001075228465438,0.0010752289984903,-0.00090604256630713,0.00090604458876156,-0.00090604464384787,0.00090604250259212,0.62694797126685,128566,2924,0.0037782497492097,0.0069667144931868,0.0037782497496574,25.964187354862,-3.2286501161103e-05,-3.2286501161103e-05,-3.2286501161103e-05,4409400.827139,0.014630338093296
15819200,0.97551746651636,0.015028588949932,0.0042080297662254,0.0066125294163603,0.0042080297673463,-0.00090778091550242,0.00090778016773993,6.9393943400531e-10,-1.4558846002017e-09,5.1672423571551e-09,-6.1340069256813e-09,-0.0010754275537878,0.0010754312603502,-0.0010754282730303,0.0010754305633059,-0.0010754311593552,0.0010754275305151,-0.0010754318921473,0.0010754268150445,-0.00090610027466843,0.00090609788133805,-0.00090610236988225,0.00090609571649155,-4.2153342821371e-09,7.0211119877306e-09,-7.3861625601568e-10,3.3520680463868e-09,-0.0016792564413414,0.0016792590664709,-0.0018537303358679,0.0018537278937058,-0.0018537290075067,0.0018537292416334,-0.0018537266994003,0.001853731602661,-0.0018537253863344,0.0018537329345995,-0.0014845927016304,0.0014845950601995,-0.0014845886933014,0.0014845989967233,-0.0014845972921811,0.0014845903124086,-0.0014845863442172,0.0014846015837488,-4.7647350265715e-10,1.6618763568378e-09,-0.00090777998262352,0.00090778110035446,2.8841265028269e-09,-1.7256815342295e-09,-0.0010754284176221,0.0010754303313914,-0.0010754299790786,0.0010754287986097,-0.0010754276934992,0.0010754310487548,-0.0010754292685162,0.0010754294984387,-0.00090609820756127,0.00090609991539388,-0.00090610027740003,0.00090609784113807,0.66919700030042,128566,2924,0.0037780625583846,0.0069696562046768,0.0037780625578866,25.548069870896,-3.5615441032829e-05,-3.5615441032829e-05,-3.5615441032829e-05,4393133.8589858,0.014632947672445
16019200,0.97637880831157,0.015040789781812,0.0042113741862257,0.006618041408242,0.0042113741873446,-0.00090767785402353,0.00090767709941541,7.0132876454023e-10,-1.4705639095882e-09,5.21159210549e-09,-6.180378672321e-09,-0.0010756868894688,0.0010756906370194,-0.0010756876260431,0.0010756899192515,-0.0010756905359159,0.0010756868651972,-0.001075691263985,0.0010756861529602,-0.00090615323235737,0.00090615078408511,-0.00090615530701178,0.00090614862796275,-4.2488092334415e-09,7.0575744931202e-09,-1.0309880807865e-09,3.6461357998188e-09,-0.0016800309765603,0.0016800336039032,-0.0018545478511072,0.001854545206342,-0.0018545463450424,0.0018545467404617,-0.001854544202786,0.0018545489268503,-0.001854542689606,0.0018545504681095,-0.0014852555747906,0.0014852573455125,-0.0014852509922153,0.0014852619328018,-0.00148525982668,0.001485252941564,-0.0014852487678321,0.0014852642997621,-5.1643596568795e-10,1.6653232901136e-09,-0.00090767693781286,0.00090767801562089,3.0506167956039e-09,-1.9506811318347e-09,-0.0010756877278837,0.001075689733784,-0.0010756894308597,0.0010756880590937,-0.0010756870007283,0.0010756904541071,-0.0010756886950388,0.0010756887846543,-0.00090615118300206,0.00090615280815684,-0.00090615332637804,0.0009061506557222,0.6674279284058,128566,2924,0.0037776473254523,0.0069728461223343,0.0037776473254538,25.148307235782,-3.8813542113742e-05,-3.8813542113742e-05,-3.8813542113742e-05,4371034.9510529,0.01463534875683
16219200,0.97719101127178,0.015052243317964,0.0042145122234961,0.0066232188698523,0.0042145122246155,-0.00090752263966611,0.00090752188104203,7.1783868011298e-10,-1.4912189769175e-09,5.2322320041465e-09,-6.2050776431668e-09,-0.0010758726009268,0.0010758763666722,-0.0010758733434526,0.0010758756404897,-0.0010758762568703,0.0010758725846738,-0.0010758770018139,0.0010758718543396,-0.00090614555386076,0.00090614313835586,-0.00090614767763431,0.00090614092711478,-4.2740164633191e-09,7.0846858252406e-09,-1.1919012966453e-09,3.8086615064171e-09,-0.0016807170825935,0.0016807197115815,-0.0018552710431295,0.0018552682723701,-0.0018552694293218,0.0018552699192905,-0.0018552673724941,0.0018552720156999,-0.0018552657620297,0.0018552736592468,-0.0014858420952269,0.0014858435821135,-0.0014858372177487,0.0014858484800442,-0.0014858461725714,0.0014858393578697,-0.0014858350751667,0.0014858507535299,-5.4804124334488e-10,1.6624366221656e-09,-0.00090752173965671,0.00090752278132136,3.2222771859674e-09,-2.1649270526383e-09,-0.0010758734084831,0.001075875493481,-0.0010758752342504,0.0010758736958942,-0.0010758726665792,0.0010758762285843,-0.0010758744940509,0.0010758744259856,-0.00090614359561207,0.00090614507137865,-0.0009061457506602,0.00090614290611437,0.6642560530385,128566,2924,0.0037770150598216,0.0069756704519768,0.0037770150603914,24.749144081667,-4.200684734666e-05,-4.200684734666e-05,-4.200684734666e-05,4351010.5326138,0.014636937517722
16419200,0.97796023044632,0.01506192521267,0.0042171138268758,0.0066276975577988,0.0042171138279959,-0.00090738628809218,0.00090738552931625,7.3566569986638e-10,-1.5091562697102e-09,5.2328991373579e-09,-6.2063558965582e-09,-0.0010760696162444,0.001076073391471,-0.0010760703671504,0.001076072656133,-0.0010760732697264,0.0010760696118806,-0.0010760740295542,0.0010760688664415,-0.00090612838525647,0.0009061260136007,-0.00090613055282435,0.00090612375732595,-4.2776880329787e-09,7.0880512830752e-09,-1.2507752006762e-09,3.8673066866706e-09,-0.0016813873465622,0.0016813899754753,-0.0018559818451723,0.0018559790303671,-0.0018559801903286,0.0018559807203653,-0.0018559781694061,0.0018559827789529,-0.0018559765238287,0.0018559844596585,-0.001486413231445,0.0014864146150477,-0.0014864082493063,0.0014864196185626,-0.0014864172387092,0.0014864104650107,-0.0014864061443435,0.0014864218578049,-5.7072263440351e-10,1.6699459184819e-09,-0.00090738539574731,0.00090738642187709,3.3000267970348e-09,-2.2596723912167e-09,-0.001076070413836,0.0010760725277957,-0.0010760722934718,0.0010760706765099,-0.0010760696587186,0.0010760732760211,-0.0010760715462469,0.0010760714135686,-0.000906126473714,0.00090612789743911,-0.00090612864971635,0.00090612571231746,0.59981698301076,128566,2924,0.0037764601796203,0.0069784296545785,0.0037764601800816,24.411697634431,-4.4706418924552e-05,-4.4706418924552e-05,-4.4706418924552e-05,4334360.1458665,0.0146386168207
16619200,0.97869280094566,0.015072935815321,0.004220164941365,0.0066326059314699,0.0042201649424857,-0.00090752306084529,0.00090752230378925,7.5145083533986e-10,-1.5231444822158e-09,5.2237732190437e-09,-6.1959607007125e-09,-0.0010763171006259,0.0010763208848087,-0.0010763178653691,0.0010763201360708,-0.001076320751334,0.0010763171081311,-0.0010763215175737,0.0010763163564681,-0.00090633128333621,0.00090632893793104,-0.00090633346938842,0.00090632666472415,-4.2659840655857e-09,7.0750163528716e-09,-1.2626388253094e-09,3.8780697379845e-09,-0.00168207755001,0.0016820801776876,-0.0018567844630875,0.0018567816512168,-0.0018567828046192,0.001856783345505,-0.0018567807993107,0.0018567853876319,-0.0018567791423859,0.0018567870804317,-0.00148699970024,0.0014870010415497,-0.0014869946831522,0.0014870060759955,-0.0014870036765555,0.0014869969233072,-0.001486992597609,0.0014870083035442,-5.8726373776247e-10,1.6896010485955e-09,-0.00090752216773711,0.00090752319706623,3.2847393090865e-09,-2.2398157552728e-09,-0.0010763179110817,0.0010763200082982,-0.0010763197829309,0.0010763181647431,-0.0010763171475888,0.0010763207648481,-0.0010763190199827,0.0010763189174703,-0.00090632935361658,0.00090633083938054,-0.00090633157700871,0.00090632860734621,0.7023563244821,128566,2924,0.0037770332379812,0.0069812795467568,0.0037770332383483,24.157883759378,-4.6736929924975e-05,-4.6736929924975e-05,-4.6736929924975e-05,4330886.2829679,0.014642671828096
16819200,0.97939086323853,0.015083477081725,0.004223085069668,0.0066373069412681,0.0042230850707894,-0.00090756336021864,0.0009075626073907,7.6947881353867e-10,-1.5370886104072e-09,5.2068819774069e-09,-6.1734031867114e-09,-0.0010767255674126,0.0010767293541648,-0.0010767263439225,0.0010767285936277,-0.0010767292063041,0.0010767255894467,-0.0010767299819738,0.0010767248281144,-0.000906556328946,0.00090655402805503,-0.00090655854220592,0.00090655172624709,-4.24651345687e-09,7.0533442352341e-09,-1.201631364222e-09,3.8149696042973e-09,-0.0016829568887337,0.0016829595142551,-0.0018576328934963,0.0018576301350241,-0.0018576312766372,0.0018576317864474,-0.0018576292438103,0.0018576338567842,-0.0018576276266643,0.0018576355084492,-0.0014878163957193,0.0014878178392317,-0.0014878114984181,0.0014878227581674,-0.0014878204250577,0.0014878136659814,-0.0014878093810035,0.0014878250068365,-5.9693216833789e-10,1.7138282514499e-09,-0.00090756246206419,0.0009075635057603,3.2222968719542e-09,-2.163160983722e-09,-0.001076726400183,0.0010767284555982,-0.0010767282270943,0.0010767266569019,-0.0010767256266064,0.0010767292224663,-0.0010767274518694,0.0010767274220593,-0.00090655437350795,0.00090655595672575,-0.00090655663254628,0.00090655368792618,0.70571572258843,128566,2924,0.003777214106437,0.0069849007692848,0.0037772141068946,23.906049120285,-4.8751607037722e-05,-4.8751607037722e-05,-4.8751607037722e-05,4311021.5712387,0.01464672013582
17019200,0.98005633951528,0.015093323173115,0.0042258042828277,0.0066417146063372,0.0042258042839496,-0.00090754370033955,0.00090754295189899,7.8822522110247e-10,-1.5515881792449e-09,5.1869029437876e-09,-6.1482475592574e-09,-0.0010770757982278,0.0010770795850123,-0.0010770765857392,0.0010770788139844,-0.0010770794220564,0.0010770758356532,-0.0010770802092333,0.0010770750630089,-0.0009067236636108,0.00090672141537325,-0.00090672591096235,0.0009067190802157,-4.2252656289766e-09,7.0295378214448e-09,-1.1072744967595e-09,3.7183027828729e-09,-0.0016837740773824,0.0016837767006064,-0.0018584140710102,0.0018584113876527,-0.0018584125155642,0.0018584129752907,-0.0018584104353527,0.0018584150947223,-0.0018584088804801,0.0018584166817437,-0.0014885759524742,0.0014885775673791,-0.0014885712417273,0.0014885822956855,-0.0014885800763755,0.0014885732970219,-0.0014885690764098,0.0014885845916047,-6.0406078081367e-10,1.7393680848813e-09,-0.00090754279504441,0.00090754385743182,3.139180598364e-09,-2.0592904127385e-09,-0.001077076658744,0.0010770786590114,-0.0010770784233249,0.0010770769226729,-0.0010770758740297,0.0010770794371936,-0.0010770776375858,0.0010770776984143,-0.00090672167965716,0.00090672337354384,-0.00090672396920659,0.00090672107373345,0.69245976480743,128566,2924,0.0037771463739092,0.00698826403467,0.0037771463744124,23.654286985675,-5.0765704114597e-05,-5.0765704114597e-05,-5.0765704114597e-05,4292204.9001226,0.014650001747557
17219200,0.98067573971187,0.015102233479207,0.0042282549970553,0.0066457234839741,0.0042282549981777,-0.00090675975478256,0.00090675901609188,8.1028235572251e-10,-1.5646834433265e-09,5.1527267750612e-09,-6.0976749930969e-09,-0.0010765761674704,0.0010765799441305,-0.0010765769647084,0.0010765791631379,-0.0010765797621668,0.0010765762251247,-0.0010765805617603,0.0010765754377334,-0.00090607235864119,0.00090607018357347,-0.00090607463941203,0.00090606780362474,-4.1878813051596e-09,6.9882469837928e-09,-8.694080497691e-10,3.4760828305262e-09,-0.0016836508112963,0.0016836534305744,-0.001858269399247,0.0018582668933889,-0.0018582679969511,0.0018582683233015,-0.0018582657867268,0.0018582705758728,-0.0018582643888427,0.0018582720010762,-0.0014884132677383,0.0014884153275883,-0.0014884090510786,0.001488419599695,-0.0014884176496267,0.0014884107907825,-0.001488406721855,0.0014884219868624,-6.0212457411052e-10,1.7717685517724e-09,-0.00090675883791954,0.00090675993342899,2.9580023636465e-09,-1.8520135220174e-09,-0.0010765770770477,0.0010765789706713,-0.0010765787104934,0.0010765773653137,-0.0010765762806404,0.0010765797615045,-0.0010765779172312,0.0010765781494837,-0.00090607031984324,0.000906072203627,-0.00090607262900322,0.00090606987807302,0.67475987714035,128566,2924,0.0037739024821745,0.0069877404917818,0.003773902483133,22.994377999033,-5.6044976007736e-05,-5.6044976007736e-05,-5.6044976007736e-05,4270273.4089914,0.014642892038286
17419200,0.98124102376821,0.015110005843863,0.0042303787567198,0.006649248329298,0.0042303787578448,-0.0009053354174611,0.00090533468682598,8.3023009920213e-10,-1.5769499126582e-09,5.1143993110529e-09,-6.050042393946e-09,-0.0010753339573191,0.0010753377249152,-0.0010753347674468,0.001075336933593,-0.0010753375252639,0.0010753340341268,-0.0010753383348243,0.0010753332369419,-0.00090471882881067,0.00090471671811406,-0.00090472113877451,0.00090471430990705,-4.1461662008216e-09,6.9420014722084e-09,-6.15112588615e-10,3.2177933727389e-09,-0.0016826767340055,0.0016826793493085,-0.001857291141525,0.0018572888289911,-0.0018572899043744,0.0018572900875909,-0.0018572875584028,0.0018572924807838,-0.0018572863235972,0.001857293736622,-0.0014874177574209,0.0014874202848175,-0.0014874140338674,0.0014874240487009,-0.0014874224144107,0.0014874154666861,-0.0014874115691578,0.0014874265766821,-5.9398542337547e-10,1.8137627450836e-09,-0.00090533447917104,0.00090533562575693,2.7147024519388e-09,-1.5504552832335e-09,-0.0010753349339866,0.0010753366856832,-0.0010753363878623,0.001075335260005,-0.0010753341274472,0.0010753374871482,-0.0010753355826172,0.0010753360564522,-0.00090471668977166,0.00090471884002592,-0.00090471903448592,0.00090471647785121,0.64747798622983,128566,2924,0.0037679960494201,0.0069837019346916,0.0037679960507266,21.99113914738,-6.4070886820958e-05,-6.4070886820958e-05,-6.4070886820958e-05,4246849.5149792,0.014626810629926
17619200,0.98175733870344,0.015116822890751,0.0042322312985868,0.0066523602924487,0.0042322312997151,-0.00090388722346345,0.00090388649626892,8.4797489060174e-10,-1.590952438065e-09,5.0906065764138e-09,-6.0256420598889e-09,-0.001073967212869,0.0010739709800011,-0.0010739680356277,0.0010739701785016,-0.0010739707657599,0.0010739673044861,-0.0010739715860197,0.0010739664985236,-0.00090328879316764,0.00090328673283606,-0.00090329113772879,0.00090328430114994,-4.1220830147228e-09,6.9147906658917e-09,-4.3367463383174e-10,3.0341578567955e-09,-0.0016815118094101,0.0016815144221462,-0.0018561523903616,0.0018561502130157,-0.0018561512712243,0.0018561513473881,-0.0018561488246844,0.0018561538467667,-0.0018561477061387,0.0018561549802233,-0.0014862336389134,0.0014862365041635,-0.0014862302489627,0.0014862398879622,-0.0014862385007392,0.0014862314782266,-0.0014862277088071,0.0014862425484909,-5.929128191189e-10,1.8493471301259e-09,-0.00090388626725538,0.00090388745290536,2.542866759666e-09,-1.3261214980263e-09,-0.0010739682424833,0.0010739698879073,-0.0010739695661943,0.0010739685922889,-0.0010739674251678,0.0010739706997988,-0.0010739687481322,0.0010739694010663,-0.00090328657685972,0.00090328892854281,-0.00090328896092512,0.00090328653060425,0.62390234221533,128566,2924,0.0037619868061978,0.0069788785184672,0.003761986807087,20.979737751396,-7.2162097988829e-05,-7.2162097988829e-05,-7.2162097988829e-05,4228543.82979,0.014609722400674
17819200,0.9822301331101,0.015122840776067,0.0042338586145591,0.0066551235458205,0.0042338586156879,-0.0009024712586442,0.00090247053142675,8.6451719510782e-10,-1.6074422803024e-09,5.0853015533554e-09,-6.0222619985592e-09,-0.0010725558351307,0.0010725596112445,-0.0010725566698423,0.001072558799261,-0.0010725593855699,0.0010725559386178,-0.0010725602173138,0.0010725551225149,-0.00090184620834938,0.00090184418413074,-0.00090184858713696,0.00090184172183883,-4.1179091380554e-09,6.9094893265498e-09,-3.4298278964062e-10,2.9426318141474e-09,-0.0016802470958557,0.0016802497077876,-0.0018549398043593,0.0018549376900033,-0.0018549387439804,0.0018549387625444,-0.0018549362419064,0.0018549413204322,-0.0018549351818766,0.0018549423926781,-0.0014849485531284,0.0014849515940543,-0.0014849453332592,0.0014849547875233,-0.0014849535265201,0.0014849464507377,-0.0014849427467017,0.0014849575164746,-6.0039437096704e-10,1.8749531145783e-09,-0.00090247029289207,0.00090247149761527,2.460438524292e-09,-1.2183976010268e-09,-0.0010725568975868,0.0010725584865066,-0.0010725581587136,0.0010725572538597,-0.0010725560694408,0.0010725593090852,-0.0010725573292315,0.0010725580738129,-0.0009018439538953,0.00090184641748236,-0.00090184637158632,0.00090184398728069,0.60341629042905,128566,2924,0.0037561082992912,0.0069736461677297,0.0037561083002076,19.99004140318,-8.0079668774557e-05,-8.0079668774557e-05,-8.0079668774557e-05,4214812.7090015,0.014592483295573
18019200,0.98266405164915,0.015128360414355,0.0042353534920445,0.0066576534291383,0.0042353534931724,-0.00090109102199039,0.00090109029256038,8.7975745602096e-10,-1.6248489654587e-09,5.0974938648905e-09,-6.0364474218513e-09,-0.0010711154371103,0.0010711192306347,-0.0010711162827735,0.0010711184074927,-0.0010711189963744,0.0010711155489977,-0.0010711198387321,0.001071114722124,-0.00090040687765845,0.0009004048739352,-0.00090040928770427,0.00090040238002133,-4.1301840370657e-09,6.9226555499778e-09,-3.5043336261897e-10,2.9507926431338e-09,-0.0016789051416952,0.0016789077542436,-0.0018536708473959,0.0018536687199945,-0.0018536697820222,0.0018536697975972,-0.0018536672768361,0.0018536723587442,-0.0018536662113957,0.0018536734363091,-0.0014835852777432,0.0014835883115504,-0.0014835820427833,0.0014835915233914,-0.0014835902571004,0.0014835831621206,-0.0014835794513152,0.0014835942531571,-6.1778719441498e-10,1.8909263267602e-09,-0.00090109005586212,0.00090109125911239,2.4633980839677e-09,-1.2236695203005e-09,-0.0010711165130932,0.0010711180924587,-0.0010711177770624,0.0010711168568326,-0.0010711156739597,0.001071118925969,-0.0010711169362699,0.0010711176880394,-0.00090040461887544,0.00090040711164274,-0.00090040706960575,0.00090040464839937,0.6026570406184,128566,2924,0.0037503756690754,0.0069680975181998,0.003750375669963,19.01865571609,-8.7850754271282e-05,-8.7850754271282e-05,-8.7850754271282e-05,4204671.8994875,0.014575218346839
18219200,0.98306271043088,0.015133535979196,0.0042367621624183,0.0066600116532324,0.0042367621635458,-0.0008997024888366,0.00089970175569358,8.9453287219729e-10,-1.6432885718295e-09,5.115991125084e-09,-6.058849077202e-09,-0.0010696587612719,0.0010696625756158,-0.0010696596177675,0.0010696617413156,-0.0010696623339495,0.0010696588805333,-0.0010696631872423,0.0010696580423169,-0.0008989578152001,0.00089895582665269,-0.00089896025699019,0.00089895329954999,-4.1501529039717e-09,6.9441772443283e-09,-4.1297778487098e-10,3.0146277109575e-09,-0.0016775110169409,0.0016775136307991,-0.0018523434820453,0.0018523413005675,-0.0018523423757344,0.0018523424205833,-0.0018523398979783,0.0018523449533419,-0.0018523387917626,0.001852346073128,-0.0014821758001543,0.0014821787246939,-0.0014821724441449,0.0014821820637237,-0.0014821807243163,0.0014821736315853,-0.0014821698779304,0.0014821847631144,-6.4054167649073e-10,1.9009904456038e-09,-0.00089970152736936,0.00089970271759774,2.5202004948989e-09,-1.2956952414825e-09,-0.0010696598380151,0.0010696614366155,-0.0010696611445879,0.0010696601583083,-0.0010696589878284,0.0010696622811228,-0.001069660292999,0.0010696610004047,-0.00089895557538485,0.00089895804549755,-0.00089895805792411,0.00089895555001762,0.61338751910484,128566,2924,0.0037446082504642,0.0069623335567374,0.0037446082513771,18.04770426274,-9.5618365898081e-05,-9.5618365898081e-05,-9.5618365898081e-05,4194247.8641077,0.014557664762895
18419200,0.98343861238525,0.015138453994578,0.0042381041101469,0.0066622457731573,0.0042381041112743,-0.00089900234825546,0.0008990016064277,9.0944467859301e-10,-1.6661437191931e-09,5.148299211539e-09,-6.1051769646227e-09,-0.0010689491165786,0.001068952958558,-0.0010689499821461,0.0010689521152038,-0.0010689527114887,0.001068949240843,-0.0010689535809885,0.0010689483867936,-0.00089823589196956,0.0008982339186349,-0.00089823838410012,0.0008982313482366,-4.193190502732e-09,6.9906215882502e-09,-6.0323458830329e-10,3.2084865225862e-09,-0.0016769013840734,0.0016769040011945,-0.001851783212508,0.0018517808748732,-0.0018517819780728,0.0018517821264859,-0.0018517795965838,0.0018517845614512,-0.0018517783688873,0.001851785805787,-0.0014815424728263,0.0014815450639904,-0.0014815387345062,0.0014815487536029,-0.0014815472067014,0.0014815401661814,-0.0014815362921278,0.0014815513881243,-6.7702766796433e-10,1.8930169885082e-09,-0.00089900140399137,0.00089900255084957,2.7355089621084e-09,-1.5508606923237e-09,-0.0010689501570956,0.0010689518544468,-0.0010689516159832,0.0010689504237712,-0.0010689492936025,0.0010689527115688,-0.0010689507578314,0.0010689512719318,-0.0008982337479353,0.00089823603515654,-0.00089823625241157,0.00089823352173378,0.61738403819713,128566,2924,0.003741700950259,0.006959812358476,0.0037417009506193,17.475271907539,-0.00010019782473969,-0.00010019782473969,-0.00010019782473969,4188181.1935714,0.014549206435699
18619200,0.98380067063592,0.015143144374967,0.0042393827737692,0.0066643788263036,0.0042393827748945,-0.00089887035621298,0.00089886960652767,9.1934567473467e-10,-1.6841769414166e-09,5.1913251115335e-09,-6.154065311235e-09,-0.0010688490816255,0.0010688529588334,-0.0010688499589276,0.0010688521008773,-0.0010688527100929,0.0010688492063036,-0.0010688535848745,0.0010688483464425,-0.0008981051554643,0.00089810315885194,-0.00089810766101526,0.00089810056868547,-4.2316768608237e-09,7.0331175228521e-09,-8.9371738642967e-10,3.5020872755788e-09,-0.0016769357337248,0.0016769383543143,-0.0018518626290794,0.0018518600805515,-0.0018518612109217,0.0018518615240509,-0.0018518589903522,0.0018518637901945,-0.0018518575716041,0.0018518652341604,-0.0014815423752262,0.0014815444108936,-0.0014815380760956,0.0014815487104626,-0.0014815467840748,0.0014815398484119,-0.0014815357727558,0.0014815511541768,-7.192182843604e-10,1.8886576224959e-09,-0.00089886943239305,0.00089887053064121,2.9481495166736e-09,-1.8255480936421e-09,-0.0010688500855265,0.0010688518909556,-0.0010688517100708,0.0010688502946066,-0.0010688492132829,0.0010688527568494,-0.0010688508358281,0.0010688511590042,-0.00089810308055541,0.00089810520901261,-0.00089810563061364,0.00089810264827281,0.61178640804936,128566,2924,0.003741153804528,0.0069599535905804,0.003741153805151,17.230562956027,-0.00010215549635178,-0.00010215549635178,-0.00010215549635178,4186648.2952925,0.014548239337135
18819200,0.98414967091892,0.01514797717056,0.0042407154461255,0.0066665462771843,0.0042407154472506,-0.00089876491374019,0.00089876415940647,9.3397859585604e-10,-1.703449533453e-09,5.2138314637998e-09,-6.181608356255e-09,-0.0010687588199138,0.0010687627194769,-0.0010687597067153,0.0010687618503747,-0.0010687624636136,0.0010687589510353,-0.001068763350358,0.0010687580786042,-0.00089799875336389,0.00089799677145777,-0.0008980012932811,0.00089799414363385,-4.2562156081818e-09,7.0602204193478e-09,-1.0916410166457e-09,3.7022069675302e-09,-0.0016769707914979,0.0016769734142488,-0.0018519481599317,0.0018519454645707,-0.0018519466125061,0.0018519470425086,-0.0018519445035614,0.0018519491925057,-0.001851942957496,0.0018519507689001,-0.0014815429857856,0.0014815446525231,-0.0014815383058705,0.0014815493480667,-0.0014815471691227,0.0014815403196233,-0.0014815361105018,0.0014815516736549,-7.5441246106092e-10,1.8854491181109e-09,-0.00089876400738737,0.00089876506618181,3.1297019711943e-09,-2.0529050122327e-09,-0.0010687597917374,0.0010687616830186,-0.0010687615506114,0.0010687599522323,-0.0010687589077683,0.0010687625605335,-0.0010687606666923,0.0010687608263147,-0.00089799675821146,0.00089799874253857,-0.00089799933623954,0.0008979961532333,0.64922937616211,128566,2924,0.0037407164608936,0.0069600984532958,0.0037407164617803,16.993625485976,-0.00010405099611219,-0.00010405099611219,-0.00010405099611219,4185944.4905178,0.014547498404058
19019200,0.98448618689749,0.015152939653168,0.0042420968346963,0.0066687459826502,0.0042420968358214,-0.00089863405977217,0.00089863330263911,9.4870552128945e-10,-1.7210800292233e-09,5.226986117583e-09,-6.1978775406249e-09,-0.0010687383467741,0.0010687422649689,-0.0010687392445218,0.0010687413838456,-0.0010687420006553,0.0010687384858729,-0.001068742897384,0.001068737603239,-0.00089792058063562,0.00089791861547228,-0.0008979231491011,0.0008979159570843,-4.2699277212862e-09,7.075201221224e-09,-1.2444072907409e-09,3.8560691339702e-09,-0.0016770905526957,0.0016770931765671,-0.001852065189567,0.0018520623858568,-0.0018520635440353,0.0018520640657642,-0.0018520615246649,0.0018520661227337,-0.0018520598790924,0.0018520678025056,-0.0014816437713676,0.0014816451452802,-0.0014816387933191,0.0014816501494306,-0.0014816477743306,0.0014816409968944,-0.0014816366856289,0.0014816523814536,-7.84507009842e-10,1.8889239422244e-09,-0.00089863316571593,0.00089863419719703,3.262476318882e-09,-2.2172392375765e-09,-0.0010687392967762,0.0010687412498291,-0.001068741154815,0.0010687394198638,-0.0010687384022815,0.0010687421377991,-0.0010687402590225,0.0010687403058019,-0.00089791863866064,0.00089792053382377,-0.00089792125120123,0.00089791790914885,0.68719101726747,128566,2924,0.0037401770310884,0.0069605893838851,0.0037401770321387,16.75697193752,-0.00010594422449984,-0.00010594422449984,-0.00010594422449984,4178785.8350747,0.014546903829394
19219200,0.98482119805593,0.015158035808231,0.0042435213937181,0.0066709930196698,0.0042435213948432,-0.00089936232542484,0.00089936156485071,9.660816472475e-10,-1.7411779679453e-09,5.2367024463827e-09,-6.2161370685736e-09,-0.0010697062049661,0.0010697101387312,-0.0010697071113987,0.0010697092491976,-0.0010697098641089,0.0010697063542339,-0.0010697107775404,0.0010697054556484,-0.00089878117052254,0.00089877924508105,-0.00089878379212237,0.00089877654170065,-4.2885317340052e-09,7.0948708382719e-09,-1.370307440813e-09,3.9837143285559e-09,-0.0016782978776067,0.0016783005029457,-0.0018532231212235,0.0018532202195111,-0.0018532213897442,0.0018532219873488,-0.001853219440702,0.0018532239732948,-0.0018532177165025,0.0018532257332859,-0.0014828277217742,0.0014828288738452,-0.0014828224873039,0.0014828340938477,-0.0014828315886754,0.0014828248691279,-0.0014828204817998,0.0014828362925929,-8.1591386691717e-10,1.8863290673504e-09,-0.00089936144571352,0.00089936244471746,3.4448061168907e-09,-2.426096514881e-09,-0.0010697071206672,0.0010697091564211,-0.0010697091047656,0.0010697072007312,-0.0010697062125667,0.0010697100575576,-0.0010697082026425,0.0010697080924015,-0.0008987793191237,0.00089878106413168,-0.00089878195269082,0.00089877842405365,0.70677988585431,128566,2924,0.0037432092173308,0.0069655732591812,0.003743209217694,17.022534521831,-0.00010381972382535,-0.00010381972382535,-0.00010381972382535,4174311.2224371,0.014558117750743
19419200,0.98515986547905,0.015163073959601,0.0042449244399481,0.0066732250785797,0.0042449244410734,-0.00090050389145038,0.0009005031316889,9.8414556923061e-10,-1.7587810078802e-09,5.240124213771e-09,-6.2158392405544e-09,-0.0010711562758445,0.0010711602202341,-0.0010711571906507,0.0010711593202737,-0.001071159933591,0.0010711564371848,-0.0010711608606191,0.0010711555235144,-0.00090009284623214,0.00090009096041238,-0.00090009550551815,0.00090008821128814,-4.2933439935822e-09,7.0999697864437e-09,-1.417387381612e-09,4.0305346342277e-09,-0.0016800496011893,0.0016800522267826,-0.0018549100126856,0.0018549070746952,-0.0018549082482351,0.0018549088774082,-0.0018549063262639,0.0018549108338313,-0.0018549045740309,0.0018549126241712,-0.0014845498763218,0.0014845509447014,-0.0014845445722673,0.001484556267534,-0.0014845536881209,0.0014845469963469,-0.0014845425733299,0.0014845584129412,-8.3995435316226e-10,1.8923504892778e-09,-0.0009005030220438,0.00090050400141529,3.5387135963169e-09,-2.5490516467118e-09,-0.0010711571757007,0.0010711592538317,-0.001071159229236,0.0010711572288111,-0.0010711562550961,0.0010711601676198,-0.0010711583199323,0.0010711581280817,-0.00090009104884468,0.00090009272786014,-0.00090009370235747,0.00090009006538952,0.69264758710777,128566,2924,0.0037479597989237,0.0069728057612399,0.0037479597996103,17.539208233303,-9.9686334133579e-05,-9.9686334133579e-05,-9.9686334133579e-05,4172105.9707297,0.014575101372388
19619200,0.98550205847172,0.015168032953425,0.0042462995161662,0.0066754339199676,0.0042462995172913,-0.00090164751250907,0.00090164675558817,9.9992994090022e-10,-1.7718441156304e-09,5.2309413294819e-09,-6.2021909038547e-09,-0.0010725745663417,0.0010725785187513,-0.0010725754942992,0.0010725776055731,-0.0010725782199376,0.0010725747395574,-0.0010725791530184,0.0010725738196567,-0.00090139279657556,0.00090139093731849,-0.00090139547256341,0.00090138817083902,-4.2774265782601e-09,7.0826609021594e-09,-1.4246291781447e-09,4.0363409333199e-09,-0.0016817789556759,0.0016817815795798,-0.0018566006011392,0.0018565976697463,-0.0018565988350244,0.0018565994751096,-0.0018565969292088,0.0018566014139752,-0.0018565951679828,0.0018566032142482,-0.0014862397844754,0.001486240815713,-0.0014862344615446,0.0014862461702625,-0.0014862435634111,0.0014862368991429,-0.00148623247002,0.0014862482903472,-8.5021246823976e-10,1.9191011738679e-09,-0.00090164663671733,0.00090164763183452,3.4737747221256e-09,-2.4696460823631e-09,-0.0010725754905742,0.0010725775283577,-0.0010725774996959,0.0010725755473099,-0.001072574561248,0.0010725784510444,-0.001072576574737,0.0010725764623981,-0.00090139095736693,0.00090139275028173,-0.00090139365686349,0.00090139004007716,0.67638954517366,128566,2924,0.0037527180251369,0.0069799466208165,0.0037527180260939,18.061896798994,-9.5504825608047e-05,-9.5504825608047e-05,-9.5504825608047e-05,4173022.7944381,0.014592006583115
19819200,0.98584750442129,0.015172887186173,0.0042476387626352,0.0066776096597776,0.0042476387637605,-0.00090279131713723,0.00090279056338959,1.0166589483185e-09,-1.7856407901553e-09,5.2148305996335e-09,-6.1825569660403e-09,-0.001073950093082,0.0010739540493661,-0.0010739510337455,0.001073953124079,-0.0010739537371242,0.0010739502798125,-0.0010739546785037,0.0010739493522381,-0.00090266783143924,0.00090266601018543,-0.00090267053076057,0.00090266322007345,-4.2578942707822e-09,7.061153327554e-09,-1.3720714953341e-09,3.9819964619767e-09,-0.0016834674575394,0.0016834700796203,-0.0018582776576563,0.0018582747761862,-0.001858275929349,0.0018582765428024,-0.0018582740010243,0.0018582785047635,-0.0018582722735544,0.001858280270376,-0.0014878779753412,0.0014878790906234,-0.001487872751074,0.00148788434491,-0.0014878817965781,0.0014878751291119,-0.0014878707366974,0.0014878864860622,-8.5805124759397e-10,1.9466790145952e-09,-0.0009027904331199,0.00090279144793589,3.3897441381728e-09,-2.36386310057e-09,-0.0010739510459639,0.0010739530305656,-0.0010739529945398,0.0010739511101064,-0.0010739501071347,0.0010739539629173,-0.0010739520556285,0.0010739520392022,-0.00090266595015509,0.00090266786690739,-0.00090266869009992,0.00090266511515951,0.65786895519255,128566,2924,0.0037574755840009,0.0069869201802487,0.0037574755851105,18.584805508134,-9.1321555934931e-05,-9.1321555934931e-05,-9.1321555934931e-05,4176876.6952357,0.014608739751051
20019200,0.98618662840363,0.015177835145938,0.0042490116200576,0.0066798119046974,0.0042490116211828,-0.00090318208175463,0.00090318133753399,1.0384274182533e-09,-1.7980751392774e-09,5.1762142462446e-09,-6.1310879635301e-09,-0.0010744806787471,0.00107448462417,-0.0010744816302663,0.0010744836888774,-0.0010744842925467,0.0010744808857986,-0.0010744852458305,0.0010744799453598,-0.00090313784175366,0.00090313609460506,-0.00090314057507444,0.00090313326640857,-4.2162090251202e-09,7.0154061569222e-09,-1.1166002297471e-09,3.72262260667e-09,-0.0016842407175336,0.0016842433357273,-0.001859063729396,0.0018590610415767,-0.0018590621673208,0.0018590626362903,-0.0018590600996749,0.0018590647420035,-0.0018590585406284,0.0018590663332886,-0.0014886095995097,0.001488611190483,-0.0014886048847832,0.0014886159379693,-0.001488613696912,0.0014886069446472,-0.0014886027211394,0.0014886182073413,-8.5188221054095e-10,1.9844294256668e-09,-0.00090318118060479,0.00090318223931875,3.17468685029e-09,-2.1031784974233e-09,-0.0010744816897606,0.0010744835482563,-0.0010744834794377,0.0010744817865278,-0.001074480739589,0.0010744844924284,-0.0010744825312473,0.0010744827252866,-0.00090313588390276,0.00090313803069052,-0.00090313865031189,0.00090313525021961,0.68048384645064,128566,2924,0.0037591035888698,0.006990111678688,0.0037591035901861,18.671679016528,-9.0626567867774e-05,-9.0626567867774e-05,-9.0626567867774e-05,4176613.1275234,0.014615283065516
20219200,0.98651702461562,0.015182801263696,0.0042503953724921,0.0066820105175864,0.0042503953736174,-0.00090334663380828,0.0009033458968024,1.0578288967151e-09,-1.8104614993056e-09,5.1415582481123e-09,-6.088090803505e-09,-0.0010748151298636,0.00107481906804,-0.0010748160938883,0.0010748181222784,-0.0010748187194152,0.0010748153548635,-0.0010748196828042,0.001074814405182,-0.00090339671305231,0.000903395026958,-0.00090339947676452,0.00090339217190635,-4.1779366485503e-09,6.9730885390493e-09,-8.6693648221497e-10,3.4693776497766e-09,-0.0016848059312288,0.0016848085459902,-0.0018596125927068,0.0018596100942431,-0.0018596111934125,0.0018596115198715,-0.0018596089898173,0.0018596137665352,-0.0018596075917394,0.0018596151907486,-0.0014891472892718,0.00148914934171,-0.0014891430599776,0.0014891535906227,-0.0014891516617016,0.001489144816034,-0.0014891407605943,0.001489155999511,-8.4445199278451e-10,2.0260135998715e-09,-0.00090334571113478,0.00090334682001998,2.9362179903206e-09,-1.8076384499523e-09,-0.0010748162073426,0.0010748179267047,-0.0010748178210404,0.0010748163411798,-0.0010748152468492,0.0010748188814313,-0.0010748168606052,0.0010748172922316,-0.00090339465560011,0.00090339706295067,-0.00090339745816568,0.00090339424665644,0.69908660498407,128566,2924,0.0037597934872883,0.0069924411979291,0.0037597934884177,18.638369697147,-9.0893042422823e-05,-9.0893042422823e-05,-9.0893042422823e-05,4171052.8431493,0.014619049163338
20419200,0.98683887105868,0.015187645865719,0.0042517453889924,0.0066841550866086,0.0042517453901177,-0.00090348227535925,0.0009034815423521,1.0764854166793e-09,-1.8250757060228e-09,5.1186239630827e-09,-6.0617890462703e-09,-0.0010751577181399,0.0010751616550206,-0.0010751586939741,0.0010751606993324,-0.00107516129154,0.0010751579586404,-0.0010751622666229,0.0010751569980721,-0.00090364561250981,0.00090364398076878,-0.00090364841187482,0.00090364109439227,-4.1549134512461e-09,6.9475358979002e-09,-6.6311603490737e-10,3.2634995534464e-09,-0.0016853851067859,0.0016853877193536,-0.0018601536954267,0.0018601513453967,-0.0018601524279538,0.0018601526334625,-0.0018601501079844,0.0018601550017075,-0.0018601488421869,0.0018601562878835,-0.0014897062140828,0.0014897086520316,-0.0014897023762098,0.0014897124851582,-0.0014897108208142,0.0014897038859771,-0.0014896999696708,0.0014897150236325,-8.4306911375478e-10,2.0601113852351e-09,-0.0009034813361964,0.00090348248197847,2.7602954615155e-09,-1.5868332230778e-09,-0.0010751588492229,0.0010751604606099,-0.0010751603312913,0.0010751590067764,-0.0010751578776523,0.0010751614264322,-0.0010751593600214,0.0010751599685279,-0.00090364348357769,0.00090364608746542,-0.00090364631833616,0.00090364323998329,0.69998401712059,128566,2924,0.0037603647043425,0.0069948266374982,0.0037603647053127,18.602121883471,-9.1183024932229e-05,-9.1183024932229e-05,-9.1183024932229e-05,4163094.0242082,0.014622632055776
20619200,0.98715240022542,0.015191851316182,0.0042528961973792,0.0066860589202978,0.0042528961985046,-0.0009035802823957,0.00090357955164787,1.0939024751406e-09,-1.8402503728576e-09,5.1061679463665e-09,-6.0468380033968e-09,-0.0010754658260491,0.0010754697671825,-0.0010754668136913,0.0010754688010074,-0.0010754693909726,0.0010754660798204,-0.0010754703768181,0.0010754651088788,-0.00090384615931042,0.00090384457000077,-0.00090384899080359,0.00090384165355886,-4.1414833912899e-09,6.9325625510316e-09,-5.1536630691309e-10,3.1143853081372e-09,-0.0016859237679457,0.0016859263791248,-0.0018606589084426,0.0018606566640597,-0.0018606577365976,0.0018606578523802,-0.0018606553304418,0.0018606603105483,-0.0018606541596933,0.00186066149759,-0.0014902219089111,0.0014902246268001,-0.0014902183566913,0.001490228164169,-0.0014902266893593,0.0014902196822411,-0.0014902158652083,0.0014902307926204,-8.466021300515e-10,2.0899146502056e-09,-0.00090357933078039,0.00090358050367528,2.6228939721249e-09,-1.418017289876e-09,-0.0010754670028433,0.001075468527646,-0.0010754683837247,0.001075467175034,-0.0010754660204993,0.0010754695043213,-0.0010754674010534,0.0010754681481897,-0.00090384397157548,0.00090384673594198,-0.00090384683994244,0.00090384385504516,0.63099125631043,128566,2924,0.003760779495878,0.00699704445204,0.0037607794967416,18.565766118521,-9.1473871051833e-05,-9.1473871051833e-05,-9.1473871051833e-05,4155670.4356961,0.014625727366788
20819200,0.98744321870688,0.015196069411893,0.0042540660987593,0.0066879372132489,0.0042540660998847,-0.00090234534934526,0.00090234462659135,1.1168515185336e-09,-1.855598888184e-09,5.077991404624e-09,-6.006174874951e-09,-0.0010741875744921,0.0010741915089717,-0.0010741885722564,0.0010741905338407,-0.0010741911143154,0.0010741878485517,-0.0010741921144953,0.0010741868597708,-0.00090258187233311,0.00090258035596493,-0.00090258474249745,0.00090257738931616,-4.1152617022269e-09,6.9037703279084e-09,-2.567509923746e-10,2.8528585774229e-09,-0.0016847131542678,0.0016847157622171,-0.0018594973962574,0.0018594953329149,-0.0018594963885046,0.0018594963508993,-0.0018594938327536,0.001859498964843,-0.0018594928325507,0.0018594999739939,-0.0014890005089471,0.0014890037223579,-0.0014889974781904,0.0014890067495257,-0.0014890055842466,0.001488998467574,-0.0014889948196561,0.0014890095078554,-8.4318650347743e-10,2.1202984879313e-09,-0.00090234438534328,0.0009023455913821,2.4469299258528e-09,-1.2111366022286e-09,-0.0010741888019771,0.0010741902201718,-0.0010741900520807,0.0010741889975239,-0.0010741878075601,0.0010741912097666,-0.0010741890643837,0.0010741899767716,-0.0009025796328307,0.00090258258038066,-0.00090258251547235,0.00090257967796303,0.67642718907102,128566,2924,0.0037556516005003,0.0069920373208197,0.0037556516021213,17.742009587958,-9.8063923296335e-05,-9.8063923296335e-05,-9.8063923296335e-05,4146122.1070339,0.01461023859888
21019200,0.98771172579575,0.015199833741102,0.0042551051036262,0.0066896235327239,0.0042551051047523,-0.00090091569284444,0.00090091496922554,1.1285347522861e-09,-1.868363146477e-09,5.0712023445601e-09,-6.0023055460387e-09,-0.0010727976420547,0.0010728015866358,-0.00107279865372,0.0010728005987025,-0.0010728011836278,0.0010727979243434,-0.001072802189147,0.001072796935228,-0.00090115594450496,0.00090115444257576,-0.00090115883196094,0.00090115147056461,-4.1028599149165e-09,6.8897192931578e-09,-1.8604331815139e-10,2.7810790631201e-09,-0.0016833701280931,0.0016833727361181,-0.0018581419801618,0.0018581399797989,-0.001858141023189,0.0018581409455014,-0.0018581384300358,0.0018581435964874,-0.0018581374704732,0.0018581445653083,-0.0014876710691657,0.0014876744020137,-0.0014876681641791,0.0014876772914872,-0.0014876762273761,0.0014876690703026,-0.0014876654721505,0.0014876800975525,-8.5107980196023e-10,2.1536461135969e-09,-0.00090091471497385,0.00090091594760737,2.3225905111601e-09,-1.0523572250161e-09,-0.0010727989132432,0.0010728002543824,-0.0010728000757374,0.0010727991213305,-0.0010727979103642,0.0010728012519278,-0.0010727990684826,0.0010728001191429,-0.00090115362662802,0.00090115674177981,-0.00090115656683509,0.0009011537890174,0.65601666333322,128566,2924,0.0037497176026953,0.0069864793584289,0.0037497176037577,16.831301607475,-0.0001053495871402,-0.0001053495871402,-0.0001053495871402,4128309.4360454,0.014592558077122
21219200,0.98795980495944,0.01520333577802,0.0042560738738612,0.0066911880291714,0.0042560738749873,-0.00089949159772158,0.00089949087260253,1.1466015418048e-09,-1.8875362710862e-09,5.0776514618546e-09,-6.0112432731443e-09,-0.0010713499645517,0.0010713539219941,-0.0010713509856826,0.0010713529247809,-0.0010713535079291,0.0010713502574967,-0.0010713545282798,0.0010713492523161,-0.00089970640288707,0.00089970494065781,-0.0008997093357336,0.0008997019236522,-4.1124172058302e-09,6.8999800663453e-09,-1.8051767525011e-10,2.7763005381596e-09,-0.0016819370092967,0.0016819396172564,-0.0018567200881807,0.0018567180806039,-0.0018567191315688,0.0018567190447383,-0.0018567165287662,0.0018567217075577,-0.0018567155755544,0.0018567226680969,-0.0014862495571357,0.0014862529152793,-0.001486246661077,0.0014862557808182,-0.0014862547329529,0.0014862475640042,-0.0014862439706041,0.0014862586080623,-8.6768363960674e-10,2.1653728679202e-09,-0.00089949062118109,0.00089949184959055,2.3318759252911e-09,-1.0638186461285e-09,-0.0010713512472784,0.0010713525779075,-0.0010713524132888,0.0010713514402232,-0.0010713502318097,0.0010713535879482,-0.0010713513995808,0.0010713524445306,-0.0008997041003724,0.00089970722332338,-0.00089970705954933,0.00089970425064204,0.65967103352439,128566,2924,0.0037438045225442,0.0069805514426957,0.0037438045234795,15.918323513381,-0.00011265341189295,-0.00011265341189295,-0.00011265341189295,4113957.6527079,0.014574543501242
21419200,0.98819250212086,0.015206644763181,0.0042569911257974,0.0066926625104603,0.0042569911269235,-0.00089845937621119,0.00089845864365148,1.1599597411217e-09,-1.9080620638009e-09,5.1068315337617e-09,-6.0506039316444e-09,-0.001070313758551,0.001070317742589,-0.0010703147895488,0.0010703167339669,-0.001070317323064,0.0010703140551927,-0.0010703183560196,0.0010703130386977,-0.00089866295957655,0.00089866150503198,-0.00089866593095627,0.00089865845420627,-4.1468258994917e-09,6.937019756867e-09,-3.359712543088e-10,2.9342977984517e-09,-0.0016809313743891,0.0016809339848123,-0.0018557205938948,0.0018557184614064,-0.0018557195349853,0.0018557195312523,-0.0018557170109154,0.001855722112663,-0.0018557159563918,0.0018557231778743,-0.0014852507408272,0.0014852538201993,-0.0014852475349291,0.0014852569874308,-0.0014852557602408,0.0014852486296734,-0.0014852449341327,0.0014852597478578,-9.0071862781126e-10,2.1640287290686e-09,-0.00089845841298756,0.00089845960722174,2.4896650888523e-09,-1.2563600843357e-09,-0.0010703150186871,0.0010703164199353,-0.0010703162997741,0.0010703151671425,-0.0010703139917665,0.0010703174408411,-0.0010703152756159,0.0010703161810443,-0.00089866072084948,0.00089866372092962,-0.00089866371049032,0.00089866072076512,0.66373455397135,128566,2924,0.0037395190066839,0.0069763911834,0.0037395190074223,15.229957885823,-0.00011816033691341,-0.00011816033691341,-0.00011816033691341,4102870.5092283,0.01456162576511
21619200,0.98841124463163,0.015209784919741,0.0042578633954806,0.0066940581276537,0.0042578633966066,-0.00089746238393894,0.00089746164446138,1.1709108683738e-09,-1.9258945463439e-09,5.1410863493245e-09,-6.0919642634676e-09,-0.0010693224213295,0.0010693264357979,-0.0010693234642261,0.0010693254144723,-0.0010693260135152,0.0010693227207713,-0.0010693270529934,0.0010693216970229,-0.00089765870561635,0.00089765723818408,-0.00089766169468555,0.00089765416598541,-4.1791127394451e-09,6.9729409800277e-09,-5.6328007776851e-10,3.164729308339e-09,-0.0016799618523645,0.0016799644659701,-0.0018547514834743,0.0018547491841976,-0.0018547502801028,0.0018547504043529,-0.0018547478811162,0.0018547528557586,-0.0018547466769285,0.0018547540766618,-0.0014842906642701,0.0014842933111007,-0.0014842870119512,0.0014842969469777,-0.0014842954311156,0.0014842883791619,-0.0014842845288718,0.001484299571425,-9.3645105152642e-10,2.1650288377701e-09,-0.00089746143523881,0.00089746259358924,2.6503877936487e-09,-1.4596024420775e-09,-0.0010693236578864,0.0010693251365219,-0.0010693250627245,0.001069323760028,-0.0010693226214154,0.0010693261669697,-0.001069324023904,0.0010693247889747,-0.00089765651582026,0.00089765940627982,-0.00089765954908098,0.00089765636160105,0.66920856792675,128566,2924,0.0037353799614406,0.0069723800252152,0.0037353799623398,14.565645305382,-0.00012347483755694,-0.00012347483755694,-0.00012347483755694,4091718.9809352,0.014549156966348
21819200,0.98861699659197,0.015212693975253,0.0042586700555174,0.0066953538630926,0.0042586700566432,-0.00089645356991097,0.00089645282503279,1.1866726014942e-09,-1.9469466837729e-09,5.1676924924111e-09,-6.1244904363741e-09,-0.0010683289146732,0.0010683329526545,-0.0010683299663704,0.0010683319218542,-0.0010683325232353,0.0010683292211449,-0.0010683335769134,0.0010683281809575,-0.00089664579841014,0.00089664435023135,-0.00089664882906872,0.00089664123048735,-4.2110484553603e-09,7.0072232519631e-09,-7.4006697187378e-10,3.3434271898297e-09,-0.0016789800885175,0.0016789827040424,-0.0018537627066069,0.0018537602675976,-0.0018537613859734,0.0018537616092483,-0.0018537590799723,0.0018537639649516,-0.001853757764821,0.0018537653007963,-0.0014833220153766,0.0014833243456207,-0.0014833180282846,0.0014833283277091,-0.0014833265942913,0.0014833196055104,-0.0014833156368985,0.0014833308552934,-9.7193695281862e-10,2.1582714419521e-09,-0.00089645264003448,0.00089645375535534,2.8455979267013e-09,-1.7042139707474e-09,-0.0010683301168434,0.0010683316873399,-0.0010683316641458,0.0010683301675285,-0.0010683290677006,0.0010683327305915,-0.0010683306190816,0.0010683312031902,-0.00089664370149069,0.00089664642507442,-0.00089664675312081,0.00089664336006302,0.65988856306471,128566,2924,0.0037311920524764,0.0069683178804684,0.0037311920534094,13.901962716336,-0.00012878429826931,-0.00012878429826931,-0.00012878429826931,4079925.2525447,0.014536537745888
22019200,0.98882243044713,0.015215550753754,0.0042594608578815,0.0066966290368651,0.0042594608590074,-0.00089706936065893,0.00089706860535757,1.1965211924555e-09,-1.9667855075131e-09,5.2158852767318e-09,-6.1855576821058e-09,-0.0010690069440868,0.0010690110203782,-0.0010690080066797,0.0010690099760863,-0.0010690105902065,0.0010690072497353,-0.0010690116521761,0.0010690062026038,-0.00089730105177953,0.00089729958150557,-0.00089730410804016,0.00089729644198996,-4.2607666245632e-09,7.0622061238036e-09,-1.1039553572746e-09,3.7122772219497e-09,-0.0016797930786667,0.001679795699108,-0.0018545871051933,0.0018545843981328,-0.0018545855501989,0.0018545859830977,-0.0018545834470405,0.0018545881279243,-0.0018545818927526,0.0018545897120008,-0.0014841077828019,0.0014841094260751,-0.0014841030748046,0.0014841141399217,-0.0014841119574605,0.0014841051052679,-0.0014841008928605,0.0014841164684009,-1.0206761393534e-09,2.1452069435135e-09,-0.00089706845647955,0.00089706950969945,3.1455769395778e-09,-2.0722926815667e-09,-0.0010690080887907,0.0010690098110325,-0.0010690098599639,0.0010690080679341,-0.0010690070297903,0.0010690108634369,-0.0010690088003742,0.0010690091174905,-0.00089729906254929,0.00089730154424701,-0.00089730215803544,0.00089729843911448,0.64982380207554,128566,2924,0.0037337511924713,0.0069716779526403,0.0037337511928277,14.153535159264,-0.00012677171872589,-0.00012677171872589,-0.00012677171872589,4084686.8863429,0.014545140066832
22219200,0.9890287327678,0.015218395657442,0.0042602472640778,0.0066979011281607,0.0042602472652034,-0.00089785902360893,0.0008978582634784,1.2105601941472e-09,-1.9856681219558e-09,5.2397781402404e-09,-6.2147278965346e-09,-0.0010698554667627,0.0010698595668398,-0.001069856539224,0.0010698585106996,-0.0010698591298537,0.0010698557783598,-0.0010698602027107,0.0010698547198892,-0.00089812312541882,0.00089812166530436,-0.00089812621240723,0.00089811849115243,-4.2865136878316e-09,7.0906869097939e-09,-1.334459542824e-09,3.9451139777701e-09,-0.0016807876481917,0.001680790271001,-0.0018556118880953,0.0018556090133468,-0.0018556101839922,0.0018556107535377,-0.0018556082122681,0.0018556127614948,-0.0018556065092474,0.0018556145004343,-0.0014850633967886,0.0014850646057701,-0.0014850582430755,0.0014850697831685,-0.0014850673053126,0.001485060555748,-0.0014850561881317,0.0014850719722333,-1.0581446540101e-09,2.1400673476468e-09,-0.00089785813909446,0.00089785914833678,3.3554420418136e-09,-2.3333790274708e-09,-0.0010698565714506,0.0010698583966752,-0.0010698584984122,0.0010698564977673,-0.0010698555014648,0.0010698594599546,-0.001069857428183,0.001069857557958,-0.0008981212248163,0.00089812354038248,-0.00089812435098359,0.0008981204039972,0.64497436656071,128566,2924,0.00373703192358,0.0069757895902334,0.0037370319243087,14.500031381467,-0.00012399974894826,-0.00012399974894826,-0.00012399974894826,4092503.8686136,0.014555968970135
22419200,0.98923584073624,0.01522138155354,0.0042610781500271,0.0066992252523601,0.0042610781511527,-0.00089866043418256,0.00089865967543838,1.2274123378166e-09,-2.0012528215335e-09,5.2362453852132e-09,-6.2088169050819e-09,-0.0010707071679442,0.0010707112769618,-0.001070708250944,0.001070710209523,-0.0010707108279298,0.0010707074914127,-0.0010707119112878,0.0010707064220568,-0.00089895481320173,0.00089895338842676,-0.00089895793035571,0.00089895018173139,-4.2815215296327e-09,7.0853172185402e-09,-1.4003836480643e-09,4.0105886371525e-09,-0.0016817881645283,0.0016817907869791,-0.0018566497620823,0.0018566468474875,-0.0018566480161205,0.0018566486317159,-0.001856646089675,0.0018566505920265,-0.0018566443446214,0.0018566523751918,-0.0014860202033482,0.0014860212789608,-0.0014860149263791,0.0014860265920397,-0.001486024020105,0.0014860173234867,-0.0014860129111089,0.0014860287276824,-1.0796730513691e-09,2.1513811006614e-09,-0.00089865955581785,0.0008986605541942,3.4084345862219e-09,-2.400856880201e-09,-0.0010707082673927,0.0010707101118953,-0.0010707102343289,0.001070708172976,-0.0010707071866154,0.001070711186085,-0.001070709153155,0.0010707092442576,-0.00089895293903399,0.00089895523793668,-0.00089895609697449,0.00089895206884717,0.6713935533279,128566,2924,0.0037403612582619,0.0069799261551471,0.0037403612590822,14.849022854002,-0.00012120781716799,-0.00012120781716799,-0.00012120781716799,4100679.3035901,0.014566921733067
22619200,0.98944351147662,0.015224411040609,0.0042619222010533,0.0067005666373767,0.0042619222021789,-0.00089941883194432,0.00089941807779231,1.2459082767783e-09,-2.0152465462148e-09,5.2164465488206e-09,-6.1836614862686e-09,-0.0010715864830069,0.0010715905925143,-0.0010715875770408,0.0010715895142391,-0.0010715901283544,0.001071586821788,-0.0010715912224406,0.0010715857417385,-0.00089977732856142,0.00089977595442519,-0.0008997804771512,0.000899772716234,-4.25981973449e-09,7.0615188429172e-09,-1.348357988589e-09,3.9566732727004e-09,-0.0016828334224772,0.0016828360430378,-0.0018576980918882,0.001857695225459,-0.0018576963804385,0.0018576969740556,-0.0018576944342544,0.0018576989546278,-0.0018576927235021,0.0018577007023823,-0.0014870293295051,0.0014870304920308,-0.001487024155811,0.0014870357006841,-0.0014870331854359,0.0014870264963974,-0.0014870221199765,0.0014870378549189,-1.0898769519576e-09,2.1739941440916e-09,-0.00089941794967141,0.0008994189604717,3.3596527826784e-09,-2.3386869899889e-09,-0.001071587600444,0.0010715894096049,-0.0010715895307377,0.0010715875073518,-0.0010715865089106,0.0010715904946921,-0.0010715884385621,0.001071588589708,-0.00089977543918598,0.00089977781963976,-0.0008997786293587,0.00089977461797264,0.67880269077435,128566,2924,0.0037435144353234,0.0069842446508812,0.0037435144361746,15.187193437816,-0.00011850245249747,-0.00011850245249747,-0.00011850245249747,4104179.4596695,0.014577703501661
22819200,0.98964872626531,0.015227395037787,0.0042627528638792,0.006701889308903,0.0042627528650047,-0.00089976977215821,0.00089976902637428,1.2668944038669e-09,-2.0281982034404e-09,5.1796357180537e-09,-6.136247971366e-09,-0.0010720604194235,0.0010720645194207,-0.0010720615241402,0.0010720634309625,-0.0010720640363604,0.0010720607775298,-0.0010720651425863,0.0010720596852391,-0.00090019035595444,0.00090018905297543,-0.00090019353951922,0.00090018577776622,-4.2212579252915e-09,7.0191009985767e-09,-1.1434814044868e-09,3.7481850448727e-09,-0.0016834496518853,0.0016834522689308,-0.0018583072394946,0.0018583045310696,-0.0018583056605192,0.0018583061426068,-0.0018583036070797,0.0018583082338501,-0.0018583020305131,0.0018583098427322,-0.0014876197566285,0.001487621297616,-0.0014876149910303,0.0014876260974067,-0.001487623827033,0.0014876170807309,-0.0014876128408746,0.0014876283527091,-1.0882450866464e-09,2.2069135234272e-09,-0.00089976887682358,0.00089976992224615,3.1986423918765e-09,-2.1410004640948e-09,-0.0010720615806963,0.0010720632932953,-0.0010720633909328,0.0010720615111474,-0.0010720604780321,0.0010720643899018,-0.0010720622892986,0.0010720626030334,-0.00090018841276897,0.00090019097439261,-0.0009001916297106,0.00090018774466062,0.67691804229347,128566,2924,0.0037449760645713,0.0069867880868255,0.0037449760656862,15.303586918766,-0.00011757130464987,-0.00011757130464987,-0.00011757130464987,4102929.7550098,0.014583251989934
23019200,0.98985141476574,0.015230128645538,0.0042635049167829,0.0067031188108466,0.0042635049179086,-0.00090009586839305,0.00090009512891561,1.2858190340909e-09,-2.0407859252092e-09,5.1482332460726e-09,-6.0986360860597e-09,-0.0010725027100199,0.0010725068047474,-0.0010725038271422,0.0010725057060948,-0.0010725063054428,0.0010725030854242,-0.0010725074216321,0.0010725019837196,-0.00090057274681504,0.00090057150160503,-0.00090057596077132,0.00090056820018336,-4.1868303889703e-09,6.9812384326051e-09,-9.4833576528745e-10,3.5501688614253e-09,-0.0016840328890782,0.0016840355031352,-0.0018588883810243,0.0018588858232239,-0.0018588869292962,0.0018588873023634,-0.0018588847728281,0.0018588895010046,-0.0018588833218621,0.0018588909792174,-0.0014881750802306,0.0014881769779026,-0.0014881706877436,0.0014881813832629,-0.0014881793588177,0.0014881725483819,-0.0014881684423952,0.0014881837527851,-1.084470033468e-09,2.2445761473516e-09,-0.00090009495483872,0.00090009604289853,3.0053305444795e-09,-1.8971009526218e-09,-0.001072503926293,0.0010725055243506,-0.001072505592717,0.0010725038860744,-0.0010725028132124,0.0010725066314745,-0.0010725044789856,0.0010725049901602,-0.00090057072168521,0.00090057350427883,-0.00090057397506623,0.00090057023861396,0.63260004303834,128566,2924,0.0037463342776541,0.0069891952967057,0.0037463342785509,15.414800373323,-0.00011668159701342,-0.00011668159701342,-0.00011668159701342,4102037.9431003,0.014588452221422
23219200,0.9900515750029,0.015232955038185,0.004264288550366,0.0067043779363275,0.0042642885514917,-0.00090046187207726,0.00090046113790875,1.3046450264146e-09,-2.0543837994483e-09,5.1234937637365e-09,-6.0678998774416e-09,-0.00107286681348,0.0010728709059594,-0.0010728679422893,0.0010728697970025,-0.001072870391092,0.0010728672050988,-0.0010728715180652,0.0010728660929446,-0.00090094070798208,0.0009009395176155,-0.0009009439539726,0.00090093618565643,-4.1601322578152e-09,6.9517801827108e-09,-7.6087620434248e-10,3.3602508727012e-09,-0.0016845159746393,0.0016845185862059,-0.0018594274837647,0.0018594250663394,-0.001859426154015,0.0018594264186369,-0.0018594238937798,0.0018594287251883,-0.001859422564506,0.0018594300768642,-0.0014886145024706,0.0014886167495602,-0.0014886104745737,0.0014886207786467,-0.0014886189893312,0.001488612106385,-0.0014886081268726,0.0014886232552913,-1.0831153242983e-09,2.2788406596618e-09,-0.00090046094295046,0.00090046206742542,2.8347252822061e-09,-1.6849075380061e-09,-0.0010728680802926,0.0010728695756526,-0.0010728696200767,0.0010728680640599,-0.0010728669565284,0.0010728706936541,-0.001072868495236,0.0010728691793287,-0.0009009386132722,0.00090094159016381,-0.00090094189941802,0.0009009382917651,0.65900011293805,128566,2924,0.0037478542673723,0.0069911933856223,0.0037478542681888,15.525825124764,-0.00011579339900188,-0.00011579339900188,-0.00011579339900188,4108010.5766182,0.014593562775187
23419200,0.99025005988683,0.015235726576003,0.0042650554748415,0.0067056156251944,0.0042650554759672,-0.00090092732431923,0.00090092659227997,1.3231103565026e-09,-2.0704257455741e-09,5.1139363329392e-09,-6.0567276445397e-09,-0.001073403905997,0.0010734080037051,-0.0010734050463063,0.0010734068859906,-0.0010734074765346,0.0010734043124497,-0.0010734086152144,0.0010734031863342,-0.00090143954610061,0.0009014384007494,-0.00090144282672042,0.00090143503214533,-4.1525678209623e-09,6.9436742323421e-09,-6.2915238706174e-10,3.2281909169246e-09,-0.0016851921131496,0.0016851947239896,-0.0018601260619177,0.0018601237341788,-0.001860124816233,0.0018601249985283,-0.00186012247602,0.0018601273900144,-0.0018601212334262,0.0018601286504265,-0.0014892522881323,0.0014892547907299,-0.0014892485121039,0.0014892585483019,-0.0014892569345271,0.0014892499823196,-0.0014892460933957,0.0014892611154692,-1.0899656319967e-09,2.3029335010837e-09,-0.00090092638710983,0.00090092752976472,2.746091212269e-09,-1.5733352437921e-09,-0.0010734052060952,0.0010734066409142,-0.0010734066787562,0.0010734051962391,-0.0010734040707646,0.0010734077708338,-0.0010734055453387,0.0010734063209253,-0.00090143741733752,0.00090144050619062,-0.00090144073110825,0.00090143717826992,0.65256369713871,128566,2924,0.0037497894394273,0.0069939871574197,0.003749789440009,15.704525217294,-0.00011436379826165,-0.00011436379826165,-0.00011436379826165,4110624.3206316,0.014600325127831
23619200,0.9904510680401,0.015238601051976,0.0042658538308233,0.0067068933892038,0.004265853831949,-0.00090199380512426,0.00090199306743835,1.3352249019502e-09,-2.0877998189606e-09,5.1304928693947e-09,-6.0828346827818e-09,-0.0010745550800024,0.0010745591992667,-0.0010745562321024,0.0010745580693295,-0.0010745586656643,0.0010745554907057,-0.0010745598138484,0.0010745543587279,-0.00090255613201166,0.00090255499370779,-0.00090255944312224,0.00090255160670271,-4.1691880382261e-09,6.961423112126e-09,-6.8190954130807e-10,3.2824551247785e-09,-0.0016865322226,0.0016865348347864,-0.0018614988110306,0.0018614964400858,-0.001861497531779,0.0018614977380177,-0.0018614952160555,0.0018615001045135,-0.0018614939354937,0.0018615014038168,-0.001490537088569,0.0014905394940673,-0.0014905331893951,0.0014905433489903,-0.0014905416888625,0.0014905347336373,-0.0014905308141032,0.0014905459149111,-1.1078494841444e-09,2.3208696555982e-09,-0.00090199286438835,0.00090199400828106,2.7533023555324e-09,-1.5723655325439e-09,-0.0010745563945735,0.0010745578210675,-0.0010745578714401,0.0010745563722726,-0.0010745552490879,0.0010745589601571,-0.0010745567230901,0.0010745575106344,-0.00090255398761531,0.0009025571117671,-0.00090255734493117,0.0009025537454874,0.66669035335806,128566,2924,0.0037542206350545,0.0069995267496634,0.0037542206353092,16.219279734979,-0.00011024576212017,-0.00011024576212017,-0.00011024576212017,4119573.4204035,0.01461493870618
23819200,0.99065456620916,0.015241675293116,0.0042667140899598,0.0067082471120701,0.0042667140910857,-0.00090306763003589,0.00090306688929192,1.350553226912e-09,-2.1065527639931e-09,5.1500095204189e-09,-6.1029649403162e-09,-0.0010757570119426,0.0010757611511969,-0.001075758173596,0.0010757600100836,-0.0010757606097377,0.0010757574302217,-0.0010757617696424,0.0010757562853426,-0.00090370347389893,0.00090370235395167,-0.00090370681749362,0.00090369892672536,-4.1897918762636e-09,6.9839751880579e-09,-7.2491467306022e-10,3.326639300747e-09,-0.0016879397978368,0.0016879424115602,-0.0018629210427768,0.0018629186298981,-0.0018629197351554,0.0018629199582366,-0.0018629174326843,0.001862922309893,-0.0018629161259539,0.0018629236371998,-0.0014918923211516,0.001491894659996,-0.0014918883558856,0.0014918986138317,-0.0014918968925391,0.0014918899282012,-0.0014918859727896,0.0014919011419709,-1.1299776940325e-09,2.3296715369039e-09,-0.00090306669520753,0.00090306782440247,2.8060462795653e-09,-1.6483190563253e-09,-0.0010757583274533,0.0010757597722133,-0.0010757598455558,0.0010757582822446,-0.0010757571708406,0.0010757609227845,-0.0010757586881889,0.0010757594298711,-0.00090370135406532,0.00090370445092629,-0.00090370473621642,0.00090370105754861,0.70079155812759,128566,2924,0.0037586838816212,0.0070053433899192,0.0037586838822176,16.741899126416,-0.00010606480698867,-0.00010606480698867,-0.00010606480698867,4126187.1487245,0.014629899650694
24019200,0.99086041333405,0.015244822218944,0.0042675954736511,0.0067096312705158,0.0042675954747768,-0.00090410801464716,0.00090410727075399,1.3652608697727e-09,-2.1244579637117e-09,5.1660699620408e-09,-6.1219641775202e-09,-0.0010770147066182,0.001077018865142,-0.0010770158788384,0.0010770177128356,-0.0010770183159223,0.0010770151324655,-0.0010770194865415,0.0010770139765763,-0.00090486406312404,0.00090486296001312,-0.00090486743769056,0.00090485950003615,-4.2067073050383e-09,7.0023241313338e-09,-7.8543693167618e-10,3.3883334585034e-09,-0.0016894315276133,0.0016894341426417,-0.0018643842908143,0.0018643818273854,-0.0018643829437711,0.0018643831970497,-0.0018643806693703,0.0018643855190448,-0.0018643793231072,0.0018643868877882,-0.0014933426871388,0.0014933449184487,-0.0014933386061759,0.0014933489971757,-0.00149334720245,0.001493340245028,-0.0014933362470342,0.0014933514923191,-1.1522132039992e-09,2.3399713666483e-09,-0.00090410708454615,0.00090410820121006,2.8595865293003e-09,-1.7172151008282e-09,-0.0010770160227393,0.0010770174854348,-0.0010770175813484,0.0010770159549548,-0.0010770148552577,0.0010770186468202,-0.0010770164131689,0.0010770171134368,-0.00090486196186493,0.00090486503869107,-0.00090486537561285,0.00090486161331739,0.70866201533639,128566,2924,0.0037630114947371,0.0070115038494746,0.0037630114954831,17.264805172244,-0.00010188155862205,-0.00010188155862205,-0.00010188155862205,4127549.714574,0.014644936506341
24219200,0.9910672224092,0.015247842901944,0.0042684354683344,0.0067109719641494,0.00426843546946,-0.00090495464772984,0.00090495390341981,1.381150068262e-09,-2.1409783696629e-09,5.1730649487054e-09,-6.1271377232072e-09,-0.0010780923245772,0.0010780964967405,-0.0010780935066142,0.0010780953331291,-0.0010780959378513,0.0010780927600537,-0.0010780971185843,0.0010780915927443,-0.00090583594143554,0.00090583486323988,-0.00090583934434647,0.00090583136993109,-4.2133570962446e-09,7.0096384725916e-09,-8.0385730594639e-10,3.4070064627618e-09,-0.0016907447752259,0.0016907473908104,-0.0018656618528036,0.0018656593728338,-0.0018656604939049,0.0018656607556817,-0.0018656582266571,0.0018656630692605,-0.0018656568685898,0.0018656644506037,-0.0014946194512095,0.0014946216507114,-0.001494615344224,0.0014946257775507,-0.0014946239523112,0.0014946169941928,-0.0014946129777835,0.0014946282479556,-1.1736407578194e-09,2.3512054073471e-09,-0.00090495372301192,0.00090495482851274,2.898549029905e-09,-1.7732964198453e-09,-0.0010780936422148,0.0010780951155596,-0.0010780952320092,0.0010780935538813,-0.0010780924636539,0.0010780962881093,-0.0010780940531743,0.001078094723206,-0.00090583385708288,0.00090583692598563,-0.00090583730216206,0.00090583346820595,0.6801006427059,128566,2924,0.0037665352882069,0.007016924980816,0.0037665352889808,17.692612443234,-9.8459100454129e-05,-9.8459100454129e-05,-9.8459100454129e-05,4126623.5747882,0.014657592287275
24419200,0.99127182520861,0.015250828261789,0.0042692654905944,0.0067122972794749,0.00426926549172,-0.00090540141049844,0.0009054006679586,1.3983862227773e-09,-2.1564321251252e-09,5.1629766183969e-09,-6.115863333485e-09,-0.001078672791676,0.0010786769698925,-0.0010786739853124,0.0010786757955044,-0.0010786763981231,0.0010786732402042,-0.0010786775899182,0.0010786720622821,-0.00090635643763524,0.0009063554009206,-0.00090635987299326,0.00090635187561135,-4.2026552692958e-09,6.9977693268917e-09,-7.8568828452693e-10,3.3878728335752e-09,-0.0016915174037478,0.0016915200182165,-0.0018664376818712,0.0018664352200446,-0.0018664363345975,0.0018664365908898,-0.0018664340632006,0.0018664389086435,-0.0018664327165832,0.0018664402786067,-0.0014953535003889,0.0014953557271554,-0.0014953494257004,0.0014953598143823,-0.0014953580095295,0.0014953510600259,-0.0014953470593214,0.0014953622947526,-1.1857289557447e-09,2.3716030390324e-09,-0.00090540048257905,0.00090540159638897,2.8627551815002e-09,-1.7268137634679e-09,-0.0010786741274671,0.0010786755707185,-0.0010786756901965,0.0010786740360814,-0.0010786729383694,0.0010786767538671,-0.001078674500401,0.0010786752163829,-0.00090635434072124,0.00090635747704711,-0.00090635781752118,0.00090635398703477,0.67934590559426,128566,2924,0.0037683956671063,0.0070201139162569,0.003768395668167,17.884942804646,-9.6920457562829e-05,-9.6920457562829e-05,-9.6920457562829e-05,4126606.907311,0.014664605149104
24619200,0.99147411362297,0.015253924800603,0.0042701324320964,0.0067136599352846,0.0042701324332219,-0.00090585064695626,0.00090584990624757,1.4155041876864e-09,-2.1716310816089e-09,5.1537478290819e-09,-6.1050166502555e-09,-0.0010792378109471,0.0010792419953455,-0.0010792390158123,0.0010792408101896,-0.0010792414109551,0.001079238272073,-0.0010792426135724,0.0010792370838587,-0.00090687332727094,0.00090687233083134,-0.0009068767953553,0.00090686877553577,-4.1925107211459e-09,6.9863078603258e-09,-7.6878365124599e-10,3.3698947331467e-09,-0.0016922711768449,0.0016922737902338,-0.0018671966586056,0.0018671942150521,-0.0018671953232023,0.0018671955734011,-0.0018671930471289,0.0018671978962218,-0.0018671917119601,0.0018671992541641,-0.0014960696997802,0.0014960719524874,-0.0014960656559946,0.0014960760020548,-0.001496074218909,0.0014960672770926,-0.0014960632897479,0.0014960784922174,-1.1995906889363e-09,2.3906622680324e-09,-0.00090584971703016,0.00090585083654356,2.8370153073062e-09,-1.693221909141e-09,-0.0010792391623118,0.0010792405805749,-0.0010792407057339,0.0010792390652575,-0.0010792379625064,0.0010792417744355,-0.0010792395046835,0.0010792402567397,-0.00090687122139934,0.00090687441457175,-0.00090687473147951,0.00090687089202582,0.70944459212657,128566,2924,0.0037702657367066,0.0070232256925002,0.0037702657374793,18.071747623514,-9.5426019011888e-05,-9.5426019011888e-05,-9.5426019011888e-05,4126863.4096778,0.014671559162171
24819200,0.99167405153071,0.01525675469328,0.004270915201378,0.0067149242893985,0.0042709152025036,-0.00090626142376932,0.00090626068433896,1.4323839847738e-09,-2.1872360247436e-09,5.1457682109843e-09,-6.0960848328811e-09,-0.0010798379765887,0.0010798421676338,-0.0010798391923395,0.0010798409717138,-0.0010798415710451,0.0010798384499453,-0.0010798427845915,0.001079837251036,-0.00090738056558893,0.00090737960803252,-0.00090738406592951,0.00090737602127906,-4.1845369659151e-09,6.977582364119e-09,-7.5190844506608e-10,3.3524169396107e-09,-0.0016930733167904,0.0016930759294787,-0.0018679680867848,0.0018679656596294,-0.001867966762741,0.0018679670059973,-0.0018679644807078,0.0018679693352663,-0.0018679631569007,0.0018679706812253,-0.0014968440861398,0.0014968463668652,-0.0014968400739463,0.001496850379789,-0.0014968486164681,0.0014968416790503,-0.0014968377045324,0.0014968528788281,-1.2148592475953e-09,2.4080942370266e-09,-0.00090626049329431,0.00090626161517244,2.8257814042002e-09,-1.6783357192192e-09,-0.0010798393400282,0.0010798407407178,-0.0010798408748239,0.0010798392340963,-0.0010798381293461,0.0010798419454663,-0.0010798396628295,0.0010798404364635,-0.00090737845794062,0.00090738169348466,-0.00090738200021321,0.00090737813897363,0.66112228273648,128566,2924,0.0037719784439012,0.0070265343788368,0.0037719784446519,18.25835096464,-9.3933192282877e-05,-9.3933192282877e-05,-9.3933192282877e-05,4122913.627222,0.014678395508047
25019200,0.99187388690322,0.01525954868879,0.0042716869067792,0.006716174874106,0.0042716869079047,-0.00090703297558581,0.00090703223479318,1.4476863634327e-09,-2.2035730704577e-09,5.1499777882706e-09,-6.1032103257316e-09,-0.001080691857798,0.0010806960623406,-0.0010806930845726,0.0010806948556178,-0.0010806954560854,0.0010806923403581,-0.0010806966799702,0.0010806911314148,-0.0009082006972489,0.00090819976594276,-0.00090820422954479,0.00090819615098198,-4.1883004107092e-09,6.9817469094832e-09,-8.0698612495135e-10,3.4081007341561e-09,-0.0016941333402091,0.0016941359530331,-0.0018690627312876,0.0018690602651904,-0.0018690613718306,0.0018690616477069,-0.0018690591231873,0.0018690639432952,-0.0018690577630721,0.0018690653260001,-0.001497850086375,0.0014978522600531,-0.0014978459563801,0.0014978563772818,-0.0014978545493622,0.001497847640962,-0.0014978436321454,0.0014978588551562,-1.2347721445659e-09,2.4218116940279e-09,-0.00090703204714418,0.00090703316346257,2.8558193647081e-09,-1.7114252056669e-09,-0.0010806932257298,0.0010806946305451,-0.0010806947819033,0.0010806931022051,-0.0010806920040941,0.0010806958460118,-0.0010806935581234,0.0010806943161038,-0.00090819859864222,0.00090820184053707,-0.00090820217590881,0.00090819825198856,0.65362538168731,128566,2924,0.0037751854876031,0.0070309143795628,0.0037751854880918,18.629942379804,-9.0960460961571e-05,-9.0960460961571e-05,-9.0960460961571e-05,4129530.6301111,0.014689348672075
25219200,0.99207683987502,0.015262487143798,0.0042725028932157,0.0067174813562418,0.004272502894341,-0.00090830096483404,0.00090830021982324,1.462181084208e-09,-2.2219937114587e-09,5.1640996599399e-09,-6.124437359025e-09,-0.0010820420008003,0.0010820462245641,-0.0010820432384367,0.0010820450069642,-0.001082045610537,0.0010820424909193,-0.0010820468460041,0.0010820412715222,-0.00090952158991403,0.00090952067693861,-0.00090952515718951,0.00090951703125329,-4.2057435801853e-09,7.0006321604341e-09,-9.0617845881129e-10,3.5088776230207e-09,-0.0016957237846423,0.0016957263992021,-0.0018707006690716,0.0018706981281741,-0.0018706992455394,0.001870699576689,-0.0018706970491745,0.0018707018185854,-0.001870695625295,0.0018707032674315,-0.0014993708712637,0.0014993728641918,-0.0014993665413099,0.0014993771682759,-0.0014993752302741,0.0014993683525081,-0.001499364281242,0.0014993796074925,-1.260606158463e-09,2.4284082865318e-09,-0.00090830004362913,0.00090830114110532,2.9545549929025e-09,-1.8269200284887e-09,-0.0010820433574606,0.0010820448033356,-0.0010820449848282,0.001082043204255,-0.0010820421248337,0.0010820460294325,-0.0010820437500519,0.0010820444288576,-0.00090951952910746,0.00090952271054338,-0.00090952313994413,0.00090951909160259,0.67454674259488,128566,2924,0.003780453535016,0.0070374886733111,0.0037804535352047,19.270977050367,-8.5832183597067e-05,-8.5832183597067e-05,-8.5832183597067e-05,4141572.8294731,0.014706711272104
25419200,0.99228278957864,0.015265728855161,0.00427341335532,0.006718902143395,0.0042734133564458,-0.00090957663650362,0.0009095758898681,1.4777443094956e-09,-2.2394193419237e-09,5.1767607032144e-09,-6.1365622169719e-09,-0.0010834575476891,0.0010834617884275,-0.0010834587953147,0.0010834605590594,-0.0010834611653139,0.001083458046417,-0.0010834624114446,0.0010834568154251,-0.00091088139387868,0.00091088050211186,-0.00091088499045925,0.0009108768208907,-4.2181078629355e-09,7.0143437972001e-09,-9.7986207341567e-10,3.5833073763605e-09,-0.0016973975316322,0.0016974001470846,-0.001872394415277,0.0018723918175557,-0.001872392943938,0.0018723933166083,-0.0018723907867032,0.0018723955167572,-0.0018723893153258,0.0018723970157587,-0.0015009801792733,0.0015009820356343,-0.0015009757177784,0.0015009865006496,-0.0015009844576825,0.0015009776049455,-0.0015009734795949,0.001500988879252,-1.2841975582638e-09,2.4368036572961e-09,-0.00090957572287285,0.00090957680375044,3.0231766612047e-09,-1.9201045357522e-09,-0.0010834588988811,0.0010834603726378,-0.0010834605793597,0.0010834587204098,-0.0010834576554877,0.0010834616096566,-0.0010834593342851,0.0010834599554775,-0.00091087936328629,0.00091088250873504,-0.00091088300300397,0.00091087885859573,0.727891906256,128566,2924,0.0037857555418294,0.0070444049096378,0.0037857555423626,19.918357590732,-8.0653139274142e-05,-8.0653139274142e-05,-8.0653139274142e-05,4150123.4490886,0.014724491564975
25619200,0.99249151925506,0.015269034690635,0.0042743416141554,0.0067203514611982,0.004274341615281,-0.00091079939777609,0.00091079864997488,1.4933541920913e-09,-2.2562937666779e-09,5.1841312832504e-09,-6.1445957268184e-09,-0.0010849588777203,0.0010849631331633,-0.0010849601359709,0.0010849618926999,-0.0010849625004735,0.0010849593859827,-0.0010849637571004,0.0010849581439291,-0.00091225920224042,0.00091225833521396,-0.00091226282903853,0.00091225462120383,-4.2256626995522e-09,7.0223356243494e-09,-1.0313790930179e-09,3.6350940773712e-09,-0.0016991974143191,0.0016992000301721,-0.0018741461682616,0.0018741435318604,-0.0018741446637906,0.0018741450657932,-0.0018741425347143,0.0018741472362312,-0.001874141030126,0.0018741487701476,-0.0015027331882096,0.0015027349482144,-0.001502728629575,0.0015027395195296,-0.0015027374100282,0.0015027305763113,-0.0015027264152723,0.0015027418645469,-1.3047859580688e-09,2.4488594303857e-09,-0.00091079848822833,0.0009107995598673,3.0691090571191e-09,-1.9779845110219e-09,-0.0010849602286602,0.0010849617175761,-0.0010849619435293,0.0010849600308551,-0.0010849589744488,0.0010849629654834,-0.0010849606876301,0.0010849612768964,-0.00091225718915513,0.00091226032487612,-0.00091226086051611,0.00091225664220801,0.73243474464071,128566,2924,0.0037908428282068,0.0070518362651616,0.003790842828931,20.565961201502,-7.5472310387982e-05,-7.5472310387982e-05,-7.5472310387982e-05,4150569.6681994,0.014742362421064
25819200,0.99269761344339,0.015272207229504,0.0042752283689213,0.0067217504905354,0.0042752283700468,-0.00091127307787324,0.00091127233471519,1.5103068343982e-09,-2.269208066292e-09,5.1670110867037e-09,-6.1193637486086e-09,-0.0010856905787565,0.0010856948356282,-0.001085691848098,0.0010856935836786,-0.0010856941895785,0.0010856911016107,-0.0010856954545271,0.0010856898506947,-0.00091287013790617,0.00091286931281686,-0.0009128737862329,0.0009128655688985,-4.2053461483265e-09,6.9999370060824e-09,-9.0520381282135e-10,3.5065153894206e-09,-0.0017001834360606,0.0017001860505438,-0.0018750783811553,0.0018750758440245,-0.0018750769608499,0.0018750772922624,-0.0018750747622807,0.001875079532399,-0.0018750733396347,0.0018750809835262,-0.0015036893571412,0.001503691346923,-0.0015036850607062,0.0015036956843487,-0.0015036937174111,0.0015036868332973,-0.0015036827537075,0.0015036980709705,-1.3169099482683e-09,2.4718406190481e-09,-0.00091127216597294,0.00091127324717261,3.0131330887936e-09,-1.9183616974855e-09,-0.0010856919496392,0.0010856934009701,-0.0010856936278607,0.0010856917518972,-0.0010856906852771,0.0010856946595349,-0.0010856923593312,0.0010856930110405,-0.00091286810399554,0.00091287132642106,-0.0009128718108716,0.00091286760647485,0.71386318728427,128566,2924,0.0037928196141338,0.0070559015689231,0.0037928196152783,20.805059638177,-7.3559522894584e-05,-7.3559522894584e-05,-7.3559522894584e-05,4144237.8022477,0.014750504219339
26019200,0.9928965077635,0.015275141916305,0.004276043581653,0.0067230547518739,0.0042760435827783,-0.00091109894176933,0.00091109820669329,1.5315987339508e-09,-2.2825226661986e-09,5.1369914535586e-09,-6.0778192709109e-09,-0.001085683304012,0.0010856875542104,-0.0010856845844686,0.0010856862926316,-0.0010856868899815,0.001085683845226,-0.0010856881670112,0.0010856825804576,-0.00091278051568682,0.00091277975845754,-0.00091278419970738,0.00091277597604368,-4.1698795702179e-09,6.9613760292114e-09,-7.7227280041959e-10,3.3706122929905e-09,-0.0017003635851532,0.0017003661955812,-0.0018752299650549,0.0018752275309278,-0.0018752286278992,0.0018752288927452,-0.0018752263686641,0.001875231196058,-0.0018752250318131,0.0018752325575994,-0.0015038487296166,0.0015038509561126,-0.0015038446985175,0.0015038550344712,-0.0015038532121196,0.001503846315668,-0.0015038423224617,0.0015038574758606,-1.3113158635406e-09,2.5080581005379e-09,-0.00091109801297672,0.00091109913614858,2.8053452595398e-09,-1.6670419409652e-09,-0.0010856847334605,0.0010856860622535,-0.0010856862572827,0.0010856845659181,-0.0010856834578729,0.0010856873325589,-0.0010856849803247,0.0010856858340186,-0.00091277840564293,0.00091278185206314,-0.00091278213596056,0.00091277810344331,0.68688291297231,128566,2924,0.0037921036829102,0.007056637492827,0.0037921036842641,20.675731923308,-7.4594144613536e-05,-7.4594144613536e-05,-7.4594144613536e-05,4135379.7128895,0.014749800390429
26219200,0.99308839035835,0.015278149537029,0.0042768868863937,0.0067243757631171,0.0042768868875185,-0.00091094737341438,0.00091094664009343,1.5491863795629e-09,-2.2981003678639e-09,5.1173256812885e-09,-6.0603315401491e-09,-0.001085606424627,0.0010856106764841,-0.0010856077168631,0.0010856094045954,-0.0010856099984229,0.0010856069797739,-0.0010856112876307,0.001085605705475,-0.00091267380373405,0.00091267309519113,-0.0009126775262553,0.00091266928630611,-4.1533543047593e-09,6.9427289973948e-09,-6.4054496079114e-10,3.2376393588106e-09,-0.0017004474343527,0.0017004500436452,-0.0018753212744542,0.0018753189408323,-0.0018753200245793,0.001875320210839,-0.001875317689739,0.001875322594059,-0.0018753164395498,0.0018753238641877,-0.0015039055765004,0.0015039080534514,-0.0015039017848163,0.0015039118438653,-0.0015039102105564,0.0015039032588687,-0.0015038993610749,0.0015039143929493,-1.3177498040083e-09,2.5341080167455e-09,-0.00091094643450421,0.00091094757944825,2.7192520096e-09,-1.5466146079734e-09,-0.0010856078848104,0.0010856091532543,-0.0010856093410226,0.0010856077253535,-0.0010856065983309,0.0010856104340777,-0.001085608052472,0.0010856090043491,-0.00091267165795367,0.00091267522027709,-0.00091267542464136,0.00091267144067495,0.72524660768977,128566,2924,0.0037914783385381,0.0070569792357232,0.0037914783394671,20.537672946418,-7.5698616428658e-05,-7.5698616428658e-05,-7.5698616428658e-05,4130974.9566745,0.014748878324226
26419200,0.99327354484614,0.01528113824705,0.0042777280815316,0.0067256820828613,0.0042777280826566,-0.00091077261533285,0.00091077188336502,1.5662204959489e-09,-2.3137921321112e-09,5.1092417794226e-09,-6.0507551515835e-09,-0.0010855867829503,0.0010855910412147,-0.0010855880864976,0.0010855897588015,-0.0010855903511153,0.0010855873504679,-0.0010855916512693,0.0010855860653677,-0.00091258355338433,0.00091258288401535,-0.00091258730839868,0.00091257904367719,-4.1450600074385e-09,6.9335268551022e-09,-5.6076706412759e-10,3.1570774348632e-09,-0.0017005980904873,0.001700600698981,-0.0018754314249519,0.0018754291486102,-0.0018754302260944,0.0018754303650664,-0.0018754278459462,0.001875432795964,-0.0018754266467615,0.0018754340126313,-0.0015040459422314,0.0015040485699188,-0.0015040423049197,0.0015040522000822,-0.0015040506688196,0.0015040436805641,-0.0015040398363605,0.0015040547973237,-1.3278545413229e-09,2.5566547285716e-09,-0.00091077167053071,0.0009107728285227,2.6504969333145e-09,-1.4625170703041e-09,-0.0010855882711161,0.0010855894902679,-0.0010855896766621,0.0010855881130212,-0.0010855869738221,0.00108559078196,-0.0010855883772108,0.0010855894029344,-0.00091258137975212,0.00091258503686628,-0.00091258517859796,0.00091258122519728,0.7450275512395,128566,2924,0.0037907593585273,0.007057593861108,0.0037907593592703,20.399294879201,-7.6805640966394e-05,-7.6805640966394e-05,-7.6805640966394e-05,4121379.9131452,0.014748045366827
26619200,0.99345631522444,0.015284060392241,0.0042785494346913,0.0067269615217333,0.0042785494358162,-0.00091122506606189,0.00091122432824498,1.5809354697603e-09,-2.3337450300575e-09,5.1246394420787e-09,-6.0776401065901e-09,-0.0010862661483803,0.0010862704267482,-0.0010862674630367,0.0010862691343164,-0.0010862697290691,0.0010862667227509,-0.0010862710429841,0.0010862654262721,-0.00091316610339476,0.00091316545531711,-0.00091316990218832,0.00091316158298695,-4.1659937603973e-09,6.9560842250488e-09,-6.4343694832526e-10,3.2419801154976e-09,-0.0017015136727141,0.0017015162830601,-0.0018762864167379,0.0018762840718148,-0.0018762851620198,0.0018762853445221,-0.001876282823006,0.0018762877347198,-0.0018762815698079,0.0018762890060633,-0.0015049440180977,0.001504946502466,-0.0015049401991958,0.0015049502708976,-0.0015049486656002,0.001504941694682,-0.0015049378027709,0.0015049528651153,-1.3483550976442e-09,2.567193291168e-09,-0.00091122412233241,0.00091122527209903,2.7057962550465e-09,-1.5162259252441e-09,-0.0010862676390316,0.0010862688723397,-0.0010862690798249,0.0010862674599836,-0.0010862663301404,0.0010862701748671,-0.0010862677703311,0.0010862687591111,-0.00091316394850775,0.0009131675839762,-0.00091316777875262,0.00091316374623656,0.73848439681542,128566,2924,0.0037926471051063,0.0070613688058694,0.003792647105402,20.629902281649,-7.4960781746809e-05,-7.4960781746809e-05,-7.4960781746809e-05,4115654.7927341,0.014755711292573
26819200,0.9936389062732,0.015286905007511,0.0042793460364911,0.0067282129334039,0.0042793460376164,-0.00091203336208855,0.00091203261799933,1.5924925111675e-09,-2.3518343509154e-09,5.1540668289801e-09,-6.112931800159e-09,-0.0010873033189304,0.0010873076248468,-0.0010873046447365,0.0010873063196117,-0.0010873069232336,0.0010873038971641,-0.0010873082453776,0.0010873025935674,-0.00091410720750674,0.00091410655462039,-0.00091411102882188,0.00091410265688007,-4.1958682250471e-09,6.9888287948424e-09,-7.5621707849911e-10,3.356990195195e-09,-0.0017028185959173,0.0017028212096485,-0.0018775444515827,0.0018775420193966,-0.0018775431265843,0.001877543366143,-0.0018775408395513,0.0018775457006039,-0.001877539512117,0.0018775470509807,-0.0015062184652071,0.0015062207448693,-0.0015062144357634,0.0015062247537875,-0.0015062230088615,0.0015062160452443,-0.0015062120748524,0.0015062272751836,-1.380846862624e-09,2.5703274545207e-09,-0.00091203243049121,0.00091203354968383,2.8430627213854e-09,-1.6922118265655e-09,-0.0010873047904312,0.0010873060893696,-0.001087306337553,0.0010873045721337,-0.0010873034717825,0.0010873074015159,-0.0010873050140574,0.0010873058851024,-0.00091410509763682,0.00091410863871494,-0.00091410896775257,0.00091410476270705,0.72121904819004,128566,2924,0.0037960123567898,0.0070667538866602,0.0037960123569949,21.064613922025,-7.1483088623799e-05,-7.1483088623799e-05,-7.1483088623799e-05,4114924.1846515,0.014768009565586
27019200,0.9938212167077,0.015289663095591,0.0042801150321171,0.0067294330302314,0.0042801150332421,-0.00091285879142155,0.00091285804433296,1.6076219849357e-09,-2.369868331958e-09,5.1768866494881e-09,-6.1368229118902e-09,-0.0010883145863354,0.0010883189140339,-0.0010883159217994,0.0010883175978733,-0.0010883182050954,0.0010883151715578,-0.0010883195372736,0.0010883138543443,-0.00091504065188946,0.00091504001270626,-0.00091504450151845,0.00091503607739235,-4.2183473077383e-09,7.0138040846291e-09,-8.7793945796397e-10,3.4805614372372e-09,-0.0017040908123194,0.0017040934270826,-0.0018787966158831,0.0018787940849198,-0.0018787952102988,0.001878795515724,-0.001878792987863,0.0018787977834553,-0.0018787915812863,0.0018787992153633,-0.0015074502774022,0.0015074523320493,-0.0015074460149594,0.0015074565966787,-0.0015074546888289,0.0015074477656511,-0.0015074437081099,0.0015074590397882,-1.407775875803e-09,2.575439451196e-09,-0.00091285786998257,0.0009128589660647,2.9388120745731e-09,-1.8188812961584e-09,-0.0010883160482181,0.0010883173882035,-0.0010883176676397,0.001088315797065,-0.0010883147180585,0.0010883187119919,-0.0010883163346189,0.001088317120131,-0.00091503858021445,0.00091504206060542,-0.00091504247805775,0.00091503815232038,0.70228505413633,128566,2924,0.0037994471784312,0.0070720056425525,0.0037994471790497,21.50420511779,-6.7966359057677e-05,-6.7966359057677e-05,-6.7966359057677e-05,4117191.5210721,0.01478031268818
27219200,0.99400308856828,0.015292326183971,0.0042808538469476,0.0067306184889509,0.0042808538480726,-0.00091369911687415,0.00091369836647453,1.6225588799473e-09,-2.3881832787603e-09,5.1924292237834e-09,-6.1560212350122e-09,-0.0010892902281828,0.0010892945751442,-0.0010892915740247,0.0010892932477019,-0.0010892938578847,0.0010892908212502,-0.0010892952013861,0.0010892894925927,-0.00091596028944669,0.00091595966854422,-0.00091596417132286,0.00091595569894784,-4.2351068709804e-09,7.0319672418748e-09,-9.7899888960888e-10,3.5827706859325e-09,-0.0017053139381557,0.0017053165541391,-0.0018800279923816,0.0018800253842075,-0.0018800265214222,0.0018800268833218,-0.0018800243528794,0.0018800290948009,-0.0018800228814828,0.001880030594421,-0.0015086229712088,0.0015086248395563,-0.0015086185137716,0.0015086293074085,-0.0015086272730612,0.0015086203847791,-0.0015086162591143,0.001508631692916,-1.4320744714259e-09,2.5832684992855e-09,-0.00091369820245313,0.00091369928131456,3.0226190493276e-09,-1.9229615997356e-09,-0.0010892916820026,0.0010892930569359,-0.0010892933634336,0.0010892914037962,-0.0010892903408525,0.0010892943917239,-0.0010892920200384,0.001089292737272,-0.00091595825092017,0.00091596168410587,-0.00091596217899217,0.00091595774483261,0.68191772209435,128566,2924,0.0038029419491456,0.0070770568061069,0.0038029419500251,21.943974997575,-6.44482000194e-05,-6.44482000194e-05,-6.44482000194e-05,4122370.4997832,0.014792532855752
27419200,0.99418293372069,0.015295046133061,0.0042816121168029,0.0067318218983304,0.0042816121179278,-0.00091433292570788,0.00091433217721597,1.6399247210946e-09,-2.4034793729425e-09,5.1897386270951e-09,-6.1497619024953e-09,-0.0010899925074883,0.0010899968637672,-0.0010899938643611,0.0010899955251815,-0.0010899961346295,0.0010899931130184,-0.0010899974879894,0.0010899917727557,-0.0009166368041292,0.00091663621802879,-0.00091664071432087,0.00091663221615898,-4.2315823175355e-09,7.0281361229128e-09,-9.8306528785379e-10,3.5863334603275e-09,-0.0017062286642917,0.0017062312796461,-0.0018809790626836,0.0018809764539949,-0.0018809775902011,0.001880977955239,-0.0018809754257732,0.0018809801622741,-0.0018809739524461,0.0018809816639698,-0.0015094826840126,0.0015094845396809,-0.0015094782219291,0.0015094890226295,-0.0015094869751818,0.0015094800956741,-0.0015094759662333,0.001509491394893,-1.4505932988613e-09,2.5973842263157e-09,-0.0009143320146763,0.00091433308864972,3.0389489592836e-09,-1.9476197529955e-09,-0.001089993966458,0.0010899953406821,-0.0010899956617585,0.0010899936733322,-0.0010899926146538,0.0010899966863667,-0.0010899943076211,0.0010899950180078,-0.00091663477493298,0.00091663822490674,-0.00091663873506435,0.00091663425154949,0.70214878014479,128566,2924,0.0038055769178463,0.0070808356215417,0.0038055769186824,22.252223516325,-6.1982211869397e-05,-6.1982211869397e-05,-6.1982211869397e-05,4128298.5892577,0.014801715432511
27619200,0.99436022489901,0.01529777040408,0.0042823731314033,0.0067330241401483,0.0042823731325282,-0.0009148832420481,0.00091488249567651,1.6572438355498e-09,-2.418785788866e-09,5.1775777132902e-09,-6.1357097443967e-09,-0.0010906534991466,0.0010906578598686,-0.0010906548665702,0.0010906565104413,-0.0010906571172038,0.0010906541175445,-0.0010906584823878,0.0010906527670843,-0.00091724915991897,0.00091724861803109,-0.00091725310519048,0.00091724458449921,-4.2184396614464e-09,7.0135333243712e-09,-9.5991060527227e-10,3.5619608359533e-09,-0.0017070996427069,0.0017071022570706,-0.0018818603605124,0.0018818577752719,-0.0018818589026119,0.0018818592614931,-0.0018818567322775,0.0018818614740114,-0.00188185527391,0.0018818629606783,-0.001510307399594,0.0015103092932654,-0.0015103029839784,0.001510313725836,-0.0015103117049452,0.0015103048363532,-0.0015103007233873,0.0015103161072915,-1.462604720472e-09,2.6181179325723e-09,-0.00091488232762516,0.00091488341048758,3.0043650936498e-09,-1.9020217043514e-09,-0.0010906549749895,0.0010906563197071,-0.0010906566434321,0.0010906546796124,-0.0010906536121106,0.0010906576763559,-0.0010906552782835,0.0010906560348572,-0.00091724712010193,0.00091725063511427,-0.0009172511121231,0.00091724663183537,0.71252806738342,128566,2924,0.0038078666203163,0.0070844317789768,0.003807866621128,22.519217728034,-5.9846258175731e-05,-5.9846258175731e-05,-5.9846258175731e-05,4130334.7779715,0.014810013278925
27819200,0.99453489294675,0.01530050095476,0.0042831376246765,0.0067342257042823,0.0042831376258014,-0.0009154225181062,0.00091542177458541,1.6750317710836e-09,-2.4337333330648e-09,5.1640321238817e-09,-6.1192765903006e-09,-0.0010913282688175,0.001091332633404,-0.0010913296474498,0.0010913312732456,-0.0010913318771642,0.0010913289010211,-0.0010913332531838,0.001091327539757,-0.00091786442632824,0.00091786392917916,-0.00091786840401974,0.00091785986434061,-4.2043615574051e-09,6.9979864176715e-09,-9.1241381361959e-10,3.5132198470158e-09,-0.0017079870296828,0.0017079896427437,-0.0018827452760587,0.0018827427313202,-0.0018827438495731,0.0018827441847242,-0.0018827416574837,0.0018827464200775,-0.0018827402303333,0.0018827478741099,-0.0015111514878351,0.0015111534652132,-0.0015111471635975,0.0015111577997371,-0.0015111558367326,0.0015111489640661,-0.001511144884313,0.0015111602065116,-1.4746329973767e-09,2.6387228650125e-09,-0.00091542160061342,0.00091542269242215,2.9659858283159e-09,-1.8526521410071e-09,-0.0010913297623269,0.0010913310756804,-0.0010913314018251,0.0010913294644801,-0.0010913283886964,0.00109133244314,-0.0010913300257204,0.001091330830722,-0.0009178623739407,0.0009178659583939,-0.00091786639842622,0.00091786192287173,0.7238335604421,128566,2924,0.0038101114459032,0.0070880945774827,0.0038101114466254,22.785206692587,-5.7718346459305e-05,-5.7718346459305e-05,-5.7718346459305e-05,4130778.358221,0.014818288394431
28019200,0.99470688199722,0.015303239587565,0.0042839061760918,0.0067354272342559,0.0042839061772167,-0.00091595067859025,0.00091594993760992,1.6926093354338e-09,-2.4488218035822e-09,5.15179896092e-09,-6.1042450413865e-09,-0.0010920176331973,0.0010920220020577,-0.0010920190228898,0.0010920206312959,-0.0010920212326128,0.001092018278848,-0.0010920226196636,0.0010920169067334,-0.00091848349131044,0.00091848303783981,-0.00091848750153414,0.0009184789411663,-4.1911795015196e-09,6.9834688347619e-09,-8.6590155624301e-10,3.4655367708776e-09,-0.0017088945093349,0.0017088971212048,-0.0018836367541284,0.001883634248147,-0.0018836353578084,0.0018836356700902,-0.0018836331444077,0.0018836379276672,-0.0018836317475475,0.0018836393501302,-0.0015120193749927,0.001512021434768,-0.0015120151417015,0.0015120256747393,-0.001512023766835,0.0015120168892803,-0.0015120128416763,0.0015120281040781,-1.4861453953555e-09,2.6598945106933e-09,-0.00091594975740172,0.0009159508591282,2.9211089607734e-09,-1.7963227278053e-09,-0.0010920191464502,0.0010920204247757,-0.0010920207523761,0.0010920188472127,-0.001092017761922,0.0010920218032244,-0.0010920193654434,0.0010920202243013,-0.00091848142348846,0.0009184850826837,-0.00091848547980211,0.00091848101531464,0.73612509340433,128566,2924,0.0038123111180574,0.0070918391653351,0.0038123111187503,23.051158667038,-5.5590730663694e-05,-5.5590730663694e-05,-5.5590730663694e-05,4129686.0316602,0.014826555556667
28219200,0.99487547396469,0.015305977393647,0.0042846763404537,0.0067366247116151,0.0042846763415785,-0.00091634902734728,0.00091634828889993,1.7100037440594e-09,-2.4638515769998e-09,5.1410632443759e-09,-6.0897617712228e-09,-0.001092597457387,0.0010926018310723,-0.0010925988581093,0.0010926004494851,-0.001092601048768,0.0010925981161811,-0.0010926024463664,0.00109259673326,-0.00091898385523683,0.00091898344320592,-0.00091898789589216,0.00091897931449147,-4.1789904548867e-09,6.9700795042085e-09,-8.0548822294652e-10,3.4039113247867e-09,-0.0017096900198267,0.0017096926305421,-0.0018844014918964,0.001884399033397,-0.001884400135105,0.0018844004144085,-0.0018843978904622,0.0018844027042147,-0.0018843965329082,0.001884404085935,-0.0015127827870517,0.0015127849565152,-0.0015127786754312,0.0015127890795256,-0.0015127872409875,0.0015127803468772,-0.001512776338747,0.0015127915342002,-1.4972480534233e-09,2.6816331455704e-09,-0.00091634810217377,0.00091634921445687,2.867166782817e-09,-1.7322000818901e-09,-0.0010925989929611,0.0010926002318228,-0.0010926005598518,0.0010925986932993,-0.0010925975976947,0.001092601621208,-0.0010925991619724,0.0010926000814743,-0.00091898176755307,0.00091898550935032,-0.00091898585558192,0.0009189814091436,0.74948916817345,128566,2924,0.0038139726575728,0.0070951195188011,0.0038139726583714,23.250970591292,-5.3992235269664e-05,-5.3992235269664e-05,-5.3992235269664e-05,4126026.5053171,0.014833259888975
28419200,0.99504057673755,0.015308715394383,0.0042854485036981,0.0067378183858623,0.0042854485048228,-0.00091671726596782,0.00091671652881916,1.7270673351387e-09,-2.4796305761211e-09,5.1339215804055e-09,-6.0812780722469e-09,-0.0010931704663516,0.0010931748469376,-0.001093171878158,0.0010931734547474,-0.001093174052581,0.0010931711374081,-0.0010931754613173,0.0010931697435651,-0.00091946815958231,0.00091946778654512,-0.00091947223330614,0.00091946362605714,-4.1716128615024e-09,6.9618833881825e-09,-7.5842174708917e-10,3.3561729285737e-09,-0.0017104860876326,0.0017104886976816,-0.0018851514753764,0.001885149052365,-0.0018851501489135,0.0018851504017145,-0.0018851478788068,0.0018851527180216,-0.0018851465517706,0.0018851540679015,-0.0015135528175813,0.0015135550746894,-0.0015135487969011,0.0015135591015977,-0.0015135573233845,0.0015135504127021,-0.0015135464365646,0.0015135615844936,-1.5091081002173e-09,2.7022693477005e-09,-0.00091671633685912,0.00091671745827063,2.8229609517748e-09,-1.6769524392734e-09,-0.0010931720230953,0.0010931732266971,-0.0010931735569679,0.0010931717212356,-0.0010931706169212,0.0010931746270116,-0.0010931721483316,0.0010931731201693,-0.00091946605467783,0.00091946986942182,-0.00091947017461234,0.00091946573770819,0.76402416371971,128566,2924,0.0038155101455584,0.0070984008419027,0.0038155101462752,23.441588498644,-5.2467292010844e-05,-5.2467292010844e-05,-5.2467292010844e-05,4120802.2838412,0.014839713966983
28619200,0.99520219543506,0.015311414425741,0.0042862101496025,0.0067389941254108,0.0042862101507271,-0.00091706672846837,0.00091706599204947,1.7437917982326e-09,-2.4955441676684e-09,5.1308978523022e-09,-6.0778914121188e-09,-0.0010937508589907,0.0010937552491709,-0.0010937522818453,0.001093753846265,-0.0010937544431408,0.0010937515417966,-0.0010937558628336,0.0010937501371271,-0.00091994880348995,0.0009199484656614,-0.00091995290977655,0.00091994427352077,-4.1685567789812e-09,6.9584242645622e-09,-7.2528569990208e-10,3.32272993794e-09,-0.0017113005188898,0.0017113031285652,-0.0018859042447462,0.001885901845397,-0.0018859029396971,0.0018859031722602,-0.0018859006503257,0.0018859055089043,-0.0018858993446908,0.0018859068363024,-0.0015143473805766,0.0015143497008153,-0.0015143434223564,0.0015143536591165,-0.0015143519250315,0.0015143449985969,-0.001514341045534,0.0015143561651554,-1.5224570668438e-09,2.7216207711124e-09,-0.00091706579658844,0.00091706692427152,2.7936515690387e-09,-1.6395633082348e-09,-0.0010937524342145,0.0010937536105503,-0.0010937539460121,0.0010937521271604,-0.0010937510170916,0.001093755021681,-0.0010937525263762,0.0010937535369046,-0.00091994668625394,0.00091995056067057,-0.00091995083846619,0.00091994639710488,0.76896079251539,128566,2924,0.0038169707265419,0.0071017566204052,0.00381697072726,23.631970828559,-5.0944233371524e-05,-5.0944233371524e-05,-5.0944233371524e-05,4114177.852896,0.014846088071508
28819200,0.99536036038451,0.015313983715972,0.0042869323722283,0.0067401189703904,0.0042869323733529,-0.00091740558081398,0.00091740484394001,1.7599038478955e-09,-2.5120832011505e-09,5.1324562800058e-09,-6.0801103631843e-09,-0.0010943238436629,0.0010943282455904,-0.0010943252774837,0.0010943268318892,-0.0010943274290974,0.0010943245369857,-0.0010943288596949,0.0010943231214756,-0.0009204196112936,0.00092041930380005,-0.00092042374982162,0.00092041507998244,-4.1703557100839e-09,6.9603220211753e-09,-7.1315339582976e-10,3.3106940759803e-09,-0.0017121125760215,0.0017121151857835,-0.0018866530708433,0.0018866506783082,-0.0018866517735202,0.0018866519969706,-0.001886649475249,0.001886654343073,-0.0018866481773286,0.0018866556622747,-0.0015151415935664,0.0015151439389498,-0.0015151376580742,0.0015151478723575,-0.0015151461559318,0.0015151392179915,-0.0015151352731653,0.0015151503886665,-1.5379366170295e-09,2.7388165683234e-09,-0.00091740464777487,0.00091740577731727,2.7823895396154e-09,-1.6257896462294e-09,-0.0010943254335641,0.00109432659234,-0.0010943269370868,0.0010943251172414,-0.0010943240055323,0.0010943280143291,-0.0010943255065229,0.0010943265378568,-0.00092041748837902,0.00092042140462401,-0.00092042167271114,0.00092041720906695,0.74978434653029,128566,2924,0.0038183874693048,0.0071051021948619,0.0038183874700151,23.824567326649,-4.9403461386808e-05,-4.9403461386808e-05,-4.9403461386808e-05,4107657.9272624,0.014852362828129
29019200,0.99551621299016,0.015316373040199,0.0042875985474472,0.0067411759441796,0.0042875985485718,-0.00091797007846373,0.00091796933863189,1.7742712539076e-09,-2.5291931947379e-09,5.1423696628977e-09,-6.0950810323407e-09,-0.0010950791782565,0.0010950835972692,-0.0010950806233761,0.0010950821723796,-0.0010950827725616,0.001095079879556,-0.0010950842131397,0.0010950784546991,-0.00092109318316951,0.00092109289424109,-0.00092109735220733,0.0009210886436242,-4.1815297393721e-09,6.972346785827e-09,-7.4630632797161e-10,3.3448492500338e-09,-0.001713111860913,0.0017131144716289,-0.0018876194062801,0.0018876169859558,-0.0018876180879285,0.0018876183259589,-0.0018876158041428,0.0018876206577555,-0.0018876144834978,0.0018876219999152,-0.0015161090262128,0.0015161113125175,-0.0015161050156394,0.0015161153063087,-0.0015161135605802,0.0015161066205441,-0.0015161026557467,0.001516117820744,-1.558797832583e-09,2.7519288921907e-09,-0.00091796914751077,0.00091797026983919,2.8218100434637e-09,-1.6696081730144e-09,-0.0010950807718776,0.0010950819398569,-0.0010950823039235,0.0010950804363647,-0.0010950793331729,0.00109508337221,-0.0010950808609516,0.0010950818690571,-0.00092109106885442,0.00092109498431924,-0.00092109529045136,0.00092109075363077,0.71130253511104,128566,2924,0.0038207394610417,0.0071092241245174,0.003820739461589,24.14042390999,-4.6876608720078e-05,-4.6876608720078e-05,-4.6876608720078e-05,4106521.358509,0.014861322600153
29219200,0.99566970557431,0.015318667554404,0.0042882360106515,0.0067421955319768,0.0042882360117761,-0.00091857430452455,0.00091857356325028,1.7902130545362e-09,-2.5466031103612e-09,5.152867097598e-09,-6.1059775605768e-09,-0.0010957751400882,0.0010957795751338,-0.0010957765956159,0.0010957781393113,-0.0010957787409526,0.0010957758507788,-0.0010957801928187,0.0010957744139804,-0.00092175295036221,0.00092175268627796,-0.00092175715170821,0.00092174840012027,-4.1922575573505e-09,6.9842124963377e-09,-7.8976043353734e-10,3.3890744205734e-09,-0.0017140247982997,0.0017140274098036,-0.0018885533912576,0.0018885509344652,-0.0018885520439031,0.0018885523048008,-0.001888549781209,0.0018885546144084,-0.0018885484327272,0.0018885559858418,-0.0015169728464826,0.0015169750553862,-0.0015169687579929,0.0015169791426799,-0.0015169773379636,0.001516970406797,-0.0015169664104235,0.001516981625503,-1.5785419793007e-09,2.7640958356634e-09,-0.00091857337695177,0.00091857449110874,2.85399138214e-09,-1.7140465542915e-09,-0.0010957767382632,0.0010957779132833,-0.0010957782950477,0.0010957763849106,-0.0010957752884849,0.0010957793567817,-0.0010957768421083,0.0010957778277262,-0.00092175085008204,0.0009217547635919,-0.00092175510043073,0.00092175050296372,0.69516967246561,128566,2924,0.0038232527313925,0.0071129937347537,0.003823252731995,24.459168396891,-4.4326652824874e-05,-4.4326652824874e-05,-4.4326652824874e-05,4111205.4442358,0.014870249790383
29419200,0.99582076612267,0.015320766064685,0.0042888122876403,0.0067431414882795,0.0042888122887648,-0.00091919301897881,0.00091919227623586,1.806016857456e-09,-2.5638780091439e-09,5.1608557508663e-09,-6.1154467519172e-09,-0.0010964425938255,0.0010964470439813,-0.0010964440599545,0.0010964455971819,-0.0010964462001149,0.0010964433140123,-0.0010964476632105,0.0010964418659157,-0.0009223980234189,0.00092239778509273,-0.00092240225742829,0.00092239346543047,-4.2007768433863e-09,6.9935143318789e-09,-8.2871587794584e-10,3.4286680214867e-09,-0.0017148889601454,0.0017148915723326,-0.0018894630963757,0.0018894606085246,-0.0018894617237256,0.0018894620053678,-0.0018894594803611,0.001889464294649,-0.0018894581070215,0.0018894656921345,-0.0015177790482626,0.001517781187313,-0.001517774885662,0.0015177853532552,-0.001517783500442,0.0015177765790518,-0.0015177725559167,0.0015177878143489,-1.59792861835e-09,2.7769656292422e-09,-0.00091919209411926,0.00091919320142608,2.885939058778e-09,-1.7543052258275e-09,-0.0010964441962528,0.0010964453777842,-0.0010964457767159,0.0010964438257259,-0.001096442735454,0.0010964468322464,-0.001096444313274,0.0010964452790313,-0.00092239593578907,0.00092239985001587,-0.00092240021684816,0.00092239555846292,0.6508985784379,128566,2924,0.003825824251941,0.0071165641575234,0.0038258242526365,24.778018494337,-4.1775852045304e-05,-4.1775852045304e-05,-4.1775852045304e-05,4118126.3740706,0.014879092300252
29619200,0.9959692442792,0.015322797081645,0.0042893688160197,0.006744059448481,0.0042893688171441,-0.00091983840173609,0.0009198376585568,1.8221822366607e-09,-2.5804605631238e-09,5.1650508127229e-09,-6.119742783147e-09,-0.0010970241237007,0.0010970285869624,-0.0010970256005292,0.0010970271291386,-0.0010970277326604,0.0010970248541859,-0.0010970292066672,0.0010970233950796,-0.00092300847994033,0.00092300827055736,-0.00092301274588933,0.00092300391830612,-4.204777140827e-09,6.9979315644061e-09,-8.5512515186653e-10,3.4553694978337e-09,-0.0017156320371269,0.0017156346496578,-0.0018903127726981,0.0018903102650763,-0.0018903113831192,0.0018903116797639,-0.0018903091538844,0.0018903139540288,-0.0018903077637196,0.0018903153692825,-0.0015184446060172,0.0015184466962281,-0.0015184403944145,0.0015184509168588,-0.001518449029763,0.0015184421179375,-0.0015184380763561,0.0015184533602924,-1.6165495091931e-09,2.7909368954186e-09,-0.0009198374790942,0.00091983858151326,2.9072821780545e-09,-1.7821106051745e-09,-0.0010970257321721,0.0010970269146891,-0.0010970273288644,0.0010970253463994,-0.0010970242604598,0.0010970283800596,-0.0010970258546432,0.0010970268105014,-0.00092300640128949,0.00092301032644305,-0.00092301071388475,0.00092300600327655,0.6419138652056,128566,2924,0.0038285022761295,0.0071196394867444,0.0038285022767897,25.087638152185,-3.929889478252e-05,-3.929889478252e-05,-3.929889478252e-05,4131090.4286885,0.014887645981754
29819200,0.99611459104766,0.015324910921841,0.0042899538398649,0.0067450032409868,0.0042899538409894,-0.00092040214195257,0.00092040139981127,1.8388966819061e-09,-2.5962306542333e-09,5.163072358531e-09,-6.1157768027167e-09,-0.0010974999815735,0.0010975044544453,-0.0010975014690702,0.0010975029857335,-0.0010975035885254,0.001097500723681,-0.0010975050732479,0.0010974992535409,-0.00092352406168953,0.00092352388676808,-0.00092352835857525,0.0009235195014972,-4.2014435393721e-09,6.9944654394703e-09,-8.5598370793235e-10,3.4559753117971e-09,-0.0017162450380737,0.0017162476503618,-0.0018910447362421,0.0018910422300289,-0.001891043346338,0.0018910436453566,-0.0018910411195345,0.0018910459167566,-0.001891039729162,0.0018910473324789,-0.0015189799252876,0.0015189820114728,-0.0015189757159402,0.0015189862377002,-0.0015189843435179,0.0015189774389535,-0.0015189733953552,0.001518988672452,-1.6326763631777e-09,2.8076264444577e-09,-0.00092040121974323,0.00092040232239293,2.9032940418893e-09,-1.7797126079142e-09,-0.0010975016011353,0.0010975027711957,-0.0010975031956453,0.0010975012050399,-0.00109750011848,0.0010975042476343,-0.0010975017106433,0.0010975026800339,-0.000923521983264,0.00092352594341243,-0.00092352632699698,0.00092352158814004,0.67837703979618,128566,2924,0.0038308403484402,0.0071221783817764,0.0038308403492151,25.339873178923,-3.7281014568616e-05,-3.7281014568616e-05,-3.7281014568616e-05,4143579.3274254,0.014894965019449
30019200,0.9962567776871,0.015327012712688,0.0042905367612912,0.006745939188981,0.0042905367624158,-0.00092093241899183,0.00092093167760533,1.8557367124235e-09,-2.612243034519e-09,5.1580965368771e-09,-6.110839475431e-09,-0.0010980491856605,0.0010980536672495,-0.0010980506842964,0.0010980521876294,-0.0010980527893765,0.0010980499396876,-0.0010980542851488,0.0010980484588672,-0.00092405979118685,0.00092405965263897,-0.00092406412107112,0.00092405523667412,-4.1972722162149e-09,6.9896782174225e-09,-8.4632305358812e-10,3.4458868665216e-09,-0.0017169420972293,0.0017169447090748,-0.0018918066598624,0.0018918041628446,-0.0018918052763207,0.001891805571284,-0.0018918030461775,0.0018918078465091,-0.0018918016619568,0.0018918092555563,-0.0015196140070804,0.0015196161093157,-0.0015196098126341,0.0015196203114528,-0.0015196184324139,0.0015196115294171,-0.0015196074942714,0.0015196227563742,-1.6482607340417e-09,2.8245798138992e-09,-0.00092093149627895,0.00092093260064627,2.9000822905061e-09,-1.7726020975903e-09,-0.001098050816021,0.0010980519730489,-0.0010980524072105,0.0010980504102605,-0.0010980493225688,0.0010980534601784,-0.0010980509111569,0.0010980518961655,-0.00092405771219105,0.0009240617089789,-0.00092406208902439,0.00092405732162621,0.68873090604006,128566,2924,0.0038330432126295,0.0071250601995177,0.0038330432133184,25.590759617079,-3.5273923063372e-05,-3.5273923063372e-05,-3.5273923063372e-05,4149266.0080197,0.014902360657034
30219200,0.99639579029341,0.015328972554914,0.0042910762239558,0.0067468201058781,0.0042910762250805,-0.00092144611550599,0.00092144537506533,1.8725306215705e-09,-2.6280920202279e-09,5.1536741492244e-09,-6.105560319088e-09,-0.0010986162465307,0.001098620736752,-0.0010986177560867,0.0010986192463465,-0.0010986198470407,0.0010986170124438,-0.0010986213537496,0.0010986155207607,-0.00092459334458616,0.00092459324232663,-0.00092459770672019,0.00092458879448865,-4.1925612730134e-09,6.9844642888809e-09,-8.3680562780954e-10,3.4359342920953e-09,-0.0017176583258874,0.001717660937263,-0.0018925700216962,0.0018925675338057,-0.001892568644338,0.0018925689357344,-0.0018925664112069,0.0018925712141924,-0.0018925650332236,0.0018925726166837,-0.0015202692422612,0.0015202713600062,-0.0015202650659236,0.0015202755418237,-0.0015202736736025,0.0015202667735844,-0.0015202627456151,0.0015202779910762,-1.6635021063327e-09,2.8420430130304e-09,-0.00092144519209957,0.00092144629879296,2.890710505043e-09,-1.7602459267586e-09,-0.0010986178892024,0.0010986190302471,-0.0010986194731679,0.0010986174746939,-0.0010986163848407,0.0010986205283,-0.0010986179662321,0.0010986189714691,-0.00092459126309118,0.00092459530113067,-0.0009245956719479,0.00092459088184506,0.66008313192983,128566,2924,0.0038351783729643,0.0071280198130849,0.0038351783736397,25.841596655814,-3.3267226753487e-05,-3.3267226753487e-05,-3.3267226753487e-05,4152935.8467269,0.014909698833555
30419200,0.99653191143235,0.015330779273444,0.0042915687134017,0.0067476418455157,0.0042915687145264,-0.00092204400949963,0.00092204326945124,1.8891422950511e-09,-2.6442954095177e-09,5.1516422165779e-09,-6.1034153457625e-09,-0.001099199528535,0.0010992040288249,-0.0010992010491174,0.0010992025275277,-0.0010992031277151,0.0010992003059091,-0.0010992046454443,0.0010991988034374,-0.0009251741263713,0.00092517405816265,-0.00092517852105127,0.00092516957861938,-4.1908898632502e-09,6.9825078798243e-09,-8.3232641599932e-10,3.4312278776966e-09,-0.0017183766710983,0.0017183792823142,-0.0018933735180097,0.0018933710343634,-0.0018933721436163,0.0018933724331666,-0.0018933699087075,0.0018933747134894,-0.0018933685336564,0.0018933761129873,-0.0015209114757877,0.001520913601428,-0.001520907307836,0.0015209177725115,-0.0015209159112205,0.0015209090110641,-0.0015209049870074,0.0015209202253946,-1.6795891040716e-09,2.858512017903e-09,-0.00092204308602664,0.00092204419321387,2.8901565755829e-09,-1.7585203184114e-09,-0.0010992011818467,0.0010992023116688,-0.0010992027651111,0.0010992007569355,-0.0010991996666718,0.00109920382051,-0.0010992012472651,0.0010992022645718,-0.00092517204531044,0.0009251761160744,-0.00092517648644565,0.00092517166505968,0.62526527973563,128566,2924,0.0038376605729307,0.007130991507569,0.0038376605735425,26.129556378604,-3.0963548971165e-05,-3.0963548971165e-05,-3.0963548971165e-05,4161510.1123209,0.014917752082569
30619200,0.99666592971176,0.015332679040005,0.0042920924011311,0.0067484942366179,0.0042920924022557,-0.0009228694602709,0.00092286871939231,1.9050858071128e-09,-2.6609090323166e-09,5.1554287933124e-09,-6.1087942408821e-09,-0.0010999291870902,0.001099933700484,-0.0010999307185682,0.0010999321884733,-0.0010999327891985,0.001099929974597,-0.0010999343177988,0.0010999284612335,-0.00092594514259726,0.00092594510309905,-0.00092594956997357,0.00092594059228872,-4.1948963497372e-09,6.9869665269687e-09,-8.5524147060719e-10,3.4546414345461e-09,-0.0017192332441496,0.0017192358556956,-0.0018943628732392,0.0018943603717474,-0.0018943614838614,0.0018943617858652,-0.0018943592612575,0.0018943640538635,-0.0018943578712437,0.0018943654685405,-0.0015216745492062,0.0015216766325606,-0.0015216703327197,0.0015216808465995,-0.0015216789599873,0.0015216720674874,-0.0015216680290679,0.0015216832923276,-1.6978304113251e-09,2.8731481032977e-09,-0.00092286853800942,0.00092286964186997,2.9076476804181e-09,-1.7784093487508e-09,-0.001099930847902,0.0010999319757029,-0.0010999324435842,0.0010999304084378,-0.001099929321691,0.0010999334954885,-0.0010999309147575,0.0010999319269943,-0.0009259430674317,0.00092594715411901,-0.00092594754118491,0.00092594267101805,0.66318230814726,128566,2924,0.003841084606058,0.0071345388795747,0.0038410846065211,26.523821354447,-2.7809429164421e-05,-2.7809429164421e-05,-2.7809429164421e-05,4176841.5646392,0.014928299553208
30819200,0.99679776560266,0.015334638140533,0.0042926360923095,0.0067493659547897,0.0042926360934342,-0.00092366710450346,0.00092366636341217,1.921295759783e-09,-2.6774472063885e-09,5.1583176041182e-09,-6.1111787515076e-09,-0.0011007496769452,0.0011007542026526,-0.0011007512191183,0.0011007526794861,-0.0011007532807458,0.0011007504749247,-0.0011007548201627,0.0011007489505693,-0.00092674876039055,0.00092674875041321,-0.00092675321883371,0.00092674420668623,-4.1975367678978e-09,6.9898393120894e-09,-8.6646173995331e-10,3.4659258402859e-09,-0.0017201976239758,0.0017202002356757,-0.0018954007186298,0.0018953982080723,-0.0018953993220722,0.001895399629908,-0.0018953971047992,0.0018954018919698,-0.0018953957076182,0.0018954033143698,-0.0015225637445423,0.0015225658075379,-0.0015225595099198,0.001522570048105,-0.0015225681440324,0.0015225612537834,-0.0015225572062995,0.0015225724821256,-1.7151877846795e-09,2.8883743071108e-09,-0.00092366618345446,0.00092366728475792,2.9173639479163e-09,-1.7927682595197e-09,-0.0011007513464448,0.0011007524692065,-0.001100752950026,0.0011007508940469,-0.0011007498093951,0.0011007539998822,-0.00110075141039,0.0011007524234493,-0.00092674668939233,0.00092675079842201,-0.00092675119446461,0.0009267462833243,0.69236328744673,128566,2924,0.0038443973446092,0.0071385267715767,0.0038443973452343,26.920593173152,-2.463525461478e-05,-2.463525461478e-05,-2.463525461478e-05,4184817.1598129,0.014939071493823
31019200,0.99692732314934,0.015336623612545,0.00429318933104,0.0067502449493406,0.0042931893321646,-0.00092443627307732,0.00092443553177332,1.9375363240107e-09,-2.6939011432737e-09,5.1597043351056e-09,-6.1127763423199e-09,-0.0011016260378567,0.0011016305752433,-0.0011016275908869,0.0011016290411488,-0.0011016296426282,0.0011016268465151,-0.001101631192934,0.0011016253112567,-0.00092756874087377,0.00092756876165521,-0.00092757323119084,0.00092756418577805,-4.1989977705592e-09,6.9913821024288e-09,-8.7225985717775e-10,3.4717792969962e-09,-0.0017212361636741,0.0017212387754337,-0.0018964662316288,0.0018964637163256,-0.0018964648313521,0.0018964651420606,-0.0018964626168159,0.0018964674012263,-0.0018964612159257,0.0018964688275164,-0.0015235386244483,0.0015235406770806,-0.0015235343787944,0.0015235449294796,-0.0015235430182377,0.0015235361289772,-0.0015235320775377,0.0015235473602441,-1.7319208200298e-09,2.9043184955052e-09,-0.00092443535236594,0.00092443645279824,2.9224488418998e-09,-1.7989746825758e-09,-0.0011016277171825,0.0011016288319676,-0.0011016293245031,0.0011016272530738,-0.0011016261692235,0.0011016303735239,-0.0011016277739673,0.0011016287933508,-0.00092756667157013,0.00092757080812544,-0.00092757120856641,0.00092756626100095,0.71215832687892,128566,2924,0.0038475949049657,0.0071428173623909,0.0038475949056255,27.317456936697,-2.146034450642e-05,-2.146034450642e-05,-2.146034450642e-05,4187673.1810701,0.014949919139338
31219200,0.99705562441474,0.015338690847282,0.0042937691295224,0.0067511525871129,0.004293769130647,-0.00092545506425408,0.00092545432058712,1.9525369540349e-09,-2.7112288881668e-09,5.1650861562884e-09,-6.1228288581636e-09,-0.0011028162718536,0.0011028208238624,-0.0011028178358242,0.001102819278756,-0.0011028198819511,0.0011028170896909,-0.0011028214435822,0.0011028155448397,-0.00092867888458601,0.00092867893056858,-0.00092868340899693,0.00092867432523557,-4.2069069981142e-09,6.9995438729158e-09,-8.9073212833314e-10,3.4907259961287e-09,-0.0017226289105457,0.0017226315233676,-0.0018978546817745,0.0018978521514057,-0.0018978532695589,0.0018978535894482,-0.0018978510620264,0.0018978558411364,-0.0018978496487295,0.0018978572807442,-0.0015248699604078,0.0015248719834398,-0.0015248656743205,0.0015248762637603,-0.0015248743435555,0.0015248674487289,-0.001524863388092,0.0015248786983553,-1.7523744117308e-09,2.9170913569405e-09,-0.0009254541459237,0.00092545523910917,2.9680793095674e-09,-1.8489788927646e-09,-0.0011028179517486,0.0011028190795252,-0.001102819591246,0.0011028174693536,-0.0011028163928955,0.0011028206316437,-0.0011028180290344,0.0011028190208667,-0.00092867683074902,0.00092868095837842,-0.00092868140300763,0.000928676379997,0.74546030234405,128566,2924,0.0038518312704287,0.007148569559413,0.0038518312708485,27.866995304245,-1.7064037566043e-05,-1.7064037566043e-05,-1.7064037566043e-05,4190032.5547371,0.014964360591343
31419200,0.99718262355702,0.015340637080988,0.0042943107932708,0.0067520154933212,0.0042943107943955,-0.00092645819168063,0.00092645744792799,1.9694392997349e-09,-2.7281316609922e-09,5.1704109943149e-09,-6.1271751096239e-09,-0.0011040811101647,0.001104085675645,-0.0011040826852445,0.0011040841198196,-0.0011040847230661,0.0011040819387757,-0.0011040862957948,0.0011040803814901,-0.00092981884264148,0.00092981891895349,-0.00092982339933274,0.00092981427808681,-4.2108804225524e-09,7.0041564108883e-09,-9.3979484044214e-10,3.5401955095161e-09,-0.0017241293228318,0.0017241319354724,-0.001899303890467,0.0018993013226473,-0.0018993024454726,0.0018993027947636,-0.0018993002676094,0.0018993050159685,-0.0018992988224035,0.0018993064884892,-0.0015263255394287,0.0015263274682366,-0.0015263211601043,0.0015263318518406,-0.0015263298612207,0.0015263229937116,-0.0015263188986708,0.0015263342510265,-1.7671731623928e-09,2.9338187540072e-09,-0.00092645727259243,0.00092645836729554,2.9599044435981e-09,-1.8415973156784e-09,-0.0011040828040966,0.0011040839177189,-0.0011040844375627,0.0011040823127397,-0.0011040812343567,0.001104085480858,-0.0011040828655511,0.0011040838743884,-0.00092981678534701,0.00092982095241336,-0.00092982138568872,0.00092981634293428,0.71242630753624,128566,2924,0.0038560057902588,0.0071547625474309,0.0038560057908523,28.435097493978,-1.2519220048175e-05,-1.2519220048175e-05,-1.2519220048175e-05,4188052.6220365,0.01497912613277
31619200,0.99730813509839,0.015342466121892,0.0042948159924973,0.0067528341357732,0.004294815993622,-0.00092747670617793,0.00092747596179578,1.9849008881808e-09,-2.7444484872729e-09,5.1719662432149e-09,-6.1293845094518e-09,-0.0011052733497836,0.0011052779269415,-0.0011052749352421,0.0011052763599052,-0.0011052769639768,0.0011052741884106,-0.0011052785469191,0.0011052726206466,-0.00093093232289159,0.00093093242692125,-0.00093093690864296,0.00093092775479835,-4.2130065627179e-09,7.006440135828e-09,-9.3174421932426e-10,3.5322098387082e-09,-0.0017255467322219,0.0017255493448579,-0.0019007172370389,0.0019007146745612,-0.0019007157989034,0.0019007161394886,-0.0019007136131073,0.0019007183692899,-0.0019007121741945,0.0019007198349636,-0.001527682947724,0.0015276848935998,-0.0015276785840938,0.0015276892623569,-0.0015276872819371,0.0015276804044009,-0.0015276763145522,0.0015276916666558,-1.7865107096734e-09,2.9481176979108e-09,-0.00092747578952536,0.00092747687886648,2.9863221646725e-09,-1.8745315313108e-09,-0.0011052750474286,0.0011052761648839,-0.0011052767011932,0.0011052745395359,-0.0011052734666962,0.0011052777390826,-0.0011052751177706,0.0011052761126484,-0.00093093027575832,0.00093093445178346,-0.00093093490907256,0.00093092980777102,0.68057767575976,128566,2924,0.0038602411647487,0.0071606160024574,0.0038602411656285,29.003683437511,-7.9705324999094e-06,-7.9705324999094e-06,-7.9705324999094e-06,4191981.7466029,0.01499366823083
31819200,0.99742985333192,0.015344174973764,0.0042952852104124,0.0067536045518143,0.0042952852115372,-0.00092797924281656,0.00092797850341504,2.0037677595719e-09,-2.7585633413623e-09,5.1565884231015e-09,-6.105524928375e-09,-0.0011058366186228,0.0011058411977529,-0.0011058382149487,0.0011058396197114,-0.0011058402201299,0.0011058374724381,-0.0011058418136907,0.0011058358931915,-0.00093146376937863,0.0009314639218039,-0.00093146838463832,0.00093145921505328,-4.1944348821288e-09,6.986140362031e-09,-8.5084258534306e-10,3.4493589024533e-09,-0.0017262702267893,0.0017262728377926,-0.0019014830737932,0.0019014805752854,-0.0019014816878303,0.0019014819870137,-0.0019014794620856,0.0019014842568556,-0.0019014780755804,0.0019014856690601,-0.0015283448374361,0.0015283469286391,-0.0015283406445437,0.0015283511480189,-0.001528349252515,0.0015283423576984,-0.0015283383173235,0.0015283535735028,-1.7948793283083e-09,2.9718916231645e-09,-0.00092797832141302,0.0009279794253745,2.9056595125964e-09,-1.7829825977673e-09,-0.0011058383439785,0.001105839408747,-0.0011058399402873,0.0011058378409468,-0.0011058367526365,0.0011058409939842,-0.0011058383465159,0.001105839424734,-0.00093146169514533,0.00093146597640858,-0.00093146635829321,0.00093146130104332,0.65805653851528,128566,2924,0.0038623303179484,0.0071636049497938,0.0038623303190968,29.265875222591,-5.8729982192676e-06,-5.8729982192676e-06,-5.8729982192676e-06,4196093.3090173,0.015000943391472
32019200,0.99754617576864,0.01534597288681,0.0042957863369262,0.0067544002118331,0.0042957863380508,-0.00092808225762648,0.00092808152438447,2.0230320362618e-09,-2.7719719189054e-09,5.1319491917709e-09,-6.07250394132e-09,-0.001105905949504,0.0011059105259214,-0.0011059075572327,0.0011059089377346,-0.0011059095325263,0.0011059068203439,-0.0011059111366695,0.0011059052296621,-0.00093154553852943,0.00093154574677815,-0.00093155018422359,0.00093154100667825,-4.166915680998e-09,6.9560670612202e-09,-7.2070321724672e-10,3.3167984552016e-09,-0.001726442172238,0.0017264447809066,-0.0019017264211281,0.0019017240253204,-0.001901725119899,0.0019017253495153,-0.0019017228279115,0.001901727687806,-0.0019017215263888,0.0019017290120141,-0.001528459127649,0.0015284614554607,-0.0015284551952161,0.0015284654187915,-0.0015284636763254,0.001528456749144,-0.0015284527942423,0.0015284679034935,-1.7992143612823e-09,3.0001856070325e-09,-0.00092808132731463,0.00092808245530626,2.7873412716669e-09,-1.6398780819826e-09,-0.0011059077108244,0.0011059087018295,-0.0011059092205147,0.0011059072207642,-0.0011059061087997,0.0011059102983848,-0.0011059076163528,0.0011059088154469,-0.00093154342145967,0.00093154784553872,-0.00093154811525824,0.0009315431377283,0.71766339600487,128566,2924,0.0038627574639063,0.0071643173370131,0.0038627574651602,29.281000504293,-5.7519959656581e-06,-5.7519959656581e-06,-5.7519959656581e-06,4199633.5625569,0.015002531911703
32219200,0.99765729914978,0.01534773119347,0.0042962778431893,0.0067551755059674,0.0042962778443138,-0.00092812457748393,0.00092812384653781,2.0406142893805e-09,-2.7869665052273e-09,5.113988719451e-09,-6.0544090714882e-09,-0.0011060670378492,0.0011060716160147,-0.0011060686570405,0.0011060700173864,-0.0011060706088058,0.0011060679221817,-0.0011060722245418,0.0011060663215735,-0.00093164431287067,0.00093164456940192,-0.00093164899499697,0.00093163980123397,-4.1495408876684e-09,6.9365615879226e-09,-6.2960827713461e-10,3.2242211344928e-09,-0.0017267278944615,0.0017267305014269,-0.0019019978724097,0.0019019955476221,-0.0019019966300643,0.0019019968095671,-0.0019019942911318,0.0019019991974802,-0.0019019930481763,0.0019020004599494,-0.0015287161000675,0.0015287185949314,-0.0015287123326725,0.0015287223621125,-0.0015287207439892,0.00152871379062,-0.0015287099026883,0.0015287249149887,-1.8070636827133e-09,3.0251768661898e-09,-0.00092812363889571,0.00092812478554562,2.7048543501445e-09,-1.5303295977138e-09,-0.001106068828934,0.0011060697620152,-0.0011060702751562,0.0011060683443775,-0.0011060672158627,0.0011060713691494,-0.0011060686594794,0.0011060699500035,-0.00093164216312689,0.0009316466980656,-0.00093164689128146,0.00093164195860766,0.73340852800401,128566,2924,0.0038629380511259,0.0071654931682436,0.0038629380520031,29.290213994463,-5.678288044299e-06,-5.678288044299e-06,-5.678288044299e-06,4193397.8421787,0.015004094450026
32419200,0.99776345123066,0.015349455477711,0.00429676153041,0.0067559324157664,0.0042967615315346,-0.00092814524097752,0.00092814451160935,2.0577544895128e-09,-2.8024968523126e-09,5.1047391851319e-09,-6.0437747609179e-09,-0.0011062431557918,0.0011062477397967,-0.0011062447862017,0.0011062461306666,-0.0011062467203209,0.0011062440526729,-0.0011062483470509,0.0011062424412927,-0.0009317452410599,0.00093174553809286,-0.00093174995630046,0.00093174073888845,-4.1400777888772e-09,6.9261272665663e-09,-5.678675360954e-10,3.1616905143486e-09,-0.0017270379742798,0.0017270405803788,-0.0019022704616919,0.0019022681834138,-0.0019022692591499,0.0019022694034189,-0.0019022668867978,0.0019022718266385,-0.0019022656836659,0.0019022730471586,-0.0015290061644545,0.0015290087741866,-0.0015290025152629,0.0015290124151491,-0.00152901087598,0.0015290039003811,-0.0015290000548867,0.0015290150059283,-1.8184281608451e-09,3.0464716192614e-09,-0.00092814429782957,0.0009281454550946,2.6500761589042e-09,-1.4622956304724e-09,-0.0011062449707785,0.0011062458621037,-0.001106246376354,0.0011062444851189,-0.0011062433468536,0.0011062474801229,-0.001106244749785,0.0011062461016204,-0.00093174307044311,0.00093174768723585,-0.00093174783094247,0.0009317429160421,0.75109426452846,128566,2924,0.0038630302147424,0.0071667676520666,0.0038630302154506,29.299209591377,-5.6063232689859e-06,-5.6063232689859e-06,-5.6063232689859e-06,4185305.2596793,0.015005578389165
32619200,0.99786459264853,0.015350967574154,0.0042971806227652,0.006756606327499,0.0042971806238898,-0.00092805305462752,0.00092805232507832,2.0738149597e-09,-2.8188492820573e-09,5.1051502765016e-09,-6.0437433861999e-09,-0.0011063430292139,0.0011063476239261,-0.0011063446705505,0.0011063460039081,-0.0011063465940807,0.0011063439366229,-0.0011063482313811,0.0011063423144302,-0.00093175126664143,0.00093175159413298,-0.00093175601239771,0.00093174676286879,-4.1400665068689e-09,6.9261576658729e-09,-5.4793094267405e-10,3.1416890828492e-09,-0.0017272762572694,0.00172727886334,-0.0019024493145126,0.0019024470493226,-0.0019024481248438,0.0019024482559224,-0.0019024457396584,0.0019024506924464,-0.0019024445492144,0.0019024518997302,-0.0015292356277828,0.0015292382761424,-0.0015292320198046,0.0015292418810198,-0.001529240364639,0.0015292333756069,-0.0015292295421797,0.0015292444798708,-1.8339693978798e-09,3.0637529176904e-09,-0.00092805211060202,0.00092805326949177,2.6316561681223e-09,-1.4432472408518e-09,-0.0011063448604605,0.0011063457301989,-0.0011063462536896,0.0011063443655554,-0.0011063432257215,0.0011063473591012,-0.0011063446161493,0.0011063459931005,-0.00093174908833869,0.00093175375216209,-0.00093175388065233,0.00093174894825358,0.69653887298702,128566,2924,0.0038626552627552,0.007167743154176,0.0038626552635637,29.262895932301,-5.8968325415912e-06,-5.8968325415912e-06,-5.8968325415912e-06,4174583.4634281,0.015005811322147
32819200,0.99796084817994,0.015352288435365,0.004297542000631,0.0067572044329785,0.0042975420017556,-0.00092796278635145,0.0009279620552685,2.089431692342e-09,-2.8359696345425e-09,5.1121057001175e-09,-6.0524904674532e-09,-0.0011062955240992,0.0011063001333245,-0.0011062971763072,0.0011062985024809,-0.0011062990940364,0.0011062964408865,-0.0011063007423695,0.0011062948077311,-0.00093168045871768,0.00093168081208021,-0.00093168523708625,0.00093167594854137,-4.1475545795252e-09,6.9342755732294e-09,-5.6809590223661e-10,3.162417581549e-09,-0.0017273298086866,0.0017273324152985,-0.001902520333034,0.0019025180496658,-0.0019025191299616,0.001902519269972,-0.0019025167530106,0.001902521698066,-0.0019025155493385,0.001902522918943,-0.0015292599464115,0.0015292625605332,-0.0015292562985275,0.0015292662053393,-0.0015292646669323,0.0015292576767127,-0.0015292538297373,0.0015292687966919,-1.8520541554433e-09,3.0782211585434e-09,-0.00092796184334698,0.00092796299866322,2.645592375763e-09,-1.460902142685e-09,-0.0011062973646174,0.0011062982303464,-0.0011062987682509,0.0011062968552667,-0.0011062957189482,0.001106299870135,-0.0011062971199362,0.0011062984935685,-0.00093167828462285,0.00093168296583286,-0.00093168310848292,0.00093167813035947,0.64446136341785,128566,2924,0.0038622829171328,0.0071679615941538,0.0038622829179474,29.204418761778,-6.3646499057782e-06,-6.3646499057782e-06,-6.3646499057782e-06,4172510.9041329,0.015005277140922
33019200,0.99805246465495,0.015353656827231,0.0042979217785108,0.0067578132690853,0.0042979217796354,-0.00092793836683914,0.00092793763389019,2.1049439698221e-09,-2.8531962667197e-09,5.1219740027174e-09,-6.0646291228903e-09,-0.0011061626163259,0.0011061672418164,-0.0011061642792753,0.0011061655999735,-0.0011061661933888,0.0011061635420531,-0.0011061678526684,0.0011061618979984,-0.00093159820039696,0.0009315985771896,-0.00093160301144015,0.00093159368212828,-4.158278313099e-09,6.9458699261475e-09,-6.0394360046698e-10,3.1990544134365e-09,-0.0017272569041057,0.0017272595115523,-0.0019025370732823,0.0019025347597005,-0.0019025358468688,0.0019025360041259,-0.0019025334860164,0.0019025384155786,-0.0019025322590051,0.0019025396605186,-0.0015291383073572,0.0015291408586765,-0.001529134588266,0.0015291445742632,-0.0015291429960634,0.0015291360086898,-0.0015291321371442,0.0015291471511874,-1.8720091802612e-09,3.0908473336317e-09,-0.00092793742651046,0.00092793857453531,2.6797219762154e-09,-1.5026578038723e-09,-0.001106164461299,0.0011061653341593,-0.001106165890092,0.0011061639339543,-0.0011061628047062,0.0011061669847814,-0.0011061642308777,0.0011061655830805,-0.00093159603781705,0.00093160071827751,-0.0009316008943572,0.00093159585138048,0.69524136140432,128566,2924,0.0038621783088989,0.007167664571753,0.0038621783095619,29.145405700036,-6.8367543997154e-06,-6.8367543997154e-06,-6.8367543997154e-06,4178699.7939899,0.015004759727275
33219200,0.99813967860005,0.015355029240162,0.0042983054613861,0.006758418316265,0.0042983054625108,-0.00092787491539222,0.00092787417971974,2.1198980763447e-09,-2.8708844199805e-09,5.1328501001219e-09,-6.0790041699484e-09,-0.0011061282013198,0.001106132843627,-0.001106129875009,0.0011061311907771,-0.0011061317866059,0.0011061291354209,-0.0011061334567879,0.0011061274805133,-0.00093154580326982,0.00093154620098582,-0.0009315506461028,0.00093154127378236,-4.1703210973766e-09,6.959134660566e-09,-6.5575227927682e-10,3.251980034301e-09,-0.0017272982608404,0.0017273008693472,-0.0019025956526938,0.0019025932974108,-0.0019025943924968,0.0019025945767991,-0.0019025920573276,0.0019025969618298,-0.0019025907965263,0.0019025982417391,-0.0015291533677514,0.0015291558257564,-0.0015291495459526,0.001529159644298,-0.0015291580044287,0.0015291510278882,-0.0015291471219027,0.0015291621968142,-1.893246099225e-09,3.1022590652203e-09,-0.00092787397871176,0.00092787511676956,2.7264292736925e-09,-1.5600684439349e-09,-0.001106130047715,0.0011061309343596,-0.0011061315109981,0.0011061294996251,-0.0011061283801741,0.0011061325957961,-0.001106129840862,0.0011061311595957,-0.0009315436574034,0.00093154832567638,-0.00093154854577561,0.00093154342658636,0.72922791458241,128566,2924,0.0038619164406355,0.0071678339673813,0.0038619164414098,29.086372860566,-7.3090171154715e-06,-7.3090171154715e-06,-7.3090171154715e-06,4176274.0198007,0.015004400307471
33419200,0.99822405827042,0.015356384064641,0.0042986852137398,0.0067590136360367,0.0042986852148644,-0.00092828092948678,0.00092828018743139,2.1338280596535e-09,-2.8905975477879e-09,5.1548522165404e-09,-6.112249117838e-09,-0.0011066734200415,0.0011066780861118,-0.0011066751045934,0.0011066764226811,-0.0011066770226304,0.0011066743598893,-0.001106678705191,0.001106672693964,-0.00093202756078929,0.00093202797153777,-0.00093203244279496,0.00093202301377209,-4.1971408287581e-09,6.9882942639366e-09,-7.9285014044303e-10,3.3917835747518e-09,-0.0017279779198672,0.0017279805307045,-0.0019032451204905,0.0019032426578558,-0.0019032437703485,0.0019032440294297,-0.0019032415068591,0.001903246341622,-0.0019032401569648,0.0019032477129972,-0.0015298113518005,0.0015298135614515,-0.0015298072451129,0.0015298176340932,-0.0015298158462186,0.0015298089097061,-0.0015298049181935,0.0015298201440964,-1.9199302765307e-09,3.1076147084409e-09,-0.00092827999964228,0.00092828111742506,2.8405161591223e-09,-1.6886113451643e-09,-0.0011066752538339,0.0011066761884072,-0.0011066767972559,0.0011066746734879,-0.0011066735748619,0.0011066778605789,-0.0011066751164232,0.0011066763436023,-0.00093202545591048,0.00093203005041636,-0.00093203037754493,0.00093202512215307,0.74278653275135,128566,2924,0.0038636076030795,0.0071706378881276,0.0038636076034227,29.311914170181,-5.5046866385484e-06,-5.5046866385484e-06,-5.5046866385484e-06,4173406.0971437,0.015010682406395
33619200,0.9983059947866,0.015357700117602,0.0042990540165208,0.0067595920834358,0.0042990540176457,-0.00092879965319913,0.00092879890714712,2.1476832320695e-09,-2.9082915432838e-09,5.176622627949e-09,-6.1379569489814e-09,-0.0011073729863695,0.0011073776751175,-0.0011073746815426,0.0011073760001788,-0.0011073766052609,0.0011073739328604,-0.0011073782968948,0.001107372256208,-0.00093264596745413,0.00093264638605203,-0.00093265087468944,0.00093264139786096,-4.2193088463051e-09,7.0126505172227e-09,-9.0712110977865e-10,3.5077960580618e-09,-0.0017288365345655,0.0017288391470909,-0.0019040549211379,0.0019040523705765,-0.001904053498365,0.0019040538177051,-0.0019040512931492,0.0019040560697228,-0.0019040498694883,0.0019040575175629,-0.0015306502044381,0.001530652202011,-0.0015306458749881,0.0015306565099239,-0.0015306545776569,0.0015306476711752,-0.0015306436024695,0.0015306589525307,-1.9489615367945e-09,3.1124093009753e-09,-0.00092879873396618,0.00092879982659724,2.9584472731136e-09,-1.8370249412851e-09,-0.0011073748042912,0.0011073757930672,-0.0011073764369109,0.001107374188688,-0.0011073731144239,0.0011073774760252,-0.0011073747444377,0.0011073758708689,-0.000932643904783,0.00093264842399616,-0.00093264886095369,0.00093264345910735,0.74303042889373,128566,2924,0.0038657682933388,0.0071741796649892,0.0038657682938136,29.613697083176,-3.0904233345893e-06,-3.0904233345893e-06,-3.0904233345893e-06,4170335.1118841,0.015018667472598
33819200,0.9983854984041,0.015358981221199,0.0042994131242339,0.0067601549716057,0.0042994131253589,-0.00092930873243347,0.00092930798472383,2.1628188037341e-09,-2.9253154226922e-09,5.1897814804955e-09,-6.1507695448595e-09,-0.0011080639752503,0.0011080686817119,-0.0011080656803533,0.00110806699464,-0.0011080676026543,0.0011080649298998,-0.0011080693049751,0.0011080632430402,-0.00093325795662113,0.00093325839533674,-0.00093326289377514,0.00093325337403557,-4.2315611890045e-09,7.026368338388e-09,-9.9028282189249e-10,3.591960697184e-09,-0.0017296938471202,0.0017296964610105,-0.0019048660748411,0.0019048634619102,-0.001904864598168,0.0019048649664459,-0.0019048624386489,0.0019048671691189,-0.0019048609606156,0.0019048686750647,-0.0015314874998311,0.0015314893421068,-0.0015314830204271,0.0015314938299184,-0.0015314917831358,0.0015314849065158,-0.0015314807766525,0.0015314962078262,-1.9734755797345e-09,3.121025784272e-09,-0.00092930782099704,0.00092930889640859,3.0358050890913e-09,-1.9391918918957e-09,-0.0011080657852173,0.0011080668072211,-0.0011080674772352,0.0011080651439911,-0.0011080640847579,0.0011080685009193,-0.0011080657734638,0.0011080668371699,-0.00093325592561941,0.0009332604026422,-0.00093326091347665,0.00093325540628615,0.74517769570277,128566,2924,0.0038678892271971,0.0071777155535769,0.0038678892277232,29.917363400112,-6.6109279910223e-07,-6.6109279910223e-07,-6.6109279910223e-07,4167723.4694168,0.015026565646331
34019200,0.99846257345794,0.015360184935911,0.0042997490017807,0.006760686931225,0.0042997490029057,-0.00092980801853553,0.00092980727034154,2.1793368251015e-09,-2.9423473509837e-09,5.1945113784636e-09,-6.1557567882086e-09,-0.0011087451675604,0.0011087498874409,-0.0011087468832129,0.0011087481894088,-0.0011087487976623,0.0011087461327576,-0.0011087505112494,0.0011087444339484,-0.00093386009115094,0.00093386055995159,-0.00093386506108131,0.00093385550339971,-4.2366568559236e-09,7.0315324379224e-09,-1.0496700367127e-09,3.651319431933e-09,-0.0017305456952419,0.0017305483091071,-0.0019056717997839,0.0019056691436629,-0.0019056702844817,0.0019056706888614,-0.0019056681598693,0.001905672854771,-0.0019056666440487,0.0019056744004528,-0.0015323205306102,0.0015323222605223,-0.0015323159385815,0.0015323268675144,-0.0015323247436738,0.0015323178976477,-0.0015323137278272,0.0015323292075029,-1.9931184573842e-09,3.1332253595475e-09,-0.00092980711091312,0.00092980817829792,3.0796654337761e-09,-1.9932014958153e-09,-0.0011087469771682,0.0011087480132532,-0.0011087487009716,0.0011087463178868,-0.001108745265675,0.0011087497180121,-0.0011087469870931,0.0011087480213091,-0.00093385807955934,0.00093386254775492,-0.00093386309700283,0.00093385752107625,0.72426545609265,128566,2924,0.0038699695921059,0.0071812286173966,0.0038699695928092,30.221099528495,1.7687962279565e-06,1.7687962279565e-06,1.7687962279565e-06,4165307.8165886,0.015034358199763
34219200,0.99853851693968,0.015361338125361,0.0043000694957837,0.0067611991326688,0.0043000694969087,-0.00093086605072016,0.00093086529941097,2.1948121276468e-09,-2.9603105679803e-09,5.2014903947742e-09,-6.1707609998108e-09,-0.0011099522555097,0.0011099569913707,-0.0011099539820539,0.0011099552829569,-0.001109955891891,0.0011099532296828,-0.0011099576180124,0.0011099515201342,-0.00093501048010463,0.00093501097656241,-0.00093501549001082,0.00093500589013146,-4.2475763543404e-09,7.0431589293293e-09,-1.1313336795915e-09,3.7342868983927e-09,-0.0017319574703839,0.0017319600851755,-0.0019070698391212,0.0019070671225668,-0.0019070682704612,0.001907068722111,-0.0019070661917294,0.0019070708417625,-0.0019070646233683,0.0019070724411486,-0.0015336914958855,0.0015336930757864,-0.0015336867262973,0.0015336978226311,-0.0015336956180742,0.0015336888066002,-0.0015336845902189,0.0015337001493384,-2.0146214922257e-09,3.1440513976876e-09,-0.00093086514609875,0.00093086620411324,3.1498356497713e-09,-2.064712428187e-09,-0.0011099540601507,0.0011099551211469,-0.0011099558306724,0.0011099533790714,-0.001109952337098,0.0011099568367117,-0.0011099541059074,0.0011099550926918,-0.00093500849466515,0.00093501293272651,-0.00093501354596177,0.00093500787698532,0.7059434914381,128566,2924,0.0038743685071745,0.0071870587659689,0.0038743685073819,30.832711698277,6.661693586213e-06,6.661693586213e-06,6.661693586213e-06,4171441.8079625,0.015049208658238
34419200,0.99861333358032,0.015362478978552,0.0043003867062711,0.0067617055648853,0.0043003867073961,-0.00093199800694722,0.00093199725645089,2.211111403842e-09,-2.9759924215602e-09,5.2044046567602e-09,-6.1706309130495e-09,-0.0011111902912107,0.0011111950396619,-0.0011111920287644,0.0011111933200405,-0.0011111939294047,0.0011111912767282,-0.0011111956650823,0.001111189556329,-0.00093621025264758,0.00093621077717831,-0.00093621528902232,0.000936205657647,-4.2482197396266e-09,7.0442902344158e-09,-1.1561359496051e-09,3.7591190336704e-09,-0.001733395240608,0.0017333978556097,-0.0019085212250305,0.0019085184925651,-0.0019085196417273,0.001908520108486,-0.001908517577928,0.0019085222122189,-0.0019085159940019,0.0019085238285748,-0.0015350772734545,0.0015350788041087,-0.0015350724670116,0.0015350836137396,-0.0015350813643683,0.0015350745666048,-0.0015350703290795,0.0015350859064425,-2.0343414172202e-09,3.1577759056068e-09,-0.000931997106212,0.00093199815728268,3.1770430573095e-09,-2.1053893345023e-09,-0.0011111920990332,0.0011111931665239,-0.0011111938925343,0.0011111914016799,-0.0011111903656479,0.001111194893136,-0.0011111921566074,0.001111193126904,-0.00093620827927657,0.00093621272398068,-0.00093621336277008,0.00093620763413795,0.70867958934875,128566,2924,0.0038790726527627,0.0071929985780496,0.0038790726529795,31.476554716148,1.1812437729187e-05,1.1812437729187e-05,1.1812437729187e-05,4180875.6058985,0.015064789210839
34619200,0.9986868881347,0.015363648259867,0.004300713664562,0.0067622209296181,0.004300713665687,-0.00093313166703817,0.00093313091816166,2.2281333982931e-09,-2.991585738389e-09,5.199753263585e-09,-6.162868699474e-09,-0.001112436474085,0.0011124412306576,-0.0011124382221453,0.0011124394994585,-0.0011124401080657,0.0011124374715145,-0.0011124418543823,0.0011124357403353,-0.00093741502207268,0.00093741558251685,-0.0009374200881145,0.00093741043063238,-4.2424323081933e-09,7.0378254303817e-09,-1.1469549265496e-09,3.7491342791095e-09,-0.001734841640984,0.001734844255274,-0.0019099781046972,0.0019099753817386,-0.001909976527603,0.0019099769915487,-0.0019099744612989,0.0019099790969418,-0.0019099728833813,0.001909980707535,-0.0015364710879788,0.0015364726311359,-0.0015364663043696,0.0015364774292126,-0.0015364751825381,0.0015364683893829,-0.0015364641567618,0.0015364797141897,-2.0495441214387e-09,3.1753248077793e-09,-0.00093313076637331,0.00093313181909372,3.1696054398766e-09,-2.0989852074648e-09,-0.001112438292579,0.0011124393469005,-0.0011124400814406,0.001112437586558,-0.0011124365482633,0.0011124410842598,-0.0011124383344596,0.0011124393228135,-0.00093741304705308,0.00093741753270172,-0.00093741816201998,0.00093741240960777,0.73613739147041,128566,2924,0.0038837840421328,0.0071989738608131,0.0038837840427,32.121253487475,1.6970027899798e-05,1.6970027899798e-05,1.6970027899798e-05,4189689.7185822,0.015080420996697
34819200,0.99876017770997,0.015364823678461,0.0043010425469039,0.0067627385835282,0.0043010425480289,-0.00093473967939762,0.00093473892998313,2.2437791053826e-09,-3.0075338674649e-09,5.2008624530769e-09,-6.1661955539879e-09,-0.0011142543968524,0.0011142591657388,-0.0011142561561413,0.0011142574235441,-0.0011142580328742,0.0011142554044673,-0.0011142597891453,0.0011142536636032,-0.00093915172750499,0.00093915231607524,-0.00093915682480402,0.00093914713760334,-4.243974951302e-09,7.0390959699794e-09,-1.1477500052017e-09,3.7499495403803e-09,-0.0017369196676194,0.001736922281839,-0.0019120302027598,0.001912027478986,-0.0019120286256916,0.0019120290883881,-0.001912026559247,0.0019120311945216,-0.0019120249798371,0.001912032805937,-0.0015384959637921,0.0015384975045932,-0.0015384911677485,0.0015385022971652,-0.0015385000606948,0.00153849326316,-0.0015384890324488,0.0015385045967793,-2.0674647533397e-09,3.1913747010506e-09,-0.00093473877891158,0.00093473983055567,3.187618378329e-09,-2.1143372596778e-09,-0.0011142562219523,0.0011142572750145,-0.0011142580226668,0.0011142555027939,-0.0011142544668709,0.0011142590229114,-0.0011142562634488,0.0011142572510594,-0.0009391497540413,0.00093915426112807,-0.00093915490645791,0.00093914910305859,0.74236047771399,128566,2924,0.0038904682971176,0.0072075564845917,0.0038904682973238,33.052014228525,2.4416113828197e-05,2.4416113828197e-05,2.4416113828197e-05,4198800.4936902,0.015102707511017
35019200,0.99883335451556,0.015365960371606,0.0043013589288592,0.0067632425127628,0.0043013589299842,-0.00093650462449364,0.00093650387549216,2.2613281977111e-09,-3.0246552801608e-09,5.1993650297192e-09,-6.1644579251007e-09,-0.0011162644866193,0.0011162692654417,-0.0011162662566298,0.0011162675130344,-0.0011162681204833,0.0011162655064546,-0.0011162698897457,0.0011162637530543,-0.00094106395323008,0.00094106458124523,-0.00094106908837305,0.00094105936484173,-4.2435611871775e-09,7.0386426761801e-09,-1.147941715698e-09,3.7501018359043e-09,-0.0017392186673019,0.001739221281467,-0.0019142969125245,0.0019142941872013,-0.0019142953335678,0.001914295798409,-0.0019142932680329,0.0019142979035819,-0.0019142916892886,0.0019142995147025,-0.0015407369475627,0.0015407384908103,-0.0015407321548743,0.0015407432806212,-0.0015407410427265,0.0015407342491136,-0.0015407300195161,0.0015407455793736,-2.0798216546812e-09,3.2097981735469e-09,-0.00093650372122972,0.0009365047788909,3.1678681503319e-09,-2.088062738681e-09,-0.0011162663272376,0.0011162673593711,-0.0011162681114583,0.0011162656037522,-0.0011162645608193,0.0011162691186348,-0.0011162663431879,0.0011162673610715,-0.00094106197622379,0.00094106653099581,-0.00094106715469493,0.00094106134661843,0.72136488626932,128566,2924,0.0038978054719818,0.0072170508867205,0.0038978054722855,34.08409846174,3.2672787693921e-05,3.2672787693921e-05,3.2672787693921e-05,4208576.8767714,0.015127246297689
35219200,0.99890613872605,0.015367057474646,0.0043016627816998,0.0067637319101216,0.0043016627828247,-0.00093828199044281,0.00093828124345247,2.2790364783768e-09,-3.0405484538401e-09,5.1940335902675e-09,-6.1554256724416e-09,-0.0011182388115301,0.001118243597943,-0.0011182405920897,0.0011182418346598,-0.0011182424401884,0.001118239844119,-0.0011182442207756,0.0011182380787241,-0.00094296303138954,0.00094296369889893,-0.00094296819896619,0.00094295844734295,-4.2372970053674e-09,7.0316402820985e-09,-1.1118588635338e-09,3.7130946270962e-09,-0.0017414782264021,0.0017414808396629,-0.0019165547277414,0.0019165520298102,-0.0019165531725921,0.0019165536165988,-0.0019165510871132,0.0019165557421872,-0.0019165495329836,0.0019165573278727,-0.0015429269960245,0.0015429286071618,-0.0015429222818781,0.0015429333298964,-0.0015429311293958,0.0015429243261208,-0.0015429201179995,0.0015429356378166,-2.091409562583e-09,3.2299635268034e-09,-0.0009382810841411,0.00093828214998271,3.1267793056562e-09,-2.040937447988e-09,-0.0011182406719122,0.0011182416723692,-0.0011182424263345,0.001118239946282,-0.0011182388945058,0.0011182434428597,-0.0011182406481651,0.0011182417137647,-0.00094296104084552,0.00094296566433992,-0.00094296624803373,0.00094296044966728,0.70214229613374,128566,2924,0.0039051925311784,0.0072263842124648,0.0039051925316667,35.118665613675,4.0949324909401e-05,4.0949324909401e-05,4.0949324909401e-05,4221480.3517411,0.01515172199801
35419200,0.99897739016138,0.015368096400477,0.0043019489034284,0.0067641985924956,0.0043019489045533,-0.00093968098542739,0.00093968024421295,2.2966352657478e-09,-3.0532359336019e-09,5.1750064017611e-09,-6.1255039959988e-09,-0.0011197668217999,0.001119771608974,-0.0011197686143417,0.0011197698334846,-0.0011197704371785,0.0011197678698796,-0.0011197722257779,0.0011197660963899,-0.00094444258369194,0.00094444329341778,-0.00094444777069875,0.00094443801365459,-4.2130604271312e-09,7.0051421003056e-09,-9.7570935580776e-10,3.5742983482272e-09,-0.0017432491322613,0.0017432517442541,-0.0019183507063013,0.0019183481179579,-0.0019183492425268,0.0019183496119348,-0.0019183470834148,0.001918351810671,-0.0019183456171276,0.0019183533080415,-0.0015446275413812,0.0015446293991443,-0.0015446231167393,0.0015446338741648,-0.0015446318244703,0.0015446249690663,-0.0015446208456929,0.0015446362190804,-2.0994596641671e-09,3.2568615806116e-09,-0.00093968007343087,0.00093968115662939,3.0304225078784e-09,-1.9344374077136e-09,-0.0011197687121201,0.0011197696548257,-0.0011197704014702,0.0011197679950966,-0.0011197669254156,0.0011197714352285,-0.001119768610265,0.00111976977628,-0.00094444055300744,0.0009444453027975,-0.00094444579715072,0.00094444004884699,0.68162297822196,128566,2924,0.0039110062081064,0.0072337000550269,0.0039110062089671,35.930685762617,4.7445486100933e-05,4.7445486100933e-05,4.7445486100933e-05,4233453.7910428,0.015170953993483
35619200,0.99904630260829,0.015369061177951,0.0043022127907326,0.0067646355953606,0.0043022127918577,-0.00094080470778114,0.00094080397394045,2.317075113034e-09,-3.0662275585807e-09,5.1484642418228e-09,-6.0910661983146e-09,-0.0011209475947674,0.0011209523786384,-0.0011209493983412,0.0011209505938603,-0.0011209511889147,0.0011209486607675,-0.0011209529894217,0.0011209468748124,-0.00094560585651731,0.00094560662960712,-0.00094561107963667,0.0009456013150325,-4.1837343856099e-09,6.9730902971721e-09,-8.3781425676132e-10,3.4341883421388e-09,-0.0017446312039418,0.0017446338127205,-0.00191978612749,0.0019197836440047,-0.0019197847511846,0.0019197850466703,-0.0019197825233962,0.0019197873173743,-0.0019197811463447,0.0019197887208025,-0.0015459366461094,0.001545938754529,-0.0015459324825951,0.0015459429482913,-0.0015459410659614,0.0015459341817281,-0.0015459301521609,0.0015459453729378,-2.1025174980153e-09,3.2857326802443e-09,-0.00094080378617429,0.00094080489616755,2.8872118808354e-09,-1.7587630349681e-09,-0.0011209495300635,0.0011209503804408,-0.0011209511123441,0.0011209488265269,-0.0011209477315643,0.001120952172537,-0.0011209493113037,0.0011209506173492,-0.00094560377752686,0.00094560868842433,-0.00094560904974535,0.0009456034044437,0.65729899525397,128566,2924,0.0039156743346792,0.0072394115669246,0.0039156743359648,36.574939461931,5.2599515695449e-05,5.2599515695449e-05,5.2599515695449e-05,4245539.0150799,0.015186230128469
35819200,0.9991127632872,0.015370052900284,0.0043024868431285,0.0067650792129017,0.0043024868442538,-0.00094195352503876,0.00094195279495349,2.3356190163467e-09,-3.0807845675462e-09,5.1289111217473e-09,-6.0694607519344e-09,-0.0011220841281466,0.0011220889132782,-0.00112208594344,0.0011220871187429,-0.0011220877086098,0.0011220852095562,-0.0011220895211398,0.0011220834130514,-0.0009467599754341,0.00094676080070885,-0.0009467652357511,0.00094675545635245,-4.1641688416179e-09,6.951234426148e-09,-7.2751177960275e-10,3.3221934593291e-09,-0.001745947602529,0.0017459502095026,-0.001921189212903,0.0019211868145495,-0.0019211879079559,0.0019211881419053,-0.0019211856220022,0.0019211904743308,-0.0019211843167071,0.0019211918020528,-0.0015471705672757,0.0015471728804281,-0.0015471666094466,0.0015471768397435,-0.0015471751044268,0.001547168186618,-0.0015471642358262,0.0015471793414154,-2.1085619491923e-09,3.3122668684748e-09,-0.00094195259414565,0.00094195372629147,2.786330007825e-09,-1.6274577541963e-09,-0.0011220860981899,0.0011220868806595,-0.0011220876036552,0.0011220854037898,-0.0011220842885079,0.0011220886837317,-0.0011220857917035,0.0011220872051072,-0.00094675785857518,0.00094676289574267,-0.00094676316378626,0.00094675758118268,0.69619235486152,128566,2924,0.0039204439602418,0.0072448551255346,0.0039204439611758,37.215149373716,5.7721194989729e-05,5.7721194989729e-05,5.7721194989729e-05,4260926.3858826,0.0152014390512
36019200,0.99917668667068,0.015371066286816,0.0043027692180491,0.006765527849592,0.0043027692191744,-0.0009430686767299,0.00094306794875307,2.3529633472356e-09,-3.0960259410417e-09,5.118403964401e-09,-6.0569890627889e-09,-0.0011232979682946,0.0011233027590268,-0.0011232997950193,0.0011233009538448,-0.0011233015414797,0.0011232990628281,-0.001123303364832,0.0011232972558163,-0.00094793830177384,0.00094793916821504,-0.00094794359432673,0.00094793379348998,-4.1533880164353e-09,6.9393389191359e-09,-6.4802298269564e-10,3.2417745715415e-09,-0.0017473570587023,0.0017473596646434,-0.0019226263247824,0.0019226239855391,-0.0019226250713649,0.0019226252588619,-0.0019226227414329,0.0019226276375615,-0.0019226214872441,0.0019226289116519,-0.0015485158954602,0.0015485183568449,-0.0015485120898095,0.0015485221552533,-0.0015485205211507,0.0015485135715929,-0.0015485096749693,0.0015485247054099,-2.1192642770855e-09,3.3344800351389e-09,-0.00094306774078137,0.00094306888509382,2.7209034690314e-09,-1.5470067562445e-09,-0.0011232999651679,0.0011233006998429,-0.0011233014224898,0.0011232992711057,-0.0011232981447394,0.0011233025137098,-0.0011232995993673,0.001123301083562,-0.00094793615952017,0.0009479412888411,-0.00094794149783194,0.00094793594156077,0.73586310246069,128566,2924,0.0039250777701821,0.0072506783659691,0.0039250777710064,37.855209221628,6.2841673773021e-05,6.2841673773021e-05,6.2841673773021e-05,4269301.9649325,0.01521676104065
36219200,0.99923592068621,0.015371973589479,0.0043030205677005,0.0067659324529526,0.0043030205688259,-0.00094295552527317,0.0009429548048583,2.3729643674572e-09,-3.109023508138e-09,5.0890137939693e-09,-6.0156039213118e-09,-0.0011233397431138,0.0011233445277719,-0.0011233415808882,0.0011233427120588,-0.0011233432932054,0.0011233408555437,-0.001123345127388,0.001123339036837,-0.00094790173863294,0.00094790266586304,-0.00094790705978221,0.00094789725472984,-4.1197976896556e-09,6.9028187239792e-09,-4.8396828845394e-10,3.0746082513578e-09,-0.0017475193983891,0.0017475220014605,-0.0019227540275362,0.0019227518165737,-0.001922752880419,0.0019227529800794,-0.0019227504662097,0.0019227554452194,-0.00192274931901,0.0019227566088796,-0.0015486584819235,0.0015486612421839,-0.0015486550129005,0.0015486647271254,-0.0015486632741363,0.0015486562826645,-0.0015486524910896,0.0015486673370016,-2.1206615295805e-09,3.3649584977146e-09,-0.00094295457916226,0.00094295575172824,2.5603075076866e-09,-1.361379143377e-09,-0.0011233417863075,0.0011233424235618,-0.0011233431284168,0.0011233411100109,-0.0011233399551983,0.0011233442486492,-0.001123341295323,0.0011233429329038,-0.00094789954184411,0.00094790484746466,-0.00094790490750489,0.00094789946867686,0.71361055532234,128566,2924,0.0039246145340581,0.0072513414534888,0.0039246145356184,37.827192638965,6.2617541111722e-05,6.2617541111722e-05,6.2617541111722e-05,4260376.3636444,0.015216496746441
36419200,0.99928995831371,0.015372789774913,0.0043032463047764,0.0067662971642352,0.0043032463059018,-0.00094232560002713,0.00094232488426199,2.3916411172978e-09,-3.1231545682448e-09,5.0651364488874e-09,-5.9870209323555e-09,-0.0011227656589403,0.0011227704415052,-0.0011227675082638,0.001122768615864,-0.0011227691917395,0.0011227667870696,-0.0011227710375442,0.0011227649576191,-0.0009472958333877,0.0009472968162121,-0.00094730119004704,0.00094729137376254,-4.0945153432492e-09,6.8749545906211e-09,-3.5876591900627e-10,2.9472740922702e-09,-0.0017470018021705,0.0017470044030128,-0.0019222329896232,0.0019222308769022,-0.0019222319234469,0.0019222319554949,-0.0019222294451057,0.0019222344877959,-0.0019222283792841,0.001922235566247,-0.0015481252955336,0.0015481282854973,-0.0015481220683702,0.0015481315131169,-0.0015481302175586,0.0015481231933284,-0.0015481194880603,0.0015481341954022,-2.124799004553e-09,3.3931601520062e-09,-0.00094232464361942,0.00094232584136815,2.4337760757527e-09,-1.2039436912685e-09,-0.0011227677421721,0.0011227682978924,-0.0011227689901056,0.0011227670785742,-0.0011227659001913,0.0011227701339874,-0.0011227671464324,0.001122768912016,-0.00094729359066434,0.00094729904359994,-0.00094729898720764,0.00094729363408848,0.70434020394876,128566,2924,0.0039220026558485,0.007249197118534,0.0039220026572921,37.496204926987,5.9969639415894e-05,5.9969639415894e-05,5.9969639415894e-05,4250539.1216986,0.01520901709188
36619200,0.99933929820896,0.015373491331922,0.0043034386157938,0.0067666140992087,0.0043034386169193,-0.00094170074387163,0.0009417000285684,2.4077832251859e-09,-3.1387166070189e-09,5.0599539150724e-09,-5.9825817844684e-09,-0.0011221543640889,0.0011221591552118,-0.0011221562249885,0.0011221573190107,-0.0011221578944396,0.0011221555036081,-0.0011221597502732,0.001122153664291,-0.00094667327049551,0.00094667428671855,-0.00094667865847769,0.00094666881756067,-4.0901881900878e-09,6.8697990038266e-09,-2.9760134989481e-10,2.8856243820383e-09,-0.0017464261269213,0.0017464287272823,-0.001921667025107,0.0019216649565617,-0.0019216659991736,0.0019216659923146,-0.0019216634843753,0.0019216685638446,-0.0019216624574568,0.0019216696005027,-0.001547534757579,0.0015475378635242,-0.001547531640209,0.0015475409616793,-0.0015475397545338,0.0015475326965935,-0.0015475290341972,0.0015475436940969,-2.1403518581133e-09,3.411153665348e-09,-0.00094169978572161,0.00094170098717768,2.4085039041531e-09,-1.1703458298724e-09,-0.0011221564653493,0.0011221569935215,-0.0011221576946023,0.0011221557928566,-0.0011221546127312,0.0011221588401923,-0.0011221558390179,0.0011221576381032,-0.00094667101536959,0.00094667652395593,-0.00094667644835897,0.00094667107962447,0.66675281302448,128566,2924,0.0039194101026281,0.0072468148294388,0.0039194101035853,37.157816506497,5.7262532051976e-05,5.7262532051976e-05,5.7262532051976e-05,4242588.7157881,0.015201334269659
36819200,0.99938440503723,0.015374114684922,0.0043036088411741,0.0067668970014487,0.0043036088422997,-0.00094112147231434,0.00094112075471433,2.4230852881301e-09,-3.1561703307355e-09,5.0693651188239e-09,-5.9953014042751e-09,-0.0011214789004366,0.0011214837075679,-0.0011214807720895,0.001121481860591,-0.0011214824377934,0.0011214800486852,-0.0011214843049711,0.0011214781985586,-0.00094603761707802,0.00094603865698907,-0.00094604303886265,0.00094603315627977,-4.1005478052558e-09,6.8811840851379e-09,-3.2631726440804e-10,2.9153317877327e-09,-0.0017457516297224,0.0017457542309317,-0.0019210560190602,0.0019210539238937,-0.0019210549729799,0.0019210549799177,-0.0019210524711002,0.0019210575386136,-0.0019210514243788,0.0019210585952413,-0.0015468317070223,0.0015468347636346,-0.0015468285296225,0.0015468379171203,-0.0015468366791901,0.0015468296207723,-0.0015468259396816,0.0015468406414882,-2.1592783427568e-09,3.4245943431163e-09,-0.00094112051556606,0.00094112171189174,2.4278590767482e-09,-1.1939556102744e-09,-0.0011214810108682,0.0011214815365701,-0.0011214822540395,0.0011214803220524,-0.0011214791472179,0.001121483394068,-0.0011214803876884,0.0011214821778267,-0.00094603536806265,0.00094604088772734,-0.00094604083284304,0.00094603541265288,0.64957834162561,128566,2924,0.0039170025322249,0.0072440294919235,0.0039170025331226,36.819152622061,5.4553220976489e-05,5.4553220976489e-05,5.4553220976489e-05,4240895.3489921,0.015193615266448
37019200,0.99942686893214,0.015374742015651,0.004303782133886,0.0067671777467532,0.0043037821350115,-0.00094151316663681,0.00094151243735864,2.4338491482722e-09,-3.1779957983553e-09,5.1195476530705e-09,-6.0614556389263e-09,-0.0011217736261818,0.0011217784718343,-0.001121775508213,0.0011217766136929,-0.0011217772012991,0.0011217747741397,-0.0011217790797609,0.0011217729134961,-0.00094638287730629,0.00094638390204721,-0.0009463883348712,0.00094637837199833,-4.1561061898676e-09,6.9419249044887e-09,-5.6598516295354e-10,3.1599733260428e-09,-0.0017461042245926,0.0017461068305958,-0.0019214972111297,0.0019214949235104,-0.0019214960087804,0.0019214961410745,-0.0019214936258212,0.0019214985773612,-0.0019214924228343,0.0019214997955319,-0.0015471282179668,0.0015471308430793,-0.0015471245603146,0.0015471344660124,-0.0015471329533385,0.0015471259449232,-0.0015471221058204,0.0015471370887372,-2.1983474194972e-09,3.4181902789467e-09,-0.00094151222635857,0.00094151337774619,2.6431406866605e-09,-1.4545810838414e-09,-0.0011217757040933,0.0011217763322396,-0.0011217771050505,0.0011217749599143,-0.0011217738292293,0.0011217782002591,-0.0011217752274891,0.0011217768263659,-0.00094638070459855,0.00094638605150885,-0.00094638620374637,0.0009463805458308,0.68961816044579,128566,2924,0.0039186256607083,0.0072454919143265,0.0039186256609598,37.016268984521,5.613015187617e-05,5.613015187617e-05,5.613015187617e-05,4250313.4823191,0.015198392612993
37219200,0.9994670844654,0.01537537779139,0.0043039594451113,0.0067674589000416,0.0043039594462368,-0.00094209438224625,0.00094209364330249,2.4452342290081e-09,-3.1990401205254e-09,5.1691422946078e-09,-6.1207746438008e-09,-0.0011223975987511,0.001122402481722,-0.0011223994905954,0.0011224006115349,-0.0011224012094594,0.0011223987474703,-0.0011224030982743,0.0011223968757201,-0.00094698967480726,0.00094699068477421,-0.00094699516102131,0.00094698512050294,-4.2078906974158e-09,6.9988535307112e-09,-8.2414152921847e-10,3.4224503216684e-09,-0.0017468235153955,0.0017468261258625,-0.0019222430183313,0.0019222405285206,-0.001922241648674,0.0019222419205827,-0.0019222393979528,0.0019222442186441,-0.0019222380275651,0.0019222456114958,-0.0015478051246198,0.0015478072779233,-0.0015478009697185,0.0015478114275883,-0.0015478095926376,0.0015478026532874,-0.0015477986370298,0.0015478139028397,-2.2381730706468e-09,3.410892416839e-09,-0.00094209346163021,0.00094209456422697,2.8652473327196e-09,-1.7355605955155e-09,-0.0011223996401668,0.0011224003779906,-0.0011224012078035,0.001122398838886,-0.0011223977544311,0.0011224022566794,-0.0011223993194172,0.0011224007162227,-0.00094698758539764,0.00094699275249365,-0.00094699311543856,0.00094698721467592,0.73362543626693,128566,2924,0.0039210404893627,0.0072484643151795,0.0039210404900168,37.343089279358,5.8744714234863e-05,5.8744714234863e-05,5.8744714234863e-05,4254571.5672511,0.015206314047271
37419200,0.99950512627163,0.015375936643223,0.0043041135203807,0.0067677096013365,0.0043041135215063,-0.00094262982193691,0.00094262907656613,2.458381294661e-09,-3.2185134657183e-09,5.2034818536185e-09,-6.162081632136e-09,-0.0011230993980743,0.001123104310571,-0.0011231012996495,0.0011231024285585,-0.0011231030332372,0.0011231005509548,-0.0011231049326801,0.001123098667942,-0.00094761460981642,0.00094761562008189,-0.00094762012629339,0.00094761002237716,-4.2444111262712e-09,7.0388632412655e-09,-1.0251855058159e-09,3.6264759298261e-09,-0.0017476491225646,0.0017476517360601,-0.0019230293813744,0.001923026736319,-0.0019230278814186,0.001923028264113,-0.0019230257362444,0.0019230304521932,-0.0019230242357003,0.0019230319805306,-0.0015486110080681,0.0015486127916563,-0.0015486064634352,0.0015486173478961,-0.0015486152628225,0.0015486083853472,-0.0015486042322892,0.0015486197101278,-2.2731465728149e-09,3.408298025493e-09,-0.00094262891758572,0.00094262998132887,3.0523274657264e-09,-1.9682457673647e-09,-0.0011231014082781,0.0011231022372558,-0.0011231031148634,0.001123100559103,-0.0011230995114914,0.0011231041267075,-0.0011231012157536,0.0011231024470979,-0.00094761259256862,0.0009476176159088,-0.00094761815403502,0.00094761204644097,0.68665559501974,128566,2924,0.0039232697921466,0.007251870298025,0.003923269793011,37.673153889407,6.1385231115253e-05,6.1385231115253e-05,6.1385231115253e-05,4251826.3724056,0.015214302172715
37619200,0.99954106283582,0.015376445607419,0.0043042530731213,0.006767939460051,0.0043042530742468,-0.00094320389376554,0.00094320314444549,2.4727425654598e-09,-3.2366756362888e-09,5.2247319849857e-09,-6.1876463291226e-09,-0.001123710557983,0.0011237154929962,-0.0011237124696408,0.0011237135993886,-0.0011237142082104,0.0011237117175564,-0.0011237161183408,0.0011237098235781,-0.00094821525363944,0.00094821627637914,-0.00094822080100962,0.00094821064599687,-4.2668299837435e-09,7.0635075522223e-09,-1.1780201603516e-09,3.7812277363235e-09,-0.0017483625093772,0.0017483651248586,-0.0019237687219865,0.0019237659627559,-0.0019237671236965,0.0019237675937259,-0.0019237650618361,0.001923769694409,-0.0019237634629666,0.0019237713259297,-0.0015492802664511,0.0015492817654316,-0.0015492754258874,0.0015492866298336,-0.0015492843531256,0.0015492775327189,-0.0015492732763065,0.0015492889038993,-2.3032914094182e-09,3.4106839592211e-09,-0.00094320300181349,0.00094320403679774,3.1882185245537e-09,-2.1377478842383e-09,-0.0011237125474854,0.0011237134397536,-0.0011237143552006,0.0011237116604039,-0.0011237106397308,0.0011237153399154,-0.001123712445211,0.0011237135591934,-0.0009482132903586,0.00094821821761333,-0.00094821888371776,0.00094821261634198,0.66415286331748,128566,2924,0.0039256547857017,0.0072548183149664,0.0039256547865408,38.003339763481,6.4026718107846e-05,6.4026718107846e-05,6.4026718107846e-05,4257092.9595499,0.015222138024402
37819200,0.99957404847821,0.015376894051397,0.0043043752085662,0.0067681436331392,0.0043043752096917,-0.00094286780544124,0.0009428670638343,2.4925540007745e-09,-3.2491013171791e-09,5.1935405058106e-09,-6.1462306183441e-09,-0.0011233060082569,0.0011233109373258,-0.001123307930748,0.0011233090327681,-0.0011233096348086,0.0011233071858729,-0.0011233115553453,0.0011233052810351,-0.00094783586865028,0.00094783695284019,-0.00094784144474374,0.00094783128904628,-4.2317023373984e-09,7.0251923893713e-09,-1.0856161238197e-09,3.6857548536604e-09,-0.0017479650817324,0.0017479676942443,-0.001923428692738,0.0019234260167275,-0.0019234271557604,0.0019234275850771,-0.0019234250563491,0.0019234297235946,-0.0019234235186053,0.0019234312927055,-0.0015488508853117,0.0015488525408705,-0.0015488462334398,0.0015488572261887,-0.0015488550450281,0.0015488482317796,-0.0015488440365685,0.0015488595259383,-2.3099215989789e-09,3.4367219640996e-09,-0.00094286690819367,0.00094286796171349,3.0976908541119e-09,-2.0297095733623e-09,-0.0011233080239163,0.0011233088583081,-0.0011233097659117,0.0011233071446783,-0.0011233061055237,0.001123310769436,-0.0011233078451046,0.0011233090545434,-0.00094783387834623,0.00094783892405178,-0.00094783950244619,0.00094783328986138,0.64016141785115,128566,2924,0.0039242573723202,0.00725317806077,0.0039242573736288,37.804130163427,6.2433041307413e-05,6.2433041307413e-05,6.2433041307413e-05,4257181.3539533,0.015217633271832
38019200,0.99960427810993,0.015377323444746,0.0043044930866483,0.0067683372703236,0.0043044930877739,-0.00094248472964952,0.00094248399584107,2.5126633018205e-09,-3.2614244806635e-09,5.1573392069358e-09,-6.1018363671757e-09,-0.0011227767955949,0.0011227817165055,-0.0011227787295954,0.0011227798017258,-0.0011227803958248,0.0011227779918798,-0.0011227823274076,0.0011227760766294,-0.00094736986789938,0.00094737101875304,-0.00094737547777014,0.00094736532497199,-4.1927944004209e-09,6.9824447519881e-09,-9.4728476398306e-10,3.5441594952426e-09,-0.0017474106089901,0.0017474132181581,-0.0019229642647308,0.0019229617044805,-0.0019229628180722,0.0019229631787987,-0.0019229606547639,0.0019229653839159,-0.0019229592071759,0.0019229668591937,-0.0015482591250208,0.0015482610254541,-0.001548254740714,0.0015482654279255,-0.0015482634142795,0.001548256585006,-0.001548252485915,0.0015482677992533,-2.3130342262745e-09,3.4662922725567e-09,-0.00094248382249353,0.00094248490345608,2.9725643761399e-09,-1.8716742858284e-09,-0.0011227788465609,0.0011227796025773,-0.0011227804949443,0.0011227779826372,-0.0011227769174594,0.0011227815245635,-0.0011227785631262,0.0011227799034688,-0.00094736783488129,0.00094737303144113,-0.0009473734916125,0.00094736736527959,0.66569814068795,128566,2924,0.003922662075664,0.0072508921980713,0.0039226620766208,37.559825116114,6.0478600928913e-05,6.0478600928913e-05,6.0478600928913e-05,4260094.2958928,0.015212069619774
38219200,0.99963200626613,0.015377720586159,0.0043046022695376,0.0067685160459585,0.0043046022706632,-0.00094207528051823,0.0009420745531235,2.5322880223226e-09,-3.2746767517855e-09,5.1270665704151e-09,-6.0647070117461e-09,-0.0011223025889754,0.0011223075046403,-0.0011223045342051,0.0011223055796131,-0.0011223061670095,0.0011223038027244,-0.0011223081098543,0.001122301876444,-0.00094691797538361,0.00094691918751433,-0.00094692361898476,0.00094691346233314,-4.1613754909529e-09,6.9479401466684e-09,-8.0885618423409e-10,3.4030825686341e-09,-0.0017469164102277,0.0017469190166859,-0.0019225162753236,0.0019225138255772,-0.0019225149183505,0.0019225152064949,-0.0019225126864617,0.0019225174831366,-0.0019225113289154,0.0019225188645868,-0.0015477419716049,0.0015477441227817,-0.0015477378558176,0.0015477482435685,-0.0015477463991146,0.0015477395406098,-0.0015477355361529,0.001547750689383,-2.3170034414184e-09,3.494506897327e-09,-0.00094207436406261,0.00094207546998285,2.8564190950633e-09,-1.7259528921787e-09,-0.0011223046745194,0.0011223053565001,-0.0011223062358933,0.0011223038236052,-0.0011223027345574,0.0011223072894705,-0.0011223042935265,0.0011223057549806,-0.00094691590212087,0.00094692124022254,-0.00094692159041486,0.00094691554299209,0.67076171952395,128566,2924,0.0039209602066504,0.0072488518011343,0.0039209602074953,37.314282793426,5.8514262347409e-05,5.8514262347409e-05,5.8514262347409e-05,4257971.1844759,0.01520654108175
38419200,0.99965763415667,0.015378113046149,0.0043047113006693,0.0067686904436851,0.0043047113017949,-0.00094188875887748,0.00094188803297877,2.5492416999527e-09,-3.2900275736036e-09,5.1179095530435e-09,-6.0548786014091e-09,-0.0011220792745243,0.0011220841965179,-0.0011220812310713,0.0011220822609861,-0.0011220828465023,0.0011220805008252,-0.0011220848002455,0.0011220785642084,-0.00094670714180814,0.00094670839381596,-0.00094671281841169,0.0009467026386945,-4.1519371864043e-09,6.9375219989945e-09,-7.4346651460832e-10,3.3369785415373e-09,-0.0017466896473613,0.0017466922529863,-0.0019223247888901,0.0019223223882624,-0.001922323474376,0.0019223237247558,-0.0019223212066525,0.0019223260390501,-0.0019223198912444,0.0019223273764372,-0.00154749137693,0.0015474936499102,-0.0015474873834868,0.0015474976348021,-0.0015474958768339,0.0015474889931583,-0.0015474850347453,0.0015475001251908,-2.3269235761225e-09,3.5174008630322e-09,-0.00094188783631174,0.00094188895586331,2.7942570746291e-09,-1.6460217446261e-09,-0.001122081385887,0.0011220820226755,-0.0011220829004219,0.0011220805366552,-0.0011220794351346,0.0011220839663659,-0.0011220809468676,0.0011220824790884,-0.0009467050423158,0.0009467104718151,-0.00094671076380498,0.00094670474235914,0.71253732562947,128566,2924,0.0039201847962771,0.0072479160316221,0.0039201847969521,37.196589875519,5.7572719004154e-05,5.7572719004154e-05,5.7572719004154e-05,4256867.7412748,0.01520401586311
38619200,0.99968147400882,0.015378480170743,0.0043048133538725,0.0067688534618725,0.004304813354998,-0.0009418610687817,0.0009418603411357,2.5646414673809e-09,-3.307120828726e-09,5.1244962717374e-09,-6.0638190021389e-09,-0.0011221437980484,0.0011221487339422,-0.0011221457647297,0.0011221467878283,-0.0011221473747294,0.0011221450333773,-0.0011221493393493,0.001122143085513,-0.00094672516961466,0.00094672644671771,-0.00094673087845172,0.00094672066018359,-4.1596497920247e-09,6.9459812363353e-09,-7.1948561738473e-10,3.3137460753909e-09,-0.0017467902483378,0.0017467928546784,-0.0019223973056257,0.0019223949152636,-0.001922396005846,0.0019223962362295,-0.0019223937179932,0.0019223985719311,-0.0019223924176932,0.0019223998927891,-0.0015475847797772,0.0015475871060894,-0.0015475808289171,0.0015475910405214,-0.0015475893206391,0.0015475824079691,-0.0015475784636036,0.0015475935560796,-2.3445742964308e-09,3.5323837836011e-09,-0.00094186014657162,0.00094186126365652,2.8014780510627e-09,-1.6545203024835e-09,-0.001122145920738,0.0011221465484623,-0.0011221474400351,0.001122145057576,-0.0011221439585687,0.0011221485033715,-0.0011221454757377,0.0011221470105818,-0.00094672307023605,0.00094672852379663,-0.00094672882438181,0.00094672276266577,0.71625966322742,128566,2924,0.0039200734587242,0.0072483277637806,0.003920073459385,37.193719616748,5.7549756933988e-05,5.7549756933988e-05,5.7549756933988e-05,4250743.7393963,0.015204210269359
38819200,0.99970365398875,0.015378822952221,0.0043049086941098,0.0067690055628762,0.0043049086952354,-0.00094183356177812,0.00094183283215148,2.5802516943429e-09,-3.3247380545134e-09,5.1354405150177e-09,-6.0762993341675e-09,-0.0011222111795621,0.0011222161329433,-0.0011222131585132,0.0011222141754273,-0.0011222147647355,0.0011222124241309,-0.0011222167403392,0.0011222104661081,-0.00094674641321364,0.00094674771201255,-0.00094675215333123,0.00094674189337841,-4.1702567078731e-09,6.9576629816424e-09,-7.6915728447881e-10,3.3642252713449e-09,-0.0017468990583384,0.001746901665622,-0.0019224738902664,0.0019224714614914,-0.0019224725589545,0.0019224728158244,-0.0019224702958371,0.0019224751248354,-0.0019224689631648,0.0019224764806627,-0.001547690464783,0.0015476926991934,-0.0015476864217287,0.0015476967396467,-0.0015476949545228,0.0015476880513518,-0.0015476840739619,0.0015476992218205,-2.3572945010082e-09,3.5514683033109e-09,-0.00094183263563476,0.0009418337586799,2.7713073364632e-09,-1.6200007080058e-09,-0.0011222133237981,0.0011222139266227,-0.001122214822313,0.0011222124567394,-0.0011222113517909,0.0011222158914372,-0.0011222128470436,0.0011222144208731,-0.00094674429565915,0.00094674980944475,-0.00094675008071256,0.00094674401615615,0.71844599930726,128566,2924,0.0039199629531845,0.007248773211653,0.0039199629539935,37.193612824815,5.7548902598522e-05,5.7548902598522e-05,5.7548902598522e-05,4244833.0749997,0.015204440544088
38880000,0.9997102467248,0.015378924972349,0.0043049370815705,0.0067690508080828,0.0043049370826961,-0.00094182113133777,0.00094182040095793,2.5844394910134e-09,-3.3297336251708e-09,5.1394095375977e-09,-6.0808551677546e-09,-0.0011222308103939,0.0011222357682421,-0.0011222327913644,0.0011222338078699,-0.0011222343977201,0.0011222320571254,-0.0011222363764904,0.0011222300950209,-0.00094675340449562,0.00094675470992469,-0.00094675915394494,0.00094674887979003,-4.1750915264668e-09,6.9629152164844e-09,-7.3903538485864e-10,3.3344472232791e-09,-0.0017469340299277,0.0017469366375178,-0.001922497343215,0.0019224949310544,-0.0019224960311586,0.0019224962650067,-0.0019224937449745,0.0019224985984225,-0.0019224924326388,0.0019224999325537,-0.0015477245667568,0.0015477268656969,-0.0015477205838756,0.0015477308452893,-0.0015477291026041,0.001547722171629,-0.0015477182130517,0.0015477333497982,-2.3679793266401e-09,3.5513723758564e-09,-0.00094182021021684,0.00094182132248391,2.8153091250329e-09,-1.6763584028583e-09,-0.0011222329472226,0.0011222335689575,-0.0011222344786303,0.001122232065997,-0.0011222309710767,0.0011222355379415,-0.0011222325004169,0.0011222340331043,-0.00094675130764526,0.00094675678603553,-0.00094675710146527,0.00094675098373759,0.71909630226821,128566,2924,0.0039199125920086,0.0072489162874598,0.003919912592858,37.193608951735,5.7548871613882e-05,5.7548871613882e-05,5.7548871613882e-05,4242929.6196647,0.015204484305975
