time,ASR_ext,ASR_strain,ASR_strain_xx,ASR_strain_yy,ASR_strain_zz,disp_x_101,disp_x_102,disp_x_103,disp_x_104,disp_x_105,disp_x_106,disp_x_p10_neg,disp_x_p10_pos,disp_x_p11_neg,disp_x_p11_pos,disp_x_p12_neg,disp_x_p12_pos,disp_x_p13_neg,disp_x_p13_pos,disp_x_p14_neg,disp_x_p14_pos,disp_x_p15_neg,disp_x_p15_pos,disp_x_p16_neg,disp_x_p16_pos,disp_x_p1_neg,disp_x_p1_pos,disp_x_p2_neg,disp_x_p2_pos,disp_x_p3_neg,disp_x_p3_pos,disp_x_p4_neg,disp_x_p4_pos,disp_x_p5_neg,disp_x_p5_pos,disp_x_p6_neg,disp_x_p6_pos,disp_x_p7_neg,disp_x_p7_pos,disp_x_p8_neg,disp_x_p8_pos,disp_x_p9_neg,disp_x_p9_pos,disp_y_101,disp_y_102,disp_y_103,disp_y_104,disp_y_105,disp_y_106,disp_y_p10_neg,disp_y_p10_pos,disp_y_p11_neg,disp_y_p11_pos,disp_y_p12_neg,disp_y_p12_pos,disp_y_p1_neg,disp_y_p1_pos,disp_y_p2_neg,disp_y_p2_pos,disp_y_p3_neg,disp_y_p3_pos,disp_y_p4_neg,disp_y_p4_pos,disp_y_p5_neg,disp_y_p5_pos,disp_y_p6_neg,disp_y_p6_pos,disp_y_p7_neg,disp_y_p7_pos,disp_y_p8_neg,disp_y_p8_pos,disp_y_p9_neg,disp_y_p9_pos,disp_z_101,disp_z_102,disp_z_103,disp_z_104,disp_z_105,disp_z_106,disp_z_p10_neg,disp_z_p10_pos,disp_z_p11_neg,disp_z_p11_pos,disp_z_p12_neg,disp_z_p12_pos,disp_z_p13_neg,disp_z_p13_pos,disp_z_p14_neg,disp_z_p14_pos,disp_z_p15_neg,disp_z_p15_pos,disp_z_p16_neg,disp_z_p16_pos,disp_z_p1_neg,disp_z_p1_pos,disp_z_p2_neg,disp_z_p2_pos,disp_z_p3_neg,disp_z_p3_pos,disp_z_p4_neg,disp_z_p4_pos,disp_z_p5_neg,disp_z_p5_pos,disp_z_p6_neg,disp_z_p6_pos,disp_z_p7_neg,disp_z_p7_pos,disp_z_p8_neg,disp_z_p8_pos,disp_z_p9_neg,disp_z_p9_pos,humidity,ndof,nelem,strain_xx,strain_yy,strain_zz,temp,thermal_strain_xx,thermal_strain_yy,thermal_strain_zz,vonmises,vstrain
14391759,0,0,0,0,0,0,0,0,0,0,0,0,0,0,0,0,0,0,0,0,0,0,0,0,0,0,0,0,0,0,0,0,0,0,0,0,0,0,0,0,0,0,0,0,0,0,0,0,0,0,0,0,0,0,0,0,0,0,0,0,0,0,0,0,0,0,0,0,0,0,0,0,0,0,0,0,0,0,0,0,0,0,0,0,0,0,0,0,0,0,0,0,0,0,0,0,0,0,0,0,0,0,0,0,0,0,0,0,0,0,0,0,0,0,0,0,0,0,0,0,0,0,0
14591759,0.019304940905348,0.00033943654472334,0.00011314551490778,0.00011314551490778,0.00011314551490778,-2.8350693151789e-05,2.833832783079e-05,-2.3589761917205e-08,-2.1580302540869e-08,-2.3194389951173e-09,-3.0563240573286e-09,-2.4497487865597e-05,2.44020542014e-05,-2.7565997485238e-05,2.7559198231045e-05,-2.756358968149e-05,2.7606567460233e-05,-2.4506629869322e-05,2.442118734857e-05,-2.4496616415896e-05,2.4402753818085e-05,-2.7565311089727e-05,2.7560005669115e-05,-2.7562802597039e-05,2.7607275398165e-05,-2.9751519599295e-05,2.9743518791085e-05,-2.9748748788106e-05,2.975788487144e-05,-2.9751724763121e-05,2.974325576047e-05,-2.9749000373696e-05,2.9757668133803e-05,-2.7520938873833e-05,2.7478709256211e-05,-2.7511912282574e-05,2.7453414638284e-05,-2.7520736361955e-05,2.7479006638515e-05,-2.7511619262616e-05,2.7453621872215e-05,-2.4507315613835e-05,2.4420299773886e-05,-2.776405666527e-10,5.6410061835413e-10,-1.4601718281317e-08,1.4874763337264e-08,-3.0329448780838e-05,3.0329723693315e-05,-2.9237756108207e-05,2.9266657217143e-05,-2.9533405938674e-05,2.9523063664662e-05,-2.9528006294524e-05,2.9519342419937e-05,-3.0806745692586e-05,3.0797051734717e-05,-3.07992105912e-05,3.0808937410661e-05,-3.0806539601015e-05,3.0797356272527e-05,-3.080149759105e-05,3.0811734914939e-05,-2.9265907431938e-05,2.9237548612198e-05,-2.9246530632283e-05,2.9275979796446e-05,-2.9524432914099e-05,2.9533663096941e-05,-2.9493895186021e-05,2.950480310263e-05,-2.9259116493501e-05,2.9230209609367e-05,-1.396940007324e-09,3.5600072769659e-08,-2.9278447358741e-05,2.9277791133467e-05,1.3803213186173e-08,-1.5378681903193e-08,-2.7878955284085e-05,2.784557955165e-05,-2.8446563471718e-05,2.8347308196689e-05,-2.8456099429062e-05,2.8412926955928e-05,-2.7894648457793e-05,2.8131084340807e-05,-2.7850101539477e-05,2.7874473595176e-05,-2.8417848002601e-05,2.8376000086091e-05,-2.842740225863e-05,2.8441638046189e-05,-3.0084952044548e-05,3.0086606349999e-05,-3.0094641567732e-05,3.0076911401218e-05,-3.0081861985015e-05,3.0079136148686e-05,-3.0091558901388e-05,3.0069448700532e-05,-2.8700191478305e-05,2.8757424013974e-05,-2.8683950643386e-05,2.8671845184212e-05,-2.8674199862891e-05,2.8681613415239e-05,-2.8690423493988e-05,2.8767174079477e-05,-2.7923540501703e-05,2.8102232205162e-05,0.70642003184944,128566,2924,0.00011809511304304,0.00012636517881401,0.00012198462387216,31.367280587932,1.0938244703454e-05,1.0938244703454e-05,1.0938244703454e-05,622936.56269053,0.00036651244846392
14791759,0.038383326396065,0.00067161317354487,0.00022198120556353,0.00022597344330857,0.00022365852467277,-5.2586967703669e-05,5.255975577504e-05,-5.610285003003e-08,-4.1806520635561e-08,-6.9725515785449e-09,-2.5466471062035e-09,-4.4035110921833e-05,4.3843588661216e-05,-5.0694913602729e-05,5.068299641909e-05,-5.0685675645604e-05,5.0791657511626e-05,-4.4073125761983e-05,4.3875105407502e-05,-4.4039309987107e-05,4.3839275375524e-05,-5.0699188375534e-05,5.0678657191758e-05,-5.0689925058815e-05,5.0787283142323e-05,-5.6370735895344e-05,5.6346527212827e-05,-5.6361252688659e-05,5.6381787104059e-05,-5.636929531122e-05,5.6348017704775e-05,-5.6359819284787e-05,5.638328812769e-05,-5.0469454180202e-05,5.036875747222e-05,-5.0439038173907e-05,5.0318145860853e-05,-5.0470904251326e-05,5.0367301286025e-05,-5.0440478886768e-05,5.031667077962e-05,-4.406888330982e-05,4.387934852682e-05,1.3967556326459e-09,-2.8645228046604e-09,-9.9710409873529e-09,8.5651553974959e-09,-5.7278461049169e-05,5.7277048190356e-05,-5.4597263519375e-05,5.4615436688473e-05,-5.5089266649676e-05,5.5085823694661e-05,-5.5079104499463e-05,5.5067285061556e-05,-5.922909716661e-05,5.9222958711057e-05,-5.9227539074751e-05,5.92337784623e-05,-5.9229146944744e-05,5.9220108488838e-05,-5.9231935460645e-05,5.9235278356955e-05,-5.461605317465e-05,5.4595077051819e-05,-5.4609693758876e-05,5.4624996289168e-05,-5.5085076003249e-05,5.5093987712947e-05,-5.5016533975989e-05,5.5017078864185e-05,-5.4599001897253e-05,5.458090557118e-05,6.8231029684541e-09,8.7935552307733e-08,-5.4688750761988e-05,5.4695619004704e-05,1.3779301476401e-08,-4.6510877810234e-09,-5.0834752727147e-05,5.0826644215229e-05,-5.2718472529638e-05,5.2544431944422e-05,-5.2740802789021e-05,5.2703273207006e-05,-5.0909478405561e-05,5.1386775031383e-05,-5.0816762438141e-05,5.0844779625713e-05,-5.2700433079525e-05,5.2562431814968e-05,-5.272281618939e-05,5.2721335098655e-05,-5.7295208956301e-05,5.7296049735166e-05,-5.7301336819491e-05,5.7289894476233e-05,-5.7287983780878e-05,5.7270807040457e-05,-5.72941338665e-05,5.726467735625e-05,-5.3030849067686e-05,5.3190318093146e-05,-5.2994470832493e-05,5.3002558703586e-05,-5.2988346913332e-05,5.3008745381542e-05,-5.3024674882202e-05,5.3196444775678e-05,-5.0927582504379e-05,5.1368780714852e-05,0.70581018696893,128566,2924,0.00021903141417456,0.00023862817551225,0.00022785757219429,31.08757733722,8.7006186977596e-06,8.7006186977596e-06,8.7006186977596e-06,1250343.9965694,0.00068575453494039
14991759,0.056239199094889,0.00097835710902264,0.00032116562464502,0.00033176686813642,0.0003254246162412,-7.3666740683331e-05,7.3610154206441e-05,-1.1784324791769e-07,-8.0428602688395e-08,-1.9283367257536e-08,-1.1174478551405e-08,-5.9241930460251e-05,5.8859124423105e-05,-6.9938037531461e-05,6.9902958806633e-05,-6.9913835723019e-05,7.0099155479331e-05,-5.9331379319858e-05,5.8943251336275e-05,-5.9249768050017e-05,5.8851266160919e-05,-6.9945862992954e-05,6.9894961685763e-05,-6.9921702303212e-05,7.0091185126091e-05,-8.0463863293774e-05,8.0410332534135e-05,-8.0441092530112e-05,8.0486978471825e-05,-8.0461254672761e-05,8.0413077873701e-05,-8.0438459954419e-05,8.048970516821e-05,-7.0176648128509e-05,6.9958624007291e-05,-7.0106163019102e-05,6.9845187669143e-05,-7.0179284240745e-05,6.995591431856e-05,-7.0108850636547e-05,6.9842515065056e-05,-5.9323627663944e-05,5.8951152601541e-05,2.732729135668e-09,-5.1652078475193e-09,-9.6744737300272e-09,7.3370773614112e-09,-8.2192970416458e-05,8.2190625362193e-05,-7.8161691441242e-05,7.8178632103077e-05,-7.9948970350564e-05,7.9948630834559e-05,-7.9942648925964e-05,7.9926790063398e-05,-8.5093459255948e-05,8.5088062744513e-05,-8.509576365598e-05,8.5101870417033e-05,-8.5095247147521e-05,8.5084494650748e-05,-8.5101737102644e-05,8.5102493361054e-05,-7.816414039045e-05,7.8142539333081e-05,-7.8147945362023e-05,7.8159586847762e-05,-7.9948917321664e-05,7.9959966156028e-05,-7.98642950861e-05,7.9859840346676e-05,-7.8141984534735e-05,7.81256972843e-05,2.2582900651111e-08,1.5436369106747e-07,-7.7346659088795e-05,7.7363215896811e-05,1.9014673042633e-08,1.9701697931836e-09,-7.1365177825262e-05,7.1385173566082e-05,-7.376704237464e-05,7.3475751756487e-05,-7.3791877722283e-05,7.3744718331058e-05,-7.1557685024386e-05,7.2391698198014e-05,-7.1348736080945e-05,7.1401804010505e-05,-7.3750431039783e-05,7.349230992701e-05,-7.3775328033411e-05,7.3761351994972e-05,-8.1746520365289e-05,8.1752654490786e-05,-8.1752204175692e-05,8.1746931586082e-05,-8.1739391046626e-05,8.1701142586534e-05,-8.1745106757985e-05,8.1695456540767e-05,-7.5840649400604e-05,7.6151464167378e-05,-7.5738039968777e-05,7.577820235667e-05,-7.5732403725603e-05,7.5783922505401e-05,-7.5834944352351e-05,7.615709999499e-05,-7.1574277245228e-05,7.2375261937419e-05,0.70496388730269,128566,2924,0.00030677960910078,0.00034240561518003,0.00032225910414971,30.084857352675,6.788588213963e-07,6.788588213963e-07,6.788588213963e-07,1391603.4066837,0.00097192180070511
15191759,0.072469258412812,0.0012384297513309,0.00040406880822568,0.00042297330950183,0.0004113876336034,-9.0941122016557e-05,9.0846117255144e-05,-2.0184650588191e-07,-1.3025431582558e-07,-3.2748181004048e-08,-1.8637464449825e-08,-6.8396795703402e-05,6.7724302552013e-05,-8.4835606911769e-05,8.478054915762e-05,-8.4789025719396e-05,8.5103275833985e-05,-6.856338744859e-05,6.7916491536183e-05,-6.8410410921681e-05,6.7710650147598e-05,-8.4849243972755e-05,8.4766681963834e-05,-8.4802699547386e-05,8.5089424669499e-05,-0.00010116002627659,0.00010106305225054,-0.00010111686521583,0.00010118948063054,-0.00010115546184974,0.00010106782428408,-0.0001011122620354,0.00010119422203165,-8.5912325953866e-05,8.5539264715322e-05,-8.57821150616e-05,8.5355085226578e-05,-8.5916924547615e-05,8.5534548664244e-05,-8.5786801668505e-05,8.535043624337e-05,-6.8549887021382e-05,6.7930194125367e-05,5.1246436396508e-09,-8.6683579143126e-09,-1.2220620955091e-08,8.8165744938703e-09,-0.0001040591699499,0.00010405575514688,-9.8513420673095e-05,9.8535185433978e-05,-0.00010181665014664,0.00010181964175443,-0.00010180363497889,0.00010177955834889,-0.00010770957716043,0.00010770372811597,-0.00010771454998783,0.00010772300103453,-0.00010771296501418,0.00010769775151476,-0.00010771913126927,0.000107718224776,-9.8494808326403e-05,9.8466255329753e-05,-9.8466285953602e-05,9.8478789200991e-05,-0.00010181981281182,0.00010183687922748,-0.0001016990942739,0.00010168911545084,-9.8468632960392e-05,9.8449363069566e-05,4.6223481330624e-08,2.3413595422684e-07,-9.6471175546105e-05,9.6496837903711e-05,2.6792088062965e-08,5.6571740480433e-09,-8.7951880068272e-05,8.8008249607758e-05,-9.0581591758663e-05,9.0108953906104e-05,-9.0602269246604e-05,9.053525804327e-05,-8.8325724591582e-05,8.9655959657955e-05,-8.7931541861535e-05,8.8028879964524e-05,-9.0561007066801e-05,9.0129439812653e-05,-9.0581788834123e-05,9.0555866010356e-05,-0.00010285030484601,0.00010286555965232,-0.00010285735947845,0.00010285844043251,-0.00010284848006994,0.00010278599489323,-0.00010285558819642,0.00010277893634624,-9.5231100706388e-05,9.5703050740475e-05,-9.503343151081e-05,9.5119012589322e-05,-9.5026454692049e-05,9.5126116119517e-05,-9.5224014681111e-05,9.5710022610851e-05,-8.8346306083124e-05,8.9635636262967e-05,0.66036286679765,128566,2924,0.00037865207589494,0.00043347577039978,0.00040193385604923,28.682588942284,-1.0539288461726e-05,-1.0539288461726e-05,-1.0539288461726e-05,1440945.5043387,0.0012148098521845
15391759,0.087186514384437,0.0015014383169261,0.00048740981805912,0.00051574576224928,0.00049828273661773,-0.00010776577842799,0.00010763640470444,-2.8834876433805e-07,-1.7381204843763e-07,-3.8949505099453e-08,-1.5908837655765e-08,-7.8795003884746e-05,7.7886162842299e-05,-0.00010144484780205,0.00010137936538482,-0.00010137557214822,0.00010188308633751,-7.9046800152706e-05,7.8122850345533e-05,-7.8817264271883e-05,7.7863860376061e-05,-0.00010146712360494,0.00010135672386965,-0.00010139790346593,0.00010186048364411,-0.00012032074058208,0.00012017757361453,-0.00012025465625442,0.00012034972943427,-0.00012031324957281,0.0001201853512158,-0.0001202471109406,0.00012035746016242,-0.00010251749154815,0.00010199524355922,-0.00010231909339084,0.00010178077301022,-0.00010252501762129,0.00010198754372083,-0.00010232674109871,0.00010177317747985,-7.9024694412614e-05,7.8145258198892e-05,8.7156780236716e-09,-1.3878734124892e-08,-1.8235848837891e-08,1.3286399843631e-08,-0.00012564508611999,0.00012564011521835,-0.00011942719766878,0.0001194606226063,-0.00012314078753653,0.00012314729426499,-0.0001231061255374,0.00012306830945402,-0.00012950767466599,0.00012949971710107,-0.00012951357338856,0.00012952698541769,-0.00012951101064297,0.00012948775911537,-0.00012952141506377,0.0001295195377057,-0.0001194118849947,0.00011936859692106,-0.00011940028702565,0.00011941853911988,-0.00012314217592571,0.00012316977369042,-0.00012290599444431,0.00012288928574957,-0.00011936837376869,0.00011934027376712,7.217317860584e-08,3.2316598008575e-07,-0.00011525830413071,0.00011529269831711,3.6880930930424e-08,5.1862095454944e-09,-0.00010636533193433,0.00010645930731915,-0.00010860304474634,0.00010791064121414,-0.00010863429021773,0.00010854262785224,-0.0001069235934409,0.00010881327962074,-0.00010633482525502,0.00010649023315417,-0.00010857215512777,0.00010794139715893,-0.00010860356239193,0.00010857355582705,-0.00012275988854628,0.00012278492655937,-0.00012277045810529,0.00012277425908276,-0.00012276299664753,0.00012267994206034,-0.00012277364641746,0.00012266936048502,-0.00011452761885039,0.00011513727366293,-0.00011425056187253,0.00011438354751928,-0.00011424011085888,0.00011439418721904,-0.00011451700086352,0.00011514773025214,-0.00010695446638639,0.00010878275940366,0.73442855323393,128566,2924,0.00044865578942963,0.00052336993700886,0.00048019704509663,27.269768518276,-2.1841851853795e-05,-2.1841851853795e-05,-2.1841851853795e-05,1255458.6843837,0.0014532914721656
15591759,0.10069529597793,0.0017477599016227,0.00056503016784981,0.0006030863680914,0.00057964336568147,-0.00012284041424742,0.00012268193123649,-3.6831031739632e-07,-2.0741592531936e-07,-4.6328273767029e-08,-1.2571886589635e-08,-8.8572041305023e-05,8.7496278055981e-05,-0.0001164257013704,0.00011634822174398,-0.00011633396878589,0.00011700841692693,-8.891159878016e-05,8.7737232825793e-05,-8.8604739636222e-05,8.7463481562063e-05,-0.00011645836904948,0.00011631503917845,-0.0001163667153825,0.00011697525813131,-0.00013750233369692,0.00013731524924719,-0.00013741453319817,0.00013753137532932,-0.00013749134286409,0.00013732662120493,-0.00013740347272345,0.00013754269822557,-0.00011729070410857,0.00011662827366088,-0.00011702558758599,0.00011640817345075,-0.00011730175010034,0.00011661701494333,-0.00011703678744066,0.00011639701122703,-8.8879124084266e-05,8.7770083990757e-05,1.2935867668207e-08,-2.0242504297194e-08,-2.7442571499418e-08,2.0444640079603e-08,-0.00014520909989466,0.00014520206932453,-0.00013855658083173,0.00013860751305957,-0.00014255730655838,0.00014256663879071,-0.00014251185324332,0.0001424560575001,-0.00014925259672193,0.00014924066996028,-0.00014925717663291,0.0001492775754831,-0.00014925796231299,0.00014922364516426,-0.00014926910469417,0.00014926712950102,-0.00013854858904321,0.00013848369430728,-0.00013857641715536,0.00013860510736783,-0.00014255599190223,0.0001425973115411,-0.00014223862803331,0.0001422148737421,-0.0001384891392127,0.00013844654052939,9.6231190718731e-08,4.0856508760808e-07,-0.00013212595863648,0.00013216701187335,4.8246562376817e-08,1.2058786855721e-10,-0.00012305893558105,0.00012318145344067,-0.00012497856840229,0.00012403930779474,-0.00012501462255235,0.00012488895711967,-0.0001237644060072,0.0001261857258749,-0.00012301242008126,0.00012322851106393,-0.00012493161247019,0.00012408610043109,-0.0001249678610851,0.00012493599033016,-0.0001406395629161,0.00014067520970991,-0.00014065560409803,0.00014065903870669,-0.00014064429901486,0.00014054542087251,-0.00014066043802709,0.00014052936644845,-0.00013195002764803,0.00013269912494171,-0.0001316062628483,0.00013177952445104,-0.00013159036643142,0.00013179566559879,-0.00013193393654709,0.00013271501658689,-0.00012381133089291,0.00012613923875056,0.74589760876559,128566,2924,0.00051137783394352,0.00060483535548981,0.00055045641692168,26.024744129576,-3.1802046963392e-05,-3.1802046963392e-05,-3.1802046963392e-05,1297364.7704664,0.001668075588561
15791759,0.11388071338125,0.0020010097912425,0.000644518118245,0.00069323508543757,0.00066325658755992,-0.0001394272646039,0.00013923643470708,-4.5196338083103e-07,-2.4053580871534e-07,-5.3672915817992e-08,-7.0074161623801e-09,-0.00010090447562539,9.9718063788641e-05,-0.00013356755530326,0.0001334748397223,-0.00013345248430819,0.00013429453390242,-0.0001013383873758,9.9893159035656e-05,-0.00010094973020655,9.9672655553523e-05,-0.00013361274287905,0.00013342895215879,-0.00013349777834139,0.00013424867856247,-0.00015600161024634,0.00015576857619295,-0.0001558913893679,0.00015603140624862,-0.00015598639480081,0.00015578428060916,-0.00015587609116782,0.00015604705448781,-0.00013387126132746,0.00013306549506849,-0.00013353858434621,0.00013281300914847,-0.00013388655427986,0.00013304993410215,-0.00013355406395267,0.00013279755989348,-0.00010129340845945,9.9938610429382e-05,1.8023945726985e-08,-2.7910108092279e-08,-4.1738075578088e-08,3.2275601561336e-08,-0.00016652289267802,0.00016651338358445,-0.00015978252833607,0.00015986085278384,-0.00016371827618338,0.00016372887166872,-0.00016366466546093,0.00016358507851533,-0.00017065330004992,0.00017063446683596,-0.00017065406537407,0.00017068500822646,-0.0001706604972455,0.00017061072913801,-0.00017067292788351,0.00017067295678179,-0.00015980610040002,0.0001597088982525,-0.00015985385660157,0.0001599013990827,-0.00016371092143007,0.00016377092636587,-0.00016330799660437,0.00016327788354895,-0.00015972024688903,0.00015965389450845,1.2164899664542e-07,5.0332207293515e-07,-0.00015055607086632,0.00015060602719825,6.7435579482226e-08,-6.8749933815537e-09,-0.00014186077560962,0.0001420062055207,-0.00014354174689411,0.00014235371491271,-0.00014359334472582,0.00014342762251524,-0.00014270027337742,0.00014570710638134,-0.0001417887370661,0.00014207893460444,-0.00014346916308284,0.00014242610678008,-0.00014352100771252,0.00014350031781997,-0.00015990002086177,0.00015994960175539,-0.00015992478012768,0.00015992467701341,-0.00015990515197931,0.00015978814364155,-0.00015993003531501,0.00015976336594619,-0.00015123151079996,0.00015213869583555,-0.0001508188732381,0.00015103280438851,-0.00015079428853586,0.00015105770223626,-0.00015120667615404,0.00015216327983557,-0.00014277283181153,0.00014563508838989,0.78512881741455,128566,2924,0.00058038705585341,0.00069357902179476,0.00062722191272717,25.603867248357,-3.5169062013146e-05,-3.5169062013146e-05,-3.5169062013146e-05,1351059.2735731,0.0019030138993669
15991759,0.12676362561848,0.0022464116075772,0.00072094550344701,0.00078131976698524,0.00074414633714493,-0.00015543158120099,0.00015520274292075,-5.4515064698303e-07,-2.7915096763019e-07,-6.1703340667614e-08,-1.1023499958099e-09,-0.00011218214756263,0.00011086710444899,-0.00015010913441598,0.00015000067720022,-0.00014996796713948,0.00015099528718232,-0.00011272050452121,0.00011097249124439,-0.00011224090875632,0.00011080812081423,-0.0001501678431975,0.00014994107651361,-0.00015002678801299,0.00015093574003591,-0.00017399541881419,0.00017371117051132,-0.00017386004805699,0.00017402573393017,-0.00017397563112822,0.00017373155382002,-0.00017384017282224,0.00017404605189513,-0.00014984258978409,0.00014887557293684,-0.00014943363431681,0.00014857943547385,-0.00014986248059194,0.00014885536753083,-0.00014945371793313,0.00014855936284637,-0.00011266200952557,0.0001110315508004,2.3487449599125e-08,-3.6200903975376e-08,-5.8522456409128e-08,4.6357560009069e-08,-0.00018753633143186,0.00018752410534843,-0.00018064429716309,0.00018075476724101,-0.00018450835433958,0.00018451936398096,-0.00018443999656265,0.00018433382605642,-0.00019175472515952,0.0001917275134303,-0.00019175051993114,0.0001917936858159,-0.00019176322579322,0.00019169586143647,-0.00019177636671372,0.00019177939441177,-0.000180703339376,0.00018056862142105,-0.00018078372617128,0.00018085418330724,-0.00018449339718968,0.00018457441161934,-0.00018398722299244,0.00018395109982707,-0.00018059029432344,0.00018049563665517,1.503490467911e-07,6.0587036677649e-07,-0.00016847655809187,0.00016853797553187,9.0066913923141e-08,-1.5137431252329e-08,-0.00016014161750495,0.00016031159262835,-0.00016151459978058,0.00016005185332206,-0.00016157726417241,0.00016136627279707,-0.00016113661903395,0.00016480226481907,-0.00016003946622917,0.00016041460429027,-0.00016141175682002,0.00016015447091146,-0.00016147474706174,0.00016146924762487,-0.00017867456110021,0.00017874076653344,-0.00017870960206166,0.00017870552169889,-0.00017868218963536,0.00017854436263748,-0.00017871738976417,0.00017850929281767,-0.00017006269227758,0.00017113380780236,-0.00016956820611318,0.00016982840553974,-0.00016953337455543,0.00016986362933436,-0.00017002752940042,0.000171168660863,-0.00016123947194447,0.00016470007051291,0.77894717734637,128566,2924,0.00064695469346945,0.00078106353015472,0.00070186490470478,25.203872306927,-3.836902154458e-05,-3.836902154458e-05,-3.836902154458e-05,1430105.4522653,0.0021321718825777
16191759,0.13934252773417,0.0024837080758335,0.00079432603176153,0.0008671501525538,0.00082223189151815,-0.00017081393120156,0.00017054054537551,-6.469437970763e-07,-3.2207809332388e-07,-7.1734677827982e-08,4.1348451831183e-09,-0.00012250175764529,0.00012100192348337,-0.00016598532351738,0.00016586124530955,-0.00016581574551707,0.0001670515686007,-0.00012315316265034,0.0001210771712494,-0.00012257531045919,0.00012092806207246,-0.00016605884146841,0.00016578663099522,-0.00016588938412654,0.00016697701694725,-0.00019142763974637,0.00019108587040243,-0.00019126458171449,0.00019145689957609,-0.00019140284004891,0.00019111137847673,-0.00019123969039054,0.00019148233810229,-0.00016510779774109,0.00016396290873176,-0.00016461502250719,0.00016362183114164,-0.00016513272395318,0.00016393762346546,-0.00016464014963279,0.0001635966872536,-0.00012307988123665,0.00012115111218322,2.9437242733254e-08,-4.5308314876475e-08,-7.7175157543023e-08,6.1991589541816e-08,-0.00020811387370349,0.00020809861322547,-0.00020097391576692,0.00020112000322286,-0.00020479026016602,0.00020480150520296,-0.00020470037348577,0.00020456487119014,-0.0002124437481827,0.0002124071522809,-0.00021243377376215,0.00021249042205347,-0.00021245292789243,0.00021236607740407,-0.00021246592682951,0.00021247233433222,-0.00020107430672378,0.00020089796223219,-0.00020119413741475,0.00020129011234681,-0.00020476647425015,0.00020487058502898,-0.00020413331312747,0.00020409071877174,-0.00020093104338893,0.00020080485711472,1.8196757881387e-07,7.1574353970453e-07,-0.00018579643148146,0.00018587120247747,1.1540882612664e-07,-2.410933950475e-08,-0.00017775130940875,0.00017794766042031,-0.00017889589147634,0.00017714338753211,-0.0001789690125769,0.00017870846165009,-0.00017891523557467,0.00018329259038703,-0.00017761567606072,0.00017808435232086,-0.00017875943321103,0.00017727958047316,-0.00017883296129763,0.00017884508740408,-0.0001968871144017,0.00019697190294732,-0.00019693357427764,0.00019692519618798,-0.00019689978617819,0.00019673816414085,-0.00019694644232037,0.00019669166831828,-0.00018826619111811,0.00018950846908507,-0.00018767699182483,0.000187987857294,-0.00018763077158685,0.00018803456060583,-0.00018821955781385,0.00018955472223602,-0.00017905174546235,0.0001831568808785,0.77198524031662,128566,2924,0.00071091522507784,0.00086672475094732,0.0007740056450232,24.804697118951,-4.1562423048395e-05,-4.1562423048395e-05,-4.1562423048395e-05,1518984.8824004,0.0023544335761615
16391759,0.15165660306905,0.0027169261501356,0.00086600355382556,0.00095206404101844,0.00089885855529163,-0.0001858613446887,0.00018554092125057,-7.5445975773834e-07,-3.6686477907731e-07,-8.2683728290069e-08,1.0777294107666e-08,-0.00013229564133934,0.00013058614042057,-0.00018161437825571,0.00018147684687416,-0.00018141479686882,0.00018287029576417,-0.00013306800412258,0.00013064243565825,-0.00013238624142921,0.00013049512536988,-0.00018170496623076,0.0001813849325957,-0.00018150551157135,0.00018277845099732,-0.00020853987752987,0.00020813605121702,-0.00020834747198505,0.00020856573052162,-0.00020850930239898,0.00020816745984065,-0.00020831680354447,0.00020859706835851,-0.0001800563892564,0.00017872692214753,-0.00017947424688895,0.00017834773509444,-0.00018008712078188,0.00017869578921728,-0.00017950517899193,0.00017831674519172,-0.00013297767236067,0.00013073352475683,3.6297726449075e-08,-5.579982436858e-08,-9.8067418354766e-08,7.9413384004152e-08,-0.00022853817575493,0.0002285194268939,-0.00022115797971832,0.00022134395013151,-0.00022488995251265,0.00022490188237315,-0.00022477785905349,0.00022460896121428,-0.00023295973770929,0.00023291273810845,-0.00023294295456145,0.00023301473750314,-0.00023296954338145,0.00023286065572643,-0.00023298148894143,0.00023299139742023,-0.00022130677318325,0.00022108363847329,-0.00022147011390876,0.00022159433585429,-0.00022485602804024,0.0002249863653481,-0.0002240883985105,0.0002240379509477,-0.00022112980377587,0.00022096846214055,2.1534398371671e-07,8.3104040055996e-07,-0.00020280271516053,0.00020289167685501,1.4311759873022e-07,-3.4731797989846e-08,-0.00019515941325252,0.000195381287195,-0.00019608720358841,0.00019402843415071,-0.00019617511512426,0.00019586110800084,-0.0001965004251987,0.00020162678579703,-0.00019498635908592,0.00019555562374233,-0.00019591318443046,0.00019420214276136,-0.00019600159428841,0.00019603533608019,-0.00021477493308172,0.00021487999758308,-0.00021483414696872,0.00021482048882246,-0.0002147938030458,0.00021460677598285,-0.00021485325477261,0.00021454751868681,-0.00020618744366057,0.00020760729577917,-0.00020549751397427,0.00020586168295044,-0.00020543856945549,0.00020592121358352,-0.0002061279933119,0.00020766628449735,-0.00019667455313483,0.00020145362171728,0.77561769425482,128566,2924,0.00077347269518322,0.00095173950882148,0.00084483745101093,24.447429999907,-4.4420560000746e-05,-4.4420560000746e-05,-4.4420560000746e-05,1607251.3342027,0.0025733773902628
16591759,0.16380185824757,0.0029550582720705,0.0009388011907551,0.0010392250954031,0.00097703198591234,-0.0002011663167754,0.00020079530072978,-8.690429010799e-07,-4.1477713641525e-07,-9.3744502979398e-08,1.9090812580992e-08,-0.00014241324434649,0.00014046700076129,-0.0001978682520272,0.00019771953569926,-0.00019763689623037,0.00019933008935507,-0.00014331437552729,0.00014052107128968,-0.00014252261062153,0.00014035709569464,-0.00019797762917714,0.00019760855033553,-0.00019774641155861,0.0001992191901525,-0.00022582398950119,0.00022535437887756,-0.0002256000906713,0.00022584593026885,-0.00022578708095183,0.00022539228838026,-0.0002255630866389,0.0002258837659761,-0.00019549013559677,0.00019396380539485,-0.00019481344276282,0.00019353960990774,-0.00019552725009339,0.00019392623084816,-0.00019485076079178,0.00019350218465336,-0.00014320527634836,0.00014063105923237,4.3625335485498e-08,-6.7574453618382e-08,-1.2116271955221e-07,9.824813630978e-08,-0.00024948661794358,0.00024946358645553,-0.00024203089968419,0.00024226009230745,-0.00024556856019667,0.00024558088422503,-0.00024542768899812,0.0002452216535081,-0.00025386278937243,0.00025380397076984,-0.00025383846060112,0.00025392637645542,-0.0002538725678483,0.00025373906863989,-0.0002538837159273,0.00025389696338553,-0.00024223748417021,0.00024196264740499,-0.00024246449248395,0.00024261912895856,-0.00024552311021112,0.00024568180117036,-0.0002446001085705,0.00024454047889141,-0.00024202126631025,0.0002418210257165,2.5111904913539e-07,9.5455627861908e-07,-0.00022012686063604,0.00022023098014643,1.7292956035285e-07,-4.6871919369699e-08,-0.00021335002993912,0.00021359880986024,-0.00021397782527284,0.00021158626575445,-0.00021408515759276,0.00021371490732658,-0.00021487669527395,0.00022082622292371,-0.00021313604138464,0.00021381434991086,-0.00021376270061795,0.00021180103235917,-0.00021387064167388,0.00021393029579446,-0.00023284813007779,0.00023297509477561,-0.00023292129783112,0.00023290157019457,-0.00023287478904836,0.00023265970317996,-0.00023294824566745,0.00023258647932849,-0.00022461284019093,0.00022622235846688,-0.00022381318703247,0.000224233812636,-0.00022374032752136,0.00022430738857362,-0.00022453935832282,0.00022629528295974,-0.00021509199609816,0.00022061207944018,0.80315412204692,128566,2924,0.00083709202797213,0.0010389268093582,0.00091698962313362,24.192956044633,-4.6456351642935e-05,-4.6456351642935e-05,-4.6456351642935e-05,1689604.9251223,0.002796935617682
16791759,0.17577857866234,0.0031907965340764,0.0010103645403476,0.0011261325727141,0.0010542994210147,-0.00021620469799479,0.00021577969546985,-9.921339139683e-07,-4.6714111935895e-07,-1.0466161534448e-07,2.9601834384382e-08,-0.00015181546280021,0.00014961237171686,-0.0002139023355864,0.0002137419405294,-0.0002136365243547,0.00021559099277653,-0.0001528561110845,0.00014967109273454,-0.00015194557564468,0.00014948159632638,-0.00021403248442159,0.00021360988633974,-0.00021376682786174,0.00021545904048951,-0.00024290548643091,0.0002423637074358,-0.00024264703859128,0.00024291889527261,-0.00024286154661032,0.00024240880605434,-0.00024260300065631,0.0002429639187666,-0.00021068963673867,0.00020894838399707,-0.00020990888711848,0.00020846750877533,-0.00021073381637844,0.00020890368792767,-0.00020995327374447,0.00020842296522409,-0.0001527262724775,0.00014980195200452,5.1870976290784e-08,-8.0446647478942e-08,-1.4556442126706e-07,1.1822011722491e-07,-0.00027043128712748,0.00027040380216613,-0.00026284827045247,0.00026312358746372,-0.00026624131050401,0.0002662550060074,-0.00026606835366333,0.00026582221544908,-0.00027471448773193,0.00027464355226565,-0.00027468246997961,0.00027478785045519,-0.00027472353574589,0.00027456375552718,-0.00027473372675108,0.00027475027540585,-0.00026311663296461,0.00026278685358477,-0.00026341851093301,0.00026360510795225,-0.00026618349071232,0.00026637314036981,-0.0002650844213178,0.0002650142800044,-0.00026285780671701,0.00026261678850052,2.9034018924244e-07,1.087027885567e-06,-0.00023723158467935,0.0002373530909138,2.0480497983159e-07,-5.9398768512571e-08,-0.00023136617066276,0.00023164536747962,-0.00023171012087663,0.0002289658839882,-0.00023184109432349,0.00023141276796678,-0.00023309612089739,0.00023992950762343,-0.00023110886149876,0.00023190452706841,-0.00023145148754987,0.00022922409664862,-0.00023158319187698,0.000231671724253,-0.00025070497677014,0.00025085456445562,-0.00025079291371462,0.00025076620513831,-0.00025074229561131,0.00025049412081458,-0.00025083057680981,0.00025040611755811,-0.00024284246628575,0.00024466153314461,-0.00024191622962972,0.0002423997231845,-0.00024182863856348,0.00024248816596744,-0.00024275413186388,0.00024474920132738,-0.00023335499674063,0.00023967200544955,0.80668160133728,128566,2924,0.00089959143672429,0.0011260900341392,0.00098822790999563,23.94108986836,-4.8471281053121e-05,-4.8471281053121e-05,-4.8471281053121e-05,1772266.1001573,0.003018479637051
16991759,0.18758300593643,0.0034184941776209,0.0010790121883702,0.0012107278224834,0.0011287541667673,-0.00023072799910098,0.00023024674852538,-1.1209619006294e-06,-5.2296429848424e-07,-1.1619101203867e-07,4.0622601208135e-08,-0.00016023958149422,0.00015776240054285,-0.00022923645217924,0.00022906297368065,-0.00022893414396912,0.00023116394981212,-0.0001614269065646,0.00015783960796158,-0.00016039153530022,0.00015760966237965,-0.00022938846568027,0.00022890874704357,-0.00022908632890066,0.0002310098421792,-0.00025959621171862,0.00025898094681355,-0.0002593009855332,0.00025960103961695,-0.00025954487496124,0.00025903361039047,-0.00025924954262168,0.00025965362465771,-0.00022522311106522,0.00022325527800253,-0.00022433209616657,0.00022271547359788,-0.00022527472662503,0.00022320308664246,-0.00022438392436132,0.00022266344136814,-0.00016127523635453,0.0001579924375804,6.0556191420831e-08,-9.3986307586134e-08,-1.7068480884768e-07,1.3869120372553e-07,-0.00029100682944936,0.00029097467097918,-0.00028312194941262,0.00028344473293433,-0.00028647678134842,0.00028649230358745,-0.00028627138901096,0.00028598342925011,-0.0002952646691977,0.00029518135771688,-0.00029522500439667,0.00029534840996622,-0.00029527284554926,0.00029508578783495,-0.00029528003769417,0.00029529970829426,-0.00028345191305815,0.00028306541410017,-0.00028383016730535,0.00028404932471461,-0.0002864062753333,0.00028662815545759,-0.0002851248155751,0.00028504325530497,-0.00028314942357715,0.00028286659060337,3.3195156320072e-07,1.2250186794262e-06,-0.00025380890043063,0.00025394807270314,2.3751909406622e-07,-7.2309896010482e-08,-0.00024859366467589,0.00024890607162787,-0.00024875140955536,0.0002456474656076,-0.00024890832155668,0.00024841972866824,-0.00025053414407124,0.00025826308091167,-0.00024829185136405,0.00024921003907726,-0.00024844807285265,0.00024595031384826,-0.00024860584557717,0.00024872344844917,-0.00026813612176061,0.00026830944624792,-0.00026823923634343,0.00026820584237293,-0.0002681855903812,0.00026790149865124,-0.00026828910672616,0.00026779830802602,-0.00026043670103264,0.00026248496523045,-0.00025937468411048,0.00025992521671964,-0.00025927195544071,0.00026002893383543,-0.00026033310434567,0.00026258778222848,-0.00025083779048917,0.00025796103548315,0.79134032370189,128566,2924,0.00095993899147304,0.0012117085349903,0.0010572664455586,23.689325967743,-5.0485392258053e-05,-5.0485392258053e-05,-5.0485392258053e-05,1855517.9569576,0.0032341578742982
17191759,0.19893997503781,0.0036321766724324,0.0011430857485468,0.0012906778911391,0.0011984130327465,-0.00024380363640827,0.00024326900263085,-1.2489003867966e-06,-5.7834634263385e-07,-1.2925315993562e-07,5.3445709595116e-08,-0.000167153721521,0.00016438461031855,-0.00024287443299653,0.00024269275069621,-0.0002425347697414,0.00024504314217457,-0.0001684930235416,0.00016450438868197,-0.00016733079803122,0.00016420661654866,-0.00024305158503499,0.00024251309122254,-0.00024271211313989,0.00024486359133829,-0.00027488217057948,0.00027419387760043,-0.00027454959404781,0.00027488168790162,-0.00027482232138215,0.00027425521377643,-0.00027448963658766,0.000274942950387,-0.00023813187779461,0.00023593814811881,-0.00023712926803373,0.00023534158469279,-0.00023819202999252,0.00023587736159972,-0.00023718964854022,0.00023528094395405,-0.00016831627021393,0.00016468242739017,7.0778291925854e-08,-1.0930331613274e-07,-1.9682378076537e-07,1.5995564804366e-07,-0.00031002492483436,0.00030998786836803,-0.00030167906858473,0.00030205196996755,-0.00030508755963782,0.00030510735869138,-0.00030485339907578,0.00030451952483517,-0.00031436583720541,0.0003142704387021,-0.00031431766017733,0.00031446056803032,-0.00031437456297186,0.00031415829877323,-0.00031437792640134,0.00031439998955995,-0.00030206914575525,0.00030162281079564,-0.00030252170284692,0.00030277387378634,-0.00030500435543674,0.00030526209539212,-0.00030354782349363,0.00030345196190606,-0.000301725283983,0.0003013997463494,3.7429752130474e-07,1.3609972971751e-06,-0.00026881896684116,0.00026897443311439,2.7011763415301e-07,-8.715918326242e-08,-0.00026390897388578,0.00026425377466671,-0.00026404803908709,0.00026058348167101,-0.00026422823687588,0.00026367689526568,-0.00026605692159629,0.00027465463267062,-0.00026356083337433,0.00026460438677806,-0.00026369820706575,0.00026093275137179,-0.00026387938451143,0.00026402718289357,-0.00028409533968654,0.00028429335079985,-0.00028421423786787,0.00028417389291059,-0.00028415747360599,0.00028383713494337,-0.00028427682895652,0.00028371815475702,-0.0002763137606412,0.00027858920726501,-0.00027511460635462,0.00027573285962539,-0.00027499613061661,0.00027585247306724,-0.00027619429811657,0.00027870777292629,-0.00026640712913244,0.00027430626294881,0.77293680524981,128566,2924,0.0010142636041744,0.0012908378667048,0.0011197743964664,23.131784138681,-5.4945726890553e-05,-5.4945726890553e-05,-5.4945726890553e-05,1930948.7612956,0.0034307749992535
17391759,0.20949111756928,0.0038229758111195,0.0012000791126357,0.0013625262493076,0.0012603704491763,-0.00025464049758793,0.0002540563843745,-1.3703019978977e-06,-6.2887807778485e-07,-1.4535694925519e-07,6.4720928430319e-08,-0.00017204865073174,0.0001689800093673,-0.00025390488188806,0.00025371035053509,-0.00025352769655565,0.00025630528386616,-0.00017353907085394,0.00016916163015375,-0.00017225232491748,0.00016877528382889,-0.00025410869628106,0.00025350376301089,-0.00025373167832233,0.00025609881891901,-0.00028790512828023,0.00028714576135818,-0.00028753567106785,0.00028790040140918,-0.00028783626434945,0.00028721626599809,-0.00028746670860096,0.0002879708304407,-0.00024856873714275,0.00024616017491504,-0.0002474572123823,0.00024551878504217,-0.00024863795086517,0.00024609027741359,-0.00024752663073686,0.00024544904444811,-0.00017333565156316,0.00016936643325155,8.1827270426256e-08,-1.2533124357022e-07,-2.2289681016288e-07,1.8126289200143e-07,-0.00032641047010727,0.00032636862746559,-0.00031741731673933,0.00031784094286089,-0.0003210118811986,0.00032103759100832,-0.00032076524800944,0.00032038409254532,-0.00033097907373602,0.00033087220284453,-0.0003309222047727,0.00033108520955114,-0.0003309910297638,0.00033074519420486,-0.0003309902341589,0.00033101428383268,-0.00031786300432664,0.00031735647374828,-0.00031837558977193,0.00031866034199068,-0.00032091748434927,0.00032121272539669,-0.0003193085733148,0.00031919698567899,-0.00031748141028362,0.00031711378296,4.1518198560701e-07,1.4882544402847e-06,-0.00028136719077026,0.00028153615259241,3.013457517262e-07,-1.0328807045724e-07,-0.00027630582215091,0.00027667983092752,-0.0002766241939712,0.00027281825129767,-0.0002768240871447,0.00027620911563314,-0.0002786464228059,0.00028804589529816,-0.00027591144167939,0.00027707695240734,-0.0002762279337587,0.00027321389030676,-0.00027642893674051,0.00027660586322854,-0.00029768787497625,0.00029791025476627,-0.000297822524061,0.00029777498630419,-0.00029776094567998,0.00029740577714145,-0.00029789610930128,0.00029727103040821,-0.00028950263616535,0.00029199139728632,-0.00028817476102612,0.00028885739424152,-0.0002880405735808,0.00028899284992033,-0.00028936732717906,0.00029212571112161,-0.00027904316539417,0.00028765119655874,0.74411373005343,128566,2924,0.0010592751273319,0.0013590069372028,0.0011720268789264,22.131782459341,-6.2945740325272e-05,-6.2945740325272e-05,-6.2945740325272e-05,1994788.7392508,0.0035967924810495
17591759,0.21927481552795,0.0039933733132422,0.0012508832424158,0.0014269998189825,0.0013154902518438,-0.00026416450321843,0.00026353799179203,-1.4827327322453e-06,-6.7390302515419e-07,-1.6154082678952e-07,7.582445049546e-08,-0.00017597418951871,0.00017264963425189,-0.00026332732130599,0.00026312507625512,-0.00026291491238201,0.00026594396462652,-0.00017760792778415,0.00017287538981101,-0.00017620442328432,0.00017241821296572,-0.00026355773740307,0.0002628916746445,-0.00026314548449165,0.00026571065773344,-0.00029955887756348,0.00029873437629564,-0.00029915499798835,0.00029955378916589,-0.00029948106219391,0.00029881400786957,-0.00029907709133358,0.00029963335694475,-0.00025752692800349,0.00025491736491329,-0.00025631336380234,0.00025423796949364,-0.00025760516668564,0.00025483840469297,-0.00025639179959278,0.00025415914326565,-0.00017737794049653,0.0001731068328569,9.2897364487326e-08,-1.4130330388863e-07,-2.4856805611373e-07,2.0219457791207e-07,-0.0003410981443594,0.00034105154231514,-0.00033131435085543,0.00033178792508184,-0.00033523865251585,0.00033527052554959,-0.00033498215003119,0.00033455407715452,-0.00034600903917073,0.00034589095818008,-0.00034594301704686,0.00034612583538865,-0.00034602517133256,0.00034575008157371,-0.00034601975332101,0.00034604557714884,-0.00033181268515422,0.00033124675589087,-0.00033236559929552,0.0003326822418836,-0.0003351329571999,0.00033546539574386,-0.00033339333531432,0.00033326588140497,-0.00033139750365021,0.00033098855080398,4.5347514817358e-07,1.6049513150096e-06,-0.00029240517713292,0.00029258483633914,3.3074035768772e-07,-1.2047808850764e-07,-0.00028688526973574,0.00028728439677545,-0.00028752269299348,0.00028340060396832,-0.00028773957225406,0.00028706210711401,-0.00028939837372066,0.00029950916925941,-0.00028644532848504,0.00028772734096189,-0.00028708076454052,0.00028384186048158,-0.00028729885041323,0.00028750458441305,-0.00030982169257578,0.00031006769417768,-0.00030997183427015,0.00030991686802055,-0.00030990379202034,0.00030951674943321,-0.00031005449650119,0.00030936649893041,-0.00030099897215392,0.00030368658380157,-0.0002995494262586,0.00030029173505483,-0.00029939976510025,0.00030044279292446,-0.00030084808914137,0.0003038363791452,-0.00028984087828297,0.00029906890341255,0.71798588936025,128566,2924,0.0010988350510315,0.0014201068645831,0.0012179857025895,21.120525803717,-7.1035793570261e-05,-7.1035793570261e-05,-7.1035793570261e-05,2055813.8097403,0.0037439531471541
17791759,0.22834884748373,0.0041464170132444,0.0012964668756682,0.0014851364616366,0.0013648136759396,-0.00027259701820147,0.00027193532692144,-1.5864648603773e-06,-7.1383326439976e-07,-1.7729709936564e-07,8.7904503283136e-08,-0.00017921784442791,0.00017564055231868,-0.00027144054210436,0.00027123677081879,-0.0002709940321171,0.00027426334754087,-0.00018098968239886,0.00017592801953187,-0.00017947516897483,0.00017538193416725,-0.00027169813422014,0.00027097606374856,-0.0002712517499895,0.00027400270831407,-0.0003100406745406,0.00030915727183243,-0.00030960426141188,0.00031003997819051,-0.00030995367586558,0.00030924621170917,-0.00030951718168184,0.00031012886644144,-0.00026530081148149,0.00026250505876518,-0.00026399085190991,0.00026179144398684,-0.00026538828651702,0.00026241684589773,-0.00026407850388257,0.00026170334733325,-0.00018073255872332,0.00017618661812911,1.0472370076495e-07,-1.5709047428972e-07,-2.7250443604058e-07,2.222936125863e-07,-0.00035431635194368,0.00035426590030395,-0.00034364254979475,0.00034416465302959,-0.00034802492684919,0.0003480653057425,-0.0003477605963693,0.00034728686494485,-0.00035965909784031,0.00035953176696463,-0.00035958415515871,0.00035978703010872,-0.00035968002669823,0.00035937724169908,-0.00035966956353646,0.00035969699707094,-0.00034418953735482,0.00034356743445504,-0.0003447674436965,0.0003451141653584,-0.00034790925041126,0.00034827951809139,-0.00034605264416793,0.00034590885430641,-0.00034374452826646,0.00034329784615832,4.8960273733285e-07,1.7126662836171e-06,-0.00030216751072749,0.0003023565093371,3.5796565466145e-07,-1.3725161354593e-07,-0.00029599956859297,0.00029642197160456,-0.00029705538473425,0.00029264411553894,-0.00029728536895162,0.00029654964270298,-0.00029866725972317,0.00030941717059507,-0.00029551656529727,0.00029690817275676,-0.0002965703068995,0.00029312846700265,-0.00029680158601972,0.0002970352988175,-0.00032070884251632,0.00032097796401975,-0.00032087361914598,0.0003208124536199,-0.0003207987422699,0.00032038239388218,-0.0003209641251426,0.00032021750071347,-0.0003110645711009,0.0003139415019939,-0.00030950212429922,0.00031030045849626,-0.00030933783936966,0.00031046623570877,-0.00031089897545824,0.00031410593193703,-0.00029915301089758,0.0003089338222125,0.6966920671494,128566,2924,0.0011338656019422,0.00147509105645,0.0012586308981547,20.125341723733,-7.8997266210135e-05,-7.8997266210135e-05,-7.8997266210135e-05,2114588.5090356,0.0038751152601749
17991759,0.2367723566871,0.0042867261042859,0.0013382561258496,0.0015385629314534,0.0014099070469828,-0.00028019423382766,0.00027950531603593,-1.68142004031e-06,-7.4795232244567e-07,-1.9205083675549e-07,1.0247757184739e-07,-0.00018209781640992,0.00017828185028259,-0.00027866196680406,0.00027846733953559,-0.00027818303220838,0.00028168540500883,-0.00018400359301109,0.00017863625379099,-0.00018238373248408,0.00017799456937629,-0.000278948225494,0.00027817789023688,-0.00027846938961256,0.00028139599562333,-0.00031956628712412,0.00031863030613152,-0.00031909919019292,0.00031957558444919,-0.00031946957683762,0.00031872904561867,-0.00031900240944385,0.00031967428416354,-0.00027227496414922,0.00026930872603915,-0.00027087407966134,0.00026856379667641,-0.00027237218939879,0.00026921075992187,-0.00027097146317265,0.00026846592810526,-0.00018371783818022,0.00017892347713209,1.1773149383562e-07,-1.7321670004395e-07,-2.9375732208525e-07,2.4052507580923e-07,-0.00036636167077272,0.00036630819006938,-0.00035479047209346,0.00035535796028343,-0.00035969730836473,0.0003597500328439,-0.00035942609014517,0.00035890757166223,-0.00037216616801898,0.00037203241713347,-0.00037208334618716,0.00037230608325573,-0.00037219313275313,0.00037186447191952,-0.0003721783055199,0.00037220614458887,-0.00035538207880754,0.00035470856860507,-0.00035597836004143,0.00035635100932033,-0.00035957305156741,0.00035998195815914,-0.00035761049450457,0.00035744821143727,-0.00035490889270807,0.00035443025934137,5.2382854671823e-07,1.8125257756257e-06,-0.00031094201592491,0.00031113942034134,3.8272869606601e-07,-1.5193805651604e-07,-0.00030413316833132,0.00030457966959432,-0.00030564371771821,0.00030096760362961,-0.00030588496150916,0.00030509721286451,-0.00030694046094867,0.00031827803258039,-0.00030361153761178,0.00030510463974544,-0.00030511995662315,0.0003014905903871,-0.00030536256236859,0.00030562156847681,-0.00033057617143616,0.00033086687263697,-0.00033075407484097,0.00033068820043186,-0.0003306725871745,0.00033022792076176,-0.00033085112935057,0.00033004989750797,-0.00032006657804397,0.00032311854393577,-0.00031839951990117,0.0003192517503304,-0.00031822211235966,0.00031943071816307,-0.00031988779553741,0.00032329610060658,-0.00030746497420321,0.00031775604992556,0.68920300302703,128566,2924,0.0011654350476716,0.0015251942136946,0.0012951617386927,19.153780040226,-8.6769759678194e-05,-8.6769759678194e-05,-8.6769759678194e-05,2167914.5655248,0.0039937883032722
18191759,0.24458563445157,0.0044189868559245,0.0013776804954076,0.0015889441402957,0.0014523622202211,-0.00028717367523492,0.00028646237556128,-1.7694490936305e-06,-7.7812037650438e-07,-2.0593186588001e-07,1.1910461376092e-07,-0.000184846709222,0.00018079472031867,-0.00028540462773458,0.00028522467079026,-0.00028489487750962,0.00028861806517979,-0.00018688212550006,0.00018122388183524,-0.00018516240520353,0.00018047761692492,-0.0002857207419949,0.00028490534089628,-0.00028521106895457,0.00028829875325297,-0.00032830314556383,0.00032732084498475,-0.000327806536178,0.00032832633457396,-0.00032819631244061,0.00032742977200595,-0.00032769964198721,0.00032843523177568,-0.0002788022456799,0.00027567938476306,-0.00027731416137667,0.00027490128639646,-0.00027890962535841,0.00027557126636052,-0.00027742168279641,0.00027479324995763,-0.00018656655641507,0.00018154089681333,1.3175667621676e-07,-1.8954337528638e-07,-3.1319901188797e-07,2.5773264830472e-07,-0.00037748158707252,0.0003774258693145,-0.00036511838365146,0.00036572966217072,-0.00037050602221194,0.00037057403444455,-0.0003702291471861,0.00036966641189872,-0.00038370784580137,0.0003835698028813,-0.00038361775762616,0.00038386060309695,-0.00038374133314311,0.00038338811898104,-0.00038372336639218,0.00038375105159122,-0.0003657544998533,0.00036503274300717,-0.00036637306076441,0.00036676924147987,-0.0003703734981795,0.00037082210184892,-0.00036831734373172,0.00036813525378041,-0.00036525282820692,0.00036474620472859,5.572080105081e-07,1.9075705987577e-06,-0.00031896221586115,0.0003191685898962,4.057897760004e-07,-1.6549735517575e-07,-0.00031172094665418,0.00031219283527856,-0.00031366723672005,0.00030874115110951,-0.00031391891347295,0.00031308392961235,-0.00031466152752104,0.00032657136947742,-0.00031116345118174,0.00031275377265602,-0.00031310757344506,0.00030929999941201,-0.00031336066034121,0.00031364419311382,-0.00033958745112397,0.00033989937519036,-0.00033977754374247,0.00033970848805987,-0.00033968979826091,0.00033921773714532,-0.00033988055438947,0.00033902752296457,-0.00032833349840451,0.00033154783333635,-0.00032656789842774,0.00032747341624919,-0.00032637830603834,0.00032766462384935,-0.00032814248188742,0.0003317375815812,-0.00031522200541582,0.00032601351931651,0.70094114724051,128566,2924,0.0011944427205824,0.0015714465461516,0.0013285535559008,18.182820527952,-9.4537435776386e-05,-9.4537435776386e-05,-9.4537435776386e-05,2209307.453671,0.0041028840123172
18391759,0.2520068687862,0.0045449725484891,0.0014152470505038,0.0016369904477113,0.001492735050274,-0.00029424577267834,0.00029351414703045,-1.8546344111343e-06,-8.0613679033998e-07,-2.2083658012907e-07,1.3862462162468e-07,-0.00018779497485253,0.00018353129444547,-0.00029231187637639,0.00029214903783178,-0.0002917717927011,0.00029571543269003,-0.00018996273273884,0.00018401780757901,-0.00018814433942794,0.00018318051837726,-0.0002926617028913,0.00029179600041525,-0.00029212168499339,0.00029536240505355,-0.00033707920067132,0.00033605169611189,-0.00033655349636465,0.00033711543203873,-0.00033696087248261,0.0003361721111719,-0.00033643511174474,0.00033723582176481,-0.00028551178358548,0.0002822404379492,-0.00028393733684241,0.00028142921356579,-0.00028563063971971,0.00028212084776141,-0.00028405632510068,0.00028130969966817,-0.00018961347091534,0.00018436848163087,1.4828193816065e-07,-2.0727964542359e-07,-3.2962993770732e-07,2.7304441351502e-07,-0.00038855435535923,0.00038849752116543,-0.00037545076764516,0.00037610345450136,-0.00038127853075665,0.00038136845561923,-0.00038100637207025,0.00038039831352466,-0.00039516953851938,0.0003950312570795,-0.00039507373921766,0.00039533750599798,-0.00039521106579031,0.00039483471900472,-0.00039519167954953,0.00039521738967641,-0.00037612921223017,0.00037536381634982,-0.0003767741607743,0.00037718885564679,-0.00038113926213717,0.00038163093237891,-0.00037900082976006,0.00037879456811915,-0.00037559705002234,0.00037506967743097,5.9053298405761e-07,2.001135800636e-06,-0.00032700690671582,0.00032722356899773,4.2715200886618e-07,-1.7587505596165e-07,-0.00031942849238323,0.00031993038459571,-0.00032178301606665,0.00031661874443375,-0.00032204500420374,0.00032116893348255,-0.00032250820214041,0.00033498576588588,-0.00031883991944682,0.00032052244078284,-0.00032119225321896,0.00031720865848352,-0.00032145567393276,0.00032176028009997,-0.00034858054809707,0.00034891279706592,-0.00034878122025533,0.00034871133130284,-0.00034868863052804,0.0003481895155366,-0.0003488899746178,0.00034798872940193,-0.00033665707440769,0.0003400291578488,-0.00033479656696792,0.00033575699670197,-0.0003345964038171,0.00033595880090316,-0.00033645546515327,0.00034022948304793,-0.00032309980512449,0.00033439683399128,0.70344890353213,128566,2924,0.0012238398404496,0.0016175026504724,0.0013620488519534,17.511464354051,-9.9908285167589e-05,-9.9908285167589e-05,-9.9908285167589e-05,2247710.5849311,0.0042122894099706
18591759,0.25930099749043,0.0046661620256851,0.0014513582844765,0.0016833432630622,0.0015314604781464,-0.00030179939361473,0.00030104831904339,-1.939206039328e-06,-8.3343350699109e-07,-2.3575427642981e-07,1.5922240107767e-07,-0.00019111410821626,0.0001866493721579,-0.0002996282430405,0.00029948564639676,-0.00029905749940038,0.00030322647450327,-0.00019341576546323,0.00018718468172842,-0.00019149822165657,0.00018626379644549,-0.0003000128107176,0.00029909776620733,-0.00029944212836965,0.00030283860131632,-0.00034638984261569,0.00034531750757883,-0.00034583496357295,0.00034643755854124,-0.00034625965639083,0.00034544977873092,-0.00034570472167233,0.00034656980561621,-0.00029267742366536,0.00028925902109766,-0.00029101646543313,0.00028841100621198,-0.0002928080942116,0.00028912759135602,-0.00029114726850608,0.00028827965252017,-0.0001930317475984,0.00018757015234084,1.6480295384149e-07,-2.2598920573912e-07,-3.4503510872952e-07,2.8651423040786e-07,-0.00040010268643349,0.00040004391363853,-0.00038620393410029,0.00038689476572536,-0.00039251774528469,0.00039263073614652,-0.00039225196086651,0.0003915975911638,-0.00040713549057528,0.00040699746325115,-0.00040703496799885,0.00040731825411299,-0.00040718560800349,0.00040678592113529,-0.00040716534265557,0.00040718697692628,-0.00038691929552237,0.00038611190345005,-0.00038759088397451,0.00038802011357796,-0.00039237305795156,0.00039290704279954,-0.00039015321223378,0.00038991988909164,-0.00038635859615012,0.00038581283743288,6.2426932989331e-07,2.0964876425439e-06,-0.00033550627107284,0.00033573421524978,4.4762374965417e-07,-1.8429094352637e-07,-0.00032749629967031,0.00032803178067372,-0.00033028436674207,0.00032488613349173,-0.00033055498061453,0.00032964097199356,-0.00033071541860276,0.00034375677835242,-0.00032687949424634,0.00032865217475057,-0.00032966531248824,0.00032550431049525,-0.0003299373906164,0.00033026060921024,-0.00035807107794219,0.00035842350160116,-0.00035828137895508,0.00035821240204874,-0.00035818477005985,0.00035765819585205,-0.00035839575463485,0.00035744778655795,-0.00034540880393102,0.00034894159895357,-0.00034345323749488,0.00034447056258418,-0.00034324347770114,0.00034468203073158,-0.00034519755027015,0.0003491515438165,-0.00033133533699684,0.00034313959000965,0.68932006214443,128566,2924,0.0012552423335658,0.0016655327468357,0.0013974367852102,17.263643850504,-0.00010189084919597,-0.00010189084919597,-0.00010189084919597,2293278.2955771,0.0043276046730011
18791759,0.26647478942842,0.0047925853334802,0.0014890693236394,0.001731597752204,0.0015719182576368,-0.00030958706643081,0.00030881705330707,-2.02361765453e-06,-8.5905438792987e-07,-2.4755981253017e-07,1.8187892472481e-07,-0.00019503189262338,0.00019038802495281,-0.00030750783206082,0.00030738673379532,-0.00030690635442944,0.00031130325803529,-0.00019746776651827,0.00019094859057272,-0.00019544973146461,0.00018996869584049,-0.00030792610213587,0.00030696504513242,-0.00030732469601288,0.00031088158259824,-0.00035578903034035,0.00035467376973936,-0.00035520474697204,0.00035585062794871,-0.00035564739502635,0.0003548175464637,-0.00035506305267529,0.00035599437932305,-0.00030037040107553,0.00029680738147563,-0.00029862260312568,0.00029590669429322,-0.00030051253144299,0.00029666446616344,-0.000298764870253,0.00029576385769908,-0.00019705003818406,0.00019136782113862,1.8080467804245e-07,-2.4423426549236e-07,-3.5983544700432e-07,2.99254989655e-07,-0.00041184716537118,0.00041178632769893,-0.00039734823483433,0.00039807542790436,-0.00040401095880018,0.00040414631154777,-0.00040374806517648,0.00040304873030313,-0.00041919795327426,0.00041906013705391,-0.00041909345341615,0.0004193953370933,-0.00041925613462063,0.00041883376705736,-0.00041923598198368,0.00041925332238377,-0.00039810589086084,0.00039725803332545,-0.00039881584119898,0.00039925852440458,-0.00040386108224543,0.0004044357956301,-0.00040154934007667,0.00040128942314848,-0.00039751177664461,0.00039694846256974,6.5899790739543e-07,2.1948084196848e-06,-0.00034418882685969,0.00034443046725166,4.695445337217e-07,-1.8994369270234e-07,-0.0003361435140844,0.0003367154828594,-0.00033933533344224,0.00033370309285075,-0.00033961727597558,0.00033866899075568,-0.0003395022604647,0.00035315301248935,-0.00033549978083981,0.00033736291823121,-0.00033868928849725,0.00033434823929334,-0.00033897272769684,0.00033931563192086,-0.00036760994892097,0.00036798318172663,-0.00036782943861212,0.00036776287989565,-0.00036772915145626,0.00036717497625102,-0.0003679493394634,0.00036695537995266,-0.00035451007033319,0.00035817111496774,-0.00035246144780386,0.00035353971317982,-0.0003522425330624,0.0003537604067774,-0.00035428961135571,0.00035839023273686,-0.00034014918421433,0.00035250887557714,0.73043485701345,128566,2924,0.0012876194795284,0.001714375902329,0.0014335906832982,17.026563803229,-0.00010378748957417,-0.00010378748957417,-0.00010378748957417,2326446.7520532,0.0044454969417623
18991759,0.27353035971279,0.00491912228032,0.0015267742838983,0.0017799627851456,0.0016123852112761,-0.00031732536023428,0.00031653178187805,-2.1130911171542e-06,-8.8907603745728e-07,-2.5930785041249e-07,2.0137691577632e-07,-0.00019868617778734,0.0001938373185761,-0.00031546931611829,0.00031536124388596,-0.00031483601222098,0.00031946583930988,-0.00020125684646072,0.0001944367385208,-0.00019913461843662,0.00019338734639318,-0.00031591812614761,0.00031490884307228,-0.00031528490800254,0.00031901346785045,-0.00036514868521802,0.0003639877706658,-0.00036453374235816,0.00036522076944855,-0.00036499674134465,0.00036414197996733,-0.00036438173440679,0.00036537494755183,-0.00030814667469146,0.00030443018595391,-0.00030630822526808,0.00030347527678663,-0.00030829917631562,0.00030427685861368,-0.00030646087155643,0.0003033220358986,-0.00020080852756794,0.00019488663577537,1.9477630147125e-07,-2.6134052753471e-07,-3.7516853660169e-07,3.1162761290141e-07,-0.00042359575616246,0.00042353194557588,-0.00040857166527524,0.00040933340817309,-0.00041551132901389,0.00041566494119221,-0.00041524771305637,0.00041450555034601,-0.00043118365300201,0.00043104399508534,-0.00043107542547023,0.00043139397326931,-0.00043124890556327,0.00043080398450184,-0.00043122965675413,0.00043124294807173,-0.00040937276353085,0.00040848445918085,-0.00041013270245765,0.0004105891746381,-0.0004153561533654,0.00041596761158755,-0.00041293787851227,0.0004126536189648,-0.0004087435830661,0.00040816058095119,6.9554925533072e-07,2.2969260689167e-06,-0.00035281127327439,0.00035306887519671,4.9202629004936e-07,-1.9520986012198e-07,-0.0003448854324595,0.00034549756181131,-0.00034842329515505,0.00034254171664484,-0.00034871841590813,0.00034773660632433,-0.00034839585910502,0.00036269389600992,-0.00034421463217242,0.00034617219879376,-0.00034775010347502,0.00034321400550747,-0.00034804676232541,0.0003484104269347,-0.00037704978938667,0.0003774450234405,-0.00037727851972125,0.00037721545209381,-0.00037717534366022,0.00037659329397543,-0.00037740479364403,0.00037636444841106,-0.00036364311602043,0.00036744378342199,-0.00036149868080297,0.00036264094997864,-0.00036127055665382,0.00036287092835492,-0.00036341339005957,0.00036767213069391,-0.00034906995308936,0.00036202265606364,0.74318761624594,128566,2924,0.0013197814940051,0.0017632314688783,0.0014694979562295,16.789903518942,-0.00010568077184847,-0.00010568077184847,-0.00010568077184847,2352640.0030859,0.0045629514002322
19191759,0.28069678271306,0.0050551218943478,0.0015672717150842,0.0018319075626889,0.0016559426165747,-0.00032628661831058,0.00032546789229243,-2.2074545296722e-06,-9.229206710482e-07,-2.6733711057854e-07,2.1929324668891e-07,-0.00020351452149849,0.00019842408804495,-0.00032500560667668,0.00032490506484058,-0.00032433916226783,0.00032921225052159,-0.00020621998259821,0.00019908435548646,-0.00020398829478892,0.00019794877017059,-0.00032547973674459,0.00032442719074386,-0.00032481339065759,0.0003287344397548,-0.00037569311141181,0.00037448836582145,-0.00037504561610997,0.00037578115729066,-0.00037553258978491,0.00037465125150571,-0.00037488502407782,0.00037594400046357,-0.00031742503943024,0.00031354473670677,-0.0003154904579508,0.00031252405131513,-0.00031758615375226,0.00031338276113804,-0.00031565171546088,0.00031236218412385,-0.00020574631882613,0.00019955965790929,2.0632901358118e-07,-2.7553865134216e-07,-3.9230347825376e-07,3.2625999957598e-07,-0.00043677794408776,0.00043671161997167,-0.00042140332630928,0.00042220229064435,-0.00042849262529107,0.0004286583482395,-0.0004282188864691,0.0004274382684978,-0.00044446568907768,0.00044432154099068,-0.00044435283039685,0.00044468810442431,-0.00044453554794854,0.00044406892405117,-0.00044451728111724,0.00044453007807417,-0.0004222562000024,0.00042132570032979,-0.00042308525196336,0.00042356171267925,-0.000428330224545,0.00042897500237357,-0.00042578367211808,0.00042548214364914,-0.00042158809305953,0.00042098010673276,7.3452764989182e-07,2.4077899297352e-06,-0.00036269811470332,0.00036297388406823,5.1686191280157e-07,-2.0218713257781e-07,-0.00035532165626755,0.00035597522690435,-0.00035912129259798,0.00035296253134079,-0.00035943486234285,0.00035841628058167,-0.00035899688158774,0.00037402139980256,-0.00035461983853389,0.00035668102925465,-0.00035841696197268,0.00035366593553609,-0.00035873213501361,0.00035912125768345,-0.00038764314263239,0.00038806258105083,-0.00038788246604914,0.00038782238488451,-0.00038777544066245,0.00038716449336571,-0.00038801551432772,0.00038692504593989,-0.0003741769215817,0.00037813769728666,-0.0003719304951274,0.00037314003821607,-0.00037169181578407,0.0003733806580812,-0.00037393656265681,0.00037837662783526,-0.0003597021443308,0.0003733190846309,0.78534703076906,128566,2924,0.0013570293572981,0.0018180475461901,0.0015106689869062,16.952971098533,-0.00010437623121174,-0.00010437623121174,-0.00010437623121174,2378565.8743109,0.0046968049814522
19391759,0.28818019491424,0.0051942000153946,0.0016085287094958,0.0018853035858426,0.0017003677200563,-0.00033610779586992,0.00033525909678753,-2.3118179875076e-06,-9.64049830737e-07,-2.7437677742704e-07,2.3572145433189e-07,-0.00020839490083802,0.00020301044936634,-0.00033531177470311,0.00033521672053659,-0.0003346095005003,0.00033974997189523,-0.0002112424022472,0.00020376326569744,-0.00020889157373244,0.000202512225261,-0.00033580878805826,0.00033471583052831,-0.00033510663471362,0.00033924916050993,-0.00038730690045513,0.00038605434777753,-0.00038662364257191,0.00038741171967537,-0.00038713861507779,0.00038622508341065,-0.00038645528100594,0.00038758240783317,-0.00032751357681059,0.00032345049733659,-0.00032547326813061,0.00032235829583105,-0.00032768247042847,0.00032328070724017,-0.000325642320466,0.00032218862329723,-0.00021074586931763,0.0002042614816251,2.166899448521e-07,-2.8843405711204e-07,-4.1170739886682e-07,3.432606608842e-07,-0.00045119067402375,0.00045112193655236,-0.00043534640618737,0.00043618639640093,-0.00044268598138498,0.00044285993715312,-0.00044239344226829,0.00044157537927541,-0.00045896555591106,0.00045881465306908,-0.00045884707592105,0.00045919989017268,-0.00045903885123162,0.00045854990117595,-0.0004590197602898,0.0004590345274459,-0.00043625401710505,0.00043527770180477,-0.0004371608549751,0.00043766278239452,-0.00044251487367385,0.00044319216033386,-0.0004398154268572,0.00043950073922215,-0.00043554514020136,0.00043490690252033,7.7697628013716e-07,2.5301437770767e-06,-0.00037352802571922,0.00037382425979212,5.4458176980857e-07,-2.1093362324609e-07,-0.00036658590926161,0.000367282809273,-0.00037063989077857,0.00036417528409498,-0.00037097442631018,0.0003699131623026,-0.00037044188210285,0.00038627501838228,-0.00036584849160835,0.00036802436970024,-0.00036989986331998,0.00036491435263486,-0.00037023606046156,0.00037065386813494,-0.00039928153531779,0.00039972782878006,-0.00039953300190694,0.00039947545298471,-0.00039942184487526,0.00039877994765038,-0.00039967409163456,0.00039852835221824,-0.00038565843487588,0.00038980955088321,-0.00038329732536756,0.00038457861592653,-0.00038304653513106,0.00038483143675728,-0.00038540589658045,0.0003900606042326,-0.00037118286130769,0.00038553709407246,0.76951387730471,128566,2924,0.001397845804534,0.001877977500103,0.0015557663211166,17.466581226246,-0.00010026735019003,-0.00010026735019003,-0.00010026735019003,2414672.5667448,0.0048433470397302
19591759,0.29599273242124,0.0053359645594913,0.0016504550577603,0.0019400056710556,0.0017455038306754,-0.00034620061048974,0.00034531999031846,-2.4204971691843e-06,-1.0073198228652e-06,-2.8090000854773e-07,2.5098695616944e-07,-0.00021332151956894,0.00020765491966395,-0.00034575854323999,0.00034566647068702,-0.00034501926699055,0.00035043754153842,-0.00021631296429346,0.00020848137458703,-0.00021383945417225,0.00020713541820582,-0.00034627679886939,0.00034514420081985,-0.00034553766102015,0.00034991536181106,-0.00039930359335993,0.00039799985725445,-0.00039858292908339,0.00039942376591639,-0.00039912811335681,0.00039817788178988,-0.00039840736748652,0.00039960173931556,-0.00033779112885139,0.00033353471628964,-0.00033564016943714,0.00033235760774025,-0.00033796724802456,0.00033335767126597,-0.00033581646015681,0.00033218068727821,-0.00021579518859675,0.00020900087406035,2.261677474212e-07,-3.0054696403344e-07,-4.3278002061559e-07,3.6182364817644e-07,-0.00046605886789857,0.00046598760996924,-0.00044961574530421,0.00045049926294873,-0.00045729017218823,0.00045746954001654,-0.00045697478286604,0.00045611972845355,-0.00047399922794266,0.00047383982757739,-0.00047387437953437,0.00047424513354075,-0.00047407534875325,0.00047356345977991,-0.0004740557299988,0.00047407399651059,-0.0004505777702805,0.00044955292658526,-0.00045155949651573,0.00045209051032043,-0.0004571092302665,0.00045781835514313,-0.00045424919084814,0.00045392394471557,-0.00044982906502963,0.0004491567437215,8.2094043924869e-07,2.6574904453761e-06,-0.00038461907507783,0.00038493575734735,5.740137912267e-07,-2.2119386108697e-07,-0.00037790187280603,0.00037864046658857,-0.00038231505974776,0.00037553325717546,-0.00038267322309228,0.00038156399453631,-0.00038194271816533,0.00039858358103388,-0.00037712568903611,0.0003794209562238,-0.00038153616991893,0.00037631115667896,-0.00038189605346978,0.00038234359385001,-0.00041128730596033,0.00041176190124732,-0.00041155199065656,0.00041149627295545,-0.00041143516748485,0.00041076112779623,-0.00041170066102336,0.00041049630969833,-0.00039734594882368,0.00040170182590555,-0.0003948656584081,0.00039622120507294,-0.00039460167545158,0.0003964872948216,-0.00039708015523834,0.00040196607935446,-0.00038272258698899,0.00039780686970555,0.75193871712486,128566,2924,0.0014397880753417,0.0019397967975755,0.0016019476904709,17.989133765041,-9.6086929879672e-05,-9.6086929879672e-05,-9.6086929879672e-05,2458197.5143334,0.0049940309243676
19791759,0.3041412216035,0.0054799341083343,0.0016929433496671,0.0019958181405573,0.0017911726181099,-0.00035652806407442,0.00035561975536087,-2.5307231450287e-06,-1.0503325429872e-06,-2.8512551383843e-07,2.6822614691407e-07,-0.00021830168341964,0.00021233984418338,-0.00035628867440256,0.00035620395206547,-0.00035551099374157,0.00036122541796579,-0.00022144094822206,0.00021325333464074,-0.00021884053443223,0.00021179940339714,-0.00035682783886576,0.0003556606235452,-0.00035605030853459,0.00036068219199315,-0.00041163979353783,0.00041028656459082,-0.00041087964708968,0.00041177945879764,-0.00041145722313159,0.00041047177521015,-0.00041069699086081,0.00041196461397533,-0.00034824275510566,0.00034378838643959,-0.00034597527418787,0.00034251153966469,-0.000348425994356,0.00034360419512675,-0.00034615869383744,0.00034232748159871,-0.00022090226646943,0.00021379378355478,2.3537512748413e-07,-3.1258078012283e-07,-4.5484721409464e-07,3.8119924581349e-07,-0.00048131858701412,0.00048124462555737,-0.00046413683576657,0.00046506535920868,-0.00047223770212632,0.00047242134320031,-0.00047189694109519,0.00047100445150154,-0.00048952057671791,0.00048935178856103,-0.00048938910400835,0.00048977811004017,-0.00048959927556953,0.00048906377461561,-0.00048957945369654,0.00048960174764967,-0.00046515253057854,0.00046407732174109,-0.00046620640572797,0.00046676820530617,-0.00047204611551048,0.00047278714346344,-0.00046901963422274,0.00046868458482557,-0.0004643639773748,0.0004636555090457,8.6699285868022e-07,2.7899290901531e-06,-0.00039591568020944,0.00039625301811595,6.0470655477469e-07,-2.3199715943569e-07,-0.00038920228025151,0.00038998383654218,-0.00039408777678035,0.00038698242083116,-0.00039447183624895,0.00039331109377635,-0.00039342872110395,0.00041088969547079,-0.00038838557062753,0.00039080502960381,-0.00039326825068902,0.00038780091692843,-0.0003936541022284,0.00039413135967988,-0.00042361762733188,0.00042412149625678,-0.00042389612879403,0.00042384201312721,-0.0004237722167054,0.00042306405586616,-0.00042405156043386,0.00042278541579999,-0.00040916995598734,0.00041374371341691,-0.00040656692713849,0.00040800100420357,-0.00040628915270084,0.00040828096574138,-0.00040889029778562,0.00041402176506185,-0.00039424926418076,0.00041007243545335,0.73294776588182,128566,2924,0.0014827151296923,0.0020032387841339,0.0016489821464835,18.512036184398,-9.1903710524816e-05,-9.1903710524816e-05,-9.1903710524816e-05,2506984.4858659,0.0051482166740073
19991759,0.312399392607,0.0056289687693743,0.0017368856865755,0.0020536708854901,0.0018384121973087,-0.00036650994452275,0.00036557383462274,-2.643110785312e-06,-1.0946487637991e-06,-2.8698839760548e-07,2.8559852081726e-07,-0.00022314304946777,0.00021687673456581,-0.0003666039131336,0.00036652513641685,-0.00036578703102403,0.0003718060207326,-0.00022643144018675,0.00021787995606196,-0.00022370062942122,0.00021631750783728,-0.00036716181095722,0.00036596293279904,-0.00036634507929318,0.00037124391250311,-0.00042355622832201,0.00042215358580549,-0.00042275506613081,0.0004237171276876,-0.00042336731676706,0.00042234523442168,-0.00042256607083171,0.00042390872539322,-0.00035856189830687,0.00035390568507179,-0.00035617390064964,0.00035250299779721,-0.00035875151768888,0.00035371509884194,-0.00035636369893653,0.00035231253709765,-0.00022587402618227,0.00021843916646581,2.4345073033779e-07,-3.2352847662562e-07,-4.8075370175714e-07,4.0436709077217e-07,-0.00049622973101224,0.00049615301677466,-0.00047835735001392,0.00047933757768118,-0.0004868367095381,0.00048701986007244,-0.00048646615370731,0.00048553581915023,-0.00050469370413087,0.00050451221335048,-0.0005045535731003,0.00050496255450713,-0.00050477412886342,0.00050421319537321,-0.00050475273088275,0.00050478227080455,-0.00047943671784052,0.00047830434907116,-0.00048056374419322,0.00048116451287133,-0.0004866315900543,0.00048740481891258,-0.00048342836795498,0.00048308817124883,-0.00047860482650984,0.00047785193697769,9.148211700873e-07,2.9263834164555e-06,-0.00040677765497623,0.00040713631024947,6.3951682420847e-07,-2.4627810929552e-07,-0.00040023312519974,0.00040105316965779,-0.00040562954183952,0.00039818763541592,-0.00040604347176576,0.00040482337382081,-0.00040463606879327,0.00042294433262039,-0.00039936840892345,0.00040192257660394,-0.00040476191299215,0.00039905419728953,-0.00040517770838043,0.00040569178349643,-0.00043548859779509,0.0004360249402969,-0.00043578343847261,0.00043572907573336,-0.00043564941400938,0.00043490767420311,-0.00043594513082553,0.00043461268819586,-0.0004205936176216,0.00042536960189897,-0.0004178676984165,0.00041938247566342,-0.0004175736043618,0.00041967884965084,-0.0004202975633456,0.00042566398172038,-0.0004055047740119,0.00042207903502307,0.74869675452831,128566,2924,0.001524203916586,0.0020652260233098,0.0016942076857102,18.6745013542,-9.0603989166396e-05,-9.0603989166396e-05,-9.0603989166396e-05,2547383.3867039,0.0052976987191886
20191759,0.3206421493794,0.0057811159495345,0.0017817115506695,0.0021127980655615,0.0018866063333036,-0.00037629761428165,0.00037533514340419,-2.7580059317341e-06,-1.142159795388e-06,-2.8561543705957e-07,3.0531874351714e-07,-0.00022765007137682,0.0002210683823299,-0.00037686895449629,0.00037679885755481,-0.00037601220630409,0.00038235387816281,-0.00023109066375477,0.00022216298786342,-0.00022822553027937,0.00022049123141389,-0.00037744471289088,0.00037621863758603,-0.00037658811858469,0.00038177375541107,-0.00043523599834587,0.00043378593358969,-0.00043439159745828,0.00043542077098052,-0.00043504103948754,0.00043398372357982,-0.00043419655618394,0.00043561851252546,-0.0003689432956909,0.00036408141543708,-0.00036642806500749,0.00036253094611495,-0.00036913900559817,0.000363884729498,-0.00036662394965066,0.00036233437887335,-0.00023051536679653,0.00022274011460435,2.51118006532e-07,-3.3401021645113e-07,-5.0670284432983e-07,4.2763305508441e-07,-0.00051097563653411,0.0005108962232286,-0.00049248321865858,0.00049351504841489,-0.00050127957899574,0.0005014613813573,-0.00050087463054318,0.00049990731174515,-0.00051963445273884,0.00051943996157056,-0.00051948627821566,0.0005199150445671,-0.00051971568390377,0.00051912961654151,-0.00051969378170312,0.00051973097262243,-0.00049362834389313,0.00049243903105837,-0.00049484388232779,0.00049548410329844,-0.00050105993887318,0.00050186461275501,-0.00049766591568164,0.00049732153132009,-0.00049275008813161,0.00049195240420182,9.6594976964706e-07,3.0697269626035e-06,-0.00041737307743981,0.00041775589866335,6.75395403619e-07,-2.5964695913404e-07,-0.00041117918601054,0.00041204340860493,-0.00041708090914658,0.00040929021478638,-0.00041752851610775,0.00041625021551003,-0.00041577070897864,0.00043496800990862,-0.00041026631742728,0.00041296115981965,-0.00041616503504939,0.00041020499056621,-0.00041661458010486,0.00041716691164347,-0.00044706643497836,0.00044763726858567,-0.00044737767002856,0.00044732497149169,-0.00044723366200146,0.00044645664931053,-0.0004475458045818,0.00044614526232169,-0.00043182334364846,0.00043680767094562,-0.0004289711296948,0.00043057402370357,-0.00042866065754601,0.00043088685436203,-0.00043151084065721,0.00043711843513393,-0.0004166877135118,0.00043405452672386,0.76566000392553,128566,2924,0.001564888300581,0.0021265210111876,0.0017383281782809,18.643333594812,-9.0853331241506e-05,-9.0853331241506e-05,-9.0853331241506e-05,2578237.7664151,0.005444586673287
20391759,0.32886451934491,0.0059340488443946,0.0018267368496898,0.0021723476792563,0.0019349643154485,-0.00038612191374371,0.000385141368765,-2.8730124345431e-06,-1.1799019611508e-06,-2.7911710960386e-07,3.291736422904e-07,-0.00023196229946866,0.00022506067280824,-0.00038721450066277,0.00038716333486515,-0.00038631707949742,0.00039300305028157,-0.00023555734724009,0.00022625100628326,-0.00023255467285853,0.0002244665616891,-0.00038780714847977,0.00038656606409499,-0.00038690988113575,0.0003924058796531,-0.00044696332002918,0.00044547101083775,-0.00044607430366656,0.00044717833017898,-0.00044676264255824,0.00044567461097857,-0.00044587354643774,0.00044738188368764,-0.00037950614951871,0.00037443769971335,-0.00037685738565746,0.00037275217206616,-0.00037970761847221,0.00037423524142882,-0.00037705902055429,0.00037254982978129,-0.00023496512258979,0.00022684508892019,2.5833872692189e-07,-3.4396136599645e-07,-5.326319861717e-07,4.5096160806146e-07,-0.00052580496458389,0.00052572293311389,-0.00050670694839632,0.00050779017935961,-0.00051581359040214,0.00051599314115718,-0.00051536752147057,0.00051436424593973,-0.00053461440743927,0.00053440665282572,-0.00053445848739119,0.00053490680572416,-0.00053469632877278,0.0005340855246245,-0.00053467375606536,0.00053471902220996,-0.00050791878229963,0.00050667289350412,-0.00050923131522765,0.00050991143770729,-0.0005155790933791,0.00051641433911382,-0.00051198059044586,0.00051163307001371,-0.00050699148633276,0.00050614871911042,1.0189878715027e-06,3.2251506128234e-06,-0.00042794502745214,0.00042835197127807,7.1229284633611e-07,-2.7203690217711e-07,-0.00042215040433922,0.00042306205138752,-0.00042856158073682,0.00042041324671419,-0.00042904722750623,0.00042771110000357,-0.0004269298021099,0.00044705514355434,-0.0004211893572487,0.00042402819448776,-0.00042759742105114,0.00042137627843505,-0.00042808508324286,0.00042867612326943,-0.00045863675496255,0.00045924337133448,-0.00045896439640304,0.00045891462868263,-0.00045880967463914,0.000457997026448,-0.00045913825603653,0.00045766922429037,-0.00044304667513114,0.00044824034143655,-0.0004400646244259,0.00044176106545941,-0.00043973776542618,0.00044209037058392,-0.00044271770876537,0.00044856750643851,-0.00042789515156459,0.00044609342839165,0.77157339074303,128566,2924,0.0016057432977401,0.0021881575350102,0.0017823486206418,18.607177481251,-9.1142580149989e-05,-9.1142580149989e-05,-9.1142580149989e-05,2605604.1165301,0.0055919105074742
20591759,0.33706421164281,0.0060736128222413,0.0018678126943463,0.0022270857327378,0.0019787143951572,-0.0003952794201809,0.00039429391034094,-2.982660454346e-06,-1.1956419150517e-06,-2.694259848199e-07,3.5445215418476e-07,-0.00023522217436644,0.00022800544807319,-0.00039635187788091,0.00039633178698571,-0.00039541394662978,0.00040245480513104,-0.00023896729741498,0.00022930048658094,-0.00023582978673564,0.00022739603908646,-0.00039695973048765,0.000395719186668,-0.0003960219284419,0.00040184228174441,-0.00045824453742119,0.00045671452686778,-0.00045731265044401,0.00045849559475303,-0.00045803872830356,0.00045692333482066,-0.00045710677213462,0.00045870436697892,-0.00038893614249028,0.00038366751276814,-0.00038616012417542,0.0003819231923412,-0.00038914279564145,0.0003834598792474,-0.0003863669221753,0.00038171565290422,-0.00023835979952657,0.00022990983488099,2.6474318146844e-07,-3.5301331342398e-07,-5.5787361834022e-07,4.7367262367046e-07,-0.00053993271474987,0.0005398481369769,-0.00051991408985001,0.00052104693921933,-0.0005295767485448,0.00052975290820384,-0.00052909024393027,0.00052805321475012,-0.00054907789176107,0.00054885680466048,-0.00054891432841614,0.00054938121775834,-0.00054916075937701,0.00054852633908823,-0.00054913448277662,0.00054918803457882,-0.00052118168150239,0.00051988113671511,-0.00052255697350269,0.00052327637984318,-0.00052932964377874,0.00053019341967499,-0.00052553467035341,0.00052518531946242,-0.0005202130228959,0.0005193259313841,1.0696333191459e-06,3.371667108334e-06,-0.00043780418200297,0.00043823092246983,7.492029835969e-07,-2.8306513145748e-07,-0.00043161680606602,0.00043257139015974,-0.00043871892531768,0.00043023640395814,-0.00043924091123454,0.0004378462022311,-0.00043657623934291,0.00045756737405278,-0.00043060881285354,0.00043358463463061,-0.0004377077778161,0.00043124640620251,-0.00043823183487481,0.00043885824902044,-0.00046972810279255,0.00047036896692714,-0.00047007169922856,0.00047002424139241,-0.00046990414807742,0.00046905894061569,-0.00047024870640657,0.00046871517649247,-0.00045336562471394,0.0004587806147464,-0.00045026249040811,0.00045204547487556,-0.00044991967425734,0.00045239078523202,-0.00045302065453101,0.00045912373912306,-0.00043758865111327,0.00045655867901653,0.70761958052279,128566,2924,0.0016438512539875,0.0022468725859692,0.0018233934183766,18.570825831602,-9.1433393347184e-05,-9.1433393347184e-05,-9.1433393347184e-05,2640400.0246532,0.005730564838351
20791759,0.34483156095839,0.0062132671024708,0.0019089867139853,0.002281705363537,0.0020225750249485,-0.00040316199403592,0.00040217580486018,-3.0834958929261e-06,-1.2124572420651e-06,-2.5258919540427e-07,3.7855915912829e-07,-0.00023842637221561,0.00023093390866413,-0.00040456229586283,0.00040456693944187,-0.00040358564521766,0.00041096045263516,-0.00024230694023782,0.00023232012630435,-0.00023904119321179,0.00023031725120139,-0.00040517717530966,0.00040394716567937,-0.00040420070326789,0.00041034070202877,-0.00046789511918507,0.00046633445005772,-0.00046692192449536,0.00046818731275279,-0.0004676869593507,0.00046654568484475,-0.00046671368334917,0.00046839853368824,-0.00039731193926413,0.00039185862415744,-0.00039441380135351,0.00039003510962313,-0.00039752097458958,0.00039164861034816,-0.00039462302132205,0.00038982512518771,-0.00024169238663681,0.00023293654894301,2.6711437531412e-07,-3.5782530422856e-07,-5.8004123235098e-07,4.9349868954564e-07,-0.00055230457201869,0.00055221763368515,-0.00053159850073127,0.00053277252361498,-0.00054160508981313,0.0005417719182668,-0.00054107104348706,0.00054001051278227,-0.00056176643458681,0.00056153140499372,-0.00056159696028028,0.00056207786469209,-0.00056184688620831,0.00056119375763759,-0.00056181912635342,0.00056188196014539,-0.00053291958313178,0.00053157315090207,-0.00053436419726574,0.00053512001524088,-0.00054134672630942,0.00054222909281539,-0.00053735804669527,0.00053701322351831,-0.00053190943079362,0.00053098131509766,1.1188174113535e-06,3.509021649401e-06,-0.00044620204516899,0.00044664904963441,7.8248477297331e-07,-2.9183250571738e-07,-0.00043993901009331,0.00044093976345389,-0.00044779543797812,0.00043900464634769,-0.00044835726632239,0.00044691221285673,-0.00044505583495259,0.00046685948008994,-0.00043888980392395,0.00044199437330156,-0.00044674313073927,0.0004400558036,-0.00044730702898456,0.00044796551430206,-0.00047914073808506,0.00047981409967362,-0.0004794983441005,0.00047945534191999,-0.00047931891851247,0.00047844098488412,-0.00047967748711551,0.0004780832219738,-0.00046221951972132,0.00046781697925076,-0.00045900809448824,0.00046087754211142,-0.00045865125785506,0.00046123691786055,-0.00046186053986691,0.00046817407806079,-0.00044610940182223,0.00046580969730933,0.74689073069477,128566,2924,0.0016766623063597,0.0022982854145446,0.0018583603125248,17.865758124717,-9.7073935002266e-05,-9.7073935002266e-05,-9.7073935002266e-05,2661972.3232794,0.0058504497684294
20991759,0.35207382267452,0.0063388804585198,0.0019460634066834,0.0023309719916164,0.0020618450602199,-0.00040980941789459,0.00040882824403135,-3.1803561668329e-06,-1.2297128917116e-06,-2.2851441187334e-07,4.0028464648697e-07,-0.00024013963069978,0.00023236749247245,-0.00041135723647385,0.00041138506761139,-0.00041034242462865,0.00041804974637269,-0.00024414475052657,0.00023385591521867,-0.000240752117045,0.00023175315821764,-0.00041196981542536,0.00041076749090849,-0.00041095511555052,0.0004174322438249,-0.00047630969963276,0.00047472421203965,-0.00047529543559502,0.00047664610723681,-0.00047610235910105,0.00047493467708018,-0.00047508803569478,0.00047685654214832,-0.00040433513613991,0.00039870282314034,-0.00040131672635966,0.00039679749944173,-0.00040454341122775,0.00039849357559505,-0.00040152511674999,0.00039658833001015,-0.00024353233182213,0.00023447019265115,2.6506617297269e-07,-3.5752716807126e-07,-5.9997866628706e-07,5.1173445718378e-07,-0.00056316275938889,0.00056307410510823,-0.00054172106818298,0.00054293002854626,-0.00055211018722453,0.0005522602110092,-0.00055152114566771,0.00055044846578854,-0.00057293978453978,0.0005726895112433,-0.00057276544850683,0.00057325655978409,-0.00057301548539968,0.0005723487721246,-0.00057298613338616,0.00057306079259745,-0.00054308590220536,0.00054170120928158,-0.00054459313006564,0.0005453853891627,-0.00055184172520112,0.00055273278327105,-0.00054765253850671,0.00054732093212878,-0.00054203956304064,0.00054107155684241,1.1682059467864e-06,3.6395156555182e-06,-0.00045327164647016,0.00045373902907601,8.1434822550989e-07,-2.9810967340821e-07,-0.00044669552808651,0.00044774701492708,-0.00045526066090797,0.00044617855148902,-0.0004558611979638,0.00045437075642264,-0.00045196954708787,0.00047454555848272,-0.00044560909736563,0.00044883894690508,-0.00045417097156742,0.00044726709565621,-0.00045477367336896,0.00045546140939973,-0.00048726089262753,0.00048796687517313,-0.0004876311940717,0.00048759540958991,-0.00048744139639815,0.00048653163662993,-0.00048781268786718,0.0004861611529041,-0.00046972408508562,0.00047546400805631,-0.00046640513713821,0.00046836402905782,-0.00046603562883956,0.00046873609315422,-0.00046935235269512,0.00047583384603242,-0.00045306060036413,0.00047345831866309,0.72120224373544,128566,2924,0.0017043469847233,0.0023434043817,0.0018878022235867,16.958228214981,-0.00010433417428015,-0.00010433417428015,-0.00010433417428015,2675590.078259,0.0059533036826169
21191759,0.35882054492966,0.0064563286669225,0.0019808103174392,0.0023770080960084,0.0020985102534749,-0.00041594709808536,0.00041496600419849,-3.2728726555311e-06,-1.2358328788362e-06,-2.0671145182959e-07,4.1444826888484e-07,-0.00024192812575513,0.00023388485970219,-0.00041768579118964,0.00041770137225356,-0.00041663495774616,0.00042462248646961,-0.0002460441956878,0.00023547278501606,-0.00024253315162051,0.00023327797080809,-0.00041829081424845,0.00041709126050627,-0.00041724010552976,0.00042401241584073,-0.00048403283210947,0.00048242682793736,-0.00048298012664207,0.00048441497591653,-0.00048382806453788,0.00048263475735103,-0.00048277529556227,0.00048462288855222,-0.00041079543638743,0.00040499502697304,-0.00040765746814126,0.00040305225101814,-0.00041100114801447,0.00040478834535202,-0.00040786331426439,0.00040284561251362,-0.00024543929993631,0.00023607952518682,2.6053264138433e-07,-3.5438027809329e-07,-6.1840005354685e-07,5.2879968212302e-07,-0.0005731165592131,0.00057302653435139,-0.0005510098442399,0.00055224964259892,-0.00056172104841083,0.0005618503032707,-0.00056108979242009,0.00056001142127811,-0.00058321356095451,0.00058294755330591,-0.00058303460481278,0.0005835336068689,-0.00058328157786938,0.00058260425450876,-0.00058324924265791,0.00058333693244357,-0.00055241386106661,0.00055099560544592,-0.00055397055376539,0.00055479878356317,-0.00056144330208009,0.00056233719222258,-0.00055707638116107,0.00055676274934744,-0.00055133660651627,0.00055032995718424,1.2146558223724e-06,3.7622544414454e-06,-0.00045969493807758,0.00046018360069515,8.4462437989642e-07,-3.0335108358158e-07,-0.00045280144390151,0.00045390199243255,-0.00046211094983332,0.00045276364037285,-0.00046274521452129,0.00046121396522828,-0.00045823338371989,0.00048152025458554,-0.00045168021595564,0.00045502884038645,-0.00046098648170414,0.00045388695436573,-0.00046162292711503,0.00046233946018061,-0.00049465646816593,0.00049539352092141,-0.00049503859966822,0.00049501020667714,-0.00049484010808202,0.00049390165967647,-0.00049522323533146,0.0004935193503466,-0.00047657093479057,0.00048244136762022,-0.00047314588297793,0.00047517883887668,-0.00047276452157269,0.00047556276323613,-0.00047618736308501,0.00048282301742929,-0.00045935923340109,0.00048039826774128,0.72387546826029,128566,2924,0.0017298996389169,0.0023847628852212,0.0019145572818858,16.045380605797,-0.00011163695515362,-0.00011163695515362,-0.00011163695515362,2687748.5955697,0.0060475363367931
21391759,0.36519720943574,0.0065678038658631,0.0020138584965787,0.002420677757293,0.0021332676119914,-0.00042204363847594,0.00042104879712847,-3.3704985728743e-06,-1.2560380160282e-06,-1.8821772247427e-07,4.1575669033754e-07,-0.00024381430046244,0.00023548381561447,-0.00042402055886982,0.00042400283429896,-0.00042293551339878,0.00043117230549609,-0.00024802669773345,0.00023718103210772,-0.00024440257440149,0.00023489369262522,-0.00042460877078106,0.00042340948559975,-0.0004235238433666,0.0004305790039887,-0.0004916356136046,0.00048999556397227,-0.00049054623732573,0.00049204821373795,-0.00049143658897195,0.00049019776371182,-0.00049034715257098,0.00049225039593303,-0.0004171796520933,0.00041119212243881,-0.00041393315516212,0.00040924430666509,-0.00041737964579062,0.00041099117074464,-0.00041413327134251,0.00040904340051405,-0.0002474385283296,0.0002377710275631,2.5159253208667e-07,-3.4622779550983e-07,-6.3534057689114e-07,5.4492638710587e-07,-0.00058281992350725,0.00058272907773767,-0.00056010255253243,0.00056136820987238,-0.00057109519240146,0.00057119579203767,-0.00057041133162223,0.00056933788827245,-0.0005932026597032,0.00059291906623788,-0.00059301951011936,0.00059352297004256,-0.00059325984689959,0.00059257644326634,-0.00059322513320012,0.00059332877992625,-0.00056153924173006,0.00056009351677751,-0.00056315063501829,0.00056401614704943,-0.00057080889185013,0.00057169616848159,-0.00056625921473088,0.00056597253905566,-0.00056043540580043,0.00055938984727701,1.2582863403694e-06,3.8702623926249e-06,-0.00046602045358754,0.000466525712394,8.7176435828821e-07,-3.0930737108166e-07,-0.00045887083796561,0.00046001582336529,-0.00046886801197212,0.00045926217734263,-0.00046953405982273,0.00046796265873893,-0.00046446092470771,0.00048843513982538,-0.00045771721105936,0.0004611750895751,-0.00046771114296324,0.00046041790694857,-0.00046837938734097,0.00046912056633361,-0.00050189405223245,0.00050265951924724,-0.00050228721626996,0.00050226517629699,-0.00050208167018909,0.00050111526173479,-0.00050247582838425,0.00050072191672506,-0.00048329904700177,0.00048935285459219,-0.00047976991285819,0.00048187868231781,-0.00047937751109709,0.00048227362633297,-0.00048290443552339,0.00048974554289579,-0.00046561920000819,0.00048728071971434,0.72692810478257,128566,2924,0.0017552517372012,0.0024250797855594,0.0019408954007105,15.323254488342,-0.00011741396409326,-0.00011741396409326,-0.00011741396409326,2699500.0425142,0.006140108284485
21591759,0.37124947533191,0.0066745488088282,0.0020455551012083,0.002462471020599,0.0021665226870209,-0.00042792870414341,0.00042690163728019,-3.4739422923102e-06,-1.2879915923649e-06,-1.7836379722363e-07,4.0117682795703e-07,-0.00024565312464415,0.00023701781267629,-0.00043021150446369,0.00043012204147603,-0.0004290935779003,0.00043753094030452,-0.00024995067649609,0.00023882728925106,-0.00024621749755417,0.00023645162265448,-0.00043077575611502,0.0004295526061934,-0.00042965795380107,0.00043696155567779,-0.00049893937116726,0.00049725500680318,-0.0004978150506744,0.00049937140673032,-0.0004987484755165,0.00049744907290166,-0.00049762409311415,0.00049956545414472,-0.00042332112293249,0.000417141305087,-0.00041996816758187,0.00041522402488072,-0.00042351298580558,0.00041694848795985,-0.00042016015457616,0.00041503125665129,-0.00024938641372013,0.00023939335784518,2.3928795207085e-07,-3.3416824988991e-07,-6.5124932663311e-07,5.6053389957508e-07,-0.00059212168156187,0.00059203052886586,-0.0005688609680373,0.00057014905268539,-0.00058007233637841,0.00058013816116844,-0.00057934257749171,0.00057828224653065,-0.00060275986332471,0.0006024573108566,-0.00060257278888642,0.00060307831313361,-0.00060280278958461,0.00060211671756005,-0.00060276523739076,0.00060288723744106,-0.00057032560972477,0.00056885686213597,-0.00057199372500928,0.0005728979280381,-0.00057977830771467,0.00058065181845562,-0.00057505717387539,0.00057480462154743,-0.00056919925977486,0.00056811441208585,1.2992592662483e-06,3.9743384189428e-06,-0.00047208435742093,0.00047260378413892,8.9681726951265e-07,-3.1581488724505e-07,-0.00046473003698992,0.00046591629718498,-0.00047538308046882,0.00046552416206649,-0.00047607612833355,0.00047446499228067,-0.00047048321300156,0.00049513681469501,-0.0004635455281796,0.00046710647822639,-0.000474195323534,0.00046671078128673,-0.00047489058544567,0.00047565380625613,-0.00050880995276963,0.00050960128986146,-0.00050921363969737,0.00050919642327916,-0.00050900381457478,0.00050801006729207,-0.00050940849695746,0.00050760619963136,-0.00048979132707985,0.00049602247631047,-0.00048616113482407,0.00048834176975232,-0.0004857582046595,0.00048874723238105,-0.00048938619466336,0.00049642568412147,-0.00047167238355332,0.00049395150241565,0.73328392976076,128566,2924,0.0017796847100305,0.0024637271037446,0.0019661401412596,14.658039256072,-0.00012273568595142,-0.00012273568595142,-0.00012273568595142,2709128.8844295,0.006228983400459
21791759,0.37699331099579,0.0067744228899523,0.0020752521168501,0.0025016133692274,0.0021975574038748,-0.0004333900563046,0.00043231865709474,-3.5786779792557e-06,-1.3227998045611e-06,-1.7734789340472e-07,3.800020211956e-07,-0.00024714217808718,0.00023820646547884,-0.00043590656580751,0.00043573496726789,-0.00043475666299974,0.0004433741517743,-0.00025152316487532,0.00024011592352237,-0.0002476846494824,0.00023766221201843,-0.00043644899767665,0.00043518735725496,-0.00043529922304239,0.00044282659621955,-0.00050577524457885,0.00050404484265355,-0.00050461690805922,0.00050622191104904,-0.00050559169926513,0.00050423154787263,-0.00050443329951275,0.00050640859622109,-0.00042896772079164,0.00042259481512211,-0.00042551295980046,0.00042070521950327,-0.00042915220880931,0.00042240938061997,-0.00042569757551787,0.00042051983613318,-0.00025098080524812,0.00024066005248542,2.2814258112257e-07,-3.2304801426435e-07,-6.6667911395208e-07,5.7585577819558e-07,-0.00060082214026907,0.00060073087534425,-0.00057701931740633,0.0005783299914264,-0.00058845950032026,0.00058849304983234,-0.00058770170222254,0.00058665293234126,-0.00061171146597108,0.00061139117612386,-0.00061152031309477,0.00061202860899233,-0.00061173990991386,0.00061105085064677,-0.00061169981948846,0.00061183933973374,-0.00057850618530285,0.00057701463825035,-0.0005802260529116,0.00058116767268187,-0.00058815790382297,0.00058901963601048,-0.00058328767127206,0.00058306717859099,-0.00057736308510003,0.00057624060602183,1.3392157731205e-06,4.0745011271092e-06,-0.0004776805806456,0.00047821451663381,9.2081930759522e-07,-3.2260764059712e-07,-0.00047003463746266,0.00047126103632676,-0.0004813423981709,0.00047124071252021,-0.00048205091826978,0.00048040174591416,-0.00047597218969336,0.00050127852401454,-0.0004688200217199,0.00047248141341109,-0.00048012447495717,0.00047245744890759,-0.00048083526731053,0.00048162073361683,-0.00051524679227989,0.00051606387183048,-0.00051566073633269,0.00051564872744482,-0.00051544991960325,0.00051442864351669,-0.00051586488237787,0.00051401452069705,-0.00049580926516408,0.00050220817932218,-0.00049207513433813,0.00049432651968801,-0.00049166194911683,0.00049474226035384,-0.00049539384579436,0.00050262163354385,-0.00047719155551741,0.00050006310829525,0.72318902418597,128566,2924,0.0018023289740201,0.0024998744515808,0.0019894403501125,13.994319677768,-0.00012804544257785,-0.00012804544257785,-0.00012804544257785,2717616.0220508,0.0063115939933769
21991759,0.38278789385386,0.0068736376118545,0.0021047958875437,0.002540530855216,0.0022283108690949,-0.00044025563736229,0.00043913603661143,-3.6844442060501e-06,-1.3565339904803e-06,-1.9322945089751e-07,3.6920524720391e-07,-0.00024992241639064,0.00024070545012636,-0.00044295435244715,0.00044271550034719,-0.00044177183083496,0.00045059031709889,-0.00025441428974439,0.00024269317448476,-0.00025046969912812,0.00024015639149762,-0.00044350165488189,0.00044216296603244,-0.00044231926519027,0.00045003783741259,-0.00051408279410696,0.00051229994523496,-0.00051289058582006,0.00051453929384724,-0.00051389754807574,0.00051248837823343,-0.00051270527578899,0.00051472770746319,-0.0004359920514617,0.00042943591879282,-0.00043243639396071,0.00042757371070138,-0.00043617824081861,0.00042924878521018,-0.00043262271520832,0.00042738662732754,-0.00025386712573291,0.00024324210085896,2.3009771433508e-07,-3.2597693000128e-07,-6.8263064491993e-07,5.9088140196994e-07,-0.00061102823129454,0.00061093603797115,-0.00058663250687091,0.00058797424888705,-0.00059835432706343,0.00059838138261039,-0.00059759642665345,0.00059653160905093,-0.00062217462428097,0.00062184477656031,-0.00062197944490092,0.0006224988324363,-0.00062219690085165,0.00062149490850404,-0.00062215344154744,0.00062230067820812,-0.0005881454813247,0.00058662102656243,-0.00058990782199255,0.00059087719742652,-0.00059804603473379,0.00059892191264771,-0.00059304798143285,0.00059283208721855,-0.00058698152205347,0.00058582944809291,1.3788646916426e-06,4.1806409418701e-06,-0.00048471479600931,0.0004852640021014,9.4603950499366e-07,-3.2840313658981e-07,-0.00047672899921116,0.00047799429749912,-0.00048870482614918,0.0004783629270908,-0.00048942152798888,0.00048773347804316,-0.00048286724139701,0.00050884255913797,-0.00047548405665234,0.00047924510913631,-0.0004874565122268,0.00047960999640709,-0.00048817555651621,0.00048898287135311,-0.00052314869611028,0.00052399115844433,-0.00052357296545533,0.00052356566019245,-0.00052336259117149,0.00052231439815318,-0.00052378790813207,0.00052188995097629,-0.00050326295920206,0.000509851256953,-0.00049942425633689,0.00050174570406499,-0.00049900074852727,0.00050217180090975,-0.00050283717519387,0.00051027501680987,-0.00048411704446447,0.00050759684151477,0.71247115205752,128566,2924,0.0018308059255466,0.002542275692856,0.0020187210780621,14.10877411665,-0.0001271298070668,-0.0001271298070668,-0.0001271298070668,2739799.0675215,0.0064123946138836
22191759,0.38873696986994,0.006973808327976,0.0021346379265864,0.0025798952807347,0.0022592751206549,-0.00044762394672382,0.00044646774036345,-3.7863072295665e-06,-1.3860120511018e-06,-2.1137899496941e-07,3.780719309988e-07,-0.00025308635568811,0.00024360820408387,-0.00045042507096239,0.0004501548987222,-0.00044920930810793,0.00045827430385738,-0.00025771271821811,0.0002456625836966,-0.00025366009972123,0.00024303266068782,-0.00045099880858168,0.00044957583083517,-0.00044978317894258,0.00045769529999189,-0.00052297227619339,0.00052113363575349,-0.00052174544757863,0.0005234368319669,-0.00052277809001189,0.00052133107652149,-0.00052155119721221,0.00052363425109914,-0.00044347523466051,0.00043675165406809,-0.00043981931803313,0.0004349021380843,-0.00044367040899953,0.00043655552721624,-0.0004400146231352,0.00043470607198499,-0.00025713908326148,0.00024623800861736,2.4256672379736e-07,-3.4037571027634e-07,-6.9826109817358e-07,6.0472133000367e-07,-0.00062184945999288,0.00062175546794733,-0.00059678508113236,0.00059816287018767,-0.00060884790422542,0.00060888969460794,-0.00060810032586709,0.00060699743401118,-0.00063328767624971,0.0006329551661783,-0.00063308910421285,0.0006336254838588,-0.00063331194276145,0.00063258939757168,-0.00063326535170463,0.00063341168481687,-0.00059832935687277,0.00059676529919215,-0.000600129943735,0.00060111741971215,-0.00060853353885462,0.00060944379652297,-0.00060341490224591,0.00060318057376507,-0.00059713676999458,0.0005959630304111,1.419465391047e-06,4.291839881598e-06,-0.00049226933783213,0.00049283691335581,9.7144460005133e-07,-3.3251163348787e-07,-0.00048386580053355,0.00048517296647199,-0.00049653650922644,0.00048595696508037,-0.00049726470638736,0.0004955392025081,-0.00049019194185613,0.0005168506492302,-0.00048259199617485,0.00048645269863542,-0.00049525930289426,0.00048723291941649,-0.00049598987891823,0.00049681750879936,-0.00053162186394214,0.00053248958507589,-0.00053205596632223,0.00053205424028044,-0.00053184487946689,0.00053076894167872,-0.00053228004156017,0.00053033465762421,-0.00051121569968507,0.00051800512289869,-0.00050727982215418,0.00050967163336105,-0.00050684648256348,0.00051010757339531,-0.00051078006174909,0.00051843871374194,-0.00049147067533206,0.00051557606159683,0.70115780425319,128566,2924,0.0018613977772109,0.0025872292415021,0.002050170852953,14.451608791383,-0.00012438712966894,-0.00012438712966894,-0.00012438712966894,2768185.1935256,0.0065200867149811
22391759,0.39484450965966,0.0070807520629758,0.0021664909126926,0.002621859795029,0.0022924013552542,-0.00045537881236656,0.00045418903082463,-3.8889889480348e-06,-1.411155828696e-06,-2.2253829031892e-07,3.9218631787067e-07,-0.00025670783125817,0.00024696149377103,-0.00045848441923923,0.00045818448446931,-0.00045723427830818,0.00046656094480267,-0.00026146970613721,0.00024908254709049,-0.00025730633689391,0.0002463611659116,-0.00045908285499154,0.00045758057982455,-0.00045783285604479,0.0004659571163538,-0.00053221851332788,0.00053032693229563,-0.00053095635422843,0.00053269630750471,-0.00053201596896505,0.00053053280724956,-0.00053075374319076,0.00053290215790766,-0.0004514955244504,0.00044459942479197,-0.00044773666176949,0.00044272597091873,-0.00045169909412576,0.00044439488754864,-0.00044794036852841,0.00044252149505155,-0.00026087131846451,0.00024968276870933,2.5406342798129e-07,-3.5401288324757e-07,-7.1421289246624e-07,6.1867756637526e-07,-0.00063316433590083,0.00063306833464142,-0.00060750220871596,0.00060891569116522,-0.00061983130808444,0.00061988575674173,-0.0006190929395516,0.00061795331030267,-0.00064485666290344,0.00064452055867261,-0.0006446550471869,0.00064520778096144,-0.00064488263844383,0.00064413975690824,-0.00064483271031618,0.00064497865755063,-0.00060908290505594,0.00060747918441422,-0.00061093096679471,0.0006119373481847,-0.00061951126853319,0.00062045411974859,-0.0006142567794229,0.00061400565911243,-0.00060785752193198,0.00060666091176494,1.4611686390734e-06,4.4078785086978e-06,-0.00050021838510658,0.00050080524732936,9.9886584625005e-07,-3.3505253205783e-07,-0.00049163185572872,0.00049298206346343,-0.00050498902807936,0.00049416303472614,-0.00050573421866206,0.0005039716812622,-0.00049814183374293,0.00052555436848873,-0.0004903287723526,0.0004942911779595,-0.00050368249911696,0.00049546830995694,-0.00050443011009916,0.00050527934662191,-0.00054042773478921,0.0005413211749974,-0.00054087181810539,0.00054087582962609,-0.00054065850647753,0.00053955427312356,-0.00054110366422392,0.00053911000240467,-0.00051959647493956,0.00052657149585316,-0.00051555843843588,0.00051802263174968,-0.0005151151244217,0.00051846857456059,-0.00051915083307084,0.00052701506087856,-0.00049944992634104,0.0005242504882968,0.72867975238636,128566,2924,0.0018936035794038,0.0026342312496579,0.0020832619933536,14.800450252476,-0.00012159639798019,-0.00012159639798019,-0.00012159639798019,2794104.699199,0.0066331285271972
22591759,0.40111203386076,0.0071916265097808,0.0021994907532079,0.0026654099462851,0.0023267258102878,-0.00046333855034165,0.00046211293215041,-3.9977899844405e-06,-1.4396330667168e-06,-2.3272315790731e-07,4.0450358987666e-07,-0.00026012157566058,0.00025007252635257,-0.00046682691055331,0.00046650089237138,-0.00046554138492108,0.00047514488486508,-0.00026502131765676,0.00025227472428743,-0.00026074214687407,0.00024945011545721,-0.00046744732789286,0.00046587486058703,-0.00046616195676391,0.00047451893615827,-0.00054175484414351,0.00053980993709071,-0.00054045558537488,0.00054224768357084,-0.0005415448680884,0.00054002332143266,-0.00054024553858648,0.00054246104038977,-0.00045980266524489,0.00045272563520121,-0.00045593467798275,0.00045082579777822,-0.0004600137045997,0.00045251360898643,-0.00045614586216463,0.00045061384282076,-0.00026440087483316,0.00025289703897682,2.6417999260692e-07,-3.662833707006e-07,-7.3050802964219e-07,6.3295077785112e-07,-0.00064488995575286,0.00064479191745175,-0.0006186532979158,0.00062010217573689,-0.0006312242476115,0.00063128840290063,-0.00063048162474998,0.00062930771180972,-0.0006567837925056,0.00065644292120758,-0.00065657925714222,0.00065714761799594,-0.00065681088138759,0.00065604833728038,-0.00065675754174777,0.00065690421833007,-0.00062027420638803,0.0006186310726581,-0.00062218163657514,0.00062320846091688,-0.00063089802550398,0.00063187096409311,-0.00062548374172794,0.00062521871784301,-0.00061901107489229,0.0006177900003135,1.5053730424202e-06,4.5329766944136e-06,-0.00050839848647593,0.00050900783797725,1.0279201123982e-06,-3.3662920044556e-07,-0.00049970862086656,0.00050110556637451,-0.00051372308621609,0.00050263261579416,-0.0005144898071783,0.00051268953178847,-0.00050641888436985,0.00053465951061185,-0.00049837560672568,0.00050244470735191,-0.00051238658700172,0.00050396786732742,-0.00051315576535768,0.0005140272084495,-0.00054948689120558,0.00055040836663493,-0.00054994118006203,0.0005499527962768,-0.00054972564462963,0.00054859208695635,-0.00055018102104074,0.00054813760386316,-0.00052825032625471,0.00053541474331638,-0.00052410484742569,0.00052664751729096,-0.00052365133551809,0.00052710368658664,-0.00052779445771395,0.00053586850427647,-0.00050775698144201,0.00053332568159363,0.73620698698209,128566,2924,0.0019266579669592,0.0026829365682896,0.0021173194490992,15.149528020708,-0.00011880377583434,-0.00011880377583434,-0.00011880377583434,2816279.4997025,0.0067497251474246
22791759,0.40743790450554,0.0073045537105446,0.0022330781694127,0.0027098191662878,0.002361656374844,-0.00047102524732258,0.0004697622496629,-4.1085927855006e-06,-1.4662357066252e-06,-2.4207465597127e-07,4.1137818450189e-07,-0.00026319690224265,0.000252852013271,-0.00047495342481421,0.00047458484751111,-0.00047363212617523,0.00048350649948596,-0.00026823108402289,0.00025512138525965,-0.00026383334147425,0.00025221372429142,-0.00047558965186239,0.00047394286926942,-0.00047426851896671,0.00048286461828555,-0.00055102738903342,0.00054903030912132,-0.00054969041374106,0.00055153726609273,-0.00055081206450176,0.0005492491188477,-0.00054947501537785,0.00055175604557445,-0.00046786242880626,0.00046059828928692,-0.00046388333408458,0.00045867066583044,-0.00046807885018047,0.0004603808643731,-0.00046409990659692,0.00045845331678746,-0.00026759477842835,0.0002557595858509,2.7122368760362e-07,-3.7532497332382e-07,-7.4734066447655e-07,6.4790013146916e-07,-0.00065639549964838,0.00065629556490076,-0.00062960578222041,0.00063108928825186,-0.0006423990409469,0.00064246645307636,-0.0006416496408474,0.00064044737875072,-0.0006684734550331,0.00066812547473184,-0.00066826570120604,0.00066884814817912,-0.00066849983747912,0.00066771944641415,-0.00066844270511177,0.00066859272864464,-0.0006312675317143,0.00062958602564003,-0.00063323907930563,0.00063428977076988,-0.00064206598410793,0.00064306336444801,-0.00063648099169612,0.00063620880740482,-0.00062996683108574,0.00062871814309348,1.5503246207906e-06,4.6624566447599e-06,-0.00051628201994836,0.00051691580088239,1.0585479790689e-06,-3.3784389394428e-07,-0.00050751981179912,0.00050896366693232,-0.00052221542297115,0.0005108525200932,-0.00052300530480698,0.00052116642798885,-0.00051443405236381,0.00054353275537242,-0.00050615568147337,0.00051033403465971,-0.00052084775620153,0.00051221893111913,-0.00052164014208094,0.00052253530921199,-0.00055825525383056,0.00055920556392985,-0.00055872014663699,0.00055873936226303,-0.00055850189776336,0.00055733927525069,-0.0005589678982594,0.00055687418054381,-0.00053663634662911,0.00054398957173059,-0.00053238148322415,0.00053500395377783,-0.00053191737696093,0.00053547075992605,-0.00053616984245191,0.00054445392764948,-0.00051580335273159,0.00054216779452182,0.74292713982239,128566,2924,0.0019585737449273,0.0027307245829961,0.0021501468106072,15.287547291994,-0.00011769962166404,-0.00011769962166404,-0.00011769962166404,2834372.2875406,0.0068630266215161
22991759,0.41380816896237,0.0074123029322223,0.0022651373478297,0.0027523911495748,0.0023947744348178,-0.00047841518036661,0.00047711687406389,-4.2182716645593e-06,-1.490667110018e-06,-2.4853255566404e-07,4.1601764144524e-07,-0.00026573275051108,0.00025510842154072,-0.00048252313911009,0.00048211163178096,-0.0004811655983941,0.00049130785071117,-0.00027089534027903,0.00025743113853878,-0.00026638003023923,0.00025445927856965,-0.00048317018637249,0.00048145874371293,-0.0004818128129693,0.00049065506076603,-0.00056010951531636,0.00055806147902319,-0.00055873524441706,0.00056063871426771,-0.00055989054527941,0.00055828399951945,-0.0005585161998495,0.00056086120364125,-0.00047544072084581,0.00046798479437989,-0.00047135122209731,0.00046604068476413,-0.00047566081829025,0.00046776367994802,-0.00047157147260453,0.00046581964979733,-0.0002702481911681,0.00025808018970188,2.7578765621143e-07,-3.8173841605234e-07,-7.6472629788544e-07,6.6352385835679e-07,-0.00066763491261855,0.00066753320424704,-0.00064015073871553,0.0006416684861974,-0.00065329133615017,0.00065335672946065,-0.00065253253317093,0.00065130666740866,-0.0006799717548153,0.00067961467272383,-0.00067976036684179,0.00068035571542007,-0.00067999686928248,0.00067920006088845,-0.00067993425737933,0.0006800898646453,-0.00064184739195461,0.00064012814025349,-0.0006438676951466,0.00064494528487213,-0.0006529522403855,0.00065396959629593,-0.00064719812639077,0.0006469243322646,-0.00064051428100245,0.00063923518639928,1.5940894799536e-06,4.789888290788e-06,-0.00052385051289473,0.00052450639717768,1.0890310087596e-06,-3.4042251268628e-07,-0.00051466381782189,0.00051615007441026,-0.00053010823468664,0.00051847662586959,-0.00053092078949701,0.00052903940407747,-0.00052177379742338,0.00055170422267513,-0.00051326735446201,0.00051755286494713,-0.00052870819622284,0.00051987539792883,-0.00052952329745487,0.00053044068172338,-0.00056682771671733,0.00056780567889832,-0.00056730361975511,0.00056732844399532,-0.00056708082179786,0.00056588990966032,-0.00056755785020457,0.00056541379781849,-0.00054465709178734,0.00055219721487934,-0.0005402921770841,0.00054299138777843,-0.00053981706794139,0.00054346923204031,-0.00054417954945304,0.0005526725757276,-0.00052317550384139,0.00055030691505364,0.70494323056878,128566,2924,0.0019892593691723,0.0027774041430895,0.002181658368806,15.399327388282,-0.00011680538089374,-0.00011680538089374,-0.00011680538089374,2855989.6604483,0.0069726624333161
23191759,0.42022080189153,0.0075219175500994,0.002297763722229,0.0027957014474254,0.002428452380445,-0.00048593840635691,0.00048460674669276,-4.3244684398618e-06,-1.5120166320734e-06,-2.5154836995424e-07,4.2067327118214e-07,-0.00026884399382529,0.00025794239307722,-0.00049029193913306,0.00048983732491115,-0.00048889892377536,0.00049929712991569,-0.00027412874987395,0.00026032381192566,-0.00026949874529067,0.0002572857603237,-0.000490946437397,0.00048917688661444,-0.00048955359096708,0.00049863679609833,-0.00056924446556841,0.00056714882632565,-0.00056783392035929,0.0005697968395221,-0.00056902299429525,0.00056737391756833,-0.00056761237464082,0.00057002190031127,-0.00048314302694855,0.00047550358219514,-0.00047894507939804,0.00047355264916299,-0.00048336565819156,0.00047527992070451,-0.00047916786236984,0.00047332906626042,-0.00027347412717861,0.00026098034666529,2.7863698617031e-07,-3.8642489343158e-07,-7.8240893908139e-07,6.7946011729164e-07,-0.00067894368524484,0.00067884022356339,-0.00065077586561747,0.00065232732438629,-0.00066423959889227,0.0006642994298131,-0.0006634683864688,0.000662222101087,-0.00069157897627157,0.00069121147082783,-0.00069136363997955,0.00069197096579785,-0.00069160140066112,0.00069078913075329,-0.00069153270094693,0.00069169524620463,-0.00065250619251255,0.00065074975220672,-0.00065457033448288,0.00065567658049721,-0.00066389453715314,0.00066492872533373,-0.00065797448266376,0.00065770267030896,-0.00065114332163784,0.0006498320932035,1.6363665479967e-06,4.914557792806e-06,-0.00053152063275578,0.00053219629309647,1.1191862839219e-06,-3.4393098487151e-07,-0.00052195245687168,0.00052347750993578,-0.0005382012197775,0.00052630895151718,-0.0005390376426903,0.00053711283121011,-0.00052925157913036,0.00055998861342145,-0.00052052306184242,0.00052491332442931,-0.0005367682147461,0.0005277406751396,-0.00053760722784599,0.00053854710202376,-0.00057545060125377,0.0005764552542228,-0.00057593771060917,0.00057596678381709,-0.00057570920444176,0.00057448924846534,-0.00057619746008618,0.0005740019219094,-0.00055274633977761,0.00056047044466579,-0.00054827615902527,0.00055105043320247,-0.00054778985268813,0.00055153952434921,-0.00055225755876127,0.00056095700779811,-0.00053068629168872,0.00055855836632561,0.71242657668601,128566,2924,0.0020205015603764,0.002824370136938,0.0022135866161094,15.510374865821,-0.00011591700107343,-0.00011591700107343,-0.00011591700107343,2880676.0642191,0.0070835783010115
23391759,0.42668031117119,0.0076327255719401,0.0023307432975443,0.002839517916571,0.0024624643578249,-0.00049353702126951,0.00049217060800945,-4.4348314042605e-06,-1.5342438422257e-06,-2.5247204162743e-07,4.2377731750522e-07,-0.00027186067150114,0.00026065899692066,-0.00049818206921716,0.00049767181778604,-0.00049675256496471,0.00050741150317408,-0.00027726691380377,0.00026310307385858,-0.00027251932183948,0.0002599984575126,-0.00049884044983117,0.0004970074043575,-0.0004974111201152,0.00050674720171688,-0.0005784821064177,0.000576339023639,-0.0005770342799257,0.00057905865320504,-0.00057825933830133,0.00057656547438216,-0.00057681143593131,0.00057928507197507,-0.00049095091066922,0.00048312679869264,-0.00048664454011251,0.00048115758291436,-0.00049117486398111,0.00048290179888872,-0.0004868686489797,0.00048093266552549,-0.0002766083926391,0.00026376351092755,2.7975739359932e-07,-3.8922424945615e-07,-8.0045329999023e-07,6.9589509924596e-07,-0.00069040933373731,0.00069030425289793,-0.00066156530188847,0.00066315023952678,-0.00067533602136869,0.00067538657864596,-0.00067454974361945,0.00067328645229587,-0.00070332017926566,0.00070294088741297,-0.0007031011909781,0.00070371971644525,-0.00070333906601619,0.00070251238568262,-0.00070326485837843,0.00070343597757823,-0.00066332991062192,0.00066153678808616,-0.00066544528702027,0.00066658237195699,-0.00067498538495747,0.00067603327488379,-0.00066888801955821,0.00066862218156022,-0.00066193500524347,0.00066058973129293,1.6795609669638e-06,5.0443280252463e-06,-0.00053927359417805,0.0005399704432942,1.1492587842406e-06,-3.48395385992e-07,-0.00052935989169282,0.00053092203189537,-0.00054639687948912,0.00053423410279344,-0.00054726022440551,0.0005452890843436,-0.00053686463936419,0.00056843119491177,-0.00052789672872366,0.00053239171712135,-0.00054493005875817,0.00053569962131079,-0.00054579604117386,0.00054675719510596,-0.0005841520938574,0.00058518365579892,-0.00058465070290195,0.00058468365618263,-0.00058441634148189,0.00058316565107249,-0.00058491611925305,0.00058266681649551,-0.00056093195036755,0.00056885083256573,-0.00055635906848019,0.00055920593992735,-0.00055586127380536,0.00055970656645669,-0.00056043163920517,0.00056934889000305,-0.00053833321162782,0.0005669671685963,0.7151215719132,128566,2924,0.0020520545588996,0.0028719854224026,0.0022458611934138,15.633874669766,-0.00011492900264187,-0.00011492900264187,-0.00011492900264187,2903402.0422946,0.007195822348009
23591759,0.43337776041876,0.0077476762009225,0.0023649511143493,0.0028850221120357,0.0024977029745375,-0.00050210271028514,0.00050069546609206,-4.5516217694557e-06,-1.5558630440634e-06,-2.5159360222036e-07,4.2298356251422e-07,-0.00027555709875696,0.00026404467556099,-0.00050709161409713,0.00050651526655005,-0.00050562443673859,0.00051655283486864,-0.00028108415821598,0.00026654566564556,-0.00027621414656403,0.00026338573303499,-0.00050774833595123,0.00050585246218626,-0.00050628135815025,0.00051589011982425,-0.00058878376027408,0.00058658826553246,-0.00058729778668179,0.00058938059712439,-0.00058856159005945,0.00058681416207401,-0.00058707553347353,0.000589606470892,-0.00049975931131665,0.0004917334073318,-0.00049534172751767,0.00048972901079029,-0.00049998267758035,0.00049150898601024,-0.00049556527060295,0.00048950464249516,-0.00028042731244539,0.00026720442729624,2.7816937716268e-07,-3.8908840978322e-07,-8.1944412775333e-07,7.1347420616772e-07,-0.00070307010431078,0.00070296360578744,-0.00067353209497509,0.00067515085415273,-0.00068762145109524,0.00068765672799839,-0.00068681058405507,0.00068553532883786,-0.00071624867358659,0.00071585520232139,-0.00071602575188998,0.00071665445601656,-0.00071626234977479,0.00071542266558963,-0.00071618174717846,0.00071636423576539,-0.00067533409221784,0.00067350431157722,-0.00067749993483117,0.00067867201240526,-0.00068726508220858,0.00068832202695395,-0.00068096614540378,0.00068071273291522,-0.0006739048552949,0.00067252179976594,1.7237195155218e-06,5.1830173851517e-06,-0.00054802131685023,0.00054874157946626,1.1819887047462e-06,-3.5231290948664e-07,-0.00053778857505886,0.00053939020646517,-0.00055562213294395,0.00054317730623054,-0.00055651786671789,0.00055449775765293,-0.00054550670202311,0.00057795151592385,-0.00053628950808877,0.00054089586086231,-0.00055411943787995,0.00054467868978812,-0.00055501781713117,0.0005560017856315,-0.00059388658317105,0.00059494681024085,-0.00059439739988871,0.00059443458021308,-0.00059415544937975,0.00059287383624761,-0.0005946674424406,0.00059236279397896,-0.00057012747427924,0.00057828402852009,-0.00056545971455955,0.00056838175500065,-0.00056494970956013,0.00056889462893439,-0.0005696149517808,0.00057879428026462,-0.00054701115949413,0.00057645165115425,0.71571043195598,128566,2924,0.002087617711276,0.0029245623300545,0.0022822746757168,16.146615104614,-0.00011082707916309,-0.00011082707916309,-0.00011082707916309,2931582.9879843,0.0073212859032495
23791759,0.44032159557586,0.0078730067451269,0.0024021979507832,0.0029345693709215,0.0025362394234222,-0.00051126225087786,0.00050980411071419,-4.6823695168672e-06,-1.5889133835387e-06,-2.4930120173992e-07,4.1970304167765e-07,-0.00027977687587577,0.00026790116998745,-0.0005169018467989,0.00051626306439297,-0.00051539740106043,0.00052661963811045,-0.00028541951394046,0.00027046191212,-0.0002804284041212,0.00026724776510764,-0.00051755307355813,0.00051560568483391,-0.00051604881921099,0.00052596238115337,-0.00059967236142609,0.0005974189285278,-0.00059814713370484,0.00060028862773025,-0.00059945208263806,0.00059764298537498,-0.00059792677514338,0.00060051265362274,-0.00050934143043765,0.00050109035787769,-0.00050480357668406,0.00049904794968667,-0.00050956291998679,0.00050086779090443,-0.00050502523088749,0.00049882546029318,-0.00028476814216296,0.00027111519717391,2.7472348785883e-07,-3.8689413895875e-07,-8.3891365592184e-07,7.3171283193855e-07,-0.00071653609926355,0.00071642836915247,-0.00068642348365871,0.00068807608168782,-0.00070070809270518,0.00070072402510808,-0.00069985905223035,0.00069857551539069,-0.00072991092688851,0.00072950177923856,-0.00072968394457528,0.00073032211679221,-0.00072991603953187,0.0007290644498905,-0.00072982938192237,0.00073002509753679,-0.00068826092110539,0.00068639487276062,-0.00069050241145462,0.00069171205258254,-0.00070034444652142,0.00070140719684416,-0.00069381189599167,0.00069357531730745,-0.00068680108142928,0.00068537799310563,1.7691747062602e-06,5.3325121165031e-06,-0.0005573763256078,0.00055812231031413,1.215516361879e-06,-3.5654658024711e-07,-0.00054715845994603,0.000548799594353,-0.00056579125652591,0.00055303619922655,-0.00056671099465524,0.0005646412210689,-0.00055515466864435,0.0005885598282041,-0.00054562249713892,0.00055034222842522,-0.00056425156481141,0.00055457452836713,-0.00056517402939219,0.00056618222823351,-0.00060416009637431,0.00060525005947123,-0.00060468348379565,0.00060472522590692,-0.00060443784698802,0.00060312453877698,-0.00060496244416785,0.00060260091287826,-0.00058000913552407,0.00058844043625867,-0.00057522183646431,0.00057821888370843,-0.00057469929066266,0.00057874436932953,-0.00057948398622508,0.00058896325871887,-0.00055669620375552,0.00058702302900161,0.75201415258563,128566,2924,0.0021256304577606,0.0029804804560438,0.0023212162856477,16.669134629532,-0.00010664692296375,-0.00010664692296375,-0.00010664692296375,2955862.8347999,0.0074551448949717
23991759,0.44751554642121,0.0080061077931546,0.0024416825970947,0.0029872487012912,0.0025771764947687,-0.00052081992267953,0.00051932709359518,-4.7986305463285e-06,-1.6053238466812e-06,-2.3666699339044e-07,4.2259147557554e-07,-0.00028379609875379,0.00027157214813733,-0.00052731169673905,0.00052661992311439,-0.00052576974987616,0.00053730421564626,-0.00028955511143465,0.00027419303549906,-0.00028443815673705,0.00027092821437512,-0.00052795341278491,0.00052597196766333,-0.00052641168706904,0.00053665643603512,-0.00061106616574559,0.00060876897014259,-0.00060950100076468,0.00061171969792215,-0.00061084920505054,0.00060898977052296,-0.00060928394968942,0.00061194045480147,-0.00051942402934718,0.00051098131324623,-0.00051476494305225,0.0005088935661782,-0.00051964218365188,0.00051076201072805,-0.0005149832913135,0.00050867436440079,-0.00028891323641071,0.00027483687844728,2.6944445811223e-07,-3.8251959918326e-07,-8.5920730635625e-07,7.5112127503887e-07,-0.00073071894911611,0.00073061031381377,-0.00070006280495925,0.00070175016134486,-0.0007145232422697,0.00071451555837771,-0.00071363153359342,0.00071234325909619,-0.00074421199924879,0.00074378539627522,-0.00074398057742016,0.00074462781684977,-0.00074420838894303,0.00074334592065871,-0.00074411525583378,0.00074432661722216,-0.00070195459386663,0.00070005201509882,-0.00070428827813875,0.0007055391198718,-0.00071415121052711,0.00071521683522421,-0.00070736148960937,0.00070714668354298,-0.00070044628014361,0.00069898021841291,1.8158118950322e-06,5.4948909064047e-06,-0.00056722730285148,0.00056800259242929,1.2517692698383e-06,-3.6012122606656e-07,-0.00055733105450373,0.0005590121759495,-0.00057662932220022,0.00056353636298838,-0.00057760766428937,0.00057548525830607,-0.00056553292110871,0.00060004556467644,-0.00055575635346013,0.00056059394684678,-0.00057505068317025,0.00056511363111333,-0.00057603183338507,0.00057706528831765,-0.00061493471320797,0.00061605511473585,-0.0006154713657046,0.00061551696488805,-0.00061521021772321,0.00061386497598147,-0.00061574810667351,0.00061332806070521,-0.00059048409993874,0.00059918446293097,-0.0005856038788545,0.00058868262296839,-0.0005850681390494,0.00058922147374477,-0.00058994565137073,0.00059972054963676,-0.00056711343775985,0.00059846987869362,0.77068673016294,128566,2924,0.0021653350364882,0.0030393716652568,0.0023622254660668,17.192035697309,-0.00010246371442152,-0.00010246371442152,-0.00010246371442152,2972540.2268648,0.0075958051336257
24191759,0.45493561243785,0.0081362995873785,0.0024802847212707,0.0030390506074287,0.0026169642586791,-0.00053019076318923,0.0005286593073864,-4.9215217405846e-06,-1.6244273315e-06,-2.1920257990539e-07,4.2010870671832e-07,-0.00028710293740391,0.0002745395808056,-0.0005372432986087,0.00053650235653667,-0.00053566474039394,0.00054749840074029,-0.00029296512451142,0.00027719392725035,-0.00028772554792934,0.00027391515969514,-0.00053786547575827,0.00053587388924739,-0.00053628717932992,0.00054687013148979,-0.00062245410978563,0.00062011435897944,-0.00062085074895403,0.00062314320449431,-0.00062224383244503,0.00062032851407715,-0.00062064036636937,0.00062335730213068,-0.00052909557398783,0.00052044130829373,-0.00052432082465347,0.0005183181956371,-0.00052930704526733,0.00052022863653733,-0.00052453252878171,0.00051810566428347,-0.00029234273120175,0.0002778182973654,2.5931836871019e-07,-3.7279099537756e-07,-8.8330781888858e-07,7.7478116219209e-07,-0.00074488788146637,0.00074477880277401,-0.00071351497990554,0.00071524201162954,-0.00072829202813733,0.00072824848011624,-0.0007273448803345,0.00072605970529653,-0.00075858871881324,0.00075813904731533,-0.00075834945862085,0.00075900555551647,-0.00075857120810836,0.00075769900021413,-0.00075847015715734,0.00075870370052633,-0.00071545564785295,0.0007135125205637,-0.0007178586989522,0.00071916247919702,-0.00072790911507405,0.00072897075676116,-0.00072086163296816,0.00072068180057966,-0.0007139121970444,0.00071239231317088,1.8527693653697e-06,5.650316414838e-06,-0.00057693369902837,0.00057772263181232,1.2846896741022e-06,-3.7512165559618e-07,-0.00056697684349251,0.00056867210925859,-0.00058699284728312,0.00057354299116735,-0.00058801855645144,0.00058582092075106,-0.00057541697251345,0.00061100463089071,-0.00056535533587809,0.00057030073684038,-0.0005853673604459,0.00057516711066178,-0.00058639589360194,0.00058744781377782,-0.00062573286621079,0.0006268707608304,-0.00062628550737427,0.00062631660761572,-0.00062600856977755,0.00062462089258244,-0.0006265624530415,0.00062406797877598,-0.00060082126033207,0.00060974028461369,-0.00059583287638884,0.00059897071433321,-0.00059528117695436,0.00059952556245314,-0.00060026683398495,0.00061029234945651,-0.00057704431997838,0.00060938211631751,0.7317932727457,128566,2924,0.0022042556360037,0.0030982007327399,0.0024025991800398,17.664989380224,-9.8680084958209e-05,-9.8680084958209e-05,-9.8680084958209e-05,2989497.2236704,0.0077349940986249
24391759,0.46242988818295,0.0082686145933688,0.0025194969503804,0.0030917263947362,0.0026573912482523,-0.00053923418371325,0.00053765893790202,-5.0440393458577e-06,-1.6356248656442e-06,-1.9280076694353e-07,4.0578846908497e-07,-0.00029062916169798,0.00027774248113091,-0.00054691280115336,0.00054608831582579,-0.00054529892852108,0.00055739938393007,-0.0002965699933457,0.00028041262328789,-0.00029121176530426,0.00027715806013088,-0.00054749505897271,0.00054549983415026,-0.00054588142622885,0.00055681107396462,-0.00063341611171947,0.00063103132635438,-0.00063177586597065,0.00063413614355694,-0.00063321936033784,0.00063123192997465,-0.00063157901981137,0.00063433670363084,-0.00053836322423979,0.00052949405778049,-0.00053347736254806,0.00052733504882561,-0.00053856115251251,0.00052929495526502,-0.00053367549969336,0.00052713605314291,-0.00029598757938433,0.00028099691751845,2.3924583652017e-07,-3.5217539713838e-07,-9.1475635651178e-07,8.0663434427701e-07,-0.00075861198826184,0.00075850331953679,-0.00072653124389778,0.00072830712832375,-0.00074158565444225,0.00074148150689965,-0.00074056932489009,0.00073930350773782,-0.00077260094420042,0.00077211709388486,-0.00077234908706158,0.00077301307981255,-0.00077256063669173,0.00077168133852319,-0.00077244796683458,0.00077271649578258,-0.00072852480600345,0.0007265336284116,-0.00073097427680381,0.00073235404537623,-0.00074118707521908,0.00074223022831135,-0.00073386816264672,0.00073374981663921,-0.00072695802824562,0.00072536296208475,1.8908891917195e-06,5.8052876176643e-06,-0.00058626118368833,0.00058706618666038,1.326809807173e-06,-3.9630632182599e-07,-0.00057630413338141,0.00057799971668049,-0.00059706705500823,0.0005832643255563,-0.00059813880021838,0.00059585612452872,-0.00058496777564867,0.00062156536916918,-0.00057462055685309,0.00057969050331283,-0.00059537950183343,0.00058495045894503,-0.00059645412101912,0.00059754508803385,-0.00063610659208649,0.00063727214856391,-0.00063668029706885,0.00063669690181038,-0.00063638177882287,0.00063496256270065,-0.0006369567484039,0.00063438858003998,-0.00061074087884566,0.00061988891354114,-0.00060565417158917,0.00060884858450746,-0.00060508140883412,0.00060942455751621,-0.00061016534864976,0.00062046205177244,-0.00058665726349741,0.00061988079702935,0.73638899673516,128566,2924,0.0022418015158616,0.0031551806863751,0.0024414017539272,17.85889562166,-9.7128835026721e-05,-9.7128835026721e-05,-9.7128835026721e-05,3007491.3280537,0.0078693690693744
24591759,0.46999194016754,0.0084058391340144,0.0025601215578604,0.0031463205164036,0.0026993970597504,-0.00054851624078886,0.00054688751948885,-5.1768307305134e-06,-1.6521034844394e-06,-1.7092584952353e-07,3.9261890664018e-07,-0.00029432935594069,0.00028112623446388,-0.00055702213656225,0.00055611219864446,-0.00055537362504778,0.00056774279096528,-0.00030035194821118,0.0002837746871007,-0.00029487746872334,0.00028057629095201,-0.00055757001844163,0.00055555813276872,-0.00055592172507037,0.00056718888580055,-0.00064458822365896,0.00064215016218928,-0.00064291175142391,0.00064533090189921,-0.00064440305256449,0.0006423391139926,-0.00064272649782144,0.0006455198201462,-0.00054796574344627,0.00053886135857096,-0.00054296705793007,0.000536676228474,-0.00054815202849708,0.00053867392473703,-0.00054315351684368,0.00053648887644044,-0.00029980397902643,0.00028432445572114,2.2201095451657e-07,-3.3432886233875e-07,-9.4501482924792e-07,8.3740374720775e-07,-0.00077267174082242,0.00077256359317956,-0.00073996528136867,0.00074178978166482,-0.0007552024692774,0.00075504409607922,-0.00075412061063065,0.0007528694894664,-0.00078688443630911,0.00078636915065931,-0.00078662071306239,0.00078729384964233,-0.00078682005489113,0.00078593264441629,-0.00078669657185132,0.00078699756329826,-0.00074201795029886,0.00073997918343774,-0.00074452485590657,0.00074597660586411,-0.0007547889907607,0.00075581853548457,-0.0007471883720098,0.00074712533875147,-0.00074042117128777,0.0007387551361519,1.9283725352272e-06,5.9633049384357e-06,-0.00059585415970518,0.00059667662411089,1.3698185639389e-06,-4.143355350202e-07,-0.00058612947677877,0.00058782639130638,-0.00060758802614777,0.00059342975566815,-0.00060870675198659,0.00060634258272683,-0.00059505038229246,0.0006327149444367,-0.0005843860819851,0.00058957709499388,-0.00060584061886252,0.00059517566757217,-0.0006069622906708,0.00060809138323507,-0.0006466803142098,0.00064787255996911,-0.00064727432848075,0.00064727697804385,-0.00064696128825225,0.00064550993005909,-0.00064755659494163,0.00064491563581612,-0.00062099338309147,0.00063037970695177,-0.00061578707589336,0.00061903595023129,-0.00061519401215383,0.0006196322940044,-0.00062039749254965,0.00063097316336571,-0.00059679982169215,0.00063097054349516,0.75660586674186,128566,2924,0.0022803198026639,0.0032135505957101,0.0024813095561007,18.045776909299,-9.5633784725607e-05,-9.5633784725607e-05,-9.5633784725607e-05,3021622.9396983,0.0080072566475967
24791759,0.47761900968071,0.0085312650114446,0.0025973032769097,0.003196559211197,0.0027374025233379,-0.0005572070386073,0.00055552902008179,-5.3104280213412e-06,-1.6621949886338e-06,-1.5675414025436e-07,3.8909966035806e-07,-0.00029687635868469,0.0002834158170924,-0.00056595116611166,0.00056497790855955,-0.00056427090438147,0.00057693916950594,-0.000302998611937,0.00028597946658132,-0.00029740703346361,0.00028288328476686,-0.00056648171523731,0.00056444123681769,-0.00056480163217703,0.00057640259421145,-0.00065540045718199,0.00065290265157494,-0.00065368885555372,0.00065615951948756,-0.00065522113738355,0.00065308571810243,-0.00065350947123736,0.00065634257149845,-0.00055659979908896,0.00054726156481824,-0.00055149361842839,0.00054505664955473,-0.00055678022055698,0.00054708003745179,-0.00055167417404976,0.00054487515985973,-0.00030246802761401,0.00028651175131085,2.1330749170849e-07,-3.2531812821642e-07,-9.6883547196166e-07,8.6147178732209e-07,-0.00078619739799204,0.00078608950463749,-0.00075259455068511,0.00075446032044666,-0.00076824244466282,0.00076805102793515,-0.00076710865819696,0.00076585929433619,-0.00080077334347278,0.0008002365107003,-0.00080050357734856,0.00080118696548052,-0.00080068944637302,0.00079979228710068,-0.00080056031571324,0.00080088335424632,-0.00075468387645281,0.00075260434041245,-0.0007572309885498,0.00075873581673293,-0.00076781815191348,0.00076884648728948,-0.00075994823293912,0.00075991879119241,-0.00075305935984128,0.00075134074079094,1.9650949099657e-06,6.1194065464442e-06,-0.00060486624432107,0.00060570166432355,1.4046134135884e-06,-4.2739481662514e-07,-0.00059457752451593,0.00059628796099347,-0.00061686791186131,0.00060237728952714,-0.00061802488514481,0.00061558252389596,-0.00060377763610671,0.00064240270118755,-0.00059278715633918,0.00059808570645018,-0.00061507355021777,0.00060417010182742,-0.00061623352318703,0.00061737827752583,-0.00065693464060976,0.00065814745223353,-0.00065754456650363,0.00065753593434537,-0.0006572243427537,0.00065573640921524,-0.00065783558125554,0.00065512619883778,-0.00063056972370403,0.00064021153545426,-0.00062522838458511,0.00062853287538295,-0.0006246193935566,0.00062914518172647,-0.00062995787333042,0.00064082091696672,-0.00060557412632936,0.00064061135997701,0.68706803980653,128566,2924,0.0023163887476605,0.0032696971947113,0.0025187919050104,18.23238399342,-9.4140928052638e-05,-9.4140928052638e-05,-9.4140928052638e-05,3039102.1908168,0.0081380108729203
24991759,0.48537560629583,0.0086610570250788,0.0026357839873217,0.003248476220373,0.0027767968173842,-0.00056641682537544,0.00056469670147691,-5.4330064692294e-06,-1.6590423764007e-06,-1.6185078210958e-07,3.9035488134568e-07,-0.00030078963590607,0.00028713568896666,-0.00057551964587223,0.00057447163805255,-0.00057380957054205,0.00058672339730105,-0.00030702072390036,0.0002895482902961,-0.00030132619697107,0.00028659725514405,-0.00057605625274981,0.00057392885981463,-0.00057434635177869,0.00058618073785065,-0.00066659463900948,0.00066403365026384,-0.00066485069718953,0.00066736053308523,-0.00066641325512121,0.0006642189008548,-0.00066466925155346,0.00066754576672194,-0.00056569426972911,0.00055614615069736,-0.0005604918572428,0.00055397526597001,-0.00056587682351493,0.00055596248528727,-0.00056067454309408,0.00055379164385456,-0.00030648422970636,0.00029008646418177,2.1602123843764e-07,-3.286339357624e-07,-9.8996963965026e-07,8.8204016653278e-07,-0.00080014831877529,0.00080003986496705,-0.00076565846844149,0.00076756656477526,-0.00078166517929609,0.00078146519582515,-0.00078052778225929,0.00077925806937072,-0.00081517218205972,0.00081462300279304,-0.00081489759889238,0.00081559645135187,-0.00081507501376662,0.0008141612668978,-0.00081494249893028,0.00081527675606069,-0.00076777973312325,0.00076565675246149,-0.0007703521102985,0.00077189515402997,-0.00078123233964648,0.00078227990569508,-0.00077316723463398,0.00077314524280686,-0.00076613115891233,0.00076437319245805,1.9982789458203e-06,6.2638086714088e-06,-0.00061442784725885,0.00061527516448142,1.4370750084911e-06,-4.3670039890069e-07,-0.00060371802847637,0.00060543950716311,-0.0006269162182313,0.00061213598708148,-0.000628101973113,0.00062559413184373,-0.00061322237165792,0.00065270339532123,-0.00060188687838258,0.0006072782590165,-0.0006250809161409,0.00061396961902916,-0.00062626980605045,0.00062743082971669,-0.00066762457132479,0.00066885719011885,-0.00066824838551236,0.00066823171381416,-0.00066791855217099,0.00066639580918284,-0.00066854374199941,0.0006657716991168,-0.0006406362450629,0.00065049748726923,-0.00063515730346281,0.00063851817636048,-0.00063453444344402,0.00063914446606384,-0.00064001040299275,0.00065112073741656,-0.00061505989723153,0.00065087127422858,0.69911854923685,128566,2924,0.0023546261510213,0.003327605710649,0.0025585552584751,18.54198756149,-9.1664099508078e-05,-9.1664099508078e-05,-9.1664099508078e-05,3063032.0720642,0.00827504393662
25191759,0.49344473445811,0.0088000023271488,0.0026769210419192,0.00330397512783,0.0028191061573997,-0.00057670556597787,0.00057492896965175,-5.5712738124232e-06,-1.6682476286407e-06,-1.8537666559099e-07,3.9997550740593e-07,-0.00030532080294194,0.00029148755819981,-0.00058637610555423,0.00058525693050163,-0.0005846364172226,0.00059781357919297,-0.00031168655127032,0.00029365911408472,-0.00030588930748882,0.00029091713234178,-0.00058694503203819,0.00058468172410348,-0.00058520542996676,0.00059723859756485,-0.00067898870781761,0.00067635300380302,-0.00067721398434058,0.00067974293270919,-0.00067879638985615,0.00067654939189757,-0.00067702163846611,0.00067993926532513,-0.00057596424878626,0.00056617829310199,-0.0005706448518648,0.00056408685311647,-0.00057615786548967,0.00056598353926672,-0.00057083849906535,0.00056389224537002,-0.00031111779631228,0.00029422956077406,2.31474209265e-07,-3.458896600453e-07,-1.0105774988994e-06,9.0100913605764e-07,-0.00081554357528373,0.00081543347224368,-0.00078020844397416,0.00078216468332494,-0.00079652991009501,0.00079634711894574,-0.00079542149958484,0.00079410485692629,-0.00083092022895132,0.00083036721338988,-0.00083064188057609,0.00083136333422396,-0.00083081967867212,0.00082988008749981,-0.00083068296145659,0.00083101774118841,-0.00078237597741322,0.00078020170065765,-0.00078497816861449,0.00078654731298682,-0.00079608946318292,0.0007971807112192,-0.00078783741182276,0.00078779477366458,-0.00078068592695605,0.00077889848853996,2.0313595135567e-06,6.4199318755096e-06,-0.00062519579693814,0.00062606009624396,1.471332446705e-06,-4.4197838533127e-07,-0.000614370227173,0.00061610733909564,-0.00063841157104268,0.00062334152003508,-0.0006396257459715,0.0006370536411134,-0.00062426587016625,0.00066470439856925,-0.00061250072327067,0.00061798480415064,-0.00063653746279398,0.00062521381541158,-0.00063775505732901,0.00063892908189796,-0.00067947730391505,0.00068072849463224,-0.00068011423451954,0.00068008979810092,-0.00067977779190325,0.0006782195498128,-0.00068041621621176,0.00067758226763963,-0.00065205208501837,0.00066212436205785,-0.00064642494360144,0.00064985411961797,-0.00064578904191316,0.00065049364567177,-0.00065141292052991,0.00066276076034073,-0.00062614242728029,0.00066283359647944,0.7192699811815,128566,2924,0.0023973216365192,0.0033915039340286,0.002603341375736,19.180956156367,-8.655235074906e-05,-8.655235074906e-05,-8.655235074906e-05,3084301.3079656,0.0084276963240825
25391759,0.50183434019924,0.0089524349335441,0.0027219232722967,0.0033647481372715,0.002865763523976,-0.00058770115145602,0.0005858656623452,-5.7169205040769e-06,-1.6773361886024e-06,-2.061791511763e-07,4.2868387050738e-07,-0.00031020324126263,0.00029622985261189,-0.0005983179190211,0.0005971651415396,-0.0005965478368543,0.00061003590960863,-0.00031672401774961,0.00029807689084316,-0.00031082013540519,0.00029561097177291,-0.0005989352827008,0.00059654143475522,-0.00059716536305427,0.00060941239020207,-0.0006921602338988,0.00068944592668752,-0.00069035388629633,0.00069289957716359,-0.00069195160282533,0.00068965883475445,-0.00069014520331442,0.00069311244896913,-0.00058714521918931,0.00057713113834988,-0.00058170780924238,0.00057511301605499,-0.00058735517681461,0.00057691996540865,-0.0005819178656574,0.00057490192194259,-0.00031610707879463,0.00029869557554155,2.5464180805319e-07,-3.7179731648893e-07,-1.0313047792164e-06,9.1924185271972e-07,-0.00083201185609305,0.00083189925679605,-0.00079597595739272,0.00079798422140454,-0.00081247880046918,0.00081232883310555,-0.00081139795988683,0.00081001748367688,-0.00084760958828883,0.00084705749536056,-0.00084732794461976,0.00084807630356903,-0.00084751222155997,0.00084654073618656,-0.00084737012671615,0.00084769903319207,-0.0007982102898961,0.00079597894512951,-0.00080086834870903,0.00080245678793812,-0.00081203102688483,0.00081318100581336,-0.00080356306448625,0.00080348265638609,-0.00079646054128217,0.00079464889185929,2.0648510586275e-06,6.5923692120125e-06,-0.00063676561136169,0.00063765810257187,1.5095790452659e-06,-4.4288777969458e-07,-0.00062632419511787,0.00062807794784005,-0.00065116455634831,0.0006357894302159,-0.0006524210971004,0.00064978664316863,-0.00063663400640144,0.00067822695763505,-0.00062441643706079,0.00062999401480076,-0.00064925212916564,0.00063769994425948,-0.00065051214368669,0.00065170049951115,-0.00069206850703397,0.00069333718086397,-0.00069271845725675,0.00069268536225081,-0.0006923760855502,0.00069078144895983,-0.00069302757914603,0.0006901311368541,-0.00066444964793308,0.00067474425504987,-0.00065867217863263,0.00066217159708017,-0.00065802332685271,0.00066282437740117,-0.00066379738827819,0.00067539360656753,-0.00063854890532157,0.00067631807386328,0.75830137933605,128566,2924,0.0024429532851124,0.0034598490501648,0.0026514814462918,19.828238847691,-8.1374089218471e-05,-8.1374089218471e-05,-8.1374089218471e-05,3097336.6205707,0.0085911998139949
25591759,0.51054703456609,0.0091158681676067,0.0027700145113312,0.0034299377661075,0.002915915890168,-0.00059926336944735,0.00059737784056368,-5.8578493956762e-06,-1.6714525080672e-06,-2.2204762340082e-07,4.6558611734347e-07,-0.00031504218726855,0.00030101787739116,-0.00061112064881853,0.00060993789204859,-0.00060932150763192,0.00062316352791495,-0.00032171690445942,0.00030242536143572,-0.00031571073864314,0.00030034723101754,-0.00061178959765546,0.00060926231005697,-0.00060999064883076,0.00062248815039602,-0.00070598440366157,0.00070319814423204,-0.00070414506812789,0.00070672652613683,-0.00070575835573409,0.00070342865006035,-0.00070391896021734,0.00070695699109024,-0.00059906420290448,0.0005888445384243,-0.00059350963441546,0.00058690430500516,-0.00059929161638163,0.00058861582751767,-0.00059373716839958,0.00058667568015594,-0.00032104832732956,0.00030309579236811,2.7910319847537e-07,-3.9985392453949e-07,-1.0528065414214e-06,9.3742423277113e-07,-0.00084944492395958,0.00084932897458765,-0.00081282114618168,0.00081488250013246,-0.00082936015324727,0.0008292450962231,-0.0008283266612055,0.0008268778764605,-0.00086515120387139,0.00086460002260017,-0.00086486573588494,0.00086564148578681,-0.00086506177896906,0.00086405627254377,-0.00086491468464187,0.00086523605110707,-0.00081513381246491,0.00081284277962824,-0.00081787488881865,0.00081948136662972,-0.00082890211502036,0.00083011346399347,-0.0008201950426689,0.00082007279968296,-0.00081331540566078,0.00081147912254061,2.0989597905338e-06,6.7828420403878e-06,-0.00064899681701009,0.00064992283542825,1.5533680570131e-06,-4.3891512780395e-07,-0.00063928977029039,0.00064106166747286,-0.00066483527724678,0.00064912720566331,-0.00066616045541676,0.00066346435774034,-0.00064997762091407,0.00069288504151353,-0.00063734320524236,0.000643016880438,-0.00066288388345444,0.00065107665127999,-0.00066421263965719,0.00066541725245384,-0.00070534547739424,0.00070663219035711,-0.00070600867611163,0.00070596705716894,-0.00070565263722242,0.00070402182494927,-0.00070631742133831,0.00070335824321026,-0.00067765514304642,0.00068817593495663,-0.00067176741090119,0.00067533379791356,-0.00067110538227687,0.00067599996026638,-0.00067698955745981,0.00068883851135735,-0.00065193156222213,0.0006909373168394,0.78252854606764,128566,2924,0.0024909628888852,0.003532189715566,0.0027023785529885,20.475837803298,-7.6193297573619e-05,-7.6193297573619e-05,-7.6193297573619e-05,3104370.8807958,0.0087639399267712
25791759,0.5193984120928,0.0092768650885303,0.0028173030455323,0.0034943972181272,0.0029651648248708,-0.00061017839424314,0.000608240900588,-6.0044292307495e-06,-1.6597316616659e-06,-2.3666387375334e-07,5.0231154866358e-07,-0.00031882934386228,0.00030483451439039,-0.00062304865205647,0.00062182829728948,-0.00062122264411316,0.00063542801492912,-0.00032564893769342,0.000305660032021,-0.00031954816077418,0.00030411349865269,-0.00062376779933995,0.00062110225531658,-0.00062194199843306,0.00063470220464888,-0.00071927679693524,0.00071642072849182,-0.00071740680811679,0.00072002119714411,-0.00071903382902279,0.00071666836049722,-0.0007171637759874,0.00072026878242976,-0.00061020437895544,0.00059978224519354,-0.00060454536419112,0.00059787933726153,-0.00061044881477461,0.0005995364614729,-0.00060478993201497,0.00059763365257449,-0.00032493009618193,0.00030638080964391,3.027039712484e-07,-4.2732294439043e-07,-1.0753332524185e-06,9.5637152730732e-07,-0.00086635633725551,0.00086623677412572,-0.00082906802380273,0.00083118348933084,-0.00084568386736928,0.00084560144617234,-0.00084469384320055,0.0008431773151949,-0.00088221757921594,0.00088166598227112,-0.00088192785398274,0.0008827308518305,-0.0008821363540328,0.00088109643566367,-0.00088198375476132,0.00088229836945303,-0.00083144641282835,0.00082909416204048,-0.00083426144567565,0.00083588792845891,-0.00084521548261197,0.00084648711693124,-0.00083625934555885,0.00083609701417342,-0.00082956938770144,0.00082770598330294,2.1292070560346e-06,6.9761468631755e-06,-0.00066057434644301,0.00066152648131237,1.595992581011e-06,-4.3788794089613e-07,-0.00065119137544944,0.00065297117184991,-0.00067756414563489,0.0006615139235855,-0.00067894749682393,0.00067618356438355,-0.00066230442550328,0.00070646921448561,-0.00064920424743349,0.00065496723989803,-0.00067557204272539,0.00066350405922039,-0.00067695906803317,0.00067817723523632,-0.0007181274442673,0.00071943034867411,-0.00071880449114099,0.00071875132081486,-0.00071843444857547,0.00071676768177653,-0.00071911311428771,0.0007160902358055,-0.00069020174120713,0.00070097757039631,-0.00068419844306162,0.00068781776814127,-0.00068352259115084,0.0006884978438857,-0.00068952223778196,0.00070165397182809,-0.00066429916060805,0.00070448085176783,0.7592159941739,128566,2924,0.0025362791830708,0.0036023566832181,0.0027505415185385,20.820790323586,-7.3433677411313e-05,-7.3433677411313e-05,-7.3433677411313e-05,3108956.687898,0.008929042408894
25991759,0.52809885805343,0.0094316559157962,0.0028627581087207,0.0035564832000528,0.0030124146070227,-0.00061994174723759,0.00061795914341788,-6.1420813273391e-06,-1.6278774269988e-06,-2.4563974349234e-07,5.3810508139373e-07,-0.00032202784243963,0.00030823120335362,-0.00063362006277548,0.00063237153573995,-0.0006317714509747,0.00064631141338075,-0.00032897300690099,0.00030830828487895,-0.00032279043278637,0.00030746628085081,-0.00063438294614267,0.00063160152082814,-0.00063253454908455,0.00064554161878643,-0.00073131671922673,0.00072839305959994,-0.00072942104167295,0.00073205949043917,-0.00073105900255068,0.00072865563494386,-0.00072916325979228,0.00073232201954333,-0.00061998882949562,0.00060937243166412,-0.00061424164320215,0.00060752277538275,-0.00062024810038095,0.00060911175943667,-0.00061450104703278,0.00060726220479197,-0.00032821038892385,0.00030907291396488,3.229389176542e-07,-4.5155252900852e-07,-1.0983778684454e-06,9.7569513506181e-07,-0.0008818341176346,0.00088171080379709,-0.00084383750265722,0.00084600561943745,-0.00086055522958266,0.00086049855420204,-0.00085959973159029,0.00085802153478538,-0.00089796783741861,0.00089741322915713,-0.00089767308453055,0.00089850129663303,-0.00089789297270083,0.00089682039883925,-0.00089773463606955,0.00089804481832979,-0.00084627380638494,0.00084386151191816,-0.00084913558063278,0.00085078500786408,-0.00086007673044432,0.00086140233342686,-0.00085088383290909,0.00085068805439892,-0.00084434802594039,0.00084245427716893,2.1529809755734e-06,7.1521224615648e-06,-0.00067091352238994,0.00067188339775535,1.6354339367626e-06,-4.4091500541818e-07,-0.00066159571350441,0.00066336999393457,-0.00068887776113211,0.00067251745453257,-0.00069032143829027,0.00068748712252345,-0.00067311941668259,0.00071834322209939,-0.00065956714346752,0.00066540781066313,-0.00068684407097092,0.00067454914569153,-0.0006882915180843,0.00068952244410417,-0.00072970231289127,0.00073101842201928,-0.00073039348412663,0.00073032520852765,-0.00073000545762389,0.00072830485640672,-0.00073069829102554,0.00072761326702671,-0.00070141647694603,0.00071244310637748,-0.0006953095773135,0.00069896877449083,-0.00069461963572428,0.00069966307567442,-0.00070072276985957,0.00071313361256703,-0.00067515583612571,0.00071631335222583,0.74286074022059,128566,2924,0.0025768180972476,0.0036665677716147,0.0027935401774594,20.694828024217,-7.4441375806265e-05,-7.4441375806265e-05,-7.4441375806265e-05,3113389.6588264,0.0090781304826806
26191759,0.53664182339067,0.0095869876876875,0.002908351167923,0.0036187076224233,0.0030599288973413,-0.00062968843297098,0.0006276648327074,-6.2741645399087e-06,-1.5777003609654e-06,-2.4972456830065e-07,5.7184789358464e-07,-0.00032575179448151,0.00031231100009252,-0.00064433553245606,0.00064305273378884,-0.00064246910899469,0.00065730694357496,-0.00033279975338072,0.00031142787457656,-0.0003265513376771,0.00031150896334158,-0.00064513534723151,0.00064224554947716,-0.00064326914499907,0.00065649997911966,-0.00074320009356009,0.00074021453452456,-0.00074128358689801,0.00074394366883719,-0.00074292997614211,0.00074048974113509,-0.00074101340166205,0.0007442188313587,-0.00062977624437146,0.00061898099797587,-0.00062395568041975,0.00061719228590297,-0.00063004803136881,0.00061870775079438,-0.00062422760019835,0.00061691913351249,-0.00033200017856448,0.00031222953429249,3.3972868292091e-07,-4.7230726104547e-07,-1.1218433826107e-06,9.9543812091941e-07,-0.00089713730852428,0.00089701024676212,-0.00085852886320069,0.000860748145461,-0.00087525756823371,0.00087521957119024,-0.00087433308179425,0.00087269974635538,-0.00091353503945462,0.00091297484327284,-0.00091323481573503,0.00091408620930942,-0.00091346596079899,0.00091236276675211,-0.00091330108807592,0.00091360941734747,-0.00086102480780538,0.00085855394891913,-0.00086392326972798,0.00086559877840776,-0.00087476852292369,0.00087614158047762,-0.00086534207364752,0.00086511993646937,-0.00085905271591008,0.00085712548026718,2.1698027456476e-06,7.3143645148085e-06,-0.00068123061701222,0.00068221188618885,1.6732026527652e-06,-4.4644136148227e-07,-0.00067219019064664,0.0006739454623561,-0.00070035977273866,0.00068370591947001,-0.00070187104088525,0.00069896427477531,-0.00068416605474689,0.0007303312219212,-0.00067011935424025,0.00067602585353656,-0.00069828367057867,0.0006857799786104,-0.00069979880484389,0.00070104206060076,-0.00074115771954002,0.00074248189678677,-0.0007418632835285,0.0007417742238461,-0.00074145308298279,0.00073972014203907,-0.00074216035638473,0.00073901413946192,-0.00071262704577387,0.00072389419317416,-0.00070643059275911,0.0007101154659471,-0.00070572630201432,0.00071082427746974,-0.00071191886118064,0.0007245990784891,-0.00068624497982594,0.00072825900466667,0.75895315696298,128566,2924,0.0026172939035187,0.0037300499468506,0.0028364326980112,20.556924207418,-7.5544606340657e-05,-7.5544606340657e-05,-7.5544606340657e-05,3117585.6825227,0.0092263331743412
26391759,0.54502808798061,0.0097446247864684,0.002954560399101,0.0036817777595303,0.0031082866278371,-0.00063949267194288,0.00063742195864722,-6.4124614753277e-06,-1.5251710364697e-06,-2.5497457285559e-07,6.0003968545791e-07,-0.00032964947559141,0.00031673050829779,-0.00065533248646617,0.00065398648066403,-0.00065345169522517,0.00066857529696515,-0.00033678560621982,0.00031460149073443,-0.00033048168727018,0.00031589560282794,-0.00065616495104354,0.00065314639335439,-0.00065428437860661,0.00066773544924581,-0.00075506511022634,0.00075201592945937,-0.00075313018258115,0.00075580555153244,-0.00075478405028476,0.00075230229573889,-0.00075284906171691,0.00075609187887088,-0.00063977089961251,0.00062879150761486,-0.00063388746780662,0.00062703399656308,-0.00064005374145017,0.00062850715582973,-0.00063417043311266,0.00062674972244658,-0.00033595333934311,0.00031543591328061,3.5442079055065e-07,-4.9081457232084e-07,-1.1450115269454e-06,1.0150151826555e-06,-0.00091248448680336,0.00091235380518368,-0.00087340627352248,0.00087567495330193,-0.00089003078986477,0.00089000749172293,-0.00088914241558338,0.00088745849222172,-0.00092905001859353,0.00092848306611099,-0.00092874427371183,0.0009296173431946,-0.00092898658294526,0.00092785453235877,-0.00092881404455186,0.00092912194766554,-0.00087596616696729,0.00087343877621029,-0.00087890222241228,0.00088060495767834,-0.00088952980397718,0.00089094601089614,-0.00087985336791021,0.00087960911333978,-0.0008739455530958,0.00087198395015671,2.1833029741068e-06,7.4705800500478e-06,-0.00069161104048456,0.00069260384047383,1.7136358245507e-06,-4.4880349141453e-07,-0.00068307172381817,0.00068480337831659,-0.00071214084532667,0.00069519966077883,-0.00071372795427568,0.00071075010048409,-0.00069556379466027,0.00074265943631763,-0.00068095909173941,0.00068692588969894,-0.00071002280849454,0.00069731562268997,-0.00071161387609643,0.00071286987840782,-0.00075260591379466,0.00075393675553306,-0.00075332569665294,0.00075321479874356,-0.00075289246641022,0.00075112852306864,-0.00075361400274729,0.00075040827810133,-0.00072398229064941,0.00073550353662368,-0.00071770155050777,0.0007214046320857,-0.00071698307982049,0.00072212778282973,-0.00072325980117902,0.00073622264004457,-0.00069768475914478,0.00074054532429594,0.78422388510518,128566,2924,0.0026579972722779,0.0037937093941557,0.0028795868489984,20.41855342145,-7.6651572628402e-05,-7.6651572628402e-05,-7.6651572628402e-05,3116687.4004914,0.0093752294569741
26591759,0.55342373692881,0.0099020640723382,0.0030006836004076,0.0037448258628255,0.0031565546091052,-0.00064980699515161,0.00064768945437782,-6.5541602078874e-06,-1.4684030216575e-06,-2.5458653651632e-07,6.2612867857612e-07,-0.00033388675411873,0.00032160511880817,-0.00066682112421141,0.00066540419757846,-0.00066492986131628,0.00068034093258303,-0.00034108523498512,0.00031797506869833,-0.00033474390143883,0.00032074503549654,-0.00066767864216663,0.00066453887975076,-0.00066578758015954,0.00067947586592783,-0.00076749729891483,0.00076439298297296,-0.00076554705170467,0.00076824188462021,-0.0007672078382477,0.00076468794552758,-0.00076525754109928,0.00076853681167859,-0.00065030770924234,0.00063913656126127,-0.00064437152400367,0.00063739592009027,-0.00065059905248252,0.00063884366383995,-0.00064466296600465,0.00063710309546072,-0.0003402279714539,0.00031883459498682,3.6536100677135e-07,-5.0527850865527e-07,-1.1668555459293e-06,1.0335273681949e-06,-0.00092846071383151,0.00092832667619386,-0.00088894598536643,0.00089125939810534,-0.00090545099026117,0.00090543579743231,-0.00090459285361318,0.00090286710764915,-0.00094516047768476,0.00094458526887115,-0.00094484947975552,0.00094574113378537,-0.00094510102164363,0.00094394373518483,-0.00094492015280258,0.00094522965002033,-0.00089156165347402,0.00088898292185926,-0.00089453591084727,0.00089626637888481,-0.00090493787629074,0.000906389053643,-0.00089499087830833,0.00089473165336061,-0.00088949917436126,0.00088750320325407,2.1917730379966e-06,7.6219658920212e-06,-0.00070252056744015,0.00070352119023287,1.7541924229845e-06,-4.4865062913039e-07,-0.00069436710342483,0.00069606825884639,-0.00072441417866195,0.00070719528637303,-0.00072608365978063,0.00072303435179926,-0.00070743743949036,0.00075542922747779,-0.00069221503702874,0.00069823055643642,-0.00072225651843475,0.0007093507999608,-0.00072393008050428,0.00072519377985577,-0.00076465968211049,0.00076599368503664,-0.00076539288135558,0.00076525824253571,-0.00076493374390721,0.00076314146771028,-0.0007656687536049,0.00076240778433154,-0.00073591453125786,0.00074770508264091,-0.00072955169135736,0.00073326303756141,-0.00072881984774312,0.00073399972900337,-0.00073517852083126,0.00074843760229631,-0.00070959815145153,0.00075327555184927,0.78230622601664,128566,2924,0.0027008245092087,0.0038599728583224,0.0029249290477779,20.571168011829,-7.5430655905367e-05,-7.5430655905367e-05,-7.5430655905367e-05,3116009.6814531,0.009531130477132
26791759,0.56198491556234,0.01005896943676,0.0030466646765589,0.00380775832889,0.0032045464313115,-0.00066068671567629,0.00065852298864062,-6.6925170933539e-06,-1.4009623935816e-06,-2.4821670799699e-07,6.5296309424288e-07,-0.00033875570915551,0.00032726393495245,-0.00067871142026041,0.0006772332794181,-0.0006768153667638,0.0006924958782318,-0.00034599470066891,0.00032188962414463,-0.00033963269906717,0.00032638377205662,-0.00067958884002694,0.00067634785272627,-0.00067769300291859,0.00069161069830802,-0.00078055573940629,0.00077740249634651,-0.00077859506611474,0.00078130798375031,-0.00078025961945796,0.00077770431230553,-0.00077829889204604,0.00078160976425271,-0.00066127574997996,0.00064992676578575,-0.00065530062841466,0.00064819217663538,-0.00066157383280663,0.00064962706119935,-0.00065559883067626,0.0006478925498367,-0.00034511760003151,0.00032276911777542,3.7375942237065e-07,-5.1707150666451e-07,-1.1884629412016e-06,1.0519140731311e-06,-0.00094508598869705,0.00094494870326674,-0.00090507221472405,0.00090742834789218,-0.0009215018366238,0.00092148984154551,-0.0009206641802336,0.0009189019404992,-0.00096199503316888,0.00096141001536536,-0.00096167850171078,0.00096258701586748,-0.00096193867920745,0.00096075809733599,-0.00096174857801654,0.00096206144773634,-0.00090773925563849,0.00090511140367316,-0.00091074172425459,0.00091250141203588,-0.00092097587299019,0.00092245689510188,-0.00091076352955516,0.00091049446861462,-0.00090563901226702,0.00090360742179177,2.1885351567202e-06,7.7557921333055e-06,-0.00071400372117522,0.00071499644364186,1.7875369331724e-06,-4.5542325786471e-07,-0.00070595347076223,0.0007076026481496,-0.00073711762312168,0.00071962610270515,-0.00073888349631312,0.00073575065421472,-0.00071961784444978,0.00076835239977184,-0.00070376229385155,0.00070980440070285,-0.00073492066900194,0.00072182083356259,-0.00073669073109977,0.00073794941657127,-0.00077739909605104,0.00077872267934529,-0.00077814563810975,0.00077797382637396,-0.00077765580645995,0.00077582768039758,-0.00077840420907911,0.0007750806384419,-0.00074839963659691,0.00076046794796179,-0.00074196546885966,0.00074566175972606,-0.00074122032370147,0.00074641190783972,-0.00074765020123504,0.0007612137857091,-0.00072181790622778,0.00076615953134499,0.76472632473653,128566,2924,0.0027460041413658,0.0039289230558568,0.0029726190998555,21.003522681379,-7.1971818548969e-05,-7.1971818548969e-05,-7.1971818548969e-05,3120081.9783982,0.009694515694994
26991759,0.57071074944303,0.010214835424122,0.0030923678972657,0.0038703559691761,0.0032521115576803,-0.00067162574494154,0.00066940942731712,-6.8275335884829e-06,-1.3356147808947e-06,-2.4642326908108e-07,6.7108622975094e-07,-0.00034395802343283,0.0003331606689805,-0.00069048359146722,0.00068894067527614,-0.00068858224417794,0.00070449726877958,-0.0003512362829785,0.00032612193732632,-0.00034485084596019,0.00033226458407348,-0.00069137690401957,0.00068803917439396,-0.00068947577459683,0.00070359601568145,-0.00079369088247484,0.00079048923790534,-0.00079171974788777,0.00079445171473085,-0.0007933895253419,0.0007907965226264,-0.00079141833676185,0.00079475896698127,-0.00067211408150338,0.0006606001777986,-0.00066610343320857,0.00065886457143086,-0.00067241754070747,0.00066029505044106,-0.00066640700957124,0.0006585595203865,-0.00035034334038798,0.00032701736059872,3.8015275525797e-07,-5.2677464573897e-07,-1.2093617507237e-06,1.0696461402659e-06,-0.00096175463522656,0.00096161416188773,-0.00092115389219208,0.00092355009831244,-0.00093755541222894,0.00093754313406147,-0.00093673692777383,0.00093494273743726,-0.00097899262327196,0.00097839693745309,-0.0009786718362533,0.00097959541017909,-0.00097893974482376,0.00097773777786213,-0.0009787396717657,0.00097905688154933,-0.00092386529678413,0.0009211910788694,-0.00092687378721647,0.00092866278510347,-0.00093701861956656,0.000938525082975,-0.00092656588281774,0.00092629060864012,-0.00092172921605961,0.00091966201557864,2.1873669716615e-06,7.877330259463e-06,-0.00072552202590843,0.00072651552741352,1.8185867562167e-06,-4.6309792755002e-07,-0.00071727582395266,0.00071887806451573,-0.00074972269213743,0.00073196463163854,-0.00075159093011706,0.0007483793477976,-0.00073154365993248,0.00078092643402766,-0.00071504686174704,0.00072111790901618,-0.00074748778438365,0.00073419723793236,-0.00074936032211474,0.000750616090844,-0.00079025837496226,0.00079157575085846,-0.00079101778905372,0.0007908139608144,-0.00079049493462935,0.00078863440358603,-0.00079125625771419,0.00078787447165404,-0.00076084394972938,0.00077320250803903,-0.00075434699240716,0.000758029931782,-0.00075358900184885,0.00075879305524028,-0.00076008155964639,0.00077396120156617,-0.00073378174414332,0.000778695736153,0.74557636063429,128566,2924,0.0027914156270417,0.0039980473465336,0.0030204708138068,21.443007645545,-6.845593883564e-05,-6.845593883564e-05,-6.845593883564e-05,3127738.5403789,0.0098585018863836
27191759,0.57959576000317,0.010369109100251,0.0031376385113137,0.0039323846099127,0.0032990859790246,-0.00068256245181439,0.0006802810198979,-6.9535053986265e-06,-1.275413154632e-06,-2.5191554628129e-07,6.7981671056608e-07,-0.00034935086700635,0.00033880822268052,-0.00070204698837485,0.00070044778206239,-0.00070013607933877,0.00071626261149752,-0.00035668816238078,0.0003306278465298,-0.00035025748649874,0.00033789841625272,-0.00070295413565068,0.0006995322503508,-0.00070104344315515,0.0007153473333901,-0.00080685447527971,0.00080360186626623,-0.00080486954798201,0.00080762035308215,-0.00080654857877547,0.00080391391552637,-0.00080456359939351,0.00080793237403634,-0.00068276345649036,0.00067107749772799,-0.00067670820503804,0.00066929545790476,-0.0006830716032749,0.00067076764129766,-0.00067701646472922,0.00066898568112105,-0.00035578140895612,0.00033153717262403,3.8552103318469e-07,-5.3546352939634e-07,-1.2297646553259e-06,1.0868648635575e-06,-0.0009784174004824,0.00097827372318936,-0.00093712321260791,0.0009395578135311,-0.00095357929357199,0.00095356502493206,-0.00095277115397329,0.00095094733627007,-0.00099609718784489,0.00099549046304098,-0.00099577416924068,0.00099671175797905,-0.00099604820130605,0.00099482586175011,-0.00099584022593366,0.0009961621118007,-0.00093986529393198,0.00093714637546223,-0.00094284715293107,0.00094466513243815,-0.00095303359636645,0.00095456312062752,-0.00094236595347148,0.00094208611656485,-0.00093769953080765,0.00093559701421085,2.1921664775381e-06,8.0070747642072e-06,-0.00073703302096961,0.00073804172159996,1.8460742891074e-06,-4.7330163392897e-07,-0.00072828304964117,0.00072985473277945,-0.00076218399301331,0.00074414881095236,-0.00076414233573415,0.00076085287009951,-0.00074316800170775,0.00079328509265647,-0.00072601732121755,0.00073213166392284,-0.00075991214790611,0.00074641828892278,-0.00076187490081599,0.000763126591506,-0.00080317417119371,0.00080448834197334,-0.00080394611679842,0.00080371396320932,-0.00080339294571981,0.00080149475415147,-0.00080416684407345,0.00080072227469062,-0.00077319439733557,0.00078588482384151,-0.00076662829423204,0.0007703137252606,-0.0007658577872142,0.00077108946693542,-0.00077241940322835,0.00078665603490107,-0.00074544307032473,0.00079101765014793,0.72509827638891,128566,2924,0.0028367894704776,0.0040671417775407,0.00306831992992,21.882771800204,-6.4937825598371e-05,-6.4937825598371e-05,-6.4937825598371e-05,3138896.9662698,0.010022445310029
27391759,0.58856930629519,0.010528345551404,0.0031843439178696,0.003996305171908,0.003347696461626,-0.00069356415431055,0.00069120192719926,-7.0702973699904e-06,-1.2102379128915e-06,-2.5932200300551e-07,6.7983752113141e-07,-0.00035510268609997,0.0003443976766046,-0.00071383813395485,0.00071218157206199,-0.00071190782747716,0.00072822677000769,-0.0003625478878292,0.00033568110089523,-0.00035601664788705,0.00034348072867076,-0.00071475246429754,0.0007112586544732,-0.0007128224003503,0.0007273041338961,-0.0008200473960783,0.00081673543629438,-0.00081804293396011,0.00082079893974831,-0.00081973923596956,0.00081704997930077,-0.00081773471352073,0.00082111345107084,-0.00069353837293245,0.00068166510702194,-0.00068741560717633,0.00067977647133895,-0.0006938489249689,0.0006813527837244,-0.00068772629690451,0.00067946424779898,-0.00036163383170797,0.00033659766767167,3.8759088126622e-07,-5.406484505297e-07,-1.250268525374e-06,1.1043635924462e-06,-0.00099517468074206,0.00099502797736454,-0.00095324888156835,0.00095572013095342,-0.00096971626357188,0.00096969336588468,-0.00096889881017743,0.00096705207001096,-0.0010132902521313,0.0010126702151294,-0.0010129674378071,0.0010139170972976,-0.0010132454802732,0.0010120050563548,-0.001013032772234,0.0010133619476288,-0.00095602843423185,0.00095326689508146,-0.00095894707203565,0.00096079683928925,-0.00096916618013224,0.00097071243551373,-0.0009582819139187,0.00095800451415869,-0.00095382213250146,0.00095168183266225,2.2096798751753e-06,8.1805959446723e-06,-0.00074865005128132,0.0007497000794793,1.8743698225242e-06,-4.831556782675e-07,-0.00073961593590024,0.00074119197461924,-0.00077501859435469,0.00075668883794121,-0.00077705492131764,0.00077369657267276,-0.00075509381299962,0.00080618490133558,-0.00073731298266791,0.00074350626520288,-0.00077270940043109,0.00075899560219822,-0.00077475024477396,0.00077600766550927,-0.0008160934646014,0.0008174130642214,-0.00081687811261232,0.00081662592855217,-0.00081629870433933,0.00081435949573909,-0.00081708534603941,0.00081357429599983,-0.00078567297078182,0.00079871131690427,-0.00077902426347945,0.00078273540984741,-0.00077824107919659,0.00078352391799215,-0.00078488521189676,0.00079949520911428,-0.00075740622634628,0.00080388029896211,0.74093824927113,128566,2924,0.0028823983805246,0.0041366238167313,0.0031166623877375,22.214506291144,-6.2283949670851e-05,-6.2283949670851e-05,-6.2283949670851e-05,3148834.7702803,0.01018754195483
27591759,0.59758656171449,0.010690483749624,0.0032318510203293,0.0040613518072903,0.0033972809220041,-0.00070454984649694,0.00070209704764722,-7.1932368109038e-06,-1.1497393024904e-06,-2.599472416352e-07,6.7492228967752e-07,-0.0003604546996165,0.00034965814920139,-0.00072573647127007,0.00072399235568644,-0.00072377921578917,0.00074026780095932,-0.00036801625203126,0.00034073236144091,-0.00036136459597863,0.00034874542841261,-0.00072664658107765,0.00072307347338788,-0.00072468961193949,0.0007393492531405,-0.00083326515925628,0.00082988110927605,-0.00083123598796923,0.00083399768927458,-0.00083295866249671,0.00083019422290165,-0.0008309294176765,0.00083431075556878,-0.00070441044813897,0.00069237091264807,-0.00069821554309951,0.00069029587331418,-0.00070471949489268,0.00069206002172323,-0.00069852477624879,0.00068998512162874,-0.00036710632960878,0.00034164483673307,3.8420140074314e-07,-5.3975194371828e-07,-1.2736021211903e-06,1.1252542161628e-06,-0.0010120447210175,0.0010118955592145,-0.00096953120981299,0.00097204187282366,-0.00098599705980703,0.00098595272675402,-0.00098515261713579,0.00098329276281069,-0.0010305373991058,0.0010298986098612,-0.0010302144352773,0.0010311749316011,-0.0010304944165215,0.0010292382579841,-0.001030281091342,0.0010306241245913,-0.0009723641210283,0.00096955831633984,-0.00097520961341279,0.00097710168020893,-0.00098544382417582,0.0009869981630299,-0.00097433008055515,0.00097406911969142,-0.00097010416493463,0.00096791669427707,2.2355068894125e-06,8.3961554098994e-06,-0.00076029864527936,0.00076141035229345,1.9092847703354e-06,-4.9268634500359e-07,-0.00075117803537178,0.00075276384892651,-0.00078805273584832,0.00076938834777246,-0.000790148422286,0.00078672200817369,-0.00076705959052095,0.00081949792728529,-0.00074883172372868,0.0007551215856821,-0.00078570010848634,0.00077173853311791,-0.00078780035126096,0.00078907656977248,-0.00082902111564459,0.00083035496717203,-0.000829820595993,0.00082955297052533,-0.00082921764775536,0.00082723851815084,-0.00083001913652942,0.00082643847409192,-0.00079820298875744,0.00081162207943586,-0.00079149135398502,0.00079523834909797,-0.00079069334767605,0.0007960417015574,-0.00079740038869184,0.00081242078228442,-0.00076941530939789,0.00081715001559537,0.75071314881973,128566,2924,0.002927921579141,0.0042065681836934,0.0031651762216795,22.482174372223,-6.0142605022213e-05,-6.0142605022213e-05,-6.0142605022213e-05,3154105.2537892,0.010353219279351
27791759,0.60663989840241,0.010855606940292,0.0032801771055821,0.004127569018182,0.0034478608165275,-0.00071565123679271,0.00071311091415053,-7.3117488712698e-06,-1.0753202669032e-06,-2.5658545069615e-07,6.6822488867021e-07,-0.00036580058926506,0.00035484725663297,-0.00073789077187912,0.00073605872351912,-0.00073590416646076,0.0007525634813665,-0.00037348907818692,0.00034586262373632,-0.00036670063200841,0.00035394455058655,-0.00073879093466844,0.00073514962719893,-0.00073680466427445,0.00075165478122024,-0.00084659223901559,0.00084314644932879,-0.00084453700257403,0.00084732208976035,-0.00084628927996594,0.00084345624554148,-0.00084423395032122,0.00084763181685927,-0.00071554051845701,0.00070331469752644,-0.00070926023386468,0.00070103038325209,-0.00071584615750233,0.00070300713976426,-0.00070956610301609,0.0007007230085126,-0.00037258905861913,0.00034676506937727,3.781201278396e-07,-5.3567985857969e-07,-1.3011611738689e-06,1.1508158799643e-06,-0.0010291195186205,0.0010289683506331,-0.00098608663165178,0.00098864392643911,-0.001002490133632,0.0010024160618724,-0.001001609447157,0.00099973978238296,-0.0010479566017773,0.0010472946541718,-0.0010476312018755,0.001048604060136,-0.0010479118112905,0.0010466392925032,-0.0010477014406382,0.0010480636314138,-0.00098898480850453,0.00098612840975435,-0.00099174456657954,0.00099369002518556,-0.0010019318453533,0.0010034919066289,-0.00099057692100492,0.00099034161968757,-0.00098666808007684,0.00098442323402931,2.2632865835884e-06,8.637081737077e-06,-0.00077210969202452,0.00077329027233981,1.9491666547292e-06,-5.0618016267322e-07,-0.00076310429145729,0.00076469849384695,-0.00080140475850229,0.00078238531935604,-0.000803553411387,0.00080005227030539,-0.00077933895688343,0.00083331969549804,-0.00076070591293748,0.00076710840002646,-0.0007989999375276,0.000784787641974,-0.00080115322470955,0.00080245903828927,-0.00084208995915745,0.00084344157049435,-0.00084290723812631,0.00084262172806056,-0.00084227574425448,0.00084026031262491,-0.00084309506723399,0.00083944245411913,-0.00081091762562792,0.00082473109004996,-0.00080413671799071,0.00080792337408277,-0.0008033209439956,0.00080874457000357,-0.00081009718112059,0.00082554756559188,-0.0007817468872816,0.00083091975290496,0.76134594192131,128566,2924,0.0029739325887982,0.0042773561327732,0.0032143777071949,22.748192173582,-5.8014462611347e-05,-5.8014462611347e-05,-5.8014462611347e-05,3157720.3111514,0.010520963953014
27991759,0.61572238146798,0.011023810812601,0.0033293394876364,0.0041950062996792,0.0034994650252856,-0.00072688682180297,0.00072425214964013,-7.4387227887927e-06,-9.9087856355245e-07,-2.50919241071e-07,6.5010592810585e-07,-0.00037114904168346,0.00035998604865325,-0.00075032531493337,0.00074839246212536,-0.00074830939657001,0.00076513213050835,-0.0003789516199956,0.00035086056363666,-0.0003720257036517,0.00035910683492744,-0.00075120213832998,0.00074750668264185,-0.00074918655260384,0.00076424675070623,-0.00086003858351677,0.00085653686541461,-0.00085795710206926,0.00086077433515469,-0.00085974368128069,0.00085683876282817,-0.00085766211544789,0.00086107617101673,-0.00072691358576638,0.00071446365313957,-0.00072054843942818,0.00071200775022418,-0.00072721128298966,0.00071416403004712,-0.00072084634452467,0.000711708284827,-0.00037807495758749,0.00035173946623812,3.6560974759169e-07,-5.2433865366808e-07,-1.3456032685004e-06,1.1940215369224e-06,-0.0010464077685136,0.0010462553654094,-0.0010029079630332,0.0010055419390142,-0.0010192082633341,0.0010190803421949,-0.0010182762466068,0.0010163996012587,-0.0010655615189705,0.0010648612300827,-0.0010652224563432,0.0010662152767509,-0.0010655094567286,0.0010642145050789,-0.0010652967161453,0.0010656947752364,-0.0010059052237635,0.0010029696921954,-0.0010085524974462,0.0010105905424008,-0.0010186325949919,0.0010201971527953,-0.0010070149690987,0.0010068310503417,-0.0010035321285673,0.0010011922213049,2.288114064625e-06,8.8968432060049e-06,-0.00078410384329377,0.0007853473077749,2.0033234658585e-06,-5.397795842936e-07,-0.00077544874760754,0.00077700765295405,-0.00081509317300153,0.00079566609278981,-0.00081730202133489,0.00081368697692306,-0.00079201324691625,0.00084770870348806,-0.00077296443654822,0.00077950362500828,-0.00081260235029533,0.0007981543356437,-0.00081481591101484,0.000816179736535,-0.00085531279794046,0.00085668744782219,-0.00085615928044659,0.00085583835539625,-0.00085548423699434,0.00085344103705086,-0.0008563328010887,0.00085259396288406,-0.00082389120479745,0.0008380417263402,-0.00081701000514142,0.00082082321070849,-0.00081616504723361,0.00082167369296883,-0.00082304148431066,0.00083888739866458,-0.00079450723981948,0.00084522289932311,0.77288939323012,128566,2924,0.0030204879117954,0.0043490240218253,0.0032643250313407,23.0141451626,-5.5886838699196e-05,-5.5886838699196e-05,-5.5886838699196e-05,3159995.6310651,0.010690929581242
28191759,0.62479399501597,0.011194579030696,0.0033791790057315,0.004263466803985,0.0035519332209793,-0.00073812417586041,0.00073539685078384,-7.5687871031082e-06,-8.8955483483781e-07,-2.4526906176731e-07,6.3380604470797e-07,-0.00037634644252936,0.00036497738924148,-0.00076290258232727,0.00076087411438049,-0.00076085723232863,0.00077784955957073,-0.00038428041362992,0.00035578557388863,-0.00037720158457478,0.00036411985827304,-0.00076375784298142,0.00076000981080832,-0.0007617128410504,0.00077698567075877,-0.00087346798710957,0.00086991246167014,-0.00087136029947228,0.00087420889541492,-0.00087318058886702,0.00087020706733086,-0.00087107281860264,0.00087450344211117,-0.0007383745619397,0.00072571093240051,-0.00073191823187429,0.00072310479315,-0.00073866492904113,0.00072541862383411,-0.00073220880603226,0.00072281263869747,-0.00038342526929682,0.00035664283824005,3.5413288786416e-07,-5.1382524655833e-07,-1.3907784024561e-06,1.238191608117e-06,-0.0010637503068577,0.0010635968901984,-0.001019853866579,0.001022567036058,-0.0010359757004258,0.0010357953810945,-0.0010349917535189,0.0010331059126729,-0.0010831812136383,0.0010824428093729,-0.0010828284074036,0.0010838426205754,-0.0010831218133167,0.0010818034591988,-0.0010829112476699,0.0010833454033567,-0.0010229659413456,0.0010199492298895,-0.0010254949259984,0.0010276268232713,-0.0010353828535634,0.0010369545265398,-0.0010234950088958,0.0010233614218206,-0.0010205224459716,0.0010180866731204,2.3152486834719e-06,9.1757851118473e-06,-0.00079613319491679,0.0007974464095056,2.0604338726574e-06,-5.721673369917e-07,-0.00078802228714822,0.00078955592214297,-0.00082893687050532,0.00080909731614575,-0.00083121235280498,0.0008274834104887,-0.0008048699489324,0.00086247311356024,-0.00078545034433436,0.00079213958592333,-0.00082635837753083,0.00081167316251246,-0.00082863864781258,0.00083006383896828,-0.0008685463060516,0.00086994541543647,-0.00086942259798802,0.00086906648928037,-0.00086870264833422,0.00086663467404087,-0.00086958104384341,0.00086575778549136,-0.00083694260885112,0.00085142307592709,-0.00082997746799966,0.00083382421402872,-0.00082910270722025,0.00083470454264608,-0.00083606303541278,0.0008522985397984,-0.00080745158591056,0.00085989976850779,0.78542227460731,128566,2924,0.0030670549616055,0.0044209104826126,0.0033144304037063,23.224185347032,-5.4206517223744e-05,-5.4206517223744e-05,-5.4206517223744e-05,3160334.8978987,0.010861316104982
28391759,0.63383712508204,0.011367807976236,0.0034296649932789,0.004332914933606,0.0036052280493514,-0.00074941423043171,0.00074660483701833,-7.690215661859e-06,-7.7800879630674e-07,-2.3919556783634e-07,6.2070816681829e-07,-0.0003813264275028,0.00036978017777702,-0.00077568249626257,0.000773563712111,-0.00077360551119274,0.00079077030796643,-0.00038940964976787,0.00036067834814698,-0.0003821628409349,0.00036894154861661,-0.00077651893045385,0.00077271815647376,-0.00077444230102808,0.00078992519179388,-0.00088694523446848,0.00088333621616876,-0.00088481041028233,0.0008876902592994,-0.0008866643185997,0.00088362445352221,-0.00088452941228409,0.00088797843519665,-0.00074999087266346,0.00073711390189671,-0.0007434423644732,0.00073437431923132,-0.00075027482981182,0.00073682798425481,-0.00074372653862556,0.00073408856504215,-0.00038857323842207,0.0003615166498412,3.4417638337114e-07,-5.0459616971697e-07,-1.4366290137519e-06,1.2832685143098e-06,-0.0010812150965731,0.0010810608986607,-0.001036996350765,0.0010397914107094,-0.0010528622455748,0.0010526319836641,-0.0010518263565894,0.001049928273123,-0.0011008714103453,0.0011000955082861,-0.0011005044447495,0.0011015417433765,-0.0011008051567702,0.0010994621554024,-0.0011005996069722,0.0011010697005579,-0.0010402303161032,0.0010371301763739,-0.0010426465043466,0.0010448730945009,-0.0010522523679972,0.0010538346639511,-0.0010400888955932,0.0010400036611146,-0.0010377089970094,0.0010351769798897,2.3448175677768e-06,9.4672308750111e-06,-0.00080826223327327,0.00080965367612241,2.1206982951266e-06,-6.0300583457909e-07,-0.00080102078550185,0.00080252817592692,-0.00084298622316432,0.00082271650996077,-0.00084532542909438,0.00084148359439952,-0.00081795235884547,0.00087759634549662,-0.00079835961573214,0.0008052010292664,-0.00084031851008707,0.00082538152083893,-0.00084266257281964,0.00084415323682531,-0.00088185371933655,0.00088328075706166,-0.00088276036482275,0.00088237145837216,-0.00088199488366161,0.00087990400433713,-0.00088290365199543,0.00087899675670588,-0.0008501317960755,0.00086494234478213,-0.00084309624463608,0.00084697563222788,-0.00084219113856454,0.00084788633430345,-0.0008492218320329,0.00086584813601314,-0.00082062322585274,0.00087493387265141,0.79903791241533,128566,2924,0.0031138639630516,0.0044932974891691,0.0033649650963761,23.415081037351,-5.2679351701188e-05,-5.2679351701188e-05,-5.2679351701188e-05,3159095.163785,0.011032915869868
28591759,0.64284533142996,0.011542310618217,0.0034804585465503,0.0044029031119003,0.0036589489597668,-0.00076073863200433,0.00075785084787796,-7.8128437370511e-06,-6.5822857984351e-07,-2.3304882823678e-07,6.0871742191841e-07,-0.00038602648320267,0.00037444360061186,-0.00078857656045907,0.00078637129580962,-0.00078646411971262,0.00080379895868772,-0.00039427792412604,0.00036535825804639,-0.00038684520415878,0.00037362276669649,-0.00078939522008199,0.00078554345107066,-0.00078728315326288,0.00080297158374554,-0.00090046744965379,0.00089680292215993,-0.00089830415935696,0.00090121176141863,-0.00090019266541687,0.00089708512144932,-0.00089802928957524,0.00090149389496029,-0.0007617013213277,0.00074859921168973,-0.00075505341085657,0.00074573341057273,-0.00076197920460269,0.00074831933668925,-0.00075533152586619,0.00074545371246521,-0.00039345922706198,0.00036617871509452,3.3487048810109e-07,-4.9579369386957e-07,-1.4832516740058e-06,1.3293391992101e-06,-0.0010987955704963,0.0010986408100454,-0.001054308531117,0.0010571877764212,-0.0010698582766843,0.0010695787751802,-0.0010687672510514,0.0010668554870691,-0.001118621567119,0.0011178081153095,-0.0011182405373011,0.0011193020704651,-0.0011185477019112,0.0011171793350061,-0.0011183477832566,0.0011188542903099,-0.001057654819929,0.0010544693826263,-0.001059964474823,0.0010622873552437,-0.0010692327165903,0.0010708275310488,-0.001056782897776,0.0010567457635295,-0.0010550666086935,0.0010524371816993,2.3776952076564e-06,9.762517509838e-06,-0.00082046264102087,0.00082193638379826,2.1821658460125e-06,-6.3444169746661e-07,-0.00081409437308952,0.00081557163936544,-0.00085714469826899,0.00083641491815631,-0.00085953496023983,0.00085558350426906,-0.00083118229405978,0.00089283021939406,-0.00081134231839038,0.00081833548510529,-0.00085438601651038,0.00083917086343887,-0.00085678118344867,0.00085834409731839,-0.00089522917482772,0.00089668826109994,-0.00089616678193065,0.00089574799010553,-0.00089535624948248,0.00089324513465644,-0.00089629598955447,0.0008923069196585,-0.00086342688703641,0.00087857524736311,-0.00085632113376466,0.00086024006085745,-0.00085538507982025,0.00086118174004171,-0.00086248594668662,0.00087951198629218,-0.00083394407058419,0.00089007677194449,0.80787521692924,128566,2924,0.0031608244002804,0.0045661577388574,0.0034158020859403,23.605474759834,-5.1156201921327e-05,-5.1156201921327e-05,-5.1156201921327e-05,3156604.1351699,0.011205482134586
28791759,0.65181244384552,0.011711820559104,0.0035297889967246,0.0044710104404492,0.0037110211219303,-0.00077180703782765,0.00076884852670884,-7.9377823762934e-06,-5.3024360576642e-07,-2.2690135656837e-07,5.9673277356765e-07,-0.00039006415695342,0.00037861293425284,-0.0008010017627587,0.0007987174554576,-0.00079884826224503,0.00081634379635365,-0.00039851231914078,0.0003694124030091,-0.00039086522233152,0.00037780989237779,-0.00080180266921966,0.00079790732265516,-0.00079964957002312,0.00081553414720563,-0.00091379598547958,0.00091007523382552,-0.00091160166979811,0.00091453433084011,-0.00091352733805493,0.00091035139432024,-0.00091133292818262,0.00091481041990784,-0.00077300989833189,0.00075969375087102,-0.0007662550742395,0.00075668687505291,-0.00077328170797911,0.00075941991305434,-0.00076652714231132,0.00075641324072822,-0.00039771132809004,0.00037021495695423,3.2567933323513e-07,-4.8690829191173e-07,-1.5304701304711e-06,1.3761918045989e-06,-0.0011161214140779,0.001115966281639,-0.001071280286681,0.0010742452563984,-0.0010865872792584,0.0010862583148441,-0.0010854394416476,0.0010835137046987,-0.0011361510042183,0.0011352997344292,-0.0011357569344423,0.001136843379648,-0.0011360694037012,0.0011346753795968,-0.0011358757459312,0.0011364193146293,-0.0010747303171242,0.0010714584277833,-0.0010769258535576,0.00107934653765,-0.0010859496143289,0.0010875576553111,-0.001073220775708,0.0010732323634219,-0.0010720802070769,0.0010693522248922,2.4164526335531e-06,1.0068639437246e-05,-0.00083240599320128,0.0008339660446574,2.2458707929249e-06,-6.6504131621144e-07,-0.00082655465271118,0.00082801860761424,-0.00087078890694054,0.00084957523832946,-0.00087321984838495,0.00086916259339598,-0.00084382685445907,0.0009074125861063,-0.00082371032088497,0.00083087475679459,-0.00086793791033338,0.00085242347467533,-0.00087037378323201,0.00087201548368121,-0.00090843344564451,0.00090993066938545,-0.00090940249051549,0.00090895895155832,-0.00090854749108025,0.00090641835841066,-0.00090951867356479,0.00090544869848116,-0.00087641025315337,0.00089192565704447,-0.00086924089371372,0.00087320774566024,-0.00086827341404483,0.00087418086656242,-0.00087543787471971,0.00089289381302803,-0.00084668094267174,0.00090456686987124,0.78846824235412,128566,2924,0.0032067369508508,0.0046379559433051,0.0034655774612392,23.79584869636,-4.9633210429123e-05,-4.9633210429123e-05,-4.9633210429123e-05,3154419.8197865,0.011374871661507
28991759,0.66079503266943,0.011874335545721,0.003577131468576,0.0045364353649947,0.0037607687121501,-0.00078276911147455,0.00077974744957757,-8.0654200443274e-06,-3.8857590907962e-07,-2.2641549528027e-07,5.8102875564151e-07,-0.00039379311945921,0.00038266543355579,-0.00081298817337359,0.00081063665703859,-0.00081079167199025,0.0008284160051915,-0.00040245818176734,0.00037302067982543,-0.00039457836439619,0.00038187833433535,-0.00081377320528933,0.00080984236779242,-0.00081157712582747,0.00082762219699521,-0.00092707041507942,0.00092329729544773,-0.00092484604671621,0.00092779741123924,-0.00092680727476448,0.00092356807345775,-0.00092458280642518,0.00092806811288268,-0.00078393703539544,0.00077041656833997,-0.00077707663113301,0.0007672817501022,-0.00078420342791727,0.00077014811968702,-0.00077734330678835,0.00076701352271304,-0.00040167302850224,0.00037380720964876,3.1744982732136e-07,-4.7894820362688e-07,-1.5805891854046e-06,1.4259876547055e-06,-0.0011332617571089,0.0011331062959742,-0.0010878530153237,0.001090910106398,-0.0011030845932839,0.001102706118684,-0.0011018835666407,0.0010999401101792,-0.0011536195454901,0.0011527292097455,-0.0011532113982068,0.0011543253985592,-0.0011535308417896,0.0011521085955976,-0.0011533449464921,0.0011539269091524,-0.0010914140219914,0.0010880493577484,-0.00109347590456,0.001095999522503,-0.001102436025356,0.0011040611323205,-0.0010894656249015,0.0010895260776346,-0.0010886961277686,0.0010858645391249,2.456113019181e-06,1.0372329658564e-05,-0.0008442523424519,0.00084589356424563,2.3122769710786e-06,-6.9879118048328e-07,-0.00083845269207862,0.00083989617322523,-0.00088398593108883,0.0008622746648773,-0.00088645199929749,0.00088228627954573,-0.00085587190565316,0.00092124906005968,-0.00083551033673364,0.00084285037021293,-0.00088103689057231,0.00086522092081287,-0.00088350792006268,0.0008852372032928,-0.00092161981477631,0.00092315945855277,-0.00092262224396283,0.0009221543404434,-0.00092171870542983,0.00091957578117209,-0.00092272328311117,0.00091857272733156,-0.00088916190173393,0.00090505373385832,-0.00088194318637521,0.00088595562508496,-0.00088094232964301,0.00088696213646825,-0.00088815612714458,0.00090605525495837,-0.00085882398692946,0.00091830534656724,0.75490318687172,128566,2924,0.0032522191164019,0.0047089809849832,0.0035149371767018,24.096459007947,-4.722832793642e-05,-4.722832793642e-05,-4.722832793642e-05,3158435.5491034,0.011542653230706
29191759,0.66979487803429,0.012033360208639,0.0036234790341738,0.0046005061582341,0.0038093750162314,-0.00079362332213012,0.0007905434805093,-8.1951395962359e-06,-2.4137283949371e-07,-2.2993249726264e-07,5.6433088372118e-07,-0.00039754492029883,0.0003868760459262,-0.00082469947270671,0.00082227373506278,-0.00082245782899217,0.00084017729572306,-0.0004064545467469,0.00037665486176701,-0.00039831728385906,0.00038610196838793,-0.00082547153826738,0.00082149230517116,-0.00082323033869325,0.00083939641133559,-0.00094022239548419,0.00093639194489718,-0.00093796794988019,0.00094093306760586,-0.00093996380763511,0.00093665835610217,-0.00093770925580485,0.00094119938995456,-0.00079457036999154,0.00078084550234538,-0.00078760231763855,0.00077757842792331,-0.00079483236648519,0.00078058143573543,-0.00078786462801408,0.00077731460502737,-0.00040568230516131,0.00037742834847405,3.1060189785555e-07,-4.7258171624667e-07,-1.6339108028862e-06,1.4788013263551e-06,-0.001150196316738,0.0011500403355482,-0.0011040718201861,0.0011072279342354,-0.0011193205539316,0.0011188931785451,-0.001118079014981,0.0011161126269151,-0.0011709806498905,0.0011700499737919,-0.0011705584110088,0.0011717028697736,-0.0011708879639556,0.0011694342172221,-0.0011707121710804,0.0011713334274948,-0.0011077456576447,0.001104280957953,-0.0011096381769374,0.0011122696304258,-0.0011186630460621,0.0011203099864404,-0.0011054962755872,0.0011056045711563,-0.0011049583846106,0.0011020179309591,2.4956139043757e-06,1.0667785597212e-05,-0.00085601839425104,0.0008577329995319,2.3795708211948e-06,-7.3791456777651e-07,-0.00084997984555791,0.00085138831020146,-0.00089695888493384,0.00087475822941588,-0.00089946494051227,0.00089518183442396,-0.00086756200518852,0.00093467201222455,-0.00084693341111862,0.00085444665681162,-0.00089390569190464,0.00087780861322003,-0.00089641675966261,0.0008982369107087,-0.00093471022707496,0.00093629227574433,-0.00093574813851268,0.00093525166620162,-0.00093479278625539,0.0009326348468035,-0.00093583285577268,0.00093159630452719,-0.00090172579581623,0.00091801115311598,-0.00089446781024126,0.00089852475546314,-0.00089343145497606,0.000899566714709,-0.00090068452127381,0.00091904812868078,-0.00087061819146198,0.00093162418393877,0.73755731192927,128566,2924,0.0032972568660441,0.0047791499473562,0.0035639454477084,24.414806731762,-4.4681546145902e-05,-4.4681546145902e-05,-4.4681546145902e-05,3168748.3368195,0.011708791623179
29391759,0.6788035309757,0.01218479624141,0.0036676393306207,0.004661663843941,0.0038554930668487,-0.00080409768409619,0.00080096747780439,-8.3200288893031e-06,-9.3592214451766e-08,-2.3724683285923e-07,5.4646537050259e-07,-0.00040071438019186,0.00039056746189849,-0.0008356293739961,0.000833130188266,-0.00083333676342637,0.00085113348722995,-0.00040988765315543,0.00037980407630015,-0.00040147642086694,0.00038980386323353,-0.00083639107068899,0.00083235905743538,-0.00083409893290198,0.00085036294152335,-0.00095308890196971,0.00094919410861284,-0.00095080182040179,0.00095377572821997,-0.00095283390319916,0.00094945702856894,-0.00095054670611061,0.00095403854790137,-0.00080454871121918,0.00079061379838957,-0.00079746241909298,0.00078720236947465,-0.00080480719383979,0.00079035323922135,-0.00079772124890618,0.00078694207979955,-0.0004091257776451,0.00038056712778235,3.0504842355744e-07,-4.6753410302952e-07,-1.6896510258054e-06,1.5340158877241e-06,-0.0011667149658417,0.0011665584501883,-0.0011196421161843,0.0011229028159608,-0.0011351436519952,0.0011346683311827,-0.0011338628680313,0.0011318693507867,-0.00118802252884,0.0011870507544468,-0.0011875854058054,0.0011887627953835,-0.0011879295353405,0.0011864417748253,-0.0011877654498099,0.0011884267123716,-0.0011234299623508,0.0011198595974685,-0.0011251387080314,0.0011278818125628,-0.0011344785894127,0.0011361515407325,-0.0011211557652593,0.0011213109165317,-0.0011205706924121,0.0011175174967327,2.5391915459731e-06,1.0956590010524e-05,-0.00086742061148342,0.00086920450556505,2.4496718358287e-06,-7.7907338173147e-07,-0.00086060389119217,0.00086197855136451,-0.00090921795631062,0.00088651991437256,-0.00091175661671092,0.00090735197197733,-0.00087823682469294,0.00094705747369593,-0.00085744862920988,0.00086514578142191,-0.00090605586509405,0.00088967914898633,-0.00090859958464224,0.00091051592508832,-0.00094749968717404,0.00094912894654153,-0.00094857470404467,0.00094805122648134,-0.00094756744307463,0.00094539438544309,-0.00094864462540785,0.00094431873764434,-0.00091380298716599,0.0009304953532008,-0.00090651060800158,0.00091061766852839,-0.00090543712475868,0.00091169668253554,-0.00091272459321843,0.00093156939167542,-0.00088140171723307,0.00094390081500298,0.70228482341655,128566,2924,0.003340728042961,0.0048475916355557,0.003611432532721,24.733640498411,-4.2130876012711e-05,-4.2130876012711e-05,-4.2130876012711e-05,3182858.1946054,0.011870086841966
29591759,0.6878120047804,0.012329839934129,0.0037099462478366,0.004720363995867,0.0038995296904256,-0.00081423727577816,0.00081106359132045,-8.4219243277023e-06,5.2519278788238e-08,-2.6498536480439e-07,5.4179716140202e-07,-0.0004035852957571,0.00039399336592579,-0.00084585589622154,0.00084332052710302,-0.00084350873936129,0.00086137727550028,-0.00041307756618787,0.00038279116867617,-0.00040436986574229,0.00039320727630258,-0.00084664012067727,0.0008425267532588,-0.00084429343845402,0.00086058408027413,-0.00096570378743606,0.00096173558991338,-0.0009633796508062,0.00096636765416716,-0.00096544129968099,0.00096200622239719,-0.00096311706143925,0.00096663819329947,-0.00081389239104576,0.0007997728944538,-0.00080667901925895,0.0007962183393964,-0.00081415856685013,0.00079950466875777,-0.00080694552854543,0.00079595037182866,-0.00041229313221078,0.00038357669698566,3.1548739051554e-07,-4.7991981015747e-07,-1.7546129058713e-06,1.5971680998773e-06,-0.0011828485217009,0.001182690174891,-0.0011345675457884,0.0011379595526414,-0.0011505857157002,0.001150088280817,-0.0011492963269341,0.001147235824318,-0.0012047705467517,0.0012037619081452,-0.0012043117750241,0.0012055376247972,-0.0012046897947337,0.0012031499236026,-0.0012045355057303,0.0012052299744808,-0.0011384815143213,0.0011347762133686,-0.0011399840462941,0.0011428431887413,-0.0011499059977517,0.0011516421494869,-0.0011365151606575,0.0011366886606331,-0.0011355615165852,0.0011323886383765,2.5876914867481e-06,1.1243398818548e-05,-0.00087851704559904,0.00088036675567628,2.5310486404241e-06,-8.2601213050285e-07,-0.00087051484036872,0.00087185446220004,-0.00092095486049305,0.00089774085495778,-0.00092351534413397,0.00091898082538042,-0.00088795645368944,0.00095861125431536,-0.00086723396597366,0.00087514748928506,-0.00091766708568048,0.00090102571533955,-0.00092023271450117,0.00092227046778854,-0.00095998941422856,0.00096167324959167,-0.00096110717668895,0.00096055275468815,-0.00096004261602632,0.00095786163492593,-0.00096116256987103,0.000956743232457,-0.00092547581310389,0.00094256402630908,-0.00091815658253845,0.00092231491137737,-0.00091704029850138,0.00092343665675723,-0.00092435461620628,0.00094368077547195,-0.00089124698014452,0.00095532895519786,0.67337837355871,128566,2924,0.0033828155807581,0.0049144331407356,0.003657641163562,25.052370100456,-3.9581039196354e-05,-3.9581039196354e-05,-3.9581039196354e-05,3203404.2781319,0.012027095287362
29791759,0.69677423513743,0.012481833446722,0.0037541991595742,0.0047816614406839,0.0039459728464643,-0.00082450341733297,0.00082128606822276,-8.5132776809426e-06,1.8056014226174e-07,-2.7754108414179e-07,5.4589097633011e-07,-0.0004070709515602,0.00039793410170417,-0.00085657778496825,0.0008540141092354,-0.00085417547898426,0.00087210428942408,-0.00041688280856134,0.00038645134322228,-0.00040787191059205,0.00039713163442862,-0.00085737827836203,0.00085320383996172,-0.00085497643656713,0.00087129460001896,-0.00097835305234289,0.0009743241153676,-0.0009759874731938,0.00097902947389403,-0.00097808514302633,0.00097460028830212,-0.00097571941870175,0.00097930555827978,-0.00082354630985573,0.00080923522885391,-0.00081620783090706,0.00080553973612321,-0.00082381801633416,0.00080896147495758,-0.000816479874686,0.00080526624439722,-0.00041608198063149,0.00038725319345953,3.2261847024337e-07,-4.8934674180059e-07,-1.8205253862571e-06,1.660943190263e-06,-0.001199154053333,0.001198993534933,-0.0011498081150986,0.0011533305513275,-0.0011662706475067,0.0011657440069083,-0.0011649547324815,0.0011628324550368,-0.0012216034047209,0.0012205548761968,-0.00122112222265,0.001222394599538,-0.0012215239538722,0.001219933270806,-0.0012213865898255,0.0012221166632526,-0.001153822804269,0.0011499828153595,-0.0011551453930945,0.0011581239168113,-0.0011655705685793,0.0011673638907353,-0.0011521036894414,0.0011523018250223,-0.0011508660536283,0.0011475695362076,2.6384270204026e-06,1.1536532181093e-05,-0.00088984879267836,0.00089176819366172,2.6124119433157e-06,-8.7458075348544e-07,-0.00088127557078509,0.00088257078061277,-0.00093348681614559,0.00090973585620786,-0.00093605677916157,0.00093138755663257,-0.00089848115078156,0.00097116427790987,-0.00087786754818873,0.00088599116337556,-0.00093007182498793,0.00091314792314652,-0.00093264696084405,0.00093480441618754,-0.00097249348744714,0.00097423314590316,-0.00097365457671728,0.00097306935690278,-0.00097253478567967,0.00097035897435661,-0.00097369804871597,0.0009691972618538,-0.00093748142277241,0.00095493988799649,-0.00093012904721087,0.00093433498702018,-0.00092896939610849,0.00093549998425134,-0.00093631691689167,0.00095609991924403,-0.00090189886356391,0.00096775478966073,0.70917941579087,128566,2924,0.0034254235738033,0.0049819847281451,0.0037048334273205,25.304943037789,-3.7560455697688e-05,-3.7560455697688e-05,-3.7560455697688e-05,3221340.8416774,0.012186366595913
29991759,0.705681736706,0.012640933265695,0.0038003923996117,0.0048456653789808,0.0039948754871029,-0.00083499933412603,0.00083171505531865,-8.6280005494822e-06,2.9209645617084e-07,-2.9349253402661e-07,5.4163027133713e-07,-0.00041066387606167,0.00040181016689593,-0.00086798649420188,0.00086537206406827,-0.00086552515479512,0.0008835298784661,-0.00042081765109715,0.0003901542502759,-0.00041147636691747,0.0004009962453002,-0.00086879844112739,0.00086455023626338,-0.00086633754502531,0.00088270863472045,-0.0009911835483476,0.0009870994781281,-0.00098877805433537,0.00099187716376919,-0.00099091186609436,0.0009873795461238,-0.0009885062913301,0.0009921571485594,-0.00083382173014118,0.00081930373889033,-0.00082634780043292,0.00081544049784936,-0.00083409730406,0.00081902609421496,-0.00082662372966729,0.00081516313062848,-0.00042000529616378,0.00039096752925242,3.2734327947966e-07,-4.9620886512328e-07,-1.8868205192056e-06,1.7252324605844e-06,-0.0012158530674519,0.001215690518164,-0.0011656806534036,0.0011693328814967,-0.0011823947568913,0.0011818339753709,-0.0011810507821847,0.001178871488795,-0.0012386708670302,0.0012375806294484,-0.0012381678753109,0.0012394855739756,-0.0012385932863227,0.0012369532378459,-0.0012384732583919,0.0012392409823071,-0.0011698264544774,0.0011658526841476,-0.001170998562272,0.0011740991189501,-0.0011816775386269,0.001183523689683,-0.0011680858579586,0.0011683139655768,-0.0011668082121435,0.0011633856335746,2.6943405370974e-06,1.1849808511601e-05,-0.00090147147353358,0.00090347192443859,2.6982683935042e-06,-9.1957427267325e-07,-0.00089284126645858,0.00089410086500892,-0.00094678164215551,0.0009224722932924,-0.00094937483452904,0.00094457972494464,-0.00090998244412989,0.00098494323002971,-0.00088930523525561,0.00089764945971022,-0.0009432385551877,0.00092601246619405,-0.0009458369489152,0.00094812469726108,-0.00098520305426278,0.00098700492471203,-0.00098640776394381,0.00098579752192387,-0.00098523223669319,0.00098308029718181,-0.0009864391211572,0.00098187496450976,-0.00094991528217752,0.0009677632494543,-0.00094251220273397,0.00094678088542532,-0.00094130892128382,0.00094798945313864,-0.00094870715504872,0.00096896687454175,-0.00091352826559461,0.00098140561251994,0.74657307781474,128566,2924,0.0034689441289408,0.005051158860099,0.0037532541663678,25.555846147285,-3.5553230821723e-05,-3.5553230821723e-05,-3.5553230821723e-05,3228490.5639236,0.012349472041712
30191759,0.71452702500753,0.012788963949282,0.003843319776833,0.004905515001294,0.0040401291711555,-0.00084490859184639,0.00084155326493616,-8.7485634793912e-06,4.2058851244373e-07,-3.1005416671469e-07,5.3128541633929e-07,-0.00041296782825501,0.00040446327787563,-0.00087835211127832,0.00087568330326886,-0.00087582753584893,0.00089389822113402,-0.0004234937180912,0.00039254467744807,-0.00041378658385857,0.00040364318724338,-0.00087917022961263,0.000874855241912,-0.00087664610270496,0.00089307072787626,-0.0010035722091419,0.0009994246971075,-0.0010011273110184,0.0010042629764585,-0.0010032986483513,0.0009997068148506,-0.0010008536991435,0.0010045450133029,-0.00084331242142855,0.00082858973154324,-0.00083569558414613,0.00082459440427945,-0.00084359001612469,0.00082831002485108,-0.00083597356022308,0.00082431499721797,-0.00042267514964326,0.0003933640681192,3.2952711654623e-07,-5.0026175127995e-07,-1.9533829664673e-06,1.7900122552918e-06,-0.0012319685012883,0.0012318041545462,-0.0011807889854907,0.0011845701451391,-0.0011979159099347,0.0011973157794295,-0.0011965441025467,0.0011943130258648,-0.0012552273051639,0.0012540934929232,-0.0012547039484719,0.001256065641412,-0.001255154061765,0.0012534664252022,-0.0012550479833465,0.0012558556751158,-0.0011850618797821,0.0011809556177046,-0.0011860820044795,0.0011893073461452,-0.0011971874710725,0.0011990817669293,-0.0011834592958826,0.0011837231267852,-0.0011819734046737,0.0011784224560164,2.7530656739254e-06,1.2167305679284e-05,-0.00091243989576594,0.00091452629064378,2.7877583005089e-06,-9.617123886137e-07,-0.00090302888099783,0.00090426816735463,-0.00095888552244774,0.0009340045045917,-0.00096150578402807,0.00095658413024548,-0.00092018345002818,0.00099734322303637,-0.00089936402061062,0.00090794565086223,-0.00095521360282055,0.00093767354089922,-0.00095783906315141,0.00096025793832725,-0.00099750444301015,0.00099937100658336,-0.00099875303828891,0.0009981197187479,-0.00099751955130097,0.00099538719886047,-0.00099877031576499,0.0009941379708667,-0.00096158858336578,0.00097981731610412,-0.00095413714021071,0.00095847587330399,-0.00095288995659132,0.00095972828233427,-0.00096033658831307,0.00098106481098842,-0.00092385806482096,0.00099367670344546,0.70019171492714,128566,2924,0.0035100238218182,0.0051179062259412,0.0037989660848555,25.806683792785,-3.3546529657724e-05,-3.3546529657724e-05,-3.3546529657724e-05,3235209.7997283,0.012504936601798
30391759,0.7233119436008,0.012930693823466,0.0038844217640082,0.0049629380445411,0.0040833340149166,-0.00085453080938571,0.00085110755348551,-8.8652508131085e-06,5.3825820494958e-07,-3.21943872499e-07,5.1104915135143e-07,-0.00041532568871351,0.00040723727985666,-0.00088816814444379,0.0008854268740761,-0.0008855789274097,0.00090365626440779,-0.00042622461853071,0.00039501559940674,-0.00041613636082008,0.00040642538417166,-0.00088897813015043,0.00088460692200161,-0.00088638936321867,0.00090283689042875,-0.0010156578803769,0.0010114496527788,-0.0010131702678823,0.0010163469966516,-0.0010153873354177,0.0010117289915461,-0.0010128996641413,0.0010166262512203,-0.00085224718210086,0.00083732171935698,-0.00084447939292406,0.00083318838507867,-0.00085252198135259,0.00083704478408948,-0.00084475459025559,0.00083291177352836,-0.00042541416000867,0.00039582673581099,3.2464592420769e-07,-4.9678100199754e-07,-2.0212610052099e-06,1.8565040835433e-06,-0.0012476507402921,0.0012474849990178,-0.0011952887900516,0.0011991973790875,-0.0012130004842544,0.0012123460550103,-0.0012115917939662,0.0012093227062824,-0.0012714681787837,0.0012702853498038,-0.0012709230690197,0.0012723253435763,-0.0012713943764585,0.001269663357165,-0.0012713039132652,0.0012721578138232,-0.0011996626331415,0.0011954261498168,-0.0012005230219781,0.0012038813606273,-0.001212259885869,0.001214189398536,-0.0011984479873907,0.0011987633536402,-0.0011965324211126,0.0011928456710504,2.814245977797e-06,1.2475075238806e-05,-0.00092313145962105,0.00092529843119691,2.8765960415904e-06,-1.0075593321942e-06,-0.00091262116178347,0.00091381534127784,-0.00097052748238928,0.00094506869964911,-0.00097315178989734,0.00096810600473916,-0.0009296886956937,0.0010089427115098,-0.00090882450392043,0.00091762468598164,-0.0009667237229869,0.00094886956390813,-0.00096935324455892,0.00097191162435529,-0.0010095299664906,0.0010114669483336,-0.0010108234684774,0.0010101707490292,-0.0010095307935618,0.0010074392708241,-0.0010108264677154,0.001006145129298,-0.00097286516422742,0.00099147456370458,-0.00096537079145808,0.00096978626287091,-0.00096407867821226,0.00097108353460541,-0.00097156826769901,0.00099276694076283,-0.00093349506900242,0.0010051443490995,0.67548311390404,128566,2924,0.0035499081559867,0.0051828595746908,0.0038435158143665,26.075050275959,-3.139959779233e-05,-3.139959779233e-05,-3.139959779233e-05,3251570.5885418,0.012656221160969
30591759,0.73209538754145,0.01307729446054,0.0039268810144009,0.0050221906614586,0.0041282227846805,-0.00086454724321544,0.00086104232332764,-8.9941523919626e-06,6.3645737815388e-07,-3.3432239742444e-07,4.8108542720334e-07,-0.00041830650039628,0.00041056449797785,-0.00089864057183082,0.00089581254717912,-0.000895985211424,0.00091403029366609,-0.0004296036569783,0.00039808369375552,-0.00041909993880401,0.00040976996871548,-0.00089943331848521,0.00089500981703582,-0.00089677842223178,0.00091322815353969,-0.0010280975133634,0.0010238460590244,-0.0010255654081507,0.0010287902409727,-0.0010278327988274,0.0010241195735254,-0.0010253006360391,0.0010290636587734,-0.0008616559323224,0.0008465358291307,-0.00085372647562458,0.00084224434521508,-0.0008619248523783,0.00084626473396514,-0.00085399582241753,0.0008419735992981,-0.00042881048179081,0.00039887744287679,3.1524959988374e-07,-4.8851350615139e-07,-2.0917386223693e-06,1.9258536564046e-06,-0.0012638194719529,0.0012636525953927,-0.0012103722188257,0.0012144107558108,-0.0012286126022176,0.0012278931741293,-0.00122714867758,0.0012248491697083,-0.0012881290307872,0.001286892559943,-0.0012875600699874,0.0012890019548926,-0.0012880481045282,0.0012862751912225,-0.0012879780712665,0.0012888833203274,-0.0012148508619943,0.0012104821653811,-0.0012155675325373,0.0012190675558741,-0.0012278566318489,0.0012298143033164,-0.0012139820910625,0.0012143602232379,-0.0012116791865889,0.0012078484695865,2.8812262362569e-06,1.2788639154005e-05,-0.00093433238563398,0.00093658206060854,2.9661809465126e-06,-1.0581497105568e-06,-0.00092310201607148,0.00092429540210537,-0.00098300953260685,0.00095695706197779,-0.00098563623827638,0.00098046551091052,-0.00094018288435091,0.001021582389337,-0.00091916818917847,0.00092824196841567,-0.00097906855959531,0.00096089509370814,-0.00098170053107023,0.00098440833047763,-0.0010219373689097,0.0010239511641051,-0.0010232776047146,0.0010226082131807,-0.0010219256784716,0.0010199092844715,-0.0010232681005595,0.0010185684075803,-0.00098471933361473,0.0010037200754065,-0.00097721270523407,0.00098171069658193,-0.00097587386096493,0.00098305469575229,-0.0009833756919431,0.0010050591423071,-0.00094412643353454,0.0010176468590571,0.69870694520663,128566,2924,0.0035913974592367,0.0052498274554132,0.0038901824067791,26.468617697346,-2.8251058421231e-05,-2.8251058421231e-05,-2.8251058421231e-05,3267726.685548,0.012813336371979
30791759,0.74086815692607,0.013228728970013,0.0039706391840202,0.0050833051540322,0.0041747846319608,-0.00087471587774695,0.00087112841674014,-9.1272240583038e-06,7.3852816776348e-07,-3.4891446335014e-07,4.464861780408e-07,-0.00042118934062962,0.00041379008637645,-0.00090961474386515,0.00090667733979442,-0.0009068944419328,0.00092489297808907,-0.00043290000396083,0.00040107625859922,-0.00042196319290356,0.0004130153017784,-0.00091038774778068,0.00090589419086886,-0.00090766793877369,0.00092411042528925,-0.0010406821086491,0.0010363921620722,-0.0010381075648915,0.0010413811207308,-0.0010404240966399,0.0010366590523427,-0.0010378494202292,0.001041647901985,-0.00087145170906647,0.00085614388244198,-0.00086336001110295,0.00085170759437776,-0.00087171396082792,0.00085587942496057,-0.00086362274026864,0.00085144350770678,-0.00043212645197218,0.00040185024530355,3.0488904182344e-07,-4.788310301213e-07,-2.1650116933159e-06,1.9984165018228e-06,-0.0012802821188767,0.0012801145098755,-0.0012259037236075,0.0012300777249177,-0.0012444917848418,0.001243703197376,-0.0012430100627932,0.0012406809210018,-0.0013049932728516,0.0013037007704289,-0.0013043995458232,0.0013058826752996,-0.0013049045167397,0.0013030889184572,-0.001304857755519,0.001305817583066,-0.0012304957050909,0.0012259901298115,-0.0012311213762388,0.0012347701914885,-0.0012437154186051,0.0012457011134017,-0.001229786165246,0.0012302318307609,-0.0012272794469933,0.0012232984979544,2.95062764108e-06,1.3111362022297e-05,-0.00094574713372279,0.00094808524268543,3.0580801383263e-06,-1.1124705901193e-06,-0.00093428403532033,0.00093548921927704,-0.00099602423292702,0.00096932427220705,-0.00099865183911553,0.00099335102693609,-0.00095136359253495,0.0010350207948231,-0.0009302071061723,0.00093957892331773,-0.00099194013864338,0.00097340537988768,-0.00099457307124434,0.00099743694990817,-0.0010345305898796,0.001036623629079,-0.0010359195810983,0.0010352319204754,-0.0010345077587882,0.001032553579602,-0.0010358989467855,0.0010311639469445,-0.00099687526901344,0.0010162643633467,-0.00098937397572308,0.00099394871848633,-0.00098798638461392,0.00099534142555226,-0.00099548286261995,0.0010176521444879,-0.00095545032567091,0.001030942181269,0.7224207323263,128566,2924,0.0036335216602933,0.0053180061319906,0.0039377462274919,26.865354564316,-2.5077163485475e-05,-2.5077163485475e-05,-2.5077163485475e-05,3276406.2504493,0.012973254034302
30991759,0.74961918322556,0.013384990177287,0.0040156875029298,0.0051463007730901,0.0042230019012675,-0.0008850690536086,0.00088140028008198,-9.2461190220871e-06,8.5252053385106e-07,-3.5877297026837e-07,4.1698385908711e-07,-0.00042411800682241,0.0004171151976608,-0.00092112364639511,0.00091808376459826,-0.00091833898750812,0.00093630632014495,-0.00043623333837407,0.00040414608388127,-0.00042487259623387,0.00041635979609865,-0.00092187731860789,0.00091731984308323,-0.00091909317475693,0.00093554301721478,-0.0010534090480779,0.0010490702515426,-0.0010507896473516,0.00105410301307,-0.0010531570592424,0.0010493306361021,-0.0010505375426507,0.0010543632721416,-0.00088168791195256,0.00086619753338449,-0.00087343469400741,0.00086164546625511,-0.00088194363111121,0.00086593959269657,-0.00087369091266849,0.00086138792373148,-0.00043547904962419,0.00040490072765162,2.9484368681855e-07,-4.6919376409555e-07,-2.2399238394348e-06,2.0728839793254e-06,-0.0012969993521862,0.0012968312848817,-0.0012418018748918,0.0012461151903962,-0.001260583434184,0.0012597251988185,-0.0012590802061612,0.0012567201720141,-0.0013220545152855,0.0013207051839871,-0.0013214346351226,0.0013229605573963,-0.0013219588923779,0.001320099592589,-0.0013219354468608,0.0013229511844793,-0.0012465139524021,0.0012418681410417,-0.0012471008631535,0.0012509020932051,-0.0012597857759862,0.0012618013424586,-0.0012457420633182,0.0012462563795978,-0.001243261506811,0.0012391272245256,3.0179039620048e-06,1.3437672290221e-05,-0.00095736394698078,0.00095979241306248,3.1537822239578e-06,-1.1665470788062e-06,-0.0009460150372934,0.00094719396580345,-0.0010095837587277,0.0009822004930512,-0.0010122197543817,0.0010067908113062,-0.00096310093531539,0.0010491436728062,-0.00094179154582536,0.00095143033172333,-0.0010053530500544,0.00098642815938742,-0.0010079944245535,0.0010110233205546,-0.0010472870755271,0.0010494591400874,-0.0010487260145423,0.0010480174957059,-0.0010472497677795,0.001045337057627,-0.0010486909022041,0.0010438974866892,-0.0010093058109136,0.0010290498390136,-0.0010018109572755,0.0010064619683043,-0.0010003734100745,0.0010079045719316,-0.0010078634649258,0.0010304875121579,-0.0009673342428498,0.0010449184799278,0.74698825073383,128566,2924,0.0036764199205282,0.0053872314198115,0.0039861499883408,27.26221594804,-2.1902272415682e-05,-2.1902272415682e-05,-2.1902272415682e-05,3279940.3472471,0.013135891894525
31191759,0.75840503292098,0.013549076641304,0.0040628793214551,0.0052123694058053,0.0042738279140437,-0.00089600468031439,0.0008922529397708,-9.3720532362186e-06,9.6969264462049e-07,-3.6712975208628e-07,3.9278691389303e-07,-0.0004274090505736,0.00042078686828441,-0.00093364920605595,0.00093052127608708,-0.00093079506309074,0.00094876782923837,-0.00043993129763282,0.00040754075052435,-0.00042814805737266,0.00042004714982727,-0.00093438730685503,0.00092977287890918,-0.00093153369008811,0.00094802007658836,-0.001066679759024,0.0010622923505592,-0.0010640154726603,0.0010673657501893,-0.0010664329470495,0.0010625474927176,-0.0010637685541032,0.001067620755585,-0.00089281735653715,0.00087714847076222,-0.00088439847099775,0.00087248273265063,-0.00089306779536613,0.0008768957929484,-0.00088464941851875,0.00087223047635887,-0.00043919258913097,0.00040827977382963,2.8675379337771e-07,-4.6140343879852e-07,-2.318636791498e-06,2.1512402160943e-06,-0.0013144637625168,0.00131429533283,-0.0012586066964608,0.0012630682331308,-0.0012773736483012,0.001276447071216,-0.0012758335798206,0.0012734364965521,-0.0013397702756304,0.0013383629360248,-0.0013391215239235,0.001340694141818,-0.0013396699082515,0.0013377631931753,-0.001339667737178,0.0013407407435232,-0.0012634572893897,0.0012586625627061,-0.0012640352103213,0.0012679952207277,-0.0012765549278505,0.0012786067940575,-0.0012623250333041,0.0012629069321516,-0.001260152551265,0.0012558587349506,3.0890654541679e-06,1.3779155701852e-05,-0.00096962346492012,0.00097215011525297,3.2594633820126e-06,-1.2183054246452e-06,-0.00095875696852199,0.00095994370112811,-0.0010241933082892,0.00099610064984168,-0.0010268529019712,0.0010212748245428,-0.0009759083792128,0.0010645801169491,-0.00095437937029589,0.00096433423053354,-0.0010198084907005,0.0010004823991224,-0.0010224735172109,0.0010256614461241,-0.0010606250465793,0.0010628790282488,-0.001062116462461,0.0010613849058321,-0.0010605727373108,0.0010586831498461,-0.0010620663622979,0.0010571911001391,-0.0010224882235544,0.0010425753973715,-0.0010150053419845,0.0010197361769372,-0.0010135153395428,0.0010212312374432,-0.0010209933771214,0.0010440655088549,-0.00098029593416488,0.0010602007842615,0.78082574580695,128566,2924,0.003721740362077,0.0054595427139985,0.004037234069145,27.788506311566,-1.7691949507475e-05,-1.7691949507475e-05,-1.7691949507475e-05,3279538.2355723,0.013306852302774
31391759,0.76723275830349,0.013707724043873,0.0041084286069101,0.0052764969556026,0.0043227984813602,-0.00090673341187996,0.00090289981253639,-9.5036402481076e-06,1.087446147962e-06,-3.7454990122562e-07,3.7286772998347e-07,-0.00042968958446818,0.00042349426639758,-0.00094565799210563,0.00094244529079735,-0.00094272730841379,0.00096073413770306,-0.00044262724694561,0.00040987367955448,-0.0004304163199137,0.00042276688653347,-0.00094638385338513,0.00094170912177659,-0.00094345369918678,0.0009599986120379,-0.0010799050281542,0.0010754671583197,-0.0010771948152717,0.0010805865228817,-0.0010796623645192,0.0010757181488732,-0.0010769520395144,0.0010808373743611,-0.00090360998475525,0.00088775158349545,-0.00089502625437919,0.00088294088799399,-0.00090385625001822,0.00088750307103231,-0.00089527304115645,0.00088269280004964,-0.00044190080557581,0.00041060037626153,2.8038282538697e-07,-4.5527576288213e-07,-2.4000593855574e-06,2.2323638435442e-06,-0.0013318813838858,0.0013317126539976,-0.0012752758649646,0.0012798921659126,-0.0012940999932686,0.0012931067074651,-0.0012925331242804,0.0012900938958528,-0.0013574357137902,0.0013559697162271,-0.0013567579096949,0.001358380189639,-0.0013573331835318,0.0013553761984329,-0.0013573484406199,0.0013584794894571,-0.0012802610794835,0.0012753110083697,-0.0012807974603565,0.0012849205681743,-0.0012932650670081,0.0012953584600568,-0.0012788464672952,0.0012794945004677,-0.0012769010818856,0.001272443559167,3.1621867574164e-06,1.4129453860748e-05,-0.00098168438290364,0.00098430999926828,3.3704006938905e-06,-1.2702957760676e-06,-0.00097085698119491,0.00097207432270879,-0.0010381865731199,0.0010093970065252,-0.0010408653082779,0.0010351253750939,-0.00098808175749537,0.0010793450080536,-0.0009663197867885,0.0009766244025669,-0.0010336422721867,0.001013938229145,-0.0010363264662401,0.0010396715094947,-0.0010739366717223,0.0010762751966594,-0.001075482394055,0.0010747267691801,-0.0010738707967916,0.0010720140903352,-0.0010754187297278,0.0010704677358957,-0.0010354441195009,0.0010559070944928,-0.0010279659514075,0.0010327754385255,-0.0010264216376124,0.001034324781035,-0.0010338949666477,0.0010574514743351,-0.00099262892029357,0.0010748061477454,0.75165981923708,128566,2924,0.0037662103682101,0.0055316502026086,0.0040874925298478,28.355976543347,-1.315218765322e-05,-1.315218765322e-05,-1.315218765322e-05,3277068.5293787,0.013475939739509
31591759,0.77608684630612,0.01386003809902,0.004152159055313,0.0053382420817592,0.0043696369619478,-0.00091722035601417,0.00091330945261846,-9.6310869125035e-06,1.1835478422404e-06,-3.876718798617e-07,3.4814243049482e-07,-0.00043208804246806,0.00042618779718141,-0.00095703433415702,0.00095373687404607,-0.00095402386367834,0.00097205100910264,-0.00044539035843607,0.00041225740593457,-0.00043280340762394,0.00042547183893279,-0.00095774887322544,0.00095301205263782,-0.00095473892355632,0.00097132680177935,-0.0010929023321175,0.0010884159348321,-0.0010901473896483,0.0010935794775546,-0.0010926634852808,0.0010886630620246,-0.0010899084379618,0.0010938264679276,-0.00091384401108823,0.00089780462955383,-0.00090509559076977,0.00089285562224974,-0.00091408640388581,0.00089755999115977,-0.000905338509665,0.0008926114009554,-0.00044467532599691,0.00041297277155931,2.7447443175116e-07,-4.4961275862817e-07,-2.4824328781143e-06,2.3144491562372e-06,-0.001348940010449,0.0013487709946565,-0.0012914023393068,0.0012961755961554,-0.0013104569153233,0.0013093972382447,-0.0013088716575856,0.0013063887457705,-0.0013748723529666,0.0013733473787607,-0.0013741649684232,0.0013758378561377,-0.0013747695998159,0.0013727614310329,-0.0013748020227256,0.0013759914621384,-0.0012965107596908,0.0012914031767553,-0.0012969904028056,0.0013012781799146,-0.001309608483588,0.0013117449867684,-0.0012950538489358,0.0012957677335354,-0.001293104806925,0.0012884820363874,3.2359757225953e-06,1.4459411881825e-05,-0.0009934854859056,0.00099619963685236,3.4783042469961e-06,-1.3272202083222e-06,-0.00098235737848473,0.00098364697798439,-0.0010515211958507,0.0010220665070562,-0.0010542088350499,0.0010482950577079,-0.0009995868896339,0.0010931347507248,-0.00097765863372591,0.00098835843821847,-0.0010468155768937,0.0010267690779813,-0.0010495086730998,0.0010530025588563,-0.0010870516765332,0.0010894737920277,-0.0010886523382622,0.0010878704299595,-0.0010869711369601,0.0010851559268133,-0.0010885740049124,0.0010835546322013,-0.0010479931652329,0.0010688315080645,-0.001040530498026,0.0010454108905496,-0.0010389312375045,0.0010470151395687,-0.0010463890773266,0.0010704308002322,-0.0010042955811971,0.0010884344743055,0.71981430496291,128566,2924,0.0038096777610278,0.0056022685515936,0.004136648925426,28.924534857368,-8.6037211410555e-06,-8.6037211410555e-06,-8.6037211410555e-06,3283514.8971516,0.013641413525368
31791759,0.78483118197491,0.014002442147574,0.0041930456004167,0.0053961597058369,0.0044132368413208,-0.0009268280620247,0.00092283919429211,-9.7588114580049e-06,1.25573695972e-06,-4.1217021330279e-07,3.1373214151526e-07,-0.00043416021946177,0.00042834781116042,-0.00096703449808732,0.00096366198402882,-0.00096395289192819,0.00098196732246917,-0.00044786444662037,0.00041425434929683,-0.00043486587671464,0.00042764160084244,-0.00096773934501442,0.00096294686651714,-0.00096465823488422,0.00098125279014551,-0.0011049948372966,0.0011004580747314,-0.0011021978508862,0.0011056725834719,-0.0011047592488604,0.0011007019102377,-0.0011019621759733,0.0011059162919432,-0.00092281792261758,0.00090660811904707,-0.00091390831387903,0.00090158220401949,-0.0009230570168582,0.00090636678671339,-0.00091414793125654,0.00090134127544305,-0.00044715912110496,0.00041495999127677,2.6936623593445e-07,-4.448028612058e-07,-2.5644539704185e-06,2.3961431168921e-06,-0.001364863399651,0.0013646940536404,-0.0013061759037507,0.0013111059048791,-0.0013257003203456,0.0013245760522013,-0.0013240960950774,0.0013215680903913,-0.0013913106944113,0.001389727528257,-0.0013905736408672,0.0013922974022281,-0.0013912100561658,0.0013891503511963,-0.001391258849849,0.0013925058039937,-0.0013113871533048,0.0013061221824802,-0.0013117822419316,0.0013162333595361,-0.001324833238367,0.0013270141513111,-0.0013102213725963,0.0013109991866848,-0.0013079598200072,0.0013031730280927,3.3022357399361e-06,1.4759783145578e-05,-0.0010043477280336,0.0010071344693822,3.5793701767775e-06,-1.390200231437e-06,-0.00099259073096534,0.00099387313735823,-0.0010634572263643,0.0010333918985999,-0.0010661262696204,0.0010600471002466,-0.0010096769320406,0.0011051786756375,-0.00098773126982172,0.00099874529112054,-0.0010585910165588,0.0010382550671065,-0.0010612655200799,0.0010649152103251,-0.0010992712407901,0.001101773851391,-0.0011009265755488,0.0011001158195957,-0.0010991761711219,0.0010974078547435,-0.0011008337113792,0.0010957518855559,-0.0010594446370216,0.0010805967044958,-0.0010519831574515,0.0010569271033386,-0.0010503292159212,0.0010585859852335,-0.001057785873683,0.0010822506437511,-0.0010145463538023,0.0011003176899612,0.68196834921556,128566,2924,0.0038494811986448,0.005668184948923,0.0041818747902263,29.262114076385,-5.9030873889164e-06,-5.9030873889164e-06,-5.9030873889164e-06,3296681.0869356,0.013794449109369
31991759,0.79329564321693,0.014154133050181,0.0042365459835945,0.0054574614903944,0.0044601255761925,-0.00093621357993027,0.00093214145879304,-9.8844044062537e-06,1.2884417527938e-06,-4.4141931399511e-07,2.7919028021789e-07,-0.00043734615782933,0.00043132157190833,-0.00097751508896255,0.00097409079349187,-0.00097437076445366,0.00099239082015084,-0.00045145505826802,0.00041734582040402,-0.00043804654005509,0.000430620696207,-0.00097821471270387,0.00097338086901258,-0.0009750708516102,0.00099168148958077,-0.0011165154898906,0.001111927714172,-0.0011136786731226,0.0011172026966354,-0.0011162815091599,0.0011121698142931,-0.001113444598567,0.0011174446785638,-0.00093189172482625,0.00091548727180789,-0.00092282885932789,0.00091045530732712,-0.00093212905281437,0.00091524771706861,-0.00092306668719146,0.00091021613315613,-0.00045075496609964,0.00041804620737668,2.6641292301513e-07,-4.4236077391183e-07,-2.6440417821472e-06,2.4752173780106e-06,-0.0013803120778428,0.0013801422109534,-0.0013207610829288,0.0013258442392195,-0.0013404811029406,0.0013392981555764,-0.0013388292050361,0.0013362531505934,-0.0014071906126893,0.0014055523081733,-0.0014064213242795,0.0014081956192972,-0.0014070878959827,0.0014049766206843,-0.0014071598285793,0.0014084608700209,-0.0013260929209546,0.0013206737749185,-0.0013264334152334,0.0013310412457126,-0.0013395878131724,0.0013418156829248,-0.0013248696873225,0.0013257051178942,-0.0013226428654475,0.0013176983009657,3.3647919848332e-06,1.5039285830513e-05,-0.0010150210967416,0.0010178694090832,3.6731576623924e-06,-1.4553729202129e-06,-0.0010036635500139,0.0010049494893153,-0.0010759856833038,0.0010453582018704,-0.0010786372113162,0.0010724048720286,-0.0010206312364267,0.001118050004635,-0.00099864837439093,0.001009977415225,-0.0010709638180328,0.0010503770015416,-0.0010736208577228,0.0010774286421983,-0.0011109619277006,0.0011135378594445,-0.001112670218414,0.0011118268594869,-0.0011108506667772,0.0011091232295221,-0.0011125611783968,0.0011074142979972,-0.0010708633366598,0.0010922281058012,-0.001063352812709,0.0010683464025003,-0.001061645945844,0.0010700582539905,-0.0010691515807402,0.0010939349709661,-0.0010256564989377,0.0011130332546282,0.74979062533819,128566,2924,0.0038883399457084,0.0057321356926068,0.0042262935184298,29.279633267063,-5.7629338634919e-06,-5.7629338634919e-06,-5.7629338634919e-06,3306936.0837607,0.013943731767874
32191759,0.80148083797791,0.014303680243773,0.0042793228076948,0.0055179133981088,0.0045064440379694,-0.00094529908811247,0.00094114378802079,-1.0010867206981e-05,1.3434151445361e-06,-4.7213657273275e-07,2.5707327602822e-07,-0.00043930468500689,0.00043313958274837,-0.00098787837971532,0.00098441833930837,-0.0009846713676095,0.0010027392520133,-0.0004538491031005,0.00041922705396607,-0.00044001351138743,0.00043243035453366,-0.0009885864089751,0.00098369994227985,-0.00098537985602656,0.0010020214473065,-0.00112779979102,0.0011231620778527,-0.0011249238269503,0.0011284812487703,-0.00112756287258,0.0011234070578961,-0.0011246868473949,0.0011287261048389,-0.00094095646602316,0.00092433769319068,-0.00093174312741018,0.00091930781710615,-0.00094119661366162,0.00092409528599934,-0.00093198380414228,0.00091906578743087,-0.00045314060274105,0.00041993583002699,2.7017579418397e-07,-4.4709161828084e-07,-2.7173009542314e-06,2.5475718824766e-06,-0.0013955481317723,0.0013953773471231,-0.0013353041168451,0.0013405318580395,-0.0013550540850756,0.001353830075413,-0.0013533733808236,0.0013507395216303,-0.0014226829501999,0.0014209980235161,-0.0014218865798471,0.0014237113038967,-0.0014225836814171,0.001420420145212,-0.0014226777249753,0.0014240235503283,-0.001340764930621,0.0013351993841823,-0.0013411061709379,0.0013458529080886,-0.0013541400392855,0.0013564237960038,-0.0013392806980168,0.0013401553323369,-0.0013372763995498,0.0013321911041599,3.4268423786687e-06,1.5336251978235e-05,-0.0010254046917193,0.0010283228378383,3.7650981298678e-06,-1.5094094585159e-06,-0.0010146225969317,0.0010159108991881,-0.0010882683177554,0.0010570586218024,-0.0010909167041698,0.001084550987405,-0.0010315924536121,0.0011310922441038,-0.0010094644749816,0.0010210818675387,-0.0010831035708663,0.0010622202996513,-0.0010857574941141,0.0010897176726169,-0.001122400831909,0.0011250473316013,-0.0011241577716658,0.0011232876678134,-0.0011222737700894,0.0011205784154139,-0.0011240329387357,0.0011188208282677,-0.0010821188387896,0.0011036964253821,-0.0010745217806451,0.0010795807842831,-0.0010727662858225,0.0010813412769122,-0.0010803584380184,0.0011054519022544,-0.0010367607958436,0.0011259325504018,0.76436054984477,128566,2924,0.0039259667755159,0.0057951922381175,0.0042695249746815,29.28895747443,-5.6883402045627e-06,-5.6883402045627e-06,-5.6883402045627e-06,3302680.8589419,0.014089678029461
32391759,0.80939184293139,0.014451445657483,0.0043215394686474,0.005577629024699,0.0045522771641361,-0.00095421707977826,0.00094998404000965,-1.0136084264457e-05,1.4014519391129e-06,-4.976067288931e-07,2.4048250329454e-07,-0.00044110846783643,0.00043491845652902,-0.0009982233167706,0.00099472918723465,-0.00099495522317929,0.0010130945928727,-0.00045609164055817,0.00042099125814706,-0.00044182598897748,0.0004342005254152,-0.00099894001090098,0.00099400204754124,-0.00099567236579763,0.0010123680512798,-0.0011388281983944,0.0011341401672099,-0.0011359140528276,0.001139504604255,-0.0011385883100311,0.0011343881210516,-0.0011356741146905,0.0011397524383304,-0.00095001792352919,0.00093320474123348,-0.00094065836427662,0.00092813230241845,-0.00095026099315374,0.0009329593854106,-0.00094090199018793,0.00092788732476359,-0.00045537445335522,0.00042170867613224,2.7403878785205e-07,-4.5199095492573e-07,-2.789838206796e-06,2.6191393601158e-06,-0.0014104890866654,0.0014103173165334,-0.0013496499823721,0.0013550208771302,-0.0013693306263961,0.0013680662425469,-0.0013676165033735,0.0013649250179458,-0.0014378272540628,0.0014360962459177,-0.0014370042236434,0.0014388788928253,-0.0014377316971569,0.0014355162510369,-0.0014378448356586,0.0014392347663769,-0.0013552390055173,0.0013495283667302,-0.001355602337125,0.0013604863579291,-0.0013683957107203,0.0013707350376036,-0.0013533461835355,0.0013542591820299,-0.0013517070397534,0.0013464824998281,3.4873090531675e-06,1.5626356022413e-05,-0.0010355848688917,0.0010385682420322,3.8557661162732e-06,-1.5631968016539e-06,-0.0010254678252754,0.0010267475774786,-0.0011004690634564,0.0010686709156907,-0.0011031203529482,0.0010966164682827,-0.0010424730898806,0.0011439961009351,-0.0010201682426121,0.0010320601132928,-0.0010951628973228,0.0010739740061609,-0.001097819770645,0.001101924592502,-0.0011335922769797,0.0011363090020268,-0.0011353973482228,0.0011345011895111,-0.0011334534740636,0.0011317788569367,-0.0011352607882934,0.0011299731281516,-0.001093147308187,0.0011149577555559,-0.0010854972856452,0.0010906196560446,-0.0010836936805057,0.0010924282747647,-0.0010913387617891,0.0011167613429667,-0.0010477829971322,0.0011386948488195,0.78118420626045,128566,2924,0.0039629113802286,0.0058570203063802,0.004311900875622,29.297958364861,-5.6163330811106e-06,-5.6163330811106e-06,-5.6163330811106e-06,3296261.3123714,0.014232839043487
32591759,0.8170179780018,0.014585455224314,0.0043598263710947,0.0056320092921589,0.0045936195610601,-0.0009623419954387,0.000958037749903,-1.0257713538818e-05,1.4607791487095e-06,-5.2164457495227e-07,2.2252758597876e-07,-0.00044178988794168,0.0004356668418099,-0.0010072709197572,0.0010037325665193,-0.0010039407507695,0.0010221431568955,-0.00045719855771244,0.00042162946246416,-0.00044251341890572,0.00043494295827735,-0.0010079935935401,0.0010029994104246,-0.0010046638570293,0.0010214105673702,-0.0011491358729353,0.0011443976221546,-0.0011461837108215,0.001149808129492,-0.001148893956256,0.0011446476021108,-0.001145941755208,0.0011500579969921,-0.00095803892919455,0.00094103835847197,-0.00094853516118662,0.00093590702558161,-0.00095828399931654,0.0009407909880133,-0.00094878080730408,0.00093566002621012,-0.00045647535452856,0.00042235282110475,2.7658299537488e-07,-4.5548192737919e-07,-2.860155915282e-06,2.6885609395476e-06,-0.0014244504858768,0.0014242778072898,-0.0013628719800656,0.0013683808960436,-0.0013826623089455,0.0013813564179787,-0.0013809283695184,0.001378183481656,-0.0014520254247859,0.001450248936278,-0.0014511769790289,0.0014530992779359,-0.0014519343950329,0.0014496695084856,-0.0014520619165118,0.0014534955005284,-0.0013685703619313,0.0013627199090917,-0.0013689265853254,0.0013739445935691,-0.001381711194269,0.0013841020431761,-0.0013665119145766,0.0013674645555929,-0.001365002457371,0.0013596421086939,3.5491600172153e-06,1.5902324202394e-05,-0.0010448831040837,0.0010479262317918,3.9442084348716e-06,-1.614823548826e-06,-0.0010348054105094,0.0010361189687734,-0.0011112152795472,0.0010788493735423,-0.0011138634014467,0.0011072215247166,-0.0010518528435756,0.0011551532841378,-0.0010293685895094,0.0010415687552143,-0.0011057719941115,0.00108428959152,-0.0011084257114847,0.001112666777608,-0.0011440404031707,0.0011468260783667,-0.0011458921535991,0.0011449715841063,-0.0011438904366764,0.0011422466119142,-0.0011457444301188,0.0011403941978196,-0.0011031605407564,0.0011252176631112,-0.0010954691641279,0.0011006477318279,-0.0010936188836045,0.0011025030007935,-0.0011013053222747,0.0011270679182514,-0.0010573000423091,0.0011497148037262,0.73524667424796,128566,2924,0.0039965766708232,0.005914787749487,0.0043506045898168,29.270823661148,-5.8334107108156e-06,-5.8334107108156e-06,-5.8334107108156e-06,3289452.6658063,0.01436485292644
32791759,0.82435326862903,0.014705068195852,0.0043940526926594,0.005680736986029,0.004630278517164,-0.00096973676006705,0.00096536945342402,-1.0367811083895e-05,1.5028260451519e-06,-5.4948308507266e-07,1.969338003822e-07,-0.00044261615711105,0.00043648729105018,-0.0010150173013278,0.0010114384058695,-0.0010116304952249,0.0010298460944327,-0.0004584008792291,0.00042239532897189,-0.0004433419183401,0.00043576123094564,-0.0010157421885235,0.0010107030126128,-0.0010123557842843,0.0010291112443165,-0.0011586265024992,0.0011538428742752,-0.0011556400349395,0.0011592982417901,-0.0011583838108433,0.0011540936097848,-0.0011553973207238,0.0011595488729642,-0.00096489361995681,0.00094771464782131,-0.00095525296794196,0.00094258039219642,-0.00096513942919995,0.00094746654130607,-0.00095549935903599,0.00094233264350959,-0.00045767544921074,0.00042312084715591,2.7722471399546e-07,-4.5703385904724e-07,-2.9273061258575e-06,2.7548374081278e-06,-0.001437227634467,0.0014370540705332,-0.0013746724621762,0.0013803119497686,-0.001394832653255,0.0013934836095864,-0.0013930786734848,0.0013902862903809,-0.0014652065577245,0.0014633854515564,-0.0014643326198941,0.0014662991929523,-0.0014651199247344,0.0014628089945936,-0.0014652607060908,0.0014667371260488,-0.0013804588594704,0.0013744760771745,-0.0013807796773622,0.0013859267795368,-0.0013938641267556,0.0013963006390764,-0.0013786093707295,0.0013796033665134,-0.0013768753834867,0.0013713841630895,3.6018821368192e-06,1.6131116617012e-05,-0.0010533405190868,0.0010564250686426,4.0221708631684e-06,-1.6705872112906e-06,-0.0010427441703892,0.0010440251685318,-0.0011205718726896,0.00108770436741,-0.0011232062930327,0.0011164275185624,-0.0010597974237185,0.001164370455643,-0.0010371763586893,0.0010496060336672,-0.0011149976725023,0.0010932755016351,-0.0011176377041334,0.001122003697068,-0.0011536772217137,0.0011565263636674,-0.0011555735339416,0.0011546272974645,-0.0011535142383644,0.0011519110728052,-0.0011554127985109,0.0011500140886161,-0.001112103558681,0.0011343637444072,-0.001104380727275,0.0011096079878743,-0.00110248588038,0.0011115077991196,-0.0011102037735848,0.0011362585331107,-0.0010653756662552,0.0011588009529218,0.68273835672664,128566,2924,0.00402721125912,0.0059676565728152,0.0043857808275194,29.212623315483,-6.2990134761363e-06,-6.2990134761363e-06,-6.2990134761363e-06,3294665.8492547,0.014485261540684
32991759,0.83140624715797,0.014825374569326,0.0044284787818881,0.0057295691754926,0.004667326611945,-0.00097712265515929,0.00097269131474306,-1.0472409967669e-05,1.520465963866e-06,-5.7505061762175e-07,1.7184245636581e-07,-0.00044474846909622,0.00043848492889146,-0.0010229863562429,0.0010193840759957,-0.0010195511054754,0.0010377884443849,-0.00046089300868977,0.00042449129447353,-0.00044547468721105,0.00043775842718811,-0.0010237117022946,0.0010186482043433,-0.001020276816846,0.0010370530865778,-0.0011678430209579,0.0011630117673238,-0.0011648268086867,0.0011685108668474,-0.001167600127273,0.0011632626647305,-0.001164583914868,0.0011687616838425,-0.00097175389547568,0.0009544002616426,-0.00096199293665672,0.00094936781435615,-0.00097199989224406,0.00095415200312765,-0.00096223948092092,0.00094911990300024,-0.00046016711137482,0.0004252172003055,2.7691516570251e-07,-4.5772717501197e-07,-2.99200819562e-06,2.8185855038831e-06,-0.0014496602741494,0.0014494857416261,-0.001386207235668,0.0013919717738725,-0.0014066926095095,0.0014053002214707,-0.0014048976440014,0.0014020611140736,-0.0014780667907051,0.0014762020735268,-0.0014771655564907,0.0014791740604714,-0.0014779808501148,0.0014756260514811,-0.0014781384992245,0.0014796565793656,-0.0013920942603788,0.0013859845168473,-0.0013923863405703,0.0013976581992874,-0.0014057009441371,0.0014081796053205,-0.0013903675012189,0.0013914028779064,-0.0013884922010248,0.0013828742849882,3.649732916364e-06,1.6327022215275e-05,-0.001061803908397,0.0010649178550028,4.0920118603079e-06,-1.7294539434146e-06,-0.0010511306335347,0.0010523947113305,-0.0011302302545508,0.0010969121810188,-0.0011328476693022,0.0011259413283448,-0.001068239342983,0.0011738716409513,-0.0010454367442903,0.0010581017538251,-0.0011245300270279,0.0011026093428468,-0.0011271530817679,0.0011316435542974,-0.0011630886694511,0.0011659930722224,-0.0011650278547755,0.0011640511161763,-0.0011629101944619,0.0011613480015438,-0.0011648516370933,0.0011594081342604,-0.0011210549792811,0.0011434325667325,-0.0011132962052921,0.0011185601533158,-0.0011113584554579,0.0011205028289935,-0.001119112314982,0.0011453702004526,-0.0010739437462052,0.0011681760068082,0.71399333539896,128566,2924,0.0040577912316732,0.0060191044567554,0.0044209562930324,29.153622648553,-6.7710188115721e-06,-6.7710188115721e-06,-6.7710188115721e-06,3307527.256817,0.014604181827659
33191759,0.83818581563288,0.014948273884921,0.004463583838127,0.0057792930775143,0.00470539696928,-0.00098447584344156,0.00097997463447665,-1.0584811271791e-05,1.5444183641296e-06,-5.9315264267207e-07,1.5503308488149e-07,-0.00044660732766901,0.00044026951964221,-0.0010313310717675,0.0010277105151041,-0.0010278492610454,0.0010461548692909,-0.00046310658371016,0.00042632510215107,-0.00044733468802795,0.00043954184419607,-0.0010320575971924,0.0010269734175408,-0.0010285761262129,0.0010454182720897,-0.0011769675038096,0.0011720786114382,-0.00117391486617,0.0011776314190986,-0.0011767239720698,0.0011723299718549,-0.0011736713430159,0.001177882715545,-0.00097891788890064,0.00096137565446439,-0.00096903786248693,0.0009564591250307,-0.00097916430936247,0.00096112696202212,-0.00096928482083949,0.00095621076725923,-0.00046237954436658,0.00042705211694436,2.7702106628664e-07,-4.5872075321143e-07,-3.0547836093478e-06,2.8804983407982e-06,-0.0014620691294496,0.0014618937175795,-0.0013979452782537,0.0014038315174681,-0.0014185591187442,0.0014171253993778,-0.0014167244599016,0.0014138444425129,-0.0014907426087783,0.0014888358989774,-0.0014898153068673,0.0014918648765939,-0.001490655313803,0.0014882576996796,-0.0014908309926326,0.0014923893043021,-0.0014039441016653,0.001397710924182,-0.0014042711429862,0.0014096639099804,-0.0014175430102123,0.0014200633333445,-0.0014020533467423,0.0014031282709249,-0.0014003116296412,0.0013945710454192,3.701227661952e-06,1.6537613788691e-05,-0.0010702828892917,0.0010734354404351,4.1620338318056e-06,-1.7843964985692e-06,-0.0010600836879505,0.0010613396535512,-0.0011402598009262,0.0011064527202737,-0.001142868157959,0.0011358466303772,-0.0010772775748167,0.0011841526103729,-0.0010542674051202,0.0010671692330569,-0.0011344371946634,0.0011122722061937,-0.0011370512683182,0.0011416712409848,-0.0011724019181821,0.0011753639996603,-0.0011743827268726,0.0011733803913252,-0.0011722147764707,0.0011706908488994,-0.001174197868104,0.0011687093516643,-0.0011301865361253,0.0011526987968112,-0.0011223567531937,0.0011276753544126,-0.0011203774115226,0.0011296596847258,-0.0011282021973881,0.0011546779771425,-0.001083104488956,0.0011783345517973,0.75848139628635,128566,2924,0.0040882298646211,0.0060704476702457,0.0044562144825351,29.094590371101,-7.2432770311894e-06,-7.2432770311894e-06,-7.2432770311894e-06,3309975.2351676,0.014722949126767
33391759,0.84479059556552,0.015070060587089,0.0044983180675038,0.0058285698241249,0.0047431726954603,-0.00099208717124893,0.00098752072605361,-1.0700333511895e-05,1.5878097454803e-06,-6.0911393284216e-07,1.4682946911507e-07,-0.00044804017857111,0.00044174544065643,-0.0010400884095055,0.0010364616610251,-0.0010365586351996,0.0010549450036575,-0.00046493650495949,0.00042771916002087,-0.00044877507129309,0.00044101029292806,-0.001040822439325,0.0010357170025931,-0.0010372930035478,0.0010542008165927,-0.0011864067303657,0.0011814725051082,-0.0011833225287386,0.0011870722148344,-0.0011861606116029,0.0011817264807444,-0.0011830764231455,0.0011873261375539,-0.00098657962977615,0.00096885431075221,-0.00097658308279981,0.00096398491033164,-0.00098682862931108,0.00096860303384855,-0.00097683265065411,0.00096373399755089,-0.00046420197713356,0.00042845361052141,2.8026709280132e-07,-4.6304247768824e-07,-3.1134256822058e-06,2.9381220273888e-06,-0.0014748237324078,0.0014746472793825,-0.0014101309064435,0.0014161325868972,-0.0014307708913534,0.0014293048049929,-0.0014288845318894,0.0014259573101973,-0.0015036562497398,0.0015017122996903,-0.0015027070225949,0.0015047968507681,-0.0015035709030954,0.0015011309470688,-0.0015037637986926,0.0015053572597438,-0.0014162396008939,0.0014098889414173,-0.0014166112183161,0.0014221143298831,-0.0014297352401582,0.0014323006021356,-0.0014140613986865,0.0014151665631237,-0.0014125709017925,0.0014067179089427,3.754511788784e-06,1.6764787004288e-05,-0.0010790313725269,0.0010822328107475,4.2346895113931e-06,-1.8283019634888e-06,-0.0010693521044162,0.001070619590108,-0.0011506548312875,0.0011163463334133,-0.001153255529816,0.0011461323939219,-0.0010866747139567,0.0011949962244563,-0.0010634217084351,0.0010765634538232,-0.0011447181125758,0.0011222798862322,-0.0011473246055971,0.0011520711476888,-0.0011820220222482,0.0011850409245003,-0.0011840416741191,0.0011830184560117,-0.0011818268553789,0.0011803251413382,-0.0011838488055533,0.0011783048017976,-0.0011396632438457,0.0011623516650083,-0.0011317736589608,0.0011371507433572,-0.0011297554758785,0.0011391738954337,-0.0011376400428504,0.001164369618857,-0.0010926158452952,0.0011890640306562,0.77139461391591,128566,2924,0.0041197614327538,0.0061232122732141,0.0044926100521905,29.271097391566,-5.8312208674739e-06,-5.8312208674739e-06,-5.8312208674739e-06,3305962.930876,0.01484543791891
33591759,0.85126605925518,0.015191659485269,0.004532970926495,0.0058777604908428,0.004780928067931,-0.0009998654464657,0.00099523939349492,-1.0810967023054e-05,1.6345281584143e-06,-6.2670976235934e-07,1.4285778097099e-07,-0.00044948324273115,0.00044327932790331,-0.0010491292919927,0.0010454994938937,-0.0010455504531684,0.0010640272606423,-0.00046677542371923,0.00042911881969116,-0.00045023140354313,0.00044253094236259,-0.0010498765794618,0.0010447414626729,-0.0010462980831654,0.0010632697229769,-0.0011959942453514,0.0011910151323825,-0.001192877630046,0.0011966557908935,-0.0011957435892978,0.0011912736751455,-0.0011926269923121,0.0011969142770631,-0.0009945180052722,0.00097662533883333,-0.00098439649446255,0.00097175136717226,-0.00099477151538576,0.00097636952666637,-0.00098465060605782,0.00097149594564044,-0.0004660276349348,0.00042986651564876,2.8631754204927e-07,-4.7040831004085e-07,-3.169756995627e-06,2.9932316913284e-06,-0.0014877406405598,0.0014875629416347,-0.0014225305951663,0.001428644732722,-0.0014431252345253,0.0014416339263896,-0.0014411946084764,0.0014382157992685,-0.0015166860322651,0.001514708168286,-0.0015157169804263,0.0015178472135709,-0.0015166046758091,0.0015141218310501,-0.0015168154528284,0.0015184403307845,-0.0014287473456461,0.001422281777456,-0.0014291809175377,0.0014347874831581,-0.0014420723209863,0.0014446866675942,-0.0014261988835776,0.0014273267015483,-0.001425042583624,0.0014190836517062,3.8072633866508e-06,1.6992984419637e-05,-0.0010879456929549,0.0010911982123843,4.3070820015665e-06,-1.8677259497831e-06,-0.0010788768314497,0.0010801412241501,-0.0011613130324728,0.0011264936764811,-0.0011639077059369,0.0011566892837255,-0.0010963270398435,0.0012061111200199,-0.001072837022672,0.0010861947041892,-0.0011552668721515,0.0011325366441536,-0.0011578674153661,0.0011627375098568,-0.0011917950523092,0.0011948712672969,-0.0011938519662271,0.0011928115129128,-0.0011915934514845,0.0011901076337325,-0.0011936526869269,0.0011880500223881,-0.0011493250763157,0.0011722150792274,-0.001141391464969,0.0011468274274224,-0.0011393360336924,0.0011488878388319,-0.0011472645782719,0.0011742702528845,-0.0011023777239442,0.0012000694496196,0.78538310646082,128566,2924,0.0041520011947619,0.006176642944629,0.0045296963502847,29.571479112157,-3.4281671027459e-06,-3.4281671027459e-06,-3.4281671027459e-06,3301190.2821839,0.014970037393816
33791759,0.85760864402072,0.015310514355373,0.0045668257479178,0.0059258830096776,0.0048178055977781,-0.0010074767929454,0.0010027957821279,-1.0918915110871e-05,1.6843839485537e-06,-6.4502676903178e-07,1.4375864769166e-07,-0.0004505491575414,0.00044448777395787,-0.0010579609814341,0.0010543300182356,-0.0010543318905753,0.0010729053659604,-0.00046824460451037,0.00043015116674564,-0.00045131605692856,0.00044372070903533,-0.0010587269771525,0.0010535531579245,-0.0010550982329433,0.0010721289877349,-0.0012054227067242,0.0012003961176672,-0.0012022737809097,0.001206075259613,-0.0012051656590951,0.0012006610999091,-0.001202016751354,0.0012063401862897,-0.0010022880302319,0.00098424270334557,-0.00099204249072358,0.00097934491606187,-0.001002547904525,0.00098398049401664,-0.00099230299740118,0.00097908312158191,-0.00046747812397905,0.00043091753161604,2.9500794339086e-07,-4.8067302749555e-07,-3.2249634247848e-06,3.0469916143191e-06,-0.0015004565884521,0.0015002774154822,-0.0014347333953567,0.0014409591993055,-0.0014552744604821,0.001453763958824,-0.0014533151019077,0.0014502798625917,-0.0015294854643229,0.0015274761520434,-0.0015284973177147,0.0015306687653991,-0.0015294095820223,0.0015268825895859,-0.0015296377452857,0.0015312911206642,-0.0014410538573426,0.0014344737377671,-0.001441551835005,0.0014472573635995,-0.0014542070216004,0.0014568747357571,-0.0014381431392148,0.0014392870950312,-0.0014373165217613,0.0014312556951283,3.8597851567388e-06,1.7217986788219e-05,-0.0010966707505101,0.0010999735485812,4.3797062938513e-06,-1.9044206638137e-06,-0.0010881461299615,0.0010894119261059,-0.0011717062167983,0.0011363782707251,-0.0011742941439358,0.0011669823126744,-0.0011057294755951,0.0012169242350273,-0.0010819993790159,0.0010955725853094,-0.0011655530512003,0.0011425282062599,-0.00116814694271,0.0011731375814293,-0.0012014044545495,0.0012045370704288,-0.0012034977907405,0.0012024408548395,-0.0012011972228998,0.0011997275175818,-0.001203292911996,0.0011976334696771,-0.0011587973561843,0.0011818983085994,-0.0011508239503964,0.00115631884477,-0.0011487321237803,0.0011584156999465,-0.0011567003871308,0.0011839898526119,-0.0011118872798491,0.0012107755440279,0.78367691231451,128566,2924,0.004183559725002,0.0062292366210819,0.0045659944769575,29.875084476202,-9.9932419038142e-07,-9.9932419038142e-07,-9.9932419038142e-07,3294904.562043,0.015092311581826
33991759,0.86381386834595,0.015422787905131,0.0045988181668335,0.0059714404646468,0.0048525292736506,-0.0010147627017943,0.0010100299282812,-1.102639843592e-05,1.7319173841155e-06,-6.6439928215009e-07,1.4600018856745e-07,-0.00045133741058994,0.00044542207564388,-0.0010662028901378,0.0010625760328303,-0.0010625243371996,0.0010811874228843,-0.00046944752156857,0.00043090355853888,-0.00045212541445488,0.00044463397543838,-0.0010669899730132,0.0010617779793832,-0.0010633117620486,0.0010803898475926,-0.0012145315247472,0.001209458951127,-0.0012113514268711,0.0012151759117193,-0.0012142672924524,0.0012097311611392,-0.0012110872161632,0.0012154480678466,-0.0010095718301399,0.00099138001250074,-0.00099920634196481,0.00098646620116661,-0.0010098388628696,0.00099111061271212,-0.00099947403021103,0.00098619722935496,-0.00046865997338032,0.00043169095652208,3.048004378072e-07,-4.9223539062005e-07,-3.2798001538773e-06,3.100191636518e-06,-0.0015127141355729,0.0015125333025471,-0.0014463853100162,0.0014527224699344,-0.0014669825168245,0.0014654553275377,-0.0014650028090107,0.0014619089002028,-0.0015418622056261,0.0015398223729743,-0.0015408547746231,0.0015430677216623,-0.001541793216437,0.0015392214247506,-0.0015420368954146,0.0015437174783788,-0.0014528022498645,0.0014461075039675,-0.0014533489731307,0.0014591515672891,-0.0014659014623037,0.0014686244101419,-0.001449687576897,0.0014508448100072,-0.001449033904771,0.0014428727076898,3.9103721639963e-06,1.7430771717548e-05,-0.0011050192885572,0.0011083671614709,4.4510807937816e-06,-1.9414172339879e-06,-0.0010967235505823,0.001097991501251,-0.0011814543245107,0.0011456346057976,-0.0011840271569864,0.0011766238962305,-0.0011144455779335,0.0012268881429823,-0.0010904707582383,0.0011042584226259,-0.0011751950671036,0.0011518905796254,-0.0011777739465218,0.0011828852708344,-0.0012106887159853,0.0012138768260483,-0.0012128181584164,0.0012117444725244,-0.0012104753726997,0.0012090281251688,-0.0012126071956078,0.0012068979605434,-0.0011678196358333,0.00119112960685,-0.0011598088650643,0.001165356656297,-0.0011576809555336,0.0011674896357417,-0.0011656865230021,0.0011932572184418,-0.0011207095941011,0.0012206333325942,0.75679008105182,128566,2924,0.0042137707879646,0.0062799308832955,0.0046007187968816,30.178817461929,1.4305396954321e-06,1.4305396954321e-06,1.4305396954321e-06,3290884.4693113,0.015209707469273
34191759,0.86996864806883,0.015531892550627,0.0046299260079778,0.0060157530534635,0.0048862134891857,-0.0010224032906128,0.0010176231334702,-1.1129939103069e-05,1.7704709612208e-06,-6.8813293574566e-07,1.510205544703e-07,-0.00045294002213228,0.00044715853994717,-0.001074655139122,0.001071043753332,-0.001070930834194,0.0010896760238691,-0.00047145803044052,0.00043247166922526,-0.00045375609859719,0.00044634240244034,-0.0010754702725142,0.0010702174951729,-0.0010717463020354,0.001088850240848,-0.0012239538845746,0.0012188348134503,-0.0012207435834685,0.0012245897034198,-0.0012236800972587,0.0012191166380778,-0.001220469819632,0.001224871476777,-0.0010170652609806,0.00099873288903111,-0.0010065933835144,0.00099383196626179,-0.0010173418260482,0.00099845392613801,-0.0010068706173896,0.0009935534449441,-0.0004706424355992,0.00043328708959698,3.1787984917716e-07,-5.0758994636736e-07,-3.3340612856411e-06,3.1523602859011e-06,-0.0015252070198326,0.0015250240658922,-0.0014581860420443,0.0014646348921222,-0.0014789203739502,0.001477383510184,-0.0014769272248696,0.0014737677351469,-0.0015545431931207,0.0015524752861635,-0.0015535162810327,0.0015557721036345,-0.0015544832541872,0.0015518643706331,-0.0015547431740082,0.0015564476064586,-0.0014646958020141,0.0014578851794134,-0.0014652802869978,0.0014711755606392,-0.0014778231129856,0.0014806072353226,-0.0014614999609801,0.0014626625008891,-0.001460896847687,0.0014546387710412,3.9586344757418e-06,1.7625176850852e-05,-0.0011137308357881,0.0011171175113483,4.5187129328328e-06,-1.9805586728195e-06,-0.0011055325626309,0.0011068026486029,-0.0011914435404476,0.0011551651797956,-0.001194000627886,0.0011865005914105,-0.0011233910835824,0.0012368948355789,-0.0010991753188461,0.0011131742880182,-0.0011850797607496,0.0011615256260349,-0.0011876429904371,0.0011928665261819,-0.0012203170829667,0.0012235585672047,-0.0012224820955171,0.0012213905969645,-0.0012200964304842,0.0012186746766464,-0.0012222638555175,0.0012165089294272,-0.001177140948602,0.0012006403794026,-0.0011690940575405,0.0011746849195103,-0.0011669305992928,0.0011768535171629,-0.0011749722154381,0.0012028035089472,-0.0011297597527895,0.0012305355117616,0.74153685149515,128566,2924,0.0042454553922364,0.0063315996836937,0.0046369341441278,30.744261566977,5.9540925358145e-06,5.9540925358145e-06,5.9540925358145e-06,3296065.6353864,0.015331115989534
34391759,0.87608786059109,0.015639480981173,0.0046605916445316,0.0060594717906181,0.0049194175460236,-0.0010301170851908,0.0010252923541254,-1.1233722877376e-05,1.8019885239312e-06,-7.1312779836596e-07,1.5598008309075e-07,-0.00045490090431017,0.00044923830688734,-0.0010831149707761,0.0010795188015808,-0.0010793475730275,0.0010981663061603,-0.00047382356700258,0.00043440344964051,-0.00045574630964569,0.00044839287350936,-0.0010839593824099,0.001078663095289,-0.0010801923088999,0.00109731108887,-0.0012334175779749,0.0012282554122297,-0.0012301781014438,0.0012340507230969,-0.0012331338802744,0.0012285472312587,-0.0012298944367894,0.0012343424907109,-0.0010245714697623,0.0010061009094345,-0.0010139971093063,0.0010012206423378,-0.0010248579752139,0.0010058119844588,-0.0010142842764282,0.0010009321792883,-0.00047297865731327,0.00043524816073532,3.3146140238015e-07,-5.237133197244e-07,-3.3874350050927e-06,3.203386202692e-06,-0.0015377075705254,0.0015375222407432,-0.0014699625057405,0.0014765212194174,-0.0014908647432667,0.0014893198979536,-0.0014888585098473,0.0014856325850408,-0.0015672661681196,0.0015651709984905,-0.0015662201468321,0.001568518299857,-0.0015672153908981,0.001564549453469,-0.0015674933184549,0.0015692202809138,-0.0014765651024749,0.0014696399268051,-0.0014771742176667,0.0014831595086651,-0.0014897493880537,0.0014925950315532,-0.0014733339829601,0.0014744996275417,-0.0014727345148303,0.0014663817113502,4.0068567873964e-06,1.7809627064288e-05,-0.0011225320564506,0.0011259550908229,4.5838948902132e-06,-2.0201033584642e-06,-0.0011144003784824,0.0011156821731655,-0.0012014542836716,0.0011647461980469,-0.0012039967406037,0.0011963995737181,-0.0011324018300637,0.0012468588516115,-0.001107940678286,0.0011221565056583,-0.0011949879961022,0.0011712091289182,-0.001197536673312,0.0012028680489909,-0.0012300112300867,0.0012333045411215,-0.0012322111305852,0.0012311016417094,-0.0012297816119223,0.0012283881102774,-0.0012319839505374,0.0012261874572498,-0.0011865152258891,0.0012101967826411,-0.0011784291514584,0.0011840647599385,-0.0011762308126509,0.0011862682788591,-0.0011843115709842,0.0012123947667506,-0.0011388731423024,0.0012403969850313,0.73560164591093,128566,2924,0.0042774444927424,0.0063832995937236,0.0046735148637916,31.386855089934,1.1094840719475e-05,1.1094840719475e-05,1.1094840719475e-05,3305353.9671226,0.015453250423699
34591759,0.88215839746278,0.015750099387746,0.0046920843217941,0.0061043423219364,0.0049536727440154,-0.0010379492100342,0.0010330811640442,-1.1338037466956e-05,1.8301146591881e-06,-7.3541194479035e-07,1.6325231876121e-07,-0.00045719390860614,0.00045162731809958,-0.0010918946885112,0.0010883196372994,-0.0010880857505468,0.0011069941484993,-0.00047652061820702,0.00043668294878327,-0.00045806819268457,0.00045075303579967,-0.0010927679569098,0.001087434911266,-0.0010889593215999,0.0011061099231117,-0.0012429338757729,0.0012377281499827,-0.0012396660384265,0.0012435639871995,-0.0012426404297368,0.0012380298447256,-0.0012393726211458,0.0012438656262689,-0.0010323132657713,0.0010137004501213,-0.0010216353495423,0.0010088412556339,-0.0010326095675963,0.0010134016822743,-0.0010219322946204,0.0010085429856678,-0.00047564681600388,0.00043755653165797,3.4474928190097e-07,-5.3969063099501e-07,-3.440400134404e-06,3.2538562054274e-06,-0.0015503222244759,0.0015501343736619,-0.0014819325463941,0.0014885998988224,-0.0015029252152159,0.0015013721415601,-0.0015008915637225,0.0014975998199884,-0.0015800740926202,0.0015779517224816,-0.0015790086534603,0.0015813485517861,-0.0015800301249646,0.001577317432473,-0.0015803282352935,0.0015820773827336,-0.001488631153204,0.001481592357782,-0.0014892868789413,0.001495361249008,-0.0015017898096922,0.001504696068799,-0.0014852586307913,0.0014864273520862,-0.0014847709749627,0.0014783240963491,4.0543174622049e-06,1.7990202386525e-05,-0.0011314949241999,0.0011349537942048,4.64701939744e-06,-2.0607284154326e-06,-0.0011237459346768,0.0011250407288344,-0.0012118398086449,0.0011746982593005,-0.0012143649362415,0.0012066763505395,-0.0011418870299855,0.0012573043031601,-0.0011171847284101,0.0011316168143921,-0.0012052719629555,0.00118126270678,-0.0012078033945796,0.0012132464134969,-0.0012397829539299,0.001243126165572,-0.0012420174120487,0.0012408886549651,-0.0012395433199686,0.0012381778201875,-0.0012417802484461,0.0012359425941351,-0.001196104151256,0.0012199542523659,-0.0011879683078926,0.0011936540211268,-0.0011857354365383,0.0011958921870582,-0.0011938658950087,0.0012221867476222,-0.0011484600442399,0.001250740864853,0.76226247056297,128566,2924,0.0043099254070476,0.0064354694149109,0.0047107637129887,32.031500230729,1.6252001845836e-05,1.6252001845836e-05,1.6252001845836e-05,3314447.5346916,0.015577053222685
34791759,0.88824480690089,0.015865326743219,0.0047248320794759,0.0061510267370351,0.0049894679267083,-0.001046359979071,0.0010414463279247,-1.144832264817e-05,1.8662368505174e-06,-7.5498004875854e-07,1.7286616401805e-07,-0.00045951187331126,0.00045407602959276,-0.0011015309544677,0.001097976025783,-0.001097680336185,0.0011166984329181,-0.00047926583263911,0.00043898407558628,-0.00046041478680967,0.00045317315514861,-0.0011024326535515,0.0010970627097431,-0.0010985824198018,0.001115785540844,-0.0012530834759263,0.0012478327190795,-0.0012497862411844,0.0012537071756323,-0.0012527803899072,0.0012481441515421,-0.0012494831488183,0.0012540185789336,-0.0010408588471153,0.0010220975908666,-0.0010300706187644,0.0010172368447719,-0.0010411647640711,0.0010217891528751,-0.0010303772652038,0.0010169288363873,-0.00047836365702186,0.00043988600119496,3.5782277525487e-07,-5.5542528606606e-07,-3.4929580659462e-06,3.3039273406951e-06,-0.0015637296987655,0.0015635393427572,-0.0014948023382494,0.0015015773539129,-0.0015157681807658,0.0015142067604089,-0.0015137073931265,0.0015103505308988,-0.0015935729030756,0.0015914234845726,-0.0015924883303375,0.0015948695626503,-0.0015935345647051,0.0015907755264633,-0.0015938532885245,0.0015956245248578,-0.0015016026709994,0.0014944511457834,-0.0015023317049544,0.0015084945735486,-0.0015146132422671,0.0015175793763048,-0.0014979175411914,0.0014990895907502,-0.0014977074870381,0.0014911672011884,4.1040990988235e-06,1.8186717526057e-05,-0.0011411181321367,0.0011446204820935,4.7134707201541e-06,-2.097502520639e-06,-0.0011340526469362,0.001135367763114,-0.0012231419913578,0.0011855340976759,-0.0012256502676349,0.0012178784394176,-0.0011523601943697,0.0012689119486096,-0.0011273902971503,0.0011420452138521,-0.0012164731263407,0.0011921994931043,-0.0012189877018676,0.001224549611581,-0.0012502021647201,0.0012535963562885,-0.0012524710218856,0.0012513244006744,-0.0012499547314505,0.0012486087262466,-0.0012522260627233,0.0012463391211988,-0.0012064770661892,0.0012305041262867,-0.0011982827773238,0.0012040239515248,-0.0011960155229061,0.0012062966368657,-0.0012042044223051,0.00123277092116,-0.0011590342473897,0.0012622475788535,0.79180217384504,128566,2924,0.0043448128254433,0.0064909118638218,0.0047507651389654,32.909589219986,2.3276713759886e-05,2.3276713759886e-05,2.3276713759886e-05,3319201.890129,0.015709435781674
34991759,0.89437800900062,0.015975989556484,0.0047562552338266,0.0061960223604933,0.0050237119621638,-0.0010547919630455,0.0010498327534726,-1.1562285256054e-05,1.909048468001e-06,-7.7286096941783e-07,1.8164757334191e-07,-0.00046104696988303,0.00045578939088583,-0.0011109251691372,0.0011073878097144,-0.0011070295664618,0.0011261484028303,-0.00048121883701162,0.00044046808079878,-0.00046197591576303,0.00045486049653033,-0.0011118529030303,0.0011064482974198,-0.0011079576741173,0.0011252093361878,-0.0012634352340291,0.0012581425063061,-0.0012601086060647,0.0012640545115561,-0.0012631233490651,0.0012584628461203,-0.001259796713875,0.0012643748141481,-0.0010493277767535,0.0010304214692702,-0.0010384271460071,0.0010255375153563,-0.0010496425245791,0.0010301041482881,-0.0010387426166838,0.0010252206667357,-0.00048029055065006,0.00044139608932308,3.6973676471261e-07,-5.6989758641434e-07,-3.5453903561583e-06,3.353972744679e-06,-0.0015773310888042,0.0015771383224307,-0.0015077688220359,0.0015146506869659,-0.0015288151378031,0.0015272430828853,-0.0015267312308965,0.0015233118293745,-0.0016072478597321,0.001605070688546,-0.0016061446894427,0.001608566490355,-0.0016072160695289,0.0016044116792099,-0.0016075529294849,0.0016093471166534,-0.0015146529084775,0.0015073897882321,-0.0015154480646146,0.0015217001327617,-0.0015276442622238,0.0015306680012916,-0.0015108091607893,0.0015119869015019,-0.0015107252019801,0.0015040909054345,4.1545211115195e-06,1.8392908290065e-05,-0.0011507695431682,0.0011543205711517,4.7829928319204e-06,-2.1307268258788e-06,-0.0011439813156084,0.0011453195032396,-0.001234189689983,0.0011960971412998,-0.0012366804445949,0.0012288134238617,-0.0011624605360462,0.0012801674446786,-0.0011372184405653,0.001152097682036,-0.0012274202514242,0.0012028630754895,-0.0012299173886708,0.0012355851729214,-0.0012608113124979,0.0012642574741241,-0.001263114396763,0.0012619512513359,-0.001260555575833,0.0012592363424686,-0.0012628611692357,0.0012569324904841,-0.0012168570554767,0.0012410941520135,-0.0012086074757365,0.0012144042342753,-0.00120630603696,0.0012167111860461,-0.0012145501326715,0.001243395151417,-0.0011692353238292,0.0012734024443089,0.75494740813388,128566,2924,0.004379797145484,0.0065471485952104,0.0047908921352697,33.940121992356,3.1520975938846e-05,3.1520975938846e-05,3.1520975938846e-05,3320815.0516612,0.015842872305092
35191759,0.90053437572806,0.016084194096681,0.0047869815023061,0.0062400852665021,0.0050571273278728,-0.0010631730653017,0.0010581761124719,-1.166425274406e-05,1.9336604886383e-06,-7.8959151760488e-07,1.8827237604681e-07,-0.00046318790955882,0.00045804292877847,-0.001120082377737,0.0011165517707571,-0.0011161399520224,0.0011353451084002,-0.00048369988308683,0.00044257892293564,-0.0004641396280437,0.00045709128249952,-0.0011210329343053,0.0011155892823957,-0.0011170908355747,0.0011343831139769,-0.0012736836310807,0.0012683518651505,-0.0012703284419697,0.0012743025145263,-0.0012733640424867,0.0012686800144015,-0.0012700088630621,0.0012746306122018,-0.0010575476298404,0.001038497686691,-0.0010465378853767,0.0010336098313274,-0.0010578701164614,0.0010381725788103,-0.0010468610622523,0.0010332852500503,-0.00048274869240938,0.00044352988184727,3.7996720263163e-07,-5.8280094464972e-07,-3.5976059882067e-06,3.4036842332348e-06,-0.0015907550483104,0.0015905597534193,-0.0015204613394154,0.0015274483193174,-0.0015416792100572,0.0015400933904868,-0.001539577089846,0.0015360984093623,-0.0016208515069993,0.0016186455623955,-0.0016197293534709,0.0016221903316263,-0.0016208243112716,0.0016179757290429,-0.0016211808510265,0.0016229987691099,-0.0015274202138076,0.0015200470065784,-0.0015282625103041,0.0015346041958263,-0.0015404932112831,0.0015435710638003,-0.001523556573084,0.0015247428868056,-0.0015234723711936,0.0015167433987671,4.2024708911604e-06,1.8576645698434e-05,-0.0011603657133614,0.0011639549824596,4.8482331452448e-06,-2.1676853265449e-06,-0.0011536961816648,0.0011550554453139,-0.0012450086806755,0.001206487750067,-0.0012474945836937,0.0012395133402832,-0.0011723029359048,0.0012909287175466,-0.001146833353319,0.0011619337787094,-0.0012381392115949,0.0012133537016338,-0.0012406315798636,0.0012463851349709,-0.0012713537248365,0.001274849200006,-0.0012736908449858,0.0012725088958573,-0.0012710866333047,0.0012698013834737,-0.0012734263049772,0.0012674634635076,-0.0012270766099961,0.0012515141580522,-0.0012187779314277,0.0012246233473322,-0.0012164425029641,0.0012269643757349,-0.00122473558305,0.0012538491892504,-0.0011791779468535,0.0012840635824344,0.73556804649133,128566,2924,0.0044145750339304,0.0066026534672243,0.004830766856804,34.974616174115,3.979692939292e-05,3.979692939292e-05,3.979692939292e-05,3331000.3620821,0.015975115814635
35391759,0.90663164413223,0.016188316328985,0.0048165301713233,0.0062825648092542,0.0050892213484074,-0.0010710552980439,0.0010660234416292,-1.1758353097579e-05,1.9479296280584e-06,-8.0383033566415e-07,1.9247037635444e-07,-0.00046525496749829,0.00046018422396732,-0.0011285300467225,0.0011249799652374,-0.0011245370460185,0.0011438203487795,-0.00048605300239116,0.00044464962168253,-0.00046622465349462,0.00045921457065112,-0.0011294985742729,0.0011239993776987,-0.0011255059026291,0.0011428402493272,-0.0012834040157108,0.0012780300377683,-0.0012800189939499,0.0012840245802748,-0.0012830783465561,0.0012783643518672,-0.0012796933464775,0.0012843588477224,-0.0010651065571538,0.0010459049024118,-0.0010539910657065,0.0010410408536898,-0.0010654351152726,0.0010455736589695,-0.0010543203478981,0.0010407101538126,-0.00048508385292863,0.00044561866879886,3.8775467431992e-07,-5.9319014613419e-07,-3.6492044284198e-06,3.4528234461651e-06,-0.0016035455457558,0.0016033477746904,-0.0015324414638324,0.0015395307756489,-0.0015539389514058,0.0015523349583873,-0.0015518387878996,0.001548306161434,-0.0016338823951341,0.0016316464858669,-0.001632740912062,0.0016352390874162,-0.0016338566975976,0.0016309660025059,-0.0016342340605918,0.0016360770146057,-0.0015394757682426,0.0015319953582245,-0.0015403364548386,0.0015467683062514,-0.0015527407070738,0.0015558674582216,-0.001535736644164,0.0015369360950032,-0.001535505114375,0.0015286810464498,4.2519082574355e-06,1.8744643089016e-05,-0.0011694488226377,0.001173072377164,4.9110836407433e-06,-2.2059098225529e-06,-0.0011627487575186,0.0011641460507663,-0.001255090528896,0.0012161905891249,-0.0012575884917836,0.0012494823601939,-0.0011814687706874,0.0013008545819701,-0.0011557870414285,0.0011711234439348,-0.0012481221679274,0.00122315544175,-0.001250626631034,0.0012564531161287,-0.0012813778995327,0.0012849220133406,-0.0012837486858511,0.0012825479930467,-0.0012810994921205,0.0012798551451886,-0.0012834728704909,0.0012774835346818,-0.0012367047476051,0.0012613232509423,-0.0012283531352664,0.0012342447000674,-0.0012259841079778,0.0012366194400038,-0.001234330004515,0.0012636919183112,-0.0011884428425343,0.0012938905009602,0.71497033710232,128566,2924,0.0044472795167772,0.0066555388195647,0.0048685047573403,35.839798772102,4.671839017682e-05,4.671839017682e-05,4.671839017682e-05,3343780.8227764,0.016100436458848
35591759,0.91257780081791,0.016284936965369,0.004843933221587,0.0063221069877427,0.0051188967560393,-0.0010781586993834,0.001073091922121,-1.1849507560056e-05,1.9490407762052e-06,-8.1855596295165e-07,1.9158739343618e-07,-0.00046706231889172,0.00046200705638278,-0.0011358762264881,0.0011322826447867,-0.0011318325933312,0.0011511745822329,-0.00048810760642112,0.00044645966190541,-0.00046804546467278,0.00046102390230288,-0.0011368582484611,0.001131288451711,-0.0011328149321449,0.0011501808778983,-0.0012923116999039,0.0012868929385118,-0.0012888975425929,0.0012929326231394,-0.0012919814802592,0.0012872318901801,-0.0012885673569011,0.0012932715203629,-0.0010716815180544,0.0010523280146048,-0.0010604580048149,0.0010474930999247,-0.0010720146227732,0.0010519921721207,-0.0010607918510679,0.0010471578274467,-0.00048712504165201,0.00044744221510006,3.9329996489796e-07,-6.0124414106679e-07,-3.7000508476862e-06,3.5012893986209e-06,-0.0016153331151877,0.0016151329494718,-0.0015433289563224,0.0015505177575902,-0.0015652512457532,0.0015636251534064,-0.0015631745980474,0.0015595930610807,-0.0016459825798758,0.0016437157339235,-0.0016448218218391,0.0016473552751628,-0.0016459560561729,0.0016430253277168,-0.0016463541112551,0.0016482232323908,-0.0015504208559547,0.0015428362287195,-0.001551271365322,0.0015577935806315,-0.0015640406692737,0.0015672114439933,-0.0015470326006015,0.0015482492964917,-0.0015464328034654,0.0015395135946903,4.3010165454623e-06,1.889432364659e-05,-0.0011777053145406,0.0011813582140746,4.9707671235763e-06,-2.2458716374918e-06,-0.0011707116378491,0.0011721476413605,-0.0012640291562828,0.0012247979149733,-0.0012665422504565,0.0012582953042461,-0.0011894972381234,0.0013094845389561,-0.0011636524406002,0.0011792226864529,-0.0012569632723261,0.0012318602585998,-0.0012594829468215,0.0012653636201596,-0.0012905883974617,0.0012941805257935,-0.0012929923771641,0.0012917732571154,-0.0012902983595702,0.0012891091546243,-0.00129270497216,0.0012867043264042,-0.001245382576519,0.0012701763352246,-0.0012369711889221,0.001242908829812,-0.0012345690297678,0.0012453168182868,-0.0012429745904301,0.0012725781548482,-0.0011965689748987,0.0013024229249776,0.68077348520183,128566,2924,0.0044767411655598,0.0067042774251865,0.0049028040627284,36.485740116628,5.1885920933024e-05,5.1885920933024e-05,5.1885920933024e-05,3359088.0763789,0.016214768772454
35791759,0.91835779080775,0.016384323115373,0.0048720841932983,0.0063626320190012,0.0051496069030732,-0.0010853351267296,0.0010802362648635,-1.1935036348048e-05,1.9377020628884e-06,-8.3117704781273e-07,1.9240359480288e-07,-0.00046983005883457,0.00046473771154529,-0.001143581675395,0.0011399417036782,-0.0011394896307199,0.001158902782983,-0.00049110449833022,0.00044929371893309,-0.00047082621092038,0.0004637415236355,-0.0011445767405558,0.0011389343447269,-0.0011404850034009,0.0011578958977364,-0.0013011074892725,0.0012956404132229,-0.0012976608426664,0.0013017205681977,-0.0013007728080761,0.0012959838702553,-0.0012973261887244,0.0013020639760426,-0.0010784526248414,0.0010589394111664,-0.0010671221423193,0.0010541121260737,-0.0010787901348186,0.0010585991120801,-0.0010674604144263,0.0010537724070666,-0.00049010899499516,0.00045028933882979,3.985527624741e-07,-6.0911747383388e-07,-3.7503986865869e-06,3.549140145942e-06,-0.0016270186878548,0.0016268160096133,-0.0015542734902838,0.0015615604231964,-0.0015764889023914,0.0015748404826383,-0.0015744246235593,0.0015707949072429,-0.0016579839995623,0.00165568635753,-0.0016568027809329,0.0016593708857957,-0.0016579523961039,0.00165498203044,-0.0016583731970188,0.0016602681236791,-0.0015614302306534,0.0015537425070833,-0.001562294454136,0.0015689059922137,-0.0015752642603145,0.0015784780618212,-0.0015582345769155,0.0015594685064677,-0.0015574231183867,0.0015504095996441,4.3493506386084e-06,1.9027140916225e-05,-0.0011860907409504,0.0011897669928541,5.0257081434077e-06,-2.2894471934212e-06,-0.0011793533450815,0.0011808446887952,-0.001273375383993,0.0012338380295269,-0.0012759138408616,0.0012675193720389,-0.0011981585205757,0.001318693355184,-0.0011721977612897,0.0011880163316326,-0.0012662130791587,0.0012409967508682,-0.0012687582082113,0.0012746841665813,-0.0012997350565602,0.0013033741135194,-0.0013021718407787,0.0013009339771419,-0.001299436910361,0.0012982996367779,-0.0013018763754744,0.00129586198513,-0.0012542187112609,0.001279174263884,-0.0012457330078881,0.0012517171019586,-0.0012432981184911,0.0012541579936589,-0.0012517778536228,0.0012816088369964,-0.0012053268546558,0.0013115353267184,0.72027366136718,128566,2924,0.0045065003565973,0.006752597383891,0.0049376246968178,37.126026659905,5.7008213279244e-05,5.7008213279244e-05,5.7008213279244e-05,3378574.7844886,0.016329516519834
35991759,0.92395935750407,0.016486642309321,0.0049009909212329,0.0064042436070554,0.0051814077810328,-0.0010925123351651,0.0010873777368065,-1.2026088367653e-05,1.9410228755119e-06,-8.40008852544e-07,1.9888951019663e-07,-0.00047196081971177,0.00046689759193345,-0.0011516729251036,0.0011479981399559,-0.0011475356725996,0.0011670513515896,-0.00049352821702763,0.00045149707347642,-0.00047297173701994,0.00046588662411609,-0.0011526828443891,0.0011469758017764,-0.0011485458769062,0.0011660294898412,-0.0013099004679382,0.001304374550028,-0.0013064210485174,0.0013104932118311,-0.001309560729399,0.0013047231542477,-0.0013060813309239,0.0013108417738412,-0.0010855588848389,0.0010658798772081,-0.0010741188400234,0.001061017441225,-0.0010859014427231,0.0010655344868005,-0.001074462153289,0.0010606726520796,-0.00049251798627002,0.00045250749977862,4.0481011214351e-07,-6.1781257140029e-07,-3.8001985109186e-06,3.5966267156794e-06,-0.0016387957603016,0.0016385907515873,-0.0015654981092253,0.0015728830881497,-0.0015878133633133,0.0015861448916075,-0.001585744346343,0.0015820651599565,-0.0016699327179068,0.0016676054004296,-0.0016687324079789,0.0016713356638209,-0.0016698957482827,0.0016668856041019,-0.0016703376726632,0.0016722576408875,-0.001572731544842,0.0015649411642556,-0.0015736435346858,0.0015803430752039,-0.0015865720991312,0.0015898305838778,-0.0015694607794289,0.0015707100361179,-0.0015687072108452,0.0015616010600203,4.3980424891142e-06,1.9178950563649e-05,-0.0011945135929365,0.0011982213258042,5.0818907260836e-06,-2.3308640201072e-06,-0.0011884846859386,0.0011900174830954,-0.0012830934160401,0.0012432025484028,-0.0012856397904276,0.0012771313321848,-0.0012073235647135,0.0013286484052784,-0.0011812335939095,0.0011972848988954,-0.0012758355437762,0.0012504567467145,-0.0012783887417518,0.0012843917247453,-0.0013088690806149,0.0013125545605486,-0.0013113383594521,0.0013100818624772,-0.0013085659719142,0.001307463829396,-0.0013110379846421,0.0013049936698201,-0.0012632441679529,0.0012883783223683,-0.0012546764378068,0.0012607122452789,-0.0012522091258043,0.0012631857497207,-0.0012607707315861,0.0012908453260076,-0.0012145876278458,0.0013213948484538,0.764997830479,128566,2924,0.0045362675972872,0.0068012865780646,0.0049726161758288,37.766088456278,6.2128707650223e-05,6.2128707650223e-05,6.2128707650223e-05,3386379.8970494,0.016444834647242
36191759,0.92922174900282,0.016580049067672,0.0049273372341128,0.0064423360364251,0.0052103757971337,-0.0010981726154057,0.0010930016222,-1.2121397660459e-05,1.9541406783317e-06,-8.49919205333e-07,2.1155757462537e-07,-0.00047204546192532,0.00046708244152724,-0.0011580494346579,0.001154361497541,-0.0011538615040155,0.0011735065696436,-0.00049394967392638,0.00045162958415012,-0.00047307832975311,0.00046604951873438,-0.0011590813683925,0.0011533170283273,-0.0011548936893057,0.001172462564674,-0.0013171829583513,0.0013116045900306,-0.0013136675217468,0.0013177603741657,-0.0013168357675383,0.0013119607527525,-0.0013133202268938,0.0013181164966902,-0.0010911632481206,0.0010713276448919,-0.0010796165756576,0.0010664272911819,-0.0010915132680395,0.0010709747501128,-0.0010799673455671,0.0010660750140159,-0.0004929174858481,0.00045266197694843,4.1472055997448e-07,-6.3015078156253e-07,-3.8473498332634e-06,3.6414940597886e-06,-0.0016488575491249,0.0016486502374591,-0.0015749849961966,0.0015824653070814,-0.0015974436682585,0.001595764119112,-0.0015953707557421,0.0015916367074153,-0.0016801072575945,0.0016777544483411,-0.0016788893500003,0.0016815284262384,-0.0016800698162369,0.0016770192739303,-0.0016805276926472,0.0016824685727389,-0.0015822916000359,0.001574401332568,-0.0015832390730703,0.0015900190708345,-0.0015961896758289,0.0015994982747799,-0.0015789830159267,0.0015802386602801,-0.0015782482246058,0.0015710570451671,4.4465956264915e-06,1.9335968456105e-05,-0.0012012547646646,0.0012049989204644,5.1412622369041e-06,-2.3638196706855e-06,-0.0011955647060465,0.0011971369074695,-0.0012909284715058,0.0012506795015782,-0.0012934739842926,0.0012848700567526,-0.0012144823428214,0.0013366715242872,-0.0011882232578226,0.0012044948947827,-0.0012835802011324,0.0012580240311123,-0.0012861326425018,0.0012922208859914,-0.0013164172626036,0.0013201490177201,-0.0013189172832878,0.0013176455185589,-0.0013161106977455,0.0013150340662357,-0.0013186134973038,0.0013125331483229,-0.0012705594202395,0.0012958723369084,-0.0012619094197174,0.0012679979879125,-0.0012594114142235,0.0012705023436016,-0.0012680551740543,0.0012983700335625,-0.0012218369723299,0.0013293275630031,0.74360848885525,128566,2924,0.0045597464211972,0.0068428722000391,0.0050006450581173,37.870165465417,6.2961323723333e-05,6.2961323723333e-05,6.2961323723333e-05,3380131.1909445,0.016539477015579
36391759,0.93405082475765,0.016664673739836,0.0049512177445811,0.0064768666634164,0.005236589331839,-0.0011025905322717,0.0010973901445892,-1.2208550948261e-05,1.9534357893866e-06,-8.6370460040199e-07,2.2514095148861e-07,-0.000471878728927,0.00046697408905765,-0.001163025153148,0.0011593376083343,-0.0011587875287394,0.0011785619635901,-0.00049406619641086,0.00045148608390354,-0.00047293823770446,0.00046591446735459,-0.0011640838107531,0.0011582662736276,-0.0011598464071395,0.0011774910962843,-0.0013230001869347,0.0013173737040835,-0.0013194527156459,0.0013235662460722,-0.0013226438671583,0.0013177390120647,-0.0013190963637519,0.0013239315141744,-0.001095412452153,0.001075436316331,-0.0010837661821045,0.0010705150266169,-0.0010957715359196,0.0010750743200738,-0.0010841260039567,0.0010701536687238,-0.00049300729303206,0.00045254521311974,4.2690500290658e-07,-6.4502491121637e-07,-3.8913210748228e-06,3.6829509657328e-06,-0.0016571488722939,0.0016569390233535,-0.0015827012913987,0.0015902718503811,-0.0016053362154537,0.0016036522610381,-0.0016032589198449,0.0015994672070096,-0.0016885716096339,0.0016861968668363,-0.0016873367538903,0.0016900108051513,-0.00168853592474,0.0016854453712323,-0.0016890085349188,0.0016909663047741,-0.0015900818055158,0.0015820962806191,-0.0015910578751155,0.0015979100411493,-0.0016040709978033,0.0016074320284902,-0.0015867683495631,0.0015880232049479,-0.0015860217421059,0.0015787533583318,4.4934256518816e-06,1.9465730378788e-05,-0.0012065867448125,0.0012103596865763,5.1943141751908e-06,-2.3964523047105e-06,-0.0012011050982435,0.0012027411577949,-0.001297191575197,0.0012566500387495,-0.0012997364265644,0.0012910366218713,-0.0012200739943802,0.0013428965461316,-0.0011936798061156,0.0012101832328584,-0.0012897594015589,0.0012640784216148,-0.0012923112813071,0.0012984713921328,-0.0013224739743769,0.0013262479777667,-0.0013250025223175,0.0013237158985056,-0.001322164295392,0.001321114140581,-0.0013246956625783,0.0013185846770778,-0.0012763444819882,0.0013018099993346,-0.001267617291088,0.001273752846562,-0.0012650907959914,0.001276285803936,-0.0012738116453504,0.0013043361936603,-0.0012275126777453,0.0013354686528707,0.73413358304291,128566,2924,0.0045780702765046,0.0068771384795585,0.005022815564432,37.54317288752,6.0345383100163e-05,6.0345383100163e-05,6.0345383100163e-05,3375173.0675787,0.01661548824977
36591759,0.93848302268521,0.016737768870866,0.0049718611403054,0.0065067920732642,0.0052591156572965,-0.0011063761845651,0.0011011493984754,-1.2285803071116e-05,1.9477160916894e-06,-8.7895385165941e-07,2.3741838420835e-07,-0.0004715839174032,0.00046672218800359,-0.0011670451959603,0.0011633571240953,-0.001162759916523,0.0011826548147311,-0.00049399910366212,0.00045121752152177,-0.00047267031986026,0.0004656356232716,-0.0011681307747202,0.0011622587577236,-0.0011638456899949,0.0011815568854464,-0.0013280983787372,0.0013224257088661,-0.0013245221018375,0.0013286550794819,-0.0013277329423272,0.0013228001958546,-0.0013241566170851,0.0013290295355155,-0.0010988748162414,0.0010787642595354,-0.0010871308559327,0.0010738235813115,-0.0010992430111437,0.0010783931177219,-0.0010874997886059,0.0010734530828999,-0.00049291328547531,0.00045230367845489,4.3918578261078e-07,-6.6002130385117e-07,-3.9319899695144e-06,3.7210806275509e-06,-0.0016644192775642,0.0016642068666899,-0.0015893435541198,0.0015969978990061,-0.0016122737519669,0.0016105878084813,-0.0016101993682522,0.0016063519694321,-0.0016960524442625,0.0016936580020386,-0.0016948018116248,0.0016975086517956,-0.0016960198190335,0.0016928913901652,-0.0016965053523245,0.0016984777331185,-0.0015967855375784,0.001588711179711,-0.0015977642417675,0.0016046819913041,-0.0016110001924494,0.0016144116501179,-0.0015936485560696,0.0015949001756732,-0.0015927160724469,0.0015853770420772,4.5372141964233e-06,1.9575924295925e-05,-0.0012111796584033,0.0012149766125337,5.2423154711036e-06,-2.4274920426155e-06,-0.0012056023058376,0.0012073049200564,-0.0013023606090344,0.0012615825344009,-0.0013049068563381,0.0012961117761127,-0.001224599037855,0.0013478969641478,-0.0011980996520217,0.0012148245527432,-0.0012948510966257,0.001269088273311,-0.0012974043963018,0.0013036239725803,-0.00132778945797,0.001331602407175,-0.0013303443270244,0.001329043963165,-0.001327475396416,0.0013264594963488,-0.0013300331103613,0.0013239036963428,-0.0012812718386113,0.0013068799943306,-0.0012724700045603,0.0012786503941647,-0.001269917218069,0.0012812097370766,-0.0012787126466002,0.0013094324821025,-0.0012321152762732,0.0013403916499428,0.69114506451307,128566,2924,0.0045937680361797,0.0069071849358034,0.0050419115844407,37.204963784082,5.7639710272657e-05,5.7639710272657e-05,5.7639710272657e-05,3373375.7541493,0.01668141927317
36791759,0.94255423606677,0.016802997148702,0.0049902961372305,0.0065335274038209,0.0052791736076503,-0.0011097630998734,0.0011045137398809,-1.2351875704679e-05,1.9269712283542e-06,-8.9660580973916e-07,2.4417782959691e-07,-0.00047209069382842,0.00046718695209277,-0.0011704844518287,0.0011667893504386,-0.0011661576300144,0.0011861614400837,-0.00049466679387772,0.00045176289307209,-0.00047320094506201,0.00046607645809384,-0.0011715939110078,0.0011656670026233,-0.0011672672582186,0.0011850394866014,-0.0013325996275306,0.0013268808072439,-0.0013289931405392,0.0013331500913999,-0.0013322261363663,0.0013272634298203,-0.0013286196090875,0.0013335326923431,-0.0011017921278187,0.0010815485409653,-0.0010899537371802,0.0010765951725686,-0.0011021684039309,0.0010811692872695,-0.0010903307421046,0.0010762165696082,-0.00049355708291611,0.00045287303017751,4.4987360261298e-07,-6.7352703767639e-07,-3.9697438335656e-06,3.756192526881e-06,-0.0016708353831212,0.0016706203111431,-0.0015951330398325,0.0016028642506744,-0.0016184200321533,0.0016167309561386,-0.0016163542636318,0.0016124560823873,-0.0017027630602378,0.0017003497703362,-0.0017014964295649,0.0017042329460109,-0.0017027321589814,0.0016995687724195,-0.0017032314558198,0.0017052173993701,-0.0016026229364412,0.0015944664899928,-0.0016035909376284,0.0016105693835045,-0.0016171379473752,0.001620594754065,-0.001599776002485,0.001601025325872,-0.0015985427613258,0.0015911377607015,4.5757993872136e-06,1.9651385111891e-05,-0.0012153069277972,0.0012191154038972,5.2807601273126e-06,-2.4621120240563e-06,-0.0012096199246529,0.0012113765645088,-0.001306873032383,0.0012659281926449,-0.0013094296407154,0.0013005259473603,-0.0012285844717078,0.0013520883275235,-0.0012020457429364,0.0012189678686453,-0.0012992920188065,0.0012735054555438,-0.0013018556961614,0.0013081097411242,-0.0013325326094207,0.0013363803749942,-0.0013351118051475,0.0013337975614933,-0.001332214741934,0.0013312347653946,-0.0013347968077594,0.0013286546210048,-0.0012856114626225,0.0013113389573119,-0.0012767339827487,0.0012829557908947,-0.0012741568917565,0.0012855395117746,-0.0012830279126859,0.0013139157549348,-0.0012361723897862,0.0013445114274824,0.67162364160964,128566,2924,0.0046078009078281,0.0069337063508864,0.0050590508895813,36.866307815538,5.4930462524308e-05,5.4930462524308e-05,5.4930462524308e-05,3381039.3007563,0.016740085357131
36991759,0.94638624889329,0.01686800782262,0.005008660202734,0.0065600662910722,0.0052992813288136,-0.0011138744738904,0.0011085987248938,-1.2414942689454e-05,1.9003731923198e-06,-9.1594594236471e-07,2.412075668844e-07,-0.00047377943954426,0.00046878221453122,-0.0011748912003418,0.0011711825280688,-0.0011705220634319,0.001190621547938,-0.00049649488418682,0.0004535000608168,-0.00047490567023933,0.00046765570373587,-0.0011760166159891,0.0011700440992548,-0.0011716476519225,0.0011894834804674,-0.0013377057289997,0.001331942498312,-0.0013340707416633,0.0013382509867491,-0.0013373268007853,0.0013323305850749,-0.0013336918272344,0.0013386390582863,-0.0011055521920158,0.0010851856739595,-0.0010936264065531,0.0010801855470216,-0.0011059338532136,0.0010848009808661,-0.0010940088166107,0.0010798015203475,-0.00049536921346395,0.00045462624597427,4.5668334477409e-07,-6.8288179137182e-07,-4.0023212489967e-06,3.7863638925197e-06,-0.0016778500015265,0.0016776325067603,-0.0016016660424466,0.0016094617540593,-0.001625167645074,0.0016234711045325,-0.0016231031078648,0.0016191656406371,-0.0017100421696165,0.0017076109562559,-0.0017087622901842,0.0017115227108597,-0.0017100093022775,0.0017068172115877,-0.0017105265383745,0.0017125255962618,-0.0016092028087532,0.0016009770884562,-0.0016101823463941,0.0016172144816462,-0.001623881783656,0.0016273729176065,-0.0016065041336542,0.0016077559476676,-0.0016051011180203,0.0015976376273323,4.6136573006718e-06,1.9717871423624e-05,-0.001220228532442,0.0012240459244761,5.3094555212576e-06,-2.496376551815e-06,-0.0012148566666299,0.0012166624823881,-0.0013123463586883,0.0012712525007027,-0.0013149265501276,0.0013059196227951,-0.001233784190641,0.0013574430567483,-0.0012072209068572,0.0012243155231631,-0.0013047037350999,0.001278891369424,-0.0013072910406526,0.0013135650744838,-0.0013379331711385,0.0013418135996737,-0.001340533330981,0.0013392097795564,-0.0013376138220542,0.0013366627981275,-0.0013402168823316,0.0013340616734763,-0.0012907893189686,0.0013166448829085,-0.0012818391607091,0.0012881054606582,-0.0012792411643287,0.0012907102041539,-0.0012881847681707,0.0013192426221888,-0.0012414338672394,0.0013498045153252,0.71099417959468,128566,2924,0.0046248271703365,0.0069627061729688,0.0050794767874237,36.972997740358,5.5783981922865e-05,5.5783981922865e-05,5.5783981922865e-05,3394590.0112312,0.016807657969696
37191759,0.95003203071176,0.016933616129781,0.0050271580622318,0.0065867734045872,0.0053196846629619,-0.0011182753560055,0.0011129664211202,-1.2484604483255e-05,1.8873800622331e-06,-9.3122860353023e-07,2.3600829959105e-07,-0.0004749295997455,0.00046988897277445,-0.0011798893640871,0.0011761341538064,-0.0011754756105453,0.0011956585031097,-0.00049781769300311,0.0004546975994481,-0.00047606564030252,0.00046875266147585,-0.0011810245605765,0.0011749858302995,-0.0011766109794661,0.0011945105377702,-0.0013431597743352,0.0013373500073411,-0.0013394967842375,0.0013436955170492,-0.0013427775407136,0.0013377414717485,-0.0013391145671485,0.0013440869647259,-0.001109872125775,0.0010893808470631,-0.0010978571236511,0.0010843100731224,-0.0011102570896934,0.0010889927957477,-0.0010982428625389,0.0010839227141415,-0.00049668223761161,0.00045583363380196,4.606708107401e-07,-6.8878448659079e-07,-4.0309580906226e-06,3.8131790980797e-06,-0.0016852670458103,0.0016850477143229,-0.0016087280790817,0.0016165796305697,-0.0016322821329104,0.0016305749765604,-0.0016302417323416,0.0016262741752534,-0.001717584577138,0.001715136355028,-0.0017162950907783,0.0017190755017389,-0.0017175487696725,0.0017143330482775,-0.0017180828424891,0.0017200952604379,-0.0016163110969333,0.0016080259195906,-0.0016173249937086,0.0016244063363315,-0.0016309987124895,0.0016345161431318,-0.0016135660467058,0.0016148246651933,-0.0016121830350658,0.0016046666884164,4.6535482704179e-06,1.9805444435184e-05,-0.0012254722267952,0.0012293091848621,5.3395298641819e-06,-2.5219958065482e-06,-0.0012206784891214,0.001222541175175,-0.0013183804526469,0.001277093475024,-0.0013209803402048,0.0013118951892789,-0.0012396035524896,0.0013636466222107,-0.0012129882615721,0.0012302488123328,-0.0013106833386865,0.0012847868072152,-0.0013132903900894,0.0013195951628225,-0.0013436534849808,0.0013475661043785,-0.0013462721991031,0.0013449436935586,-0.0013433351238885,0.0013423949904126,-0.0013459567670326,0.0013397752999693,-0.0012964313005763,0.0013224252457413,-0.0012874082585156,0.0012937268414657,-0.0012847917579644,0.0012963501882025,-0.0012938081645274,0.0013250415081122,-0.0012473077906205,0.0013559535604939,0.75399383972587,128566,2924,0.0046430556403714,0.0069933626842558,0.0051012592229404,37.297231781061,5.8377854248486e-05,5.8377854248486e-05,5.8377854248486e-05,3398655.1906137,0.016879523244426
37391759,0.95349621781742,0.016993297067516,0.0050439685975364,0.0066111482650619,0.0053381802049173,-0.0011222989003392,0.0011169541311555,-1.2558526067256e-05,1.8869855184426e-06,-9.4190841433698e-07,2.3154286213949e-07,-0.00047485500567216,0.00046986815282983,-0.0011843886314017,0.0011805655524469,-0.0011799309619994,0.0012001883805353,-0.00049794062230916,0.00045465580059769,-0.00047599709535475,0.00046872585600439,-0.0011855298580369,0.0011794111305935,-0.0011810723610605,0.0011990343193033,-0.001348357494824,0.0013425026558525,-0.0013446686542885,0.0013488811467799,-0.0013479732286559,0.0013428962083792,-0.001344284404794,0.0013492746796103,-0.0011138636057097,0.001093246718009,-0.0011017623675163,0.0010881207655125,-0.001114250593129,0.0010928565913407,-0.0011021501586269,0.0010877313646946,-0.00049679914107005,0.00045579787467705,4.630227732554e-07,-6.9249943175121e-07,-4.0574534672053e-06,3.8383658177617e-06,-0.0016923367326412,0.0016921160826152,-0.0016154021763297,0.0016233050969084,-0.0016390671964892,0.0016373474634819,-0.0016370705601282,0.0016330784739866,-0.0017247004506344,0.0017222356980016,-0.0017234031040525,0.0017262014833861,-0.0017246628819736,0.0017214265711826,-0.0017252100135339,0.0017272363337064,-0.0016230202491425,0.0016146811050704,-0.0016240506008241,0.0016311792410471,-0.0016377874769224,0.0016413267313302,-0.0016202805195382,0.0016215490250554,-0.0016188683418594,0.0016113020685302,4.6938367461803e-06,1.9907796095369e-05,-0.0012302787765394,0.0012341442704313,5.3750114225897e-06,-2.5384445444157e-06,-0.0012257736659799,0.0012276991079583,-0.0013238636049275,0.0012823649713128,-0.0013264739127157,0.0013173240273022,-0.0012447257004513,0.0013692929461959,-0.0012180326505738,0.0012354576325431,-0.0013161156941596,0.0012901090719839,-0.0013187332081239,0.0013250748178519,-0.0013490510495321,0.0013529947144237,-0.0013516870728156,0.001350354967295,-0.0013487334862285,0.0013478059062334,-0.0013513724617435,0.001345168895676,-0.0013016591896107,0.0013277845854161,-0.0012925654780385,0.0012989363056952,-0.0012899317130407,0.0013015769927075,-0.0012990187222449,0.0013304181249933,-0.001252480835363,0.0013615490462864,0.7220946724272,128566,2924,0.0046597259081878,0.0070225752774389,0.0051212474372977,37.627183879517,6.1017471036137e-05,6.1017471036137e-05,6.1017471036137e-05,3393696.6562705,0.016946519643653
37591759,0.95678260045013,0.01704765663808,0.0050592873491404,0.0066334008684189,0.0053549684205211,-0.0011260837840461,0.0011207102005551,-1.2623375352046e-05,1.8744444660618e-06,-9.5272797392146e-07,2.2570318582191e-07,-0.00047536476677941,0.00047040211817683,-0.0011884701884428,0.0011845842646958,-0.0011839736989095,0.0012042917656789,-0.00049860464160634,0.00045519701115782,-0.00047651166925616,0.00046925504386163,-0.0011896162440569,0.0011834249530243,-0.001185119915024,0.0012031328109218,-0.0013532033330456,0.0013473056752297,-0.0013494910715032,0.0013537132467645,-0.0013528174366175,0.0013477009048662,-0.0013491051931271,0.0013541084554573,-0.0011174594646211,0.0010967267487159,-0.0011052803015024,0.0010915704340766,-0.0011178480704029,0.0010963349635175,-0.0011056697170004,0.001091179397472,-0.000497458383896,0.00045634391444887,4.6472585470264e-07,-6.9562808544225e-07,-4.0833107354069e-06,3.8628553362653e-06,-0.0016988768963865,0.0016986548697666,-0.0016215012000311,0.0016294537056412,-0.0016453531127199,0.0016436199786516,-0.0016433937394329,0.0016393787209857,-0.0017313777089079,0.0017288964205175,-0.0017300717112004,0.0017328871372393,-0.0017313377707879,0.0017280816800192,-0.001731897724472,0.0017339378430496,-0.001629151844321,0.0016207603899162,-0.0016301767424536,0.0016373517287894,-0.0016440735739101,0.0016476329305235,-0.0016265225171261,0.0016278016179653,-0.0016249783504949,0.0016173629935176,4.7294307963708e-06,1.9981905715781e-05,-0.0012347872553965,0.0012386693757254,5.4050125505088e-06,-2.559009299452e-06,-0.0012304409983106,0.0012324258005787,-0.0013288759096726,0.0012872312584837,-0.0013315046012197,0.0013222765604827,-0.0012493817776702,0.0013742162843521,-0.0012226505259612,0.0012402339027141,-0.0013210785243883,0.0012950248041274,-0.0013237144689176,0.0013300768488903,-0.0013541090652374,0.0013580802135365,-0.001356761938946,0.0013554235845441,-0.0013537914814425,0.0013528823409025,-0.0013564473279891,0.0013502284719261,-0.0013064747040132,0.0013327062440447,-0.0012973170045742,0.0013037304089942,-0.0012946664341534,0.0013063880050812,-0.0013038173631828,0.0013353566013999,-0.0012571864794139,0.0013664228873491,0.69345403800273,128566,2924,0.0046754077606581,0.0070496033955857,0.0051399746570437,37.957364166574,6.3658913332595e-05,6.3658913332595e-05,6.3658913332595e-05,3397001.488078,0.017009009508886
37791759,0.95982296591774,0.017096204109854,0.0050729667160653,0.0066533160965483,0.0053699212972405,-0.0011287881560044,0.0011233861773475,-1.2684713177749e-05,1.8486422058754e-06,-9.6677067327023e-07,2.1354594271668e-07,-0.00047575314087365,0.00047075370507905,-0.0011912850394893,0.001187329247904,-0.0011867544256663,0.0012071121364448,-0.00049912484830453,0.00045561986263681,-0.00047690182290728,0.00046960485443788,-0.0011924329246553,0.0011861680683135,-0.0011879024393332,0.0012059513120437,-0.001356788948556,0.0013508463305605,-0.0013530534911322,0.0013572810883999,-0.0013564024510166,0.0013512422031259,-0.0013526670005197,0.0013576769385068,-0.0011198363063699,0.0010989896320856,-0.0011075820762668,0.0010937956673006,-0.0011202255107953,0.001098597219017,-0.0011079720836029,0.0010934040252561,-0.00049797683468832,0.00045676859585804,4.6493087530234e-07,-6.9719263989598e-07,-4.1069676788861e-06,3.8851992779796e-06,-0.0017039244625005,0.0017037011181459,-0.0016260971856796,0.001634094054821,-0.0016501783726655,0.0016484303628241,-0.0016482618627602,0.0016442284193946,-0.0017366435959204,0.0017341462580326,-0.0017353289170319,0.001738158964031,-0.0017365994792239,0.0017333261474975,-0.0017371728861432,0.0017392264391702,-0.0016337729496512,0.0016253345175823,-0.0016347878875231,0.0016420060444748,-0.0016488968239421,0.0016524718991335,-0.0016313400009906,0.0016326313178276,-0.0016295908879761,0.0016219297631904,4.7625142910198e-06,2.0031015705904e-05,-0.0012381031665639,0.0012419914042832,5.4279340236456e-06,-2.5822794539254e-06,-0.0012338131258592,0.0012358476755169,-0.0013324901654936,0.0012907513907455,-0.0013351274025148,0.001325830471218,-0.0012527032250192,0.0013776155837362,-0.0012259774591494,0.0012437010347526,-0.0013246475810826,0.0012985901131678,-0.0013272921328746,0.0013336759808667,-0.0013579000522448,0.0013618969595992,-0.0013605683202579,0.0013592249089839,-0.0013575848943851,0.00135669494938,-0.001360256151508,0.001354025679649,-0.0013099701593084,0.0013362998036556,-0.0013007466752281,0.001307201001701,-0.0012980807430193,0.0013098740453743,-0.001307297412516,0.0013389655246286,-0.0012605531936489,0.001369776971203,0.66961883860809,128566,2924,0.0046865915520996,0.0070704659106373,0.0051537366535935,37.836128395615,6.2689027164916e-05,6.2689027164916e-05,6.2689027164916e-05,3402789.8552033,0.017055605068441
37991759,0.96261856813339,0.01714219356118,0.0050859212704837,0.0066721397463338,0.0053841325443622,-0.0011311283362894,0.001125698946694,-1.2739247146214e-05,1.8188805566783e-06,-9.8380700026161e-07,1.9622538181594e-07,-0.00047654923513735,0.00047145268742977,-0.0011937868239948,0.0011897531448457,-0.0011892254510291,0.0012096060624132,-0.00050001856515186,0.00045645861096652,-0.00047769755249265,0.00047030417331927,-0.0011949344061849,0.0011885922232802,-0.0011903731465488,0.0012084454960992,-0.0013598382212777,0.0013538500883852,-0.0013560789946348,0.0013603061499733,-0.0013594518466044,0.0013542458772038,-0.0013556926243453,0.0013607019180883,-0.0011218502403066,0.0011008901796527,-0.0011095202067333,0.0010956515265131,-0.0011222393212354,0.0011004978637678,-0.0011099100836764,0.0010952599993428,-0.00049887087574052,0.00045760707966643,4.6409952937436e-07,-6.9764666582218e-07,-4.1288858061066e-06,3.905869000147e-06,-0.0017083131558577,0.0017080885600203,-0.0016301081165686,0.0016381453571234,-0.0016543547681429,0.0016525909636412,-0.0016524862523478,0.0016484376952783,-0.0017412727408038,0.0017387598426789,-0.0017399493575699,0.0017427922351148,-0.0017412226022207,0.0017379339567473,-0.00174180991427,0.0017438765448124,-0.0016378050463967,0.0016293237509756,-0.0016388282364669,0.0016460869985444,-0.0016530724823772,0.0016566601088542,-0.0016355145025096,0.0016368190691803,-0.001633619557415,0.0016259153398641,4.7942462461608e-06,2.0064403842917e-05,-0.0012410163438359,0.0012449057217648,5.4446203715287e-06,-2.608348662949e-06,-0.0012369502241725,0.0012390161492707,-0.0013357155169044,0.0012939000580746,-0.0013383623689188,0.0013289992245408,-0.0012557699201188,0.0013806725952278,-0.0012290727168717,0.0012469114014775,-0.0013278310858168,0.0013017806028129,-0.0013304852885477,0.0013368865989016,-0.0013611662836657,0.0013651886171251,-0.0013638487977737,0.001362502295693,-0.0013608565901088,0.0013599736914695,-0.0013635421083786,0.001357290170059,-0.0013130245235111,0.0013394437760481,-0.0013037349851135,0.0013102334542954,-0.0013010548394898,0.0013129207907809,-0.001310337517002,0.0013421237190208,-0.0012636618248351,0.0013727921229279,0.68978257772094,128566,2924,0.0046962552297429,0.0070886091732961,0.0051658187266766,37.593929518582,6.0751436148658e-05,6.0751436148658e-05,6.0751436148658e-05,3411372.7078725,0.017096179269959
38191759,0.9651903899026,0.017184884736913,0.0050979359977911,0.0066896061948773,0.0053973425442448,-0.0011332136839021,0.0011277548695157,-1.2792927991389e-05,1.7981836943604e-06,-9.985683738152e-07,1.7970440855931e-07,-0.00047675047783775,0.00047157326295058,-0.0011960879151827,0.0011919655886584,-0.0011914957134708,0.0012118876356872,-0.00050032647249576,0.00045670051044121,-0.00047789703367192,0.00047042650611682,-0.0011972337587803,0.0011908064136581,-0.0011926416433962,0.0012107287742227,-0.0013626346470796,0.0013566033791826,-0.0013588523926722,0.0013630741803152,-0.0013622488854573,0.0013569985886965,-0.0013584666323806,0.0013634693720626,-0.0011237009180698,0.0011026298516621,-0.0011113081708424,0.0010973344521864,-0.0011240893845291,0.0011022381277041,-0.0011116974414625,0.0010969435340839,-0.00049918055814309,0.00045784722734137,4.6271710153582e-07,-6.9722130715301e-07,-4.14912654201e-06,3.9251723579783e-06,-0.0017123806278493,0.0017121550916785,-0.0016338558841464,0.001641930341706,-0.0016582181505896,0.0016564384885435,-0.0016564061903651,0.0016523452764684,-0.0017455058527163,0.0017429782402242,-0.0017441743553735,0.0017470288707809,-0.0017454502880215,0.0017421481313629,-0.0017460490046425,0.0017481284818699,-0.001641575533575,0.0016330551457399,-0.001642610450357,0.0016499076281638,-0.0016569359945665,0.0016605340552955,-0.0016393694789462,0.0016406880138453,-0.0016373901565556,0.0016296456572341,4.8254500225839e-06,2.0104541675509e-05,-0.0012436438128529,0.0012475392988066,5.4625651949447e-06,-2.6300517259803e-06,-0.0012398294652956,0.0012419245103813,-0.0013386656472184,0.0012967504753107,-0.001341316569613,0.0013319028256213,-0.0012585952548656,0.0013835932151567,-0.0012319131387644,0.0012498586344458,-0.0013307424189181,0.0013046698027305,-0.0013334007082197,0.0013398290185954,-0.0013641461099781,0.0013681920719174,-0.0013668418405118,0.0013654925244747,-0.0013638448472532,0.0013629626286218,-0.0013665435874208,0.0013602658939347,-0.0013158405425008,0.0013423514611847,-0.0013064855016783,0.0013130237472513,-0.0013037921687393,0.0013157243302707,-0.0013131403185087,0.0013450445849575,-0.0012665260198902,0.0013756739121426,0.69607506464418,128566,2924,0.0047048634042214,0.0071054210614503,0.0051767265445209,37.348474307318,5.8787794458548e-05,5.8787794458548e-05,5.8787794458548e-05,3413580.3395015,0.017133133885209
38391759,0.96756978040759,0.017226256521903,0.0051095738301067,0.0067064856790469,0.0054101970127489,-0.001135347293944,0.0011298594586149,-1.2845661258341e-05,1.7813574089934e-06,-1.0117873474145e-06,1.6390360291439e-07,-0.00047699275263043,0.00047174800531395,-0.0011985608469945,0.0011943543781717,-0.0011939397354563,0.0012143447887833,-0.00050067918050691,0.00045698374073131,-0.00047813672864084,0.00047060384686269,-0.0011997041501934,0.0011931977518749,-0.0011950831021675,0.0012131884579136,-0.0013654232558961,0.0013593556753577,-0.0013616181817942,0.0013658473579558,-0.0013650383759255,0.0013597500347697,-0.0013612333056627,0.0013662416977636,-0.0011257088154937,0.001104530978651,-0.001113244148008,0.0010991757707985,-0.0011260964054154,0.0011041401116844,-0.0011136325368316,0.0010987857358397,-0.00049953582458212,0.00045812792348707,4.6100177878651e-07,-6.9626897470829e-07,-4.1673064215998e-06,3.9425986395364e-06,-0.0017164036029757,0.0017161773119276,-0.0016376167878002,0.0016457245123514,-0.0016620387861128,0.0016602439038721,-0.0016602771099735,0.0016562062079506,-0.0017496532548387,0.0017471121342205,-0.0017483146394115,0.0017511793817422,-0.0017495930691802,0.0017462791841161,-0.001750201798787,0.0017522932744468,-0.0016453646196675,0.0016368094716357,-0.0016464143812349,0.0016537465835206,-0.0016607531906284,0.0016643597254644,-0.001643156168802,0.001644488398548,-0.0016411676140998,0.0016333865760089,4.8558679742184e-06,2.0145072918857e-05,-0.0012463017117772,0.0012502053409767,5.4807934877741e-06,-2.6476188460782e-06,-0.0012428551273826,0.001244992252051,-0.0013417625043499,0.0012997454438406,-0.0013444235126259,0.0013349629241777,-0.0012615851226173,0.0013867241116044,-0.0012349037611586,0.0012529614613735,-0.0013338042416626,0.0013076997916761,-0.0013364726459128,0.0013429241603944,-0.0013671082551946,0.001371177034365,-0.0013698159129463,0.001368465547835,-0.0013668178417422,0.0013659254023655,-0.0013695285207479,0.0013632167390587,-0.0013187217107419,0.0013453171061461,-0.0013093035086878,0.001315887860725,-0.0013065982777982,0.0013186003961555,-0.0013160095450653,0.001348022136253,-0.0012695510041662,0.0013787697264179,0.72889799533937,128566,2924,0.0047136748702291,0.0071220477124167,0.0051877643380489,37.197715394039,5.7581723152315e-05,5.7581723152315e-05,5.7581723152315e-05,3413997.5392823,0.017170240024953
38591759,0.96978896975205,0.017265485958309,0.005120603656461,0.0067224807884192,0.005422401513429,-0.0011375502745275,0.0011320320954343,-1.2901858596178e-05,1.7754871206736e-06,-1.0211410511953e-06,1.5231188414794e-07,-0.00047662151522635,0.00047137639580487,-0.0012011673083023,0.0011968853454075,-0.0011965155556172,0.0012169543854411,-0.00050044588644055,0.00045665178398558,-0.00047776326685567,0.00047023450462438,-0.0012023084053792,0.0011957309376869,-0.0011976567070204,0.0012158002525329,-0.0013683460141618,0.0013622434791215,-0.0013645193858327,0.0013687603124382,-0.0013679619039933,0.0013626371008616,-0.0013641352772898,0.0013691539145163,-0.0011279234344848,0.0011066431829766,-0.0011153934598518,0.0011012290075049,-0.0011283102587867,0.001106253059403,-0.0011157810911548,0.0011008397386402,-0.0004993047564867,0.00045779377390823,4.5961031841185e-07,-6.953664158357e-07,-4.1837462678783e-06,3.9585488917801e-06,-0.0017205494058559,0.0017203226237794,-0.0016415331757513,0.0016496713949957,-0.001665991966581,0.0016641835700649,-0.0016642717625775,0.0016601918452892,-0.0017538267444429,0.0017512735697777,-0.0017524827018135,0.0017553569909776,-0.0017537637982948,0.0017504393835292,-0.0017543803500868,0.0017564828972585,-0.0016493070923317,0.0016407204674085,-0.0016503778987227,0.0016577421166995,-0.0016647064300514,0.0016683209946066,-0.0016470476591786,0.0016483924242235,-0.0016450976089881,0.0016372835712119,4.8875463462661e-06,2.0200503108005e-05,-0.0012490167950015,0.0012529364047097,5.5022204961087e-06,-2.6587391841061e-06,-0.001245935609786,0.00124812760247,-0.0013449811877262,0.001302834800579,-0.0013476475146425,0.0013381527596203,-0.00126467087564,0.0013900849147339,-0.0012379523759439,0.0012561287259573,-0.0013369910871323,0.0013108209719347,-0.0013396648241515,0.0013461458499556,-0.0013701637990177,0.0013742559184983,-0.001372882305746,0.0013715335709287,-0.0013698835908302,0.0013689821373606,-0.0013726051270033,0.0013662626246828,-0.0013217281151198,0.0013484084530615,-0.0013122496943384,0.001318878902352,-0.0013095336383242,0.0013216023099068,-0.0013190050956794,0.0013511243061623,-0.0012726686727785,0.0013820986393564,0.74096370936203,128566,2924,0.0047227830885878,0.0071391762095999,0.0051990550410405,37.193772575767,5.7550180606135e-05,5.7550180606135e-05,5.7550180606135e-05,3407612.062161,0.017208419156813
38791759,0.97185880429881,0.017302174341602,0.0051309218097706,0.0067374385009438,0.0054338140308876,-0.00113959143457,0.0011340429425962,-1.2959743426403e-05,1.771437920604e-06,-1.0289917751801e-06,1.4271598116802e-07,-0.00047595541246836,0.00047072658978707,-0.0012036056804335,0.0011992602809037,-0.001198923746074,0.0012194063597815,-0.00049991060176998,0.00045600990256298,-0.00047709542443005,0.00046958645391699,-0.001204745063332,0.0011981075942066,-0.0012000631719594,0.0012182539383547,-0.0013711061118953,0.0013649683676933,-0.001367259239302,0.0013715073731506,-0.0013707225972668,0.0013653614138636,-0.0013668757246618,0.0013719003984477,-0.0011300092428934,0.0011086254267471,-0.0011174136100474,0.0011031775284275,-0.001130395468394,0.0011082358815288,-0.0011178006500067,0.0011027888641205,-0.0004987712050359,0.00045715017769564,4.5852664871557e-07,-6.9466055522575e-07,-4.1991281048633e-06,3.9735483309042e-06,-0.0017244671457721,0.0017242399806407,-0.0016452402956757,0.0016534073199911,-0.0016697328134284,0.0016679121802029,-0.0016680434755736,0.001663954820551,-0.0017577394424325,0.0017551751527621,-0.0017563906717584,0.0017592741088978,-0.0017576745562873,0.0017543402250554,-0.0017582978838011,0.0017604107765149,-0.0016530402222868,0.0016444240323111,-0.0016541285871108,0.001661522788473,-0.0016684485478213,0.001672071079361,-0.0016507139876376,0.0016520702286249,-0.0016488171154668,0.0016409723160139,4.9180759740607e-06,2.0254742640725e-05,-0.0012515301995185,0.0012554651969917,5.5233566588975e-06,-2.6681353572758e-06,-0.0012487809765756,0.0012510175309535,-0.0013479922878593,0.0013057227930047,-0.0013506635773925,0.0013411374000535,-0.0012675355940872,0.0013932018512797,-0.0012407678455526,0.0012590486072413,-0.0013399723135481,0.0013137388217403,-0.0013426510330425,0.001349160370234,-0.0013730246386145,0.0013771395448829,-0.0013757533234152,0.0013744070104435,-0.0013727535777421,0.001371846991021,-0.0013754852984773,0.0013691172986168,-0.0013245443770044,0.001351292784836,-0.0013150037574888,0.0013216784187993,-0.001312277543578,0.0013244120195864,-0.0013218111769366,0.0013540187932278,-0.0012755633275064,0.0013851856316762,0.74287813495417,128566,2924,0.0047312227683281,0.0071553597126923,0.005209508286018,37.193615382244,5.7548923057952e-05,5.7548923057952e-05,5.7548923057952e-05,3398931.1610526,0.017244106918498
38880000,0.97274380061162,0.017317880815381,0.0051353419561581,0.0067438403858608,0.0054386984733623,-0.0011404384739901,0.0011348748334884,-1.2986307649024e-05,1.7612315563738e-06,-1.0338098671027e-06,1.3744522057249e-07,-0.00047550341114184,0.00047025937320877,-0.0012046411752677,0.0012002656310571,-0.0011999458913257,0.0012204523631106,-0.0004994901951375,0.00045555558566922,-0.00047664295372488,0.0004691196930574,-0.0012057801120791,0.0011991133962274,-0.0012010848690441,0.0012193003828208,-0.0013722901425381,0.0013661342439742,-0.0013684351146824,0.0013726822252624,-0.001371906787725,0.0013665271410076,-0.0013680517596764,0.0013730751023065,-0.0011308714507304,0.0011094414109116,-0.0011182517578814,0.0011039837631827,-0.0011312575204447,0.0011090520150238,-0.0011186386425987,0.0011035952601486,-0.00049835124774646,0.00045669546259665,4.5820412280331e-07,-6.9450900165029e-07,-4.2053231611611e-06,3.9795729139519e-06,-0.0017261577144368,0.001725930378802,-0.0016468391290512,0.0016550178080367,-0.0016713530537954,0.001669527725719,-0.0016696782202884,0.0016655857971263,-0.0017594190215712,0.0017568503291216,-0.0017580684757457,0.001760955654936,-0.0017593538017163,0.0017560153884017,-0.0017599797842677,0.0017620967395349,-0.0016546499122911,0.0016460217344775,-0.0016557455684242,0.0016631517350864,-0.0016700699240143,0.0016736958857085,-0.0016522935509062,0.0016536541472037,-0.0016504202517255,0.0016425631448402,4.9286946488828e-06,2.0275005334756e-05,-0.0012525840673754,0.0012565224283224,5.5313698429892e-06,-2.6724051178896e-06,-0.001250029513459,0.001252267969213,-0.0013492768550913,0.0013069716674575,-0.0013519522537629,0.0013424090114982,-0.0012687852546915,0.0013944945037548,-0.0012420043487884,0.0012603110873104,-0.0013412448753042,0.001314999706172,-0.0013439276993474,0.001350444003913,-0.0013742430361764,0.0013783664311313,-0.001376975814037,0.0013756298004089,-0.0013739760172269,0.0013730681473503,-0.0013767118329217,0.0013703343615269,-0.0013257478243043,0.0013525233281756,-0.0013161796451958,0.0013228696875131,-0.0013134493429147,0.0013256073872479,-0.0013230105302183,0.0013552534207912,-0.0012768250461005,0.0013864662473187,0.7436937109833,128566,2924,0.0047347215563586,0.0071623422088781,0.0052138853519648,37.193609065094,5.7548872520754e-05,5.7548872520754e-05,5.7548872520754e-05,3394349.8789472,0.017259224969298
