time,ASR_ext,ASR_strain,ASR_strain_xx,ASR_strain_yy,ASR_strain_zz,disp_x_101,disp_x_102,disp_x_103,disp_x_104,disp_x_105,disp_x_106,disp_x_p10_neg,disp_x_p10_pos,disp_x_p11_neg,disp_x_p11_pos,disp_x_p12_neg,disp_x_p12_pos,disp_x_p13_neg,disp_x_p13_pos,disp_x_p14_neg,disp_x_p14_pos,disp_x_p15_neg,disp_x_p15_pos,disp_x_p16_neg,disp_x_p16_pos,disp_x_p1_neg,disp_x_p1_pos,disp_x_p2_neg,disp_x_p2_pos,disp_x_p3_neg,disp_x_p3_pos,disp_x_p4_neg,disp_x_p4_pos,disp_x_p5_neg,disp_x_p5_pos,disp_x_p6_neg,disp_x_p6_pos,disp_x_p7_neg,disp_x_p7_pos,disp_x_p8_neg,disp_x_p8_pos,disp_x_p9_neg,disp_x_p9_pos,disp_y_101,disp_y_102,disp_y_103,disp_y_104,disp_y_105,disp_y_106,disp_y_p10_neg,disp_y_p10_pos,disp_y_p11_neg,disp_y_p11_pos,disp_y_p12_neg,disp_y_p12_pos,disp_y_p1_neg,disp_y_p1_pos,disp_y_p2_neg,disp_y_p2_pos,disp_y_p3_neg,disp_y_p3_pos,disp_y_p4_neg,disp_y_p4_pos,disp_y_p5_neg,disp_y_p5_pos,disp_y_p6_neg,disp_y_p6_pos,disp_y_p7_neg,disp_y_p7_pos,disp_y_p8_neg,disp_y_p8_pos,disp_y_p9_neg,disp_y_p9_pos,disp_z_101,disp_z_102,disp_z_103,disp_z_104,disp_z_105,disp_z_106,disp_z_p10_neg,disp_z_p10_pos,disp_z_p11_neg,disp_z_p11_pos,disp_z_p12_neg,disp_z_p12_pos,disp_z_p13_neg,disp_z_p13_pos,disp_z_p14_neg,disp_z_p14_pos,disp_z_p15_neg,disp_z_p15_pos,disp_z_p16_neg,disp_z_p16_pos,disp_z_p1_neg,disp_z_p1_pos,disp_z_p2_neg,disp_z_p2_pos,disp_z_p3_neg,disp_z_p3_pos,disp_z_p4_neg,disp_z_p4_pos,disp_z_p5_neg,disp_z_p5_pos,disp_z_p6_neg,disp_z_p6_pos,disp_z_p7_neg,disp_z_p7_pos,disp_z_p8_neg,disp_z_p8_pos,disp_z_p9_neg,disp_z_p9_pos,humidity,ndof,nelem,strain_xx,strain_yy,strain_zz,temp,thermal_strain_xx,thermal_strain_yy,thermal_strain_zz,vonmises,vstrain
14391759,0,0,0,0,0,0,0,0,0,0,0,0,0,0,0,0,0,0,0,0,0,0,0,0,0,0,0,0,0,0,0,0,0,0,0,0,0,0,0,0,0,0,0,0,0,0,0,0,0,0,0,0,0,0,0,0,0,0,0,0,0,0,0,0,0,0,0,0,0,0,0,0,0,0,0,0,0,0,0,0,0,0,0,0,0,0,0,0,0,0,0,0,0,0,0,0,0,0,0,0,0,0,0,0,0,0,0,0,0,0,0,0,0,0,0,0,0,0,0,0,0,0,0
14591759,0.019304429640278,0.00033942658540473,0.00011314219513491,0.00011314219513491,0.00011314219513491,-2.8344134697144e-05,2.8332150998973e-05,-2.292849984069e-08,-2.0928397156984e-08,-2.3270037952965e-09,-2.8527759497291e-09,-2.4493099365184e-05,2.4400710158832e-05,-2.7559428211415e-05,2.7553035029178e-05,-2.7557080979496e-05,2.7599046254402e-05,-2.4502195820389e-05,2.4419001385925e-05,-2.4492435394983e-05,2.4401193561093e-05,-2.7558946342835e-05,2.7553632085239e-05,-2.7556499317309e-05,2.7599542911214e-05,-2.9744883117244e-05,2.9737068317315e-05,-2.9742180795513e-05,2.975103259547e-05,-2.9745022129036e-05,2.9736876386862e-05,-2.9742364065482e-05,2.9750885163042e-05,-2.7516143535055e-05,2.7475176678868e-05,-2.7507341789666e-05,2.7450652260141e-05,-2.7516010307137e-05,2.747540405426e-05,-2.7507117881056e-05,2.7450788290051e-05,-2.4502670366099e-05,2.4418326219844e-05,-1.9802763032749e-10,4.0069134303411e-10,-1.4520724312694e-08,1.4713775241997e-08,-3.0322608305055e-05,3.0322802657432e-05,-2.9232872872783e-05,2.9261539424561e-05,-2.9526665702821e-05,2.9516562894926e-05,-2.9521645875378e-05,2.9512738804139e-05,-3.080002207506e-05,3.0790408513614e-05,-3.0792511722681e-05,3.0802156803318e-05,-3.079988334166e-05,3.0790622486057e-05,-3.0794794437192e-05,3.0804792454334e-05,-2.9260875700963e-05,2.9232592550735e-05,-2.9241475632305e-05,2.92705287157e-05,-2.9517752126528e-05,2.9527060096727e-05,-2.9488320876599e-05,2.9498825232454e-05,-2.9254203649083e-05,2.9225534585438e-05,-1.4777420018721e-09,3.4505183990857e-08,-2.9301047298e-05,2.9300228108225e-05,1.3618712410289e-08,-1.5354835662916e-08,-2.7904119739301e-05,2.7870834368779e-05,-2.8464502259968e-05,2.8367266737439e-05,-2.8473768751797e-05,2.8430996220709e-05,-2.7918743851304e-05,2.8148984865037e-05,-2.787546839337e-05,2.7899518579925e-05,-2.8435993278333e-05,2.8395755057235e-05,-2.8445276041501e-05,2.8459501542201e-05,-3.0098912186599e-05,3.0100518683418e-05,-3.0108532475036e-05,3.0090892408879e-05,-3.0095902833337e-05,3.0093284128457e-05,-3.0105530177551e-05,3.0083665124638e-05,-2.8717419478361e-05,2.8772648753658e-05,-2.8701665324787e-05,2.8689458265387e-05,-2.8691983535027e-05,2.8699155042424e-05,-2.8707722442119e-05,2.8782329577416e-05,-2.7947428702972e-05,2.8120336403563e-05,0.70642003242655,128566,2924,0.00011806858452466,0.00012633651277444,0.00012207843875344,31.366922295358,1.0935378362862e-05,1.0935378362862e-05,1.0935378362862e-05,622182.94654544,0.00036655108275041
14791759,0.03838300200176,0.00066452259497216,0.00021965487206121,0.00022352637735451,0.00022134134555644,-5.2052261431143e-05,5.2022663852559e-05,-5.618758033316e-08,-4.3020013862395e-08,-1.2604980364223e-09,-1.2930117257687e-08,-4.3558480387834e-05,4.3347513511109e-05,-5.0156227675301e-05,5.0124866409522e-05,-5.0147101401369e-05,5.0228780401666e-05,-4.3579774219577e-05,4.339987305591e-05,-4.3546793123876e-05,4.3359429417312e-05,-5.0144777479811e-05,5.0136581695993e-05,-5.0135684822913e-05,5.0240516788432e-05,-5.5872556063812e-05,5.5851944080436e-05,-5.5863440015013e-05,5.5886460263409e-05,-5.5876264597118e-05,5.5848076876712e-05,-5.5867132071462e-05,5.588258066189e-05,-4.9949432741234e-05,4.9842643151384e-05,-4.9920036288548e-05,4.9791791030974e-05,-4.9945539252088e-05,4.9846567801749e-05,-4.9916176970666e-05,4.9795737866331e-05,-4.3591528248554e-05,4.3387985447531e-05,-3.8034642186107e-09,8.0238017976496e-09,-2.1737002780148e-09,6.2070091744797e-09,-5.6670496509822e-05,5.6674552483169e-05,-5.4039864435945e-05,5.4048134124638e-05,-5.4584942640176e-05,5.4574618215055e-05,-5.4561550836255e-05,5.4574607156037e-05,-5.8632883492801e-05,5.8630261486003e-05,-5.8634277602097e-05,5.8637333693508e-05,-5.8628324535103e-05,5.8633289096256e-05,-5.8633236758345e-05,5.864388342662e-05,-5.4043206793243e-05,5.4042955933633e-05,-5.4042835204961e-05,5.4058944904118e-05,-5.4584129401427e-05,5.4579423420725e-05,-5.4506494485168e-05,5.4525181311205e-05,-5.4032588558039e-05,5.402450962374e-05,7.816995221807e-09,8.5962195266873e-08,-5.4189940960653e-05,5.4198724336191e-05,9.9583114380003e-09,1.5571785444629e-09,-5.0384751156015e-05,5.0388829756929e-05,-5.2210852182865e-05,5.2054683733065e-05,-5.2231947916539e-05,5.2207538009441e-05,-5.0468119326776e-05,5.0923273736339e-05,-5.0376674302942e-05,5.0396981622054e-05,-5.2202637753327e-05,5.2062771777898e-05,-5.2223790985526e-05,5.2215695418738e-05,-5.6795517568392e-05,5.6795582464041e-05,-5.6798326820463e-05,5.6792764236433e-05,-5.6788564980702e-05,5.67700252567e-05,-5.6791397678223e-05,5.6767234359066e-05,-5.2601581672149e-05,5.2762040153628e-05,-5.256485128652e-05,5.2578278232331e-05,-5.2562068588297e-05,5.2581090113535e-05,-5.2598752550776e-05,5.2764793521713e-05,-5.0476307822088e-05,5.0915272749842e-05,0.70581018754647,128566,2924,0.00021679900491376,0.00023610699871027,0.00022578367197079,31.087562360595,8.7004988847637e-06,8.7004988847637e-06,8.7004988847637e-06,1238295.8301497,0.00067892235174876
14991759,0.056244700583548,0.00095965070670851,0.00031511989911041,0.00032519810034183,0.00031933270725627,-7.2179074263286e-05,7.2122407625373e-05,-1.1372830721876e-07,-8.0179025476359e-08,-1.2918480002196e-08,-2.3587108043659e-08,-5.8197752666745e-05,5.78055567387e-05,-6.8526918230353e-05,6.8469391661319e-05,-6.8504054478457e-05,6.8651688398549e-05,-5.8263848297148e-05,5.7909819001321e-05,-5.8187103300559e-05,5.7816511625585e-05,-6.8516364893315e-05,6.848008859637e-05,-6.8493587329897e-05,6.8662457081911e-05,-7.894964727658e-05,7.8904211851e-05,-7.8928597181237e-05,7.8978003423842e-05,-7.895296453346e-05,7.8900724672107e-05,-7.8931863144784e-05,7.8974470495611e-05,-6.8750187971707e-05,6.8533173001076e-05,-6.8684437623014e-05,6.8424140828236e-05,-6.8746577421566e-05,6.8536734043243e-05,-6.8680931094466e-05,6.8427791101875e-05,-5.8274680318245e-05,5.7899001849724e-05,-3.3353875754822e-09,7.5462257991803e-09,1.283214791305e-09,2.785645135876e-09,-8.0409657116213e-05,8.0413730144768e-05,-7.6487707426181e-05,7.6489543682839e-05,-7.8372937264288e-05,7.8365761090419e-05,-7.8355484730299e-05,7.8369893194681e-05,-8.329736352811e-05,8.3297323355326e-05,-8.3303705836567e-05,8.3304985266134e-05,-8.3294500990366e-05,8.3301279294126e-05,-8.3302919492697e-05,8.3311021845961e-05,-7.6471069814656e-05,7.6477320616714e-05,-7.6469589043593e-05,7.6478652469638e-05,-7.837785885438e-05,7.8371763671778e-05,-7.8292422257378e-05,7.8307928238976e-05,-7.6456060515503e-05,7.6455101509672e-05,2.249041550484e-08,1.4741751486827e-07,-7.5853022465641e-05,7.5871525685778e-05,1.2474455453684e-08,1.0786847762055e-08,-7.0071236939453e-05,7.0106934200053e-05,-7.2374773991923e-05,7.2117298926425e-05,-7.2397992027664e-05,7.2370779950209e-05,-7.0269448516566e-05,7.1049416045381e-05,-7.0069962584345e-05,7.0108370987852e-05,-7.2373277739865e-05,7.2118757749134e-05,-7.2396523163517e-05,7.2372280055312e-05,-8.0173462514568e-05,8.0177191613358e-05,-8.0174061081355e-05,8.0176568090349e-05,-8.0166429825458e-05,8.0125139820158e-05,-8.0167054359464e-05,8.0124547414279e-05,-7.4498157106409e-05,7.4801591471284e-05,-7.4398275488766e-05,7.4443551037016e-05,-7.4397788308651e-05,7.444415303617e-05,-7.4497559368302e-05,7.4802067025176e-05,-7.0270870752633e-05,7.1048174805654e-05,0.7049638878437,128566,2924,0.00030058274319575,0.0003349911208674,0.00031604171888374,30.084873877161,6.7899101729142e-07,6.7899101729142e-07,6.7899101729142e-07,1379223.0471174,0.00095207372266065
15191759,0.072482216724806,0.0012085183229307,0.00039456398573312,0.00041224970008705,0.00040170463711051,-8.8429941860569e-05,8.8338775365317e-05,-1.9187148949142e-07,-1.2830586390359e-07,-2.7905638046846e-08,-3.306976743942e-08,-6.6845245364208e-05,6.6191133180342e-05,-8.2306027462346e-05,8.222640126754e-05,-8.2261741327551e-05,8.2516587305344e-05,-6.698463512075e-05,6.6394348597597e-05,-6.6839942348257e-05,6.6196657069542e-05,-8.2300838438957e-05,8.2231704217343e-05,-8.2256594695318e-05,8.2521911013168e-05,-9.8687025697576e-05,9.8605642984746e-05,-9.8647613752068e-05,9.8729102432456e-05,-9.8688515322193e-05,9.8604016960107e-05,-9.864904183055e-05,9.8727423492277e-05,-8.3387476817882e-05,8.3024248697273e-05,-8.3267032374752e-05,8.2841413063331e-05,-8.3385667877644e-05,8.3025959903004e-05,-8.3265361524578e-05,8.2843239655592e-05,-6.6990101979909e-05,6.6388917448534e-05,-1.0957048903133e-09,4.3464399276224e-09,7.5265084054082e-10,2.4178536883214e-09,-0.00010090477892246,0.00010090794016265,-9.5556277920751e-05,9.5559146185218e-05,-9.9132472862797e-05,9.9129646027405e-05,-9.9117953081359e-05,9.9126033051251e-05,-0.00010451832038595,0.00010451908967228,-0.00010452781308125,0.00010453018348124,-0.00010451931969613,0.00010452319785831,-0.00010452577770905,0.00010453126131226,-9.5515481545567e-05,9.5518908932943e-05,-9.5493496117519e-05,9.5499968377663e-05,-9.9142380377047e-05,9.9140726400875e-05,-9.9044341211647e-05,9.9053620600041e-05,-9.5498316772879e-05,9.5498167180194e-05,4.4395668751169e-08,2.2023959605731e-07,-9.3860690335647e-05,9.3887653466898e-05,1.8752364894e-08,1.686421543432e-08,-8.5629751744077e-05,8.5702846789434e-05,-8.8068321887861e-05,8.7651659781137e-05,-8.8084993192732e-05,8.8043325691192e-05,-8.6000542865317e-05,8.7222476494265e-05,-8.5628333784349e-05,8.5704490684192e-05,-8.8066713548865e-05,8.7653282353972e-05,-8.8083407656963e-05,8.8044988676924e-05,-0.00010011662258991,0.00010012808214476,-0.00010011730392702,0.00010012735549277,-0.00010011457703547,0.00010004592367485,-0.00010011529366159,0.00010004523997806,-9.3001364505498e-05,9.3463030693314e-05,-9.2807538078077e-05,9.2896401413471e-05,-9.2807013818374e-05,9.2897111112132e-05,-9.3000677266202e-05,9.3463553294902e-05,-8.6002129650945e-05,8.7221073381688e-05,0.66036286729136,128566,2924,0.00036820072054369,0.00042035197051228,0.00039106395484125,28.682613892758,-1.0539088857934e-05,-1.0539088857934e-05,-1.0539088857934e-05,1454441.9480468,0.0011803230287484
15391759,0.08720311594174,0.0014607773615645,0.00047466939647125,0.0005009420393002,0.00048516592579308,-0.00010439058167514,0.00010426831736868,-2.7430977464702e-07,-1.7323547203479e-07,-3.7358618924234e-08,-3.4330894603539e-08,-7.6691515508211e-05,7.5820896288897e-05,-9.7604811189664e-05,9.7510194362279e-05,-9.7538540845692e-05,9.7957116128124e-05,-7.6911750732847e-05,7.6063776183992e-05,-7.6694165696423e-05,7.5818441654949e-05,-9.7607600635796e-05,9.7507442071334e-05,-9.7541371203397e-05,9.7954389172158e-05,-0.00011719852754496,0.00011707659160243,-0.00011713816395585,0.00011724676964407,-0.00011719735314802,0.00011707771301756,-0.000117136914911,0.000117247823762,-9.8973837510696e-05,9.8464002439845e-05,-9.8790428133351e-05,9.8241581931395e-05,-9.8974721088788e-05,9.8462972788134e-05,-9.8791478777653e-05,9.8240702465177e-05,-7.6909284136914e-05,7.6066362099655e-05,2.3636412989433e-09,-2.931653359414e-10,-2.762252303261e-09,4.8093762949217e-09,-0.00012128635341329,0.0001212883862118,-0.00011541446664526,0.00011542468935142,-0.00011988294841886,0.00011988495572457,-0.00011986159922996,0.0001198585781246,-0.00012498868179176,0.00012498902266689,-0.00012499963236805,0.00012500562882939,-0.00012499316524506,0.00012499118390498,-0.00012500130200049,0.00012500497770032,-0.00011537015917769,0.00011536400260623,-0.00011535246256651,0.0001153608635739,-0.00011989360961656,0.00011990075026227,-0.00011972479018961,0.00011972692195551,-0.00011533945740388,0.00011533514279647,6.8850897980571e-08,3.0163837704402e-07,-0.00011168814676842,0.00011172429320422,2.7822836547604e-08,1.9955885909023e-08,-0.00010305363624311,0.00010316559347676,-0.00010491667374609,0.0001043064824022,-0.00010493619503985,0.0001048754752066,-0.00010360419095032,0.00010534868768926,-0.00010304649311293,0.00010317302947833,-0.00010490925615761,0.00010431389609921,-0.00010492883938682,0.00010488295874884,-0.00011908058825377,0.00011910131557787,-0.00011908326621093,0.00011909856982539,-0.00011908342247295,0.00011898970668479,-0.00011908615444598,0.0001189870202889,-0.00011180422372549,0.00011241244680042,-0.00011152592689032,0.0001116610864363,-0.00011152343580213,0.00011166378939669,-0.000111801542516,0.0001124149425404,-0.00010361157578529,0.0001053415378186,0.73442855369251,128566,2924,0.00043461348253519,0.00050523276968721,0.00046533221429284,27.26979400749,-2.1841647940078e-05,-2.1841647940078e-05,-2.1841647940078e-05,1247658.0640277,0.0014061792951612
15591759,0.10071685990507,0.0016989624438975,0.00054988384775999,0.00058512066139217,0.00056395793474531,-0.0001188840820756,0.00011873499920338,-3.4946292043715e-07,-2.0770079576296e-07,-4.7101766157616e-08,-3.3654541289099e-08,-8.6291029017986e-05,8.5292581619083e-05,-0.00011160395079526,0.00011149655850063,-0.00011151632537019,0.00011207538508952,-8.6593791277395e-05,8.5511923245271e-05,-8.6303814288923e-05,8.5279947170788e-05,-0.00011161688534601,0.00011148353511873,-0.00011152929962377,0.00011206240267917,-0.00013391025801105,0.00013374894551804,-0.00013383016801048,0.00013396156519308,-0.00013390568651863,0.00013375356272883,-0.00013382551125952,0.00013396609895557,-0.00011304459872388,0.0001124009139756,-0.00011280118060007,0.00011216256442371,-0.000113048915839,0.00011239639657773,-0.00011280568622732,0.00011215823605736,-8.658118876875e-05,8.5524739936034e-05,6.6371805631861e-09,-6.3359207916675e-09,-1.0814720510146e-08,1.1181311722602e-08,-0.00013994146851632,0.00013994181060417,-0.00013372278974879,0.00013374889920277,-0.00013900417063765,0.00013900976580995,-0.00013898434793287,0.00013896462860141,-0.00014369512491683,0.00014369238463626,-0.00014370488067946,0.00014371752217789,-0.00014370380874156,0.00014369183719681,-0.00014371157784381,0.00014371498345507,-0.00013368348903754,0.00013365811164805,-0.00013367163056495,0.00013368900668377,-0.00013901338297034,0.00013903375555736,-0.00013880844824569,0.00013880350852573,-0.00013364000619905,0.00013362336663783,9.1776000999072e-08,3.8111261927272e-07,-0.00012786860750151,0.00012791296107424,4.0961710970634e-08,1.8605527900482e-08,-0.00011896182842793,0.00011910194197023,-0.00012040714295329,0.00011958841635779,-0.00012042828112038,0.00012033948377139,-0.00011965510824021,0.0001219039642184,-0.00011894064044532,0.00011912350601456,-0.00012038558294528,0.00011960996770159,-0.00012040682850346,0.00012036112965436,-0.00013627307976096,0.00013630532669866,-0.00013628058952722,0.00013629772403638,-0.00013627749679315,0.00013616611730142,-0.00013628508161514,0.0001361585890671,-0.00012894373926104,0.00012969098165229,-0.00012859522897349,0.00012876968662551,-0.00012858794114059,0.00012877721761274,-0.00012893622710333,0.00012969828911367,-0.00011967663403371,0.00012188272592734,0.74589760919537,128566,2924,0.00049492095464252,0.00058291572441884,0.00053273414114288,26.024766729261,-3.180186616591e-05,-3.180186616591e-05,-3.180186616591e-05,1271539.6276266,0.0016118840691636
15791759,0.11390838036533,0.0019442556926429,0.00062701681025741,0.00067218793660864,0.00064505094577685,-0.00013496549959028,0.00013478653796483,-4.2888319813384e-07,-2.4326507109643e-07,-5.7021730508595e-08,-3.1101374489535e-08,-9.8475917445111e-05,9.7361272259288e-05,-0.00012797884535546,0.00012785586578808,-0.00012786908753919,0.000128582082323,-9.8867262025459e-05,9.7526489762468e-05,-9.850087483035e-05,9.7336388439815e-05,-0.00012800389846682,0.00012783056525669,-0.00012789421674225,0.0001285568070782,-0.00015194408057181,0.00015174176341815,-0.00015184338265709,0.00015200010967547,-0.00015193543093323,0.0001517505567196,-0.00015183463257128,0.00015200882167266,-0.00012907207818427,0.00012828910104884,-0.0001287660085502,0.0001280050298322,-0.00012908049955631,0.00012828043137007,-0.00012877466387934,0.00012799654265399,-9.8842575749623e-05,9.7551481544485e-05,1.1720990477217e-08,-1.3597338961661e-08,-2.4435345692925e-08,2.2732870693839e-08,-0.00016040436951929,0.00016040263181139,-0.00015416576435132,0.0001542185806835,-0.00015981221383883,0.00015981942552655,-0.00015979484573349,0.00015975243984791,-0.00016409567811836,0.00016408660434839,-0.00016410102634017,0.000164124145594,-0.00016410843421397,0.00016408186095461,-0.00016411491471916,0.00016412054828145,-0.0001541546534849,0.00015409842585881,-0.00015414883163528,0.00015418467792383,-0.00015981605330541,0.00015985480660336,-0.0001595545459999,0.00015954373859047,-0.00015408929548304,0.00015405009695788,1.1553784988599e-07,4.6850116483221e-07,-0.00014569437014106,0.00014574855473892,6.1189171570105e-08,1.361348096742e-08,-0.00013722163915855,0.00013738209242042,-0.00013824014718073,0.00013719814009273,-0.00013827064414262,0.00013814473631293,-0.00013804542996091,0.00014086168246943,-0.00013717579651287,0.00013742841477309,-0.00013819391239922,0.00013724435155107,-0.00013822453140032,0.00013819110882157,-0.00015485615879108,0.00015490266513635,-0.00015487207407366,0.00015488663103651,-0.00015486177868511,0.00015472889783877,-0.00015487778039204,0.00015471296689224,-0.00014792409913984,0.00014882666402621,-0.00014750220114828,0.00014771505105187,-0.00014748652456352,0.00014773102149941,-0.00014790818131542,0.00014884233944199,-0.00013809161517675,0.00014081585957781,0.78512881782415,128566,2924,0.00056183156216648,0.0006681193520381,0.00060698640190327,25.603875636637,-3.5168994906903e-05,-3.5168994906903e-05,-3.5168994906903e-05,1309764.8565198,0.0018386421384274
15991759,0.12679905360231,0.0021820894707156,0.00070119572767887,0.00075734215707918,0.00072355158595754,-0.00015049109923924,0.00015027394796542,-5.1991573654193e-07,-2.8708347025684e-07,-6.9353514106431e-08,-2.9744413500814e-08,-0.00010957478960314,0.00010827711983213,-0.00014381191715267,0.00014367275117888,-0.00014367732862541,0.00014456754161723,-0.00011006415486464,0.00010842585956813,-0.00010961301435832,0.00010823887778998,-0.00014385027727461,0.00014363397484206,-0.00014371575824618,0.00014452880704619,-0.00016949670074549,0.00016924592921094,-0.00016937239042579,0.00016955459190632,-0.00016948355821705,0.00016925931187223,-0.00016935914941722,0.0001695678889908,-0.00014451966784891,0.00014357473981121,-0.00014414181840389,0.00014323891432764,-0.00014453261744354,0.00014356150699066,-0.00014415499705767,0.00014322587869271,-0.00011002616947445,0.00010846424026811,1.7237942162869e-08,-2.1607757504671e-08,-4.0805606803458e-08,3.6730001489498e-08,-0.00018059669791497,0.00018059257616742,-0.00017421296969167,0.00017429770483335,-0.00018025539728748,0.00018026332355073,-0.00018023313969959,0.00018016487320693,-0.00018422365794393,0.00018420663504461,-0.0001842231392129,0.00018425855912225,-0.00018423923057381,0.00018419564395307,-0.00018424336566026,0.00018425222875768,-0.00017423608586398,0.00017414323025871,-0.00017423989932643,0.00017429858697064,-0.000180251843405,0.00018031156953895,-0.00017990934226546,0.00017989290769416,-0.00017414747574738,0.00017408070334896,1.4293497480011e-07,5.6341509749923e-07,-0.0001630451163814,0.00016311120413306,8.5036257501668e-08,7.0766131217017e-09,-0.00015502790311515,0.00015521059093122,-0.00015564758355409,0.00015436396542922,-0.00015568420032543,0.00015551540605193,-0.0001560073433229,0.00015946045551341,-0.00015495239369145,0.00015528670975509,-0.00015557157038098,0.00015443992743888,-0.00015560837783931,0.00015559156875726,-0.00017294988477968,0.00017301352257314,-0.00017297591379637,0.0001729873448232,-0.00017296055770126,0.00017280195574974,-0.00017298670259888,0.00017277590196529,-0.00016646246123673,0.00016752877493002,-0.00016594779839444,0.00016620488109438,-0.00016592203276922,0.00016623100212867,-0.00016643638392543,0.0001675545587581,-0.00015608335419085,0.00015938490876077,0.77894717773749,128566,2924,0.00062640650647732,0.00075218831776456,0.00067925957598961,25.203879567187,-3.8368963462507e-05,-3.8368963462507e-05,-3.8368963462507e-05,1380511.9543623,0.0020599911829849
16191759,0.1393866203704,0.002412001839168,0.00077236007166424,0.00084030752746841,0.00079933424003539,-0.00016540360286887,0.00016514447086208,-6.1769822852079e-07,-3.3438607312117e-07,-8.2658592941063e-08,-2.8407287612533e-08,-0.00011964553892135,0.00011814115095745,-0.0001590133174236,0.00015885773366853,-0.00015885194709029,0.00015992993504557,-0.00012023945238759,0.00011828621130413,-0.00011969796683237,0.00011808860283774,-0.00015906590356256,0.00015880454860046,-0.00015890460634434,0.00015987679676558,-0.00018650199577896,0.00018619846392047,-0.00018635185583043,0.00018655984169211,-0.00018648404899479,0.00018621675397592,-0.00018633381173961,0.00018657804693971,-0.00015928771634603,0.0001581676063778,-0.0001588309627224,0.0001577799310947,-0.00015930550814168,0.00015814950404132,-0.00015884897843091,0.00015776202270494,-0.00012018725648444,0.00011833889301659,2.3058558364466e-08,-3.025065634292e-08,-5.8610897425514e-08,5.184443805688e-08,-0.00020036436857207,0.00020035754450156,-0.00019369348729267,0.00019381263371683,-0.00020020016466778,0.00020020855677985,-0.00020017146886331,0.00020007524183938,-0.0002039486090384,0.00020392279460994,-0.00020394173610614,0.00020399029566973,-0.000203966521232,0.00020390444826925,-0.00020396795464744,0.00020398026321922,-0.00019375263167004,0.00019362001195412,-0.00019376688296342,0.00019385028678935,-0.00020018832656249,0.00020027046244269,-0.00019975828295462,0.00019973583145394,-0.00019364000347709,0.00019354316209704,1.7285659619532e-07,6.6415347097907e-07,-0.00017981632496348,0.00017989470691368,1.1076182936288e-07,-1.2357137458227e-10,-0.00017219423007994,0.00017240065027857,-0.00017248861795296,0.0001709498808989,-0.00017253521839868,0.00017232230984404,-0.00017334042101495,0.00017746732954989,-0.00017208653565575,0.00017250909477447,-0.00017238033227073,0.00017105808282903,-0.00017242718366729,0.00017243076926998,-0.0001904807115298,0.00019056293935645,-0.00019051770073083,0.00019052577036168,-0.000190498263375,0.00019031044903932,-0.00019053539608658,0.00019027343092372,-0.00018436529943388,0.00018560286500018,-0.00018374743423582,0.00018405345552931,-0.00018371072389884,0.00018409058696778,-0.00018432821444796,0.00018563959699805,-0.0001734487473753,0.00017735958390369,0.77198524069073,128566,2924,0.000688417172875,0.00083448137583485,0.00074911540466154,24.804704288172,-4.156236569462e-05,-4.156236569462e-05,-4.156236569462e-05,1463286.8755273,0.0022746165306827
16391759,0.15170967483467,0.0026377825458472,0.00084179342545084,0.00092232534204077,0.00087366377835561,-0.00017998717521543,0.00017968421893497,-7.213338786516e-07,-3.8390875114607e-07,-9.6499009303424e-08,-2.5927887099158e-08,-0.00012919760006207,0.00012747098972263,-0.00017398898968997,0.00017381757570938,-0.00017379894207288,0.00017507667323424,-0.00012990402921874,0.00012762093511074,-0.00012926585145107,0.00012740250290763,-0.0001740574256235,0.00017374833474901,-0.00017386745621463,0.00017500748515351,-0.00020318661856923,0.00020282686011878,-0.00020300899814088,0.00020324237135398,-0.00020316331565238,0.00020285061998106,-0.00020298560044044,0.00020326604910601,-0.00017375543099186,0.00017244894865616,-0.00017321439544048,0.00017201640085256,-0.00017377862143438,0.00017242542238718,-0.00017323780086777,0.00017199306008661,-0.00012983599860884,0.00012768954484035,2.9514488688796e-08,-3.9907940650572e-08,-7.7632989948454e-08,6.7811757758481e-08,-0.00021997350640408,0.00021996361510278,-0.00021299289550277,0.00021314867358882,-0.00021996294024385,0.00021997235402589,-0.00021992549089356,0.0002197986214408,-0.00022349701145996,0.00022346191691678,-0.00022348340051921,0.00022354597635139,-0.00022351691676324,0.00022343475865493,-0.00022351540902002,0.00022353092952069,-0.00021309446626243,0.00021291913722621,-0.00021311549444464,0.00021322472656155,-0.00021994228716261,0.00022004876616279,-0.00021941484378356,0.00021938507192164,-0.00021295417468357,0.00021282542736939,2.0500818834689e-07,7.7043009955391e-07,-0.0001962820027318,0.00019637369776397,1.3863746316427e-07,-7.2346952944587e-09,-0.00018913981683337,0.00018937219277207,-0.00018914191689797,0.00018733926202693,-0.00018920110527449,0.00018894330691619,-0.00019046168087241,0.00019531360278558,-0.00018899791877582,0.00018951500421363,-0.00018899932901698,0.00018748172325767,-0.00018905883852294,0.00018908609310257,-0.00020768301935135,0.00020778494429379,-0.00020773165175112,0.00020773609739998,-0.00020770903638403,0.0002074891026326,-0.00020775784417497,0.00020744043763754,-0.00020198270952662,0.00020339976371447,-0.00020125148218294,0.0002016102187788,-0.00020120314235022,0.00020165905245869,-0.00020193392281679,0.00020344812705241,-0.00019060436322162,0.00019517164099829,0.77561769461333,128566,2924,0.0007490512970322,0.00091610673503004,0.00081769650995216,24.44743644617,-4.4420508430643e-05,-4.4420508430643e-05,-4.4420508430643e-05,1546612.7738831,0.002485960609009
16591759,0.1638639220449,0.0028681968098991,0.00091223728649028,0.0010064743164949,0.00094948520691392,-0.00019483354083077,0.00019448318446446,-8.3255256335009e-07,-4.3707739535308e-07,-1.1011195123529e-07,-2.2302779455328e-08,-0.00013904694113975,0.00013708237529628,-0.00018961329775119,0.00018942341620202,-0.00018939241788571,0.00019088544171331,-0.00013987357217285,0.0001372361495133,-0.00013913191240828,0.00013699703920269,-0.00018969845280463,0.00018933718630511,-0.00018947766876902,0.00019079928249511,-0.00022004182299808,0.00021962419116788,-0.0002198345284812,0.0002200970589527,-0.00022001289581866,0.0002196537314465,-0.00021980550663963,0.00022012651741924,-0.00018874498727647,0.00018724069154054,-0.00018811345333342,0.00018674606038519,-0.00018877387130581,0.00018721143483226,-0.00018814254765932,0.0001867169847756,-0.0001397888232385,0.000137321607123,3.6016815424155e-08,-5.0420096828655e-08,-9.8109117143801e-08,8.4447005102439e-08,-0.00024009343012014,0.00024007968105849,-0.00023293958913355,0.00023313359579699,-0.00024030493295162,0.00024031473404925,-0.00024025487042969,0.00024009494907999,-0.00024342908429612,0.00024338351214528,-0.00024340877736232,0.00024348558546812,-0.00024344997545542,0.00024334594877363,-0.00024344582593691,0.00024346418909327,-0.0002330887396445,0.0002328675411822,-0.00023311713173517,0.00023325318686835,-0.00024027471947146,0.00024040632886993,-0.00023963023704488,0.00023959215817114,-0.00023291737363746,0.00023275416286991,2.4005324385033e-07,8.85217354282e-07,-0.00021307295399108,0.0002131802055615,1.6862200742937e-07,-1.4369687278572e-08,-0.00020686886472253,0.00020713110255327,-0.00020650687648939,0.00020442010181592,-0.00020658497854418,0.00020628210125305,-0.00020837964910109,0.00021401085069626,-0.00020669070707976,0.00020731037392447,-0.00020632789933753,0.00020459890131386,-0.0002064064097412,0.00020646131207682,-0.00022506585612241,0.00022518904332819,-0.00022512683830014,0.00022512780219036,-0.00022510192176094,0.0002248462964951,-0.0002251631180365,0.00022478527545122,-0.00022008851131136,0.00022170433608102,-0.00021923441337445,0.00021965071065783,-0.00021917373847921,0.00021971195965528,-0.00022002730957601,0.00022176503397449,-0.00020855877476225,0.00021383261359074,0.80315412239062,128566,2924,0.00081076923802395,0.00099984978034367,0.00088763182833654,24.192960710991,-4.6456314312074e-05,-4.6456314312074e-05,-4.6456314312074e-05,1625932.5932461,0.0027019164950397
16791759,0.175848965436,0.0030960247178091,0.00098136505475749,0.0010902798038962,0.0010243798591554,-0.0002094131374342,0.00020901189794553,-9.5223639099599e-07,-4.9409101550326e-07,-1.2402922832207e-07,-1.7817609213337e-08,-0.00014813884594649,0.00014591950650554,-0.0002049913424958,0.00020478219168358,-0.0002047369813548,0.00020646635416589,-0.00014909571577944,0.00014608281948091,-0.00014824166389792,0.00014581621217435,-0.00020509434597318,0.00020467785378561,-0.00020484009867771,0.00020636210460443,-0.00023670251599647,0.0002362238102106,-0.00023646283190405,0.00023675913708668,-0.00023666756425186,0.00023625952172469,-0.00023642778395603,0.00023679476526713,-0.0002035173216634,0.00020179918079383,-0.00020278719619381,0.00020123246525492,-0.00020355228968011,0.0002017638045089,-0.00020282237372379,0.00020119727005714,-0.00014899312441529,0.00014618623979691,4.313961320023e-08,-6.1458680582672e-08,-1.1944703227333e-07,1.0203340863651e-07,-0.00026018735972624,0.00026016984493154,-0.00025279109391608,0.00025302557510255,-0.00026068317764809,0.00026069397375356,-0.00026061904920849,0.00026042444907856,-0.00026331086449848,0.00026325469208135,-0.00026328365013415,0.00026337579166623,-0.00026333287803047,0.00026320606649301,-0.00026332654560651,0.00026334805768934,-0.00025298841173667,0.00025271927655228,-0.00025302547860754,0.00025318982995741,-0.00026064304489041,0.00026080160435489,-0.00025986679326186,0.0002598199899306,-0.00025278419487481,0.00025258522408986,2.7865934488626e-07,1.0088208151385e-06,-0.00022964951442997,0.0002297745301217,1.9973426100986e-07,-2.2201093254157e-08,-0.00022445896597515,0.00022475564306007,-0.0002236708029654,0.00022127754183925,-0.00022377040958398,0.00022341998643368,-0.00022617396916667,0.0002326506500463,-0.00022424277281858,0.000224973137405,-0.00022345365526272,0.00022149444965387,-0.00022355375801857,0.00022363739273851,-0.00024224079509982,0.00024238714062767,-0.00024231473940665,0.00024231289736544,-0.00024228917171102,0.000241994700282,-0.00024236336850692,0.00024192071484351,-0.00023799580274527,0.00023982755808453,-0.00023700720574581,0.00023748721713977,-0.00023693358452575,0.00023756148259677,-0.00023792157739652,0.00023990119609403,-0.00022639131104737,0.00023243437018505,0.80668160166766,128566,2924,0.00087136648715118,0.0010834774760887,0.00095667444001658,23.941094389413,-4.8471244884693e-05,-4.8471244884693e-05,-4.8471244884693e-05,1706123.5654523,0.0029157841400932
16991759,0.18766061921697,0.0033156557037334,0.0010475757600181,0.0011716860100318,0.0010963939336835,-0.00022346926678658,0.00022301720622184,-1.0764837988316e-06,-5.5349111593304e-07,-1.3841886502161e-07,-1.3124199871694e-08,-0.00015622917402258,0.00015373916744158,-0.00021961772000115,0.00021939003445489,-0.00021932797985413,0.00022129994086556,-0.00015732291071015,0.00015392397041085,-0.00015635049248605,0.00015361725390163,-0.00021973924114978,0.00021926693398949,-0.00021944962086016,0.00022117693541717,-0.000252971332529,0.00025243228082155,-0.00025269764595374,0.00025303414054778,-0.00025293013213883,0.00025247439086414,-0.00025265635055966,0.00025307616809735,-0.00021761390852551,0.00021567124638946,-0.00021677966396864,0.00021503019218874,-0.00021765518962446,0.0002156295270789,-0.00021682114860687,0.00021498864898033,-0.00015720181041572,0.00015404600102235,5.05542060009e-08,-7.2872259751611e-08,-1.4109305591845e-07,1.1984727101521e-07,-0.00027988611889705,0.00027986475825594,-0.00027211458699108,0.00027239021051678,-0.0002806655012681,0.00028067769447551,-0.00028058786693382,0.00028035768116886,-0.00028285025933053,0.00028278345969007,-0.00028281606189793,0.000282923857225,-0.00028287383930482,0.00028272376243208,-0.00028286489666641,0.00028288942498394,-0.00027235674520192,0.00027203884427911,-0.00027240565067332,0.00027259852033551,-0.00028061554671679,0.00028080180471835,-0.00027971066073534,0.00027965457330391,-0.00027212123056122,0.00027188611680873,3.1914617041835e-07,1.1360765727135e-06,-0.00024568798597068,0.00024583158534945,2.3132702237079e-07,-3.0072315481552e-08,-0.00024126360376655,0.00024159738588683,-0.00024006922565796,0.00023735735943479,-0.0002401888589178,0.00023978878688039,-0.00024319587383421,0.00025053295174804,-0.00024100884315895,0.00024185363171466,-0.00023981339064688,0.0002376128907559,-0.00023993360642107,0.00024004490267713,-0.00025900036916666,0.00025917076026983,-0.00025908744813132,0.00025908334464205,-0.00025906223511989,0.0002587276453549,-0.00025914960459571,0.00025864052497916,-0.00025529228218582,0.00025734906882053,-0.00025416146779641,0.00025470904673186,-0.00025407472495926,0.00025479650369665,-0.00025520485766113,0.00025743582035235,-0.00024345196277003,0.00025027810070012,0.79134032402035,128566,2924,0.00092978198111121,0.0011654529566237,0.0010234742030444,23.689330470345,-5.0485356237236e-05,-5.0485356237236e-05,-5.0485356237236e-05,1786087.8133889,0.0031236023644732
17191759,0.19902437265835,0.0035213952207494,0.0011092935736843,0.0012484654735779,0.0011636361734871,-0.00023608433198115,0.00023558376780433,-1.1988975772729e-06,-6.1086675518158e-07,-1.5359293285142e-07,-7.3236395968968e-09,-0.00016283585862717,0.0001600652498971,-0.00023252698873354,0.00023228253420464,-0.00023220130035586,0.00023441947159061,-0.00016406961197506,0.00016029065643348,-0.00016297753582688,0.00015992285791971,-0.0002326688917809,0.00023213881733669,-0.00023234332000085,0.00023427585137804,-0.00026783913209126,0.00026724068864145,-0.00026753107778356,0.00026791054893899,-0.00026779104846568,0.00026728982696899,-0.00026748290227455,0.00026795960654789,-0.0002300791821015,0.00022791450127415,-0.0002291398954107,0.00022720282083802,-0.00023012740924655,0.00022786580788938,-0.00022918831671435,0.00022715429888653,-0.00016392813339174,0.00016043315657272,5.8881663389844e-08,-8.5260973488499e-08,-1.6262663793968e-07,1.3749261161224e-07,-0.00029801762495234,0.00029799236247929,-0.00028975305439528,0.00029007011734149,-0.0002990240075679,0.00029903949249117,-0.00029893648365925,0.00029866889713164,-0.00030091966624026,0.00030084290536837,-0.00030087851055242,0.00030100243916001,-0.00030094578680244,0.00030077185429671,-0.0003009342369876,0.00030096100321778,-0.00029003599935519,0.00028966892510157,-0.00029009726970882,0.00029031769490515,-0.00029896442099875,0.00029918008201361,-0.00029793913042999,0.00029787175026042,-0.00028977195173268,0.0002895015441881,3.6016244696125e-07,1.2612903153892e-06,-0.00026015785169495,0.00026031862168842,2.6212993175294e-07,-3.8447415468724e-08,-0.00025614805543266,0.00025651977383617,-0.00025467884860475,0.0002516498713949,-0.00025481623327473,0.00025436593899285,-0.00025829370718556,0.00026646433496607,-0.00025585500241588,0.00025681449299665,-0.00025438460656149,0.00025194374941384,-0.0002545226588196,0.00025466048141588,-0.00027430564508018,0.00027450034148858,-0.00027440576422878,0.000274399851128,-0.00027438072222686,0.00027400597487879,-0.00027448116862562,0.00027390581466427,-0.00027089205515443,0.00027317427832372,-0.00026961997754325,0.00027023604285263,-0.00026952020831151,0.00027033659538544,-0.00027079152613161,0.00027327405095532,-0.00025858826987072,0.00026617117973217,0.77293680555633,128566,2924,0.00098220087810465,0.0012408991617716,0.0010837377469773,23.131793792984,-5.4945649656129e-05,-5.4945649656129e-05,-5.4945649656129e-05,1857743.843553,0.0033123389635916
17391759,0.20958206953092,0.0037047501937666,0.0011641109910881,0.0013173083206592,0.0012233308820193,-0.00024648281792557,0.0002459392783514,-1.3139753180503e-06,-6.6241329542551e-07,-1.6895748796048e-07,-8.9819767692982e-10,-0.00016747322416166,0.00016443808936777,-0.00024285940805339,0.00024260262750132,-0.00024249869496821,0.00024495359178932,-0.00016884399907894,0.00016470671100952,-0.00016763608285721,0.00016427439710593,-0.00024302252730424,0.00024243749483665,-0.00024266191338129,0.00024478855163452,-0.00028046286345584,0.00027980796162415,-0.00028012173882742,0.00028054324181065,-0.0002804076198031,0.00027986439554358,-0.00028006640977859,0.00028059959730904,-0.00024008057260939,0.00023770666880202,-0.00023904042890986,0.00023693391916646,-0.00024013602052471,0.00023765072493921,-0.00023909605618622,0.00023687814506654,-0.00016868129840232,0.00016487050901955,6.7703443835007e-08,-9.7996186649405e-08,-1.8317757415664e-07,1.5429614808468e-07,-0.00031353202402704,0.00031350300279105,-0.00030462863310284,0.00030498576299384,-0.00031465456216848,0.00031467493391059,-0.0003145604724719,0.00031425542185479,-0.00031651763919133,0.00031643193738182,-0.00031646971093744,0.0003166095773526,-0.00031654730255186,0.00031634999132559,-0.00031653301523964,0.00031656127734537,-0.00030494732049134,0.00030453272655757,-0.00030501887511629,0.00030526493063939,-0.00031458625907669,0.0003148316994952,-0.00031345532460869,0.00031337536169025,-0.00030465819123023,0.00030435468806843,3.9945441548083e-07,1.3778855817311e-06,-0.0002721805209939,0.00027235533477713,2.905906534336e-07,-4.7326631051842e-08,-0.00026809768110568,0.00026850549637432,-0.00026656479703289,0.0002632358827267,-0.00026671698801827,0.00026621802280167,-0.00027044311928313,0.00027936983422787,-0.00026776812232582,0.00026883688491416,-0.00026623394803301,0.00026356631825975,-0.00026638688235372,0.00026654918485473,-0.00028727819283429,0.00028749641602699,-0.00028739073922978,0.00028738346571159,-0.00028736505459497,0.00028695228654117,-0.0002874779631075,0.00028683969648852,-0.00028382463651744,0.00028631935314184,-0.00028241947889522,0.0002831007741769,-0.00028230730068693,0.00028321381125046,-0.00028371161952205,0.00028643154322847,-0.00027077436153947,0.00027904014641803,0.7441137303416,128566,2924,0.0010254023709232,0.0013054494220867,0.0011338059914912,22.131799832254,-6.2945601341964e-05,-6.2945601341964e-05,-6.2945601341964e-05,1917518.0965516,0.0034706976018285
17591759,0.21937223729643,0.0038681598776202,0.0012128930324357,0.0013789298606716,0.0012763369845129,-0.00025559526787796,0.00025501579522559,-1.4195407844752e-06,-7.0759386387685e-07,-1.828867560229e-07,7.013964113523e-09,-0.00017121085915486,0.00016793370896211,-0.00025164615891747,0.00025138447109222,-0.00025125194134828,0.00025393652645686,-0.00017271227988104,0.0001682492235254,-0.00017139496130534,0.00016774864151635,-0.00025183055295963,0.0002511978819888,-0.00025143641862214,0.00025375000198237,-0.00029173689081507,0.00029102918428229,-0.00029136440471018,0.00029182719385861,-0.00029167449585988,0.00029109292756163,-0.00029130192963336,0.00029189086834005,-0.00024861807424476,0.00024605120343442,-0.00024748341138579,0.00024522671335841,-0.00024868074968465,0.00024598800118904,-0.00024754625758657,0.00024516366396672,-0.00017252831877564,0.00016843434923062,7.6467839787036e-08,-1.1087607918109e-07,-2.0313993096771e-07,1.7027598245277e-07,-0.00032736148685875,0.00032732847007203,-0.00031772268759289,0.00031811827599522,-0.00032850676143012,0.00032853232383653,-0.00032840691330871,0.00032806458002692,-0.00033055388877349,0.00033045950179038,-0.00033049909178331,0.00033065419506891,-0.00033058791250849,0.00033036744241625,-0.00033057009452577,0.00033059912253071,-0.00031807447090682,0.00031761348050136,-0.0003181446958376,0.00031841475434196,-0.00032843058222505,0.0003287051457932,-0.00032720062641101,0.00032710732185508,-0.00031776346160204,0.00031742802781699,4.3643290695633e-07,1.4852963065052e-06,-0.0002827090686845,0.00028289571045205,3.1712069107141e-07,-5.671607195658e-08,-0.00027821407811143,0.00027865473374442,-0.00027678724870961,0.00027318311116343,-0.00027695156722068,0.00027640597464897,-0.00028073509619973,0.00029033675446304,-0.00027784937407647,0.00027902144898251,-0.0002764211823656,0.00027354871989115,-0.00027658631256259,0.00027677238731572,-0.0002988231314998,0.00029906382266803,-0.00029894762590828,0.00029893887979669,-0.00029892031004398,0.00029847194974975,-0.00029904520269229,0.00029834740659462,-0.0002950685214473,0.00029776499301632,-0.00029354069401028,0.00029428273371364,-0.00029341658232652,0.00029440779945532,-0.00029494349266338,0.00029788912139917,-0.00028110163181822,0.00028997192120483,0.71798588962689,128566,2924,0.0010632637831657,0.0013629838839128,0.0011776488472745,21.120543782056,-7.1035649743548e-05,-7.1035649743548e-05,-7.1035649743548e-05,1974910.2415817,0.0036104333249398
17791759,0.22845291534152,0.0040145975217059,0.0012565847257889,0.0014343296197882,0.0013236831761289,-0.0002636473693044,0.00026303740760749,-1.5166115975483e-06,-7.4743120642629e-07,-1.9700568503499e-07,1.5059556103959e-08,-0.00017435546689665,0.00017083946654907,-0.00025921195379301,0.00025894859315707,-0.00025878563050576,0.00026168480838516,-0.00017598125895694,0.00017121752346564,-0.0001745611420245,0.00017063272867475,-0.0002594179802438,0.00025874026239755,-0.00025899171549266,0.0002614765168264,-0.00030185687604259,0.00030110060514158,-0.00030145479755677,0.00030195830100689,-0.00030178718919488,0.00030117176040994,-0.00030138503383018,0.00030202939597045,-0.00025600900392815,0.00025326429204015,-0.00025478551800642,0.00025239575582281,-0.00025607903371158,0.00025319372092764,-0.00025485570300469,0.00025232532219645,-0.00017577569257984,0.0001714242875455,8.5813424846283e-08,-1.2352178981287e-07,-2.2137317078221e-07,1.8531168901718e-07,-0.00033973274532805,0.00033969652411159,-0.00032928418517999,0.00032971651056986,-0.000340825890952,0.00034085868810677,-0.00034072552018208,0.00034034728232054,-0.00034323802965332,0.00034313674983443,-0.0003431767345054,0.00034334708662954,-0.00034327729953015,0.00034303522434685,-0.00034325612958731,0.00034328569347615,-0.00032966672633754,0.00032916262757062,-0.00032972933656265,0.00033002144274993,-0.0003407432047192,0.00034104715615652,-0.00033943388056905,0.00033932682452894,-0.00032933588874673,0.00032897203594366,4.7107748914973e-07,1.5841091009073e-06,-0.00029197817361009,0.00029217510837889,3.4134170666809e-07,-6.5733464561426e-08,-0.00028681101268202,0.00028728236983821,-0.0002856844775,0.00028183257077923,-0.00028585842278346,0.00028526996673108,-0.00028949190838749,0.00029970687105144,-0.00028641377463962,0.0002876817634422,-0.0002852858175571,0.00028223073097962,-0.00028546063175951,0.00028566898623557,-0.00030914423505425,0.0003094066013825,-0.00030927978860577,0.00030927056664819,-0.00030925021280783,0.0003087691674037,-0.00030938619461701,0.00030863356218406,-0.00030487888098229,0.00030776195147223,-0.00030323839770496,0.00030403763285213,-0.00030310323682773,0.00030417382196208,-0.00030474273746212,0.00030789713595382,-0.00028989110836004,0.00029930949489547,0.69669206739402,128566,2924,0.0010967217636476,0.0014144492278178,0.0012162451004218,20.125359378051,-7.8997124975594e-05,-7.8997124975594e-05,-7.8997124975594e-05,2030123.9051216,0.0037344109910183
17991759,0.23688338188232,0.0041485972224117,0.0012965793579273,0.001485112037567,0.0013669058269174,-0.00027089271221267,0.00027025321376797,-1.6072168503682e-06,-7.8295943667362e-07,-2.1333181620802e-07,2.0722915870109e-08,-0.00017720778614887,0.00017342765369978,-0.00026595490733547,0.00026568417201611,-0.00026549769741517,0.00026859116235445,-0.00017895270529831,0.00017390405282032,-0.00017743492531344,0.00017319939062184,-0.00026618244258582,0.00026545427607394,-0.00026572527065718,0.00026836128551797,-0.00031102249668257,0.00031021580052444,-0.00031059155014725,0.00031112971689986,-0.00031094551999515,0.00031029430103089,-0.00031051450726259,0.00031120816374197,-0.00026263752192334,0.00025972706787614,-0.00026132981053857,0.00025882082197513,-0.00026271485802161,0.00025964917907718,-0.00026140729165416,0.00025874305945751,-0.0001787256487905,0.00017413231560226,9.546124462882e-08,-1.3573920259246e-07,-2.3747793541367e-07,1.9892393905431e-07,-0.00035095550811177,0.0003509167924849,-0.00033969458609381,0.00034016081786819,-0.00035198394172724,0.00035202577215025,-0.0003518941480376,0.0003514820371478,-0.00035481675237531,0.00035471040334863,-0.00035474993355826,0.00035493500585971,-0.00035486313177859,0.00035460138274414,-0.00035483939753625,0.00035486907653942,-0.00034010705895834,0.00033956408455477,-0.00034016059124796,0.00034047201338792,-0.00035189651745822,0.00035222929259202,-0.00035052579995796,0.00035040466440724,-0.00033975537832247,0.00033936724008459,5.0413163532087e-07,1.6764245729728e-06,-0.00030028063319708,0.00030048732901241,3.6308751761681e-07,-7.3684384412209e-08,-0.0002944130327156,0.00029491550402288,-0.00029369097156568,0.00028961353414165,-0.00029387315217546,0.00029324668313455,-0.0002972412062491,0.0003080317736308,-0.00029398671427004,0.000295344053556,-0.00029326320561402,0.00029004077387948,-0.00029344628568206,0.00029367481143653,-0.00031846592285309,0.00031874869075096,-0.00031861136319925,0.00031860274877639,-0.00031857926290978,0.00031806681527357,-0.00031872515083658,0.00031792132148321,-0.00031362293859431,0.00031667843312639,-0.00031187776337178,0.00031273220842172,-0.00031173272546343,0.00031287832839822,-0.00031347687277274,0.00031682350403446,-0.00029766956202632,0.00030760531752817,0.68920300325127,128566,2924,0.0011268228626004,0.0014611348183401,0.0012508159673622,19.153797277868,-8.6769621777056e-05,-8.6769621777056e-05,-8.6769621777056e-05,2079882.1697398,0.0038461951375901
18191759,0.2447036341323,0.0042747893356758,0.0013342799108029,0.0015329371966605,0.0014075722282125,-0.00027753712971736,0.00027687346602439,-1.6911936152617e-06,-8.1371809287361e-07,-2.2746492274109e-07,2.8739394629977e-08,-0.00017993815269957,0.00017594089757738,-0.00027225499228191,0.00027198129787842,-0.00027176862524979,0.00027504923212912,-0.0001817976284454,0.00017648104175383,-0.00018018692212158,0.00017569097544466,-0.00027250419824038,0.00027172969968719,-0.00027201785682183,0.00027479764335838,-0.00031939586684322,0.00031854655502993,-0.00031893788215869,0.00031951433032634,-0.00031931153409785,0.00031863245305855,-0.00031885348784932,0.00031960017849806,-0.00026883655666336,0.00026577306914536,-0.00026744952013334,0.00026483349254556,-0.00026892126197071,0.00026568780481834,-0.00026753436405008,0.00026474834790556,-0.00018154892208602,0.00017673094751629,1.0551541751863e-07,-1.4771939175059e-07,-2.5229526979985e-07,2.118744412039e-07,-0.00036129656427573,0.00036125598095103,-0.00034932642584861,0.0003498253368665,-0.00036228589679129,0.00036233819778616,-0.00036220724079339,0.00036176238524032,-0.00036547477414993,0.00036536468203397,-0.00036540298341873,0.00036560281048068,-0.00036552794945617,0.00036524773315434,-0.00036550192601049,0.00036553163533317,-0.00034976956554739,0.00034919018949758,-0.00034981666536158,0.00035014605877839,-0.00036219397862452,0.00036255572433166,-0.00036076512387967,0.00036062974482634,-0.00034939621470893,0.00034898638234472,5.356092785202e-07,1.7635136619948e-06,-0.00030785761978788,0.00030807429599364,3.8359873956317e-07,-8.093025048468e-08,-0.00030150434375308,0.00030203743659525,-0.00030118726220451,0.00029689816023297,-0.00030137867404611,0.00030071755073571,-0.00030446941213441,0.00031580182199057,-0.00030105085211658,0.00030249321712573,-0.00030073229632498,0.00029735257344128,-0.00030092463504239,0.00030117287757589,-0.00032695610972524,0.00032725842082219,-0.00032711079423853,0.00032710321975811,-0.00032707623090954,0.00032653380656562,-0.00032723137869758,0.00032637906863774,-0.0003216491560803,0.00032485916148722,-0.00031980620455956,0.00032071338712588,-0.00031965192967408,0.00032086878133467,-0.00032149381988623,0.00032501347551051,-0.00030492500157818,0.00031534819147744,0.70094114744725,128566,2924,0.0011544333374073,0.0015041511509618,0.001282367059953,18.182837726012,-9.4537298191902e-05,-9.4537298191902e-05,-9.4537298191902e-05,2117818.1924741,0.0039487752408045
18391759,0.25213179071518,0.0043949073210122,0.0013701818299104,0.0015785037906029,0.0014462217004989,-0.00028428492384829,0.00028360028872224,-1.7724466536607e-06,-8.4341459679489e-07,-2.4079314836078e-07,3.9706393694045e-08,-0.0001828762912701,0.00017867851705146,-0.00027873227158442,0.00027846158787979,-0.00027821753919197,0.00028168693478368,-0.00018485007310841,0.00017927156592681,-0.00018314880151476,0.00017840485830802,-0.00027900526150799,0.00027818620600064,-0.00027849054722143,0.00028141156373926,-0.0003278093295971,0.00032692070846096,-0.00032732481622952,0.00032794148381732,-0.0003277168899228,0.00032701471795665,-0.0003272323174362,0.00032803544303023,-0.00027523838715087,0.00027202854123111,-0.00027377281598358,0.00027105011792831,-0.00027533119051794,0.00027193517820625,-0.00027386575211745,0.00027095687808382,-0.00018457760553696,0.00017954522237578,1.1705017177935e-07,-1.6035873851281e-07,-2.6557688737321e-07,2.241155939503e-07,-0.00037161787039264,0.00037157624963058,-0.00035898788704413,0.00035951882484836,-0.00037258236848969,0.00037264883602205,-0.00037251417498582,0.00037203605433981,-0.00037608032994947,0.0003759687869963,-0.00037600415813212,0.0003762195522379,-0.00037614054954407,0.00037584270716668,-0.00037611278112312,0.00037614187906686,-0.00035946120379108,0.00035884773111308,-0.00035950538219891,0.00035985064489366,-0.00037248597711594,0.00037287890400006,-0.00037100122863886,0.00037084958967166,-0.00035906560529281,0.00035863782480077,5.6696355204524e-07,1.8492731652654e-06,-0.00031547874887526,0.00031570618081372,4.0318507334503e-07,-8.6883759298719e-08,-0.00030875765893821,0.00030932328996522,-0.00030881013708703,0.00030431568372571,-0.000309011162271,0.00030831892964019,-0.00031186010597197,0.00032372539672043,-0.00030827917623771,0.00030980409070377,-0.00030833015098619,0.00030479509194629,-0.0003085321222064,0.00030879926083372,-0.00033544358656461,0.00033576520933426,-0.00033560678465041,0.00033560149387005,-0.00033557064911856,0.00033499884446088,-0.00033573431941887,0.00033483559748389,-0.00032973857449067,0.00033310300697842,-0.00032780029132047,0.00032876096800377,-0.00032763751022702,0.00032892488577115,-0.00032957471002834,0.00033326583162867,-0.00031234073497341,0.00032324676255406,0.70344890372652,128566,2924,0.0011824803091265,0.0015470849411694,0.0013141023774727,17.511476529722,-9.9908187762222e-05,-9.9908187762222e-05,-9.9908187762222e-05,2152888.2883906,0.0040519060616128
18591759,0.25943287072012,0.0045103086352725,0.0014046607710548,0.0016223961004517,0.001483251763766,-0.00029151807957966,0.00029081350257964,-1.8532158703629e-06,-8.7310048471938e-07,-2.5452880475001e-07,5.2013845793481e-08,-0.00018618748324962,0.00018178334965669,-0.00028561919895211,0.00028535471190698,-0.00028507609644159,0.00028873853530521,-0.00018827714231532,0.00018243440795811,-0.00018648547469384,0.00018148418240582,-0.00028591765910363,0.0002850538003888,-0.00028537457660735,0.00028843762708133,-0.0003367578656556,0.00033583073332007,-0.00033624693716185,0.00033690478064221,-0.00033665671843554,0.00033593343779148,-0.00033614572825435,0.00033700743635054,-0.00028209944061639,0.00027874389654048,-0.00028055540096945,0.00027772391169693,-0.00028220091333639,0.00027864185410565,-0.00028065701141619,0.00027762198598429,-0.00018797920979192,0.00018273355175317,1.2921278768129e-07,-1.7403640521118e-07,-2.784050256131e-07,2.3559374048277e-07,-0.00038241331125279,0.00038237033949834,-0.00036907358508773,0.00036963562456265,-0.00038334347485985,0.00038342588061592,-0.0003832871734901,0.00038277413646713,-0.00038718590372429,0.00038707357923395,-0.00038710579685716,0.00038733662345115,-0.00038725366719976,0.00038693772194878,-0.00038722430681977,0.00038725151976841,-0.00036957529785415,0.00036892803241927,-0.00036961606926102,0.00036997512855635,-0.00038324310693965,0.0003836681691361,-0.00038170429322375,0.00038153395001292,-0.00036915767987851,0.00036871342423878,5.9831953100347e-07,1.9353567448701e-06,-0.00032355753752757,0.00032379613550121,4.2239280062353e-07,-9.198632983703e-08,-0.00031638817950219,0.00031698717332971,-0.00031682361206728,0.00031212613153763,-0.00031703346109977,0.00031631123840951,-0.00031963224050673,0.00033202681219832,-0.00031588591496352,0.00031749181277141,-0.00031631982325837,0.00031262932063969,-0.00031653063025217,0.00031681537190428,-0.00034442997262089,0.00034477063935106,-0.00034460128023179,0.00034459881772807,-0.00034456390685786,0.0003439624730937,-0.00034473568978453,0.00034379112652336,-0.00033825824889683,0.00034177884380672,-0.00033622376383339,0.00033723847776351,-0.00033605288936606,0.00033741051918824,-0.00033808627316843,0.00034194976167425,-0.00032013667743094,0.00033152441032128,0.68932006233216,128566,2924,0.0012125490996497,0.0015919882576126,0.0013477417555057,17.263648662395,-0.00010189081070084,-0.00010189081070084,-0.00010189081070084,2195110.3766388,0.0041609678781293
18791759,0.2666136236616,0.0046308058026665,0.0014406873407468,0.0016681368996556,0.0015219815622641,-0.00029898320922306,0.00029826122859364,-1.9328476789569e-06,-9.0124187312557e-07,-2.6584192646224e-07,6.736401874652e-08,-0.00019013963372613,0.00018552946073096,-0.00029309620068654,0.00029284169470046,-0.0002925246461849,0.00029638701403681,-0.00019234683653347,0.00018623666627668,-0.00019046368973532,0.00018520420711332,-0.00029342071597448,0.0002925146345881,-0.0002928491929365,0.00029605996930175,-0.00034577796657653,0.00034481603178945,-0.00034524042387235,0.00034594391856551,-0.0003456679708478,0.00034492764305998,-0.00034513036282792,0.00034605547753384,-0.00028949884782993,0.00028600224669693,-0.00028787590132987,0.00028492159796397,-0.00028960919015079,0.00028589131680419,-0.00028798638531567,0.0002848107901311,-0.0001920228487577,0.00018656190889281,1.4156158090858e-07,-1.8818479262328e-07,-2.9116670216013e-07,2.4668110221066e-07,-0.00039340996745146,0.00039336531670722,-0.00037954437164169,0.00038013695140816,-0.00039434977020572,0.00039444852229253,-0.0003943031305936,0.00039375439897888,-0.00039839424507635,0.0003982811618705,-0.00039831058942255,0.00039855657468265,-0.00039846917377193,0.00039813474617253,-0.00039843846964384,0.00039846311692934,-0.00038007837141583,0.00037939723557868,-0.00038012107091692,0.00038049294759563,-0.00039424530876922,0.0003947026271524,-0.00039264197284017,0.00039245184358258,-0.00037963587804123,0.00037917547179381,6.3057150676887e-07,2.0239441651741e-06,-0.00033183790546859,0.00033208962786474,4.4283157844535e-07,-9.5420630014532e-08,-0.00032463324190831,0.00032526802946022,-0.00032542465494789,0.00032052302573935,-0.00032564633588265,0.00032489682383924,-0.0003280188293281,0.00034097028017392,-0.00032410766661569,0.00032579606738467,-0.00032489749367819,0.00032104956307527,-0.00032512016593106,0.0003254243367972,-0.00035346859095291,0.00035382922785935,-0.00035364785517419,0.00035364943843336,-0.00035360929311067,0.00035297801202718,-0.00035378904638307,0.00035279871052081,-0.00034713844835108,0.00035077842231567,-0.00034500677570961,0.0003460792786587,-0.00034482796763197,0.00034625929547365,-0.00034695850135983,0.00035095727956789,-0.00032854665379971,0.00034044455391459,0.73043485719495,128566,2924,0.0012435881537594,0.0016377257111091,0.0013822228220992,17.026568031899,-0.00010378745574481,-0.00010378745574481,-0.00010378745574481,2225401.0957998,0.004272697759069
18991759,0.27367617189038,0.0047514509023039,0.0014767064718785,0.0017140035661329,0.0015607408642925,-0.00030639861805212,0.00030565513938889,-2.0170935512079e-06,-9.3316862157444e-07,-2.7690053374906e-07,8.1356314944576e-08,-0.00019382404149112,0.0001890034617179,-0.00030065456711355,0.00030040527277874,-0.00030005387637699,0.0003041249906919,-0.00019615056222088,0.00018976272239407,-0.00019417260264921,0.00018865366376719,-0.00030100354506197,0.00030005359839577,-0.0003004028996916,0.00030377334818504,-0.00035475778866232,0.00035375859065374,-0.00035419277344815,0.00035494153914825,-0.00035463951817887,0.00035387857096144,-0.00035407443389808,0.00035506146231214,-0.00029698333824187,0.00029333855425047,-0.00029527842533188,0.00029219386093413,-0.00029710199947648,0.00029321927867845,-0.00029539723290897,0.00029207471361556,-0.00019580208098262,0.00019011252858869,1.5272310471282e-07,-2.0192529751562e-07,-3.0467215431267e-07,2.5774551630878e-07,-0.0004044119542391,0.00040436485195572,-0.00039008589218587,0.0003907084150347,-0.00040537795599796,0.00040549046197208,-0.00040533829810653,0.00040475439848065,-0.00040952975433449,0.00040941435067468,-0.00040944240574051,0.00040970246894871,-0.00040961111316665,0.00040925774958824,-0.00040957979167513,0.00040960190088272,-0.00039065468114881,0.00038993874408054,-0.00039070505559536,0.00039109023276956,-0.00040526882078649,0.0004057562846616,-0.00040358734423208,0.00040337843876865,-0.0003901851711791,0.00038970660431043,6.6454560937838e-07,2.1158062458667e-06,-0.00034006987133985,0.00034033639170884,4.6441542076195e-07,-9.8445304640372e-08,-0.00033299460507015,0.0003336678627055,-0.0003340611329799,0.00032894398802755,-0.0003342969022471,0.00033352027566005,-0.00033653029975685,0.00035008496476149,-0.00033244501707438,0.00033422002475259,-0.00033350988528993,0.00032949459755367,-0.00033374668612084,0.00033407189829931,-0.00036241658620158,0.00036279842585312,-0.00036260404698943,0.00036261041748811,-0.00036256505817115,0.00036190316815715,-0.00036275302630991,0.00036171566499312,-0.00035607360163403,0.0003598386643473,-0.00035384095582882,0.00035497427772838,-0.00035365397222512,0.00035516252039247,-0.00035588543336361,0.00036002570400451,-0.00033708223199877,0.00034953520409297,0.74318761642163,128566,2924,0.0012744117710118,0.0016834812891808,0.0014165048367871,16.789907722196,-0.00010568073822243,-0.00010568073822243,-0.00010568073822243,2249366.2844172,0.004384041803194
19191759,0.28084952463037,0.0048812868201191,0.0015154176775955,0.0017633523597078,0.0016025167828159,-0.00031502575950059,0.00031426062684578,-2.1063274198978e-06,-9.6788169634643e-07,-2.8520245881095e-07,9.7143039670102e-08,-0.00019864578853166,0.00019362024366229,-0.00030978230332484,0.00030953763126716,-0.0003091513258152,0.00031344866807312,-0.0002010950566893,0.00019441176975696,-0.00019901785620738,0.00019324690904788,-0.00031015478097217,0.00030916231761742,-0.00030952386412339,0.00031307341229428,-0.00036490800207043,0.00036387331987851,-0.00036431384965169,0.0003651140100158,-0.0003647817652555,0.00036400135446341,-0.00036418754076865,0.00036524198072485,-0.00030596510770381,0.00030216319406395,-0.00030417293876922,0.00030094278369652,-0.00030609177062528,0.00030203589338126,-0.00030429974783475,0.00030081562219192,-0.00020072307011684,0.00019478514311128,1.6354341225847e-07,-2.1501669981862e-07,-3.1986205579185e-07,2.7078748301992e-07,-0.0004168397352148,0.00041679047713118,-0.00040221237287801,0.00040286839935533,-0.00041789945964131,0.00041802381283127,-0.00041786099216879,0.00041724199435183,-0.00042195157428571,0.00042183261900861,-0.0004218597783888,0.00042213511943266,-0.00042203811213871,0.00042166520244575,-0.00042200620990773,0.00042202759905186,-0.00040282266765142,0.0004020689568573,-0.00040288719209121,0.00040328987398662,-0.00041778393190209,0.00041830208126481,-0.00041600242657303,0.00041577725171363,-0.00040232245958576,0.00040182210600442,7.0074885733323e-07,2.2164102884416e-06,-0.00034957453762975,0.00034985823975807,4.8890924820826e-07,-1.0221820848696e-07,-0.00034306663950439,0.00034377934889792,-0.0003442900720385,0.00033893558432399,-0.00034454481001326,0.00034373767190303,-0.00034675956006914,0.00036098976173051,-0.0003424894675185,0.00034435922076404,-0.00034371113876338,0.00033951384385831,-0.00034396696359324,0.00034431698876035,-0.00037251586277009,0.00037292099608606,-0.00037271273623132,0.00037272354990184,-0.00037267269839784,0.00037197901198283,-0.00037287010386659,0.0003717820916744,-0.00036643340966129,0.00037034204382949,-0.00036409375432876,0.00036529101769421,-0.00036389738223575,0.00036548870862997,-0.00036623579388705,0.00037053848381741,-0.00034733920142579,0.00036041238668239,0.78534703093614,128566,2924,0.0013102777405552,0.0017351654356167,0.001456085936191,16.952968595838,-0.00010437625123329,-0.00010437625123329,-0.00010437625123329,2274027.4897424,0.0045117404917999
19391759,0.28833946261469,0.0050139175968929,0.0015548207779901,0.0018140382771595,0.0016450585417434,-0.00032449505279723,0.00032370735726513,-2.2032444550903e-06,-1.0073378810175e-06,-2.9229547799778e-07,1.1405191236161e-07,-0.00020348939654256,0.00019824022690618,-0.00031962073185428,0.00031938479115853,-0.00031895706044753,0.00032350634877017,-0.00020607027993954,0.00019906616283334,-0.00020388488447177,0.00019784343604257,-0.00032001661974453,0.00031898593497082,-0.0003193530203809,0.00032310755983768,-0.00037612299754693,0.00037505155463987,-0.00037549702493831,0.0003763545312684,-0.00037598881373845,0.00037518761305013,-0.0003753627672912,0.00037649052446123,-0.00031573331508252,0.00031175895245417,-0.00031384546357402,0.00031045939802798,-0.00031586795196518,0.00031162365933498,-0.0003139802488146,0.00031032424548778,-0.00020567488000895,0.00019946299367836,1.7430577019738e-07,-2.2806470743074e-07,-3.3669779122016e-07,2.8546559956643e-07,-0.00043045575928451,0.00043040433586571,-0.00041543405623271,0.00041612675850674,-0.00043165394332007,0.00043178894958121,-0.00043161181113703,0.00043095671035245,-0.00043552981816804,0.00043540618837168,-0.0004354327723108,0.00043572444083268,-0.00043562176502427,0.00043522824089242,-0.00043558912025948,0.00043561089735632,-0.00041608481529963,0.00041529013346698,-0.00041616847650273,0.00041659190499989,-0.00043153105044978,0.00043208086120527,-0.00042963371762985,0.00042939345083588,-0.00041555459197601,0.00041502919707573,7.3982824748932e-07,2.3272775628308e-06,-0.00035999369114166,0.00036029693562159,5.1530003049876e-07,-1.0738261936442e-07,-0.00035392470540321,0.00035467840962501,-0.00035524696953834,0.00034962582116223,-0.00035552072526819,0.00035467788903638,-0.00035779951965351,0.00037276823565923,-0.00035331669913339,0.00035528924346259,-0.00035463712217913,0.00035023495647295,-0.00035491201379236,0.00035528813225962,-0.00038364296167538,0.00038407327220926,-0.00038385034331383,0.00038386529445512,-0.00038380928710994,0.00038308207325558,-0.00038401722311268,0.0003828746439128,-0.00037773744006282,0.0003818248636941,-0.00037528031806689,0.00037654536108272,-0.0003750734539734,0.00037675359925401,-0.00037752928183586,0.00038203179734599,-0.00035841010241522,0.00037216001570362,0.76951387746474,128566,2924,0.001349646837164,0.0017917881135388,0.0014994748571809,17.466572488261,-0.00010026742009391,-0.00010026742009391,-0.00010026742009391,2308471.086607,0.0046517627797845
19591759,0.29615825613038,0.0051489633733871,0.0015948453950288,0.0018658940737664,0.0016882239045919,-0.00033422921003306,0.0003334204497238,-2.3031431651138e-06,-1.0468771945408e-06,-2.9850530190058e-07,1.316502598027e-07,-0.00020834579528436,0.00020286740864799,-0.00032955881650707,0.00032933468476351,-0.00032886103046457,0.00033367381915941,-0.00021106222590844,0.00020372905082776,-0.00020876451644096,0.00020244733995266,-0.0003299779257017,0.00032891247067598,-0.00032928021992814,0.00033325167795224,-0.0003877198759472,0.00038661149673314,-0.00038706036313396,0.00038797890167744,-0.00038757781580111,0.00038675551458915,-0.00038691822736356,0.0003881228537695,-0.00032567797375031,0.00032152394588085,-0.00032368939937742,0.00032013164083133,-0.00032582052090352,0.00032138072879253,-0.00032383209487347,0.00031998856090262,-0.00021064359888726,0.00020414915303694,1.8487816929325e-07,-2.4111043142568e-07,-3.5434317104849e-07,3.0076769622085e-07,-0.00044448077415983,0.00044442699923018,-0.00042895337823935,0.00042968390728653,-0.00044581218510962,0.00044595699282642,-0.00044576493635149,0.0004450732545299,-0.00044957949749748,0.00044945046344766,-0.00044947711027378,0.00044978533027979,-0.00044967721019287,0.00044926247704555,-0.00044964381012644,0.00044966633581388,-0.00042964236903213,0.00042880519452228,-0.00042974478795823,0.00043019024710164,-0.00044568155349017,0.00044626312439701,-0.00044366701848609,0.00044341213646238,-0.000429082727864,0.00042853064011107,7.8068909208757e-07,2.443620155216e-06,-0.00037065452590224,0.00037097768544364,5.4263068412153e-07,-1.1301901945831e-07,-0.00036481349341875,0.00036560949427682,-0.00036629842832047,0.00036040247698919,-0.00036659171844745,0.00036570998241118,-0.00036887843726656,0.00038459514880985,-0.000364173265618,0.00036625267833399,-0.00036565628470673,0.0003610438712043,-0.00036595076037859,0.00036635253754889,-0.00039512097165099,0.00039557697982468,-0.00039533933156571,0.00039535799947923,-0.00039529640355388,0.00039453314613249,-0.00039551534026462,0.00039431473739407,-0.0003892553252727,0.00039353316658823,-0.00038667627950468,0.00038801255180078,-0.00038645845003775,0.00038823180846544,-0.00038903615152739,0.00039375106375533,-0.00036952134975287,0.00038395470057159,0.75193871728214,128566,2924,0.0013901210195459,0.0018501072587906,0.0015438678435209,17.989124533211,-9.608700373431e-05,-9.608700373431e-05,-9.608700373431e-05,2349731.0165842,0.0047956292264227
19791759,0.30431291142265,0.0052859467574233,0.0016353862394734,0.0019187129655986,0.0017318475523514,-0.00034419121429067,0.00034335865713701,-2.4074459276715e-06,-1.0885588802238e-06,-3.0532873510947e-07,1.4760747709873e-07,-0.00021323332810649,0.00020750989765775,-0.00033954855142145,0.00033933414518862,-0.0003388150020528,0.0003439009423904,-0.00021608927919348,0.00020841565256317,-0.00021367432068385,0.00020706751883862,-0.00033998990496443,0.00033888955890601,-0.00033925643982948,0.00034345643404454,-0.00039965006313897,0.00039849995792891,-0.00039895525197473,0.00039993344239474,-0.00039950049121781,0.00039865158662347,-0.00039880560169605,0.00040008500468925,-0.00033578944668595,0.00033144670037306,-0.00033369521540104,0.00032994558028963,-0.00033593956475678,0.00033129590008924,-0.0003338454820671,0.00032979491734839,-0.00021564838256796,0.00020885806524298,1.9488454385619e-07,-2.5373350367596e-07,-3.7242327121359e-07,3.1635257335199e-07,-0.0004588465406017,0.00045879026137549,-0.00044269193751209,0.00044346050352369,-0.00046028994751961,0.00046044320460078,-0.00046023787303783,0.00045951018995514,-0.00046405179595383,0.00046391660945466,-0.00046394427052324,0.00046426877737279,-0.00046415563407136,0.00046371964712585,-0.00046412183291823,0.0004641455438142,-0.00044341735528695,0.00044253717585357,-0.00044353439334917,0.00044400276852324,-0.00046015178945528,0.00046076424809321,-0.00045801847472837,0.00045775003150087,-0.00044282866472337,0.00044224869114245,8.2350774430381e-07,2.5658189339324e-06,-0.000381498587425,0.0003818426738779,5.7089879826371e-07,-1.1844294344123e-07,-0.00037566943275793,0.00037651030986585,-0.00037740389476932,0.00037122903215027,-0.00037771688860425,0.00037679465014758,-0.0003799272348635,0.00039640006478488,-0.00037499626519471,0.00037718653871479,-0.00037672875350866,0.00037190340181225,-0.00037704297394993,0.00037747022089148,-0.00040690061139181,0.00040738336891247,-0.00040713019305496,0.00040715314547756,-0.00040708502301739,0.00040628360008459,-0.0004073151996742,0.00040605396605766,-0.00040090523034332,0.00040538539320753,-0.00039820045941222,0.00039961182411457,-0.00039797141408959,0.00039984233012898,-0.00040067480299956,0.00040561450124708,-0.00038060317817025,0.00039572666566734,0.73294776603966,128566,2924,0.0014315373844225,0.0019098386871642,0.0015890229118973,18.512026926632,-9.1903784586942e-05,-9.1903784586942e-05,-9.1903784586942e-05,2395424.9568811,0.0049426490654585
19991759,0.31257721442497,0.0054276923120062,0.0016772998815133,0.0019734389551223,0.0017769534753706,-0.00035379725707573,0.00035294349126844,-2.5120059942706e-06,-1.1297419191508e-06,-3.0730581435985e-07,1.6420872496644e-07,-0.00021796252994815,0.00021198800867847,-0.00034930664362473,0.00034910266950802,-0.00034853651053822,0.00035390695303937,-0.00022095732727817,0.0002129476606071,-0.00021842163156353,0.00021152747856734,-0.00034976609600738,0.00034863984877165,-0.00034899605085419,0.00035344421452901,-0.00041114242059766,0.00040995512056896,-0.00041041101176058,0.00041145610849002,-0.00041098673096949,0.00041011296599088,-0.0004102552437307,0.00041161388759103,-0.00034576409619265,0.00034122984893303,-0.00034356070028495,0.00033958951209641,-0.00034592038550726,0.00034107286964563,-0.0003437171333627,0.00033943266706167,-0.00022049831925568,0.00021340822506777,2.0278203618803e-07,-2.6424003002143e-07,-3.912088635715e-07,3.3264362143086e-07,-0.00047283859166099,0.00047277980807046,-0.00045611417040024,0.00045692075836004,-0.00047441141633522,0.00047456849046601,-0.00047434675795639,0.00047358675969432,-0.00047814010618155,0.00047799691075949,-0.00047802726429933,0.0004783671319582,-0.00047824838800923,0.00047779207619976,-0.00047821461969028,0.0004782413752333,-0.00045687728086737,0.00045595411400391,-0.00045700857949585,0.0004575026607072,-0.00047426494614115,0.00047490459859094,-0.00047199804386689,0.00047172066194757,-0.00045625972171047,0.00045564907425356,8.684805923867e-07,2.6924686428186e-06,-0.0003919023827652,0.00039226898720396,6.0099976779181e-07,-1.2344204710125e-07,-0.00038622918555441,0.00038711694571657,-0.00038824491786784,0.00038178868530755,-0.00038857985493452,0.00038761727565578,-0.00039067756432892,0.00040792821794516,-0.00038552170858175,0.00038782762287659,-0.0003875353859048,0.0003824974071913,-0.00038787160746344,0.00038832725471021,-0.00041821183860517,0.00041872351293546,-0.00041845310627036,0.00041848157551158,-0.00041840502204941,0.00041756490259072,-0.00041864690992517,0.00041732357901519,-0.0004121676784967,0.00041683478872269,-0.00040933191281017,0.00041082386916623,-0.00040909119063825,0.00041106610317231,-0.00041192551938811,0.0004170755713314,-0.00039138794031501,0.0004072204927084,0.74869675468317,128566,2924,0.0014714779085229,0.0019680113529668,0.0016323475640101,18.674498131725,-9.0604014946197e-05,-9.0604014946197e-05,-9.0604014946197e-05,2432926.4429258,0.005084800215587
20191759,0.32082593785992,0.0055723729727917,0.0017200507003422,0.0020293655031438,0.0018229567693057,-0.0003631966874173,0.00036232570914337,-2.6185330962479e-06,-1.164558415104e-06,-3.0562675508915e-07,1.8287950889916e-07,-0.00022237734816988,0.00021613716881183,-0.00035899658074999,0.00035880637862007,-0.00035818856299806,0.00036386042472259,-0.00022551313047977,0.00021716008323299,-0.00022285300815501,0.00021566003740909,-0.00035947257440611,0.00035832686996477,-0.00035866464953505,0.00036338101059102,-0.00042239170330051,0.00042117022526626,-0.00042162252302309,0.00042273972922537,-0.00042223042164062,0.00042133375770131,-0.00042146116424473,0.00042290319520889,-0.00035578395738367,0.00035105421147488,-0.00035346749656601,0.00034927314201295,-0.00035594589258879,0.00035089157983172,-0.00035362956824478,0.00034911064244904,-0.00022503755651594,0.00021763725504282,2.0992645203376e-07,-2.7392197422086e-07,-4.1004301902807e-07,3.4905269413762e-07,-0.00048665186224836,0.0004865906434082,-0.00046943450714933,0.00047027882520754,-0.00048839119156374,0.00048855054465943,-0.00048830947818292,0.00048751872325637,-0.0004919766201923,0.00049182490208941,-0.00049185880302984,0.00049221362478301,-0.0004920889564412,0.00049161286611654,-0.00049205506502813,0.00049208551781645,-0.00047023651509801,0.00046927079256337,-0.00047038906252482,0.00047090961054168,-0.00048823654942411,0.00048890196999628,-0.00048582250940336,0.00048553785992078,-0.00046958850473955,0.0004689465603901,9.1565616561153e-07,2.8285398753519e-06,-0.0004020449762208,0.00040243490137686,6.3287418736781e-07,-1.2683368120047e-07,-0.00039669527974879,0.00039763374530702,-0.0003989592574391,0.00039221326005501,-0.00039931963771212,0.00039831800977935,-0.00040134219497824,0.00041942879017592,-0.00039595333339234,0.00039837903646868,-0.00039821516955269,0.0003929564985045,-0.00039857689474242,0.00039906256040611,-0.00042923146139579,0.00042977350638803,-0.00042948447005037,0.00042951980187835,-0.00042943347064169,0.00042855417586377,-0.00042968712405001,0.000428301107853,-0.00042326790976698,0.0004281133627551,-0.00042029621004855,0.00042187349171128,-0.00042004375489849,0.00042212750784043,-0.00042301396280074,0.00042836587658929,-0.00040208716929937,0.00041868657214849,0.76566000407655,128566,2924,0.0015105677422377,0.0020254359868516,0.0016745852770427,18.643333949093,-9.0853328407253e-05,-9.0853328407253e-05,-9.0853328407253e-05,2461600.5278393,0.0052242714617015
20391759,0.32905407680908,0.0057177691754394,0.0017629951525762,0.0020856750742024,0.0018690989486608,-0.0003726079849447,0.00037172089149516,-2.7271642337015e-06,-1.1941093924628e-06,-3.0091944716051e-07,2.021102734197e-07,-0.0002265888548809,0.00022007598934279,-0.00036875348241006,0.00036857660871605,-0.0003679066058543,0.00037389374428945,-0.00022986618324505,0.00022116115857808,-0.00022707870451779,0.00021958462676942,-0.00036924361520127,0.0003680828171217,-0.00036839683705792,0.00037340005024747,-0.00043368565775249,0.00043243147147752,-0.00043287793208741,0.0004340709974504,-0.00043351960840773,0.00043259986178752,-0.0004327118064926,0.00043423932297866,-0.00036588755647463,0.00036095717859639,-0.0003634555780841,0.00035904536912062,-0.00036605431765841,0.0003607897190949,-0.00036362246958527,0.00035887803303122,-0.00022937641887272,0.00022165255338543,2.1592289372772e-07,-2.8232280726822e-07,-4.2893464469273e-07,3.6564329341142e-07,-0.00050054772871759,0.00050048419774878,-0.00048286611526852,0.00048374770634354,-0.00050248096658246,0.00050264026709563,-0.00050238049738662,0.00050156141062718,-0.00050584182084516,0.00050568079959389,-0.00050571927168767,0.00050608841675872,-0.00050595768345911,0.00050546268860066,-0.00050592263706618,0.00050595781283802,-0.00048370731647251,0.00048269974003002,-0.00048388441469892,0.00048443260718862,-0.00050231835166462,0.0005030073614692,-0.00049974572312821,0.00049945638866625,-0.00048302774614676,0.000482353578203,9.6416466885403e-07,2.9644575075329e-06,-0.00041217825274539,0.00041259476259543,6.6666230434234e-07,-1.285497040658e-07,-0.0004071674563673,0.00040815832576893,-0.00040966112139687,0.00040261739609006,-0.00041004936229163,0.00040900884428703,-0.0004120183182766,0.00043098824390527,-0.00040639078215762,0.00040893846531907,-0.00040888224664196,0.00040339539132813,-0.00040927187890015,0.00040978820096581,-0.00044024894123067,0.00044082228475935,-0.00044051377266779,0.00044055673785484,-0.00044045930700681,0.00043954044904791,-0.00044072480042768,0.00043927555635514,-0.00043443731292999,0.00043947970182561,-0.00043132955158935,0.00043299444075368,-0.00043106527396382,0.00043326031204928,-0.00043417150587798,0.00043974402988508,-0.00041279811666038,0.00043021128655753,0.77157339089032,128566,2924,0.001549709650287,0.0020831997828818,0.0017167892374249,18.607178104161,-9.1142575166714e-05,-9.1142575166714e-05,-9.1142575166714e-05,2487558.4816139,0.0053641215614958
20591759,0.33725934977925,0.0058502354588008,0.0018021567173719,0.0021372858781207,0.0019107928633083,-0.00038139527111811,0.00038049683639765,-2.8340181615292e-06,-1.2226242569221e-06,-2.9261543471136e-07,2.1752627179269e-07,-0.00022974050249089,0.00022294919231752,-0.00037730284994276,0.00037713638921766,-0.00037641621089263,0.00038271341158337,-0.00023315468326087,0.00022411125066271,-0.00023023730740047,0.00022245084351061,-0.00037779989230362,0.00037663558686088,-0.00037691334060536,0.00038221269690248,-0.00044455507034622,0.00044327191414686,-0.00044370841378729,0.00044498221146931,-0.000444386708793,0.00044344268747545,-0.00044353997957264,0.00044515292327075,-0.00037495753519483,0.00036982700654602,-0.00037240857034039,0.00036779808340333,-0.0003751266608172,0.00036965718632887,-0.00037257781790835,0.00036762837903286,-0.00023265794901922,0.00022460961505981,2.1838962864761e-07,-2.8688863336066e-07,-4.4700972500145e-07,3.8168906297992e-07,-0.00051372961814652,0.00051366404842067,-0.00049529026482712,0.0004962055990232,-0.00051578859615469,0.00051594135892374,-0.0005156682429637,0.0005148288036209,-0.00051917560763676,0.00051900354091176,-0.00051904869401869,0.0005194295168005,-0.00051929375695449,0.00051878304142273,-0.00051925668791988,0.00051929886565556,-0.00049616091216846,0.00049511555266903,-0.00049634882778287,0.0004969260587702,-0.00051561951726796,0.00051632471405324,-0.00051290162578128,0.00051261466588634,-0.00049545568658612,0.00049474843907563,1.0128381847065e-06,3.1017830020026e-06,-0.00042157080541949,0.00042201294304449,6.9940128218171e-07,-1.299406085901e-07,-0.00041613390221496,0.0004171780115112,-0.00041906861139348,0.00041173926546149,-0.0004194806428733,0.00041840103678614,-0.0004211879309642,0.00044098617768457,-0.00041532382001723,0.00041799164398056,-0.00041825629736702,0.00041255067980625,-0.00041866975703458,0.00041921384754803,-0.0004507890717453,0.00045139353812435,-0.00045106527103137,0.0004511166103498,-0.00045100661259365,0.00045004800769544,-0.00045128348620435,0.00044977174596426,-0.00044464018101823,0.00044989186430599,-0.00044139771355343,0.00044315096352745,-0.0004411220618545,0.00044342822162322,-0.00044436297585872,0.00045016755561353,-0.0004220012090891,0.00044017580233105,0.70761958066812,128566,2924,0.0015862652770628,0.0021379910923428,0.001755908029188,18.570826473306,-9.1433388213551e-05,-9.1433388213551e-05,-9.1433388213551e-05,2518990.3950286,0.0054953019101971
20791759,0.34503205238648,0.0059828229856331,0.0018413956253333,0.002188825707574,0.0019526016527258,-0.0003889170606167,0.0003880157265655,-2.9306833324612e-06,-1.2385503230226e-06,-2.7834056128372e-07,2.3316469695236e-07,-0.00023277788144911,0.00022572060321194,-0.00038495035853393,0.00038479912459483,-0.00038402685892739,0.00039062491353895,-0.00023631364947395,0.00022697078581825,-0.00023327591086519,0.00022522101406456,-0.00038544869887473,0.00038429691423731,-0.00038452522904688,0.00039012285484738,-0.00045379204829063,0.00045248762961324,-0.0004529091612734,0.00045426670562133,-0.00045362327368485,0.00045265888163406,-0.00045274033571257,0.00045443787727284,-0.00038297474461324,0.00037766155705382,-0.00038031771419337,0.00037553455619971,-0.00038314434859746,0.00037749125930484,-0.00038048737485983,0.00037536443135756,-0.00023581549297905,0.00022747058695128,2.1809220778987e-07,-2.8848003071148e-07,-4.6329002781361e-07,3.9613614521083e-07,-0.00052521244017579,0.00052514502736216,-0.00050623278160427,0.0005071768527566,-0.00052739307556472,0.00052753495789075,-0.00052724132290067,0.00052638851987773,-0.00053078906489124,0.00053060535493775,-0.00053065831197833,0.00053104797452212,-0.00053090667192953,0.00053038348492786,-0.00053086805197497,0.00053091819944604,-0.00050713256121725,0.00050605487822487,-0.00050732684282831,0.00050793186590867,-0.00052721794834231,0.00052793279493135,-0.00052434440764943,0.00052406449141369,-0.00050640285421432,0.00050566410162236,1.0584596860505e-06,3.2287766530669e-06,-0.00042953327107633,0.00042999737128473,7.2935094467776e-07,-1.3070688334042e-07,-0.00042403728604455,0.00042513314846958,-0.00042741370321135,0.00041982763400591,-0.00042785329229602,0.00042673973185972,-0.00042926632816778,0.00044983664733782,-0.0004231972567663,0.00042597682370066,-0.00042657126518864,0.00042066915206621,-0.00042701238613438,0.0004275826258036,-0.00045968144006906,0.00046031513526063,-0.00045996785851259,0.00046002797427314,-0.00045990519782955,0.00045891000010837,-0.0004601923243802,0.00045862349734085,-0.00045340986981319,0.00045882149203531,-0.00045004369074818,0.00045188047800469,-0.00044975783517653,0.00045216795578687,-0.00045312237444374,0.00045910744018001,-0.00043010982900965,0.00044899611259896,0.74689073083533,128566,2924,0.0016175714636104,0.0021857162071805,0.0017890698712974,17.86576995105,-9.7073840391599e-05,-9.7073840391599e-05,-9.7073840391599e-05,2538179.2248069,0.0056081222042144
20991759,0.35227935744101,0.0061019753696865,0.0018767116686849,0.0022352571965748,0.0019900065044269,-0.00039522010336739,0.00039431424232059,-3.0254006635146e-06,-1.2568632486872e-06,-2.6519682402273e-07,2.4291886061502e-07,-0.0002344230614514,0.00022709521886546,-0.00039120961089433,0.00039105002101933,-0.0003902503571713,0.00039711637072849,-0.00023807102342528,0.00022843985609476,-0.00023491783089524,0.00022659887469695,-0.000391704572241,0.00039055112297834,-0.00039074538171663,0.00039661757862346,-0.00046181954192396,0.00046049514157155,-0.00046090172279996,0.00046234071964996,-0.00046165193819101,0.0004606652682205,-0.00046073405648598,0.00046251078028724,-0.00038960758468919,0.00038410696269546,-0.00038684014008124,0.00038190426062244,-0.00038977603542013,0.00038393782399731,-0.00038700868374284,0.00038173524458647,-0.00023757625765551,0.00022893626139338,2.156874523552e-07,-2.874666670769e-07,-4.7842970837338e-07,4.0990608549484e-07,-0.0005352279880662,0.00053515919897781,-0.00051566419738138,0.00051663405265745,-0.00053748933637409,0.00053761684323141,-0.00053731593054492,0.00053645543068021,-0.00054094790721269,0.00054075205805943,-0.00054081356281482,0.00054121033349242,-0.00054106373727282,0.00054053069690878,-0.00054102328263374,0.00054108285085569,-0.00051658684759772,0.00051548061176937,-0.00051678818284984,0.00051742130985891,-0.00053730877983259,0.00053802846722326,-0.00053430001557923,0.00053403171447425,-0.00051583754237675,0.00051506800320514,1.1021367406095e-06,3.3430737982185e-06,-0.00043619825455197,0.00043668096093302,7.5725331098568e-07,-1.3175261335528e-07,-0.0004303841813382,0.00043153067619593,-0.00043420260312054,0.00042636941568511,-0.00043466453730043,0.00043351838058124,-0.00043579419577729,0.00045710458739252,-0.00042951575335754,0.00043240281247949,-0.00043333183075872,0.00042723924603038,-0.00043379528492553,0.00043438966255941,-0.00046731396705221,0.0004679752651536,-0.00046761003715347,0.00046767844328687,-0.00046754417588539,0.00046651396860522,-0.00046784094926857,0.00046621782812064,-0.00046082281688305,0.00046637845600382,-0.00045735174722347,0.00045925881226712,-0.00045705621297379,0.00045955596258053,-0.0004605256878413,0.00046667401927782,-0.00043666600683485,0.00045623578750711,0.72120224386633,128566,2924,0.0016438035979306,0.0022273399178674,0.0018168274288881,16.958244049382,-0.00010433404760494,-0.00010433404760494,-0.00010433404760494,2550224.2833912,0.0057042814988467
21191759,0.35903081298252,0.0062133715520609,0.001909798801063,0.0022786412552886,0.0020249314957093,-0.00040102601522342,0.00040010215946112,-3.1213991595848e-06,-1.2826794763162e-06,-2.5666158866884e-07,2.421860621086e-07,-0.00023611551699429,0.00022851734931348,-0.00039702242856212,0.0003968359510228,-0.00039602958182483,0.00040312835200201,-0.00023986330402313,0.00022995618152618,-0.00023660130081452,0.00022802999391199,-0.00039750831368115,0.00039634605763282,-0.00039651553199382,0.000402638561571,-0.00046917519111512,0.0004678196592155,-0.0004682241508883,0.00046972833574395,-0.00046901071041067,0.00046798669243358,-0.00046805960775971,0.00046989530371001,-0.00039568696703642,0.00039000308465315,-0.00039282008560345,0.00038777001394126,-0.00039585232837201,0.00038983704092627,-0.00039298554047784,0.000387604087646,-0.00023937751742425,0.00023044360021075,2.1057004219371e-07,-2.8338521621255e-07,-4.9302601608728e-07,4.2347208641362e-07,-0.00054440403168322,0.00054433420555006,-0.00052430757177911,0.00052530089675108,-0.0005467319233967,0.00054683996474267,-0.00054652985257607,0.00054566793155588,-0.00055027738917461,0.00055006801359928,-0.00055013931382889,0.00055054132323831,-0.00055038958462708,0.00054984925098576,-0.00055034757758752,0.00055041861621221,-0.00052524948858561,0.00052411773416952,-0.00052545384616729,0.00052611660299308,-0.0005465458600039,0.0005472648487345,-0.00054340225849756,0.00054315130140647,-0.00052448461317927,0.00052368339275558,1.1434483125017e-06,3.450180426559e-06,-0.00044226273576286,0.00044276417535034,7.8278106618353e-07,-1.3440863449063e-07,-0.00043616321263894,0.00043735511523791,-0.00044043723896107,0.00043237528203636,-0.00044091823597687,0.00043974017542318,-0.00044173915354076,0.00046371775116762,-0.00043526717212295,0.00043825486316177,-0.0004395388750165,0.00043327271579662,-0.00044002139407354,0.00044063905886155,-0.00047426160573638,0.00047494964850948,-0.00047456707390182,0.00047464343544014,-0.00047449943473902,0.00047343656976244,-0.00047480559965983,0.00047313103080353,-0.00046751805988348,0.00047327923172902,-0.00046394127305672,0.00046592005590703,-0.00046363632767414,0.00046622658945433,-0.00046721153907325,0.00047358419603157,-0.00044263855692482,0.00046282133990881,0.7238754683825,128566,2924,0.0016679379456541,0.0022654729466842,0.0018420871803271,16.045396748362,-0.0001116368260131,-0.0001116368260131,-0.0001116368260131,2561416.4404939,0.0057923162941807
21391759,0.36541193015321,0.0063190957684568,0.0019412542648785,0.002319798908762,0.0020580425948163,-0.00040679792702175,0.00040584846730224,-3.2174151878372e-06,-1.3105344932695e-06,-2.5060114943467e-07,2.3427309657429e-07,-0.00023793625543934,0.00023005997798486,-0.0004028566010368,0.00040262487123315,-0.00040183131972287,0.000409137118819,-0.00024177519089883,0.00023159754128787,-0.00023840833384258,0.0002295863360215,-0.00040332876680019,0.00040214867373505,-0.00040230355038143,0.00040866101713706,-0.00047641152473768,0.00047502534562151,-0.00047542833582273,0.00047699486321935,-0.00047625170640849,0.00047518773183386,-0.00047526845578506,0.00047715718694192,-0.00040174989665034,0.00039588214161107,-0.00039878674267509,0.00039363558330267,-0.00040191060981306,0.000395720757531,-0.00039894754705707,0.00039347430873238,-0.00024130311294821,0.00023207122932377,2.0327545239737e-07,-2.7671147475357e-07,-5.0708475542183e-07,4.3687433171693e-07,-0.00055337422962069,0.0005533037446813,-0.00053279059717952,0.00053380549781381,-0.00055575619057169,0.00055584067792035,-0.00055553403055862,0.00055467602251454,-0.00055937221972719,0.0005591483849347,-0.00055923034714883,0.00055963618456996,-0.0005594784614984,0.00055893298976841,-0.00055943461466512,0.00055951880386924,-0.00053374885184649,0.00053259421246721,-0.00053395525167174,0.00053464890793298,-0.00055556450875163,0.00055627823277754,-0.00055229738242421,0.00055206863655761,-0.00053297255641203,0.00053213913225182,1.1835116578084e-06,3.5536823789971e-06,-0.00044824983984463,0.00044877046531476,8.0801568704892e-07,-1.3664999347841e-07,-0.00044190756331757,0.00044314351431238,-0.00044661734603586,0.00043833584518626,-0.00044711240675326,0.0004459044484218,-0.00044765491143438,0.00047028836317634,-0.0004409846117952,0.00044407020767917,-0.00044569206528737,0.00043926017712624,-0.00044618866950786,0.00044683025695039,-0.00048108087308958,0.00048179529437584,-0.00048139549621823,0.00048147992106249,-0.0004813274692129,0.00048023371015071,-0.00048164279443123,0.00047991901806825,-0.00047412482349419,0.00048010898443647,-0.00047044131427362,0.00047249087086708,-0.00047012720396715,0.00047280656310973,-0.00047380914038496,0.00048042310077011,-0.00044858124627736,0.00046936504891101,0.72692810489828,128566,2924,0.0016919142856977,0.0023027496173273,0.001867025566203,15.323267452495,-0.00011741386038004,-0.00011741386038004,-0.00011741386038004,2572354.9652707,0.0058790150238916
21591759,0.37146838921426,0.0064203387915626,0.0019714122989668,0.0023591978139447,0.0020897286786511,-0.00041235776918388,0.00041138076440788,-3.3128596564993e-06,-1.3391403123413e-06,-2.4778059016603e-07,2.2209087470089e-07,-0.00023970809650008,0.00023155813983551,-0.00040853761105805,0.00040825675578641,-0.00040748096746096,0.00041498196970297,-0.00024363304221592,0.00023318275687477,-0.00024016543042927,0.00023109925757359,-0.00040899504055722,0.00040779527635318,-0.00040793846028532,0.0004145205849885,-0.00048335868598359,0.00048194071529623,-0.00048234503760319,0.00048397013658532,-0.00048320386372745,0.00048209811289959,-0.00048219015519596,0.000484127472958,-0.00040761414768243,0.00040156616158789,-0.00040455964829976,0.00039932928156946,-0.00040776987512041,0.00040140977565036,-0.00040471546148119,0.0003991730007123,-0.00024317570283586,0.00023364168205825,1.9557087136558e-07,-2.693926347295e-07,-5.2045711069302e-07,4.498235659586e-07,-0.00056198467696709,0.00056191377114716,-0.0005409661678846,0.00054200141498789,-0.00056442331426032,0.00056448385139054,-0.00056417984040765,0.00056332739660815,-0.00056807647255685,0.00056783845179747,-0.00056793098290804,0.00056834016433197,-0.00056817656848209,0.00056762691185652,-0.00056813017406953,0.00056822770812354,-0.00054194083979917,0.00054076501276854,-0.00054214819924933,0.00054287221746199,-0.00056422677974145,0.00056493408898798,-0.00056083464764982,0.00056062900281972,-0.00054115285099954,0.00054028822220808,1.2213295608328e-06,3.6512240539523e-06,-0.00045399297524328,0.00045453124815611,8.3232669204167e-07,-1.3867889670381e-07,-0.0004474605283675,0.00044873802389566,-0.00045258392309371,0.0004440903091788,-0.00045309250522872,0.00045185536286739,-0.00045338395714629,0.00047665623303946,-0.0004465117774238,0.00044969053399963,-0.00045163283381091,0.0004450404238661,-0.00045214298503817,0.00045280697746127,-0.00048760474991695,0.00048834373946936,-0.00048792814898868,0.00048801958507216,-0.00048785998306796,0.00048673679801363,-0.00048818409199987,0.00048641333199887,-0.00048047713020941,0.00048669444208098,-0.0004766905364656,0.00047880686355673,-0.00047636764042565,0.00047913133266541,-0.00048015266068252,0.00048701733216093,-0.00045433611395657,0.00047570712907855,0.73328392987143,128566,2924,0.0017150035492871,0.0023385300607725,0.0018909457388337,14.658051091923,-0.00012273559126462,-0.00012273559126462,-0.00012273559126462,2581440.9312669,0.005962299160952
21791759,0.37721617159219,0.006515031445192,0.0019996555088147,0.0023960814130961,0.0021192945232813,-0.00041750303172605,0.00041649770081445,-3.4053864845204e-06,-1.3656089734726e-06,-2.4985777998293e-07,2.0797788211211e-07,-0.00024113824198018,0.00023273396092686,-0.00041374379167548,0.00041341165974867,-0.00041265659533495,0.00042034361427537,-0.00024514949575656,0.00023443080825139,-0.00024158365851883,0.00023228700961446,-0.00041418936237694,0.00041296204062804,-0.00041310222622801,0.00041989408617043,-0.0004898552341253,0.00048840612117443,-0.0004888119468839,0.00049049308574809,-0.0004897044040508,0.00048855952775282,-0.00048866105804284,0.00049064643273775,-0.00041300443468695,0.00040678475322663,-0.00040986155732878,0.00040451245343598,-0.00041315616624581,0.00040663237713185,-0.00041001336903415,0.00040436017994978,-0.00024470406848184,0.00023487779295983,1.8934414591189e-07,-2.6348670491653e-07,-5.3329581115333e-07,4.6231392962083e-07,-0.00057002398884038,0.00056995273360971,-0.00054856918480103,0.00054962485381586,-0.00057251559189529,0.00057255541734785,-0.00057225561425654,0.0005714063206839,-0.00057621530945489,0.00057596450478238,-0.00057606644831474,0.00057647971403193,-0.00057630995476823,0.00057575552368441,-0.00057626087278158,0.00057637050109078,-0.00054955838314362,0.00054836143961478,-0.00054976531256565,0.0005505178202705,-0.00057231454021672,0.0005730180084086,-0.00056880480624462,0.00056861918755355,-0.00054875965773712,0.00054786584566593,1.2583484375701e-06,3.7456754616546e-06,-0.00045928489913969,0.00045984109085333,8.5611472252511e-07,-1.4023479590236e-07,-0.00045247996053835,0.00045379814839899,-0.00045802250431694,0.00044932580425945,-0.00045854097521507,0.00045727595380832,-0.00045858090374308,0.00048247186867682,-0.00045150640187474,0.00045477552141155,-0.00045704657053192,0.00045030071446061,-0.00045756665346418,0.0004582524068655,-0.00049367164298746,0.00049443488309701,-0.00049400348117835,0.00049410227449184,-0.00049393622969778,0.0004927849017633,-0.00049426879557697,0.00049245299953527,-0.00048634027763041,0.00049273360566229,-0.0004824532458903,0.00048463483143317,-0.00048212190620336,0.00048496775782045,-0.00048600734309394,0.00049306493365357,-0.00045955793054434,0.00048149797067897,0.72318902429067,128566,2924,0.001736365750179,0.0023719354507473,0.001912989592711,13.994331417948,-0.00012804534865641,-0.00012804534865641,-0.00012804534865641,2589497.2225118,0.0060395758023472
21991759,0.38301460659037,0.0066090622445797,0.0020277417073072,0.0024327325722658,0.0021485879650067,-0.00042405449792141,0.0004230157087932,-3.5008732366138e-06,-1.3968078634052e-06,-2.6094313816007e-07,2.0603422828957e-07,-0.00024386699821432,0.00023522156575958,-0.0004203125154056,0.00041994218696639,-0.00041919459894875,0.00042708370006613,-0.00024798545164291,0.00023696642974374,-0.00024432138085258,0.00023476564231204,-0.00042076701020266,0.00041948356816183,-0.00041964916075426,0.00042662517555577,-0.00049782148282143,0.00049633146777438,-0.00049674891959842,0.00049847724126298,-0.00049766763976437,0.00049648792691705,-0.00049659501494321,0.00049863363984376,-0.00041975101112303,0.00041336623097276,-0.00041651893148212,0.00041107562692465,-0.00041990578030683,0.00041321081253465,-0.00041667378528599,0.00041092030990054,-0.00024753107045392,0.00023742238255122,1.9334334657285e-07,-2.6857717163344e-07,-5.4493454879986e-07,4.7292337104576e-07,-0.0005795592856968,0.00057948699338013,-0.00055762652797599,0.00055870598493988,-0.00058209973006944,0.00058214000760797,-0.00058184050296948,0.00058097379816308,-0.00058585974492957,0.00058560351725349,-0.00058570861045962,0.00058613129046457,-0.00058595565472743,0.00058538975706366,-0.00058590398823951,0.00058601698927264,-0.00055863278025686,0.00055740999853588,-0.00055883746255638,0.00055960769376034,-0.00058189578730637,0.00058261453534428,-0.00057828373731653,0.00057809554400548,-0.00055781724892415,0.0005569036684192,1.294539103104e-06,3.8433638988025e-06,-0.00046601373853284,0.00046658781908492,8.7877652345504e-07,-1.3985175128678e-07,-0.00045888545809044,0.00046024615724974,-0.00046486138951804,0.00045596541940835,-0.00046538762445434,0.00046409686446832,-0.00046518226415782,0.00048968220439181,-0.00045789010400927,0.00046124535967908,-0.0004638636518753,0.00045696213042515,-0.0004643915145328,0.00046509513820725,-0.00050120351482438,0.00050198939436857,-0.00050154277922957,0.00050164935196909,-0.0005014779829324,0.00050029862406847,-0.00050181797970646,0.00049995929434817,-0.00049364430657088,0.00050020180454027,-0.00048965798388844,0.00049190481367376,-0.00048931921550605,0.00049224517212221,-0.00049330393937601,0.00050054055476757,-0.00046618110419507,0.00048868651594719,0.71247115216147,128566,2924,0.0017635667265058,0.0024115559685911,0.0019410082563594,14.108772840504,-0.00012712981727597,-0.00012712981727597,-0.00012712981727597,2611224.1962638,0.006134997977594
22191759,0.38896749627195,0.0067039268703484,0.0020560911428287,0.0024697679712366,0.0021780677562831,-0.00043110884748663,0.00043003582403837,-3.5979807732902e-06,-1.4274049691127e-06,-2.6971413311892e-07,2.0535493279256e-07,-0.00024699096227058,0.00023809962828306,-0.0004273164422475,0.00042691130356051,-0.0004261672415091,0.00043426844694618,-0.00025121739078172,0.00023988685439298,-0.00024745330891809,0.00023763574371286,-0.00042777885128811,0.00042644471676026,-0.00042662972149349,0.00043380195690177,-0.00050635728868401,0.00050482424922219,-0.0005052550698958,0.00050702971099163,-0.0005062007854632,0.0005049834089893,-0.00050509850169926,0.00050718880908107,-0.00042694941673294,0.0004204018973833,-0.00042363036582629,0.00041808106099015,-0.00042710687164324,0.0004202437899928,-0.00042378790889949,0.00041792305362248,-0.00025075506670567,0.00024035075863286,1.9679907175814e-07,-2.7317899931977e-07,-5.5694188653046e-07,4.8382919007677e-07,-0.00058968318521484,0.00058960978894349,-0.00056721191566733,0.00056831538976286,-0.00059225991116201,0.00059229933446116,-0.0005919989097074,0.00059111552180215,-0.00059613026645572,0.00059586797242349,-0.00059597689726831,0.00059640879123405,-0.0005962274600843,0.00059565015609693,-0.00059617351131122,0.00059629038892292,-0.00056823485681721,0.00056698586343777,-0.00056843347039324,0.00056922235598525,-0.00059205330808685,0.00059278647128817,-0.00058833326487367,0.00058814367244157,-0.00056740244470673,0.00056646802358289,1.3309979854707e-06,3.9440073326212e-06,-0.0004732523810457,0.00047384535993041,9.01738480083e-07,-1.3982602326994e-07,-0.00046571667704276,0.00046711956986983,-0.0004721597605964,0.00046306406126737,-0.00047269500424391,0.00047137698906125,-0.00047222356585043,0.00049731739823937,-0.00046469887357371,0.00046814122590375,-0.00047113957758691,0.00046408321705189,-0.00047167645432883,0.00047239771986887,-0.00050929585277886,0.00051010446841061,-0.00050964276520277,0.00050975677439315,-0.00050957980379995,0.00050837161836027,-0.00050992744973997,0.00050802464083123,-0.00050143932421296,0.00050816829778335,-0.00049735852586197,0.00049966919589278,-0.00049701210685734,0.00050001720299998,-0.00050109130694664,0.00050851468934521,-0.00047324485854681,0.00049629927077597,0.70115780435909,128566,2924,0.0017928577077047,0.0024536208140111,0.0019711481021849,14.451602985575,-0.0001243871761154,-0.0001243871761154,-0.0001243871761154,2638809.6712663,0.0062371267281862
22391759,0.39507882831,0.0068052346651412,0.0020863429168531,0.0025092760312154,0.0022096157170726,-0.00043853396477241,0.00043743019374904,-3.6937925680005e-06,-1.4528026774529e-06,-2.7544881126584e-07,2.0648582660022e-07,-0.00025054250159083,0.00024142018222515,-0.00043490333134436,0.00043446606239598,-0.00043372316439165,0.00044203680798376,-0.00025487603239946,0.00024323850261987,-0.00025101155288512,0.00024094959407846,-0.00043537241543469,0.00043399271717364,-0.00043419232709173,0.00044156357146673,-0.0005152269833764,0.00051365600191065,-0.00051409553622714,0.00051592221126545,-0.00051506822256655,0.00051381746300066,-0.00051393670918097,0.00051608360748335,-0.00043465398988304,0.00042794560427148,-0.00043124801338284,0.00042557579917882,-0.00043481372554011,0.00042778521052314,-0.00043140783520965,0.00042541551278926,-0.00025440700327488,0.0002437091299531,1.995968388607e-07,-2.7718027966234e-07,-5.692677283421e-07,4.950013348025e-07,-0.00060027617839697,0.00060020162396159,-0.0005773415554975,0.00057846916241519,-0.00060289464886214,0.00060293171297603,-0.00060263034728466,0.00060173126901377,-0.00060682704642038,0.0006065580340151,-0.00060667133372487,0.00060711218152016,-0.00060692488625942,0.00060633633254972,-0.00060686831049401,0.00060698960729996,-0.00057838437159648,0.00057710895694217,-0.00057857728501936,0.00057938575240306,-0.00060268520291815,0.000603431677,-0.00059885216144174,0.00059866254107346,-0.00057753344845255,0.00057657714374542,1.3671105001953e-06,4.0464798689033e-06,-0.00048087842614174,0.00048149008647711,9.2504465688062e-07,-1.4006960904531e-07,-0.00047319772604087,0.00047464259758376,-0.00048005127689496,0.00047075103248712,-0.00048059979864237,0.00047925405481655,-0.00047990968144417,0.000505612429064,-0.00047215690049234,0.00047568731229642,-0.00047900803813582,0.00047179323200425,-0.00047955822019692,0.00048029784842423,-0.00051771596360961,0.0005185469467933,-0.00051807072416819,0.00051819139593601,-0.00051800818701369,0.00051677039353093,-0.00051836369088967,0.00051641556541235,-0.00050966805720327,0.0005165847346445,-0.00050549487682722,0.0005078684591382,-0.00050514061209776,0.00050822432372931,-0.00050931217546818,0.00051693897051423,-0.00048095404879979,0.00050457126460727,0.72867975249182,128566,2924,0.0018236979985842,0.002497633004056,0.00200289767102,14.800444098359,-0.00012159644721313,-0.00012159644721313,-0.00012159644721313,2664425.0801463,0.0063444040284721
22591759,0.40135008050965,0.0069102396232289,0.0021176693095372,0.002550272427095,0.0022422978865967,-0.00044615101818647,0.00044501360479066,-3.7954680737195e-06,-1.4822216073951e-06,-2.8256775336068e-07,2.0573308489382e-07,-0.00025390980409408,0.00024452644895983,-0.00044275411558185,0.00044227753405172,-0.0004415414624583,0.00045007902904329,-0.00025835435645291,0.00024638988619897,-0.00025438504837837,0.00024404966704212,-0.00044322937263395,0.00044179793490456,-0.00044201680874421,0.00044959954827369,-0.00052437085032968,0.00052276091369462,-0.0005232088535276,0.00052509080156237,-0.00052420999918988,0.00052292451355986,-0.0005230479333129,0.00052525433357393,-0.00044260987364011,0.00043573161913823,-0.00043911285938761,0.00043331305021127,-0.00044277172114169,0.0004355691042533,-0.00043927479754245,0.00043315064838654,-0.00025787914357603,0.00024686671022601,2.0214473252681e-07,-2.8091208512736e-07,-5.8221041646669e-07,5.0680590712322e-07,-0.00061124683038956,0.00061117113224866,-0.00058787924315319,0.0005890320489886,-0.00061392237879077,0.00061395617392049,-0.00061365457069228,0.00061273991411659,-0.00061784464388405,0.00061756834798523,-0.00061768635464636,0.00061813642341963,-0.00061794298086759,0.00061734293902884,-0.00061788330292315,0.00061800961564552,-0.00058894343665048,0.00058764055967617,-0.00058913759570544,0.00058996705676843,-0.00061370986716154,0.00061446957314429,-0.00060974990635076,0.00060956121093436,-0.00058807288183199,0.00058709331881292,1.4050385961028e-06,4.156262678819e-06,-0.00048872204814311,0.00048935497698462,9.5033235899677e-07,-1.3957553181593e-07,-0.00048094999038084,0.00048243846223888,-0.00048819285430754,0.00047866989636901,-0.00048875566494313,0.0004873812222357,-0.00048787868369952,0.00051427271135596,-0.00047988493025064,0.00048350747205867,-0.00048712533969169,0.00047973634832451,-0.0004876898465877,0.00048844930305011,-0.00052637699951732,0.00052723155102272,-0.00052674002121277,0.00052686772399353,-0.00052667814705824,0.00052540963075401,-0.00052704192557122,0.00052504653947144,-0.00051818880555526,0.00052529284409038,-0.00051391536611385,0.00051635539025856,-0.00051355284440678,0.00051671953313746,-0.00051782464407042,0.00052565533126771,-0.00048894734346148,0.00051320731056425,0.7362069870864,128566,2924,0.0018553316426221,0.0025432119173088,0.0020355563027311,15.149521847689,-0.00011880382521848,-0.00011880382521848,-0.00011880382521848,2686452.9489435,0.0064549832686602
22791759,0.40767957357267,0.0070171693340509,0.0021495445113469,0.0025920726641427,0.0022755521585613,-0.00045348556544834,0.00045231513072059,-3.8986187638488e-06,-1.5102913786884e-06,-2.8680723655093e-07,2.0707062305967e-07,-0.0002569105586341,0.00024726772397322,-0.00045036449462208,0.00044985203621377,-0.00044911855003026,0.00045789224981436,-0.00026146765465638,0.00024916952346276,-0.00025739123253953,0.00024678550914927,-0.00045084516533594,0.00044936694940307,-0.00044959931857626,0.00045740729385405,-0.00053324148622087,0.00053159361543837,-0.00053204805839607,0.00053398810816126,-0.00053307881444283,0.00053175908656489,-0.0005318853126213,0.00053415350825704,-0.00045029840432587,0.00044324791854054,-0.00044670783461126,0.00044077206233052,-0.00045046209926857,0.00044308354786122,-0.00044687162288502,0.00044060781224211,-0.00026098701813904,0.00024965178424112,2.0430660885425e-07,-2.8424843078844e-07,-5.9569662318157e-07,5.1916207587839e-07,-0.00062198463583773,0.00062190780237738,-0.00059821015285259,0.0005993889760232,-0.0006247329501617,0.000624762366993,-0.00062445340651018,0.0006235235757057,-0.00062860715678335,0.00062832295630978,-0.00062844604737065,0.00062890544195561,-0.00062870596128107,0.00062809434414277,-0.00062864305701673,0.00062877502501562,-0.00059929711188915,0.00059796597100082,-0.00059949617795351,0.00060034797684455,-0.00062451692573015,0.00062528948055841,-0.0006204167848789,0.00062023014626151,-0.00059840583110218,0.0005974016816561,1.444290006653e-06,4.2712895033145e-06,-0.00049626842201579,0.00049692438337867,9.7709210518252e-07,-1.3870591927188e-07,-0.00048843642972006,0.000489969633142,-0.00049606906145387,0.0004863142984614,-0.00049664758863801,0.00049524371584184,-0.00049558416827691,0.00052270281243261,-0.00048734605549377,0.00049106400998551,-0.00049497619699764,0.00048740607977098,-0.00049555645087726,0.0004963371545326,-0.00053474423757156,0.00053562363882721,-0.00053511588662913,0.00053525117213573,-0.00053505427168519,0.00053375473930611,-0.00053542668894564,0.00053338301900147,-0.00052644676610338,0.00053374878073042,-0.00052207097457629,0.00052457981005139,-0.00052169982874324,0.00052495259431891,-0.00052607396140828,0.00053411988443167,-0.00049667819498579,0.00052161209551118,0.74292713992487,128566,2924,0.0018857915475937,0.0025878206183106,0.0020669816294055,15.287544647288,-0.0001176996428217,-0.0001176996428217,-0.0001176996428217,2704534.1919197,0.0065621752159787
22991759,0.41405334453312,0.007119062361363,0.0021799463120464,0.0026320641969777,0.0023070518523388,-0.00046052737669338,0.00045932619144552,-4.0013612361951e-06,-1.5346282355564e-06,-2.8979851175574e-07,2.0888841169508e-07,-0.00025937118970112,0.00024948579056674,-0.000457414682665,0.00045686590306314,-0.00045613469409206,0.00046514833781419,-0.00026404285400351,0.00025141723451196,-0.00025985655126495,0.00024899887899573,-0.00045790001996805,0.0004563760887702,-0.00045662012694783,0.00046465865417808,-0.00054192799661941,0.00054024189592821,-0.00054070284674655,0.00054270159386578,-0.00054176375460367,0.0005404089799348,-0.00054053853036308,0.00054286860629135,-0.00045750471570442,0.00045027692458592,-0.00045382024836721,0.00044773382846015,-0.00045767000739108,0.00045011095520529,-0.00045398563143005,0.00044756798033331,-0.00026355752772665,0.00025190418219412,2.0609538962679e-07,-2.8719679947531e-07,-6.0973125003205e-07,5.3208154505142e-07,-0.0006324393392252,0.00063236138619617,-0.00060812971628001,0.00060933540703191,-0.00063524181875853,0.00063526575921006,-0.00063495277472831,0.000634008167982,-0.00063916326167496,0.00063887055150086,-0.00063899906328909,0.00063946790911299,-0.00063926278212316,0.00063863949369392,-0.0006391954245207,0.00063933368197993,-0.00060923665228539,0.00060787642737922,-0.00060943073806986,0.00061030623319693,-0.00063502265575343,0.00063580768942796,-0.00063078619663059,0.00063060274221594,-0.00060832647882137,0.00060729641480531,1.483541518162e-06,4.3869067902832e-06,-0.0005034952447875,0.00050417361791422,1.0044928158709e-06,-1.3829248617448e-07,-0.00049525809853513,0.000496834572733,-0.0005033552233923,0.00049337093606084,-0.00050394779770526,0.0005025118795274,-0.0005026237506575,0.00053044872181544,-0.00049414131132896,0.00049795540224147,-0.00050223592863814,0.00049448913090794,-0.00050283025525118,0.00050363175655756,-0.000542910332169,0.00054381467929231,-0.00054329097316993,0.00054343321047981,-0.00054322846646988,0.00054189825693721,-0.00054360988513084,0.0005415175434751,-0.00053431541714414,0.00054185008396517,-0.00052985360216242,0.00053243093541925,-0.00052947346243955,0.00053281272139844,-0.00053393360223007,0.00054223017089679,-0.00050374422988896,0.00052933159458885,0.7049432306711,128566,2924,0.0019150384572703,0.0026312503970763,0.0020970758418917,15.399325365979,-0.00011680539707217,-0.00011680539707217,-0.00011680539707217,2725379.0430579,0.0066656319937338
23191759,0.42046937996611,0.0072226966834307,0.0022108730837506,0.0026727420816307,0.0023390815180494,-0.00046769691073047,0.0004664702825681,-4.0986564836378e-06,-1.5516868642375e-06,-2.8925983840895e-07,2.1263834213324e-07,-0.00026232586365648,0.00025223956799635,-0.00046466423908286,0.00046408478416457,-0.00046335168891721,0.00047260209256723,-0.00026710523576957,0.00025417284700858,-0.00026281437585935,0.00025174948886992,-0.00046515269983314,0.00046359178569058,-0.00046384024329035,0.00047210921606671,-0.00055066237156771,0.00054894151761312,-0.00054940647599585,0.00055146529927402,-0.00055049709853587,0.00054910967641427,-0.00054924112823614,0.00055163338811566,-0.00046484951996492,0.00045745327816846,-0.00046107250470237,0.00045484567694689,-0.00046501587471927,0.0004572862550535,-0.00046123894753723,0.00045467876069862,-0.00026661675071997,0.00025466295760353,2.0708254144374e-07,-2.8938104140719e-07,-6.2397553896783e-07,5.4516980334108e-07,-0.00064295695334115,0.00064287783878379,-0.00061812056641167,0.00061935293095457,-0.00064579609462818,0.0006458128612764,-0.00064549512130424,0.00064453710428717,-0.00064981895688528,0.00064951703651751,-0.00064965141159915,0.00065012924882902,-0.00064991851722259,0.00064928393388564,-0.00064984701438372,0.0006499921777208,-0.00061924803077433,0.00061785883286859,-0.00061943088986079,0.00062033094324487,-0.00064557294227651,0.00064636900638403,-0.00064120194974201,0.00064102328990857,-0.00061832039756637,0.00061726347634702,1.5213867181907e-06,4.4993755949619e-06,-0.0005108231961718,0.0005115235005642,1.0317934218187e-06,-1.3835039959386e-07,-0.00050228405714745,0.00050390125079315,-0.0005108380564695,0.00050063481464885,-0.00051144800346936,0.00050998013885881,-0.00050985378735374,0.00053832667783146,-0.00050114048092761,0.00050504890559188,-0.00050969196565874,0.00050177979942643,-0.00051030368384366,0.00051112682262916,-0.00055113291083014,0.00055206176407934,-0.00055152266713387,0.00055167117383879,-0.00055145709807241,0.00055009694236206,-0.00055184763686828,0.00054970711237374,-0.00054223482183511,0.0005500300223666,-0.0005376901979185,0.00054032621889537,-0.00053730093962501,0.0005407171364267,-0.00054184387095941,0.0005504192229564,-0.00051100108798965,0.00053718276199047,0.71242657678775,128566,2924,0.0019448260564053,0.0026749397469511,0.0021275887696402,15.510372898142,-0.00011591701681487,-0.00011591701681487,-0.00011591701681487,2749221.288598,0.0067703261815117
23391759,0.42693219625597,0.0073274180271039,0.0022421180478996,0.0027138802579956,0.0023714197212088,-0.00047493632229105,0.00047368413222893,-4.1973287774715e-06,-1.5695812154311e-06,-2.8645195758167e-07,2.1574302734921e-07,-0.00026522440245921,0.00025491477350238,-0.00047202827684268,0.00047141891382849,-0.00047068248642262,0.000480167106544,-0.00027011014100045,0.00025686508276042,-0.00026571321321992,0.00025442439258934,-0.0004725170018956,0.00047092559554763,-0.00047117130312333,0.0004796739077888,-0.00055949057632717,0.00055773695875131,-0.00055820380231274,0.00056032531515084,-0.00055932524319501,0.00055790522137516,-0.00055803839563067,0.0005604935093999,-0.00047227686017336,0.00046471450546337,-0.00046840489488049,0.00046205910544097,-0.00047244330449439,0.00046454738652113,-0.00046857142504056,0.00046189209001116,-0.00026962135867126,0.00025735549547387,2.0668847208708e-07,-2.9004183372434e-07,-6.3814658873458e-07,5.5831667180372e-07,-0.00065360850082364,0.00065352835886979,-0.00062825697126093,0.00062951516185264,-0.00065648234549841,0.00065648923705011,-0.00065616350198591,0.00065519506633234,-0.00066059014954655,0.00066027819355114,-0.00066041929664133,0.00066090528850838,-0.00066068868218392,0.0006600439063755,-0.00066061268327986,0.0006607658443957,-0.00062940523909807,0.00062798817934818,-0.00062957624528896,0.00063050194210347,-0.00065625596579395,0.00065706034903696,-0.00065174207157361,0.00065157119249111,-0.0006284598752802,0.0006273752735182,1.5597378670013e-06,4.6142692487881e-06,-0.00051822596455698,0.00051894918983389,1.0597933639269e-06,-1.376939520689e-07,-0.00050941961605066,0.00051107748354625,-0.0005184144123566,0.00050799029107776,-0.00051904392366594,0.0005175446503079,-0.00051720522930589,0.00054636695323274,-0.00050824925985801,0.00051225195434627,-0.00051724153851625,0.000509162048052,-0.00051787284059217,0.00051871812544363,-0.00055943413374339,0.00056038821725218,-0.00055983299779889,0.00055998851030008,-0.00055976426934079,0.00055837456627712,-0.00056016392236954,0.00055797562576995,-0.00055027309260672,0.00055831617793752,-0.00054563382687626,0.00054833877305171,-0.00054523545913418,0.00054873882210339,-0.00054987301039582,0.00055871449031335,-0.00051837934252757,0.00054519626551551,0.71512157201429,128566,2924,0.0019749042749032,0.0027191833620172,0.0021584139576066,15.633872491506,-0.00011492902006795,-0.00011492902006795,-0.00011492902006795,2771314.1882704,0.0068761965397375
23591759,0.43363288734855,0.0074360125518765,0.0022745132039744,0.0027565833786436,0.0024049159692585,-0.00048312695381234,0.00048184640530962,-4.3013449818828e-06,-1.5883221387219e-06,-2.822930509922e-07,2.1746867109791e-07,-0.00026882286846834,0.00025827726309075,-0.00048038935994187,0.00047973941588957,-0.00047900894252726,0.00048874144068099,-0.00027381744687025,0.00026024225583338,-0.00026930929099496,0.00025778926611364,-0.00048087565619356,0.00047924846083496,-0.00047949533503699,0.00048825060655341,-0.00056936059369167,0.00056757416500688,-0.00056804178229951,0.00057023000719898,-0.00056919610284106,0.0005677416248913,-0.00056787721696858,0.00057039740055787,-0.00048067350605077,0.00047294089184108,-0.00047670731016139,0.00047024768072799,-0.00048083913408998,0.00047277458566059,-0.00047687302926776,0.00047008147154155,-0.00027333106842487,0.00026073026683209,2.0497105408172e-07,-2.8928818528307e-07,-6.5277405580856e-07,5.7199959997853e-07,-0.00066541426436932,0.00066533317221293,-0.00063953667437072,0.00064082082653544,-0.00066832961553261,0.00066832367980857,-0.00066799126650088,0.00066701485062134,-0.00067250253941607,0.00067217938656379,-0.00067232860074516,0.00067282225057462,-0.00067259891899462,0.00067194460147771,-0.00067251841842472,0.00067268089561578,-0.00064070601077106,0.00063926110824136,-0.00064086390814975,0.00064181721126234,-0.00066810024312773,0.000668910653504,-0.00066342921454524,0.00066326922530287,-0.0006397413387367,0.0006386272574245,1.5992660517441e-06,4.7379498424538e-06,-0.00052660925763166,0.00052735701363397,1.0896550192544e-06,-1.3617875900005e-07,-0.00051755548670431,0.00051925433296855,-0.00052699625258462,0.00051634062252652,-0.00052764808632207,0.00052611503106608,-0.00052557103154898,0.00055547714390674,-0.00051635737250547,0.00052045660311339,-0.00052579561798571,0.00051754012530522,-0.00052644926345192,0.00052731628179386,-0.00056875464575814,0.00056973465876626,-0.00056916295359513,0.0005693254983311,-0.00056909068726602,0.00056767042763878,-0.0005694997905316,0.00056726204286742,-0.00055934480029288,0.00056763464613997,-0.00055461940291225,0.00055738846155283,-0.00055421158493284,0.0005577979680103,-0.0005589352601311,0.00056804240010619,-0.00052677292689492,0.00055427871336373,0.71571043205838,128566,2924,0.0020089337475538,0.0027682196826034,0.0021933179747346,16.146606422777,-0.00011082714861779,-0.00011082714861779,-0.00011082714861779,2799006.3681098,0.0069949908867486
23791759,0.44057988645312,0.0075544762049282,0.0023097870782581,0.0028031278247178,0.0024415613019523,-0.0004918837471542,0.00049057010652449,-4.4130029283998e-06,-1.6087354876429e-06,-2.7708482885632e-07,2.1799526784582e-07,-0.00027291849213791,0.0002621158214144,-0.00048963133650902,0.00048892938733247,-0.0004882154215295,0.00049820727505168,-0.00027802347865959,0.00026408847235595,-0.00027340031298221,0.00026163243381536,-0.00049011299964692,0.00048844299079608,-0.0004886971903474,0.00049772101725412,-0.00057978638066395,0.00057796637071755,-0.00057843437533851,0.00058069313417596,-0.00057962348366834,0.00057813227899295,-0.00057827140274556,0.00058085897210887,-0.00048983305707662,0.00048191667607493,-0.00048576662111697,0.00047918902488385,-0.00048999711976977,0.0004817519283372,-0.00048593077540059,0.00047902437983817,-0.00027754169845697,0.00026457189224927,2.0217760030452e-07,-2.873671008913e-07,-6.6760399063153e-07,5.8597129613851e-07,-0.00067799255923032,0.00067791060707344,-0.00065170897597437,0.00065301890945892,-0.00068096786666712,0.00068094681881357,-0.00068060760995975,0.00067962533541568,-0.00068509953460346,0.00068476434804437,-0.00068492276817602,0.00068542358201077,-0.00068519247261136,0.00068452928308739,-0.00068510775784793,0.00068528055888382,-0.00065290142145367,0.00065142903490345,-0.00065305569830895,0.00065403791555089,-0.00068073496312146,0.00068154946333281,-0.00067588680374702,0.00067574015604777,-0.00065191527640765,0.00065077056912801,1.6407880055848e-06,4.8725590597182e-06,-0.00053558288565502,0.00053635813107049,1.1216766095835e-06,-1.3300849037955e-07,-0.00052661080394751,0.00052835361602386,-0.00053644532007478,0.00052554087109549,-0.00053712385491533,0.00053555666875651,-0.00053487756249965,0.00056562256850599,-0.00052538446931426,0.00052958414794376,-0.00053521643421117,0.00052676860508005,-0.00053589681207224,0.00053678617401679,-0.00057860292495783,0.00057960970971825,-0.00057902084722026,0.00057919092582387,-0.00057894514045653,0.00057749283996134,-0.000579363866784,0.00057707483759245,-0.00056911579907391,0.00057766418781587,-0.00056429578428905,0.00056713604016061,-0.00056387835147497,0.00056755517165164,-0.00056869662765815,0.00057808155719655,-0.00053610772402669,0.00056439590795475,0.75201415268427,128566,2924,0.0020453087796128,0.00282046234051,0.00223068137054,16.669125412197,-0.00010664699670243,-0.00010664699670243,-0.00010664699670243,2823618.1908194,0.007121866771488
23991759,0.44777689378108,0.007680289752157,0.0023471749217294,0.0028526312182772,0.0024804836121505,-0.00050104054912329,0.00049967917576712,-4.5399343795257e-06,-1.6408661351948e-06,-2.7474157304627e-07,2.1151566933876e-07,-0.00027688000850485,0.0002657752455104,-0.0004994337784441,0.00049867047541642,-0.00049798016355171,0.0005082532261416,-0.0002820991096635,0.0002677486140378,-0.00027735334816501,0.00026530036632069,-0.00049990686402091,0.00049819261413689,-0.00049845337803748,0.00050777552759953,-0.00059071316822337,0.00058884920783461,-0.00058932574814068,0.00059165037059868,-0.00059055327739038,0.00058901215556832,-0.00058916577429582,0.00059181324075265,-0.00049952513228222,0.0004913983958863,-0.00049535218829663,0.00048862018950839,-0.00049968622874112,0.00049123659198771,-0.00049551339216411,0.00048845850123281,-0.0002816258309802,0.00026822354460836,1.9753427587317e-07,-2.833032076469e-07,-6.8287696478165e-07,6.0066001741543e-07,-0.00069126499786388,0.00069118246013686,-0.00066465419695119,0.00066598995486477,-0.00069434193517466,0.0006943017956938,-0.00069395339236291,0.00069296903686866,-0.00069828592940915,0.00069793718425371,-0.00069810657934982,0.00069861383240124,-0.00069837416457896,0.00069770337537901,-0.00069828597444398,0.00069847117342006,-0.00066587173437116,0.00066437236240015,-0.00066603732646892,0.00066705121940202,-0.00069410520551934,0.00069492060222626,-0.00068905370273883,0.00068892496731045,-0.00066486077283536,0.00066368322556558,1.6849832744144e-06,5.0231854042471e-06,-0.00054497729351039,0.00054578384856627,1.1559769530653e-06,-1.2875456199051e-07,-0.00053619895766307,0.00053798990918051,-0.00054640766173303,0.00053522431213383,-0.00054711723600341,0.00054551406435622,-0.00054475663489911,0.00057647802304569,-0.00053494320792114,0.0005392497933646,-0.00054514939900155,0.00053648145113129,-0.00054586078748809,0.00054677294484848,-0.00058890146462558,0.00058993635953459,-0.00058932941791755,0.00058950755763884,-0.00058925065539565,0.00058776417466218,-0.00058967939709155,0.00058733613797258,-0.00057946565201748,0.00058827743153239,-0.00057454103408135,0.00057745748932827,-0.00057411357000967,0.00057788663189378,-0.00057903647522355,0.00058870483855657,-0.00054601614806738,0.00057522194845399,0.77068673025455,128566,2924,0.0020833193447901,0.0028755847286581,0.0022698005701497,17.192026447261,-0.00010246378842191,-0.00010246378842191,-0.00010246378842191,2843976.3964197,0.0072550753746773
24191759,0.45519981695076,0.0078032029807307,0.0023837201059307,0.0029012253541352,0.0025182575206648,-0.00051001650968019,0.00050860223754723,-4.6760392946068e-06,-1.6755246584036e-06,-2.6683400808652e-07,1.994532397308e-07,-0.00028015469583205,0.00026873067493376,-0.00050873703487796,0.00050790776361905,-0.00050724431707893,0.00051780771473882,-0.00028548241425275,0.00027070118007153,-0.00028060860880026,0.00026827526266555,-0.00050919060580007,0.00050744940434727,-0.0005076980269631,0.00051734952674922,-0.00060164345240724,0.00059973388556893,-0.00060021951570045,0.00060261299356891,-0.00060149025185741,0.00059989016108976,-0.00060006622744321,0.00060276918776011,-0.00050881887861424,0.00050046035468806,-0.00050453747930587,0.00049762079124994,-0.00050897331137991,0.00050030520916536,-0.00050469203058035,0.00049746576755037,-0.0002850285708694,0.00027115664873681,1.8759028919961e-07,-2.7342505637071e-07,-6.9953044092644e-07,6.1718422841945e-07,-0.00070450145225466,0.00070441879126669,-0.00067741810084947,0.0006787795814419,-0.00070767880041556,0.00070760804116185,-0.00070724716336981,0.00070627107769196,-0.00071151460133433,0.00071114799828028,-0.00071133186150601,0.00071184338760421,-0.00071159449072877,0.00071091918404652,-0.00071150160838004,0.00071170442042022,-0.00067865070770176,0.00067712535951357,-0.0006788173230056,0.00067987019829149,-0.00070743799159456,0.00070824488514188,-0.00070216916830581,0.00070207082514798,-0.0006776245658407,0.00067640778096057,1.7300417709213e-06,5.1803889096154e-06,-0.00055415765235806,0.00055499551485471,1.191509489356e-06,-1.2647562970593e-07,-0.00054508368051877,0.00054692049887677,-0.00055582517999907,0.00054435553384153,-0.00055655615329131,0.00055491148859583,-0.00055398057791808,0.00058668722482393,-0.00054379534715401,0.00054821288443798,-0.00055453437859078,0.00054564521083383,-0.00055526714753435,0.00055620288685283,-0.00059917296888476,0.0006002372618543,-0.00059961202183608,0.00059979737691444,-0.00059953190983927,0.00059801076986121,-0.00059997173770216,0.00059757163590618,-0.00058960878525685,0.0005986822023359,-0.00058456415891015,0.00058755670853717,-0.00058412558824286,0.00058799692469119,-0.00058916852635935,0.00059912071039944,-0.00055527262831876,0.00058539859988625,0.73179327283794,128566,2924,0.0021205682018026,0.0029305538406337,0.0023080282613506,17.664980973316,-9.868015221347e-05,-9.868015221347e-05,-9.868015221347e-05,2866014.5145686,0.0073864836628205
24391759,0.46269669240001,0.0079280783419424,0.0024208475552236,0.0029506423040462,0.0025565884826727,-0.00051864309991509,0.00051719565660238,-4.7895355781246e-06,-1.6843467333975e-06,-2.4497417482609e-07,1.8863807088029e-07,-0.00028350748648853,0.00027183960362088,-0.00051775522131196,0.0005168691136522,-0.00051622688778364,0.00052705527362642,-0.00028892173153037,0.00027377596689376,-0.00028392947164255,0.00027141613888665,-0.00051817684099228,0.00051644273535838,-0.00051664864924487,0.00052662907223632,-0.00061213757553576,0.00061020104450771,-0.00061068062413322,0.000613153874675,-0.00061199526925784,0.00061034641630619,-0.00061053822908717,0.00061329916392811,-0.00051769227218126,0.00050913835420926,-0.0005133103118881,0.00050624411050477,-0.0005178358062564,0.00050899410422783,-0.00051345397238556,0.00050609997945557,-0.00028849981932149,0.00027419947678246,1.7162071357952e-07,-2.5690252317616e-07,-7.1715109971559e-07,6.352524950443e-07,-0.00071728307955711,0.00071720086407167,-0.00068972373869382,0.00069110976171142,-0.00072053060673728,0.00072041651865607,-0.00072005013777621,0.00071909452261328,-0.00072436329942936,0.00072397435698414,-0.00072417589500739,0.00072468885722772,-0.00072443161208128,0.00072375574140253,-0.00072433346437907,0.00072455948872128,-0.0006909756109912,0.00068942660912163,-0.00069112828460058,0.00069222739922854,-0.00072028461917371,0.00072107195808385,-0.00071480273689757,0.00071474864992904,-0.00068993481106548,0.00068867267422515,1.7704761267986e-06,5.3280684110393e-06,-0.00056298661804304,0.00056385231996262,1.2263813392974e-06,-1.2733838537616e-07,-0.00055382631457219,0.00055569753048903,-0.00056495365858937,0.00055321186488999,-0.00056572557592907,0.00056403627686735,-0.00056299157597794,0.00059658424519922,-0.00055250304230779,0.00055702498335951,-0.00056362787318437,0.00055453652389673,-0.0005644016024596,0.00056536267959464,-0.00060903730968915,0.00061012928637373,-0.0006094882725941,0.00060967748680315,-0.00060939575831021,0.00060784283493689,-0.00060984749354281,0.00060739178428524,-0.00059934639502704,0.00060866837557545,-0.00059421662797783,0.00059727734513565,-0.00059376615646945,0.00059772948597985,-0.0005988942270331,0.00060911880309491,-0.0005643186216072,0.00059526062757693,0.73638899682682,128566,2924,0.0021564029309222,0.0029836317595561,0.0023447870676694,17.858891932656,-9.712886453875e-05,-9.712886453875e-05,-9.712886453875e-05,2885833.8412502,0.00751309855154
24591759,0.47026114349621,0.0080576015586328,0.002459313395257,0.0030018937733605,0.0025963943900152,-0.00052749323149546,0.00052600585355165,-4.9081778948736e-06,-1.6974321513371e-06,-2.2178615182546e-07,1.7901651464766e-07,-0.00028706681554765,0.00027514032639631,-0.00052718429915108,0.00052624354209967,-0.00052562334681413,0.000536702569244,-0.00029256030761919,0.00027702210920084,-0.00028745653950958,0.00027474915766002,-0.00052757371589897,0.00052584939211854,-0.00052601290985345,0.00053630860542945,-0.00062282493789078,0.00062086048402908,-0.00062133715481025,0.00062388367071463,-0.00062269352109218,0.00062099494817677,-0.00062120564888733,0.00062401804977048,-0.00052690192764511,0.00051813913473454,-0.00052242493879504,0.00051520150662724,-0.00052703455334668,0.00051800579126481,-0.00052255769077291,0.00051506829318915,-0.00029217065060957,0.00027741332871499,1.5562094767996e-07,-2.4009064979785e-07,-7.3570370853995e-07,6.544994633494e-07,-0.00073037332328104,0.0007302918065434,-0.0007023986242257,0.00070381142220631,-0.00073371314890721,0.00073355492894367,-0.00073317958180705,0.00073224435067579,-0.00073746830534157,0.00073705656124364,-0.00073727534019943,0.0007377906827044,-0.00073752127311155,0.00073684440816321,-0.00073741956043881,0.00073766977031219,-0.00070366944751404,0.00070209505810382,-0.00070380634612307,0.0007049540992749,-0.00073346011364556,0.00073422851003759,-0.00072776371428843,0.00072775520093982,-0.00070261866128343,0.00070130926440992,1.8089475112869e-06,5.4770201415364e-06,-0.0005720903948859,0.00057298440027997,1.263359417611e-06,-1.2822582397274e-07,-0.0005631180947351,0.00056501917426596,-0.00057454485639369,0.00056253183078187,-0.00057535048022352,0.00057361589466827,-0.00057259649548011,0.00060711272401184,-0.00056175777888968,0.00056638374661516,-0.00057318196986494,0.00056389353199489,-0.00057398945798696,0.00057497938605128,-0.00061910940925458,0.00062022970260188,-0.00061957298454476,0.00061976527328004,-0.00061947056398721,0.00061788850495727,-0.00061993492951259,0.00061742484050666,-0.00060942897088032,0.00061898275312912,-0.00060418720577494,0.00060731178597464,-0.00060372412769744,0.00060777656489626,-0.00060896417237031,0.00061944579030837,-0.00057396066323978,0.00060575205527225,0.75660586683156,128566,2924,0.0021931533345008,0.0030379884394578,0.0023826881302257,18.045773583736,-9.5633811330115e-05,-9.5633811330115e-05,-9.5633811330115e-05,2900867.6410047,0.0076430911505211
24791759,0.4778904361946,0.0081757694632912,0.0024944975643991,0.0030489143660673,0.0026323575328248,-0.0005357751817737,0.00053424638999362,-5.0287290611839e-06,-1.7064955971654e-06,-2.0916500005202e-07,1.6664698327738e-07,-0.00028952875084251,0.00027737151507356,-0.00053545559486285,0.00053443688409923,-0.0005338609521874,0.00054517305987694,-0.00029510932429484,0.00027917739910351,-0.00028989365673484,0.00027700521854503,-0.00053582034806322,0.0005340674122429,-0.00053422586736638,0.00054480379339109,-0.00063317178510437,0.00063117010994013,-0.00063165307720736,0.00063426420247272,-0.00063304860567765,0.00063129631688588,-0.00063152979768052,0.00063439031319107,-0.00053515050072715,0.00052617627850416,-0.00053058023343535,0.00052319396488667,-0.000535274823831,0.00052605121430918,-0.00053070471269125,0.00052306906198785,-0.00029474451185306,0.00027954375831853,1.4340914871942e-07,-2.2711379502959e-07,-7.5542985186069e-07,6.7488663699394e-07,-0.00074290006953652,0.00074281922252876,-0.00071423688692751,0.00071568123626356,-0.00074628091847789,0.00074608520393451,-0.0007457195116337,0.00074479639850117,-0.00075017129128716,0.00074973853585667,-0.00074997172461645,0.00075049286049027,-0.00075021130047071,0.0007495299614269,-0.00075010444781473,0.00075037698881549,-0.0007155199312855,0.00071391530732196,-0.00071561688814005,0.00071681291670627,-0.00074602117952597,0.00074677884141799,-0.00074014297819085,0.00074017335421097,-0.00071446633351267,0.00071310997673396,1.8401124008729e-06,5.6187068702851e-06,-0.00058059731277223,0.00058150402472894,1.2944817149537e-06,-1.3733349029182e-07,-0.00057103099256329,0.00057294436472514,-0.00058297992720837,0.00057069623061505,-0.00058380567968344,0.00058200892565463,-0.0005808287805848,0.00061620896181628,-0.00056963143830923,0.00057434835827875,-0.0005815776371543,0.00057209720302479,-0.00058240537279876,0.00058341180821383,-0.00062884102667631,0.00062997661603382,-0.00062931800403894,0.00062949873350841,-0.00062920678971024,0.0006275822463664,-0.00062968460933015,0.00062710518095302,-0.00061879336114114,0.00062857044259248,-0.00061343369500108,0.00061660864754784,-0.00061295724632322,0.00061708688810762,-0.00061831510170092,0.00062904684539459,-0.00058223238008759,0.00061480907131921,0.68706803989818,128566,2924,0.0022275382002749,0.0030900003637083,0.0024180742378467,18.232380695203,-9.4140954438378e-05,-9.4140954438378e-05,-9.4140954438378e-05,2918775.027897,0.0077658221573426
24991759,0.4856490754122,0.0082980164618395,0.0025308913637187,0.0030975070458375,0.0026696180522834,-0.00054457804103482,0.00054300043376007,-5.1523499856074e-06,-1.7188670873736e-06,-2.145578137954e-07,1.6311737578367e-07,-0.00029324634329825,0.00028094095275646,-0.00054436561915903,0.00054328542873455,-0.00054273988514814,0.00055427656179545,-0.00029893159764925,0.00028258767724789,-0.00029361271552298,0.00028057315575181,-0.00054473209586809,0.00054291429073256,-0.00054310649655211,0.00055390562466295,-0.00064390428104018,0.00064185113480346,-0.00064235758294454,0.00064501421010685,-0.00064378042653748,0.00064197801921125,-0.00064223363674567,0.00064514100110953,-0.00054390584019178,0.00053471549566981,-0.0005392470820195,0.00053172723879276,-0.00054403081400011,0.00053458979442892,-0.00053937219036177,0.0005316016918892,-0.00029856526803658,0.00028295552033082,1.4410997182859e-07,-2.279875971183e-07,-7.7671233943969e-07,6.9599403218154e-07,-0.00075584472963702,0.00075576371640399,-0.00072648823732477,0.00072797449209181,-0.00075922341876161,0.00075901493509348,-0.00075865572202012,0.00075771684601024,-0.00076336957441093,0.00076292318691774,-0.00076316248791239,0.00076369819402415,-0.00076340136381035,0.00076270511978048,-0.00076328868555739,0.00076357452021025,-0.00072779968147002,0.00072615280756772,-0.00072784343956005,0.00072908024620812,-0.00075895668487852,0.0007597297964308,-0.00075292195739387,0.00075296478482423,-0.00072673233127272,0.00072533483837907,1.8705791239755e-06,5.7535351855917e-06,-0.00058963263724543,0.00059055513885093,1.3299730768891e-06,-1.4425125458651e-07,-0.00057975099980363,0.00058167517075114,-0.00059213700710708,0.00057960574838701,-0.0005929829031506,0.00059112980494729,-0.0005898462911352,0.00062597359148374,-0.0005783099809713,0.00058312083653962,-0.00059069309737007,0.00058104820477199,-0.00059154110269481,0.00059257427957129,-0.00063899488817182,0.00064015185782456,-0.00063948596666471,0.00063965982380731,-0.00063937410799132,0.00063771775450616,-0.00063986608428834,0.00063722658745726,-0.00062862893744406,0.00063860257461357,-0.00062313369787579,0.00062636084910727,-0.00062264316362255,0.00062685326780001,-0.00062813648732788,0.00063909306363739,-0.00059129160116639,0.00062453222890402,0.69911854933062,128566,2924,0.0022640694773709,0.0031437443759885,0.0024556626090146,18.541982212476,-9.1664142300193e-05,-9.1664142300193e-05,-9.1664142300193e-05,2944295.2301792,0.0078946959111283
25191759,0.49372003033436,0.0084288779759208,0.002569782850227,0.0031494785222647,0.0027096166034291,-0.00055442435828918,0.00055280649749244,-5.2718162221241e-06,-1.7239158803944e-06,-2.2186549939672e-07,1.8134482354738e-07,-0.00029768310147216,0.00028523153686017,-0.00055453537701142,0.0005534319367285,-0.0005528790084944,0.00056470319178781,-0.00030349621203985,0.00028669513282453,-0.00029807438391528,0.00028483877075714,-0.00055492678769957,0.00055303579500737,-0.00055327057910775,0.00056430722601387,-0.00065576146733374,0.00065365776320368,-0.00065418673339851,0.00065689193009557,-0.00065562912326256,0.00065379317884212,-0.00065405429182794,0.00065702726411527,-0.00055382755318883,0.00054443512630844,-0.00054907975185901,0.00054147319971863,-0.00055396100228257,0.00054430094139922,-0.00054921335961254,0.00054133912592759,-0.00030310505885047,0.00028708783576596,1.5615429800974e-07,-2.4125243470178e-07,-7.9902860399371e-07,7.1719999277315e-07,-0.0007701631076607,0.00077008098197326,-0.00074018317457014,0.00074171939096203,-0.00077353917265887,0.0007733399346166,-0.0007729836009883,0.00077200421898729,-0.00077784862773921,0.00077739513227686,-0.00077763424925191,0.00077819180596012,-0.00077788054804813,0.00077716023898108,-0.00077776361875851,0.00077805436809421,-0.00074152840805198,0.00073982933186432,-0.00074152638593537,0.00074279626645983,-0.00077326521174858,0.00077407651929242,-0.00076707155397953,0.00076710289890711,-0.00074044133664754,0.00073900859005641,1.9010271529494e-06,5.8971296617949e-06,-0.00059984272562418,0.00060078234360332,1.3662739449089e-06,-1.5151754205518e-07,-0.00058993195812472,0.00059186344374998,-0.00060265817696388,0.0005898639914415,-0.00060352940804801,0.0006016161589984,-0.00060033622404901,0.00063730444256908,-0.00058844828968141,0.00059335195155659,-0.00060117157633682,0.00059134906605442,-0.00060204496824659,0.00060310336120096,-0.0006502958704689,0.00065147340084479,-0.00065080144713991,0.00065096682386729,-0.00065068378924605,0.0006489938964549,-0.00065119029158287,0.00064848823355193,-0.00063975929874126,0.00064992327440941,-0.00063413008694357,0.00063740589645953,-0.00063362506400368,0.00063791290063818,-0.0006392523069906,0.00065042823515891,-0.00060182426937152,0.00063582051079094,0.71926998127724,128566,2924,0.0023049588776829,0.0032031870031346,0.0024981353418657,19.180945187983,-8.6552438496133e-05,-8.6552438496133e-05,-8.6552438496133e-05,2967573.1668237,0.008038647359588
25391759,0.50211121322262,0.0085725275573063,0.0026123329246361,0.0032064634881721,0.0027537311444981,-0.00056495218568989,0.00056329059601497,-5.3967325372135e-06,-1.7264366478094e-06,-2.3100359324293e-07,2.0747330889253e-07,-0.0003025283345566,0.00028994705517624,-0.0005657869101829,0.00056467252027234,-0.00056410436741865,0.00057623939987165,-0.00030847446850925,0.0002911575208028,-0.00030295413481372,0.00028951966921561,-0.00056621289661931,0.0005642417170646,-0.00056453048436325,0.00057580877152491,-0.0006683352949297,0.00066618108312128,-0.0006667345877923,0.00066948591024326,-0.00066819129110828,0.00066632824900335,-0.00066659050213283,0.00066963299748148,-0.00056463728547851,0.00055504047604195,-0.00055978930182456,0.0005521291226317,-0.00056478244760925,0.0005548945655121,-0.0005599345695578,0.00055198331508565,-0.00030804871499152,0.00029158486209334,1.7279014514289e-07,-2.5976041526866e-07,-8.2033965786238e-07,7.3680395450448e-07,-0.00078550011726246,0.00078541627840314,-0.0007550697018438,0.00075665603705692,-0.00078890421036282,0.00078872415729551,-0.00078836697502763,0.00078733767518823,-0.00079320496968265,0.00079274786826481,-0.00079298568193687,0.00079356681875498,-0.00079324073959762,0.00079249346180422,-0.00079312323959119,0.00079341419542805,-0.00075645332909098,0.00075470075739012,-0.00075642409929344,0.00075772063752319,-0.00078862163435651,0.00078947937186467,-0.00078225358299759,0.00078226221846029,-0.00075533830348461,0.00075387548194817,1.928755950752e-06,6.0521657422825e-06,-0.00061083420991981,0.00061178933337031,1.4002575584327e-06,-1.5845323221749e-07,-0.00060131996019153,0.00060325669649858,-0.00061432550733711,0.00060124293503346,-0.00061523231735121,0.00061325324227946,-0.00061209916618486,0.00065002404950382,-0.00059979623758281,0.00060478539105883,-0.00061279878416764,0.00060276811980653,-0.0006137078027639,0.00061478056131498,-0.0006623146725777,0.00066350662358997,-0.00066283385401936,0.00066298641288158,-0.00066270856317053,0.00066098015347944,-0.00066322869347487,0.00066046086690537,-0.00065186402170897,0.00066223300679904,-0.00064610828195893,0.00064943461705374,-0.00064558967280088,0.00064995529584072,-0.00065134336475649,0.00066275159984281,-0.00061362742237895,0.0006484999785504,0.75830137942649,128566,2924,0.0023486773420763,0.0032668527343768,0.0025438506849957,19.828227440966,-8.1374180472273e-05,-8.1374180472273e-05,-8.1374180472273e-05,2983207.3932665,0.0081929978046928
25591759,0.5108252124043,0.0087265885739499,0.0026578155087853,0.0032676362485507,0.002801136816614,-0.00057603261322999,0.00057431792540189,-5.5367483274382e-06,-1.7324606882121e-06,-2.4113752312132e-07,2.3327877925373e-07,-0.00030734002655176,0.00029464355768663,-0.00057783459844512,0.00057670121452572,-0.00057612383144041,0.00058858742346188,-0.00031342109059461,0.00029550063224132,-0.00030780103893627,0.00029418087334473,-0.00057829574198588,0.00057623506700635,-0.00057658512880914,0.00058812146805397,-0.00068156838033548,0.00067936319449577,-0.0006799398095059,0.00068274158462461,-0.00068141249178937,0.0006795223410518,-0.00067978383592528,0.00068290064801234,-0.00057619022876822,0.00056639015546328,-0.00057124889616209,0.00056349765027709,-0.0005763472963985,0.00056623228890578,-0.0005714060773833,0.00056333989484086,-0.00031296014168703,0.00029596326826065,1.8954650122376e-07,-2.7878093074766e-07,-8.4176285730046e-07,7.5617100721026e-07,-0.0008017642349011,0.00080167832878614,-0.00077100236737908,0.00077263854690603,-0.00080525416084344,0.00080509357146209,-0.00080472966570236,0.00080364944055511,-0.00080935854879969,0.00080889771289974,-0.00080913346987495,0.00080973806571519,-0.00080939724620963,0.00080862241760942,-0.00080927763796155,0.00080956823542373,-0.00077242463543638,0.000770618137195,-0.00077237395292245,0.00077369644623319,-0.00080496213889993,0.00080586653890975,-0.00079839281574554,0.00079837772369794,-0.00077128312508023,0.00076979026063068,1.9583018317658e-06,6.2261299363507e-06,-0.00062245342381273,0.00062343607231451,1.4405909653495e-06,-1.5900251137386e-07,-0.00061349185748691,0.00061543830880364,-0.00062682058745272,0.00061345027521187,-0.00062776366959,0.00062572386793296,-0.0006247375525165,0.00066380400691459,-0.00061192819866194,0.00061700709778649,-0.00062525385304069,0.00061501546602096,-0.00062619917334939,0.00062729122724925,-0.00067498851709893,0.00067619653810949,-0.0006755213157106,0.00067566268107313,-0.00067539048724394,0.00067362563066446,-0.00067592425098516,0.00067309271423379,-0.00066481456327895,0.00067541305028029,-0.00065892372109928,0.00066230119466771,-0.00065839152303016,0.00066283555727675,-0.00066428025512969,0.00067594525699621,-0.00062630585564836,0.00066223995375178,0.78252854614652,128566,2924,0.002394677916116,0.0033343603633394,0.0025921974499552,20.475826352562,-7.6193389179504e-05,-7.6193389179504e-05,-7.6193389179504e-05,2992082.8513069,0.0083562006817444
25791759,0.5196776319989,0.0088782699537752,0.0027025541951784,0.0033280660330966,0.0028476497255001,-0.00058646758977663,0.00058470561343448,-5.6714674741898e-06,-1.7214399883335e-06,-2.5235840606273e-07,2.5478443176984e-07,-0.00031107246789793,0.00029835400053068,-0.0005889840307708,0.0005878206724196,-0.00058724646025466,0.00060002088504322,-0.00031728018393229,0.00029873490742101,-0.00031156550699185,0.00029785918956784,-0.0005894771623901,0.0005873223487929,-0.00058773975593392,0.00059952277526135,-0.00069428366942322,0.00069203294285583,-0.00069262887496342,0.00069548396082787,-0.00069411698358062,0.00069220300646537,-0.00069246210007475,0.00069565393757753,-0.00058694712468719,0.00057695500270373,-0.00058192127720908,0.00057404275539335,-0.00058711503934083,0.00057678624406073,-0.00058208931481279,0.000573874115839,-0.00031678721296887,0.0002992296511457,2.0463759540159e-07,-2.9624396885773e-07,-8.633423765127e-07,7.7556827355688e-07,-0.00081748815014812,0.0008174000469063,-0.00078631881620404,0.00078800382231235,-0.0008210550524886,0.00082091054958121,-0.00082055781834104,0.00081942966591899,-0.00082501416219616,0.00082454833745935,-0.00082478317719354,0.0008254101001421,-0.00082505845271257,0.00082425694429425,-0.00082493590736292,0.00082522714004176,-0.00078777778476783,0.00078591812784368,-0.00078769909660942,0.0007890486728218,-0.00082075427905529,0.00082170207704472,-0.00081400157882485,0.00081396588166185,-0.00078660929593682,0.00078508501138091,1.9849498404e-06,6.4037511830005e-06,-0.00063340118025703,0.00063441194145145,1.4815532751009e-06,-1.591108867848e-07,-0.00062457086251479,0.00062652037632601,-0.00063836164829378,0.00062471230335678,-0.00063935604160213,0.00063725217201733,-0.00063624836650752,0.00067645580080396,-0.00062296709958035,0.00062812946850558,-0.00063675471217744,0.00062631768140169,-0.00063775139127983,0.00063885976536886,-0.00068715349409066,0.00068837619065719,-0.00068769997095663,0.0006878286237006,-0.00068755740783525,0.00068575722510526,-0.00068810487017465,0.00068521061764754,-0.00067710258157984,0.0006879629992355,-0.00067109694930004,0.00067451712887067,-0.00067055109548991,0.00067506522697302,-0.00067655455708708,0.00068850887882586,-0.00063785690918574,0.0006748515726311,0.75921599425089,128566,2924,0.0024380086308904,0.0033996178575516,0.0026377526240377,20.820783921714,-7.3433728626286e-05,-7.3433728626286e-05,-7.3433728626286e-05,2996247.8629815,0.0085116545032995
25991759,0.52837892821325,0.0090240681316713,0.0027455766533195,0.0033862325718781,0.0028922589064738,-0.00059577866516933,0.00059396869924861,-5.8005726821173e-06,-1.6957588488956e-06,-2.6516439228452e-07,2.6751197804729e-07,-0.00031419105303371,0.00030157492641405,-0.00059881030312438,0.0005976038800719,-0.00059705074261167,0.0006100989920045,-0.00032050410283661,0.00030133226518032,-0.00031470908857254,0.00030105500864315,-0.00059932840563207,0.00059708046914167,-0.00059756902754307,0.00060957577499692,-0.00070577526145471,0.0007034779290555,-0.00070409869395717,0.00070699489413026,-0.00070560017534749,0.00070365650449264,-0.00070392351305668,0.00070717338891721,-0.00059637562662921,0.00058620358756246,-0.00059127989387114,0.0005832888586204,-0.00059655199242721,0.00058602634193999,-0.00059145639988176,0.00058311171696637,-0.00031998617906865,0.00030185202837149,2.1615424136605e-07,-3.1010834796404e-07,-8.8480067093518e-07,7.9483389793531e-07,-0.00083180141625584,0.0008317111083127,-0.00080018416451801,0.00080191533655022,-0.0008354083235886,0.00083527296612862,-0.00083493779110674,0.00083376885182286,-0.00083937981026661,0.0008389066923702,-0.00083914243204663,0.00083978918647991,-0.00083942916546788,0.00083860345503538,-0.00083930388065247,0.00083959804532828,-0.00080167593855993,0.00079976574764924,-0.00080155054147392,0.00080292935236182,-0.00083509821898523,0.00083608227789991,-0.00082817429011784,0.00082812495791707,-0.00080048612331332,0.00079892826438947,2.0052693493982e-06,6.5645571440945e-06,-0.00064312532100026,0.00064415784587166,1.5202282389694e-06,-1.6119108531805e-07,-0.0006342066826065,0.00063615030645131,-0.00064852990106174,0.00063463013438358,-0.0006495757058588,0.00064740671572711,-0.00064631084366131,0.00068745157130529,-0.00063256306144265,0.00063779941292636,-0.00064688306502673,0.00063627538910864,-0.00064793117696988,0.00064905423883875,-0.00069812447961202,0.00069935839902938,-0.00069868453264186,0.00069879723183403,-0.00069852638198104,0.00069669371826366,-0.00069908743157546,0.00069613353187165,-0.00068804974040388,0.0006991624907792,-0.00068194653042597,0.00068539587758916,-0.00068138711090576,0.00068595760269264,-0.00068748812004927,0.00069972192961678,-0.0006479593111317,0.00068580748618054,0.74286074029719,128566,2924,0.0024766617045635,0.0034590144481947,0.0026782084392357,20.694829787315,-7.4441361701481e-05,-7.4441361701481e-05,-7.4441361701481e-05,2999454.5442936,0.0086513592911434
26191759,0.53692256425507,0.0091704271100768,0.0027887435998273,0.0034445636292392,0.0029371198810103,-0.00060508101417222,0.00060322637812958,-5.9245564264197e-06,-1.654765027929e-06,-2.6924591384058e-07,2.8260430307557e-07,-0.00031785055517812,0.00030544181426107,-0.00060877298390047,0.00060752607050627,-0.00060699810878964,0.00062030665310584,-0.00032424122831643,0.00030442222565156,-0.00031838730480465,0.00030490306456587,-0.00060930986029638,0.00060698378730326,-0.00060753514993757,0.00061976458167713,-0.00071711497299362,0.00071477750446325,-0.00071542206062079,0.00071835546186316,-0.00071693360100896,0.00071496247337839,-0.00071524060171397,0.00071854034560538,-0.00060583137738693,0.00059549329649361,-0.00060068294526215,0.00059260473404384,-0.00060601408946031,0.00059530966389255,-0.00060086577276134,0.00059242122813263,-0.00032370452851918,0.00030496084246014,2.2455789885958e-07,-3.207428582057e-07,-9.0629917084209e-07,8.1423180707962e-07,-0.00084596027923893,0.00084586786377326,-0.00081398896270257,0.00081576446450242,-0.00084961720663655,0.00084948480848658,-0.00084916262262813,0.00084795918883229,-0.00085358777380225,0.00085310528254776,-0.00085334346876226,0.00085400808259317,-0.00085363977162223,0.0008527920339858,-0.0008535129933887,0.0008538123476663,-0.00081551049341805,0.00081355182420661,-0.00081533316984009,0.00081674357885275,-0.00084929627347709,0.00085031055327121,-0.00084219450960576,0.00084213790186311,-0.00081430355179031,0.00081270989707706,2.0178010737984e-06,6.7104953454215e-06,-0.00065284366314708,0.0006538910646484,1.5563078587692e-06,-1.6612104306105e-07,-0.00064409571859997,0.00064601761494534,-0.0006588621402633,0.00064472668722344,-0.00065996347233154,0.00065772584354227,-0.00065666547575744,0.00069858792805676,-0.00064241202339605,0.00064770693862114,-0.00065717512676899,0.00064641209656861,-0.00065827881585599,0.00065941352917042,-0.00070899381736814,0.00071023478951541,-0.00070956751991592,0.00070965994893751,-0.00070939006496751,0.00070752746698793,-0.00070996478658872,0.00070695361475819,-0.00069898667090352,0.00071032469740995,-0.00069279685535762,0.00069625961101584,-0.00069222381102943,0.00069683503416417,-0.00069841135779338,0.00071089780213158,-0.00065835417688345,0.00069690365915759,0.75895315703958,128566,2924,0.00251528295921,0.0035177666320359,0.0027186249120013,20.55692661416,-7.5544587086717e-05,-7.5544587086717e-05,-7.5544587086717e-05,3003039.4033393,0.0087903608039195
26391759,0.54530931887955,0.0093190341710273,0.0028325118888933,0.003503737987815,0.002982784294319,-0.00061443896640272,0.00061253449436737,-6.0487265142566e-06,-1.6070735105709e-06,-2.6829352280402e-07,2.9909160649815e-07,-0.00032168773257928,0.00030954937391065,-0.00061900343202156,0.00061771107138876,-0.00061721686780403,0.0006307789579334,-0.00032814560542223,0.00030762830083382,-0.00032223964326388,0.00030899537319072,-0.00061955547483846,0.0006171534928626,-0.0006177690844211,0.00063022160796174,-0.00072843591086056,0.00072605862356573,-0.000726729328704,0.00072969550511692,-0.00072824947723312,0.00072624877904115,-0.00072654280797284,0.0007298855753646,-0.00061549354151251,0.00060499201515811,-0.00061029674966,0.00060212134577592,-0.00061568137781381,0.0006048032183744,-0.00061048469447845,0.00060193267121511,-0.00032759374339371,0.00030818214659862,2.3122303800719e-07,-3.2948780526078e-07,-9.277988756276e-07,8.3376694665637e-07,-0.00086017928189595,0.0008600848940152,-0.00082799161136439,0.00082981049846064,-0.0008639287565131,0.00086379584134573,-0.00086348298323882,0.00086224869594081,-0.00086776528777765,0.00086727231369759,-0.00086751398252087,0.00086819543579664,-0.00086781804817482,0.00086694956333911,-0.00086769042148952,0.00086799635178322,-0.00082954059936211,0.00082753464511497,-0.00082931423548294,0.00083075773435035,-0.00086359584087169,0.00086463693761585,-0.0008563052419107,0.00085624513144851,-0.00082832130117687,0.00082669065573391,2.0261535632589e-06,6.8547539648546e-06,-0.00066263316052133,0.00066369559942666,1.5910297364403e-06,-1.7249112423706e-07,-0.00065428516633878,0.0006561816856336,-0.00066946824467424,0.00065510408660289,-0.00067063092895475,0.00066832434343637,-0.00066737727358176,0.00071013007691946,-0.000652561297418,0.00065791132491333,-0.00066774098314626,0.00065682970952473,-0.00066890606358657,0.00067005228755586,-0.00071986961538821,0.00072111459945602,-0.0007204569971764,0.00072052604960839,-0.00072025777578328,0.00071836757546498,-0.00072084619685408,0.00071778003382814,-0.00071006994292868,0.00072163884033622,-0.00070380311217135,0.00070727252765015,-0.00070321640901753,0.0007078617035573,-0.0007094809121785,0.00072222562480348,-0.00066910625692466,0.00070840562110481,0.78422388518284,128566,2924,0.0025541255336431,0.0035767639007548,0.0027593359364025,20.418555864327,-7.6651553085381e-05,-7.6651553085381e-05,-7.6651553085381e-05,3002560.2866855,0.0089301487884294
26591759,0.55370523288176,0.0094674719743174,0.0028762218325087,0.0035628869947466,0.0030283631470621,-0.00062430018695743,0.00062234232342953,-6.1722767262264e-06,-1.5504699827184e-06,-2.6120671891966e-07,3.1596288281869e-07,-0.00032572905301221,0.00031382797511169,-0.00062971376410037,0.00062837353341793,-0.00062791667363655,0.00064173222040455,-0.00033224322745231,0.00031101481871879,-0.00032629044464051,0.00031326441622781,-0.00063027533473817,0.00062780633072726,-0.00062847842310404,0.00064116525529083,-0.0007403319780937,0.0007379187027047,-0.00073861335026611,0.00074161343371623,-0.00074014236687143,0.00073811213522007,-0.00073842365247403,0.0007418067815314,-0.00062568146836945,0.00061501816131117,-0.0006204350015576,0.00061214191926367,-0.00062587252358542,0.00061482610318798,-0.00062062616346189,0.00061194998514892,-0.00033168187849834,0.00031157822542815,2.3513835953852e-07,-3.3521970858767e-07,-9.4971736421361e-07,8.5394975846776e-07,-0.00087503073496266,0.0008749346095361,-0.00084266308613783,0.0008445247115649,-0.00087890448179333,0.00087876526737477,-0.00087846136534754,0.00087720178999512,-0.00088253860930683,0.00088203312094367,-0.0008822804652421,0.00088297743581719,-0.00088259073195061,0.00088170328520574,-0.00088246148166705,0.00088277648056277,-0.00084423421215126,0.00084218208042008,-0.0008439455626569,0.00084542534409306,-0.00087855987217597,0.00087962271233826,-0.00087107133602035,0.00087101399025264,-0.0008430069270481,0.00084133655365427,2.0320675680325e-06,7.0049068585734e-06,-0.00067294952617601,0.00067403286405871,1.6260029918658e-06,-1.7969762796134e-07,-0.00066490696122398,0.00066677335212675,-0.00068056824099328,0.000665982476947,-0.00068179789483547,0.00067942004454676,-0.00067853847018483,0.00072231880127013,-0.00066314184613528,0.00066854437480884,-0.0006787996518469,0.00066774937079421,-0.00068003174838147,0.00068118930591368,-0.0007313435324482,0.00073259144491828,-0.00073194495801017,0.00073198882715591,-0.00073172170334878,0.00072980435244307,-0.00073232418947312,0.00072920276284343,-0.00072175072892577,0.00073355917842343,-0.00071540360053889,0.00071888359929177,-0.00071480287707589,0.00071948687991827,-0.00072114761925074,0.00073416000153947,-0.00068030880658002,0.00072055311467276,0.78230622609188,128566,2924,0.0025950555497803,0.0036383807690966,0.002802246380019,20.571165598298,-7.5430675213618e-05,-7.5430675213618e-05,-7.5430675213618e-05,3002041.1674454,0.0090769263810385
26791759,0.56226640958033,0.0096153902437901,0.002919814327284,0.0036218952466829,0.0030736806698231,-0.00063471083031365,0.00063269495732555,-6.2945275438925e-06,-1.4797708424473e-06,-2.5336294961216e-07,3.2725114445888e-07,-0.00033013930197162,0.00031836973702773,-0.00064082691182938,0.00063943373619462,-0.00063901735205226,0.00065307302352789,-0.0003367176017916,0.00031481429570351,-0.00033070406203551,0.00031780282637617,-0.00064139183424279,0.0006388630982037,-0.00063958246292083,0.00065250262349996,-0.00075286215968868,0.00075041327672418,-0.00075113140637154,0.00075416538861696,-0.00075267148243879,0.00075060786241359,-0.00075094064149853,0.00075435989233412,-0.00063630137738651,0.00062548187506595,-0.00063101406151388,0.00062257048432551,-0.00063649353995293,0.00062528867523925,-0.00063120633241704,0.00062237740004079,-0.00033615290113608,0.00031538108264968,2.3604382704496e-07,-3.3770148824565e-07,-9.7193467615295e-07,8.7464291018036e-07,-0.00089051866236795,0.00089042101095546,-0.00085791475865261,0.00085981801675298,-0.00089450786194952,0.00089435615873561,-0.00089406006584779,0.00089278129366822,-0.00089801143564419,0.00089749125605935,-0.00089774718364517,0.00089845803675746,-0.0008980616492123,0.00089715728993126,-0.00089793035751497,0.00089825702047927,-0.00085950611120118,0.00085740931894826,-0.00085912609689721,0.00086064526296253,-0.00089415382892086,0.00089523275286562,-0.00088646704966224,0.00088641910524877,-0.00085827160831886,0.00085655882719635,2.0390516412529e-06,7.1726560394484e-06,-0.00068382569184776,0.00068493943298412,1.6616267279951e-06,-1.8706408438136e-07,-0.00067597829114324,0.00067782290663415,-0.00069210191812488,0.00067729974519771,-0.00069340306962796,0.00069095523560417,-0.00069006802693528,0.00073504781275653,-0.00067417108176867,0.00067963606154433,-0.00069029122033224,0.0006791087100108,-0.00069159483713595,0.00069276659952414,-0.0007434811904596,0.00074473339692462,-0.00074409693758429,0.00074411644469556,-0.00074384659701645,0.00074190253553625,-0.00074446341401194,0.00074128662396698,-0.00073397996391793,0.00074605590593973,-0.00072756203584065,0.000731044844831,-0.0007269470046484,0.00073166248785219,-0.0007333625174237,0.00074667104439474,-0.00069188048130554,0.00073324009041715,0.76472632481001,128566,2924,0.0026382606035015,0.0037026339579433,0.0028475006207512,21.003515322638,-7.1971877418896e-05,-7.1971877418896e-05,-7.1971877418896e-05,3005923.9330715,0.0092310488539783
26991759,0.5709919676582,0.0097622841590771,0.0029631388739658,0.00368055635657,0.0031185889285413,-0.00064515929669241,0.00064308767993331,-6.4133824565686e-06,-1.4044884747512e-06,-2.5037247165582e-07,3.2937014350055e-07,-0.00033459082129857,0.00032280358330021,-0.00065181236531939,0.00065036896880398,-0.00064998586275238,0.00066425657723892,-0.00034125015997575,0.00031879481760181,-0.00033515470362963,0.00032223758055362,-0.00065237641046425,0.00064979915005505,-0.00065055009447822,0.00066368699424161,-0.00076546573110758,0.00076298593488922,-0.00076372062705448,0.00076679539896341,-0.00076527541140578,0.00076318024215856,-0.00076353022010554,0.00076698962283395,-0.00064679507242995,0.00063581986006648,-0.00064145841805123,0.00063287478701349,-0.00064698690949988,0.00063562694361684,-0.00064165036217524,0.00063268199685528,-0.00034068632838156,0.00031936072574264,2.3488082352009e-07,-3.3793002286869e-07,-9.9408954811588e-07,8.9543790644935e-07,-0.00090603559825216,0.00090593658837064,-0.00087309542060429,0.00087503907955716,-0.00091010173011066,0.00090993344262066,-0.00090964241107617,0.0009083488594255,-0.00091362266272294,0.00091308651001351,-0.00091335298888358,0.00091407648386893,-0.00091366926448986,0.00091274956855514,-0.00091353662599289,0.00091387656229549,-0.00087471819533765,0.00087257831160748,-0.00087421919172101,0.00087577937602584,-0.0009097407315041,0.00091083169055304,-0.0009018720840813,0.00090183797247316,-0.00087346445710002,0.00087170795041693,2.0509042287487e-06,7.3510456593264e-06,-0.0006947337082931,0.00069588766643931,1.6975837786942e-06,-1.9413548760264e-07,-0.0006870268938503,0.00068886310292208,-0.00070353646825317,0.00068851191694697,-0.00070491487830349,0.00070240345534124,-0.00070145235448615,0.00074763049970947,-0.00068517757122286,0.0006907183834441,-0.00070168361904636,0.00069036298899093,-0.00070306453122669,0.00070425695060465,-0.00075572279470861,0.00075698362552437,-0.00075635287471514,0.00075635232223712,-0.00075607487172819,0.00075410327857768,-0.00075670603871381,0.00075347302897388,-0.00074616741159905,0.00075852193658553,-0.00073968061347552,0.00074317496572109,-0.00073905127030058,0.00074380698353433,-0.00074553561033394,0.00075915140530343,-0.00070330697846388,0.00074578069996589,0.74557636070889,128566,2924,0.0026816259564861,0.003767002952737,0.0028929057396029,21.442999879748,-6.8456000962014e-05,-6.8456000962014e-05,-6.8456000962014e-05,3013191.4564719,0.0093856268750177
27191759,0.57987641924811,0.0099075954193948,0.003006026190175,0.0037386481986595,0.0031629210305602,-0.00065558253149754,0.00065346366333355,-6.5231447088223e-06,-1.3137703954673e-06,-2.5151397165106e-07,3.2579822948312e-07,-0.00033900740218411,0.00032724391854794,-0.00066259478715138,0.00066110275078592,-0.00066074743737785,0.00067521440375365,-0.00034576061311525,0.00032285451580899,-0.00033956887287303,0.00032668033112674,-0.00066315644356204,0.00066053528630052,-0.00066130927862703,0.0006746471741065,-0.00077808682517056,0.00077557851677272,-0.00077632585518941,0.00077944216145925,-0.00077789740390225,0.00077577202345805,-0.00077613634600787,0.00077963558399907,-0.00065706755750876,0.00064596095374591,-0.00065167836497193,0.00064298760794198,-0.00065725854488628,0.00064576884203059,-0.00065186946363651,0.00064279562888221,-0.0003451992061532,0.00032341802076761,2.3300062915164e-07,-3.373259982758e-07,-1.0162025904204e-06,9.1629109450147e-07,-0.00092151380983684,0.00092141354296058,-0.00088811535220124,0.00089009899773925,-0.00092561681038736,0.00092543053161849,-0.00092514524199797,0.00092383853445883,-0.00092931049932081,0.00092875794752927,-0.00092903600317566,0.00092977172853514,-0.00092935351525997,0.00092841909120582,-0.00092922009906751,0.00092957393465183,-0.00088977300384576,0.00088759063020313,-0.00088913531471742,0.00089073714749865,-0.00092525132635594,0.00092635291597743,-0.00091721286228995,0.00091719422600991,-0.00088849469683601,0.00088669403224579,2.0673202873949e-06,7.5382319085931e-06,-0.00070562649265006,0.00070682993512211,1.7343957497319e-06,-2.0037009654677e-07,-0.00069805872856263,0.00069989787118064,-0.00071482343398982,0.00069956976357821,-0.00071627861415959,0.00071370932228728,-0.00071273561563433,0.00076001987714266,-0.00069616727176935,0.00070179530791341,-0.00071292842085779,0.00070146295396838,-0.0007143861352154,0.00071560496307013,-0.00076801061336092,0.00076928504679245,-0.00076865503200111,0.00076863938304131,-0.00076834884788107,0.00076634907416694,-0.00076899437086179,0.00076570447978066,-0.00075824401438775,0.00077088927308949,-0.00075170277954398,0.00075521573644505,-0.00075105912083317,0.00075586213914446,-0.00075759785541917,0.00077153307834153,-0.000714632411786,0.00075812798472205,0.72509827646683,128566,2924,0.0027249017766941,0.0038312069446273,0.0029382651734085,21.882764002351,-6.493788798119e-05,-6.493788798119e-05,-6.493788798119e-05,3024201.2105125,0.0095399265122208
27391759,0.58884913598046,0.01005757925018,0.0030502397018107,0.0037985419468209,0.003208797601548,-0.00066604860623784,0.00066389001054905,-6.6195182227665e-06,-1.2097343878338e-06,-2.5224483147339e-07,3.213564247964e-07,-0.00034373936987069,0.00033204557103382,-0.00067360172260492,0.00067206140581857,-0.00067172932343455,0.0006863801607838,-0.0003506083874848,0.00032727980086487,-0.00034429715056566,0.00033148571928828,-0.00067415968773987,0.0006714975692081,-0.00067228748348213,0.00068581656828912,-0.00079069519867781,0.00078816060586887,-0.00078891757419598,0.00079207148098052,-0.00079050712270347,0.0007883528954018,-0.00078872940681482,0.00079226368371744,-0.00066741804652886,0.00065616980962589,-0.0006619688435947,0.00065319381907016,-0.00066760774489791,0.00065597892551729,-0.00066215866324542,0.00065300308464869,-0.00035005068635015,0.00032783958908175,2.3046144909615e-07,-3.3603914931983e-07,-1.0388302352946e-06,9.3769937215364e-07,-0.0009370613093417,0.00093695982258523,-0.00090323311465985,0.0009052573897225,-0.00094119994249402,0.00094099401367607,-0.00094071143964788,0.00093939255387672,-0.00094506262643067,0.00094449292659706,-0.0009447835920958,0.00094553153298502,-0.00094510150295729,0.00094415244378287,-0.00094496778869805,0.00094533635130528,-0.00090492735134471,0.00090270191028923,-0.00090415151145146,0.00090579651253128,-0.00094083226518056,0.00094194355543112,-0.00093261961918835,0.0009326181654233,-0.00090362366799173,0.00090177739617728,2.0881210618083e-06,7.736070079406e-06,-0.00071661875424768,0.00071787953811474,1.7721403510875e-06,-2.0677367164718e-07,-0.00070955362592291,0.00071139358568126,-0.00072643869374344,0.00071093691471369,-0.00072796722823826,0.00072534369373752,-0.00072445061440243,0.00077284118284986,-0.00070761902278502,0.00071333425427693,-0.00072450043900515,0.00071287328138469,-0.00072603156365587,0.00072728255747206,-0.00078030406189004,0.00078159500847797,-0.00078096318277742,0.00078093460285475,-0.00078062941234084,0.00077859970238525,-0.00078128966783581,0.00077794039572487,-0.00077043492286902,0.00078336298033434,-0.00076383632241579,0.00076737655601815,-0.00076317801255016,0.00076803774483393,-0.00076977402712104,0.0007840214790251,-0.00072639064883409,0.00077090616172135,0.74093824934966,128566,2924,0.0027683689190789,0.0038956945716581,0.0029840529024033,22.21450030252,-6.2283997579838e-05,-6.2283997579838e-05,-6.2283997579838e-05,3035268.5555138,0.0096951610979143
27591759,0.59786528263328,0.010210289890918,0.0030951948130308,0.0038595081487174,0.0032555869291698,-0.00067648244357465,0.00067428733822546,-6.7131879789107e-06,-1.101707463287e-06,-2.5315179194663e-07,3.1810379071402e-07,-0.00034825869194824,0.00033657929877179,-0.0006846985294847,0.00068311111172203,-0.00068279544668275,0.00069764171084554,-0.00035525533764328,0.00033158475853178,-0.000348814105917,0.00033602189337869,-0.00068525411871053,0.00068254954774486,-0.00068335124148196,0.00069708041614993,-0.00080330875375408,0.00080074594840293,-0.00080151072638192,0.00080470493462487,-0.00080312154601256,0.00080093748179535,-0.00080132342333236,0.00080489637500753,-0.00067782610662769,0.00066643137950097,-0.00067230264785777,0.00066344143815635,-0.00067801500759881,0.00066624126685058,-0.00067249168215843,0.0006632514903214,-0.00035470001848526,0.0003321421730855,2.2859948949106e-07,-3.3548073654646e-07,-1.0627052229698e-06,9.6026656312745e-07,-0.00095270836638192,0.00095260556194105,-0.00091850897090558,0.00092057661256123,-0.00095690122104104,0.00095667604266535,-0.00095639319813797,0.00095505989691057,-0.00096085400880683,0.00096026671103361,-0.00096057034933758,0.00096133166040032,-0.00096089003887565,0.00095992499516954,-0.00096075579460932,0.0009611393397574,-0.00092024545525763,0.00091797405063222,-0.00091932608609219,0.00092101606867116,-0.00095653228895697,0.00095765528188485,-0.00094813091477035,0.00094814601500572,-0.00091891380390245,0.00091701994395814,2.1158834512116e-06,7.9525447878997e-06,-0.00072763245428031,0.00072896672874201,1.8160223813489e-06,-2.0945350456974e-07,-0.0007212544052064,0.00072309940111583,-0.00073820388452968,0.00072243027898544,-0.0007397952385029,0.00073712316564739,-0.00073637903276051,0.00078594986779701,-0.000719274306542,0.00072508566844007,-0.00073622002900593,0.0007244121847891,-0.00073781403930716,0.00073910762846914,-0.00079259748483735,0.00079391177564196,-0.00079327212490008,0.00079323583593598,-0.00079291265584322,0.00079085432987088,-0.00079358844952603,0.00079017950617791,-0.00078268880482999,0.00079591942706083,-0.00077603339051313,0.00077961236699242,-0.00077535956929022,0.00078028909188168,-0.00078201236211555,0.00079659342359609,-0.00073836468614984,0.00078396939366437,0.75071314889769,128566,2924,0.0028117100243547,0.0039605893100905,0.0030299615088097,22.482169546132,-6.0142643630941e-05,-6.0142643630941e-05,-6.0142643630941e-05,3041725.7780775,0.0098508256563138
27791759,0.60691723397656,0.010365830445068,0.0031409242525184,0.0039215931527286,0.0033033130398215,-0.00068702230224718,0.0006847846575159,-6.8209159445408e-06,-9.9886875570979e-07,-2.5770034594367e-07,3.1312395888625e-07,-0.00035276737290352,0.00034097063087214,-0.00069603632011511,0.00069439920315147,-0.00069409876066974,0.00070914705187771,-0.00035991740440809,0.00033585572284312,-0.00035332232557327,0.00034041377501393,-0.00069659140646369,0.00069383803498512,-0.00069465408539453,0.00070858619258923,-0.00081604383667427,0.00081345495934167,-0.00081422306150502,0.00081745908796027,-0.00081585688978881,0.00081364637451389,-0.00081403600906618,0.00081765039643776,-0.00068842793029449,0.00067687895538929,-0.00068281923209516,0.00067386374244714,-0.00068861665403764,0.00067668897101437,-0.00068300812903797,0.00067367395931209,-0.00035936258844279,0.00033641262317074,2.2770810087656e-07,-3.358418725501e-07,-1.0887881337715e-06,9.8511619381523e-07,-0.00096856695926545,0.00096846291374959,-0.00093407533093383,0.00093619142992774,-0.00097282110062823,0.00097257712137665,-0.00097229707382406,0.00097094604664146,-0.00097680813757283,0.00097620241982141,-0.00097651914354814,0.00097729606392006,-0.00097684260152068,0.00097585948488623,-0.00097670798625482,0.00097710748615934,-0.00093585303589182,0.00093353072206268,-0.00093478343741709,0.000936522223064,-0.00097245079516364,0.00097358897115104,-0.00096385493784638,0.00096388630741566,-0.00093449610997394,0.00093255098463868,2.1465816596368e-06,8.1903829907124e-06,-0.00073880839012384,0.0007402190591679,1.8623799146668e-06,-2.1421801684125e-07,-0.00073329766600945,0.00073515616211656,-0.00075024864262904,0.00073417653152642,-0.00075189371201396,0.00074916729228715,-0.00074862782215801,0.00079958943369458,-0.00073126764576735,0.00073719241072795,-0.00074821476129499,0.00073620839881794,-0.00074986254660575,0.00075120176782664,-0.00080502729322169,0.00080636444086106,-0.00080571898932601,0.0008056714318313,-0.00080533461322715,0.00080324274979177,-0.00080602748090691,0.0008025508726083,-0.00079514929442247,0.00080868978202002,-0.00078842900499347,0.00079205097070124,-0.00078773814228113,0.00079274474805033,-0.000794455779008,0.0008093808003224,-0.00075066345451996,0.00079755907919124,0.76134594199771,128566,2924,0.0028554800727169,0.0040263561656364,0.003076548399553,22.748187451175,-5.8014500390598e-05,-5.8014500390598e-05,-5.8014500390598e-05,3046071.4718128,0.010008513464377
27991759,0.61599806016105,0.010524303307195,0.0031874527487142,0.0039848470209252,0.0033520035375559,-0.00069768155728653,0.00069540228372461,-6.9260364283362e-06,-8.8190159861428e-07,-2.6096369719578e-07,3.109478908704e-07,-0.00035722569088436,0.00034531100722392,-0.00070762940153715,0.00070595324588213,-0.00070565441478397,0.00072090832320198,-0.00036455239834592,0.00034012292464882,-0.00035778168487215,0.00034475319635023,-0.00070818549762848,0.00070539099069103,-0.00070621077383132,0.00072034639172487,-0.00082890893393981,0.00082629503383808,-0.00082706404875115,0.00083034324306071,-0.00082872172743915,0.00082648683334655,-0.00082687672499933,0.00083053492506657,-0.00069923976504504,0.00068752709749696,-0.00069354157203358,0.0006844797345263,-0.00069942880496415,0.00068733673848628,-0.00069373081642559,0.00068428960673287,-0.00036399656724537,0.00034068081111449,2.2758263824846e-07,-3.3695166232719e-07,-1.1168299090379e-06,1.01194689922e-06,-0.00098464859101639,0.00098454333070039,-0.00094993988105695,0.00095210882690363,-0.0009889750179948,0.00098871247082042,-0.00098843079661987,0.0009870592739641,-0.00099293714280088,0.00099231223754049,-0.00099264186591865,0.00099343622215713,-0.0009929697734324,0.00099196681051089,-0.00099283579066535,0.00099325206555816,-0.00095176427775593,0.00094938671002756,-0.00095053704363918,0.00095232801716133,-0.00098860293846874,0.00098975913396076,-0.00097980858355238,0.00097985605075459,-0.00095038003516077,0.00094838030332661,2.1820488561405e-06,8.4460730284198e-06,-0.00075015235955668,0.00075164832090651,1.9146976044592e-06,-2.1695156631863e-07,-0.0007456400651107,0.00074751052589321,-0.00076257366660387,0.00074618866162665,-0.00076426533253665,0.0007614875183067,-0.00076120331163849,0.0008136828486937,-0.00074355629675812,0.00074960066751768,-0.00076048589744253,0.00074827435524361,-0.00076218033464327,0.00076357587049895,-0.00081760546968711,0.00081897379893758,-0.00081831552200819,0.00081826241371872,-0.00081790509959038,0.00081578489650035,-0.00081861634353851,0.00081507466194381,-0.00080783552004871,0.00082170090589887,-0.00080104324379066,0.00080471770540743,-0.00080033405288156,0.00080542986561788,-0.00080712363089824,0.00082241025429304,-0.00076329281166219,0.00081159874311394,0.77288939330386,128566,2924,0.0028997493025733,0.0040930423133585,0.0031238500096566,23.014140438179,-5.5886876494565e-05,-5.5886876494565e-05,-5.5886876494565e-05,3048736.0229805,0.010168380959995
28191759,0.62506776266437,0.01068522960446,0.0032346380402916,0.0040490847245173,0.0034015068396508,-0.00070832269628884,0.00070601268854759,-7.0229980605009e-06,-7.4882541680846e-07,-2.5839929238831e-07,3.1844715756928e-07,-0.00036142939732331,0.00034948853937986,-0.00071933675473022,0.00071763252632275,-0.00071732451792395,0.00073278800520587,-0.00036894813418842,0.00034426441279996,-0.00036199016189289,0.00034892598293702,-0.00071989762010404,0.00071706540177552,-0.00071788565164549,0.00073222122739671,-0.00084176047792255,0.00083911963462995,-0.00083989062773908,0.00084321400444737,-0.00084157170519723,0.00083931309707185,-0.00083970173798102,0.00084340734816594,-0.00071013353032767,0.00069824535413256,-0.00070434233125172,0.00069513714696668,-0.00071032418662992,0.00069805335972751,-0.00070453318987086,0.00069494538105707,-0.00036838751551848,0.00034482704086375,2.2931577869968e-07,-3.4002745895334e-07,-1.1481595886179e-06,1.041985963436e-06,-0.0010008012964742,0.0010006947366919,-0.00096594482519417,0.00096817419821617,-0.0010052172063176,0.0010049376163529,-0.0010046521278475,0.0010032541025469,-0.0010090857384559,0.0010084407203448,-0.0010087827833167,0.0010095978917113,-0.0010091172501192,0.0010080909573776,-0.0010089832262713,0.0010094170354429,-0.00096783015056517,0.0009653895826399,-0.00096643217922489,0.00096828036264998,-0.0010048409257365,0.001006020950794,-0.0009958466358454,0.00099590849322742,-0.00096640853410439,0.00096434901403749,2.2201829494398e-06,8.7120841154015e-06,-0.00076153513419051,0.00076311660827818,1.9707946965287e-06,-2.2234198853534e-07,-0.0007581067705495,0.00075999165237922,-0.00077504102616254,0.00075832203611399,-0.00077676939571521,0.00077393104260018,-0.00077399682188025,0.00082806049621017,-0.00075596286022118,0.00076214206451654,-0.00077289302295437,0.00076046790713492,-0.00077462422398861,0.00077607962595269,-0.00083019353278121,0.00083159483361772,-0.00083092406236092,0.00083086294505552,-0.00083048541030411,0.00082833693708756,-0.00083121715433312,0.00082760622003575,-0.00082062016367667,0.00083482215683689,-0.00081374419672962,0.00081747280151615,-0.00081301454065552,0.00081820548753932,-0.00081988775563617,0.00083555197319253,-0.00077614658730401,0.00082591624994303,0.78542227467772,128566,2924,0.0029439667109595,0.0041600170922341,0.0031713116005048,23.224181555652,-5.4206547554782e-05,-5.4206547554782e-05,-5.4206547554782e-05,3049137.4357193,0.010328674812918
28391759,0.63410873453447,0.010848517025377,0.0032824556175,0.0041142698096395,0.0034517915982371,-0.00071901808072427,0.00071668233052213,-7.1235004392697e-06,-6.1665138173714e-07,-2.590087447522e-07,3.2891280522573e-07,-0.00036548630339758,0.00035359714722633,-0.0007312232238807,0.0007294916674027,-0.00072917107769441,0.00074483860910126,-0.00037321893958038,0.00034827937321496,-0.00036605780842573,0.00035302387265299,-0.00073179482457914,0.00072891368615328,-0.00072974296372041,0.00074426098796091,-0.00085466792739585,0.00085199680273264,-0.00085277140383327,0.00085613519131701,-0.00085447553758334,0.00085219398853233,-0.00085257889417414,0.00085633225546872,-0.00072117218459165,0.00070909746794947,-0.0007152855569996,0.00070592647656309,-0.00072136649734195,0.00070890178298827,-0.00071548008190585,0.00070573102821472,-0.00037264758151585,0.000348852696693,2.3396606552755e-07,-3.4624980800238e-07,-1.1823225705376e-06,1.074654788983e-06,-0.0010170939099428,0.0010169858475046,-0.00098216200870974,0.00098445898638059,-0.0010216219604885,0.0010213292358029,-0.0010210432852029,0.0010196107809562,-0.0010253133917667,0.0010246482752539,-0.0010250010414195,0.0010258405813558,-0.001025345211321,0.0010242915098825,-0.0010252090456706,0.0010256599720244,-0.00098411699448102,0.00098160585305565,-0.0009825507095404,0.00098445921951145,-0.0010212402576533,0.00102245167566,-0.0010120513144352,0.0010121232265835,-0.00098265515061122,0.00098053232484565,2.2620824788149e-06,8.9846163341547e-06,-0.00077301757979072,0.00077468365787826,2.0319726938059e-06,-2.2814006647422e-07,-0.00077081192873463,0.0007727214593501,-0.00078770626429301,0.00077062860586999,-0.00078946540917967,0.00078656641506986,-0.00078698662775874,0.00084262665948144,-0.00076860253090551,0.000774937505051,-0.00078549265664273,0.00077284000851049,-0.00078725471723678,0.00078878060518661,-0.00084285155072503,0.00084429041481079,-0.00084360438583512,0.00084353618248967,-0.00084313688678762,0.00084096278211245,-0.00084389097022206,0.00084020975301582,-0.00083357225649895,0.00084810725387362,-0.00082660708898713,0.00083039192185905,-0.00082585515095133,0.0008311469789901,-0.00083281748827587,0.00084885935391697,-0.00078920197489761,0.0008404169059772,0.79903791248154,128566,2924,0.0029884210648765,0.0042275655685768,0.003219183408121,23.415077614523,-5.2679379083818e-05,-5.2679379083818e-05,-5.2679379083818e-05,3047718.0520705,0.010490227938524
28591759,0.64311454186876,0.01101303615778,0.0033305924988474,0.0041799650972475,0.0035024785616854,-0.00072975011048207,0.00072739621546537,-7.2185443295446e-06,-4.7940508247336e-07,-2.5952553691003e-07,3.4510144709964e-07,-0.00036930508397564,0.00035761229051418,-0.00074320522043241,0.0007414519432861,-0.00074111160859264,0.00075698236436332,-0.00037727042682072,0.00035210163236836,-0.0003698927795889,0.00035702283007621,-0.00074379305095542,0.00074085760560871,-0.00074169973744703,0.00075638841519959,-0.00086763080682843,0.00086492715780074,-0.00086570680940944,0.00086910908115082,-0.00086743292057762,0.0008651299480795,-0.0008655088004285,0.00086931174594513,-0.00073231065531588,0.00072004768332299,-0.00072632763450616,0.00071679624434323,-0.00073251049258828,0.00071984643486645,-0.00072652769380949,0.00071659523885518,-0.00037668287651582,0.00035269112992552,2.4126451114097e-07,-3.5537447452798e-07,-1.2180761319237e-06,1.1086843918298e-06,-0.0010335003318289,0.0010333905361797,-0.00099854101167067,0.0010009101111405,-0.0010381662454266,0.0010378646157847,-0.001037579702201,0.0010361060461356,-0.0010416039081578,0.0010409193524221,-0.0010412814998551,0.0010421480901462,-0.0010416371619941,0.0010405529756326,-0.0010414976530248,0.0010419645827653,-0.0010005607623401,0.00099797406228132,-0.00099883840846493,0.0010008080496877,-0.001037778933062,0.0010390279309346,-0.0010284015251348,0.0010284787933719,-0.0009990634266689,0.00099687603009161,2.3048547467265e-06,9.2655446130151e-06,-0.00078457552987722,0.00078632139144263,2.0942526488987e-06,-2.3580015541879e-07,-0.00078369433894737,0.00078562975172903,-0.00080048321511643,0.00078302049422611,-0.00080226931281888,0.00079930807233038,-0.0007999666149615,0.00085725898852481,-0.00078141657314461,0.00078791437030503,-0.00079820108490359,0.00078530032232567,-0.00079999019792324,0.00080159077733105,-0.00085557552111409,0.00085705418761259,-0.00085635164524011,0.0008562766225322,-0.00085585387527769,0.00085365346200214,-0.00085663128887132,0.0008528771389886,-0.00084664094041696,0.00086151692453756,-0.00083958574787497,0.00084342868262614,-0.00083881055168541,0.00084420710999808,-0.00084586281463843,0.0008622922893202,-0.00080225048541136,0.00085498083977571,0.8078752169908,128566,2924,0.0030330444722597,0.0042955792362208,0.0032673570462072,23.605471372482,-5.1156229020148e-05,-5.1156229020148e-05,-5.1156229020148e-05,3045077.6595637,0.01065275337604
28791759,0.6520790244348,0.011172827090722,0.0033773750293364,0.0042438494684562,0.0035516025929295,-0.00074024302869854,0.00073787415870141,-7.3097916783596e-06,-3.4236005562249e-07,-2.5980849938196e-07,3.6471439677343e-07,-0.00037252727120065,0.00036112052874401,-0.00075472680785869,0.00075295969548782,-0.00075258918315091,0.00076865809226962,-0.00038073975797348,0.00035534963527568,-0.00037313435300694,0.00036051170595494,-0.0007553340140774,0.00075234584240612,-0.00075319669946932,0.00076804464223189,-0.00088041419483834,0.00087767966667706,-0.00087846228365845,0.00088190249463371,-0.00088020975819843,0.00087788911964309,-0.00087825772155537,0.00088211181890323,-0.00074309542924154,0.00073063655401789,-0.00073701202441391,0.00072728731837495,-0.00074330185020581,0.00073042868286941,-0.00073721868279323,0.00072707969621944,-0.00038013282597377,0.00035595846347757,2.5008026761799e-07,-3.6622394697569e-07,-1.2547119720685e-06,1.1434019365642e-06,-0.0010496455895324,0.0010495338669555,-0.0010145662824383,0.0010170099158273,-0.0010544360159843,0.0010541279518049,-0.0010538474615659,0.0010523287429009,-0.0010576750319751,0.0010569713779085,-0.0010573424478718,0.0010582374848528,-0.0010577104317515,0.0010565939792871,-0.0010575667200355,0.0010580489262261,-0.001016649029047,0.0010139839723383,-0.0010147771792592,0.0010168082144506,-0.0010540446184477,0.0010553347133568,-0.001044492719384,0.001044572470624,-0.0010151186734584,0.001012866049035,2.3497902553508e-06,9.5378445225665e-06,-0.00079588395920711,0.00079770522705202,2.1580648652889e-06,-2.4348834645951e-07,-0.00079602342719415,0.00079798526646734,-0.00081278875599554,0.0007949199312076,-0.00081460314056692,0.00081157778738161,-0.00081232384878739,0.0008712000299452,-0.00079367573162518,0.00080033996578843,-0.00081043658492537,0.00079726971566731,-0.00081225406902916,0.00081393052464297,-0.00086812692762227,0.00086964679686451,-0.00086892686723489,0.00086884538089704,-0.00086839510027038,0.00086616918133812,-0.00086919636361619,0.00086536904018194,-0.00085939459760358,0.00087462442117076,-0.00085224098851894,0.0008561458737889,-0.00085144200592053,0.00085694818176063,-0.00085859259628479,0.00087542357660329,-0.00081467776850598,0.00086885196406964,0.78846824241384,128566,2924,0.0030766803514794,0.004362503540043,0.0033144833670024,23.795845306782,-4.9633237545744e-05,-4.9633237545744e-05,-4.9633237545744e-05,3042270.513507,0.010812148173252
28991759,0.66105873635929,0.011325969492019,0.0034222811680333,0.0043051668482325,0.003598521475753,-0.00075065220302938,0.00074827757542547,-7.3984056845755e-06,-2.0964573115179e-07,-2.5815694392602e-07,3.923046715405e-07,-0.0003755666693586,0.00036460693197007,-0.00076582596213121,0.00076405768844624,-0.00076364313318569,0.00077989838324529,-0.0003840348906701,0.00035849038762591,-0.00037619908250428,0.0003639727595541,-0.00076645850114997,0.00076341835450109,-0.00076427597592731,0.00077925946416761,-0.00089315530653057,0.0008903896188218,-0.0008911758004985,0.00089464853508231,-0.00089294233442822,0.00089060773681896,-0.00089096270627694,0.00089486652465929,-0.00075352348099896,0.00074088565860569,-0.00074734060674677,0.00073743861015941,-0.00075373850312242,0.00074066915850666,-0.00074755586657795,0.0007372223597262,-0.00038340261486372,0.00035912452993028,2.6170695877738e-07,-3.8030958440608e-07,-1.2931759007868e-06,1.1795601345196e-06,-0.0010655957790945,0.0010654817349568,-0.0010301716287741,0.0010326946225158,-0.0010704413856367,0.001070131357423,-0.0010698592200941,0.0010682879950919,-0.0010736894908499,0.0010729672620357,-0.0010733454201787,0.0010742715865462,-0.0010737293748801,0.0010725771880831,-0.0010735806799548,0.0010740768523914,-0.001032317237169,0.0010295682120727,-0.0010303117220604,0.0010324049534992,-0.0010700454824151,0.0010713833072501,-0.0010603499247261,0.0010604268834625,-0.0010307597915797,0.0010284403626269,2.3937920485055e-06,9.7974406028156e-06,-0.00080709846563063,0.00080898875516974,2.2226112651999e-06,-2.5368708638706e-07,-0.00080781939256456,0.00080977837919932,-0.00082469420480444,0.00080640020212054,-0.00082652900802069,0.00082344092979794,-0.00082412070728095,0.00088444104601806,-0.0008053986109514,0.00081220638293143,-0.00082226881422889,0.00080882314977798,-0.00082410679345247,0.00082586688726853,-0.00088066033549808,0.00088222365262937,-0.00088148516765041,0.00088139731020481,-0.00088091711589972,0.00087866813306185,-0.00088174330113064,0.00087784309154418,-0.00087188953680716,0.00088748256969979,-0.00086464572969892,0.00086861482290459,-0.00086382186680898,0.00086944208684791,-0.00087106258462095,0.00088830660540525,-0.00082654790919122,0.00088201984413902,0.75490318693284,128566,2924,0.0031199828530354,0.0044286148258545,0.0033612043357488,24.09645375829,-4.7228369933683e-05,-4.7228369933683e-05,-4.7228369933683e-05,3045224.5763397,0.01097000022014
29191759,0.6700554672615,0.011475747959936,0.003466214930458,0.0043651923529323,0.003644340676546,-0.00076096243028792,0.00075858544415769,-7.4855338088406e-06,-8.3504054518884e-08,-2.5775152722616e-07,4.1874669896475e-07,-0.00037879396227748,0.00036838305264616,-0.00077665063835165,0.00077488081718898,-0.00077442172053067,0.00079083966728213,-0.00038753372184083,0.00036179099627106,-0.00037945187700907,0.00036772336145814,-0.0007773086322686,0.00077421587395447,-0.00077508001632109,0.00079017513992967,-0.0009057642891632,0.00090296943205511,-0.00090375658491598,0.0009072605064411,-0.00090554277760053,0.00090319623793683,-0.00090353495220658,0.00090748718565795,-0.00076367302109754,0.00075086269283148,-0.00075738444951421,0.00074730198149522,-0.00076389666355129,0.00075063753162934,-0.00075760833411748,0.00074707707298083,-0.00038687593815709,0.00036245059728244,2.7327149878959e-07,-3.946000606943e-07,-1.332713671148e-06,1.2165275338541e-06,-0.001081328766997,0.0010812121408516,-0.0010453665131303,0.0010479704860512,-0.0010861591997001,0.0010858464762159,-0.001085588278467,0.0010839635033769,-0.001089602885975,0.0010888612161603,-0.0010892469172954,0.001090204612755,-0.0010896485232464,0.0010884596833117,-0.0010894942780188,0.0010900047655511,-0.0010475791074204,0.0010447439727777,-0.0010454655625863,0.0010476225289847,-0.001085759204074,0.0010871452844082,-0.0010759462081728,0.0010760205887094,-0.0010459919663035,0.0010436036677796,2.4399553503854e-06,1.0046875101843e-05,-0.00081822828127366,0.00082018568601568,2.2877477961948e-06,-2.652072864228e-07,-0.00081924913132116,0.00082121879246992,-0.00083640502374816,0.00081765840380668,-0.00083826546137978,0.00083511484456408,-0.00083558968501486,0.00089728496888413,-0.00081675335353258,0.00082372192288859,-0.00083390456131305,0.00082015638816034,-0.00083576821360747,0.00083761587137727,-0.00089310255175842,0.00089471246883213,-0.00089395292172066,0.00089386056367986,-0.00089334730390247,0.00089107848475979,-0.00089419904671858,0.00089022789929131,-0.00088415982379892,0.00090011702901947,-0.00087683166473913,0.00088086800546177,-0.00087598228053493,0.00088172086018616,-0.00088330729760738,0.00090096659228881,-0.00083809196929302,0.00089478874929758,0.73755731199326,128566,2924,0.003162874589212,0.0044938232097008,0.0034075679863809,24.414801083432,-4.4681591332545e-05,-4.4681591332545e-05,-4.4681591332545e-05,3055006.1422849,0.011126187156767
29391759,0.67906077213593,0.011618210048626,0.0035080306490275,0.0044224108840948,0.0036877685155038,-0.00077090848768907,0.00076852223109939,-7.5651909248424e-06,2.4937839877599e-08,-2.5912279179292e-07,4.4011580294235e-07,-0.00038166305661529,0.00037181656947844,-0.00078672919636298,0.00078495123791344,-0.00078444990443074,0.00080101245106954,-0.00039067901781385,0.00036473909151009,-0.00038234331907865,0.00037113451664298,-0.0007874094779699,0.00078426388003131,-0.00078513047830079,0.00080032550737205,-0.00091808279812871,0.00091525853434539,-0.000916045997912,0.00091957471191549,-0.00091785391163066,0.00091549291376646,-0.00091581699190198,0.00091980896642384,-0.00077321405766102,0.00076022411423306,-0.00076682002149693,0.00075651663111557,-0.00077344522733684,0.00075999138728239,-0.00076705144254006,0.0007562841669254,-0.00038999888163804,0.00036542101665511,2.8318102964959e-07,-4.0733298264496e-07,-1.3725626754785e-06,1.2536942603682e-06,-0.001096604021822,0.0010964847047787,-0.0010598634007671,0.0010625476591176,-0.0011013781110236,0.0011010592814894,-0.0011008146864363,0.0010991392285779,-0.0011051896308975,0.0011044271315421,-0.0011048219323961,0.0011058101253547,-0.0011052410020452,0.0011040163217823,-0.0011050824478784,0.0011056084170776,-0.0010621335270185,0.0010592127552723,-0.0010599181616121,0.001062140322887,-0.0011009759283145,0.0011024072028971,-0.0010910562655552,0.0010911312750067,-0.0010605239099645,0.0010580650501253,2.4882671915324e-06,1.0289818972327e-05,-0.0008289816094229,0.00083100428273718,2.3528306542808e-06,-2.7727845238835e-07,-0.00082978527639996,0.00083175455550135,-0.0008474507001735,0.00082825153430017,-0.00084933256640405,0.00084611878376948,-0.00084612368739477,0.00090913840580738,-0.00082721401807924,0.00083433326867888,-0.00084487469747437,0.00083082504924123,-0.0008467597875598,0.00084869534101646,-0.00090524865033138,0.00090690788600149,-0.00090612473460149,0.00090603025712586,-0.00090548271118336,0.00090319627753947,-0.00090636017522825,0.00090231997187745,-0.00089587745300996,0.00091220193549962,-0.00088845523221638,0.00089256266013056,-0.00088758013669206,0.00089344124479109,-0.00089499919866591,0.00091307721232121,-0.00084870150717942,0.00090656665887337,0.7022848234858,128566,2924,0.0032042341409303,0.0045571309370355,0.0034523623210898,24.733634819405,-4.2130921444763e-05,-4.2130921444763e-05,-4.2130921444763e-05,3069127.8875402,0.011277340645641
29591759,0.68806566900659,0.011754437771925,0.0035480296261599,0.0044772291810593,0.0037291789647062,-0.00078053791987985,0.00077812987013764,-7.6489006847757e-06,1.0228464446764e-07,-2.5867368128308e-07,4.5030034623945e-07,-0.00038443074921281,0.00037513498389534,-0.00079613909897356,0.00079433357091932,-0.00079380708543268,0.00081047290425981,-0.00039372221517603,0.00036760861016583,-0.00038512062292326,0.00037444334513272,-0.00079682893437794,0.00079363656901784,-0.00079449720653624,0.00080977631123066,-0.00093016753114556,0.00092731217262733,-0.00092810153357414,0.0009316479505521,-0.00092993561555818,0.00092754979039175,-0.00092786950318219,0.00093188544604832,-0.00078220019032399,0.00076902291263297,-0.00077568959978837,0.00076510702903553,-0.00078243455288983,0.00076878694772256,-0.00077592422785803,0.0007648713421914,-0.00039303247744792,0.00036830009507527,2.8676028374727e-07,-4.1343687964247e-07,-1.4129900382334e-06,1.2916793577565e-06,-0.0011114613975942,0.0011113396347947,-0.001073704215986,0.0010764660330396,-0.0011161758883686,0.0011158380131011,-0.0011156062371643,0.0011138926218071,-0.001120474554025,0.0011196866769534,-0.0011200955197551,0.0011211106138676,-0.0011205285427234,0.0011192721004536,-0.0011203664992987,0.0011209129791386,-0.0010760188323456,0.0010730156212503,-0.0010737100866229,0.0010760033651865,-0.0011157737696584,0.0011172382407155,-0.0011057531067408,0.001105842210757,-0.0010743979764708,0.0010718631100213,2.5395706941907e-06,1.0525319761126e-05,-0.00083942534524503,0.00084150762397773,2.4161369614976e-06,-2.9254048663694e-07,-0.00083956061605727,0.0008415424617108,-0.00085799359464222,0.00083833831488175,-0.0008598875291426,0.00085660569473756,-0.00085590979762332,0.00092016655534268,-0.00083691246779225,0.00084419810783883,-0.00085534067893888,0.00084098873216302,-0.00085723784432367,0.00085925914833139,-0.00091709922290806,0.00091880858125013,-0.00091800149675269,0.00091790475001068,-0.00091732415969278,0.00091502035686452,-0.00091822782051153,0.0009141178544393,-0.00090710704804168,0.00092382122805185,-0.00089959239711121,0.00090377904326817,-0.00089869112128835,0.0009046838409518,-0.00090620259282302,0.00092472269051086,-0.00085856452335551,0.00091751790430991,0.67337837363432,128566,2924,0.0032442452053984,0.0046187059162386,0.0034958576536044,25.052364412815,-3.9581084697482e-05,-3.9581084697482e-05,-3.9581084697482e-05,3090027.5112447,0.011424086842992
29791759,0.69702411979279,0.011897202878539,0.003589827624631,0.0045345111785931,0.0037728640753149,-0.00079028890966274,0.00078783951962241,-7.7396851747166e-06,1.3985657354644e-07,-2.6416826434552e-07,4.4055460346258e-07,-0.00038790727114009,0.00037905242339399,-0.00080604105112573,0.00080417772426642,-0.00080365675357777,0.00082037025331803,-0.00039744924662011,0.00037117401473118,-0.00038859305750821,0.00037836493298818,-0.00080672673452664,0.00080348478572356,-0.00080434274610603,0.00081967774416577,-0.00094230382594742,0.00093940811581487,-0.00094020434450158,0.00094378237922644,-0.00094207350676039,0.00093964432038068,-0.00093997389912097,0.00094401845230208,-0.00079151048549171,0.00077812641383463,-0.00078487528829228,0.00077390541001574,-0.00079174337375577,0.00077789186205712,-0.00078510848515157,0.00077367117117391,-0.00039676365247735,0.00037186134749519,2.8362755562928e-07,-4.1231032574895e-07,-1.45557440127e-06,1.3322866163478e-06,-0.0011265111838694,0.0011263874436804,-0.0010878222259827,0.0010906620889806,-0.0011312205682757,0.0011308488263717,-0.0011306272654538,0.0011288880456792,-0.0011358483752358,0.0011350293113985,-0.0011354566001625,0.0011364960298213,-0.001135900312003,0.0011346155952739,-0.0011357377750195,0.001136311501046,-0.0010901828518536,0.0010870976286363,-0.0010878180751902,0.0010901922584784,-0.0011308144834163,0.0011323005462996,-0.0011207112822672,0.0011208302623432,-0.0010885571894326,0.001085937453937,2.592188907187e-06,1.0761744352651e-05,-0.00085011119621263,0.00085225000214378,2.4781810746946e-06,-3.1391949101168e-07,-0.00085010967780464,0.00085208389322173,-0.00086929079276662,0.00084914992377741,-0.00087118910640748,0.00086783205453876,-0.00086638315484195,0.00093212047330203,-0.00084737995798407,0.00085482116151008,-0.00086655623903433,0.00085188195444521,-0.0008684577933745,0.00087056712486922,-0.00092895212636215,0.00093071182539187,-0.00092988222339621,0.00092978015869309,-0.00092917358368794,0.00092685036958284,-0.00093010507360841,0.00092592003803608,-0.00091866523981169,0.00093577088094903,-0.00091104479591138,0.00091531812418835,-0.00091011571600087,0.00091625075653409,-0.000917732958393,0.00093670014999018,-0.00086911941448246,0.00092939023808034,0.70917941586874,128566,2924,0.0032847164900947,0.0046810783202309,0.0035403511776184,25.304938468311,-3.7560492253513e-05,-3.7560492253513e-05,-3.7560492253513e-05,3108833.1811858,0.011573134361008
29991759,0.70592765415311,0.012046741139731,0.0036334501154698,0.0045943998401673,0.0038188911840942,-0.00080024893945656,0.00079773877298275,-7.8489554444269e-06,1.6920120121912e-07,-2.7558158289816e-07,4.179209163115e-07,-0.00039147811853751,0.00038298356563898,-0.00081662140113111,0.00081469055812,-0.00081418613636235,0.00083094191035838,-0.00040128151255355,0.00037476815352854,-0.00039215297108041,0.00038230711893538,-0.00081729608912859,0.00081400853024577,-0.00081486116972304,0.00083026035660255,-0.00095461331533963,0.0009516699707539,-0.0009524783013588,0.00095608984959446,-0.00095438686163872,0.00095190244258884,-0.00095225170556721,0.00095632217470276,-0.00080140695562604,0.00078778294010607,-0.00079463277492505,0.00078326491254035,-0.00080163605437629,0.00078755211725942,-0.00079486221781899,0.00078303444573894,-0.00040060688585394,0.00037544447896405,2.7730085076214e-07,-4.074332001267e-07,-1.5004845129795e-06,1.3757305612316e-06,-0.001141965593483,0.0011418403893778,-0.0011025619344742,0.0011054830954209,-0.0011467103418898,0.0011462966872533,-0.0011460869327656,0.0011443277489893,-0.0011514646825453,0.0011506109033973,-0.0011510584637775,0.0011521221559093,-0.0011515108764448,0.0011501989776298,-0.0011513490099898,0.0011519545249454,-0.0011049808798912,0.0011018114176285,-0.0011025833302355,0.0011050462955975,-0.0011462953749889,0.0011477984400763,-0.0011360902165026,0.0011362481572328,-0.001103338858235,0.0011006273804652,2.6464279480867e-06,1.1012752616173e-05,-0.00086109683363387,0.00086329599687132,2.5410586680494e-06,-3.3966063732306e-07,-0.00086154793371327,0.0008635189845211,-0.0008813507892396,0.00086068181754061,-0.00088326220552107,0.00087982483991668,-0.0008778587136408,0.00094524730149555,-0.00085873158284806,0.00086634293718773,-0.00087852951863688,0.00086350053202736,-0.00088044418633736,0.00088264659573562,-0.00094099614198996,0.00094280835494503,-0.00094195579611234,0.000941847118589,-0.0009412153999658,0.00093887794636803,-0.00094217645546242,0.00093791805032014,-0.00093070270626366,0.00094819740007004,-0.00092297105062645,0.00092733789492932,-0.00092201243809103,0.00092830010142474,-0.00092974086012022,0.00094915620746719,-0.00088068165206719,0.00094243041240512,0.7465730778919,128566,2924,0.0033260219889406,0.0047451213498991,0.003586095468434,25.55584166898,-3.5553266648161e-05,-3.5553266648161e-05,-3.5553266648161e-05,3117213.0109927,0.011726003331677
30191759,0.71476879441916,0.012185681815214,0.0036739699848655,0.0046502903445684,0.0038614214857797,-0.00080963962342305,0.00080707388163801,-7.9559829512427e-06,2.1006030218475e-07,-2.8509029734648e-07,3.937939327557e-07,-0.00039384998714809,0.00038569531464295,-0.00082618985177661,0.0008241874139978,-0.00082370079068785,0.00084050364134906,-0.0004039347991606,0.00037717205717828,-0.00039451056650726,0.00038503323661999,-0.00082685022069307,0.00082351966476972,-0.00082436152586948,0.00083983638936921,-0.00096649424996046,0.00096351039206596,-0.00096432416517984,0.00096797216871186,-0.00096627279702795,0.00096373799931559,-0.00096410255386769,0.00096819961729935,-0.00081049342658035,0.00079664404066672,-0.00080357707339113,0.00079191212030277,-0.0008107176276676,0.0007964180722642,-0.00080380165931132,0.00079168654231869,-0.00040327446482083,0.00037783402577638,2.695050220746e-07,-4.00635660274e-07,-1.5470923313605e-06,1.4212981011318e-06,-0.0011567997056371,0.0011566734659696,-0.0011165402408402,0.001119545730582,-0.0011615382120277,0.0011610784804933,-0.0011608919023107,0.0011591152743703,-0.0011665655008227,0.001165675049421,-0.001166144059726,0.0011672325865177,-0.0011666068563272,0.0011652680547843,-0.0011664434257867,0.0011670835400276,-0.0011190182647673,0.001115762379543,-0.0011165877671552,0.0011191448073948,-0.0011611162431501,0.0011626346708357,-0.0011508126268379,0.0011510145782431,-0.0011173584680982,0.0011145508121518,2.7019803131441e-06,1.1265544898031e-05,-0.0008714368963944,0.00087369604460239,2.6075931722552e-06,-3.6555194898177e-07,-0.00087171573864078,0.00087368609776837,-0.00089226442499544,0.00087104578299268,-0.00089418797736163,0.000890667492086,-0.00088806252531477,0.00095700462052543,-0.00086880896601923,0.00087660047363003,-0.000889352696649,0.00087395491878434,-0.00089127950910206,0.00089357966615378,-0.00095262438515285,0.00095449126780636,-0.00095361486902477,0.00095349920076821,-0.00095283905126191,0.00095048988089186,-0.00095383093946069,0.00094949915472495,-0.00094202695553719,0.00095987253162262,-0.0009341959257209,0.00093865499174183,-0.00093320649374746,0.00093964801282045,-0.00094103428520779,0.00096086214679996,-0.00089097586533458,0.00095409732472666,0.70019171500694,128566,2924,0.0033649772819903,0.0048065856369703,0.0036291554893222,25.806679310356,-3.3546565517156e-05,-3.3546565517156e-05,-3.3546565517156e-05,3124647.0226233,0.011871194929148
30391759,0.72354937806936,0.012318562094215,0.0037127421454312,0.0047038278892217,0.0039019920595621,-0.00081877468533178,0.00081615962128914,-8.0572701557749e-06,2.4731375753976e-07,-2.9492155155719e-07,3.6306584735634e-07,-0.00039633579663842,0.00038858119896884,-0.00083524533653214,0.00083315728260291,-0.0008327029785617,0.00084950464550208,-0.00040670276511711,0.00037971200500885,-0.00039697594770877,0.00038793964617834,-0.00083588525562523,0.00083251000124656,-0.00083334326971768,0.00084885786154202,-0.00097808921658302,0.00097506263293545,-0.00097588278213751,0.00097956442538014,-0.00097787480061216,0.00097528327833397,-0.0009756682095397,0.00097978490757185,-0.00081901855302317,0.00080495912698408,-0.00081196348096616,0.00080008409106126,-0.00081923578595977,0.0008047401080942,-0.00081218112064645,0.0007998654870286,-0.00040606286210432,0.00038035347771281,2.5877154041219e-07,-3.905218655131e-07,-1.5978728875819e-06,1.4713832067099e-06,-0.0011711927659248,0.0011710658343564,-0.0011298841894353,0.0011329807838698,-0.001175885538321,0.0011753710535972,-0.0011752208283393,0.0011734303822937,-0.0011813592351387,0.0011804274875248,-0.0011809205029486,0.0011820350012257,-0.0011813950247117,0.0011800288633309,-0.0011812280672545,0.001181908084315,-0.0011324185052132,0.0011290701012864,-0.0011299596954496,0.00113262175513,-0.0011754545023412,0.0011769853857726,-0.0011650996659393,0.0011653550215076,-0.0011307477385179,0.0011278336386412,2.7562449177231e-06,1.1499566007493e-05,-0.00088150999424828,0.00088382053324496,2.6761169285509e-06,-3.9812964970905e-07,-0.00088126838878026,0.00088322812466501,-0.00090274803481959,0.00088096825509307,-0.00090467916129784,0.00090106279530466,-0.00089762311449361,0.00096803769909119,-0.00087826264635455,0.00088624142662582,-0.0008997373360601,0.00088397633050708,-0.00090167172086109,0.00090407389785683,-0.00096398136676051,0.00096590422589768,-0.00096500556956757,0.00096487844605768,-0.0009641909876107,0.00096183245455757,-0.00096521659149066,0.00096080801118343,-0.0009529643714404,0.00097111869351293,-0.00094504822368462,0.00094958888345125,-0.00094402506874816,0.00095061559727169,-0.00095193799366709,0.00097214200696555,-0.00090063535600354,0.00096503146186884,0.67548311398746,128566,2924,0.0034028744775126,0.0048662228446197,0.0036710879474192,26.075045488945,-3.1399636088438e-05,-3.1399636088438e-05,-3.1399636088438e-05,3141606.1208537,0.012012346019351
30591759,0.73232826770566,0.012456043485537,0.0037527780754764,0.0047590996561504,0.0039441657539102,-0.0008283025924521,0.00082562995975415,-8.1645161716268e-06,2.7154538617248e-07,-3.0819684640705e-07,3.2480612560168e-07,-0.00039946262279557,0.00039203744701838,-0.00084496399021471,0.00084277554440593,-0.0008423681728695,0.00085912848320548,-0.00041011919421527,0.00038287962670379,-0.00040007833367296,0.00039142043302544,-0.000845579450846,0.00084215275545498,-0.00084298402301651,0.00085850618989409,-0.00099003713137891,0.00098696650099034,-0.00098779364814754,0.00099151372250304,-0.00098983111953369,0.00098717882338165,-0.00098758747374321,0.00099172588296635,-0.0008280204473955,0.00081374325096663,-0.0008208223318573,0.00080874704822316,-0.00082822935558505,0.00081353255153696,-0.00082103166788417,0.00080853676522228,-0.000409503754703,0.00038349653353378,2.4618834073959e-07,-3.7818114526646e-07,-1.6531110371343e-06,1.5262779011919e-06,-0.0011860738368684,0.0011859465711968,-0.0011437380006528,0.0011469337753586,-0.0011907477107695,0.0011901717540749,-0.001190067491588,0.0011882645120044,-0.0011965782248047,0.0011956011179008,-0.0011961191406031,0.0011972616769226,-0.0011966069549612,0.0011952120733889,-0.0011964350290108,0.0011971597222793,-0.0011463431453933,0.0011428948385344,-0.0011438554487153,0.0011466333331359,-0.0011903044505404,0.0011918472274466,-0.0011799375345865,0.0011802537534669,-0.0011446612426331,0.0011416306078934,2.8103472298004e-06,1.1733467757468e-05,-0.00089210008801259,0.00089446015980151,2.7475012997039e-06,-4.3710643008204e-07,-0.00089167546583925,0.00089361073148395,-0.00091410627729005,0.00089175012764414,-0.00091604296640552,0.00091232431509602,-0.00090806066948171,0.00098012076225481,-0.00088856163805947,0.00089673209552566,-0.00091098751814722,0.00089486622071964,-0.00091292746513707,0.00091544343528724,-0.00097569838863015,0.00097767792866022,-0.00097675938586254,0.00097661535787793,-0.00097590603871614,0.00097353761555671,-0.00097696843440427,0.00097247638186461,-0.0009645079455918,0.00098295730334275,-0.00095650273710003,0.00096112258659574,-0.00095544277371506,0.00096218608092184,-0.00096344477850631,0.00098401739124104,-0.00091118092282118,0.00097700649408121,0.69870694529313,128566,2924,0.0034423829478804,0.0049278821220088,0.0037151618801911,26.468610775943,-2.8251113792459e-05,-2.8251113792459e-05,-2.8251113792459e-05,3158525.2418869,0.012159360544564
30791759,0.74109627778514,0.012598127225972,0.0037940334520296,0.004816156810751,0.0039879369631916,-0.00083798340180976,0.000835243843541,-8.2788650900555e-06,3.049976723344e-07,-3.2237983358504e-07,2.8378411274102e-07,-0.00040257226880457,0.0003954719479123,-0.00085514257630885,0.00085284892089687,-0.00085249123575563,0.00086922515165326,-0.00041353772522888,0.00038603156619372,-0.00040316172577584,0.00039488127531673,-0.00085573177441705,0.00085225241420767,-0.00085308082081234,0.00086862915064059,-0.0010021292882096,0.0009990105851168,-0.00099984708768307,0.0010036080098536,-0.0010019322940988,0.00099921396236362,-0.0009996499277935,0.0010038112254063,-0.00083741151605547,0.00082291011498301,-0.00083006517960414,0.00081779904204367,-0.00083761150792142,0.00082270834829622,-0.00083026559544596,0.00081759769997194,-0.00041294849663388,0.00038662213083274,2.3284447399106e-07,-3.6477232819512e-07,-1.7105236499958e-06,1.5836545771729e-06,-0.0012012500570207,0.0012011227595304,-0.0011580185352353,0.0011613177709639,-0.0012059360222651,0.0012052955282968,-0.0012052264617277,0.001203411498553,-0.0012119970537985,0.0012109727228853,-0.0012115165808098,0.0012126883783479,-0.0012120183036817,0.001210594090077,-0.0012118403727136,0.0012126122085907,-0.0011607000565715,0.0011571482055407,-0.0011582001254009,0.0011610993120639,-0.0012054804574074,0.0012070351613568,-0.0011950644687345,0.0011954451795135,-0.0011590017350979,0.0011558496906402,2.8663108258502e-06,1.1978337015891e-05,-0.00090291158523663,0.00090532567372011,2.8221649086299e-06,-4.7743780864276e-07,-0.00090273614282135,0.00090465163595021,-0.00092599222016352,0.00090302894753952,-0.00092793964090385,0.00092411271850198,-0.00091919024491917,0.0009929919945641,-0.00089950969980713,0.00090788558339631,-0.00092276085817915,0.00090625761720722,-0.00092471154380823,0.00092734439476397,-0.00098757558802234,0.0009896127561179,-0.00098867492635993,0.00098851186754308,-0.00098778138064589,0.00098540282259806,-0.00098888210714938,0.00098430325422536,-0.00097637375121064,0.00099511592107079,-0.00096828643495229,0.00097298805048967,-0.0009671881064544,0.00097408984346737,-0.00097527224917226,0.0009962143431136,-0.00092242309893647,0.00098976510595486,0.72242073241345,128566,2924,0.0034825117450528,0.0049907583304536,0.003760162278781,26.865347466329,-2.5077220269366e-05,-2.5077220269366e-05,-2.5077220269366e-05,3168019.8277567,0.01230919423179
30991759,0.74984234729506,0.012744837802754,0.0038365091663174,0.00487503537515,0.0040332932612863,-0.00084782926214578,0.00084502898921458,-8.3982140109316e-06,3.5150944171686e-07,-3.3178726207716e-07,2.4840433538151e-07,-0.00040570944277637,0.00039896113184125,-0.00086581541548026,0.00086342613945532,-0.00086310434805256,0.00087985992219897,-0.0004169823331012,0.00038921000229434,-0.000406273428884,0.00039839600676256,-0.00086637917723233,0.00086285511728027,-0.00086366850027722,0.00087928940661503,-0.0010143397922237,0.0010111751420022,-0.0010120194311119,0.0010158209476899,-0.0010141514633904,0.0010113698702389,-0.001011830935776,0.0010160155197915,-0.00084723336918219,0.00083251824488407,-0.00083973958294222,0.00082729484340255,-0.00084742472750282,0.00083232513084218,-0.00083993135871693,0.00082710214335189,-0.0004164185514932,0.00038977497869596,2.2004074705122e-07,-3.5163154831186e-07,-1.7684716255573e-06,1.6418310844876e-06,-0.0012166932955946,0.0012165662359892,-0.0011727225794551,0.0011761271266901,-0.0012213830234116,0.0012206786339189,-0.001220638584285,0.001218810690366,-0.0012276058293684,0.0012265344116229,-0.0012271030027793,0.0012283050557765,-0.0012276192338576,0.001226165223748,-0.0012274327869076,0.0012282521630295,-0.0011754868066072,0.001171830076268,-0.0011729945303411,0.0011760163258845,-0.0012209168361038,0.0012224849800649,-0.0012103799370791,0.0012108250756831,-0.0011737716607943,0.0011704974285577,2.9262748946408e-06,1.2233340247079e-05,-0.00091393762751901,0.00091641237713192,2.9032671004042e-06,-5.1266709157056e-07,-0.00091443865932255,0.00091637367370148,-0.00093835729484409,0.0009147745651929,-0.00094032128927547,0.00093638518939496,-0.00093092823052381,0.0010065867969434,-0.00091109823371161,0.00091972154583354,-0.0009350119963799,0.00091811711650681,-0.00093697927752352,0.00093973075988132,-0.00099962597887845,0.0010017226761336,-0.0010007640867307,0.0010005830217674,-0.00099982900238635,0.00099744345990185,-0.0010009685006734,0.0009963051259731,-0.00098853545826466,0.0010075658450443,-0.00098037071366682,0.00098515305851159,-0.00097923360293248,0.00098629362573137,-0.00098739516986227,0.0010087030261363,-0.00093427504557613,0.0010032459941282,0.74698825081866,128566,2924,0.0035233438306428,0.0050547340367976,0.0038060647531929,27.262208834484,-2.1902329324129e-05,-2.1902329324129e-05,-2.1902329324129e-05,3172469.3357275,0.01246178855958
31191759,0.75862299959641,0.01289902953885,0.0038810140750525,0.004936878995654,0.0040811364681433,-0.0008582307548141,0.00085537252419737,-8.5229765095906e-06,4.0073432776165e-07,-3.3957823106794e-07,2.2269334825529e-07,-0.0004091247893707,0.00040270317942289,-0.0008774432172634,0.00087497899008034,-0.00087467070801523,0.00089149976565125,-0.00042071188422455,0.00039263004155331,-0.00040967107704478,0.0004021557981596,-0.00087798942574928,0.00087442558026314,-0.00087521727829857,0.00089094689452351,-0.0010270850198437,0.0010238721080757,-0.0010247258782751,0.00102856112562,-0.0010269026772233,0.0010240608829637,-0.0010245433829756,0.0010287497448232,-0.0008579273726334,0.00084300076346457,-0.00085028470873725,0.00083764710833665,-0.00085811277268185,0.00084281361437574,-0.00085047049006219,0.00083746037637219,-0.0004201657070254,0.00039317731551756,2.1118447340945e-07,-3.4252236634971e-07,-1.8267895106865e-06,1.7003171938893e-06,-0.0012328939435143,0.0012327670620367,-0.0011883942019846,0.0011919073523884,-0.0012375944898212,0.0012368337583786,-0.0012368106561055,0.0012349617331088,-0.0012438539136003,0.0012427378164232,-0.0012433275635394,0.001244562707999,-0.0012438599550763,0.001242373201431,-0.001243663153003,0.0012445275366906,-0.0011912447923389,0.0011874797965928,-0.0011887490614701,0.0011918914056059,-0.0012371162382599,0.0012387058326936,-0.0012263950793701,0.0012268969693135,-0.0011895097357829,0.0011861152360469,2.9873252016052e-06,1.2496807851822e-05,-0.00092561469441745,0.00092815325122494,2.9881876684611e-06,-5.4468261269951e-07,-0.00092733372209759,0.00092928812457704,-0.00095167191164358,0.00092747551107702,-0.0009536485087144,0.00094960213963421,-0.00094383865704046,0.0010214294340843,-0.00092387876866951,0.00093275054050162,-0.00094821205591617,0.00093093255018342,-0.0009501920138613,0.00095306221465097,-0.0010122754821589,0.0010144338447825,-0.0010134525374843,0.0010132552250819,-0.0010124774198784,0.0010100877734428,-0.0010136558914888,0.0010089104819691,-0.0010014864023902,0.0010208199341663,-0.00099323815750307,0.0009981064542005,-0.00099206211826029,0.00099928601830173,-0.0010003071063047,0.0010219960721037,-0.00094730009921393,0.001017974069516,0.78082574588175,128566,2924,0.0035664956270464,0.0051218400316756,0.0038546738284828,27.788496994918,-1.7692024040659e-05,-1.7692024040659e-05,-1.7692024040659e-05,3173298.2872232,0.012622665329508
31391759,0.76744527758256,0.013048013730793,0.0039239753496315,0.0049968475492804,0.004127190831881,-0.0008684277937834,0.00086551358610925,-8.6528114788045e-06,4.485377478505e-07,-3.5205758371964e-07,2.0094423040238e-07,-0.00041155051305158,0.00040545717727576,-0.00088855299697516,0.00088602664655205,-0.00088571945778542,0.0009026180562153,-0.00042348180160308,0.00039502426080809,-0.00041208768420352,0.00040491892010134,-0.00088909011719199,0.00088548236573229,-0.0008862569473391,0.00090207427930441,-0.0010398083093403,0.0010365451385296,-0.0010374102593982,0.0010412793034614,-0.0010396290851025,0.0010367308266393,-0.0010372308846929,0.0010414648523616,-0.0008682579045677,0.00085311405397266,-0.0008604659329747,0.00084761912772183,-0.0008684402088351,0.00085293001366997,-0.00086064862192292,0.00084743546897843,-0.00042294477664685,0.00039556232050619,2.0654803559538e-07,-3.3784268125708e-07,-1.8841891627116e-06,1.7577125787735e-06,-0.001249018325616,0.0012488914453342,-0.0012039101133649,0.0012075325787025,-0.0012537282480025,0.0012529201778017,-0.0012529182697168,0.0012510402825781,-0.0012600386867321,0.0012588812744971,-0.0012594896111589,0.001260759868124,-0.0012600407868369,0.001258518908777,-0.0012598318931142,0.0012607375848233,-0.0012068424805547,0.0012029681276855,-0.0012043419829861,0.0012075998730002,-0.0012532383457847,0.0012548570119126,-0.0012423674497586,0.0012429167443173,-0.0012050874193791,0.001201577353615,3.0485070713507e-06,1.276203509299e-05,-0.00093707952314719,0.00093967745833989,3.0722286409373e-06,-5.7566841449292e-07,-0.00093960895456428,0.00094156792639672,-0.00096435594808943,0.00093954981900827,-0.00096633855610502,0.00096218329655919,-0.00095610349713666,0.0010354749638706,-0.00093604128045639,0.00094514308708087,-0.00096078344678364,0.00094311946668809,-0.00096276942124997,0.00096575601816095,-0.0010248944762628,0.0010271146900063,-0.0010261098553152,0.001025897735158,-0.001025096059053,0.0010227023354172,-0.0010263128589126,0.0010214867238771,-0.0010142238422786,0.0010338919513691,-0.0010058845382701,0.0010108381389112,-0.0010046701629506,0.0010120560744705,-0.0010130061998072,0.0010351063965885,-0.00095967765347805,0.0010319069257471,0.75165981931017,128566,2924,0.0036088084689217,0.0051886204885691,0.0039023900139129,28.355966399503,-1.3152268803976e-05,-1.3152268803976e-05,-1.3152268803976e-05,3171429.9630617,0.012781487155042
31591759,0.77629367823948,0.013190958314082,0.0039652301391882,0.0050545116355234,0.0041712165393699,-0.00087840691806691,0.0008754436367924,-8.7744862922488e-06,4.918600052026e-07,-3.6744438828556e-07,1.8072490511402e-07,-0.00041395743831765,0.00040826758414342,-0.00089907835907096,0.00089649053766486,-0.0008961809422412,0.00091311873807447,-0.00042622423029014,0.00039744187279672,-0.00041448984804115,0.00040773410921808,-0.00089961076544831,0.00089595100201641,-0.00089671370519938,0.00091257969249879,-0.0010523235867405,0.0010490085944977,-0.0010498873417511,0.0010537848645932,-0.0010521460162136,0.0010491926731864,-0.0010497096292599,0.0010539688134742,-0.00087803703759631,0.00086268982136828,-0.00087009776261736,0.00085706951295815,-0.00087821773088614,0.00086250740233887,-0.00087027882797035,0.000856887465654,-0.00042569192828127,0.00039797512370031,2.0404518833324e-07,-3.3548204673564e-07,-1.9406275087814e-06,1.8139812148942e-06,-0.0012647751282878,0.001264648082757,-0.0012188657535305,0.0012225968092219,-0.001269444536202,0.0012685940208815,-0.0012686198847841,0.0012667089822709,-0.0012759950076712,0.001274798273021,-0.0012754235153873,0.0012767295074196,-0.0012759955091725,0.0012744375597984,-0.0012757743179884,0.0012767189877427,-0.0012218756611547,0.0012178923636052,-0.0012193908692724,0.0012227605988501,-0.0012689458259244,0.0012705970938696,-0.0012579837226015,0.0012585751671234,-0.001220102008887,0.0012164797345084,3.1091140242577e-06,1.3011169022696e-05,-0.00094827751850173,0.0009509307609052,3.1543277530745e-06,-6.0646723131132e-07,-0.00095113205660478,0.00095310093132226,-0.00097643926518461,0.00095103187526203,-0.00097842813480459,0.00097415766060103,-0.00096763310418595,0.0010485498703656,-0.00094745378131985,0.00095678669700549,-0.00097275620228511,0.0009547120586755,-0.00097474845482203,0.00097784092272058,-0.0010373196155298,0.0010396004089256,-0.0010385726121882,0.0010383458292281,-0.001037519059583,0.001035121651958,-0.0010387734831619,0.0010338684189137,-0.0010265568285958,0.0010465634764562,-0.0010181362788038,0.0010231729376903,-0.0010168842746373,0.0010244285153255,-0.0010253015417858,0.0010478155376741,-0.00097131787869509,0.0010448712344813,0.71981430503974,128566,2924,0.0036502229980217,0.0052538760154567,0.003948988028445,28.924524633737,-8.6038029301005e-06,-8.6038029301005e-06,-8.6038029301005e-06,3178078.2986794,0.012936746993485
31791759,0.7850321966092,0.013324433154523,0.004003788444505,0.0051084922025948,0.0042121525074231,-0.00088753321327599,0.00088452696680729,-8.8903231112246e-06,5.2876508653821e-07,-3.8634133535814e-07,1.6309474530675e-07,-0.00041595428576889,0.00041068152561183,-0.0009082770146836,0.00090563516447913,-0.00090532112412277,0.00092227807665405,-0.00042854686769984,0.00039944611362955,-0.00041648795620958,0.00041014680450957,-0.00090881070387621,0.00090509437237525,-0.00090585515671325,0.0009217377476603,-0.0010639568203263,0.0010605868198891,-0.0010614842914745,0.0010653999385527,-0.001063778895251,0.0010607713160971,-0.0010613062313692,0.001065584314888,-0.00088659503801463,0.00087105876973871,-0.00087851187743019,0.00086534229597,-0.00088677614084494,0.00087087594306526,-0.00087869335182797,0.00086515983078517,-0.00042801331862393,0.00039998060407066,2.0444303097665e-07,-3.363291732253e-07,-1.9939263319747e-06,1.8668365221566e-06,-0.0012793930373388,0.0012792655506284,-0.0012324426017219,0.0012362775746072,-0.0012839941074402,0.001283109062858,-0.0012831650468528,0.0012812171132225,-0.0012909694997174,0.0012897373646953,-0.0012903771263777,0.0012917184311892,-0.0012909716375757,0.0012893774881288,-0.0012907388843757,0.0012917180612391,-0.0012355212796854,0.0012314331634756,-0.0012330947455758,0.0012365675840057,-0.0012834872451816,0.0012851746695905,-0.0012724896448919,0.0012731147700158,-0.0012337356996994,0.001230009415501,3.1646335257268e-06,1.3239085699645e-05,-0.00095853724650227,0.00096123782267902,3.2316658875119e-06,-6.354792249878e-07,-0.00096116111866573,0.00096312141708941,-0.00098721445247144,0.00096120311792689,-0.00098919995595734,0.00098482386190206,-0.00097764966341903,0.0010599473092612,-0.00095737865416392,0.0009669113578638,-0.0009834272857063,0.00096498742452764,-0.00098541616204314,0.00098861123030437,-0.0010488546211442,0.0010511921982088,-0.0010501430602148,0.0010499021698785,-0.0010490512030927,0.0010466491577538,-0.0010503410682523,0.0010453604755346,-0.0010377502131436,0.0010580793137831,-0.0010292571201828,0.0010343735675904,-0.0010279696596956,0.0010356646019198,-0.001036459468257,0.0010593668192199,-0.00098143860681302,0.0010561644974621,0.68196834929712,128566,2924,0.0036880974526313,0.0053144128268892,0.0039916735478677,29.262107772278,-5.9031378217729e-06,-5.9031378217729e-06,-5.9031378217729e-06,3191140.8592386,0.013079700024671
31991759,0.79349085463315,0.013466821635329,0.0040448005202043,0.0051657710370814,0.0042562500780428,-0.00089643654472105,0.00089338117209436,-9.0075473184386e-06,5.5146382997782e-07,-4.1261449263351e-07,1.4110682760084e-07,-0.00041886039617598,0.0004139914071802,-0.00091791959388352,0.00091521088391531,-0.00091490956673484,0.00093188793167952,-0.00043178297143764,0.00040238551414587,-0.00041939829936618,0.00041345250704873,-0.00091845748561928,0.00091466583274597,-0.00091544780736593,0.00093134337307739,-0.0010750114627356,0.0010715838760205,-0.00107250205067,0.0010764614362866,-0.0010748321369418,0.0010717698049185,-0.0010723225960586,0.0010766472421,-0.00089528233321372,0.00087956048431266,-0.00088705097509777,0.00087379633451515,-0.00089546485322832,0.00087937622096329,-0.00088723388055921,0.00087361246194031,-0.0004312451989506,0.00040292423089392,2.0621760746597e-07,-3.3880003223022e-07,-2.0452726144546e-06,1.9175173060961e-06,-0.0012936341767184,0.0012935060215217,-0.001245856142293,0.0012497917937521,-0.0012982039486667,0.0012972884201444,-0.0012973807747411,0.001295393973285,-0.0013054379075648,0.0013041725000198,-0.0013048246494307,0.0013062006932144,-0.0013054428998847,0.0013038126822429,-0.0013052032184975,0.0013062143294009,-0.0012490106445311,0.0012448205223148,-0.0012466722688092,0.001250242945346,-0.0012976860117835,0.0012994109327226,-0.0012866397941623,0.0012872940499899,-0.0012472099510652,0.0012433844722583,3.2201403336984e-06,1.3456384584929e-05,-0.0009686469238391,0.00097139242621744,3.3047375839843e-06,-6.6467895500041e-07,-0.00097203215673931,0.00097399296278867,-0.00099861281398735,0.00097199879797193,-0.0010006009380085,0.00099612813741955,-0.00098850326477804,0.0010722785300315,-0.00096814957218079,0.00097788301220894,-0.00099472554869973,0.00097588320165709,-0.00099671704986833,0.0010000155906091,-0.0010598769439556,0.0010622690727362,-0.0010611994776504,0.0010609449529682,-0.0010600732352153,0.0010576617891139,-0.0010613971936827,0.0010563390085569,-0.0010488963564024,0.0010694726417403,-0.0010403369873462,0.0010455375897517,-0.0010390154234443,0.0010468627039058,-0.0010475715119449,0.0010707942307931,-0.00099239233268766,0.0010683955878945,0.74979062541876,128566,2924,0.0037250232215672,0.0053733897621348,0.0040337314269527,29.279632617381,-5.7629390609514e-06,-5.7629390609514e-06,-5.7629390609514e-06,3201616.4480288,0.013219490127555
32191759,0.8016702788204,0.01360721586016,0.0040851233826858,0.0052222911114478,0.0042998013660262,-0.00090504557576513,0.00090193502318257,-9.1288265831069e-06,5.8424219597861e-07,-4.3675641778599e-07,1.2253726070801e-07,-0.00042072431169601,0.00041620543843287,-0.00092744385852633,0.00092467306234735,-0.00092437854207181,0.00094141566284644,-0.00043400423311352,0.00040428718344984,-0.0004212676715103,0.00041566112589197,-0.00092798722258877,0.00092412254053461,-0.00092492227630397,0.00094086563116529,-0.0010858320251772,0.0010823512379777,-0.0010832859666184,0.0010872898914299,-0.0010856509122994,0.0010825390248399,-0.0010831047475976,0.0010874775572526,-0.00090396674927903,0.00088805917213582,-0.00089558864919583,0.00088220744831884,-0.00090415108908056,0.00088787305879143,-0.00089577338414776,0.00088202173028406,-0.00043346102677541,0.00040483128974405,2.0863461936653e-07,-3.4192988493887e-07,-2.0959851475302e-06,1.9675431737874e-06,-0.0013076776641861,0.0013075488256132,-0.0012592774865282,0.0012633129656906,-0.0013122454071684,0.0013113011457937,-0.0013114308839325,0.0013094043692785,-0.0013195536045092,0.0013182558014925,-0.0013189199334058,0.0013203306985325,-0.0013195613220141,0.001317895012921,-0.0013193122828054,0.0013203544153033,-0.0012625146001491,0.0012582232574048,-0.0012602379647828,0.0012639047749207,-0.0013117159989411,0.0013134792898557,-0.001300579204677,0.0013012608640095,-0.0012606924428048,0.0012567694344056,3.2778447382222e-06,1.3688343337579e-05,-0.00097847263184747,0.00098126888527927,3.3801947939354e-06,-6.9016504482289e-07,-0.00098281175654332,0.00098478212023758,-0.0010097563280609,0.00098255701627819,-0.0010117486278496,0.0010071876742753,-0.00099930885755135,0.0010846526702059,-0.00097883031890565,0.0009887710532683,-0.0010057702342254,0.00098654022325953,-0.0010077659178551,0.0010111739398569,-0.0010706527605096,0.0010731010747231,-0.001072008931195,0.0010717432998781,-0.0010708495937986,0.0010684320893151,-0.0010722071972785,0.0010670756656881,-0.001059868790085,0.0010807237862295,-0.0010512385449283,0.0010565248341062,-0.0010498833504488,0.0010578836295743,-0.0010585102897735,0.0010820790015077,-0.001003296782565,0.0010806708977676,0.76436054992424,128566,2924,0.0037607269504592,0.0054315362218583,0.0040746208328616,29.288957285307,-5.6883417175422e-06,-5.6883417175422e-06,-5.6883417175422e-06,3198137.8213855,0.013356037700529
32391759,0.80957555208107,0.013746002169408,0.0041249318845346,0.005278162919557,0.0043429073653167,-0.00091349307000434,0.00091033023128183,-9.245567277004e-06,6.1793598681576e-07,-4.5708466394829e-07,1.0925234498989e-07,-0.00042240705098462,0.0004182221400347,-0.00093695426825719,0.00093413006437495,-0.00093383477034898,0.00095095069786334,-0.00043605614417143,0.0004060223956869,-0.00042295725194361,0.00041767101036989,-0.00093750453992769,0.00093357264689934,-0.00093438540556491,0.00095039377335157,-0.0010964085105881,0.0010928772174295,-0.0010938269167683,0.0010978624564991,-0.0010962251342184,0.0010930673586213,-0.0010936434522697,0.0010980524826342,-0.00091263019101745,0.00089654090674194,-0.00090411294843645,0.00089058086991667,-0.0009128168438264,0.00089635245585939,-0.00090429998283365,0.00089039281027086,-0.00043550607382864,0.00040657329312062,2.1167865531309e-07,-3.4576915369879e-07,-2.1459251680638e-06,2.0167193708626e-06,-0.0013214730735315,0.0013213434753118,-0.0012725868840392,0.0012767209883508,-0.0013260337728509,0.0013250625632924,-0.0013252260083341,0.0013231589517382,-0.0013333609527195,0.0013320317027839,-0.0013327068680276,0.0013341521796391,-0.0013333711705591,0.0013316687966377,-0.001333111385565,0.001334183437778,-0.0012759072857806,0.0012715157772447,-0.0012736767467314,0.001277437582574,-0.0013254927766437,0.0013272951112015,-0.0013142325636968,0.0013149396885988,-0.0012740611468472,0.0012700425527597,3.333921381101e-06,1.3914736869927e-05,-0.00098812025659436,0.00099096414022184,3.4544840842614e-06,-7.1521058148041e-07,-0.00099357577829034,0.00099555705777527,-0.0010207851895608,0.00099302779068649,-0.0010227842356279,0.0010181359028398,-0.0010101066823591,0.0010969515224162,-0.00098949705127716,0.0009996433477691,-0.0010167018005262,0.00099710824716117,-0.0010187042646301,0.0010222194335786,-0.0010812210071514,0.0010837245427845,-0.0010826102598659,0.0010823336572911,-0.0010814183284252,0.0010789951502902,-0.0010828090343407,0.0010776056335957,-0.0010706910591964,0.0010918330167136,-0.0010619896086686,0.0010673578912551,-0.0010606013536481,0.0010687498469181,-0.0010692994303727,0.0010932213151038,-0.0010141919610732,0.0010928724547893,0.78118420633862,128566,2924,0.0037957677328276,0.0054886492242269,0.0041147630166341,29.297958201643,-5.6163343868553e-06,-5.6163343868553e-06,-5.6163343868553e-06,3192305.4685044,0.013490126748333
32591759,0.81719601716032,0.013871764293068,0.004161052040258,0.005328957475912,0.0043817547768976,-0.00092117991669992,0.00091797002121559,-9.3586689034578e-06,6.5292181581976e-07,-4.7725231143357e-07,9.7262494658923e-08,-0.00042304726175946,0.00041921170528783,-0.0009452325556849,0.00094236265492679,-0.00094205970623426,0.00095923041696372,-0.00043706396817978,0.00040671280876195,-0.00042360547609794,0.00041865258354891,-0.0009457908525228,0.00094179720072056,-0.00094261835554042,0.00095866544702344,-0.0011062966378435,0.0011027161041885,-0.0011036806697597,0.0011077478216025,-0.0011061105949443,0.0011029089718589,-0.0011034945601172,0.0011079405816099,-0.00092025381327243,0.00090398698140252,-0.00091160389630549,0.00089791684922735,-0.00092044316843848,0.00090379581453454,-0.00091179362542902,0.00089772606811216,-0.00043650586581052,0.00040727166409122,2.1529667261285e-07,-3.5025318919026e-07,-2.1937702244612e-06,2.0637363572837e-06,-0.0013342985823452,0.0013341681580615,-0.0012847892362191,0.0012890181271487,-0.0013388403667592,0.001337844735112,-0.0013380396454324,0.0013359321909909,-0.0013462693037365,0.0013449103442578,-0.0013455963235971,0.001347075092626,-0.0013462831884217,0.0013445457091794,-0.0013460118564089,0.001347111965215,-0.001288184946416,0.0012836969836814,-0.0012860056849686,0.001289855911817,-0.0013382899994906,0.0013401310682757,-0.0013269552876257,0.0013276851895998,-0.0012863190265198,0.0012822093656562,3.3879641844906e-06,1.4133068729971e-05,-0.00099689434882047,0.00099978345548757,3.5277768276845e-06,-7.369696424223e-07,-0.0010028075732444,0.0010047990962179,-0.001030445346347,0.0010021391712895,-0.0010324461303681,0.0010277148329813,-0.001019383966133,0.0011075715148619,-0.00099863572738246,0.0010089785218212,-0.0010262688740739,0.0010063126923117,-0.0010282730846289,0.0010318914210043,-0.0010910602694567,0.0010936172817518,-0.0010924811903632,0.0010921947181153,-0.0010912576906969,0.0010888292885109,-0.0010926800716425,0.0010874080981714,-0.00108052044115,0.0011019639390417,-0.0010717437965154,0.0010771896010604,-0.001070323875951,0.0010786132621031,-0.0010790971200907,0.0011033839074862,-0.0010235623743647,0.0011033993291171,0.73524667432539,128566,2924,0.0038276605684633,0.0055417400929283,0.0041512733743956,29.27082411417,-5.8334070866393e-06,-5.8334070866393e-06,-5.8334070866393e-06,3185524.9884518,0.013613286762376
32791759,0.82452572300198,0.013983880027357,0.0041933447658045,0.0053743691940369,0.0044161660675158,-0.00092818283508572,0.0009249367742771,-9.4596023262372e-06,6.858096183845e-07,-4.9734127532957e-07,8.2537796492821e-08,-0.00042373514288475,0.00042032245961779,-0.00095230256879987,0.00094937698119625,-0.00094907971902886,0.00096625444404557,-0.00043810355860382,0.00040747056791422,-0.0004242986853869,0.00041975803546503,-0.00095286619960827,0.00094880622004,-0.00094964366963689,0.00096568414851411,-0.0011154034440217,0.0011117778337425,-0.0011127549157602,0.0011168512841951,-0.0011152157267454,0.0011119724744887,-0.0011125671223737,0.0011170458252027,-0.00092675339042271,0.00091033404688779,-0.00091797272719475,0.00090418037888418,-0.0009269444967302,0.0009101411035181,-0.00091816421213147,0.00090398781936776,-0.00043754011568346,0.00040803469613692,2.1755023648578e-07,-3.5336301687666e-07,-2.2390758769929e-06,2.108211868518e-06,-0.0013459697663119,0.0013458385164555,-0.0012955725029558,0.0012998902701461,-0.0013504352628928,0.0013494142573527,-0.0013496561925853,0.0013475127118605,-0.0013582184997357,0.0013568305690023,-0.0013575279436549,0.0013590375462341,-0.0013582377659503,0.001356467801595,-0.0013579533330387,0.0013590807538941,-0.0012990321848225,0.0012944536727063,-0.0012969415333351,0.0013008770799977,-0.0013498771428141,0.0013517525920465,-0.0013385447076347,0.0013392983772464,-0.0012971576063278,0.001292960939984,3.4386197993011e-06,1.432814648255e-05,-0.0010048438158816,0.0010077749621157,3.5982152277061e-06,-7.5649445811273e-07,-0.001010512167197,0.0010125061046266,-0.0010388505938293,0.0010100100249772,-0.001040843701655,0.0010360367743594,-0.0010270942447597,0.001116430238989,-0.0010062521756231,0.001016773638428,-0.0010345860477711,0.0010142716308281,-0.0010365825636984,0.0010403014118155,-0.0011001131530447,0.0011027212492913,-0.0011015640519663,0.001101268700495,-0.0011003087554013,0.0010978762497621,-0.0011017611149819,0.0010964250699085,-0.001089272655311,0.0011110062729278,-0.0010804373341266,0.0010859581391548,-0.001078987436522,0.0010874117985966,-0.0010878193485069,0.001112456233079,-0.0010313607645317,0.0011121699118034,0.68273835680302,128566,2924,0.0038567209554364,0.0055900542094681,0.00418435375231,29.212624335785,-6.2990053137163e-06,-6.2990053137163e-06,-6.2990053137163e-06,3190491.6982895,0.013725270128639
32991759,0.83157321290241,0.014096701479179,0.0042258079349097,0.0054199282129434,0.0044509653313254,-0.00093519452817759,0.0009319109794996,-9.5539525061744e-06,7.076962854451e-07,-5.2210363868552e-07,5.82419362783e-08,-0.00042557421098128,0.00042257314771576,-0.00095963261354977,0.00095663587710731,-0.00095636442079599,0.00097350524688345,-0.00044026340293272,0.00040938624897446,-0.00042613836824064,0.00042200815330203,-0.0009601967425591,0.0009560645572065,-0.00095692886702034,0.00097293438710701,-0.0011242417396743,0.0011205742687707,-0.0011215625784044,0.001125702309568,-0.0011240539814239,0.0011207690470438,-0.0011213747534262,0.0011258969879231,-0.00093331093184175,0.00091675086898173,-0.00092440441208385,0.00091055897355887,-0.00093350217679404,0.00091655776776873,-0.00092459605259725,0.00091036627094904,-0.00043969935154082,0.00040995093370944,2.1744744367203e-07,-3.5402064470811e-07,-2.2830302516824e-06,2.1514178764967e-06,-0.0013573721082238,0.0013572401054131,-0.0013061175407665,0.0013105201023105,-0.0013617453274908,0.0013606950658625,-0.0013609959209192,0.0013588220694144,-0.0013699028387801,0.0013684852456633,-0.0013691940067495,0.001370732031377,-0.0013699267486879,0.0013681268717341,-0.0013696320822558,0.0013707876674183,-0.0013096371285927,0.001304972323946,-0.0013076514577887,0.0013116714511286,-0.0013611777723265,0.0013630820180512,-0.0013498848984712,0.0013506662651788,-0.0013077554128861,0.0013034727887199,3.4850107654965e-06,1.4501930608518e-05,-0.0010128244425901,0.0010157922771802,3.6629227486835e-06,-7.7915314988346e-07,-0.0010186665288964,0.001020654348011,-0.001047626253228,0.0010182555597613,-0.0010496133984632,0.001044726296924,-0.001035225816717,0.0011256530032258,-0.0010143209406637,0.0010250073985773,-0.0010432762107802,0.0010226027043379,-0.0010452667201066,0.0010490764178226,-0.0011089621358047,0.0011116170920644,-0.0011104421662007,0.0011101354323358,-0.0011091562666057,0.0011067148505751,-0.0011106377374164,0.0011052345373798,-0.0010980342844522,0.0011199928401561,-0.0010891533290585,0.0010947454769918,-0.0010876742777962,0.0010962282288025,-0.0010965518753201,0.0011214719366218,-0.0010395778481547,0.0011213070859329,0.71399333547444,128566,2924,0.0038858009459323,0.005637260407935,0.004217551926566,29.153623709009,-6.7710103279295e-06,-6.7710103279295e-06,-6.7710103279295e-06,3203198.903253,0.013836277594445
33191759,0.83834739657888,0.014212051570244,0.004258902225165,0.0054663971144772,0.0044867522306017,-0.00094217198148711,0.00093884411025823,-9.6532009105458e-06,7.3292765567927e-07,-5.4468491122351e-07,3.2536146133139e-08,-0.00042721510134979,0.00042458642853808,-0.00096734808733543,0.00096428922202517,-0.00096403524147126,0.00098117598940631,-0.00044223312095909,0.00041109389066417,-0.00042777628357724,0.00042402445838121,-0.00096790911901901,0.00096372089865281,-0.00096459659188636,0.00098060812584596,-0.0011329861791177,0.0011292705288948,-0.0011302758300645,0.0011344633585652,-0.0011327994303733,0.0011294642629652,-0.0011300890319166,0.0011346569951434,-0.00094016509690154,0.0009234546031265,-0.00093113210287072,0.00091722226577835,-0.00094035532515233,0.00092326253158691,-0.00093132274390866,0.00091703060506329,-0.00044167205394614,0.00041165553936294,2.1555232275032e-07,-3.528130537628e-07,-2.3262715031938e-06,2.1939927977389e-06,-0.0013687941197733,0.0013686614378301,-0.0013169066163921,0.0013213915531934,-0.0013730897725657,0.0013720071312575,-0.0013723526802371,0.0013701525793787,-0.0013814452983848,0.0013799973863015,-0.00138071786027,0.001382282747836,-0.0013814706206855,0.001379642543844,-0.0013811666001036,0.0013823511605114,-0.0013204963266028,0.0013157478232153,-0.0013186001447753,0.0013227045635927,-0.0013725114494372,0.0013744404644241,-0.0013612156772942,0.0013620279625146,-0.0013186006727345,0.0013142322824693,3.5335215003675e-06,1.4684162485688e-05,-0.001020830215719,0.0010238395630468,3.7279090633738e-06,-8.0019909829868e-07,-0.0010273927296012,0.0010293848598832,-0.0010567666909506,0.0010268763631785,-0.0010587514175164,0.0010537922529088,-0.0010439732914056,0.0011356063270925,-0.0010229628784394,0.0010338221557268,-0.0010523324382219,0.0010313077290778,-0.0010543205207753,0.0010582265772152,-0.001117723525717,0.0011204269953012,-0.0011192322483608,0.0011189166799741,-0.0011179175537071,0.0011154687128294,-0.0011194276961998,0.0011139597202318,-0.0011069785486303,0.0011291443410151,-0.0010980466223517,0.0011037132278065,-0.0010965388342746,0.0011052245916323,-0.0011054674680642,0.0011306521121308,-0.0010484095567985,0.0011311761470271,0.75848139636137,128566,2924,0.0039147310813804,0.0056845420802907,0.0042508637275755,29.094591434199,-7.2432685264056e-06,-7.2432685264056e-06,-7.2432685264056e-06,3205717.8309005,0.013947336636792
33391759,0.84494681960414,0.014326384702017,0.0042916498732371,0.0055124717885004,0.0045222630402795,-0.00094940599388255,0.00094603521696243,-9.7546008273822e-06,7.6801193697159e-07,-5.5867154488926e-07,1.1526533784268e-08,-0.00042850669399424,0.00042629033172744,-0.00097546032211757,0.00097234893531716,-0.00097210193847507,0.00098925728001155,-0.00044387511894205,0.00041246298602762,-0.00042906091847177,0.00042573538165839,-0.00097601441581082,0.00097178750612684,-0.00097265633214384,0.00098869633747298,-0.0011420411507229,0.0011382856080313,-0.00113930026601,0.0011435215934775,-0.0011418566995208,0.0011384770246313,-0.0011391157809293,0.0011437129054341,-0.00094750966570798,0.00093065685465831,-0.00093836183298241,0.00092435737291504,-0.00094769757660863,0.00093046708700495,-0.00093855014692603,0.00092416805602417,-0.00044332094013565,0.00041301766603153,2.1183199866861e-07,-3.4942510251439e-07,-2.3680223907956e-06,2.2354040102091e-06,-0.0013805714057172,0.0013804383794894,-0.0013281971316167,0.0013327608512739,-0.0013848176559245,0.0013836999383575,-0.0013840739810031,0.0013818528355274,-0.0013932412257484,0.001391762925527,-0.0013924964569428,0.0013940863686023,-0.0013932658707888,0.0013914120968402,-0.0013929511958408,0.0013941654495485,-0.0013318522090505,0.0013270242590667,-0.0013300400926137,0.0013342279752636,-0.0013842298956172,0.001386179237426,-0.0013728827475336,0.0013737293616504,-0.0013299449211176,0.0013254923455111,3.5828107443422e-06,1.4875683671499e-05,-0.00102911290844,0.0010321680141105,3.7950376666646e-06,-8.1639029253228e-07,-0.0010365465527201,0.0010385534632156,-0.0010662377951381,0.0010358289113894,-0.0010682189171567,0.0010631972016733,-0.0010531592383199,0.0011460648257138,-0.001032035160937,0.0010430723582146,-0.0010617219412879,0.0010403418302201,-0.001063706480214,0.0010677130850846,-0.0011268072874311,0.0011295599625321,-0.0011283437758584,0.0011280218841759,-0.0011270010533373,0.0011245478396096,-0.001128538975601,0.0011230110800745,-0.0011162635662096,0.0011386568233975,-0.0011072824230473,0.0011130187989116,-0.0011057468673093,0.0011145579145151,-0.0011147246887526,0.0011401923546019,-0.0010576771618508,0.0011415530405407,0.77139461398819,128566,2924,0.0039447401838315,0.0057332868681303,0.0042853314633951,29.271094448609,-5.8312444111242e-06,-5.8312444111242e-06,-5.8312444111242e-06,3202012.744896,0.014062159811612
33591759,0.85141691987203,0.014440585058945,0.0043243324305293,0.0055584890991401,0.0045577635292754,-0.00095680832167243,0.00095339773059754,-9.8556558509682e-06,7.9918759105497e-07,-5.7075297350539e-07,-5.0971704863081e-09,-0.00042979408912086,0.00042800706661526,-0.00098384154321932,0.00098068193233672,-0.00098043588082157,0.00099762800875771,-0.0004455091873349,0.00041381659598835,-0.00043034378736144,0.00042745667913324,-0.00098439110934087,0.00098012500288585,-0.00098098577207876,0.0009970715573198,-0.0011512535475354,0.0011474581432367,-0.0011484821011761,0.001152736122739,-0.0011510706086336,0.0011476480662551,-0.0011482991245304,0.0011529259476713,-0.00095512753953754,0.00093812760344068,-0.00094586289759126,0.00093174765104469,-0.00095531392272833,0.00093793934835433,-0.00094604971502022,0.00093155983341397,-0.00044495957207903,0.0004143666436884,2.0935712065147e-07,-3.4725879218506e-07,-2.4085643645407e-06,2.2756236384384e-06,-0.0013925344534729,0.0013924011036351,-0.0013397643368838,0.0013444053115723,-0.0013967438935858,0.0013955943831049,-0.0013959927938193,0.001393748992484,-0.0014051713470517,0.0014036643101974,-0.001404409577881,0.0014060245568453,-0.0014051953406818,0.0014033158477528,-0.0014048706062717,0.0014061129511379,-0.0013434751082098,0.0013385692381766,-0.0013417435261296,0.0013460117392129,-0.0013961485400081,0.0013981198465133,-0.0013847151604729,0.0013855929390443,-0.0013415551957513,0.0013370216376404,3.6330392363083e-06,1.5065927054889e-05,-0.0010375748430092,0.0010406764221165,3.8619227753251e-06,-8.305243652875e-07,-0.0010460041311517,0.0010480403404589,-0.0010759480921795,0.0010450307627643,-0.0010779247644426,0.0010728374623018,-0.001062652007948,0.0011568071172006,-0.0010414134048755,0.0010526386357249,-0.0010713529008655,0.0010496229541418,-0.001073333026899,0.0010774326856423,-0.0011360662031315,0.0011388678284159,-0.0011376296898968,0.0011373027389255,-0.0011362606544897,0.0011338032315088,-0.0011378255853606,0.0011322394803066,-0.0011257706636775,0.0011483996182121,-0.0011167337625511,0.0011225423456855,-0.0011151712116528,0.001124108493615,-0.0011242047685668,0.0011499621166667,-0.0010672492865744,0.0011522160630397,0.78538310652729,128566,2924,0.0039754578137856,0.0057827962334443,0.0043205428555773,29.571473839634,-3.4282092829238e-06,-3.4282092829238e-06,-3.4282092829238e-06,3197434.4012507,0.01417924449352
33791759,0.85775414511869,0.014552216011557,0.0043562759810534,0.005603502200325,0.0045924378301786,-0.00096405276390765,0.00096060297522658,-9.9580200171199e-06,8.2801615005973e-07,-5.8462489618886e-07,-1.8685490269483e-08,-0.00043076715314834,0.00042939328822067,-0.00099201769055884,0.00098881689855896,-0.00098855882176093,0.0010058026964291,-0.00044678659638583,0.00041479867342684,-0.00043131703064985,0.00042884275650926,-0.00099256747132763,0.00098825971232064,-0.00098910893804376,0.0010052460012983,-0.0011603202940126,0.0011564833633924,-0.0011575177324815,0.0011618022540243,-0.001160137264815,0.001156673403214,-0.0011573346647242,0.0011619921934868,-0.00096258452208718,0.00094543389167966,-0.00095319846143856,0.00093896808575335,-0.00096277098520479,0.00094524553209962,-0.00095338537743375,0.00093878017749024,-0.0004462367819439,0.00041534884759988,2.092160451842e-07,-3.4757007478971e-07,-2.4486116401777e-06,2.315226036578e-06,-0.0014043105573182,0.001404176760552,-0.0013511594310584,0.0013558780490126,-0.001408493609426,0.0014073172694436,-0.0014077381439942,0.0014054672025941,-0.0014168915053579,0.0014153575683565,-0.0014161131487782,0.0014177543089763,-0.001416915999948,0.001415009436008,-0.0014165806439778,0.0014178489938943,-0.0013549262155038,0.001349941802329,-0.0013532818798891,0.0013576275981834,-0.0014078949872466,0.001409892505975,-0.0013963676225466,0.0013972713247463,-0.0013529919802063,0.0013483800044245,3.6852377750409e-06,1.5257152904653e-05,-0.0010458532554925,0.0010490053720893,3.9307519164109e-06,-8.415748259256e-07,-0.0010552087668722,0.0010572869796095,-0.0010854082941848,0.0010539834827024,-0.0010873770061362,0.001082214686823,-0.0010719002846326,0.0011672776858514,-0.0010505398652652,0.001061963537369,-0.0010807348792079,0.0010586538331038,-0.0010827071031376,0.0010868881161132,-0.0011451687356051,0.0011480197300137,-0.0011467588403689,0.0011464280068857,-0.0011453643535233,0.0011429045532396,-0.0011469559198599,0.0011413141831617,-0.0011351031261509,0.001157974560901,-0.0011260047547274,0.001131890248683,-0.0011244155980177,0.0011334830424014,-0.0011335105817791,0.001159563656935,-0.0010765758118521,0.0011626084604943,0.78367691237626,128566,2924,0.0040055232404417,0.0058315270118406,0.0043549998920346,29.87507902922,-9.9936776624362e-07,-9.9936776624362e-07,-9.9936776624362e-07,3191158.0517099,0.014294126997444
33991759,0.86395402532346,0.014657627911787,0.004386476931723,0.0056460756738218,0.0046250753062424,-0.00097099439715109,0.00096750709119111,-1.0059821415666e-05,8.5260474278007e-07,-6.0094206107211e-07,-3.2285139722227e-08,-0.00043150938617305,0.00043052889140948,-0.00099964359804585,0.00099640467288779,-0.00099613490870745,0.0010134153447065,-0.0004478333371037,0.00041553256787081,-0.00043206186869765,0.0004299757878101,-0.0010001960091065,0.00099584482875857,-0.00099668764852223,0.0010128559938954,-0.0011690861786922,0.0011652069642216,-0.0011662532067604,0.0011705666072728,-0.0011689022563317,0.001165397923779,-0.0011660692495061,0.0011707574669794,-0.00096957199094219,0.00095227446512203,-0.00096006834116573,0.00094572653128128,-0.00096975934704247,0.00095208519854931,-0.0009602561595613,0.00094553772201767,-0.00044728095460087,0.00041608534837771,2.1025148360026e-07,-3.4916140769408e-07,-2.4884893087661e-06,2.3545657891146e-06,-0.0014156360771921,0.0014155017404969,-0.0013620086414173,0.0013668051987443,-0.0014197861863569,0.0014185855007632,-0.0014190321986029,0.001416731753137,-0.0014282146006182,0.0014266546270602,-0.0014274199209844,0.001429087825842,-0.0014282413442695,0.0014263069632024,-0.0014278935419747,0.001429186851754,-0.0013658277587988,0.0013607643328275,-0.0013642875038924,0.0013687093953384,-0.0014191827727989,0.0014212086831536,-0.0014075964697012,0.001408523431865,-0.0013638901685779,0.0013592009342381,3.7357854907538e-06,1.5442291708181e-05,-0.0010537640289735,0.0010569636002178,3.9988122858485e-06,-8.52946185314e-07,-0.001063712317416,0.0010658251660753,-0.0010942704532682,0.0010623421396956,-0.0010962176548415,0.0010909869618814,-0.0010804329947075,0.0011769628935411,-0.0010589656362966,0.0010705795490025,-0.0010895192789262,0.0010670902234373,-0.0010914700303505,0.0010957381531832,-0.0011539530089889,0.0011568524303866,-0.0011555695820084,0.0011552342276151,-0.0011541500292459,0.0011516874784734,-0.001155768076123,0.0011500706382355,-0.0011439865201073,0.001167103667473,-0.0011348272896769,0.0011407868134845,-0.001133211668344,0.0011424060959719,-0.0011423674806052,0.0011687192191553,-0.0010851863581215,0.0011722159108873,0.75679008111315,128566,2924,0.0040343319486512,0.0058783903821265,0.0043879238895823,30.178811986877,1.4304958950153e-06,1.4304958950153e-06,1.4304958950153e-06,3186895.122596,0.014404298755581
34191759,0.87010340182893,0.014760041141976,0.0044158476360197,0.0056874640690118,0.0046567294369442,-0.00097830860284905,0.00097478848644341,-1.0157614802047e-05,8.7170747581556e-07,-6.19821362007e-07,-4.3913035320469e-08,-0.0004330422267538,0.00043245205675755,-0.0010075095902929,0.0010042344297938,-0.0010039544005321,0.0010212583054279,-0.00044968415287263,0.00041708572002703,-0.00043360181765703,0.00043189185626539,-0.0010080691034749,0.0010036674434019,-0.001004514238266,0.0010206918076694,-0.0011781762498726,0.0011742534959798,-0.0011753135794239,0.001179653927991,-0.0011779899423992,0.0011744468734587,-0.001175127241249,0.001179847207222,-0.00097679073082822,0.00095936263317412,-0.00096717675126846,0.0009527419382442,-0.00097698048182435,0.00095917095014235,-0.00096736697605464,0.00095255072161423,-0.00044912466447703,0.00041764564154947,2.1344149302499e-07,-3.531670603415e-07,-2.5280885073582e-06,2.3933890161682e-06,-0.0014272088359038,0.0014270737209227,-0.0013730084431532,0.0013778834404431,-0.0014313001144648,0.0014300795986432,-0.001430555543686,0.0014282211123369,-0.0014398577610317,0.0014382732794221,-0.0014390465548175,0.0014407422022773,-0.0014398886823465,0.0014379250173911,-0.0014395284388288,0.0014408447105838,-0.0013768843071414,0.0013717408973795,-0.0013754543818929,0.0013799499146979,-0.0014306897434863,0.0014327480373331,-0.0014190819885736,0.0014200271968232,-0.0013749406790051,0.0013701762394409,3.782830153731e-06,1.5616490349174e-05,-0.0010620432091384,0.0010652870341695,4.0645925911511e-06,-8.6579858641623e-07,-0.0010724335078109,0.001074570939937,-0.001103394358338,0.0010709798546012,-0.0011053229316899,0.0011000251768025,-0.0010891596777928,0.0011867591663334,-0.0010676098265295,0.0010794023446971,-0.001098566219028,0.0010758049065709,-0.001100498339684,0.0011048533359817,-0.0011630900211851,0.0011660355582479,-0.001164732802656,0.0011643911479527,-0.0011632876542793,0.0011608216662092,-0.0011649319111475,0.0011591786179067,-0.0011531591889835,0.0011765169089779,-0.0011439513511968,0.0011499778066482,-0.0011423095221875,0.001151623301094,-0.0011515139361871,0.0011781586602403,-0.0010939900803481,0.001181935190512,0.74153685155865,128566,2924,0.0040646897719737,0.0059262785089121,0.004422368103549,30.744251623704,5.9540129896296e-06,5.9540129896296e-06,5.9540129896296e-06,3191714.4678177,0.014518635213091
34391759,0.87621714255385,0.014861002904298,0.0044447943960315,0.0057282860319347,0.0046879224763314,-0.0009857042024046,0.00098215344320339,-1.0250969073321e-05,8.8617075577148e-07,-6.394505263254e-07,-5.7230159991777e-08,-0.00043491969648823,0.00043471856418351,-0.001015402895464,0.0010120886543941,-0.0010118015067017,0.0010291130203174,-0.00045187722175922,0.0004190095030846,-0.0004354855319922,0.00043415213280326,-0.0010159686066979,0.0010115154194662,-0.0010123675451984,0.001028540271421,-0.0011873103669517,0.0011833456661815,-0.0011844185027786,0.0011887863665597,-0.0011871219961126,0.0011835411419811,-0.0011842301076485,0.0011889817436801,-0.00098402402413389,0.00096647390694905,-0.00097430382831459,0.00095979206657645,-0.00098421586649607,0.00096628012079583,-0.00097449614949588,0.00095959875958111,-0.00045131150007897,0.00041957566124401,2.1616145107184e-07,-3.5674649163262e-07,-2.5671608492749e-06,2.4316419845595e-06,-0.0014387925855713,0.0014386566474415,-0.0013839706709831,0.0013889226870101,-0.0014428051191359,0.0014415642145674,-0.0014420716046063,0.0014397043735384,-0.0014515506804223,0.0014499416869006,-0.0014507228779006,0.0014524455463182,-0.0014515853365706,0.0014495930179501,-0.001451213765332,0.0014525529093284,-0.0013879078586387,0.0013826857947976,-0.0013865903325653,0.0013911586872422,-0.0014421879997968,0.0014442774007351,-0.0014305854595986,0.0014315493761297,-0.0013859569406424,0.0013811180259166,3.8303612871276e-06,1.5784653253133e-05,-0.001070409600579,0.0010736985432996,4.1291073273912e-06,-8.7882550631753e-07,-0.0010811991288931,0.001083374235432,-0.0011125609303903,0.0010796727202454,-0.0011144760879974,0.0011091092620493,-0.0010979233790156,0.0011965618683126,-0.0010762995132139,0.0010882815596862,-0.0011076569037278,0.001084573676191,-0.0011095755976321,0.0011140133070306,-0.0011722945493373,0.0011752851735548,-0.0011739631808055,0.0011736149193201,-0.0011724918189301,0.0011700230505703,-0.0011741619207669,0.0011683541503249,-0.0011623743375664,0.0011859661959911,-0.0011531282097368,0.0011592185804359,-0.0011514605209072,0.001160889912414,-0.0011607032426068,0.0011876337919147,-0.0011028297134544,0.0011916619642911,0.73560164597771,128566,2924,0.0040953851282392,0.0059742120562,0.0044571745560091,31.386843561632,1.1094748493057e-05,1.1094748493057e-05,1.1094748493057e-05,3200597.8432568,0.014633740076522
34591759,0.88228215513538,0.014964842733323,0.0044745114036305,0.0057702199619005,0.0047201113677917,-0.00099321718611702,0.00098963398627036,-1.0343179314375e-05,8.9584432396838e-07,-6.5918920943911e-07,-7.299835022002e-08,-0.0004371289814992,0.00043729301847319,-0.0010236188658284,0.0010202659352954,-0.001019970074415,0.0010372912772827,-0.00045437074704917,0.00042125352605086,-0.00043769875247723,0.00043672267056606,-0.0010241884803524,0.0010196887486356,-0.001020540022176,0.0010367145817667,-0.0011964907008785,0.0011924866739574,-0.001193570562786,0.0011979681918122,-0.001196301085149,0.0011926834685255,-0.0011933809218406,0.0011981648859952,-0.00099150214343052,0.00097381662313002,-0.00098167277660187,0.0009670871781847,-0.00099169529125468,0.00097362151122933,-0.00098186641519176,0.00096689256240069,-0.00045380108055407,0.00042182363308978,2.177427624936e-07,-3.5913626860963e-07,-2.6061230120025e-06,2.4698183059705e-06,-0.001450505010871,0.0014503682846322,-0.0013951364204416,0.0014001645347919,-0.0014544298852182,0.0014531663989769,-0.0014536996423421,0.0014513020016389,-0.0014633326628242,0.0014616984723978,-0.0014624879768949,0.0014642368611088,-0.00146337042773,0.0014613503267454,-0.001462988824725,0.0014643515930939,-0.0013991340337358,0.0013938343040161,-0.0013979238770741,0.0014025656863824,-0.0014538061050739,0.0014559242969903,-0.0014422012165759,0.0014431861145622,-0.0013971739578058,0.0013922600012419,3.8765862306362e-06,1.5950033175532e-05,-0.0010789387947089,0.0010822729620261,4.1923797086633e-06,-8.9291017934797e-07,-0.0010904426457549,0.0010926354725189,-0.0011220886475741,0.0010887344544401,-0.0011239956545537,0.0011185533556631,-0.0011071633267619,0.0012068497716025,-0.0010854672607959,0.0010976185470837,-0.0011171089215518,0.0010937111265664,-0.0011190194494661,0.0011235331058368,-0.0011815803364852,0.0011846155901164,-0.0011832747552131,0.001182919551449,-0.0011817767546628,0.0011793048037835,-0.0011834726398036,0.0011776101128082,-0.0011718006750977,0.0011956074246034,-0.0011625132907591,0.0011686690144855,-0.0011608198091442,0.0011703661234629,-0.0011701038015219,0.0011973008014718,-0.001112145400336,0.0012018741219198,0.76226247062684,128566,2924,0.004126562320553,0.0060226767162165,0.0044926557132097,32.031488555637,1.6251908445098e-05,1.6251908445098e-05,1.6251908445098e-05,3209606.7307674,0.014750569443187
34791759,0.88836292695827,0.015073047518572,0.0045054061526809,0.0058138870238142,0.0047537543420766,-0.0010012945222016,0.00099767361377987,-1.0440798011258e-05,9.0571334000355e-07,-6.7557337286328e-07,-8.8208682231254e-08,-0.00043945218275711,0.0004399621488591,-0.0010326498733584,0.0010292622569943,-0.0010289515914858,0.0010463072317065,-0.00045698033004129,0.00042357533322423,-0.00044002305727549,0.00043939071539327,-0.0010332206108458,0.0010286839082264,-0.0010295226590515,0.0010457293882821,-0.0012062921809223,0.0012022491074941,-0.0012033431110837,0.0012077687769763,-0.0012061022035119,0.0012024463044144,-0.0012031531169508,0.0012079658677144,-0.00099977067612104,0.0009819421228556,-0.00098983083298747,0.00097515964184118,-0.00099996420741053,0.00098174660552218,-0.00099002485974233,0.00097496464337233,-0.00045640953428139,0.00042414663545434,2.1797997800015e-07,-3.600134669775e-07,-2.645704355933e-06,2.5087756848428e-06,-0.0014630066811846,0.0014628693302167,-0.0014072258215727,0.0014123306369351,-0.0014668720305079,0.0014655828392497,-0.0014661350156043,0.0014637094970929,-0.0014757937680893,0.0014741331601157,-0.0014749316237016,0.0014767064363462,-0.0014758328707105,0.0014737856043268,-0.0014754414775778,0.0014768294139281,-0.0014112822299016,0.0014059045778722,-0.0014101699015419,0.0014148876374275,-0.0014662419931003,0.0014683867930822,-0.0014545893019219,0.0014555986202103,-0.0014093095550845,0.0014043183991797,3.9242307728008e-06,1.6124839356787e-05,-0.001088122523887,0.0010915041678216,4.2574420600948e-06,-9.0660838290111e-07,-0.0011006680294851,0.0011028981401702,-0.0011324781837962,0.0010986508042111,-0.0011343765134828,0.0011288562141709,-0.0011174286471736,0.001218234151684,-0.001095615577363,0.0011079583350696,-0.0011274213779166,0.0011037045544316,-0.0011293232429715,0.0011339130495087,-0.0011915079522708,0.001194588800033,-0.0011932286180534,0.0011928665092239,-0.0011917054279318,0.0011892285723317,-0.0011934275705623,0.0011875076288816,-0.0011820100147431,0.0012060310972115,-0.0011726779347725,0.0011788995899065,-0.0011709582161793,0.0011806229483505,-0.0011802868787193,0.0012077507181709,-0.0011224878980387,0.0012131813741326,0.79180217389291,128566,2924,0.0041600801927692,0.0060744016087399,0.0045308552566612,32.909573533629,2.3276588269034e-05,2.3276588269034e-05,2.3276588269034e-05,3214558.932446,0.014875856522932
34991759,0.89449034791657,0.015176883191642,0.0045350563741029,0.0058559154023871,0.0047859114151524,-0.0010093951387533,0.001005736921754,-1.0539108948788e-05,9.206836598905e-07,-6.887192530415e-07,-1.0058326585936e-07,-0.00044109271266287,0.00044196076230142,-0.0010414435797239,0.0010380155329145,-0.0010376911796322,0.0010550819058697,-0.00045892139686666,0.00042520465029821,-0.00044166431321404,0.00044138863024968,-0.0010420150366101,0.0010374364378821,-0.001038262976871,0.0010545033100095,-0.0012163003932626,0.0012122180212498,-0.0012133215251515,0.0012177777711986,-0.00121611018641,0.0012124154858544,-0.0012131313079297,0.0012179751303153,-0.0010079498094991,0.00098998006443718,-0.00099789762583245,0.0009831211359863,-0.0010081435825393,0.00098978428615746,-0.00099809191784023,0.00098292588139418,-0.00045834989625177,0.00042577667432762,2.1804589213217e-07,-3.6064441879318e-07,-2.685978417895e-06,2.5484948275054e-06,-0.0014756632553007,0.0014755253502649,-0.0014193828076166,0.0014245656616331,-0.001479487988713,0.0014781722833448,-0.0014787532751386,0.0014762998721536,-0.0014884174033962,0.0014867298317946,-0.0014875383977741,0.0014893395574786,-0.0014884582716815,0.0014863835518136,-0.0014880545540815,0.0014894683474803,-0.0014234958373009,0.0014180390333897,-0.001422487794023,0.0014272830877296,-0.0014788550950475,0.0014810266370349,-0.0014671621561052,0.0014681968790536,-0.0014215109055746,0.0014164410696701,3.9733376806982e-06,1.6308678233994e-05,-0.001097323674511,0.0011007561628826,4.3249582155697e-06,-9.1934922425141e-07,-0.0011105193557166,0.001112800706524,-0.0011426158345523,0.0011082960698051,-0.0011445066168656,0.0011389023760753,-0.0011273545607203,0.0012292745518418,-0.0011053883318242,0.0011179395176204,-0.0011374804799109,0.0011134283506293,-0.0011393748056998,0.0011440377736654,-0.0012016089870767,0.001204736411506,-0.0012033564028136,0.0012029873634148,-0.0012018074689036,0.0011993270540052,-0.0012035563683068,0.0011975793613119,-0.0011922187237766,0.0012164945332832,-0.0011828440080219,0.0011891311208026,-0.0011810975439548,0.0011908812390636,-0.0011904688318435,0.0012182408849635,-0.0011324924254014,0.0012241432105621,0.75494740818305,128566,2924,0.0041937035552438,0.0061267601123715,0.0045691318725349,33.940103426994,3.1520827415949e-05,3.1520827415949e-05,3.1520827415949e-05,3216056.9400977,0.015001990858567
35191759,0.90064081472394,0.015278368789573,0.0045640487905983,0.0058970408780016,0.0048172791209728,-0.0010174654125215,0.0010137730737921,-1.0629022241358e-05,9.2190751022082e-07,-7.0415519386414e-07,-1.1552625791708e-07,-0.00044326226953055,0.00044443632008709,-0.0010500309293439,0.0010465590698386,-0.0010462260890457,0.0010636296540519,-0.00046136877176963,0.0004273615067669,-0.00044383434599522,0.00044386373288171,-0.0010506028648671,0.0010459794819311,-0.0010467983562385,0.0010630505538094,-0.0012262167786879,0.0012220961751891,-0.0012232099483029,0.0012276956786661,-0.0012260264471067,0.0012222938086235,-0.0012230196129342,0.001227893210432,-0.0010158889358657,0.00099778269950683,-0.0010057295909496,0.00099087193625731,-0.0010160828658702,0.00099758675799926,-0.0010059240464274,0.00099067651709771,-0.00046079683388936,0.00042793399003043,2.1796029263112e-07,-3.6117773825381e-07,-2.7262973362268e-06,2.5882073622755e-06,-0.0014881439536028,0.0014880054436627,-0.0014312429368425,0.0014365037354469,-0.0014918894548912,0.0014905469410335,-0.0014911612314613,0.0014886801243527,-0.0015009710597665,0.0014992563758752,-0.0015000746565094,0.0015019020185608,-0.001501014174241,0.0014989120469729,-0.0015005982846603,0.0015020379804056,-0.0014354100722758,0.001429874116953,-0.0014345115787839,0.0014393845053024,-0.0014912537899055,0.0014934517968168,-0.0014795607892854,0.001480621106934,-0.0014334189507461,0.0014282702608497,4.0180229721565e-06,1.6477757768594e-05,-0.0011064703513254,0.0011099470783491,4.3898123952581e-06,-9.3474573683349e-07,-0.0011201017927136,0.0011224228308545,-0.0011525597955488,0.0011177809314766,-0.0011544476935888,0.0011487532459776,-0.001137022661972,0.0012399021941041,-0.0011148921631756,0.0011276402677725,-0.0011473458863749,0.001122991758289,-0.0011492373457011,0.0011539672025982,-0.0012116442853503,0.0012148154516354,-0.0012134184446897,0.0012130396561739,-0.0012118420596574,0.0012093575384586,-0.0012136177071205,0.0012075831011273,-0.0012022673609432,0.0012267928352058,-0.0011928622419409,0.0011992044823312,-0.0011910890327822,0.0012009813489481,-0.0012004907213119,0.001228565920805,-0.0011422391636603,0.0012346922629923,0.73556804654791,128566,2924,0.0042271967910699,0.0061783929768902,0.0046071673533863,34.974597359415,3.9796778875319e-05,3.9796778875319e-05,3.9796778875319e-05,3225906.5025277,0.015127025964861
35391759,0.90673215017034,0.015375952959151,0.0045919187227796,0.0059366501989673,0.0048473840374045,-0.0010250561540089,0.0010213283094511,-1.0718373310334e-05,9.1354394913617e-07,-7.2458591171327e-07,-1.3776786349465e-07,-0.00044529365989042,0.00044674097460154,-0.0010579516556138,0.0010544287357844,-0.0010541007996103,0.001071486969442,-0.0004637138420064,0.00042938362722884,-0.00044586400588571,0.00044617016736184,-0.0010585218298425,0.0010538508927799,-0.0010546712890197,0.0010709096007383,-0.0012356174469267,0.0012314547305933,-0.0012325833590299,0.0012370947063433,-0.0012354277019532,0.0012316517583441,-0.0012323936015602,0.0012372916336183,-0.0010231666168881,0.001004917861497,-0.0010128994658899,0.0009979927700282,-0.0010233599444251,0.0010047225203125,-0.0010130933243019,0.00099779795542116,-0.00046314366476159,0.000429954357931,2.1677991785173e-07,-3.6054141425119e-07,-2.7658598862826e-06,2.6272312141221e-06,-0.0014999948615258,0.0014998558135428,-0.0014423729535778,0.0014477095929968,-0.0015036345620202,0.0015022635564108,-0.0015029158728417,0.0015004098288312,-0.0015129636525439,0.0015112216306928,-0.001512050285143,0.0015139026716721,-0.0015130092523676,0.0015108810298061,-0.0015125818969723,0.0015140478508453,-0.0014465878849642,0.0014409750215812,-0.001445787507934,0.0014507374745184,-0.0015029931152576,0.0015052149546181,-0.0014913442623758,0.0014924319711202,-0.0014445959609414,0.0014393691371786,4.0595244193087e-06,1.6640232171661e-05,-0.001115100034618,0.0011186156523593,4.4507305981375e-06,-9.52623628413e-07,-0.0011289551347102,0.0011313157988537,-0.0011618273447666,0.0011266205090773,-0.0011637061325417,0.001157922644886,-0.0011459183832167,0.0012496991696403,-0.0011236683307067,0.0011366103943868,-0.0011565363121989,0.0011319084656817,-0.0011584186685053,0.0011632137186192,-0.0012211557237463,0.001224368172751,-0.0012229561477601,0.0012225661184708,-0.0012213525638366,0.0012188622540784,-0.0012231544744406,0.001217061550128,-0.00121173674448,0.0012364745014607,-0.0012022818548254,0.0012086728415899,-0.0012004823741639,0.0012104759534417,-0.001209933835457,0.0012382738487161,-0.0011512120535349,0.0012444120535241,0.7149703371691,128566,2924,0.0042586885236129,0.0062274202551363,0.0046430461728145,35.839782808167,4.6718262465332e-05,4.6718262465332e-05,4.6718262465332e-05,3238124.5376691,0.015245208804829
35591759,0.9126724399967,0.015466390766606,0.0046177501546425,0.0059734565667416,0.0048751840452215,-0.0010318934778957,0.0010281289169511,-1.080023826761e-05,9.0033291878006e-07,-7.4583174971542e-07,-1.6538277276311e-07,-0.00044701164029523,0.00044867006490884,-0.0010648353863135,0.0010612432089365,-0.0010609371737967,0.0010782842011764,-0.00046572143323639,0.00043110207213041,-0.00044757576482979,0.00044810549676954,-0.0010653993502429,0.0010606715678769,-0.0010615014191732,0.0010777130382501,-0.001244236936643,0.0012400313594085,-0.0012411765118705,0.0012457080291108,-0.0012440492869066,0.001240226259372,-0.0012409888579632,0.0012459028258802,-0.0010294467514209,0.0010110593036292,-0.0010190645301143,0.0010041496088314,-0.0010296379895697,0.0010108660680096,-0.0010192562866867,0.0010039569213628,-0.00046515742545479,0.00043166663801334,2.1343308245728e-07,-3.5755252939437e-07,-2.8043526925245e-06,2.6653461302057e-06,-0.0015108613066033,0.0015107218770176,-0.0014523891214967,0.0014577983130518,-0.001514373744422,0.0015129705902361,-0.0015136766390147,0.0015111509371431,-0.0015240560154865,0.001522285940934,-0.0015231259339459,0.0015250013320012,-0.0015241032965315,0.0015219513056565,-0.0015236652211706,0.0015251584509289,-0.0014566363396619,0.001450950192195,-0.0014559435794021,0.0014609702991679,-0.0015137303405735,0.0015159710615846,-0.0015021660067171,0.0015032850596005,-0.0014546591724303,0.0014493548055798,4.0964265042571e-06,1.679335629961e-05,-0.0011229036497464,0.0011264534659647,4.5065716245603e-06,-9.7348758522106e-07,-0.0011366378472335,0.001138964903221,-0.0011700369126736,0.0011344118476558,-0.001171890905938,0.0011660222213658,-0.0011536044545706,0.0012582089623872,-0.001131275957321,0.0011443346063927,-0.001164670815171,0.0011397748932354,-0.0011665283822523,0.0011713883432137,-0.0012298464829645,0.0012330982985239,-0.0012316724872413,0.0012312706883076,-0.0012300414132867,0.0012275463698432,-0.0012318688957829,0.0012257200847936,-0.0012202690044939,0.0012452002875603,-0.0012107544827482,0.0012172152674894,-0.001208929398898,0.0012190438727873,-0.0012184405242015,0.0012470252163274,-0.0011589732526346,0.0012528466789195,0.68077348528015,128566,2924,0.0042870410500247,0.0062723752144891,0.004675487856491,36.485728067595,5.1885824540758e-05,5.1885824540758e-05,5.1885824540758e-05,3252431.8961844,0.015352592485348
35791759,0.91844665188948,0.015559471879493,0.0046442681521723,0.0060112306349811,0.0049039730923393,-0.0010388068184331,0.0010350059022492,-1.0879133931598e-05,8.7763406441332e-07,-7.6166968046082e-07,-1.8805376156231e-07,-0.00044954345205919,0.00045141742805037,-0.0010720786888225,0.0010684270392044,-0.0010681345732712,0.0010854862246019,-0.00046849713394227,0.00043365004856127,-0.00045010088680998,0.00045085958300078,-0.0010726359168811,0.00106786212319,-0.001068692089554,0.0010849217597568,-0.0012527529888544,0.0012485052193232,-0.0012496665280033,0.0012542064773754,-0.0012525676602821,0.001248697840801,-0.0012494811861095,0.0012543990063515,-0.0010358955575892,0.0010173688626722,-0.0010254453146275,0.0010105181408922,-0.0010360845510663,0.0010171779083575,-0.0010256348321864,0.0010103277064775,-0.00046793989571091,0.0004342078560048,2.0983444881139e-07,-3.5428605552864e-07,-2.8420016246407e-06,2.7026547114566e-06,-0.0015216929408523,0.0015215531677595,-0.0014624838688336,0.0014679638682037,-0.0015250826873614,0.0015236474650875,-0.0015243875848048,0.0015218433218294,-0.0015350843969722,0.0015332867410736,-0.0015341371072996,0.0015360348517072,-0.0015351322163105,0.0015329571873529,-0.0015346851978397,0.0015362053224807,-0.001466772294008,0.0014610146450897,-0.0014661514718207,0.0014712535598861,-0.0015244343100422,0.0015266928558876,-0.0015128892797639,0.0015140397113,-0.0014647954020445,0.0014594149860158,4.133768873066e-06,1.6933086163871e-05,-0.0011308404935818,0.0011344228113033,4.5586973960516e-06,-9.9660208644556e-07,-0.0011449268152858,0.0011472334548885,-0.001178696246206,0.0011426887207546,-0.0011805378863716,0.0011745750061834,-0.0011619116882109,0.0012672485212578,-0.001139491204994,0.001152676906372,-0.0011732565044988,0.0011481253976713,-0.0011751017168701,0.0011800147980884,-0.001238486846015,0.0012417748538208,-0.0012403379322444,0.001239922172242,-0.0012386811881978,0.0012361808714511,-0.0012405337461025,0.0012343295176952,-0.0012289883667494,0.0012540634405667,-0.0012194149255808,0.0012259039778362,-0.0012175647271399,0.0012277576267642,-0.001227134808374,0.0012559134288874,-0.001167354177302,0.0012618125645923,0.72027366144937,128566,2924,0.0043156999867539,0.0063171894990268,0.0047084780594703,37.12601492116,5.700811936928e-05,5.700811936928e-05,5.700811936928e-05,3270612.5685336,0.0154607092664
35991759,0.92404254942857,0.015655367198949,0.0046714850150848,0.0060500793440657,0.0049338028397985,-0.0010457011603803,0.0010418626514036,-1.0963386784252e-05,8.6148949374244e-07,-7.6962322593109e-07,-2.005704756261e-07,-0.00045162462684495,0.00045371857142771,-0.0010796649960354,0.0010759893577877,-0.0010756722036939,0.001093094567554,-0.00047077457820549,0.00043565008734778,-0.00045217739219084,0.00045316537011168,-0.0010802176599083,0.0010754289838277,-0.0010762251358644,0.0010925346465233,-0.0012612510599555,0.0012569592769536,-0.0012581380390381,0.0012626876297967,-0.001261067244972,0.0012571504093237,-0.0012579541347163,0.0012628786713813,-0.0010427015859884,0.0010240214120044,-0.0010321807454212,0.0010172179419507,-0.0010428890909281,0.0010238319668517,-0.0010323687630767,0.0010170290163724,-0.00047022195325015,0.00043620333697687,2.0732895665125e-07,-3.5211070730291e-07,-2.8792018020578e-06,2.7395210271869e-06,-0.0015326341630015,0.0015324940463014,-0.0014729049522392,0.0014784556363752,-0.0015359324366305,0.0015344675668307,-0.0015352054716274,0.0015326408271217,-0.0015460739991639,0.001544249829739,-0.0015451103234394,0.0015470308943918,-0.0015461199615447,0.0015439214224727,-0.0015456640832294,0.0015472100399468,-0.0014772377516187,0.0014714087458861,-0.0014766884392673,0.0014818642822588,-0.001535279282701,0.0015375574639676,-0.0015236566985021,0.0015248360835947,-0.0014752561435568,0.0014698012834287,4.1773761356709e-06,1.7084705970841e-05,-0.0011388184463321,0.0011424425853514,4.6132887177285e-06,-1.016296354984e-06,-0.0011537243803953,0.0011560217750382,-0.0011876978149619,0.0011512913747025,-0.0011895323195381,0.0011834761722375,-0.0011708036509702,0.0012769774740484,-0.0011482160527387,0.0011615380653242,-0.0011821853468809,0.0011568007269405,-0.0011840234771205,0.0011889887164961,-0.0012471210803177,0.0012504464252186,-0.0012489969190124,0.0012485689837965,-0.0012473185129169,0.0012448123797887,-0.0012491958403089,0.0012429362813441,-0.0012378913098774,0.0012630820016977,-0.0012282247434545,0.0012347786713808,-0.0012263497879412,0.0012366570427632,-0.0012360129502085,0.001264956710996,-0.0011763189718497,0.0012714688071248,0.76499783055484,128566,2924,0.0043442889891205,0.0063624483622686,0.0047416574471354,37.766076709555,6.2128613676443e-05,6.2128613676443e-05,6.2128613676443e-05,3277736.7218088,0.01556941134447
36191759,0.92929955796181,0.015742854274348,0.0046962917495186,0.0060856108573455,0.0049609516674839,-0.0010510884645717,0.0010472099737419,-1.1047916377748e-05,8.4740109954842e-07,-7.8277054722684e-07,-2.0886972357554e-07,-0.0004518208047695,0.00045407958612041,-0.0010855619053367,0.001081867890708,-0.0010815201834377,0.0010990090653977,-0.00047116462519518,0.00043576047129498,-0.00045237819689329,0.00045352174493037,-0.0010861192910994,0.0010813027592628,-0.0010820777784095,0.0010984444043613,-0.0012682499269288,0.0012639176395018,-0.0012651095696295,0.0012696735574862,-0.0012680644786101,0.0012641104043955,-0.0012649237290772,0.0012698662294507,-0.0010480443084455,0.0010292298449671,-0.0010374474172064,0.0010224301889624,-0.0010482334546757,0.0010290387829253,-0.0010376370571695,0.0010222396562037,-0.00047060727351666,0.00043631848373768,2.0938407825202e-07,-3.5477536347017e-07,-2.9140872951381e-06,2.773836845683e-06,-0.0015418713996519,0.0015417307036874,-0.0014816312372989,0.0014872507377158,-0.0015450902329758,0.0015436063551122,-0.0015443511850107,0.0015417582848386,-0.0015553293963018,0.0015534831989211,-0.0015543509197327,0.0015562955576085,-0.0015553775570591,0.0015531538058382,-0.0015549101798129,0.0015564770148487,-0.0014860117452455,0.0014801127992457,-0.0014855632699199,0.0014908047434196,-0.001544435366729,0.0015467405718866,-0.0015327574629553,0.0015339546595571,-0.0014840264289258,0.0014785047758917,4.2210711367308e-06,1.7234800154319e-05,-0.0011451465340806,0.0011488111181882,4.6695390723426e-06,-1.0294452152352e-06,-0.0011605385158666,0.0011628177816286,-0.0011948185988837,0.0011580090152934,-0.0011966422394275,0.0011905021379511,-0.0011777362287963,0.0012848210281139,-0.0011549622544818,0.0011684020960669,-0.0011892381920744,0.0011635862917477,-0.0011910654949868,0.001196082629532,-0.0012541914874905,0.0012575547085155,-0.0012560904526675,0.0012556541421857,-0.0012543915434428,0.0012518839918186,-0.0012562920072926,0.0012499847671658,-0.0012450935812263,0.0012703820667468,-0.0012353296400009,0.0012419575576285,-0.0012334315519277,0.0012438590324137,-0.0012431920771907,0.001272279893456,-0.001183319581421,0.0012792443756755,0.74360848893034,128566,2924,0.0043666249932267,0.0064006475247204,0.0047679909428871,37.870163018966,6.296130415173e-05,6.296130415173e-05,6.296130415173e-05,3271336.1122182,0.015657652679954
36391759,0.93412364759924,0.015822108926349,0.0047187823921999,0.0061178091232737,0.0049855174108758,-0.0010552702311214,0.0010513560668321,-1.1118995084677e-05,8.1911482504246e-07,-8.0057004691413e-07,-2.1772021956494e-07,-0.00045174668450345,0.00045403751417083,-0.0010901125602161,0.0010863995801605,-0.0010860263549129,0.001103572819256,-0.00047125798027387,0.00043558948643692,-0.00045231284311995,0.00045347087630407,-0.001090678701753,0.0010858256426491,-0.0010865926925711,0.0011029993253169,-0.0012738118919559,0.0012694412474134,-0.0012706458552793,0.0012752232934724,-0.001273623429722,0.0012696369885255,-0.0012704569640157,0.0012754189542214,-0.0010520811602075,0.0010331395843151,-0.0010413991521168,0.0010263491371796,-0.0010522732945413,0.0010329455546576,-0.001041591768823,0.0010261556167932,-0.00047069185082838,0.00043615634245558,2.1341832961911e-07,-3.5963699478985e-07,-2.9461853160297e-06,2.8051668907854e-06,-0.0015494163082986,0.0015492748345435,-0.001488663934732,0.0014943477697719,-0.0015525413831342,0.0015510443431377,-0.0015518032364821,0.0015491796630974,-0.0015629555330691,0.0015610904057863,-0.0015619626521903,0.0015639305847758,-0.0015630082627103,0.0015607596704037,-0.0015625298832269,0.0015641141185681,-0.0014930880321321,0.0014871232004083,-0.001492742698322,0.0014980425932861,-0.0015518845705792,0.0015542187833168,-0.0015401778557544,0.0015413866292167,-0.0014911000908519,0.001485518502455,4.2576608038577e-06,1.7360077038069e-05,-0.001150114376137,0.001153806739061,4.7194145359246e-06,-1.0432025598972e-06,-0.0011657750348868,0.0011680526416893,-0.0012004336874249,0.0011632844514988,-0.0012022586942166,0.0011960279792927,-0.0011830991259288,0.0012909519487254,-0.0011601364093845,0.0011736993771454,-0.0011947910225374,0.0011689240137325,-0.001196619652039,0.0012016707894141,-0.0012598170827473,0.0012632135253451,-0.0012617372612199,0.0012612917568732,-0.0012600195286469,0.0012575094774459,-0.001261941190603,0.0012555890530187,-0.0012507734366693,0.0012761441540057,-0.0012409495637216,0.001247622888664,-0.0012390302301966,0.0012495455752205,-0.0012488507435021,0.001278063174647,-0.0011887448052475,0.0012853129781013,0.73413358311595,128566,2924,0.0043839533845091,0.0064318473863814,0.0047886567430414,37.543178419394,6.0345427355154e-05,6.0345427355154e-05,6.0345427355154e-05,3266216.1657609,0.015727945869683
36591759,0.93855122949324,0.015890494929623,0.004738227268745,0.0061456628594388,0.0050066048014397,-0.0010588550335242,0.0010549094407803,-1.1180230290892e-05,7.8803675954807e-07,-8.1934381204675e-07,-2.2801692113988e-07,-0.00045156365973999,0.00045380795419722,-0.0010937825178048,0.0010900494709497,-0.0010896561965412,0.0011072406884245,-0.00047120571720742,0.00043534103773103,-0.00045213814152079,0.00045323298466479,-0.0010943569672445,0.0010894671742695,-0.001090230832154,0.0011066588168687,-0.0012786929894114,0.0012742846517591,-0.0012755020882183,0.0012800893543304,-0.0012785015771549,0.0012744832104751,-0.0012753103462756,0.0012802878393585,-0.0010553505747024,0.0010362926266747,-0.0010445915942552,0.0010295231665064,-0.0010555455493207,0.0010360957778749,-0.0010447870255155,0.001029326822043,-0.00047063124347486,0.0004359163106957,2.1722042358405e-07,-3.6428252345311e-07,-2.9757803672877e-06,2.8339790273189e-06,-0.0015559928333436,0.0015558505676315,-0.0014946495693974,0.0015003926581208,-0.0015590274560885,0.001557518450902,-0.0015582966850879,0.0015556445460725,-0.0015696738513735,0.001567791288675,-0.0015686673673673,0.0015706567608598,-0.0015697314702233,0.0015674598512548,-0.0015692421846482,0.0015708422842763,-0.0014991123038969,0.0014930866640614,-0.0014988705148799,0.0015042240293008,-0.0015583679666993,0.0015607291048311,-0.0015466717479202,0.0015478908330896,-0.0014971234963407,0.0014914867234346,4.2906423058389e-06,1.7471252074458e-05,-0.0011543716088756,0.0011580853671327,4.7639060919316e-06,-1.0572607046049e-06,-0.0011699299978567,0.0011722085686738,-0.0012050537091489,0.0011676013370001,-0.001206882134433,0.0012005609171912,-0.0011873425793456,0.0012958772198886,-0.001164234000035,0.0011779126997182,-0.0011993537468135,0.0011732982250128,-0.0012011857870217,0.0012062610427363,-0.001264723958952,0.001268150442424,-0.0012666636571265,0.0012662091678531,-0.0012649285401614,0.0012624163452448,-0.0012668697109536,0.0012604764071191,-0.0012556000976863,0.0012810347983762,-0.0012457225084686,0.0012524398647883,-0.0012437836303109,0.0012543820456601,-0.0012536578968187,0.001282973340592,-0.0011930455980218,0.0012901808685013,0.69114506458088,128566,2924,0.0043988050724177,0.0064590425589931,0.004806361527514,37.204969952544,5.763975962035e-05,5.763975962035e-05,5.763975962035e-05,3264094.5321148,0.015788651662846
36791759,0.94261816914443,0.015951481269986,0.0047555883989912,0.0061705227294635,0.0050253701415311,-0.0010620742549031,0.0010581033817471,-1.1230777210542e-05,7.4763830634907e-07,-8.3862434848455e-07,-2.4114695554626e-07,-0.00045207466576607,0.00045419869804675,-0.0010969360552547,0.0010931901687088,-0.001092777772608,0.001110393561043,-0.00047181059568672,0.00043581959002305,-0.00045265520121362,0.00045361767027981,-0.0010975165208843,0.0010926018130203,-0.001093358442259,0.001109805587549,-0.0012830135606838,0.0012785716348495,-0.0012798026114155,0.0012843937283416,-0.0012828197848941,0.0012787722339619,-0.001279608783365,0.0012845942675375,-0.0010580955208594,0.001038928276004,-0.0010472729939683,0.0010322201679902,-0.0010582925455564,0.0010387293922588,-0.001047470461765,0.0010320217737866,-0.00047123010389222,0.00043640096699374,2.1986428917865e-07,-3.6776392040573e-07,-3.0030947280562e-06,2.8605119313291e-06,-0.0015617934816547,0.0015616504283712,-0.0014998220067648,0.0015056191171402,-0.0015647367197725,0.0015632149778803,-0.0015640051464423,0.0015613282531595,-0.0015756999014361,0.0015738006609275,-0.0015746798412753,0.0015766884094182,-0.0015757614585549,0.0015734691132958,-0.0015752635626924,0.00157687877523,-0.0015043184225481,0.0014982372139066,-0.0015041505123115,0.0015095539552553,-0.0015640708153658,0.0015664551110063,-0.001552399886608,0.0015536300447822,-0.0015023309548563,0.0014966426868642,4.316502922625e-06,1.7555236703549e-05,-0.001158190205679,0.0011619131941288,4.7994739002236e-06,-1.0756602600941e-06,-0.0011735383250852,0.0011758069501339,-0.0012091076989528,0.0011714220877387,-0.0012109390180768,0.0012045275133865,-0.0011909912320071,0.0013000120703071,-0.001167789455164,0.001181563986912,-0.0012033549205971,0.0011771718201575,-0.0012051898493054,0.0012102804729558,-0.0012690832214372,0.0012725339554755,-0.0012710409070399,0.0012705747074187,-0.0012692899849463,0.0012667736230682,-0.0012712491345459,0.0012648157028542,-0.0012598516673933,0.0012853001882054,-0.0012499294449785,0.0012566792145122,-0.0012479725751596,0.0012586393687458,-0.0012578914806198,0.0012872567185166,-0.0011967471369821,0.0012942628069635,0.67162364167178,128566,2924,0.0044121357852223,0.0064830351630064,0.004822221450495,36.866314015563,5.4930512124505e-05,5.4930512124505e-05,5.4930512124505e-05,3270980.5239597,0.015842685200006
36991759,0.94644612759156,0.016012320221624,0.0047728750753038,0.0061952433450141,0.0050442018013061,-0.0010660201371705,0.0010620275079265,-1.1278877195278e-05,7.1027032726743e-07,-8.5282291598674e-07,-2.5245268246748e-07,-0.00045369111937695,0.00045573611284569,-0.0011010429436514,0.0010973170860761,-0.0010968592207128,0.0011145258524762,-0.00047352056989892,0.0004374262974006,-0.00045427445548945,0.00045515229918966,-0.0011016262454407,0.001096725894175,-0.00109744272147,0.0011139350287304,-0.0012879524255938,0.0012834847747148,-0.0012847210403135,0.0012893220576245,-0.0012877578499628,0.0012836863460235,-0.0012845263537959,0.001289523567883,-0.0010617080953238,0.0010424263782988,-0.0010508186325692,0.0010357845338464,-0.0010619060626736,0.0010422265349447,-0.0010510170501547,0.0010355851772984,-0.00047293729262066,0.00043801050774782,2.2093005261166e-07,-3.6953579810853e-07,-3.0267892852605e-06,2.8835319090888e-06,-0.001568255748861,0.0015681120223581,-0.001505768239859,0.0015116113952817,-0.0015711217041473,0.0015695865391611,-0.0015703557001087,0.0015676597774296,-0.0015823414863602,0.0015804269592781,-0.0015813087797901,0.0015833331927291,-0.0015824043347018,0.0015800948037599,-0.0015819018924988,0.0015835310429597,-0.0015102901391702,0.0015041615448712,-0.0015101765265628,0.0015156241110035,-0.0015704456164915,0.0015728475980547,-0.0015587639189479,0.0015600061607603,-0.0015083086355416,0.0015025748685342,4.3405894303195e-06,1.7627846221008e-05,-0.0011628159185065,0.0011665457136501,4.8277605757523e-06,-1.0942349304939e-06,-0.0011783545661578,0.0011806239730102,-0.0012141805378547,0.0011762884772998,-0.0012160095733088,0.0012095250578008,-0.0011958368136197,0.0013052622888533,-0.0011725598338163,0.0011864269236602,-0.0012083818986806,0.0011820840665073,-0.0012102145577426,0.0012153238841849,-0.0012741178557279,0.0012775911276989,-0.0012760911538137,0.0012756162591298,-0.0012743273910465,0.0012718090987218,-0.0012763021625678,0.0012698355627096,-0.0012649486620073,0.0012903761159729,-0.0012549807931848,0.0012617655292626,-0.001253008330591,0.0012637413136695,-0.0012629728479576,0.0012923482644474,-0.0012016386312995,0.0012994671289574,0.71099417965718,128566,2924,0.0044284857365197,0.00650976791263,0.0048414225743172,36.972996234796,5.5783969878366e-05,5.5783969878366e-05,5.5783969878366e-05,3283580.2048757,0.015905965072694
37191759,0.95008802305402,0.016073770830446,0.0047902811606731,0.006220163422166,0.0050633262476073,-0.0010702425945796,0.0010662235328608,-1.1336116838509e-05,6.8015066024988e-07,-8.6410813535289e-07,-2.6167810083333e-07,-0.00045490252280382,0.00045690001307272,-0.0011056975509641,0.0011019935959176,-0.0011014853728936,0.0011192230424674,-0.00047485305116428,0.00043860570601152,-0.00045548783543119,0.00045631425017476,-0.0011062828410555,0.0011014003934139,-0.0011020708775189,0.0011186302123982,-0.0012932230700392,0.0012887295164544,-0.0012899717872071,0.0012945866532641,-0.0012930277993174,0.0012889317854819,-0.0012897763976661,0.0012947888575106,-0.0010658724449838,0.0010464801990699,-0.0010549185980492,0.0010398863775163,-0.0010660710672849,0.0010462796651757,-0.0010551177016956,0.0010396863488132,-0.00047426784550874,0.000439191899617,2.2164968678154e-07,-3.7080618479973e-07,-3.0484333269016e-06,2.904644905132e-06,-0.0015751300550002,0.0015749857978064,-0.001512270284223,0.0015181554642647,-0.0015779357315757,0.001576387755377,-0.0015771287543734,0.0015744160914578,-0.001589259621756,0.0015873309773323,-0.0015882163795947,0.0015902552114097,-0.0015893236333845,0.0015869986259748,-0.0015888170247125,0.001590459233549,-0.0015168201108066,0.001510648429305,-0.001516782297876,0.0015222705588064,-0.0015772533879589,0.0015796710387285,-0.001565521445856,0.0015667754514234,-0.0015148336744254,0.0015090581545573,4.3693834968372e-06,1.7713711310965e-05,-0.0011677718489321,0.0011715165039447,4.8574869241498e-06,-1.1074856734476e-06,-0.001183818310147,0.0011861007985658,-0.0012197900335157,0.001181654816013,-0.0012216189946379,0.0012150711578301,-0.0012013812090944,0.0013113587334486,-0.0011779815569106,0.0011919458351485,-0.0012139493525135,0.0011874924232459,-0.0012157819604421,0.0012209120356134,-0.0012794875736949,0.0012829849254992,-0.0012814751996416,0.0012809957166552,-0.0012797011027068,0.0012771824277451,-0.0012816902135165,0.0012751945619309,-0.0012705029432668,0.0012958863387702,-0.0012604869121321,0.0012673070141514,-0.001258500151768,0.0012692971459918,-0.0012685127912831,0.0012978727788592,-0.0012072250967153,0.0013055215364241,0.75399383978592,128566,2924,0.0044459876276495,0.0065381974884588,0.0048620093872463,37.2972260803,5.8377808642398e-05,5.8377808642398e-05,5.8377808642398e-05,3287325.0175587,0.015973553229033
37391759,0.95354849129843,0.016129623071654,0.0048061022141246,0.0062428760598965,0.0050806447976324,-0.0010740931029654,0.0010700421835343,-1.139744743996e-05,6.5671969142413e-07,-8.7466236791498e-07,-2.6971884078416e-07,-0.00045500741916501,0.00045701523159765,-0.0011098599074401,0.0011061513910781,-0.0011056152942963,0.0011234148508105,-0.00047510145478161,0.00043865593905215,-0.00045559516070999,0.00045642698954801,-0.0011104476387226,0.0011055557312914,-0.001106203243296,0.0011228195685407,-0.0012982335182457,0.0012937146350675,-0.0012949618788809,0.0012995918371054,-0.0012980373925499,0.0012939177496358,-0.0012947656350127,0.0012997948824187,-0.0010697039862777,0.001050207242864,-0.001058684836567,0.0010436404942919,-0.0010699034235688,0.0010500058647212,-0.0010588847789731,0.0010434396192156,-0.00047451384183358,0.00043924457831829,2.226458654095e-07,-3.7224373362096e-07,-3.06930259799e-06,2.9250834559039e-06,-0.0015816463034197,0.0015815016101659,-0.0015184039747759,0.001524330002301,-0.0015844129419288,0.0015828531753877,-0.0015835909625311,0.0015808617067231,-0.0015957664369937,0.0015938244034743,-0.0015947144714903,0.0015967674771014,-0.0015958334797839,0.001593493432951,-0.0015953193681118,0.0015969740958847,-0.0015229801877163,0.0015167667940331,-0.0015230334819141,0.0015285609380105,-0.0015837296566513,0.0015861630250327,-0.0015719508489466,0.0015732157795256,-0.0015209889737098,0.0015151733694186,4.3993022370883e-06,1.7811668188696e-05,-0.001172301979314,0.0011760676293903,4.8918742704974e-06,-1.1145462643172e-06,-0.0011886033364058,0.0011909031940288,-0.0012248298421776,0.0011864273057159,-0.0012266529001048,0.0012200493773033,-0.0012062857101057,0.001316919893307,-0.0011827260446874,0.0011967888189915,-0.0012189486104629,0.0011923054439294,-0.001220775337776,0.0012259308085968,-0.0012845465121075,0.0012880688198865,-0.0012865479589699,0.0012860657820091,-0.0012847641772549,0.0012822449606928,-0.0012867671183534,0.0012802432708953,-0.0012756445369162,0.0013010295237613,-0.0012655769888821,0.0012724378393972,-0.0012635764352019,0.0012744417946932,-0.0012736405551118,0.0013030297260073,-0.0012121701843063,0.001311042117619,0.72209467248859,128566,2924,0.0044619464364269,0.0065651378318449,0.0048808423840925,37.627177839829,6.1017422718635e-05,6.1017422718635e-05,6.1017422718635e-05,3282459.6282948,0.016036286303555
37591759,0.95683132243876,0.016180463455598,0.0048205237133839,0.0062635845746483,0.0050963551675658,-0.0010777354469918,0.0010736567818848,-1.1448971981814e-05,6.2661280404905e-07,-8.8780697700599e-07,-2.8018532199572e-07,-0.000455660469228,0.00045763620814747,-0.0011136494223614,0.0011099298391233,-0.0011093778250277,0.0011272210137262,-0.00047585666850099,0.00043924035752877,-0.00045625082142997,0.00045704533961785,-0.0011142397717329,0.0011093315521492,-0.001109968379412,0.001126623092868,-0.0013029111706736,0.0012983680699297,-0.0012996218632551,0.0013042645157073,-0.0013027141370733,0.0012985720766587,-0.0012994247110229,0.0013044684605004,-0.0010731653564916,0.0010535756644326,-0.0010620885475626,0.0010470664295537,-0.0010733656768659,0.0010533733994608,-0.0010622893774992,0.0010468646640756,-0.0004752664751818,0.00043983163388998,2.2370268479239e-07,-3.7381227320324e-07,-3.0897008154791e-06,2.9449884652892e-06,-0.0015876733601599,0.0015875281697849,-0.001523994536553,0.0015299604359191,-0.001590386602824,0.0015888155127946,-0.0015895578883887,0.0015868121267957,-0.0016018744962911,0.0015999194247203,-0.0016008132956767,0.0016028801102209,-0.0016019451130165,0.0015995902707103,-0.001601422879518,0.0016030896559592,-0.001528596372173,0.001522342120256,-0.0015287333637903,0.0015342989250249,-0.0015897002861123,0.0015921491473826,-0.0015779034073683,0.001579178665037,-0.0015266023595347,0.0015207476515437,4.4225191576903e-06,1.788993722783e-05,-0.0011765572045235,0.0011803350697793,4.9216511788661e-06,-1.1252031817453e-06,-0.0011929113842188,0.0011952068238748,-0.0012294495985425,0.0011908246088782,-0.0012312667441134,0.0012246023148967,-0.0012106764797045,0.0013218053134485,-0.0011869944962272,0.0012011320803743,-0.0012235287923245,0.0011967423221562,-0.0012253496188845,0.0012305233267641,-0.0012892882817147,0.0012928308869412,-0.0012913032023784,0.0012908143731786,-0.0012895089104184,0.0012869882103971,-0.0012915253295957,0.0012849730450613,-0.0012803909948723,0.0013057858493051,-0.0012702776079411,0.0012771708290245,-0.0012682635882439,0.001279188258437,-0.001278373530983,0.0013077995051614,-0.0012166005745079,0.0013158879070406,0.69345403806758,128566,2924,0.004477038048111,0.0065900594464418,0.0048985161267131,37.957358107418,6.3658864859344e-05,6.3658864859344e-05,6.3658864859344e-05,3285694.229319,0.016094910687404
37791759,0.95986838353422,0.016225832301166,0.0048334006385342,0.0062820946835777,0.0051103369790545,-0.0010803178304489,0.0010762150431878,-1.1493404213653e-05,5.91410293615e-07,-9.0301253691484e-07,-2.9361772345015e-07,-0.00045611558931912,0.00045798670343829,-0.0011162118723407,0.0011124856642031,-0.0011119187158204,0.0011297858614519,-0.00047638774161501,0.00043963728737754,-0.00045670766107278,0.00045739409716306,-0.0011168039581106,0.0011118856323805,-0.0011125109916291,0.0011291861861541,-0.001306352748489,0.0013017871757022,-0.0013030478135923,0.0013076946161191,-0.0013061550848244,0.0013019917745316,-0.0013028500436917,0.0013078991625793,-0.0010754236558497,0.0010557467993663,-0.0010642967097174,0.0010493133327023,-0.0010756245651833,0.0010555439439096,-0.0010644981270802,0.0010491109791117,-0.00047579583719995,0.00044023031989536,2.243156053192e-07,-3.749398835159e-07,-3.1077035835124e-06,2.9624961099027e-06,-0.0015922606641412,0.0015921149755545,-0.001528111535091,0.0015341123144573,-0.0015949113574096,0.0015933296560041,-0.0015940742479676,0.0015913144472522,-0.0016066222495197,0.0016046554356413,-0.0016055525141391,0.0016076312454509,-0.0016066961906884,0.001604328444343,-0.0016061677710217,0.0016078452968661,-0.0015327329006494,0.0015264427861058,-0.0015329408649082,0.0015385401276294,-0.0015942201924495,0.0015966820806475,-0.0015824351852234,0.0015837200436234,-0.0015307392641147,0.0015248498530834,4.4421237123405e-06,1.7948475757652e-05,-0.001179637860764,0.0011834211634732,4.944499913769e-06,-1.1379938398275e-06,-0.0011958751259584,0.0011981657484274,-0.0012327382429689,0.0011939435273861,-0.0012345499760177,0.0012278255171767,-0.0012136962858302,0.0013251591367907,-0.0011899233465105,0.0012041259281288,-0.0012267825571009,0.0011998961221843,-0.0012285979847697,0.0012337814124488,-0.0012927799063718,0.0012963388552001,-0.0012948067058429,0.0012943104644182,-0.0012930035843317,0.0012904787954945,-0.0012950318845658,0.0012884517510351,-0.0012838242266624,0.0013092107002749,-0.0012736685146523,0.0012805882468221,-0.0012716426227171,0.0012826175475565,-0.0012817948773635,0.0013112362221247,-0.0012196553077298,0.0013192068053329,0.66961883867146,128566,2924,0.0044877240294532,0.006609030590367,0.0049113054506565,37.836130171331,6.2689041370651e-05,6.2689041370651e-05,6.2689041370651e-05,3291051.2718429,0.016138048808259
37991759,0.96266093162835,0.016268830425009,0.0048455910465631,0.00629960636654,0.0051236330119054,-0.0010825451080593,0.0010784246349047,-1.1531263042196e-05,5.5931308503684e-07,-9.1406178705659e-07,-3.0194668364201e-07,-0.00045688779609489,0.00045869045856436,-0.0011184682074162,0.0011147590723276,-0.0011141562609992,0.0011320632894276,-0.00047722592584961,0.00044038060547659,-0.0004574824809893,0.00045809520758556,-0.001119062922854,0.0011141563853566,-0.0011147511624112,0.0011314609580113,-0.0013092743429958,0.0013046868850133,-0.0013059552797917,0.0013105909188952,-0.0013090757558211,0.0013048924008665,-0.0013057565925088,0.0013107963915685,-0.0010773323635417,0.0010575762398601,-0.001066162184943,0.0010512258937827,-0.0010775341796768,0.001057372474693,-0.0010663645100278,0.001051022651878,-0.00047663141131774,0.00044097629179795,2.2534477707913e-07,-3.7654780152061e-07,-3.1238719872113e-06,2.9781092716813e-06,-0.0015962466878583,0.0015961004394265,-0.0015316855234077,0.0015377177743639,-0.0015988419916869,0.0015972517172215,-0.0015979782499387,0.0015952047093755,-0.0016107829358348,0.0016088058762258,-0.0016097052069675,0.001611794870861,-0.0016108584703841,0.0016084786841686,-0.0016103265795133,0.0016120132399824,-0.0015363207881837,0.0015299980985714,-0.0015365726647275,0.0015422016146298,-0.0015981457044203,0.0016006201872831,-0.0015863589600412,0.0015876512486621,-0.0015343307186307,0.0015284105038343,4.4602368019989e-06,1.7992571156076e-05,-0.0011823325581256,0.0011861188866849,4.9620624566197e-06,-1.1523053194074e-06,-0.001198604716528,0.0012008961835068,-0.0012356858470585,0.0011967609892532,-0.0012374943808372,0.0012307136667328,-0.0012164585696082,0.0013281279652911,-0.0011926217512318,0.0012068875993136,-0.0012296989637361,0.001202744767316,-0.0012315112171718,0.0012367007646448,-0.0012957693928457,0.0012993435149655,-0.0012978068130619,0.0012973044976298,-0.0012959965265777,0.0012934695317815,-0.0012980354563397,0.001291431865702,-0.0012868161737564,0.0013121878279136,-0.0012766246147949,0.0012835675971832,-0.0012745881065538,0.0012856075191354,-0.0012847761933174,0.0013142239380843,-0.0012224488286585,0.0013221444163313,0.68978257778197,128566,2924,0.0044969398619109,0.006625518713858,0.0049224894209252,37.593933814433,6.0751470515464e-05,6.0751470515464e-05,6.0751470515464e-05,3298971.9337663,0.016175537493001
38191759,0.96522993034109,0.016308745669448,0.0048568941448881,0.0063158592322273,0.005135992292333,-0.0010845167447184,0.0010803812749999,-1.1570950057225e-05,5.3745006779653e-07,-9.2040741289722e-07,-3.0272448741907e-07,-0.00045712176095824,0.00045893568641881,-0.0011205155661825,0.0011168374151317,-0.0011161839747108,0.0011341459630427,-0.00047754265152565,0.00044059601148543,-0.00045772183873675,0.0004583350262661,-0.0011211156850438,0.0011162292977295,-0.0011167842830965,0.0011335381912547,-0.0013119492161227,0.0013073294781321,-0.0013086154947103,0.0013132305336493,-0.0013117487501803,0.0013075368855329,-0.0013084149336817,0.0013134378790725,-0.0010790816383472,0.001059249657515,-0.0010678659989793,0.0010529570124115,-0.0010792852997043,0.0010590440462269,-0.0010680701814173,0.0010527519193191,-0.00047694277411623,0.0004411970933051,2.2775506136227e-07,-3.7959115104737e-07,-3.138740436101e-06,2.9923808353367e-06,-0.0015999293333776,0.0015997824838868,-0.00153501693588,0.0015410789679889,-0.0016024914149778,0.0016008961757218,-0.0016015931070751,0.0015988039014041,-0.0016145782425294,0.0016125927203247,-0.0016134938012633,0.0016155944286397,-0.0016146550623531,0.0016122631188528,-0.0016141190145621,0.0016158129448705,-0.0015396678997532,0.0015333142369191,-0.0015399684418339,0.0015456235122851,-0.0016017910093595,0.0016042799242068,-0.0015899889238464,0.001591284960239,-0.0015376774692953,0.0015317299400251,4.4804062989108e-06,1.804203205914e-05,-0.0011847544310451,0.0011885499035714,4.9810129768896e-06,-1.1626004855209e-06,-0.0012011306989372,0.0012034313683534,-0.0012383788121383,0.0011993048676461,-0.0012401828517379,0.0012333564768321,-0.0012190325669127,0.001330953224254,-0.0011951191261627,0.0012094514659435,-0.0012323633055619,0.0012053172434849,-0.001234171095033,0.0012393722139139,-0.001298487258081,0.0013020778844286,-0.0013005344233268,0.00130002910961,-0.0012987187173014,0.0012961910500871,-0.0013007674034939,0.0012941436393653,-0.0012895686408987,0.0013149399039958,-0.0012793365230429,0.0012863079352267,-0.0012772902816742,0.0012883576195104,-0.0012875188941459,0.0013169857335207,-0.0012250514827641,0.0013249410737823,0.69607506470323,128566,2924,0.0045051059362936,0.0066407480544445,0.0049325548258488,37.348478791139,5.8787830329111e-05,5.8787830329111e-05,5.8787830329111e-05,3300829.5651835,0.01620954600383
38391759,0.96760669725028,0.016347461149538,0.0048678409930027,0.0063315893770604,0.0051480307794753,-0.0010865383399012,0.0010823882950872,-1.1611052934697e-05,5.1723287080301e-07,-9.2697077056616e-07,-2.9978096326438e-07,-0.00045740209947688,0.00045921922671605,-0.0011227317794901,0.0011190841848766,-0.0011183813399489,0.0011364054328101,-0.00047791215531266,0.0004408510174938,-0.00045801143066888,0.00045860930274536,-0.0011233411829521,0.0011184667663773,-0.0011189909319809,0.0011357883508787,-0.0013146197848745,0.0013099615518312,-0.0013112685043738,0.0013158773115473,-0.0013144163027085,0.0013101721509133,-0.0013110649086242,0.0013160878379413,-0.0010810012959248,0.0010610997916402,-0.0010697410429567,0.001054848512386,-0.0010812081043201,0.0010608910166374,-0.0010699483840849,0.0010546402599085,-0.00047730303947207,0.00044146137846067,2.3206099814154e-07,-3.8467390134319e-07,-3.1525681462876e-06,3.005482561043e-06,-0.0016035984470627,0.0016034508682381,-0.0015384072701562,0.0015444980980716,-0.0016061293380306,0.0016045336329466,-0.0016052001654361,0.0016023920346278,-0.0016183160386442,0.0016163239668417,-0.0016172254626871,0.0016193374888407,-0.001618394829549,0.0016159900341231,-0.0016178547695547,0.0016195537954831,-0.0015430752269175,0.0015366913157862,-0.0015434234093846,0.0015491009996289,-0.001605424820149,0.0016079311921116,-0.0015935915990538,0.0015948866383346,-0.0015410808516298,0.0015351093449689,4.5000206843734e-06,1.8090736247122e-05,-0.0011872216875268,0.00119102773779,4.9998180444495e-06,-1.1708239504369e-06,-0.0012038430031179,0.0012061537050582,-0.0012412137264335,0.0012019977715437,-0.0012430140060891,0.0012361460362637,-0.0012218086200949,0.0013340146260733,-0.0011978049987143,0.0012122003156087,-0.0012351717644761,0.0012080365824529,-0.0012369758242041,0.0012421882419336,-0.0013012159571309,0.0013048225581752,-0.0013032721222853,0.0013027647645162,-0.0013014529750192,0.0012989231263651,-0.0013035106755942,0.0012968667104598,-0.0012923847095649,0.0013177556472062,-0.001282112506629,0.0012891115360574,-0.0012800572807577,0.0012911702428535,-0.0012903259431767,0.0013198104601439,-0.0012278540287555,0.0013279760331408,0.72889799539825,128566,2924,0.0045134822653433,0.0066559196352771,0.0049428110023526,37.19771825238,5.7581746019037e-05,5.7581746019037e-05,5.7581746019037e-05,3301102.3115941,0.016243904303186
38591759,0.96982342913779,0.016384182848024,0.0048782160712147,0.0063465030129245,0.0051594637638852,-0.001088626850848,0.0010844608023929,-1.1654712931752e-05,5.0405817136525e-07,-9.3258487485016e-07,-2.9252579066385e-07,-0.00045716563784607,0.00045903495779445,-0.0011250877992812,0.0011214662041955,-0.0011207158631715,0.0011388208219718,-0.00047779040518156,0.00044058910580071,-0.00045778755164398,0.00045841244899156,-0.0011257097912514,0.0011208361566522,-0.0011213380410187,0.0011381911107959,-0.0013174214939429,0.0013127304687679,-0.0013140550635167,0.0013186626178788,-0.0013172137202509,0.0013129453629631,-0.0013138471788424,0.001318877438282,-0.0010831133931389,0.0010631410080257,-0.0010718050508332,0.0010569161982827,-0.0010833244629376,0.0010629279456395,-0.0010720166644666,0.0010567036716379,-0.00047716871404775,0.00044121207970779,2.3802484871741e-07,-3.914816082928e-07,-3.1654021605603e-06,3.0175385538221e-06,-0.0016073924970157,0.0016072441346225,-0.0015419792029163,0.001548097905104,-0.0016099030445178,0.0016083108192396,-0.0016089523853404,0.00160612261508,-0.0016220956411147,0.0016200987582554,-0.0016210000343956,0.0016231238444056,-0.0016221776752243,0.0016197595407905,-0.0016216323213004,0.0016233345998458,-0.0015466659053293,0.0015402525712531,-0.0015470668824504,0.0015527638198257,-0.0016091971630657,0.0016117235800402,-0.0015973096890316,0.0015985996576221,-0.0015446642921763,0.0015386718758561,4.522207914105e-06,1.8150230102709e-05,-0.0011897561234188,0.0011935792947423,5.0222567648887e-06,-1.1733872854761e-06,-0.0012066501503993,0.0012089790475321,-0.0012441542153538,0.0012047773931065,-0.0012459474462186,0.0012390486850245,-0.0012247069205606,0.0013373167176696,-0.0012005876965179,0.0012150501753667,-0.001238087787934,0.0012108406620082,-0.001239884820349,0.0012451153668842,-0.0013040547028392,0.0013076788674947,-0.0013061191955512,0.0013056127315876,-0.0013042987630746,0.0013017657651583,-0.0013063648022466,0.001299701014837,-0.0012953405949738,0.0013207171648393,-0.0012850220804222,0.0012920560812604,-0.0012829585462637,0.0012941231333466,-0.0012932734888786,0.0013227802962963,-0.0012307768364409,0.0013312536540674,0.74096370942057,128566,2924,0.0045221439802806,0.0066716017838912,0.0049533589371686,37.193772805233,5.7550182441861e-05,5.7550182441861e-05,5.7550182441861e-05,3295012.8213561,0.016279371372774
38791759,0.97189096246753,0.016418532454756,0.0048879242992906,0.0063604511499292,0.0051701570055357,-0.0010905618400905,0.0010863786499955,-1.1698480505961e-05,4.8974639797292e-07,-9.395846519294e-07,-2.861929256567e-07,-0.00045667680318376,0.00045858035001221,-0.0011272954602101,0.001123694195108,-0.0011229015835529,0.0011410897639633,-0.00047742195020508,0.00044007004851136,-0.00045731177988802,0.00045794477894022,-0.0011279305023693,0.0011230510551944,-0.0011235368067152,0.0011404469557377,-0.0013200620918841,0.0013153448933089,-0.0013166811142857,0.00132129047722,-0.0013198498931741,0.0013155642335959,-0.0013164688053193,0.0013215097430523,-0.0010850948689562,0.0010650531467375,-0.0010737413388799,0.0010588518066075,-0.0010853103578804,0.0010648356470248,-0.0010739573802719,0.0010586348511524,-0.00047678720964483,0.00044070610912367,2.4422995387858e-07,-3.9852486832877e-07,-3.1773866289878e-06,3.0287538880686e-06,-0.0016109736571868,0.0016108245183798,-0.0015453661674562,0.0015515112552438,-0.0016134642091662,0.0016118765046026,-0.0016125007096217,0.0016096493968933,-0.0016256368644009,0.0016236358967906,-0.0016245367837839,0.0016266719670315,-0.0016257230724566,0.0016232920232134,-0.0016251716367164,0.0016268764569512,-0.0015500720518007,0.0015436307989624,-0.0015505269208546,0.0015562414047745,-0.0016127586891062,0.0016153050558315,-0.0016008081962292,0.00160209206212,-0.001548061644606,0.001542050138893,4.5434308285871e-06,1.8209117122858e-05,-0.0011921040868865,0.0011959433396888,5.0447863471943e-06,-1.1741509529689e-06,-0.0012092319110013,0.0012115758399357,-0.0012468940650478,0.0012073622069433,-0.0012486776037895,0.0012417528437993,-0.0012273830019421,0.0013404145537696,-0.001203146664524,0.00121766982413,-0.0012408048439388,0.0012134482697356,-0.0012425921965815,0.0012478423335245,-0.0013067175540228,0.0013103586042704,-0.0013087898055365,0.0013082846998904,-0.0013069685528562,0.0013044326689406,-0.0013090423573671,0.0013023601550014,-0.0012981171200952,0.0013234988271696,-0.0012877526877502,0.0012948189616612,-0.0012856814054987,0.0012968937834795,-0.0012960422472702,0.0013255697077302,-0.0012334757511587,0.001334328676337,0.74287813501234,128566,2924,0.0045301688229159,0.0066864012260182,0.0049631311502696,37.193615400307,5.7548923202453e-05,5.7548923202453e-05,5.7548923202453e-05,3286763.595148,0.016312507300212
38880000,0.97277497313068,0.016433240893554,0.0048920843406393,0.0063664217304817,0.0051747348224326,-0.0010913714942424,0.0010871783211755,-1.1718136050764e-05,4.7537253401496e-07,-9.4415761209833e-07,-2.8494504233185e-07,-0.00045638019931221,0.00045823101051213,-0.001128233946254,0.0011246396046208,-0.0011238311027155,0.0011420604967234,-0.00047717044832953,0.00043974633234428,-0.0004570208514967,0.00045758974943245,-0.0011288746829915,0.0011239907519069,-0.0011244720207256,0.001141411971716,-0.0013211908775455,0.0013164623330353,-0.001317804189041,0.0013224143769676,-0.001320976747931,0.0013166836151772,-0.0013175899502222,0.0013226355854968,-0.0010859232658175,0.0010658517121243,-0.0010745519588924,0.0010596606045396,-0.0010861406854266,0.001065632275526,-0.0010747699322428,0.0010594417156652,-0.00047653001394571,0.00044038809760623,2.4693245318317e-07,-4.0160061407644e-07,-3.1820341380231e-06,3.0330593091636e-06,-0.0016125176775376,0.0016123681931598,-0.0015468261702495,0.0015529816230362,-0.0016150015207918,0.0016134161684991,-0.0016140341282353,0.0016111738030151,-0.001627156464667,0.0016251541022407,-0.0016260547680949,0.0016281945151032,-0.001627245164035,0.0016248088642439,-0.0016266902959467,0.0016283958229815,-0.0015515397615006,0.0015450874644467,-0.0015520270314777,0.0015577480226565,-0.0016142966353981,0.0016168513079366,-0.001602312873459,0.0016035936795258,-0.0015495255158545,0.0015435068182941,4.5512419041625e-06,1.8234181103979e-05,-0.0011930909881413,0.0011969342421754,5.0541472752122e-06,-1.1737764409293e-06,-0.0012103101191695,0.0012126548436984,-0.0012480639060715,0.0012084704514602,-0.0012498421027184,0.0012429038289374,-0.0012285064084807,0.0013417297531048,-0.0012042160777594,0.0012187576595817,-0.0012419658871375,0.0012145653109782,-0.0012437479055521,0.0012490021300596,-0.0013078532156957,0.0013115004134675,-0.0013099284581828,0.0013094235125644,-0.0013081073403575,0.0013055699140229,-0.0013101841396467,0.0013034944070589,-0.0012993122305726,0.0013246891855501,-0.0012889277912333,0.0012960047784005,-0.0012868535229638,0.0012980825981972,-0.001297234360817,0.0013267630518461,-0.0012346079708941,0.0013356350715236,0.7436937110413,128566,2924,0.0045335223143509,0.0066927811053155,0.0049672331173153,37.19360907269,5.7548872581521e-05,5.7548872581521e-05,5.7548872581521e-05,3282467.4628262,0.016326572195212
