time,ASR_ext,ASR_strain,ASR_strain_xx,ASR_strain_yy,ASR_strain_zz,disp_x_101,disp_x_102,disp_x_103,disp_x_104,disp_x_105,disp_x_106,disp_x_p10_neg,disp_x_p10_pos,disp_x_p11_neg,disp_x_p11_pos,disp_x_p12_neg,disp_x_p12_pos,disp_x_p13_neg,disp_x_p13_pos,disp_x_p14_neg,disp_x_p14_pos,disp_x_p15_neg,disp_x_p15_pos,disp_x_p16_neg,disp_x_p16_pos,disp_x_p1_neg,disp_x_p1_pos,disp_x_p2_neg,disp_x_p2_pos,disp_x_p3_neg,disp_x_p3_pos,disp_x_p4_neg,disp_x_p4_pos,disp_x_p5_neg,disp_x_p5_pos,disp_x_p6_neg,disp_x_p6_pos,disp_x_p7_neg,disp_x_p7_pos,disp_x_p8_neg,disp_x_p8_pos,disp_x_p9_neg,disp_x_p9_pos,disp_y_101,disp_y_102,disp_y_103,disp_y_104,disp_y_105,disp_y_106,disp_y_p10_neg,disp_y_p10_pos,disp_y_p11_neg,disp_y_p11_pos,disp_y_p12_neg,disp_y_p12_pos,disp_y_p1_neg,disp_y_p1_pos,disp_y_p2_neg,disp_y_p2_pos,disp_y_p3_neg,disp_y_p3_pos,disp_y_p4_neg,disp_y_p4_pos,disp_y_p5_neg,disp_y_p5_pos,disp_y_p6_neg,disp_y_p6_pos,disp_y_p7_neg,disp_y_p7_pos,disp_y_p8_neg,disp_y_p8_pos,disp_y_p9_neg,disp_y_p9_pos,disp_z_101,disp_z_102,disp_z_103,disp_z_104,disp_z_105,disp_z_106,disp_z_p10_neg,disp_z_p10_pos,disp_z_p11_neg,disp_z_p11_pos,disp_z_p12_neg,disp_z_p12_pos,disp_z_p13_neg,disp_z_p13_pos,disp_z_p14_neg,disp_z_p14_pos,disp_z_p15_neg,disp_z_p15_pos,disp_z_p16_neg,disp_z_p16_pos,disp_z_p1_neg,disp_z_p1_pos,disp_z_p2_neg,disp_z_p2_pos,disp_z_p3_neg,disp_z_p3_pos,disp_z_p4_neg,disp_z_p4_pos,disp_z_p5_neg,disp_z_p5_pos,disp_z_p6_neg,disp_z_p6_pos,disp_z_p7_neg,disp_z_p7_pos,disp_z_p8_neg,disp_z_p8_pos,disp_z_p9_neg,disp_z_p9_pos,humidity,ndof,nelem,strain_xx,strain_yy,strain_zz,temp,thermal_strain_xx,thermal_strain_yy,thermal_strain_zz,vonmises,vstrain
14391759,0,0,0,0,0,0,0,0,0,0,0,0,0,0,0,0,0,0,0,0,0,0,0,0,0,0,0,0,0,0,0,0,0,0,0,0,0,0,0,0,0,0,0,0,0,0,0,0,0,0,0,0,0,0,0,0,0,0,0,0,0,0,0,0,0,0,0,0,0,0,0,0,0,0,0,0,0,0,0,0,0,0,0,0,0,0,0,0,0,0,0,0,0,0,0,0,0,0,0,0,0,0,0,0,0,0,0,0,0,0,0,0,0,0,0,0,0,0,0,0,0,0,0
14591759,0.019304940907257,0.00033943654475809,0.00011314551491936,0.00011314551491936,0.00011314551491936,-2.8350739120333e-05,2.8338311019059e-05,-2.3641610488334e-08,-2.159022134652e-08,-2.2073315127536e-09,-3.235946220395e-09,-2.4497679314896e-05,2.4401935311739e-05,-2.7566207826059e-05,2.7559036710326e-05,-2.7563783968013e-05,2.7606421166515e-05,-2.4506574156247e-05,2.4421324467801e-05,-2.4496510978326e-05,2.4402922569159e-05,-2.7565237353177e-05,2.756013726847e-05,-2.7562710588811e-05,2.7607419494063e-05,-2.9751517082434e-05,2.9743535491646e-05,-2.9748731041289e-05,2.9757913924557e-05,-2.9751815019799e-05,2.9743175405729e-05,-2.9749076002861e-05,2.9757600033406e-05,-2.7521067467097e-05,2.7478636312881e-05,-2.751199578932e-05,2.7453380533975e-05,-2.7520769073957e-05,2.7479031490794e-05,-2.7511604776128e-05,2.7453683298467e-05,-2.4507547335024e-05,2.4420144593068e-05,-3.5901234514402e-10,7.3170213840175e-10,-1.5095195846449e-08,1.5450673983278e-08,-3.0329422345677e-05,3.0329780183316e-05,-2.9237262106585e-05,2.926721181896e-05,-2.9533685001449e-05,2.9522830094098e-05,-2.9528042840069e-05,2.9519356226425e-05,-3.0806921107829e-05,3.079687782133e-05,-3.0799043928305e-05,3.0809121140193e-05,-3.0806636093741e-05,3.0797266208314e-05,-3.0801252246155e-05,3.081200243679e-05,-2.9266370571667e-05,2.9237127457419e-05,-2.9245958328473e-05,2.9276621870221e-05,-2.952436035654e-05,2.9533784621232e-05,-2.9493581132386e-05,2.9505173575042e-05,-2.9259657547493e-05,2.9229700656468e-05,-1.5598335164252e-09,3.5478077590319e-08,-2.9278605588704e-05,2.9277662587941e-05,1.4200515563678e-08,-1.6079901015921e-08,-2.7879700902483e-05,2.7844899722288e-05,-2.8447275627109e-05,2.8346652297716e-05,-2.8456821636113e-05,2.8412252403468e-05,-2.7894270538891e-05,2.8131544334872e-05,-2.7849753778893e-05,2.787488131993e-05,-2.8417476813635e-05,2.8376425964669e-05,-2.8427041788738e-05,2.8442046405401e-05,-3.0084922807659e-05,3.0086646468583e-05,-3.0094977389562e-05,3.0076586446468e-05,-3.0081818895587e-05,3.0079189922215e-05,-3.0091881262912e-05,3.0069137914773e-05,-2.8700522589786e-05,2.8757143577567e-05,-2.8684323795254e-05,2.86715252489e-05,-2.8674203657897e-05,2.8681662177447e-05,-2.869038446778e-05,2.8767261009091e-05,-2.7924260030242e-05,2.8101604342075e-05,0.70642003184943,128566,2924,0.00011809517377965,0.00012636524142118,0.00012198468570804,31.367280589156,1.0938244713249e-05,1.0938244713249e-05,1.0938244713249e-05,622935.0617878,0.00036651263370952
14791759,0.038383326945662,0.00066449939735783,0.00021966733199417,0.00022354128231018,0.00022129078305348,-5.2064848654134e-05,5.2034529097431e-05,-5.7655195623848e-08,-4.4282418648437e-08,-1.5215655811571e-09,-1.2959639193617e-08,-4.3563478232929e-05,4.3346883065243e-05,-5.0169664816151e-05,5.0138121584494e-05,-5.0160310228834e-05,5.0245073619039e-05,-4.3585818982492e-05,4.340045893303e-05,-4.3552040242861e-05,4.3358525073428e-05,-5.0158434652423e-05,5.0149623816445e-05,-5.0149124105939e-05,5.0256564243093e-05,-5.5886111475445e-05,5.5864895051896e-05,-5.5876777578981e-05,5.5900370458411e-05,-5.5889746139341e-05,5.5861099493351e-05,-5.5880393655098e-05,5.5896574363218e-05,-4.9956241401663e-05,4.9846817742449e-05,-4.9926127490846e-05,4.9794314118808e-05,-4.995241820582e-05,4.9850680891835e-05,-4.992234953445e-05,4.9798167870422e-05,-4.3597370662164e-05,4.338875582473e-05,-3.7087580322977e-09,7.8836257256079e-09,-3.6340870853473e-09,7.6243301144192e-09,-5.6684267323173e-05,5.6688279847566e-05,-5.4045820971995e-05,5.4056937309629e-05,-5.4599462000722e-05,5.4588381815411e-05,-5.457593490427e-05,5.4587749756301e-05,-5.8647390790935e-05,5.8643862497786e-05,-5.8647984147101e-05,5.8652017513126e-05,-5.8642901887356e-05,5.8646795581431e-05,-5.8647114559745e-05,5.8658588119495e-05,-5.4051996699931e-05,5.4048792664793e-05,-5.404904613067e-05,5.4067866826587e-05,-5.4597772478875e-05,5.4594197377292e-05,-5.4518387580036e-05,5.4537762736461e-05,-5.4040868902131e-05,5.4030014610913e-05,7.6392424908416e-09,8.8157686890654e-08,-5.413293111478e-05,5.4141226573562e-05,1.1176978630916e-08,-9.0080690074693e-11,-5.032989620153e-05,5.033062417557e-05,-5.2167170243049e-05,5.2003224450023e-05,-5.2188949386495e-05,5.2160451909817e-05,-5.0412917908071e-05,5.0882999135579e-05,-5.0318943879859e-05,5.0341653209101e-05,-5.2156145145133e-05,5.201412248738e-05,-5.2177962524713e-05,5.2171442420853e-05,-5.6755268440062e-05,5.6755469477368e-05,-5.6759032311092e-05,5.6751696150014e-05,-5.6748062256762e-05,5.6729176572836e-05,-5.6751843257953e-05,5.6725438624713e-05,-5.2558670703663e-05,5.2722324991758e-05,-5.2521025242008e-05,5.2533148796522e-05,-5.2517272713212e-05,5.2536932148115e-05,-5.2554891210116e-05,5.2726026491921e-05,-5.0423916081608e-05,5.087219097801e-05,0.70581018696891,128566,2924,0.00021684993573967,0.00023616427230978,0.0002255451718914,31.08757734642,8.7006187713633e-06,8.7006187713633e-06,8.7006187713633e-06,1239227.4976786,0.00067879196748527
14991759,0.05624467439946,0.0009595775345415,0.00031514832655931,0.00032523284391697,0.00031919636406522,-7.2199514267125e-05,7.2141532239398e-05,-1.1648274910212e-07,-8.2418757053379e-08,-1.3609917605203e-08,-2.3660342979351e-08,-5.8211361723055e-05,5.7809167802859e-05,-6.8544852579283e-05,6.8486779436054e-05,-6.8521470963088e-05,6.8674139437106e-05,-5.8279782347066e-05,5.7915716598864e-05,-5.8201361970379e-05,5.7819450152582e-05,-6.8534890962578e-05,6.8496881692712e-05,-6.8511619602438e-05,6.8684275751049e-05,-7.8969239711825e-05,7.89226534107e-05,-7.8947746009047e-05,7.8998351976254e-05,-7.8972361418185e-05,7.8919364248798e-05,-7.8950811695053e-05,7.8995033668044e-05,-6.8773170710373e-05,6.8551126595034e-05,-6.8706015324997e-05,6.8438767393203e-05,-6.8769754911532e-05,6.8554502050665e-05,-6.8702722596265e-05,6.8442189268277e-05,-5.829004593429e-05,5.7905458772599e-05,-3.1009311489154e-09,7.1576848696956e-09,-7.4563728825591e-10,4.6668358293321e-09,-8.0433679801115e-05,8.043760443516e-05,-7.6510092002554e-05,7.6515809767626e-05,-7.8394265849139e-05,7.8386269379307e-05,-7.8377337402988e-05,7.8389664287934e-05,-8.3319110285531e-05,8.3317853099585e-05,-8.3324409003586e-05,8.3327021491445e-05,-8.3316508225255e-05,8.3321647656557e-05,-8.3323992041765e-05,8.3333027722209e-05,-7.649702765559e-05,7.6499072668935e-05,-7.6491691023866e-05,7.6504251304544e-05,-7.8398077511957e-05,7.8393727951172e-05,-7.8311256461544e-05,7.83273116489e-05,-7.6481284476179e-05,7.6476565342523e-05,2.2599618858613e-08,1.5121645287387e-07,-7.5749739318469e-05,7.5767803737794e-05,1.4264287076534e-08,8.6798905448645e-09,-6.9958624603652e-05,6.9990389734189e-05,-7.2285985504722e-05,7.2016693172807e-05,-7.2310073607357e-05,7.2277311670306e-05,-7.0158020295191e-05,7.0962152177146e-05,-6.995344944486e-05,6.9995726030954e-05,-7.2280669842818e-05,7.2021972413707e-05,-7.2304754547791e-05,7.2282664462417e-05,-8.0104060123568e-05,8.0108260478028e-05,-8.0105956759774e-05,8.0106338873042e-05,-8.0096682007484e-05,8.005469631047e-05,-8.0098594361738e-05,8.0052817017529e-05,-7.440980420179e-05,7.4719587838655e-05,-7.430752499151e-05,7.4351736257167e-05,-7.4305718586045e-05,7.4353657082048e-05,-7.4407918897007e-05,7.4721350390503e-05,-7.0163246444521e-05,7.0957106424964e-05,0.70496388730267,128566,2924,0.00030066514114175,0.00033509086939229,0.00031561060608125,30.08485734961,6.7885879688062e-07,6.7885879688062e-07,6.7885879688062e-07,1381086.2456295,0.00095182451819231
15191759,0.072481694836287,0.0012083789320982,0.00039460875828736,0.00041230973723389,0.0004014604365769,-8.845791979643e-05,8.836452737082e-05,-1.965685232363e-07,-1.3178075028791e-07,-2.8904508691269e-08,-3.3414796834587e-08,-6.6870584167159e-05,6.6199945438998e-05,-8.2319556105336e-05,8.2239042117455e-05,-8.227424687988e-05,8.2537157870624e-05,-6.701389331703e-05,6.6407732727409e-05,-6.6865949708836e-05,6.6204789188907e-05,-8.2314994169996e-05,8.2243707670689e-05,-8.226974791238e-05,8.25418254755e-05,-9.8713114145121e-05,9.8629760317368e-05,-9.8672837786062e-05,9.8756347670648e-05,-9.8714397209411e-05,9.862834585359e-05,-9.8674056426016e-05,9.8754893790026e-05,-8.3431999637848e-05,8.3059944285632e-05,-8.3308902414854e-05,8.287189045698e-05,-8.3430401614031e-05,8.3061453589908e-05,-8.3307452626912e-05,8.2873481660291e-05,-6.7018748105113e-05,6.6402913402962e-05,-8.5460159656483e-10,3.9317699657183e-09,-1.5719728208976e-09,4.5745973817563e-09,-0.000100941175942,0.00010094416909342,-9.5606700366522e-05,9.5614008358919e-05,-9.9167087859938e-05,9.9163256112571e-05,-9.9152747021474e-05,9.9158506480024e-05,-0.00010454599921339,0.00010454535614707,-0.00010455435848085,0.00010455824124907,-0.00010454731195544,0.00010454933647541,-0.00010455268655821,0.00010455925646146,-9.5569117028216e-05,9.5567750140397e-05,-9.5542403492184e-05,9.5552897827903e-05,-9.9175822998654e-05,9.917612400912e-05,-9.9075267306559e-05,9.908523160724e-05,-9.5551314932751e-05,9.5546829483583e-05,4.5047999517864e-08,2.26117113128e-07,-9.3703670957577e-05,9.3730522125416e-05,2.1050384221701e-08,1.4688869664177e-08,-8.5432634153302e-05,8.5502145000403e-05,-8.7919174846374e-05,8.7486134804973e-05,-8.7936662024064e-05,8.7888497554766e-05,-8.5807973953215e-05,8.7065329457969e-05,-8.5426780048034e-05,8.5508224567769e-05,-8.7913172750462e-05,8.7492148665711e-05,-8.7930667429988e-05,8.7894571098901e-05,-0.00010001707893685,0.00010002949678562,-0.00010001924790883,0.00010002728231801,-0.00010001473611077,9.9945089514067e-05,-0.00010001693401005,9.9942926652819e-05,-9.2860007721724e-05,9.3332078207976e-05,-9.2661449105547e-05,9.275016104426e-05,-9.2659419391288e-05,9.2752374594625e-05,-9.2857836466095e-05,9.3334083766189e-05,-8.5813946304478e-05,8.705954447597e-05,0.66036286679765,128566,2924,0.00036831260757431,0.00042050320200159,0.00039040975754135,28.682588931834,-1.0539288545326e-05,-1.0539288545326e-05,-1.0539288545326e-05,1457360.672944,0.0011799314868756
15391759,0.087201999426737,0.0014605590061812,0.00047473017948732,0.0005010275826616,0.00048480124403226,-0.00010442737943687,0.00010430189190731,-2.8130535762155e-07,-1.7805720323239e-07,-3.8487470667405e-08,-3.4883439495695e-08,-7.6727915563355e-05,7.5834595914988e-05,-9.761871857302e-05,9.7522817930805e-05,-9.7550819007804e-05,9.7982100720239e-05,-7.6953962392651e-05,7.6083286049732e-05,-7.6731152743586e-05,7.5831546120984e-05,-9.7622055086965e-05,9.7519505828073e-05,-9.7554218426134e-05,9.7978797704343e-05,-0.00011723510804057,0.00011711015143421,-0.00011717330351934,0.00011728478173944,-0.00011723375224663,0.00011711145963413,-0.00011717186934028,0.00011728603549317,-9.902829507347e-05,9.8505208346809e-05,-9.8840504001458e-05,9.8276675352273e-05,-9.9029362843717e-05,9.8504002542598e-05,-9.8841749949378e-05,9.8275587446139e-05,-7.6950965893881e-05,7.6086404325067e-05,2.5613586951876e-09,-6.725377845463e-10,-5.1936035957399e-09,7.0644885617127e-09,-0.00012133501933398,0.00012133687572408,-0.00011548338818262,0.00011549821735167,-0.00011993228418292,0.00011993312935649,-0.00011991022467058,0.00011990488522575,-0.00012502502407478,0.00012502385069225,-0.00012503486224203,0.00012504240896096,-0.00012502981247441,0.00012502592395586,-0.00012503687706641,0.00012504172392253,-0.00011544209870033,0.00011543096577869,-0.0001154201960764,0.0001154328359248,-0.00011994177188731,0.00011995084956647,-0.00011976729067776,0.00011977024558991,-0.00011541074617002,0.00011540186167744,7.0100408679601e-08,3.0986252791374e-07,-0.00011147697985223,0.0001115133652241,3.0451760888134e-08,1.7906051802655e-08,-0.00010277545215039,0.00010288468962191,-0.00010471152828723,0.00010407994939747,-0.00010473190783496,0.00010466442553047,-0.00010333518487548,0.00010512844945228,-0.00010276368108834,0.00010289675522936,-0.00010469951657073,0.00010409195305357,-0.00010471994594408,0.00010467651818452,-0.00011894850683912,0.0001189704875762,-0.00011895274100291,0.00011896618481506,-0.00011895114230677,0.00011885595956304,-0.00011895542516852,0.00011885172521844,-0.00011161843262777,0.00011224133337331,-0.00011133304115654,0.00011146919540953,-0.00011132897819523,0.00011147347050595,-0.000111614197542,0.00011224538011775,-0.00010334715604473,0.00010511671969115,0.73442855323394,128566,2924,0.0004347600114448,0.00050543505924852,0.00046445330802949,27.269768505087,-2.1841851959304e-05,-2.1841851959304e-05,-2.1841851959304e-05,1251518.1955395,0.001405648462298
15591759,0.10071513066696,0.0016986630295732,0.00054996258476036,0.00058523081016627,0.00056346963464655,-0.00011892961725187,0.00011877647952607,-3.5853205079409e-07,-2.1366605369681e-07,-4.8419427481098e-08,-3.4349686709318e-08,-8.6332131995436e-05,8.5307151176976e-05,-0.0001116212630072,0.00011151197352451,-0.00011153140696247,0.00011210686316298,-8.664265101111e-05,8.5532069650301e-05,-8.6345570104758e-05,8.5293859951545e-05,-0.00011163477868762,0.00011149835163991,-0.00011154500049109,0.0001120932548854,-0.00013395813528166,0.00013379284521441,-0.00013387606385782,0.00013401116858301,-0.00013395337012419,0.00013379766318079,-0.00013387120414454,0.00013401592010927,-0.00011310629819832,0.00011244539655953,-0.00011285684887367,0.00011220062066444,-0.00011311080588466,0.00011244069487636,-0.00011286157284527,0.00011219606249167,-8.6629503073278e-05,8.5545439295746e-05,6.8420148426082e-09,-6.7476917706519e-09,-1.3268730961127e-08,1.3434245117894e-08,-0.00014000161980407,0.00014000176060897,-0.00013380423589979,0.00013383495243063,-0.00013906418782479,0.00013906863249862,-0.00013904335991962,0.00013902124374519,-0.00014374117821037,0.00014373690794296,-0.00014374990156889,0.00014376408945494,-0.00014375018531115,0.00014373625659659,-0.00014375696664011,0.00014376151420107,-0.0001337678316562,0.00013373741330076,-0.00013375240851052,0.00013377401118443,-0.00013907232065029,0.00013909464351181,-0.00013885981228704,0.00013885564791748,-0.00013372338067294,0.00013370214815555,9.3628942768068e-08,3.9161655483457e-07,-0.00012760544351282,0.00012765044137128,4.388121517656e-08,1.6806674961881e-08,-0.00011861334706365,0.00011875181715127,-0.00012015113683089,0.00011930645666778,-0.00012017323282863,0.00012007745048814,-0.00011931981425564,0.00012163119079918,-0.00011858747863962,0.00011877806658838,-0.00012012495160975,0.00011933262648486,-0.00012014713156997,0.00012010374799529,-0.00013610839558698,0.00013614214457158,-0.00013611747757884,0.00013613296831321,-0.00013611264619835,0.00013599929403148,-0.00013612179377025,0.00013599020670399,-0.00012871433524024,0.00012948041407931,-0.00012835675911658,0.00012853334272919,-0.00012834788117716,0.00012854246575391,-0.00012870526268618,0.00012948927708794,-0.0001193459379596,0.00012160536522944,0.74589760876561,128566,2924,0.00049510212354228,0.00058316576735415,0.00053163962353222,26.024744098252,-3.1802047213981e-05,-3.1802047213981e-05,-3.1802047213981e-05,1276130.2765994,0.0016112196969215
15791759,0.11390602163799,0.0019438685767449,0.00062711552400399,0.00067232533703126,0.00064442771570961,-0.0001350213312064,0.00013483738723102,-4.400841989668e-07,-2.5054266795135e-07,-5.8707782059588e-08,-3.1716838643267e-08,-9.8518380232933e-05,9.7372806851916e-05,-0.00012800584513061,0.00012788079645064,-0.00012789335272012,0.00012862701045131,-9.891964872361e-05,9.7543062515787e-05,-9.854438424474e-05,9.7346870823783e-05,-0.00012803193185431,0.00012785444319641,-0.00012791952100699,0.00012860068151185,-0.00015200435715257,0.00015179697748541,-0.00015190118440273,0.00015206237203973,-0.00015199536215185,0.00015180612555276,-0.00015189209023787,0.00015207144741793,-0.00012914150306546,0.00012833731360197,-0.000128827937993,0.00012804522540363,-0.00012915027821978,0.00012832829687648,-0.00012883694497462,0.00012803637320006,-9.8893936196028e-05,9.7569089293975e-05,1.2106933516363e-08,-1.4272755683799e-08,-2.7733103067517e-08,2.5750493391367e-08,-0.00016047702838395,0.00016047500998971,-0.00015425467394654,0.00015431375946661,-0.00015988220630279,0.00015988807390726,-0.00015986372920759,0.00015981788969863,-0.00016415419194451,0.00016414312108372,-0.00016415806335789,0.00016418333609066,-0.00016416738722512,0.00016413810279377,-0.00016417245527361,0.00016417953057957,-0.00015424821569713,0.00015418515777369,-0.00015423796898815,0.00015427937609943,-0.00015988448867429,0.00015992609802244,-0.00015961334703305,0.00015960331463652,-0.0001541813763889,0.00015413606247072,1.1796085128763e-07,4.812402428966e-07,-0.000145376662369,0.00014543176763496,6.5134107438559e-08,1.1242918592569e-08,-0.00013681249062489,0.00013697080386271,-0.00013793541410667,0.0001368612297057,-0.000137967019254,0.00013783227750932,-0.00013765195938682,0.00014054700709475,-0.00013676044668876,0.00013702333785002,-0.00013788296835871,0.00013691364486982,-0.00013791470567462,0.00013788485682065,-0.00015465445256645,0.00015470305302972,-0.0001546724657639,0.00015468491828844,-0.00015466002390011,0.000154524838506,-0.00015467812497232,0.00015450681211159,-0.0001476508927063,0.00014857622546642,-0.00014721744638984,0.00014743303377142,-0.00014719966405536,0.00014745111393709,-0.00014763286549703,0.00014859400427928,-0.00013770436421904,0.00014049497758241,0.78512881741456,128566,2924,0.00056205365651356,0.00066842127878904,0.0006056654422272,25.603867238428,-3.5169062092577e-05,-3.5169062092577e-05,-3.5169062092577e-05,1315347.4683049,0.0018378437396023
15991759,0.12679603263881,0.0021816085266093,0.00070131783282705,0.00075751153650834,0.00072277915727386,-0.00015055834716741,0.00015033504912023,-5.3363007545945e-07,-2.959164523209e-07,-7.1453429798631e-08,-3.0391554161203e-08,-0.00010962088398409,0.00010828619633549,-0.00014384836761635,0.00014370667674917,-0.00014371033803799,0.00014462595638719,-0.00011012284623611,0.00010844082825222,-0.00010966054142589,0.00010824651315282,-0.00014388812733628,0.00014366647829113,-0.00014375018239234,0.00014458578693168,-0.00016957123700337,0.00016931373466359,-0.00016944381731316,0.00016963075517027,-0.00016955762578999,0.00016932759877237,-0.00016943010598398,0.00016964454555522,-0.00014459838439818,0.00014362746023027,-0.00014421111747614,0.00014328180386217,-0.00014461180907522,0.00014361375836792,-0.0001442247784325,0.00014326827136093,-0.00011008348193825,0.00010848059914495,1.7771133065694e-08,-2.2512232861434e-08,-4.4523985129177e-08,4.0089953492896e-08,-0.00018068312647356,0.00018067864528133,-0.00017430793630026,0.00017439973096135,-0.00018033932720444,0.00018034595008283,-0.00018031561050674,0.00018024320057944,-0.00018429641855848,0.0001842771959533,-0.00018429427595805,0.00018433214918725,-0.00018431248216207,0.00018426572494259,-0.00018431503623802,0.00018432539131772,-0.00017433627976404,0.00017423563642595,-0.00017433587835875,0.00017440067549519,-0.00018033408520527,0.00018039720284438,-0.00017997869963664,0.00017996284902658,-0.00017424576412748,0.00017417218322477,1.4610829828707e-07,5.7870166326836e-07,-0.00016266853994597,0.00016273603337215,8.9641368568215e-08,4.6075799858074e-09,-0.00015455054224245,0.00015473169597239,-0.00015529317827528,0.00015397176827219,-0.00015533105458656,0.00015515225596916,-0.00015554945422859,0.0001590986891747,-0.00015446806897443,0.00015481479237211,-0.00015521021531775,0.00015405467163035,-0.00015524828220624,0.00015523537761373,-0.00017270786688221,0.00017277410080075,-0.0001727362480516,0.00017274556713835,-0.00017271873035931,0.00017255718442442,-0.00017274722604943,0.00017252878486106,-0.00016613985599798,0.00016723364599641,-0.00016561062691346,0.00016587179967686,-0.00016558249684307,0.00016590029208215,-0.00016611142155463,0.00016726177866341,-0.00015563241163999,0.00015901621356798,0.77894717734639,128566,2924,0.00062667368919735,0.00075254737342328,0.00067769463832009,25.203872300336,-3.8369021597312e-05,-3.8369021597312e-05,-3.8369021597312e-05,1386915.682075,0.0020590505586196
16191759,0.13938290785814,0.0024114219531446,0.00077250794573321,0.00084051227384699,0.0007984017335644,-0.00016548253915319,0.00016521601609095,-6.3410532433041e-07,-3.4485859979938e-07,-8.5153211034058e-08,-2.9030421833515e-08,-0.00011969365872066,0.00011814657848256,-0.00015905920885753,0.00015890059259184,-0.0001588937153689,0.00016000267234595,-0.00012030289470029,0.0001182974898716,-0.00011974792575294,0.00011809218145063,-0.00015911360064545,0.00015884557481264,-0.00015894819492089,0.00015994768731399,-0.00018659164524838,0.0001862795283736,-0.00018643772779643,0.0001866503946724,-0.00018657309135799,0.00018629844056065,-0.00018641907509923,0.00018666923391682,-0.00015937489245401,0.00015822341767489,-0.0001589067106487,0.0001578250200247,-0.00015939329762802,0.00015820470730738,-0.00015892534757923,0.00015780647559074,-0.00012024891750172,0.00011835196763191,2.3750927035549e-08,-3.1407723484949e-08,-6.2603709491273e-08,5.538924565797e-08,-0.00020046555624592,0.00020045828276716,-0.00019379419562228,0.0001939209003977,-0.00020029967621837,0.00020030692381666,-0.00020026887235125,0.00020016785300263,-0.0002040370995652,0.00020400898187021,-0.000204028536317,0.00020407975206078,-0.00020405550568789,0.00020398988091749,-0.00020405530575022,0.00020406903155957,-0.00019385920272972,0.00019371811831072,-0.00019386973987771,0.00019395947508409,-0.00020028600605674,0.00020037199832321,-0.0001998396094976,0.00019981739864545,-0.00019374410412432,0.00019364005377143,1.7683172838484e-07,6.8211967117489e-07,-0.00017937809996117,0.00017945841763014,1.1591449103899e-07,-2.5037735279521e-09,-0.00017164523116639,0.00017185121840847,-0.00017208438692277,0.00017050240372389,-0.00017213243051662,0.00017190894509709,-0.00017281587660695,0.00017705559056299,-0.00017153012693674,0.00017196709250892,-0.00017196870178061,0.00017061799467719,-0.00017201699866755,0.00017202481395903,-0.00019019585707728,0.0001902811384581,-0.00019023535086255,0.00019024146000681,-0.00019021390568234,0.00019002236022426,-0.00019025354274795,0.000189982843977,-0.00018399091425545,0.00018526086204896,-0.00018335470922418,0.00018366625886288,-0.00018331548191532,0.00018370591426303,-0.00018395131795696,0.00018530009448107,-0.0001729315999722,0.00017694047071581,0.77198524031664,128566,2924,0.00068873040197619,0.00083490164434932,0.00074729504811583,24.804697104035,-4.156242316772e-05,-4.156242316772e-05,-4.156242316772e-05,1470486.1088053,0.0022735272126638
16391759,0.15170524382471,0.0026370981269489,0.00084196857518239,0.00092256856366385,0.00087256098810269,-0.00018007807381146,0.00017976663419443,-7.4041470770212e-07,-3.9591215844275e-07,-9.9401756193167e-08,-2.6327374453769e-08,-0.00012924536295767,0.00012747119238916,-0.00017404518611533,0.00017387036116048,-0.00017385018212263,0.00017516468711328,-0.00012997028908958,0.00012762623202448,-0.00012931606966696,0.00012740023745372,-0.00017411604283081,0.0001737986670422,-0.0001739211306613,0.00017509303016273,-0.0002032917998671,0.0002029225870057,-0.00020310974382025,0.00020334856849525,-0.0002032676852859,0.00020294718073679,-0.00020308553301897,0.00020337309159289,-0.00017385127832735,0.00017250881920387,-0.00017329679297018,0.00017206332165753,-0.00017387529078957,0.00017248447472605,-0.00017332102931314,0.00017203913467528,-0.000129899863672,0.00012769725345056,3.0456407596437e-08,-4.1440032241575e-08,-8.1908982201355e-08,7.1519622154114e-08,-0.00022009042615538,0.0002200799647298,-0.00021309822967589,0.00021326209275907,-0.00022007993948777,0.00022008855134778,-0.00022004002047383,0.00021990747278165,-0.00022360260635133,0.00022356514908519,-0.00022358726120165,0.00022365273161862,-0.00022362313694126,0.00022353694957513,-0.00022361983883132,0.00022363659667973,-0.00021320678137559,0.00021302222199839,-0.000213223933459,0.00021333960490262,-0.00022005742870359,0.00022016840333333,-0.00021950967776639,0.0002194795567867,-0.00021306299075304,0.0002129266872898,2.0983089129042e-07,7.9117509222115e-07,-0.00019577952468767,0.00019587390136496,1.4444380960905e-07,-9.4067490854196e-09,-0.00018851709922262,0.00018875021259934,-0.00018868762508256,0.00018683666063364,-0.00018874880331745,0.00018847993206094,-0.00018986770301107,0.0001948499522483,-0.0001883673573404,0.00018890089345278,-0.00018853720107771,0.00018698694636193,-0.0001885987050871,0.00018863056615537,-0.00020735280069519,0.00020745851149528,-0.00020740408558243,0.00020740700564972,-0.00020737956956203,0.00020715548574152,-0.00020743103078149,0.00020710417452443,-0.00020155223335607,0.00020300790012595,-0.00020079968487394,0.00020116544889161,-0.00020074868077828,0.00020121695566355,-0.00020150078578874,0.000203058911096,-0.00019001822107963,0.00019470018223923,0.77561769425483,128566,2924,0.00074941202229353,0.00091659219015025,0.00081561038091464,24.44742998774,-4.4420560098078e-05,-4.4420560098078e-05,-4.4420560098078e-05,1554657.002999,0.0024847175970915
16591759,0.16385874847859,0.0028674000106168,0.00091244134131164,0.0010067596931941,0.00094819897611109,-0.0001949370774046,0.00019457706404346,-8.5434399635751e-07,-4.5085510541552e-07,-1.134663677698e-07,-2.257185226061e-08,-0.00013909599551459,0.00013707728908393,-0.00018968269637789,0.00018948957117358,-0.00018945614206098,0.00019099107181006,-0.00013994405286908,0.00013723711065626,-0.00013918398687603,0.00013698891750894,-0.00018977083937948,0.00018940031418208,-0.00018954439102444,0.00019090187029321,-0.00022016256603187,0.00021973412152178,-0.00021995018564717,0.00022021940599351,-0.00022013263865344,0.0002197646912116,-0.0002199201629235,0.00022024990448675,-0.00018885100821815,0.00018730552598489,-0.00018820417780943,0.00018679490408486,-0.00018888090779858,0.00018727525556304,-0.00018823429481452,0.00018676479010292,-0.00013985634033759,0.00013732555272197,3.7177462746411e-08,-5.2309034043104e-08,-1.0261896564197e-07,8.8256370068153e-08,-0.0002402270360582,0.00024021258378404,-0.00023304715033795,0.0002332496319859,-0.00024044073569213,0.00024045005099882,-0.00024038753667446,0.00024022112443681,-0.00024355422607241,0.00024350623781058,-0.00024353215880965,0.00024361203574499,-0.00024357580209877,0.00024346730918451,-0.00024356974448678,0.00024358913377133,-0.000233204227186,0.00023297314771484,-0.00023322911637971,0.00023337161229064,-0.0002404086002243,0.00024054524780688,-0.00023973950254732,0.00023970048242816,-0.00023302850578781,0.00023285747132901,2.457684622975e-07,9.0859226559269e-07,-0.00021250331273547,0.00021261384613993,1.7489299590509e-07,-1.64093389669e-08,-0.00020617215829087,0.00020643665431547,-0.00020600304139815,0.00020386226667039,-0.00020608367689327,0.00020576944116823,-0.00020771642290676,0.00021349514923714,-0.00020598583924646,0.00020662411786577,-0.00020581590310853,0.00020404921446227,-0.00020589695613584,0.00020595682442761,-0.00022468758225262,0.00022481491758462,-0.00022475132716052,0.0002247509062456,-0.0002247247222987,0.00022446400597676,-0.00022478868404547,0.00022440022764535,-0.00021959823685598,0.00022125913388655,-0.00021871928150413,0.00021914413764941,-0.00021865583385846,0.00021920816982325,-0.0002195342611357,0.00022132259004275,-0.00020790371275418,0.00021330877993668,0.80315412204694,128566,2924,0.00081118009229102,0.001000404350859,0.00088526755777524,24.192956041949,-4.6456351664406e-05,-4.6456351664406e-05,-4.6456351664406e-05,1634947.6058383,0.0027005138970851
16791759,0.17584298223868,0.0030951005310939,0.00098159850818444,0.0010906087819381,0.0010228932409713,-0.00020952924796281,0.00020911728651946,-9.7687220019457e-07,-5.0930179161407e-07,-1.2783330936414e-07,-1.8166172672863e-08,-0.0001481888852223,0.00014590976062742,-0.00020507408341743,0.00020486028539786,-0.00020481318962761,0.0002065905907559,-0.00014917034570844,0.00014607903105408,-0.00014829508799276,0.00014580306554176,-0.00020518043438134,0.00020475255606191,-0.00020491966545641,0.00020648293233638,-0.00023683794478644,0.00023634760804167,-0.00023659251005339,0.00023689741356468,-0.00023680187962461,0.00023638447319664,-0.00023655634727323,0.00023693420581781,-0.00020363343317067,0.00020186870722673,-0.00020288554325413,0.00020128450453209,-0.0002036695382246,0.00020183219491637,-0.00020292186706461,0.00020124814774378,-0.00014906443166724,0.00014618579777024,4.4425576271897e-08,-6.358790336176e-08,-1.2410855980706e-07,1.0588345254798e-07,-0.0002603383608969,0.00026032003142668,-0.00025290436617716,0.00025314752073444,-0.00026083821818188,0.00026084871090233,-0.00026077130413109,0.00026056967477701,-0.0002634556418619,0.00026339699865663,-0.00026342678850631,0.0002635220771773,-0.00026347831727947,0.00026334673972263,-0.00026347033074868,0.00026349270353139,-0.00025310999210347,0.00025283055593877,-0.00025314441889294,0.00025331516602634,-0.00026079621062447,0.00026096011872607,-0.00025999182955572,0.0002599436762387,-0.00025290066976419,0.0002526937006563,2.854297840139e-07,1.0354084032209e-06,-0.00022900908118197,0.00022913811273613,2.0649789104793e-07,-2.3944212722877e-08,-0.00022368117467427,0.00022398185010692,-0.00022311235326333,0.00022065864281077,-0.00022321511453203,0.00022285307913568,-0.00022543391615698,0.00023207724514615,-0.00022345663009223,0.00022420772758115,-0.00022288685660424,0.00022088388700294,-0.00022299012233611,0.00022307884884407,-0.00024181239268105,0.00024196355652915,-0.00024188916566598,0.00024188647653586,-0.0002418620167264,0.00024156162008604,-0.00024193904503796,0.00024148481180986,-0.00023744297926769,0.0002393246611429,-0.00023642654915649,0.0002369172869006,-0.00023635008918881,0.00023699440129316,-0.00023736591424764,0.00023940112137168,-0.00022565960947791,0.00023185264804837,0.80668160133729,128566,2924,0.00087182742020496,0.0010841041417353,0.00095401724846355,23.941089857963,-4.8471281136298e-05,-4.8471281136298e-05,-4.8471281136298e-05,1716021.0550454,0.0029142100090801
16991759,0.18765380200323,0.0033145998339892,0.0010478415003779,0.0011720612159995,0.0010946971176117,-0.00022359773628307,0.00022313401261673,-1.1038612402116e-06,-5.700482216842e-07,-1.4256689166045e-07,-1.3478984964062e-08,-0.00015628044329787,0.00015372219982689,-0.00021971266883154,0.00021948006381351,-0.00021941548888104,0.00022144255248704,-0.00015740197738041,0.00015391555331361,-0.00015640547634935,0.00015359655629551,-0.0002198378641173,0.00021935323904593,-0.0002195408158247,0.00022131580562917,-0.00025312102824106,0.00025256896086219,-0.00025284073130973,0.00025318771463959,-0.00025307860442288,0.00025261233835729,-0.00025279821041122,0.00025323102012669,-0.00021774070419873,0.00021574645042716,-0.00021688619987748,0.0002150865371089,-0.00021778323288204,0.00021570348212109,-0.00021692894292734,0.00021504372072996,-0.00015727722866022,0.00015404126064676,5.1952515642235e-08,-7.522176613376e-08,-1.4593803818352e-07,1.2377667603616e-07,-0.00028005508117716,0.00028003280112802,-0.00027223609125677,0.00027252065203331,-0.00028084057023998,0.00028085259078427,-0.00028075964247922,0.00028052190558851,-0.0002830149831765,0.00028294562979991,-0.00028297919052089,0.0002830902308657,-0.00028303929085185,0.00028288414246721,-0.00028302880735669,0.00028305407177562,-0.0002724868819222,0.00027215820899633,-0.00027253446645129,0.00027273377258087,-0.00028078875771037,0.00028098067210304,-0.00027985215891894,0.00027979437594113,-0.00027224549397769,0.00027200213394329,3.2690121841094e-07,1.1658654954324e-06,-0.00024497443568954,0.00024512252042133,2.3846239920252e-07,-3.1710164602554e-08,-0.00024040050489156,0.00024073985411915,-0.0002394520266318,0.00023667260658707,-0.00023957546534825,0.00023916322079423,-0.00024237592058781,0.00024989803967773,-0.00024013713925815,0.00024100474050734,-0.000239187585262,0.0002369367309017,-0.00023931161633084,0.00023942795870539,-0.00025852053248991,0.0002586961287786,-0.00025861052931475,0.00025860578655688,-0.00025858376159138,0.00025824208609699,-0.00025867405249066,0.00025815205371107,-0.00025467401107763,0.00025678625351292,-0.00025351261436857,0.00025407273681305,-0.00025342294520596,0.00025416313175817,-0.00025458365761601,0.00025687591483358,-0.00024264061765387,0.00024963461806254,0.79134032370191,128566,2924,0.00093029234770878,0.0011661540709231,0.0010205139084046,23.689325955119,-5.0485392359048e-05,-5.0485392359048e-05,-5.0485392359048e-05,1796728.5026557,0.0031218481393647
17191759,0.19901671983397,0.0035202100355977,0.0011095915829369,0.0012488878890829,0.0011617305635779,-0.00023622479801565,0.00023571140710393,-1.2290668273995e-06,-6.2889584815071e-07,-1.5827043742321e-07,-7.8240682341858e-09,-0.00016288972107163,0.00016004157120554,-0.00023263286220243,0.00023238273335383,-0.00023229892128668,0.00023457710009266,-0.00016415429920671,0.00016027875886337,-0.00016303549071195,0.00015989507054292,-0.00023277881267477,0.00023223491355032,-0.00023244500089481,0.00023442935887977,-0.00026800292566454,0.00026738987992447,-0.00026768749491953,0.00026807850651848,-0.00026795349377486,0.00026744041429918,-0.00026763796862609,0.0002681289708175,-0.00023021679832985,0.00022799543894412,-0.00022925497852639,0.00022726335469933,-0.00023026639940847,0.00022794536863168,-0.00022930478596008,0.00022721343181722,-0.0001640087987361,0.00016042531232608,6.041678052057e-08,-8.7853564366046e-08,-1.6781210967227e-07,1.4166012430506e-07,-0.00029820433558605,0.00029817805067631,-0.00028988359270787,0.00029021018397845,-0.00029921921674948,0.00029923460349991,-0.00029912786666684,0.00029885205696644,-0.0003011040186339,0.00030102453395771,-0.00030106117832462,0.00030118856995038,-0.00030113094361788,0.00030095151714306,-0.00030111780083663,0.00030114526913534,-0.00029017576426324,0.00028979712275712,-0.00029023653247989,0.00029046373142266,-0.00029915764965114,0.0002993794275449,-0.00029809819360245,0.00029802883230525,-0.00028990523858147,0.00028962604354876,3.6887247779667e-07,1.294062512995e-06,-0.00025937238978055,0.00025953809340712,2.6983405126964e-07,-4.0099995361447e-08,-0.00025519960402247,0.00025557808894256,-0.00025400256812363,0.00025089888262447,-0.00025414422533735,0.00025368103049532,-0.00025739343312965,0.00026576832576164,-0.00025489737765264,0.00025588201930985,-0.00025369915022179,0.00025120192279608,-0.00025384148508851,0.00025398476587335,-0.00027377500661017,0.00027397543347601,-0.00027387823834172,0.00027387182152266,-0.00027385154201015,0.00027346879219592,-0.00027395510477957,0.00027336552550646,-0.00027020898389509,0.00027255137006751,-0.00026890365231407,0.00026953395008512,-0.00026880076234216,0.00026963763530798,-0.00027010533149473,0.00027265424600072,-0.00025769717296473,0.00026546603300438,0.77293680524983,128566,2924,0.00098275870211796,0.0012416738337154,0.0010804793490217,23.131784115427,-5.4945727076586e-05,-5.4945727076586e-05,-5.4945727076586e-05,1868965.9995909,0.0033104067460464
17391759,0.20957359530082,0.0037034442274241,0.0011644393393379,0.0013177754716855,0.0012212294164007,-0.0002466334956591,0.00024607649404541,-1.3466047192154e-06,-6.8147111459031e-07,-1.7391278377652e-07,-1.4473467546558e-09,-0.00016752700946022,0.00016440857918703,-0.00024297373399782,0.00024271046902395,-0.00024260392941176,0.00024512356152693,-0.00016893152598492,0.00016468996147331,-0.00016769418250484,0.00016424055679056,-0.00024314112136641,0.0002425410089369,-0.00024277142879442,0.00024495417569368,-0.00028063943338962,0.00027996908904781,-0.00028029017437483,0.00028072501424811,-0.00028058276670926,0.00028002699647956,-0.00028023341955995,0.00028078285386048,-0.00024022729302616,0.00023779231888265,-0.00023916239946162,0.00023699804864232,-0.00024028418991554,0.00023773492215379,-0.00023921948871427,0.00023694079758524,-0.00016876458429393,0.00016485803363314,6.9308778382286e-08,-1.0074244715566e-07,-1.8878755606822e-07,1.5880707908491e-07,-0.00031373532474726,0.00031370519962918,-0.00030476865633092,0.00030513606072669,-0.00031486855822556,0.00031488871171966,-0.00031477036692422,0.00031445653502349,-0.00031672019891799,0.00031663151200655,-0.00031667044477557,0.00031681402527396,-0.00031675074016898,0.00031654752242563,-0.00031673478209225,0.00031676384596745,-0.00030509721938479,0.0003046701502381,-0.00030516826567026,0.00030542169053264,-0.00031479813850049,0.00031505008808551,-0.00031363128234514,0.0003135492924784,-0.00030480120578522,0.0003044881573418,4.0908152340697e-07,1.4135217819334e-06,-0.00027132759404577,0.00027150782114284,2.9893425915944e-07,-4.9102676500983e-08,-0.00026706942089568,0.00026748499672102,-0.0002658318041442,0.00026242185141055,-0.00026598868797611,0.00026547597746147,-0.00026946769915988,0.00027861559850202,-0.00026672994456316,0.00026782634460372,-0.00026549103196805,0.00026276219446451,-0.00026564867112307,0.00026581707975414,-0.00028670008222586,0.00028692465910033,-0.00028681599522159,0.00028680833236391,-0.00028678849738359,0.00028636701347402,-0.00028690477698744,0.00028625106297291,-0.00028308012048192,0.00028563981964377,-0.00028163959554488,0.00028233661945754,-0.00028152404362981,0.00028245304422657,-0.00028296372532476,0.00028575536621953,-0.00026980886634499,0.00027827602875708,0.74411373005348,128566,2924,0.0010260013240384,0.0013062928739654,0.0011302680654746,22.13178241641,-6.2945740668716e-05,-6.2945740668716e-05,-6.2945740668716e-05,1929133.4728787,0.00346859488321
17591759,0.21936297408812,0.0038667429286487,0.0012132495541076,0.0013794383725944,0.0012740550019467,-0.00025575562033451,0.00025516190455509,-1.4543665094214e-06,-7.2773098030139e-07,-1.8828650914025e-07,6.3276519033614e-09,-0.00017126571405395,0.00016789715522832,-0.0002517670712633,0.00025149693822986,-0.00025136291991371,0.00025411634552594,-0.00017280382662145,0.0001682297529524,-0.00017145442765051,0.00016770745938702,-0.00025195603011584,0.00025130572147133,-0.00025155197548976,0.00025392517471726,-0.00029192640461343,0.00029120195265461,-0.00029154507891367,0.0002920220150638,-0.0002918624886658,0.00029126727292007,-0.00029148107713322,0.0002920872772515,-0.00024877449046303,0.00024614234032301,-0.00024761285164505,0.00024529520705603,-0.00024883871619937,0.00024607758375904,-0.00024767726189927,0.00024523057830517,-0.00017261533019651,0.00016841944875313,7.8181823908159e-08,-1.1381469657041e-07,-2.0917544001041e-07,1.7513108053466e-07,-0.00032758001349797,0.00032754581113425,-0.00031787128955054,0.00031827792695941,-0.00032873854665594,0.00032876384513314,-0.00032863536332548,0.000328283615152,-0.00033077311660416,0.00033067550883657,-0.00033071635614042,0.00033087545084787,-0.00033080804479281,0.00033058122870696,-0.00033078846600284,0.0003308183693013,-0.00031823314464226,0.00031775874295419,-0.00031830298306014,0.00031858098325233,-0.00032866012224983,0.00032894166237617,-0.00032739324485559,0.00032729779218607,-0.0003179152552603,0.00031756954221629,4.4709965006631e-07,1.5236030451194e-06,-0.00028179373175638,0.00028198620237535,3.2613693987409e-07,-5.8592844401809e-08,-0.00027711206200356,0.00027756159884074,-0.00027600168867783,0.00027231051467157,-0.00027617072836783,0.00027561056244266,-0.00027968948720432,0.00028952964737716,-0.00027673668511879,0.00027793903153006,-0.00027562494128754,0.00027268678739475,-0.00027579480681862,0.00027598767385618,-0.00029820053420995,0.00029844827402191,-0.00029832865258672,0.00029831969640173,-0.0002982994071227,0.00029784178054094,-0.00029842792908531,0.00029771361969986,-0.00029426642584776,0.00029703222824629,-0.00029270048183617,0.00029346000780082,-0.00029257273838622,0.00029358871925775,-0.0002941377605775,0.00029715996988979,-0.00028006670622864,0.00028915417749803,0.71798588936033,128566,2924,0.0010639013262088,0.0013638904380636,0.0011738523024848,21.120525760219,-7.1035793918251e-05,-7.1035793918251e-05,-7.1035793918251e-05,1986807.4387131,0.0036081728295142
17791759,0.22844289657387,0.0040130783992385,0.001256966844882,0.0014348764492541,0.0013212351051025,-0.00026381612579404,0.00026319140340558,-1.5535470509162e-06,-7.6853095374958e-07,-2.0269083335593e-07,1.4483707942041e-08,-0.00017441102161121,0.00017079547191372,-0.00025933772170396,0.00025906628908825,-0.00025890080884776,0.00026187429265619,-0.00017607621490058,0.00017119463556885,-0.00017462169300874,0.00017058371990739,-0.00025954869897327,0.0002588529413795,-0.00025911185719379,0.00026166096679529,-0.00030205832425984,0.00030128454724812,-0.00030164676866764,0.00030216602054272,-0.00030198698381627,0.00030135741247638,-0.00030157535382724,0.00030223883632102,-0.00025617534539138,0.00025336087002236,-0.00025492290978666,0.0002524686739957,-0.00025624705667187,0.00025328861251659,-0.000254994790227,0.00025239652945002,-0.00017586572807894,0.00017140635537776,8.7684531568198e-08,-1.2669407284821e-07,-2.2780567045017e-07,1.9048977693934e-07,-0.00033996505146745,0.00033992757040656,-0.00032944017189077,0.00032988430934886,-0.00034107402921498,0.00034110663113799,-0.00034096963313849,0.00034058128069965,-0.00034347255983541,0.0003433678768354,-0.00034340912199281,0.00034358376212194,-0.00034351284121978,0.00034326397604372,-0.00034348976072346,0.00034352023449592,-0.00032983328593,0.00032931486608639,-0.00032989521439212,0.00033019576307025,-0.00034098878456447,0.00034130025991927,-0.00033964017527361,0.00033953075191244,-0.00032949535603215,0.00032912057494766,4.825554402481e-07,1.6247019698735e-06,-0.00029100538459447,0.00029120848629671,3.5096647267753e-07,-6.7722461511111e-08,-0.00028564156774794,0.00028612251907516,-0.00028485021278019,0.00028090601263505,-0.00028502913695347,0.00028442532958674,-0.00028838163295437,0.00029885054238903,-0.00028523295485746,0.00028653333632838,-0.00028444016510169,0.00028131554240907,-0.00028461997392625,0.00028483575408421,-0.00030848085676248,0.00030875090153144,-0.00030862027397567,0.00030861099201837,-0.00030858857522027,0.00030809761734889,-0.00030872842695877,0.00030795815470051,-0.0003040229120142,0.00030697911117272,-0.00030234206879495,0.00030316015985016,-0.00030220303772425,0.00030330023437516,-0.00030388289085636,0.00030711814825648,-0.00028879222423045,0.00029844182500942,0.69669206714953,128566,2924,0.0010973931570945,0.0014154128791094,0.0012122104139521,20.125341675921,-7.8997266592633e-05,-7.8997266592633e-05,-7.8997266592633e-05,2042255.7211219,0.0037320024809502
17991759,0.23687264794049,0.0041469836733588,0.0012969846635061,0.0014856943219496,0.0013643046879032,-0.00027106962497875,0.00027041489576691,-1.6459154717404e-06,-8.0450612396424e-07,-2.1920907773732e-07,2.041166144729e-08,-0.00017726225155744,0.00017338063292884,-0.00026608711554704,0.00026580780252961,-0.00026561850108443,0.00026879058465926,-0.00017904929331852,0.00017387773965366,-0.00017749482991435,0.00017314691213022,-0.00026632004878947,0.00026557244042808,-0.00026585148416117,0.0002685552265522,-0.00031123678102092,0.00031041164053446,-0.0003107956706744,0.00031135038885628,-0.00031115800106102,0.00031049200379432,-0.00031071682333676,0.00031143070869875,-0.00026281302687052,0.00025982929734182,-0.00026147454427107,0.00025889862467621,-0.00026289219695443,0.00025974956929137,-0.00026155387044216,0.00025881900024,-0.00017881686832454,0.00017411140762458,9.7526587737903e-08,-1.3917186126918e-07,-2.443500856892e-07,2.0447737619065e-07,-0.00035120000969763,0.00035115996987661,-0.00033985649719787,0.00034033542865142,-0.00035224481034815,0.00035228655394665,-0.00035215132506454,0.0003517283180371,-0.00035506542908455,0.00035495549474875,-0.00035499628219561,0.00035518600104553,-0.00035511301766589,0.0003548439931939,-0.00035508714291361,0.00035511778548382,-0.00034028009692727,0.00033972178775359,-0.00034033227561087,0.00034065272241918,-0.00035215483593343,0.00035249578965901,-0.00035074320314985,0.00035061945915543,-0.00033992107065869,0.00033952129156294,5.1624037441235e-07,1.7193469158627e-06,-0.00029925470053735,0.00029946805802313,3.7336679199678e-07,-7.583164662741e-08,-0.000293183538072,0.00029369599435422,-0.00029281211204578,0.00028863756056875,-0.00029299967304857,0.00029235687528798,-0.00029607239895101,0.00030712871569002,-0.00029274505050946,0.00029413676285867,-0.00029237215971343,0.00028907696808119,-0.00029256063882325,0.00029279720539923,-0.00031776476880398,0.00031805573768257,-0.00031791434258912,0.00031790565020074,-0.00031787977882514,0.00031735696368147,-0.00031802980771297,0.0003172073419293,-0.0003127169101332,0.00031584975898558,-0.00031093008431071,0.0003118042978157,-0.00031078090704827,0.00031195457506043,-0.00031256669398843,0.0003159989542609,-0.00029651294817452,0.00030669011764732,0.68920300302722,128566,2924,0.001127527176644,0.0014621489954817,0.0012465613929284,19.153779984877,-8.6769760120983e-05,-8.6769760120983e-05,-8.6769760120983e-05,2092237.7850857,0.0038436494000077
18191759,0.24469223727554,0.0042730887138949,0.0013347067899725,0.0015335528573159,0.0014048290666065,-0.00027772149682346,0.00027704206760051,-1.7315803558854e-06,-8.3592888176895e-07,-2.3370263755934e-07,2.852265241834e-08,-0.0001799933495989,0.00017588749050272,-0.00027239386748257,0.00027211139895258,-0.00027189542537597,0.00027525838552795,-0.00018189752973586,0.00017645286687799,-0.00018024800315624,0.00017563166321596,-0.00027264891632178,0.00027185389000553,-0.00027215051178192,0.00027500086735101,-0.00031962111647529,0.00031875231631372,-0.00031915229569218,0.00031974609224209,-0.00031953483011849,0.0003188402285881,-0.00031906594648667,0.00031983396595959,-0.00026902118829478,0.00026588087751909,-0.00026760147493344,0.0002649155924356,-0.00026910787888469,0.00026579362366655,-0.000267688314824,0.00026482843305819,-0.00018164301018039,0.00017670862024814,1.077806487731e-07,-1.5140465496097e-07,-2.5967801285459e-07,2.178871804072e-07,-0.00036155266844439,0.00036151070952483,-0.00034949209263827,0.00035000475363546,-0.00036255877677186,0.0003626110604278,-0.00036247632548298,0.00036201975521957,-0.00036573746576525,0.00036562356705021,-0.00036566310242769,0.00036586799679161,-0.00036579202454194,0.00036550400951681,-0.00036576379705223,0.00036579458909595,-0.00034994691187172,0.00034935104769325,-0.00034999240706572,0.00035033157457759,-0.00036246405312057,0.00036283469141811,-0.00036099318162356,0.00036085502108468,-0.00034956624641143,0.00034914392241475,5.4841680841364e-07,1.808579463891e-06,-0.00030678225152218,0.0003070058931336,3.9447197164916e-07,-8.3453419609786e-08,-0.00030021903598199,0.00030076239155652,-0.0003002687751187,0.00029587769368147,-0.00030046572331689,0.00029978722083184,-0.00030324656052486,0.0003148585784256,-0.00029975242069906,0.00030123134729284,-0.0002998006710809,0.00029634522604309,-0.00029999856437888,0.00030025570220043,-0.00032621946129001,0.00032653064536422,-0.00032637860193712,0.00032637097583399,-0.00032634119412289,0.00032578806720887,-0.00032650080547402,0.00032562887905916,-0.00032069629539376,0.00032398740784811,-0.00031881021695615,0.00031973821496888,-0.00031865147920896,0.00031989809096478,-0.00032053648596785,0.0003241461685185,-0.00030371529562308,0.00031439185544173,0.70094114724075,128566,2924,0.0011551675161241,0.0015052134119018,0.0012779076318102,18.182820448238,-9.4537436414092e-05,-9.4537436414092e-05,-9.4537436414092e-05,2130436.3806733,0.0039461018435365
18391759,0.25211976145881,0.004393123748479,0.0013706289504061,0.0015791512750149,0.001443343523058,-0.00028447645242552,0.0002837747137116,-1.8147464914054e-06,-8.6659803230092e-07,-2.4767237147092e-07,3.9059339836699e-08,-0.00018293147595451,0.00017861765740557,-0.00027887801779569,0.00027859730193428,-0.00027835061000314,0.00028190549216448,-0.00018495196421694,0.00017923933294209,-0.00018321007713211,0.00017833788426346,-0.00027915706307585,0.00027831579994956,-0.00027862968056039,0.00028162398306017,-0.00032804489265027,0.00032713532076321,-0.00032754903629884,0.00032818353343614,-0.00032795042778978,0.00032723141443873,-0.00032745451255367,0.00032827958820566,-0.00027543208644151,0.00027214157870833,-0.00027393232329447,0.00027113590729652,-0.00027552694890838,0.00027204615587165,-0.0002740273242487,0.00027104058151879,-0.00018467346647871,0.00017951904837198,1.1942340328759e-07,-1.6414297565163e-07,-2.7341081398255e-07,2.305879088132e-07,-0.00037188516672999,0.00037184217866627,-0.00035915562849654,0.00035970128688749,-0.00037286704289747,0.00037293340089508,-0.00037279500454619,0.00037230467263741,-0.00037635668453338,0.00037624110816581,-0.00037627770817999,0.00037649854685366,-0.00037641844119204,0.00037611243941966,-0.00037638839106094,0.00037641881337714,-0.00035964127652993,0.00035901036434633,-0.00035968349688488,0.00036003936495379,-0.00037276769661719,0.00037317003326396,-0.00037123915548473,0.00037108484348408,-0.00035923814148179,0.00035879705132525,5.8039045054725e-07,1.8964184927607e-06,-0.00031435604754096,0.00031459063248633,4.145841887124e-07,-8.9769815758749e-08,-0.00030742043051876,0.00030799655093887,-0.00030785488720641,0.00030325350966465,-0.00030806157997016,0.00030735088889442,-0.00031058738836853,0.00032274524961123,-0.00030692795209808,0.0003084913952631,-0.00030736088950061,0.00030374691006609,-0.00030756854815278,0.00030784524305822,-0.00033467327164469,0.00033500428337703,-0.00033484122213882,0.0003348358047246,-0.00033480196084581,0.0003342188510408,-0.00033497039055477,0.00033405085723715,-0.00032874090420488,0.00033219002275755,-0.00032675805717604,0.00032774042406938,-0.00032659051786064,0.0003279091169309,-0.00032857227064724,0.0003323575919169,-0.00031108203724845,0.00032225264594772,0.70344890353241,128566,2924,0.0011832414593849,0.0015481936897398,0.0013094466282329,17.511464302618,-9.9908285579058e-05,-9.9908285579058e-05,-9.9908285579058e-05,2165829.9075531,0.0040491090397617
18591759,0.25942022860077,0.0045084442650711,0.0014051276592009,0.0016230747642714,0.0014802418415988,-0.00029171640839704,0.00029099451361793,-1.8969822301233e-06,-8.9691525289518e-07,-2.6138902347309e-07,5.1490206902759e-08,-0.00018624362885549,0.00018171705420472,-0.00028577063830172,0.00028549654744848,-0.00028521438355155,0.00028896662821413,-0.00018838171208681,0.00018239973405455,-0.00018654779869266,0.00018141168652584,-0.00028607525658722,0.0002851894145327,-0.00028551902308836,0.00028865948686364,-0.00033700317513734,0.00033605457185799,-0.00033648041132208,0.00033715729811792,-0.00033689997965098,0.00033615939707521,-0.00033637715709213,0.00033726208427043,-0.00028230291159159,0.00027886389011287,-0.00028072344627338,0.00027781579417964,-0.00028240648055551,0.00027875975117247,-0.00028082715276925,0.00027771175200382,-0.0001880776425208,0.00018270504129147,1.3161750017372e-07,-1.7791386815605e-07,-2.8675311673284e-07,2.4249827855378e-07,-0.00038269195504322,0.00038264753384912,-0.00036924427891192,0.00036982192321724,-0.00038364063025677,0.00038372263199157,-0.00038357944673717,0.00038305370382889,-0.00038747587260124,0.00038735915408133,-0.00038739267277926,0.00038762921189886,-0.00038754520915705,0.00038722067303304,-0.00038751354999529,0.00038754228031195,-0.00036975894510896,0.00036909319772748,-0.00036979750254193,0.00037016797433271,-0.00038353701865615,0.00038397183045207,-0.00038195144687523,0.00038177855833742,-0.00036933373115722,0.00036887518846891,6.12363907876e-07,1.9843205674617e-06,-0.00032238781003755,0.00032263373773513,4.3436976134412e-07,-9.5255935362679e-08,-0.00031499680940634,0.00031560642665138,-0.00031583127539158,0.00031102185518547,-0.00031604700204399,0.00031530518058883,-0.00031830770399411,0.0003310059137211,-0.00031447961390384,0.00031612604585669,-0.00031531252823004,0.00031153998355891,-0.00031552924044486,0.00031582428066826,-0.00034362624748306,0.00034397683970956,-0.00034380262426028,0.00034379993469821,-0.00034376177292046,0.000343148570682,-0.0003439386361642,0.00034297215725788,-0.00033721626487694,0.000340823607471,-0.00033513510991961,0.00033617278172796,-0.00033495915803486,0.00033634991565009,-0.00033703919447292,0.00034099959290718,-0.0003188271207693,0.00033048858742613,0.6893200621447,128566,2924,0.0012133380540556,0.0015931439429182,0.0013428909641299,17.2636438369,-0.0001018908493048,-0.0001018908493048,-0.0001018908493048,2208320.5686787,0.0041580497580387
18791759,0.26660038235363,0.0046288595325428,0.0014411741688647,0.0016688469282624,0.0015188384354157,-0.00029918847765296,0.00029844869490898,-1.9781936468857e-06,-9.2563269143439e-07,-2.729350026399e-07,6.7012268316441e-08,-0.00019019355575978,0.00018545586931195,-0.00029325608839951,0.00029299146056659,-0.00029267085978816,0.00029662705065913,-0.00019245170947377,0.00018619637173161,-0.000190524185041,0.00018512401971494,-0.00029358715437121,0.00029265778580681,-0.00029300195973108,0.00029629337583659,-0.00034603270486782,0.00034504850765409,-0.00034548280309998,0.0003462062544346,-0.00034592051985038,0.00034516237499941,-0.00034537055588187,0.00034632008035121,-0.00028971324111252,0.00028613071798066,-0.00028805343249032,0.00028501992144917,-0.00028982581355464,0.00028601755809737,-0.00028816614799234,0.00028490686064535,-0.00019212119702227,0.00018652816361198,1.4414579400666e-07,-1.9226979893925e-07,-2.9983488463169e-07,2.5389385255561e-07,-0.0003937002070223,0.00039365409498177,-0.00037971541763824,0.00038032434022082,-0.0003946582193237,0.00039475673711898,-0.00039460657221124,0.00039404451824321,-0.00039869839673409,0.00039858083598292,-0.00039861149958676,0.00039886353079586,-0.00039877501287935,0.00039843163805798,-0.0003987420508364,0.00039876827711602,-0.00038026306509013,0.00037956268434608,-0.00038030336480305,0.00038068712423688,-0.00039455038442467,0.00039501803817233,-0.00039289766572382,0.0003927047954569,-0.00037981238882092,0.00037933720466613,6.4523473248039e-07,2.0749275481071e-06,-0.00033062192320395,0.00033088130498019,4.5529340379066e-07,-9.8830651328104e-08,-0.00032319081704031,0.00032383667282109,-0.00032439763775154,0.00031937951765949,-0.00032462567115278,0.00032385580186722,-0.00032664566497321,0.00033991264312722,-0.00032264969564937,0.00032438031089123,-0.00032385490549067,0.00031992160473671,-0.00032408395654212,0.00032439889558542,-0.00035263169949998,0.0003530027583652,-0.00035281624182443,0.00035281767725447,-0.00035277394230846,0.00035213033070887,-0.00035295898429429,0.00035194575501597,-0.00034605879767564,0.00034978757984677,-0.00034387916201994,0.00034497573882708,-0.00034369506808597,0.00034516105886047,-0.0003458735483826,0.00034997171099027,-0.00032718907963557,0.00033937138407684,0.73043485701372,128566,2924,0.0012444049294994,0.0016389295028801,0.0013771805401355,17.026563786326,-0.00010378748970939,-0.00010378748970939,-0.00010378748970939,2238995.6295559,0.0042696632693566
18991759,0.27366233843818,0.0047494218981911,0.0014772137681453,0.0017147451306972,0.0015574629993486,-0.00030661060350138,0.00030584911805686,-2.0638672138404e-06,-9.5771960226728e-07,-2.8427328291337e-07,8.1375268143991e-08,-0.00019387400991859,0.00018892251372863,-0.00030082288121347,0.00030056332833982,-0.00030020800411598,0.00030437702659468,-0.00019625362581938,0.00018971595928738,-0.00019422978296934,0.00018856547975632,-0.00030117904455867,0.00030020440409206,-0.00030056421764901,0.00030401811545326,-0.00035502184058792,0.00035400005516766,-0.0003544438903636,0.00035521393850203,-0.00035490116222225,0.00035412250843236,-0.00035432314474196,0.00035533634639931,-0.0002972085918055,0.00029347513258671,-0.00029546500428828,0.00029229875679984,-0.00029732969806386,0.00029335341136035,-0.00029558626142919,0.00029217713808001,-0.00019589799092493,0.00019007294562804,1.5561842749902e-07,-2.0633940853637e-07,-3.1354908539814e-07,2.6515474405837e-07,-0.00040471399195543,0.00040466541603105,-0.00039025812852124,0.00039089759232029,-0.00040569802879066,0.00040581078452016,-0.00040565367620621,0.00040505567377821,-0.00040984801042649,0.00040972819799166,-0.0004097574412413,0.00041002388918486,-0.0004099313004162,0.00040956862621496,-0.00040989797145349,0.00040992156765178,-0.00039084075983414,0.00039010495267374,-0.00039088938263447,0.00039128661278364,-0.00040558539773983,0.000406083948824,-0.00040385228622716,0.00040364013132947,-0.00039036273198363,0.000389869194755,6.7996553501854e-07,2.1688961063655e-06,-0.00033880752986212,0.00033908204103816,4.7728215340617e-07,-1.018560883271e-07,-0.00033149867267512,0.0003321839585857,-0.0003329985929787,0.0003277603277815,-0.00033324116988276,0.00033244360226797,-0.0003351054269702,0.00034898935173993,-0.00033093313815033,0.00033275212336057,-0.0003324313784625,0.00032832688181613,-0.00033267501124326,0.00033301120371054,-0.00036154678047013,0.0003619395591678,-0.00036173965509173,0.00036174612361077,-0.00036169668492626,0.00036102195273379,-0.00036189007687652,0.00036082904083468,-0.00035495677671788,0.00035881190792719,-0.00035267480582986,0.0003538337947834,-0.00035248240131334,0.00035402747765573,-0.00035476317165697,0.00035900435522152,-0.00033567334146499,0.00034842366657135,0.7431876162462,128566,2924,0.0012752560283654,0.001684734008066,0.001411270658396,16.78990351418,-0.00010568077188656,-0.00010568077188656,-0.00010568077188656,2263371.2403222,0.0043808909991501
19191759,0.28083509252204,0.0048791678623153,0.0015159468927239,0.0017641263135645,0.0015990946560269,-0.00031524480392535,0.00031446138950511,-2.1548199192117e-06,-9.9338527827887e-07,-2.9284947272564e-07,9.7657772049957e-08,-0.00019869211451897,0.00019353207370238,-0.00030996088551776,0.00030970594492202,-0.00030931507193811,0.00031371495289169,-0.00020119729718028,0.00019435783689974,-0.00019907218699216,0.00019315070963494,-0.00031034128986614,0.00030932263767502,-0.00030969556612143,0.00031333165884715,-0.00036518152014198,0.00036412355324899,-0.00036457388297963,0.00036539657510496,-0.00036505262345367,0.00036425431356552,-0.00036444490779133,0.00036552729175951,-0.00030620405542973,0.00030231017248941,-0.00030437166287213,0.00030105352723396,-0.00030633340848778,0.00030218018347453,-0.00030450118837005,0.00030092362530632,-0.00020081743850699,0.00019473910723885,1.6679808195343e-07,-2.198376106046e-07,-3.2881913767039e-07,2.7823383575088e-07,-0.00041715418177527,0.00041710340709136,-0.00040238515673893,0.00040305843904275,-0.00041823213950233,0.00041835742446504,-0.00041818926416097,0.00041755531457518,-0.00042228469876006,0.00042216151258717,-0.00042218968798184,0.00042247166319395,-0.00042237333794241,0.0004219907753854,-0.00042233962609872,0.00042236224823601,-0.00040300969383308,0.00040223568784939,-0.00040307322916518,0.00040348779156061,-0.00041811320155606,0.00041864317336659,-0.00041627716698804,0.00041604799535455,-0.00040250026564084,0.00040198505315214,7.1687382827803e-07,2.2717601781223e-06,-0.0003482634355538,0.00034855561130852,5.0205247254372e-07,-1.0549441847919e-07,-0.00034151415730518,0.00034223984616578,-0.00034319038605683,0.00033771001828902,-0.00034345252067398,0.00034262418421232,-0.00034528161149309,0.00035985434293719,-0.00034092086402626,0.00034283589749734,-0.0003425953600481,0.00033830434812762,-0.00034285858043765,0.00034321963025239,-0.00037161181565867,0.0003720283075784,-0.00037181415448262,0.00037182538297718,-0.00037177006637261,0.0003710627879934,-0.00037197293891799,0.0003708604157699,-0.00036527725485886,0.00036927815190243,-0.00036288665342069,0.00036411098568562,-0.00036268480078897,0.00036431417810272,-0.00036507416577473,0.00036948003463478,-0.00034587733803076,0.00035926094169496,0.78534703076932,128566,2924,0.001311150748404,0.001736469534638,0.0014506502433319,16.952971106526,-0.00010437623114779,-0.00010437623114779,-0.00010437623114779,2288573.0199333,0.0045084673781077
19391759,0.2883244119641,0.0050117016729987,0.0015553739825353,0.001814846059349,0.0016414816311145,-0.00032472206839011,0.00032391548101747,-2.2538434823924e-06,-1.0335400577092e-06,-3.0038961125336e-07,1.1489596127777e-07,-0.00020353492505492,0.00019814554282334,-0.00031980696251864,0.00031956102135089,-0.00031912773659142,0.00032378528231116,-0.00020617445163496,0.00019900512758595,-0.00020393916525323,0.00019773997414126,-0.00032021154042893,0.00031915340467364,-0.00031953240734982,0.00032337769727131,-0.00037640643731155,0.00037531104559086,-0.00037576644218594,0.00037664750661583,-0.00037626933631543,0.00037545009069409,-0.00037562926289738,0.0003767865034336,-0.00031598722297059,0.00031191794180153,-0.00031405751917985,0.00031057927815161,-0.0003161248114629,0.00031177969806175,-0.00031419527553148,0.00031044113103937,-0.00020577040663747,0.00019941063276783,1.7792079814517e-07,-2.3329841414813e-07,-3.4568598252389e-07,2.9289483463034e-07,-0.00043078349199419,0.0004307305035544,-0.00041560996485388,0.00041632015055016,-0.00043200195700407,0.00043213859393955,-0.00043195568510124,0.00043128482272408,-0.00043587778019987,0.0004357501219506,-0.00043577760731852,0.0004360761276254,-0.00043597211499842,0.00043556862745853,-0.0004359378147953,0.00043596052407692,-0.0004162757353707,0.00041546044445281,-0.00041635885857595,0.00041679386891432,-0.0004318757992713,0.0004324381518823,-0.00042992123133638,0.00042967615782105,-0.00041573521161617,0.00041519515111993,7.5662942636537e-07,2.3851661839783e-06,-0.00035862935499735,0.00035894169825001,5.2874161560362e-07,-1.1035876369701e-07,-0.00035230704855148,0.00035307494518,-0.0003541041271176,0.00034835299765148,-0.0003543862593231,0.00035352223869821,-0.00035626235195833,0.00037158558219658,-0.00035168294283107,0.00035370193734664,-0.0003534781867112,0.00034897820400215,-0.00035376146298234,0.00035414860193134,-0.00038270293912411,0.00038314497453263,-0.00038291578464903,0.00038293152000436,-0.00038287042769061,0.00038212892058075,-0.00038308383273921,0.00038191603777547,-0.00037653443889422,0.00038071801711865,-0.00037402504511331,0.00037531855838057,-0.00037381270664634,0.00037553229200744,-0.00037632080118437,0.00038093039848614,-0.00035688903180421,0.00037096132725305,0.76951387730497,128566,2924,0.0013505516864104,0.0017931472019299,0.0014938193951548,17.466581258289,-0.00010026734993369,-0.00010026734993369,-0.00010026734993369,2323525.2385989,0.0046483556780503
19591759,0.29614258311155,0.0051466471983103,0.0015954249243239,0.0018667381079829,0.0016844841660035,-0.00033446498689892,0.00033363622047032,-2.3559146191213e-06,-1.074131229294e-06,-3.0719261088586e-07,1.3240209156632e-07,-0.00020839138357551,0.00020276635352142,-0.00032975151440892,0.00032951684986306,-0.00032903743899912,0.00033396397489461,-0.00021116947194386,0.00020366203782408,-0.00020881934997504,0.00020233701833223,-0.00033017980957857,0.00032908537708046,-0.00032946583034212,0.0003335325448218,-0.00038801415207041,0.00038688095428633,-0.00038734009781685,0.00038828285939388,-0.00038786901039452,0.00038702812606773,-0.00038719487720078,0.00038842998015895,-0.00032595121026287,0.00032169961982382,-0.00032391893507288,0.00032026269429348,-0.00032609687750718,0.00032155328046459,-0.00032406476794478,0.00032011645600439,-0.00021074169702483,0.00020409132075117,1.8872156467121e-07,-2.4661812535131e-07,-3.6339922040297e-07,3.0822238296583e-07,-0.00044482245134254,0.00044476706850367,-0.00042913339762627,0.00042988162782909,-0.00044617688657978,0.00044632374170193,-0.00044612590540641,0.0004454178943267,-0.0004499428773593,0.000449809902832,-0.00044983746217172,0.00045015269054982,-0.00045004327661653,0.00044961834021288,-0.00045000833174837,0.00045003161457571,-0.00042983831872985,0.00042898023834065,-0.00042993999245088,0.00043039691150271,-0.00044604314467356,0.00044663774409173,-0.00044396826181738,0.00044370806237528,-0.0004292672092207,0.0004287004869323,7.9836485336309e-07,2.5042185328567e-06,-0.00036923456971013,0.00036956758226888,5.5653759546406e-07,-1.156273602146e-07,-0.00036312574254711,0.00036393758972006,-0.00036510962021684,0.0003590793652326,-0.00036541209021986,0.0003645092114864,-0.00036727706161413,0.0003833618615265,-0.00036246933149197,0.00036459701346899,-0.00036445128913336,0.00035973692675343,-0.00036475495711063,0.00036516797596277,-0.00039414307978156,0.00039461144049646,-0.00039436693621068,0.00039438695157684,-0.00039431963887954,0.00039354146437987,-0.00039454407823854,0.00039331756767939,-0.00038800259799601,0.00039238099369187,-0.00038537012423401,0.00038673656346129,-0.0003851467911654,0.00038696134287174,-0.00038777791117083,0.00039260437424113,-0.00036793616776887,0.00038270527645789,0.75193871712511,128566,2924,0.0013910599523278,0.0018515240559823,0.00153798299938,17.989133799981,-9.6086929600148e-05,-9.6086929600148e-05,-9.6086929600148e-05,2365205.0699846,0.0047920834134728
19791759,0.30429661662617,0.00528352768695,0.0016359942649265,0.001919595206407,0.0017279382156165,-0.00034443584432621,0.00034358306912409,-2.4616450420067e-06,-1.1161171072092e-06,-3.1399487492152e-07,1.4882300289541e-07,-0.00021327556249103,0.00020740217884548,-0.00033974609162274,0.00033952167672355,-0.00033899555022831,0.00034420103669726,-0.00021619613289748,0.00020834379185591,-0.00021372623049795,0.00020695010320141,-0.00034019706177616,0.00033906739931953,-0.00033944662006149,0.00034374680663591,-0.00039995610493247,0.00039878110073731,-0.00039924617839588,0.00040025038619574,-0.00039980330617187,0.00039893603172472,-0.00039909329958757,0.00040040526514851,-0.00033608686658104,0.00033164335250706,-0.00033394695731858,0.00033009486472466,-0.00033624025168654,0.00033148928192674,-0.00033410050862734,0.00032994089693914,-0.00021574565901458,0.00020879581574856,1.9892220205513e-07,-2.5948392170121e-07,-3.8157665860045e-07,3.2385873335546e-07,-0.00045920259410904,0.00045914466093794,-0.00044287730980549,0.00044366382440238,-0.00046067280652091,0.000460828442754,-0.00046061628127378,0.0004598717440542,-0.00046443088855683,0.00046429181263731,-0.00046432034125825,0.00046465200840747,-0.00046453753952202,0.00046409110613543,-0.00046450233064768,0.00046452665608593,-0.00044361876314577,0.00044271734014735,-0.0004437347965031,0.00044421458526053,-0.00046053157042665,0.0004611574893093,-0.00045833464089851,0.00045806045364843,-0.00044301833467366,0.00044242368149735,8.4221823676087e-07,2.6295187028191e-06,-0.00038002085775596,0.00038037578400795,5.8538104366997e-07,-1.2062657486426e-07,-0.00037391271298049,0.00037477147416745,-0.00037616640376681,0.00036985315254346,-0.00037648917921464,0.00037554603826713,-0.00037825924048181,0.00039511405280051,-0.00037322321788842,0.00037546408890681,-0.00037547492808092,0.00037054383573534,-0.00037579894395435,0.00037623796594788,-0.00040588346595638,0.00040637940983136,-0.0004061185942194,0.00040614362705551,-0.00040606884283886,0.00040525227983084,-0.00040630457295936,0.00040501710764485,-0.00039960027924966,0.00040418505172419,-0.00039683985924041,0.00039828350343046,-0.00039660526070566,0.00039851958266853,-0.00039936428810429,0.0004044196926857,-0.00037895152526615,0.00039442437089166,0.73294776588205,128566,2924,0.001432512677077,0.0019113149400936,0.0015829002559329,18.512036220324,-9.190371023741e-05,-9.190371023741e-05,-9.190371023741e-05,2411232.3178652,0.0049389600635483
19991759,0.31256030688911,0.0054251675857224,0.0016779387891493,0.0019743603752575,0.0017728684213156,-0.00035405086960261,0.00035317741679297,-2.5677834575476e-06,-1.1576946039173e-06,-3.1640376669716e-07,1.670168337186e-07,-0.00021800134610859,0.00021187092297208,-0.00034950771448886,0.00034929570907919,-0.00034871961480633,0.00035421823444058,-0.00022106559900021,0.00021286935720312,-0.00021847210060318,0.00021139872031743,-0.00034997876545221,0.00034882120584623,-0.00034919076584379,0.00035374379064017,-0.00041146058798921,0.00041024846858482,-0.00041071333817627,0.00041178652338723,-0.00041130100303173,0.00041041029288128,-0.00041055367359083,0.00041194829209672,-0.00034609384593953,0.00034145696257423,-0.00034384256497896,0.00033976005074191,-0.00034625407734222,0.0003412960339113,-0.00034400295441384,0.0003395992306687,-0.00022059502106262,0.00021334153029982,2.0777116006763e-07,-2.7105575008338e-07,-4.0009003156326e-07,3.3977320251456e-07,-0.00047320928094773,0.0004731487385367,-0.00045630356127566,0.00045712803294278,-0.00047481248369884,0.00047497402257425,-0.00047474445531415,0.0004739657307046,-0.00047853470305351,0.00047838839742973,-0.00047841918074274,0.00047876656645709,-0.00047864651396794,0.00047817919248001,-0.00047861173918928,0.00047863812057682,-0.00045708261992298,0.00045613807272303,-0.00045721363806125,0.000457717716162,-0.00047466340117203,0.00047531817797305,-0.00047233069338809,0.00047204526067349,-0.00045645230982545,0.00045582818684583,8.8835079223648e-07,2.7594468297685e-06,-0.00039036694495204,0.00039074537824779,6.1582536058707e-07,-1.2463579076645e-07,-0.0003844011914389,0.00038530969309341,-0.00038695869989471,0.00038036094364859,-0.00038730422490291,0.00038632178008156,-0.00038894276877127,0.00040659225456165,-0.00038367804104359,0.0003860361063313,-0.00038623347014315,0.00038108534277421,-0.0003865802997676,0.00038704747499203,-0.0004171554559555,0.00041768105186452,-0.00041740205500707,0.00041743376954273,-0.00041734952542033,0.00041649352620641,-0.00041759675369765,0.00041624687741849,-0.00041081133662308,0.00041558659295993,-0.00040791821459636,0.00040944508001822,-0.00040767215879258,0.00040969266898455,-0.00041056382630319,0.00041583269505072,-0.00038966885226485,0.00040586888331612,0.74869675452854,128566,2924,0.0014724916617747,0.0019695479756631,0.0016259874018167,18.674501373218,-9.0603989014252e-05,-9.0603989014252e-05,-9.0603989014252e-05,2449022.9773343,0.0050809713413249
20191759,0.32080843470902,0.0055697415608558,0.0017207226017969,0.0020303264889296,0.0018186924701293,-0.0003634577958813,0.00036256646481796,-2.6763397986787e-06,-1.1921364694617e-06,-3.1528756555552e-07,1.86361490343e-07,-0.00022241310212197,0.00021600929828312,-0.00035920162175984,0.00035900427916309,-0.00035837508885336,0.00036418059433929,-0.00022562144419697,0.00021707439935503,-0.00022290163728219,0.00021551926928525,-0.00035969042430395,0.00035851187401131,-0.00035886399983708,0.00036368825555023,-0.00042272240969267,0.00042147544644519,-0.00042193683232948,0.0004230832356411,-0.00042255682440659,0.00042164336940075,-0.00042177116673229,0.000423251103698,-0.00035613915293086,0.0003513031842658,-0.00035377332483634,0.00034946480778105,-0.00035630543879956,0.00035113619239821,-0.0003539397666695,0.00034929792001429,-0.00022513309201586,0.00021756439071016,2.1548441769464e-07,-2.8140289108219e-07,-4.1890115715434e-07,3.5606951887609e-07,-0.0004870380384709,0.00048697497026172,-0.00046962807975795,0.00047049046885263,-0.0004888115438,0.00048897652896773,-0.00048872674846107,0.00048791600435045,-0.00049238719625772,0.00049223273234292,-0.00049226679027577,0.0004926294052559,-0.00049250350937469,0.00049201595304585,-0.00049246867165574,0.00049249820722333,-0.00047044657932753,0.00046945910639807,-0.0004705989174466,0.00047112882977546,-0.00048865435628193,0.00048933597352506,-0.00048617178312311,0.00048587773318717,-0.00046978491462839,0.0004691299523254,9.3645615278467e-07,2.8984059869496e-06,-0.0004004536345405,0.00040085594070998,6.4825400246244e-07,-1.273447426971e-07,-0.00039479367286492,0.000395754396987,-0.0003976237555033,0.00039073238092303,-0.00039799546205498,0.00039697455345831,-0.00039953756841819,0.00041804188230814,-0.00039403617698645,0.00039651530347269,-0.00039686410022697,0.00039149116763204,-0.00039723716686976,0.0003977346954859,-0.00042813573954666,0.00042869261882006,-0.00042839403784005,0.00042843361121465,-0.00042833857355606,0.00042744313505834,-0.0004285975241261,0.00042718478469277,-0.00042186873389331,0.00042682228308374,-0.00041883757486696,0.00042045173866152,-0.00041857982659121,0.00042071106888266,-0.00042160948043153,0.00042708007131166,-0.00040029811574262,0.00041728415024037,0.76566000392574,128566,2924,0.0015116112496139,0.0020270365266336,0.0016679942813118,18.643333594941,-9.0853331240467e-05,-9.0853331240467e-05,-9.0853331240467e-05,2478027.4042775,0.0052203042109979
20391759,0.32903599540739,0.0057150307288645,0.001763700815361,0.0020866758815218,0.0018646540319817,-0.00037287727089009,0.00037196943095856,-2.7868502681921e-06,-1.2221526381654e-06,-3.1075491746132e-07,2.0637327704494e-07,-0.00022662063434218,0.00021993763784507,-0.00036896117032637,0.00036877756748147,-0.00036809479726856,0.00037422193852936,-0.00022997435326209,0.00022106694011623,-0.00022712429136015,0.00021943244333223,-0.00036946504509572,0.00036826994327276,-0.0003685987850443,0.00037371438238763,-0.00043402759834855,0.00043274804638401,-0.00043320278300544,0.00043442772937366,-0.00043385693113073,0.00043292114672171,-0.00043303203633143,0.00043460077645199,-0.00036626688357442,0.00036122789720062,-0.00036378352940681,0.00035925094942984,-0.00036643831288652,0.00036105575895034,-0.00036395510892165,0.0003590789078282,-0.00022947087934435,0.00022157208780091,2.2190874463498e-07,-2.9032280852696e-07,-4.3787139537901e-07,3.7265313623278e-07,-0.00050095045720094,0.0005008849905848,-0.0004830655523326,0.00048396551620037,-0.00050292220150129,0.00050308795219731,-0.00050281854605671,0.00050197842926183,-0.00050626869789616,0.00050610513797942,-0.0005061436703709,0.00050652086410354,-0.00050638893911961,0.00050588205148452,-0.00050635290677205,0.00050638678676595,-0.00048392414339268,0.00048289434446092,-0.00048410064693754,0.00048465787115745,-0.00050275742188766,0.00050346349246278,-0.00050011281150028,0.00049981308096793,-0.00048322964204704,0.00048254261717651,9.862332263869e-07,3.0382102491272e-06,-0.00041052700065156,0.00041095771256246,6.8288425623465e-07,-1.2828960736182e-07,-0.00040518785851513,0.00040620324933616,-0.00040827470638006,0.00040108159856709,-0.00040867507250879,0.00040761587058035,-0.000410140812955,0.00042954741033535,-0.0004043955676959,0.00040699907799812,-0.00040748019455805,0.0004018752114325,-0.00040788196904168,0.000408410889809,-0.00043911401076933,0.00043970308038766,-0.00043938415493662,0.00043943220645845,-0.00043932520332476,0.00043838975603697,-0.0004395960179202,0.00043811955769689,-0.00043299129336795,0.00043814682197357,-0.00042982176845908,0.00043152607978337,-0.00042955217505246,0.00043179729004825,-0.00043272015489198,0.00043841644749758,-0.00041093625578008,0.00042875486974393,0.77157339074324,128566,2924,0.0015507862922665,0.0020848686649222,0.0017099534102653,18.607177477316,-9.1142580181471e-05,-9.1142580181471e-05,-9.1142580181471e-05,2504375.2058927,0.0053600096618363
20591759,0.33724070489112,0.0058473962111362,0.0018028942048932,0.0021383255845785,0.0019061764216645,-0.00038167129661342,0.0003807524232535,-2.8950505740221e-06,-1.2474929485569e-06,-3.0279353146746e-07,2.2268533800077e-07,-0.00022976882519387,0.00022280268712672,-0.00037750918463346,0.00037733787350173,-0.00037660238693574,0.00038304624932604,-0.00023326260582108,0.00022400958209569,-0.00023028064837435,0.00022228929317026,-0.00037802117904921,0.00037682202368753,-0.00037711448248518,0.00038253045648385,-0.00044490772951938,0.0004435986125629,-0.00044404346591748,0.00044535137855841,-0.00044473433937613,0.00044377450955923,-0.00044387000013589,0.00044552722587177,-0.00037534419241545,0.00037010304040935,-0.00037274230258265,0.00036801760318066,-0.00037551839737816,0.000369928128423,-0.00037291664865435,0.00036784278045356,-0.00023275095010477,0.00022452291087123,2.2493827507088e-07,-2.9555681985512e-07,-4.5616058588915e-07,3.8881417011547e-07,-0.00051414882101803,0.0005140812161333,-0.00049550008280346,0.00049643442654234,-0.00051624891050947,0.00051640911960005,-0.00051612511049958,0.00051526322154553,-0.00051961840623438,0.00051944400507424,-0.00051948898869132,0.00051987828141549,-0.00051974132317748,0.00051921809668076,-0.0005197029032382,0.00051974338371692,-0.00049638869244833,0.00049532027701414,-0.00049657491995692,0.00049716099582973,-0.00051607772540838,0.00051680119787811,-0.00051328560470118,0.00051298704656656,-0.00049566778177312,0.00049494766657862,1.035541571131e-06,3.1791895486388e-06,-0.00041986177207339,0.00042031867189162,7.1632990501018e-07,-1.2930286418973e-07,-0.00041407902402471,0.00041514847139753,-0.00041762933947809,0.00041014654716101,-0.00041805431361741,0.00041695569192729,-0.0004192378669031,0.00043948975983569,-0.00041325300574084,0.00041597811740251,-0.00041680106412519,0.00041097390235087,-0.00041722748557741,0.00041778449023179,-0.00044961638971986,0.00045023703410299,-0.00044989801032312,0.00044995466969499,-0.00044983452047946,0.00044885917961202,-0.00045011682471361,0.00044857750328909,-0.00044314524891698,0.0004485097650842,-0.00043983992665078,0.00044163399779665,-0.00043955885105691,0.00044191670529409,-0.00044286260141791,0.00044879086244785,-0.00042006711406853,0.00043866347873789,0.70761958052311,128566,2924,0.0015873704556752,0.002139728025654,0.0017488336402394,18.570825827863,-9.1433393377099e-05,-9.1433393377099e-05,-9.1433393377099e-05,2536139.1369488,0.0054910467390368
20791759,0.34501286336239,0.0059798836246412,0.0018421632839436,0.0021899028781381,0.0019478174625595,-0.000389197880293,0.00038827585010318,-2.9936123341239e-06,-1.2663993556909e-06,-2.8888575988696e-07,2.3856719690254e-07,-0.00023279715833497,0.00022556053911994,-0.00038515751692367,0.00038500010084375,-0.00038421298576069,0.00039096251124954,-0.00023641604617487,0.00022685795084309,-0.00023331091699336,0.00022504518944534,-0.00038567137043601,0.00038448227613307,-0.00038472695172735,0.00039044473572258,-0.00045415416836115,0.00045282322735381,-0.00045325289151678,0.0004546466028679,-0.00045398017652096,0.00045299979542666,-0.00045307882186737,0.00045482312487871,-0.00038337193502259,0.00037794496628372,-0.00038065974968785,0.0003757554293128,-0.0003835467865713,0.00037776940890009,-0.00038083474509499,0.00037557994764308,-0.00023590248112939,0.00022737320493265,2.2490166417155e-07,-2.974979649646e-07,-4.7279354815961e-07,4.0352969716763e-07,-0.00052564656977038,0.00052557703650918,-0.00050644738128674,0.00050741115446235,-0.00052787087778536,0.00052802054510685,-0.00052771573428605,0.00052683954997001,-0.00053124741725101,0.00053106129232034,-0.00053111411064413,0.00053151255855239,-0.0005313700046619,0.00053083379771881,-0.00053133018559266,0.00053137856935112,-0.00050736580987075,0.00050626414152179,-0.00050755842195183,0.00050817264566766,-0.00052769360510885,0.00052842741571816,-0.00052474365685012,0.00052445169997588,-0.00050661950243623,0.00050586742997971,1.0819870471187e-06,3.3075233404593e-06,-0.00042777252013838,0.00042825173165815,7.4675028670389e-07,-1.3025150222224e-07,-0.00042191982977106,0.00042304178354442,-0.00042593047955031,0.00041818563795957,-0.00042638380036213,0.0004252500820654,-0.00042725430004732,0.00044829834585505,-0.00042106311767124,0.00042390222160541,-0.0004250714786232,0.00041904369586127,-0.00042552628083916,0.00042610963391639,-0.00045847355879728,0.00045912401227983,-0.00045876562921706,0.00045883118400919,-0.00045869785290844,0.00045768520026554,-0.00045899061724553,0.00045739307551714,-0.00045187810582323,0.00045740279778468,-0.00044844696031016,0.00045032614868866,-0.00044815542975087,0.0004506193263534,-0.0004515849869185,0.00045769433356101,-0.00042811429385525,0.00044744138406828,0.74689073069508,128566,2924,0.0016186958935074,0.0021875148094632,0.0017817816951972,17.865758063497,-9.7073935492021e-05,-9.7073935492021e-05,-9.7073935492021e-05,2555803.7492728,0.0056037329803813
20991759,0.35225964923771,0.0060989438230341,0.0018775056240006,0.0022363684251272,0.0019850697739063,-0.00039550417688271,0.00039457812521774,-3.0895298850381e-06,-1.2847416452317e-06,-2.7567260673879e-07,2.4843371130281e-07,-0.00023443964819371,0.00022692338195242,-0.00039141800833945,0.00039125156840335,-0.00039043697170234,0.00039745807523703,-0.00023817332962914,0.00022832294547833,-0.00023495010506937,0.00022641132868994,-0.00039192854143168,0.0003907369933737,-0.00039094760935961,0.00039694355330256,-0.00046219006175219,0.00046083915673748,-0.00046125306962713,0.00046273101814046,-0.00046201721980437,0.00046101462301289,-0.00046108015244809,0.00046290643726016,-0.00038999723373289,0.00038438032580673,-0.00038717236132524,0.00038213293426923,-0.00039017096757874,0.00038420588967709,-0.00038734623355512,0.00038195857205833,-0.0002376630447113,0.00022883491756717,2.2248372242241e-07,-2.9653134411209e-07,-4.8839617801189e-07,4.1770412325938e-07,-0.00053567498830347,0.00053560402029966,-0.00051588518522056,0.00051687556955059,-0.0005379817063021,0.0005381166545842,-0.00053780484339237,0.00053692060873962,-0.00054141998732566,0.00054122138228487,-0.00054128288623463,0.00054168869600117,-0.00054154094015489,0.0005409945258731,-0.00054149930428588,0.00054155731903247,-0.00051682709665972,0.00051569598012367,-0.00051702630931457,0.00051766938964594,-0.00053779881806612,0.00053853775441824,-0.00053471247114812,0.00053443230017066,-0.00051606101516952,0.00051527723721751,1.1266096599857e-06,3.4247086661419e-06,-0.00043439018166076,0.00043488876392636,7.7510431048363e-07,-1.3169672928885e-07,-0.00042820519254511,0.00042937833279454,-0.00043267613943926,0.00042467910616361,-0.00043315233169502,0.00043198524648904,-0.00043372280481499,0.00045552028535547,-0.00042731933386608,0.00043026798847688,-0.00043178794571753,0.00042556633457835,-0.00043226566132977,0.00043287399717729,-0.0004660744255102,0.00046675345834095,-0.00046637642253188,0.00046645069255643,-0.00046630501853482,0.00046525692091748,-0.00046660772223624,0.00046495486712055,-0.00045922317788954,0.00046492744632766,-0.00045568669299459,0.00045763613170925,-0.00045538522580465,0.00045793924447637,-0.00045892011216606,0.00046522890761086,-0.00043461202334068,0.00045463415018094,0.72120224373577,128566,2924,0.0016449424716665,0.0022291916664867,0.0018093445881719,16.958228138882,-0.00010433417488894,-0.00010433417488894,-0.00010433417488894,2568158.9727498,0.0056997640807285
21191759,0.35901061781642,0.0062102539893346,0.0019106165847755,0.0022797837189851,0.002019853685574,-0.00040131351606855,0.00040037016828022,-3.1866769931412e-06,-1.3106810116573e-06,-2.6674131213294e-07,2.4803588692364e-07,-0.0002361272490546,0.00022833357279079,-0.00039722925757594,0.00039703826205729,-0.00039621398852115,0.00040347407141658,-0.00023996238920407,0.00022983217819877,-0.00023662867741907,0.00022783054529333,-0.00039773066485265,0.00039653274128047,-0.00039671549722763,0.00040296860008659,-0.00046955430400568,0.00046817169018472,-0.00046858356834539,0.00047012842504377,-0.0004693846088502,0.00046834403976865,-0.00046841379921121,0.00047030072927293,-0.00039608363223273,0.0003902814998293,-0.00039315791617792,0.00038800932220202,-0.00039625425762919,0.00039011017884582,-0.00039332867606697,0.00038783807056817,-0.00023946112881364,0.00023033511881748,2.173172517578e-07,-2.9245154380479e-07,-5.034759734362e-07,4.3170437655651e-07,-0.00054486302587265,0.00054479097125978,-0.0005245309309445,0.00052554561786474,-0.00054723946437409,0.00054735454967084,-0.00054703277487648,0.00054614680643927,-0.00055076213220115,0.00055054962502154,-0.0005506210409065,0.00055103232021172,-0.00055087964384758,0.00055032560710171,-0.00055083610980407,0.00055090587243329,-0.00052549340675912,0.00052433584030518,-0.00052569491840898,0.00052636849799487,-0.00054705089452792,0.00054778934148812,-0.00054382726031575,0.00054356473000026,-0.00052471108039695,0.00052389465375612,1.1687670192087e-06,3.5341503655274e-06,-0.00044041076784333,0.00044092876891547,8.0138108872582e-07,-1.3451721494151e-07,-0.00043392736155084,0.00043514668394474,-0.00043887210811345,0.0004306416930749,-0.00043936882423358,0.0004381690817826,-0.00043961074451085,0.00046209039285126,-0.0004330129916944,0.00043606484175301,-0.0004379554283569,0.00043155742436725,-0.00043845366406015,0.00043908632983843,-0.00047299314997984,0.00047369973478971,-0.00047330484992464,0.00047338727554334,-0.00047323103271038,0.00047214993982024,-0.00047354343036914,0.00047183818304519,-0.00046587652438275,0.00047179935274412,-0.00046223326418685,0.00046425649573883,-0.00046192207992921,0.00046456929298026,-0.00046556376566957,0.00047211052115743,-0.00044052845586978,0.00046117573728945,0.72387546826064,128566,2924,0.0016690924460981,0.0022673742095781,0.0018344237142356,16.04538054039,-0.00011163695567688,-0.00011163695567688,-0.00011163695567688,2579600.7122227,0.0057876823674173
21391759,0.36539128000309,0.0063158974263734,0.0019420945937275,0.0023209704487012,0.0020528323839446,-0.00040708846642303,0.00040612098766946,-3.2842838948382e-06,-1.3379661268446e-06,-2.5964638803272e-07,2.4077264214592e-07,-0.00023794371384377,0.00022986699136803,-0.00040306479339118,0.00040282826749436,-0.00040201660116401,0.00040948682567706,-0.00024187105984108,0.00023145976654099,-0.00023843104768594,0.00022937806391204,-0.00040355210399628,0.00040233682130156,-0.00040250400732618,0.00040899542368692,-0.0004767979038365,0.00047538639314835,-0.0004757946420082,0.00047740488200618,-0.00047663299906184,0.00047555396863642,-0.00047562966597049,0.00047757241468491,-0.00040215257415256,0.00039616499178008,-0.00039912913654731,0.0003938854953689,-0.00040231842594268,0.00039599845747189,-0.00039929511461404,0.0003937190254118,-0.00024138388316862,0.00023194860181831,2.0981269347994e-07,-2.8559768810216e-07,-5.1791086584329e-07,4.4545269351946e-07,-0.00055384466716315,0.00055377192342563,-0.00053301904569337,0.0005340558596715,-0.00055627731535726,0.00055636819007398,-0.00055604922732795,0.00055516728818828,-0.00055986890145708,0.00055964153746615,-0.00055972385988648,0.00056013904820183,-0.00055998058730987,0.00055942127257868,-0.00055993501800363,0.00056001826696397,-0.00053399953239659,0.00053281847374614,-0.00053420108689048,0.0005349063712411,-0.0005560830318949,0.00055681604092753,-0.00055273311139584,0.00055249338251986,-0.00053320431065669,0.00053235481044427,1.2092812307555e-06,3.6398077261786e-06,-0.00044635597349159,0.00044689398872079,8.2735053821522e-07,-1.3674538854655e-07,-0.00043961588618037,0.00044087932331889,-0.00044501298287867,0.00043656016660763,-0.00044552564836332,0.00044429520155949,-0.0004454795171252,0.00046862041251852,-0.00043867390249559,0.00044182513457151,-0.00044406867406943,0.00043750350664558,-0.00044458288686933,0.00044524008305926,-0.00047978561242622,0.00048051908458778,-0.00048010670598336,0.00048019722580932,-0.00048003158307041,0.00047891956875299,-0.00048035338176534,0.00047859841885298,-0.0004724429690508,0.00047860307032518,-0.00046869354839716,0.00047078820536521,-0.00046837296095059,0.00047111039950562,-0.00047212080515832,0.00047892363275498,-0.00044642487539303,0.00046767813672198,0.72692810478293,128566,2924,0.0016930843988241,0.0023046981392307,0.0018591900889337,15.323254432698,-0.00011741396453841,-0.00011741396453841,-0.00011741396453841,2590722.9185975,0.0058742709557155
21591759,0.37144731316596,0.0064170641593069,0.0019722742653194,0.0023603967288641,0.0020843931651234,-0.00041265280423172,0.00041165675821596,-3.3819675210463e-06,-1.3671844124286e-06,-2.5585646028207e-07,2.2841067541426e-07,-0.00023971273820429,0.00023135621461309,-0.00040874840983489,0.00040846192157661,-0.00040766832234238,0.00041533673144799,-0.00024372659685647,0.00023303430848909,-0.00024018420645291,0.00023088316918349,-0.00040921986007287,0.00040798631948315,-0.00040813986758591,0.00041486117094501,-0.00048375270421341,0.00048230865164545,-0.00048271865694268,0.00048438795136642,-0.00048359317845679,0.00048247085514513,-0.00048255905984317,0.00048455011352798,-0.00040802255698259,0.00040185109792709,-0.00040490672369718,0.00039956749811178,-0.00040818304069663,0.00040168994466379,-0.00040506732863069,0.00039940640889264,-0.0002432552830487,0.00023350725321256,2.0153946070106e-07,-2.7770283662652e-07,-5.3143906490574e-07,4.5856127880794e-07,-0.00056246608343879,0.00056239292249003,-0.00054120010607758,0.00054225719552372,-0.00056495577958135,0.00056502147940365,-0.00056470550300304,0.00056383015133049,-0.00056858491585545,0.00056834288085811,-0.00056843625850231,0.00056885451706496,-0.00056869009181061,0.00056812687321321,-0.00056864195187067,0.00056873903801275,-0.00054219754471619,0.00054099537609924,-0.00054239874174355,0.0005431350825339,-0.00056475677582883,0.00056548235505843,-0.00056127887349832,0.00056106347907033,-0.00054138985033089,0.00054050845833695,1.2475693652663e-06,3.739194101379e-06,-0.00045205952741629,0.00045261553163816,8.5217226759731e-07,-1.3857781578466e-07,-0.00044511499471644,0.000446420430674,-0.00045094248263429,0.00044227453108984,-0.00045146961281075,0.00045020957973188,-0.0004511601362255,0.00047495127457329,-0.0004441469024834,0.00044739236447808,-0.00044997205935462,0.00044324396024969,-0.00045050076023208,0.00045118057380617,-0.00048628362814757,0.00048704203347522,-0.00048661360326319,0.00048671128892964,-0.00048653828809696,0.00048539645591087,-0.00048686897521906,0.00048506642699002,-0.0004787605922386,0.00048513973095092,-0.00047490580917964,0.00047706818270429,-0.00047457632949084,0.00047739925820582,-0.00047842953782671,0.00048546917864007,-0.00045213162468566,0.00047398290318788,0.73328392976112,128566,2924,0.0017161901399146,0.0023405239586308,0.0018829468481156,14.658039204345,-0.00012273568636524,-0.00012273568636524,-0.00012273568636524,2599950.5871945,0.005957452566369
21791759,0.37719469445937,0.0065116855215361,0.0020005378266869,0.0023973058098479,0.0021138418850013,-0.00041780185418976,0.00041677691269467,-3.4761182251004e-06,-1.394154745506e-06,-2.5768491978289e-07,2.1325332608572e-07,-0.00024113912789037,0.00023252235673259,-0.00041395803856253,0.00041361783252137,-0.00041284679254847,0.00042070333939685,-0.00024523985828122,0.00023427279681217,-0.00024159740637608,0.00023206251681765,-0.00041441636223269,0.00041315536178378,-0.00041330520685077,0.00042024090623541,-0.0004902557437715,0.00048878050677926,-0.00048919167259609,0.00049091808568695,-0.00049010063872087,0.00048893828931779,-0.00048903649933084,0.00049107582865693,-0.00041341901366511,0.00040707435228825,-0.00041021262202824,0.00040474826222404,-0.00041357507209825,0.00040691763906496,-0.00041036879376201,0.00040459160590259,-0.00024478172727478,0.00023473252678239,1.9467954787383e-07,-2.71138603112e-07,-5.4437921709577e-07,4.7117352488915e-07,-0.0005705159979311,0.00057044250829876,-0.00054880967900923,0.00054988700032747,-0.00057305872593183,0.00057310239193692,-0.00057279254603513,0.00057192156270047,-0.00057673463672731,0.00057647933611787,-0.00057658262667583,0.00057700463431959,-0.00057683416998546,0.00057626655316803,-0.00057678311844972,0.00057689282080346,-0.00054982148569811,0.00054859843229881,-0.00055002088247987,0.00055078638253365,-0.00057285539518254,0.000573575960028,-0.00056925757060279,0.00056906356623613,-0.00054900310797828,0.00054809190228638,1.2851650257805e-06,3.8353371176928e-06,-0.00045731421466222,0.00045788860679122,8.7649900564027e-07,-1.3981663519967e-07,-0.00045008203949399,0.00045142919995948,-0.00045634484250122,0.00044747144355528,-0.00045688243608659,0.00045559460441103,-0.00045631322147829,0.00048072987335532,-0.00044908892123697,0.00045242621545194,-0.00045534935454152,0.0004484658864661,-0.00045588856392816,0.00045659065539491,-0.00049232679113556,0.0004931099332087,-0.00049266527812133,0.00049277066126667,-0.00049259063298785,0.00049142038418975,-0.00049292985083724,0.00049108184598939,-0.00048458860808991,0.00049113884465865,-0.0004806337626008,0.00048286257632793,-0.00048029576701475,0.00048320218338205,-0.00048424901378068,0.00049147679991285,-0.0004573098014763,0.00047973648660286,0.72318902418634,128566,2924,0.0017375668288036,0.0023739732331535,0.0019048372887174,13.994319625849,-0.00012804544299321,-0.00012804544299321,-0.00012804544299321,2608099.3031856,0.006034633251521
21991759,0.3829927463589,0.0066056461285009,0.0020286445657543,0.0024339822704654,0.0021430192922812,-0.00042435783402164,0.00042329843908853,-3.573620260679e-06,-1.4270061760397e-06,-2.6277303040447e-07,2.0465040323268e-07,-0.00024386605044291,0.0002349932813514,-0.00042053541858566,0.00042014496868379,-0.00041939283280129,0.00042744282911026,-0.00024806375287304,0.0002367968841474,-0.00024432078841354,0.00023453698574197,-0.0004209902317581,0.00041968597725599,-0.000419847734111,0.00042698387084918,-0.00049822689887676,0.00049671373907782,-0.00049713318192486,0.00049891146144955,-0.00049807295975778,0.00049687037019713,-0.00049697917493052,0.00049906805548307,-0.0004201647332476,0.00041364951804859,-0.00041686879679965,0.00041131139359715,-0.00042031963013057,0.00041349397463323,-0.00041702380284851,0.00041115589999193,-0.00024760916726934,0.00023725305315978,1.9257030033357e-07,-2.6963718095594e-07,-5.5753673135118e-07,4.8373011943463e-07,-0.00058006196030823,0.00057998786608612,-0.00055787415181126,0.00055897486145045,-0.00058266098861089,0.00058269190868761,-0.00058238263537783,0.00058150603578634,-0.00058639258135542,0.00058612694844701,-0.00058623731124614,0.00058666611119279,-0.00058648945721335,0.00058591385192665,-0.00058643470816995,0.00058655354820908,-0.00055890223501318,0.00055765459604662,-0.00055909525920861,0.00055988653401663,-0.00058245400583577,0.00058317894998224,-0.0005787390112698,0.00057855652307587,-0.00055807051471753,0.00055713233992424,1.3215638772728e-06,3.9353680589231e-06,-0.00046400417010239,0.00046459662950118,9.0061030490427e-07,-1.4143000189241e-07,-0.00045644077734974,0.00045782755618168,-0.00046314878585841,0.00045406934293244,-0.00046369513360692,0.00046237735188009,-0.00046287781390615,0.00048790301903493,-0.00045542248419774,0.00045884981398891,-0.00046212808554152,0.00045508895661715,-0.0004626760925406,0.00046339862037648,-0.00049983342505425,0.00050063993959884,-0.00050018047704383,0.00050029208504893,-0.00050010701583748,0.00049890871683791,-0.0005004548164271,0.00049856161489034,-0.00049186012540465,0.00049857081119359,-0.0004878062607302,0.0004900993778224,-0.00048745969713469,0.00049044757328229,-0.0004915119402144,0.00049891732511966,-0.00046389963447438,0.00048688446707851,0.71247115205788,128566,2924,0.0017647843958579,0.0024136388130263,0.0019326950851626,14.108774122209,-0.00012712980702233,-0.00012712980702233,-0.00012712980702233,2629976.9853044,0.0061299551631194
22191759,0.38894525847115,0.0067004394322193,0.0020570148590937,0.0024710435942781,0.0021723809788475,-0.00043141643748945,0.00043032221592004,-3.6718220219487e-06,-1.4554282504852e-06,-2.6985448816634e-07,2.0140395551034e-07,-0.00024697069763766,0.00023785849072851,-0.00042754595856249,0.00042711430974603,-0.00042637190226503,0.00043462945597756,-0.00025127334899592,0.00023969850029766,-0.00024742916734668,0.00023739846791553,-0.00042800450428417,0.00042665155327862,-0.00042683053437418,0.00043416673614272,-0.00050676966040498,0.00050521424876204,-0.00050564638357233,0.00050747200661903,-0.00050661446461866,0.00050537216926633,-0.00050549111840334,0.00050762988987016,-0.00042737118692161,0.00042068997937994,-0.00042398848697334,0.00041831077778721,-0.00042752736228719,0.00042053316122136,-0.00042414476674594,0.00041815400715953,-0.00025081504011695,0.0002401583909548,1.9400436465533e-07,-2.7197623317692e-07,-5.702617881842e-07,4.9557418009994e-07,-0.00059019631588801,0.00059012134006255,-0.00056746844406727,0.00056859359121338,-0.00059283530550028,0.00059286083281566,-0.00059255107556347,0.00059166169495064,-0.00059667503130493,0.00059640159593511,-0.00059651707807383,0.00059695444930353,-0.00059677172073029,0.00059618579266567,-0.00059671412998175,0.00059683902133769,-0.00056851235294106,0.00056723852353313,-0.00056869546848807,0.0005695086631714,-0.00059262538019584,0.00059336130095629,-0.00058879624844248,0.00058861735712144,-0.0005676659791878,0.00056670413237774,1.3578983741465e-06,4.0366331752742e-06,-0.000471203525574,0.0004718144108242,9.2433170641015e-07,-1.423043528136e-07,-0.00046323993399237,0.0004646676561462,-0.00047040932566167,0.00046112669406901,-0.00047096465367176,0.00046961746026264,-0.00046988487867404,0.00049549985693329,-0.00046219756858173,0.0004657140098596,-0.00046936453666175,0.00046217037675913,-0.00046992154727998,0.00047066282114909,-0.00050790061954156,0.00050873001933777,-0.00050825586627089,0.0005083739606692,-0.00050818341520463,0.00050695605393536,-0.0005085394205125,0.00050660075747799,-0.00049961875232418,0.00050650624163317,-0.0004954703725811,0.00049782622076169,-0.00049511561146421,0.00049818262267043,-0.00049926235634639,0.00050686094533682,-0.00047093081080212,0.00049445723770606,0.70115780425353,128566,2924,0.0017940917596775,0.002455747319839,0.0019626711247146,14.451608816744,-0.00012438712946605,-0.00012438712946605,-0.00012438712946605,2657721.4845432,0.0062319790369322
22391759,0.39505622105555,0.0068016725152707,0.002087289130901,0.0025105785770508,0.0022038048073189,-0.00043884577415186,0.00043772083811212,-3.7686610326772e-06,-1.4805592891729e-06,-2.7527122364161e-07,2.0329099325008e-07,-0.00025050437209219,0.00024116819054068,-0.00043513739402886,0.00043467403486206,-0.00043393164160778,0.00044240670655479,-0.00025491598531197,0.00024303358736959,-0.00025096996674309,0.00024070104250269,-0.0004356030435821,0.00043420410024749,-0.00043439738474043,0.00044193681379555,-0.00051564645189793,0.00051405263070469,-0.00051449384406846,0.00051637245546696,-0.00051548885055886,0.00051421299958146,-0.00051433617058261,0.0005165327852189,-0.0004350790504588,0.00042823559409061,-0.00043160906963769,0.00042580706853164,-0.00043523765388615,0.00042807634389825,-0.00043176777602723,0.00042564786925797,-0.00025445055421777,0.0002435006126454,1.9705564108128e-07,-2.7615201062949e-07,-5.8280227084632e-07,5.0703911051301e-07,-0.00060080071989437,0.00060072466459948,-0.00057760525781641,0.00057875525439847,-0.0006034827882153,0.00060350628880871,-0.00060319418300889,0.00060228860518015,-0.00060738400621691,0.00060710391057067,-0.00060722362007965,0.00060767033641434,-0.00060748141952114,0.0006068840063255,-0.00060742060777702,0.00060755001805966,-0.00057866943037003,0.00057736861528257,-0.00057884488347579,0.00057967809464087,-0.00060327027970531,0.00060402017924438,-0.00059932388894021,0.00059914480106032,-0.00057780447341318,0.00057682046763549,1.3942941983192e-06,4.1404425084221e-06,-0.00047878946155571,0.00047941900768192,9.4815746931633e-07,-1.4252125403392e-07,-0.00047068327869475,0.00047215243726204,-0.00047826251979986,0.00046877212468816,-0.00047883151667716,0.00047745603346431,-0.0004775296251503,0.00050375644536384,-0.00046961740461775,0.00047322234940068,-0.00047719418738162,0.00046983933168693,-0.00047776489819474,0.0004785249443948,-0.00051629397040977,0.00051714599827416,-0.00051665722793319,0.00051678191747482,-0.00051658493190659,0.00051532767024223,-0.00051694895964182,0.00051496436153655,-0.00050781041526614,0.00051488902727029,-0.00050356851311131,0.00050598762979574,-0.00050320574377356,0.00050635205569818,-0.0005074459903121,0.00051525173616433,-0.00047859911945993,0.00050269031152739,0.72867975238669,128566,2924,0.0018249495279525,0.0024998068851016,0.0019942544305968,14.800450278922,-0.00012159639776862,-0.00012159639776862,-0.00012159639776862,2683439.9026692,0.006339153769305
22591759,0.40132710861594,0.0069065999012768,0.0021186388553298,0.0025516031107048,0.0022363579352422,-0.00044646666400794,0.00044530872023344,-3.8715610123938e-06,-1.5093077969016e-06,-2.8330184411549e-07,2.0511548914594e-07,-0.00025385496792487,0.00024426287623898,-0.00044299097050108,0.00044249181890121,-0.00044175200547161,0.00045046019170029,-0.00025838309073221,0.00024616627005864,-0.00025433020837863,0.00024378608236083,-0.00044346622961532,0.00044201218573834,-0.00044222736992142,0.000449980613036,-0.00052479694999029,0.00052316397874264,-0.00052361328108566,0.00052554851864753,-0.00052463610600724,0.00052332764365226,-0.0005234523610605,0.000525712140817,-0.00044303798904894,0.00043602411839741,-0.00043947527560979,0.00043354464361868,-0.00044319986220057,0.00043586158740678,-0.00043963725648122,0.00043338217053927,-0.00025790802359622,0.00024664295036102,2.0132740509475e-07,-2.8166499475191e-07,-5.9559681920124e-07,5.1865129243362e-07,-0.00061178340484201,0.00061170616088548,-0.00058815033153625,0.00058932631276132,-0.00061452120350092,0.00061454495155131,-0.0006142334566524,0.00061330891473679,-0.00061841342021177,0.00061812726019069,-0.00061825074265019,0.00061870767765836,-0.00061851244602528,0.00061790245856171,-0.00061844864807193,0.00061858176609685,-0.00058923662530891,0.00058790747582772,-0.00058941322082661,0.00059026588299305,-0.00061430598742993,0.00061507241078825,-0.0006102336464142,0.00061005187294395,-0.00058835015135839,0.00058734434182843,1.4331152460284e-06,4.2533143642678e-06,-0.00048659062078977,0.00048724273451162,9.7370906699346e-07,-1.4142725540499e-07,-0.00047838805887629,0.00047990254725941,-0.00048636341975592,0.0004766477708099,-0.00048694766422082,0.00048554397376078,-0.00048545329248043,0.00051237655879388,-0.00047729827829603,0.00048099641556244,-0.00048527115052106,0.00047773890404467,-0.00048585713531962,0.00048663683639259,-0.00052492798235987,0.00052580427762677,-0.00052529939134319,0.00052543203323566,-0.00052522774792623,0.00052393946629411,-0.00052559993690057,0.00052356800326101,-0.00051629437602727,0.00052356440975433,-0.00051195095140457,0.00051443839123009,-0.00051158003406558,0.00051481098084867,-0.00051592178612116,0.00052393526183199,-0.0004865467389451,0.00051128651568677,0.7362069869824,128566,2924,0.0018566002914435,0.0025454354776603,0.0020267398184326,15.149528051626,-0.00011880377558699,-0.00011880377558699,-0.00011880377558699,2705710.9618992,0.006449625346052
22791759,0.4076562448664,0.0070134506583851,0.002150537704818,0.0025934322242476,0.0022694807293194,-0.0004538049291461,0.0004526137503275,-3.9761083502497e-06,-1.5374533051417e-06,-2.8967593334265e-07,2.0861417232016e-07,-0.00025683914816201,0.0002469926262392,-0.00045060541030441,0.0004500742437909,-0.00044933260770679,0.0004582831156634,-0.00026148568780635,0.00024892620222939,-0.00025732406347544,0.0002465061530956,-0.00045109030398247,0.00044958489011278,-0.00044981761714925,0.00045779383210408,-0.00053367352773838,0.00053200175950795,-0.00053245832590373,0.00053445264504704,-0.00053350944160027,0.00053216872281561,-0.00053229415974795,0.00053461956124309,-0.00045073175352892,0.00044354317612448,-0.0004470752040376,0.00044100018363007,-0.0004508968993304,0.00044337735973449,-0.00044724046248658,0.00044083443675054,-0.00026100095489926,0.00024941256837567,2.0558152186712e-07,-2.8721711879365e-07,-6.0893961630083e-07,5.3075770322458e-07,-0.0006225334994062,0.00062245501256604,-0.00059848906778228,0.00059969200723538,-0.00062534160252005,0.00062536522808052,-0.00062504621471289,0.00062410227724286,-0.00062918809890285,0.00062889547844042,-0.00062902282695001,0.00062949027778663,-0.00062928893194528,0.00062866596687123,-0.00062922174421026,0.00062935886105845,-0.00059959887316868,0.00059824030774734,-0.00059977951826959,0.0006006525922654,-0.00062512341537478,0.00062590668532365,-0.00062091256281177,0.00062072836663976,-0.00059869009094253,0.00059766140963018,1.4725764343657e-06,4.369914781256e-06,-0.0004940952760221,0.00049477033618492,1.0004385020691e-06,-1.401995300748e-07,-0.00048582582490654,0.00048738580982385,-0.00049419909000041,0.00048424917724024,-0.00049479933646751,0.00049336622995438,-0.00049311615205917,0.000520767872048,-0.00048471111267206,0.00048850465003165,-0.00049308186224074,0.00048536526082714,-0.00049368387056059,0.00049448406194911,-0.00053326825422954,0.00053416914519741,-0.00053364816426352,0.00053378839073318,-0.00053357665413373,0.00053225715869188,-0.00053395735183102,0.00053187719199734,-0.00052450797133913,0.00053199101947752,-0.0005200683716977,0.00052262498670674,-0.00051968895655657,0.00052300608538266,-0.00052412686738107,0.00053237036171303,-0.00049423457000699,0.00051965289217042,0.74292713982269,128566,2924,0.0018870750469118,0.0025900947837795,0.0020579921370557,15.28754730347,-0.00011769962157224,-0.00011769962157224,-0.00011769962157224,2723980.9145721,0.0065567085084673
22991759,0.41402966938053,0.0071152671580557,0.0021809623524685,0.002633452561292,0.0023008522442951,-0.00046084989903393,0.0004596281637088,-4.079955819596e-06,-1.5604218401331e-06,-2.9402006683767e-07,2.1243531158139e-07,-0.00025928467599072,0.00024920093624352,-0.00045765659465969,0.00045709299698279,-0.00045634960725025,0.00046554646887661,-0.00026405004547699,0.00025115636792718,-0.00025977759015443,0.00024870645206624,-0.00045814944882279,0.00045659561167582,-0.00045684257609991,0.00046504915458023,-0.00054236619788223,0.00054065590899901,-0.00054111880893682,0.000543172624144,-0.00054219943203236,0.00054082560044564,-0.00054095196232913,0.00054334226750289,-0.00045794440032749,0.00045057640663883,-0.00045419065371678,0.00044796500749701,-0.00045811225646737,0.00045040787562181,-0.00045435862420049,0.00044779654798597,-0.00026355731251992,0.00025165073650625,2.089896509213e-07,-2.9190781255695e-07,-6.2296380615096e-07,5.4355830970413e-07,-0.00063300037496965,0.00063292065889983,-0.0006084179987485,0.00060964869000021,-0.00063586268815192,0.00063588407218355,-0.00063555895734324,0.00063459686610305,-0.00063975593002043,0.000639455845384,-0.0006395876606398,0.00064006552624984,-0.00063985834312854,0.00063922252671472,-0.00063978715539012,0.00063992929934284,-0.00060954830550791,0.00060815955637896,-0.00060972352002031,0.00061061893509019,-0.00063564097831078,0.00063643987790654,-0.0006312940738562,0.00063110959932616,-0.00060861976688847,0.00060756631038802,1.5127079874278e-06,4.4886409607719e-06,-0.00050127929839663,0.00050197828295414,1.0283396923136e-06,-1.3916015427247e-07,-0.00049259627449214,0.00049420203647242,-0.00050144348381221,0.00049126166715375,-0.00050205804041155,0.00050059370162212,-0.00050011082633984,0.00052847360051888,-0.00049145527272021,0.00049534719849881,-0.00050029995560824,0.0004924040431855,-0.00050091629358724,0.00050173784436624,-0.00054140789639286,0.00054233455124427,-0.00054179675857759,0.00054194483656495,-0.00054172434939148,0.00054037391112083,-0.0005421140059887,0.00053998499045055,-0.0005323333289645,0.00054006173876184,-0.00052781068191136,0.00053043134133134,-0.00052742231349248,0.00053082140529197,-0.00053194326076135,0.00054045002356374,-0.00050125556457056,0.00052733233151231,0.70494323056908,128566,2924,0.0019163353294351,0.0026335746369486,0.0020879122022389,15.399327385859,-0.00011680538091312,-0.00011680538091312,-0.00011680538091312,2744945.2451238,0.0066600533281101
23191759,0.4204453715382,0.0072188243384014,0.0022119122513718,0.0026741594551539,0.0023327526318757,-0.00046802242465847,0.00046677494395332,-4.1790432404555e-06,-1.5775303434143e-06,-2.9484996752296e-07,2.1740278180946e-07,-0.00026222463454911,0.0002519366294715,-0.0004649100666991,0.00046431545282575,-0.00046356946069765,0.00047300918883347,-0.00026710355254795,0.00025389271886815,-0.00026272325153122,0.00025143643337991,-0.0004654085808557,0.00046381233749417,-0.0004640680888723,0.00047250614328507,-0.00055110670678314,0.00054936128907263,-0.00054982808384901,0.00055194333480919,-0.00055093805410308,0.00054953291612622,-0.00054965935102685,0.00055211491396082,-0.00046529088816247,0.00045775344128977,-0.00046144289252576,0.00045508011985339,-0.0004654606638411,0.00045758299607718,-0.00046161277702737,0.00045490973316732,-0.00026660511646841,0.00025439280247919,2.1121265502537e-07,-2.9544946048315e-07,-6.3722066359387e-07,5.5654874597167e-07,-0.00064352955792778,0.00064344857031546,-0.00061841682715448,0.00061967486417234,-0.00064642772248146,0.00064644439696986,-0.00064611569039932,0.00064513755033996,-0.00065042362375898,0.00065011510562511,-0.00065025224608642,0.00065073982848515,-0.00065052698307052,0.00064987892811464,-0.00065045173711862,0.00065059979237626,-0.0006195679095019,0.0006181492979259,-0.00061972985972373,0.00062064877420564,-0.00064620275862814,0.000647015099882,-0.00064172130984887,0.00064153894003653,-0.00061862077512214,0.00061754130063751,1.5514214640848e-06,4.6039636318635e-06,-0.00050856558511441,0.00050928735751948,1.0561339354816e-06,-1.3864421506308e-07,-0.00049957703783175,0.00050122435619573,-0.00050888667986308,0.00049848361272317,-0.00050951876896054,0.00050802262661758,-0.00050730063105942,0.0005363247332495,-0.00049840932887563,0.00050239626028455,-0.00050771644041418,0.00049965269790408,-0.00050835032678252,0.00050919349278065,-0.00054960437997728,0.00055055627084932,-0.00055000233190299,0.00055015746103638,-0.00054992702436934,0.00054854627177664,-0.00055032577461297,0.00054814825942066,-0.00054021881579542,0.00054821010110986,-0.00053560081339062,0.00053828900728812,-0.00053520335434253,0.0005386881734955,-0.00053981963836937,0.00054860747449297,-0.00050847210386234,0.00053515676144383,0.71242657668629,128566,2924,0.0019461345835477,0.0026773115143758,0.0021182543836879,15.510374877018,-0.00011591700098386,-0.00011591700098386,-0.00011591700098386,2768942.7339663,0.0067646346646672
23391759,0.42690786811022,0.0073234683111859,0.0022431806406096,0.0027153268112516,0.0023649608593247,-0.00047526426404624,0.00047399095645947,-4.2793393854409e-06,-1.5948518368181e-06,-2.9258914634587e-07,2.2167250531572e-07,-0.00026510679685164,0.00025459303359793,-0.00047227591841969,0.00047165200287877,-0.00047090147624351,0.00048058331773313,-0.00027009616815744,0.00025656438548272,-0.00026560739861921,0.00025409084161442,-0.00047277637504594,0.000471146883728,-0.00047140204430781,0.00048007825993226,-0.00055994084711489,0.0005581623618146,-0.00055863095650707,0.0005608103977364,-0.00055977156931948,0.00055833466200031,-0.00055846160004499,0.00056098265156742,-0.00047271543425704,0.0004650129639709,-0.00046877178305829,0.00046229593846905,-0.00047288586960135,0.00046484185064603,-0.00046894232939613,0.00046212488378308,-0.00026959574533849,0.00025706646103668,2.1162094782069e-07,-2.9701562601602e-07,-6.5139829128599e-07,5.6960825859884e-07,-0.00065419344249141,0.00065411133186456,-0.0006285607210357,0.00062984498119005,-0.0006571275641801,0.00065713596891499,-0.00065679913951066,0.00065580883261873,-0.0006612072662621,0.00066088921023615,-0.00066103265326112,0.00066152883486303,-0.00066131018439707,0.00066065130383336,-0.00066123045750291,0.00066138582237207,-0.00062973341071363,0.00062828635452876,-0.00062988065072706,0.00063082446544444,-0.00065689955447246,0.00065772176689117,-0.00065227275899136,0.00065209636225825,-0.00062876741593951,0.00062766081485566,1.590614565818e-06,4.7220507672653e-06,-0.00051592677578237,0.00051667235946257,1.0848363691068e-06,-1.3720562112616e-07,-0.00050666712022281,0.00050835699916261,-0.00051642315649815,0.00050579765336073,-0.00051707530615447,0.00051554834855756,-0.00051461237665108,0.00054433773323685,-0.00050547270990788,0.00050955563660814,-0.00051522621398686,0.0005069934358173,-0.00051588017873286,0.00051674592781693,-0.00055787994710408,0.00055885774371194,-0.00055828698095556,0.00055844984440771,-0.00055820842175762,0.00055679802106658,-0.00055861625907964,0.00055639092352659,-0.00054822682323435,0.00055646472288413,-0.00054351535149348,0.00054627378349243,-0.00054310880827831,0.00054668204709441,-0.00054781854282757,0.00055687118332472,-0.00051581058234469,0.00054314306057691,0.71512157191349,128566,2924,0.0019762221742757,0.0027216058680865,0.0021489093105378,15.633874668699,-0.00011492900265041,-0.00011492900265041,-0.00011492900265041,2791176.3434672,0.006870393575193
23591759,0.43360825466597,0.0074319835427497,0.0022756001249619,0.0027580603181171,0.0023983230996707,-0.00048345710690776,0.00048215495731684,-4.3853949184815e-06,-1.6118391633558e-06,-2.8846673017627e-07,2.2355206204882e-07,-0.00026868907099118,0.0002579365888885,-0.0004806398311892,0.00047997836393803,-0.00047923038180024,0.00048916310220745,-0.00027378911000345,0.00025992060846643,-0.00026918747379748,0.00025743659230621,-0.00048113804436354,0.00047947541890761,-0.0004797287129098,0.00048866022017855,-0.00056981655735891,0.0005680055545794,-0.00056847450852881,0.0005707223669205,-0.0005696480615562,0.00056817711521932,-0.00056830593246169,0.00057089388307444,-0.00048111370523988,0.00047323766174186,-0.00047707410910714,0.00047048587593243,-0.00048128338545968,0.00047306729990138,-0.00047724390537353,0.00047031556452337,-0.000273290905652,0.00026042046960121,2.0997057236029e-07,-2.9638311681183e-07,-6.6605316918176e-07,5.8326738534213e-07,-0.00066601267359006,0.00066592956081493,-0.00063985050261845,0.00064116073800337,-0.00066898948393605,0.00066898519265394,-0.00066864077128487,0.0006676422426863,-0.00067313307438334,0.00067280382971145,-0.00067295552982131,0.00067345938273231,-0.00067323406284066,0.0006725655239536,-0.00067314985640971,0.00067331442637579,-0.00064104401618852,0.00063956899993501,-0.0006411753943119,0.00064214670384607,-0.00066875882797231,0.00066958720086633,-0.0006639726590764,0.00066380691483582,-0.00064005812243275,0.00063892205114104,1.6306453073507e-06,4.8483115027488e-06,-0.00052426688141491,0.00052503777674526,1.1150359095059e-06,-1.3534231744733e-07,-0.00051475526094415,0.00051648667215556,-0.00052496223445566,0.00051410376735728,-0.00052563763545764,0.0005240767257592,-0.00052293611839462,0.00055341530875169,-0.00051353310705989,0.00051771309835568,-0.0005237375443844,0.00051532728338802,-0.00052441478124301,0.00052530206965233,-0.00056717431621917,0.00056817849663894,-0.00056759079089234,0.00056776114607378,-0.00056750824575964,0.00056606714657816,-0.00056792553022136,0.00056565060724438,-0.00055726092461625,0.00056575113638718,-0.00055246322980259,0.00055528689929109,-0.00055204724072074,0.00055570461986285,-0.00055684318897098,0.00056616703504217,-0.00052416209128383,0.00055219290641109,0.71571043195624,128566,2924,0.0020102596138092,0.0027706976636659,0.0021836362867578,16.146615162291,-0.00011082707870167,-0.00011082707870167,-0.00011082707870167,2819015.0159071,0.0069890729033682
23791759,0.44055496202112,0.0075503626434203,0.0023109000513458,0.0028046373470014,0.0024348252450732,-0.0004922160487435,0.00049088110808766,-4.4976659507937e-06,-1.6323170967875e-06,-2.8250897567266e-07,2.2472117040922e-07,-0.00027276527807011,0.00026175512350975,-0.00048988537940015,0.0004891732051385,-0.00048843979180922,0.0004986370628847,-0.00027797795803029,0.00026374296503756,-0.00027325895903963,0.00026125985586588,-0.00049037885640623,0.00048867493357193,-0.00048893339411841,0.00049813887139597,-0.0005802479249716,0.00057840446049004,-0.00057887210726336,0.00058119378666582,-0.0005800810657112,0.00057857443557056,-0.00057870516661863,0.00058136371305098,-0.00049027322632681,0.0004822139779096,-0.00048613216986449,0.00047942755617968,-0.00049044130052361,0.00048204520863335,-0.00048630035971326,0.00047925884517526,-0.00027748447251192,0.00026423811396285,2.0711275864457e-07,-2.9440152308056e-07,-6.809306806105e-07,5.9728789226483e-07,-0.00067860532475486,0.00067852135554911,-0.00065203166589856,0.00065336773874833,-0.00068164371744072,0.00068162418017287,-0.00068127283871824,0.00068026854130271,-0.00068574474780677,0.00068540340550207,-0.00068556452511812,0.00068607554467289,-0.00068584241541964,0.00068516500748968,-0.00068575413901972,0.00068592910176436,-0.00065324823890029,0.00065174568354865,-0.00065337366225842,0.00065437401996748,-0.0006814097389971,0.00068224213285414,-0.00067644297808377,0.00067629072794146,-0.00065224041131472,0.00065107358117243,1.6729640524801e-06,4.9864900235712e-06,-0.00053319449252073,0.00053399392114583,1.1476855280463e-06,-1.3165553455223e-07,-0.00052376170945413,0.00052553860411632,-0.00053436804025158,0.00052325867790089,-0.00053507078462833,0.00053347610906198,-0.00053220331004345,0.00056352794755235,-0.00052251122997075,0.00052679340041687,-0.00053311498754533,0.00052451053148938,-0.00053381960156302,0.00053472981402731,-0.00057699419660535,0.0005780262307103,-0.00057742032027054,0.00057759921642057,-0.00057733419063092,0.00057586137716137,-0.00057776113671211,0.00057543518357557,-0.00056699403975389,0.00057574810313346,-0.00056210265737106,0.00056499885188584,-0.00056167702651427,0.00056542624348942,-0.0005665666340209,0.000576173653073,-0.00053345766098955,0.00056227720702255,0.75201415258589,128566,2924,0.0020466439702025,0.0028229995877392,0.002220811490003,16.669134688384,-0.00010664692249292,-0.00010664692249292,-0.00010664692249292,2843812.6399776,0.0071158276598125
23991759,0.44775168978501,0.0076760870073573,0.0023483152716258,0.0028541756299512,0.0024735961057803,-0.00050137437084914,0.00049999356141777,-4.62509589614e-06,-1.66199154363e-06,-2.7915092387772e-07,2.1980295106165e-07,-0.00027670222094915,0.00026539264310021,-0.00049969342293736,0.00049891972430818,-0.00049820949250462,0.00050869286863182,-0.00028203195492612,0.0002673749980413,-0.00027718791189946,0.00026490538722923,-0.00050017882769307,0.00049842947130722,-0.00049869504513378,0.00050820271911638,-0.00059118038017179,0.00058929549689604,-0.00058976879840603,0.00059216045124884,-0.00059101633813561,0.0005894627030156,-0.00058960466753461,0.00059232760148709,-0.00049996617724532,0.00049169858161427,-0.00049571751042356,0.00048886117667219,-0.00050013147233739,0.00049153257082926,-0.00049588293671239,0.00048869523718434,-0.00028154647988682,0.00026786214894551,2.0269487910384e-07,-2.906266821389e-07,-6.9632624366509e-07,6.1203611456323e-07,-0.00069189279650923,0.00069180817826463,-0.00066498574234637,0.00066634793357973,-0.00069503446968865,0.00069499619829533,-0.00069463642926084,0.00069362943190584,-0.00069894644918459,0.0006985916119359,-0.00069876380102715,0.00069928144579801,-0.00069903958646215,0.00069835426562197,-0.00069894780010648,0.00069913496995238,-0.00066622747755325,0.00066469751865966,-0.00066636080637605,0.00066739277793822,-0.00069479693083956,0.00069563069938937,-0.00068962397558823,0.00068948913845502,-0.00066519412478918,0.00066399439210567,1.7180026402295e-06,5.1409375832076e-06,-0.00054254021547101,0.00054337220710405,1.182829033162e-06,-1.2674187561064e-07,-0.00053329913396595,0.00053512554797824,-0.00054428523396918,0.00053289500919086,-0.00054501965057903,0.00054338906210034,-0.00054203873660759,0.00057434913855033,-0.00053201907662677,0.0005364098937634,-0.00054300261827289,0.00053417643979637,-0.00054373889319762,0.00054467233246883,-0.00058726326775678,0.00058832435035031,-0.00058769948013538,0.00058788725326904,-0.00058761005295568,0.00058610341713268,-0.00058804707914436,0.00058566713132683,-0.00057730501544891,0.00058632478843843,-0.00057230931243746,0.00057528321866638,-0.00057187359336167,0.00057572068727293,-0.00057686753568593,0.00058676043111295,-0.00054332263590338,0.00057306881994226,0.77068673016322,128566,2924,0.0020846645031784,0.0028781838489704,0.0022597319355347,17.192035744698,-0.00010246371404242,-0.00010246371404242,-0.00010246371404242,2864426.3628573,0.0072489077191445
24191759,0.45517434976064,0.0077989125253257,0.0023848881980088,0.002902805106609,0.0025112192207078,-0.00051035125166685,0.0005089212585869,-4.7573645033888e-06,-1.6892607935729e-06,-2.7022377938924e-07,2.0918277185422e-07,-0.00027994831828671,0.00026833382742136,-0.00050899758544138,0.00050815531071521,-0.00050747340956374,0.00051825207806279,-0.00028539056464016,0.00027030586948371,-0.00028041504363137,0.00026786557252582,-0.00050946391581765,0.00050768411976588,-0.00050793989617092,0.00051778099884205,-0.00060211703934598,0.00060018854116279,-0.00060066838001405,0.00060313226077863,-0.00060195955832991,0.00060034920740253,-0.00060051080579947,0.00060329286640989,-0.00050926272650198,0.00050077233633131,-0.00050490403852118,0.00049786936457149,-0.00050942149617636,0.00050061284160176,-0.00050506294921692,0.00049770994979603,-0.00028492406206973,0.00027077402698167,1.9295147227263e-07,-2.810039701906e-07,-7.1296547279806e-07,6.2849897384253e-07,-0.00070514615369292,0.00070506136013625,-0.00067776257430012,0.00067915051075017,-0.00070838821022546,0.00070831975162146,-0.000707949542434,0.00070695032770207,-0.00071218999801869,0.0007118174065123,-0.00071200419315116,0.00071252616382001,-0.00071227584921066,0.00071158585438141,-0.00071217909626596,0.00071238367109783,-0.00067902446298172,0.00067746841205608,-0.00067915322571078,0.00068022391553394,-0.00070814721198556,0.00070897285865947,-0.00070275439383152,0.00070264940890508,-0.00067797012274279,0.00067673132019951,1.7639850869966e-06,5.3026721209031e-06,-0.0005516663061254,0.00055253152215442,1.2197923083424e-06,-1.2295542133444e-07,-0.0005421320831082,0.00054400608721112,-0.00055364319391332,0.00054196732392087,-0.0005544104439582,0.00055273877822757,-0.00055118604611851,0.00058449854208498,-0.00054081950577117,0.00054532284867635,-0.00055232813267835,0.00054328123665274,-0.00055309719892252,0.00055405448792374,-0.00059750603046954,0.00059859705246397,-0.00059795332000349,0.00059814890100766,-0.0005978589630395,0.00059631733810514,-0.00059830704338417,0.00059586997401823,-0.00058739561888949,0.00059667526936713,-0.00058229223014871,0.00058534396227876,-0.00058184542302188,0.00058579247133636,-0.00058694709940138,0.00059712200099616,-0.00055250236684729,0.00058318571024246,0.73179327274596,128566,2924,0.0021219246098368,0.0029332226020472,0.0022977391260633,17.664989424341,-9.8680084605275e-05,-9.8680084605275e-05,-9.8680084605275e-05,2886825.4376823,0.0073801746485404
24391759,0.46267097503646,0.0079236988702427,0.0024220440532009,0.0029522580380607,0.0025493967789811,-0.00051899544650164,0.00051751471694838,-4.8926794066331e-06,-1.7144278250305e-06,-2.5534048706337e-07,1.954139762688e-07,-0.00028332258783519,0.00027142524363421,-0.0005180208997157,0.00051711231297953,-0.00051645877405806,0.00052752279413236,-0.00028886247372333,0.00027335384625727,-0.0002837612515915,0.00027098509007264,-0.00051845917619163,0.0005166691911354,-0.00051689719312742,0.0005270798022447,-0.00061262791380811,0.00061065873395533,-0.00061114442501063,0.00061367930489891,-0.00061247997790765,0.0006108098539219,-0.0006109963984057,0.00061383035555739,-0.00051817672269823,0.00050945130385597,-0.00051371068619003,0.00050649240238208,-0.00051832596075647,0.00050930134143121,-0.00051386005592765,0.00050634254519185,-0.00028842398432133,0.00027379395497849,1.7885304113719e-07,-2.6655892486647e-07,-7.305508886672e-07,6.4633163337435e-07,-0.00071795501761523,0.00071787047799945,-0.00069010952260993,0.00069152287067758,-0.00072126898672199,0.00072116095501897,-0.00072077685105066,0.00071979415196924,-0.00072505807009053,0.00072466438390245,-0.0007248682750708,0.00072539276364177,-0.00072513186926963,0.0007244398661275,-0.00072503050184137,0.00072525666707046,-0.00069138026765174,0.00068979932104978,-0.00069149314830251,0.00069260828054241,-0.0007210236982851,0.00072183339447625,-0.00071540253625911,0.0007153376483804,-0.0006903193266331,0.00068903655607336,1.8069462444993e-06,5.4586523873424e-06,-0.00056040732819235,0.00056130251826553,1.2559358607899e-06,-1.2227716987488e-07,-0.00055065147021547,0.00055256462750701,-0.00056268726693893,0.00055073298868399,-0.00056347315476446,0.00056175720253935,-0.00056006447921044,0.00059427853968787,-0.00054930419475989,0.00055391607928599,-0.00056133746826911,0.00055208161197378,-0.00056212520275087,0.00056310761406708,-0.00060732381310854,0.00060844394760473,-0.00060778292588739,0.00060798397605577,-0.00060768563509624,0.00060611141000601,-0.00060814554487913,0.00060565221805851,-0.00059706869050399,0.00060660594911187,-0.00059183982197586,0.00059496494254194,-0.00059138119395896,0.0005954252580949,-0.00059660833415906,0.00060706451570359,-0.00056141556515427,0.00059293097100538,0.73638899673541,128566,2924,0.0021577956529687,0.0029864127873101,0.0023341379289014,17.858895646658,-9.7128834826734e-05,-9.7128834826734e-05,-9.7128834826734e-05,2909347.0428475,0.0075065758218995
24591759,0.47023515051264,0.008053119400295,0.0024605429618143,0.0030035500356712,0.0025890264028096,-0.00052784695426828,0.00052633343849205,-5.0066075137792e-06,-1.7177540355764e-06,-2.2962742490689e-07,1.8887679597612e-07,-0.00028684008659461,0.00027469748710553,-0.00052745823798523,0.00052649780846062,-0.00052586113062914,0.00053719977622154,-0.00029246676227174,0.00027656900596856,-0.0002872471459917,0.00027428895862278,-0.00052786492733372,0.00052608629416642,-0.00052626797544458,0.00053678840289863,-0.00062332542444083,0.00062133233871479,-0.0006218097774209,0.00062442705337044,-0.00062318821984686,0.0006214727151928,-0.00062167247942231,0.00062456735828368,-0.00052738053251841,0.00051845294076695,-0.00052281591410015,0.00051544952734566,-0.00052751901802836,0.00051831371822768,-0.00052295454298146,0.00051531041395395,-0.00029205989361694,0.00027697747783189,1.6316494542177e-07,-2.5014810132193e-07,-7.4944179172461e-07,6.6583909489953e-07,-0.00073106956564775,0.0007309856399755,-0.00070281909058185,0.00070425994214573,-0.00073446848252179,0.00073431675147444,-0.00073392751624457,0.00073296417902867,-0.00073818142886638,0.0007377648326876,-0.00073798632082759,0.00073851349089744,-0.00073824203279068,0.00073754855777429,-0.0007381353238695,0.00073838561036514,-0.0007041141341915,0.00070250690625492,-0.00070420759493314,0.00070537164419314,-0.00073421711825865,0.00073500869634143,-0.00072837195999734,0.0007283520400887,-0.0007030368720789,0.00070170641108318,1.8471054662456e-06,5.6147805672662e-06,-0.00056943315213947,0.00057035822404048,1.2941779198511e-06,-1.2251612628088e-07,-0.00055984906923843,0.00056179471587523,-0.00057217424617002,0.00055994221952911,-0.00057300672708274,0.0005712442146912,-0.00056954766769437,0.00060471361274909,-0.00055846419688386,0.0005631839375742,-0.00057078676663318,0.00056132848639164,-0.00057162113917711,0.00057263232703999,-0.00061735492807632,0.00061850361933319,-0.00061782686212081,0.00061803080838458,-0.00061771459976659,0.00061610961243159,-0.00061818734083578,0.00061563759360874,-0.00060709513809907,0.00061686937469113,-0.00060176195672461,0.00060495464406918,-0.00060129052304055,0.00060542781635566,-0.00060662195456561,0.00061734075916968,-0.00057093645323109,0.00060332840714962,0.75660586674211,128566,2924,0.002194566317876,0.003040869713093,0.0023717194897815,18.045776925359,-9.5633784597127e-05,-9.5633784597127e-05,-9.5633784597127e-05,2925608.6099202,0.007636367181342
24791759,0.47786416721383,0.0081711854880449,0.0024957602338988,0.0030506115871551,0.002624813666991,-0.00053613216949991,0.00053457751893247,-5.1286037008795e-06,-1.7255643997946e-06,-2.1358842865227e-07,1.7799900050992e-07,-0.00028927411766111,0.00027689837157175,-0.00053573024360768,0.00053470343512626,-0.00053409879455025,0.00054567965872693,-0.0002949880676063,0.00027868879690371,-0.0002896545253565,0.00027651650297869,-0.00053611042625326,0.00053431847543396,-0.00053447912092572,0.0005452948174716,-0.00063368283951769,0.00063165457047596,-0.00063213631918829,0.00063482087387691,-0.00063355451852343,0.00063178602807874,-0.0006320079079441,0.00063495226701906,-0.00053563619010174,0.00052649399621836,-0.00053097676463702,0.0005234415739113,-0.00053576574812166,0.00052636372049902,-0.00053110646224454,0.00052331139076832,-0.00029460784712895,0.0002790705525187,1.5000444091652e-07,-2.3621387679378e-07,-7.6847981109134e-07,6.8554168241262e-07,-0.00074361623948888,0.00074353298654367,-0.00071467899731319,0.0007161494408485,-0.00074705877690365,0.00074686818329414,-0.00074648197608594,0.00074553311051485,-0.00075090372361701,0.0007504659751784,-0.00075070265112718,0.00075123444413086,-0.00075095088180366,0.00075025410755587,-0.000750839422521,0.00075111218826285,-0.00071598550738399,0.00071435000597856,-0.00071603489688125,0.00071724655729213,-0.00074680190208489,0.00074758039317828,-0.00074076590193701,0.00074078625085154,-0.00071490431033748,0.00071352756702684,1.8847402669864e-06,5.7664754262667e-06,-0.00057786673045255,0.00057881819289645,1.3313189208048e-06,-1.2414199917511e-07,-0.00056767380738996,0.00056964552616446,-0.0005805293541049,0.00056803959782886,-0.00058138566855595,0.00057957524479243,-0.00057770056139556,0.00061375039111497,-0.00056625098146773,0.00057107284316937,-0.00057910384890518,0.00056946378388802,-0.00057996214343556,0.00058100137691186,-0.00062703991432128,0.00062821625988588,-0.00062752474435646,0.00062773051315334,-0.00062740314977135,0.00062576728755915,-0.00062788882522512,0.00062528237547815,-0.00061640201901055,0.00062641695131447,-0.00061094889565343,0.0006142077805815,-0.00061046456963408,0.00061469391196996,-0.00061591588156178,0.00062690121672343,-0.00057912742883082,0.00061232726660672,0.68706803980674,128566,2924,0.0022289650315745,0.0030929638700127,0.0024068304442185,18.232384013274,-9.4140927893805e-05,-9.4140927893805e-05,-9.4140927893805e-05,2943771.6223069,0.0077589170040135
24991759,0.48562255148516,0.0082933283099971,0.0025321888666167,0.0030992465584185,0.0026618928849619,-0.00054493306901949,0.00054334296369785,-5.2419109578488e-06,-1.7241334501581e-06,-2.1194262071244e-07,1.7942550179344e-07,-0.00029295103703283,0.00028044261429412,-0.00054464446093394,0.00054356033845983,-0.00054298083329291,0.00055480134811853,-0.00029877307287213,0.00028207572136517,-0.00029333091098366,0.00028006129563138,-0.00054502428067321,0.00054317573276432,-0.00054336080698634,0.00055441687968644,-0.00064442305237043,0.00064235309574289,-0.00064284790212164,0.00064559046834786,-0.00064429475235647,0.00064248454777141,-0.00064271950523685,0.00064572184676827,-0.00054438308432613,0.00053504701797885,-0.00053963219201799,0.00053199447139044,-0.00054451258046983,0.00053491678087917,-0.00053976183940004,0.00053186435033085,-0.00029839339710704,0.00028245694597632,1.4968962358546e-07,-2.3603391157407e-07,-7.8967035278875e-07,7.0659031595181e-07,-0.00075658088556619,0.00075649749710909,-0.00072694727134018,0.00072845879310363,-0.00076002296516244,0.00075981761128214,-0.0007594466121166,0.00075848406918508,-0.00076412436743138,0.0007636723329724,-0.00076391601816922,0.00076446172293195,-0.00076416593074652,0.00076345497182618,-0.00076404870352097,0.0007643354804341,-0.00072827293526264,0.0007265960754248,-0.00072826507951499,0.00072951806664274,-0.00075975978683159,0.00076055169035292,-0.00075356835425132,0.00075360319902221,-0.00072718575611079,0.0007257673954902,1.9124855328726e-06,5.9026604579028e-06,-0.00058683450233819,0.00058779459905136,1.3631839044107e-06,-1.3461287130268e-07,-0.00057633498967595,0.00057831220820373,-0.00058962590485035,0.00057687742099242,-0.00059050201165769,0.00058862684784073,-0.00058665681126627,0.00062345774746025,-0.00057487086972402,0.00057978103996585,-0.00058815891586757,0.00057834295654388,-0.00058903713260715,0.00059009444947091,-0.00063715189527625,0.0006383416278087,-0.00063765081998672,0.00063784172860879,-0.00063751822702258,0.00063584132114525,-0.00063801805425279,0.00063534231103849,-0.00062615751141571,0.0006363638257471,-0.00062060795184181,0.00062390968579484,-0.00062010956653547,0.00062440999171341,-0.00062565720185868,0.00063686215338124,-0.00058812520969011,0.0006219933271098,0.69911854923704,128566,2924,0.0022655156391859,0.0031467903485903,0.0024441244640046,18.541987597582,-9.1664099219345e-05,-9.1664099219345e-05,-9.1664099219345e-05,2970127.1112513,0.0078875959044133
25191759,0.49369327048551,0.0084240784206384,0.0025711190543292,0.0031512641110365,0.0027016952552727,-0.00055478715386057,0.00055315478084852,-5.3634723915826e-06,-1.7256746754596e-06,-2.1962210213426e-07,1.9387277501996e-07,-0.00029735873257435,0.00028470003319881,-0.00055482174808019,0.00055370667008477,-0.00055312690859686,0.00056523392601666,-0.00030330702672002,0.00028614370053749,-0.00029776007203667,0.00028429719028138,-0.0005552232088449,0.00055330038308688,-0.00055352848630947,0.00056482781266698,-0.00065629228447747,0.0006541710329658,-0.0006546890032683,0.00065748077209259,-0.00065615662541631,0.00065430988827691,-0.00065455326030751,0.00065761954388388,-0.00055433021968235,0.00054477849858865,-0.00054947905798706,0.00054176130295,-0.00055446708482486,0.00054464088326229,-0.00054961603239732,0.00054162382423551,-0.00030290578282282,0.00028654652190069,1.6007942206064e-07,-2.4753988677711e-07,-8.1246922373062e-07,7.2837376254256e-07,-0.00077092097433369,0.0007708365693031,-0.00074063891297281,0.00074220042174836,-0.00077437804237935,0.00077417830359624,-0.0007738149550465,0.00077281503034389,-0.00077863422042973,0.00077817366838924,-0.00077841841005937,0.00077898529005446,-0.00077867589123381,0.00077794175087055,-0.00077855437457245,0.00077884764400645,-0.00074199712417982,0.00074026828737978,-0.00074193569538544,0.00074322399435124,-0.00077410761500568,0.00077493485355423,-0.00076775423613172,0.00076778137175577,-0.00074089234471698,0.00073943662071146,1.9426081109355e-06,6.0509753190571e-06,-0.00059695895798083,0.0005979365813941,1.3998923644838e-06,-1.425612380818e-07,-0.00058646160301373,0.00058844526348549,-0.00060009138323322,0.0005870775014921,-0.00060099273875591,0.00059905592908086,-0.00059710757586692,0.00063474263944442,-0.00058495387103904,0.00058995790123939,-0.00059858061083663,0.00058858674756648,-0.0005994841865391,0.00060056728876001,-0.00064839099422717,0.0006496007279499,-0.00064890477385371,0.00064908593085885,-0.00064876394926525,0.00064705220209779,-0.00064927867813549,0.00064653831940535,-0.0006371772412515,0.00064757693934057,-0.0006314945346704,0.00063485008865641,-0.00063098132190119,0.00063536531408298,-0.00063666199696264,0.00064809013433576,-0.00059861986253132,0.00063323449545041,0.71926998118166,128566,2924,0.0023064327998664,0.0032063226642494,0.0024862435644518,19.180956232315,-8.6552350141477e-05,-8.6552350141477e-05,-8.6552350141477e-05,2994850.1487212,0.0080313083787931
25391759,0.50208422946839,0.0085676044527471,0.0026137136612953,0.0032083006871946,0.0027455901042572,-0.00056532750310004,0.00056364093782023,-5.4996812960693e-06,-1.7345170304536e-06,-2.3023573959142e-07,2.1353180081478e-07,-0.00030216662316085,0.00028935873643289,-0.00056608830412177,0.00056494785646475,-0.00056436395425935,0.00057678434662324,-0.00030824508173731,0.00029054187588701,-0.00030259762858966,0.00028892616571034,-0.0005665193905257,0.00056451183575158,-0.0005647951889406,0.00057634848343629,-0.0006688864207505,0.00066670965147859,-0.00066725595640582,0.00067009117285908,-0.00066874076446597,0.00066685859950169,-0.00066711021099918,0.00067024004166245,-0.00056514675467619,0.00055538313254684,-0.00056020252545435,0.00055241748551439,-0.00056529363731652,0.00055523545761313,-0.0005603495468656,0.0005522699279186,-0.0003078142394216,0.00029097435455941,1.7431763852915e-07,-2.6344506429208e-07,-8.3604990559104e-07,7.5043163290235e-07,-0.00078628366709063,0.00078619773392578,-0.00075552293855608,0.00075713767133848,-0.0007897890890098,0.00078960223364307,-0.00078923649579792,0.00078819014981197,-0.00079402641791114,0.0007935591839628,-0.00079380297126252,0.000794393567745,-0.00079406887849425,0.00079330798650264,-0.00079394396944224,0.00079424089828711,-0.00075692689948694,0.00075514178925228,-0.00075682536694165,0.00075814679358023,-0.00078950996423085,0.00079038047740443,-0.0007829654893548,0.00078297664000986,-0.00075579138528487,0.00075429952069531,1.9715710771695e-06,6.2110141688115e-06,-0.0006078588380563,0.00060885497025648,1.4383473962293e-06,-1.4980573881451e-07,-0.00059779451056392,0.00059978084539302,-0.00061168991301802,0.00059838632377218,-0.00061262783032811,0.00061062543536274,-0.00060883011676851,0.00064742849951013,-0.00059624206510787,0.0006013383371492,-0.00061013440050274,0.00059994028427536,-0.00061107455719958,0.00061218157076566,-0.00066033946418194,0.00066156752709802,-0.00066086846339914,0.00066103747604026,-0.00066072390146557,0.00065897632365895,-0.00066125386582343,0.00065844721512313,-0.00064919734042538,0.0006598107066628,-0.00064337040394178,0.00064677525132566,-0.00064284199121975,0.00064730577433155,-0.00064866684921554,0.00066033910523357,-0.00061038716681654,0.0006458756812894,0.75830137933622,128566,2924,0.002350181134383,0.0032700947441519,0.0025315861091514,19.828238900739,-8.1374088794087e-05,-8.1374088794087e-05,-8.1374088794087e-05,3011765.0378243,0.0081854193179482
25591759,0.51079801572816,0.0087215293781986,0.0026592455737158,0.0032695326907412,0.0027927511137416,-0.00057641490611325,0.00057467829633465,-5.6386158729244e-06,-1.7331671491488e-06,-2.3556066903575e-07,2.3949790821425e-07,-0.00030692162583036,0.00029399828250302,-0.00057814908197958,0.000576991067508,-0.00057639883448189,0.00058916499148753,-0.0003131322222791,0.00029482193315881,-0.00030738327134226,0.00029353495170868,-0.00057861080815528,0.00057652428077519,-0.00057686070233512,0.00058869835941226,-0.00068213778372877,0.00067991453884575,-0.0006804809359648,0.00068337014032009,-0.00068198178227352,0.00068007391037989,-0.00068032486750025,0.00068352944250467,-0.0005767026293491,0.00056674238702581,-0.000571670312276,0.00056378721813637,-0.00057685988801328,0.00056658432111976,-0.00057182768344213,0.00056362923898926,-0.0003126707192566,0.00029528511697672,1.888773109963e-07,-2.800323787883e-07,-8.5938314304041e-07,7.7191807170048e-07,-0.00080257707328812,0.00080248928658935,-0.00077146675992905,0.00077313396387097,-0.00080618146769389,0.00080600844209805,-0.00080563817468942,0.00080454435982414,-0.00081021486207362,0.00080974126635518,-0.00080998556575444,0.00081059957829149,-0.00081025967466398,0.00080947169475747,-0.00081013408497094,0.00081043370490474,-0.00077291047282933,0.00077106922013049,-0.00077278448563454,0.00077413759302469,-0.00080589154322128,0.00080680570714852,-0.00079913367335914,0.00079912718804406,-0.00077174713253308,0.00077021991662445,1.9993549393874e-06,6.3897019840081e-06,-0.00061938117347754,0.00062039750846588,1.4773985870465e-06,-1.5559147674069e-07,-0.00060991960583875,0.00061190925884511,-0.00062410323224979,0.00061048282303146,-0.00062508405348853,0.00062300956697072,-0.00062142136532383,0.00066112782485049,-0.00060832323785961,0.00061351081602424,-0.0006225037735821,0.00061208071860387,-0.00062348686033063,0.00062460966599069,-0.00067294825646916,0.00067419100939278,-0.00067349216934194,0.00067364601769471,-0.00067333723750086,0.00067155083953541,-0.00067388213068618,0.00067100680584993,-0.00066204739438546,0.00067289519047176,-0.00065609320455241,0.00065954209218523,-0.00065554989195869,0.00066008760972289,-0.00066150194354892,0.00067343851664426,-0.00062302242773422,0.00065953105381544,0.78252854606786,128566,2924,0.0023962165332693,0.0033377235350425,0.0025795171263757,20.475837879163,-7.6193296966692e-05,-7.6193296966692e-05,-7.6193296966692e-05,3022377.2861386,0.0083483591862266
25791759,0.51965022596427,0.0088730680054921,0.0027040365266739,0.0033300261828504,0.0028390052959677,-0.00058686036978881,0.00058506707466924,-5.7845929226119e-06,-1.727353580256e-06,-2.457261962367e-07,2.5900713411579e-07,-0.0003106070160265,0.00029763411722413,-0.00058931283934069,0.00058812198782007,-0.00058753576811937,0.00060061843368636,-0.00031694447311172,0.00029797762035622,-0.00031109768740929,0.00029714167363997,-0.00058980355966078,0.00058762604647139,-0.00058802664411311,0.00060012264526725,-0.00069487172125012,0.00069259964969695,-0.00069318899878671,0.00069612808484772,-0.00069470592892961,0.00069276892347525,-0.00069302313948204,0.00069629728683523,-0.00058748303313742,0.00057730977254507,-0.00058236520817666,0.00057433727741294,-0.00058765012971443,0.00057714182791479,-0.00058253242396809,0.00057416942712319,-0.0003164539579438,0.00029846989399862,2.0254110516068e-07,-2.9586724430275e-07,-8.8208040782659e-07,7.9261526896408e-07,-0.000818331088079,0.00081824128985866,-0.00078680071558885,0.00078851827895938,-0.00082203372204783,0.000821873162709,-0.00082150029094026,0.00082036094857551,-0.00082590608256526,0.00082542586685608,-0.00082567048449089,0.0008263068010223,-0.0008259527638694,0.0008251384963987,-0.00082582459746951,0.00082612685201908,-0.00078827766330177,0.00078638208417469,-0.0007881153767621,0.00078949913575162,-0.000821734532974,0.00082269008593949,-0.00081476890702399,0.00081474581419006,-0.00078709194192675,0.00078553010092535,2.0258424120923e-06,6.5738161214838e-06,-0.00063022730420949,0.00063127032745406,1.5189278412595e-06,-1.5754546218672e-07,-0.00062088377192379,0.00062287604533022,-0.00063556853966067,0.00062166017468488,-0.00063658824174032,0.00063444643849698,-0.00063290027730052,0.00067373235448217,-0.00061924491794052,0.0006245202628468,-0.00063392650915181,0.00062330061514693,-0.00063494852500427,0.00063608913372186,-0.00068504878404931,0.00068630654566662,-0.0006856071785657,0.00068574704088449,-0.00068544379557201,0.00068362163657884,-0.00068600319181639,0.00068306311108165,-0.00067424364706671,0.00068536084131474,-0.00066815258962778,0.00067164272280464,-0.00066759481392746,0.00067220277685336,-0.0006736836763923,0.00068591864055409,-0.00063454395291658,0.00067209305470094,0.75921599417412,128566,2924,0.0024395706983878,0.0034031053971297,0.0026246492891029,20.820790356979,-7.3433677144168e-05,-7.3433677144168e-05,-7.3433677144168e-05,3027396.8803822,0.008503534438619
25991759,0.52835132703461,0.009018725292698,0.0027471114097621,0.0033882560331812,0.0028833578497547,-0.00059617333451213,0.00059433378925531,-5.9161556803264e-06,-1.6954348588213e-06,-2.5700870541828e-07,2.7497887862937e-07,-0.00031364862892431,0.00030078428298909,-0.00059915461411961,0.00059791916448091,-0.00059735458757032,0.00061072277830741,-0.00032009763341437,0.00030049378361585,-0.00031416588504606,0.00030026514553454,-0.00059967197261017,0.00059739646037485,-0.0005978720964372,0.00061020024292067,-0.00070637891822333,0.00070406241252358,-0.00070467417310776,0.0007076574897883,-0.00070620413867489,0.00070424078682162,-0.00070449933161024,0.00070783578825853,-0.00059692529595254,0.0005865671462579,-0.00059173666564878,0.00058359498249492,-0.0005971014281595,0.00058639012357089,-0.00059191291194303,0.00058341806839606,-0.00031958050887717,0.00030101274186006,2.1490611052871e-07,-3.1054832318104e-07,-9.042501606453e-07,8.1262883562956e-07,-0.00083267192001003,0.00083257995336237,-0.00080068334119287,0.0008024491088956,-0.00083642573812595,0.00083627548773302,-0.00083591691172649,0.00083473471691983,-0.00084030433936208,0.00083981695120892,-0.00084006245288197,0.00084071971023676,-0.00084035509452721,0.00083951559776193,-0.00084022466222277,0.00084052979235383,-0.00080218909859483,0.00080024104458217,-0.0008019711306698,0.0008033850115615,-0.00083611800789428,0.00083711198546469,-0.00082896900521757,0.00082893116300797,-0.00080098523472567,0.00079938897768308,2.0463087700288e-06,6.7424403459853e-06,-0.00063985817230924,0.00064092267382812,1.5579885726812e-06,-1.6074402371115e-07,-0.00063045712516948,0.00063244151467089,-0.00064566290771259,0.00063149729254014,-0.00064673036642073,0.00064452062327278,-0.00064294373974189,0.00068469957284407,-0.00062877700924034,0.00063412720014307,-0.0006439794881365,0.00063317908269004,-0.00064504932625749,0.00064620471586381,-0.0006959597548073,0.00069722916877115,-0.00069653221860418,0.00069665556003203,-0.00069635395019239,0.00069449862461109,-0.00069692744510838,0.00069392601730883,-0.00068509732034891,0.00069647834681188,-0.00067890112460147,0.00068241965123563,-0.00067832930793027,0.00068299383830874,-0.00068452323006378,0.00069705021187726,-0.00064462886151743,0.00068301892867667,0.74286074022081,128566,2924,0.0024782346721125,0.0034626154914922,0.00266471915245,20.694828019382,-7.444137584494e-05,-7.444137584494e-05,-7.444137584494e-05,3030747.5982611,0.0086429744737993
26191759,0.53689479803932,0.0091649462112544,0.0027903316832159,0.0034466493563,0.0029279651717384,-0.00060547824735758,0.0006035921333701,-6.0393465528178e-06,-1.6474109070807e-06,-2.6285915782997e-07,2.9027814854518e-07,-0.00031721628839903,0.00030456981997878,-0.00060913607538036,0.0006078601475363,-0.00060731882824768,0.00062095472295979,-0.00032375311116008,0.0003034887508654,-0.00031775424067166,0.00030402986038879,-0.00060967414117997,0.0006073166356081,-0.00060785705267362,0.00062041137197498,-0.00071773687366493,0.0007153775089178,-0.00071601471298672,0.00071903404787024,-0.0007175551594403,0.00071556292760941,-0.00071583293842172,0.00071921939470839,-0.00060639255271156,0.00059586714143501,-0.00060114660684346,0.0005929149655313,-0.00060657566717155,0.0005956830904108,-0.0006013298398855,0.00059273101718276,-0.00032321530399234,0.00030402846531662,2.2430046886705e-07,-3.2218218504087e-07,-9.2636473019755e-07,8.3264056387285e-07,-0.00084685574758664,0.00084676167141791,-0.00081449659409079,0.00081630854151322,-0.00085066854383764,0.0008505228154968,-0.00085017930226096,0.00084896022360817,-0.00085454380018852,0.00085404728498123,-0.00085429513140961,0.00085497131081967,-0.00085459821325878,0.00085373561419404,-0.00085446598780712,0.00085477606730686,-0.00081603126531289,0.00081403285073767,-0.00081575154238411,0.00081719757733705,-0.00085035051827256,0.00085137707073072,-0.00084301625434486,0.00084296960003937,-0.00081481256514955,0.00081317998081982,2.0605065539902e-06,6.8960180113461e-06,-0.0006494851872561,0.00065056864721242,1.5955604559274e-06,-1.6537358918487e-07,-0.00064031723186083,0.00064228333708131,-0.00065592248820142,0.00064152000849557,-0.00065704810442855,0.00065477021170423,-0.00065327885782927,0.00069581769783693,-0.0006385958427228,0.00064401044119302,-0.00065419774061459,0.00064324310414061,-0.00065532575637636,0.00065649564413215,-0.00070677046375107,0.00070804755340141,-0.00070735698066149,0.00070745986761611,-0.00070715838777601,0.00070527299448186,-0.00070774594870524,0.00070468632635448,-0.00069593132172938,0.00070756008392056,-0.00068965170659711,0.00069318531188355,-0.00068906585590478,0.00069377361251532,-0.00069534315721411,0.000708145999749,-0.00065500533669668,0.00069409574649753,0.75895315696318,128566,2924,0.0025168619922953,0.0035214703881501,0.0027047668371318,20.556924192182,-7.5544606462547e-05,-7.5544606462547e-05,-7.5544606462547e-05,3034609.0104119,0.0087817127407553
26391759,0.54528141489873,0.0093134164441404,0.0028341540792958,0.0035058859181748,0.0029733764466698,-0.00061483686819043,0.00061290153712273,-6.163868590798e-06,-1.5912586722722e-06,-2.6219290017877e-07,3.0813491321707e-07,-0.00032095441062842,0.00030860256558749,-0.00061938418913706,0.00061807116307246,-0.00061755420946435,0.00063145296897053,-0.00032756621173366,0.00030657180316114,-0.00032150919105564,0.00030804569598121,-0.00061993907146909,0.00061751070979804,-0.00061810925637543,0.00063089268662695,-0.00072907304808073,0.00072667545065665,-0.00072733718384585,0.00073039015654455,-0.00072888573268515,0.00072686659768838,-0.00072714981108078,0.00073058123286991,-0.00061605812951925,0.00060537059744828,-0.00061075431239022,0.0006024369850383,-0.00061624691299938,0.00060518083539171,-0.00061094320427536,0.00060224732045928,-0.00032701157527011,0.00030712840701693,2.3179733871733e-07,-3.3178267596929e-07,-9.48361457054e-07,8.5265440216465e-07,-0.00086109812722506,0.00086100206087729,-0.00082850675780285,0.00083036358631148,-0.00086501308216692,0.00086486816257463,-0.00086453704985936,0.00086328511273503,-0.00086875244528247,0.00086824565055562,-0.00086849676266738,0.00086919063022083,-0.00086880909013682,0.00086792486116284,-0.00086867545637373,0.00086899187320993,-0.00083007264860787,0.00082802541885392,-0.0008297299431274,0.00083120945054431,-0.00086468376287965,0.00086573910478684,-0.00085715251527153,0.00085710099424656,-0.00082883805385468,0.00082716806008856,2.069558125391e-06,7.0480192516997e-06,-0.00065918434298288,0.00066028840245016,1.6325170507253e-06,-1.7049163133652e-07,-0.00065049786188343,0.00065244096142511,-0.00066645494362255,0.00065182418840852,-0.00066764869676961,0.00066530154536365,-0.00066399253206961,0.00070733737956838,-0.00064873531870997,0.00065420934003133,-0.00066468898765564,0.00065358847206374,-0.00066588516750676,0.00066706819332295,-0.00071758988633544,0.00071887154307303,-0.00071819041128554,0.00071826982464439,-0.00071796803743348,0.00071605477803468,-0.00071856962095429,0.0007154540910519,-0.00070692920897885,0.00071878768309938,-0.00070057065041973,0.00070412284431948,-0.00069997081373102,0.00070472521912522,-0.00070632700538063,0.00071938761269276,-0.00066576025745858,0.00070557427513074,0.78422388510536,128566,2924,0.002555707904915,0.0035805637028976,0.0027451164270049,20.418553397917,-7.6651572816666e-05,-7.6651572816666e-05,-7.6651572816666e-05,3034399.935207,0.0089212353752994
26591759,0.55367722325113,0.0094617188692986,0.0028779189132681,0.0035650970239727,0.0030187029320578,-0.00062469642435827,0.0006227096430336,-6.2900559508958e-06,-1.5235615916367e-06,-2.549585251226e-07,3.2699396534127e-07,-0.00032487318624563,0.00031280360003144,-0.00063011264725126,0.00062875619984625,-0.00062827160258554,0.00064243416259189,-0.00033154789613102,0.00030979114495627,-0.00032543922368088,0.00031223540618086,-0.00063067884046055,0.00062818433627146,-0.00062883796533086,0.00064186248083847,-0.00074098405720623,0.00073855206495003,-0.00073923663584528,0.00074232467110524,-0.00074079294833455,0.00073874710944418,-0.00073904547245676,0.00074251964504514,-0.00062624750373275,0.00061540914816383,-0.00062090316753692,0.00061245296230213,-0.00062644012052625,0.0006152155112081,-0.00062109588917226,0.00061225941976849,-0.00033098200107339,0.00031035907993364,2.3658862384316e-07,-3.3844004164125e-07,-9.7052523558181e-07,8.7304231288512e-07,-0.00087597226620437,0.0008758744204341,-0.00084318663148142,0.0008450872055467,-0.00088002232255721,0.0008798726760015,-0.00087955163082137,0.00087827244719132,-0.00088355688539719,0.00088303799928209,-0.00088329466827132,0.00088400477899434,-0.00088361382334488,0.00088270982282259,-0.00088347800578892,0.00088380298462387,-0.00084477726869863,0.00084268277434767,-0.00084436000775657,0.00084587559540939,-0.00087968262498661,0.00088076158189055,-0.00087194281011647,0.00087189239697156,-0.00084353113364785,0.00084182153469599,2.0750544362687e-06,7.2055170522795e-06,-0.00066941380543955,0.00067054147508622,1.6689923414505e-06,-1.7664743086848e-07,-0.00066113318332955,0.0006630469129322,-0.00067748509994386,0.00066263029253679,-0.00067874899990272,0.00067632991037234,-0.00067520355190298,0.00071950847556238,-0.00065932896340452,0.00066485712248845,-0.00067567737262547,0.00066443628651481,-0.0006769437533253,0.00067813832216957,-0.00072900736483043,0.00073029144066954,-0.00072962208140358,0.00072967550028401,-0.00072937323619676,0.00072743459056536,-0.00072998903758571,0.00072681970675428,-0.00071852354037634,0.00073063817242084,-0.0007120943110964,0.00071564705705318,-0.00071148031019521,0.00071626369487834,-0.00071790710084206,0.00073125228850696,-0.00067701307296699,0.00071770371494482,0.78230622601682,128566,2924,0.0025966343753783,0.0036422736399344,0.0027876739225645,20.571168029026,-7.5430655767792e-05,-7.5430655767792e-05,-7.5430655767792e-05,3033767.3163433,0.0090677461287783
26791759,0.56223833324977,0.0096095035231209,0.0029215669737402,0.0036241670239322,0.0030637695254485,-0.00063510638592621,0.00063306304706661,-6.4159692311764e-06,-1.4459828262121e-06,-2.4795400006208e-07,3.3982301249859e-07,-0.00032917209741527,0.00031726556124458,-0.00064124364799872,0.00063983738098014,-0.00063938997425648,0.00065380290874407,-0.00033591868109556,0.00031342798941811,-0.00032974381370461,0.00031669169870586,-0.00064181552035879,0.00063925974857088,-0.00063996201731774,0.00065322546533027,-0.00075352949356862,0.00075106423205605,-0.00075177068958731,0.00075489257462835,-0.00075333652774846,0.00075126122659065,-0.00075157767101133,0.00075508949829538,-0.00063688005537295,0.00062588472369689,-0.0006314951503436,0.00062288432647411,-0.00063707457366481,0.00062568914553722,-0.00063168976941762,0.0006226888488673,-0.00033534709974247,0.00031400163078321,2.3862708593818e-07,-3.4214423552512e-07,-9.9288706568472e-07,8.9380048802386e-07,-0.00089148150795812,0.00089138205680377,-0.0008584434407043,0.00086038656537245,-0.00089565807929266,0.0008954980994963,-0.00089518635535034,0.00089388551403334,-0.00089906076311218,0.00089852782485577,-0.00089879281168996,0.00089951758834945,-0.00089911664183162,0.0008981947908458,-0.00089897869000457,0.00089931453502213,-0.00086006502065675,0.00085792479863016,-0.00085954428418913,0.00086109859309393,-0.00089530991741341,0.00089640726486415,-0.00088736390169189,0.00088732056250687,-0.00085880032111422,0.00085704881444017,2.0816048846613e-06,7.3789842086107e-06,-0.00068020446687173,0.00068136455047674,1.7069840093763e-06,-1.8183607144595e-07,-0.00067220732970166,0.00067409895920806,-0.00068894658928535,0.00067387516698783,-0.00069028963260307,0.00068780060494537,-0.00068675925100105,0.00073223951413781,-0.0006703608546493,0.00067595147403015,-0.00068709656287445,0.00067572341510895,-0.00068844212061793,0.00068965130123528,-0.00074108668689884,0.00074237498049846,-0.00074171578648664,0.0007417446408294,-0.00074143811087861,0.00073947431475351,-0.00074206831004398,0.00073884504434658,-0.0007306643521852,0.0007430632413144,-0.0007241654809089,0.00072771965329858,-0.00072353711604262,0.00072835071581103,-0.0007300335068586,0.00074369173483093,-0.00068861109204337,0.00073039252443189,0.76472632473671,128566,2924,0.0026398389578212,0.0037066141519033,0.0028325796125297,21.003522738776,-7.1971818089794e-05,-7.1971818089794e-05,-7.1971818089794e-05,3037354.6471848,0.0092216033611547
26991759,0.57096386115156,0.0097562652954441,0.0029649477690435,0.0036828896318559,0.0031084278945446,-0.00064555372843106,0.00064345544465425,-6.5355524351578e-06,-1.361027801759e-06,-2.4501392536923e-07,3.4323501107758e-07,-0.00033349990675636,0.00032163624356033,-0.00065224878470648,0.00065078998978929,-0.00065037793616783,0.00066501676850603,-0.00034033506981298,0.00031725818709457,-0.00033407208995167,0.00032106193130683,-0.00065282111207267,0.00065021183835028,-0.0006509504396121,0.00066443880249478,-0.00076615000447442,0.00076365303079995,-0.00076437783864054,0.00076753793684864,-0.00076595696350884,0.00076385018756499,-0.00076418474572221,0.00076773502191349,-0.00064738444432909,0.00063623647759882,-0.00064195335235955,0.00063318794947899,-0.00064757907096116,0.0006360407398006,-0.00064214808599913,0.00063299232209044,-0.00033976303256606,0.00031783231682739,2.3810939324967e-07,-3.4308859150487e-07,-1.0152405205921e-06,9.1473345528272e-07,-0.00090701853125967,0.00090691765988009,-0.00087363101308647,0.00087561525298464,-0.00091128505273954,0.00091110966309155,-0.00091080437399856,0.00090948722758538,-0.00091470294966889,0.00091415430113731,-0.00091443000705887,0.00091516792101148,-0.00091475622401011,0.00091381841861742,-0.00091461595545962,0.00091496469051043,-0.00087528658438006,0.00087310242854189,-0.00087463999548561,0.00087623513863751,-0.00091093111563905,0.00091204189223446,-0.00090279080369322,0.00090276000266006,-0.00087399828068239,0.00087220311316944,2.092394865123e-06,7.5624905935193e-06,-0.00069102872891879,0.0006922304084763,1.7441504914762e-06,-1.8806327223048e-07,-0.00068328350021063,0.00068516761962333,-0.00070031242540087,0.00068501468519734,-0.00070173796563739,0.00069918328935021,-0.00069816134383313,0.0007447896899324,-0.000681394566849,0.00068706262129101,-0.00069841990242717,0.00068690539494301,-0.00069984798407063,0.00070107646890696,-0.00075327139930268,0.00075456744792323,-0.00075391495649631,0.00075392263363523,-0.00075360805590515,0.00075161537581093,-0.00075425272582406,0.00075097164220602,-0.00074276078985812,0.00075545797405416,-0.00073619664889211,0.00073976039948456,-0.00073555385118692,0.00074040596589069,-0.00074211547363397,0.00075610092134073,-0.00070005567722507,0.00074290026876507,0.74557636063446,128566,2924,0.0026832005315332,0.0037710652925849,0.002877642394815,21.443007698222,-6.8455938414224e-05,-6.8455938414224e-05,-6.8455938414224e-05,3044394.12448,0.0093759137704163
27191759,0.57984831997872,0.0099014465042802,0.0030078915185098,0.0037410425325978,0.0031525124531726,-0.0006559747868271,0.0006538321249697,-6.6419341575421e-06,-1.2607336629578e-06,-2.4333517378839e-07,3.4336167791247e-07,-0.00033778013690799,0.00032601870676873,-0.0006630497777111,0.00066154182018966,-0.0006611570010664,0.00067599880495185,-0.0003447123586992,0.00032120263092676,-0.00033835077437522,0.00032544593309941,-0.00066362057547086,0.00066096515882177,-0.00066172797478062,0.00067542232704194,-0.00077878807576755,0.00077626299224672,-0.00077700057746308,0.00078020192634137,-0.00077859563953965,0.00077645964066632,-0.00077680809307418,0.00078039850221816,-0.00065767524549518,0.00064638610947099,-0.00065219229847239,0.00064329355532142,-0.00065786931386238,0.0006461908847804,-0.00065238647677151,0.00064309844911837,-0.00034414187582618,0.00032177522371132,2.3664330906016e-07,-3.4295602416127e-07,-1.0375775620012e-06,9.3575952019428e-07,-0.00092251865959757,0.00092241647709429,-0.00088866823141899,0.00089069308885586,-0.00092683483828313,0.00092664213676397,-0.00092634267160352,0.00092501130933727,-0.00093042218951212,0.00092985724770683,-0.00093014459722966,0.00093089511450961,-0.00093047267305268,0.00092951965814744,-0.00093033023041159,0.00093069264961422,-0.00089035139123381,0.00088812400692745,-0.00088956388484764,0.00089120071828409,-0.00092647772485674,0.00092760007861283,-0.00091815686439304,0.00091814074305987,-0.00088904312487435,0.00088720365127312,2.1080678114405e-06,7.7545741935362e-06,-0.00070183886476553,0.00070309164053524,1.7813060359192e-06,-1.9435580889621e-07,-0.00069432920559227,0.00069620718972338,-0.00071153204184501,0.00069599597665528,-0.00071303444172588,0.00071042038734705,-0.00070942103792373,0.00075713854520077,-0.00069239775126519,0.0006981447347584,-0.00070959696357994,0.00069792919907313,-0.00071110193515239,0.00071235610190856,-0.00076550170357255,0.0007668107590594,-0.00076615973433611,0.00076615144940073,-0.0007658227519735,0.00076380125469066,-0.00076648191173968,0.00076314304117525,-0.00075474699239559,0.00076775537115379,-0.00074812659281768,0.0007517078800245,-0.0007474693456639,0.00075236796869067,-0.00075408718558393,0.00076841278922694,-0.00071135792101836,0.00075520662937723,0.72509827638905,128566,2924,0.0027264725203671,0.0038353590648523,0.0029226645880292,21.882771850463,-6.4937825196296e-05,-6.4937825196296e-05,-6.4937825196296e-05,3055010.2717377,0.0095299584728499
27391759,0.58882107663858,0.01005129981774,0.0030521634611391,0.0038009982694123,0.0031981380871881,-0.00066644221306121,0.00066426166829139,-6.7344343366861e-06,-1.1492247077885e-06,-2.4168138204104e-07,3.4070331780121e-07,-0.00034242997565566,0.00033078590154909,-0.00067408021609585,0.00067251936707262,-0.00067216079264799,0.00068719057056013,-0.00034947451123476,0.00032554616950167,-0.00034299634251904,0.00033021742707467,-0.0006746467430976,0.00067194691654765,-0.00067272750445833,0.00068661830774991,-0.0007914149402417,0.00078886491974961,-0.00078961077913072,0.00079284963844383,-0.00079122405006435,0.00078906014719022,-0.00078941982552851,0.00079304479316438,-0.0006680350311007,0.0006566063127306,-0.00066248858388027,0.00065349055695909,-0.00066822760546199,0.00065641251840805,-0.00066268128145697,0.00065329689200122,-0.00034890833504039,0.00032611445392666,2.3380540893291e-07,-3.4138006163732e-07,-1.0602622368811e-06,9.5721376059276e-07,-0.00093809153096268,0.00093798811839362,-0.00090381321731494,0.00090587859670455,-0.00094245035850806,0.00094223739513612,-0.00094194416190828,0.00094060115559385,-0.0009462055901677,0.00094562325996362,-0.00094592376919927,0.00094668632031729,-0.0009462524825907,0.00094528499411117,-0.00094610869404632,0.00094648606298102,-0.00090553214511001,0.0009032617788251,-0.00090459720620171,0.0009062774995389,-0.00094209238468787,0.00094322388273848,-0.0009335868709899,0.00093358853211448,-0.00090420188126728,0.00090231648667752,2.1286973864652e-06,7.9580009270596e-06,-0.00071274594762554,0.00071405879143749,1.8220654126019e-06,-1.9784661773299e-07,-0.00070577643965977,0.00070764565962747,-0.00072307008551039,0.00070728325041893,-0.00072464980102714,0.00072198487572149,-0.0007210635105714,0.00076989727386988,-0.00070380174530411,0.0007096265651776,-0.00072109166397329,0.00070925975242631,-0.00072267399725821,0.00072396391698977,-0.0007777359473261,0.00077906274890573,-0.00077840871244549,0.00077838866457752,-0.00077804183429484,0.00077599190773676,-0.00077871575729922,0.00077531894940204,-0.00076683934385227,0.00078015768858293,-0.00076017003829826,0.00076377785791375,-0.00075949811075795,0.00076445277085335,-0.00076616477115846,0.00078082983475469,-0.00072304373663964,0.00076792212282435,0.74093824927125,128566,2924,0.0027699484098467,0.0038999509305836,0.0029681067943325,22.214506339192,-6.2283949286461e-05,-6.2283949286461e-05,-6.2283949286461e-05,3065505.3346447,0.009684956902084
27591759,0.59783729349703,0.010203879685234,0.0030971793762356,0.0038620276207722,0.0032446726882259,-0.00067687896976934,0.00067466279126339,-6.8357231103436e-06,-1.0389023846245e-06,-2.4022179748257e-07,3.3788381462173e-07,-0.0003468820080527,0.00033529473780851,-0.00068520103223028,0.00068359203390787,-0.00068325091303147,0.00069847793372833,-0.00035406414621889,0.00032975088204069,-0.00034744412741214,0.00033473059033534,-0.00068576329421293,0.00068302375381979,-0.00068381337314699,0.00069790986063703,-0.00080404567309484,0.00080146991851973,-0.00080222195388686,0.00080550131005797,-0.00080385630814669,0.00080166374379572,-0.00080203251853077,0.00080569505560142,-0.00067844499819221,0.00066687209462673,-0.00067282329633037,0.00066372967778753,-0.0006786361271735,0.00066667971489831,-0.00067301456277133,0.00066353744600523,-0.00035350222334891,0.00033031490003583,2.3100911532582e-07,-3.3983585283409e-07,-1.0841805679095e-06,9.7986745994062e-07,-0.00095376269519393,0.00095365800896321,-0.00091911482441106,0.0009212230983173,-0.00095818504990268,0.00095795095200754,-0.00095765873574623,0.0009563032018315,-0.00096202862079045,0.00096142804362438,-0.0009617425749339,0.00096251794492325,-0.0009620732088269,0.00096109037361934,-0.00096192823397783,0.00096232131970255,-0.00092087390322987,0.00091855813126783,-0.00091978578279466,0.00092151186839356,-0.000957826911641,0.00095896832241697,-0.00094912142741289,0.00094914161663419,-0.00091951496329771,0.00091758125318972,2.1565536879342e-06,8.1797236024624e-06,-0.00072367592148678,0.00072506144095036,1.8673185207453e-06,-1.9929772366996e-07,-0.00071737945537701,0.00071925890722692,-0.00073476196725406,0.00071869962016021,-0.00073640988885907,0.00073369557044378,-0.00073292451918129,0.00078293767941769,-0.00071535912449769,0.00072128553900419,-0.00073273781067825,0.00072072179615387,-0.00073438841244441,0.00073572033964637,-0.00078997088143402,0.00079132077118679,-0.00079065921645121,0.00079063110329809,-0.00079026457357451,0.00078818722434733,-0.00079095408423091,0.0007874986979517,-0.00077899559700796,0.00079264167412949,-0.00077227219133707,0.00077591788296884,-0.0007715847015788,0.00077660837812678,-0.0007783054290172,0.00079332936783954,-0.00073495048250116,0.00078091692148193,0.75071314881985,128566,2924,0.0028133027406839,0.0039649447042163,0.0030136686260251,22.482174401146,-6.014260479083e-05,-6.014260479083e-05,-6.014260479083e-05,3071584.5387066,0.0098403832479751
27791759,0.60688934700192,0.010359289777681,0.0031429719926483,0.0039241768494107,0.0032921409356218,-0.00068742210045831,0.00068516622164861,-6.9420061412217e-06,-9.2737853944186e-07,-2.4180733173084e-07,3.3362635536659e-07,-0.0003513070009451,0.00033967027310377,-0.00069656718497315,0.00069491093010476,-0.0006945826919569,0.00071000785097135,-0.00035864606452138,0.00033393943645677,-0.00035186645547336,0.0003391088723736,-0.00069712675645956,0.00069434524538591,-0.00069514248237852,0.0007094424090369,-0.00081679895888684,0.00081420103349127,-0.00081495366015174,0.00081827408072984,-0.00081661060276808,0.0008143939914015,-0.00081476522464999,0.00081846694999948,-0.00068904941412752,0.00067731716523934,-0.00068334644957036,0.00067414297786227,-0.00068923962979969,0.00067712566606122,-0.00068353682696155,0.00067395164848625,-0.00035808682271869,0.00033450073273391,2.2904606224707e-07,-3.3903711825878e-07,-1.1098248037378e-06,1.0043549352901e-06,-0.00096964316644833,0.00096953731671017,-0.00093469759175794,0.0009368528791943,-0.00097413852084299,0.00097388378858901,-0.00097359189626483,0.00097222118633297,-0.00097801583661579,0.00097739645873325,-0.00097772501499901,0.00097851504050079,-0.00097805818544254,0.00097705838465877,-0.00097791295303201,0.00097832252845049,-0.00093649634978207,0.00093413126511454,-0.0009352557602475,0.0009370306945424,-0.00097378048637165,0.00097493468764314,-0.00096486983759034,0.00096490829249663,-0.00093511089185938,0.00093312602602027,2.1893471736058e-06,8.4214846484347e-06,-0.00073476401082029,0.00073623056136983,1.916760435127e-06,-2.001451574283e-07,-0.00072935324117664,0.00073125365067801,-0.00074673960353775,0.00073037405472084,-0.00074844641532357,0.00074568331093702,-0.00074511402950498,0.00079648689517047,-0.00072728376418493,0.000733329473687,-0.00074466621409659,0.00073244539955606,-0.00074637576606265,0.00074775729837946,-0.00080233789714595,0.00080371596152013,-0.00080304300222976,0.00080300951166523,-0.00080262052449204,0.00080051667070848,-0.00080332682212121,0.00079981137654922,-0.00079136287284384,0.0008053409053041,-0.00078457211821685,0.00078826535822306,-0.00078386786411055,0.00078897262561687,-0.00079065591310429,0.00080604534262663,-0.00074718920455721,0.00079441703700461,0.76134594192144,128566,2924,0.0028570916886706,0.0040308013202246,0.0030599029916764,22.748192213372,-5.8014462293027e-05,-5.8014462293027e-05,-5.8014462293027e-05,3075801.7235498,0.0099978233611302
27991759,0.61597030826291,0.010517633274459,0.0031895674196974,0.0039874958938754,0.0033405699608858,-0.00069808516283451,0.00069578829572108,-7.0506519639471e-06,-8.0420481362004e-07,-2.4374784531505e-07,3.3074199912769e-07,-0.00035569874327826,0.0003439816713671,-0.00070819460895631,0.0007064921718776,-0.00070617182570557,0.00072179977073648,-0.00036322012267081,0.00033809252597123,-0.0003562572340957,0.00034342132800789,-0.00070875318030743,0.00070592740076781,-0.00070673064391339,0.00072123525879223,-0.00082968203217953,0.00082706187752274,-0.00082781267496739,0.00083117643443497,-0.00082949407991027,0.00082725454566996,-0.00082762463394527,0.00083136900389852,-0.00069986250752816,0.00068795537424726,-0.00069407015512239,0.00068472528627592,-0.00070005237105798,0.00068776418109686,-0.00069426021173026,0.00068453428749428,-0.00036266188478729,0.00033865280599653,2.2795095941393e-07,-3.3907755172711e-07,-1.1370783732575e-06,1.0304937011582e-06,-0.00098574680153911,0.00098563983002513,-0.00095057409648617,0.00095278019762658,-0.00099032374356007,0.00099004902196798,-0.0009897588968797,0.00098837028355376,-0.00099417872244333,0.00099354006938508,-0.00099388255627614,0.00099468894313148,-0.00099421871698831,0.00099320032770315,-0.00099407384782823,0.00099450046868146,-0.00095241814973277,0.00095000002518104,-0.00095101520378836,0.00095284164733848,-0.00098996576635344,0.00099113558093783,-0.00098084611123086,0.00098090227021803,-0.000951003377995,0.00094896477036637,2.2261681695124e-06,8.6843812719631e-06,-0.00074601924467346,0.00074757567023371,1.9711731526728e-06,-1.9930162106093e-07,-0.00074165875108136,0.00074357017337104,-0.00075900268815627,0.00074231678141114,-0.00076075977475155,0.00075794937562987,-0.00075762779345404,0.00081050502161591,-0.00073953699591604,0.00074569845623837,-0.00075687685546247,0.00074444049981044,-0.0007586367493739,0.00076007579401499,-0.00081485214371506,0.00081626366888697,-0.00081557510847402,0.00081553933493225,-0.00081512431221627,0.00081299517659725,-0.00081584849252821,0.0008122720201325,-0.00080396418429545,0.00081829445219048,-0.00079709810140261,0.00080084739658753,-0.00079637601280219,0.00080157255321934,-0.00080323933761561,0.00081901672325757,-0.00075975537038294,0.00080838287069743,0.77288939323027,128566,2924,0.0029013774897899,0.0040975776759095,0.0031068484403168,23.014145200321,-5.5886838397433e-05,-5.5886838397433e-05,-5.5886838397433e-05,3078423.0997525,0.010157437513854
28191759,0.62504017641522,0.010678431974985,0.0032368235761588,0.0040517996077797,0.0033898087910469,-0.00070873111891085,0.00070640797209363,-7.1448609453276e-06,-6.6378492629134e-07,-2.3875141815727e-07,3.3846975662588e-07,-0.0003598173471744,0.00034816842911325,-0.00071994132728486,0.00071820769610257,-0.00071787841360922,0.00073370615977364,-0.00036754131358627,0.00034215416306129,-0.00036037846727605,0.00034760548953721,-0.00072050252200905,0.00071764022090146,-0.00071843987289192,0.00073313896694565,-0.000842552511996,0.00083990788321723,-0.00084065778379375,0.00084406487851371,-0.00084236372428356,0.00084010148180746,-0.00084046890105651,0.00084425837030742,-0.00071075501410266,0.00069865755812296,-0.00070487132875492,0.00069536459348432,-0.00071094574898052,0.00069846544727864,-0.00070506227401301,0.00069517269971878,-0.00036698044581816,0.00034271705099103,2.2865521252776e-07,-3.4099705222814e-07,-1.1678165633539e-06,1.0600509995905e-06,-0.001001921928312,0.0010018137722741,-0.00096659124291687,0.00096885608860724,-0.0010065952611457,0.0010063018152058,-0.0010060091536972,0.0010045966571271,-0.0010103620173104,0.0010097029632949,-0.0010100583900747,0.0010108845809459,-0.0010104008632972,0.001009360320643,-0.0010102550269774,0.0010106996954782,-0.00096849103056466,0.00096601181107935,-0.00096692289376785,0.00096880632618182,-0.0010062354909952,0.0010074267679213,-0.00099690849747603,0.00099698096579723,-0.00096704401452578,0.00096494605827124,2.2665391641715e-06,8.9559281722401e-06,-0.00075730843839253,0.00075895604715527,2.0306050154678e-06,-2.0032303956488e-07,-0.00075406168946847,0.00075599585544625,-0.00077140474640727,0.00075437191976594,-0.00077319909361395,0.00077033889937339,-0.00077030881606574,0.00082474896267193,-0.00075188085003262,0.00075818333647885,-0.00076921971384263,0.00075655477240242,-0.00077101693131664,0.00077252449897591,-0.0008273723947686,0.00082882167934612,-0.00082811550615372,0.00082807717542852,-0.00082763481851694,0.00082548214383165,-0.00082837916824815,0.00082473883676481,-0.00081666629441366,0.00083134634123965,-0.00080971206166486,0.00081351847838908,-0.00080896985370907,0.00081426382197675,-0.00081592127296349,0.0008320887397452,-0.00077249557147349,0.00082256769939791,0.78542227460747,128566,2924,0.0029456236263199,0.0041646443283407,0.0031539360594606,23.22418538324,-5.4206516934082e-05,-5.4206516934082e-05,-5.4206516934082e-05,3078978.24828,0.010317473884113
28391759,0.63408134040142,0.010841592164506,0.003284716587816,0.0041170516732846,0.0034398239034057,-0.00071943306333725,0.00071709164040075,-7.2299178200098e-06,-5.2517203290598e-07,-2.3467853061052e-07,3.5017898389287e-07,-0.00036379154512183,0.00035229847373178,-0.00073186966455139,0.00073010379379818,-0.00072976359780262,0.00074578890013001,-0.00037173698545833,0.0003461707066459,-0.00036436006773399,0.00035172816936558,-0.00073243825082572,0.00072952880913861,-0.00073033246715016,0.00074521422662657,-0.00085547888117562,0.00085280576454183,-0.00085355583791244,0.00085700583026422,-0.00085528762351339,0.0008530019343844,-0.00085336447886489,0.00085720188787191,-0.00072180558955984,0.00070950811866442,-0.00071582309828922,0.00070613297491682,-0.00072199882984903,0.00070931346272186,-0.00071601656535144,0.00070593854707455,-0.00037116873798876,0.00034674095462878,2.3170259958834e-07,-3.454260231639e-07,-1.2019014499788e-06,1.0928149084557e-06,-0.0010182365499124,0.0010181270651501,-0.00098281844066044,0.00098514993523425,-0.0010230281488673,0.0010227184130929,-0.0010224269385836,0.0010209834596759,-0.0010266257372804,0.0010259455989712,-0.0010263132108213,0.0010271628694237,-0.0010266644485221,0.0010255978036944,-0.0010265154387159,0.0010269785565535,-0.00098477791876183,0.00098222941594021,-0.00098305266058197,0.00098499774207637,-0.0010226650172999,0.0010238845424124,-0.0010131344757926,0.0010132205217633,-0.00098329866643667,0.00098113642531748,2.3116947684937e-06,9.2345034419582e-06,-0.0007686938288383,0.00077043066001136,2.094513516349e-06,-2.0342956697031e-07,-0.00076672638853902,0.00076868600837852,-0.00078400671779497,0.00076659076544978,-0.00078583109274871,0.00078291543455994,-0.000783178256756,0.00083917067037583,-0.00076448003497994,0.00077093914009939,-0.00078175605595383,0.0007688391820674,-0.00078358336912154,0.00078516666140729,-0.00083996145915598,0.00084145298514357,-0.00084072689547459,0.00084068612454792,-0.00084021581860841,0.00083803948341646,-0.00084098252070272,0.00083727384554899,-0.00082953212134722,0.0008445634650763,-0.00082247993222212,0.00082634984195997,-0.00082171542436925,0.00082711756578098,-0.00082876473218368,0.00084532816855703,-0.00078543060491045,0.00083692388241247,0.7990379124155,128566,2924,0.0029901201682039,0.0042322829755566,0.0032014174366238,23.415081059496,-5.267935152403e-05,-5.267935152403e-05,-5.267935152403e-05,3077800.5725415,0.010478764666316
28591759,0.64308736461956,0.0110059843934,0.003332933296546,0.004182814875815,0.0034902362210387,-0.00073017531330796,0.00072781893842167,-7.3263071171677e-06,-3.9025742439722e-07,-2.3284454688307e-07,3.6535499008052e-07,-0.00036755043138468,0.0003562927866581,-0.0007438969806992,0.00074210298698226,-0.00074174594811721,0.00075796627779347,-0.00037573173280708,0.0003499885676976,-0.00036813183878689,0.00035570961426147,-0.00074447849890439,0.00074151495452238,-0.00074232776880327,0.00075737858560648,-0.00086846124088765,0.00086575733057222,-0.000866509083704,0.00086999956986799,-0.00086826559927318,0.0008659579874711,-0.00086631333455744,0.00087020010780311,-0.00073296311408611,0.00072044843033445,-0.00072687631628439,0.00071697986677232,-0.00073316075975036,0.00072024932821878,-0.00072707421017846,0.00071678100389588,-0.00037515059223833,0.00035057168820194,2.3743304060778e-07,-3.5277145484627e-07,-1.238185473599e-06,1.1275700231883e-06,-0.0010346666696899,0.0010345556464742,-0.00099920020248331,0.0010016041167483,-0.0010396001531553,0.0010392779959761,-0.0010389891923923,0.0010375076349232,-0.0010429530331906,0.0010422521077104,-0.0010426303047694,0.0010435065227405,-0.0010429918955566,0.0010418956405587,-0.0010428396444775,0.0010433204973301,-0.0010012234964608,0.00099859951989876,-0.00099934609981239,0.0010013548444733,-0.0010392325676671,0.0010404870007,-0.0010295051836661,0.0010296005011758,-0.00099971001716865,0.00099748105226528,2.3578737404744e-06,9.5268890536659e-06,-0.00078015256433006,0.00078197421691551,2.1603884028541e-06,-2.0876939283018e-07,-0.00077951886804893,0.00078149253085718,-0.00079672071354104,0.00077889488041222,-0.00079857462671189,0.00079560025048216,-0.0007959788084403,0.00085370014491536,-0.00077720292822379,0.00078381548160014,-0.00079440029286171,0.00078121295533864,-0.00079625724164584,0.00079792122429481,-0.00085261495891287,0.00085415050406372,-0.00085340411418909,0.00085335988086697,-0.00085286089665243,0.00085066055483984,-0.00085365135852719,0.00084987119352457,-0.00084252220189784,0.00085790945360147,-0.00083536550291701,0.00083930196290963,-0.00083457731180929,0.00084009348192575,-0.00084173102688026,0.0008586978466072,-0.00079830088327114,0.00085138373828579,0.80787521692943,128566,2924,0.0030347921048228,0.0043003938666512,0.0032491926050036,23.605474789152,-5.1156201686782e-05,-5.1156201686782e-05,-5.1156201686782e-05,3075426.9446005,0.010641033067774
28791759,0.65205208778487,0.011165650371553,0.0033797977899495,0.0042467658703868,0.0035390867112162,-0.00074068384801116,0.0007383075932174,-7.4292404759539e-06,-2.6242619014027e-07,-2.3398593368852e-07,3.8114740872095e-07,-0.00037078385275723,0.00035976841005454,-0.00075545877668311,0.00075364827621781,-0.00075326000048584,0.00076967286988042,-0.0003792183626768,0.0003532166593579,-0.00037138173335466,0.00035916880638373,-0.00075605676449861,0.0007530436343677,-0.00075385831652987,0.0007690685987766,-0.00088126542554393,0.00087853056426312,-0.00087928347698834,0.00088281158115542,-0.00088106421462579,0.0008787369028621,-0.0008790821483045,0.00088301778896779,-0.00074374456338533,0.00073103241834177,-0.00073755356494573,0.00072745290098666,-0.00074394780209781,0.00073082766265379,-0.00073775708590407,0.00072724841805701,-0.00037862078467979,0.00035381619850152,2.4487107496461e-07,-3.6202665038145e-07,-1.2760906237656e-06,1.1637549562341e-06,-0.001050837196728,0.001050724446216,-0.0010152205784617,0.0010177008977704,-0.0010558967384579,0.0010555645053092,-0.0010552833466568,0.0010537589314784,-0.0010590595137209,0.001058337760681,-0.0010587262099836,0.00105963102562,-0.0010591004759241,0.0010579721996093,-0.0010589441854291,0.0010594424391205,-0.0010173134969644,0.001014609678418,-0.0010152887249028,0.00101736271742,-0.0010555256707269,0.0010568194098052,-0.0010456170986948,0.0010457189549161,-0.0010157630966631,0.0010134654387849,2.4048500572067e-06,9.8136746704541e-06,-0.00079136313671636,0.00079326322840343,2.2263428012829e-06,-2.1712042030058e-07,-0.00079166166187587,0.00079365111530913,-0.00080896954063766,0.00079070488198444,-0.00081084698212523,0.00080780737773768,-0.0008081714337271,0.00086754980491274,-0.00078927314646221,0.00079604683658919,-0.00080657636331166,0.0007930956201679,-0.00080845692680725,0.00081020109404851,-0.0008650977875739,0.00086667604758537,-0.00086591170604888,0.00086586062474965,-0.00086533451164399,0.00086310745882036,-0.00086614977270546,0.00086229333168849,-0.00085519486071985,0.00087094941539281,-0.00084793945095713,0.00085194389836717,-0.00084712653531796,0.00085276024270644,-0.0008543788715894,0.00087176253507862,-0.00081056627417716,0.00086516079667192,0.78846824235434,128566,2924,0.0030784820874498,0.0043674219693324,0.0032959218909256,23.795848722332,-4.9633210221345e-05,-4.9633210221345e-05,-4.9633210221345e-05,3072713.0481062,0.01080018449559
28991759,0.66103206806084,0.011318670113409,0.0034247862772309,0.0043081480861701,0.003585735750008,-0.00075110696916277,0.0007487207153361,-7.5230432785359e-06,-1.3248404566946e-07,-2.3341344071657e-07,4.0590105394686e-07,-0.00037379965252329,0.00036324238234304,-0.00076659531163958,0.00076478432077645,-0.00076434994943766,0.00078094356028856,-0.00038252018828688,0.00035631598497684,-0.00037442115137533,0.00036261914037222,-0.00076721691990921,0.00076415592986286,-0.00076497187284204,0.00078031554133137,-0.00089402634236293,0.00089126209259291,-0.00089201599819319,0.0008955768816266,-0.00089381717466914,0.00089147650719069,-0.00089180671826441,0.00089579116841482,-0.00075418306625335,0.00074129127305094,-0.00074788576812916,0.00073758344388834,-0.00075439432356341,0.00074107847815518,-0.0007480972974836,0.00073737091593352,-0.00038189894580341,0.00035693911276875,2.5571983964973e-07,-3.7515015315669e-07,-1.3169545966713e-06,1.2024843793212e-06,-0.0010668115569366,0.0010666966590438,-0.0010308199020954,0.0010333840481256,-0.0010719269232618,0.0010715895492964,-0.0010713216799182,0.0010697450024367,-0.0010751085965737,0.0010743662167922,-0.0010747633587689,0.0010757005371241,-0.0010751545949032,0.0010739896977443,-0.0010749925701332,0.0010755071869672,-0.0010329824602808,0.001030190557408,-0.001030832334791,0.0010329741497305,-0.0010715517147448,0.0010728933023208,-0.0010614929640976,0.0010615955620922,-0.0010313993546093,0.0010290296024732,2.4517049261184e-06,1.0085880443293e-05,-0.00080247975219036,0.00080445166521389,2.294268180144e-06,-2.2890404723989e-07,-0.00080327793001662,0.00080528330585439,-0.00082082231305726,0.00080209111586481,-0.00082271952924727,0.00081961011324613,-0.00081982001699335,0.00088069325573112,-0.00080081140520598,0.00080775718653026,-0.00081835104351014,0.00080455989325628,-0.00082025145120443,0.00082208192113144,-0.00087756422480076,0.00087918843011894,-0.00087840468544415,0.00087834643294358,-0.00087778837358602,0.0008755401177547,-0.00087863020527873,0.00087469943999576,-0.00086760938043039,0.00088373874282053,-0.00086026335575984,0.00086433289781045,-0.00085942391103426,0.00086517584614734,-0.00086676679287158,0.00088457839668282,-0.00082229301059529,0.00087822621867187,0.75490318687192,128566,2924,0.0031218330100841,0.0044336324086563,0.0033422454388765,24.096459049566,-4.722832760347e-05,-4.722832760347e-05,-4.722832760347e-05,3075719.4312915,0.010957782300264
29191759,0.67002909516798,0.011468328021394,0.0034688033048282,0.0043682372437961,0.00363128747277,-0.0007614329883667,0.00075903962396254,-7.6064542302592e-06,-1.5756925286568e-08,-2.3306078317537e-07,4.310176368388e-07,-0.00037702306545163,0.00036700523918486,-0.00077745542482858,0.00077564552329477,-0.00077516038160825,0.00079191179088512,-0.0003860232452482,0.00035961450647826,-0.00037766881829272,0.0003663577197604,-0.0007781012558177,0.00077499276779145,-0.00077580652303949,0.00079125941198695,-0.00090665490258022,0.00090386195716611,-0.00090461419304647,0.0009082075978896,-0.00090643761618565,0.00090408463196105,-0.00090439679651473,0.00090843014788324,-0.00076434135827696,0.00075127300018159,-0.0007579324605764,0.00074742703219689,-0.00076456081909974,0.00075105196964937,-0.00075815220219292,0.00074720626747385,-0.00038537775018147,0.00036026186410035,2.6674686852043e-07,-3.8872626410102e-07,-1.3592508222892e-06,1.2423766490808e-06,-0.0010825685902601,0.00108245127686,-0.0010460057767913,0.0010486562157803,-0.0010876689507177,0.001087325933661,-0.0010870733575174,0.0010854426390504,-0.0010910566089747,0.0010902926442048,-0.0010906983874725,0.0010916687237782,-0.00109110824058,0.00108990538994,-0.0010909399055622,0.0010914713095928,-0.0010482394431442,0.0010453564411052,-0.0010459914737395,0.0010482031757553,-0.0010872891292013,0.0010886798037866,-0.0010771084330975,0.0010772117445209,-0.0010466271522944,0.0010441827042635,2.500716565559e-06,1.0348316047779e-05,-0.00081351380184025,0.00081555679560631,2.364196303537e-06,-2.4130632584771e-07,-0.00081452940556848,0.00081652435295279,-0.00083248518088425,0.00081326283158441,-0.00083440367542507,0.00083122764072808,-0.00083110023947775,0.00089344853091557,-0.00081198233373708,0.00081907894666929,-0.00082993328091478,0.00081581220942987,-0.00083185500384619,0.00083378007819481,-0.00088993922370103,0.00089161431183303,-0.00089080711004418,0.0008907448650057,-0.00089015151923089,0.00088788549869265,-0.00089102079465436,0.0008870173879396,-0.0008798016385375,0.00089630162912758,-0.00087236495847516,0.00087650657414392,-0.00087149809616301,0.00087737699356712,-0.00087893158914643,0.00089716870284768,-0.00083365387493242,0.00089090090926093,0.73755731192944,128566,2924,0.003164779804617,0.0044989395100626,0.0033882227067379,24.414806779181,-4.4681545766551e-05,-4.4681545766551e-05,-4.4681545766551e-05,3085255.5840699,0.011113732310729
29391759,0.67903472338765,0.011610673327703,0.0035107004084508,0.0044255177461059,0.0036744551731464,-0.0007713967532671,0.0007689885767253,-7.6896880884644e-06,8.3241783659152e-08,-2.3340363768394e-07,4.5262526758849e-07,-0.00037987502731629,0.00037043302619099,-0.00078756448243232,0.00078575052294316,-0.00078521677175307,0.00080211037859939,-0.00038918113977355,0.00036255915254892,-0.00038054233944823,0.00036976394943809,-0.00078823180594486,0.0007850761449876,-0.00078588439710013,0.0008014363771261,-0.00091899239146661,0.00091617210214019,-0.00091692194775069,0.00092054093339177,-0.00091876798440392,0.00091640209100053,-0.00091669743223362,0.00092077080063605,-0.00077389617632562,0.00076064831408107,-0.0007673745271313,0.00075661667210509,-0.00077412290112509,0.00076041998644064,-0.00076760153891195,0.00075638861611576,-0.0003885140859615,0.00036322803885951,2.7632773537482e-07,-4.0097533279353e-07,-1.4020900425828e-06,1.2826847880111e-06,-0.0010978662770118,0.0010977464235195,-0.0010604917506951,0.0010632283641438,-0.0011029124939748,0.0011025606772253,-0.0011023226937894,0.001100640204091,-0.0011066775333067,0.0011058905896309,-0.0011063065743389,0.001107309342892,-0.0011067349318803,0.0011054946063016,-0.0011065615439977,0.0011071108790882,-0.0010627841249918,0.001059809896909,-0.0010604460007712,0.0010627293188703,-0.0011025308261563,0.0011039680803556,-0.0010922404585337,0.0010923473976249,-0.0010611500525284,0.0010586289269151,2.5526199332421e-06,1.0604309695354e-05,-0.00082417561797204,0.00082628616998848,2.4331861409866e-06,-2.5561909973838e-07,-0.00082487056701437,0.00082688459744299,-0.00084348479083757,0.00082377292559259,-0.00084542213905902,0.00084217643892611,-0.00084148384232861,0.00090519783363669,-0.00082224196442871,0.00082952078928172,-0.0008408513296877,0.00082640384719446,-0.0008427919273324,0.00084481043293125,-0.00090201848803523,0.0009037465365445,-0.00090291413554573,0.00090284931268819,-0.00090222024116124,0.00089993876992447,-0.00090311728865353,0.00089904289077883,-0.00089143306800266,0.00090832021277948,-0.00088390007911366,0.00088811705059692,-0.00088300545989747,0.00088901525965263,-0.00089053523544515,0.00090921504264865,-0.00084411902689818,0.00090256866940474,0.70228482341667,128566,2924,0.0032062007068068,0.0045623392256252,0.0034326446840064,24.733640546847,-4.2130875625225e-05,-4.2130875625225e-05,-4.2130875625225e-05,3099074.294874,0.011264662565172
29591759,0.68803997033421,0.011746788393172,0.003550778429459,0.004480396957748,0.0037156130059651,-0.00078104077883433,0.00077860841778004,-7.7723105738171e-06,1.4817062090593e-07,-2.3429850005494e-07,4.6095686365831e-07,-0.00038264113986373,0.00037375216588785,-0.0007970050557823,0.0007951596342751,-0.00079460113001978,0.00081159092285111,-0.00039222449311792,0.00036544268850592,-0.00038331757602833,0.00037307397086129,-0.00079768146142632,0.00079447609759742,-0.00079527783105753,0.00081090775777366,-0.00093109682695798,0.00092824387535213,-0.00092899464704649,0.00093263392336662,-0.00093086955607358,0.00092847692783312,-0.00092876726852887,0.00093286685647414,-0.00078289303606451,0.00076944663615328,-0.00077624787971736,0.00076518359676934,-0.00078312278235874,0.00076921524355862,-0.00077647792371923,0.00076495248804816,-0.00039154832132318,0.00036612066546538,2.7974434403924e-07,-4.0676547696469e-07,-1.4458167344822e-06,1.3241120223987e-06,-0.0011127462572008,0.0011126241029222,-0.0010743133741244,0.0010771341244927,-0.0011177350026918,0.0011173615820287,-0.0011171401154735,0.0011154178369018,-0.001121996658219,0.0011211820644693,-0.0011216130251577,0.0011226449101349,-0.0011220567720219,0.0011207827558179,-0.0011218794884953,0.0011224518935212,-0.001076655347738,0.0010735923816247,-0.0010742418673178,0.0010766032125392,-0.0011173520185648,0.0011188243947032,-0.0011069573014794,0.0011070811949354,-0.0010750138538127,0.0010724100931158,2.6071571664091e-06,1.0852460999204e-05,-0.00083452981945904,0.00083670318112711,2.5006264400353e-06,-2.7350003564203e-07,-0.00083450271941754,0.00083652343169528,-0.00085398625784549,0.00083377985034553,-0.0008559323950905,0.00085261180585414,-0.00085108391472383,0.00091611556524203,-0.00083179060147766,0.00083924316532137,-0.0008512692756108,0.00083649429272195,-0.00085321865725378,0.00085532930190608,-0.00091380232740766,0.00091558469911305,-0.00091472641839088,0.00091465902560615,-0.00091399580369732,0.00091169752952813,-0.00091492129605535,0.00091077320018145,-0.00090258098317512,0.00091987207069561,-0.00089495267465047,0.00089925190670113,-0.00089402961952302,0.0009001785758847,-0.00090165470342359,0.00092079534463099,-0.00085380260895485,0.00091340287546334,0.67337837355877,128566,2924,0.003246266751663,0.0046240069638135,0.0034757776912306,25.052370148351,-3.9581038813195e-05,-3.9581038813195e-05,-3.9581038813195e-05,3119576.5689392,0.011411189990661
29791759,0.69699879413377,0.011889440185787,0.0035926584447711,0.0045377421060777,0.0037590396349386,-0.00079080632163899,0.00078833176655012,-7.8698445703104e-06,1.7747038819057e-07,-2.4227917731791e-07,4.4959882526733e-07,-0.00038613438895819,0.0003776754826742,-0.0008069407084558,0.00080504099965759,-0.00080448426932242,0.00082151324750273,-0.00039598516955046,0.00036899306826824,-0.00038680760990435,0.00037700056683964,-0.00080761381575773,0.00080436068112147,-0.000805157697656,0.00082083330462348,-0.00094324759085474,0.00094035780929225,-0.00094111081913728,0.00094478832520046,-0.00094302162576913,0.00094058973625574,-0.00094088473489976,0.00094502012719447,-0.00079220315187808,0.0007785427820628,-0.0007854257610959,0.00077398460743179,-0.00079243171634618,0.00077831251782251,-0.00078565466939432,0.00077375464948431,-0.00039531227442266,0.000369667747888,2.7709007884621e-07,-4.0602607045502e-07,-1.4914290235716e-06,1.3678354201885e-06,-0.0011278191893977,0.0011276951460887,-0.0010884133231061,0.001091318508369,-0.0011327996856127,0.0011323912947381,-0.0011321846428852,0.0011304339614616,-0.0011374059589687,0.0011365585155009,-0.0011370081212069,0.0011380667556233,-0.0011374649392767,0.0011361604079443,-0.0011372859726564,0.0011378874632374,-0.0010908144774806,0.0010876632765487,-0.0010883597297957,0.0010908078025945,-0.0011324101792456,0.0011339071212438,-0.0011219385740414,0.0011220936297602,-0.0010891588527298,0.0010864645801533,2.661592780924e-06,1.1098716061617e-05,-0.00084512690958539,0.00084735884346077,2.5660241551887e-06,-2.976861455813e-07,-0.00084489674324786,0.00084689831823474,-0.00086523732587334,0.00084451230529679,-0.00086718797754176,0.00086378551452678,-0.00086140924338263,0.00092797201556695,-0.00084209699749029,0.00084970574059304,-0.00086243267624379,0.0008473143996823,-0.00086438656483062,0.00086659066570634,-0.00092558925123536,0.00092742499627811,-0.00092654321762916,0.00092646943643391,-0.00092577866300037,0.00092346307115381,-0.00092673403281242,0.00092250886256885,-0.00091406487748854,0.00093175363507887,-0.00090633051333559,0.00091071865634522,-0.00090537759506695,0.00091167521133992,-0.00091310872460607,0.00093270676662995,-0.0008642155207776,0.00092517170611936,0.70917941579091,128566,2924,0.0032867960283478,0.0046864742856809,0.0035199096630181,25.304943079399,-3.7560455364809e-05,-3.7560455364809e-05,-3.7560455364809e-05,3138027.398141,0.011560024636211
29991759,0.70590272232762,0.012038862614927,0.0036363666543019,0.0045976954187556,0.0038048005418697,-0.00080078253428242,0.00079824422688153,-7.9831061764451e-06,2.0139497950953e-07,-2.5578409159907e-07,4.2513905336349e-07,-0.00038970321211552,0.00038160820242523,-0.00081756147192999,0.00081559149306138,-0.00081505136035565,0.00083211372980343,-0.00039983794013309,0.00037256370724572,-0.00039036580120169,0.0003809440259874,-0.00081822387704874,0.0008149217972518,-0.00081571411457668,0.00083144445438514,-0.00095557167922823,0.00095263491285177,-0.00095339848925871,0.00095711045610732,-0.00095534949232474,0.00095286318548006,-0.00095317616928007,0.00095733858769985,-0.00080207626043791,0.00078817873472726,-0.00079514681175452,0.00078334367361299,-0.00080230112491625,0.00078795211171888,-0.00079537205238944,0.00078311740228121,-0.00039917568974922,0.00037322771441804,2.7096695075415e-07,-4.0126591220241e-07,-1.5390499851545e-06,1.4140799017117e-06,-0.0011432963103881,0.0011431708912228,-0.0011031409657454,0.0011061330466703,-0.0011483088730796,0.001147857146694,-0.001147665465463,0.0011458927535209,-0.0011530579225091,0.0011521741042676,-0.0011526444480982,0.0011537293535371,-0.0011531120042979,0.0011517784594913,-0.001152933474994,0.0011535685884047,-0.0011056165653262,0.0011023757120531,-0.0011031277906893,0.0011056700305041,-0.0011479109584328,0.0011494271499472,-0.0011373355306673,0.0011375311401424,-0.0011039292932651,0.0011011380708171,2.7181823148631e-06,1.1358259296415e-05,-0.00085602296014503,0.00085831728631991,2.6321111044818e-06,-3.2572471485728e-07,-0.00085617565263328,0.00085817678989081,-0.00087724432612673,0.00085596824964207,-0.0008792150219913,0.00087572724814289,-0.00087275151345958,0.00094100403748806,-0.00085328386266916,0.00086107626753121,-0.00087434756829105,0.00085886243597337,-0.00087632150414995,0.00087862446823891,-0.00093756883547776,0.00093946070259985,-0.00093855419833701,0.00093847374452036,-0.00093775448887933,0.00093542723599617,-0.0009387412552264,0.00093444162279758,-0.00092604130019466,0.00094410888697745,-0.00091819749035456,0.00092269025573576,-0.00091721319957423,0.00092367820625048,-0.00092505375504805,0.00094509340356828,-0.00087564983127811,0.00093811164977953,0.74657307781477,128566,2924,0.0033281617872467,0.0047506103104292,0.0035652892773574,25.555846187105,-3.5553230503157e-05,-3.5553230503157e-05,-3.5553230503157e-05,3146343.5278219,0.011712677877462
30191759,0.71474427650673,0.012177692003439,0.00367696661652,0.0046536492016966,0.0038470761852228,-0.00081018527418683,0.00080759092273737,-8.0886582327256e-06,2.4131359495205e-07,-2.6608320112271e-07,3.9906198503306e-07,-0.00039205060502024,0.00038429969524493,-0.00082716482243766,0.00082511823240825,-0.00082459887195609,0.00084169841225801,-0.00040248758231923,0.00037497245388514,-0.00039269784332079,0.00038365097117361,-0.000827811799991,0.00082446392813715,-0.00082524622219671,0.00084104454835037,-0.00096746713827345,0.00096448951383365,-0.00096525746830005,0.00096900844003161,-0.00096725034090371,0.00096471252393098,-0.00096504052227979,0.0009692312977818,-0.00081114154106266,0.00079702934851168,-0.00080406890956336,0.00079199642303108,-0.00081136112392769,0.00079680796832698,-0.00080428890399368,0.00079177542801129,-0.0004018407062397,0.00037562102497587,2.6268592006413e-07,-3.9384793080765e-07,-1.5883027286537e-06,1.4624201925297e-06,-0.0011581535503865,0.0011580272241742,-0.0011171042758312,0.0011201857454937,-0.0011631597680123,0.0011626592131652,-0.0011624908623128,0.0011607001094455,-0.0011681938416564,0.0011672712857266,-0.0011677643423279,0.0011688756274357,-0.0011682434194604,0.0011668816833206,-0.0011680626904084,0.0011687347236802,-0.0011196426801706,0.0011163105943712,-0.001117138103839,0.0011197802276083,-0.0011627543529624,0.0011642867633226,-0.001152075549752,0.001152318182063,-0.0011179389044962,0.0011150459474528,2.7761525702162e-06,1.1618571163411e-05,-0.00086627571248224,0.00086863049274498,2.7024980501923e-06,-3.5319102666105e-07,-0.00086619389975237,0.00086819629720254,-0.00088811274524196,0.00086625568058795,-0.00089009703056799,0.00088652196314595,-0.00088278795547717,0.00095267463584983,-0.00086320634932444,0.00087119149413529,-0.00088512022759581,0.00086924561148807,-0.00088710773644383,0.00088951490251693,-0.00094913452180599,0.00095108462779846,-0.00095015252918678,0.00095006503407947,-0.00094931464576889,0.00094697750285218,-0.00095033404899816,0.0009459592450878,-0.00093729191786552,0.0009557026665764,-0.00092935810783374,0.00093394201227564,-0.00092834117238201,0.00093496257744681,-0.0009362717499851,0.00095671981036505,-0.00088578196361465,0.00094968650601375,0.70019171492712,128566,2924,0.0033671653363799,0.0048121693378837,0.0036079909839537,25.806683832214,-3.3546529342286e-05,-3.3546529342286e-05,-3.3546529342286e-05,3153689.7331256,0.011857649867247
30391759,0.72352529527954,0.012310464981459,0.0037158155364399,0.0047072486838323,0.0038874007611864,-0.00081932965534876,0.00081669036852286,-8.1942894030471e-06,2.7866088143e-07,-2.7363198392117e-07,3.675482684957e-07,-0.00039452152901961,0.00038717783680792,-0.0008362538957179,0.00083411558689564,-0.00083363104328414,0.00085072636881391,-0.00040525408354977,0.00037750981216265,-0.00039514530947726,0.00038655267407292,-0.00083687741012169,0.00083348477853104,-0.00083425492932464,0.00085009600618267,-0.00097907441798243,0.00097605773794435,-0.00097682720489744,0.00098061862456993,-0.00097886566812688,0.00097627276609478,-0.00097661831300275,0.00098083349798714,-0.00081965228786261,0.0008053341204773,-0.00081243469960127,0.00080018034607647,-0.00081986388535241,0.00080512071073885,-0.00081264672567798,0.00079996733804082,-0.00040463066243291,0.00037813482160819,2.5053169435006e-07,-3.8208161052901e-07,-1.641648095348e-06,1.5152822107823e-06,-0.001172569785974,0.001172442984191,-0.0011304391877967,0.0011336161891294,-0.0011775274927058,0.0011769676087393,-0.0011768381527846,0.0011750350536679,-0.0011830233385764,0.0011820569196822,-0.001182575381728,0.0011837136110463,-0.001183067061588,0.0011816774222358,-0.0011828812098813,0.0011835961405683,-0.0011330403586954,0.0011296117584144,-0.0011305135767586,0.0011332671878459,-0.0011771132226479,0.0011786570567036,-0.0011663722519132,0.0011666733139787,-0.0011313215624252,0.0011283161186001,2.8320586407351e-06,1.1861350900103e-05,-0.00087626176130216,0.00087866930790636,2.775704374124e-06,-3.8642665858436e-07,-0.00087560320312342,0.00087758670798542,-0.00089854505558817,0.00087610474670879,-0.00090054242117917,0.00089686652172246,-0.00089219104872831,0.00096361764988878,-0.00087251143923171,0.00088068607788927,-0.00089544832643957,0.00087919885097472,-0.00089744891900371,0.00089996362581643,-0.0009604315097292,0.0009624392374525,-0.00096148501078222,0.00096138415487845,-0.00096060597371727,0.00095825971788499,-0.00096166087059173,0.00095720596813311,-0.0009481544626205,0.00096686331074945,-0.00094013837913191,0.00094480673002366,-0.00093908594727091,0.00094586277009728,-0.00094709880561528,0.00096791593161535,-0.00089528922394687,0.00096052533585133,0.675483113904,128566,2924,0.0034051096085128,0.0048719017766931,0.0036495676998274,26.075050315383,-3.1399597476936e-05,-3.1399597476936e-05,-3.1399597476936e-05,3170269.0042639,0.011998583169571
30591759,0.73230464463756,0.012447838228368,0.0037559308174483,0.0047625838341385,0.0039293235767811,-0.00082886756606608,0.00082617667847594,-8.308085018833e-06,3.0707850356782e-07,-2.8278039220169e-07,3.3236943680229e-07,-0.00039763581273597,0.00039063352680903,-0.00084600178655009,0.0008437664759618,-0.0008433226882738,0.0008603851865811,-0.00040867863312261,0.00038068175935715,-0.00039823405173979,0.00039003400060867,-0.00084659980131656,0.00084316121522147,-0.00084392106809399,0.00085978038231683,-0.00099103405331893,0.00098797675759266,-0.00098874773811746,0.00099258697282674,-0.00099083404033373,0.00098818312423026,-0.00098854757781008,0.00099279318263404,-0.0008286399560265,0.00081410864288929,-0.00082127093657152,0.00080884123437374,-0.00082884290048154,0.00081390389187561,-0.00082147430747479,0.00080863689652209,-0.00040808071071495,0.00038128113838458,2.3748876392402e-07,-3.6910388584018e-07,-1.6986305385159e-06,1.5720881639705e-06,-0.0011874750753656,0.0011873481076412,-0.0011442835035209,0.0011475630824514,-0.0011924110271123,0.0011917875262448,-0.0011917035025075,0.0011898879270624,-0.001198278329805,0.0011972651599937,-0.0011978091631887,0.0011989764703699,-0.0011983143738364,0.0011968953129541,-0.0011981228245402,0.0011988841522305,-0.0011469625734132,0.0011434310235361,-0.0011444118477873,0.0011472853813361,-0.0011919833928785,0.0011935394124002,-0.0011812135572329,0.001181577951707,-0.0011452291480447,0.0011421033866633,2.8898046989448e-06,1.2110017261942e-05,-0.00088676191901609,0.00088922417279845,2.8526734363494e-06,-4.2345156224518e-07,-0.00088584525923391,0.00088780558257137,-0.00090985144958236,0.00088681465180095,-0.00091185804051283,0.00090807908920916,-0.00090245927607903,0.00097561833773239,-0.00088264188591256,0.00089101656694833,-0.00090664308637006,0.00089002033068472,-0.00090865293578185,0.00091128777086106,-0.00097208629826765,0.00097415438763594,-0.00097317779734411,0.00097306130403703,-0.00097225823085519,0.00096990320080952,-0.00097335113506802,0.00096881145228623,-0.00095962143600166,0.00097862880692281,-0.00095151647234395,0.00095627078553198,-0.00095042603431502,0.00095736481613385,-0.00095852776274989,0.00097971941333812,-0.00090566907403108,0.00097241441001132,0.69870694520656,128566,2924,0.0034446712660472,0.0049336606132566,0.0036932816775586,26.468617749416,-2.8251058004668e-05,-2.8251058004668e-05,-2.8251058004668e-05,3186792.3791801,0.012145386029334
30791759,0.74107313606676,0.01258981179751,0.0037972683140682,0.0048197065659828,0.0039728369174593,-0.00083855818507188,0.0008358054416741,-8.4321013997644e-06,3.4432341830573e-07,-2.945604013538e-07,2.9530138556267e-07,-0.00040074141531885,0.00039406136888632,-0.00085620993794203,0.00085387332477371,-0.00085347188501637,0.00087052068609962,-0.00041210123148688,0.00038382012392887,-0.00040131490101834,0.00039348668465005,-0.00085678318169206,0.00085329286025915,-0.00085404550688578,0.00086994066982262,-0.0010031365843178,0.0010000357534849,-0.0010008108325836,0.0010046984659915,-0.0010029450580198,0.0010002336977751,-0.0010006191658331,0.0010048962585392,-0.00083801276255733,0.00082326381049819,-0.00083048960168676,0.00081788508647006,-0.00083820730549043,0.00082306748011139,-0.0008306845828284,0.00081768916328799,-0.00041152807148526,0.00038439462883137,2.2493407239446e-07,-3.5642364435368e-07,-1.757483073223e-06,1.6309685425527e-06,-0.001202675246651,0.0012025483109546,-0.001158552555379,0.0011619390473697,-0.0012076197287887,0.0012069322660934,-0.0012068865433793,0.0012050565829615,-0.0012137334285515,0.0012126726426458,-0.0012132425249313,0.0012144406592954,-0.0012137622897419,0.0012123124534004,-0.0012135641764704,0.0012143731692551,-0.001161312316541,0.0011576738820027,-0.0011587616649834,0.0011617589440342,-0.0012071812598808,0.0012087517288154,-0.0011963472366832,0.0011967756927978,-0.0011595611727939,0.0011563116981026,2.9478441703284e-06,1.2368948167848e-05,-0.00089748236168893,0.00090000384585659,2.9326484689813e-06,-4.6144414842357e-07,-0.00089675326117158,0.00089869996392246,-0.00092168478124538,0.00089802268104032,-0.00092370791963498,0.00091981617018404,-0.00091341277492553,0.00098840861526547,-0.00089343434183336,0.00090202646920907,-0.00091836090303813,0.00090134383225906,-0.00092038731037704,0.00092314033576341,-0.00098390071645267,0.00098602919485726,-0.00098503154684492,0.00098489679719362,-0.00098407041882241,0.00098170810796094,-0.00098520264538764,0.00098057703861976,-0.00097141321608149,0.00099071906305581,-0.0009632284116828,0.00096806813480795,-0.00096209861330635,0.00096920146491258,-0.0009702802170834,0.00099184897906207,-0.00091673807126629,0.0009850891954858,0.72242073232623,128566,2924,0.0034848504872931,0.0049966349463316,0.0037379178656464,26.865354624957,-2.5077163000344e-05,-2.5077163000344e-05,-2.5077163000344e-05,3196142.465624,0.01229499947763
30991759,0.74981970771429,0.012736410026485,0.0038398288672286,0.0048786521959381,0.0040179289633179,-0.00084841459559481,0.00084560103561354,-8.5551055797234e-06,3.8936831830788e-07,-3.0545028987163e-07,2.6067469491329e-07,-0.00040387693615289,0.00039752354611018,-0.00086691139450645,0.00086448059521095,-0.00086411221648461,0.00088118737788985,-0.00041554850120646,0.00038698270421701,-0.00040442714400492,0.00039697221053957,-0.00086746140450353,0.00086392342006763,-0.00086466260621127,0.00088063065162616,-0.0010153599592928,0.0010122137087099,-0.0010129955029924,0.0010169271367798,-0.0010151763673953,0.0010124037468455,-0.0010128117576224,0.0010171170288439,-0.00084781238016576,0.00083285080389076,-0.00084013679072362,0.00082737070660949,-0.00084799903113038,0.00083266238240934,-0.00084032386954054,0.00082718268336999,-0.00041499859577214,0.00038753384930253,2.1324864781822e-07,-3.4439770575782e-07,-1.8167644027704e-06,1.6904893749965e-06,-0.0012181423303126,0.0012180156434642,-0.0011732436788915,0.0011767388569754,-0.0012230908702921,0.0012223408361234,-0.0012223297451471,0.0012204837802378,-0.0012293784737622,0.0012282704590301,-0.0012288647580457,0.0012300947885042,-0.0012294007040322,0.0012279194528501,-0.001229193431123,0.0012300501279186,-0.0011760885756639,0.0011723419129267,-0.00117355978062,0.0011766815607338,-0.0012226428047377,0.0012242298174935,-0.0012116778981169,0.0012121694905079,-0.0011743177108945,0.0011709441830078,3.0090758446715e-06,1.2634116893984e-05,-0.00090841880669458,0.00091100402124754,3.0177093462186e-06,-4.954040456929e-07,-0.00090830663419341,0.00091027320250795,-0.00093400241322658,0.00090969943186551,-0.00093603939158216,0.00093203367511226,-0.00092498941468643,0.0010019194255394,-0.00090487108356025,0.00091371626691789,-0.00093056197793958,0.00091313709940976,-0.00093260224351952,0.0009354743633889,-0.0009958883164898,0.00099807851339067,-0.00099705881293675,0.0009969064540089,-0.00099605545137013,0.00099368791872967,-0.00099722734457312,0.00099251718647127,-0.00098350493421147,0.0010031013574551,-0.0009752451067095,0.00098016645767337,-0.00097407563099347,0.00098133946409432,-0.00098233225623238,0.0010042709295895,-0.00092843129923522,0.00099848344968942,0.7469882507338,128566,2924,0.0035257252934039,0.0050607080573022,0.0037834580603216,27.262216012433,-2.1902271900535e-05,-2.1902271900535e-05,-2.1902271900535e-05,3200538.0361936,0.012447366954669
31191759,0.75860088862527,0.012890486392627,0.0038844231617326,0.004940564555876,0.0040654986750185,-0.00085882916198328,0.00085595216463914,-8.6879564003093e-06,4.3345905474141e-07,-3.1729100218122e-07,2.3156669129453e-07,-0.00040728579883138,0.00040123579991287,-0.00087857566806507,0.00087605994191681,-0.00087571435890888,0.00089285526362184,-0.00041929361483516,0.00039038502756521,-0.00040781909259157,0.00040070140035697,-0.00087910877987301,0.00087551972490098,-0.0008762478678639,0.00089231547213275,-0.0010281205362526,0.001024921976012,-0.0010257167892697,0.0010296812223447,-0.0010279427463673,0.0010251062571863,-0.0010255388338061,0.0010298653740079,-0.0008584843233997,0.00084330739275805,-0.00085065368590691,0.0008377067418456,-0.00085866520438401,0.0008431247470205,-0.00085083500974677,0.00083752445102782,-0.00041876068600892,0.00039091909837786,2.0476852787986e-07,-3.356263336643e-07,-1.8760492443873e-06,1.7499844783032e-06,-0.0012343682499118,0.001234241782229,-0.0011889071469517,0.001192513111394,-0.0012393279127518,0.001238521666154,-0.0012385346833433,0.0012366663350195,-0.0012456632930977,0.0012445101996054,-0.001245125952235,0.0012463899741118,-0.001245678778124,0.0012441639473129,-0.0012454609070263,0.0012463631088771,-0.0011918444536358,0.0011879873746085,-0.0011893276499143,0.001192571753832,-0.001238867992684,0.00124047784427,-0.0012277138853847,0.0012282622349439,-0.0011900504230444,0.0011865549873185,3.0710525795659e-06,1.2907585098909e-05,-0.00092000457266669,0.00092265626875701,3.105439768227e-06,-5.2671970013672e-07,-0.00092106648081043,0.00092304674814239,-0.00094726255235806,0.00092232496124264,-0.00094930949865762,0.00094519298769772,-0.00093773063288117,0.0010166658241167,-0.00091751424103921,0.00092660648176084,-0.00094370552776631,0.00092587917404091,-0.00094575576451349,0.00094875025543803,-0.0010084745023668,0.0010107276014223,-0.0010096846625174,0.0010095158700337,-0.0010086408223712,0.0010062695623136,-0.001009852378157,0.0010050591718339,-0.00099638695266289,0.0010162897513189,-0.00098804537828835,0.00099305508956938,-0.0009868362354518,0.00099426780562944,-0.00099517460032902,0.0010174989696881,-0.00094128912097429,0.0010131132476193,0.78082574580699,128566,2924,0.0035689189963561,0.0051279172986307,0.0038316973866413,27.788506399003,-1.7691948807975e-05,-1.7691948807975e-05,-1.7691948807975e-05,3201272.8445934,0.012608014251458
31391759,0.76742372136302,0.013039357444574,0.0039274710804661,0.0050006012336948,0.0041112851304126,-0.00086903717092546,0.00086610302710297,-8.8230593289077e-06,4.7631752363154e-07,-3.3004290106433e-07,2.0900238522999e-07,-0.00040970092249281,0.00040398658515433,-0.00088972015762138,0.00088713498131168,-0.00088679221426886,0.00090400553747236,-0.00042205886953379,0.00039277274997,-0.00041022453404734,0.00040346189403082,-0.00089024367959245,0.00088660439265797,-0.00088731611053371,0.00090347539008919,-0.0010408578165957,0.0010376087540545,-0.0010384143307836,0.0010424145864181,-0.0010406833329822,0.0010377897715419,-0.0010382396968946,0.0010425954750795,-0.00086880004102744,0.00085340678694568,-0.00086081680384169,0.00084766398730511,-0.00086897766283253,0.00085322740699091,-0.00086099483831278,0.00084748497371059,-0.00042153553898618,0.00039329713734647,1.9991390057918e-07,-3.3064931117625e-07,-1.9343919430969e-06,1.8083969517825e-06,-0.0012505201350119,0.0012503937437212,-0.0012044336260586,0.0012081507450667,-0.0012554891788377,0.0012546344931451,-0.0012546733383991,0.0012527758693841,-0.001261883943575,0.0012606887654399,-0.0012613240577282,0.0012626237531895,-0.0012618955100825,0.0012603451547543,-0.0012616654991998,0.0012626099158588,-0.0012074589974693,0.0012034909065377,-0.0012049469366529,0.0012083087323908,-0.0012550202813616,0.0012566594527995,-0.0012437043883995,0.0012443013629695,-0.0012056394103861,0.0012020263704029,3.1352434268117e-06,1.318307154908e-05,-0.0009313745966761,0.0009340908526566,3.1932634252761e-06,-5.5581133305201e-07,-0.00093318697463752,0.00093517971292605,-0.00095987714370972,0.00093431647216477,-0.00096193580618702,0.00095770438524612,-0.00094982887050151,0.0010305894303077,-0.0009295202271435,0.00093885395492535,-0.00095620561349785,0.00093798515642598,-0.00095826760325165,0.00096137611557352,-0.0010210306714874,0.0010233474362369,-0.001022279785063,0.0010220967450081,-0.0010211959372549,0.001018822077424,-0.0010224464596268,0.0010175727243941,-0.0010090463400432,0.0010292944442153,-0.001000615706174,0.0010057143705061,-0.00099936761209804,0.0010069660614479,-0.0010077949956146,0.0010305426256321,-0.00095350193065257,0.0010269223034882,0.75165981923713,128566,2924,0.0036112738997719,0.0051948102941541,0.0038790346131622,28.355976649162,-1.3152186806701e-05,-1.3152186806701e-05,-1.3152186806701e-05,3199194.37939,0.012766606795714
31591759,0.77627270160324,0.013182191680188,0.0039688095967155,0.0050583324213378,0.0041550496621346,-0.00087902781434347,0.00087604144043284,-8.9486435659268e-06,5.1549517800584e-07,-3.4526075964786e-07,1.8770023869527e-07,-0.00041212365761784,0.00040678321708535,-0.00090026908229183,0.00089762126931226,-0.0008972782585689,0.00091453688036661,-0.00042482038052815,0.00039520037483339,-0.0004126412767095,0.00040626454496486,-0.00090078666667311,0.00089709667464878,-0.0008977961968703,0.00091401269132239,-0.0010533871775367,0.0010500863301395,-0.0010509055425072,0.0010549364232983,-0.0010532147694947,0.0010502653201094,-0.0010507329839539,0.0010551152976462,-0.00087856785779362,0.00086296809677917,-0.00087043624568469,0.00085709816447158,-0.00087874345721219,0.00086279075735707,-0.00087061224041171,0.00085692117133489,-0.00042430302138506,0.00039571875232817,1.9684478116161e-07,-3.2760601019221e-07,-1.9916657043823e-06,1.8656088708822e-06,-0.0012663040758499,0.0012661776293122,-0.0012194110632609,0.0012232382097714,-0.0012712373245451,0.0012703384894025,-0.0012704049945278,0.0012684753739129,-0.0012778753229119,0.001276639933247,-0.0012772927596756,0.0012786284739311,-0.0012778848192672,0.0012762983278669,-0.0012776421210458,0.0012786266227941,-0.0012225146037648,0.0012184363514242,-0.0012200303197599,0.001223506221974,-0.0012707581110607,0.0012724293506875,-0.0012593362568004,0.0012599773106098,-0.0012206762256782,0.0012169489293297,3.1958901528314e-06,1.3440241925689e-05,-0.00094248176552403,0.00094525552353818,3.2775549538627e-06,-5.8619754596721e-07,-0.00094457257056635,0.00094656939863708,-0.00097188806007459,0.00094571378551291,-0.00097394893125759,0.00096960109351248,-0.00096120797852239,0.0010435635331065,-0.00094079345417443,0.00095035600342117,-0.00096810423701516,0.00094949475039597,-0.00097016844147775,0.00097338510903845,-0.0010333938999071,0.0010357721174973,-0.0010346812214392,0.0010344832107745,-0.0010335571928397,0.0010311801579719,-0.0010348459284855,0.0010298925929159,-0.0010213011308677,0.0010418979029003,-0.0010127905564203,0.0010179706514995,-0.001011504239592,0.0010192605787986,-0.0010200115505894,0.0010431842925676,-0.00096499343660145,0.0010397840667944,0.71981430496292,128566,2924,0.0036527285876801,0.0052601770086587,0.0039252638428943,28.924534956043,-8.6037203516562e-06,-8.6037203516562e-06,-8.6037203516562e-06,3205539.1169087,0.012921644275219
31791759,0.78501181059691,0.01331556040283,0.0040074457168987,0.0051123786469893,0.0041957360389425,-0.00088816589410424,0.00088513159859361,-9.0671491530243e-06,5.4871775290208e-07,-3.6527142114369e-07,1.6606820033789e-07,-0.00041411722614781,0.00040916915281688,-0.00090949583048539,0.00090678594610045,-0.00090644593009927,0.00092372416199489,-0.00042716387395264,0.00039720516273639,-0.00041463325252258,0.00040865210423477,-0.00091001189110184,0.00090626291302956,-0.00090696230337128,0.00092320154725187,-0.0010650345721837,0.0010616799932634,-0.0010625157999973,0.0010665684460756,-0.0010648627681695,0.0010618584402063,-0.0010623438546193,0.0010667467770975,-0.00088711171174331,0.00087131775993783,-0.00087883330992196,0.00086535695862041,-0.00088728677700025,0.00087114095831424,-0.00087900874344978,0.00086518052230422,-0.00042664802785823,0.00039772199023913,1.9591123778561e-07,-3.2691849942928e-07,-2.0459499211359e-06,1.9196344309295e-06,-0.0012809470955594,0.0012808203949021,-0.0012330032588613,0.0012369356790223,-0.0012858095765365,0.0012848728573856,-0.001284975030006,0.0012830106819011,-0.0012928836667564,0.0012916113799075,-0.0012922801059501,0.0012936510849785,-0.001292894311591,0.0012912720484948,-0.0012926400160166,0.0012936608839055,-0.0012361787512012,0.0012319947163583,-0.0012337563891713,0.0012373386323096,-0.0012853218588031,0.0012870273630057,-0.001273853520223,0.0012745319668158,-0.0012343301977724,0.0012304959887,3.2533528997415e-06,1.3677589673414e-05,-0.00095265201765177,0.00095547737243463,3.3583404736178e-06,-6.1388537118998e-07,-0.00095444430724574,0.00095643618347557,-0.000982596157101,0.00095581230824202,-0.00098465332664654,0.00098020292404767,-0.00097107843368912,0.0010548941153908,-0.00095055896555476,0.00096032898262036,-0.0009787061268851,0.0009596994806114,-0.00098076664608832,0.00098409310449827,-0.0010448691539323,0.0010473062201541,-0.0010461926257196,0.0010459811630117,-0.0010450294469426,0.0010426486596417,-0.0010463543381272,0.0010413249309049,-0.0010324200989102,0.0010533430733012,-0.0010238344322148,0.0010290963879839,-0.001022511954766,0.0010304224610849,-0.0010310943420421,0.0010546656323522,-0.00097497015671705,0.0010510083545972,0.68196834921553,128566,2924,0.0036906406571091,0.0053208168326303,0.0039675901737755,29.262114143207,-5.9030868543458e-06,-5.9030868543458e-06,-5.9030868543458e-06,3218368.4808755,0.013064373903807
31991759,0.79347105536124,0.013457840890846,0.0040485394150946,0.0051697242952981,0.0042395771804538,-0.00089708330317221,0.00089399383539486,-9.1849288288175e-06,5.7081686674544e-07,-3.9137721150313e-07,1.3945619854962e-07,-0.00041702479512368,0.00041245083589588,-0.00091917753024017,0.00091639219462712,-0.00091607170355671,0.00093335613849506,-0.00043041812659612,0.00040014920677749,-0.00041754041515796,0.00041193424880567,-0.00091969310592927,0.00091586961295553,-0.00091658762249986,0.00093283396871634,-0.001076100466596,0.0010726897158487,-0.0010735445311098,0.0010776463243519,-0.0010759288694736,0.0010728679888352,-0.001073372782436,0.0010778244859056,-0.00089577494228796,0.00087979745570054,-0.00088734410612865,0.00087378519468207,-0.00089594981823889,0.00087962082461781,-0.0008875193909223,0.00087360893819958,-0.00042990276484885,0.00040066553763941,1.9546699113092e-07,-3.2685938501877e-07,-2.098398001043e-06,1.9717058624757e-06,-0.0012952118301702,0.0012950847503683,-0.001246419534979,0.0012504537660578,-0.0013000362397388,0.0012990638510812,-0.0012992127628463,0.0012972136705468,-0.0013073874434391,0.0013060797505607,-0.0013067626534725,0.001308167895655,-0.0013073998926039,0.001305742605404,-0.0013071383783687,0.001308193893108,-0.0012496750237484,0.0012453884025054,-0.0012473442250945,0.0012510286337543,-0.0012995378150444,0.0013012772653788,-0.001288019289723,0.0012887326631758,-0.0012478132121287,0.0012438760775104,3.3100337222489e-06,1.3903786663729e-05,-0.0009626737356604,0.00096554892177357,3.4350348649041e-06,-6.4200378240825e-07,-0.00096516597029175,0.00096715804295784,-0.0009939373342284,0.00096654180487208,-0.00099599580907544,0.00099145028868342,-0.00098178659475525,0.0010671537754795,-0.00096117798280472,0.00097115346835097,-0.00098994473519692,0.00097053155879305,-0.00099200653177141,0.00099544304951489,-0.0010558314421082,0.001058324388239,-0.0010571898615405,0.0010569643899025,-0.0010559912327449,0.0010536009234348,-0.0010573510582082,0.0010522422490003,-0.0010435004038493,0.0010646768297925,-0.0010348485977703,0.0010401972479063,-0.0010334911514875,0.0010415582511804,-0.0010421397184233,0.0010660343126071,-0.00098578088666795,0.0010631654111816,0.74979062533816,128566,2924,0.0037276115085187,0.005379890814678,0.0040092961207788,29.279633267316,-5.7629338614721e-06,-5.7629338614721e-06,-5.7629338614721e-06,3228742.7914517,0.013203949474921
32191759,0.80165106300283,0.013598129033576,0.0040889429827214,0.005226310281373,0.0042828757694812,-0.0009057046003366,0.00090255565046547,-9.3094944952364e-06,6.0174872800418e-07,-4.1517319224037e-07,1.1651709648888e-07,-0.00041887626460824,0.0004146390319715,-0.00092873800971839,0.00092588441041935,-0.00092557689522668,0.00094290388673259,-0.0004326402504224,0.00040202777455135,-0.00041939272776532,0.00041412164799767,-0.00092925442222272,0.00092536098107283,-0.00092609366993205,0.00094238087336101,-0.0010869329904064,0.0010834694030944,-0.001084340639736,0.0010884899251804,-0.0010867611478479,0.0010836479662519,-0.0010841686715469,0.0010886683781203,-0.00090443781591394,0.00088827481863446,-0.00089585793246167,0.000882175300685,-0.00090461296040351,0.00088809790140322,-0.00089603348931745,0.00088199876521035,-0.00043212405419142,0.00040254487596058,1.9567513034626e-07,-3.274525023343e-07,-2.1500366714355e-06,2.0229632801349e-06,-0.0013092801830076,0.0013091527246548,-0.0012598440992968,0.0012639789993627,-0.0013140991678674,0.0013130929502572,-0.0013132879167166,0.0013112533746326,-0.0013215378310164,0.0013201957462018,-0.0013208923665605,0.0013223317705579,-0.0013215518191786,0.0013198596067984,-0.0013212805960713,0.0013223697327299,-0.0012631843223358,0.0012587962519165,-0.0012609237570086,0.0012647082970677,-0.0013135893381151,0.0013153634994667,-0.0013019778502322,0.0013027243238826,-0.001261302284268,0.0012572642288142,3.3684704392712e-06,1.4144574089563e-05,-0.00097241128911288,0.00097534236425577,3.514076168907e-06,-6.6610035323141e-07,-0.00097579068344482,0.00097779024057205,-0.0010050262304495,0.00097703063451928,-0.0010070879464364,0.0010024546392626,-0.00099244332348848,0.0010794424222949,-0.00097170168562438,0.00098188668711976,-0.0010009326521992,0.00098112134516157,-0.0010029977013594,0.0010065483598917,-0.0010665486832928,0.0010690990989826,-0.0010679414735881,0.0010677047182142,-0.0010667087582952,0.0010643124791297,-0.0010681029599665,0.0010629194292477,-0.0010544098953652,0.0010758668526631,-0.0010456854751986,0.001051122914223,-0.0010442936576869,0.0010525183187179,-0.0010530148228472,0.0010772586959346,-0.00099653862653456,0.0010753530656351,0.76436054984474,128566,2924,0.0037633563431991,0.0054381395029909,0.0040498336087178,29.288957480592,-5.6883401552635e-06,-5.6883401552635e-06,-5.6883401552635e-06,3225250.7279021,0.013340283821753
32391759,0.80955691614271,0.013736812125368,0.0041288321578913,0.0052822463393838,0.0043257336280924,-0.00091416278537049,0.00091095795590098,-9.4315294942491e-06,6.3085342129432e-07,-4.3618676355079e-07,9.899724253775e-08,-0.00042053535071956,0.00041663217738657,-0.00093828650470217,0.00093537173354158,-0.00093507076060771,0.00095246426847627,-0.00043468084577789,0.00040372085999555,-0.00042105513947983,0.00041611149649396,-0.00093880632310487,0.00093484491911281,-0.00093559092415503,0.00095193787434786,-0.0010975221118789,0.0010940072921917,-0.0010948942372953,0.0010990774376436,-0.0010973491694442,0.0010941870339101,-0.001094721168652,0.0010992570767921,-0.00091308157454032,0.00089673919501967,-0.0009043601415195,0.00089053171268205,-0.00091325785942476,0.0008965611226234,-0.00090453682769135,0.00089035401008126,-0.00043416130129374,0.00040424122454922,1.9710540213273e-07,-3.2938195494308e-07,-2.2007949337979e-06,2.0732346906493e-06,-0.0013231003791268,0.0013229724379563,-0.0012731583295119,0.0012773928385346,-0.0013279089620617,0.0013268719680121,-0.001327108634881,0.0013250366732111,-0.0013353788380298,0.0013340037907753,-0.0013347126246334,0.0013361863251958,-0.0013353946404518,0.0013336671626558,-0.0013351121365404,0.0013362332603516,-0.0012765808835591,0.0012720922148665,-0.0012743726968294,0.0012782545868274,-0.00132738780035,0.0013291984273034,-0.0013156487062955,0.0013164250413227,-0.0012746756083871,0.0012705391984837,3.4248187476883e-06,1.4380381594967e-05,-0.00098197161784946,0.00098495596390131,3.5922079829066e-06,-6.8919666514967e-07,-0.00098640740320758,0.00098841460616373,-0.0010160046377643,0.00098743477035156,-0.001018070348099,0.0010133478680464,-0.0010030974033776,0.0010916611198469,-0.00098221925661955,0.00099261027677066,-0.0010118119021841,0.00099162457999977,-0.0010138809934078,0.0010175407178721,-0.0010770598008689,0.0010796663709852,-0.001078486300118,0.0010782382502038,-0.0010772206808362,0.0010748181240624,-0.0010786486161654,0.0010733913543931,-0.0010651702114062,0.001086915629844,-0.0010563749701501,0.0010618950862433,-0.0010549494624692,0.0010633242777444,-0.0010637413738587,0.0010883411810536,-0.0010072919244459,0.0010874726160889,0.78118420626042,128566,2924,0.0037984331724232,0.0054953542777644,0.0040896286393237,29.297958366699,-5.6163330664066e-06,-5.6163330664066e-06,-5.6163330664066e-06,3219386.0515839,0.013474158896118
32591759,0.81717795468882,0.013862478692681,0.0041650269838717,0.0053331004054809,0.0043643513033283,-0.00092185861751088,0.00091860504352954,-9.5482796301275e-06,6.6325026715987e-07,-4.6154699909452e-07,9.101182334799e-08,-0.00042114076098152,0.00041760287158126,-0.00094659010643893,0.00094363750646753,-0.00094332078003995,0.00096077697468636,-0.00043568238609193,0.00040436770959568,-0.00042167762621501,0.00041706515986606,-0.00094712696054856,0.0009430935918091,-0.00094385799065085,0.00096023349155318,-0.0011074254114951,0.0011038577040658,-0.0011047629384953,0.0011089769144312,-0.001107246772736,0.0011040432334734,-0.0011045841695756,0.0011091623363431,-0.00092069276377939,0.000904178603968,-0.00091183604912769,0.00089785773357382,-0.00092087478896263,0.00090399474534831,-0.00091201850174135,0.00089767426959531,-0.00043514578248807,0.00040490509846005,2.05195413417e-07,-3.3858653991809e-07,-2.245062662987e-06,2.1164717805175e-06,-0.001335950246304,0.0013358212704747,-0.0012853704615707,0.0012896954026292,-0.0013407315952344,0.001339681435154,-0.0013399526356314,0.0013378334440138,-0.0013483152267546,0.0013469157212873,-0.0013476329942701,0.0013491405835321,-0.0013483383303513,0.0013465749070003,-0.0013480464110659,0.0013491899285161,-0.0012888650254178,0.0012842838602608,-0.0012867259729617,0.0012906867674085,-0.0013402042195206,0.00134205996627,-0.001328392070944,0.0013291794815986,-0.0012869352666587,0.0012827178728675,3.4807079659444e-06,1.4610240785563e-05,-0.00099065912040852,0.00099369692720552,3.6660993480445e-06,-7.0306758640502e-07,-0.00099548830348061,0.0009975162865404,-0.0010256076037456,0.00099648364548301,-0.0010276722869198,0.0010228769607161,-0.0010122258259693,0.0011022000035947,-0.00099121426124804,0.0010017978829422,-0.0010213289782069,0.0010007593429505,-0.0010233970478651,0.0010271556919888,-0.0010868448045272,0.0010895050959678,-0.0010883005606873,0.0010880477063966,-0.0010870063479218,0.0010845976450728,-0.0010884635443962,0.0010831416084697,-0.0010749300156652,0.0010969855337447,-0.0010660583560421,0.0010716624919715,-0.0010646036025349,0.0010731209576243,-0.0010734719144466,0.0010984403356947,-0.0010165062537404,0.0010979255972735,0.73524667424793,128566,2924,0.0038303589761892,0.0055485441458555,0.004125800049032,29.270823649842,-5.8334108012627e-06,-5.8334108012627e-06,-5.8334108012627e-06,3212516.7513117,0.013597107416265
32791759,0.82450822551829,0.013974506959263,0.0041973878422012,0.0053785670357542,0.0043985520813077,-0.00092887057990087,0.00092557891363717,-9.6529565585259e-06,6.9198291300482e-07,-4.8543219843259e-07,7.783005298697e-08,-0.00042180556926448,0.00041869990968436,-0.00095368494601457,0.00095068154114643,-0.00095036448635946,0.00096782763587418,-0.00043671778673346,0.00040509621600201,-0.00042235304914545,0.00041815161837977,-0.0009542323885785,0.00095012705249453,-0.00095091227332226,0.00096727357302796,-0.0011165468702255,0.0011129320081332,-0.0011138518216091,0.0011180955895565,-0.0011163647986928,0.0011131210843585,-0.0011136696228172,0.0011182845579292,-0.00092717917782821,0.00091051732762304,-0.00091819051193935,0.00090411514536189,-0.00092736471593884,0.00091032990557086,-0.00091837649408196,0.00090392813628558,-0.00043617057167307,0.0004056441670017,2.1005156973167e-07,-3.4445551297273e-07,-2.2890388664084e-06,2.1594803395592e-06,-0.0013476436477904,0.0013475137111514,-0.0012961664292233,0.0013005791442368,-0.0013523398531327,0.0013512703851315,-0.0013515918193828,0.0013494321065216,-0.0013602913552192,0.0013588654253929,-0.0013595929175183,0.0013611320661533,-0.0013603223807179,0.0013585254766539,-0.0013600184786761,0.0013611864923482,-0.0012997223536282,0.0012950514649956,-0.0012976832748793,0.0013017247246145,-0.0013518069448375,0.0013537013088678,-0.0013399976031387,0.0013408024400133,-0.0012977809345131,0.0012934809221988,3.5320224711189e-06,1.4814702773954e-05,-0.00099852917878101,0.0010016149879178,3.7383579875291e-06,-7.1802200942745e-07,-0.0010030632340931,0.0010050967730963,-0.0010339604591167,0.001004292454392,-0.0010360161046275,0.0010311481464883,-0.0010197998729089,0.0011109810928252,-0.00099870376960721,0.0010094637243344,-0.0010295964859687,0.0010086535300257,-0.0010316554705672,0.0010355121933405,-0.0010958459164286,0.0010985577433026,-0.0010973307499363,0.0010970712765199,-0.0010960056742401,0.0010935927122892,-0.0010974919403763,0.0010921075871071,-0.0010836158222307,0.001105963362507,-0.0010746856669336,0.0010803673867019,-0.0010732018484406,0.001081854938344,-0.0010821286606607,0.0011074472512413,-0.0010241656503595,0.0011066212642014,0.68273835672662,128566,2924,0.0038594521273021,0.0055969487853877,0.0041585660881578,29.212623307838,-6.2990135372946e-06,-6.2990135372946e-06,-6.2990135372946e-06,3217221.0729318,0.013708895471788
32991759,0.83155627086856,0.014087242546371,0.0042299196089376,0.0054241802702767,0.0044331426671567,-0.00093589349226618,0.0009325628272489,-9.7503475190434e-06,7.1341908349451e-07,-5.1277081174144e-07,5.3510355128455e-08,-0.00042363880953591,0.00042094633728741,-0.00096104518489895,0.00095797206627984,-0.00095767893656136,0.0009751027594999,-0.00043888844779016,0.00040700660236418,-0.00042418943661584,0.00042039494024178,-0.00096159566433899,0.00095741450159677,-0.00095822976193629,0.00097454561699181,-0.0011254001113934,0.0011217401677705,-0.0011226738976994,0.0011269616588025,-0.0011252171879516,0.0011219302222562,-0.0011224908481623,0.001127151603739,-0.00093371991396941,0.00091691480338753,-0.00092461880166543,0.00091048120599885,-0.00093390643058845,0.00091672637745661,-0.00092480577438075,0.00091029321093329,-0.00043833809051354,0.00040755764591625,2.111987390732e-07,-3.4643706438713e-07,-2.3329580715479e-06,2.2025854799748e-06,-0.0013590655730909,0.0013589348230516,-0.0013067118858289,0.0013112100474083,-0.0013636605593164,0.0013625643963827,-0.0013629489454587,0.0013607563056218,-0.0013720027837034,0.0013705480141885,-0.0013712863351499,0.0013728546501757,-0.0013720399202103,0.001370212233251,-0.0013717263718485,0.0013729216008497,-0.0013103335505744,0.0013055755824753,-0.0013084091675575,0.0013125340109682,-0.0013631179456569,0.0013650435810207,-0.0013513549012954,0.0013521847875773,-0.0013083852771716,0.0013040002240276,3.580867008426e-06,1.49984956546e-05,-0.001006434926186,0.0010095640958236,3.8074738825509e-06,-7.3616073177053e-07,-0.0010111018188576,0.0010131371969805,-0.0010426865513595,0.0010124808950055,-0.0010447348367384,0.0010397937672265,-0.0010277941335072,0.0011201372052526,-0.0010066568637572,0.0010175895235642,-0.0010382372056683,0.0010169274012081,-0.0010402887646619,0.0010442431688373,-0.0011046420339587,0.0011074039988411,-0.0011061559634395,0.0011058884509738,-0.0011047999764403,0.0011023808241914,-0.0011063153177081,0.0011008665953719,-0.0010923226629892,0.0011148944555234,-0.0010833425884872,0.0010890908778321,-0.0010818296609625,0.001090607497946,-0.001090806441121,0.0011164074502892,-0.0010322452835549,0.0011156918968571,0.71399333539893,128566,2924,0.003888574943163,0.0056442350151275,0.0041914696594183,29.153622637806,-6.7710188975537e-06,-6.7710188975537e-06,-6.7710188975537e-06,3229593.2500776,0.013819727117886
33191759,0.83833099914463,0.014202505851991,0.0042630836031193,0.0054707038002032,0.0044687184486685,-0.0009428840092468,0.00093950719647716,-9.8538041259872e-06,7.3618944945861e-07,-5.3648839814789e-07,2.7544796064202e-08,-0.00042527437889503,0.00042295144788866,-0.00096878997043693,0.00096566054743343,-0.00096537938039211,0.00098278024404517,-0.00044086778595551,0.00040870869964748,-0.00042582289903966,0.00042240220402597,-0.00096933820613927,0.0009651051144009,-0.00096592796492242,0.00098222522840547,-0.0011341619180685,0.001130452768528,-0.0011314043326416,0.0011357367908828,-0.0011339797348012,0.0011306420685295,-0.0011312219931616,0.001135925982474,-0.0009405816773819,0.00092360319955513,-0.00093136060210752,0.00091713457381465,-0.00094076747040716,0.00092341550562698,-0.0009315468693489,0.00091694733030408,-0.00044031954615735,0.00040925757655266,2.097392639179e-07,-3.4568003802336e-07,-2.3769775131088e-06,2.2459227077912e-06,-0.0013705075864534,0.0013703761407822,-0.0013175033889713,0.0013220857125817,-0.0013750230928779,0.0013738948832726,-0.0013743199272339,0.0013720996379067,-0.001383572509857,0.0013820871777806,-0.0013828379590034,0.0013844339371068,-0.0013836116246506,0.0013817549058158,-0.0013832895904502,0.0013845140071583,-0.001321197344108,0.0013163538594002,-0.0013193701270873,0.0013235805905604,-0.0013744688231219,0.001376420586479,-0.0013627162363907,0.0013635766645401,-0.0013192333034606,0.00131476125814,3.6307277881654e-06,1.5189188064448e-05,-0.0010143655691864,0.0010175419064983,3.8760947494291e-06,-7.5514071204148e-07,-0.0010197095772299,0.0010217474768024,-0.0010517817144376,0.0010210457517564,-0.001053828063492,0.0010488144520349,-0.001036400088362,0.0011300241639055,-0.0010151788410364,0.0010262855593304,-0.0010472466356204,0.0010255780065896,-0.0010492962477353,0.001053349581888,-0.0011133523599506,0.0011161643639605,-0.0011148955100029,0.0011146196333009,-0.0011135099878363,0.0011110852052763,-0.0011150545281131,0.0011095417676993,-0.0011012143179979,0.0011239918115921,-0.0010921673247895,0.0010979880379939,-0.001090625135863,0.0010995337962405,-0.0010996689039547,0.0011255340065557,-0.0010409369823335,0.0011254930718603,0.75848139628628,128566,2924,0.0039175548374859,0.0056915984572317,0.004224483940139,29.094590361983,-7.2432771041333e-06,-7.2432771041333e-06,-7.2432771041333e-06,3231991.2248692,0.013930616197179
33391759,0.84493096533181,0.014316752886013,0.0042959003709904,0.0055168331378085,0.0045040193772136,-0.00095013078440175,0.00094670804864088,-9.9591985959163e-06,7.6650642420929e-07,-5.4757556303913e-07,7.6062161442885e-10,-0.00042657635485712,0.00042464245474152,-0.00097693819665336,0.00097374761881967,-0.00097347906128163,0.00099087793690174,-0.00044250873353075,0.00041006461303026,-0.00042710934548667,0.00042410878254813,-0.0009774709328815,0.00097320765726434,-0.00097401215262976,0.00099033839679185,-0.0011432315591197,0.0011394833624928,-0.0011404427336082,0.0011448097994213,-0.0011430544986321,0.0011396674668433,-0.0011402655405271,0.00114499379893,-0.00094793709275328,0.00093079252789868,-0.00093859988671812,0.00092426038113432,-0.00094811769548063,0.00093061003045155,-0.00093878096833848,0.00092407833992392,-0.00044197599810502,0.00041059789370117,2.0185362551515e-07,-3.3774769604849e-07,-2.4213459639771e-06,2.2902902793926e-06,-0.0013823049162558,0.0013821734672015,-0.0013288012366598,0.0013334652452719,-0.0013867746384841,0.001385601272537,-0.0013860579737072,0.0013838237092373,-0.0013953968303512,0.0013938767365524,-0.0013946439716622,0.0013962642969107,-0.0013954330146984,0.0013935519453591,-0.0013950997284085,0.0013963588971627,-0.0013325578343517,0.0013276326601531,-0.0013308196447025,0.0013351222718498,-0.0013862121566645,0.0013881778492018,-0.0013743980036841,0.0013753035611203,-0.0013305835636838,0.0013260193283759,3.6812506093351e-06,1.5389088272957e-05,-0.001022572010121,0.0010258001901072,3.9485703229818e-06,-7.7162069806692e-07,-0.0010287418506977,0.0010307977060572,-0.0010612100831332,0.0010299369734861,-0.001063252850867,0.0010581635067635,-0.0010454426848153,0.0011404147999586,-0.0010241240246176,0.0010354229561072,-0.001056587871681,0.0010345562732895,-0.0010586339745266,0.0010627857481832,-0.0011223858973557,0.0011252494020703,-0.0011239586929338,0.0011236750268474,-0.0011225441508937,0.0011201157197819,-0.0011241183506768,0.0011185426494636,-0.0011104470530864,0.001133449397408,-0.0011013372929953,0.0011072295345077,-0.0010997654497905,0.0011088049372451,-0.0011088719632316,0.0011350212057369,-0.0010500667504631,0.0011357966458438,0.77139461391585,128566,2924,0.0039476098910803,0.0057404257784078,0.0042586507243155,29.271097428704,-5.8312205703672e-06,-5.8312205703672e-06,-5.8312205703672e-06,3228193.4736918,0.014045262791041
33591759,0.85140160999048,0.014430867366466,0.0043286520946534,0.0055629050200449,0.0045393102517681,-0.00095754435900719,0.00095407916599684,-1.0063712444001e-05,7.9383078756199e-07,-5.6194664569651e-07,-1.6048011352732e-08,-0.00042788586782285,0.00042634679097996,-0.00098534937037216,0.00098211356099607,-0.00098183853381525,0.00099927206072567,-0.00044413574381533,0.00041139525327323,-0.00042841635254358,0.00042581564134551,-0.00098587966010787,0.00098157602170485,-0.00098236918024275,0.00099873494950229,-0.001152458769826,0.0011486693357054,-0.0011496386939141,0.0011540378024121,-0.0011522825173287,0.0011488526488614,-0.0011494623107114,0.0011542210130036,-0.00095555170599701,0.00093825417652388,-0.00094609749234796,0.00093164180113465,-0.00095573149454136,0.00093807248573207,-0.00094627776413882,0.00093146056593562,-0.00044360547383255,0.00041192599085207,2.0041835423747e-07,-3.3664165167521e-07,-2.4648239018801e-06,2.3334315875555e-06,-0.0013942887141969,0.0013941569274288,-0.0013403648262795,0.0013451125148819,-0.001398720628014,0.0013975155652785,-0.0013980026755725,0.0013957417408448,-0.0014073540792049,0.0014058039867212,-0.0014065827814539,0.0014082307991851,-0.0014073907570709,0.0014054813203196,-0.0014070462342611,0.0014083347211478,-0.0013441822072752,0.0013391726646667,-0.0013425347227257,0.0013469226990335,-0.001398152271633,0.0014001439314625,-0.0013862504805536,0.0013871870584445,-0.0013421968420819,0.0013375465593979,3.7329783255337e-06,1.5589726467917e-05,-0.0010309561643291,0.0010342388186692,4.022221735521e-06,-7.8480935366461e-07,-0.0010380712161428,0.0010401626698474,-0.0010708803021774,0.0010390795135212,-0.001072916817318,0.0010677474342964,-0.0010547881716836,0.001151096248187,-0.0010333683663202,0.0010448730274763,-0.0010661730368508,0.0010437838030727,-0.0010682129435051,0.0010724547134254,-0.0011315954217398,0.0011345099344685,-0.0011331971478683,0.0011329066149661,-0.0011317546738391,0.0011293238867652,-0.0011333578207759,0.0011277218856887,-0.001119902274911,0.0011431404381028,-0.0011107323899151,0.0011166975386537,-0.0011091316214104,0.0011183019007754,-0.0011182982196605,0.001144741160369,-0.0010594973314919,0.0011463930769904,0.78538310646081,128566,2924,0.0039783678199867,0.0057900198039686,0.0042935591009213,29.571479168027,-3.4281666557814e-06,-3.4281666557814e-06,-3.4281666557814e-06,3223613.2222514,0.014162165188203
33791759,0.85773937911031,0.014542413993451,0.0043606634669823,0.0056079716332315,0.0045737788932367,-0.00096479838080342,0.0009612915616723,-1.0170410879122e-05,8.1643525768096e-07,-5.7820681098125e-07,-3.0144626711962e-08,-0.00042886757038725,0.00042770980494458,-0.00099355034769842,0.0009902785836838,-0.00098998646411878,0.0010074692438943,-0.00044542904364354,0.00041235652749695,-0.00042940007830274,0.00042717665688812,-0.0009940827046382,0.00098973894676607,-0.00099051917252353,0.0010069300379846,-0.0011615395999597,0.0011577072248711,-0.0011586879798852,0.0011631174255837,-0.0011613626287642,0.0011578912778225,-0.00115851088152,0.0011633013791489,-0.00096300317808542,0.0009455488359002,-0.00095342901372598,0.00093885228098946,-0.00096318367890278,0.00094536642246694,-0.00095361000056635,0.00093867032318705,-0.00044489676481544,0.00041288923940483,2.0119869306577e-07,-3.3790766854768e-07,-2.5078002541028e-06,2.3759370779348e-06,-0.001406085915141,0.0014059536551598,-0.0013517511291525,0.0013565827809919,-0.0014104932267602,0.0014092612264718,-0.0014097764012787,0.0014074845235468,-0.0014191010233703,0.0014175227056249,-0.0014183119762759,0.0014199886995447,-0.0014191397834083,0.0014172007004751,-0.0014187828347935,0.0014200986000171,-0.0013556309110266,0.0013505364539162,-0.0013540826061044,0.0013585531551678,-0.0014099196974597,0.0014119413182669,-0.0013979227050774,0.001398885266043,-0.0013536380304763,0.0013489042201485,3.7857553953324e-06,1.5790380318433e-05,-0.0010391575105112,0.0010424969751505,4.0976468655076e-06,-7.9507711960611e-07,-0.0010471556317745,0.0010492803432233,-0.0010803019985681,0.0010479758239439,-0.0010823208111312,0.0010770760056915,-0.0010638840953737,0.001161504288694,-0.0010423688598244,0.0010540746931551,-0.0010755108034035,0.0010527639825751,-0.0010775330754673,0.0010818671980374,-0.0011406496218329,0.0011436155724036,-0.0011422798944181,0.0011419836902477,-0.0011408109467966,0.0011383786079475,-0.001142442657715,0.0011367480589617,-0.0011291859583156,0.0011526634420163,-0.0011199503897783,0.001125989889265,-0.001118321082537,0.0011276228345896,-0.0011275533193036,0.0011542926957067,-0.0010686772255393,0.0011567172185091,0.78367691231455,128566,2924,0.0040084669682929,0.0058388366242381,0.0043277126903039,29.875084549817,-9.9932360146629e-07,-9.9932360146629e-07,-9.9932360146629e-07,3217423.1923019,0.014276859726162
33991759,0.86393980156961,0.014647745013644,0.0043909287338863,0.0056505965954747,0.0046062196842827,-0.00097174843090752,0.00096820263262414,-1.0274405800717e-05,8.3318370062009e-07,-5.9600761884759e-07,-4.3568130616577e-08,-0.00042961163743089,0.00042882184429868,-0.0010011971347612,0.00099788995975821,-0.00099758459108039,0.0010151029374149,-0.00044650468528683,0.00041310782106862,-0.00043014838970549,0.00042828447254309,-0.0010017337546565,0.0009973460441103,-0.00099812154775261,0.0010145594369135,-0.0011703189889458,0.0011664434406143,-0.0011674372527733,0.0011718956861006,-0.0011701405643092,0.0011666289601516,-0.0011672587150212,0.0011720811130674,-0.00096998606335122,0.00095237931784933,-0.0009602977439249,0.0009456023823124,-0.00097016801533062,0.00095219545001048,-0.00096048017752829,0.00094541896582941,-0.00044596818016965,0.00041364481118006,2.030454240042e-07,-3.4034712408869e-07,-2.5502984851101e-06,2.4178669780706e-06,-0.0014174317071071,0.0014172988768583,-0.0013625927586988,0.0013675079875534,-0.0014218092461774,0.0014205527750178,-0.0014211008821177,0.0014187761174396,-0.0014304503168547,0.0014288447638707,-0.0014296438524755,0.0014313495585986,-0.0014304924013904,0.0014285232040628,-0.0014301214855229,0.001431463348877,-0.0013665336663659,0.0013613545113075,-0.0013650978576137,0.0013696491079206,-0.0014212287585849,0.001423282096117,-0.0014091701405964,0.0014101560223674,-0.0013645359606427,0.0013597202953306,3.8345315452924e-06,1.598262154428e-05,-0.0010469949981522,0.0010503852435503,4.1708344570268e-06,-8.0651638809099e-07,-0.0010555501067687,0.0010576904496415,-0.0010891172279063,0.0010562769177248,-0.0010911163330304,0.0010858016923829,-0.0010722810450888,0.0011711318819058,-0.0010506804449393,0.0010625677406759,-0.001084243184047,0.0010611479197407,-0.0010862457616451,0.001090675749042,-0.001149387229133,0.0011524021067576,-0.0011510456945095,0.0011507420225527,-0.0011495510125421,0.0011471153504795,-0.0011512109270276,0.0011454566075229,-0.0011380204611036,0.0011617374697603,-0.0011287199545404,0.001134827330338,-0.0011270624521465,0.0011364884936884,-0.0011363596017685,0.0011633949076674,-0.0010771571481085,0.0011662619351401,0.75679008105187,128566,2924,0.0040373065473509,0.0058857826391207,0.0043603427660863,30.178817518146,1.4305401451718e-06,1.4305401451718e-06,1.4305401451718e-06,3213225.7647935,0.014386846862574
34191759,0.87008972782929,0.014750078892438,0.0044203618209486,0.0056920356690857,0.004637681402404,-0.00097907169001164,0.00097549143529107,-1.0372781396034e-05,8.429749949649e-07,-6.1611333097715e-07,-5.5698978467592e-08,-0.00043114997163494,0.00043072601336135,-0.0010090848044906,0.001005743052945,-0.001005426094215,0.001022965118643,-0.00044837293571334,0.00041468619468209,-0.00043169454718438,0.00043018081574354,-0.0010096292301585,0.0010051912853796,-0.0010059708500978,0.0010224137565112,-0.0011794228649592,0.0011755032820222,-0.0011765118988718,0.0011809973900797,-0.0011792418083029,0.0011756914582982,-0.0011763307407875,0.0011811854791423,-0.00097720633125713,0.00095946071071856,-0.00096741201686816,0.00095261097680671,-0.00097739092342015,0.00095927419024997,-0.00096759709553713,0.00095242490915922,-0.00044782860956921,0.00041523101416896,2.065922748779e-07,-3.4471490630515e-07,-2.5914344721995e-06,2.4582289884052e-06,-0.0014290240383859,0.0014288904292457,-0.00137358762047,0.0013785845503635,-0.0014333441092251,0.0014320674933984,-0.0014326494037144,0.0014302889210478,-0.0014421189295672,0.0014404880885486,-0.0014412951682651,0.001443029870874,-0.0014421658536018,0.0014401661135564,-0.0014417821138926,0.0014431477126079,-0.0013775914598086,0.0013723290578369,-0.0013762748784078,0.0013809025433442,-0.0014327558040886,0.0014348432460464,-0.0014206733761247,0.0014216778116113,-0.0013755849820252,0.0013706913353324,3.8803313731064e-06,1.6162943705959e-05,-0.0010552025521146,0.0010586403918874,4.2406837187941e-06,-8.1836679781025e-07,-0.0010641586321301,0.0010663188703259,-0.0010981949542024,0.0010648611303992,-0.0011001801910941,0.0010947946695934,-0.0010808826198301,0.0011808747818064,-0.0010592089378837,0.0010712762133366,-0.001093240929406,0.0010698121121404,-0.0010952296469988,0.0010997487090344,-0.0011584779037139,0.0011615388624965,-0.0011601635941756,0.00115985155095,-0.0011586423820705,0.0011562028973406,-0.0011603295236147,0.0011545169270826,-0.0011471440045415,0.00117109589924,-0.0011377887635438,0.0011439566770447,-0.001136104029582,0.001145645075086,-0.0011454559110429,0.0011727805563547,-0.0010858387626002,0.0011759248159772,0.74153685149517,128566,2924,0.0040676976467622,0.0059337506236294,0.0043944997368611,30.744261673715,5.954093389721e-06,5.954093389721e-06,5.954093389721e-06,3217995.9910138,0.014501004935803
34391759,0.87620402577099,0.014850962015629,0.0044493700084889,0.0057329079915552,0.0046686840155851,-0.00098647599462876,0.00098286414475087,-1.0465517024244e-05,8.5080646619043e-07,-6.3589442190445e-07,-6.8231874791209e-08,-0.00043304570180232,0.00043299897062738,-0.0010170001024208,0.0010136203341887,-0.0010132919561537,0.0010308378135158,-0.00045057878303863,0.00041662470994616,-0.00043359741553316,0.00043244662906439,-0.0010175516268907,0.0010130614091745,-0.0010138438333944,0.0010302792926724,-0.0011885713991453,0.0011846089064214,-0.0011856312837128,0.0011901440738775,-0.0011883879723579,0.0011847994949638,-0.0011854477527674,0.0011903345750103,-0.00098444371623538,0.00096656169462766,-0.00097454937815289,0.0009596551219998,-0.00098463070005821,0.00096637275888707,-0.00097473686810285,0.00095946665050904,-0.00045002732168615,0.00041717666139198,2.0976391162358e-07,-3.487652514837e-07,-2.6314436698142e-06,2.4973985984499e-06,-0.0014406272143712,0.0014404927628243,-0.0013845461404655,0.001389622196821,-0.0014448679961663,0.0014435712504492,-0.0014441878936648,0.0014417930726007,-0.0014538367482042,0.0014521810664855,-0.0014529960427381,0.0014547586828828,-0.0014538885378219,0.001451859190653,-0.0014534934843432,0.0014548822431607,-0.0013886132087123,0.0013832700080469,-0.0013874142903518,0.0013921162629731,-0.0014442749928618,0.001446395050659,-0.0014321952526382,0.0014332180942719,-0.0013865994614828,0.0013816298100433,3.9277023009472e-06,1.6337652877925e-05,-0.0010634980393034,0.0010669864967921,4.3086021302669e-06,-8.2986058299192e-07,-0.0010728141445363,0.0010750275831627,-0.0011073189375585,0.0010735020734133,-0.0011092929534841,0.0011038318708014,-0.001089520323273,0.0011906132932441,-0.0010677866927162,0.0010800626728404,-0.0011022871984384,0.0010785307831917,-0.0011042646866151,0.0011088636287145,-0.0011676361668097,0.0011707415440487,-0.0011693483294613,0.0011690277622153,-0.0011678003884955,0.0011653579158092,-0.0011695140006696,0.0011636454696056,-0.0011563124017373,0.0011804909713777,-0.0011469081674332,0.0011531343971116,-0.0011451969583848,0.0011548492601069,-0.0011545978384001,0.0011822020962575,-0.0010945542244129,0.0011855855680587,0.73560164591091,128566,2924,0.0040984263392297,0.0059817634474202,0.0044290262554378,31.386855194997,1.1094841559977e-05,1.1094841559977e-05,1.1094841559977e-05,3226778.2513608,0.014615938227134
34591759,0.88226960087452,0.014954721883513,0.0044791496903055,0.005774893141818,0.0047006790513899,-0.00099399853416455,0.00099035346748643,-1.0555470707507e-05,8.5652556429492e-07,-6.5540668040437e-07,-8.3095576116465e-08,-0.00043529451143164,0.00043557283361365,-0.001025237765832,0.0010218171704551,-0.0010214784033087,0.0010390348332818,-0.00045308617424077,0.00041889802313803,-0.00043585081606083,0.00043501592507977,-0.0010257938638759,0.001021253639263,-0.001022034841286,0.0010384717105311,-0.0011977659680346,0.0011937637025706,-0.0011947976250188,0.0011993388395278,-0.001197581065952,0.0011939558375282,-0.0011946126238917,0.0011995308827308,-0.00099192664115227,0.00097389942242631,-0.00098192334492765,0.00096695383027715,-0.00099211515321654,0.00097370892922237,-0.00098211237698354,0.00096676382667178,-0.00045253012028351,0.00041945465401609,2.1167876626529e-07,-3.514917231521e-07,-2.6711779952155e-06,2.5363461306513e-06,-0.0014523588906471,0.0014522236515741,-0.0013957154313031,0.0014008693190777,-0.001456513356442,0.0014551941818405,-0.0014558430729302,0.0014534166744541,-0.0014656440789981,0.0014639629112441,-0.0014647861270272,0.0014665757307162,-0.001465699424464,0.0014636415471804,-0.0014652953750143,0.0014667080531131,-0.0013998411709865,0.001394418578295,-0.0013987452683079,0.0014035219797805,-0.0014559161646385,0.0014580661823017,-0.0014438307514618,0.0014448744342666,-0.0013978148560355,0.0013927688796008,3.9747094751074e-06,1.6509902409025e-05,-0.0010719564313823,0.0010754958211756,4.3751896660238e-06,-8.4220813062252e-07,-0.0010819502309733,0.0010841957490161,-0.0011167992687918,0.0010825173626824,-0.0011187717218241,0.0011132236785068,-0.0010986353725735,0.0012008341123292,-0.0010768455123963,0.0010893081187089,-0.0011116903116174,0.0010876233235406,-0.0011136662056,0.0011183326743102,-0.0011768750807365,0.0011800254422371,-0.0011786135602485,0.0011782853472704,-0.0011770387385668,0.0011745925624684,-0.0011787786637822,0.0011728537965879,-0.0011656869916284,0.0011900735919467,-0.0011562351881417,0.0011625245140681,-0.0011544976652038,0.0011642656827457,-0.0011639461253144,0.0011918110248799,-0.0011037465682133,0.0011957291079685,0.76226247056298,128566,2924,0.0041296407512669,0.0060303067424072,0.0044642282729449,32.031500372729,1.6252002981834e-05,1.6252002981834e-05,1.6252002981834e-05,3235708.0295047,0.01473260005122
34791759,0.88835094786201,0.015062844155203,0.0045101092861215,0.0058186130187796,0.0047341218503022,-0.0010020841825124,0.00099840202861592,-1.0649533177505e-05,8.6514140291394e-07,-6.7088247145673e-07,-9.6543333889857e-08,-0.0004376354719896,0.00043823879658452,-0.0010342916758985,0.0010308339672728,-0.0010304802674684,0.0010480715605045,-0.0004557039059721,0.00042125174347727,-0.00043819374586288,0.00043767994181454,-0.001034849725272,0.0010302684369693,-0.0010310386721238,0.0010475064408015,-0.0012075814741197,0.0012035396715423,-0.0012045839485256,0.0012091522812991,-0.0012073959239499,0.0012037324909298,-0.001204398305252,0.0012093450078831,-0.001000195022766,0.0009820182282267,-0.00099008199697679,0.00097502362658304,-0.0010003841993766,0.00098182705167048,-0.00099027171938174,0.00097483295107625,-0.00045514591822905,0.00042181034445797,2.1232791944546e-07,-3.5281037633789e-07,-2.7113951077206e-06,2.5759101380144e-06,-0.00146488082264,0.0014647449282067,-0.0014078029990881,0.0014130350573864,-0.0014689780169316,0.0014676335286406,-0.0014683071313399,0.0014658515637091,-0.0014781311837945,0.0014764234353297,-0.0014772555879246,0.0014790717836324,-0.0014781882432306,0.0014761024720612,-0.0014777754581892,0.0014792134074252,-0.0014119905047764,0.0014064884458474,-0.0014109897199005,0.0014158432696029,-0.0014683754034142,0.0014705532402997,-0.0014562429614043,0.0014573106212987,-0.0014099501782822,0.0014048260461241,4.0238117335667e-06,1.6691881581872e-05,-0.0010810665886172,0.0010846606506625,4.4435538389591e-06,-8.5375906499214e-07,-0.0010920679455178,0.0010943533176054,-0.0011271377008609,0.00109238550317,-0.0011291112337795,0.0011234793342493,-0.0011087776715565,0.0012121551558728,-0.0010868849894552,0.0010995439547257,-0.0011219505290267,0.0010975696679703,-0.0011239275193413,0.0011286665516698,-0.0011867553458532,0.0011899522826975,-0.0011885204624192,0.0011881855511868,-0.0011869194824875,0.0011844692968159,-0.0011886860482983,0.0011827038944069,-0.0011758428262425,0.0012004461141781,-0.0011663439892832,0.0011726969305411,-0.0011645798288486,0.0011744647251417,-0.0011740753203743,0.0012022101676931,-0.0011139671392367,0.0012069719193081,0.7918021738452,128566,2924,0.0041631934750947,0.0060821142116974,0.0045021407124485,32.909589377258,2.3276715018061e-05,2.3276715018061e-05,2.3276715018061e-05,3240604.781631,0.014857712970963
34991759,0.8944789593368,0.015166598823049,0.0045398219099801,0.0058606936613627,0.0047660832517064,-0.0010101917561692,0.0010064730897579,-1.0746451247775e-05,8.7882145111219e-07,-6.8413701012618e-07,-1.0832363823159e-07,-0.00043927854721407,0.00044022367066819,-0.0010431044358723,0.0010396058392104,-0.0010392389278511,0.0010568667803239,-0.00045766497684234,0.00042290073560227,-0.00043983823195532,0.00043966345647479,-0.0010436639016396,0.0010390388681308,-0.0010397987388781,0.0010563002227318,-0.0012176031070586,0.0012135219351278,-0.0012145757151631,0.001219174141967,-0.001217417082681,0.0012137152579692,-0.0012143896152873,0.0012193673705746,-0.0010083761929401,0.00099005242889608,-0.00099814775964465,0.00098298452225614,-0.0010085658574498,0.00098986075178277,-0.00099833798000564,0.00098279336024537,-0.00045710559129859,0.00042346076099704,2.1273278646787e-07,-3.5380687013489e-07,-2.7519299658147e-06,2.6158651891647e-06,-0.0014775578267092,0.0014774213522857,-0.0014199599545958,0.0014252707566788,-0.0014816181144254,0.0014802476108211,-0.0014809523698359,0.0014784680462485,-0.0014907801746143,0.001489045508578,-0.0014898881007759,0.0014917310144095,-0.0014908400988135,0.0014887264542145,-0.0014904153567907,0.0014918790620626,-0.0014242049454775,0.0014186229917146,-0.001423313190031,0.0014282445262601,-0.0014810123424448,0.0014832177430864,-0.0014688376894391,0.0014699301950639,-0.0014221544880236,0.0014169513925148,4.0731966336352e-06,1.6883238963644e-05,-0.0010901941218893,0.0010938437437727,4.5136304027032e-06,-8.6451701716732e-07,-0.0011018171276528,0.0011041441719038,-0.0011372249768115,0.0011019794454191,-0.0011391925106823,0.0011334799676255,-0.0011185768886582,0.0012231356377979,-0.0010965550289065,0.0011094139906914,-0.0011319586810935,0.001107242715404,-0.0011339296997984,0.0011387463106596,-0.001196810030913,0.0012000540841505,-0.0011986020880071,0.0011982604082259,-0.0011969742541232,0.0011945213211866,-0.0011987677686295,0.0011927289777379,-0.0011859938876285,0.0012108546290329,-0.0011764499550255,0.0011828686729342,-0.0011746588552823,0.0011846634073055,-0.0011841994296946,0.0012126456096982,-0.0011238455531676,0.0012178732590053,0.75494740813402,128566,2924,0.0041968463200217,0.0061345558337361,0.004540125203035,33.940122181697,3.1520977453575e-05,3.1520977453575e-05,3.1520977453575e-05,3242018.2340359,0.014983663107688
35191759,0.90063002869124,0.015268004386243,0.0045688752894776,0.0059018708402442,0.0047972582565213,-0.001018268903688,0.0010145178719505,-1.0833549317298e-05,8.7956672436502e-07,-7.0040388168285e-07,-1.2345978852506e-07,-0.00044144951970543,0.00044267765642739,-0.0010517091143631,0.0010481658846405,-0.0010477927271705,0.0010654349249162,-0.00046013949577164,0.00042507453096171,-0.00044201030227129,0.00044211636169096,-0.0010522696810616,0.0010475977966376,-0.0010483536278672,0.001064867237648,-0.0012275336456689,0.0012234133851499,-0.0012244779085759,0.0012291060373168,-0.001227347278211,0.0012236070891603,-0.0012242914771587,0.0012292996510147,-0.0010163191337928,0.00099785264039748,-0.0010059814553962,0.00099073905372093,-0.0010165091671713,0.00099766058895846,-0.0010061720511666,0.00099054751289717,-0.00045957902962638,0.00042563563400327,2.1295399098369e-07,-3.5466436633474e-07,-2.79232723387e-06,2.6556410633349e-06,-0.0014900582335485,0.0014899211378909,-0.0014318211225621,0.0014372102089149,-0.0014940430617908,0.0014926463043371,-0.0014933847552719,0.001490872041911,-0.0015033592391565,0.0015015976101453,-0.0015024501149482,0.0015043194723397,-0.0015034223143515,0.0015012809879342,-0.0015029860363802,0.0015044754616951,-0.0014361179952761,0.001430456517285,-0.0014353432294696,0.0014403521155165,-0.0014934324247997,0.0014956649378143,-0.0014812572814555,0.0014823747834873,-0.0014340652098055,0.0014287833088297,4.1185743478495e-06,1.7059653588044e-05,-0.0010992695069361,0.0011029665721994,4.5809676488064e-06,-8.7757514392933e-07,-0.0011113126295494,0.0011136722890139,-0.0011471212029668,0.0011114152254875,-0.0011490854899028,0.0011432867155729,-0.0011281050658512,0.0012337128575085,-0.0011059717912987,0.0011190208672973,-0.0011417762095996,0.0011167571846356,-0.0011437439959413,0.0011486317595822,-0.0012067985183429,0.0012100870509106,-0.0012086173669708,0.0012082665802221,-0.0012069611918928,0.001204505034048,-0.0012087815021304,0.0012026858978724,-0.0011959968185961,0.0012210938015697,-0.0011864058214494,0.0011928793330885,-0.0011845879297981,0.0011947008614224,-0.0011941755554029,0.0012229115641655,-0.0011334524979523,0.0012283717406681,0.7355680464914,128566,2924,0.0042303707625206,0.0061862689965895,0.004577874771127,34.97461636553,3.979693092424e-05,3.979693092424e-05,3.979693092424e-05,3251746.8862398,0.015108519143164
35391759,0.90672196896255,0.015365510563526,0.0045968037772909,0.0059415308071503,0.0048271759790844,-0.0010258678589406,0.0010220822589918,-1.0919451680094e-05,8.7069269755965e-07,-7.2064914983707e-07,-1.450144254646e-07,-0.00044351099552963,0.00044497079666778,-0.0010596445929844,0.0010560496291717,-0.0010556808698709,0.0010733084507946,-0.00046250423520498,0.00042711948536798,-0.00044407056512926,0.00044441075107862,-0.0010602038751178,0.0010554828056714,-0.0010562404977253,0.0010727419979734,-0.0012369496898995,0.0012327878961984,-0.0012338663208258,0.0012385191622205,-0.0012367637346799,0.0012329811563564,-0.0012336802909439,0.0012387123440053,-0.0010236039606412,0.0010049925694554,-0.0010131604390641,0.00099787085540895,-0.0010237935589093,0.0010048009704617,-0.0010133506183026,0.00099767973649767,-0.00046194506185247,0.00042767929934782,2.1202369509354e-07,-3.5428879406054e-07,-2.8316939551257e-06,2.6944594364954e-06,-0.0015019280957861,0.0015017904498646,-0.0014429519104143,0.0014484165870189,-0.0015058095201546,0.001504384899114,-0.0015051611595004,0.0015026231233921,-0.0015153767208439,0.0015135880503587,-0.0015144509781007,0.0015163453776788,-0.0015154430668032,0.0015132755956161,-0.0015149959113991,0.001516511280787,-0.0014472967151754,0.0014415585307946,-0.0014466257138541,0.0014517110735096,-0.0015051934960499,0.0015074501809857,-0.0014930608152855,0.0014942050767264,-0.0014452445252497,0.0014398850527197,4.1598709064253e-06,1.7227091000701e-05,-0.0011078296833757,0.001111568530349,4.6434283470774e-06,-8.9356981023529e-07,-0.0011200755870293,0.0011224470685224,-0.0011563428168299,0.001120207311725,-0.0011582995008193,0.0011524143631698,-0.0011368799849823,0.0012434548945037,-0.0011146578782652,0.0011278725426931,-0.0011509210461867,0.0011256260553893,-0.0011528812096472,0.0011578362012381,-0.0012162634743835,0.0012195938692724,-0.0012181084775194,0.0012177472499956,-0.0012164243040129,0.0012139636432036,-0.0012182707595003,0.0012121183581869,-0.0012054102925461,0.0012307122677794,-0.0011957593528925,0.0012022874771928,-0.0011939152856524,0.0012041351272639,-0.0012035628857535,0.0012325561673119,-0.001142304225406,0.0012380369510305,0.71497033710228,128566,2924,0.0042618976809611,0.006235373559796,0.0046134741115381,35.839798950265,4.6718391602124e-05,4.6718391602124e-05,4.6718391602124e-05,3263855.6403456,0.015226530469451
35591759,0.91266285551716,0.015455874367164,0.0046226895268064,0.0059783856414295,0.0048547991989283,-0.0010327138132503,0.0010288913453061,-1.1001026043542e-05,8.5383804110977e-07,-7.4106999803052e-07,-1.7076846426386e-07,-0.00044527328260332,0.00044689395409908,-0.001066537478736,0.0010628794589007,-0.0010625257723753,0.0010801295572289,-0.00046452920287593,0.00042886224668603,-0.00044582760660239,0.00044633914930275,-0.0010670915609973,0.0010623178304849,-0.0010630801673645,0.0010795682981082,-0.0012455844862473,0.0012413817505068,-0.0012424750854026,0.0012471431467969,-0.0012454002778122,0.001241573230488,-0.0012422908226741,0.0012473345445111,-0.001029904635532,0.0010111508073735,-0.0010193476484823,0.0010040384495895,-0.00103009247939,0.0010109609773436,-0.0010195360527735,0.0010038491129126,-0.00046397520129262,0.00042941689045168,2.0917393010993e-07,-3.518214664922e-07,-2.8697128341887e-06,2.7320861620591e-06,-0.0015128118881549,0.0015126738498471,-0.0014529705631072,0.0014585071810132,-0.0015165707672725,0.0015151153277415,-0.0015159373669652,0.0015133789744088,-0.0015264930709043,0.0015246770109468,-0.0015255509897722,0.0015274684184644,-0.001526562028623,0.0015243707506277,-0.0015261042913246,0.0015276462551009,-0.0014573526295152,0.0014515417413139,-0.0014567889033374,0.0014619497234166,-0.0015159537194157,0.0015182299688766,-0.001503887897668,0.0015050621602736,-0.0014553136999171,0.0014498779508456,4.1973370565036e-06,1.7384795520788e-05,-0.001115566691828,0.0011193437449199,4.7006510852723e-06,-9.1216631636361e-07,-0.0011276678552596,0.0011299847740956,-0.0011645042383946,0.0011279535031799,-0.001166441221114,0.0011604703366178,-0.0011444570770703,0.0012519129178196,-0.0011221759292386,0.0011354844819517,-0.0011590082648506,0.0011334464657158,-0.0011609487354045,0.0011659663609656,-0.0012249096817372,0.0012282794194741,-0.0012267799639475,0.0012264075336088,-0.0012250678539719,0.0012226037704227,-0.0012269395870326,0.0012207332022368,-0.0012138798698857,0.0012393767862,-0.0012041608888134,0.0012107711330012,-0.0012022915326128,0.0012126440173498,-0.0012120071809378,0.0012412459697315,-0.0011499556056043,0.0012464206823015,0.68077348520169,128566,2924,0.0042902849103773,0.0062803992688836,0.0046456503859688,36.485740228635,5.1885921829083e-05,5.1885921829083e-05,5.1885921829083e-05,3278064.857312,0.015333749905808
35791759,0.91843765496462,0.01554888107121,0.0046492627039253,0.0060162083686384,0.004883409998646,-0.0010396387296986,0.0010357769500126,-1.1081231331506e-05,8.2099816144114e-07,-7.5823244964634e-07,-1.9316799196816e-07,-0.00044793106071471,0.00044963542896971,-0.0010737901352317,0.001070075767169,-0.0010697290129129,0.0010873601350002,-0.00046737633116526,0.000431459851855,-0.00044848020720069,0.00044908582483418,-0.0010743390361521,0.0010695192975061,-0.0010702782243744,0.001086804020773,-0.001254113845477,0.0012498701321323,-0.0012509775149223,0.0012556546929813,-0.0012539314483205,0.0012500598741673,-0.0012507950741626,0.0012558443541882,-0.0010363826940412,0.0010174867633794,-0.0010257424496935,0.0010104087159781,-0.0010365688242481,0.0010172986774294,-0.0010259291493945,0.0010102211121907,-0.00046682752445926,0.0004320093599425,2.0632536768085e-07,-3.4937218176464e-07,-2.9068940421032e-06,2.7688679399811e-06,-0.0015236609846018,0.0015235225441081,-0.0014630750993101,0.0014686820206426,-0.0015273082196759,0.0015258225086881,-0.0015266686583329,0.0015240904434542,-0.0015375452647957,0.0015357024168885,-0.0015365863009126,0.0015385262266812,-0.0015376155391891,0.001535400963315,-0.0015371500978611,0.0015387180481612,-0.0014674990909491,0.0014616171154832,-0.0014670062976348,0.0014722409225183,-0.0015266909774623,0.0015289861980825,-0.001514614492256,0.0015158182012714,-0.0014654545708301,0.0014599442128987,4.2382945032889e-06,1.7528875991406e-05,-0.0011234390119426,0.0011272541212485,4.7550085130693e-06,-9.3199507069143e-07,-0.0011358342533695,0.0011381504043799,-0.0011731103195765,0.0011361861734635,-0.0011750452944016,0.0011689628643428,-0.0011526622548724,0.0012609045529495,-0.0011302696922379,0.001143722788898,-0.0011675417587316,0.0011417517263352,-0.0011694802173437,0.0011745315162186,-0.0012335048050326,0.0012369112856277,-0.0012353998210177,0.0012350146771796,-0.0012336623463904,0.0012311941860197,-0.0012355588119244,0.0012292988943258,-0.0012225345849143,0.0012481878047571,-0.0012127603996892,0.0012194036444495,-0.001210866286761,0.0012213012092453,-0.0012206371568004,0.0012500816959096,-0.0011582334650299,0.0012553396878929,0.720273661367,128566,2924,0.0043189849774761,0.0063252847830069,0.0046783868189503,37.126026774566,5.7008214196529e-05,5.7008214196529e-05,5.7008214196529e-05,3296147.1200784,0.015441721168491
35991759,0.92403412889039,0.015644700890474,0.004676535471124,0.0060551065361519,0.0049130588831981,-0.0010465422158692,0.0010426415246538,-1.1164568302207e-05,7.9892412323194e-07,-7.6815588261637e-07,-2.0615039923956e-07,-0.00045010322635929,0.00045192071644196,-0.0010813911013318,0.0010776471105207,-0.001077279593332,0.0010949920599203,-0.00046969943340812,0.000433537899644,-0.00045064921275325,0.00045137426173385,-0.0010819369155089,0.0010770937033565,-0.0010778257166595,0.0010944390004292,-0.0012626238300879,0.0012583355539112,-0.0012594610296008,0.0012641541385002,-0.001262442447464,0.0012585243024071,-0.0012592796086402,0.0012643428122853,-0.0010432002171555,0.0010241523366209,-0.0010324952779711,0.001017108096568,-0.001043385351959,0.0010239652705905,-0.0010326809730057,0.0010169214945141,-0.00046915377639328,0.00043408430345673,2.0454544783547e-07,-3.4797270232383e-07,-2.9435860632126e-06,2.8051796008556e-06,-0.0015346210271522,0.0015344821978839,-0.0014734986509852,0.0014791756788926,-0.0015381905537831,0.0015366769793548,-0.0015375164477367,0.0015349166868224,-0.0015485589990001,0.0015466904448411,-0.0015475833663578,0.0015495462080196,-0.0015486284690549,0.0015463902062205,-0.0015481546811289,0.0015497475581893,-0.0014779737540093,0.0014720209076931,-0.0014775541837772,0.0014828609803734,-0.0015375701980175,0.0015398861553995,-0.0015253949035524,0.0015266256750365,-0.0014759221219655,0.0014703388067482,4.2837563100125e-06,1.7685392350627e-05,-0.0011313523138456,0.0011352149122145,4.8124815552663e-06,-9.4773543141542e-07,-0.0011445196063705,0.0011468077803331,-0.0011820539225315,0.0011447448104724,-0.0011839934792177,0.0011778133184869,-0.0011614279026274,0.0012705871282411,-0.0011388833516305,0.0011524519565809,-0.0011764136681728,0.0011503820011079,-0.0011783567756396,0.0011834536687422,-0.0012420944922738,0.0012455392270316,-0.0012440138970638,0.0012436182203176,-0.0012422541590566,0.0012397827126431,-0.0012441750318779,0.0012378630355902,-0.0012313957895901,0.001257160023013,-0.0012215173361391,0.001228240064847,-0.0012195988333615,0.0012301619933571,-0.001229473918768,0.0012590782837136,-0.001167070878114,0.0012649505767957,0.76499783047931,128566,2924,0.0043476083542999,0.0063706204776777,0.0047113125042981,37.766088569972,6.2128708559777e-05,6.2128708559777e-05,6.2128708559777e-05,3303265.8018784,0.015550276674129
36191759,0.92929168214792,0.015732117892115,0.0047013929687422,0.0060906844454511,0.0049400404779217,-0.0010519371981429,0.0010479960865257,-1.1247004049983e-05,7.7969610509749e-07,-7.8240212626229e-07,-2.1545873025796e-07,-0.0004503477104096,0.0004522625920485,-0.001087298931062,0.0010835349211127,-0.0010831382327938,0.0011009254229081,-0.00047017155804946,0.00043371288904018,-0.00045089846312613,0.00045171134816582,-0.0010878495419462,0.0010829766853177,-0.0010836891227225,0.0011003675087336,-0.0012696342707807,0.0012653057679581,-0.001266445139055,0.0012711560826523,-0.0012694512348817,0.0012654961709219,-0.001266261789033,0.0012713464195891,-0.0010485597411861,0.0010293641151475,-0.0010377688265434,0.0010223237337619,-0.0010487465313481,0.001029175407964,-0.001037956193092,0.0010221354738613,-0.00046962112191491,0.00043426413044861,2.0663758638928e-07,-3.5069740925764e-07,-2.9777128625284e-06,2.8387149597216e-06,-0.0015438767491757,0.0015437373184625,-0.0014822344818601,0.0014879788160906,-0.0015473788367603,0.0015458468684642,-0.0015466895957536,0.0015440619554849,-0.0015578366343136,0.0015559465820167,-0.0015568466904189,0.0015588330848103,-0.0015579096822927,0.0015556466646171,-0.0015574245921566,0.0015590377875245,-0.0014867564060929,0.0014807350502299,-0.0014864427637169,0.0014918136517954,-0.0015467582828206,0.0015491007960706,-0.0015345105450957,0.0015357585096816,-0.0014846982005705,0.0014790496270283,4.3269642474038e-06,1.7840570742495e-05,-0.0011376185311617,0.0011415248707533,4.8702181179396e-06,-9.5793464626573e-07,-0.001151201750716,0.001153490757949,-0.001189118893088,0.0011514178548625,-0.0011910584545172,0.0011847901313243,-0.0011682367534185,0.0012783784356059,-0.0011454989297374,0.0011592015779441,-0.0011834121583023,0.0011571215213951,-0.0011853552597232,0.0011904970212477,-0.0012491249285541,0.0012526073347638,-0.0012510669785929,0.0012506636869374,-0.0012492868819911,0.0012468138029675,-0.0012512303949002,0.0012448714945992,-0.0012385530573885,0.0012644121658777,-0.0012285830815704,0.0012353695210934,-0.0012266419126004,0.0012373140808711,-0.0012366085595472,0.0012663530391433,-0.0011739462688499,0.0012726753844529,0.74360848885554,128566,2924,0.0043699744107377,0.0064088950740398,0.0047373989351087,37.870165499089,6.2961323992715e-05,6.2961323992715e-05,6.2961323992715e-05,3296930.3939889,0.015638372742632
36391759,0.93411627444943,0.015811308732304,0.0047239293724848,0.0061229250837923,0.0049644542760272,-0.0010561265367732,0.0010521486844772,-1.1317745908162e-05,7.4507294675668e-07,-8.0100229734676e-07,-2.2565105089155e-07,-0.00045028987156106,0.00045220102949344,-0.0010918615085721,0.0010880741700781,-0.0010876555834958,0.0011055059381061,-0.00047028002798576,0.00043360169839695,-0.00045084881402759,0.00045164157857573,-0.0010924203725921,0.0010875076343543,-0.0010882146556178,0.0011049397361901,-0.0012752072962359,0.0012708412724452,-0.0012719927142032,0.00127672018752,-0.001275021454625,0.0012710344787469,-0.0012718063697287,0.0012769133271931,-0.0010526047572762,0.0010332741314907,-0.0010417295074157,0.0010262469918907,-0.0010527943741657,0.0010330826151312,-0.0010419196544233,0.0010260559427228,-0.00046972128530881,0.00043416128108381,2.1041366598379e-07,-3.5528050237594e-07,-3.008831165735e-06,2.8690860519802e-06,-0.0015514383343511,0.0015512981462572,-0.0014892786095124,0.0014950852410887,-0.0015548566188212,0.0015533116222802,-0.0015541655163853,0.0015515084116237,-0.0015654829842014,0.0015635744854601,-0.0015644793982512,0.0015664882880991,-0.0015655616065049,0.0015632745987661,-0.0015650658747399,0.0015666960181252,-0.001493844896569,0.0014877597712025,-0.0014936351566562,0.0014990627498091,-0.0015542346888746,0.001556605057591,-0.0015419447223641,0.00154320414349,-0.0014917810278264,0.0014860742403734,4.3637822470672e-06,1.7970363497847e-05,-0.0011425308365508,0.0011464689644148,4.9215662966728e-06,-9.682273210899e-07,-0.0011563678738763,0.0011586583046811,-0.0011946815418431,0.0011566540600428,-0.0011966299192614,0.0011902675660176,-0.0011734940354756,0.0012844664107098,-0.0011506046882391,0.0011644295425144,-0.0011889144678201,0.0011624180806101,-0.0011908663956738,0.0011960348012421,-0.0012547140001786,0.0012582294179386,-0.0012566765940306,0.0012562652391007,-0.0012548779115309,0.0012524026949562,-0.0012568419659414,0.0012504398439597,-0.0012441944116297,0.0012701302309725,-0.0012341566339351,0.0012409908854205,-0.0012321949038435,0.0012429559697311,-0.0012422293711997,0.0012720916520493,-0.0011792639647899,0.0012787029456211,0.73413358304321,128566,2924,0.0043873312302042,0.006440163132159,0.0047578449328148,37.543172826987,6.0345382615899e-05,6.0345382615899e-05,6.0345382615899e-05,3291803.4041479,0.015708539617414
36591759,0.93854432169924,0.015879638398978,0.0047434137228565,0.0061508166918555,0.004985407984266,-0.0010597187984244,0.0010557076140819,-1.1380679918222e-05,7.0743737368492e-07,-8.2097795741342e-07,-2.3791866213461e-07,-0.00045015015445334,0.00045195944640588,-0.001095539348084,0.0010917290788154,-0.0010912930160584,0.0011091892833045,-0.00047026779479278,0.00043340310554983,-0.00045071667188927,0.00045139240600985,-0.0010961057639178,0.0010911549439699,-0.0010918596269206,0.0011086154626501,-0.00128009910274,0.0012756957298647,-0.0012768595919676,0.0012815989806817,-0.0012799106095904,0.0012758914980493,-0.0012766706543685,0.001281794690161,-0.001055885177525,0.0010364287702218,-0.0010449282381237,0.0010294287511216,-0.0010560773780208,0.0010362346910406,-0.001045120946866,0.00102923513387,-0.0004697014769939,0.00043397034298039,2.1384865544646e-07,-3.5952212875778e-07,-3.0372869331711e-06,2.8967923414181e-06,-0.0015580300417432,0.0015578890948762,-0.0014952778807785,0.001501141343308,-0.0015613673846325,0.0015598104481563,-0.0015606776850534,0.0015579935522096,-0.0015722190305778,0.0015702936230636,-0.0015712027956587,0.0015732321749158,-0.0015723033208929,0.0015699943196084,-0.0015717974418072,0.0015734429899227,-0.0014998841432896,0.0014937406956247,-0.0014997757776822,0.001505255080445,-0.0015607433143071,0.0015631391268737,-0.0015484486088469,0.0015497183898052,-0.0014978159088342,0.0014920559106573,4.3961321704264e-06,1.8085180895931e-05,-0.001146738243433,0.0011507006479438,4.9666249831705e-06,-9.7946478547443e-07,-0.0011604492033178,0.0011627327052061,-0.0011992555716197,0.0011609348394898,-0.0012012074832796,0.0011947588604795,-0.0011776357957349,0.0012893505917463,-0.0011546308647776,0.0011685591281909,-0.0011934334146219,0.0011667539741133,-0.0011953888647246,0.0012005812056581,-0.0012595877409899,0.0012631327026187,-0.0012615691045745,0.0012611497681949,-0.0012597538332917,0.0012572764505202,-0.0012617366457597,0.0012552948371505,-0.0012489837051792,0.0012749771384805,-0.0012388864745426,0.0012457685777465,-0.0012369059497231,0.0012477524037809,-0.0012469999105044,0.0012769573263386,-0.0011834608541589,0.0012835319500957,0.69114506451339,128566,2924,0.0044022092922579,0.0064674204938009,0.0047753508373243,37.204963719978,5.7639709759825e-05,5.7639709759825e-05,5.7639709759825e-05,3289633.1628565,0.015769132288143
36791759,0.94261169234017,0.015940574058681,0.004760809891569,0.006175711050608,0.0050040531165044,-0.0010629461631976,0.0010589069839301,-1.1434499731253e-05,6.6126985474564e-07,-8.4176954662006e-07,-2.5320701726139e-07,-0.00045071542891822,0.00045234860763423,-0.0010986990436865,0.0010948682140459,-0.0010944200450484,0.0011123559719859,-0.00047092923405443,0.00043393020508517,-0.00045128735661499,0.00045177615395034,-0.0010992708220506,0.0010942886520791,-0.0010949920546799,0.0011117766953768,-0.0012844310030689,0.0012799938785164,-0.0012811708197116,0.0012859155483782,-0.0012842402522982,0.0012801914752284,-0.0012809799974511,0.0012861130980832,-0.0010586436051861,0.0010390703517582,-0.0010476152583531,0.0010321295369161,-0.0010588376428526,0.0010388744474672,-0.0010478097950561,0.0010319340841725,-0.00047035753994759,0.00043450289637625,2.161806922423e-07,-3.6265727785575e-07,-3.0633866423085e-06,2.9221452256285e-06,-0.0015638441106771,0.0015637024097582,-0.0015004634602913,0.0015063784149765,-0.0015670994833505,0.0015655299769546,-0.0015664062246762,0.0015636988094616,-0.0015782615410261,0.0015763200689052,-0.0015772327554806,0.0015792803378033,-0.0015783501927313,0.0015760215058218,-0.0015778365640325,0.0015794966785706,-0.0015051016447739,0.0014989052286029,-0.0015050663133236,0.0015105934461415,-0.0015664700677753,0.0015688876350016,-0.0015541861028046,0.0015554668459126,-0.0015030307022019,0.0014972213754086,4.4216359571529e-06,1.8172134494371e-05,-0.0011505130933554,0.0011544871677597,5.0018906617284e-06,-9.9577974107238e-07,-0.0011639865691726,0.0011662602757518,-0.0012032684264095,0.0011647233939151,-0.0012052226820845,0.0011986866182203,-0.0011812033281179,0.0012934500351412,-0.0011581177195224,0.0011721372615726,-0.0011973957888205,0.0011705930285133,-0.0011993535811699,0.0012045594552928,-0.0012639156145737,0.0012674842933522,-0.0012659141733405,0.0012654841783648,-0.0012640840995019,0.0012616032031057,-0.001266084099552,0.0012596044014706,-0.0012531976487526,0.0012792057314391,-0.0012430528564989,0.0012499729764494,-0.0012410551359521,0.0012519739793204,-0.0012511966621266,0.0012812031112788,-0.0011870789260819,0.0012875808330519,0.67162364161,128566,2924,0.0044155676911987,0.0064914681943746,0.004791035701889,36.866307749178,5.4930461993422e-05,5.4930461993422e-05,5.4930461993422e-05,3296493.7830374,0.015823071088019
36991759,0.94644006129108,0.016001363313426,0.0047781308811674,0.0062004653069286,0.0050227671253297,-0.0010669005197261,0.0010628373956365,-1.1486089665421e-05,6.1919887030378e-07,-8.5711425821257e-07,-2.6518205438835e-07,-0.00045238518022498,0.00045389114572998,-0.0011028108553601,0.0010989713245717,-0.0010985034004611,0.0011165035375894,-0.00047269559941388,0.00043558678152132,-0.00045296037241876,0.00045331542603159,-0.001103385930399,0.001098388469366,-0.0010990787079304,0.0011159209507148,-0.0012893826140383,0.0012849181353104,-0.0012861016802152,0.0012908551895666,-0.0012891909156197,0.0012851168656289,-0.0012859098437833,0.0012910538708412,-0.0010622567070294,0.0010425808938019,-0.0010511636172462,0.0010357056688577,-0.0010624518400994,0.0010423838800319,-0.0010513592661617,0.0010355090962935,-0.00047212068999735,0.00043616275454296,2.1747228000898e-07,-3.6466402208124e-07,-3.0863910534451e-06,2.9444672257184e-06,-0.0015703195653122,0.0015701771838518,-0.0015064201880806,0.0015123799716958,-0.0015735099586709,0.0015719279351108,-0.0015727951022162,0.001570068659114,-0.0015849193890124,0.001582963238775,-0.0015838792025041,0.0015859423252279,-0.0015850098727989,0.0015826642890404,-0.0015844928619063,0.0015861662922401,-0.0015110832648814,0.0015048406602202,-0.001511100525082,0.0015166702762543,-0.0015728712663172,0.0015753065049505,-0.0015605544590265,0.001561846366315,-0.0015090107834702,0.0015031574669764,4.446837059622e-06,1.8248848577975e-05,-0.0011550960941421,0.0011590794284102,5.0303913898613e-06,-1.0127600649993e-06,-0.0011687323534991,0.0011710090273507,-0.0012083032647405,0.0011695584027756,-0.0012102594757054,0.0012036467137601,-0.0011859708793926,0.0012986684220816,-0.0011628190050755,0.0011769305706798,-0.001202386124037,0.001175472533729,-0.0012043458906769,0.0012095640635586,-0.0012689192429796,0.0012725101459126,-0.0012709329569105,0.0012704948645822,-0.0012690907790924,0.0012666094082977,-0.0012711059448123,0.0012645954484685,-0.0012582566970523,0.0012842439235377,-0.0012480728018181,0.0012550303998818,-0.0012460599476692,0.0012570465770088,-0.0012562405369022,0.0012862564553556,-0.0011918910173234,0.0012927546948473,0.71099417959502,128566,2924,0.0044319478712223,0.0065182550100735,0.0048100660680296,36.972997747655,5.5783981981236e-05,5.5783981981236e-05,5.5783981981236e-05,3309110.8792615,0.0158862619548
37191759,0.9500823510507,0.016062764179725,0.0047955712190365,0.0062254187148455,0.0050417742458435,-0.0010711297468592,0.0010670399496271,-1.1544430615322e-05,5.8612475597174e-07,-8.6925406121765e-07,-2.7315583326427e-07,-0.00045364113460014,0.00045505996232016,-0.0011074667142416,0.001103644182439,-0.0011031297254161,0.0011212224706441,-0.00047407522765712,0.00043681580784744,-0.00045422034064976,0.00045448025432058,-0.0011080458340561,0.0011030572537295,-0.0011037090863394,0.0011206358180132,-0.0012946628986273,0.0012901722781725,-0.001291361398403,0.0012961305064338,-0.0012944698015242,0.0012903724128187,-0.0012911681571747,0.0012963305856163,-0.0010664221515632,0.0010466496161984,-0.0010552634161962,0.0010398132999338,-0.0010666186421264,0.0010464512068771,-0.0010554604484691,0.0010396153569289,-0.00047349632741405,0.0004373958228663,2.1918550743123e-07,-3.6701623813956e-07,-3.1078375876391e-06,2.9653061020772e-06,-0.0015772081640828,0.0015770651738419,-0.0015129294758059,0.0015189314439058,-0.0015803520910592,0.0015787593670734,-0.001579598046342,0.0015768529072893,-0.0015918537063066,0.0015898842157405,-0.0015908036273364,0.0015928816344687,-0.0015919458990095,0.0015895842209505,-0.0015914249509816,0.0015931105052238,-0.0015176227683267,0.0015113367710755,-0.0015177130608217,0.0015233222563486,-0.0015797079227761,0.001582160633307,-0.0015673011549037,0.0015686025377938,-0.0015155415520454,0.001509647558531,4.4759038012966e-06,1.8338986711893e-05,-0.0011600086617594,0.0011640095365185,5.0612811791697e-06,-1.0243494214796e-06,-0.0011741184620522,0.001176404777263,-0.0012138777257203,0.0011748939334194,-0.0012158352784591,0.0012091583738455,-0.0011914245529479,0.0013047279425729,-0.0011681636012079,0.0011823679135797,-0.0012079190243312,0.0011808495973211,-0.0012098801717236,0.0012151172877638,-0.0012742598534499,0.0012778755203543,-0.0012762877251871,0.0012758460629797,-0.0012744355906337,0.0012719544904621,-0.001276464932501,0.001269926366096,-0.0012637744869391,0.0012897211344681,-0.0012535501870959,0.0012605453505384,-0.0012515232108847,0.0012625757079938,-0.0012617441479963,0.0012917477918892,-0.0011973862855911,0.0012987726652232,0.75399383972621,128566,2924,0.0044494768445836,0.0065467429304945,0.0048304802644959,37.297231845278,5.8377854762226e-05,5.8377854762226e-05,5.8377854762226e-05,3312838.6172396,0.015953760330435
37391759,0.95354319664705,0.016118570451353,0.0048114234864421,0.0062481627035027,0.0050589842614085,-0.0010749854663025,0.0010708638357519,-1.1608033069171e-05,5.5995690515601e-07,-8.8122604192421e-07,-2.7987911451048e-07,-0.0004537755549082,0.00045516993527247,-0.0011116300496601,0.0011078031625647,-0.0011072603309371,0.0011254346728538,-0.00047436138497479,0.00043688771905233,-0.00045435986806133,0.00045458506987725,-0.0011122142914726,0.001107211091489,-0.001107844811325,0.001124842880082,-0.0012996825747394,0.0012951665872172,-0.001296360544801,0.0013011456398817,-0.0012994877144282,0.0012953684794004,-0.0012961655419833,0.0013013474729019,-0.0010702581920626,0.0010503826867302,-0.001059033141422,0.0010435717988828,-0.0010704564063095,0.0010501825251076,-0.0010592319175963,0.0010433720996971,-0.00047377739340159,0.00043747285845922,2.2147163921877e-07,-3.6986787988004e-07,-3.1287131459851e-06,2.9856413087119e-06,-0.0015837388817271,0.001583595344345,-0.0015190724577263,0.0015251159743247,-0.0015868563880917,0.001585254457275,-0.0015860863625734,0.0015833218942603,-0.001598375544071,0.0015963934931061,-0.0015973169269615,0.0015994098618067,-0.0015984715685708,0.0015960938765095,-0.0015979430752298,0.0015996400985135,-0.0015237949503038,0.0015174663229272,-0.0015239744333172,0.0015296217220412,-0.0015862112607073,0.0015886821974929,-0.0015737271182079,0.0015750366116846,-0.0015217050708547,0.001515771878584,4.5057802257903e-06,1.844117429256e-05,-0.0011644943710629,0.0011685200893864,5.097483581924e-06,-1.0295627823654e-06,-0.0011788230687483,0.0011811235654183,-0.0012188844899805,0.0011796352862022,-0.0012208362269199,0.0012141039747066,-0.001196239162919,0.0013102515304005,-0.0011728276988522,0.0011871272737469,-0.0012128852630529,0.0011856314565684,-0.0012148406219137,0.0012201034177044,-0.0012792916908789,0.0012829327635387,-0.0012813333682603,0.0012808894897764,-0.0012794719065675,0.0012769905799818,-0.0012815150657418,0.0012749486446587,-0.0012688861701683,0.0012948299335714,-0.0012586108974911,0.0012656475093236,-0.0012565701442085,0.0012676916809514,-0.0012668420118945,0.0012968703406601,-0.0012022414632791,0.0013042556949263,0.72209467242751,128566,2924,0.004465456736343,0.0065737421643229,0.0048491389088417,37.627183930354,6.1017471442831e-05,6.1017471442831e-05,6.1017471442831e-05,3307971.0106161,0.016016396436649
37591759,0.95682638814045,0.016169368458336,0.0048258734375791,0.0062689005068756,0.0050745945138813,-0.0010786323110871,0.0010744828973291,-1.1662303068433e-05,5.2588832378601e-07,-8.9587066493272e-07,-2.8896407326832e-07,-0.00045446046235808,0.00045578822514215,-0.0011154211429092,0.0011115839235522,-0.0011110232693063,0.0011292561497286,-0.00047515870201483,0.00043749822515867,-0.00045505020333264,0.00045519791303856,-0.001116010826606,0.0011109863980508,-0.0011116131792426,0.0011286588853895,-0.0013043694541799,0.0012998292049649,-0.0013010297601682,0.0013058251662567,-0.0013041727279453,0.0013000329517154,-0.0013008328961573,0.0013060288686661,-0.0010737245241138,0.0010537564927261,-0.0010624410315951,0.0010470018758544,-0.00107392458,0.0010535544878834,-0.0010626416513285,0.0010468003260887,-0.00047456931481754,0.00043808880771818,2.2390070899565e-07,-3.729492055758e-07,-3.1491333678153e-06,3.0054423999451e-06,-0.0015897788022598,0.001589634640702,-0.0015246707573801,0.0015307549031893,-0.0015928522050251,0.0015912416869833,-0.0015920743131509,0.0015892904014385,-0.0016044977365533,0.0016025035152304,-0.0016034301264471,0.0016055376731536,-0.0016045980428937,0.0016022044973622,-0.001604061528232,0.0016057694786496,-0.0015294219444647,0.0015230514488429,-0.0015296797589048,0.0015353639869738,-0.0015922053502967,0.0015946944551724,-0.001579683890396,0.0015810007118465,-0.0015273245095631,0.0015213531262482,4.5290537580901e-06,1.8522798163453e-05,-0.0011687091675446,0.0011727503506687,5.1287741189274e-06,-1.0385845573251e-06,-0.0011830643611547,0.0011853599858138,-0.0012234722857483,0.0011840057662463,-0.0012254172902529,0.0012186253653726,-0.0012005493348208,0.0013151059071821,-0.0011770295146426,0.0011914032282949,-0.0012174335988153,0.0011900413920929,-0.0012193822404407,0.0012246642790454,-0.0012840077226901,0.0012876695821871,-0.0012860628304407,0.0012856128725771,-0.0012841913471957,0.0012817090646856,-0.0012862479418995,0.0012796536970406,-0.0012736040996997,0.0012995551153918,-0.0012632835063709,0.0012703538001579,-0.0012612293292541,0.0012724114083957,-0.00127154650114,0.0013016089304641,-0.0012065911457991,0.0013090705605947,0.693454038003,128566,2924,0.0044805664680337,0.0065987161060679,0.00486665331581,37.957364230295,6.3658913842357e-05,6.3658913842357e-05,6.3658913842357e-05,3311151.6020592,0.016074929458191
37791759,0.95986378330321,0.016214699056992,0.0048387757858057,0.0062874373866909,0.0050884858844948,-0.0010812189693523,0.0010770462206474,-1.1708338623544e-05,4.8786179877044e-07,-9.117621998682e-07,-2.9970236489781e-07,-0.00045495384360144,0.00045614240508084,-0.0011179806690557,0.0011141392420311,-0.0011135602092385,0.0011318460481256,-0.00047573525331686,0.0004379300780976,-0.00045554860112459,0.00045554705370761,-0.0011185753853857,0.0011135366592343,-0.0011141551343883,0.0011312437163658,-0.0013078193920004,0.0013032570722215,-0.0013044639301504,0.001309260463157,-0.0013076209097417,0.0013034625397903,-0.0013042653269822,0.0013094658926128,-0.0010759872938599,0.0010559387734181,-0.0010646524210957,0.0010492423041083,-0.0010761890655248,0.0010557350535979,-0.0010648547501355,0.0010490390545895,-0.00047514084456986,0.00043852572293502,2.260927837258e-07,-3.7583352481739e-07,-3.1670844536007e-06,3.0227401376249e-06,-0.0015943771721201,0.0015942323507758,-0.0015287960644818,0.0015349157921004,-0.0015973996653492,0.0015957817328895,-0.0015966095320221,0.0015938082271778,-0.0016092584189074,0.0016072535055363,-0.0016081824530991,0.0016103027850592,-0.0016093623312521,0.0016069546969641,-0.0016088199132586,0.0016105372456152,-0.0015335704258715,0.001527163051856,-0.0015338917447672,0.0015396081500334,-0.0015967485196712,0.0015992536714514,-0.0015842054370499,0.0015855283222601,-0.0015314687224112,0.0015254638453675,4.5489292254422e-06,1.8583721822628e-05,-0.001171754709307,0.0011758040591536,5.153029734446e-06,-1.0496639593276e-06,-0.0011859694466375,0.0011882604849523,-0.0012267312383256,0.0011871018856275,-0.0012286704563147,0.0012218199149465,-0.0012034999455405,0.0013184325666437,-0.0011799000125995,0.0011943383596019,-0.001220657963756,0.0011931720977056,-0.0012226008373553,0.0012278934194605,-0.0012874752309804,0.0012911538364702,-0.0012895421126423,0.0012890853512632,-0.0012876624506789,0.0012851771369202,-0.0012897308249785,0.0012831099939118,-0.0012770076760546,0.0013029562014386,-0.0012666501497958,0.0012737479438524,-0.0012645842043832,0.0012758173248774,-0.0012749382916077,0.0013050217723388,-0.0012095763990153,0.0013123625943742,0.66961883860836,128566,2924,0.0044912715100756,0.0066177322619097,0.0048793037056542,37.836128377814,6.2689027022516e-05,6.2689027022516e-05,6.2689027022516e-05,3316460.1813165,0.016117990708471
37991759,0.96265663986915,0.016257661262157,0.0048509900649208,0.0063049741455476,0.0051016970516889,-0.0010834507181374,0.001079261177295,-1.1746894951829e-05,4.5291396565745e-07,-9.2344719623905e-07,-3.0491820471432e-07,-0.00045576618096908,0.00045684969064935,-0.0011202341715991,0.0011164152641805,-0.0011157947158162,0.001134148662769,-0.00047661659784443,0.00043870992496957,-0.00045636722967974,0.00045624804365843,-0.0011208351770378,0.0011158063541661,-0.0011163959331532,0.0011335399909985,-0.001310748632024,0.0013061628188916,-0.0013073786076208,0.0013121567862156,-0.0013105479794738,0.0013063704632723,-0.0013071778375042,0.0013123643935994,-0.0010779017669488,0.001057788707856,-0.0010665227809418,0.0010511407426371,-0.0010781056874941,0.0010575828341251,-0.001066727269092,0.0010509353433037,-0.00047601593347734,0.00043931187424126,2.2888362957214e-07,-3.7940995664364e-07,-3.1830602227126e-06,3.037974672737e-06,-0.0015983728800132,0.0015982273108947,-0.0015323796444029,0.0015385313388946,-0.0016013492097311,0.001599726371277,-0.001600527305058,0.0015977085863581,-0.0016134311137687,0.0016114172066121,-0.0016123475456794,0.0016144796806912,-0.0016135368028125,0.0016111158809328,-0.0016129916925542,0.0016147165380005,-0.0015371691288708,0.0015307283040797,-0.0015375293460504,0.0015432734526552,-0.0016006924723323,0.0016032134943092,-0.0015881106693757,0.0015894369409234,-0.0015350674672745,0.0015290334112126,4.568090652682e-06,1.8630126112693e-05,-0.0011744183481075,0.0011784734207667,5.1715797035129e-06,-1.0624500320632e-06,-0.0011886484119568,0.0011909413681505,-0.0012296506340659,0.0011898975810745,-0.0012315867217028,0.0012246807432036,-0.001206205223807,0.0013213796258193,-0.0011825483192304,0.0011970499730065,-0.0012235466938317,0.0011959984406473,-0.0012254864590818,0.0012307849338677,-0.0012904427250428,0.0012941377180605,-0.0012925200492012,0.0012920587816647,-0.0012906334278918,0.0012881476888246,-0.0012927122523016,0.0012860701054142,-0.0012799676006582,0.0013059178715824,-0.0012695835833835,0.0012767055465561,-0.0012675071989315,0.0012787853767453,-0.0012778877671123,0.0013079938480226,-0.0012123123720946,0.0013152789990068,0.68978257772122,128566,2924,0.0045005075346526,0.0066342597493687,0.0048903651655427,37.593929472975,6.0751435783797e-05,6.0751435783797e-05,6.0751435783797e-05,3324336.0204456,0.016155414698865
38191759,0.96522592376261,0.016297543117965,0.0048623152103456,0.0063212503247712,0.0051139775828481,-0.0010854265211587,0.0010812229386931,-1.1787248036533e-05,4.2771240231831e-07,-9.3021686814277e-07,-3.021375002441e-07,-0.00045603689657032,0.00045709885461893,-0.0011222771813949,0.001118499082257,-0.0011178168356238,0.001136253969154,-0.00047697394673993,0.00043895970848366,-0.00045664720379884,0.00045648792755327,-0.0011228874833893,0.0011178808329549,-0.0011184273528989,0.0011356359597703,-0.0013134303603696,0.0013087975644016,-0.0013100448739356,0.0013148031822709,-0.0013132265043212,0.0013090084364116,-0.0013098409336704,0.001315013990627,-0.0010796556345318,0.0010594867916255,-0.0010682401350317,0.0010528682996166,-0.0010798627272015,0.0010592777285994,-0.0010684478012869,0.0010526597280002,-0.00047636401783248,0.0004395709625407,2.331601965094e-07,-3.8453884819109e-07,-3.1979138194064e-06,3.0520314453209e-06,-0.0016020651490818,0.0016019187773126,-0.0015357214698456,0.0015419038469071,-0.0016050197603085,0.0016033957026907,-0.0016041533712196,0.0016013149767656,-0.0016172375890475,0.0016152164119964,-0.0016161474935328,0.0016182916443395,-0.0016173443748167,0.0016149098457907,-0.0016167964096034,0.0016185269292634,-0.0015405261221884,0.0015340530371702,-0.0015409326114382,0.0015467010894255,-0.0016043597315215,0.0016068987999482,-0.0015917270329815,0.0015930528840674,-0.0015384211130769,0.0015323610841526,4.5889993886712e-06,1.8682177449845e-05,-0.0011768102886771,0.0011808771431331,5.1914142216124e-06,-1.0716464867153e-06,-0.0011911194433036,0.0011934238035585,-0.0012323173701971,0.0011924186812646,-0.0012342486839215,0.0012272953072364,-0.0012087193024791,0.0013241836429872,-0.0011849909874149,0.0011995608621625,-0.0012261850152314,0.0011985479248057,-0.0012281200532359,0.0012334279282298,-0.0012931403251485,0.001296852570169,-0.0012952273227033,0.0012947639434439,-0.0012933361376001,0.0012908507395034,-0.0012954246520725,0.001288763480018,-0.0012826862010554,0.0013086512489153,-0.0012722745235235,0.0012794201961085,-0.0012701884851134,0.0012815097172588,-0.0012805966711424,0.0013107368770316,-0.0012148549065694,0.0013180546301996,0.69607506464447,128566,2924,0.0045086926237184,0.0066495281470306,0.0049003126955804,37.348474254583,5.8787794036665e-05,5.8787794036665e-05,5.8787794036665e-05,3326186.0012412,0.016189361811235
38391759,0.96760295596699,0.016336226569715,0.0048732832604047,0.0063370025965839,0.0051259407127269,-0.0010874521365197,0.0010832348162044,-1.1827638718011e-05,4.0358190732503e-07,-9.3774585610385e-07,-2.958387344684e-07,-0.00045635360531075,0.00045738058181472,-0.0011244890933566,0.0011207505738293,-0.0011200087084131,0.0011385343910584,-0.00047737690083445,0.00043924577949655,-0.00045697740026869,0.00045675615682134,-0.0011251129084203,0.0011201187787199,-0.0011206327353019,0.0011379028308492,-0.0013161052839089,0.0013114310672814,-0.0013127017997151,0.0013174555933726,-0.0013158970000156,0.0013116465582256,-0.0013124933801951,0.0013176710224452,-0.0010815785483816,0.0010613456750426,-0.0010701194749545,0.00105475714568,-0.00108179022358,0.0010611320071958,-0.0010703317339305,0.0010545439816102,-0.00047675349183454,0.000439870581173,2.3949409121685e-07,-3.9189234903542e-07,-3.2117954562791e-06,3.0649663548685e-06,-0.0016057438003426,0.0016055964773242,-0.0015391205069868,0.0015453327854345,-0.0016086795658802,0.0016070590801723,-0.0016077735720926,0.0016049118333458,-0.0016209858204571,0.0016189593432506,-0.0016198896315222,0.0016220463583569,-0.0016210946464527,0.0016186456502764,-0.0016205439194738,0.0016222778462221,-0.0015439446993379,0.0015374398374595,-0.0015443930858496,0.0015501823201328,-0.0016080158322971,0.0016105763195677,-0.0015953192298435,0.0015966395911983,-0.0015418298044328,0.0015357471237849,4.6094895677043e-06,1.873339398812e-05,-0.001179249112825,0.0011833292819994,5.2113988216345e-06,-1.078584726295e-06,-0.0011937784674792,0.0011960934692202,-0.0012351255333145,0.0011950916753272,-0.0012370569031395,0.0012300580323031,-0.0012114388272203,0.001327226784374,-0.0011876236952873,0.0012022569317629,-0.0012289668434467,0.0012012472484787,-0.0012309019568838,0.0012362170179542,-0.0012958499952261,0.0012995788115017,-0.0012979459563863,0.001297481199685,-0.0012960523838056,0.001293565064814,-0.0012981498784179,0.0012914688347641,-0.0012854811541868,0.0013114488102259,-0.001275032370944,0.0012822049691315,-0.0012729373866133,0.0012843034817243,-0.0012833826399026,0.0013135433850886,-0.0012176008331369,0.0013210714365812,0.72889799533965,128566,2924,0.0045170870903686,0.0066647383867666,0.0049104574993295,37.197715364774,5.7581722918188e-05,5.7581722918188e-05,5.7581722918188e-05,3326477.8146212,0.016223664023606
38591759,0.9698199366903,0.016372917950864,0.0048836783581116,0.006351937119217,0.0051373024735356,-0.0010895443113324,0.0010853114591287,-1.1872037437352e-05,3.866432284648e-07,-9.4423534366167e-07,-2.8612165808472e-07,-0.00045614356823167,0.00045718968732826,-0.0011268419775194,0.0011231343349624,-0.0011223388568661,0.001140964316542,-0.00047728427282064,0.00043900971399773,-0.00045678321584765,0.00045654940805026,-0.0011274816458585,0.0011224866356341,-0.0011229787335006,0.0011403168501725,-0.0013189128803631,0.0013142048451855,-0.0013154938356767,0.0013202458891496,-0.0013186991972073,0.0013144257441548,-0.0013152800251194,0.0013204667250575,-0.0010836934164172,0.0010633900584248,-0.0010721865141685,0.0010568230720994,-0.0010839104587141,0.0010631709945269,-0.0010724041521279,0.0010566045254674,-0.00047664502605461,0.00043965041463354,2.4702527780259e-07,-4.004594263982e-07,-3.2248472397585e-06,3.0770661558242e-06,-0.001609547931554,0.0016093996492073,-0.0015427000707001,0.0015489414172195,-0.0016124760658142,0.0016108620660595,-0.0016115443792757,0.0016086574623362,-0.0016247752177259,0.0016227447791153,-0.0016236739282456,0.0016258434603621,-0.0016248875007694,0.0016224237958967,-0.0016243322193045,0.0016260682004211,-0.0015475449494566,0.0015410091257544,-0.0015480422958558,0.0015538498524204,-0.001611811431002,0.0016143951387282,-0.001599032205395,0.0016003441286941,-0.0015454186345512,0.0015393157210783,4.6320965259351e-06,1.8795989787725e-05,-0.0011817542455502,0.0011858545759703,5.2353969388692e-06,-1.0798941584793e-06,-0.0011965257387094,0.0011988559959809,-0.0012380415563266,0.0011978519004167,-0.0012399680904647,0.0012329353499082,-0.0012142712737003,0.0013305065179721,-0.0011903462252398,0.0012050442855033,-0.0012318581046855,0.0012040322320346,-0.0012337884022808,0.0012391191156704,-0.0012986711345846,0.0013024180523693,-0.0013007755224989,0.0013003119959775,-0.0012988810836983,0.0012963909197807,-0.0013009870181735,0.0012942862549025,-0.0012884179913949,0.0013143920252882,-0.0012779257176907,0.0012851305929408,-0.0012758223309349,0.0012872375571324,-0.0012863110345436,0.0013164950157434,-0.001220458087298,0.0013243263985034,0.74096370936229,128566,2924,0.0045257646153344,0.0066804614343214,0.0049208913593251,37.193772573166,5.755018058533e-05,5.755018058533e-05,5.755018058533e-05,3320444.5609549,0.01625907218701
38791759,0.97188770308154,0.016407239229265,0.0048934052591649,0.0063659048002919,0.0051479291698083,-0.0010914830257951,0.0010872320931744,-1.1916604072928e-05,3.6693283350749e-07,-9.5234919686994e-07,-2.7829970211553e-07,-0.00045568350035746,0.00045672126277097,-0.001129047988571,0.0011253632401692,-0.0011245221280948,0.0011432450877708,-0.00047694104390401,0.00043851305127397,-0.00045633875198104,0.00045606537487803,-0.0011297032517044,0.0011246998941512,-0.0011251775942157,0.0011425819675395,-0.0013215588514847,0.0013168227442238,-0.0013181249861557,0.0013228780802249,-0.0013213398795867,0.0013170489569105,-0.0013179058918681,0.0013231042302993,-0.0010856772182047,0.0010653054245103,-0.0010741274041851,0.0010587527682969,-0.0010858995434581,0.0010650810585147,-0.0010743503354359,0.001058528926361,-0.00047628619525238,0.00043916938405001,2.5444079438636e-07,-4.0886866590753e-07,-3.2371690737459e-06,3.0884775194226e-06,-0.0016131386244935,0.0016129894227349,-0.001546093817248,0.0015523627903224,-0.0016160580003033,0.0016144507311802,-0.0016151108224768,0.0016121995050693,-0.0016283257144089,0.0016262917360286,-0.001627219733227,0.0016294015318105,-0.0016284422104272,0.001625964413891,-0.0016278815587525,0.0016296192544068,-0.0015509600709301,0.0015443948047165,-0.0015515082174394,0.0015573328464882,-0.0016153938049712,0.0016180000231509,-0.0016025332044362,0.0016038365192193,-0.0015488210944537,0.0015426992883639,4.6537167506075e-06,1.8857741632231e-05,-0.0011840748041116,0.001188193547004,5.2592951927329e-06,-1.0797822549824e-06,-0.0011990468301952,0.001201394033963,-0.0012407597635388,0.0012004189540512,-0.0012426789545385,0.0012356156142015,-0.0012168848124012,0.0013335839333336,-0.001192844043108,0.0012076056771108,-0.0012345530349028,0.0012066225642248,-0.0012364760025896,0.0012418226771571,-0.0013013179085583,0.0013050820544449,-0.0013034302167154,0.0013029680649635,-0.0013015353589462,0.0012990423867479,-0.0013036492221606,0.001296929795915,-0.0012911784741929,0.0013171586822907,-0.0012806407714711,0.001287876357456,-0.0012785294766182,0.0012899912556395,-0.0012890635868906,0.0013192695823611,-0.0012230949518618,0.00132738051903,0.74287813495442,128566,2924,0.0045338025651584,0.0066952995592427,0.004930555957295,37.19361538289,5.754892306312e-05,5.754892306312e-05,5.754892306312e-05,3312239.2760165,0.01629215082716
38880000,0.9727718135732,0.016421935569222,0.0048975732566002,0.0063718837180034,0.0051524785946184,-0.0010922943501061,0.0010880326536718,-1.1936844687792e-05,3.4891784110565e-07,-9.5744401856454e-07,-2.7676303753741e-07,-0.00045540809718036,0.00045636222471608,-0.0011299857566904,0.0011263081207102,-0.0011254506309532,0.0011442207932183,-0.00047670043511705,0.00043820440700243,-0.00045606982067191,0.00045569986177434,-0.0011306475037269,0.0011256382704062,-0.0011261125773911,0.0011435511634539,-0.0013226899406932,0.0013179417369574,-0.0013192503499218,0.0013240040148062,-0.0013224687684894,0.0013181701623373,-0.0013190290575413,0.0013242323789692,-0.0010865070637214,0.0010661034828273,-0.0010749389372823,0.0010595604574845,-0.0010867315894593,0.0010658769107694,-0.0010751640692434,0.0010593344099468,-0.00047603910081057,0.00043886723685669,2.5751665773593e-07,-4.1237148766185e-07,-3.2419875585285e-06,3.0929053606305e-06,-0.0016146870318202,0.001614537434732,-0.0015475572964104,0.0015538371383436,-0.0016176051451591,0.0016160008666636,-0.0016166526311552,0.001613731367912,-0.0016298495747755,0.0016278143254751,-0.0016287417540241,0.0016309284324057,-0.0016299682181947,0.0016274847565502,-0.0016294046908471,0.0016311428706457,-0.0015524323276802,0.0015458554142005,-0.0015530098193858,0.0015588409259292,-0.0016169416505255,0.0016195570019492,-0.0016040393600927,0.0016053388740993,-0.0015502859816937,0.0015441569149923,4.661563218472e-06,1.8883694123645e-05,-0.0011850495339976,0.0011891730744878,5.2690643778807e-06,-1.0792917974845e-06,-0.0012000961775866,0.0012024460202685,-0.0012419178824822,0.0012015198596929,-0.0012438344945616,0.0012367546929555,-0.001217981183839,0.0013348906933001,-0.001193884310367,0.0012086667911112,-0.0012357020691101,0.001207732551843,-0.0012376224674856,0.0012429708493251,-0.0013024466686187,0.0013062170938735,-0.0013045620634373,0.0013041000107496,-0.0013026675601417,0.0013001728685623,-0.0013047845151291,0.0012980571886784,-0.0012923672841916,0.0013183411386765,-0.0012818090653374,0.0012890560047175,-0.0012796946894488,0.0012911739985262,-0.0012902493018773,0.0013204551211011,-0.0012242004315032,0.0013286781891281,0.74369371098354,128566,2924,0.0045371611613975,0.0067016972741081,0.0049346096707574,37.193609067584,5.7548872540676e-05,5.7548872540676e-05,5.7548872540676e-05,3307970.2970592,0.016306189766669
