time,ASR_ext,ASR_strain,ASR_strain_xx,ASR_strain_yy,ASR_strain_zz,disp_x_101,disp_x_102,disp_x_103,disp_x_104,disp_x_105,disp_x_106,disp_x_p1_neg,disp_x_p1_pos,disp_x_p2_neg,disp_x_p2_pos,disp_x_p3_neg,disp_x_p3_pos,disp_x_p4_neg,disp_x_p4_pos,disp_x_p5_neg,disp_x_p5_pos,disp_x_p6_neg,disp_x_p6_pos,disp_y_101,disp_y_102,disp_y_103,disp_y_104,disp_y_105,disp_y_106,disp_y_p1_neg,disp_y_p1_pos,disp_y_p2_neg,disp_y_p2_pos,disp_y_p3_neg,disp_y_p3_pos,disp_y_p4_neg,disp_y_p4_pos,disp_y_p5_neg,disp_y_p5_pos,disp_y_p6_neg,disp_y_p6_pos,disp_y_p7_neg,disp_y_p7_pos,disp_y_p8_neg,disp_y_p8_pos,disp_z_101,disp_z_102,disp_z_103,disp_z_104,disp_z_105,disp_z_106,disp_z_p1_neg,disp_z_p1_pos,disp_z_p2_neg,disp_z_p2_pos,disp_z_p3_neg,disp_z_p3_pos,disp_z_p4_neg,disp_z_p4_pos,disp_z_p5_neg,disp_z_p5_pos,disp_z_p6_neg,disp_z_p6_pos,humidity,ndof,nelem,strain_xx,strain_yy,strain_zz,temp,thermal_strain_xx,thermal_strain_yy,thermal_strain_zz,vonmises,vstrain
2419200,0,0,0,0,0,0,0,0,0,0,0,0,0,0,0,0,0,0,0,0,0,0,0,0,0,0,0,0,0,0,0,0,0,0,0,0,0,0,0,0,0,0,0,0,0,0,0,0,0,0,0,0,0,0,0,0,0,0,0,0,0,0,0,0,0,0,0,0,0,0,0,0,0,0,0
2619200,0.01960669949786,0.00040218705815389,0.00013406235271796,0.00013406235271796,0.00013406235271796,-3.3230421654749e-05,3.3229652229744e-05,-3.9186355538241e-10,-3.7089841182833e-10,1.509648456616e-09,-2.3447622721579e-09,-3.3181808354159e-05,3.3182305335425e-05,-3.318178141321e-05,3.3182292344304e-05,-3.3183021355737e-05,3.3181010779596e-05,-3.318301694906e-05,3.3181020295451e-05,-3.456164362903e-05,3.4559585635852e-05,-3.4561619927885e-05,3.4559601541335e-05,-1.4971207504311e-09,2.4142366265998e-09,-4.7209228988149e-09,5.5669282791894e-09,-3.3965679379206e-05,3.3966532019816e-05,-3.3842453237155e-05,3.3838642637538e-05,-3.3839157507384e-05,3.3842091226404e-05,-3.3841212826719e-05,3.3839946343391e-05,-3.383791606837e-05,3.3843394193587e-05,-3.5132234025624e-05,3.5124280034302e-05,-3.5122272965299e-05,3.5134508603827e-05,-3.4704967653355e-05,3.470541306693e-05,-3.4701158842855e-05,3.4709335616737e-05,-1.3080089010109e-09,-1.3263804189225e-09,-3.5223079901279e-05,3.5220427567964e-05,3.6595350044014e-09,-6.4665535264483e-09,-3.4934843621159e-05,3.4935599159712e-05,-3.4938206207431e-05,3.4932246034758e-05,-3.4934844214179e-05,3.4935587717801e-05,-3.4938207945867e-05,3.4932235396378e-05,-3.5653590382917e-05,3.5647564300812e-05,-3.5653584351916e-05,3.5647595616069e-05,0.81992968238497,131329,3014,0.0001384488861041,0.00014151537877391,0.00014674646022684,31.574948062841,1.2599584502728e-05,1.2599584502728e-05,1.2599584502728e-05,599093.41864387,0.0004268020192239
2819200,0.041187618618119,0.00083465421966359,0.00027600073621885,0.00027796546493188,0.00028068801851286,-6.7462927087479e-05,6.7466116250907e-05,1.5177821837851e-09,1.6500614248076e-09,-5.3994576297353e-09,8.8251466103509e-09,-6.8518382447185e-05,6.8516824132926e-05,-6.8518331036696e-05,6.851686063863e-05,-6.8513857547387e-05,6.8521561887426e-05,-6.85138093255e-05,6.8521601099058e-05,-7.0102319968322e-05,7.0110067524126e-05,-7.0102183284741e-05,7.0110187595628e-05,5.2399760341858e-09,-8.9794391168973e-09,-1.7873354411333e-09,-1.7046430092072e-09,-6.9393527530635e-05,6.9390014620646e-05,-7.0230208935463e-05,7.0231379411777e-05,-7.0230205285101e-05,7.0231402832126e-05,-7.0234725876349e-05,7.022664007061e-05,-7.0234721444185e-05,7.022666258356e-05,-7.1616448281758e-05,7.1608167286875e-05,-7.1616376767676e-05,7.1608260084244e-05,-7.0579732351983e-05,7.0590118557684e-05,-7.0593570899855e-05,7.0575860979507e-05,7.7728442517451e-10,6.4308175274609e-10,-7.2617553569747e-05,7.2618965643919e-05,7.2046718540218e-10,6.7987624355627e-10,-7.291963077494e-05,7.2921102347367e-05,-7.291963583167e-05,7.2921070440799e-05,-7.2919693981182e-05,7.2921076138123e-05,-7.2919698430824e-05,7.2921042809754e-05,-7.3057074209567e-05,7.3058341741463e-05,-7.3056900119557e-05,7.3058432632571e-05,0.82138492003829,131329,3014,0.00028106284750429,0.00028909053119852,0.00030253000628069,32.74219004109,2.1937520328721e-05,2.1937520328721e-05,2.1937520328721e-05,866071.89474421,0.00087306492347534
3019200,0.062593567759347,0.0012540726773161,0.00041053076160087,0.00041664771682784,0.00042689419888735,-9.7409702750066e-05,9.7413196882386e-05,1.6130518965593e-09,1.857045997207e-09,-7.7103836893319e-09,1.1553822081339e-08,-9.9685781984485e-05,9.9682833604827e-05,-9.9685707062303e-05,9.9682921202934e-05,-9.9679693816612e-05,9.9689250359894e-05,-9.9679607250681e-05,9.9689325551847e-05,-0.00010199459821309,0.00010200420550898,-0.00010199435283166,0.00010200443531682,7.4551639769432e-09,-1.1818805647288e-08,1.4612574459891e-09,-5.4607588484529e-09,-0.00010092404797913,0.00010092002500621,-0.00010288090769989,0.00010288552499667,-0.00010288314171096,0.00010288320039531,-0.00010288700175774,0.00010287910860958,-0.00010288923514781,0.00010287678298434,-0.00010479125189906,0.00010478766821572,-0.00010479795826853,0.00010478078382066,-0.00010260797344741,0.00010262046541694,-0.00010262673920934,0.00010260109115303,1.6436559605894e-09,1.3933153607677e-09,-0.00010711914930273,0.00010712218992461,-1.8722764073862e-09,5.0149279869071e-09,-0.00010834178276285,0.00010834259222965,-0.00010833948161979,0.00010834484707291,-0.00010834189583162,0.0001083425385289,-0.00010833959471157,0.00010834479228269,-0.00010741690273314,0.00010742198009076,-0.000107416600855,0.00010742217092527,0.82013326254425,131329,3014,0.00040579940310342,0.00042042007040489,0.00044623568730416,32.491585340453,1.9932682723627e-05,1.9932682723627e-05,1.9932682723627e-05,1177450.1347861,0.0012732666946934
3219200,0.083748859150894,0.0016545355129026,0.00053705131589125,0.00054849469298148,0.00056898950402986,-0.00012542431676766,0.00012542727511661,1.2901551910636e-09,1.650015039379e-09,-7.742248223543e-09,1.107531038851e-08,-0.00012934096773049,0.00012933761365659,-0.00012934086358625,0.00012933774913608,-0.00012933508991081,0.00012934387851616,-0.00012933496396261,0.00012934399166149,-0.00013205068855481,0.00013205949882671,-0.00013205032791544,0.00013205984057492,7.278795686725e-09,-1.1509954068735e-08,3.4861470106405e-09,-7.3119151542172e-09,-0.00013074178417927,0.00013073793816725,-0.00013425623748316,0.00013426212596882,-0.0001342596920648,0.00013425850128945,-0.00013426213626461,0.00013425588705199,-0.00013426559010507,0.00013425226147513,-0.00013632098811259,0.00013632155305303,-0.00013633143577661,0.00013631079002065,-0.00013272715488021,0.00013273804133162,-0.00013274544696204,0.00013271910718098,2.1258740730284e-09,1.7635522780561e-09,-0.0001405138004961,0.00014051770004128,-3.3104982485656e-09,7.3908577314872e-09,-0.00014312337877219,0.00014312379931532,-0.00014311980931744,0.00014312730562799,-0.00014312353216712,0.00014312371108031,-0.00014311996717436,0.0001431272209556,-0.00014036376171965,0.0001403708507064,-0.00014036334678377,0.00014037114744877,0.80675915178381,131329,3014,0.00052247282302343,0.00054460127125212,0.00058530917550322,32.203447629624,1.7627581036989e-05,1.7627581036989e-05,1.7627581036989e-05,1426489.1805935,0.0016537522223509
3419200,0.10463244228367,0.002033281113321,0.00065510001655041,0.00067264802031147,0.00070553307645907,-0.00015146172038762,0.00015146412900112,9.6195392837957e-10,1.4354128859599e-09,-7.3081125119881e-09,1.0087211492165e-08,-0.00015746526496873,0.00015746179859315,-0.00015746512886006,0.00015746197788089,-0.00015745986219463,0.00015746758198321,-0.00015745969819242,0.00015746773280582,-0.00016005912775892,0.00016006681145055,-0.00016005865287803,0.00016006726139604,6.9295562357624e-09,-1.0438130817922e-08,4.9444215094446e-09,-8.0575490773468e-09,-0.0001587116561612,0.00015870853167764,-0.00016426380875238,0.00016427065993498,-0.00016426795253361,0.00016426629633076,-0.00016426923405555,0.00016426490251744,-0.00016427337711557,0.00016426053801158,-0.00016590495617959,0.00016590887273159,-0.00016591752492117,0.00016589589558013,-0.00016071098665825,0.00016072046875588,-0.00016072789421977,0.00016070293765151,2.3661313957659e-09,1.8895679101739e-09,-0.00017252848353535,0.00017253275212456,-4.1796261467057e-09,8.6862045787288e-09,-0.00017707959439671,0.00017707968845745,-0.00017707530994511,0.00017708390614923,-0.00017707978734657,0.00017707956366794,-0.00017707550750541,0.00017708378504233,-0.00017150936718877,0.00017151742995793,-0.00017150884626482,0.00017151784447008,0.78589838155084,131329,3014,0.00063090037940994,0.00066107417900874,0.00071861611247852,31.913952597148,1.5311620777182e-05,1.5311620777182e-05,1.5311620777182e-05,1640597.8413957,0.0020126178804182
3619200,0.12576999452476,0.0024028476224236,0.00076914152171403,0.00079339228830876,0.00084031381240084,-0.00017722842199099,0.00017723022565981,6.065858722768e-10,1.1932773857832e-09,-6.9233084567819e-09,9.074916397298e-09,-0.00018558648502544,0.00018558283760118,-0.00018558631282136,0.0001855830563095,-0.0001855815252169,0.00018558815047762,-0.00018558132437177,0.00018558833992939,-0.0001878982466291,0.00018790476049521,-0.0001878976576971,0.00018790531804516,6.5744565568235e-09,-9.3891867486851e-09,5.3872197361441e-09,-7.831415558003e-09,-0.00018652123215626,0.00018651878481945,-0.00019445279809256,0.00019445993220755,-0.00019445700062557,0.0001944554967086,-0.00019445778203216,0.00019445464962131,-0.00019446198388983,0.00019445021323033,-0.00019543399208939,0.00019543925172341,-0.00019544675590186,0.00019542604767802,-0.00018828020182669,0.00018828891127955,-0.00018829575077527,0.00018827279597984,2.3023916986684e-09,1.7112216267069e-09,-0.00020478185515677,0.00020478588000293,-4.390735575498e-09,8.6755011143225e-09,-0.00021178901827712,0.00021178883271494,-0.00021178467026865,0.00021179311309052,-0.00021178924726005,0.00021178866759197,-0.00021178490509404,0.00021179295283975,-0.00020253699324229,0.00020254476881766,-0.00020253636798136,0.00020254530353994,0.77011576729976,131329,3014,0.00073819023875089,0.00077686646018214,0.00085289696850234,31.993950082913,1.5951600663301e-05,1.5951600663301e-05,1.5951600663301e-05,1870408.1992614,0.0023707660204891
3819200,0.14750930672438,0.0027774336561576,0.00088389606757808,0.0009154655823977,0.00097807200618183,-0.00020360314718433,0.00020360463692396,4.0083135675955e-10,1.0894713085611e-09,-6.6663888443894e-09,8.4893513143432e-09,-0.00021443492310858,0.00021443120345839,-0.00021443471684026,0.00021443145625054,-0.00021443022313011,0.0002144362303112,-0.00021442998982631,0.00021443645512614,-0.00021672534236507,0.00021673116821463,-0.00021672465196514,0.00021673182336125,6.4122231144574e-09,-8.7698758828328e-09,5.2779772255283e-09,-7.2823547746827e-09,-0.00021505422147423,0.00021505221980741,-0.00022556498335473,0.00022557208986897,-0.00022556897172861,0.00022556787672814,-0.00022556972396263,0.00022556707140707,-0.00022557371181677,0.00022556285720427,-0.0002261086333491,0.00022611394157198,-0.00022612074897335,0.00022610138596803,-0.00021658101541612,0.00021658962688123,-0.00021659581300464,0.00021657429856774,2.127959414602e-09,1.4108573869003e-09,-0.0002381695601397,0.00023817310648528,-4.2974477719205e-09,8.1081606797496e-09,-0.0002480577045293,0.00024805729835614,-0.00024805357816545,0.00024806135836359,-0.0002480579730887,0.00024805708904038,-0.00024805385288811,0.00024806115390478,-0.00023453379084206,0.00023454074893508,-0.00023453304937082,0.00023454141467016,0.77140162294998,131329,3014,0.00084800216272604,0.00089565682286553,0.00099187981541419,32.325700893174,1.8605607145392e-05,1.8605607145392e-05,1.8605607145392e-05,2108881.4855828,0.0027392930956966
4019200,0.1698395017255,0.0031577438854754,0.00099954148427522,0.0010390324608579,0.0011191699403423,-0.00023017011195961,0.00023017147033763,2.7819702765412e-10,1.0831189607754e-09,-6.580639914703e-09,8.2644014981924e-09,-0.00024371196076861,0.00024370817237176,-0.00024371171576305,0.00024370846348599,-0.00024370735232685,0.00024371309046409,-0.0002437070819728,0.0002437133553562,-0.00024606484265205,0.00024607032269869,-0.00024606403647088,0.00024607108982251,6.3704073102787e-09,-8.4854775182066e-09,4.9897810036631e-09,-6.7615842301329e-09,-0.00024388483022345,0.00024388306509983,-0.00025724206690441,0.00025724903745367,-0.0002572457940996,0.0002572450978751,-0.00025724670888832,0.00025724413024641,-0.00025725043546291,0.00025724018957536,-0.00025741565070087,0.00025742050293251,-0.0002574269769621,0.00025740874784229,-0.0002452220797123,0.00024523087867232,-0.00024523656710715,0.00024521588234408,1.9457033212168e-09,1.1170517128369e-09,-0.00027230420750116,0.0002723072734799,-4.1333120983879e-09,7.4628248070932e-09,-0.00028545092842962,0.00028545034613601,-0.00028544707260126,0.00028545413748777,-0.00028545123263843,0.00028545009751047,-0.00028544738287679,0.00028545389369022,-0.00026720378626229,0.00026720989070995,-0.00026720294101375,0.00026721067145094,0.77299486346691,131329,3014,0.00095860478562384,0.0010156721073232,0.0011339505662343,32.663237408803,2.1305899270427e-05,2.1305899270427e-05,2.1305899270427e-05,2333690.1881161,0.0031130761770521
4219200,0.19273486839543,0.0035439399778869,0.0011161412650592,0.0011640826857913,0.0012637160270363,-0.00025693485178212,0.00025693615108487,1.9215801600598e-10,1.1116687243644e-09,-6.53795360177e-09,8.1569806029888e-09,-0.00027349496458494,0.00027349112764192,-0.00027349468080224,0.00027349145633545,-0.00027349039839524,0.00027349599114368,-0.00027349009114676,0.00027349629551482,-0.00027588089460976,0.00027588615541428,-0.00027587997423561,0.00027588703270581,6.3588825675404e-09,-8.344161956471e-09,4.6490898682082e-09,-6.2983624088668e-09,-0.00027300497278758,0.00027300333294967,-0.00028951541819447,0.00028952219944305,-0.00028951888671471,0.00028951853225909,-0.00028952001508165,0.00028951734561834,-0.0002895234829904,0.00028951367737872,-0.00028928837603756,0.00028929261134335,-0.00028929892188099,0.00028928165353636,-0.0002742001222123,0.0002742091647982,-0.00027421446646354,0.00027419432716418,1.7952383366276e-09,8.5333666978285e-10,-0.00030720013389202,0.00030720278129027,-3.9441336459907e-09,6.8508519486241e-09,-0.000323932149833,0.00032393145234523,-0.00032392856168759,0.00032393497788134,-0.00032393249020802,0.00032393116409772,-0.00032392890817367,0.00032393469453606,-0.0003006187574522,0.00030062407109637,-0.00030061780638293,0.00030062496794901,0.77488674245848,131329,3014,0.0010700211217746,0.0011368786438973,0.0012791674076771,33.000978185655,2.4007825485239e-05,2.4007825485239e-05,2.4007825485239e-05,2542142.4385756,0.0034921690205263
4419200,0.21656529265193,0.0039419936059411,0.0012355181575603,0.0012924877381701,0.0014139877102108,-0.00028479482623518,0.00028479608775287,9.9885245986064e-11,1.1674139978625e-09,-6.4808112541648e-09,8.0563984041765e-09,-0.00030478285568941,0.00030477898420656,-0.00030478252212343,0.00030477936072571,-0.00030477833549371,0.0003047837904186,-0.00030477797974895,0.00030478414574982,-0.00030706448991076,0.00030706951564244,-0.00030706342130934,0.00030707053763028,6.2813972847421e-09,-8.1666304957657e-09,4.2631303951668e-09,-5.8202898108324e-09,-0.00030332603097404,0.00030332448545334,-0.00032337123390698,0.00032337774194207,-0.00032337442602793,0.00032337436679355,-0.00032337575197204,0.00032337297473102,-0.000323378942607,0.00032336959950544,-0.00032262754262598,0.00032263110517054,-0.00032263725003122,0.00032262100662331,-0.00030443458188721,0.00030444375436728,-0.00030444867970549,0.00030442917838419,1.6551968630485e-09,6.3345069616311e-10,-0.00034388781123258,0.00034389009426736,-3.7020393175489e-09,6.2378787053227e-09,-0.00036457390912008,0.00036457315881812,-0.0003645706070332,0.00036457640052561,-0.00036457427482034,0.00036457284153465,-0.00036457097812593,0.00036457608927884,-0.00033581998237747,0.00033582457546567,-0.00033581895832855,0.00033582555264741,0.77612069151076,131329,3014,0.0011859866041738,0.0012630690416619,0.0014318159104267,33.595442004451,2.8763536035605e-05,2.8763536035605e-05,2.8763536035605e-05,2743963.6350677,0.0038884374320807
4619200,0.24146865999374,0.0043536179918693,0.0013582121104773,0.0014247433022426,0.0015706625791494,-0.00031360805636409,0.0003136092946313,3.8522597072867e-11,1.2063939341846e-09,-6.4298126185499e-09,7.9765317420041e-09,-0.00033748257897073,0.00033747869250718,-0.00033748221017247,0.00033747910216057,-0.00033747809457179,0.00033748345236755,-0.0003374777062195,0.00033748384247364,-0.00033944735249366,0.00033945221397253,-0.00033944618447477,0.00033945333264011,6.2678832478674e-09,-8.0865310960148e-09,3.9153731224303e-09,-5.4121887609668e-09,-0.00033468058814581,0.00033467910457021,-0.00035867258509467,0.00035867887542322,-0.00035867553486435,0.00035867575689771,-0.00035867707678242,0.00035867414120755,-0.00035868002579625,0.00035867102240203,-0.00035723648076025,0.00035723939324107,-0.00035724545904866,0.0003572300462598,-0.00033578842807565,0.00033579782343975,-0.00033580244007992,0.00033578334676239,1.5724929875363e-09,4.2306643334616e-10,-0.00038221990969111,0.00038222189564621,-3.4780612042868e-09,5.7093821098839e-09,-0.00040728554465616,0.000407284789882,-0.00040728249369581,0.00040728778265866,-0.00040728594991655,0.00040728442857144,-0.00040728290515994,0.00040728742733291,-0.00037263379297942,0.00037263771756715,-0.00037263264782339,0.00037263882428241,0.77693647587417,131329,3014,0.0013059097887233,0.0013935451114004,0.0015912790502344,34.293455321409,3.4347642571274e-05,3.4347642571274e-05,3.4347642571274e-05,2938159.1928854,0.0042999872444657
4819200,0.26741539509114,0.0047781039629912,0.0014841241019121,0.001560615243085,0.0017333646179941,-0.00034317381675123,0.00034317505282606,-1.9470000851898e-11,1.2624328377787e-09,-6.4241365285241e-09,7.9635164733617e-09,-0.00037139831896758,0.00037139439834753,-0.00037139791141572,0.00037139484507365,-0.00037139383501358,0.0003713991494344,-0.0003713934096944,0.00037139957851278,-0.00037280064508905,0.00037280538706321,-0.00037279936422913,0.000372806616058,6.2770089463345e-09,-8.0571589896526e-09,3.6116778500515e-09,-5.0750492671295e-09,-0.00036682359934722,0.00036682215031192,-0.00039518550559496,0.00039519161320797,-0.00039518825043085,0.00039518871228804,-0.00039518999474475,0.00039518688720367,-0.00039519273867672,0.00039518398592261,-0.00039286881970657,0.00039287114427752,-0.00039287717945327,0.00039286243506686,-0.00036803013857523,0.00036803976191654,-0.0003680441338504,0.00036802531148692,1.5200786847573e-09,2.5661742055807e-10,-0.00042189409306373,0.00042189585645744,-3.2750032165983e-09,5.2769257260266e-09,-0.00045179494700165,0.00045179421971937,-0.00045179210902697,0.00045179700252592,-0.00045179538803658,0.00045179381852232,-0.00045179255605594,0.00045179660710504,-0.0004107918513163,0.00041079523387119,-0.00041079059882825,0.00041079645647996,0.77792180359591,131329,3014,0.0014289551875859,0.0015272860861977,0.0017562950853735,34.993881654407,3.995105323526e-05,3.995105323526e-05,3.995105323526e-05,3125836.0283331,0.0047237049679656
5019200,0.29435887063962,0.0052132487397786,0.0016127562551444,0.001699406469264,0.0019010860153702,-0.00037337872833425,0.00037337996977757,-7.3801306861911e-11,1.322054573405e-09,-6.4188742125048e-09,7.9586058343636e-09,-0.0004064267704912,0.00040642282207807,-0.00040642632416496,0.00040642330599282,-0.00040642228815936,0.00040642756831061,-0.00040642182570669,0.00040642803622519,-0.00040691422356347,0.00040691885548029,-0.00040691283021348,0.00040692019502813,6.2618420102408e-09,-8.0612015490734e-09,3.3242330957186e-09,-4.8088294716127e-09,-0.0003995892302184,0.00039958776000727,-0.00043277655560321,0.0004327824564031,-0.00043277912308619,0.0004327797435398,-0.00043278104437119,0.00043277773590691,-0.00043278361093713,0.00043277502266378,-0.00042929003771228,0.00042929180233312,-0.00042929786348039,0.00042928364467647,-0.00040099016215103,0.00040099993654966,-0.0004010041503979,0.00040098550256197,1.494582894695e-09,1.1710410868222e-10,-0.00046265245560189,0.00046265405085129,-3.0881341153358e-09,4.9152693180507e-09,-0.00049788484345246,0.00049788416960336,-0.00049788218918624,0.00049788677084895,-0.0004978853201697,0.00049788372812428,-0.00049788267231622,0.00049788633556581,-0.00045003056068085,0.00045003348368203,-0.0004500291991567,0.00045003482073883,0.77677326955833,131329,3014,0.0015546513168311,0.0016636011580005,0.0019257873910624,35.694393539343,4.5555148314747e-05,4.5555148314747e-05,4.5555148314747e-05,3305145.8343018,0.0051573558826676
5219200,0.32160429189808,0.0056496682555597,0.0017416269811399,0.0018382079724716,0.0020698333019483,-0.00040296888770204,0.00040297014254201,-1.4359489106876e-10,1.4051942849997e-09,-6.4855533948545e-09,8.0351341738283e-09,-0.00044116184011387,0.00044115780923675,-0.00044116134344526,0.00044115834232174,-0.00044115731079612,0.00044116260142867,-0.00044115679696844,0.00044116312203441,-0.00044047859796752,0.00044048313766781,-0.00044047705086601,0.00044048462972069,6.3068098752295e-09,-8.1310648915683e-09,3.1461698520787e-09,-4.656902113603e-09,-0.00043160323166254,0.00043160173485174,-0.0004699457122896,0.00046995151753512,-0.0004699481761769,0.00046994891634896,-0.00046995024318586,0.00046994675954666,-0.00046995270387198,0.00046994416023643,-0.00046508587752914,0.00046508725143731,-0.00046509338318516,0.0004650794275283,-0.0004333483081055,0.00043335827419619,-0.00043336240908764,0.00043334373620243,1.4798098947353e-09,2.7255045862352e-11,-0.00050279788096813,0.00050279936921817,-2.992933884461e-09,4.7081138180311e-09,-0.000543730155346,0.00054372950204563,-0.00054372760409873,0.00054373200256092,-0.00054373065648034,0.0005437290326147,-0.00054372810982039,0.00054373154204041,-0.00048872912351376,0.00048873177110599,-0.00048872769306723,0.00048873317952828,0.77855553466992,131329,3014,0.0016777819798489,0.0017967740550431,0.0020926961082299,36.023391807131,4.8187134457051e-05,4.8187134457051e-05,4.8187134457051e-05,3472017.2116719,0.0055828603096316
5419200,0.34894989257255,0.0060781728740421,0.0018681987611199,0.0019741465920547,0.0022358275208675,-0.0004318515203821,0.00043185282448591,-1.7658792256606e-10,1.4870513938948e-09,-6.4942604302282e-09,8.0924534000006e-09,-0.00047549355381779,0.00047548951155187,-0.00047549301833561,0.00047549008340043,-0.00047548900057862,0.00047549432497163,-0.0004754884486208,0.00047549488465142,-0.00047312280842845,0.00047312730550615,-0.00047312114787152,0.00047312891052255,6.3402350518176e-09,-8.1668848194871e-09,2.9813942069953e-09,-4.4954744165137e-09,-0.00046272421859181,0.00046272271777757,-0.00050656310784449,0.0005065688208769,-0.00050656546217651,0.00050656633037199,-0.00050656766144562,0.00050656404041557,-0.00050657001320546,0.00050656155213987,-0.00049982348305179,0.00049982451147256,-0.00049983067204699,0.00049981700939466,-0.00046481405484141,0.000464824195807,-0.00046482822601821,0.00046480959172669,1.5380716810542e-09,-2.7740939871564e-11,-0.00054226199920501,0.00054226348944032,-2.8321100542834e-09,4.5469816576036e-09,-0.00058928351567352,0.00058928300939984,-0.00058928107419453,0.0005892854029507,-0.00058928405309078,0.00058928250195941,-0.00058928161603598,0.00058928490433601,-0.00052661084846666,0.00052661328125926,-0.00052660930872195,0.00052661479994057,0.76958004413806,131329,3014,0.0017979626874951,0.0019262187776095,0.0022567374623628,36.27612841455,5.02090273164e-05,5.02090273164e-05,5.02090273164e-05,3613786.9907462,0.0059989450171342
5619200,0.37631857173264,0.0064835844467794,0.0019877799051284,0.0021021956132511,0.0023936089283999,-0.00045906511706544,0.00045906644527567,-2.2069020571276e-10,1.5550037063953e-09,-6.4848313057226e-09,8.1060897072002e-09,-0.00050846168405633,0.00050845762696929,-0.00050846111031285,0.00050845823561034,-0.00050845712769329,0.00050846244084558,-0.00050845653825028,0.00050846303796016,-0.00050340261512133,0.00050340702762035,-0.00050340084382215,0.00050340874178319,6.3394972676092e-09,-8.1728696852794e-09,2.8265342918144e-09,-4.3480505245426e-09,-0.0004919431493796,0.000491941640491,-0.00054161529087444,0.00054162089617114,-0.00054161754748297,0.00054161850801136,-0.00054161984646216,0.00054161611490927,-0.00054162210059863,0.00054161372888959,-0.00053202278059856,0.00053202350386058,-0.00053202967697373,0.00053201630166122,-0.00049392717743031,0.00049393741812044,-0.00049394135549168,0.00049392281053326,1.5818029385648e-09,-1.0021269480626e-10,-0.00058017985173491,0.00058018131212182,-2.6966962216345e-09,4.3796368007491e-09,-0.00063377519585986,0.00063377479876898,-0.00063377285595342,0.00063377709292353,-0.00063377577127196,0.00063377425277901,-0.00063377343550821,0.00063377655521956,-0.00056229913158085,0.00056230132113871,-0.00056229747839329,0.00056230295407799,0.73637049696082,131329,3014,0.0019111961731117,0.0020477417479795,0.002414316072878,36.527031589199,5.2216252713595e-05,5.2216252713595e-05,5.2216252713595e-05,3728792.1496954,0.0063937332238491
5819200,0.4036325982027,0.0068706542876154,0.0021018076126814,0.0022237247951786,0.0025451218797554,-0.00048493173296082,0.00048493305719078,-2.7930769738569e-10,1.6095976595876e-09,-6.4710305549879e-09,8.0871873528894e-09,-0.00054016975796208,0.00054016566922455,-0.00054016914565998,0.00054016631485963,-0.00054016521025899,0.00054017047162692,-0.00054016458295994,0.00054017110635927,-0.00053202292681516,0.00053202721391749,-0.00053202104369672,0.0005320290379531,6.3212583108886e-09,-8.1594447894412e-09,2.6873196525983e-09,-4.2154802987396e-09,-0.0005196300220103,0.00051962850654728,-0.00057525369651321,0.00057525919474042,-0.00057525586622571,0.00057525689851158,-0.00057525824399299,0.00057525442535037,-0.00057526041108633,0.00057525213100971,-0.00056237834189284,0.00056237880256825,-0.00056238497445712,0.00056237186949942,-0.00052115761782859,0.00052116791292766,-0.00052117176642395,0.0005211533393084,1.620050777002e-09,-1.7688703801653e-10,-0.00061682936185231,0.00061683078281357,-2.5813752222883e-09,4.2231962401508e-09,-0.00067741539009811,0.00067741508186813,-0.00067741314100401,0.00067741728674595,-0.00067741600339978,0.00067741449750057,-0.00067741375840294,0.0006774167104957,-0.00059614723653412,0.00059614918482483,-0.0005961454706851,0.00059615093036481,0.71317584857732,131329,3014,0.00201882258475,0.0021628853421859,0.0025665901297113,36.777869316431,5.4222954531449e-05,5.4222954531449e-05,5.4222954531449e-05,3850984.7414357,0.0067712690576654
6019200,0.43040601522642,0.0072401274718472,0.0022105192101797,0.0023390552463076,0.0026905530153598,-0.00050906921922866,0.0005090705446086,-3.6575791247919e-10,1.6975211765109e-09,-6.4658704414346e-09,8.0826107958177e-09,-0.00057024770266068,0.0005702435583874,-0.00057024703071883,0.00057024426210992,-0.0005702431538789,0.00057024835779068,-0.00057024246986754,0.00057024904873143,-0.00055861830757978,0.00055862242537565,-0.00055861625588222,0.00055862441639062,6.3207989671032e-09,-8.162331452081e-09,2.5890102112937e-09,-4.1222662608933e-09,-0.00054542227093436,0.00054542075079343,-0.00060704271273142,0.00060704814250611,-0.00060704481928004,0.0006070459123152,-0.00060704726202482,0.00060704337452043,-0.00060704936799701,0.00060704114348488,-0.00059048486617274,0.00059048513628903,-0.00059049131699178,0.00059047839024202,-0.0005464457520575,0.00054645611307794,-0.000546459908974,0.00054644153634316,1.6303078066862e-09,-2.2026429678281e-10,-0.00065176416380703,0.00065176555109469,-2.5198860858569e-09,4.1258700073269e-09,-0.00071936168395467,0.00071936141233033,-0.0007193594870991,0.00071936356625425,-0.00071936231403712,0.00071936081047567,-0.00071936012357149,0.00071936297011352,-0.00062811298404412,0.00062811479092369,-0.00062811116274671,0.00062811659211803,0.70261524189823,131329,3014,0.0021192524903025,0.0022701438933673,0.0027117096393444,36.775506761613,5.4204054092908e-05,5.4204054092908e-05,5.4204054092908e-05,3953402.3456548,0.0071265541421435
6219200,0.45656875466152,0.0076019293454413,0.0023170013415453,0.0024515057861769,0.0028334222177191,-0.00053253362958327,0.00053253495667441,-4.1555429624856e-10,1.7492244592464e-09,-6.4449686383086e-09,8.0625809055554e-09,-0.00059998098073295,0.00059997681621571,-0.00059998027346302,0.00059997755406826,-0.00059997644274318,0.00059998160015015,-0.00059997572261403,0.00059998232644974,-0.00058460258212683,0.00058460658666969,-0.00058460042821241,0.00058460867865933,6.2999803532325e-09,-8.1392811142549e-09,2.5218522519161e-09,-4.0546575845881e-09,-0.00057043080675164,0.00057042928722955,-0.00063837467308756,0.00063838004511456,-0.00063837673678944,0.00063837786128441,-0.00063837921117606,0.00063837529232821,-0.00063838127212423,0.00063837310730038,-0.00061776981077634,0.00061776996230923,-0.00061777613062601,0.00061776335255585,-0.00057105138584308,0.00057106174880833,-0.00057106550221895,0.00057104721981616,1.6786388963222e-09,-2.9927551183854e-10,-0.00068629157646974,0.0006862929326751,-2.4661941147274e-09,4.0391585587286e-09,-0.00076078846551066,0.00076078825014849,-0.00076078631538672,0.00076079035809794,-0.00076078913624378,0.00076078760699756,-0.00076078699189226,0.00076078972103766,-0.00065979880377327,0.00065980041054225,-0.0006597968603827,0.00065980233423734,0.70745492735321,131329,3014,0.0022168786919859,0.0023741373932392,0.0028551114661186,36.758743215618,5.4069945724944e-05,5.4069945724944e-05,5.4069945724944e-05,4027904.4879498,0.0074741245454857
6419200,0.48208067090499,0.0079511693678739,0.0024193874180781,0.0025593781121536,0.0029724038376423,-0.0005550324123547,0.00055503374064862,-4.7027894197761e-10,1.8054324908649e-09,-6.4060083833706e-09,8.0240330154758e-09,-0.00062895846699962,0.00062895429188599,-0.00062895772176455,0.00062895506626741,-0.0006289539520569,0.00062895904877277,-0.00062895319423013,0.00062895981210759,-0.00060945083925193,0.00060945471038415,-0.0006094485753961,0.00060945691035634,6.2632621085406e-09,-8.0981655878483e-09,2.4692966186171e-09,-3.9989950004429e-09,-0.00059433934239573,0.00059433782610494,-0.00066884233302275,0.00066884764742883,-0.00066884436332028,0.00066884550041404,-0.00066884684716705,0.00066884292132652,-0.00066884887405177,0.00066884077262879,-0.00064379119773734,0.00064379127161645,-0.00064379741196438,0.00064378476942633,-0.00059446954822989,0.00059447987395946,-0.00059448358927497,0.00059446542311159,1.723555076399e-09,-3.7173640809026e-10,-0.00072002129523843,0.00072002262369498,-2.4262320942014e-09,3.969734779548e-09,-0.00080139824654082,0.00080139807824128,-0.00080139613283095,0.00080140015033781,-0.000801398955543,0.000801397396241,-0.00080139684745763,0.00080139947439819,-0.00069068591454691,0.00069068734319822,-0.00069068385672111,0.00069068938110739,0.70210893687706,131329,3014,0.0023104858047708,0.0024735515460587,0.002995175210457,36.741580666035,5.3932645328282e-05,5.3932645328282e-05,5.3932645328282e-05,4091984.3235194,0.0078097881104698
6619200,0.50731830686965,0.0083189382279613,0.0025276305683553,0.0026728792863241,0.0031184283732818,-0.00057886963876819,0.00057887096660791,-5.250318364025e-10,1.8597487369821e-09,-6.3019820510683e-09,7.918585976634e-09,-0.00065895031472823,0.00065894617260638,-0.00065894953219669,0.00065894698271922,-0.00065894586801407,0.00065895085825797,-0.0006589450730365,0.00065895165828332,-0.00063685847725021,0.00063686217059369,-0.00063685610519963,0.00063686447683958,6.1620387657329e-09,-7.9882048254858e-09,2.4095363078774e-09,-3.9322010764214e-09,-0.00061966826499652,0.00061966675584966,-0.00070034046566609,0.00070034567651769,-0.00070034245726585,0.00070034357143081,-0.0007003449101826,0.00070034102064972,-0.00070034689801009,0.00070033891429471,-0.00067248915401296,0.0006724891800982,-0.00067249524325607,0.00067248280282959,-0.0006198043575691,0.00061981452415709,-0.00061981819088549,0.00061980028208058,1.7698940544515e-09,-4.445788109225e-10,-0.00075537823196487,0.00075537953377565,-2.376225489663e-09,3.8915226870796e-09,-0.00084369251550681,0.00084369240297102,-0.00084369044473982,0.00084369443250319,-0.00084369326396907,0.00084369168101098,-0.00084369119836696,0.00084369371699511,-0.00072363400897536,0.00072363525273689,-0.00072363183487674,0.0007236374061906,0.74070667006628,131329,3014,0.0024096548407553,0.0025788645355927,0.0031419715418592,37.00929926777,5.6074394142163e-05,5.6074394142163e-05,5.6074394142163e-05,4156100.7183704,0.0081639126059055
6819200,0.53338024702525,0.0087305981875914,0.0026490245832237,0.0028001212406521,0.0032814523637156,-0.00060660837018302,0.00060660969235559,-5.4381866536012e-10,1.8728602904037e-09,-6.0748335769453e-09,7.6834469084711e-09,-0.00069225387649486,0.00069224987468641,-0.00069225308427216,0.00069225069281949,-0.0006922495846892,0.00069225440264548,-0.00069224877607052,0.0006922552157671,-0.00067016805191131,0.00067017154791199,-0.00067016564098958,0.00067017388951187,5.9136834513598e-09,-7.7226975725924e-09,2.3054061894717e-09,-3.8139935403169e-09,-0.00064906942279403,0.00064906792829562,-0.00073520376220614,0.00073520874616052,-0.00073520568464626,0.00073520671290083,-0.00073520803870316,0.00073520425940836,-0.00073520995276982,0.00073520222935413,-0.00070730477325861,0.00070730475952793,-0.00070731063667561,0.00070729860590951,-0.00064989004393656,0.00064989978633932,-0.00064990336595795,0.00064988605757466,1.8526312908269e-09,-5.5838161591316e-10,-0.00079534003572468,0.00079534130593841,-2.2591053072806e-09,3.7411379617592e-09,-0.00089104149628612,0.00089104150894727,-0.00089103951698792,0.00089104344733318,-0.00089104231198517,0.00089104071927944,-0.00089104033324575,0.00089104266870444,-0.00076162266207106,0.00076162359962645,-0.00076162030099686,0.00076162593884313,0.79221451433293,131329,3014,0.0025250420374751,0.0027010967997372,0.0033078557135504,38.075394967358,6.4603159738863e-05,6.4603159738863e-05,6.4603159738863e-05,4283269.6985916,0.0085708435080556
7019200,0.56016561503149,0.0091178620215523,0.0027614147937589,0.0029186069655901,0.0034378402622033,-0.00063306372072021,0.00063306503464844,-6.1494014303015e-10,1.9358865761998e-09,-5.8472626874033e-09,7.4448460547104e-09,-0.00072524631609536,0.00072524241731911,-0.00072524548010631,0.00072524327866289,-0.00072524217633949,0.00072524679051015,-0.00072524132505759,0.0007252476453372,-0.0007005694200509,0.00070057262673422,-0.00070056688361303,0.00070057509287525,5.6987135389438e-09,-7.4889176621803e-09,2.2047714646622e-09,-3.6974556225328e-09,-0.00067729339164523,0.00067729191327352,-0.00076980743348661,0.00076981221230008,-0.00076980928740766,0.00076981025293269,-0.00076981156258473,0.0007698078780592,-0.00076981340603502,0.00076980591751441,-0.00073928774083026,0.0007392876823035,-0.00073929339318516,0.00073928173728798,-0.00067817135893814,0.00067818075148436,-0.00067818423943315,0.00067816746011943,1.8826318280664e-09,-6.2202490150741e-10,-0.00083479236155565,0.00083479359807097,-2.173825571768e-09,3.6205303444303e-09,-0.00093825737180816,0.00093825745343297,-0.00093825546105106,0.00093825932281604,-0.0009382582200577,0.00093825662976519,-0.00093825631118707,0.00093825851030733,-0.0007983362132257,0.00079833695187294,-0.000798333754192,0.00079833938665421,0.73335807704978,131329,3014,0.0026350922508271,0.0028184316590823,0.0034715837988313,39.159667086143,7.3277336689146e-05,7.3277336689146e-05,7.3277336689146e-05,4327219.6539133,0.0089654377990547
7219200,0.58752256569671,0.0094964631972126,0.0028705565509675,0.0030339367591617,0.0035919698870834,-0.00065896653973568,0.00065896784330876,-6.7830677604654e-10,1.9891257006635e-09,-5.6481048855081e-09,7.2324962858795e-09,-0.00075800848250921,0.00075800467119516,-0.00075800760701431,0.00075800557079077,-0.00075800447678699,0.00075800890662669,-0.00075800358644869,0.00075800980008687,-0.00072972401640975,0.0007297269623722,-0.00072972136602849,0.00072972954162912,5.5033784937289e-09,-7.2735110212494e-09,2.1213329335188e-09,-3.5972235633826e-09,-0.00070508168180116,0.00070508022049593,-0.00080428436922755,0.00080428896820759,-0.00080428616418131,0.00080428706998336,-0.00080428836363158,0.00080428477132815,-0.00080429014808374,0.00080428287164281,-0.00077030052560162,0.00077030044086362,-0.00077030599824907,0.0007702946762038,-0.00070561765832886,0.00070562672607244,-0.00070563013716927,0.00070561384114993,1.9210692101543e-09,-6.951599027245e-10,-0.00087405320106976,0.00087405440276712,-2.1016888712153e-09,3.511700403272e-09,-0.00098554861967443,0.00098554876503736,-0.00098554676949958,0.0009855505744312,-0.0009855495053213,0.00098554790333123,-0.00098554765705504,0.00098554972353948,-0.00083452443719717,0.00083452497021605,-0.00083452186823643,0.00083452751586891,0.70718848711171,131329,3014,0.0027428418246654,0.0029339488503143,0.003634481744843,40.244582459283,8.1956659674261e-05,8.1956659674261e-05,8.1956659674261e-05,4382161.3789901,0.0093551928318941
7419200,0.61445259851796,0.0098544594511138,0.0029731238411868,0.0031426564004968,0.0037386792094302,-0.00068244856133695,0.00068244985551562,-7.4493767966523e-10,2.0463677724869e-09,-5.5975261757412e-09,7.1705394428538e-09,-0.0007883727656324,0.00078836893985518,-0.00078837184808349,0.00078836988069277,-0.00078836879404499,0.00078837313787551,-0.00078836786278442,0.00078837407209336,-0.00075579383981888,0.00075579661902066,-0.00075579106954293,0.00075579931869487,5.4552168957626e-09,-7.2123493462499e-09,2.1172758403922e-09,-3.5819797360944e-09,-0.00073043598624653,0.00073043453621792,-0.0008363678976789,0.00083637246582455,-0.000836369687947,0.00083637057452909,-0.00083637185778651,0.00083636830637721,-0.00083637363801184,0.00083636641236134,-0.00079828614070266,0.00079828608570959,-0.00079829159624783,0.00079828033995826,-0.0007303290324959,0.00073033801271702,-0.00073034140735085,0.00073032523668596,1.9583938455006e-09,-7.6241835843661e-10,-0.00091066509935879,0.0009106662713916,-2.1104839502228e-09,3.4894557899915e-09,-0.0010301958232708,0.0010301959785061,-0.0010301939771502,0.001030197784307,-0.0010301967436134,0.0010301950819073,-0.001030194900189,0.00103019689747,-0.00086784812269321,0.00086784851713682,-0.00086784544971022,0.0008678511670551,0.68501444298142,131329,3014,0.0028405228808084,0.0030393447274405,0.0037863563559,40.771748337278,8.6173986698226e-05,8.6173986698226e-05,8.6173986698226e-05,4428698.1321211,0.0097135805222063
7619200,0.64021359324636,0.010188096193479,0.0030683995394314,0.0032437771305088,0.0038759195235384,-0.0007034340990962,0.00070343538968779,-7.989894949782e-10,2.0968545459741e-09,-5.657129992709e-09,7.2258809333269e-09,-0.00081613199176919,0.00081612808914218,-0.0008161310393721,0.00081612906397657,-0.00081612798087299,0.00081613232439469,-0.00081612701370189,0.00081613329457688,-0.00077882910489426,0.0007788318141318,-0.00077882622974503,0.0007788346190702,5.5153464573891e-09,-7.265579945645e-09,2.1766231584121e-09,-3.6352940434e-09,-0.00075321757341746,0.00075321612950406,-0.00086567311236164,0.00086567776375721,-0.00086567494220407,0.00086567583386259,-0.0008656771123324,0.00086567356559116,-0.00086567893084902,0.0008656716346333,-0.00082321771215612,0.00082321773266903,-0.00082322327575804,0.0008232118800334,-0.00075221854286652,0.00075222760115613,-0.00075223102812776,0.00075221471832916,2.0103565455169e-09,-8.3448619778418e-10,-0.0009443296680884,0.00094433081995217,-2.1746346465955e-09,3.532938938067e-09,-0.0010716012058722,0.0010716013470435,-0.0010715993242913,0.0010716031885793,-0.0010716021680054,0.001071600408676,-0.0010716002876847,0.0010716022610749,-0.00089826384334073,0.00089826413467205,-0.000898261051257,0.00089826690358828,0.67223241469186,131329,3014,0.0029278211193693,0.0031340432828711,0.0039259795061174,40.851905781699,8.6815246253591e-05,8.6815246253591e-05,8.6815246253591e-05,4459802.082906,0.010038428203208
7819200,0.66477109759793,0.010502009245058,0.0031578796912764,0.0033387540116753,0.0040053755421067,-0.0007229826468547,0.00072298393697154,-8.5752645168494e-10,2.1549342685608e-09,-5.7263023176302e-09,7.2944902546828e-09,-0.00084249385312745,0.00084248986477223,-0.00084249286144989,0.00084249087810185,-0.00084248979467495,0.00084249414585672,-0.00084248878902011,0.00084249515437136,-0.00080014753429467,0.00080015017601256,-0.00080014454618079,0.00080015309459144,5.5874279902488e-09,-7.3324193295179e-09,2.2445622351837e-09,-3.6982504528884e-09,-0.00077458142794085,0.00077457998881187,-0.00089358367076351,0.00089358841771354,-0.00089358554517318,0.000893586443814,-0.00089358771739224,0.000893584173296,-0.00089358958115604,0.00089358219814115,-0.0008464190737517,0.00084641918160591,-0.00084642476631027,0.00084641320046318,-0.00077274891739938,0.00077275807419847,-0.00077276154020311,0.00077274505528046,2.060040852666e-09,-8.9656576958999e-10,-0.00097634306269516,0.00097634420229633,-2.2467343783217e-09,3.5924062158531e-09,-0.0011110254510087,0.0011110255737652,-0.0011110235252019,0.0011110274593958,-0.0011110264505948,0.001111024597954,-0.0011110245261888,0.0011110264941518,-0.00092715814923694,0.00092715836178026,-0.00092715524680795,0.00092716124079129,0.66655083967926,131329,3014,0.0030091414094344,0.0032228452184715,0.0040587363477168,40.921736493701,8.7373891949607e-05,8.7373891949607e-05,8.7373891949607e-05,4471850.8803576,0.010344447758624
8019200,0.68811676136256,0.010797142391631,0.0032416977450335,0.0034278825783679,0.0041275620682292,-0.00074122000411242,0.0007412212928029,-9.156584960556e-10,2.2116698990616e-09,-5.7966876625533e-09,7.3635366444218e-09,-0.00086737785720357,0.00086737378229292,-0.00086737682710431,0.00086737483370206,-0.00086737375138493,0.00086737810948826,-0.0008673727076229,0.00086737915621609,-0.00081999302791319,0.00081999560281642,-0.00081998992784542,0.00081999863384024,5.6591402556183e-09,-7.4007348994763e-09,2.3168837476503e-09,-3.7675906201556e-09,-0.00079462362354087,0.00079462218755129,-0.00092000637953673,0.00092001122411921,-0.00092000830196031,0.00092000920262652,-0.00092001047333938,0.00092000693320714,-0.00092001238540475,0.00092000491054005,-0.0008681133508559,0.0008681135534579,-0.00086811918206665,0.00086810743342536,-0.0007920390527083,0.00079204830293389,-0.00079205181389982,0.00079203514772449,2.1134421967622e-09,-9.5675367853775e-10,-0.0010067266991684,0.0010067278321012,-2.3206570032862e-09,3.6597948414415e-09,-0.0011484988820528,0.0011484989889158,-0.0011484969088087,0.0011485009219052,-0.0011484999196658,0.0011484979752857,-0.001148497947844,0.0011484999186212,-0.0009545084571122,0.0009545085986385,-0.00095450544299403,0.00095451158899501,0.66097249600318,131329,3014,0.0030850064322733,0.0033061513648263,0.0041847184815965,40.991200025077,8.7929600200619e-05,8.7929600200619e-05,8.7929600200619e-05,4481663.7592648,0.01063264713776
8219200,0.71039432272683,0.011075932835115,0.00332056447894,0.0035119306881819,0.0042434376679935,-0.00075856087384215,0.00075856216155858,-9.7330785005446e-10,2.2683587817551e-09,-5.8376599360255e-09,7.4037215756233e-09,-0.00089114017018671,0.00089113602890086,-0.00089113910199694,0.00089113711835794,-0.0008911360365485,0.00089114038277234,-0.00089113495484871,0.0008911414677546,-0.0008388491125449,0.00083885160183011,-0.00083884590109484,0.0008388547453785,5.7013493882716e-09,-7.4400834063348e-09,2.3830231778117e-09,-3.8310049691013e-09,-0.00081375304811567,0.00081375161494965,-0.00094530003513837,0.00094530495356918,-0.00094530200156643,0.00094530288875452,-0.00094530415658966,0.000945300635516,-0.00094530611274132,0.00094529856963621,-0.0008887754766562,0.00088877578127551,-0.00088878143511344,0.00088876953497835,-0.0008104367349028,0.00081044602441097,-0.00081044957662571,0.00081043279027848,2.1686049368137e-09,-1.0157158662246e-09,-0.0010358755211508,0.001035876650475,-2.3868369505343e-09,3.7224673184286e-09,-0.0011844774944842,0.0011844775928358,-0.0011844754779517,0.0011844795689033,-0.0011844785703601,0.0011844765412703,-0.0011844765552014,0.00118447852763,-0.00098067431438751,0.00098067438344562,-0.00098067118801184,0.00098067748519951,0.65549139974226,131329,3014,0.0031571406174106,0.0033856604917364,0.0043055656661548,41.181781485151,8.9454251881212e-05,8.9454251881212e-05,8.9454251881212e-05,4494158.4085724,0.010908128280622
8419200,0.73165444068966,0.01134119952099,0.0033953847599862,0.0035918276350164,0.0043539871259872,-0.00077506862239546,0.00077506990897674,-1.0316363639525e-09,2.325547159013e-09,-5.8578720034725e-09,7.4229840263451e-09,-0.00091380523279568,0.00091380103837601,-0.00091380412606014,0.00091380216647442,-0.00091380108506361,0.00091380540512841,-0.00091379996529791,0.00091380652868639,-0.00085683570042646,0.00085683808922305,-0.00085683237715496,0.00085684134624685,5.7229019141862e-09,-7.4585467258574e-09,2.4443319187219e-09,-3.8896418304398e-09,-0.00083201926243917,0.00083201783219632,-0.00096946435757499,0.00096946933293351,-0.00096946636485664,0.0009694672282498,-0.00096946849259376,0.00096946500173214,-0.00096947048993076,0.00096946289574783,-0.00090854751902451,0.00090854793036609,-0.00090855359561091,0.00090854156670465,-0.00082799648860655,0.00082800578036385,-0.00082800937028619,0.00082799250736532,2.225161738101e-09,-1.0721089174261e-09,-0.001063815646936,0.0010638167766374,-2.4464906734628e-09,3.7825729158615e-09,-0.0012189773434923,0.0012189774401016,-0.0012189752867337,0.00121897945626,-0.0012189784571118,0.0012189763511386,-0.0012189764019538,0.0012189783772663,-0.0010057554849482,0.0010057554832275,-0.0010057522471035,0.0010057586955545,0.6538093543335,131329,3014,0.0032258084426377,0.0034615789948056,0.004421386959564,41.431192391315,9.1449539130521e-05,9.1449539130521e-05,9.1449539130521e-05,4507486.6874305,0.011171466906839
8619200,0.75188076169234,0.011593108469098,0.0034662509026063,0.0036676465566934,0.0044592110097987,-0.00079066463999978,0.00079066592114947,-1.0914334166642e-09,2.3798478837219e-09,-5.871665049575e-09,7.4313793334919e-09,-0.0009352705347806,0.00093526628915484,-0.00093526939009345,0.00093526745527484,-0.00093526637880595,0.0009352706629229,-0.00093526522114767,0.00093527182468837,-0.00087385873604231,0.00087386101522986,-0.00087385530162328,0.0008738643846639,5.7362805925905e-09,-7.467732632475e-09,2.5045526551756e-09,-3.9459216642955e-09,-0.00084932633930708,0.00084932491308025,-0.00099238772275849,0.00099239274902251,-0.00099238976935959,0.00099239060541696,-0.00099239186595619,0.00099238841055472,-0.00099239390261614,0.00099238626575486,-0.00092734531518579,0.00092734583660815,-0.00092735150578345,0.00092733935922764,-0.00084468041468775,0.00084468969361551,-0.00084469331904095,0.00084467639973535,2.2838068372688e-09,-1.127758381432e-09,-0.0010903999008679,0.0010904010337825,-2.5025986935778e-09,3.8421992373183e-09,-0.0012518108999094,0.0012518109994525,-0.0012518088042806,0.0012518130541425,-0.0012518120519887,0.0012518098727301,-0.0012518099579029,0.0012518119373638,-0.0010296482713149,0.0010296481994269,-0.0010296449209132,0.0010296515229746,0.65260875720348,131329,3014,0.003290683208925,0.0035335086760187,0.0045315736020397,41.681976670059,9.3455813360469e-05,9.3455813360469e-05,9.3455813360469e-05,4521287.6015729,0.011421304089472
8819200,0.77106368820386,0.011821910245917,0.0035300850835141,0.0037362009730451,0.0045556241893581,-0.00080489307516515,0.00080489435214374,-1.1507095483485e-09,2.4349553716378e-09,-5.8721401747367e-09,7.4278373770786e-09,-0.00095524123864925,0.00095523695136871,-0.00095524005586473,0.00095523815557684,-0.00095523708284614,0.00095524132383716,-0.0009552358872181,0.0009552425237728,-0.00088905678347004,0.00088905894574466,-0.00088905323781975,0.00088906242788528,5.7371525882601e-09,-7.4641109097651e-09,2.5603416711195e-09,-3.9974447371806e-09,-0.00086520606082582,0.00086520463887833,-0.0010137782773742,0.0010137833432076,-0.0010137803600619,0.0010137811637432,-0.0010137824201422,0.0010137790057594,-0.0010137844929611,0.0010137768250933,-0.00094425350071069,0.00094425413232465,-0.00094425979660836,0.00094424755018245,-0.00085981805405057,0.00085982729886375,-0.00085983095584937,0.00085981400821053,2.3433726322805e-09,-1.182143312598e-09,-0.0011150975762352,0.0011150987145427,-2.553042797148e-09,3.8983538949497e-09,-0.0012824979602166,0.0012824980678197,-0.0012824958287484,0.0012825001579806,-0.0012824991505959,0.001282496903421,-0.0012824970206782,0.0012824990034812,-0.0010516220301459,0.0010516218872558,-0.0010516185675233,0.001051625321924,0.62941993000809,131329,3014,0.0033498713881142,0.0035995055358446,0.0046339266784186,41.932809892707,9.5462479141658e-05,9.5462479141658e-05,9.5462479141658e-05,4539368.9353302,0.011651521643457
9019200,0.78879975724058,0.012033598204613,0.003589090601955,0.0037996442249277,0.0046448633777299,-0.00081720189491759,0.00081720317147667,-1.2087825601108e-09,2.4931869056455e-09,-5.9255043766734e-09,7.4818548820573e-09,-0.00097287225363553,0.00097286789012254,-0.00097287103223226,0.00097286913349736,-0.00097286806083997,0.00097287229873071,-0.00097286682724123,0.00097287353750331,-0.00090236424254333,0.00090236632760764,-0.00090236058571942,0.00090236992397147,5.7917606477693e-09,-7.5164987513635e-09,2.6390486853264e-09,-4.0736304082283e-09,-0.00087905701068986,0.00087905559084756,-0.0010327343088709,0.0010327394635634,-0.0010327364435327,0.0010327372332809,-0.001032738487986,0.0010327350919412,-0.0010327406129417,0.0010327328595906,-0.00095912283593026,0.00095912358750454,-0.00095912928586322,0.00095911685416245,-0.00087300385588509,0.00087301315870162,-0.00087301686372515,0.00087299976223147,2.4038994962852e-09,-1.2336579344793e-09,-0.0011371192161829,0.001137120363811,-2.6254598922378e-09,3.9802154545323e-09,-0.0013100998184759,0.001310099921018,-0.0013100976343918,0.001310102062249,-0.0013101010464481,0.0013100987199315,-0.0013100988654582,0.0013101008716141,-0.0010711106291096,0.0010711104352777,-0.0010711070539174,0.0010711139786039,0.62977530425194,131329,3014,0.003401077280968,0.0036570722216487,0.0047251788541753,41.749803062354,9.3998424498836e-05,9.3998424498836e-05,9.3998424498836e-05,4544841.5719964,0.011853948532647
9219200,0.80508220857636,0.01222554714021,0.0036424645825173,0.0038571152243398,0.0047259673333532,-0.00082807637423425,0.00082807764846933,-1.2666628569368e-09,2.5484543337047e-09,-5.9690572553394e-09,7.5234411121854e-09,-0.0009887172315513,0.00098871279970042,-0.00098871597234405,0.00098871408072648,-0.00098871301022571,0.00098871723625179,-0.00098871173850199,0.00098871851287373,-0.00091412742927292,0.00091412942943128,-0.00091412366068552,0.00091413313726624,5.8349977337926e-09,-7.5590843262564e-09,2.7117609351002e-09,-4.1452348837946e-09,-0.00089134987464234,0.00089134845606793,-0.0010497627537664,0.0010497679869098,-0.0010497649358968,0.0010497657079496,-0.0010497669616216,0.0010497635857882,-0.001049769134121,0.0010497613053611,-0.00097231569143004,0.00097231655583488,-0.00097232228162586,0.00097230968124651,-0.00088457673338341,0.00088458607200567,-0.00088458982579259,0.00088457259230288,2.4666674948836e-09,-1.285978789466e-09,-0.0011569126619408,0.0011569138200242,-2.691405954572e-09,4.0574698163176e-09,-0.0013350404589817,0.001335040562912,-0.0013350382273516,0.0013350427519089,-0.0013350417254954,0.0013350393236029,-0.0013350394961736,0.0013350415227416,-0.0010885431496905,0.0010885429024206,-0.0010885394626169,0.0010885465584964,0.6230058061268,131329,3014,0.0034463189923521,0.0037081646635411,0.0048071876623622,41.451763767215,9.1614110137719e-05,9.1614110137719e-05,9.1614110137719e-05,4546830.4874334,0.012034470212108
9419200,0.82002003137094,0.012399485513788,0.0036907483805844,0.0039091517493356,0.0047995853838685,-0.00083784163009147,0.00083784290225595,-1.3248544781639e-09,2.6044971618701e-09,-5.9885467132145e-09,7.5412154675734e-09,-0.0010030673943158,0.0010030629094265,-0.00100306609701,0.0010030642287242,-0.0010030631599127,0.0010030673582228,-0.0010030618501474,0.0010030686730201,-0.00092467804353294,0.00092467994232682,-0.00092467416354125,0.00092468376248347,5.8550578779363e-09,-7.5765161852728e-09,2.7736596152052e-09,-4.2042354318231e-09,-0.00090241323662828,0.00090241182089781,-0.0010651440082639,0.0010651492966958,-0.0010651462297381,0.0010651469772955,-0.0010651482285955,0.0010651448829886,-0.0010651504407726,0.0010651425623125,-0.00098417564836944,0.00098417662145256,-0.00098418235711138,0.00098416962850015,-0.00089495660709314,0.00089496594493675,-0.00089496973679507,0.00089495242871645,2.5291359029872e-09,-1.3374245662446e-09,-0.0011748349058612,0.0011748360751822,-2.7455206132299e-09,4.1233366650129e-09,-0.0013576893673314,0.0013576894804691,-0.0013576870953824,0.0013576917093423,-0.0013576906719663,0.001357688203467,-0.0013576884024253,0.0013576904424575,-0.0011042655691547,0.0011042652613415,-0.0011042617700727,0.0011042690286448,0.61620824447599,131329,3014,0.0034869466466377,0.003754146553636,0.0048814362649356,41.150980435406,8.9207843483249e-05,8.9207843483249e-05,8.9207843483249e-05,4549144.1198253,0.01219732247295
9619200,0.83371918587275,0.01255700423983,0.0037344101020804,0.0039562387642873,0.0048663553734624,-0.0008466029355682,0.00084660420512116,-1.3832506488187e-09,2.6602863777831e-09,-5.9909612342467e-09,7.5412498254355e-09,-0.0010160570165122,0.0010160524898561,-0.001016055681114,0.0010160538473867,-0.0010160527808262,0.0010160569392916,-0.0010160514329782,0.0010160582922914,-0.00093413755786321,0.00093413934321673,-0.00093413356640616,0.00093414327553915,5.8578467637287e-09,-7.5764493567427e-09,2.8260753016625e-09,-4.2538171336683e-09,-0.00091236452877064,0.00091236311595306,-0.0010789980331792,0.0010790033591826,-0.0010790002878545,0.0010790010056697,-0.0010790022545719,0.0010789989445473,-0.0010790045001701,0.0010789965899298,-0.00099484280316735,0.00099484387793395,-0.00099484961177601,0.00099483678506734,-0.00090425301862058,0.0009042623278661,-0.0009042661505372,0.00090424880893426,2.5917734680996e-09,-1.3887892730292e-09,-0.0011910574208401,0.0011910586015674,-2.790120073394e-09,4.1798960523977e-09,-0.0013782467788699,0.0013782469076495,-0.0013782444729677,0.0013782491701549,-0.001378248121641,0.001378245592914,-0.0013782458181672,0.0013782478655206,-0.0011184312450303,0.001118430870551,-0.001118427334053,0.0011184347493182,0.60938040998965,131329,3014,0.003523398091785,0.0037955065554884,0.004948637349363,40.850098916273,8.6800791330183e-05,8.6800791330183e-05,8.6800791330183e-05,4551381.5200102,0.01234415659672
9819200,0.84604329597597,0.012699640563189,0.0037740093891764,0.003998926188903,0.0049267049851101,-0.00085377634950451,0.00085377761717744,-1.4420288324208e-09,2.7172009190241e-09,-6.0163360688864e-09,7.5651250980918e-09,-0.0010269813365113,0.0010269767519026,-0.0010269799616497,0.0010269781492207,-0.0010269770838324,0.0010269812183002,-0.0010269756976111,0.0010269826097902,-0.00094201269565895,0.00094201438440538,-0.00094200859305627,0.00094201842863708,5.8823101449162e-09,-7.599117142842e-09,2.8808533582861e-09,-4.3065563402455e-09,-0.00092057026178718,0.00092056885083518,-0.0010906639290386,0.001090669307662,-0.0010906662185871,0.0010906669188393,-0.0010906681657424,0.0010906648778103,-0.0010906704475338,0.0010906624868014,-0.0010037483207922,0.0010037494891039,-0.0010037552370023,0.0010037422902226,-0.00091185469634528,0.00091186401964199,-0.00091186787560139,0.00091185045274623,2.6538293168066e-09,-1.4390965248243e-09,-0.0012048641130019,0.0012048653055562,-2.8373333323261e-09,4.2392640258351e-09,-0.0013959240564286,0.0013959241985917,-0.0013959217142526,0.0013959264970883,-0.001395925436252,0.0013959228471931,-0.0013959230975126,0.0013959251544196,-0.0011304022178369,0.0011304017786271,-0.0011303981952928,0.0011304057694234,0.61213711644178,131329,3014,0.003553247433864,0.0038296145566133,0.0050058254902434,40.183310903677,8.1466487229417e-05,8.1466487229417e-05,8.1466487229417e-05,4545211.5882901,0.012466842889169
10019200,0.85712197039749,0.012828955776441,0.0038099968277236,0.00403767612361,0.0049812828251072,-0.00086005594069115,0.00086005720594355,-1.4998168488307e-09,2.7726021386432e-09,-6.0165378821917e-09,7.5630052023825e-09,-0.0010365473824365,0.0010365427583769,-0.0010365459700386,0.0010365441933782,-0.0010365431304424,0.001036547223701,-0.0010365417059043,0.0010365486535851,-0.00094900069880882,0.00094900227248428,-0.00094899648442368,0.00094900642901754,5.8835076269128e-09,-7.5976362711477e-09,2.9200738904401e-09,-4.3431203088737e-09,-0.00092775767543555,0.00092775626726379,-0.0011009258472276,0.0011009312541628,-0.0011009281619934,0.0011009288396734,-0.0011009300845681,0.0011009268242273,-0.0011009323909238,0.0011009244083443,-0.0010116252309204,0.001011626474777,-0.0010116322199763,0.0010116192023976,-0.00091855777082999,0.00091856706996349,-0.00091857094939528,0.00091855350502471,2.7165460555004e-09,-1.4911981713901e-09,-0.0012170567081088,0.0012170579114249,-2.8693138052269e-09,4.2824807241829e-09,-0.0014115588895926,0.0014115590560063,-0.0014115565225588,0.0014115613791092,-0.0014115603081907,0.0014115576661606,-0.0014115579439099,0.0014115599988548,-0.0011409839726049,0.0011409834577171,-0.0011409798380892,0.0011409875595002,0.61574677596125,131329,3014,0.0035793788583692,0.0038594905242905,0.0050563239016878,39.479067020048,7.5832536160386e-05,7.5832536160386e-05,7.5832536160386e-05,4536841.1414743,0.012574716915877
10219200,0.86709468863495,0.012946518275819,0.0038427997499301,0.0040729516525327,0.0050307668733561,-0.00086561414413372,0.00086561540626291,-1.5583606941211e-09,2.8280673578658e-09,-5.9991654729951e-09,7.5424433154752e-09,-0.0010450216588247,0.0010450170059846,-0.001045020208377,0.0010450184791394,-0.0010450174189828,0.0010450214585437,-0.0010450159563818,0.0010450229265729,-0.00095526059543228,0.00095526204183689,-0.00095525626978053,0.00095526631044233,5.8665329439761e-09,-7.5770939654639e-09,2.9478281095319e-09,-4.3674730888075e-09,-0.00093411274465181,0.00093411133995086,-0.0011100129538422,0.0011100183690952,-0.0011100152856829,0.0011100159372357,-0.0011100171790282,0.0011100139517397,-0.0011100195025508,0.0011100115185638,-0.0010186644465729,0.0010186657572834,-0.0010186714868186,0.0010186584341278,-0.0009245593371663,0.00092456858537032,-0.00092457247945873,0.00092455505795456,2.7780349422924e-09,-1.5436595534955e-09,-0.0012278839350056,0.0012278851475107,-2.8903983041394e-09,4.3129927193859e-09,-0.0014254504206047,0.0014254506170307,-0.0014254480362566,0.0014254529572502,-0.0014254518773105,0.0014254491893918,-0.0014254494956792,0.0014254515391983,-0.0011504128049704,0.0011504122046844,-0.0011504085586566,0.0011504164178815,0.62007023585816,131329,3014,0.0036025089334278,0.0038859072064706,0.0051011639231988,38.773865953469,7.0190927627748e-05,7.0190927627748e-05,7.0190927627748e-05,4527859.4901889,0.012670326753079
10419200,0.8760996186866,0.013053850158092,0.0038728318280582,0.0041052030744973,0.005075815255537,-0.00087060572554745,0.00087060698335109,-1.6174215943805e-09,2.8828469259759e-09,-5.9548705445866e-09,7.493494017078e-09,-0.0010526122105668,0.0010526075463248,-0.0010526107221742,0.0010526090575214,-0.0010526080012788,0.0010526119675867,-0.0010526065005972,0.0010526134738019,-0.00096095539706806,0.00096095669650143,-0.00096095095971022,0.00096096107672921,5.823011641242e-09,-7.5286451376453e-09,2.9570509835078e-09,-4.3722943610935e-09,-0.00093981213917182,0.0009398107390745,-0.0011181418268535,0.0011181472208763,-0.0011181441633815,0.0011181447842647,-0.0011181460217661,0.0011181428342144,-0.0011181483499022,0.0011181403964843,-0.0010250562976019,0.0010250576565454,-0.0010250633509796,0.0010250503195542,-0.00093001347070843,0.00093002262804297,-0.00093002652293613,0.00093000919189646,2.8386454352717e-09,-1.5971326477528e-09,-0.0012375965413096,0.0012375977609928,-2.8935503659343e-09,4.3236181299928e-09,-0.0014379253658334,0.0014379256028719,-0.0014379229768621,0.0014379279475515,-0.0014379268607401,0.0014379241372621,-0.0014379244743078,0.0014379264916709,-0.0011589097786464,0.0011589090787035,-0.0011589054205376,0.0011589134032128,0.62506143519059,131329,3014,0.0036232813213024,0.0039095984892762,0.0051413852386059,38.098858115861,6.4790864926891e-05,6.4790864926891e-05,6.4790864926891e-05,4517791.6395016,0.012756117464599
10619200,0.88450798041489,0.013152060361044,0.0039002640233931,0.0041346670212905,0.00511712931636,-0.00087615821134883,0.00087615945958948,-1.6855280976854e-09,2.9416941637037e-09,-5.8383153402386e-09,7.3659922441402e-09,-0.0010606491203657,0.0010606444820811,-0.0010606475863322,0.0010606460396441,-0.0010606449879052,0.0010606488250669,-0.0010606434493563,0.0010606503700601,-0.00096714196895244,0.0009671430649335,-0.00096713741943005,0.00096714755758051,5.6745029318851e-09,-7.3703572675362e-09,2.9258425999797e-09,-4.3327270034646e-09,-0.00094606646637521,0.00094606507518453,-0.0011267105741905,0.0011267158481479,-0.0011267128838573,0.0011267134395508,-0.0011267146648408,0.0011267115682729,-0.001126716973621,0.001126709150716,-0.0010319542192922,0.0010319556308775,-0.0010319612144125,0.0010319483502575,-0.00093602454952906,0.00093603344808805,-0.00093603731392604,0.00093602030522325,2.8908496359397e-09,-1.6459273739897e-09,-0.001247634456219,0.001247635679237,-2.8535077982073e-09,4.2872356274239e-09,-0.001450577785858,0.0014505780814264,-0.0014505754179764,0.0014505804039591,-0.0014505793111421,0.0014505765860598,-0.0014505769541935,0.0014505789114277,-0.0011677892001973,0.001167788367073,-0.0011677847292769,0.0011677928003872,0.61395113274976,131329,3014,0.0036463813563839,0.003935591471229,0.0051829532216399,38.02935087711,6.4234807016881e-05,6.4234807016881e-05,6.4234807016881e-05,4518325.0435042,0.012847968226965
10819200,0.89236113721954,0.013242066086959,0.0039253455585711,0.0041616300559147,0.0051550904724734,-0.00088127429310008,0.00088127553095545,-1.7429637054493e-09,2.988747894421e-09,-5.6970085992391e-09,7.213073755548e-09,-0.0010680897587846,0.0010680851750336,-0.0010680881921369,0.0010680867647126,-0.0010680857258874,0.0010680894174729,-0.0010680841487419,0.0010680910005152,-0.00097279434981703,0.00097279522551775,-0.00097278968755931,0.00097279983047833,5.5577051282825e-09,-7.2427124161808e-09,2.8821667872932e-09,-4.2798347322638e-09,-0.00095183538601328,0.00095183400403949,-0.0011346495638079,0.0011346547356631,-0.0011346518440425,0.0011346523557969,-0.0011346535755513,0.001134650534624,-0.0011346558493539,0.0011346481520217,-0.0010382642256201,0.0010382656234327,-0.0010382711168194,0.001038258448517,-0.00094152806416526,0.00094153675530826,-0.00094154057872631,0.00094152386251134,2.9524432097101e-09,-1.7078083732147e-09,-0.0012569260757011,0.001256927298365,-2.8080161029473e-09,4.2407666798713e-09,-0.0014623160204501,0.0014623163904234,-0.0014623136861836,0.0014623186794994,-0.0014623175890746,0.0014623148510266,-0.0014623152601074,0.0014623171484798,-0.001175963354466,0.0011759623783146,-0.0011759587719199,0.0011759669249852,0.60386754673586,131329,3014,0.0036676656604534,0.003959566601316,0.00522142925106,37.973590817364,6.3788726538913e-05,6.3788726538913e-05,6.3788726538913e-05,4520740.2658101,0.012932809971285
11019200,0.89969234751446,0.013324378674597,0.0039482253732952,0.0041862486699244,0.0051899046313775,-0.00088595375532992,0.00088595498393199,-1.8044577060851e-09,3.0411544496132e-09,-5.5799226260763e-09,7.0854913662201e-09,-0.0010749468506247,0.0010749423007234,-0.001074945245693,0.0010749439285757,-0.0010749428982376,0.0010749464615203,-0.0010749412830648,0.0010749480826059,-0.00097792238853376,0.00097792306261058,-0.00097791761546295,0.00097792777907334,5.4408927498476e-09,-7.1153198233764e-09,2.8341050377461e-09,-4.2226097043771e-09,-0.00095712497094486,0.00095712359816904,-0.0011419688987784,0.001141973963264,-0.0011419711440655,0.0011419716186011,-0.0011419728297673,0.0011419698440658,-0.0011419750688883,0.0011419674965158,-0.0010440026655909,0.0010440040513637,-0.0010440094549579,0.0010439969800394,-0.00094652635045977,0.00094653484660936,-0.00094653862591155,0.00094652219464941,3.0085885011571e-09,-1.7657125517524e-09,-0.001265490412369,0.001265491633331,-2.7567719422742e-09,4.1871334714466e-09,-0.0014731607673901,0.0014731612086486,-0.0014731584680519,0.0014731634628424,-0.0014731623738733,0.0014731596315467,-0.0014731600799709,0.0014731618938787,-0.0011834524420606,0.0011834513177621,-0.0011834477484469,0.0011834559759646,0.59320720607584,131329,3014,0.0036871333358853,0.003981549186536,0.0052568927414559,37.918316986279,6.334653589023e-05,6.334653589023e-05,6.334653589023e-05,4524095.0661527,0.013010746227639
11219200,0.90652407233603,0.013401064409154,0.0039695529526291,0.0042091946582717,0.0052223167982531,-0.00089024929375754,0.0008902505141945,-1.8654348661571e-09,3.094122329422e-09,-5.491078229594e-09,6.9874954153997e-09,-0.0010812465127185,0.00108124197869,-0.0010812448697116,0.0010812436445495,-0.0010812426217619,0.0010812460769792,-0.0010812409684791,0.0010812477362277,-0.00098265172034024,0.00098265221263912,-0.00098264683601987,0.00098265704115107,5.352563568315e-09,-7.0176878258162e-09,2.7820551981009e-09,-4.1624545513239e-09,-0.00096198964089159,0.00096198827625004,-0.0011487043198317,0.0011487092932389,-0.0011487065280659,0.0011487069859756,-0.001148708189613,0.0011487052361408,-0.0011487103916114,0.0011487029261372,-0.0010492990166748,0.0010493003626347,-0.0010493056968939,0.0010492934023246,-0.00095111082231263,0.00095111918166114,-0.0009511229156448,0.00095110671351365,3.0639627936869e-09,-1.8243245606075e-09,-0.001273394975551,0.0012733961933238,-2.7028692842575e-09,4.1293373552254e-09,-0.0014831653123364,0.0014831658259307,-0.0014831630502968,0.0014831680428223,-0.0014831669569001,0.0014831642108715,-0.001483164700169,0.0014831664359772,-0.0011903540127062,0.0011903527362918,-0.0011903492076617,0.0011903575060317,0.59263237143365,131329,3014,0.0037050032567423,0.0040017653448944,0.0052896237913822,37.837487325097,6.2699898600775e-05,6.2699898600775e-05,6.2699898600775e-05,4527094.3454646,0.013082509894926
11419200,0.91284616596699,0.013472617602471,0.0039894856055979,0.0042306307164268,0.0052525012804467,-0.00089400539278309,0.00089400660710632,-1.9250399919085e-09,3.1477277516073e-09,-5.4467789110549e-09,6.9364870184948e-09,-0.0010868327677875,0.0010868282216539,-0.0010868310873932,0.0010868299248236,-0.0010868289082326,0.0010868322876328,-0.0010868272166423,0.0010868339852231,-0.00098684199753351,0.00098684233972368,-0.00098683700093276,0.00098684728078727,5.3125984980603e-09,-6.9713180626343e-09,2.7317450023861e-09,-4.1065343728217e-09,-0.00096626050581358,0.0009662591468425,-0.0011546864181296,0.0011546913336018,-0.0011546885918056,0.0011546890612442,-0.0011546902599696,0.0011546873048671,-0.0011546924264966,0.0011546850308114,-0.0010539994238132,0.0010540006979866,-0.0010540059985491,0.0010539938444297,-0.0009551400082513,0.00095514832218146,-0.00095515201520778,0.00095513594158099,3.1193640350994e-09,-1.8835430851105e-09,-0.0012804648065245,0.001280466020448,-2.6527350003549e-09,4.0747437624927e-09,-0.0014921587822577,0.0014921593658111,-0.0014921565556916,0.0014921615472638,-0.0014921604654729,0.0014921577120974,-0.0014921582430701,0.0014921599026026,-0.001196516624831,0.0011965151989059,-0.0011965117095793,0.0011965200797337,0.5962623900938,131329,3014,0.0037206302985743,0.0040195148963934,0.0053188970969198,37.630276535478,6.1042212283826e-05,6.1042212283826e-05,6.1042212283826e-05,4526654.4032203,0.013146002373953
11619200,0.91869691949833,0.013539229483421,0.0040080676630994,0.0042506048409581,0.0052805569793638,-0.00089745718968353,0.00089745839947658,-1.9845203420305e-09,3.2027492045632e-09,-5.4297129439378e-09,6.9144614319495e-09,-0.0010919671701129,0.0010919625941071,-0.0010919654512435,0.0010919643356908,-0.0010919633228528,0.0010919666470878,-0.0010919615933879,0.0010919683826424,-0.00099072726055777,0.00099072747430457,-0.00099072215300005,0.00099073252656019,5.2926573299231e-09,-6.9466543729644e-09,2.6818422012799e-09,-4.0523786809671e-09,-0.0009701860017899,0.00097018464716056,-0.001160182749737,0.001160187620184,-0.0011601848888203,0.001160185382883,-0.0011601865772139,0.0011601836066374,-0.0011601887096723,0.0011601813671261,-0.001058357590621,0.0010583587832898,-0.0010583640651061,0.0010583520306282,-0.00095886966898181,0.00095887797921309,-0.00095888163379515,0.00095886564184048,3.1736729589402e-09,-1.9425405162501e-09,-0.0012869716790455,0.0012869728882823,-2.6032105027649e-09,4.0199853419131e-09,-0.0015004416247854,0.0015004422760528,-0.0015004394326907,0.0015004444229972,-0.0015004433456637,0.0015004405849227,-0.0015004411582443,0.0015004427404701,-0.00120220553901,0.0012022039618807,-0.0012022005115608,0.0012022089541498,0.59873359983685,131329,3014,0.0037349916741254,0.0040358294575071,0.0053458381965454,37.42019150399,5.936153203192e-05,5.936153203192e-05,5.936153203192e-05,4524843.6997508,0.013204398456405
11819200,0.92411280432075,0.013601376758285,0.0040254330321417,0.0042692603475242,0.0053066833786189,-0.00090064016744912,0.00090064137377812,-2.043250527746e-09,3.258039236226e-09,-5.4326869523486e-09,6.9137967933714e-09,-0.0010966930213385,0.0010966884028307,-0.0010966912643069,0.0010966901825042,-0.0010966891727612,0.0010966924565436,-0.0010966874053296,0.0010966942301232,-0.00099434366795741,0.00099434376774145,-0.00099433844900365,0.00099434893139867,5.2950729732633e-09,-6.9458846603775e-09,2.6336378395923e-09,-4.0012825721643e-09,-0.00097380510793527,0.00097380375629512,-0.0011652398345326,0.0011652446756779,-0.0011652419407989,0.0011652424715872,-0.0011652436629351,0.0011652406616534,-0.0011652457627441,0.0011652384552645,-0.0010624124654257,0.001062413563194,-0.0010624188430918,0.0010624069079005,-0.0009623333954908,0.00096234174356565,-0.00096234536252654,0.00096232940491372,3.2280399735358e-09,-2.0019344075722e-09,-0.0012929705041757,0.0012929717083305,-2.5565208959827e-09,3.9677092309124e-09,-0.001508081545796,0.0015080822629169,-0.0015080793866082,0.0015080843769103,-0.0015080833046117,0.0015080805339955,-0.0015080811501864,0.0015080826564712,-0.0012074671771632,0.0012074654503392,-0.0012074620378659,0.0012074705542289,0.6021809313635,131329,3014,0.0037482348280238,0.0040508708648597,0.0053706747017533,37.210004806992,5.768003845594e-05,5.768003845594e-05,5.768003845594e-05,4522121.8358146,0.013258241206587
12019200,0.92913499439023,0.013661026452931,0.0040421889354019,0.0042872290041764,0.005331608513353,-0.0009037006068742,0.00090370181079066,-2.101434493354e-09,3.3138193775927e-09,-5.4519358515727e-09,6.9306322080611e-09,-0.001101148730534,0.0011011440593828,-0.0011011469354284,0.0011011458770803,-0.001101144869496,0.0011011481250535,-0.001101143064059,0.0011011499367163,-0.00099790026575118,0.00099790026366927,-0.000997894935217,0.00099790553887519,5.3140057836984e-09,-6.9630151847687e-09,2.5885663933787e-09,-3.95447765651e-09,-0.00097727443586818,0.00097727308606007,-0.0011700021730964,0.0011700069977728,-0.0011700042490916,0.0011700048243688,-0.0011700060138311,0.0011700029717442,-0.0011700080834095,0.0011700007960706,-0.0010663863141061,0.001066387311369,-0.0010663926019238,0.0010663807462837,-0.00096571756220808,0.00096572597785387,-0.00096572956495483,0.00096571360426428,3.2823624509038e-09,-2.0614190017704e-09,-0.001298642338865,0.0012986435378084,-2.5136224914995e-09,3.9191336477749e-09,-0.0015152603233397,0.0015152611037525,-0.0015152581946059,0.0015152631872158,-0.0015152621201584,0.0015152593369725,-0.0015152599961703,0.0015152614289231,-0.0012125071797888,0.0012125053058234,-0.0012125019287951,0.0012125105210922,0.61929851173062,131329,3014,0.0037609675353465,0.0040652893773631,0.0053941566540786,37.027681133414,5.6221449067315e-05,5.6221449067315e-05,5.6221449067315e-05,4518150.7022341,0.013309564879701
12219200,0.93381015781821,0.013718584863352,0.0040584372663627,0.0043046259411226,0.0053555216558665,-0.00090673002017554,0.00090673122245681,-2.1592414219508e-09,3.3700084536138e-09,-5.4807507134749e-09,6.9579631355906e-09,-0.0011054745280637,0.0011054697983246,-0.0011054726948216,0.0011054716540869,-0.0011054706479549,0.0011054738827118,-0.0011054688045386,0.001105475732392,-0.0010014873651912,0.0010014872688927,-0.0010014819233639,0.0010014926556673,5.3418046504219e-09,-6.989806602993e-09,2.5481588223124e-09,-3.9129659485613e-09,-0.00098069346090225,0.00098069211219195,-0.0011746149253673,0.0011746197422065,-0.0011746169743132,0.001174617596197,-0.0011746187844857,0.0011746156980139,-0.0011746208271535,0.0011746135496632,-0.0010703845875475,0.0010703854875898,-0.0010703907957165,0.0010703790031142,-0.00096912951588798,0.00096913801358132,-0.00096914157252299,0.00096912558646729,3.3366905985691e-09,-2.1208833784098e-09,-0.0013041241468836,0.0013041253406757,-2.4755917079609e-09,3.8754342030277e-09,-0.0015221491868743,0.0015221500273874,-0.0015221470852898,0.0015221520836236,-0.0015221510216338,0.0015221482228085,-0.0015221489248746,0.0015221502874207,-0.0012174665960677,0.0012174645780236,-0.0012174612333571,0.001217469904891,0.63789981895848,131329,3014,0.0037735713108355,0.0040794991019452,0.0054168501471013,36.914118368328,5.5312946946621e-05,5.5312946946621e-05,5.5312946946621e-05,4512206.6374613,0.013359750463069
12419200,0.93816270766825,0.01377025515041,0.0040729529042029,0.0043201935435377,0.0053771087026699,-0.00090944033839453,0.00090944153967007,-2.2167135384524e-09,3.4264700089874e-09,-5.5161071688889e-09,6.9925706200616e-09,-0.0011094699572428,0.0011094651650572,-0.0011094680860396,0.0011094670587683,-0.0011094660536121,0.0011094692726905,-0.0011094641721474,0.0011094711605169,-0.0010046393120719,0.0010046391264192,-0.0010046337585923,0.0010046446250339,5.3778759865679e-09,-7.0256765099843e-09,2.513405548779e-09,-3.8778389428203e-09,-0.00098376057133086,0.00098375922299126,-0.0011788684524635,0.0011788732706156,-0.0011788704785074,0.001178871147912,-0.0011788723357801,0.0011788692023888,-0.0011788743554282,0.0011788670775071,-0.0010739187351361,0.0010739195427246,-0.001073924875002,0.0010739131274258,-0.00097217272149168,0.00097218131322857,-0.00097218484863714,0.00097216881574824,3.3912004213902e-09,-2.180208638005e-09,-0.0013091221671957,0.0013091233561344,-2.4435611108266e-09,3.8380978585979e-09,-0.0015284973150835,0.0015284982119779,-0.0015284952366376,0.0015285002449829,-0.0015284991879239,0.0015284963694682,-0.0015284971141564,0.0015284984109985,-0.0012219702147549,0.0012219680574945,-0.0012219647406102,0.0012219734955651,0.61826607263844,131329,3014,0.0037848501980773,0.0040922483901521,0.0054375380754103,36.802122289952,5.4416978319618e-05,5.4416978319618e-05,5.4416978319618e-05,4504958.1087097,0.013405084156501
12619200,0.94221507416044,0.01381554643582,0.0040855796286888,0.0043337672649566,0.0053961995421746,-0.00091183289236542,0.00091183409305292,-2.273985482628e-09,3.4831567636871e-09,-5.5558407282912e-09,7.0320334694692e-09,-0.0011130711595656,0.0011130663022377,-0.0011130692503111,0.00111306823394,-0.0011130672293699,0.0011130704362497,-0.0011130653098751,0.0011130723621402,-0.001007322019565,0.0010073217482381,-0.0010073163546679,0.0010073273586,5.4175425264209e-09,-7.0655549899576e-09,2.4867621273198e-09,-3.8511238588532e-09,-0.00098647609657926,0.00098647474826599,-0.0011827066916579,0.0011827115187366,-0.0011827087001898,0.0011827094138456,-0.0011827106016045,0.0011827074239729,-0.0011827126037406,0.001182705316952,-0.0010769378137778,0.0010769385425996,-0.0010769439017971,0.0010769321801284,-0.00097478931215466,0.00097479799970264,-0.00097480151742049,0.00097478542415893,3.4459729001874e-09,-2.2392304421059e-09,-0.0013136181648648,0.0013136193495559,-2.4193644625176e-09,3.809230778438e-09,-0.0015342481441463,0.001534249092543,-0.0015342460833436,0.0015342511078121,-0.0015342500550006,0.001534247212175,-0.0015342479988331,0.001534249235995,-0.0012259398327746,0.0012259375421029,-0.0012259342471377,0.0012259430915517,0.58731202975727,131329,3014,0.0037948066153555,0.004103535887172,0.0054561480938084,36.69018162647,5.3521453011757e-05,5.3521453011757e-05,5.3521453011757e-05,4501614.7937423,0.013445489593226
12819200,0.94595398160437,0.013857729161801,0.0040973687607943,0.0043464278504413,0.0054139325505657,-0.00091376046377013,0.0009137616647455,-2.3307580619999e-09,3.5401649991541e-09,-5.6145094988829e-09,7.0915225411483e-09,-0.0011160255315027,0.0011160205966761,-0.0011160235838256,0.0011160225667686,-0.0011160215615159,0.0011160247703808,-0.0011160196044788,0.0011160267338376,-0.0010095186204078,0.0010095182787974,-0.0010095128455252,0.0010095239993079,5.4715383777368e-09,-7.1205698373708e-09,2.4753454556901e-09,-3.8403301725796e-09,-0.00098868336989721,0.0009886820208704,-0.0011858708530889,0.0011858757081128,-0.0011858728539833,0.001185873611067,-0.0011858747989992,0.0011858715772209,-0.0011858767944124,0.0011858694772516,-0.0010794127382127,0.0010794134096995,-0.001079418806294,0.0010794070683502,-0.00097688283503604,0.00097689163774441,-0.00097689514819368,0.0009768789534901,3.5013923958658e-09,-2.2977179745872e-09,-0.0013174244438121,0.0013174256254255,-2.4094387945046e-09,3.7958855277439e-09,-0.0015391591326496,0.0015391601234211,-0.0015391570791262,0.0015391621313453,-0.0015391610811181,0.0015391582055945,-0.001539159032969,0.0015391602211215,-0.0012292417497548,0.0012292393352851,-0.0012292360512874,0.0012292449977442,0.59134554321197,131329,3014,0.0038028276667547,0.0041127103432814,0.0054719045172095,36.40650026811,5.1252002144879e-05,5.1252002144879e-05,5.1252002144879e-05,4499160.6088421,0.013478897265493
13019200,0.94936044656479,0.013896324671788,0.0041081705487585,0.0043580205085357,0.0054301336144939,-0.00091504145825318,0.00091504266042701,-2.38749417478e-09,3.5981872710841e-09,-5.6799217947586e-09,7.1589499296114e-09,-0.0011182183901537,0.0011182133743745,-0.0011182164051107,0.0011182153817391,-0.0011182143766022,0.0011182175917862,-0.001118212380283,0.0011182195944744,-0.0010110345586665,0.001011034147409,-0.0010110286690295,0.0010110399839889,5.5519609096463e-09,-7.2032616258e-09,2.4783109328275e-09,-3.8448242605813e-09,-0.00099019200455922,0.00099019065363509,-0.0011882327140253,0.0011882376245571,-0.0011882347185053,0.0011882355240401,-0.0011882367148924,0.0011882334386086,-0.0011882387119752,0.0011882313371035,-0.0010811519527438,0.0010811525729458,-0.001081158026297,0.0010811462288536,-0.00097829022819493,0.00097829918460395,-0.00097830269826369,0.00097828634227658,3.5570664804136e-09,-2.3550249377224e-09,-0.0013203547582962,0.0013203559384002,-2.4160044546929e-09,3.8004905497695e-09,-0.0015430848280658,0.001543085852513,-0.0015430827717071,0.0015430878631382,-0.0015430868152526,0.0015430838961577,-0.0015430847623406,0.0015430859163244,-0.0012317278256612,0.0012317253052851,-0.0012317220198453,0.001231731075791,0.59302697425926,131329,3014,0.0038081618681486,0.0041189839967879,0.00548403357834,35.873448214457,4.6987585715652e-05,4.6987585715652e-05,4.6987585715652e-05,4491470.9335697,0.013502965308991
13219200,0.95246765092556,0.013931713218374,0.0041180938234562,0.0043686595236405,0.0054449598712771,-0.0009161268656147,0.00091612806900273,-2.443488920179e-09,3.6553149192854e-09,-5.7453146959327e-09,7.2260281031545e-09,-0.0011201245347926,0.0011201194378887,-0.001120122511294,0.0011201214837215,-0.0011201204766719,0.0011201236999375,-0.0011201184433338,0.0011201257396967,-0.0010123435839017,0.0010123431094504,-0.0010123375858503,0.001012349054427,5.6051228871313e-09,-7.2586420005135e-09,2.4880827609969e-09,-3.8561886271667e-09,-0.0009914782893711,0.00099147693700841,-0.0011902871304603,0.001190292082588,-0.0011902891413183,0.0011902899757878,-0.0011902911670256,0.0011902878609218,-0.0011902931718991,0.0011902857517278,-0.0010826571546944,0.0010826577598205,-0.0010826632508106,0.0010826513919653,-0.0009794962211603,0.00097950527697478,-0.00097950880057784,0.00097949232627902,3.6140968969971e-09,-2.4125934449852e-09,-0.001322923079818,0.001322924259422,-2.4252322669072e-09,3.8094167979905e-09,-0.0015465534829668,0.001546554538206,-0.0015465514197698,0.0015465565556113,-0.0015465555077518,0.0015465525444793,-0.0015465534494153,0.0015465545700426,-0.0012339043348841,0.0012339017058039,-0.0012338984140895,0.001233907590156,0.59512404360924,131329,3014,0.003812682415595,0.0041243338156307,0.0054946640066263,35.334696925431,4.2677575403448e-05,4.2677575403448e-05,4.2677575403448e-05,4483074.868976,0.0135237532293
13419200,0.95530604592719,0.013963485056271,0.004126991773022,0.0043781996273326,0.0054582936559164,-0.00091701269004298,0.00091701389388227,-2.5003633339694e-09,3.7125812074867e-09,-5.7887527418126e-09,7.2703406472897e-09,-0.0011217676898497,0.0011217625261319,-0.0011217656284729,0.0011217646098926,-0.0011217636025848,0.0011217668172441,-0.0011217615310063,0.0011217688953093,-0.0010134086962529,0.0010134081391208,-0.0010134025855587,0.0010134141961243,5.6503449899281e-09,-7.3054529134263e-09,2.5005971219367e-09,-3.869922113328e-09,-0.00099253953336594,0.00099253817988705,-0.0011920587032496,0.0011920636940034,-0.0011920607231122,0.001192061578308,-0.0011920627706143,0.0011920594414345,-0.0011920647841409,0.0011920573237314,-0.0010838944226151,0.0010838950205988,-0.0010839005434024,0.0010838886273394,-0.00098047714514242,0.00098048628052884,-0.00098048981442745,0.00098047323990818,3.6709456964818e-09,-2.4693085480247e-09,-0.0013251421286865,0.0013251433083354,-2.4384075860867e-09,3.8228320249293e-09,-0.0015495968786747,0.0015495979629796,-0.0015495948066757,0.0015495999890369,-0.0015495989415499,0.0015495959312875,-0.0015495968740427,0.0015495979658808,-0.0012357644516895,0.0012357617210373,-0.0012357584199644,0.0012357677159648,0.58608288291565,131329,3014,0.0038163730694263,0.0041287488414521,0.005503848214369,34.795744092415,3.8365952739324e-05,3.8365952739324e-05,3.8365952739324e-05,4474425.1154486,0.013541286571011
13619200,0.95791654265683,0.013992309330105,0.0041350595872161,0.0043868480240783,0.0054704017188107,-0.00091791466918479,0.00091791587259229,-2.5564296458879e-09,3.7682872891453e-09,-5.8070813438276e-09,7.2883711477938e-09,-0.0011233557748982,0.0011233505605847,-0.0011233536753705,0.0011233526825101,-0.0011233516748184,0.0011233548644116,-0.0011233495667991,0.0011233569789402,-0.0010144655739413,0.0010144649213671,-0.0010144593560768,0.0010144710845675,5.6512506942449e-09,-7.3056149798007e-09,2.5158184562985e-09,-3.8844145854347e-09,-0.00099360246350031,0.00099360111090626,-0.0011937646524833,0.0011937696538651,-0.0011937666813892,0.0011937675291859,-0.0011937687196411,0.0011937654015719,-0.0011937707439108,0.0011937632731686,-0.0010851050018413,0.0010851056312524,-0.0010851111537719,0.0010850992055517,-0.00098145703142589,0.00098146616017278,-0.00098146970364077,0.00098145311665527,3.7291310904873e-09,-2.5270576371238e-09,-0.0013272646247,0.0013272658046291,-2.4507002186729e-09,3.8356822518342e-09,-0.0015524666203312,0.0015524677340874,-0.0015524645389235,0.0015524697693574,-0.0015524687209326,0.0015524656645802,-0.0015524666458879,0.0015524677068411,-0.0012375455160266,0.0012375426779184,-0.0012375393676988,0.0012375487888037,0.57889843856155,131329,3014,0.0038201291186204,0.0041331694184961,0.0055126336891697,34.355182838127,3.4841462705018e-05,3.4841462705018e-05,3.4841462705018e-05,4468742.4018544,0.013558486683354
13819200,0.96033181608978,0.014018978676897,0.0041425327459743,0.0043948537371971,0.005481592193726,-0.0009188545149287,0.00091885571593612,-2.6149236881998e-09,3.8242579693088e-09,-5.7836970419666e-09,7.2623264395594e-09,-0.0011249181748168,0.0011249129363596,-0.0011249160371027,0.0011249150965056,-0.0011249140908868,0.0011249172236818,-0.0011249119446309,0.001124919376456,-0.0010155573205135,0.0010155565372921,-0.0010155509906694,0.0010155628131039,5.6331571787634e-09,-7.2855759270682e-09,2.5300506885296e-09,-3.8968959985785e-09,-0.00099469281076341,0.00099469145992142,-0.0011954350566545,0.0011954400559491,-0.0011954370945248,0.0011954379223047,-0.0011954391111122,0.0011954358163688,-0.0011954411443982,0.0011954336790999,-0.0010863361400505,0.0010863368104666,-0.0010863423184137,0.0010863303593018,-0.00098247036277699,0.00098247944742926,-0.00098248299793856,0.00098246644125986,3.7859157788129e-09,-2.583546182614e-09,-0.0013293322651452,0.0013293334454908,-2.4644493025596e-09,3.8497718037316e-09,-0.0015552145327777,0.001555215675577,-0.0015552124420892,0.001555217720131,-0.0015552166711336,0.0015552135683687,-0.0015552145866716,0.0015552156198286,-0.0012392932573503,0.0012392903180374,-0.0012392869981505,0.0012392965399621,0.57842148460787,131329,3014,0.003824041029395,0.0041377026395056,0.0055211929285075,34.003068105731,3.2024544845845e-05,3.2024544845845e-05,3.2024544845845e-05,4465355.80394,0.013575728939955
14019200,0.96256874917935,0.014043689280328,0.004149463315446,0.0044022745768389,0.005491951388043,-0.00091968680108102,0.00091968799959576,-2.6737304508995e-09,3.8806526658131e-09,-5.7463067374501e-09,7.2221949418432e-09,-0.0011263251781896,0.0011263199249315,-0.0011263230027518,0.0011263221228058,-0.0011263211202454,0.0011263241859616,-0.0011263189349274,0.0011263263778334,-0.0010165319826008,0.001016531056138,-0.0010165255378888,0.0010165374469013,5.60504552629e-09,-7.2547095408552e-09,2.5458165458526e-09,-3.9102992357466e-09,-0.00099566111997406,0.00099565977152545,-0.0011969361114218,0.0011969411035836,-0.0011969381597561,0.0011969389595653,-0.0011969401468618,0.0011969368834617,-0.0011969421892278,0.0011969347371227,-0.0010874364559318,0.0010874371746492,-0.001087442660675,0.0010874306971346,-0.00098336987359443,0.00098337889110534,-0.00098338244903535,0.00098336594536502,3.8426329958467e-09,-2.6393553701522e-09,-0.0013311971142359,0.0013311982954737,-2.479632769921e-09,3.8659587034977e-09,-0.0015577048797444,0.0015577060511143,-0.001557702779208,0.0015577081053976,-0.0015577070563434,0.0015577039057367,-0.0015577049608055,0.0015577059683863,-0.0012408658094856,0.0012408627734284,-0.0012408594420521,0.001240869103325,0.57820997482677,131329,3014,0.0038275054946608,0.0041417287558907,0.0055289126568287,33.65298178769,2.9223854301517e-05,2.9223854301517e-05,2.9223854301517e-05,4461714.0839443,0.013591152561605
14219200,0.96464239155762,0.014065684321447,0.0041556023943443,0.0044088566801405,0.0055012252469619,-0.00092037461751077,0.00092037581331563,-2.7320617516536e-09,3.9363274362812e-09,-5.7088554797956e-09,7.1816870009212e-09,-0.0011275566093792,0.0011275513412933,-0.0011275543959583,0.0011275535771612,-0.00112755257704,0.0011275555762026,-0.0011275503537056,0.0011275578061145,-0.0010173151903227,0.0010173141236254,-0.0010173086341068,0.0010173206261217,5.5686342486649e-09,-7.2140438530924e-09,2.5633314246343e-09,-3.9240122854744e-09,-0.00099646947194994,0.00099646812726403,-0.0011982513637927,0.0011982563443666,-0.0011982534225431,0.0011982541899398,-0.0011982553737296,0.0011982521500257,-0.0011982574264941,0.0011982499933265,-0.0010883294117853,0.0010883301904463,-0.0010883356471886,0.0010883236825461,-0.00098409600690422,0.0009841049422275,-0.00098410850672594,0.00098409207260087,3.8999550459916e-09,-2.695731266672e-09,-0.0013328268985629,0.0013328280807736,-2.494708302462e-09,3.8820596947705e-09,-0.0015599186269895,0.0015599198269027,-0.0015599165160124,0.0015599218915056,-0.0015599208415438,0.0015599176436202,-0.0015599187355114,0.001559919716629,-0.0012422111607725,0.0012422080247847,-0.0012422046821163,0.0012422144659641,0.55856306502165,131329,3014,0.0038303693724374,0.0041450904549598,0.0055356590857858,33.302967154581,2.6423737236651e-05,2.6423737236651e-05,2.6423737236651e-05,4458140.9231401,0.013604307279443
14419200,0.96653438385234,0.014086004365821,0.0041612903965433,0.0044149482430795,0.0055097657261983,-0.00092043937266065,0.00092044056681003,-2.7900547764182e-09,3.9927234159815e-09,-5.6934646807386e-09,7.1645926092314e-09,-0.0011280445924109,0.0011280392953771,-0.0011280423410163,0.001128041569198,-0.0011280405708735,0.0011280435193111,-0.0011280383092111,0.0011280457875129,-0.0010174475153493,0.0010174463238826,-0.0010174408471078,0.0010174529393418,5.5560071301426e-09,-7.1991022592574e-09,2.5908281601629e-09,-3.949468034262e-09,-0.00099662319435295,0.00099662185160516,-0.0011988065732425,0.0011988115642224,-0.0011988086497608,0.0011988093919643,-0.0011988105742587,0.001198807378987,-0.0011988126444647,0.0011988052048188,-0.0010885346493193,0.0010885354908346,-0.0010885409365465,0.0010885289321614,-0.00098414940039626,0.00098415829329138,-0.00098416187257564,0.00098414545101868,3.9576516721639e-09,-2.7514308042658e-09,-0.0013336646686122,0.0013336658529696,-2.5202845751245e-09,3.9098170156269e-09,-0.0015612452697746,0.0015612464921311,-0.0015612431411685,0.0015612485743677,-0.0015612475223361,0.0015612442709046,-0.0015612453983051,0.0015612463618749,-0.0012427791388138,0.0012427759119238,-0.0012427725498353,0.0012427824638233,0.56383118903593,131329,3014,0.0038306431726597,0.0041457330267249,0.0055391275120203,32.646952226973,2.1175617815786e-05,2.1175617815786e-05,2.1175617815786e-05,4451082.5488354,0.013608754997821
14619200,0.96824749931082,0.014104524781513,0.004166485396784,0.0044205069766852,0.005517532408044,-0.00092010195783226,0.00092010315193328,-2.8478654372834e-09,4.0511673445008e-09,-5.6818121608328e-09,7.1532923538876e-09,-0.0011280759603242,0.0011280706319748,-0.0011280736711295,0.0011280729438643,-0.0011280719466142,0.0011280748480363,-0.0011280696457785,0.0011280771558627,-0.0010171611070106,0.0010171597921607,-0.0010171543246486,0.0010171665251103,5.5599595362483e-09,-7.2011657931553e-09,2.6217169447987e-09,-3.9782016392142e-09,-0.0009963550505261,0.000996353709241,-0.0011988925142158,0.0011988975284294,-0.0011988946115934,0.0011988953359272,-0.0011988965183056,0.0011988933416987,-0.0011988986076615,0.0011988911485239,-0.0010883059798553,0.0010883068786108,-0.0010883123247329,0.0010883002652756,-0.00098378897747523,0.00098379785717328,-0.00098380145404341,0.00098378501145176,4.0147328216093e-09,-2.8058422492688e-09,-0.0013339748560313,0.0013339760434074,-2.5502794861535e-09,3.9427530889525e-09,-0.0015619852027278,0.0015619864451422,-0.0015619830534777,0.001561988547296,-0.0015619874934994,0.0015619841862148,-0.0015619853480507,0.0015619862993278,-0.0012428576471961,0.0012428543356089,-0.0012428509506125,0.0012428609939313,0.56645234294991,131329,3014,0.003829246353688,0.0041446245066685,0.0055404110793714,31.822363997134,1.4578911977074e-05,1.4578911977074e-05,1.4578911977074e-05,4439487.0275086,0.013607519541984
14819200,0.96980142357342,0.014121455793605,0.0041712460040854,0.0044255959763561,0.0055246138131639,-0.00091966677196186,0.00091966796373307,-2.905293398928e-09,4.1057668407002e-09,-5.6807201330464e-09,7.1493808682338e-09,-0.0011279635245458,0.0011279581584579,-0.0011279611972664,0.0011279605081524,-0.0011279595122201,0.0011279623729353,-0.0011279571744459,0.0011279647172104,-0.0010167722346479,0.001016770808033,-0.0010167653430256,0.0010167776474359,5.5452121729721e-09,-7.1857507471332e-09,2.6509467765753e-09,-4.0070040635883e-09,-0.00099597670353765,0.00099597536328796,-0.0011988259731841,0.001198830998026,-0.0011988280888879,0.0011988287864701,-0.0011988299666643,0.0011988268207534,-0.0011988320758232,0.00119882460751,-0.0010879669937079,0.0010879679608859,-0.0010879733960838,0.0010879612873385,-0.00098333164183267,0.00098334047398195,-0.0009833440904592,0.00098332765606239,4.07394710783e-09,-2.8622721247278e-09,-0.0013341001640085,0.0013341013538998,-2.5760696661341e-09,3.9715609551861e-09,-0.0015624927559103,0.0015624940204118,-0.0015624905881795,0.0015624961417367,-0.0015624950844146,0.0015624917234557,-0.0015624929210171,0.0015624938538345,-0.001242783517262,0.0012427801126977,-0.0012427767060354,0.0012427868867822,0.5696168596597,131329,3014,0.0038274430600698,0.0041430582669278,0.0055409290585062,30.993881659546,7.9510532763717e-06,7.9510532763717e-06,7.9510532763717e-06,4427146.1655705,0.013604631918355
15019200,0.97119200903295,0.01413655328512,0.0041754943387074,0.0044301353361343,0.0055309236102782,-0.00091864223050108,0.00091864341940203,-2.9617173956842e-09,4.1581702406064e-09,-5.7088890798868e-09,7.1743688861611e-09,-0.0011272023058459,0.0011271968829431,-0.0011271999401809,0.0011271992701125,-0.0011271982754774,0.0011272011154967,-0.0011271959020196,0.0011272034940822,-0.0010157571980263,0.0010157556852576,-0.0010157502048458,0.001015762628234,5.5420229561836e-09,-7.1803559522971e-09,2.6835771647651e-09,-4.0381570411919e-09,-0.00099498481557387,0.00099498347655533,-0.0011980904773324,0.0011980955207633,-0.0011980926118487,0.0011980932883581,-0.0011980944657782,0.0011980913448096,-0.0011980965974172,0.0011980891084682,-0.0010869825236316,0.0010869835636311,-0.0010869889947992,0.0010869768252131,-0.00098225959775672,0.00098226840835835,-0.00098227203825722,0.00098225559083256,4.1326155183738e-09,-2.9224444876799e-09,-0.0013335160495995,0.0013335172388148,-2.6048644693844e-09,3.998888343559e-09,-0.0015622335375615,0.0015622348221328,-0.0015622313505569,0.0015622369645361,-0.0015622359033534,0.0015622324865141,-0.0015622337217817,0.0015622346330499,-0.0012420278656469,0.0012420243577675,-0.0012420209374239,0.0012420312566424,0.56737760628907,131329,3014,0.0038231916723723,0.0041389451997879,0.005538509072031,29.890549380935,-8.756049525196e-07,-8.756049525196e-07,-8.756049525196e-07,4409385.2282438,0.013593702694044
15219200,0.97241798051974,0.014149225966523,0.0041790420174063,0.004433930867846,0.0055362530812709,-0.00091695532888069,0.0009169565226516,-3.0196977947758e-09,4.2230238196682e-09,-5.7094141547873e-09,7.1813104493952e-09,-0.0011257133003895,0.0011257078379156,-0.0011257108966039,0.0011257102638282,-0.0011257092678139,0.0011257120728334,-0.0011257068522761,0.0011257144949218,-0.0010140176843611,0.0010140160505879,-0.0010140105663165,0.0010140231211268,5.5983560043375e-09,-7.2377841388503e-09,2.712116866122e-09,-4.0670649225578e-09,-0.00099330346069582,0.0009933021208096,-0.0011966041521301,0.0011966092520064,-0.0011966063087843,0.0011966069994715,-0.0011966081814374,0.0011966050408484,-0.0011966103297346,0.001196602787729,-0.0010852494654053,0.0010852505162864,-0.0010852559865105,0.0010852437279412,-0.00098047699173958,0.0009804858889228,-0.00098048954252572,0.00098047296948895,4.1875961055193e-09,-2.9725318411927e-09,-0.001332143831848,0.0013321450256016,-2.6368482664778e-09,4.0362430510454e-09,-0.0015611220125215,0.0015611233142266,-0.0015611198031115,0.0015611254764487,-0.0015611244167319,0.0015611209421556,-0.0015611222113122,0.001561123115839,-0.0012404959726533,0.0012404923942834,-0.0012404889430863,0.0012404993842895,0.54391181261201,131329,3014,0.0038161884899929,0.0041319696835009,0.0055328257216883,28.484456350739,-1.2124349194085e-05,-1.2124349194085e-05,-1.2124349194085e-05,4386825.9464991,0.013573773972759
15419200,0.97350114109182,0.014162202233257,0.0041827513702582,0.0044378725640771,0.0055415782989221,-0.00091527508264025,0.00091527627441414,-3.0759267252558e-09,4.2762629615136e-09,-5.7438994504322e-09,7.2130874751289e-09,-0.0011241049758123,0.0011240994533853,-0.0011241025344714,0.0011241019170956,-0.001124100920949,0.001124103710368,-0.001124098469678,0.0011241061679703,-0.0010123487809794,0.0010123470637477,-0.0010123415567011,0.0010123542364796,5.6042882849765e-09,-7.2454753866435e-09,2.7387102549471e-09,-4.0950581284405e-09,-0.00099161820207998,0.00099161686151443,-0.0011949925044633,0.0011949976267887,-0.0011949946780214,0.0011949953568366,-0.0011949965370997,0.001194993409907,-0.0011949987048362,0.0011949911376781,-0.0010835705443771,0.0010835716449815,-0.0010835771200006,0.0010835647983483,-0.00097871365110156,0.00097872254241316,-0.00097872621688836,0.00097870960635341,4.2475650388037e-09,-3.0308528281148e-09,-0.0013306917675208,0.0013306929626176,-2.660079279551e-09,4.061388158262e-09,-0.0015598350698763,0.0015598363952932,-0.0015598328438387,0.0015598385750772,-0.0015598375120498,0.0015598339846305,-0.0015598352907742,0.0015598361725998,-0.0012389171869007,0.0012389135090095,-0.0012389100396952,0.001238920619619,0.61487581229179,131329,3014,0.0038092102883399,0.0041249757380874,0.0055268139017452,27.071464206129,-2.3428286350965e-05,-2.3428286350965e-05,-2.3428286350965e-05,4366517.0155035,0.013553516635936
15619200,0.97447756399151,0.014174175002096,0.0041861847097663,0.004441516841649,0.0055464734506807,-0.00091402848518651,0.00091402967703504,-3.1130030423939e-09,4.3124068469604e-09,-5.8296115003703e-09,7.2985591346754e-09,-0.001123075666533,0.0011230700616687,-0.0011230731954251,0.0011230725518494,-0.0011230715541246,0.0011230743771402,-0.0011230690793261,0.0011230768544241,-0.0010111426366386,0.0010111409147585,-0.0010111353455457,0.0010111481452744,5.4818686154527e-09,-7.1166951187261e-09,2.7628134761654e-09,-4.1135525840755e-09,-0.00099037561016118,0.00099037427613485,-0.0011939543285698,0.0011939593877301,-0.0011939565105204,0.0011939571047524,-0.0011939582744654,0.0011939552529401,-0.0011939604575682,0.001193952961636,-0.0010823896679765,0.0010823909076068,-0.0010823962914392,0.0010823840038722,-0.00097748860323166,0.00097749724414232,-0.0009775009304906,0.00097748454652868,4.3236071502988e-09,-3.1093684518693e-09,-0.0013297059900008,0.0013297071820304,-2.6621333063607e-09,4.0609681482106e-09,-0.0015590895168595,0.0015590908860621,-0.0015590872878843,0.0015590930710266,-0.0015590920050617,0.0015590884255408,-0.0015590897864977,0.0015590906109892,-0.0012379045258112,0.001237900688045,-0.0012378972166119,0.0012379079599896,0.62694798086154,131329,3014,0.0038040384833553,0.0041198239743996,0.0055227276347703,25.962916825973,-3.2296665392216e-05,-3.2296665392216e-05,-3.2296665392216e-05,4341818.0210169,0.013538916334182
15819200,0.97539603307975,0.014186337041868,0.0041897046849818,0.0044452416837346,0.0055513906731514,-0.00091400433798131,0.00091400552395825,-3.1924495995914e-09,4.3869962427173e-09,-5.6431311641871e-09,7.1052638995945e-09,-0.0011233120234779,0.0011233064885444,-0.0011233095066039,0.0011233090278933,-0.0011233080369431,0.0011233106763563,-0.0011233055099851,0.0011233132097948,-0.0010112359306349,0.0010112339152224,-0.0010112284826455,0.0010112413098568,5.497446890877e-09,-7.1322344540137e-09,2.7398027766407e-09,-4.0904376827103e-09,-0.0009903823509426,0.00099038101631924,-0.0011941978418072,0.0011942028952285,-0.0011942000143347,0.0011942006262914,-0.0011942018007878,0.0011941987525649,-0.0011942039673919,0.0011941964815958,-0.0010825333323359,0.0010825345079302,-0.0010825399029494,0.0010825276637034,-0.00097757162017111,0.00097758029968368,-0.00097758396996805,0.00097756758243522,4.3619360319072e-09,-3.145271403647e-09,-0.0013300113988309,0.0013300125936758,-2.6577233395528e-09,4.0589867669758e-09,-0.001559653164858,0.0015596545676956,-0.0015596509401683,0.0015596567455898,-0.0015596556830911,0.0015596520803934,-0.00155965346366,0.0015596542670611,-0.0012382181077496,0.0012382142047719,-0.0012382107357249,0.0012382215384148,0.66919701009445,131329,3014,0.003803944399822,0.0041198581055506,0.0055239879456444,25.547561021194,-3.5619511830447e-05,-3.5619511830447e-05,-3.5619511830447e-05,4328478.1383504,0.013540139719398
16019200,0.97626145453519,0.014197762542721,0.0041930105459701,0.0044487399648621,0.0055560120318884,-0.00091393638912632,0.000913937570933,-3.2528360911491e-09,4.4432342873601e-09,-5.5585049737827e-09,7.0157800752051e-09,-0.0011235827682312,0.0011235772483822,-0.0011235802127495,0.0011235798261207,-0.001123578839458,0.0011235813780783,-0.0011235762733049,0.0011235839504317,-0.0010112657500682,0.0010112635577603,-0.001011258187271,0.0010112710673883,5.4238909528632e-09,-7.0535564671788e-09,2.7231868150801e-09,-4.0698627947466e-09,-0.00099034635139917,0.00099034502083269,-0.0011944697133673,0.0011944747078515,-0.0011944718738768,0.0011944724509554,-0.0011944736220227,0.0011944706157524,-0.0011944757759775,0.0011944683573235,-0.0010826275205481,0.0010826287134175,-0.0010826340542918,0.0010826219069499,-0.00097764869661428,0.00097765724299626,-0.00097766089556395,0.00097764467630269,4.4169549198238e-09,-3.2017082913036e-09,-0.0013302814420117,0.0013302826354634,-2.6412035636912e-09,4.0408216050855e-09,-0.0015602176833168,0.0015602191340607,-0.0015602154707029,0.0015602213001351,-0.0015602202390488,0.001560216609158,-0.0015602180309049,0.0015602187844431,-0.0012385413405952,0.0012385373162628,-0.001238533860346,0.0012385447584935,0.66742793830592,131329,3014,0.0038036711383396,0.0041197173170262,0.0055250988376244,25.147853421098,-3.8817172631214e-05,-3.8817172631214e-05,-3.8817172631214e-05,4311466.9062385,0.013540855765859
16219200,0.97707751515948,0.014208484189505,0.0041961130574112,0.0044520222701949,0.0055603488618989,-0.00091382790486623,0.00091382908348888,-3.310622654868e-09,4.4978771189415e-09,-5.4921687037808e-09,6.945615207076e-09,-0.0011237940777443,0.0011237885626747,-0.0011237914846025,0.0011237911780302,-0.0011237901941652,0.0011237926468079,-0.0011237875906522,0.0011237952565329,-0.0010112359832073,0.0010112336326229,-0.0010112283106924,0.0010112412517605,5.3495247742084e-09,-6.9745945322518e-09,2.7053072633759e-09,-4.0482529046414e-09,-0.00099026757682168,0.0009902662500915,-0.0011946812046158,0.0011946861387208,-0.0011946833519415,0.0011946838951629,-0.0011946850625124,0.0011946820978245,-0.0011946872035475,0.0011946798524543,-0.0010826568339553,0.0010826580433919,-0.0010826633294612,0.001082651275234,-0.00097767731427663,0.00097768572774331,-0.00097768936332733,0.00097767331166429,4.4741436650999e-09,-3.2601543064062e-09,-0.001330488245977,0.0013304894381117,-2.6214988484508e-09,4.0196414400956e-09,-0.0015606932999791,0.0015606948014485,-0.0015606911009294,0.0015606969540588,-0.0015606958941455,0.0015606922381559,-0.0015606936997878,0.0015606943996688,-0.001238800080756,0.0012387959278609,-0.0012387924868093,0.001238803483747,0.66425606301275,131329,3014,0.0038032288510862,0.0041193983799458,0.0055259481685405,24.748693762633,-4.2010449898938e-05,-4.2010449898938e-05,-4.2010449898938e-05,4296117.2685199,0.013540953708037
16419200,0.97785040062344,0.014217499777434,0.0041986887653872,0.0044547571979953,0.0055640538140512,-0.00091374657619809,0.00091374775071264,-3.3734893348341e-09,4.5568031405273e-09,-5.4103036829363e-09,6.8587651055517e-09,-0.0011240335270121,0.0011240280225574,-0.0011240308928522,0.0011240306793798,-0.0011240296982932,0.0011240320510618,-0.0011240270550678,0.0011240347009996,-0.0010111774547046,0.0010111749257644,-0.0010111696641677,0.0010111826614477,5.3138913892529e-09,-6.9372759543437e-09,2.6813018363213e-09,-4.0228451599442e-09,-0.00099021310696998,0.00099021178183101,-0.0011949206095664,0.0011949255037981,-0.0011949227401858,0.0011949232776032,-0.0011949244425031,0.0011949214881947,-0.0011949265681284,0.0011949192589454,-0.0010826492160301,0.0010826504035233,-0.0010826556642211,0.0010826436812552,-0.00097769936786341,0.00097770772787641,-0.00097771134667215,0.00097769538247467,4.5269204975686e-09,-3.3137062590778e-09,-0.0013307038903718,0.0013307050815243,-2.6002317404405e-09,3.9974078757274e-09,-0.0015611655646567,0.0015611671143351,-0.0015611633794658,0.0015611692530152,-0.0015611681937751,0.0015611645164261,-0.0015611660143218,0.0015611666625204,-0.0012390434825663,0.00123903920841,-0.001239035783372,0.0012390468711377,0.59981699303289,131329,3014,0.0038028987093501,0.0041191796404574,0.0055268345042633,24.411313953436,-4.470948837251e-05,-4.470948837251e-05,-4.470948837251e-05,4283630.4304625,0.013541303483418
16619200,0.97858647586385,0.014227833654039,0.0042017048084298,0.0044579383547339,0.005568190490875,-0.00091391688074159,0.00091391805361452,-3.4273719705507e-09,4.6088579437005e-09,-5.389683326227e-09,6.8361279861884e-09,-0.0011243619974277,0.0011243564715246,-0.0011243593283027,0.0011243591629283,-0.0011243581840472,0.0011243604845697,-0.0011243555046863,0.0011243631703007,-0.0010114354054996,0.0010114327552985,-0.0010114275095349,0.0010114405967425,5.2466537547771e-09,-6.8656987397652e-09,2.6588193776872e-09,-3.9967331704667e-09,-0.00099040944387554,0.00099040812245663,-0.0011952591217941,0.001195263958307,-0.0011952612367266,0.0011952617474916,-0.0011952629095041,0.0011952599878572,-0.0011952650183144,0.0011952577752569,-0.0010829344315671,0.0010829356199608,-0.0010829408304309,0.0010829289477465,-0.000977948604701,0.00097795684708702,-0.00097796044622402,0.00097794464045771,4.587012996431e-09,-3.3757641463108e-09,-0.0013311256623731,0.0013311268516356,-2.574263355698e-09,3.9691756775253e-09,-0.0015617411577457,0.001561742765115,-0.0015617389914209,0.0015617448852325,-0.0015617438280331,0.0015617401257453,-0.0015617416661222,0.0015617422543455,-0.0012394613870019,0.0012394569748937,-0.0012394535697932,0.001239464755561,0.70235633435375,131329,3014,0.0038036086446401,0.0041199973453418,0.0055285793191126,24.157593145746,-4.6739254834028e-05,-4.6739254834028e-05,-4.6739254834028e-05,4279907.2365601,0.01354462212336
16819200,0.97928788624575,0.014237724710872,0.0042045905675981,0.0044609827774637,0.0055721513658102,-0.00091399661680958,0.00091399778873378,-3.485311859321e-09,4.6659946602425e-09,-5.3611940287907e-09,6.8065514410845e-09,-0.0011247804436364,0.0011247748974648,-0.0011247777357573,0.0011247776275428,-0.0011247766493118,0.0011247788913671,-0.0011247739318513,0.0011247816151938,-0.0010115994134031,0.0010115966315385,-0.001011591406339,0.0010116045852072,5.2231862143409e-09,-6.8402925252495e-09,2.6343352813397e-09,-3.9707116036165e-09,-0.00099051849861581,0.00099051717860962,-0.0011956736808137,0.0011956784853735,-0.0011956757786854,0.0011956762917989,-0.0011956774524227,0.0011956745315896,-0.0011956795447377,0.0011956723355341,-0.0010831622910056,0.0010831634493352,-0.0010831686424034,0.0010831568259817,-0.00097819741498364,0.00097820562978724,-0.00097820920989847,0.00097819346965495,4.6426675693397e-09,-3.4331358249395e-09,-0.0013315023322273,0.0013315035198418,-2.5502973079325e-09,3.9432070222028e-09,-0.0015623783540758,0.0015623800137549,-0.0015623762039974,0.001562382117565,-0.0015623810617126,0.0015623773371623,-0.0015623789168627,0.0015623794489942,-0.0012399385209649,0.0012399339787332,-0.0012399305917127,0.0012399418705096,0.70571573229955,131329,3014,0.0038039493063382,0.0041204589009819,0.0055301306165124,23.905765293711,-4.8753877650314e-05,-4.8753877650314e-05,-4.8753877650314e-05,4265136.3592137,0.013547017572059
17019200,0.97995656185182,0.014246953835473,0.0042072787647529,0.0044638195685152,0.0055758555022046,-0.00091403175228492,0.00091403292356614,-3.5421626493625e-09,4.7222268591521e-09,-5.3497120213817e-09,6.7943162017744e-09,-0.0011251548343177,0.0011251492578947,-0.0011251520888893,0.0011251520254837,-0.0011251510480221,0.0011251532436775,-0.0011251482926868,0.0011251560053794,-0.0010116999461431,0.0010116970445544,-0.0010116918279678,0.0010117051095177,5.2063776934331e-09,-6.8222927566338e-09,2.6107953372248e-09,-3.9462299515366e-09,-0.00099058057043959,0.00099057925136592,-0.0011960429364576,0.0011960477145347,-0.0011960450186044,0.0011960455367949,-0.0011960466967584,0.0011960437721977,-0.0011960487729925,0.0011960415923344,-0.0010833219192022,0.0010833230425114,-0.0010833282232413,0.0010833164669332,-0.00097839703153948,0.00097840522872203,-0.0009784087917602,0.00097839310343764,4.6994437345727e-09,-3.491386818941e-09,-0.0013318217137219,0.0013318228998595,-2.5269383982665e-09,3.9181191168858e-09,-0.0015629466369785,0.0015629483498988,-0.0015629445032344,0.0015629504373664,-0.0015629493831191,0.0015629456348072,-0.0015629472542654,0.001562947730693,-0.0012403583088104,0.0012403536367259,-0.0012403502673907,0.0012403616406762,0.69245977443538,131329,3014,0.0038041047899181,0.0041207254655161,0.0055314441657064,23.654003683128,-5.0767970534977e-05,-5.0767970534977e-05,-5.0767970534977e-05,4251255.779432,0.01354878609419
17219200,0.98057892954667,0.014255294426231,0.0042097025659462,0.0044663784905276,0.0055792133697574,-0.00091330738620512,0.00091330856042142,-3.5914851660641e-09,4.7741500725218e-09,-5.4341688114906e-09,6.8825054288894e-09,-0.0011246997966415,0.0011246941337535,-0.001124697018531,0.0011246969337332,-0.0011246959549875,0.0011246981755751,-0.0011246931642089,0.0011247009722282,-0.0010109844156179,0.0010109814729307,-0.0010109761954741,0.0010109896415947,5.2036000484928e-09,-6.8177099622343e-09,2.6006470714234e-09,-3.9349088387484e-09,-0.0009898603661304,0.00098985904805678,-0.001195567740223,0.0011955725111838,-0.0011955698163501,0.0011955703389867,-0.0011955714995624,0.0011955685692054,-0.0011955735672987,0.0011955663977028,-0.0010826382832706,0.0010826393866185,-0.001082644564109,0.001082632837177,-0.00097777377034111,0.00097778196681968,-0.00097778551826389,0.00097776985059561,4.7617345162791e-09,-3.555761654334e-09,-0.001331296972261,0.001331298156685,-2.5136524910536e-09,3.9025166279723e-09,-0.0015626171231809,0.0015626188879833,-0.0015626150006333,0.0015626209646957,-0.0015626199126442,0.0015626161293431,-0.0015626177921127,0.0015626182169129,-0.0012399147012999,0.0012399098971779,-0.0012399065392773,0.0012399180213796,0.67475988679354,131329,3014,0.0038011044005768,0.0041177436318496,0.0055292631404167,22.993658713372,-5.6050730293025e-05,-5.6050730293025e-05,-5.6050730293025e-05,4232589.0890609,0.013540518676571
17419200,0.98114691330804,0.014262555123374,0.0042118042054242,0.0044685991381326,0.0055821517798173,-0.00091193705367043,0.00091193822891665,-3.6548910276762e-09,4.8387406552062e-09,-5.4615992754205e-09,6.9114912545099e-09,-0.001123517446357,0.0011235117212057,-0.001123514624237,0.0011235145645281,-0.0011235135844513,0.0011235157832779,-0.0011235107519172,0.0011235186212359,-0.0010095709044548,0.0010095678582587,-0.0010095625619317,0.0010095761495462,5.3316687911418e-09,-6.9525733056341e-09,2.5927072269531e-09,-3.9325626459632e-09,-0.00098847267918566,0.00098847135536432,-0.0011943518238362,0.0011943566719742,-0.0011943538951821,0.0011943545040635,-0.0011943556691655,0.0011943526434171,-0.0011943577341472,0.0011943504739239,-0.0010812301030026,0.0010812311055365,-0.0010812363766976,0.001081224563039,-0.00097643666010497,0.00097644511650762,-0.00097644867011449,0.00097643273824049,4.811676090363e-09,-3.6057879890638e-09,-0.0013300400616142,0.0013300412459171,-2.5131609420995e-09,3.9019128760047e-09,-0.0015614958092299,0.001561497606256,-0.0015614936857847,0.0015614996836781,-0.0015614986307024,0.0015614948152061,-0.001561496511643,0.0015614969014753,-0.0012387131621277,0.0012387082567336,-0.0012387049000891,0.0012387164817605,0.64747799608296,131329,3014,0.0037954190335431,0.0041119894385972,0.0055240518268482,21.990033787258,-6.4079729701935e-05,-6.4079729701935e-05,-6.4079729701935e-05,4210480.4411652,0.013523645756855
17619200,0.98166569740849,0.014268912759603,0.0042136384692839,0.0044705382951102,0.0055847359952086,-0.0009105313020263,0.00091053247947529,-3.713226078051e-09,4.8992517320755e-09,-5.5253770582001e-09,6.9777797418833e-09,-0.0011222263477757,0.0011222205410809,-0.0011222234860127,0.0011222234249375,-0.0011222224415624,0.0011222246474647,-0.0011222195704962,0.0011222275248291,-0.0010081031621459,0.0010081000468637,-0.0010080947052594,0.0010081084525919,5.4215859010924e-09,-7.0481623151815e-09,2.5886334318394e-09,-3.9327946986586e-09,-0.00098704257258891,0.00098704124444094,-0.0011930278772008,0.0011930327807133,-0.0011930299472938,0.0011930306151043,-0.0011930317833031,0.0011930286915951,-0.0011930338481338,0.0011930265232796,-0.0010797508093386,0.0010797517432551,-0.0010797570808315,0.0010797452029109,-0.00097501824467742,0.00097502687974748,-0.00097503043832852,0.00097501431811471,4.8665133202998e-09,-3.6600761401275e-09,-0.0013287010357493,0.0013287022205851,-2.5123931541431e-09,3.9017116254469e-09,-0.0015602412354706,0.001560243069379,-0.0015602391117474,0.0015602451468413,-0.0015602440932806,0.0015602402428349,-0.0015602419748766,0.0015602423278818,-0.0012373966632969,0.0012373916491876,-0.0012373882927903,0.0012373999835382,0.62390235227197,131329,3014,0.0037895839268381,0.0041060568518748,0.0055185029573535,20.97860725468,-7.2171141962563e-05,-7.2171141962563e-05,-7.2171141962563e-05,4191607.2330188,0.013506095667846
17819200,0.98214075711105,0.014274517044431,0.0042152505503293,0.0044722434038636,0.0055870230902377,-0.00090914787052472,0.00090914905151767,-3.7650808880104e-09,4.9545573806141e-09,-5.6150697761197e-09,7.0717801087955e-09,-0.0011208990192,0.0011208931199907,-0.0011208961222719,0.0011208960389949,-0.0011208950528953,0.0011208972866853,-0.0011208921454274,0.00112090020047,-0.0010066449903151,0.0010066418327281,-0.0010066364255318,0.001006650344045,5.4651947501125e-09,-7.09441466609e-09,2.5885891387803e-09,-3.9349150234262e-09,-0.00098563023278107,0.00098562890274443,-0.0011916691389869,0.0011916740725264,-0.0011916712103885,0.001191671905626,-0.0011916730759293,0.0011916699524474,-0.0011916751408115,0.0011916677840956,-0.0010782688595469,0.0010782697608977,-0.0010782751299092,0.001078263219137,-0.00097358537552293,0.00097359409318408,-0.00097359765594254,0.00097358144565022,4.9271055527781e-09,-3.7202503614934e-09,-0.0013273484938286,0.0013273496787307,-2.5108336526084e-09,3.9005828190194e-09,-0.0015589340239974,0.0015589358993324,-0.0015589319017087,0.0015589379752115,-0.0015589369227029,0.0015589330319668,-0.0015589348045738,0.001558935116806,-0.0012360382702187,0.0012360331396028,-0.0012360297822393,0.0012360415895897,0.6034163005901,131329,3014,0.0037838393150367,0.004100196051761,0.0055129003120136,19.988935104198,-8.0088519166418e-05,-8.0088519166418e-05,-8.0088519166418e-05,4175941.6584098,0.013488653749451
18019200,0.98257675829555,0.014279659478087,0.0042167316584835,0.0044738088644042,0.0055891189551997,-0.00090779096422377,0.00090779214881418,-3.8188443496324e-09,5.0122787705888e-09,-5.6762742066017e-09,7.1374521892644e-09,-0.0011195455488189,0.0011195395736796,-0.0011195426148657,0.0011195425296779,-0.0011195415406869,0.0011195437824669,-0.0011195385959172,0.0011195467337441,-0.0010052134635742,0.0010052102417107,-0.0010052047890092,0.0010052188624837,5.5107282083628e-09,-7.1421867439101e-09,2.588864658527e-09,-3.9369105891523e-09,-0.00098424128600675,0.00098423995429468,-0.0011902860537031,0.0011902910178402,-0.0011902881261274,0.0011902888502747,-0.001190290022454,0.0011902868669425,-0.0011902920877393,0.0011902846980973,-0.0010768049201999,0.0010768057901246,-0.0010768111919722,0.0010767992459435,-0.00097215531661713,0.00097216412267257,-0.00097216768953381,0.00097215138490882,4.9857076151723e-09,-3.7781215429803e-09,-0.0013259912096926,0.0013259923950555,-2.5105750629787e-09,3.9010912773393e-09,-0.0015575891088631,0.001557591022955,-0.001557586986247,0.0015575930984788,-0.0015575920466855,0.0015575881166837,-0.0015575899286638,0.001557590202428,-0.0012346545748722,0.0012346493315435,-0.0012346459715596,0.0012346578931601,0.60265705086887,131329,3014,0.0037782030443884,0.0040944308469428,0.0055072797706155,19.017569986744,-8.7859440106048e-05,-8.7859440106048e-05,-8.7859440106048e-05,4162809.3265025,0.013471399020518
18219200,0.98297733315779,0.014284488145226,0.0042181271854903,0.0044752820324487,0.0055910789272876,-0.00090642175740291,0.00090642294201255,-3.8781641100426e-09,5.0713134090329e-09,-5.7069551470259e-09,7.1682881224243e-09,-0.0011181643413062,0.0011181583057812,-0.0011181613674271,0.0011181613016623,-0.0011181603121531,0.001118162535736,-0.0011181573282582,0.0011181655259262,-0.001003775673353,0.0010037723578739,-0.0010037668843428,0.0010037810936093,5.5665502203794e-09,-7.2006598715355e-09,2.5884164293474e-09,-3.9386438699309e-09,-0.00098283725942183,0.00098283592538372,-0.0011888735647345,0.0011888785642657,-0.0011888756370753,0.0011888763964637,-0.0011888775703003,0.0011888743753878,-0.0011888796365965,0.0011888722056184,-0.0010753320158242,0.001075332848425,-0.0010753382905318,0.0010753263025331,-0.00097071087658303,0.00097071979389025,-0.00097072336162081,0.00097070694108231,5.0401993504872e-09,-3.8332103789953e-09,-0.0013246020043988,0.001324603189378,-2.5130724036572e-09,3.9029403301755e-09,-0.0015562028097209,0.0015562047586048,-0.0015562006855294,0.0015562068361792,-0.0015562057836192,0.0015562018162019,-0.0015562036642347,0.0015562039024461,-0.0012332403954202,0.0012332350442568,-0.0012332316850654,0.0012332437160933,0.6133875295064,131329,3014,0.0037725154420976,0.0040886028715395,0.0055015272420721,18.04662000132,-9.5627039989443e-05,-9.5627039989443e-05,-9.5627039989443e-05,4149629.3764739,0.013453895218549
18419200,0.9833550545006,0.014289079958958,0.0042194565648859,0.0044766843772601,0.005592939016812,-0.0009057394247942,0.00090574060745943,-3.9375356553121e-09,5.1283423015747e-09,-5.690728966901e-09,7.1495015555175e-09,-0.001117512546668,0.0011175064826518,-0.0011175095339277,0.0011175095166115,-0.0011175085294496,0.0011175107005834,-0.0011175055059485,0.001117513729439,-0.0010030611382003,0.0010030576940439,-0.0010030522326451,0.0010030665437207,5.5634644011108e-09,-7.1981892172807e-09,2.5818854695646e-09,-3.9323312448169e-09,-0.0009821360395873,0.00098213470566849,-0.0011882016301758,0.0011882066246234,-0.0011882036980633,0.0011882044601868,-0.0011882056335977,0.0011882024364134,-0.0011882076949226,0.0011882002708332,-0.0010745990449655,0.0010745998649008,-0.0010746053049535,0.0010745933312649,-0.00096999696019073,0.00097000587316756,-0.00097000943957773,0.00096999302730912,5.0954481640857e-09,-3.8894641031297e-09,-0.0013239448144086,0.0013239459982695,-2.5082572613448e-09,3.897073923802e-09,-0.001555575843692,0.0015555778324713,-0.0015555737238293,0.0015555799065718,-0.0015555788547288,0.0015555748521937,-0.0015555767383473,0.0015555769349012,-0.0012325712181307,0.0012325657554679,-0.0012325624005764,0.0012325745364696,0.61738404870808,131329,3014,0.0037696814569039,0.0040856927787315,0.0054988056217024,17.474611192415,-0.00010020311046068,-0.00010020311046068,-0.00010020311046068,4142192.9959415,0.013445314486478
18619200,0.98371887615166,0.014293458290615,0.0042207233994753,0.0044780208380209,0.0055947140531185,-0.00090562256665327,0.00090562374718424,-3.9956174406299e-09,5.1844484378649e-09,-5.6412261608543e-09,7.0974756505496e-09,-0.0011174600593894,0.0011174539888284,-0.0011174570085663,0.0011174570611023,-0.001117456075669,0.0011174581729413,-0.0011174530144015,0.001117461239883,-0.0010029353203454,0.0010029317288856,-0.001002926303997,0.0010029406902741,5.5148843278017e-09,-7.1463419778547e-09,2.5722037487591e-09,-3.9199367714738e-09,-0.0009820145005695,0.00098201316931144,-0.0011881399375047,0.0011881448935709,-0.0011881419981123,0.0011881427368147,-0.0011881439077305,0.0011881407392367,-0.0011881459620026,0.0011881385810093,-0.0010744679468746,0.001074468781935,-0.0010744741860642,0.0010744622700025,-0.00096987760966707,0.00096988643498802,-0.00096988999106302,0.00096987368771034,5.1520061665716e-09,-3.9465645811611e-09,-0.0013238934502347,0.0013238946336244,-2.4976142471874e-09,3.8857914576206e-09,-0.0015555767121289,0.0015555787455177,-0.0015555745993508,0.0015555808123563,-0.0015555797610014,0.0015555757276103,-0.0015555776521139,0.001555577802946,-0.001232509976575,0.0012325043939408,-0.0012325010470855,0.0012325132865382,0.61178641861051,131329,3014,0.0037691965083738,0.004085189124039,0.0054985927379918,17.230271062567,-0.00010215783149946,-0.00010215783149946,-0.00010215783149946,4140099.445959,0.013444096983262
18819200,0.98406957916265,0.01429798379415,0.0042220428857289,0.0044794098076904,0.005596531100731,-0.0009055269233036,0.000905528102047,-4.0522451444571e-09,5.2395092265603e-09,-5.5958480910643e-09,7.0501189138242e-09,-0.0011174140366508,0.0011174079578562,-0.0011174109486856,0.0011174110677089,-0.0011174100836513,0.0011174121109445,-0.0011174069855083,0.0011174152153013,-0.0010028420266437,0.0010028382935798,-0.0010028329021691,0.0010028473644459,5.4560304410906e-09,-7.083174544071e-09,2.5653072184246e-09,-3.9096861128417e-09,-0.00098191529945,0.00098191397144066,-0.0011880867438812,0.0011880916565421,-0.0011880887990164,0.001188089505943,-0.0011880906740291,0.0011880875433251,-0.0011880927229682,0.0011880853909632,-0.0010743693167427,0.0010743701796495,-0.0010743755401103,0.0010743636849639,-0.0009697803824285,0.00096978909870065,-0.00096979264385508,0.00096977647091738,5.2099715580628e-09,-4.0047687153e-09,-0.0013238587792177,0.0013238599624341,-2.4882385004042e-09,3.8760811165296e-09,-0.0015555868445993,0.0015555889228206,-0.0015555847378637,0.0015555909832055,-0.0015555899322244,0.0015555858665031,-0.0015555878299102,0.0015555879355187,-0.0012324648093993,0.0012324591053306,-0.001232455765296,0.0012324681116428,0.64922938675032,131329,3014,0.0037687993176757,0.0040847778557541,0.0054984493950079,16.993359685874,-0.000104053122513,-0.000104053122513,-0.000104053122513,4138550.2727264,0.013443132163822
19019200,0.98440773917662,0.014302642788755,0.0042234096870376,0.0044808461745452,0.0055983869271719,-0.00090540847107303,0.00090540964751101,-4.1104058408348e-09,5.2954421266721e-09,-5.5450224972513e-09,6.9965362099155e-09,-0.0011174076089642,0.0011174015246343,-0.0011174044829937,0.001117404672554,-0.0011174036906271,0.0011174056428177,-0.0011174005544421,0.0011174087852964,-0.0010027385068197,0.0010027346249242,-0.0010027292707734,0.0010027438077062,5.4060240855593e-09,-7.0298601417452e-09,2.5589629818469e-09,-3.9006029951606e-09,-0.00098179572905252,0.00098179440373555,-0.0011880690658055,0.001188073941506,-0.001188071115919,0.0011880717960895,-0.0011880729618236,0.0011880698628471,-0.0011880750056811,0.0011880677157206,-0.0010742764218816,0.0010742773068464,-0.0010742826302672,0.0010742708275559,-0.00096970348978558,0.0009697121127537,-0.00096971564975971,0.00096969958679736,5.2666219314328e-09,-4.0618574588075e-09,-0.0013238207997866,0.0013238219825848,-2.4809188516909e-09,3.868234916608e-09,-0.0015556327006978,0.0015556348215448,-0.0015556305990284,0.0015556368768284,-0.0015556358262905,0.0015556317273396,-0.0015556337290265,0.0015556337913539,-0.0012324617034429,0.0012324558824414,-0.0012324525480385,0.0012324650001077,0.68719102778476,131329,3014,0.0037683099534278,0.00408428438174,0.0054982898530633,16.756707614134,-0.00010594633908693,-0.00010594633908693,-0.00010594633908693,4132697.1594079,0.013441977301132
19219200,0.98474440064818,0.014307432655581,0.0042248187720936,0.0044823258155919,0.0056002880678952,-0.00090615357477293,0.00090615474929593,-4.1611671512587e-09,5.3441293793394e-09,-5.5103528868841e-09,6.9591561643797e-09,-0.0011183670792935,0.0011183609857783,-0.001118363921488,0.0011183641655445,-0.0011183631864101,0.0011183650782732,-0.0011183600156199,0.0011183682552826,-0.0010035461865844,0.0010035421778352,-0.0010035368483101,0.0010035514611324,5.2801212939935e-09,-6.8980645143255e-09,2.548692343385e-09,-3.8851009553408e-09,-0.00098256432152873,0.00098256300174209,-0.0011890311638075,0.0011890359526569,-0.001189033206723,0.0011890338144055,-0.0011890349758058,0.0011890319582396,-0.0011890370098209,0.0011890298210804,-0.0010751245914022,0.0010751255382222,-0.0010751307697291,0.001075119087423,-0.00097057261851355,0.00097058099607656,-0.00097058452220195,0.0009705687289791,5.3304444957561e-09,-4.1265167933916e-09,-0.0013247350861101,0.0013247362679131,-2.4647486232685e-09,3.851067908813e-09,-0.0015566936968526,0.0015566958718793,-0.0015566916077335,0.0015566979147095,-0.0015566968664079,0.0015566927334112,-0.0015566947790015,0.0015566947877253,-0.0012334497074734,0.001233443753142,-0.001233440429476,0.0012334529921533,0.70677989636815,131329,3014,0.0037714098513808,0.0040874797603913,0.0055020715634194,17.022803944783,-0.00010381756844174,-0.00010381756844174,-0.00010381756844174,4131992.4909774,0.013452196710888
19419200,0.98508474494375,0.014312162616737,0.0042262068380904,0.0044837844819397,0.0056021712967068,-0.00090731867471678,0.00090731984495955,-4.2241314640657e-09,5.4027155564542e-09,-5.4047871536977e-09,6.8483256920569e-09,-0.0011198059374856,0.0011197998709697,-0.0011198027382682,0.0011198030917591,-0.0011198021161369,0.0011198038918085,-0.0011197989049904,0.0011198071086922,-0.0010047834099437,0.0010047792084139,-0.0010047739548356,0.0010047886092042,5.2237017971221e-09,-6.8383040790393e-09,2.5329522800939e-09,-3.8668402486986e-09,-0.00098376628124995,0.0009837649641594,-0.0011904811495533,0.0011904858907401,-0.0011904831803784,0.0011904837641929,-0.0011904849226048,0.0011904819355272,-0.0011904869456475,0.0011904798089911,-0.0010764176226169,0.0010764185797999,-0.0010764237705324,0.0010764121606503,-0.0009718949690814,0.00097190324926635,-0.00097190676168914,0.0009718910940793,5.3830247104666e-09,-4.1804019945298e-09,-0.0013261208356384,0.0013261220161638,-2.4505434870786e-09,3.8353847642458e-09,-0.0015582605211375,0.0015582627396181,-0.0015582584416176,0.0015582647732621,-0.0015582637254853,0.0015582595662201,-0.0015582616487266,0.0015582616102486,-0.0012349235299221,0.001234917458936,-0.001234914145131,0.0012349268035605,0.69264759760792,131329,3014,0.0037762554265616,0.0040924749704739,0.0055078045057984,17.539770427747,-9.9681836578023e-05,-9.9681836578023e-05,-9.9681836578023e-05,4134554.2222399,0.013467988718633
19619200,0.98542863497056,0.014316812063074,0.0042275675823192,0.0044852156318986,0.0056040288488557,-0.00090849149440177,0.00090849266153095,-4.2855899047584e-09,5.461378514694e-09,-5.3265875796411e-09,6.7665593184046e-09,-0.0011212328964595,0.0011212268388568,-0.0011212296569357,0.0011212301002598,-0.001121229127006,0.0011212308070854,-0.0011212258768359,0.0011212340635274,-0.0010060197510931,0.0010060153761574,-0.0010060101802957,0.0010060248933514,5.1809713231735e-09,-6.7928284994102e-09,2.5208496643058e-09,-3.8527172905857e-09,-0.00098497649996147,0.00098497518468776,-0.001191922313386,0.0011919270169573,-0.0011919243352513,0.0011919248999999,-0.001191926056498,0.0011919230922689,-0.001191928071644,0.0011919209740255,-0.0010777053156231,0.0010777062795788,-0.0010777114392559,0.0010776998851597,-0.00097321032203229,0.00097321852895852,-0.00097322202853776,0.00097320645917613,5.4368841308042e-09,-4.2344532672417e-09,-0.001327513372381,0.0013275145527955,-2.4389675350395e-09,3.8234859139534e-09,-0.0015598193594442,0.0015598216212004,-0.0015598172869206,0.0015598236473604,-0.0015598225992213,0.0015598184124203,-0.0015598205308568,0.0015598204479325,-0.0012363866844563,0.0012363804973493,-0.0012363771935441,0.0012363899496222,0.67638955559192,131329,3014,0.0037811322095273,0.0040975034991442,0.0055135662459427,18.062479490216,-9.550016407827e-05,-9.550016407827e-05,-9.550016407827e-05,4139208.8199394,0.01348387403111
19819200,0.98577579639426,0.014321356273297,0.0042288932222332,0.0044866112633428,0.0056058517877209,-0.000909665478324,0.00090966664345973,-4.3439139048238e-09,5.5177939936517e-09,-5.2784379055217e-09,6.715995529976e-09,-0.0011226337935972,0.0011226277284479,-0.0011226305156994,0.0011226310282584,-0.0011226300566119,0.0011226316639425,-0.0011226267684212,0.0011226349584796,-0.0010072533050951,0.0010072487834611,-0.0010072436225965,0.00100725841244,5.1360099711972e-09,-6.745021889373e-09,2.5116385571726e-09,-3.8412264028228e-09,-0.00098618791010694,0.00098618659708821,-0.0011933401074293,0.0011933447750387,-0.0011933421223009,0.0011933426651508,-0.0011933438195347,0.0011933408816555,-0.0011933458280198,0.0011933387701596,-0.001078981839773,0.0010789828171048,-0.0010789879437278,0.0010789764425778,-0.0009745092998497,0.00097451742567565,-0.00097452091570645,0.00097450544675825,5.4932305426365e-09,-4.2913471967594e-09,-0.0013289013698433,0.0013289025496574,-2.4292645877226e-09,3.813115519556e-09,-0.0015613564615701,0.0015613587670867,-0.0015613543956059,0.001561360786715,-0.001561359738991,0.0015613555207256,-0.0015613576774799,0.0015613575493468,-0.0012378235773605,0.0012378172714018,-0.0012378139751226,0.0012378268354157,0.65786896548961,131329,3014,0.0037860128402455,0.004102535879992,0.005519310067198,18.585389359787,-9.1316885121704e-05,-9.1316885121704e-05,-9.1316885121704e-05,4145581.8560427,0.013499747674143
20019200,0.9861165967573,0.014325995158661,0.0042302517986591,0.0044880400057445,0.0056077033542571,-0.00091008152159003,0.00091008268918379,-4.3953771126581e-09,5.5718333429337e-09,-5.3296562450131e-09,6.7703518141053e-09,-0.001123203416825,0.0011231972841815,-0.0011232001041524,0.0011232006190433,-0.0011231996453464,0.001123201254413,-0.0011231963218254,0.0011232045845766,-0.0010077012687226,0.0010076966808849,-0.0010076914832107,0.0010077064148195,5.123988865597e-09,-6.7313663627495e-09,2.5175647010571e-09,-3.8460147570201e-09,-0.00098662215446773,0.00098662084237726,-0.0011939152568076,0.0011939199205049,-0.001193917275729,0.0011939178069743,-0.0011939189611028,0.0011939160354927,-0.0011939209730397,0.0011939139208852,-0.0010794496201669,0.0010794506175776,-0.0010794557347552,0.0010794442345023,-0.00097499834816499,0.00097500644684639,-0.00097500993695188,0.00097499449347545,5.5544011274465e-09,-4.352457590173e-09,-0.001329464468211,0.0013294656483275,-2.4318381726013e-09,3.8157436626798e-09,-0.0015620237902973,0.0015620261356532,-0.0015620217227063,0.0015620281565564,-0.0015620271088341,0.0015620228483583,-0.0015620250454605,0.0015620248791986,-0.0012384167328706,0.0012384103089203,-0.0012384070110912,0.0012384199914524,0.68048385667802,131329,3014,0.0037877440632599,0.004104341131978,0.0055216389794714,18.671799567509,-9.0625603459925e-05,-9.0625603459925e-05,-9.0625603459925e-05,4145956.4971853,0.01350569503791
20219200,0.98644862516515,0.01433065636554,0.0042316208364597,0.0044894785440613,0.0056095569850189,-0.00091027088588244,0.00091027205342866,-4.4571023167896e-09,5.6332286457611e-09,-5.3476003468625e-09,6.7881947224873e-09,-0.0011235624171718,0.0011235562314889,-0.0011235590631124,0.0011235596073118,-0.0011235586336759,0.001123560213836,-0.0011235552688894,0.0011235635846855,-0.0010079210151841,0.001007916319086,-0.0010079111086914,0.0010079261730053,5.2035214775567e-09,-6.8158185539751e-09,2.5241386217385e-09,-3.8565984538356e-09,-0.00098682493654217,0.00098682362051858,-0.0011942732926289,0.0011942780129887,-0.0011942753168333,0.0011942758934626,-0.0011942770508856,0.001194274072671,-0.0011942790684268,0.0011942719519882,-0.0010796928728304,0.0010796938284222,-0.0010796990041324,0.0010796874278744,-0.00097527029271867,0.0009752785424849,-0.0009752820430131,0.00097526642695841,5.6068221387853e-09,-4.404732728321e-09,-0.0013297924539762,0.0013297936342338,-2.4430435031097e-09,3.827183863013e-09,-0.0015624664577359,0.0015624688304338,-0.0015624643827168,0.0015624708592316,-0.0015624698107837,0.0015624655082185,-0.00156246773969,0.0015624675462324,-0.0012387973631831,0.0012387908448322,-0.0012387875396007,0.0012388006310018,0.69908661511839,131329,3014,0.0037885349173864,0.0041051867413865,0.0055229930913066,18.638340014818,-9.0893279881455e-05,-9.0893279881455e-05,-9.0893279881455e-05,4141919.8762528,0.013508730043162
20419200,0.98677206334727,0.014335203217841,0.0042329565079976,0.0044908818600676,0.0056113648497754,-0.00091043512928377,0.00091043629948363,-4.5129520228841e-09,5.6918341469033e-09,-5.4014509537928e-09,6.8452329127156e-09,-0.0011239213416356,0.0011239150830789,-0.0011239179494793,0.0011239184971847,-0.0011239175209564,0.0011239191027475,-0.0011239141183004,0.0011239225117457,-0.001008115478484,0.0010081107099142,-0.0010081054604013,0.0010081206754653,5.2637139596256e-09,-6.8796094577803e-09,2.5346162007907e-09,-3.8698777970406e-09,-0.00098700266273929,0.0009870013438596,-0.0011946289664513,0.0011946337328064,-0.0011946309986011,0.0011946316056372,-0.0011946327656623,0.0011946297518323,-0.001194634791236,0.001194627623239,-0.0010799150607479,0.0010799159955094,-0.0010799212154443,0.0010799095711909,-0.00097553102315289,0.00097553938332098,-0.00097554289570207,0.00097552714629829,5.664038708329e-09,-4.4608630583427e-09,-0.0013301007024666,0.0013301018837614,-2.4546012420287e-09,3.8399572198251e-09,-0.0015629031095145,0.0015629055127518,-0.0015629010261508,0.0015629075496183,-0.0015629065005025,0.0015629021529255,-0.0015629044214465,0.0015629041990283,-0.0012391740733703,0.0012391674527002,-0.0012391641379793,0.0012391773498467,0.69998402716383,131329,3014,0.0037892224734775,0.0041059292767448,0.0055242644020049,18.60208188892,-9.118334488864e-05,-9.118334488864e-05,-9.118334488864e-05,4136308.8214971,0.013511473096102
20619200,0.98708714500084,0.014339129217376,0.0042340960492151,0.0044920832103892,0.0056129499577716,-0.00091056712556996,0.00091056829845988,-4.5675331162045e-09,5.7490686079298e-09,-5.466837237522e-09,6.9139186432667e-09,-0.0011242525680888,0.0011242462302248,-0.0011242491386519,0.001124249681642,-0.0011242487029029,0.0011242502946725,-0.0011242452629846,0.0011242537409499,-0.0010082554251407,0.0010082505945534,-0.0010082452975721,0.0010082606694498,5.3157424792099e-09,-6.9345594513218e-09,2.5466854331961e-09,-3.8843249054464e-09,-0.00098714671577509,0.00098714539451983,-0.0011949564422256,0.001194961250728,-0.0011949584831746,0.0011949591147446,-0.0011949602769253,0.0011949572340622,-0.0011949623113233,0.0011949550966316,-0.0010800798108544,0.0010800807336266,-0.001080085991433,0.0010800742831863,-0.00097574541953,0.00097575387339034,-0.00097575739714042,0.00097574153098938,5.7224129735646e-09,-4.5184511669479e-09,-0.0013303726876586,0.0013303738697098,-2.4666670738376e-09,3.8529186954198e-09,-0.0015633026863949,0.00156330512065,-0.0015633005946551,0.0015633071658509,-0.0015633061160793,0.0015633017222203,-0.0015633040286711,0.001563303776643,-0.0012395037514856,0.001239497026301,-0.0012394937023227,0.0012395070370092,0.63099126634675,131329,3014,0.0037897760132982,0.0041065319216657,0.0055253855320751,18.565725547102,-9.1474195623187e-05,-9.1474195623187e-05,-9.1474195623187e-05,4131135.9493912,0.013513786045569
20819200,0.98737938971317,0.014343081691061,0.0042352540489589,0.0044933004229869,0.0056145272191156,-0.00090935339953289,0.00090935457904387,-4.6192983657822e-09,5.8080001301122e-09,-5.5978251620485e-09,7.0535812242295e-09,-0.0011230412142608,0.0011230347552177,-0.0011230377483342,0.0011230382446273,-0.0011230372589637,0.0011230389101508,-0.0011230337833498,0.0011230423938612,-0.0010069947348731,0.0010069898941256,-0.0010069845034099,0.0010070000788513,5.4185778580379e-09,-7.040629827735e-09,2.5766507872921e-09,-3.9173653826571e-09,-0.00098590650149704,0.00098590517633765,-0.0011937219364492,0.0011937268302667,-0.0011937239989518,0.001193724674629,-0.0011937258413013,0.0011937227453336,-0.0011937278977519,0.0011937205873789,-0.0010787901839619,0.0010787910981635,-0.0010787964298213,0.001078784588259,-0.0009744844318937,0.00097449307161719,-0.0009744966133535,0.00097448052093076,5.7821707892397e-09,-4.5759029923046e-09,-0.0013291487933709,0.0013291499782267,-2.4951231159956e-09,3.8839515511815e-09,-0.00156208299382,0.0015620854501707,-0.0015620808811261,0.0015620875147909,-0.0015620864628598,0.0015620820137697,-0.0015620843560963,0.0015620840879678,-0.0012382729485281,0.0012382661271757,-0.0012382627824188,0.0012382762526182,0.67642719907496,131329,3014,0.0037847353562954,0.0041013843589594,0.0055203164784024,17.74113227329,-9.8070941813679e-05,-9.8070941813679e-05,-9.8070941813679e-05,4118796.7505888,0.013498319725421
21019200,0.98764921266201,0.014346603957304,0.004236282688318,0.0044943824650313,0.0056159388039547,-0.00090794371984283,0.00090794490191191,-4.6766615040248e-09,5.8674603832599e-09,-5.6888055678654e-09,7.1475133808136e-09,-0.0011216838143195,0.0011216772571274,-0.001121680308552,0.0011216807851876,-0.0011216797974595,0.0011216814742694,-0.0011216762824029,0.0011216849959689,-0.0010055291855257,0.0010055242952558,-0.0010055188384846,0.0010055345925062,5.5391318744492e-09,-7.1688322757842e-09,2.6037281634176e-09,-3.9502411063159e-09,-0.00098446630867157,0.00098446497791243,-0.0011923323532872,0.0011923373447389,-0.0011923344345904,0.0011923351685407,-0.0011923363395096,0.0011923331760667,-0.0011923384154577,0.0011923309972068,-0.0010773075924436,0.0010773084768629,-0.0010773138965041,0.001077301905681,-0.00097305148385407,0.00097306034030168,-0.00097306391126186,0.00097304754437842,5.838029525676e-09,-4.6309589848524e-09,-0.0013277245965046,0.0013277257819969,-2.5261515350987e-09,3.9160469985993e-09,-0.0015606941195681,0.0015606965920449,-0.0015606919860377,0.0015606986785074,-0.0015606976248502,0.0015606931184802,-0.0015606954970726,0.00156069521322,-0.0012368809851399,0.001236874077733,-0.0012368707107571,0.0012368843136358,0.65601667343968,131329,3014,0.0037788829595191,0.00409540898669,0.0055144157655855,16.830291195554,-0.00010535767043557,-0.00010535767043557,-0.00010535767043557,4100539.4667547,0.013480352323946
21219200,0.98789850860453,0.014349882702192,0.0042372418682609,0.0044953906036647,0.0056172502302667,-0.0009065352278787,0.00090653641310834,-4.7322618277966e-09,5.9260111910141e-09,-5.7745671467316e-09,7.2370482512613e-09,-0.0011202801687862,0.0011202735189714,-0.001120276625597,0.0011202770844134,-0.0011202760943588,0.0011202777939929,-0.0011202725405707,0.0011202813543228,-0.001004062508558,0.0010040575659334,-0.0010040520467837,0.0010040679757225,5.6181678967034e-09,-7.2527646772198e-09,2.630420017253e-09,-3.9808584755605e-09,-0.00098302361135633,0.00098302227693527,-0.0011908971429827,0.0011909022051284,-0.0011908992438616,0.0011909000091233,-0.0011909011837811,0.0011908979813136,-0.0011909032780172,0.0011908957839169,-0.0010758139105552,0.0010758147901825,-0.0010758202675809,0.0010758081633895,-0.00097159520954096,0.00097160419983872,-0.00097160779556282,0.00097159124592398,5.895799523254e-09,-4.6868181758631e-09,-0.0013262768339769,0.001326278021128,-2.5530582477054e-09,3.9451860853614e-09,-0.0015592504299982,0.0015592529235941,-0.0015592482784173,0.0015592550281344,-0.0015592539737718,0.0015592494114738,-0.0015592518266029,0.0015592515254949,-0.0012354454596866,0.0012354384641906,-0.0012354350754653,0.001235448809169,0.6596710437046,131329,3014,0.0037730338640288,0.0040894217134936,0.0055084190034741,15.917304424018,-0.00011266156460785,-0.00011266156460785,-0.00011266156460785,4084630.1343731,0.013462277305592
21419200,0.98813235174163,0.014352982512073,0.0042381500535117,0.0044963444881793,0.005618487970382,-0.00090551692284798,0.00090551810930547,-4.7856362259806e-09,5.9800819655126e-09,-5.8398343985089e-09,7.3034690898267e-09,-0.0011192810254098,0.0011192742983063,-0.0011192774471055,0.0011192778999349,-0.0011192769078829,0.00111927861642,-0.0011192733182887,0.0011192822132159,-0.0010030043871017,0.0010029993843131,-0.0010029938183161,0.0010030098985808,5.6214047755033e-09,-7.2571599337345e-09,2.651342350421e-09,-4.0026193183691e-09,-0.00098197925517293,0.000981977920332,-0.0011898726655556,0.0011898777451856,-0.0011898747812904,0.0011898755350187,-0.0011898767093414,0.0011898735178518,-0.0011898788181566,0.0011898713069564,-0.0010747362862228,0.0010747372028659,-0.001074742683192,0.0010747305337558,-0.00097054854146324,0.000970557521196,-0.00097056113358413,0.00097054456032802,5.9565290708903e-09,-4.7464287863293e-09,-0.0013252397143231,0.0013252409024846,-2.5710076385109e-09,3.9644773246744e-09,-0.0015582263067177,0.0015582288292402,-0.0015582241429652,0.0015582309458281,-0.0015582298907975,0.0015582252769428,-0.0015582277306442,0.0015582274031926,-0.0012344229794382,0.0012344158814993,-0.001234412477564,0.0012344263435517,0.66373456417407,131329,3014,0.0037688053834909,0.0040850879700338,0.0055041228265879,15.229177110041,-0.00011816658311967,-0.00011816658311967,-0.00011816658311967,4072509.4456235,0.013449245027372
21619200,0.98835217300743,0.014355925886995,0.0042390136808167,0.0044972510279609,0.0056196611782176,-0.00090453281379689,0.00090453400184834,-4.8357221526547e-09,6.0315699101501e-09,-5.8990340570882e-09,7.3651395880706e-09,-0.0011183205211019,0.0011183137217217,-0.0011183169066211,0.0011183173540414,-0.0011183163649452,0.0011183180799854,-0.001118312738255,0.0011183217085945,-0.001001980864225,0.0010019758012005,-0.0010019701918371,0.0010019864160723,5.5814384829257e-09,-7.213352863391e-09,2.6716204338273e-09,-4.0196302613427e-09,-0.00098096915337866,0.00098096782188576,-0.00118888644844,0.0011888915168603,-0.0011888885738244,0.0011888892907993,-0.0011888904632068,0.0011888873142798,-0.0011888925806358,0.0011888850886216,-0.0010736940684126,0.001073695051474,-0.0010737004991757,0.0010736883456322,-0.00096953849710513,0.00096954738527022,-0.00096955100575487,0.00096953450793252,6.018560162236e-09,-4.8104658998629e-09,-0.0013242350360364,0.0013242362220491,-2.5854530143322e-09,3.9769799484043e-09,-0.001557236904451,0.001557239458103,-0.0015572347333742,0.0015572415846741,-0.0015572405292695,0.0015572358610645,-0.0015572383601446,0.001557237997541,-0.0012334356715768,0.0012334284593418,-0.0012334250495723,0.0012334390445443,0.66920857812068,131329,3014,0.0037647190465175,0.0040808965327553,0.0054999608859902,14.564901650387,-0.0001234807867969,-0.0001234807867969,-0.0001234807867969,4060620.7782752,0.013436637545224
21819200,0.98855894057574,0.014358651182336,0.0042398124593334,0.0044980896056145,0.0056207491173883,-0.00090353704141455,0.00090353822861213,-4.8975354044493e-09,6.0931169127843e-09,-5.8500844877287e-09,7.3151124312777e-09,-0.0011173528122143,0.0011173460030235,-0.0011173491584267,0.0011173496788708,-0.0011173486876207,0.0011173503286008,-0.0011173450223081,0.0011173540002123,-0.0010009426036745,0.0010009373874116,-0.0010009318143334,0.0010009481236146,5.6187888713477e-09,-7.2526050275529e-09,2.6822906568653e-09,-4.0319637393136e-09,-0.00097994647175725,0.00097994513830108,-0.001187891743796,0.0011878968420833,-0.0011878938790191,0.0011878946111249,-0.0011878957852444,0.001187892617278,-0.0011878979129607,0.0011878903858798,-0.0010726375253654,0.0010726385050699,-0.0010726439808364,0.001072631777877,-0.00096851750469657,0.00096852646006447,-0.00096853008972759,0.00096851350741045,6.0724938982445e-09,-4.8611283315722e-09,-0.0013232147256122,0.0013232159151068,-2.5990743962083e-09,3.9941622716137e-09,-0.0015562336467062,0.0015562362280135,-0.0015562314637713,0.001556238363787,-0.001556237307542,0.001556232598222,-0.0015562351284435,0.0015562347446948,-0.0012324361311262,0.0012324288278375,-0.0012324254036139,0.0012324395141137,0.65988857329142,131329,3014,0.0037605844341446,0.0040766530500787,0.0054957340111319,13.901221502358,-0.00012879022798114,-0.00012879022798114,-0.00012879022798114,4048411.4917136,0.013423863064102
22019200,0.98876540228755,0.014361326236494,0.0042405956982107,0.0044989119530681,0.0056218185852147,-0.00090416302924712,0.00090416421263252,-4.9548591817767e-09,6.1467247371021e-09,-5.769194028612e-09,7.2289688167883e-09,-0.0011180595331981,0.0011180527388265,-0.0011180558423794,0.0011180564522046,-0.001118055463295,0.0011180570089281,-0.0011180517616923,0.0011180607173644,-0.0010015993829903,0.0010015939996195,-0.001001588484611,0.0010016048413662,5.5025185977607e-09,-7.132431413017e-09,2.6751670759353e-09,-4.0207120947476e-09,-0.00098058451860142,0.00098058318975611,-0.001188604074789,0.001188609093245,-0.0011886062039178,0.0011886068690636,-0.0011886080376794,0.001188604948008,-0.0011886101599447,0.0011886027226404,-0.0010733047018364,0.0010733057466855,-0.0010733111384259,0.0010732990342878,-0.00096918633970527,0.00096919506908356,-0.00096919869541524,0.00096918235123702,6.1312130509441e-09,-4.9191367953358e-09,-0.0013239282159037,0.0013239294055841,-2.588571970609e-09,3.9843323357939e-09,-0.0015569989111314,0.0015570015375351,-0.0015569967344342,0.001557003666621,-0.0015570026106077,0.0015569978692512,-0.0015570004387157,0.0015570000086643,-0.0012331605568262,0.0012331531325432,-0.001233149712483,0.0012331639332549,0.6498238122309,131329,3014,0.0037631852954236,0.004079302509485,0.0054986881217187,14.153766662629,-0.00012676986669897,-0.00012676986669897,-0.00012676986669897,4053428.661969,0.013432179086173
22219200,0.98897273960085,0.014363989141428,0.0042413746235835,0.0044997300920698,0.0056228844257742,-0.00090495934990443,0.00090496052707036,-5.0192129128732e-09,6.2049037761547e-09,-5.6246636057113e-09,7.0773868918945e-09,-0.0011189386294846,0.0011189318860953,-0.0011189348974599,0.0011189356402291,-0.001118934657564,0.0011189360578143,-0.0011189309150133,0.0011189398066965,-0.0010024284166759,0.0010024228092327,-0.0010024174001607,0.00100243377212,5.4355335016012e-09,-7.0592514964955e-09,2.6614987745407e-09,-4.0026891927448e-09,-0.00098139846633738,0.00098139714153384,-0.0011894948881497,0.0011894998523046,-0.0011894970064003,0.0011894976385859,-0.0011894988039824,0.0011894957540119,-0.0011895009156914,0.0011894935388206,-0.001074145298429,0.0010741463646022,-0.0010741517063836,0.0010741396848181,-0.00097002172026261,0.00097003033183162,-0.00097003393773885,0.0009700177492802,6.1827973622552e-09,-4.9726850184155e-09,-0.0013248262890621,0.0013248274771944,-2.5771293627905e-09,3.9706835103443e-09,-0.0015579525406449,0.0015579552092732,-0.0015579503723768,0.001557957330337,-0.0015579562748531,0.0015579515059041,-0.0015579541114645,0.0015579536367215,-0.0012340556759367,0.0012340481373578,-0.0012340447297219,0.0012340590427925,0.64497437662518,131329,3014,0.0037664932127707,0.0040826816087435,0.0055024072144791,14.500411032389,-0.00012399671174089,-0.00012399671174089,-0.00012399671174089,4061143.250255,0.013442726122706
22419200,0.98918088753884,0.014366789473665,0.0042421973090507,0.0045005932720666,0.005623998892548,-0.00090576524121974,0.00090576641407733,-5.0789020850276e-09,6.2603847568077e-09,-5.5234475196168e-09,6.9709740574982e-09,-0.0011198204657736,0.001119813748707,-0.0011198166954104,0.0011198175411287,-0.0011198165624981,0.001119817851321,-0.0011198127815716,0.0011198216385634,-0.0010032746645042,0.0010032688707638,-0.0010032635355042,0.0010032799465758,5.3446810518124e-09,-6.9628944230737e-09,2.6477712382265e-09,-3.9845373661706e-09,-0.00098222324479426,0.00098222192444554,-0.0011903905041982,0.0011903953994828,-0.0011903926119292,0.0011903931963607,-0.0011903943577543,0.0011903913639377,-0.0011903964588826,0.0011903891593822,-0.0010750032024955,0.0010750043041711,-0.0010750095795061,0.0010749976560081,-0.00097086730642264,0.00097087574973847,-0.00097087933997514,0.00097086335161112,6.2385342855305e-09,-5.0294527873168e-09,-0.0013257362456731,0.0013257374328187,-2.5624290289344e-09,3.9547824536695e-09,-0.0015589166216011,0.0015589193371094,-0.0015589144636689,0.0015589214479991,-0.0015589203933757,0.0015589155961846,-0.0015589182401837,0.0015589177167955,-0.0012349597210178,0.0012349520608977,-0.0012349486649241,0.0012349630768127,0.67139356331681,131329,3014,0.0037698407262005,0.0040861054650464,0.0055061757158396,14.849412114227,-0.00012120470308618,-0.00012120470308618,-0.00012120470308618,4069029.6362892,0.013453408643733
22619200,0.98938960173664,0.014369631744968,0.0042430328819371,0.0045014699661121,0.0056251288969188,-0.00090653183418332,0.0009065330037403,-5.1379012217621e-09,6.3161646765341e-09,-5.4431772930818e-09,6.8866596893325e-09,-0.0011207108057729,0.0011207041019974,-0.0011207069971234,0.001120707932695,-0.0011207069570617,0.0011207081496587,-0.0011207031379043,0.0011207119751588,-0.0010040848388399,0.0010040788746973,-0.0010040735976905,0.0010040900629267,5.2713932998568e-09,-6.8854297446565e-09,2.6333094964189e-09,-3.9666988874058e-09,-0.00098301068719432,0.00098300937024368,-0.0011912922853153,0.0011912971229183,-0.0011912943823437,0.0011912949305997,-0.0011912960888709,0.0011912931377747,-0.001191298179332,0.0011912909439836,-0.0010758353343,0.0010758364581069,-0.0010758416799404,0.0010758298417447,-0.00097170052600812,0.00097170883586919,-0.00097171241176571,0.00097169658611186,6.2944754281552e-09,-5.0863878134614e-09,-0.0013266242337133,0.001326625419879,-2.5472433712576e-09,3.9384366469933e-09,-0.0015598898433217,0.0015598926060257,-0.001559887695941,0.0015598947064536,-0.0015598936527071,0.0015598888275044,-0.0015598915100628,0.0015598909375782,-0.0012358686124966,0.001235860830139,-0.0012358574459607,0.0012358719568802,0.67880270069845,131329,3014,0.0037730268514082,0.0040893760106565,0.0055098514513806,15.187571626728,-0.00011849942698617,-0.00011849942698617,-0.00011849942698617,4073790.4518909,0.01346368054829
22819200,0.989595845346,0.014372430525006,0.0042438551814309,0.0045023329670667,0.0056262423765083,-0.00090689417481368,0.0009068953421221,-5.1992955020619e-09,6.3756764843716e-09,-5.3725563051516e-09,6.813616224172e-09,-0.0011211937763693,0.0011211870766575,-0.0011211899266076,0.001121190947928,-0.0011211899743954,0.0011211910772166,-0.0011211861154765,0.0011211949422623,-0.0010044737719204,0.0010044676401023,-0.0010044624147784,0.0010044789459805,5.2693201019781e-09,-6.8825349470703e-09,2.6210645119718e-09,-3.9540038090597e-09,-0.00098338522544741,0.00098338390868877,-0.0011917788069352,0.0011917836334968,-0.0011917808949069,0.0011917814499605,-0.0011917826081172,0.0011917796510564,-0.0011917846905833,0.0011917774647525,-0.0010762402515492,0.0010762413548435,-0.0010762465748843,0.0010762347622428,-0.00097211813962274,0.00097212645669501,-0.00097213002209094,0.00097211421038866,6.34758564091e-09,-5.1400263018424e-09,-0.001327085370261,0.0013270865559844,-2.5375655184388e-09,3.9281054930441e-09,-0.0015604333465228,0.0015604361505006,-0.0015604312051631,0.001560438244855,-0.0015604371909442,0.001560432336889,-0.0015604350556437,0.0015604344398296,-0.0012363571684388,0.0012363492716259,-0.0012363458966431,0.0012363605051475,0.67691805214877,131329,3014,0.0037745344581303,0.0040909331003643,0.0055117588548548,15.303728891608,-0.00011757016886714,-0.00011757016886714,-0.00011757016886714,4073902.5350629,0.013468722649539
23019200,0.98979955058563,0.014374985596489,0.0042446000520318,0.0045031164513543,0.0056272690931031,-0.00090723421162085,0.00090723537961621,-5.2517269851985e-09,6.4285206659005e-09,-5.398118361366e-09,6.8396501976167e-09,-0.00112165029739,0.0011216435475012,-0.0011216464134865,0.001121647453326,-0.0011216464793444,0.0011216475643045,-0.0011216425845767,0.0011216514653313,-0.001004833124047,0.0010048269056885,-0.0010048216611424,0.0010048383158994,5.2116083655754e-09,-6.8223210029841e-09,2.6130235126593e-09,-3.9437549270249e-09,-0.00098373699033758,0.00098373567604703,-0.0011922390435677,0.0011922438285377,-0.0011922411264322,0.0011922416504103,-0.0011922428064474,0.0011922398843441,-0.001192244882359,0.0011922377051091,-0.0010766142489487,0.0010766153734565,-0.0010766205519652,0.0010766088002168,-0.00097250652759775,0.00097251473367962,-0.00097251829224434,0.00097250260545192,6.4083158905837e-09,-5.2016368450943e-09,-0.0013275216176631,0.0013275228024135,-2.5259462861337e-09,3.9154915768612e-09,-0.001560948226983,0.0015609510797012,-0.0015609460946722,0.0015609531652546,-0.0015609521129826,0.0015609472245993,-0.0015609499849189,0.0015609493200801,-0.001236814926948,0.00123680690427,-0.0012368035366343,0.001236818255295,0.63260005284613,131329,3014,0.0037759492727743,0.0040923954840634,0.0055135632746463,15.414925364829,-0.00011668059708137,-0.00011668059708137,-0.00011668059708137,4074206.9301932,0.013473470052069
23219200,0.99000071565362,0.0143776332295,0.0042453759985473,0.0045039313541392,0.0056283258768133,-0.00090760626620777,0.00090760743336541,-5.3106237395313e-09,6.4865776115654e-09,-5.3794898839826e-09,6.8199747186891e-09,-0.0011220565975774,0.0011220498204917,-0.0011220526743669,0.0011220537656693,-0.0011220527921073,0.0011220538245307,-0.0011220488586424,0.0011220577643327,-0.0010052292472391,0.0010052229016744,-0.00100521767068,0.0010052344256611,5.2196340295269e-09,-6.8308960203688e-09,2.6021585306997e-09,-3.9333477058521e-09,-0.00098411933747819,0.00098411802275007,-0.0011926546776542,0.0011926594606559,-0.0011926567532018,0.0011926572899659,-0.0011926584460868,0.0011926555109629,-0.0011926605152815,0.001192653338581,-0.0010770104766235,0.0010770115752922,-0.0010770167596604,0.0010770050221578,-0.00097288802079351,0.00097289625059498,-0.00097289980282766,0.00097288410524484,6.4634108940574e-09,-5.2572604573606e-09,-0.0013279653634497,0.0013279665476879,-2.5167511305982e-09,3.9056800542141e-09,-0.0015614210624783,0.0015614239575308,-0.0015614189361366,0.0015614260370169,-0.0015614249849979,0.0015614200659261,-0.0015614228635414,0.0015614221547739,-0.0012372375959455,0.0012372294572499,-0.0012372260966046,0.0012372409174524,0.65900012268131,131329,3014,0.003777494161651,0.0040939820658213,0.0055154016044996,15.525949145836,-0.00011579240683331,-0.00011579240683331,-0.00011579240683331,4078798.9418416,0.013478505947117
23419200,0.99020019863419,0.014380228095645,0.0042461354095953,0.0045047292940121,0.0056293633920376,-0.00090807819607339,0.00090807936360605,-5.3674923722924e-09,6.5437991852209e-09,-5.3876380036807e-09,6.8285415372139e-09,-0.0011226138359463,0.0011226070157022,-0.0011226098748187,0.0011226109987904,-0.0011226100249852,0.0011226110252313,-0.001122606053369,0.0011226150031904,-0.001005731521157,0.0010057250693234,-0.0010057198323763,0.0010057367051377,5.2300195068153e-09,-6.8419396798749e-09,2.5920129602033e-09,-3.9237339232186e-09,-0.00098460631389538,0.00098460499866291,-0.0011932216462909,0.0011932264294705,-0.0011932237154169,0.0011932242652471,-0.0011932254219127,0.0011932224725297,-0.0011932274844375,0.0011932203068477,-0.0010775258059995,0.0010775268769947,-0.0010775320691879,0.0010775203434158,-0.00097339828218576,0.0009734065384459,-0.00097341008496802,0.00097339437258777,6.5199399420161e-09,-5.3142933666914e-09,-0.0013285328300949,0.001328534013766,-2.5073741806458e-09,3.895695849313e-09,-0.0015620516169622,0.0015620545558404,-0.0015620494972149,0.0015620566287606,-0.0015620555774673,0.0015620506262715,-0.001562053462329,0.001562052708753,-0.0012378078554014,0.0012377995989414,-0.0012377962450884,0.0012378111700441,0.65256370681208,131329,3014,0.0037794555445622,0.0040960045664857,0.0055177507341537,15.704721122429,-0.00011436223102057,-0.00011436223102057,-0.00011436223102057,4081670.068132,0.013484925958768
23619200,0.99040222294235,0.014382922259137,0.004246925820302,0.004505559268324,0.0056304371705106,-0.00090914974478514,0.00090915091148146,-5.4261147328019e-09,6.6013927183368e-09,-5.3773760250889e-09,6.8170589742336e-09,-0.0011237875911818,0.0011237807386305,-0.0011237835909807,0.0011237847603391,-0.0011237837873099,0.0011237847410098,-0.0011237797767842,0.0011237887573867,-0.0010068644105861,0.0010068578370246,-0.0010068526071334,0.0010068695854246,5.2373009096009e-09,-6.8505504185507e-09,2.5764767021195e-09,-3.9091236678921e-09,-0.00098570814286337,0.00098570682697714,-0.0011944179446533,0.0011944227227548,-0.0011944200034118,0.0011944205683768,-0.0011944217251364,0.0011944187602316,-0.0011944237775309,0.0011944166042791,-0.0010786824385425,0.0010786834734994,-0.0010786886715316,0.0010786769681153,-0.0009745347003447,0.00097454298020051,-0.00097454651986984,0.0009745307989598,6.5752915875319e-09,-5.3705213427889e-09,-0.0013297435491645,0.0013297447317465,-2.4937558805579e-09,3.8810675959314e-09,-0.0015633375720745,0.0015633405562071,-0.0015633354618794,0.0015633426200057,-0.0015633415695134,0.0015633365893546,-0.0015633394637888,0.0015633386621948,-0.0012390170680089,0.0012390086924859,-0.0012390053484149,0.0012390203734584,0.66669036294206,131329,3014,0.0037839071693627,0.0041005788847332,0.0055227640625241,16.219836232454,-0.00011024131014037,-0.00011024131014037,-0.00011024131014037,4091025.8357932,0.013499156727826
23819200,0.99060675092424,0.014385809943488,0.0042477771438574,0.0045064521186995,0.0056315806809307,-0.00091023040130909,0.00091023156866157,-5.4829535480328e-09,6.6589885660879e-09,-5.386796079048e-09,6.8274191462375e-09,-0.0011250007806682,0.0011249938838491,-0.0011249967426426,0.001124997943969,-0.0011249969700239,0.001124997892734,-0.0011249929217248,0.0011250019475839,-0.0010080135769964,0.0010080068984147,-0.0010080016621007,0.0010080187592537,5.2464843311613e-09,-6.8598687920279e-09,2.5638288377324e-09,-3.8968898552858e-09,-0.0009868214522996,0.00098682013591685,-0.0011956531720926,0.0011956579472157,-0.001195655222998,0.0011956558015055,-0.0011956569589235,0.0011956539789154,-0.0011956590034255,0.0011956518315977,-0.0010798615185765,0.0010798625226363,-0.0010798677275237,0.0010798560424425,-0.00097569992452823,0.00097570823137631,-0.00097571176135578,0.00097569603174464,6.6318568074445e-09,-5.4273436643765e-09,-0.0013309780240963,0.0013309792064371,-2.481220526769e-09,3.8681527325892e-09,-0.0015646676687787,0.0015646706990705,-0.0015646655668459,0.0015646727541127,-0.0015646717042517,0.0015646666946242,-0.0015646696069366,0.0015646687588924,-0.0012402664590193,0.0012402579630634,-0.001240254628445,0.0012402697550327,0.70079156775544,131329,3014,0.0037883977543194,0.0041052018278801,0.0055278746665575,16.742481515102,-0.00010606014787918,-0.00010606014787918,-0.00010606014787918,4098902.6855336,0.013513576365375
24019200,0.99081364051291,0.014388766578447,0.0042486492353974,0.0045073667577113,0.0056327505853387,-0.00091128572049133,0.00091128688899898,-5.5386891577599e-09,6.7159130074382e-09,-5.4080911504394e-09,6.8501397656382e-09,-0.0011262513647457,0.0011262444169422,-0.0011262472890378,0.0011262485145779,-0.0011262475397179,0.0011262484405469,-0.0011262434537471,0.001126252532893,-0.0010091406471582,0.0010091338744517,-0.0010091286223764,0.0010091458457059,5.2570913399337e-09,-6.8707208517163e-09,2.5529698967068e-09,-3.8862508811265e-09,-0.00098791161799785,0.00098791030129978,-0.0011969221661629,0.0011969269410084,-0.0011969242098509,0.0011969248024032,-0.0011969259602541,0.0011969229654909,-0.0011969279975428,0.0011969208252455,-0.0010810301785972,0.0010810311545126,-0.0010810363669843,0.0010810246954932,-0.00097687525093286,0.00097688358636762,-0.00097688710883255,0.00097687136509462,6.6890236569776e-09,-5.4853102489489e-09,-0.0013322103054207,0.0013322114869975,-2.4705964118284e-09,3.8566060220098e-09,-0.0015660335292209,0.0015660366045345,-0.0015660314347453,0.0015660386522645,-0.0015660376030704,0.0015660325617727,-0.0015660355132587,0.0015660346187455,-0.0012415488362059,0.0012415402190714,-0.0012415368924736,0.0012415521237675,0.70866202504459,131329,3014,0.0037927854661384,0.0041097307891603,0.005532973784063,17.265389011155,-0.00010187688791076,-0.00010187688791076,-0.00010187688791076,4103367.1375677,0.013527787707759
24219200,0.99102149636691,0.014391598433035,0.0042494806177235,0.0045082399229778,0.0056338778923334,-0.00091215522782436,0.00091215639679363,-5.5961145913347e-09,6.7738552786063e-09,-5.4155716548857e-09,6.8583345295585e-09,-0.001127325896853,0.0011273189045649,-0.0011273217812071,0.0011273230422367,-0.0011273220654626,0.0011273229347429,-0.0011273179424579,0.0011273270641722,-0.0010100680779595,0.0010100612029946,-0.0010100559461464,0.0010100732840156,5.3131552693983e-09,-6.9292014674457e-09,2.5458042443208e-09,-3.8811047329516e-09,-0.00098881204886458,0.00098881072974714,-0.0011980107390157,0.0011980155440036,-0.0011980127772101,0.0011980134110213,-0.0011980145699788,0.0011980115316187,-0.0011980166047493,0.0011980093941111,-0.0010819970210936,0.0010819979500446,-0.0010820032036494,0.0010819915002071,-0.00097786243096799,0.00097787088622014,-0.00097787440490968,0.00097785854678313,6.7447210655189e-09,-5.542021656572e-09,-0.0013332513032574,0.0013332524842335,-2.4653002555636e-09,3.8501878416984e-09,-0.0015672109515334,0.0015672140664651,-0.001567208859562,0.0015672161118192,-0.001567215061493,0.0015672099879823,-0.00156721297696,0.0015672120395307,-0.00124264584312,0.0012426371060094,-0.0012426337850911,0.0012426491256871,0.68010065232773,131329,3014,0.0037964020219736,0.0041134726087768,0.0055372800023396,17.693095263506,-9.845523789195e-05,-9.845523789195e-05,-9.845523789195e-05,4105674.3680746,0.013539616268111
24419200,0.9912271322648,0.014394396707607,0.0042503021863878,0.0045091027392583,0.0056349917819609,-0.00091262292539766,0.00091262409806908,-5.6492421948523e-09,6.8303460008535e-09,-5.5166413575698e-09,6.9638702603673e-09,-0.0011279275270003,0.0011279204353335,-0.0011279233768503,0.0011279246071559,-0.0011279236293265,0.0011279245322803,-0.0011279194673221,0.0011279287002574,-0.0010105739666371,0.0010105670504663,-0.0010105617202523,0.0010105792450235,5.3203419012704e-09,-6.9365357281813e-09,2.5482292421165e-09,-3.8837517213265e-09,-0.00098929902872419,0.00098929770949433,-0.0011986216931252,0.0011986265067067,-0.0011986237349825,0.0011986243694853,-0.0011986255306229,0.0011986224868843,-0.001198627564721,0.0011986203496998,-0.0010825231896203,0.001082524111857,-0.0010825293700517,0.0010825176633202,-0.00097839956865314,0.00097840802984689,-0.00097841154963194,0.00097839568228936,6.8035936952357e-09,-5.6012144768014e-09,-0.0013338441813887,0.0013338453620623,-2.4668035891672e-09,3.8513623369361e-09,-0.0015678946262173,0.0015678977817179,-0.0015678925358131,0.0015678998258741,-0.0015678987776129,0.0015678936614339,-0.0015678966898719,0.0015678957159576,-0.0012432652261851,0.0012432563807455,-0.0012432530591661,0.001243268509988,0.67934591513029,131329,3014,0.0037983477708468,0.0041154964649633,0.0055397322320669,17.885170509957,-9.6918635920342e-05,-9.6918635920342e-05,-9.6918635920342e-05,4106753.2974427,0.013546127973892
24619200,0.99143044262526,0.01439730498615,0.0042511600729178,0.0045100024448036,0.005636142468429,-0.00091308822394169,0.000913089399098,-5.7050342130032e-09,6.8887773644919e-09,-5.5653447677434e-09,7.0155478492995e-09,-0.0011285141934239,0.0011285070328419,-0.0011285100056109,0.0011285112425867,-0.0011285102626677,0.0011285111628969,-0.0011285060625346,0.0011285153693995,-0.0010110828635967,0.0010110758702915,-0.0010110705042975,0.0010110881772244,5.3728827727552e-09,-6.9925468553832e-09,2.5509041669743e-09,-3.8890592932507e-09,-0.00098978352106005,0.00098978219923212,-0.001199218343543,0.0011992231940576,-0.0011992203885188,0.0011992210541853,-0.0011992222179025,0.0011992191377927,-0.0011992242544546,0.0011992169983462,-0.0010830521578778,0.0010830530478789,-0.0010830583446301,0.0010830465918428,-0.00097893324194414,0.00097894180289857,-0.00097894532998158,0.00097892935003445,6.860861970141e-09,-5.6574578734278e-09,-0.0013344312062673,0.0013344323877761,-2.4707148030646e-09,3.8563731162425e-09,-0.0015685657122463,0.0015685689033003,-0.0015685636187207,0.0015685709498973,-0.0015685699016996,0.0015685647449975,-0.0015685678109309,0.0015685668030121,-0.001243878595495,0.0012438696439879,-0.0012438663175852,0.0012438818822178,0.70944460161332,131329,3014,0.0038002831737933,0.0041175097343499,0.0055421605960122,18.071957076231,-9.5424343390149e-05,-9.5424343390149e-05,-9.5424343390149e-05,4107831.8149117,0.013552594069904
24819200,0.99163139133945,0.014399953226847,0.0042519350154898,0.0045108170706956,0.0056372011406616,-0.00091352041749775,0.00091352159355427,-5.7627697015472e-09,6.9474198961205e-09,-5.5915256539353e-09,7.042897340703e-09,-0.001129120295517,0.0011291130779544,-0.0011291160677782,0.0011291173276414,-0.0011291163457418,0.0011291172270792,-0.0011291121079781,0.0011291214712278,-0.0010115485515269,0.0010115414663141,-0.0010115360817349,0.0010115538837476,5.4399348295514e-09,-7.0633993235065e-09,2.5544195253955e-09,-3.8956486207561e-09,-0.00099023569162496,0.00099023436668878,-0.0011998310081594,0.001199835903742,-0.0011998330553571,0.0011998337616606,-0.0011998349270563,0.0011998318026428,-0.0011998369681161,0.001199829658689,-0.0010835468601388,0.0010835477142767,-0.0010835530602358,0.0010835412449294,-0.00097945372960308,0.00097946242260782,-0.00097946595634782,0.00097944983059356,6.9167182049479e-09,-5.7129409194588e-09,-0.0013350001096013,0.0013350012914639,-2.4759965101239e-09,3.8620718002987e-09,-0.0015692496144007,0.0015692528380783,-0.0015692475160038,0.0015692548894319,-0.0015692538398016,0.0015692486438411,-0.0015692517464723,0.0015692507043102,-0.0012444975921277,0.001244488532259,-0.0012444852020219,0.001244500883028,0.66112229212925,131329,3014,0.0038020828527256,0.0041193905049632,0.0055445121591337,18.258559384009,-9.393152492793e-05,-9.393152492793e-05,-9.393152492793e-05,4106258.0151869,0.01355871273611
25019200,0.99183224018756,0.014402566531687,0.0042526991574657,0.0045116204364938,0.0056382469377278,-0.00091430725669479,0.0009143084330149,-5.8192469674702e-09,7.0037113978361e-09,-5.6222729573028e-09,7.0737415241109e-09,-0.0011300123089266,0.0011300050335896,-0.0011300080430368,0.0011300093210299,-0.0011300083385106,0.0011300092034903,-0.0011300040631336,0.0011300134846774,-0.001012380932065,0.0010123737579419,-0.0010123683508922,0.0010123862831134,5.4517091277253e-09,-7.0767371644233e-09,2.5571354259505e-09,-3.8997352502869e-09,-0.00099104807471157,0.00099104674899971,-0.0012007412274103,0.0012007461330911,-0.0012007432762297,0.0012007439886614,-0.0012007451538529,0.0012007420233047,-0.001200747197294,0.0012007398765325,-0.0010843974006196,0.0010843982515188,-0.0010844036065528,0.0010843917727127,-0.00098030042176013,0.00098030913509514,-0.00098031267415535,0.00098029651781646,6.9742505010228e-09,-5.7703143004473e-09,-0.0013359299512989,0.0013359311329706,-2.4785016257708e-09,3.864786066468e-09,-0.0015702481827615,0.0015702514422767,-0.0015702460826844,0.0015702534959791,-0.0015702524459958,0.0015702472098494,-0.0015702503510106,0.0015702492714748,-0.0012454303953876,0.0012454212250595,-0.0012454178918483,0.0012454336898055,0.6536253909549,131329,3014,0.0038053524838063,0.0041227635115232,0.0055483613879892,18.630347331569,-9.0957221347447e-05,-9.0957221347447e-05,-9.0957221347447e-05,4112798.3586929,0.01356934826911
25219200,0.99203622688209,0.014405319393809,0.0042535069897649,0.0045124688942681,0.0056393435097761,-0.00091558221915759,0.0009155833945247,-5.8781725568927e-09,7.0618767611301e-09,-5.5914186135877e-09,7.041800664294e-09,-0.0011313995287725,0.0011313922345625,-0.001131395224463,0.0011313965604531,-0.0011313955795402,0.0011313963830948,-0.0011313912646361,0.0011314007039607,-0.0010137253372414,0.0010137180246924,-0.0010137126401772,0.0010137306667884,5.4615688891502e-09,-7.0868758120494e-09,2.5552832655635e-09,-3.8979596608775e-09,-0.00099236121842554,0.00099235989247202,-0.0012021583404181,0.001202163251614,-0.0012021603886901,0.0012021611079385,-0.0012021622740865,0.0012021591349903,-0.001202164315727,0.0012021569900459,-0.0010857693931863,0.0010857702321973,-0.001085775594186,0.001085763759158,-0.00098165383039069,0.00098166256278751,-0.00098166610118177,0.00098164992789717,7.0296423810153e-09,-5.8256446776716e-09,-0.0013373886865676,0.0013373898683792,-2.4786198342478e-09,3.8649585130234e-09,-0.0015717806876306,0.0015717839846241,-0.0015717785879238,0.0015717860377683,-0.0015717849884161,0.0015717797147623,-0.0015717828928047,0.0015717817771892,-0.0012468859820981,0.001246876704825,-0.0012468733717824,0.0012468892761988,0.67454675176007,131329,3014,0.0038106489242588,0.0041282145608816,0.0055544014930999,19.27167787683,-8.5826576985364e-05,-8.5826576985364e-05,-8.5826576985364e-05,4124708.8499177,0.013586365450304
25419200,0.9922432265134,0.014408366665168,0.0042544078248015,0.0045134131875312,0.0056405456528357,-0.00091686307337801,0.00091686424941134,-5.9326846953196e-09,7.1172290184801e-09,-5.6010788682677e-09,7.0524473146638e-09,-0.0011328319174296,0.0011328245797848,-0.0011328275760617,0.0011328289431024,-0.0011328279608467,0.0011328287357013,-0.0011328236101606,0.0011328330927785,-0.0010150851941445,0.0010150777835612,-0.0010150723924152,0.0010150905319831,5.4215908633662e-09,-7.0437248440318e-09,2.5580949692446e-09,-3.8981884928537e-09,-0.00099368318412678,0.00099368186050948,-0.0012036179217837,0.001203622807621,-0.0012036199706917,0.0012036206638102,-0.001203621827482,0.0012036187197404,-0.0012036238709652,0.001203616573367,-0.00108717391792,0.0010871747925984,-0.0010871801245962,0.0010871683156123,-0.00098303686268911,0.00098304551787453,-0.00098304905302998,0.00098303296267544,7.0880068371977e-09,-5.8852229555961e-09,-0.0013388831161807,0.0013388842969263,-2.4786286416552e-09,3.8637433642924e-09,-0.0015733748775086,0.0015733782127237,-0.0015733727774414,0.0015733802659314,-0.0015733792171793,0.0015733739043523,-0.0015733771227176,0.0015733759658501,-0.0012484078213051,0.0012483984243763,-0.0012483950932836,0.0012484111128095,0.72789191575362,131329,3014,0.0038159713568749,0.0041337036223266,0.0055605879032988,19.919079498316,-8.0647364013473e-05,-8.0647364013473e-05,-8.0647364013473e-05,4134475.0018082,0.0136035980501
25619200,0.99245302099067,0.014411474003918,0.0042553260774718,0.0045143759836853,0.0056417719427614,-0.00091810345975692,0.00091810463449226,-5.9911036701306e-09,7.1743717875136e-09,-5.5753713854666e-09,7.0252206198912e-09,-0.0011343205573557,0.0011343131978841,-0.0011343161777379,0.0011343175994381,-0.0011343166186942,0.0011343173357635,-0.0011343122291588,0.0011343217316682,-0.0010164067283611,0.0010163991848501,-0.0010163938126117,0.0010164120474404,5.4141642375161e-09,-7.0354611001232e-09,2.5594532720628e-09,-3.8988454549144e-09,-0.00099496745328536,0.00099496613033774,-0.0012051272443721,0.0012051321267357,-0.0012051292942482,0.0012051299819566,-0.0012051311453318,0.0012051280436648,-0.0012051331891802,0.0012051258969106,-0.0010885601492318,0.0010885610310319,-0.0010885663570719,0.0010885545530855,-0.00098443210814829,0.00098444074758858,-0.00098444428248339,0.00098442820845825,7.1441373535078e-09,-5.9413243565604e-09,-0.0013403750769176,0.0013403762576865,-2.4802973023553e-09,3.8654437923455e-09,-0.0015750243943221,0.0015750277660806,-0.0015750222933878,0.0015750298200937,-0.001575028771613,0.0015750234200173,-0.0015750266757453,0.0015750254830041,-0.0012499832471229,0.0012499737422133,-0.0012499704099765,0.0012499865396756,0.73243475446772,131329,3014,0.0038211293144639,0.0041390395058968,0.0055667603860919,20.566685123478,-7.5466519012172e-05,-7.5466519012172e-05,-7.5466519012172e-05,4139131.5111702,0.013620499053858
25819200,0.99266016173647,0.014414451724401,0.0042562033671177,0.004515296626825,0.0056429517304578,-0.00091860755091124,0.00091860872741536,-6.0492068020316e-09,7.2342950801041e-09,-5.616842684488e-09,7.0689846178135e-09,-0.0011350503954625,0.0011350429721778,-0.0011350459788682,0.0011350474106432,-0.0011350464308545,0.001135047136332,-0.0011350419994779,0.0011350515739792,-0.0010169579969027,0.0010169503615784,-0.0010169449594731,0.0010169633473865,5.4017697674888e-09,-7.0210457097609e-09,2.5719619789295e-09,-3.9096502205879e-09,-0.00099549660001213,0.00099549527842771,-0.0012058632489743,0.001205868133429,-0.0012058653089667,0.0012058659783923,-0.0012058671432657,0.001205864057068,-0.0012058691924123,0.0012058619049278,-0.001089152891501,0.0010891538005491,-0.0010891591160935,0.0010891473075917,-0.00098506100246228,0.00098506960375871,-0.0009850731428168,0.00098505709715354,7.1991559463746e-09,-5.9959180892299e-09,-0.0013410686612185,0.0013410698426749,-2.4924924712424e-09,3.8781534310453e-09,-0.0015758594429285,0.0015758628462755,-0.0015758573361208,0.0015758649061853,-0.0015758638591752,0.0015758584613009,-0.0015758617525872,0.0015758605349899,-0.0012507561010074,0.001250746503991,-0.0012507431638733,0.0012507594023002,0.71386319704391,131329,3014,0.0038232295936221,0.0041412413197114,0.0055696260898376,20.805349165114,-7.3557206679085e-05,-7.3557206679085e-05,-7.3557206679085e-05,4136403.4769459,0.013627771091582
26019200,0.9928600617192,0.014417200736926,0.0042570101017341,0.004516144063571,0.0056440465716212,-0.00091846545187716,0.00091846662882029,-6.10424810344e-09,7.2897513922753e-09,-5.6320520499406e-09,7.0848029560741e-09,-0.0011350629636461,0.0011350554916236,-0.0011350585079914,0.0011350599693235,-0.0011350589866724,0.0011350596681161,-0.0011350545209282,0.0011350641403369,-0.0010168289576901,0.0010168212315197,-0.001016815818922,0.001016834318482,5.4614032402189e-09,-7.084135460995e-09,2.5895409406943e-09,-3.9301585204921e-09,-0.00099536139120439,0.00099536006676657,-0.0012058715049086,0.0012058764382345,-0.0012058735752989,0.0012058742729584,-0.0012058754381264,0.0012058723229584,-0.001205877502331,0.0012058701558587,-0.0010890420271455,0.001089042936143,-0.0010890482955657,0.0010890363989008,-0.00098498825272356,0.00098499696581803,-0.0009850005206353,0.00098498433156383,7.258291795168e-09,-6.0538025469583e-09,-0.0013410369843804,0.0013410381670243,-2.5094742987533e-09,3.8965628940018e-09,-0.0015759250920766,0.0015759285213941,-0.0015759229709383,0.0015759305953091,-0.0015759295450426,0.0015759240997486,-0.0015759274290761,0.0015759261829295,-0.0012507776470338,0.0012507679419478,-0.0012507645882572,0.001250780960772,0.68688292263229,131329,3014,0.0038226444220485,0.0041406841774863,0.0055694898637185,20.675608195781,-7.4595134433751e-05,-7.4595134433751e-05,-7.4595134433751e-05,4129183.6352862,0.013626478698014
26219200,0.99305291488045,0.014420025703569,0.004257844496061,0.0045170187199114,0.0056451624875969,-0.00091833572152391,0.0009183368990314,-6.1607677463919e-09,7.3467957070224e-09,-5.6525300734981e-09,7.1059490652514e-09,-0.0011350224810141,0.0011350149574169,-0.0011350179871436,0.0011350194732616,-0.0011350184898335,0.0011350191482054,-0.0011350139864535,0.0011350236579377,-0.0010167182089072,0.0010167103866775,-0.001016704959645,0.0010167235839335,5.5010048607687e-09,-7.1261535940022e-09,2.6059101462196e-09,-3.9482851496162e-09,-0.00099523620610201,0.00099523487988329,-0.001205829816329,0.0012058347862026,-0.0012058318977985,0.0012058326096697,-0.0012058337760846,0.001205830644026,-0.001205835851956,0.0012058284650826,-0.0010889387423635,0.0010889396568312,-0.0010889450452916,0.0010889330847122,-0.00098489944329187,0.00098490822319852,-0.00098491179226116,0.00098489550813361,7.315719001865e-09,-6.1103502441708e-09,-0.0013409932715345,0.001340994455045,-2.5267119199794e-09,3.9148507821429e-09,-0.0015759396726433,0.0015759431285922,-0.0015759375394011,0.001575945214702,-0.0015759441632624,0.0015759386692617,-0.0015759420356077,0.0015759407639434,-0.0012507599561963,0.0012507501512088,-0.0012507467849313,0.0012507632831263,0.72524661712989,131329,3014,0.0038221083341013,0.0041401666561264,0.0055693060673906,20.537519989321,-7.5699840085428e-05,-7.5699840085428e-05,-7.5699840085428e-05,4124610.7865115,0.013625225466893
26419200,0.99323900654425,0.014422835985382,0.0042586766744027,0.0045178903433583,0.0056462689676213,-0.00091818406990656,0.0009181852482568,-6.2175778651465e-09,7.4044294226167e-09,-5.6766951463305e-09,7.1311559531689e-09,-0.0011350148871856,0.0011350073100597,-0.0011350103554908,0.0011350118637734,-0.0011350108798429,0.0011350115170612,-0.0011350063380234,0.0011350160652685,-0.0010165852056342,0.0010165772876475,-0.0010165718432993,0.0010165905977678,5.5242025470653e-09,-7.1506578529875e-09,2.621812330064e-09,-3.9651943099466e-09,-0.0009950897945857,0.00099508846739306,-0.0012058167466972,0.0012058217427348,-0.0012058188393728,0.0012058195549805,-0.0012058207225279,0.0012058175844178,-0.0012058228089892,0.0012058153948514,-0.0010888248096715,0.0010888257383821,-0.0010888311436643,0.0010888191349114,-0.00098481874238277,0.00098482755584967,-0.00098483113728064,0.0009848147949912,7.3727191794311e-09,-6.166444056661e-09,-0.0013409416883859,0.001340942872792,-2.5427938915097e-09,3.9319819859435e-09,-0.0015759799785613,0.0015759834622728,-0.0015759778345541,0.0015759855591421,-0.0015759845072192,0.001575978964995,-0.0015759823681312,0.001575981071026,-0.0012507705594032,0.0012507606565352,-0.0012507572781431,0.0012507738983139,0.7450275603866,131329,3014,0.0038214831728774,0.0041395630138307,0.0055690877973925,20.399140300303,-7.6806877597572e-05,-7.6806877597572e-05,-7.6806877597572e-05,4116758.0762697,0.013623762554383
26619200,0.99342270706574,0.014425582348149,0.0042594893145827,0.00451874156502,0.0056473514685467,-0.00091866555023584,0.00091866672872116,-6.2803236699817e-09,7.4671793417086e-09,-5.6868507493779e-09,7.1412331292298e-09,-0.0011356999007736,0.0011356922782713,-0.001135695330437,0.0011356968708449,-0.0011356958896112,0.0011356964890025,-0.0011356913028215,0.0011357010823406,-0.0010171116032432,0.0010171035602885,-0.0010170981079568,0.0010171170010814,5.4792283103296e-09,-7.1038000560621e-09,2.6261174391442e-09,-3.9677833178943e-09,-0.0009955919242879,0.00099559059917082,-0.0012065052715657,0.0012065102447027,-0.0012065073697713,0.0012065080515779,-0.0012065092199,0.0012065061140363,-0.0012065113056168,0.0012065039254306,-0.0010893875337047,0.0010893884918408,-0.0010893938641455,0.0010893818893679,-0.00098541873766019,0.00098542744973642,-0.00098543103407688,0.00098541478923494,7.4247896098917e-09,-6.2164319215661e-09,-0.0013415849890774,0.0013415861752789,-2.5478270688084e-09,3.9391915029624e-09,-0.0015767470645401,0.0015767505827812,-0.0015767449196162,0.0015767526806069,-0.0015767516303314,0.0015767460484684,-0.0015767494839899,0.0015767481616852,-0.0012514963104678,0.0012514863233801,-0.0012514829377853,0.001251499655807,0.73848440596394,131329,3014,0.003823488818559,0.0041416522703861,0.0055717458399764,20.630140178957,-7.4958878568345e-05,-7.4958878568345e-05,-7.4958878568345e-05,4114195.6882366,0.0136306135666
26819200,0.99360623055358,0.01442825258783,0.0042602776263548,0.0045195677598894,0.0056484072015853,-0.00091950326612136,0.00091950444364408,-6.3436205852162e-09,7.5292720949352e-09,-5.6731350444715e-09,7.1262876121875e-09,-0.0011367489331397,0.0011367412797019,-0.0011367443227742,0.0011367459114931,-0.0011367449337124,0.0011367454786759,-0.0011367403025827,0.001136750115545,-0.0010180056798382,0.001017997497309,-0.001017992054182,0.0010180110655232,5.4163331437581e-09,-7.0376583765384e-09,2.6252291918802e-09,-3.964528854505e-09,-0.00099645759859997,0.00099645627645696,-0.0012075644814446,0.0012075694158634,-0.0012075665799443,0.0012075672215074,-0.0012075683888515,0.0012075653254137,-0.0012075704705555,0.0012075631398967,-0.0010903203049885,0.001090321297188,-0.0010903266237878,0.0010903147033081,-0.00098638288058237,0.00098639146361585,-0.00098639504510785,0.00098637893609335,7.4758871182508e-09,-6.2675154479994e-09,-0.0013426243960555,0.001342625581894,-2.5468983940611e-09,3.9382541117755e-09,-0.0015779120137722,0.0015779155682883,-0.0015779098717785,0.0015779176635826,-0.0015779166154799,0.0015779109971887,-0.0015779144678216,0.0015779131119533,-0.0012526096163704,0.001252599536045,-0.0012525961495566,0.0012526129616696,0.72121905732246,131329,3014,0.0038269737668212,0.0041452500011562,0.0055760444440408,21.065088522167,-7.1479291822663e-05,-7.1479291822663e-05,-7.1479291822663e-05,4116464.0414816,0.01364215583132
27019200,0.99378947270483,0.014430837970531,0.0042610387372412,0.0045203660339769,0.005649433199313,-0.00092035584791169,0.00092035702187064,-6.3911224977418e-09,7.5735461811864e-09,-5.5853138321728e-09,7.0343906889872e-09,-0.0011377850464053,0.0011377774141333,-0.0011377804008001,0.0011377820817353,-0.0011377811020394,0.0011377815576476,-0.0011377764458513,0.0011377862202371,-0.0010189110919088,0.0010189027712255,-0.0010188973934115,0.0010189164164754,5.4284156201217e-09,-7.049368259247e-09,2.6244844331651e-09,-3.9633801932297e-09,-0.00099733724742486,0.00099733592494285,-0.0012086127969905,0.0012086177333324,-0.0012086148902042,0.0012086155450226,-0.0012086167083227,0.001208613639879,-0.0012086187948692,0.0012086114502606,-0.001091256887511,0.0010912578861508,-0.0010912632212612,0.0010912512817778,-0.00098734244105303,0.00098735106515949,-0.00098735464308341,0.00098733849842788,7.5433542129421e-09,-6.335810526161e-09,-0.001343672744744,0.001343673930282,-2.5429384533581e-09,3.9333915962926e-09,-0.0015790688049693,0.001579072403052,-0.0015790666605451,0.0015790745001415,-0.0015790734472747,0.0015790677917619,-0.0015790713077652,0.0015790698985165,-0.0012537106288054,0.0012537003959308,-0.0012536970148505,0.0012537139692483,0.70228506314583,131329,3014,0.0038305193456327,0.0041489045744913,0.0055803811682036,21.504696751739,-6.7962425986091e-05,-6.7962425986091e-05,-6.7962425986091e-05,4120586.6360059,0.013653854411655
27219200,0.99397227456022,0.014433330400926,0.0042617700846986,0.0045211337751504,0.0056504265410766,-0.00092121738442642,0.00092121855753041,-6.4522087187173e-09,7.6338261950557e-09,-5.5645711550532e-09,7.0126221848236e-09,-0.0011387957610467,0.0011387881028679,-0.001138791076489,0.0011387928094315,-0.0011387918321253,0.0011387922308486,-0.0011387871337519,0.0011387969356324,-0.0010198229362818,0.0010198144766159,-0.0010198091139349,0.0010198282455409,5.3784000201163e-09,-6.9961934310655e-09,2.6221236661315e-09,-3.9584492856653e-09,-0.00099822519561237,0.00099822387571788,-0.001209638459773,0.0012096433629358,-0.0012096405521883,0.001209641175453,-0.0012096423380384,0.0012096393028434,-0.0012096444205495,0.0012096371173025,-0.0010921944046813,0.0010921954283814,-0.0010922007264399,0.0010921888358311,-0.00098828851402104,0.00098829703694335,-0.00098830060963553,0.00098828457710321,7.5964213883057e-09,-6.3890706613358e-09,-0.0013447225079864,0.0013447236932697,-2.5404130682716e-09,3.9306612382326e-09,-0.0015802081683246,0.0015802118046437,-0.0015802060273722,0.0015802138984183,-0.0015802128475196,0.0015802071566091,-0.001580210708001,0.0015802092633176,-0.0012547911260797,0.0012547807915482,-0.0012547774127136,0.0012547944648736,0.6819177309085,131329,3014,0.0038341007713278,0.004152592325873,0.0055847251135857,21.94446801946,-6.4444255844322e-05,-6.4444255844322e-05,-6.4444255844322e-05,4126493.779568,0.013665628861317
27419200,0.99415303831566,0.014435879836835,0.0042625205678609,0.0045219208444847,0.0056514384244895,-0.00092186555367169,0.00092186672438124,-6.5062380558935e-09,7.6851261975229e-09,-5.5390790541135e-09,6.9842717251165e-09,-0.0011395425664265,0.0011395348870433,-0.0011395378439816,0.0011395396304337,-0.0011395386536988,0.0011395389990446,-0.0011395339217557,0.0011395437360727,-0.0010205167391811,0.0010205081634369,-0.0010205028208147,0.0010205220299449,5.3695105010084e-09,-6.9860132338135e-09,2.6230628816252e-09,-3.9582460044414e-09,-0.00099889363804298,0.00099889231890958,-0.0012103990591089,0.001210403954899,-0.0012104011488362,0.0012104017685584,-0.001210402928352,0.0012103999019437,-0.0012104050128988,0.0012103977133762,-0.0010929020041515,0.001092903043673,-0.0010929083344934,0.0010928964451582,-0.00098899005886826,0.00098899857173783,-0.0009890021408726,0.00098898612201674,7.6565048510324e-09,-6.4512807579777e-09,-0.0013455261667866,0.001345527350515,-2.5399602309584e-09,3.927972316642e-09,-0.0015810743131041,0.0015810779882704,-0.0015810721716162,0.0015810800837512,-0.0015810790305012,0.0015810733012603,-0.0015810768938944,0.0015810754041835,-0.0012556013669055,0.0012555909029869,-0.0012555875295203,0.0012556047049199,0.70214878887182,131329,3014,0.0038367945262388,0.0041553676635811,0.0055880514623013,22.25257649013,-6.1979388078958e-05,-6.1979388078958e-05,-6.1979388078958e-05,4131802.0960632,0.013674545286291
27619200,0.99433123500555,0.014438434961259,0.0042632736556575,0.004522710372408,0.0056524509331933,-0.00092242967520725,0.00092243084695149,-6.567395359021e-09,7.7476930379724e-09,-5.5344154117317e-09,6.9808176043434e-09,-0.0011402316217235,0.0011402239067635,-0.0011402268609089,0.0011402286891704,-0.0011402277138152,0.0011402280137708,-0.0011402229385394,0.0011402327950358,-0.0010211262500584,0.0010211175435361,-0.001021112203503,0.0010211315388254,5.3571199667497e-09,-6.9730173800798e-09,2.6220606494555e-09,-3.9566048954193e-09,-0.00099947742949248,0.00099947611097598,-0.0012110990803035,0.0012111039695383,-0.0012111011721796,0.0012111017821602,-0.0012111029440781,0.0012110999237383,-0.0012111050254307,0.0012110977389502,-0.0010935315666278,0.0010935326048555,-0.0010935378868007,0.0010935260163481,-0.00098962183395363,0.00098963031543721,-0.00098963388482258,0.00098961789976406,7.7090507550853e-09,-6.5027224149998e-09,-0.0013462480934484,0.0013462492781377,-2.5402505133552e-09,3.9294002184618e-09,-0.0015818767350387,0.0015818804473172,-0.0015818745950426,0.0015818825404518,-0.0015818814898495,0.0015818757234388,-0.0015818793504436,0.001581877830009,-0.0012563487321314,0.0012563381749036,-0.0012563347985876,0.0012563520696795,0.712528076057,131329,3014,0.0038391402814742,0.0041577927875788,0.0055910383595663,22.519519998897,-5.9843840008821e-05,-5.9843840008821e-05,-5.9843840008821e-05,4134359.4224684,0.013682411541219
27819200,0.9945067956157,0.014440997720515,0.0042640300912311,0.0045235030625018,0.0056534645667824,-0.00092298467242724,0.00092298584358901,-6.6195816044141e-09,7.7992806243012e-09,-5.5217477506906e-09,6.9674201604791e-09,-0.0011409274536759,0.0011409197099235,-0.0011409226560116,0.0011409245294749,-0.0011409235519119,0.001140923810558,-0.0011409187446705,0.0011409286240869,-0.00102172935708,0.001021720546753,-0.0010217152155805,0.0010217346357048,5.3634585303226e-09,-6.9802749758634e-09,2.6218291807142e-09,-3.9572755926303e-09,-0.0010000521431793,0.0010000508240348,-0.0012118042257476,0.0012118091168514,-0.0012118063155193,0.0012118069319147,-0.0012118080917526,0.0012118050689886,-0.0012118101758651,0.001211802881766,-0.0010941573438424,0.0010941583837168,-0.0010941636708648,0.0010941517869928,-0.00099025530417519,0.00099026380457918,-0.00099026737564275,0.0009902513687565,7.7712068323186e-09,-6.5644124564702e-09,-0.0013469648597703,0.0013469660446767,-2.5384085028039e-09,3.9280378141411e-09,-0.0015826840471178,0.0015826877994367,-0.0015826819056642,0.001582689893837,-0.0015826888409332,0.0015826830367197,-0.0015826867050519,0.0015826851396985,-0.0012571020742428,0.001257091388335,-0.0012570880120796,0.0012571054110679,0.72383356909874,131329,3014,0.0038414488055486,0.0041601808583007,0.0055940032187038,22.785505605801,-5.7715955153589e-05,-5.7715955153589e-05,-5.7715955153589e-05,4135927.1426853,0.013690181053576
28019200,0.99467966400223,0.014443569844804,0.0042647904478248,0.0045242994861464,0.0056544799108327,-0.00092353140838941,0.0009235325797265,-6.6789946513863e-09,7.858869738777e-09,-5.52454552175e-09,6.9704225127299e-09,-0.0011416319683402,0.0011416241842341,-0.0011416271321531,0.0011416290423319,-0.0011416280657695,0.0011416282856718,-0.001141623217615,0.0011416331401375,-0.0010223263083917,0.0010223173800431,-0.0010223120467459,0.0010223315890012,5.3606523233827e-09,-6.9773608751702e-09,2.6204036606631e-09,-3.9557690703048e-09,-0.0010006186271519,0.0010006173081163,-0.001212516413122,0.0012125213025522,-0.0012125185031282,0.0012125191174252,-0.0012125202783307,0.0012125172555305,-0.0012125223602925,0.0012125150704995,-0.0010947794863873,0.0010947805218754,-0.0010947858069834,0.001094773931468,-0.00099089183275115,0.00099090032497702,-0.00099090389509405,0.00099088789843341,7.8255318041986e-09,-6.6187569905172e-09,-0.001347678146294,0.0013476793311352,-2.5379632900224e-09,3.9275622459341e-09,-0.0015834977384574,0.0015835015282693,-0.0015834955985171,0.0015835036211646,-0.0015835025695949,0.0015834967282853,-0.001583500432765,0.0015834988321931,-0.0012578635474647,0.0012578527581275,-0.0012578493821916,0.0012578668839964,0.73612510208863,131329,3014,0.0038437237091363,0.0041625354129933,0.005596952941077,23.051457553962,-5.5588339568306e-05,-5.5588339568306e-05,-5.5588339568306e-05,4136536.2665671,0.013697868031639
28219200,0.99484911766914,0.014446142983167,0.0042655523098165,0.0045250970839585,0.005655493589392,-0.00092395229495031,0.00092395346614745,-6.7343102767966e-09,7.9138999032315e-09,-5.535193826834e-09,6.9809969938926e-09,-0.0011422230706705,0.0011422152419074,-0.0011422181961721,0.0011422201370407,-0.0011422191605538,0.0011422193513217,-0.0011422142758179,0.0011422242409952,-0.0010227930281137,0.0010227840017996,-0.0010227786614434,0.001022798316967,5.3697618999768e-09,-6.9859741783283e-09,2.6213200689878e-09,-3.9561080265845e-09,-0.0010010562288812,0.0010010549100602,-0.0012131111705565,0.0012131160656132,-0.0012131132593247,0.0012131138801485,-0.0012131150402147,0.0012131120125788,-0.001213117122844,0.0012131098255966,-0.0010952713022885,0.0010952723370255,-0.0010952776277232,0.001095265743625,-0.00099140829387747,0.00099141680713997,-0.00099142037543321,0.00099140435911031,7.8833330019999e-09,-6.678198144572e-09,-0.001348258548763,0.0013482597323177,-2.5386319910647e-09,3.9265238137163e-09,-0.0015841848541123,0.0015841886814397,-0.0015841827139101,0.0015841907755844,-0.0015841897231128,0.001584183842788,-0.0015841875871569,0.0015841859454734,-0.0012585041573336,0.0012584932488415,-0.0012584898761058,0.0012585074936553,0.74948917688937,131329,3014,0.0038454766027377,0.0041643556621222,0.0055993516588449,23.25119883585,-5.3990409313198e-05,-5.3990409313198e-05,-5.3990409313198e-05,4134975.067472,0.013703926304945
28419200,0.99501506461103,0.014448718162692,0.0042663160804967,0.0045258962231491,0.0056565058590466,-0.00092434680516194,0.0009243479772523,-6.7937967532021e-09,7.9743938614179e-09,-5.5427797351191e-09,6.9895748658151e-09,-0.0011428040951277,0.001142796222843,-0.0011427991823304,0.0011428011573446,-0.0011428001805323,0.0011428003364102,-0.0011427952551864,0.0011428052678853,-0.0010232337699263,0.0010232246286519,-0.0010232192823021,0.0010232390641816,5.3864785596676e-09,-7.004173486477e-09,2.6201069979479e-09,-3.9562048609995e-09,-0.0010014667860629,0.0010014654661394,-0.0012136936438643,0.0012136985503134,-0.0012136957341141,0.0012136963647375,-0.0012136975268508,0.0012136944852449,-0.0012136996084612,0.0012136923003744,-0.0010957389016569,0.0010957399182723,-0.0010957452219076,0.0010957333288901,-0.00099190941235273,0.00099191795488078,-0.00099192152538998,0.00099190547700001,7.9378008946314e-09,-6.7314449183902e-09,-0.0013488154317963,0.0013488166163644,-2.5386837511011e-09,3.9278335802921e-09,-0.0015848564441709,0.0015848603087326,-0.0015848543042582,0.0015848624017318,-0.001584861350541,0.0015848554334634,-0.0015848592130403,0.0015848575379469,-0.0012591342624099,0.0012591232533783,-0.0012591198777513,0.0012591375989621,0.76402417250485,131329,3014,0.0038471206175275,0.0041660642790597,0.0056016522431163,23.441803544403,-5.2465571644776e-05,-5.2465571644776e-05,-5.2465571644776e-05,4132310.5325816,0.013709662302077
28619200,0.99517751006998,0.01445125699852,0.0042670694368136,0.0045266842730192,0.0056575032886875,-0.00092472746477032,0.00092472863761902,-6.8459370512929e-09,8.0273017278541e-09,-5.5591411447599e-09,7.0068739218114e-09,-0.0011433907627546,0.0011433828434895,-0.0011433858135509,0.0011433878144987,-0.0011433868353823,0.0011433869698629,-0.0011433818766426,0.0011433919348337,-0.0010236595117363,0.0010236502838807,-0.0010236449254974,0.001023664817841,5.3959004898229e-09,-7.0141339869387e-09,2.6205179255695e-09,-3.9570859345591e-09,-0.0010018629182114,0.001001861597871,-0.0012142793128345,0.0012142842242444,-0.0012142814021079,0.0012142820397918,-0.0012142832007431,0.0012142801543329,-0.0012142852843656,0.0012142779675652,-0.001096192613976,0.0010961936292313,-0.001096198939728,0.0010961870342093,-0.00099240712415444,0.00099241568901857,-0.000992419260626,0.00099240318781973,7.9991067651321e-09,-6.7926690852692e-09,-0.0013493638426291,0.0013493650271954,-2.5376824869243e-09,3.9269101823542e-09,-0.0015855284664374,0.0015855323710864,-0.0015855263256416,0.0015855344648815,-0.0015855334123075,0.0015855274564185,-0.0015855312769905,0.0015855295587177,-0.0012597690128234,0.0012597578789204,-0.0012597545038172,0.0012597723487225,0.76896080136777,131329,3014,0.0038487078492266,0.0041677136388464,0.0056039169398957,23.63218509101,-5.0942519271921e-05,-5.0942519271921e-05,-5.0942519271921e-05,4128719.210422,0.013715245037883
28819200,0.99533648452855,0.014453670640185,0.0042677838994416,0.0045274320501428,0.0056584546906009,-0.00092510089605002,0.00092510206902752,-6.9095593351464e-09,8.0910103420115e-09,-5.5644950057325e-09,7.0123971434925e-09,-0.0011439747420649,0.0011439667787767,-0.0011439697522236,0.0011439717904134,-0.001143970813106,0.0011439709067277,-0.0011439658098373,0.0011439759162175,-0.0010240737525233,0.0010240643980872,-0.0010240590356933,0.0010240790617848,5.41507654607e-09,-7.0345234662159e-09,2.6183180372474e-09,-3.9559826195424e-09,-0.0010022510516633,0.001002249730347,-0.0012148611459175,0.0012148660705622,-0.0012148632360157,0.0012148638852823,-0.0012148650489797,0.0012148619853396,-0.0012148671295466,0.0012148598016355,-0.0010966332405569,0.0010966342323899,-0.0010966395570766,0.0010966276456769,-0.00099289646396241,0.00099290506192904,-0.00099290863356953,0.00099289252746501,8.0493911408613e-09,-6.8427489914801e-09,-0.0013499055985136,0.0013499067831448,-2.5383650566017e-09,3.9278024551547e-09,-0.0015861935440728,0.001586197483291,-0.0015861914046632,0.0015861995756811,-0.0015861985251117,0.0015861925334108,-0.00158619638726,0.0015861946382135,-0.0012603988181108,0.0012603875922789,-0.0012603842161236,0.0012604021548216,0.74978435534798,131329,3014,0.003850265197748,0.0041693298190524,0.0056061538748789,23.824783998265,-4.9401728013881e-05,-4.9401728013881e-05,-4.9401728013881e-05,4125164.897156,0.013720735657417
29019200,0.99549313640033,0.014455909260391,0.0042684430845433,0.0045281228938753,0.0056593432819726,-0.00092569639480033,0.00092569756854083,-6.9502293591757e-09,8.1326474577615e-09,-5.5678374894454e-09,7.016617880846e-09,-0.0011447548170371,0.0011447468206255,-0.0011447497968192,0.0011447518637635,-0.001144750881264,0.00114475095498,-0.0011447458552202,0.0011447559885683,-0.0010247157010282,0.0010247062793528,-0.0010247009139177,0.0010247210121931,5.4127702000138e-09,-7.0328703900048e-09,2.6167095772988e-09,-3.9549548989814e-09,-0.0010028651959771,0.0010028638744208,-0.0012156452192769,0.001215650137681,-0.001215647305545,0.0012156479577942,-0.0012156491177718,0.0012156460587608,-0.0012156512017984,0.0012156438727514,-0.001097297551428,0.0010972985514388,-0.0010973038751304,0.0010972919558417,-0.00099359423559533,0.00099360283957835,-0.00099360641325382,0.00099359030007363,8.1227186606382e-09,-6.9146782266207e-09,-0.0013506792077507,0.0013506803933724,-2.5313022893056e-09,3.922126829747e-09,-0.0015870742577823,0.0015870782468327,-0.0015870721183774,0.0015870803381724,-0.0015870792842268,0.0015870732523862,-0.0015870771546806,0.0015870753494087,-0.0012612355954836,0.0012612242138009,-0.0012612208389376,0.0012612389274263,0.71130254376083,131329,3014,0.0038527435134647,0.0041718827458457,0.0056093522009958,24.140772949776,-4.6873816401796e-05,-4.6873816401796e-05,-4.6873816401796e-05,4125954.1030861,0.013729082603932
29219200,0.99564741656284,0.014458056520865,0.0042690739395334,0.0045287843920032,0.0056601981893281,-0.00092632119278118,0.00092632236571829,-7.0155921304467e-09,8.1970491391284e-09,-5.5686288035949e-09,7.0165907289108e-09,-0.0011454963054099,0.0011454882664871,-0.0011454912429341,0.0011454933509111,-0.0011454923715118,0.0011454923991982,-0.0011454872995364,0.0011454974775585,-0.0010253863278148,0.0010253767738661,-0.0010253714086466,0.0010253916396197,5.4134666617937e-09,-7.0318866980449e-09,2.6124192430191e-09,-3.9490836732885e-09,-0.0010035076696827,0.001003506349388,-0.0012163959262478,0.0012164008441925,-0.0012163980102622,0.0012163986652706,-0.001216399825936,0.0012163967626267,-0.0012164019043361,0.0012163945813077,-0.0010979784210287,0.0010979794083623,-0.0010979847305602,0.0010979728285371,-0.00099428106935891,0.00099428967397707,-0.00099429324073033,0.00099427713831558,8.1709300381079e-09,-6.9644797978051e-09,-0.0013514620536806,0.0013514632379817,-2.5295087789784e-09,3.9186683701653e-09,-0.0015879257442675,0.0015879297680019,-0.0015879236087814,0.0015879318562139,-0.0015879308043103,0.0015879247392845,-0.0015879286743349,0.0015879268361859,-0.0012620372148173,0.0012620257390311,-0.0012620223689198,0.0012620405450986,0.69516968090976,131329,3014,0.0038553409260804,0.0041745508448951,0.0056125913795119,24.459527217882,-4.4323782256942e-05,-4.4323782256942e-05,-4.4323782256942e-05,4130384.5125501,0.01373770535714
29419200,0.9957992525232,0.014460013268345,0.0042696443710921,0.0045293838290632,0.0056609850681902,-0.00092695246346137,0.00092695363630015,-7.0744166403983e-09,8.2557763957275e-09,-5.5678171962419e-09,7.0156680003348e-09,-0.001146213756373,0.0011462056791306,-0.0011462086551187,0.0011462108023208,-0.0011462098233856,0.001146209810895,-0.001146204711936,0.0011462149287356,-0.0010260585338714,0.0010260488632822,-0.0010260434989281,0.0010260638452392,5.4143511381662e-09,-7.0322716823923e-09,2.6086662934573e-09,-3.9448225865192e-09,-0.0010041563113006,0.0010041549914137,-0.0012171258181292,0.0012171307345385,-0.0012171278998599,0.0012171285579298,-0.0012171297186316,0.0012171266522068,-0.0012171317940054,0.0012171244739171,-0.0010986572648459,0.0010986582433899,-0.0010986635656922,0.0010986516726991,-0.0009949513477866,0.00099495995583725,-0.00099496351924672,0.00099494741995835,8.225776807165e-09,-7.0197764270017e-09,-0.0013522419606207,0.001352243144582,-2.5263413302712e-09,3.9150113731193e-09,-0.0015887590637823,0.0015887631267549,-0.0015887569309343,0.0015887652123275,-0.0015887641610517,0.0015887580608448,-0.0015887620330177,0.001588760155764,-0.0012628120037159,0.0012628004181831,-0.0012627970508942,0.0012628153312398,0.65089858659734,131329,3014,0.0038579639453186,0.0041772434396436,0.0056158197602355,24.77837809721,-4.1772975222318e-05,-4.1772975222318e-05,-4.1772975222318e-05,4136278.2208073,0.013746366830117
29619200,0.99594849304001,0.014461905913702,0.0042701953044913,0.0045299629890417,0.0056617476201691,-0.00092759824178266,0.00092759941440652,-7.1322900465231e-09,8.3134373734301e-09,-5.5674061134766e-09,7.0150299555325e-09,-0.0011468647635554,0.0011468566481724,-0.0011468596239861,0.0011468618097015,-0.0011468608311407,0.001146860779379,-0.0011468556809972,0.0011468659359129,-0.0010267474824334,0.0010267376979546,-0.001026732334415,0.0010267527940606,5.4159490640499e-09,-7.033429689527e-09,2.6055953248665e-09,-3.9412161067746e-09,-0.0010048181278307,0.0010048168082797,-0.001217795524321,0.0012178004398468,-0.0012177976040361,0.0012177982652569,-0.0012177994259248,0.0012177963563566,-0.0012178014989513,0.0012177941804986,-0.0010993400851174,0.0010993410566732,-0.0010993463795277,0.0010993344936829,-0.0009955897703702,0.00099559838367182,-0.00099560194384502,0.00099558584518569,8.2816072314073e-09,-7.0760981385297e-09,-0.0013530104176833,0.0013530116013412,-2.5236043480312e-09,3.9117354037568e-09,-0.001589537617691,0.0015895417201887,-0.001589535487061,0.0015895438035843,-0.001589542752591,0.0015895366167269,-0.0015895406263244,0.0015895387097234,-0.0012635249653933,0.0012635132677836,-0.001263509903504,0.0012635282905408,0.64191387312258,131329,3014,0.0038606442487268,0.0041799879844065,0.0056190037982417,25.0879880838,-3.9296095329597e-05,-3.9296095329597e-05,-3.9296095329597e-05,4145999.1719623,0.013755090739599
29819200,0.99609458583759,0.014463882106806,0.0042707742852009,0.0045305705588787,0.0056625372627265,-0.00092815689216763,0.00092815806507597,-7.1888945164719e-09,8.3703658466573e-09,-5.5725330374703e-09,7.0205543939412e-09,-0.0011474043619355,0.0011473962052242,-0.001147399184398,0.0011474014047044,-0.0011474004257753,0.00114740034011,-0.0011473952379361,0.0011474055343717,-0.0010273525502148,0.0010273426586617,-0.0010273372912756,0.0010273578652967,5.4202109559867e-09,-7.0377185960149e-09,2.6044872605678e-09,-3.9401649973767e-09,-0.0010053910620475,0.0010053897425175,-0.0012183545536108,0.0012183594711888,-0.001218356632505,0.0012183572974775,-0.0012183584579456,0.0012183553850652,-0.0012183605303679,0.0012183532098176,-0.0010999372123655,0.0010999381790495,-0.0010999435047817,0.001099931617575,-0.00099612965207543,0.00099613827471402,-0.00099614183432691,0.00099612572770954,8.338717307322e-09,-7.1331357383643e-09,-0.0013536752258305,0.0013536764094705,-2.5223082705078e-09,3.9105214669005e-09,-0.0015902038238392,0.0015902079649466,-0.0015902016938624,0.001590210047593,-0.0015902089966688,0.0015902028235584,-0.0015902068713941,0.0015902049156552,-0.00126412439289,0.0012641125822981,-0.001264109218603,0.0012641277170755,0.67837704759084,131329,3014,0.0038629620520336,0.0041823631936453,0.0056217593655431,25.340161157719,-3.7278710738244e-05,-3.7278710738244e-05,-3.7278710738244e-05,4155140.2968065,0.013762638015158
30019200,0.99623750251865,0.014465848574841,0.0042713510768676,0.0045311757135074,0.0056633217844656,-0.00092868665908969,0.00092868783202911,-7.2458866319313e-09,8.4273710683634e-09,-5.5758095713744e-09,7.023870107119e-09,-0.0011479846218296,0.0011479764249558,-0.0011479794062867,0.0011479816624295,-0.001147980683465,0.0011479805620235,-0.001147975457603,0.0011479857942973,-0.001027932081643,0.001027922080658,-0.0010279167109761,0.0010279373988203,5.4245888279377e-09,-7.0422248548739e-09,2.6035703452807e-09,-3.9393021024741e-09,-0.001005936708048,0.0010059353885085,-0.0012189498357705,0.0012189547557713,-0.0012189519140819,0.0012189525826422,-0.0012189537430508,0.0012189506666637,-0.0012189558148746,0.0012189484920202,-0.0011005230014462,0.0011005239632361,-0.0011005292919951,0.0011005174034438,-0.00099668107659015,0.0009966897082398,-0.0009966932676461,0.00099667715267348,8.395535659325e-09,-7.1899882202659e-09,-0.0013543306266352,0.0013543318102121,-2.5214988749402e-09,3.9096689686497e-09,-0.0015909042800541,0.00159090845951,-0.001590902150638,0.0015909105415956,-0.0015909094907682,0.0015909032802369,-0.0015909073660258,0.0015909053717823,-0.0012647565495961,0.0012647446271518,-0.0012647412639313,0.0012647598732294,0.68873091374303,131329,3014,0.0038651625399834,0.0041846277484627,0.0056244734051863,25.591043267022,-3.5271653863827e-05,-3.5271653863827e-05,-3.5271653863827e-05,4160122.8077836,0.013769915818849
30219200,0.99637722912227,0.014467678098087,0.0042718849419174,0.0045317366571707,0.0056640564989987,-0.00092920218603093,0.00092920335900019,-7.3028873037764e-09,8.4843961376102e-09,-5.5785099387918e-09,7.0266274084442e-09,-0.001148572734733,0.0011485644980449,-0.0011485674811754,0.0011485697735312,-0.0011485687945354,0.0011485686369266,-0.0011485635306534,0.0011485739072226,-0.001028495053463,0.0010284849426825,-0.0010284795711146,0.0010285003724201,5.4279739218687e-09,-7.0456402379039e-09,2.6028792761051e-09,-3.9386103720179e-09,-0.0010064686309868,0.001006467311471,-0.0012195514637714,0.0012195563856329,-0.0012195535416379,0.0012195542129694,-0.0012195553733169,0.0012195522942559,-0.0012195574446889,0.0012195501200869,-0.0011010960302244,0.0011010969883366,-0.0011011023193741,0.0011010904298783,-0.00099722858909787,0.00099723722781502,-0.00099724078683314,0.00099722466561166,8.4523427995529e-09,-7.2468190213592e-09,-0.0013549763033378,0.001354977486869,-2.5208393149717e-09,3.9089745833332e-09,-0.0015916090157588,0.0015916132334737,-0.0015916068867908,0.0015916153150956,-0.0015916142643543,0.0015916080163361,-0.0015916121400479,0.0015916101074293,-0.0012653895566161,0.0012653775223965,-0.001265374159603,0.0012653928797684,0.66008313950084,131329,3014,0.0038673046877096,0.0041868361148357,0.0056271463841385,25.84188021078,-3.3264958313763e-05,-3.3264958313763e-05,-3.3264958313763e-05,4163908.0030417,0.013777037053805
30419200,0.99651404996006,0.014469359751833,0.0042723724582676,0.0045322498311059,0.0056647374624596,-0.00092979552140714,0.00092979669428353,-7.3599942907854e-09,8.5414618940846e-09,-5.5735384801076e-09,7.0215336771718e-09,-0.0011491922650918,0.0011491839936435,-0.0011491869738588,0.0011491893072616,-0.001149188328154,0.0011491881289938,-0.0011491830263106,0.001149193437761,-0.0010291377147469,0.0010291274880512,-0.0010291221196792,0.0010291430292775,5.4298201126444e-09,-7.0478623570178e-09,2.6010113559583e-09,-3.9371556574225e-09,-0.0010070794095811,0.0010070780899234,-0.0012201891940942,0.0012201941162954,-0.0012201912713098,0.0012201919448803,-0.0012201931053068,0.0012201900237838,-0.0012201951756559,0.0012201878511164,-0.0011017409381601,0.0011017418901835,-0.0011017472227837,0.0011017353347694,-0.00099782759632495,0.00099783623866318,-0.00099783979778507,0.00099782367351527,8.5094474702209e-09,-7.3032369692414e-09,-0.0013556913092378,0.0013556924931811,-2.5193195104006e-09,3.9081687505685e-09,-0.0015923563415195,0.0015923605981319,-0.001592354213293,0.0015923626786323,-0.0015923616282486,0.0015923553431662,-0.0015923595045801,0.0015923574336778,-0.0012660614969993,0.0012660493520382,-0.0012660459885031,0.0012660648194667,0.6252652871488,131329,3014,0.0038697681040341,0.0041893699586807,0.0056301083817026,26.12988004082,-3.0960959673443e-05,-3.0960959673443e-05,-3.0960959673443e-05,4171185.1628118,0.013785104846024
30619200,0.99664875824146,0.01447113420331,0.0042728906656004,0.0045327942252454,0.0056654493124644,-0.00093060719806996,0.00093060837000811,-7.4175039220821e-09,8.5978575806763e-09,-5.5650297977185e-09,7.011872632663e-09,-0.0011499712175254,0.0011499629132909,-0.0011499658878814,0.0011499682647799,-0.0011499672866748,0.0011499670426628,-0.0011499619466806,0.0011499723889598,-0.0010300147157959,0.0010300043710979,-0.0010299990095137,0.0010300200235844,5.4166174242667e-09,-7.0335443427009e-09,2.5977647084928e-09,-3.9328753961275e-09,-0.0010079125278244,0.0010079112091673,-0.0012209952772826,0.0012210001887957,-0.0012209973515112,0.0012209980196615,-0.0012209991789446,0.001220996105055,-0.0012210012467067,0.0012209939344817,-0.0011026141587297,0.0011026151142025,-0.0011026204366809,0.0011026085658741,-0.0009986216677152,0.00099863028710211,-0.00099863384246226,0.00099861774828637,8.5658281795348e-09,-7.3606515485595e-09,-0.0013566241915491,0.0013566253745836,-2.5157659710765e-09,3.9035111412965e-09,-0.0015932910071333,0.0015932953035435,-0.0015932888817748,0.0015932973817167,-0.0015932963314454,0.0015932900106077,-0.0015932942105605,0.0015932920980936,-0.0012669140425592,0.0012669017822063,-0.0012668984229809,0.0012669173623277,0.66318231542,131329,3014,0.0038731360477098,0.0041928245263721,0.0056339748362381,26.524261714366,-2.7805906285069e-05,-2.7805906285069e-05,-2.7805906285069e-05,4183695.9493202,0.013795937659216
30819200,0.99678127313152,0.014472968088038,0.0042734284312334,0.0045333586421099,0.0056661810146952,-0.0009313960630712,0.00093139723477539,-7.4745367532976e-09,8.6547967374888e-09,-5.554907923876e-09,7.0015475291173e-09,-0.0011508062642085,0.00115079792842,-0.0011508008966231,0.001150803317965,-0.0011508023400783,0.0011508020510097,-0.0011507969621872,0.0011508074353683,-0.0010308727750135,0.0010308623118817,-0.0010308569577621,0.0010308780762958,5.4068199935237e-09,-7.0226579246357e-09,2.5949678157438e-09,-3.9291077487971e-09,-0.0010087250063913,0.0010087236885419,-0.0012218527928825,0.0012218576959187,-0.0012218548650206,0.0012218555291019,-0.0012218566878021,0.0012218536193283,-0.0012218587534483,0.0012218514510019,-0.0011034846055031,0.0011034855627425,-0.0011034908775238,0.0011034790212741,-0.00099943867700676,0.00099944727971695,-0.00099945083148617,0.00099943476114714,8.6225531989774e-09,-7.4176755615151e-09,-0.0013575595751191,0.001357560757949,-2.5126115720294e-09,3.9000295916554e-09,-0.001594276706382,0.0015942810427463,-0.0015942745831228,0.0015942831186336,-0.0015942820686552,0.0015942757119801,-0.0015942799500524,0.0015942777973236,-0.0012678162659523,0.0012678038912452,-0.001267800534746,0.0012678195827426,0.69236329467491,131329,3014,0.0038764122256643,0.0041961962924052,0.0056378487271683,26.921042285729,-2.4631661714169e-05,-2.4631661714169e-05,-2.4631661714169e-05,4191609.8869282,0.013806605140472
31019200,0.99691149810006,0.014474829046525,0.0042739754664968,0.0045339324703386,0.0056669211096892,-0.00093216192115962,0.00093216309242569,-7.5317525232775e-09,8.7115844455457e-09,-5.545875688481e-09,6.9919959942925e-09,-0.0011516760157293,0.0011516676476745,-0.0011516706101319,0.0011516730752373,-0.0011516720977507,0.0011516717640664,-0.0011516666818583,0.0011516771864323,-0.0010317097103317,0.0010316991289887,-0.0010316937814681,0.0010317150049536,5.3983010129652e-09,-7.0134424680641e-09,2.5923554958457e-09,-3.9259071696334e-09,-0.0010095158418407,0.0010095145245802,-0.0012227408394569,0.0012227457352168,-0.001222742909672,0.0012227435703452,-0.0012227447284998,0.0012227416645619,-0.0012227467922299,0.0012227394981698,-0.0011043442609252,0.0011043452189464,-0.0011043505272508,0.0011043386831471,-0.0010002671855206,0.0010002757734094,-0.0010002793226074,0.0010002632722977,8.679273473506e-09,-7.4746504603828e-09,-0.0013584904925832,0.0013584916751425,-2.5098681984553e-09,3.8970013471662e-09,-0.0015952913634893,0.0015952957393866,-0.0015952892421497,0.0015952978133521,-0.0015952967636494,0.0015952903707409,-0.0015952946469708,0.0015952924541513,-0.0012687507758407,0.0012687382875601,-0.0012687349332247,0.0012687540904644,0.71215833415294,131329,3014,0.0038795950475464,0.0041994802454638,0.0056417019088861,27.31790690358,-2.145674477136e-05,-2.145674477136e-05,-2.145674477136e-05,4196187.4111252,0.01381707082272
31219200,0.99704046165666,0.014476770524396,0.0042745485626916,0.0045345329698861,0.0056676889918181,-0.00093318126020297,0.00093318243007493,-7.5899780659683e-09,8.7676549536595e-09,-5.5528409296389e-09,6.9969863347822e-09,-0.0011528472287369,0.0011528388181595,-0.0011528417842819,0.0011528442825937,-0.0011528433075778,0.001152842938157,-0.0011528378521067,0.0011528483978736,-0.0010328177383993,0.0010328070466778,-0.0010328016939945,0.0010328230334737,5.3550453681731e-09,-6.968456570152e-09,2.5880954193659e-09,-3.9204872917187e-09,-0.0010105677981891,0.0010105664829148,-0.0012239322845588,0.0012239371509725,-0.0012239343505609,0.0012239349876741,-0.0012239361435092,0.001223933107552,-0.0012239382026941,0.0012239309436701,-0.0011054860768017,0.0011054870537402,-0.0011054923310002,0.001105480526121,-0.0010013892647807,0.0010013977683912,-0.0010014013144564,0.0010013853544475,8.7351244325917e-09,-7.5321495264728e-09,-0.0013597160915263,0.0013597172720678,-2.5034036005913e-09,3.8887453172058e-09,-0.0015966274971739,0.001596631913856,-0.0015966253820332,0.001596633983578,-0.0015966329346799,0.0015966265063433,-0.0015966308223274,0.0015966285847837,-0.0012700060652179,0.0012699934622436,-0.001269990113624,0.0012700093766417,0.74546031005679,131329,3014,0.0038838320896221,0.0042038492436506,0.005646773728187,27.867610691269,-1.7059114469844e-05,-1.7059114469844e-05,-1.7059114469844e-05,4201560.6462125,0.013830943007912
31419200,0.99716811665047,0.014478594082346,0.0042750840137595,0.004535094849547,0.0056684152190392,-0.00093419500107979,0.00093419617273046,-7.6462786150546e-09,8.8263300108533e-09,-5.5534162115938e-09,6.9997879767233e-09,-0.0011540803817626,0.001154071933384,-0.0011540749004993,0.0011540774364104,-0.0011540764594707,0.0011540760541508,-0.0011540709661549,0.0011540815537629,-0.0010339149669899,0.0010339041646582,-0.0010338988108329,0.0010339202672287,5.3234033776198e-09,-6.9342359164206e-09,2.5849383435151e-09,-3.9150080338793e-09,-0.0010116171364621,0.0010116158229255,-0.0012251813257229,0.0012251861687606,-0.0012251833906502,0.0012251840089759,-0.0012251851644416,0.0012251821486713,-0.0012251872211165,0.0012251799891884,-0.0011066273235321,0.0011066283159014,-0.001106633569003,0.0011066218003246,-0.0010025443271652,0.0010025527711882,-0.0010025563116209,0.001002540424086,8.7917706846758e-09,-7.5883467621565e-09,-0.0013609640130444,0.0013609651943486,-2.4967357734654e-09,3.8825093020647e-09,-0.0015980202421059,0.0015980247021327,-0.0015980181309909,0.0015980267661443,-0.0015980257184949,0.0015980192571927,-0.0015980236102429,0.0015980213323611,-0.0012713194845055,0.0012713067671635,-0.0012713034224536,0.0012713227887003,0.71242631525733,131329,3014,0.0038880481976909,0.0042082094494299,0.0056519355200862,28.435741760694,-1.2514065914446e-05,-1.2514065914446e-05,-1.2514065914446e-05,4204222.7666668,0.013844879086916
31619200,0.99729427643079,0.01448030378207,0.0042755835056984,0.0045356196842606,0.0056691005921105,-0.00093522454972788,0.0009352257187084,-7.7038759168789e-09,8.8813655969363e-09,-5.4979021058352e-09,6.9411917237398e-09,-0.0011552694274082,0.0011552609762912,-0.0011552639076173,0.0011552665178686,-0.0011552655424294,0.0011552650594216,-0.0011552600125503,0.0011552705956108,-0.0010350221471111,0.0010350111964738,-0.0010350058834488,0.0010350274063541,5.3551271739043e-09,-6.9675630376363e-09,2.5770949750933e-09,-3.9085181393038e-09,-0.0010126795367495,0.0010126782217661,-0.0012263892405998,0.0012263940985167,-0.0012263912997878,0.001226391944529,-0.0012263931004442,0.0012263900570884,-0.0012263951533439,0.0012263879014215,-0.0011077639696207,0.0011077649273527,-0.0011077702038219,0.0011077584229034,-0.0010036764666479,0.0010036849810755,-0.0010036885174133,0.0010036725667865,8.849210566868e-09,-7.6460134337145e-09,-0.0013622104036776,0.001362211584654,-2.4947037030143e-09,3.880228816379e-09,-0.0015993732705223,0.0015993777689932,-0.001599371159697,0.0015993798324938,-0.0015993787842133,0.0015993722865778,-0.0015993766782461,0.001599374359266,-0.0012725948708377,0.0012725820362129,-0.0012725786935047,0.0012725981736153,0.68057768327409,131329,3014,0.0038923277383411,0.0042126215549269,0.0056570930579903,29.004330314955,-7.965357480362e-06,-7.965357480362e-06,-7.965357480362e-06,4210634.0334431,0.013858924714042
31819200,0.99741662109602,0.014481898215223,0.0042760474540121,0.0045361076985281,0.0056697430626823,-0.00093573439739242,0.00093573556674309,-7.7608362217807e-09,8.9386826043234e-09,-5.5118912499764e-09,6.9557177128926e-09,-0.0011558545114063,0.0011558460129142,-0.0011558489536272,0.0011558515923715,-0.001155850616863,0.0011558501057111,-0.0011558450486303,0.0011558556801166,-0.0010355809519051,0.0010355698986832,-0.0010355645764308,0.0010355862215407,5.3829003720531e-09,-6.9965234877858e-09,2.5811848913684e-09,-3.9135858196905e-09,-0.0010132080010092,0.0010132066848758,-0.0012269875324805,0.0012269924108454,-0.0012269895948413,0.0012269902535443,-0.0012269914107439,0.0012269883506504,-0.0012269934665276,0.0012269861920409,-0.0011083304434479,0.0011083313902083,-0.0011083366868995,0.0011083248779403,-0.0010042259051201,0.0010042344706722,-0.0010042380100767,0.0010042220010727,8.9058891626111e-09,-7.7026953921784e-09,-0.001362861447972,0.0013628626291742,-2.500260437054e-09,3.8857987521037e-09,-0.0016000809611492,0.0016000854943825,-0.0016000788469821,0.0016000875614684,-0.0016000865128131,0.0016000799740273,-0.0016000844028938,0.0016000820504218,-0.0012732358980086,0.0012732229562339,-0.0012732196108586,0.0012732392050509,0.65805654587265,131329,3014,0.0038944465885248,0.0042148154769299,0.0056597877271736,29.266190725144,-5.8704741988437e-06,-5.8704741988437e-06,-5.8704741988437e-06,4214655.6016749,0.013866030171474
32019200,0.99753354046864,0.014483583439504,0.0042765427729711,0.0045366272241718,0.0056704134423607,-0.00093583680516916,0.00093583797638973,-7.8170359768285e-09,8.9966875582824e-09,-5.5617048765279e-09,7.007880108926e-09,-0.0011559585160752,0.0011559499474548,-0.0011559529201694,0.0011559555647833,-0.0011559545878567,0.0011559540742642,-0.0011559489812996,0.0011559596867086,-0.0010357179986817,0.0010357068693238,-0.0010357015113788,0.0010357233046019,5.4177344537617e-09,-7.0327685609189e-09,2.5934437325388e-09,-3.926900520954e-09,-0.0010133177133084,0.0010133163959425,-0.0012271001173589,0.0012271050266732,-0.0012271021881253,0.0012271028605767,-0.0012271040191246,0.0012271009425054,-0.0012271060831717,0.0012270987753225,-0.0011084612620994,0.0011084622091961,-0.0011084675306842,0.0011084556724529,-0.0010043229402544,0.0010043315659413,-0.001004335114297,0.0010043190263283,8.9628755818328e-09,-7.7590600861581e-09,-0.001363041430467,0.0013630426124384,-2.51174400818e-09,3.8979931457204e-09,-0.0016002759447425,0.0016002805088673,-0.0016002738228998,0.0016002825838666,-0.0016002815342473,0.0016002749506017,-0.001600279416292,0.0016002770348952,-0.001273380868447,0.0012733678243691,-0.0012733644709349,0.0012733841842949,0.71766340328624,131329,3014,0.0038948713555689,0.004215269775516,0.0056605338553513,29.28103218944,-5.7517424844794e-06,-5.7517424844794e-06,-5.7517424844794e-06,4216358.5174612,0.013867676095918
32219200,0.99764523416036,0.014485233034362,0.0042770284955643,0.0045371364481596,0.0056710680906385,-0.00093588643717301,0.00093588761029786,-7.8728888574731e-09,9.0544975359332e-09,-5.6020941786036e-09,7.0505330162619e-09,-0.0011561133229956,0.0011561046905393,-0.0011561076892838,0.0011561103460255,-0.0011561093669818,0.0011561088451479,-0.0011561037228487,0.0011561144955763,-0.0010357999085368,0.0010357886976326,-0.0010357833100078,0.0010358052433725,5.4513312181891e-09,-7.0686635902934e-09,2.6049271361667e-09,-3.940182196545e-09,-0.0010133756876874,0.001013374368671,-0.0012272558846569,0.0012272608237604,-0.0012272579637641,0.0012272586497701,-0.0012272598096134,0.0012272567168313,-0.0012272618821203,0.0012272545414732,-0.0011085577469965,0.0011085586933531,-0.0011085640395513,0.0011085521315021,-0.0010044260480703,0.0010044347313503,-0.0010044382911714,0.001004422123792,9.0206348627381e-09,-7.815211280307e-09,-0.0013631946080787,0.0013631957914795,-2.5226483520009e-09,3.9106358860228e-09,-0.0016005046381962,0.0016005092335038,-0.0016005025081798,0.0016005113162738,-0.0016005102657018,0.0016005036375178,-0.0016005081400573,0.0016005057296769,-0.0012735667863627,0.0012735536398694,-0.0012735502760687,0.0012735701108526,0.73340853519641,131329,3014,0.0038950807929232,0.0042155131424747,0.0056611651776752,29.290225432279,-5.6781965417646e-06,-5.6781965417646e-06,-5.6781965417646e-06,4211778.6056847,0.013868778732103
32419200,0.99775193120233,0.014486852362147,0.0042775064595328,0.0045376371552705,0.0056717087473432,-0.00093592090272475,0.00093592207703018,-7.9292901234237e-09,9.1120667665268e-09,-5.6327117387581e-09,7.0826286314982e-09,-0.0011562789776081,0.0011562702874888,-0.0011562733059232,0.0011562759809657,-0.0011562750008529,0.0011562744629585,-0.001156269318707,0.0011562801514113,-0.0010358664788302,0.0010358551784138,-0.0010358497687232,0.0010358718357951,5.4847571328104e-09,-7.1038125548751e-09,2.6157400006292e-09,-3.9523433968708e-09,-0.0010134181655022,0.0010134168451068,-0.0012274190127432,0.0012274239810836,-0.0012274210995026,0.0012274217994314,-0.001227422960561,0.0012274198511695,-0.001227425040677,0.0012274176681785,-0.0011086406304966,0.0011086415750879,-0.0011086469454943,0.0011086349908001,-0.0010045310009638,0.001004539742494,-0.0010045433114374,0.001004527067359,9.0778995861049e-09,-7.8715292981832e-09,-0.0013633370570478,0.0013633382413859,-2.5336913902908e-09,3.9227216355761e-09,-0.0016007339145822,0.0016007385409681,-0.0016007317768174,0.0016007406314088,-0.0016007395799613,0.0016007329071221,-0.0016007374465639,0.0016007350070266,-0.0012737607747433,0.001273747525661,-0.0012737441531835,0.001273764107828,0.75109427162212,131329,3014,0.003895228247379,0.0042156930844019,0.0056617509670488,29.299219887048,-5.6062409036194e-06,-5.6062409036194e-06,-5.6062409036194e-06,4206045.2596074,0.013869709068447
32619200,0.99785359173524,0.014488267041333,0.004277920720623,0.0045380720261995,0.0056722742945105,-0.0009358508031039,0.00093585197801219,-7.9855047376353e-09,9.1688759816325e-09,-5.6564104309852e-09,7.1071891576616e-09,-0.0011563667024258,0.0011563579589149,-0.0011563609928468,0.0011563636902371,-0.0011563627094832,0.001156362150703,-0.0011563569898197,0.0011563678766207,-0.0010358160351619,0.0010358046413508,-0.0010357992151066,0.0010358214089676,5.5115590217034e-09,-7.1316458991003e-09,2.6262655329109e-09,-3.9636976030649e-09,-0.0010133531586214,0.0010133518373182,-0.0012274992428838,0.0012275042355631,-0.0012275013366808,0.0012275020467758,-0.0012275032086606,0.0012275000876022,-0.0012275052961894,0.0012274978970957,-0.0011086063114434,0.0011086072590645,-0.0011086126485467,0.0011086006529229,-0.00100454155479,0.0010045503426108,-0.0010045539193,0.0010045376130511,9.1353941453326e-09,-7.9285348425265e-09,-0.0013633720500115,0.0013633732348712,-2.5442251998725e-09,3.9338311997454e-09,-0.0016008669147575,0.0016008715724342,-0.0016008647695776,0.0016008736702848,-0.0016008726181178,0.0016008659006306,-0.001600870477691,0.0016008680075645,-0.0012738643772979,0.0012738510231301,-0.0012738476430784,0.0012738677180554,0.69653888003014,131329,3014,0.0038949424756853,0.0042154278510099,0.00566189063198,29.26285710489,-5.8971431608777e-06,-5.8971431608777e-06,-5.8971431608777e-06,4198294.48961,0.013869297411027
32819200,0.99795034131412,0.014489497721564,0.00427827808062,0.0045384479653586,0.0056727716755858,-0.00093577520295691,0.00093577637856809,-8.0420697359075e-09,9.2262265498768e-09,-5.6725585174664e-09,7.1242559672823e-09,-0.0011563453787274,0.0011563365867925,-0.0011563396313697,0.0011563423562152,-0.0011563413747061,0.0011563407896687,-0.0011563356171847,0.0011563465537729,-0.0010357534921838,0.0010357419986201,-0.0010357365609835,0.0010357588781898,5.5297307893623e-09,-7.1505515430017e-09,2.6357435082743e-09,-3.9736797143228e-09,-0.0010132785135252,0.0010132771915815,-0.0012274751855819,0.0012274801963227,-0.0012274772860782,0.0012274780012125,-0.0012274791638104,0.0012274760362414,-0.0012274812579323,0.0012274738394428,-0.0011085389763314,0.0011085399302447,-0.0011085453327039,0.0011085333055427,-0.001004485884169,0.001004494701358,-0.0010044982848425,0.0010044819354495,9.1925375777576e-09,-7.9850383630298e-09,-0.0013633604310375,0.001363361616628,-2.5536978866354e-09,3.9440382163986e-09,-0.0016008907436064,0.0016008954334116,-0.0016008885917815,0.0016008975376501,-0.0016008964849909,0.0016008897238493,-0.0016008943379596,0.0016008918373998,-0.0012738592909799,0.0012738458324788,-0.0012738424454141,0.0012738626385264,0.64446137047804,131329,3014,0.0038946300961616,0.0042151190009899,0.0056618409922856,29.204353522864,-6.3651718170892e-06,-6.3651718170892e-06,-6.3651718170892e-06,4195895.3265059,0.013868617557112
33019200,0.99804242815999,0.014490778291939,0.0042786535874625,0.0045388418620712,0.0056732828424056,-0.00093574885718175,0.00093575003312243,-8.099202589391e-09,9.2836107672989e-09,-5.6852955927692e-09,7.1373881320448e-09,-0.0011562656566943,0.0011562568183963,-0.0011562598711071,0.001156262625835,-0.0011562616441525,0.0011562610298272,-0.0011562558482695,0.0011562668320542,-0.0010357438281387,0.0010357322311467,-0.001035726784287,0.0010357492227743,5.5378260648821e-09,-7.1592958253846e-09,2.6441619906616e-09,-3.982616713118e-09,-0.0010132514948147,0.0010132501724873,-0.0012274006895263,0.0012274057115072,-0.0012274027957047,0.0012274035104212,-0.0012274046732695,0.0012274015455741,-0.0012274067729679,0.0012273993429499,-0.0011085102854735,0.0011085112499696,-0.0011085166584262,0.0011085046081419,-0.0010044210832599,0.0010044299101327,-0.0010044335004085,0.0010044171279678,9.2497054939053e-09,-8.0409139160111e-09,-0.0013633622235507,0.0013633634103769,-2.5614929413254e-09,3.9531924777128e-09,-0.0016008677624429,0.0016008724855045,-0.0016008656050914,0.0016008745954032,-0.0016008735414793,0.0016008667381164,-0.0016008713887014,0.0016008688573494,-0.0012738075533656,0.0012737939914472,-0.0012737905972966,0.0012738109081424,0.6952413684092,131329,3014,0.003894518311988,0.0042150042728458,0.0056618509032591,29.1453386145,-6.8372910840023e-06,-6.8372910840023e-06,-6.8372910840023e-06,4198784.2845231,0.013868393724976
33219200,0.99813009000339,0.014492065613416,0.0042790328641398,0.0045392392239961,0.00567379352528,-0.0009356890691261,0.0009356902450591,-8.1561626343301e-09,9.340554059191e-09,-5.6892461698171e-09,7.1413716645859e-09,-0.0011562442322361,0.0011562353532951,-0.0011562384086804,0.001156241198726,-0.0011562402170621,0.0011562395673913,-0.0011562343832154,0.0011562454075966,-0.0010357032715582,0.0010356915657087,-0.0010356861160515,0.0010357086685738,5.5421627357148e-09,-7.1636278294419e-09,2.6514692985993e-09,-3.9898898551907e-09,-0.0010131925543488,0.001013191232084,-0.0012273783307114,0.0012273833604756,-0.0012273804417189,0.0012273811545397,-0.0012273823173274,0.0012273791916754,-0.0012273844218658,0.0012273769841812,-0.0011084687956501,0.0011084697714389,-0.0011084751825996,0.0011084631150314,-0.0010043747955174,0.0010043836260571,-0.0010043872212264,0.0010043708353943,9.3069016184264e-09,-8.0973598326271e-09,-0.0013633546620029,0.0013633558495194,-2.568329400888e-09,3.9608683330442e-09,-0.0016008916278826,0.0016008963845832,-0.0016008894656848,0.0016008984993342,-0.0016008974448027,0.0016008905993416,-0.001600895287188,0.001600892723414,-0.0012738023774162,0.0012737887098646,-0.001273785309929,0.0012738057378162,0.72922792147294,131329,3014,0.0038942710478987,0.0042147604444123,0.0056618187647906,29.08630567563,-7.3095545949604e-06,-7.3095545949604e-06,-7.3095545949604e-06,4196264.683835,0.013867863823902
33419200,0.99821490459372,0.014493337457861,0.0042794082269956,0.0045396322913867,0.0056742969394784,-0.00093610323863804,0.00093610441261658,-8.2116741749024e-09,9.3943255418621e-09,-5.6355820166025e-09,7.0852957009328e-09,-0.0011567797672203,0.0011567708852873,-0.0011567739064459,0.0011567767681788,-0.0011567757872043,0.0011567750637112,-0.0011567699181743,0.0011567809395254,-0.0010361570757753,0.001036145226372,-0.0010361398154153,0.0010361624328192,5.5358051074661e-09,-7.1577260862141e-09,2.6475738110059e-09,-3.9862683071257e-09,-0.0010136208128906,0.0010136194906264,-0.0012279177647941,0.0012279227871532,-0.0012279198725599,0.0012279205849992,-0.0012279217466422,0.001227918623927,-0.0012279238497062,0.0012279164181013,-0.0011089421116368,0.0011089430858444,-0.0011089484929783,0.0011089364330927,-0.0010048622267145,0.0010048710489283,-0.0010048746443404,0.0010048582693228,9.3664939523333e-09,-8.1561947552018e-09,-0.0013638853112608,0.0013638864991823,-2.5654434387286e-09,3.9587468198844e-09,-0.0016015005301766,0.0016015053270594,-0.0016014983683494,0.0016015074408486,-0.0016015063856853,0.0016014995033109,-0.0016015042308948,0.0016015016249981,-0.0012743771302714,0.0012743633431669,-0.001274359943178,0.0012743804888435,0.7427865397109,131329,3014,0.0038959944521504,0.004216540778359,0.0056640128968604,29.312155196369,-5.5027584290516e-06,-5.5027584290516e-06,-5.5027584290516e-06,4195666.7882469,0.013873644969593
33619200,0.99829726393781,0.014494572776545,0.0042797727666176,0.0045400140228432,0.0056747859870843,-0.00093663433563289,0.00093663550603315,-8.2699868835775e-09,9.4485631390583e-09,-5.586865418567e-09,7.032176918881e-09,-0.0011574649300304,0.0011574560411669,-0.0011574590307396,0.0011574619614389,-0.001157460983946,0.0011574601858169,-0.0011574550769136,0.0011574660982281,-0.0010367332155978,0.0010367212196678,-0.0010367158451745,0.0010367385347698,5.5073875010676e-09,-7.1273692361722e-09,2.6417365980337e-09,-3.9791260750708e-09,-0.0010141695907849,0.0010141682700786,-0.0012286069012634,0.0012286119013087,-0.0012286090036225,0.0012286097029336,-0.0012286108625165,0.0012286077566421,-0.0012286129610919,0.0012286055542216,-0.0011095425266348,0.001109543509701,-0.0011095488962721,0.0011095368683405,-0.0010054870723015,0.0010054958435634,-0.0010054994318646,0.0010054831195752,9.4231334336243e-09,-8.2146276447642e-09,-0.0013645598735545,0.0013645610597219,-2.5598566567834e-09,3.951235593406e-09,-0.0016022698817614,0.0016022747194756,-0.0016022677247843,0.0016022768298974,-0.0016022757748064,0.0016022688573125,-0.0016022736243228,0.001602270973831,-0.0012751105158703,0.0012750966098257,-0.0012750932164985,0.0012751138708828,0.74303043596066,131329,3014,0.0038982044377167,0.0042188220855246,0.0056668019039228,29.614036018521,-3.0877118518331e-06,-3.0877118518331e-06,-3.0877118518331e-06,4195632.7983859,0.013881031643176
33819200,0.99837717788574,0.01449577533241,0.0042801277124041,0.004540385660154,0.0056752619598522,-0.00093716149230177,0.00093716266403609,-8.330157242032e-09,9.5103690752529e-09,-5.5927638476682e-09,7.039646543248e-09,-0.0011581479782944,0.0011581390464181,-0.0011581420403228,0.0011581450061963,-0.0011581440286041,0.0011581431944351,-0.0011581380797926,0.0011581491496106,-0.0010373048095826,0.0010372926958888,-0.0010372873163296,0.0010373101357423,5.4257167659761e-09,-7.0397969771505e-09,2.6376024959922e-09,-3.9699218715212e-09,-0.0010147134962911,0.0010147121803522,-0.0012292923617931,0.0012292973064197,-0.0012292944618925,0.0012292951114791,-0.0012292962685561,0.0012292932181745,-0.0012292983615804,0.0012292910222368,-0.0011101347815957,0.0011101358093598,-0.001110141134289,0.0011101291864979,-0.0010061100941923,0.0010061187046951,-0.0010061222832437,0.0010061061525553,9.4758304084149e-09,-8.2677223899915e-09,-0.0013652307916837,0.0013652319776341,-2.5522970661942e-09,3.9432155773532e-09,-0.0016030336770119,0.0016030385565438,-0.001603031526517,0.0016030406598478,-0.0016030396072496,0.0016030326580802,-0.0016030374605963,0.0016030347712308,-0.0012758420701919,0.0012758280586841,-0.0012758246709815,0.0012758454180132,0.74517770287001,131329,3014,0.0039003982367246,0.004221083139072,0.005669575557184,29.917709274942,-6.5832580046109e-07,-6.5832580046109e-07,-6.5832580046109e-07,4195834.8330078,0.013888365582863
34019200,0.99845465075769,0.014496903565412,0.0042804597200744,0.00454073353988,0.005675710305458,-0.00093768130495088,0.00093768247399544,-8.3862587330523e-09,9.563874610372e-09,-5.5335704536622e-09,6.9772473801466e-09,-0.0011588247810562,0.0011588158502889,-0.0011588188058243,0.001158821847322,-0.0011588208714354,0.0011588199579124,-0.0011588148868965,0.0011588259488079,-0.0010378670154786,0.0010378547537553,-0.0010378494173073,0.0010378722988631,5.4146239859863e-09,-7.0279410950031e-09,2.6301823011396e-09,-3.9618526457031e-09,-0.0010152496679056,0.0010152483525452,-0.0012299709923279,0.0012299759245145,-0.0012299730865411,0.0012299737355088,-0.0012299748913004,0.0012299718440409,-0.0012299769799686,0.0012299696525003,-0.001110716571225,0.0011107175943652,-0.0011107229111436,0.0011107109848041,-0.001006726021726,0.0010067346184083,-0.0010067381908122,0.0010067220860026,9.5345343364032e-09,-8.3270602963768e-09,-0.0013658949803373,0.0013658961656822,-2.5454004897623e-09,3.9356002312615e-09,-0.0016037891776857,0.0016037941002261,-0.0016037870311435,0.0016037961993947,-0.0016037951464797,0.0016037881629351,-0.0016037930054503,0.0016037902704722,-0.0012765672074102,0.0012765530724213,-0.0012765496905349,0.0012765705497829,0.72426546322037,131329,3014,0.0039025615989782,0.0042233120357662,0.0056723212143203,30.221446015928,1.7715681274276e-06,1.7715681274276e-06,1.7715681274276e-06,4196085.4750392,0.013895607562095
34219200,0.99853098762758,0.014497983035869,0.0042807765523442,0.004541065725451,0.005676140758074,-0.00093875353643577,0.00093875470558923,-8.4420601632686e-09,9.6203986682479e-09,-5.4823495933655e-09,6.9259329224446e-09,-0.0011600379373665,0.0011600290028356,-0.0011600319263327,0.0011600350378653,-0.0011600340608377,0.0011600330761943,-0.001160028039811,0.0011600391062187,-0.0010390085803408,0.0010389961715472,-0.001038990869295,0.0010390138254083,5.3581230950874e-09,-6.9705166717651e-09,2.6144960939009e-09,-3.9456357439344e-09,-0.0010163505443901,0.0010163492306258,-0.0012311988332704,0.0012312037187483,-0.0012312009188646,0.0012312015416349,-0.0012312026958752,0.0012311996787937,-0.0012312047744699,0.0012311974994667,-0.0011118807616158,0.0011118817885393,-0.0011118870659434,0.0011118752086062,-0.0010078981236634,0.0010079066151622,-0.0010079101822788,0.0010078942011641,9.5936624535504e-09,-8.3834024723385e-09,-0.0013671564946662,0.0013671576816244,-2.5289709309975e-09,3.921966062923e-09,-0.0016051333797745,0.0016051383514982,-0.001605131242451,0.0016051404390319,-0.0016051393882425,0.0016051323760681,-0.0016051372574719,0.001605134474906,-0.0012778657847967,0.0012778515309932,-0.0012778481517453,0.0012778691154525,0.70594349840571,131329,3014,0.0039070178347103,0.0042278832516657,0.0056775415004231,30.833393164416,6.6671453153262e-06,6.6671453153262e-06,6.6671453153262e-06,4204137.0433195,0.013910057199547
34419200,0.99860619196528,0.014499051126699,0.0042810901127333,0.004541394461226,0.0056765665527395,-0.00093989404604349,0.00093989521181626,-8.5033331178631e-09,9.6779011835561e-09,-5.4447754442006e-09,6.8844520587741e-09,-0.0011612910929093,0.0011612821423803,-0.0011612850412093,0.0011612882163794,-0.0011612872433425,0.0011612861892184,-0.0011612811816441,0.0011612922578203,-0.0010402212925461,0.0010402087393724,-0.0010402034661071,0.001040226510635,5.311952231933e-09,-6.9199219703048e-09,2.6014697419398e-09,-3.9288845425048e-09,-0.0010175210049492,0.0010175196943193,-0.0012324705375706,0.0012324753839459,-0.0012324726120539,0.0012324732155091,-0.0012324743669451,0.0012324713742379,-0.0012324764350917,0.0012324692038803,-0.0011131118040736,0.0011131128397412,-0.0011131180815564,0.0011131062905822,-0.0010091211574545,0.0010091295698022,-0.001009133118898,0.0010091172474607,9.6460080088413e-09,-8.4399455336338e-09,-0.0013684861916559,0.0013684873750526,-2.5153901151469e-09,3.9039064351323e-09,-0.0016065306079505,0.0016065356238446,-0.0016065284821737,0.0016065377018219,-0.0016065366519093,0.0016065296116783,-0.0016065345312444,0.0016065316991034,-0.0012792102870995,0.001279195911616,-0.0012791925507718,0.0012792136069375,0.70867959619429,131329,3014,0.0039117564576201,0.0042327420848343,0.0056830452788122,31.477288597111,1.1818308776888e-05,1.1818308776888e-05,1.1818308776888e-05,4214491.3234333,0.013925371001148
34619200,0.99868012760601,0.014500147827536,0.0042814132364629,0.0045417329033184,0.0056770016877545,-0.00094103303500331,0.00094103419953324,-8.5618479263053e-09,9.735129675265e-09,-5.415944075685e-09,6.8540356926203e-09,-0.0011625469856425,0.0011625380151539,-0.0011625408952634,0.0011625441275393,-0.0011625431558932,0.0011625420421482,-0.0011625370554436,0.001162548149228,-0.0010414362001932,0.0010414235129423,-0.0010414182608967,0.0010414413981077,5.2773085378779e-09,-6.8828698530598e-09,2.5885048333714e-09,-3.9138955229404e-09,-0.0010186906063725,0.0010186892975758,-0.001233745430392,0.001233750245396,-0.0012337474954902,0.0012337480860773,-0.0012337492360005,0.0012337462593727,-0.0012337512947071,0.0012337440982498,-0.001114346779603,0.0011143478140038,-0.0011143530302195,0.0011143412929894,-0.0010103457792322,0.0010103541332368,-0.0010103576702357,0.0010103418810516,9.7010818963131e-09,-8.4968349993468e-09,-0.0013698239439507,0.0013698251257909,-2.5019413419976e-09,3.8884729532028e-09,-0.001607937485273,0.0016079425468458,-0.0016079353693127,0.0016079446153174,-0.0016079435665683,0.0016079364971727,-0.0016079414555008,0.0016079385750042,-0.0012805647009158,0.0012805502042406,-0.0012805468553328,0.0012805680096203,0.7361373985097,131329,3014,0.003916488955805,0.004237597509838,0.0056885822289079,32.121991716108,1.697593372886e-05,1.697593372886e-05,1.697593372886e-05,4224418.9121845,0.013940709361753
34819200,0.99875379802778,0.014501250568146,0.0042817381997328,0.0045420732760535,0.0056774390923593,-0.0009426485106008,0.00094264967267173,-8.6153045568008e-09,9.7859043991026e-09,-5.3635431646733e-09,6.7983754997068e-09,-0.0011643529031213,0.0011643439308935,-0.0011643467772041,0.0011643500788851,-0.0011643491083397,0.0011643479223782,-0.0011643429740374,0.0011643540634147,-0.0010431547026002,0.001043141876598,-0.0010431366622118,0.0010431598600595,5.2553557245747e-09,-6.8611997916701e-09,2.5681954004113e-09,-3.8940084918764e-09,-0.0010203502465589,0.0010203489379661,-0.0012355766261837,0.0012355814132926,-0.0012355786771674,0.0012355792682168,-0.0012355804165224,0.001235577442382,-0.0012355824628159,0.0012355752938917,-0.0011161039707044,0.0011161049810031,-0.0011161101827874,0.0011160984957339,-0.0010121024257234,0.0010121107505923,-0.0010121142768617,0.0010120985401771,9.7622773033648e-09,-8.5589692990689e-09,-0.0013717140744201,0.0013717152549152,-2.4841211966556e-09,3.8695505849152e-09,-0.0016099383696634,0.0016099434821202,-0.0016099362651666,0.0016099455391919,-0.0016099444912217,0.0016099373920868,-0.0016099423931392,0.0016099394567236,-0.0012825026458397,0.0012824880134435,-0.0012824846766623,0.0012825059416282,0.74236048515165,131329,3014,0.0039232023326189,0.0042444885346852,0.0056964042296755,33.053066245983,2.4424529967868e-05,2.4424529967868e-05,2.4424529967868e-05,4236769.5851769,0.013962440726682
35019200,0.99882735539667,0.014502315267379,0.0042820507680506,0.0045424010225768,0.005677863476752,-0.00094442555454365,0.00094442671634054,-8.6732454442758e-09,9.8436003619129e-09,-5.3445343106454e-09,6.7789752123429e-09,-0.0011663488032885,0.0011663398052949,-0.0011663426392066,0.0011663459913799,-0.0011663450216216,0.0011663437837196,-0.0011663388482297,0.0011663499638034,-0.0010450436973145,0.0010450307439258,-0.0010450255429171,0.0010450488425124,5.2231684725979e-09,-6.826725023152e-09,2.5508256384937e-09,-3.874794004145e-09,-0.0010221759846566,0.0010221746777874,-0.0012375994675434,0.0012376042220957,-0.0012376015068724,0.001237602088765,-0.0012376032361643,0.0012376002733509,-0.0012376052698231,0.0012375981374899,-0.0011180348941459,0.0011180358919955,-0.0011180410699398,0.0011180294443391,-0.0010140403616273,0.0010140486345647,-0.0010140521462934,0.0010140364910097,9.8174309326357e-09,-8.6158675479841e-09,-0.0013737964174838,0.0013737975963397,-2.4663866857268e-09,3.8498722036351e-09,-0.0016121467022329,0.0016121518633162,-0.0016121446107323,0.0016121539074272,-0.0016121528615082,0.0016121457356747,-0.0016121507755552,0.0016121477884034,-0.0012846407345579,0.0012846259795238,-0.0012846226568595,0.0012846440158844,0.72136489367324,131329,3014,0.0039305875362654,0.004252069413848,0.0057050211301082,34.085278951709,3.268223161367e-05,3.268223161367e-05,3.268223161367e-05,4250236.6022658,0.013986360143991
35219200,0.99890051792473,0.014503341319325,0.00428235091676,0.0045427160610967,0.0056782743414683,-0.00094621356499762,0.00094621472675727,-8.7324073326266e-09,9.9028782303677e-09,-5.3398007692813e-09,6.7742940369672e-09,-0.0011683229350306,0.0011683139006848,-0.0011683167316101,0.0011683201260176,-0.0011683191566693,0.0011683178757915,-0.0011683129435374,0.0011683240955555,-0.0010469464888867,0.0010469334160349,-0.001046928218479,0.0010469516316918,5.2070881417503e-09,-6.8091176859706e-09,2.5360903557195e-09,-3.8587336756859e-09,-0.0010240123939066,0.001024011088066,-0.0012396029410412,0.001239607675096,-0.0012396049703414,0.0012396055517857,-0.0012396066986438,0.0012396037373718,-0.0012396087218662,0.001239601611948,-0.0011199718229272,0.0011199728029413,-0.0011199779685522,0.0011199663867585,-0.0010159712164228,0.0010159794677851,-0.0010159829666636,0.0010159673573862,9.8711941043842e-09,-8.6713407457278e-09,-0.0013758855229215,0.001375886700214,-2.4515704094127e-09,3.8331802134757e-09,-0.0016143426752462,0.0016143478820718,-0.0016143405944752,0.001614349915483,-0.0016143488710934,0.0016143417178056,-0.0016143467954225,0.0016143437601935,-0.0012867616560339,0.0012867467819015,-0.001286743472455,0.001286764925193,0.70214230320789,131329,3014,0.0039380171166836,0.0042596932718137,0.005713667066722,35.119857545135,4.0958860361076e-05,4.0958860361076e-05,4.0958860361076e-05,4265634.7229372,0.014010396326101
35419200,0.99897213855519,0.014504311297731,0.0042826335040432,0.004543013011075,0.0056786647826129,-0.00094762060524613,0.00094762176816673,-8.7884291093469e-09,9.9602359795396e-09,-5.3511380020543e-09,6.787237307471e-09,-0.0011698637100719,0.0011698546316664,-0.0011698574691338,0.0011698608943832,-0.0011698599244348,0.0011698586144381,-0.0011698536730261,0.0011698648723932,-0.0010484507979389,0.0010484376239459,-0.0010484324183062,0.0010484559539298,5.2496332376705e-09,-6.852504923989e-09,2.5300233432726e-09,-3.8530332593816e-09,-0.001025458231321,0.0010254569242797,-0.0012411690311927,0.0012411737888622,-0.0012411710569295,0.0012411716691243,-0.0012411728183327,0.0012411698222939,-0.0012411748371743,0.0012411677011682,-0.0011214968636358,0.0011214978048385,-0.0011215030000325,0.0011214914033927,-0.0010174811230637,0.0010174894643835,-0.0010174929577454,0.0010174772682655,9.9276612482929e-09,-8.7291464539207e-09,-0.0013775449462507,0.0013775461229596,-2.4486164027144e-09,3.8287967498581e-09,-0.001616081066716,0.001616086314429,-0.0016160789887263,0.0016160883450553,-0.0016160873013276,0.0016160801119718,-0.0016160852278109,0.0016160821525089,-0.0012884271959381,0.0012884122062309,-0.0012884089009866,0.0012884304604575,0.68162298485422,131329,3014,0.0039438631438071,0.0042656948731618,0.0057205352969752,35.931635755518,4.7453086044147e-05,4.7453086044147e-05,4.7453086044147e-05,4278634.7549249,0.014029377343754
35619200,0.9990414071883,0.014505210184662,0.004282894103123,0.004543287228495,0.005679028853044,-0.00094874523473458,0.00094874640062736,-8.8442645944641e-09,1.0019173617182e-08,-5.4260540742432e-09,6.8658533320995e-09,-0.0011710666981218,0.0011710575321524,-0.0011710604183867,0.0011710638335728,-0.0011710628606674,0.0011710615669575,-0.0011710565715598,0.0011710678625077,-0.0010496597813083,0.0010496465497628,-0.0010496412903227,0.0010496649902455,5.2792544084778e-09,-6.8834219010002e-09,2.5349875152511e-09,-3.8589586748089e-09,-0.0010266206258349,0.001026619317723,-0.0012423999895515,0.0012424047690034,-0.0012424020183144,0.0012424026460943,-0.001242403795631,0.001242400782802,-0.00124240581859,0.0012423986573956,-0.001122723410714,0.0011227243418119,-0.0011227295584611,0.0011227179280011,-0.0010186770515638,0.0010186854476023,-0.0010186889449555,0.001018673191181,9.9840739176893e-09,-8.7854765772506e-09,-0.0013788790198058,0.0013788801965166,-2.4504596009942e-09,3.8307252845015e-09,-0.0016174650215377,0.001617470305115,-0.0016174629417447,0.0016174723374833,-0.0016174712930327,0.0016174640653699,-0.0016174692187964,0.0016174661064644,-0.0012897384800718,0.001289723379355,-0.0012897200741249,0.0012897417463187,0.65729900143064,131329,3014,0.0039485347172918,0.0042705187153089,0.0057260580467417,36.575694273591,5.2605554188725e-05,5.2605554188725e-05,5.2605554188725e-05,4289985.9475758,0.01404460689814
35819200,0.99910821119316,0.0145061372183,0.0042831646855753,0.004543571447873,0.0056794010848517,-0.00094988334227224,0.00094988451013757,-8.9004261641784e-09,1.0077103239443e-08,-5.4817633910971e-09,6.9238841547389e-09,-0.0011722314271398,0.001172222187504,-0.0011722251093789,0.0011722285270562,-0.0011722275520485,0.0011722262599973,-0.0011722212249703,0.0011722325936087,-0.0010508860822375,0.0010508727788481,-0.0010508674786796,0.001050891329961,5.3325844261716e-09,-6.9406053428831e-09,2.5394472891147e-09,-3.8666373434817e-09,-0.0010278062887009,0.0010278049777524,-0.0012436039799627,0.0012436087981316,-0.0012436060127713,0.001243606671234,-0.001243607822889,0.0012436047745676,-0.0012436098500001,0.0012436026451536,-0.001123974713652,0.0011239756158641,-0.001123980872176,0.0011239691892787,-0.0010198704091096,0.0010198789056699,-0.0010198824118603,0.0010198665405973,1.0041312012281e-08,-8.8416783406782e-09,-0.0013802119781597,0.0013802131556549,-2.4559803297809e-09,3.837363469533e-09,-0.0016188209852826,0.0016188263031302,-0.0016188189013576,0.0016188283395937,-0.0016188272945376,0.0016188200255723,-0.0016188252161371,0.0016188220706561,-0.0012910182115255,0.0012910030051619,-0.0012909996939244,0.0012910214829894,0.69619236090922,131329,3014,0.0039532604014092,0.0042754374576972,0.0057315780527343,37.215891130631,5.7727129045047e-05,5.7727129045047e-05,5.7727129045047e-05,4302933.3603914,0.014059983077214
36019200,0.99917246465339,0.014507087095442,0.0042834433818711,0.0045438638728388,0.0056797798407321,-0.00095099206845651,0.00095099323815512,-8.9563486415498e-09,1.0134765971121e-08,-5.5274657605388e-09,6.9718301854911e-09,-0.0011734419026074,0.0011734325958895,-0.0011734355472286,0.0011734389730748,-0.0011734379965655,0.0011734366994719,-0.001173431631372,0.00117344307121,-0.0010520834517264,0.0010520700694502,-0.0010520647360356,0.0010520887322863,5.3927032367393e-09,-7.0041758871775e-09,2.5447510839017e-09,-3.874811109998e-09,-0.0010289640856999,0.001028962771977,-0.0012448490488706,0.0012448539102523,-0.0012448510864173,0.0012448517786137,-0.0012448529329782,0.0012448498452399,-0.0012448549643302,0.0012448477115851,-0.0011252124861204,0.001125213356635,-0.0011252186568544,0.0011252069173557,-0.0010210773685095,0.0010210859783465,-0.0010210894921984,0.0010210734922146,1.009864809888e-08,-8.898285419959e-09,-0.00138153868295,0.0013815398611066,-2.4634390830976e-09,3.8456236713954e-09,-0.001620215345375,0.0016202206967678,-0.0016202132564402,0.0016202227382066,-0.0016202216928853,0.0016202143810312,-0.0016202196089547,0.0016202164315701,-0.0012923400926754,0.0012923247815698,-0.0012923214641235,0.0012923433702374,0.73586310882489,131329,3014,0.0039578668076583,0.0042802432868962,0.0057370694211108,37.855951160803,6.2847609286428e-05,6.2847609286428e-05,6.2847609286428e-05,4311557.138181,0.014075098952653
36219200,0.99923200217026,0.014507936043773,0.0042836914025844,0.0045441244798178,0.0056801201613711,-0.00095089369107698,0.00095089486506922,-9.0117159152059e-09,1.019436374098e-08,-5.6316939126755e-09,7.0815065383068e-09,-0.0011734708428691,0.0011734614308976,-0.0011734644493795,0.0011734678461799,-0.0011734668660907,0.0011734656057531,-0.0011734604622947,0.0011734720160442,-0.0010520111476689,0.0010519977277169,-0.0010519923190208,0.0010520165039941,5.4855374489623e-09,-7.1012087361682e-09,2.566963878363e-09,-3.9005847280407e-09,-0.001028873559041,0.0010288722415879,-0.0012448752598006,0.0012448801966384,-0.0012448773134761,0.001244878048742,-0.0012448792070349,0.0012448760681004,-0.0012448812540484,0.0012448739186536,-0.0011251524174951,0.001125153267651,-0.0011251586348784,0.0011251467823391,-0.0010210475811445,0.0010210563580227,-0.0010210598897839,0.0010210436849535,1.0155547304295e-08,-8.9533288658901e-09,-0.001381550265772,0.0013815514458454,-2.4859359211581e-09,3.8701328308633e-09,-0.0016203075015571,0.0016203128767892,-0.0016203053971646,0.0016203149336439,-0.0016203138866569,0.0016203065235884,-0.0016203117867881,0.00162030858998,-0.0012923952350929,0.0012923798324221,-0.0012923764976319,0.0012923985300916,0.71361056164357,131329,3014,0.003957462907901,0.0042798710677506,0.0057371130596806,37.827198186104,6.2617585488829e-05,6.2617585488829e-05,6.2617585488829e-05,4304562.905386,0.014074360322412
36419200,0.99928631567942,0.014508699250631,0.004283914172345,0.0045443585650434,0.0056804265132423,-0.00095027715520529,0.00095027833282164,-9.0654915861313e-09,1.0251647545263e-08,-5.7132658406797e-09,7.1676367327355e-09,-0.0011729037896701,0.0011728942886217,-0.0011728973589431,0.0011729007410425,-0.0011728997575712,0.0011728985194842,-0.0011728933167737,0.0011729049666475,-0.0010513992451365,0.0010513857772895,-0.0010513803095983,0.0010514046630078,5.6056692574794e-09,-7.2272352571426e-09,2.591372830888e-09,-3.9297872407588e-09,-0.0010282487250284,0.0010282474025289,-0.001244296733452,0.001244301765144,-0.0012442988046839,0.0012442995994866,-0.0012443007627262,0.0012442975545552,-0.0012443028275123,0.0012442953870667,-0.001124530739734,0.001124531557426,-0.0011245370115342,0.0011245250199831,-0.001020448138582,0.0010204571369681,-0.0010204606906771,0.0010204442199982,1.0214012693335e-08,-9.0106481574722e-09,-0.0013809781964123,0.0013809793779954,-2.5146299342522e-09,3.9002808154219e-09,-0.001619768003477,0.0016197733991348,-0.0016197658792345,0.0016197754757459,-0.0016197744271602,0.0016197670076479,-0.0016197723079241,0.0016197690937696,-0.0012918412330282,0.0012918257371328,-0.0012918223807369,0.001291844547856,0.70434021026217,131329,3014,0.0039549052591299,0.0042772797193498,0.0057347419653966,37.495840446532,5.9966723572254e-05,5.9966723572254e-05,5.9966723572254e-05,4294845.4916773,0.014066735278708
36619200,0.99933590750254,0.014509353404213,0.0042841039796068,0.0045445582947574,0.0056806911298491,-0.00094966015653883,0.00094966133639276,-9.1206157368322e-09,1.0309025341411e-08,-5.7817955892606e-09,7.2388943881572e-09,-0.0011723052080155,0.0011722956244841,-0.0011722987397457,0.0011723021145991,-0.0011723011289056,0.0011722999023521,-0.0011722946508247,0.0011723063869131,-0.0010507823873524,0.0010507688573566,-0.001050763340823,0.0010507878518508,5.6848591540829e-09,-7.3114773892357e-09,2.6151649954916e-09,-3.9574444326986e-09,-0.0010276214279964,0.0010276201017165,-0.0012436874309019,0.0012436925300857,-0.0012436895191244,0.0012436903474123,-0.0012436915135911,0.0012436882651707,-0.0012436935956751,0.0012436860804222,-0.0011239007996306,0.0011239016082218,-0.0011239071205824,0.0011238950189763,-0.0010198297675698,0.0010198389025889,-0.0010198424787722,0.0010198258256332,1.0272118449832e-08,-9.0668607375106e-09,-0.0013803879034147,0.0013803890866431,-2.5404163197311e-09,3.9282462580086e-09,-0.0016191914424689,0.0016191968596787,-0.0016191893002295,0.0016191989542981,-0.0016191979040796,0.0016191904301948,-0.0016191957667819,0.0016191925337014,-0.0012912550640616,0.0012912394757853,-0.0012912361003503,0.0012912583995773,0.66675281950376,131329,3014,0.0039523444834275,0.0042746772664553,0.0057322965452107,37.157426064256,5.7259408514052e-05,5.7259408514052e-05,5.7259408514052e-05,4286417.8995643,0.014059019344464
36819200,0.99938124473141,0.014509933928537,0.004284272014579,0.004544735193228,0.0056809267207302,-0.00094907809182398,0.00094907927441557,-9.1770448012866e-09,1.0368116784149e-08,-5.8484862774059e-09,7.3089281073222e-09,-0.0011716638110639,0.0011716541462135,-0.0011716573043543,0.0011716606748164,-0.0011716596866433,0.0011716584697145,-0.001171653169991,0.0011716649928553,-0.0010501977200047,0.0010501841249393,-0.0010501785600297,0.0010502032325252,5.7189854606666e-09,-7.3474034400559e-09,2.6401005781026e-09,-3.9837483898813e-09,-0.001027026801712,0.0010270254741004,-0.0012430398785875,0.0012430450168964,-0.0012430419838593,0.0012430428170872,-0.0012430439844923,0.0012430407285858,-0.0012430460835151,0.0012430385268111,-0.001123291390192,0.0011232922240318,-0.001123297760882,0.001123285584478,-0.0010192005067609,0.0010192096916742,-0.0010192132866531,0.001019196546025,1.0328477945677e-08,-9.1218381818697e-09,-0.0013798013736853,0.0013798025582482,-2.5621593005568e-09,3.9516082828148e-09,-0.0016185744761182,0.0016185799166977,-0.0016185723188998,0.0016185820262701,-0.0016185809748969,0.0016185734501009,-0.0016185788225182,0.0016185755686884,-0.00129062741375,0.0012906117331254,-0.0012906083409054,0.0012906307655407,0.64957834830239,131329,3014,0.0039499258405761,0.0042722077846836,0.0057298696623338,36.818760953677,5.4550087629414e-05,5.4550087629414e-05,5.4550087629414e-05,4282128.8504243,0.014051597798783
37019200,0.99942392690724,0.014510520282424,0.0042844430793944,0.0045449148738309,0.0056811623291984,-0.00094946152955667,0.00094946271037805,-9.2350242989645e-09,1.0424272233315e-08,-5.8127561667009e-09,7.2708764827732e-09,-0.0011719960814025,0.0011719864016317,-0.0011719895368792,0.0011719929681166,-0.0011719919816047,0.0011719907002528,-0.0011719854267291,0.0011719972616645,-0.0010506248851664,0.0010506111513347,-0.0010506056119616,0.0010506303703875,5.6856887235663e-09,-7.3130297795667e-09,2.6495685852076e-09,-3.9920558874703e-09,-0.0010274198856887,0.0010274185595097,-0.0012433861334675,0.0012433912570456,-0.0012433882448482,0.0012433890511366,-0.0012433902170577,0.001243386991164,-0.0012433923217796,0.0012433847836893,-0.0011237085585326,0.001123709432518,-0.0011237149449806,0.0011237027751694,-0.0010195654711688,0.0010195745829041,-0.0010195781852044,0.0010195615053957,1.0385460398431e-08,-9.177819061457e-09,-0.0013802329179644,0.0013802341032699,-2.5707912108285e-09,3.961368384915e-09,-0.001618985213959,0.0016189906867042,-0.0016189830508236,0.0016189928022347,-0.0016189917505857,0.0016189841822645,-0.0016189895918357,0.0016189863071609,-0.0012910014845637,0.0012909857015771,-0.0012909823013015,0.0012910048437083,0.68961816703908,131329,3014,0.0039515157111519,0.0042738364609361,0.0057316590710297,37.016466670013,5.6131733360103e-05,5.6131733360103e-05,5.6131733360103e-05,4289021.0462536,0.014056672755796
37219200,0.99946434951046,0.014511116341609,0.0042846180782006,0.0045450984008073,0.0056813998626013,-0.00095004190108862,0.00095004307913844,-9.2930601436563e-09,1.0479635542092e-08,-5.7511488173514e-09,7.2060352635691e-09,-0.0011726240354247,0.0011726143570469,-0.0011726174528998,0.0011726209615063,-0.0011726199774607,0.0011726186135913,-0.0011726133849517,0.001172625212606,-0.0010512570517259,0.0010512431626341,-0.0010512376685816,0.0010512624925676,5.6113752000404e-09,-7.2335778376293e-09,2.6550838887381e-09,-3.9934669440824e-09,-0.0010280172085891,0.0010280158864356,-0.0012440267025832,0.0012440317808546,-0.0012440288160592,0.0012440295728152,-0.0012440307350163,0.0012440275664871,-0.0012440328422097,0.001244025356512,-0.0011243496687194,0.0011243506056914,-0.0011243560630501,0.0011243439415246,-0.0010201849951571,0.0010201939593484,-0.0010201975581865,0.0010201810321818,1.0442236411434e-08,-9.2348664908737e-09,-0.0013809031062683,0.0013809042914535,-2.5729996582149e-09,3.9633121197117e-09,-0.0016196933798827,0.0016196988890216,-0.0016196912152186,0.0016197010061639,-0.0016196999542339,0.0016196923468001,-0.0016196977943255,0.0016196944729353,-0.0012916645201777,0.0012916486258723,-0.0012916452250664,0.0012916678803133,0.73362544296776,131329,3014,0.0039539266147736,0.0042763157474804,0.0057344334302856,37.343459000173,5.8747672001384e-05,5.8747672001384e-05,5.8747672001384e-05,4293643.3745615,0.014064446292638
37419200,0.99950258718021,0.014511638422625,0.0042847701534061,0.0045452582417911,0.0056816100274274,-0.00095058607325186,0.00095058724777558,-9.3518000885737e-09,1.0534893287536e-08,-5.671871836797e-09,7.1225014950566e-09,-0.0011733036185166,0.0011732939529322,-0.0011732969980348,0.0011733005953635,-0.0011732996145817,0.001173298155042,-0.0011732929840252,0.0011733047921217,-0.0010518465493944,0.0010518324909027,-0.0010518270545006,0.0010518519324934,5.5414653352482e-09,-7.1593664329868e-09,2.6566908808864e-09,-3.9916649309111e-09,-0.0010285796026775,0.0010285782840195,-0.0012447125734618,0.0012447176071236,-0.0012447146869363,0.0012447153991247,-0.0012447165581572,0.0012447134408617,-0.0012447186652596,0.0012447112310179,-0.0011249613402725,0.0011249623284564,-0.0011249677342415,0.0011249556645944,-0.0010208150746783,0.0010208239012595,-0.0010208274961444,0.0010208111160357,1.0499953088817e-08,-9.2903583583411e-09,-0.0013815659662352,0.0013815671536221,-2.5727963042507e-09,3.9653191271637e-09,-0.0016204423367563,0.0016204478852475,-0.0016204401715688,0.00162045000299,-0.0016204489488687,0.0016204413052536,-0.0016204467883097,0.0016204434320367,-0.0012923733365411,0.0012923573343147,-0.0012923539307798,0.001292376699655,0.68665560158393,131329,3014,0.0039561903319683,0.0042786529240215,0.0057371743375136,37.673535766423,6.1388286131386e-05,6.1388286131386e-05,6.1388286131386e-05,4293821.893914,0.014071896590367
37619200,0.99953870873101,0.014512113055392,0.0042849079158524,0.0045454031707353,0.005681801968804,-0.00095116030849442,0.00095116147990504,-9.4101916264288e-09,1.0590251675081e-08,-5.5995069747879e-09,7.0463382382919e-09,-0.0011739228074274,0.0011739131503408,-0.0011739161489776,0.0011739198306988,-0.0011739188527953,0.0011739173028375,-0.001173912184324,0.0011739239777938,-0.0010524704099831,0.0010524561878126,-0.0010524508040231,0.0010524757408585,5.4657427490912e-09,-7.0789983644482e-09,2.6578316661778e-09,-3.9889546051332e-09,-0.0010291709510349,0.0010291696362072,-0.0012453439681447,0.0012453489530654,-0.0012453460810611,0.0012453467455987,-0.0012453479011451,0.0012453448388463,-0.0012453500077345,0.0012453426294791,-0.0011255895890707,0.0011255906316982,-0.0011255959817839,0.0011255839695528,-0.0010214288209838,0.0010214374990381,-0.0010214410893336,0.0010214248674486,1.0556668148799e-08,-9.3471194288588e-09,-0.0013822457053432,0.0013822468927442,-2.5716286871265e-09,3.9640837926377e-09,-0.0016211544654444,0.0016211600526222,-0.001621152301055,0.0016211621696308,-0.0016211611153152,0.0016211534347698,-0.0016211589556186,0.0016211555607781,-0.0012930437426213,0.0012930276281885,-0.0012930242258417,0.0012930471050162,0.66415286969168,131329,3014,0.0039585756270699,0.0042811070952415,0.0057399883668563,38.003722588715,6.4029780709724e-05,6.4029780709724e-05,6.4029780709724e-05,4299311.7803223,0.014079658527958
37819200,0.99957186314879,0.014512530390124,0.004285028487238,0.0045455301766677,0.0056819717262181,-0.00095082158432876,0.00095082275607563,-9.4662759262684e-09,1.0647080163245e-08,-5.5867888234952e-09,7.0343004840664e-09,-0.0011735428211001,0.0011735331344915,-0.0011735361252452,0.0011735398532142,-0.0011735388742095,0.0011735372789082,-0.0011735321689599,0.001173543991719,-0.0010521344026809,0.0010521200635217,-0.0010521146891358,0.0010521397275105,5.4386291338182e-09,-7.0490656756948e-09,2.6664087328317e-09,-3.9954925125695e-09,-0.0010288257361843,0.0010288244230058,-0.0012449619696346,0.0012449669412665,-0.0012449640879153,0.0012449647297287,-0.0012449658841485,0.0012449628473522,-0.00124496799655,0.0012449606331475,-0.0011252341647712,0.0011252352452045,-0.0011252405746821,0.0011252285690443,-0.0010210546466156,0.0010210632692758,-0.0010210668593784,0.0010210506921161,1.0614125751097e-08,-9.4037907240014e-09,-0.0013819104995172,0.0013819116880571,-2.5769825367759e-09,3.9703274413102e-09,-0.0016208014314873,0.0016208070539295,-0.0016207992623848,0.0016208091745447,-0.0016208081195246,0.001620800398759,-0.0016208059564159,0.0016208025285747,-0.0012926699345853,0.0012926537107722,-0.0012926503041856,0.0012926732994792,0.64016142431164,131329,3014,0.0039571676981313,0.0042796728781997,0.0057386020280204,37.803929403953,6.2431435231624e-05,6.2431435231624e-05,6.2431435231624e-05,4297473.3243773,0.014075367717181
38019200,0.99960224736651,0.014512930985186,0.0042851448543728,0.0045456525628692,0.0056821335679439,-0.00095042829486828,0.00095042946513715,-9.5242209222356e-09,1.0703368421618e-08,-5.568799189772e-09,7.0143577673615e-09,-0.0011730491690424,0.0011730394558371,-0.0011730424348899,0.0011730462119012,-0.0011730452351706,0.0011730435874335,-0.0011730384909868,0.0011730503381148,-0.0010517432836289,0.0010517288172962,-0.001051723455998,0.0010517485932103,5.4335097379158e-09,-7.0441803752444e-09,2.6702442538747e-09,-3.9992001499289e-09,-0.0010284224794322,0.0010284211665658,-0.0012444681674839,0.0012444731392777,-0.0012444702879281,0.0012444709242932,-0.0012444720782959,0.0012444690476033,-0.0012444741923808,0.0012444668306943,-0.0011248167040574,0.00112481779377,-0.0011248231195753,0.0011248111100424,-0.001020594557782,0.001020603165065,-0.0010206067596408,0.001020590599242,1.0670354378469e-08,-9.4602539249717e-09,-0.0013814922031241,0.0013814933912069,-2.5823204909404e-09,3.9754398625705e-09,-0.0016203327890006,0.0016203384452482,-0.0016203306171942,0.001620340569585,-0.001620339514509,0.001620331751799,-0.001620337347488,0.0016203338852536,-0.0012921863685205,0.0012921700390983,-0.0012921666297389,0.0012921897384472,0.66569814718699,131329,3014,0.003955531260791,0.0042779961773693,0.0057368735337383,37.559545997405,6.0476367979238e-05,6.0476367979238e-05,6.0476367979238e-05,4297237.6372134,0.014070250179886
38219200,0.99963011734841,0.014513301689546,0.004285252633591,0.0045457658909352,0.0056822831650199,-0.00095001334865081,0.00095001451847233,-9.5813561760869e-09,1.0759948546105e-08,-5.5607207629742e-09,7.0056526837664e-09,-0.0011725873573399,0.0011725776114402,-0.0011725805852278,0.0011725844054943,-0.0011725834289999,0.0011725817374326,-0.0011725766469491,0.0011725885259922,-0.0010513305675637,0.0010513159840945,-0.0010513106285146,0.001051335870984,5.4242834053297e-09,-7.0347665767173e-09,2.67278538142e-09,-4.0015636086885e-09,-0.0010279978070241,0.0010279964944591,-0.0012440018833165,0.0012440068509536,-0.0012440040053484,0.0012440046343809,-0.0012440057879224,0.0012440027654776,-0.0012440079037143,0.0012440005468978,-0.0011243872349472,0.0011243883359831,-0.0011243936551644,0.0011243816470619,-0.0010201436560856,0.0010201522436943,-0.0010201558404631,0.0010201396962655,1.0727135372907e-08,-9.516726900114e-09,-0.0013810641016146,0.0013810652899708,-2.5845363412183e-09,3.9779918257862e-09,-0.0016198858140208,0.0016198915065669,-0.0016198836406095,0.0016198936325588,-0.0016198925772111,0.0016198847754406,-0.0016198904086324,0.0016198869104056,-0.0012917268582657,0.0012917104200246,-0.0012917070082792,0.0012917302302921,0.6707617260389,131329,3014,0.0039538068911549,0.0042762325909038,0.0057351024475158,37.313998704626,5.8511989637006e-05,5.8511989637006e-05,5.8511989637006e-05,4293861.6702514,0.01406491505621
38419200,0.99965587654371,0.014513669214239,0.0042853602477946,0.0045458788259244,0.0056824301405195,-0.00094982184272608,0.00094982301197606,-9.6380268768065e-09,1.0815991368829e-08,-5.5523555969949e-09,6.996457094303e-09,-0.0011723702642297,0.0011723604858219,-0.0011723634543749,0.001172367317691,-0.0011723663413904,0.0011723646061045,-0.0011723595220223,0.0011723714320409,-0.0010511516672757,0.0010511369671462,-0.0010511316174293,0.0010511569627504,5.4023050108033e-09,-7.0122542800205e-09,2.6707402983408e-09,-3.9990738275231e-09,-0.0010278018266173,0.0010278005147737,-0.0012437831385414,0.0012437880905713,-0.001243785258896,0.0012437858757406,-0.0012437870280432,0.0012437840200367,-0.0012437891426005,0.001243781802786,-0.0011241978817197,0.0011241989932335,-0.001124204296806,0.0011241923072046,-0.001019934755534,0.0010199433005263,-0.0010199468965815,0.001019930797214,1.0784437540542e-08,-9.5737164150646e-09,-0.0013808762488806,0.0013808774372489,-2.5808575101041e-09,3.9746199927346e-09,-0.0016196914923775,0.0016196972249508,-0.0016196893211175,0.0016196993487945,-0.0016196982933785,0.0016196904558597,-0.0016196961273068,0.0016196925881664,-0.0012915172124935,0.0012915006599686,-0.0012914972500878,0.0012915205829301,0.71253733202661,131329,3014,0.0039530108997404,0.0042754185353973,0.0057343256103039,37.196446375377,5.7571571003018e-05,5.7571571003018e-05,5.7571571003018e-05,4292119.1908554,0.014062493531775
38619200,0.99967983872389,0.014514013083415,0.0042854609682072,0.0045459845177521,0.0056825675974556,-0.00094979794001018,0.0009497991086778,-9.6953579358526e-09,1.0872762446365e-08,-5.533205999796e-09,6.9766057157196e-09,-0.0011724137438678,0.0011724039400986,-0.0011724068961567,0.0011724108097712,-0.001172409834239,0.0011724080471733,-0.0011724029765793,0.0011724149113673,-0.0010511463951788,0.0010511315695941,-0.0010511262335641,0.0010511516780158,5.3853941670337e-09,-6.9941671074315e-09,2.6636336319593e-09,-3.990993851154e-09,-0.0010277794120541,0.0010277781010724,-0.0012438223984502,0.0012438273347722,-0.001243824513977,0.0012438251247786,-0.0012438262766571,0.0012438232757971,-0.0012438283859315,0.001243821063814,-0.0011241992351013,0.0011242003444304,-0.0011242056354451,0.0011241936743747,-0.0010199497879259,0.0010199583048549,-0.0010199618945008,0.0010199458360989,1.0840550180339e-08,-9.6305348404772e-09,-0.0013808952825117,0.0013808964703237,-2.5740146824713e-09,3.9669728809956e-09,-0.0016197561882873,0.0016197619630983,-0.0016197540220996,0.0016197640819129,-0.0016197630271757,0.0016197551562095,-0.001619760865776,0.0016197572839737,-0.0012915660188652,0.0012915493507148,-0.0012915459461938,0.0012915693834655,0.71625966954446,131329,3014,0.0039529140092066,0.0042753276651376,0.0057344022549045,37.19370945422,5.7549675633761e-05,5.7549675633761e-05,5.7549675633761e-05,4287957.8858848,0.014062384014033
38819200,0.99970213253288,0.014514334192771,0.0042855550662634,0.0045460832400132,0.0056826958864943,-0.00094977587369344,0.00094977704168598,-9.7527530755293e-09,1.0929492726411e-08,-5.5152286277865e-09,6.957828156567e-09,-0.0011724626131689,0.0011724527828872,-0.00117245572736,0.0011724596906294,-0.0011724587157084,0.0011724568777046,-0.0011724518200229,0.0011724637799126,-0.0010511390327501,0.0010511240826155,-0.0010511187595372,0.0010511443026603,5.3787571490815e-09,-6.9871046805312e-09,2.6545934201246e-09,-3.9817219446316e-09,-0.0010277587083275,0.0010277573975838,-0.001243866376657,0.0012438713025011,-0.0012438684860848,0.001243869098643,-0.0012438702502981,0.0012438672481226,-0.0012438723535347,0.0012438650422089,-0.0011241981782383,0.0011241992745094,-0.0011242045608089,0.001124192622365,-0.001019967582764,0.0010199760930055,-0.0010199796758488,0.0010199636374793,1.0896758162106e-08,-9.6872269329844e-09,-0.0013809168529001,0.0013809180402209,-2.5662396604046e-09,3.9586222784244e-09,-0.0016198229730011,0.0016198287902973,-0.0016198208121736,0.0016198309037743,-0.0016198298494754,0.0016198219458147,-0.0016198276934805,0.0016198240681537,-0.0012916203179717,0.0012916035332486,-0.0012916001346855,0.0012916236767713,0.71844600554841,131329,3014,0.0039528248214917,0.0042752439149146,0.0057344892639808,37.193612244711,5.7548897957692e-05,5.7548897957692e-05,5.7548897957692e-05,4283927.4503313,0.01406229998267
38880000,0.99970875910401,0.01451442977053,0.0042855830859548,0.0045461126306346,0.0056827340539401,-0.00094976646303658,0.00094976763107854,-9.7699941453559e-09,1.0946787413365e-08,-5.516116962472e-09,6.9587744318355e-09,-0.0011724774357623,0.0011724675934431,-0.001172470538485,0.0011724745126354,-0.0011724735377426,0.0011724716888348,-0.0011724666304856,0.0011724786026017,-0.0010511350544355,0.0010511200710165,-0.0010511147474217,0.0010511403251873,5.3770572865351e-09,-6.985244315899e-09,2.6516116033798e-09,-3.9785942029243e-09,-0.0010277496653372,0.0010277483546942,-0.0012438792435806,0.0012438841663278,-0.0012438813510311,0.0012438819644455,-0.0012438831160949,0.0012438801130877,-0.0012438852172505,0.0012438779092566,-0.0011241956722033,0.0011241967637368,-0.0011242020488189,0.0011241901179206,-0.0010199721439247,0.001019980652726,-0.0010199842332841,0.0010199682008724,1.09138541436e-08,-9.7046082834079e-09,-0.0013809220316797,0.0013809232187616,-2.5630856179937e-09,3.9551443969065e-09,-0.0016198427880427,0.0016198486189031,-0.001619840629485,0.0016198507301123,-0.0016198496760509,0.0016198417628714,-0.0016198475222328,0.0016198438830585,-0.0012916372888596,0.0012916204679293,-0.0012916170720263,0.0012916406451551,0.71909630848649,131329,3014,0.0039527865661972,0.0042752070932027,0.0057345098854687,37.193608867082,5.7548870936653e-05,5.7548870936653e-05,5.7548870936653e-05,4282678.3386089,0.01406224573109
