time,ASR_ext,ASR_strain,ASR_strain_xx,ASR_strain_yy,ASR_strain_zz,disp_x_101,disp_x_102,disp_x_103,disp_x_104,disp_x_105,disp_x_106,disp_x_p1_neg,disp_x_p1_pos,disp_x_p2_neg,disp_x_p2_pos,disp_x_p3_neg,disp_x_p3_pos,disp_x_p4_neg,disp_x_p4_pos,disp_x_p5_neg,disp_x_p5_pos,disp_x_p6_neg,disp_x_p6_pos,disp_y_101,disp_y_102,disp_y_103,disp_y_104,disp_y_105,disp_y_106,disp_y_p1_neg,disp_y_p1_pos,disp_y_p2_neg,disp_y_p2_pos,disp_y_p3_neg,disp_y_p3_pos,disp_y_p4_neg,disp_y_p4_pos,disp_y_p5_neg,disp_y_p5_pos,disp_y_p6_neg,disp_y_p6_pos,disp_y_p7_neg,disp_y_p7_pos,disp_y_p8_neg,disp_y_p8_pos,disp_z_101,disp_z_102,disp_z_103,disp_z_104,disp_z_105,disp_z_106,disp_z_p1_neg,disp_z_p1_pos,disp_z_p2_neg,disp_z_p2_pos,disp_z_p3_neg,disp_z_p3_pos,disp_z_p4_neg,disp_z_p4_pos,disp_z_p5_neg,disp_z_p5_pos,disp_z_p6_neg,disp_z_p6_pos,humidity,ndof,nelem,strain_xx,strain_yy,strain_zz,temp,thermal_strain_xx,thermal_strain_yy,thermal_strain_zz,vonmises,vstrain
2419200,0,0,0,0,0,0,0,0,0,0,0,0,0,0,0,0,0,0,0,0,0,0,0,0,0,0,0,0,0,0,0,0,0,0,0,0,0,0,0,0,0,0,0,0,0,0,0,0,0,0,0,0,0,0,0,0,0,0,0,0,0,0,0,0,0,0,0,0,0,0,0,0,0,0,0
2619200,0.019606421934599,0.00040218148223899,0.00013406049407966,0.00013406049407966,0.00013406049407966,-3.3274959958178e-05,3.3275079367605e-05,4.8575251583305e-11,6.9780868376562e-11,-2.3273059303058e-10,3.6219173763478e-10,-3.3221036818556e-05,3.3220952701324e-05,-3.3221014376872e-05,3.3220944253899e-05,-3.322083931752e-05,3.3221142347397e-05,-3.3220834348603e-05,3.3221151402206e-05,-3.4587154766983e-05,3.4587449207903e-05,-3.4587131633928e-05,3.4587468112783e-05,2.2269683451404e-10,-3.5834557517141e-10,-4.1315089760077e-09,4.0065158037062e-09,-3.3963162661104e-05,3.3963036547703e-05,-3.3837584447879e-05,3.3834982565385e-05,-3.3834977525767e-05,3.3837710430241e-05,-3.3837768709497e-05,3.3834788994145e-05,-3.3835161754962e-05,3.3837516780922e-05,-3.5121821506429e-05,3.5113518684705e-05,-3.5113943081131e-05,3.5121611249991e-05,-3.4710827591388e-05,3.4713965291144e-05,-3.4711393573264e-05,3.4713382276138e-05,-1.0296216194575e-09,-1.0502969531251e-09,-3.5184585031016e-05,3.5182490659302e-05,2.9132944773765e-09,-5.1306235693183e-09,-3.4900523203641e-05,3.4901138276919e-05,-3.4903190167007e-05,3.4898470134619e-05,-3.490053082207e-05,3.4901131906781e-05,-3.4903197954311e-05,3.4898464049401e-05,-3.5634099112029e-05,3.5629319901585e-05,-3.5634076839906e-05,3.5629337491797e-05,0.81992968229932,131329,3014,0.00013863628624091,0.00014150285555201,0.00014658725157811,31.574755723123,1.2598045784988e-05,1.2598045784988e-05,1.2598045784988e-05,594527.3487575,0.0004268176938252
2819200,0.041187392145871,0.00084124700621775,0.00027826403469857,0.00028012980359176,0.00028285316792742,-6.8062004276811e-05,6.8066424972748e-05,2.1383678175663e-09,2.2407539487145e-09,-8.8542844159573e-09,1.3655164073482e-08,-6.9011247486601e-05,6.9008199893385e-05,-6.9011210902123e-05,6.9008230886236e-05,-6.9004101928634e-05,6.9015700563602e-05,-6.9004061076685e-05,6.9015728242459e-05,-7.0673519374968e-05,7.0685247208793e-05,-7.0673401756047e-05,7.068533186111e-05,8.6416492395652e-09,-1.3784804757997e-08,-8.357440956164e-10,-3.8976810449199e-09,-6.9887494107212e-05,6.9882718599187e-05,-7.0633420653434e-05,7.0637046566528e-05,-7.0634392506619e-05,7.0636018523964e-05,-7.0640537490031e-05,7.0629572859259e-05,-7.0641508894402e-05,7.0628545190143e-05,-7.2118252311045e-05,7.2109105757572e-05,-7.2121226860664e-05,7.2106065181773e-05,-7.112335111028e-05,7.1139444413917e-05,-7.1145186476472e-05,7.111694594218e-05,9.9937122531051e-10,9.0182901186038e-10,-7.3058420171244e-05,7.306031259544e-05,-5.4915596456665e-10,2.4812849802853e-09,-7.3298628458624e-05,7.3299535876685e-05,-7.3297605009828e-05,7.3300509827137e-05,-7.3298689779854e-05,7.3299531534133e-05,-7.3297665319348e-05,7.330050550922e-05,-7.3588776657161e-05,7.3591582804336e-05,-7.3588607996338e-05,7.3591603354017e-05,0.82138491994782,131329,3014,0.00028356081931655,0.00029114546990022,0.00030436736619109,32.7421687945,2.1937350356e-05,2.1937350356e-05,2.1937350356e-05,875142.84352846,0.00087946081415468
3019200,0.062592236393824,0.0012725420943118,0.0004168197359191,0.00042272783078396,0.00043299452760877,-9.8956777443433e-05,9.8961520755591e-05,2.2481952163558e-09,2.4293741919956e-09,-1.2004526041205e-08,1.7267996700076e-08,-0.00010098941661412,0.00010098439499347,-0.00010098937181991,0.00010098447045693,-0.00010098007552732,0.00010099416098849,-0.00010098000917632,0.00010099421563334,-0.00010347509207442,0.00010348929443565,-0.00010347490981439,0.00010348946836381,1.171625757875e-08,-1.7506209047716e-08,2.8525089216256e-09,-8.0735194918207e-09,-0.0001023182616872,0.00010231297528896,-0.00010408219276643,0.00010409017503626,-0.00010408570443306,0.00010408651000434,-0.00010409152184123,0.00010408043419712,-0.00010409503314993,0.00010407676943624,-0.00010617952083101,0.00010617533961868,-0.00010619010307583,0.00010616447479828,-0.00010400819312517,0.00010402776505077,-0.00010403662061722,0.00010399843905878,1.8696972048757e-09,1.6919363578843e-09,-0.00010846359016982,0.0001084671626894,-3.5356230255516e-09,7.271955011801e-09,-0.0001095755304443,0.00010957552912492,-0.0001095719067937,0.00010957906394696,-0.00010957564183488,0.00010957552158051,-0.00010957201689389,0.00010957905596602,-0.00010884478528286,0.00010885176902332,-0.00010884446776018,0.00010885179825012,0.82013326245844,131329,3014,0.00041224540055185,0.00042622411974748,0.00045183601964749,32.491586597262,1.9932692778094e-05,1.9932692778094e-05,1.9932692778094e-05,1180463.4059119,0.0012911398679323
3219200,0.083744832961181,0.0016888390290829,0.00054857247192116,0.00055976405998834,0.00058050249717341,-0.00012818685705454,0.0001281910982263,1.9555474196628e-09,2.2152452622742e-09,-1.2316324842458e-08,1.712567625714e-08,-0.00013171957812051,0.00013171395372857,-0.00013171952044863,0.0001317140687345,-0.00013171017919639,0.00013172377755483,-0.00013171008815183,0.00013172385980687,-0.00013470979557455,0.00013472347455039,-0.00013470954649148,0.00013472373523368,1.2034621992844e-08,-1.7366354613727e-08,5.3460018330661e-09,-1.0054697168785e-08,-0.0001333318599504,0.00013332708238686,-0.00013655549386651,0.00013656553491678,-0.00013656045000939,0.00013656036761679,-0.00013656488263251,0.0001365557369451,-0.00013656983846687,0.00013655056985449,-0.00013888723970195,0.00013888789771046,-0.0001389021362756,0.00013887256534142,-0.00013523229676298,0.00013525102842556,-0.00013526087033708,0.00013522148709736,2.347087653598e-09,2.0888317542193e-09,-0.00014311721760945,0.00014312167864052,-5.2519198725412e-09,9.9670131500458e-09,-0.00014559338399611,0.0001455928091528,-0.00014558828858036,0.00014559779576313,-0.00014559353485729,0.00014559278750995,-0.00014558843779326,0.00014559777319292,-0.00014298998785094,0.00014299924145713,-0.00014298956074136,0.00014299931897461,0.80675915170147,131329,3014,0.00053397978434225,0.00055538520819034,0.00059615128116561,32.203450377131,1.7627603017051e-05,1.7627603017051e-05,1.7627603017051e-05,1428847.614614,0.0016869401775833
3419200,0.10462397844914,0.0020864629187547,0.00067269304615914,0.00069005147557028,0.00072371839702529,-0.00015562204895807,0.00015562560994142,1.577847088031e-09,1.9173287954214e-09,-1.1761456814612e-08,1.5899089735752e-08,-0.0001611639177077,0.00016115817727431,-0.0001611638441249,0.00016115832951753,-0.00016115511704474,0.00016116740641078,-0.00016115500073492,0.00016116751657782,-0.00016406719288004,0.00016407952612138,-0.00016406687109696,0.00016407987033173,1.1390779824403e-08,-1.6223435904928e-08,6.8071852492505e-09,-1.1006092722225e-08,-0.0001627132601076,0.00016270899549569,-0.00016793449584101,0.00016794525508962,-0.00016794021700164,0.00016793927706935,-0.00016794330759367,0.00016793606545748,-0.00016794902842227,0.00016793008765845,-0.00016984695160657,0.00016985108338947,-0.00016986415905377,0.0001698333229662,-0.00016446433510659,0.00016448099834165,-0.00016449115304336,0.00016445322352913,2.6531061300612e-09,2.3156268231607e-09,-0.0001766973234168,0.00017670232667754,-6.1257913966233e-09,1.1452562528392e-08,-0.00018115034438148,0.00018114953727384,-0.0001811444642714,0.00018115529350401,-0.00018115052498156,0.00018114949250715,-0.00018114464636072,0.00018115525096826,-0.00017555282973856,0.00017556332606526,-0.00017555231713002,0.00017556347325409,0.78589838147019,131329,3014,0.00064822609031633,0.00067773372019474,0.00073597474579686,31.913955429533,1.5311643436266e-05,1.5311643436266e-05,1.5311643436266e-05,1639841.217696,0.002064065497596
3619200,0.12575517526348,0.0024780478145102,0.00079359444157012,0.00081789204435339,0.00086656132858667,-0.0001829584210053,0.0001829613464417,1.2190747935063e-09,1.648715494616e-09,-1.0775235927659e-08,1.4254659454938e-08,-0.00019089746396497,0.00019089192508031,-0.00019089736474955,0.00019089211152576,-0.00019088950442061,0.00019090026645532,-0.00019088936001167,0.00019090040883254,-0.00019338878667456,0.00019339952887402,-0.00019338837800187,0.0001933999637104,1.0512566714191e-08,-1.4413379706875e-08,7.280557670469e-09,-1.0581470320211e-08,-0.00019215712709212,0.00019215377017563,-0.00019983503991185,0.00019984583000276,-0.00019984077353768,0.00019983983480687,-0.00019984297879174,0.00019983754406953,-0.00019984871182266,0.00019983154932592,-0.00020089837565129,0.00020090434254291,-0.0002009156032095,0.00020088651394309,-0.00019348503909936,0.00019349995520273,-0.00019350923262403,0.00019347485862238,2.6180834267823e-09,2.2117552843722e-09,-0.0002108489145203,0.00021085378164418,-6.1896496232763e-09,1.141106792105e-08,-0.00021792319101417,0.00021792225388797,-0.00021791730750112,0.00021792801258142,-0.0002179233960487,0.00021792218739725,-0.00021791751306533,0.00021792794785217,-0.0002082267998686,0.00020823710017284,-0.00020822622405629,0.00020823731798786,0.77011576722175,131329,3014,0.00076204924664417,0.00080032856464488,0.00087815554195708,31.99394948553,1.5951595884243e-05,1.5951595884243e-05,1.5951595884243e-05,1873278.6544856,0.0024435187362528
3819200,0.14748251831196,0.0028781967739175,0.0009163065399516,0.00094820345324157,0.0010136867807243,-0.00021115606116014,0.00021115834312597,8.6488098170028e-10,1.3686786865777e-09,-1.0356184252062e-08,1.3163165944191e-08,-0.0002216438389667,0.0002216381305901,-0.00022164371500899,0.00022163834240982,-0.00022163635338707,0.00022164596298444,-0.00022163618589908,0.00022164613218767,-0.00022392835948193,0.00022393789390539,-0.00022392787657275,0.00022393839984774,1.0079163830842e-08,-1.3357237419334e-08,7.0236596618437e-09,-9.7300032273181e-09,-0.0002225946340745,0.00022259188075107,-0.00023297084774336,0.00023298139102505,-0.0002329762265009,0.00023297576880901,-0.00023297832473197,0.0002329736103388,-0.0002329837030711,0.00023296798856553,-0.00023331118141812,0.00023331714513591,-0.00023332732120228,0.00023330041284243,-0.00022346394353485,0.0002234783736419,-0.00022348670477718,0.00022345478280269,2.3836604669854e-09,1.8924662786233e-09,-0.00024645055928707,0.00024645486929009,-5.9110130215656e-09,1.0577651658186e-08,-0.00025662550922382,0.00025662440880296,-0.00025661999750879,0.00025662979691078,-0.0002566257384104,0.00025662431077858,-0.00025662022868213,0.00025662970189475,-0.00024208594854907,0.00024209524355205,-0.00024208529902776,0.00024209555383524,0.77140162287582,131329,3014,0.00087944657412271,0.00092704452845617,0.0010263496108367,32.325697752625,1.8605582020998e-05,1.8605582020998e-05,1.8605582020998e-05,2122670.5931437,0.0028368635689325
4019200,0.16979463049779,0.003287083096122,0.0010408707869313,0.001081000878657,0.0011652114305338,-0.00023977277411375,0.00023977477447257,6.8717134847523e-10,1.2703333582835e-09,-1.0170289472314e-08,1.268006926522e-08,-0.00025304643555486,0.0002530406401826,-0.0002530462842201,0.00025304087742244,-0.00025303915461416,0.00025304824230221,-0.00025303896231583,0.00025304843952793,-0.00025523017760688,0.00025523913454665,-0.00025522961354597,0.00025523971472125,9.9239039843896e-09,-1.2841565155158e-08,6.5684468452388e-09,-8.9315362340057e-09,-0.00025356576628842,0.0002535633633854,-0.00026692676968974,0.00026693702999134,-0.00026693174587443,0.00026693183157033,-0.00026693403840609,0.0002669294786989,-0.00026693901412291,0.00026692428069788,-0.00026658300444366,0.00026658830302281,-0.00026659792512439,0.00026657281567041,-0.00025398021574067,0.00025399476240692,-0.0002540023395327,0.00025397184883895,2.1271477249501e-09,1.5563164070285e-09,-0.00028305920858565,0.00028306291966135,-5.58810354078e-09,9.650400034565e-09,-0.00029678840552022,0.00029678714645536,-0.00029678331104083,0.00029679211995729,-0.00029678865741377,0.00029678701807062,-0.00029678356580546,0.0002967919954573,-0.00027676473899385,0.00027677294872304,-0.00027676402001729,0.00027677334546426,0.7729948633964,131329,3014,0.00099857749196,0.0010559655995508,0.0011787107473028,32.663234056939,2.1305872455515e-05,2.1305872455515e-05,2.1305872455515e-05,2360218.8786962,0.0032384954838694
4219200,0.19266769441195,0.0037047081918198,0.0011673048671437,0.0012162685704737,0.0013211347542025,-0.00026879062234354,0.00026879249189021,5.8368577234443e-10,1.2462703796483e-09,-1.0063927910808e-08,1.2432658246001e-08,-0.00028514501229131,0.00028513917704402,-0.00028514483360569,0.00028513943988587,-0.00028513783810659,0.00028514665507696,-0.00028513762087221,0.00028514688031418,-0.00028726698307908,0.00028727561585632,-0.00028726633763441,0.00028727627008049,9.8503067447385e-09,-1.2559512217585e-08,6.0642928770245e-09,-8.2308835990909e-09,-0.00028504995609766,0.00028504775452103,-0.00030171804767029,0.00030172799178947,-0.00030172263213648,0.00030172320178286,-0.00030172520654497,0.00030172056336664,-0.00030172979055106,0.00030171577378074,-0.00030070175231458,0.0003007061842234,-0.00030071550729193,0.00030069189494239,-0.00028501477732163,0.00028502958197291,-0.00028503656538403,0.00028500703021493,1.9022354829382e-09,1.2518245957797e-09,-0.00032067526467556,0.00032067843938704,-5.2620430861957e-09,8.778240593827e-09,-0.00033840264298785,0.00033840127250976,-0.00033839794865658,0.00033840584925215,-0.00033840291812416,0.00033840111434356,-0.00033839822708765,0.00033840569536598,-0.00031229408640678,0.0003123012906289,-0.00031229329703732,0.00031230177296149,0.77488674239134,131329,3014,0.0011193668255838,0.0011870058164617,0.0013352385665332,33.000974804546,2.4007798436372e-05,2.4007798436372e-05,2.4007798436372e-05,2583222.0661271,0.0036482624238011
4419200,0.21647350907937,0.0041376450490294,0.0012975691935746,0.001356070716446,0.0014840051390088,-0.00029913210821004,0.00029913390292468,5.1681774451384e-10,1.2406743813228e-09,-9.9315080522757e-09,1.221613293201e-08,-0.00031897302680808,0.00031896721168984,-0.00031897282612821,0.00031896749377983,-0.00031896595929379,0.00031897456803463,-0.00031896572308712,0.00031897481487101,-0.00032099618978451,0.00032100457320468,-0.00032099548092755,0.00032100528290159,9.7626599912951e-09,-1.2340922776786e-08,5.5274190335575e-09,-7.5732751300453e-09,-0.00031800479039964,0.00031800271317916,-0.00033839474523312,0.00033840431539266,-0.000338398941834,0.00033839993081656,-0.00033840180765063,0.00033839699296055,-0.00033840600410731,0.00033839260845155,-0.00033666845492222,0.00033667193946979,-0.00033668105587211,0.00033665883670363,-0.00031749430466068,0.00031750933383693,-0.00031751580142819,0.00031748709292165,1.7220342068606e-09,9.7382014037493e-10,-0.00036040653417948,0.00036040924381755,-4.9067111293284e-09,7.9462464151854e-09,-0.00038263332363476,0.00038263191655444,-0.00038262902599965,0.00038263610063409,-0.00038263362770163,0.00038263172254691,-0.00038262933395962,0.00038263591082199,-0.00034976869896724,0.00034977495350241,-0.00034976782074244,0.0003497755396316,0.77612069144759,131329,3014,0.001245653635682,0.0013241494896674,0.0015005395248182,33.595436148258,2.8763489186061e-05,2.8763489186061e-05,2.8763489186061e-05,2799119.6920568,0.0040786549687902
4619200,0.24135141262089,0.0045881014194948,0.0014322435633742,0.0015010378010248,0.0016548200550958,-0.00033065436736724,0.00033065612427845,4.6487802435429e-10,1.2568112409558e-09,-9.8303712989929e-09,1.2068150882363e-08,-0.00035450534281938,0.00035449955218501,-0.00035450511809633,0.0003544998550955,-0.00035449835439991,0.00035450682002103,-0.00035449809717449,0.00035450709039631,-0.00035626464777883,0.00035627284568411,-0.00035626386915501,0.00035627361716732,9.6834245442161e-09,-1.2188171900062e-08,5.0349925261455e-09,-7.0159852987643e-09,-0.0003522947401924,0.00035229273061213,-0.00037690729026315,0.0003769165040925,-0.00037691114807398,0.00037691247621851,-0.00037691428072807,0.00037690926226299,-0.0003769181385102,0.00037690523424729,-0.00037433419107454,0.00037433679022171,-0.0003743457780078,0.00037432472922215,-0.00035126056595631,0.00035127578487456,-0.00035128184170946,0.00035125378141584,1.5831419417033e-09,7.4401663487605e-10,-0.00040218497177149,0.00040218730655673,-4.5792168446716e-09,7.2320772509749e-09,-0.00042947702990714,0.00042947562687043,-0.00042947308117513,0.00042947946676861,-0.00042947736085021,0.00042947539816921,-0.00042947341648697,0.00042947924234791,-0.0003891214815621,0.00038912693049177,-0.00038912052197103,0.00038912761482283,0.77693647581498,131329,3014,0.0013768423931366,0.0014668306527391,0.0016743255012329,34.293448312835,3.4347586502679e-05,3.4347586502679e-05,3.4347586502679e-05,3006693.7051377,0.0045282436564062
4819200,0.26727263214788,0.0050555239079595,0.0015711937401025,0.0016509070084421,0.0018334231594149,-0.00036315802524998,0.00036315978083937,4.2442322717645e-10,1.2974471828056e-09,-9.7582004521892e-09,1.1987219914219e-08,-0.00039154501960366,0.00039153925285167,-0.00039154476640611,0.00039153958069729,-0.00039153807817271,0.0003915464648493,-0.00039153779534444,0.00039154676316863,-0.0003928558307978,0.00039286389767067,-0.00039285496965865,0.00039286474495587,9.6232114820099e-09,-1.2090773976873e-08,4.6009382700033e-09,-6.551653444655e-09,-0.00038766622336396,0.0003876642458587,-0.00041700564680923,0.0004170145434434,-0.00041700921447583,0.00041701082101067,-0.00041701258909196,0.00041700735643517,-0.0004170161567231,0.00041700363396657,-0.00041347336287226,0.00041347516602578,-0.00041348408244208,0.00041346399683979,-0.00038607762927292,0.00038609302442333,-0.00038609875469649,0.00038607118327784,1.4862148998462e-09,5.6925744869334e-10,-0.00044573495897525,0.00044573701708315,-4.2787173722757e-09,6.6436373822986e-09,-0.00047870028012578,0.00047869892471134,-0.00047869663010881,0.00047870247071018,-0.00047870063348091,0.00047869866525436,-0.00047869698806091,0.00047870221585932,-0.00043009928038255,0.00043010408421569,-0.00043009825230516,0.0004301048531841,0.77792180354038,131329,3014,0.0015121029585658,0.0016139924752061,0.0018554447171437,34.993874506292,3.9950996050336e-05,3.9950996050336e-05,3.9950996050336e-05,3207814.6169279,0.0049940005671632
5019200,0.29419096324818,0.0055375946681901,0.0017138780305584,0.0018048870821614,0.0020188295554704,-0.00039653484264773,0.00039653662148122,3.9620312517826e-10,1.3500238872264e-09,-9.6545967512994e-09,1.1900356692831e-08,-0.00042998347224441,0.00042997776831271,-0.00042998319047681,0.00042997812126824,-0.00042997659507474,0.00042998491333577,-0.00042997628630694,0.00042998523941379,-0.00043056359614491,0.00043057154257587,-0.00043056265292117,0.00043057246626973,9.5080264719772e-09,-1.2012315756607e-08,4.1826023834489e-09,-6.1737310631675e-09,-0.00042393841006444,0.00042393639282379,-0.00045853264237224,0.00045854117032344,-0.00045853595169694,0.00045853771815563,-0.00045853952131846,0.00045853405111769,-0.00045854283075815,0.00045853059909572,-0.0004538100034402,0.00045381105240477,-0.00045381995398536,0.00045380067278218,-0.00042176809681957,0.00042178352493181,-0.00042178903611482,0.00042176188030664,1.434022057184e-09,4.3889154604689e-10,-0.00049079339509827,0.00049079526654946,-3.9830050090046e-09,6.151598522601e-09,-0.00053008275201852,0.0005300815005264,-0.00053007936715525,0.00053008478536821,-0.0005300831273654,0.00053008121050569,-0.00053007974794272,0.00053008450086545,-0.00047242101753445,0.00047242529852243,-0.00047241991905716,0.00047242615029574,0.77677326950635,131329,3014,0.0016509848963421,0.0017648812782645,0.0020427976274649,35.69438635196,4.5555090815679e-05,4.5555090815679e-05,4.5555090815679e-05,3402269.3336536,0.0054736321429457
5219200,0.32141162255457,0.0060236566791959,0.0018574617550719,0.0019596603774663,0.0022065345466578,-0.00042938095081952,0.00042938277182775,3.5436846536016e-10,1.434681724267e-09,-9.570184129797e-09,1.185341972687e-08,-0.00046825018501984,0.0004682445283733,-0.0004682498606027,0.00046824492115941,-0.00046824335305119,0.00046825162643002,-0.00046824300203953,0.00046825199605639,-0.00046797766463456,0.00046798548193961,-0.00046797659280547,0.00046798652984609,9.424247584564e-09,-1.1963634903135e-08,3.8715944381212e-09,-5.9002791542715e-09,-0.00045959219462824,0.00045959013938638,-0.00049981329429305,0.0004998215454587,-0.00049981641354781,0.00049981829099452,-0.00049982013019645,0.00049981447236308,-0.000499823248057,0.00049981121985311,-0.00049378081315077,0.00049378129545938,-0.00049379019665137,0.00049377149736305,-0.00045689752042435,0.00045691297034322,-0.00045691833015089,0.00045689146445883,1.3924108136437e-09,3.6468862838038e-10,-0.00053579263489115,0.00053579438750262,-3.7658914938499e-09,5.8089346101748e-09,-0.00058191172372227,0.00058191055382976,-0.00058190852917439,0.0005819136520098,-0.0005819121072905,0.00058191024833375,-0.00058190891722815,0.00058191335440076,-0.0005145794733975,0.00051458342129165,-0.00051457834933175,0.00051458430619578,0.77855553462022,131329,3014,0.001787648326954,0.001913178700597,0.00222986234611,36.02338820759,4.8187105660721e-05,4.8187105660721e-05,4.8187105660721e-05,3588416.4680647,0.0059483669435226
5419200,0.34873432751756,0.0065035146029419,0.0019987707705656,0.0021116798215819,0.0023930640107943,-0.00046148199692836,0.00046148388360319,3.4380113002324e-10,1.5109162354873e-09,-9.4453710762354e-09,1.1792695303297e-08,-0.0005061224422433,0.00050611688174968,-0.00050612208636768,0.00050611730277049,-0.00050611566682917,0.00050612391531549,-0.00050611528610468,0.00050612431458705,-0.00050466038524958,0.00050466811888098,-0.00050465922505884,0.0005046692519023,9.3472750456498e-09,-1.185650031698e-08,3.6284751103968e-09,-5.6300204608413e-09,-0.00049434166795099,0.00049433963989955,-0.00054054706216885,0.00054055510818499,-0.00054055001554414,0.00054055202748943,-0.00054055383629535,0.00054054809671152,-0.00054055678844416,0.00054054501806394,-0.00053290831492599,0.00053290838261715,-0.00053291720099925,0.0005328990937237,-0.00049105882557287,0.00049107429536401,-0.00049107945820974,0.0004910529733922,1.3994060047836e-09,2.9885774974795e-10,-0.00058079684705616,0.00058079853882137,-3.5417253016055e-09,5.5231542272825e-09,-0.00063420502550906,0.00063420398685774,-0.00063420200241792,0.00063420691835484,-0.00063420543058823,0.00063420365762242,-0.00063420241094192,0.00063420659648756,-0.00055641887629433,0.00055642252588964,-0.00055641768482056,0.00055642348183567,0.7695800440906,131329,3014,0.0019212036498891,0.0020576984240772,0.0024169042180441,36.276125747641,5.0209005981127e-05,5.0209005981127e-05,5.0209005981127e-05,3761386.2027015,0.0064163754676359
5619200,0.37608209307484,0.0069602359489704,0.0021322174362968,0.0022549013424402,0.0025731171702335,-0.00049184974014952,0.00049185159941305,2.9199573918648e-10,1.535784724522e-09,-9.392922281863e-09,1.1710998535269e-08,-0.00054284915140815,0.00054284357932931,-0.00054284876766982,0.00054284402471222,-0.0005428424145125,0.00054285056779972,-0.0005428420076846,0.0005428509929253,-0.00053886087199395,0.00053886846029745,-0.00053885963495755,0.00053886966658321,9.2904198850838e-09,-1.1780499165234e-08,3.4105858558001e-09,-5.3965575772305e-09,-0.00052710283490298,0.00052710082294841,-0.0005798680770328,0.00057987594968596,-0.00057987088793492,0.00057987302221479,-0.00057987481497614,0.00057986898380183,-0.00057987762429361,0.00057986605771476,-0.00056937118466382,0.00056937086912798,-0.00056937963259611,0.00056936202736501,-0.00052284473017698,0.00052286023825043,-0.00052286523572244,0.00052283905288635,1.40217426098e-09,2.1877712836184e-10,-0.00062469977069557,0.00062470138407874,-3.3557337237559e-09,5.2566509594509e-09,-0.00068600015842965,0.00068599921868416,-0.00068599728658597,0.00068600200260301,-0.00068600058939033,0.00068599886156624,-0.00068599772086958,0.00068600165243882,-0.00059641494923084,0.00059641829006469,-0.00059641367774065,0.00059641932814738,0.73637049691632,131329,3014,0.0020475437323204,0.0021939360041282,0.0025993239167292,36.527028972583,5.2216231780666e-05,5.2216231780666e-05,5.2216231780666e-05,3915101.1782453,0.0068643456530415
5819200,0.4033744656181,0.0073984746453829,0.0022595949358529,0.0023909083691771,0.0027479713403529,-0.00052086747463034,0.00052086932707997,2.4951743500187e-10,1.5717946794868e-09,-9.3481331312732e-09,1.1656684265944e-08,-0.00057906384118936,0.00057905826735467,-0.00057906342959533,0.00057905873764578,-0.00057905713244687,0.00057906522072971,-0.00057905669925453,0.00057906567214569,-0.00057104749576822,0.00057105496795541,-0.0005710461800108,0.00057105624889785,9.2469222617193e-09,-1.1724482044723e-08,3.2204255301357e-09,-5.1979570294748e-09,-0.00055828773870093,0.00055828573639095,-0.00061842300060297,0.00061843072484967,-0.00061842569152892,0.00061842792957052,-0.00061842970985192,0.00061842379373582,-0.0006184323986193,0.0006184209991135,-0.00060357661796016,0.000603575962327,-0.00060358468798599,0.00060356750511925,-0.00055275056205028,0.0005527661141722,-0.0005527709734575,0.00055274503060242,1.3999043145606e-09,1.3557632938326e-10,-0.00066798534770123,0.00066798687487027,-3.2063780199848e-09,5.0178701838338e-09,-0.00073762779282216,0.00073762692287732,-0.00073762505074861,0.00073762957970044,-0.00073762824920787,0.00073762653766898,-0.00073762551071383,0.00073762920152205,-0.00063515091067345,0.0006351539577295,-0.00063514956053904,0.00063515507621868,0.71317584853608,131329,3014,0.0021682653281455,0.0023236088121768,0.0027791340636338,36.777866697054,5.4222933576434e-05,5.4222933576434e-05,5.4222933576434e-05,4058190.8829496,0.0072976180698711
6019200,0.43012853838387,0.0078192387343491,0.0023812462801398,0.0025200811968093,0.0029179112574001,-0.00054811972504711,0.00054812157600342,2.2119632513351e-10,1.5982788699717e-09,-9.3688235310192e-09,1.1674681840131e-08,-0.00061408092890735,0.00061407532156866,-0.00061408049767884,0.00061407580806317,-0.00061407420205452,0.00061408228539737,-0.00061407374918816,0.00061408275580519,-0.00060121503990327,0.00060122246766209,-0.00060121366742875,0.00060122380276722,9.2621134334602e-09,-1.1730174121681e-08,3.10094831973e-09,-5.0718528488261e-09,-0.00058766776951033,0.00058766577435128,-0.00065575157664495,0.00065575923799112,-0.00065575419525245,0.00065575652468576,-0.00065575829769027,0.00065575229964992,-0.0006557609123575,0.00065574958800381,-0.00063561238885064,0.00063561148973683,-0.00063562021798869,0.00063560327803913,-0.0005807804157944,0.00058079607679295,-0.00058080084713272,0.0005807749774764,1.4129607502249e-09,4.4141928112044e-11,-0.00071013918819011,0.00071014063647309,-3.1220346004272e-09,4.8518367272772e-09,-0.00078847599884662,0.00078847516817952,-0.0007884733410441,0.00078847774254909,-0.00078847648966887,0.00078847474694787,-0.00078847383420396,0.000788477329786,-0.00067237494423032,0.00067237772907569,-0.0006723734928854,0.00067237894744623,0.70261524185754,131329,3014,0.0022816398902288,0.0024457700815307,0.0029542033759783,36.775506649309,5.4204053194469e-05,5.4204053194469e-05,5.4204053194469e-05,4161019.5086558,0.0077113310547584
6219200,0.45627619029253,0.0082324962189651,0.0025001198565176,0.0026461236822029,0.0030862526802446,-0.00057456769417273,0.00057456954324045,1.7965043236143e-10,1.6377208693987e-09,-9.3956367199829e-09,1.1698254143513e-08,-0.00064828139008768,0.00064827573753002,-0.00064828093077051,0.00064827624860749,-0.00064827464157947,0.00064828271715006,-0.00064827416212755,0.00064828321310143,-0.00063093957284275,0.00063094693680111,-0.00063093812098068,0.00063094834850874,9.2934179357995e-09,-1.1752410697281e-08,3.0181231795322e-09,-4.9825304375167e-09,-0.00061627329869324,0.0006162713101673,-0.00069222125885894,0.0006922288900564,-0.0006922238264884,0.00069222623427434,-0.00069222800073447,0.00069222193473353,-0.00069223056412521,0.00069221927978408,-0.00066719832651562,0.00066719724731101,-0.00066720598831417,0.00066718920559953,-0.00060816848187486,0.00060818426064695,-0.0006081889675872,0.00060816311102225,1.415930338653e-09,-3.0821799768115e-11,-0.0007520248517987,0.00075202622750265,-3.0745036755673e-09,4.7286754336673e-09,-0.00083938950642836,0.00083938868728615,-0.0008393869055896,0.00083939120594798,-0.00083939002373152,0.00083938823820068,-0.00083938742553052,0.00083939076504386,-0.00070919872362979,0.00070920130232195,-0.00070919719310229,0.0007092025970861,0.7074549273129,131329,3014,0.0023916659611062,0.0025647031847916,0.0031281232783075,36.758743384026,5.406994707221e-05,5.406994707221e-05,5.406994707221e-05,4235331.3874548,0.0081174299796698
6419200,0.48177640127531,0.0086320074372419,0.0026142298406725,0.002767204970059,0.0032505726265105,-0.00059986155917511,0.00059986340893097,1.3968172393686e-10,1.6785220355099e-09,-9.4229810260155e-09,1.1724898740304e-08,-0.00068122518778059,0.00068121949132903,-0.00068122470024895,0.00068122002778145,-0.0006812184185103,0.00068122648805445,-0.00068121791199969,0.00068122701044746,-0.00065946356105031,0.00065947086485547,-0.00065946202966143,0.00065947235459176,9.3238607058804e-09,-1.1776888866964e-08,2.9572520230725e-09,-4.9176957980116e-09,-0.00064372517071927,0.00064372318631889,-0.00072738940767591,0.00072739702163591,-0.00072739193740467,0.00072739440749956,-0.00072739617016269,0.00072739004801794,-0.00072739869578918,0.00072738743468872,-0.00069770501578809,0.00069770379890126,-0.00069771255575493,0.00069769588252508,-0.00063431772942239,0.00063433360863078,-0.00063433827167911,0.00063431240850952,1.4227139992992e-09,-1.0238985956007e-10,-0.00079298894788206,0.00079299025821048,-3.0465328271751e-09,4.6326743501845e-09,-0.0008896209666334,0.00088962014995646,-0.00088961840734128,0.00088962262850195,-0.00088962150962124,0.0008896196740643,-0.00088961895299568,0.00088962216031955,-0.00074498930913875,0.00074499170469283,-0.00074498770101297,0.00074499307645621,0.70210893683711,131329,3014,0.002496889691026,0.0026788330979519,0.0032981813995696,36.741580854323,5.3932646834581e-05,5.3932646834581e-05,5.3932646834581e-05,4304578.2381134,0.0085101141203707
6619200,0.5070052951872,0.0090506172280354,0.0027341322841987,0.0028941978452348,0.0034222870986019,-0.00062625601705086,0.00062625786418687,1.0170219233254e-10,1.7140499267454e-09,-9.3958984610752e-09,1.1693715181528e-08,-0.00071476470359583,0.00071475900022342,-0.0007147641908085,0.00071475955964818,-0.00071475795237586,0.00071476597641344,-0.00071475742082402,0.00071476652331436,-0.00069002223949469,0.00069002944847257,-0.00069002063409896,0.00069003100980496,9.2953053828817e-09,-1.1742543045501e-08,2.9089561136768e-09,-4.8659953413262e-09,-0.00067240171975701,0.00067239973900894,-0.000763227778268,0.00076323534374494,-0.00076323027776364,0.00076323276239492,-0.00076323452234299,0.00076322839102323,-0.00076323701713196,0.00076322581113801,-0.00073050753844304,0.00073050624622424,-0.00073051497913487,0.00073049842953773,-0.00066213674856431,0.00066215260276331,-0.00066215723086426,0.00066213146890136,1.4366289208256e-09,-1.7411110787811e-10,-0.00083543512350572,0.00083543637541197,-3.0268350708986e-09,4.552503332604e-09,-0.00094123123351459,0.00094123042079492,-0.00094122870808692,0.00094123286679084,-0.00094123180508299,0.00094122991566057,-0.00094122928157132,0.00094123236984466,-0.0007828363508646,0.0007828385727007,-0.00078283465884855,0.00078284002692804,0.74070667002838,131329,3014,0.0026066836407253,0.0027980449111069,0.0034743561654329,37.009296614042,5.6074372912336e-05,5.6074372912336e-05,5.6074372912336e-05,4359531.3882254,0.0089188634399323
6819200,0.53306048513155,0.0095155600911365,0.0028678034413194,0.0030358088973892,0.003611947752428,-0.00065635737550474,0.00065635921452877,7.9362432091e-11,1.7280145685764e-09,-9.2263076715456e-09,1.1513627354029e-08,-0.00075154911611913,0.00075154351088225,-0.00075154859165757,0.00075154408017109,-0.00075154248042845,0.00075155036808844,-0.00075154193541279,0.00075155092813854,-0.00072563903193912,0.00072564607627392,-0.00072563738376692,0.00072564767219146,9.1070854067356e-09,-1.1541871634487e-08,2.8188611384204e-09,-4.7692547570008e-09,-0.00070507136079903,0.00070506938866141,-0.00080254543899168,0.00080255282452376,-0.00080254787991394,0.00080255030427398,-0.00080255205726457,0.00080254600068246,-0.00080255449070473,0.0008025434842022,-0.00076887053166303,0.00076886918567753,-0.0007688777813226,0.00076886155180516,-0.00069446216655921,0.00069447770657099,-0.00069448226493797,0.00069445696213176,1.4704164482574e-09,-2.6340017389373e-10,-0.00088260103048118,0.00088260222597786,-2.9581730347855e-09,4.4256168374141e-09,-0.00099747497461805,0.00099747421248634,-0.00099747251615066,0.000997476592924,-0.00099747558824893,0.00099747366447856,-0.0009974731290682,0.00099747605574532,-0.00082602418910946,0.00082602617492278,-0.00082602237774615,0.00082602774419821,0.7922145142914,131329,3014,0.002731881965042,0.0029338398775229,0.0036700760537514,38.075384096863,6.4603072774905e-05,6.4603072774905e-05,6.4603072774905e-05,4450974.8796515,0.0093797961253188
7019200,0.55984213833113,0.0099556232293809,0.0029921535543393,0.003168720060375,0.0037947496146667,-0.00068540382828159,0.00068540565896341,3.3263817960253e-11,1.766139078487e-09,-9.061516889085e-09,1.1337962085541e-08,-0.00078808474383934,0.00078807921663388,-0.00078808419217436,0.00078807981166741,-0.00078807821933907,0.00078808596110974,-0.0007880776475702,0.00078808654708892,-0.00075921941888195,0.00075922626187151,-0.00075921769005089,0.00075922793667793,8.9475394642926e-09,-1.1369729606964e-08,2.7529816740289e-09,-4.6934143265131e-09,-0.00073685402043367,0.00073685205783238,-0.0008417720733881,0.00084177931141874,-0.00084177447052218,0.00084177683889528,-0.00084177858372734,0.00084177260042724,-0.00084178097118777,0.00084177012933331,-0.00080544819131236,0.00080544682821216,-0.00080545530178782,0.00080543933185716,-0.00072507123873761,0.00072508651087638,-0.00072509101108995,0.00072506609309419,1.4812207557227e-09,-3.2718183758415e-10,-0.00092938756067937,0.00092938870278872,-2.916148415947e-09,4.3286590899508e-09,-0.0010541127225769,0.0010541119815991,-0.0010541103106138,0.0010541143158196,-0.001054113363119,0.0010541114052304,-0.0010541109508412,0.0010541137511108,-0.00086775344130862,0.0008677552528831,-0.00086775155443216,0.00086775689651869,0.73335807701574,131329,3014,0.0028526966075203,0.0030659424120564,0.0038641683433451,39.159655579543,7.3277244636344e-05,7.3277244636344e-05,7.3277244636344e-05,4518566.4618647,0.0098311467406295
7219200,0.58719872122024,0.010387429110041,0.0031130975542689,0.0032985795488832,0.0039757520068884,-0.00071408360585025,0.00071408542906876,-1.1942974709144e-11,1.8040332086415e-09,-8.9183669268357e-09,1.1185019287456e-08,-0.00082456670649781,0.00082456124305086,-0.00082456612670301,0.00082456186502209,-0.00082456027854041,0.00082456788836692,-0.00082455967950004,0.00082456850177684,-0.00079200859092276,0.0007920152472248,-0.0007920067811795,0.00079201700321815,8.8088869638301e-09,-1.1214622188968e-08,2.7084623082736e-09,-4.6351149735911e-09,-0.00076838818074769,0.00076838623181551,-0.00088108188846461,0.00088108900996056,-0.00088108425440193,0.00088108657133582,-0.00088108830304284,0.00088108239694544,-0.00088109065961218,0.00088107995956884,-0.00084148046493272,0.00084147911268025,-0.0008414874747488,0.00084147171786429,-0.00075481682483063,0.0007548318578331,-0.00075483631121789,0.0007548117315343,1.4941833748706e-09,-3.9052356636135e-10,-0.00097612092529041,0.00097612201719682,-2.8913690208817e-09,4.2519855991998e-09,-0.0011112632353293,0.0011112625033746,-0.0011112608568391,0.0011112648047669,-0.0011112639012908,0.0011112619011847,-0.0011112615225926,0.0011112642136731,-0.00090879374244197,0.00090879539480232,-0.00090879178072056,0.00090879711411708,0.707188487088,131329,3014,0.0029719852501223,0.0031970047519117,0.004057991271979,40.24457085119,8.1956566809518e-05,8.1956566809518e-05,8.1956566809518e-05,4577562.75756,0.010279839594343
7419200,0.61413139540955,0.010797624400046,0.0032271968143217,0.0034216149749141,0.0041488126108099,-0.00074039209981942,0.00074039391856323,-3.2141882116976e-11,1.8203118982798e-09,-8.9352590264407e-09,1.1196169680231e-08,-0.00085886279828034,0.00085885731009731,-0.00085886220740043,0.00085885794208128,-0.00085885636229029,0.00085886396241137,-0.00085885574924664,0.00085886459011664,-0.00082183663043289,0.00082184325303002,-0.00082183478258336,0.00082184505238387,8.8114407995789e-09,-1.1204635648638e-08,2.7535905656414e-09,-4.6681031112067e-09,-0.00079755455576065,0.00079755261773322,-0.00091825757337011,0.0009182647319871,-0.00091825996957011,0.00091826226539462,-0.00091826398853054,0.00091825811950629,-0.00091826637222267,0.00091825565808905,-0.00087464603340889,0.00087464476837003,-0.00087465311769537,0.00087463730744885,-0.00078180485669692,0.00078181986316342,-0.00078182433225449,0.00078179975250267,1.5349036525705e-09,-4.7272806942315e-10,-0.0010202014716296,0.0010202025224134,-2.9467003716793e-09,4.2641640420979e-09,-0.0011658964840435,0.0011658957320841,-0.0011658940843627,0.0011658980549054,-0.0011658971924568,0.0011658950872716,-0.0011658947887146,0.001165897424455,-0.00094694306493328,0.00094694458159827,-0.00094694098965071,0.00094694641865682,0.68501444296409,131329,3014,0.0030814144934388,0.0033182236071101,0.0042407676600657,40.771742360754,8.6173938886036e-05,8.6173938886036e-05,8.6173938886036e-05,4626837.5236003,0.010697657877913
7619200,0.63989773482172,0.011181617987987,0.0033335379797957,0.0035366512951017,0.0043114287130891,-0.00076417555760836,0.00076417737062229,-5.4113584484786e-11,1.836851975286e-09,-9.0611169189215e-09,1.1316069517579e-08,-0.00089074304849936,0.00089073746167203,-0.00089074244864719,0.00089073810200377,-0.00089073653126797,0.00089074419389923,-0.00089073590426545,0.00089074483560806,-0.00084861994733779,0.00084862660399026,-0.00084861805684653,0.00084862844627954,8.9225944073616e-09,-1.131025653545e-08,2.8618921877588e-09,-4.7698860677653e-09,-0.00082410526092492,0.00082410332866971,-0.0009529082437349,0.00095291555414715,-0.00095291071551509,0.00095291301548593,-0.00095291473589588,0.0009529088689755,-0.00095291718811918,0.0009529063391608,-0.00090470922143878,0.00090470808857002,-0.00090471650323161,0.00090470042889625,-0.0008061347897506,0.00080614993703213,-0.00080615447080321,0.00080612962285804,1.5820794851165e-09,-5.4570616852173e-10,-0.001061180141366,0.0010611811661826,-3.0604860673103e-09,4.3517842656543e-09,-0.0012172499746854,0.001217249175317,-0.0012172475098551,0.0012172515620226,-0.0012172507284501,0.0012172484850856,-0.0012172482543115,0.0012172508930688,-0.00098203375882994,0.00098203520479844,-0.00098203156950704,0.00098203715233285,0.67223241467606,131329,3014,0.0031803456190811,0.0034285682196442,0.0044106484505533,40.851904644924,8.6815237159392e-05,8.6815237159392e-05,8.6815237159392e-05,4659454.151214,0.011081004786593
7819200,0.66446306515724,0.011544084672446,0.003433680474426,0.0036451154639921,0.0044652887340277,-0.00078648726645655,0.00078648907435803,-1.0323740578577e-10,1.8806138586846e-09,-9.1747484574677e-09,1.1425149174682e-08,-0.00092105270746222,0.0009210470099174,-0.00092105207831534,0.00092104767965442,-0.00092104611310565,0.00092105381790917,-0.00092104545875424,0.00092105448743327,-0.00087371461112559,0.00087372125143638,-0.00087371263501594,0.0008737231793555,9.0424991115261e-09,-1.1426196979612e-08,2.980686101496e-09,-4.8845335292429e-09,-0.00084914918785425,0.00084914725971807,-0.00098586970703381,0.00098587717725304,-0.00098587225678168,0.00098587456178501,-0.00098587627923688,0.00098587041577022,-0.00098587880880252,0.00098586780580858,-0.00093301401831095,0.0009330130421178,-0.00093302153125496,0.00093300514823991,-0.00082917157615909,0.00082918688361008,-0.00082919149060186,0.00082916633437947,1.6066809274711e-09,-5.8660805855589e-10,-0.0011001862732007,0.0011001872817301,-3.1857333759733e-09,4.4612852263575e-09,-0.0012662141586951,0.0012662132900788,-0.0012662116145892,0.0012662157553053,-0.0012662149376083,0.0012662125754161,-0.0012662123853059,0.0012662150611123,-0.0010152874338713,0.0010152888737449,-0.0010152851733071,0.0010152908881612,0.66655083966457,131329,3014,0.0032731548468744,0.0035326460195466,0.0045723233364548,40.921735729482,8.7373885835855e-05,8.7373885835855e-05,8.7373885835855e-05,4678445.5816791,0.011443669443746
8019200,0.68781837776681,0.011885517910702,0.0035277429254494,0.0037471746553634,0.0046106003298896,-0.00080741056745948,0.00080741237369246,-1.4651310538991e-10,1.921680521038e-09,-9.2784186011807e-09,1.1527645916801e-08,-0.00094958236739556,0.00094957657187018,-0.0009495817107759,0.00094957726978461,-0.00094957570179581,0.00094958344892471,-0.00094957501959381,0.00094958414626469,-0.00089734071331461,0.00089734733906429,-0.00089733865739394,0.00089734934959487,9.14768539821e-09,-1.1529717703095e-08,3.104318959796e-09,-5.0055834423815e-09,-0.00087273591914984,0.00087273399335092,-0.001016771132351,0.0010167787556584,-0.0010167737626114,0.0010167760583473,-0.0010167777752726,0.0010167719245995,-0.0010167803857795,0.0010167692325726,-0.00095970088311634,0.00095970007941169,-0.00095970863718451,0.00095969194597574,-0.00085071670605508,0.00085073213930092,-0.0008507368261932,0.00085071138517832,1.6395249775197e-09,-6.2876829956005e-10,-0.0011370786591342,0.0011370796587213,-3.3122326787712e-09,4.5791818594169e-09,-0.0013126687887602,0.0013126678555648,-0.0013126661623476,0.0013126704026981,-0.0013126695938516,0.0013126671162515,-0.001312666959502,0.001312669682871,-0.0010465796825948,0.0010465811203432,-0.0010465773454402,0.0010465832074196,0.66097249598952,131329,3014,0.0033601879064507,0.0036306646802701,0.0047252084569954,40.991199278069,8.7929594224556e-05,8.7929594224556e-05,8.7929594224556e-05,4694856.7587468,0.011785596686968
8219200,0.71010697364885,0.012208414288994,0.0036164864622958,0.0038436407055943,0.0047482871211044,-0.00082733840483122,0.00082734020762741,-1.9017669370314e-10,1.9616887891364e-09,-9.3290953980688e-09,1.1575535219521e-08,-0.00097670640626323,0.00097670054603084,-0.00097670572195677,0.00097670127194426,-0.00097669970611665,0.00097670745601441,-0.00097669899665731,0.00097670818105775,-0.00091990458747569,0.00091991116194812,-0.0009199024513293,0.00091991325392094,9.1998328395827e-09,-1.157865592232e-08,3.2207389878755e-09,-5.1183419384539e-09,-0.0008952695252237,0.0008952676032433,-0.0010462793895259,0.0010462871274007,-0.0010462820963076,0.0010462843536956,-0.0010462860670215,0.0010462802627746,-0.001046288754799,0.001046277494148,-0.00098517522495216,0.00098517461521941,-0.00098518320369471,0.00098516625665669,-0.00087118337076943,0.00087119883050519,-0.00087120359119578,0.00087117797777086,1.676569622243e-09,-6.6737741743095e-10,-0.0011723231302064,0.0011723241285016,-3.4266417702108e-09,4.693191621541e-09,-0.0013570943427134,0.0013570933571534,-0.0013570916393004,0.0013570959809875,-0.0013570951737448,0.0013570925933956,-0.0013570924626633,0.0013570952356164,-0.0010763879323432,0.0010763893702027,-0.0010763855188817,0.0010763915310009,0.65549139973078,131329,3014,0.0034430783196084,0.0037243017128698,0.0048712389828048,41.18177948584,8.9454235886722e-05,8.9454235886722e-05,8.9454235886722e-05,4711058.5094032,0.012112074688922
8419200,0.73137923275636,0.012515740473593,0.0037008263532689,0.0039354755443642,0.00487943857596,-0.00084631520997881,0.00084631700870737,-2.3326740322331e-10,2.0006026135223e-09,-9.343101533838e-09,1.1585825991263e-08,-0.0010025447975208,0.0010025388972661,-0.0010025440860125,0.001002539650641,-0.0010025380878194,0.0010025458152817,-0.001002537351303,0.0010025465676239,-0.00094148797017459,0.00094149446922183,-0.00094148575496659,0.00094149664133866,9.2148076808125e-09,-1.1588880759865e-08,3.3308736656161e-09,-5.2237075592264e-09,-0.00091680345366335,0.00091680153667813,-0.00107444321039,0.0010744510341956,-0.0010744459892224,0.0010744481884905,-0.0010744498970844,0.0010744441610999,-0.0010744526574623,0.0010744413205167,-0.0010096136710119,0.0010096132680522,-0.0010096218607055,0.0010096046981898,-0.00089070045696203,0.00089071587507843,-0.00089072070354729,0.00089069499778413,1.7171420167254e-09,-7.0419897655759e-10,-0.0012059845025629,0.0012059855050172,-3.5314397849975e-09,4.8028079655723e-09,-0.0013995486989077,0.0013995476713429,-0.0013995459232917,0.0013995503670728,-0.0013995495562089,0.0013995468826097,-0.0013995467730828,0.0013995495958608,-0.0011048549666609,0.0011048564038828,-0.0011048524759458,0.0011048586398782,0.65380935432468,131329,3014,0.0035220108738432,0.0038137793757603,0.0050106874018636,41.431189716674,9.144951773339e-05,9.144951773339e-05,9.144951773339e-05,4725187.2255259,0.012423775700951
8619200,0.75161851155612,0.012807598751327,0.0037808011501177,0.004022725459678,0.0050040721415316,-0.00086424865443819,0.00086425044865518,-2.7605178048407e-10,2.0388316844739e-09,-9.3348804670448e-09,1.1573348816491e-08,-0.0010269637709252,0.0010269578452987,-0.0010269630325146,0.0010269586257676,-0.0010269570661546,0.0010269647564013,-0.001026956302602,0.0010269655357432,-0.00096199065077087,0.00096199705996175,-0.00096198835745535,0.0009619993116566,9.2080729143734e-09,-1.1575419326086e-08,3.4367372952015e-09,-5.3226667907311e-09,-0.00093721608621749,0.00093721417607357,-0.0011011532941682,0.0011011611871483,-0.0011011561415975,0.001101158272962,-0.0011011599751486,0.0011011543206355,-0.0011011628043505,0.0011011514116539,-0.0010328762656697,0.0010328760765387,-0.0010328846560512,0.0010328673065784,-0.00090916058448937,0.00090917592074454,-0.00090918081109852,0.00090915506395393,1.7601259107734e-09,-7.3954701934621e-10,-0.0012379433933319,0.0012379444037728,-3.628904294053e-09,4.9089537739789e-09,-0.0014399019750713,0.0014399009134834,-0.0014398991309056,0.0014399036772598,-0.0014399028589208,0.0014399000993433,-0.0014399000072974,0.0014399028800198,-0.0011318514388205,0.0011318528745959,-0.0011318488703348,0.001131855186947,0.65260875719725,131329,3014,0.0035966027965003,0.0038985932083189,0.0051430622074231,41.681973935472,9.3455791483776e-05,9.3455791483776e-05,9.3455791483776e-05,4739174.56371,0.012719289161321
8819200,0.77081495409434,0.013073759716598,0.0038531609678166,0.0041020030286814,0.0051185957200999,-0.00088070424354759,0.00088070603180636,-3.1951602409302e-10,2.0763996575628e-09,-9.3062044828117e-09,1.1538613503278e-08,-0.001049645896086,0.0010496399579763,-0.0010496451307723,0.0010496407655372,-0.0010496392103922,0.0010496468480741,-0.001049638419872,0.0010496476543677,-0.00098060869455038,0.00098061499820899,-0.00098060632284568,0.00098061732942438,9.1804940337547e-09,-1.1540216319932e-08,3.5340591794418e-09,-5.4123642560631e-09,-0.00095603178333808,0.00095602988085612,-0.0011260940028827,0.0011261019459795,-0.0011260969131129,0.0011260989693876,-0.0011261006645656,0.0011260951004197,-0.0011261035565422,0.0011260921288486,-0.0010541273572984,0.0010541273795513,-0.0010541359307762,0.0010541184264965,-0.00092586440675595,0.00092587962627853,-0.00092588457207546,0.00092585883191136,1.8044955498408e-09,-7.7348664098465e-10,-0.0012676767614476,0.0012676777826318,-3.716141205937e-09,5.007567926149e-09,-0.0014777730714436,0.0014777719844836,-0.0014777701647432,0.0014777748103924,-0.0014777739818094,0.0014777711449361,-0.0014777710677023,0.0014777739870474,-0.0011566387645095,0.0011566401955494,-0.0011566361181509,0.0011566425844809,0.6294199300045,131329,3014,0.0036650502044703,0.0039767699138809,0.0052661999024775,41.932807149517,9.546245719614e-05,9.546245719614e-05,9.546245719614e-05,4763604.1178881,0.012992584802629
9019200,0.78856452646648,0.013319999840795,0.0039201091620286,0.0041754017438163,0.0052244889349505,-0.00089505240582402,0.00089505419043734,-3.6291413192827e-10,2.1162200941346e-09,-9.3323908550419e-09,1.1561742047893e-08,-0.0010696745085131,0.0010696685214961,-0.001069673715201,0.001069669357302,-0.0010696678042789,0.0010696754285996,-0.0010696669865047,0.001069676262154,-0.00099705132705094,0.00099705756407975,-0.00099704887577997,0.00099705997572345,9.2084186788391e-09,-1.1562974341452e-08,3.6470019661048e-09,-5.5195634233779e-09,-0.00097256421259679,0.00097256231574498,-0.0011481364178169,0.0011481444570911,-0.0011481394007769,0.0011481414074252,-0.0011481430976164,0.0011481375949523,-0.0011481460629483,0.0011481345492425,-0.0010730114569498,0.0010730116847655,-0.0010730202475127,0.0010730025153133,-0.00094040741677467,0.00094042261899216,-0.00094042763272327,0.00094040177387083,1.8495447013848e-09,-8.0426149571632e-10,-0.0012942791363653,0.0012942801720979,-3.8178801758813e-09,5.1247244709205e-09,-0.0015119610919906,0.0015119599711385,-0.001511958111304,0.001511962870555,-0.0015119620275956,0.0015119591073654,-0.0015119590403665,0.0015119620215961,-0.0011787066599311,0.0011787081024424,-0.0011787039371285,0.0011787105668085,0.62977530424718,131329,3014,0.0037247351960956,0.0040454591235565,0.0053763564607413,41.749804806845,9.3998438454759e-05,9.3998438454759e-05,9.3998438454759e-05,4774881.499897,0.013234305212547
9219200,0.80486017412425,0.013543458590969,0.0039807561168314,0.0042419598116711,0.0053207426624665,-0.00090778595731125,0.00090778773895136,-4.0442820434891e-10,2.1548264732363e-09,-9.3532629264732e-09,1.1580166657769e-08,-0.0010876278251581,0.0010876217947995,-0.001087627005312,0.0010876226575565,-0.0010876211066685,0.001087628715037,-0.0010876202621312,0.0010876295755205,-0.001011720482708,0.00101172665182,-0.0010117179539841,0.0010117291430715,9.2308784131811e-09,-1.1580027278064e-08,3.751330152931e-09,-5.6179034935456e-09,-0.00098729597867248,0.00098729408763628,-0.0011679138683578,0.0011679219946613,-0.0011679169186906,0.001167918877261,-0.0011679205624549,0.0011679151191525,-0.0011679235950441,0.001167912005798,-0.0010898951589158,0.0010898955776354,-0.0010899041482477,0.0010898862107456,-0.00095331432417702,0.0009533295019764,-0.0009533345778885,0.00095330861916193,1.896590870039e-09,-8.3615914026517e-10,-0.0013182336515874,0.0013182347029953,-3.9102438543814e-09,5.2334633386992e-09,-0.0015429719087775,0.0015429707625113,-0.0015429688605118,0.0015429737289887,-0.0015429728709607,0.0015429698730972,-0.0015429698160749,0.0015429728539861,-0.0011984782539167,0.0011984797010863,-0.0011984754531769,0.0011984822424032,0.62300580611976,131329,3014,0.003777706343946,0.0041066669030517,0.0054755355460638,41.451766962438,9.1614135699505e-05,9.1614135699505e-05,9.1614135699505e-05,4782546.8317806,0.013450568665214
9419200,0.81981077956393,0.01374608629426,0.0040356743933673,0.0043022732758628,0.0054081386250298,-0.00091923176083295,0.00091923353940114,-4.4589191604333e-10,2.193216518535e-09,-9.34815897966e-09,1.1572264706727e-08,-0.001103863829604,0.0011038577733449,-0.001103862983319,0.0011038586628551,-0.0011038571141268,0.0011038646891347,-0.0011038562429035,0.0011038655763436,-0.0010249413326311,0.001024947416414,-0.0010249387260329,0.0010249499862083,9.2276978415863e-09,-1.1570479414765e-08,3.837326577348e-09,-5.6976023103745e-09,-0.0010005742507431,0.0010005723662564,-0.0011858147930363,0.001185822977689,-0.0011858178986041,0.0011858198048365,-0.001185821484019,0.0011858161061996,-0.0011858245716588,0.001185812937439,-0.0011051368292961,0.0011051374198851,-0.0011051459798354,0.0011051278903274,-0.00096495266232842,0.00096496777853504,-0.00096497290338722,0.00096494690880664,1.9441798079943e-09,-8.6776707160574e-10,-0.0013399342609971,0.001339935328658,-3.9837089138978e-09,5.3243129925399e-09,-0.0015712323753315,0.0015712312164965,-0.001571229271846,0.0015712342377879,-0.0015712333641824,0.0015712303012098,-0.0015712302539991,0.0015712333365237,-0.0012163159515682,0.0012163173920434,-0.0012163130725476,0.0012163200103502,0.61620824446665,131329,3014,0.0038253211517825,0.0041618348638601,0.0055653722731462,41.150983736084,8.9207869888669e-05,8.9207869888669e-05,8.9207869888669e-05,4790418.3672779,0.013645853132084
9619200,0.83352223288807,0.013929720691516,0.0040853799648767,0.0043568969682813,0.005487443758358,-0.00092951496514869,0.0009295167402772,-4.8770789700558e-10,2.2316271250585e-09,-9.3257979040402e-09,1.154653313175e-08,-0.0011185384606591,0.001118532389723,-0.0011185375877351,0.0011185333061441,-0.0011185317599464,0.0011185392894625,-0.0011185308619846,0.001118540203436,-0.0010368675540204,0.0010368735403486,-0.0010368648694833,0.0010368761888229,9.2075414848983e-09,-1.1542882532213e-08,3.9091565445644e-09,-5.7621173608675e-09,-0.0010125387820653,0.0010125369049874,-0.001202017849903,0.0012020260721338,-0.0012020210008529,0.0012020228537068,-0.0012020245260243,0.0012020192164114,-0.0012020276591026,0.0012020160020075,-0.0011188984271599,0.00111889917409,-0.0011189077108724,0.001118889510767,-0.00097538851406578,0.00097540354541491,-0.00097540870824494,0.00097538272274469,1.9912587734113e-09,-8.9948121576041e-10,-0.0013595870503218,0.0013595881336366,-4.0430153241277e-09,5.400123511757e-09,-0.0015969782025203,0.001596977040172,-0.0015969750535245,0.0015969801065104,-0.0015969792178657,0.0015969760990313,-0.0015969760622143,0.0015969791790617,-0.0012324062649068,0.001232407688414,-0.0012324033078488,0.0012324103836403,0.60938040997806,131329,3014,0.0038681003107384,0.0042115439838567,0.0056467230820768,40.850102228516,8.6800817828131e-05,8.6800817828131e-05,8.6800817828131e-05,4797964.3761209,0.013822131919214
9819200,0.8458578575224,0.014095801745817,0.0041304189681085,0.0044063560066901,0.0055590267710182,-0.00093802644450352,0.00093802821769989,-5.2770675065629e-10,2.2697522116868e-09,-9.336191553492e-09,1.1555280506936e-08,-0.0011309382120083,0.0011309321063715,-0.0011309373135593,0.0011309330485527,-0.0011309315039555,0.001130939012084,-0.0011309305794817,0.0011309399526139,-0.0010469118296311,0.0010469177425696,-0.0010469090672554,0.0010469204693493,9.2205844020834e-09,-1.1550485231061e-08,3.9748992391937e-09,-5.8220758105495e-09,-0.0010225313943874,0.0010225295230261,-0.0012157647420904,0.0012157730198036,-0.0012157679352484,0.0012157697587913,-0.0012157714264014,0.0012157661565072,-0.0012157746008258,0.0012157629004764,-0.0011305731543834,0.0011305740217342,-0.0011305825599916,0.0011305642370169,-0.00098404254773345,0.00098405756172043,-0.00098406276073808,0.00098403672023689,2.0391803545576e-09,-9.3250244369044e-10,-0.0013764514706084,0.0013764525690126,-4.0974757973388e-09,5.470365749199e-09,-0.0016193500908181,0.0016193489291848,-0.001619346900323,0.001619352036632,-0.0016193511337784,0.0016193479609729,-0.0016193479356997,0.001619351082756,-0.0012460772537211,0.0012460786562563,-0.0012460742193715,0.0012460814290967,0.61213711642533,131329,3014,0.0039035136120785,0.0042530628220598,0.0057165242180981,40.183318020092,8.1466544160735e-05,8.1466544160735e-05,8.1466544160735e-05,4796543.4925151,0.013970950946284
10019200,0.85694724137382,0.014246130316399,0.0041712917312765,0.0044511781683374,0.0056236604167848,-0.00094549106576743,0.0009454928366634,-5.6941419184612e-10,2.3092058252295e-09,-9.3286282731626e-09,1.1545558008952e-08,-0.0011418602974448,0.0011418541675785,-0.0011418593718459,0.0011418551371396,-0.0011418535938079,0.0011418610677341,-0.001141852642575,0.0011418620350601,-0.0010557781152983,0.0010557839418352,-0.0010557752748805,0.0010557867477736,9.2148903469906e-09,-1.1538708214182e-08,4.0205257695611e-09,-5.8616657043297e-09,-0.0010313023618362,0.0010313004965755,-0.0012278741724914,0.0012278824792071,-0.0012278773938139,0.001227879189875,-0.001227880851649,0.0012278756218404,-0.0012278840546372,0.001227872336961,-0.0011409162601869,0.0011409172234082,-0.0011409257499081,0.0011409073544598,-0.00099169648016341,0.00099171145512097,-0.0009917166762881,0.00099169063039582,2.0844619364128e-09,-9.6506608389359e-10,-0.0013913822409209,0.0013913833523502,-4.1327348398169e-09,5.5193426783404e-09,-0.0016392304104135,0.001639229259154,-0.0016392271912101,0.001639232394893,-0.0016392314792737,0.001639228265494,-0.0016392282529814,0.0016392314148766,-0.0012581408262647,0.0012581421924623,-0.0012581377145931,0.0012581450420952,0.6157467759395,131329,3014,0.0039345728081071,0.0042895064444679,0.0057783162597444,39.479074738461,7.5832597907686e-05,7.5832597907686e-05,7.5832597907686e-05,4791306.6721057,0.014102102914776
10219200,0.86692989606024,0.014382559994121,0.0042084886764913,0.0044919059881061,0.0056821653295234,-0.00095210073003242,0.00095210249852928,-6.1076837121021e-10,2.3481525532572e-09,-9.3040414372442e-09,1.1518348478302e-08,-0.0011515522333731,0.0011515460911517,-0.0011515512810741,0.0011515470875926,-0.0011515455459317,0.001151552974043,-0.001151544568006,0.0011515539680596,-0.0010636783190466,0.001063684047663,-0.0010636754005543,0.0010636869321494,9.1920859265206e-09,-1.1509534077026e-08,4.0497665393468e-09,-5.8847288310367e-09,-0.0010390648857202,0.0010390630268362,-0.00123861967988,0.0012386279935879,-0.0012386229186643,0.0012386246867764,-0.0012386263424786,0.0012386211534767,-0.0012386295630373,0.0012386178509624,-0.0011501244926943,0.0011501255305398,-0.0011501340337377,0.001150115610116,-0.00099852750416755,0.00099854241679974,-0.00099854764920377,0.00099852164332045,2.1292341504171e-09,-9.9898732709348e-10,-0.0014046714941961,0.0014046726166627,-4.1528042981205e-09,5.5508799340165e-09,-0.0016569478485083,0.001656946717046,-0.0016569446117734,0.0016569498700125,-0.0016569489436991,0.0016569456974659,-0.0016569456999818,0.0016569488637504,-0.0012689014964126,0.0012689028132847,-0.0012688983069203,0.0012689057399008,0.62007023583109,131329,3014,0.0039620760173075,0.0043217606337577,0.005833309442782,38.773873717503,7.019098974002e-05,7.019098974002e-05,7.019098974002e-05,4783667.8597677,0.014218516830761
10419200,0.87594404800918,0.014506898773785,0.0042424891108021,0.0045290720297718,0.005735337633211,-0.00095803148925075,0.0009580332541675,-6.5350898124921e-10,2.3871690058314e-09,-9.2594068045957e-09,1.1469684800238e-08,-0.0011602454176538,0.0011602392752863,-0.0011602444379333,0.001160240299297,-0.0011602387599635,0.0011602461271838,-0.0011602377550936,0.0011602471481798,-0.0010708065402095,0.0010708121550033,-0.0010708035421837,0.0010708151183566,9.1478053124446e-09,-1.145773281364e-08,4.0595170984432e-09,-5.8877055629285e-09,-0.0010460194153027,0.0010460175636396,-0.0012482481890064,0.0012482564826386,-0.0012482514319034,0.0012482531717552,-0.0012482548202371,0.0012482496747291,-0.0012482580454322,0.0012482463675702,-0.0011584265947368,0.0011584276841085,-0.0011584361481476,0.0011584177494197,-0.0010047021714513,0.0010047169936696,-0.0010047222236343,0.0010046963144252,2.1719517890108e-09,-1.0334794396772e-09,-0.001416601574224,0.001416602704902,-4.1543476880004e-09,5.5612133941894e-09,-0.001672829084263,0.0016728279820229,-0.0016728258430221,0.001672831139088,-0.001672830205044,0.0016728269370797,-0.0016728269573861,0.0016728301070282,-0.0012786167463427,0.0012786179993596,-0.0012786134794012,0.0012786210016709,0.62506143515846,131329,3014,0.0039867553006708,0.0043506581377899,0.0058826736074061,38.098865549559,6.4790924396475e-05,6.4790924396475e-05,6.4790924396475e-05,4773917.9022686,0.014322962020009
10619200,0.88436126483473,0.014620820013454,0.0042735827996061,0.0045630715953553,0.0057841656184927,-0.00096447299563653,0.00096447475281576,-6.9226604174762e-10,2.4184037062798e-09,-9.1134548285637e-09,1.1314685643885e-08,-0.0011693267637802,0.0011693206921401,-0.0011693257628536,0.0011693217373918,-0.001169320207055,0.0011693274414027,-0.0011693191763837,0.0011693284882121,-0.0010783518325961,0.0010783572641017,-0.0010783487597304,0.0010783603036028,9.0144140478114e-09,-1.1311322338312e-08,4.0217865441022e-09,-5.8383706258281e-09,-0.001053447036621,0.0010534451965737,-0.0012582240254901,0.0012582322110381,-0.0012582272420767,0.001258228926784,-0.0012582305666158,0.0012582254943218,-0.00125823376094,0.0012582222183938,-0.0011671109536602,0.0011671120552857,-0.0011671204150604,0.0011671022138663,-0.0010113783001689,0.0010113928812145,-0.0010113980704634,0.0010113724846625,2.2177890030683e-09,-1.0769945504969e-09,-0.0014286959153569,0.0014286970485795,-4.111118840612e-09,5.5201523648109e-09,-0.0016886227212255,0.0016886216816702,-0.0016886195102246,0.0016886248082432,-0.0016886238739024,0.0016886206049175,-0.0016886206518756,0.0016886237488418,-0.0012886180520232,0.0012886191982471,-0.0012886147045905,0.0012886222814214,0.61395113271673,131329,3014,0.0040135528377879,0.0043815163261141,0.0059327159367619,38.029352000193,6.4234816001548e-05,6.4234816001548e-05,6.4234816001548e-05,4774039.8173132,0.014432244024844
10819200,0.89222291496057,0.014725370659013,0.0043020528865136,0.0045942325018727,0.0058290852706268,-0.00097041168583083,0.00097041343532569,-7.3932146114862e-10,2.4579203000161e-09,-8.9849360439302e-09,1.1177115308623e-08,-0.0011777331778353,0.001177727156916,-0.0011777321466413,0.0011777282324457,-0.0011777267070487,0.0011777338185661,-0.0011777256493023,0.0011777348925402,-0.0010852716713575,0.0010852769271307,-0.0010852685190922,0.0010852800462793,8.8812554828734e-09,-1.1164755405778e-08,3.971552916468e-09,-5.7762511169432e-09,-0.001060303533818,0.0010603017057916,-0.0012674709257204,0.0012674789919024,-0.0012674741038734,0.0012674757467606,-0.0012674773735975,0.0012674723698556,-0.0012674805324583,0.0012674691297267,-0.0011750908061922,0.0011750919082469,-0.0011751001634823,0.0011750821720104,-0.0010174867605124,0.0010175011212749,-0.0010175062612227,0.0010174809955373,2.2538713561301e-09,-1.1135920724089e-09,-0.0014398936795561,0.0014398948122337,-4.0547206447735e-09,5.4627705859613e-09,-0.0017032881154464,0.0017032871361135,-0.0017032849406247,0.0017032902263714,-0.0017032892909194,0.0017032860366689,-0.001703286108253,0.0017032891409241,-0.0012978271673076,0.0012978281992149,-0.0012978237439797,0.0012978313582408,0.60386754670226,131329,3014,0.0040382587427817,0.0044100010224881,0.005979046301297,37.973591455152,6.3788731641214e-05,6.3788731641214e-05,6.3788731641214e-05,4776826.1968015,0.014533239836296
11019200,0.89956224885958,0.014821139788897,0.0043280666401723,0.0046227341948565,0.0058703389538686,-0.00097585265307471,0.00097585439506341,-7.8312789483332e-10,2.4943635824342e-09,-8.8691826006478e-09,1.1052552240351e-08,-0.001185475834847,0.0011854698595902,-0.0011854747769484,0.0011854709618003,-0.0011854694427524,0.0011854764408808,-0.0011854683583235,0.0011854775415682,-0.0010915824275527,0.001091587517516,-0.0010915791969055,0.0010915907151744,8.7674668575413e-09,-1.1038188154171e-08,3.9143126699941e-09,-5.7076982654336e-09,-0.0010665985134698,0.0010665966969494,-0.0012760005783783,0.0012760085347029,-0.0012760037151718,0.0012760053314549,-0.0012760069473532,0.0012760019927463,-0.0012760100648297,0.0012759987945593,-0.001182389267936,0.0011823903378228,-0.0011823985022775,0.0011823807254403,-0.0010230466933883,0.0010230608716697,-0.0010230659586104,0.0010230409831742,2.2920544732504e-09,-1.1544429472075e-09,-0.0014502217893375,0.0014502229192985,-3.9936042863657e-09,5.3984480620291e-09,-0.0017168795448876,0.0017168786310754,-0.0017168764118149,0.001716881679336,-0.0017168807468826,0.0017168775050668,-0.0017168776057596,0.0017168805676041,-0.0013062686393609,0.0013062695490627,-0.0013062651380818,0.0013062727856383,0.59320720604172,131329,3014,0.0040608939578785,0.0044361524511945,0.0060217769099908,37.918317596382,6.334654077106e-05,6.334654077106e-05,6.334654077106e-05,4781438.5415466,0.014626122912254
11219200,0.9064017122658,0.014910326004786,0.0043523116993029,0.0046492894426161,0.005908724862867,-0.00098085253995247,0.00098085427567215,-8.2631338945786e-10,2.5314165014341e-09,-8.7876552966334e-09,1.0963736036919e-08,-0.0011925818107211,0.0011925758588647,-0.0011925807260012,0.0011925769878483,-0.0011925754740641,0.0011925823832664,-0.0011925743629707,0.0011925835106573,-0.0010974022663394,0.0010974072152585,-0.0010973989576638,0.0010974104914492,8.6877432228746e-09,-1.094732987894e-08,3.8525489735018e-09,-5.6359207012027e-09,-0.0010723912183258,0.0010723894119062,-0.0012838431597141,0.0012838510252998,-0.0012838462525114,0.0012838478666254,-0.0012838494728345,0.0012838445402725,-0.001283852546443,0.001283841386509,-0.0011891284367553,0.0011891294427648,-0.0011891375412006,0.0011891199618487,-0.0010281540998074,0.0010281681653645,-0.0010281731980942,0.0010281484453421,2.3292495024383e-09,-1.1962652842697e-09,-0.0014597548763618,0.0014597560017137,-3.9297171838081e-09,5.3292391914008e-09,-0.0017294503795441,0.0017294495318214,-0.0017294472906411,0.0017294525357415,-0.0017294516078182,0.0017294483795466,-0.0017294485109841,0.0017294513975992,-0.0013140429478988,0.0013140437308579,-0.0013140393688144,0.0013140470450569,0.59263237139893,131329,3014,0.0040816935620085,0.0044602163529878,0.0060612172785894,37.837488198132,6.2699905585056e-05,6.2699905585056e-05,6.2699905585056e-05,4785419.4384406,0.014711692109954
11419200,0.91273110851526,0.014993441277152,0.0043749505865151,0.0046740660150659,0.0059444246755711,-0.0009852564687345,0.00098525820046508,-8.68801350421e-10,2.5700498342123e-09,-8.7568410899568e-09,1.0928385350653e-08,-0.0011989053301897,0.0011988993686875,-0.0011989042179696,0.0011989005250657,-0.0011988990141474,0.0011989058713143,-0.0011988978764375,0.0011989070253135,-0.0011025911460953,0.0011025959910955,-0.0011025877595699,0.0011025993456132,8.6558248382675e-09,-1.090705247762e-08,3.7933791351401e-09,-5.5689590170752e-09,-0.001077516735884,0.0010775149372427,-0.0012908358263076,0.0012908436337374,-0.0012908388772402,0.001290840517541,-0.0012908421158849,0.0012908371731077,-0.0012908451484559,0.0012908340609639,-0.0011951478949386,0.0011951488104697,-0.0011951568781876,0.0011951394528225,-0.0010326677637308,0.0010326818094453,-0.0010326867925812,0.001032662159782,2.3655182495118e-09,-1.2381915364514e-09,-0.0014683219430539,0.0014683230627064,-3.8697695041097e-09,5.2628141906096e-09,-0.0017408227344675,0.0017408219489355,-0.0017408196870563,0.0017408249110087,-0.001740823988371,0.0017408207709274,-0.001740820933904,0.0017408237464912,-0.0013210010470815,0.0013210017042821,-0.0013209973899768,0.0013210050963192,0.59626239005779,131329,3014,0.00410001559756,0.0044815095580077,0.006096658997767,37.630278744459,6.1042229955673e-05,6.1042229955673e-05,6.1042229955673e-05,4785640.4912802,0.014787882382306
11619200,0.9185887407284,0.015070737416965,0.0043960394871247,0.0046971285049805,0.0059775694248597,-0.00098930604117575,0.00098930777015389,-9.0988167691581e-10,2.608361704311e-09,-8.7503245332979e-09,1.0918769494675e-08,-0.00120472355871,0.0012047175732669,-0.001204722420188,0.0012047187559034,-0.0012047172472204,0.0012047240702468,-0.0012047160828081,0.0012047252510099,-0.0011073947627892,0.0011073995215146,-0.0011073912979206,0.0011074029545169,8.6531656862148e-09,-1.089841785627e-08,3.7348052217885e-09,-5.5048494882075e-09,-0.0010822296870232,0.001082227894115,-0.0012972659778446,0.0012972737471704,-0.0012972689887199,0.0012972706716347,-0.0012972722644919,0.0012972672900201,-0.0012972752566032,0.0012972642190234,-0.001200714737683,0.0012007155411362,-0.001200723600089,0.0012007063048862,-0.0010368458170871,0.0010368598973903,-0.0010368648342705,0.0010368402602413,2.4022715864285e-09,-1.2813518816972e-09,-0.0014762098157925,0.0014762109290719,-3.8124338584096e-09,5.1985436020908e-09,-0.0017512830938029,0.0017512823692871,-0.0017512800870005,0.0017512852904404,-0.0017512843744994,0.0017512811643665,-0.0017512813601793,0.0017512840997216,-0.0013274216728905,0.0013274222055274,-0.001327417937951,0.0013274256750727,0.59873359979949,131329,3014,0.0041168639089224,0.0045010892146347,0.0061292890083722,37.420193814727,5.9361550517817e-05,5.9361550517817e-05,5.9361550517817e-05,4783902.1395972,0.014857988626591
11819200,0.92401109699576,0.015142766089767,0.0044157293909525,0.0047186419369525,0.0060083947618619,-0.00099304022512577,0.00099304195265169,-9.5057625607729e-10,2.6476008435528e-09,-8.7656213724899e-09,1.0932536834328e-08,-0.0012100872241286,0.0012100812006589,-0.0012100860589362,0.0012100824098905,-0.0012100809021434,0.0012100877072385,-0.0012100797110471,0.0012100889147318,-0.0011118474755526,0.0011118521642771,-0.0011118439324051,0.0011118556756632,8.670109422159e-09,-1.0910968983781e-08,3.6800175703298e-09,-5.445787439145e-09,-0.0010865731817028,0.0010865713931607,-0.0013031894554378,0.0013031972016313,-0.001303192429002,0.0013031941640264,-0.0013031957525104,0.0013031907345236,-0.0013031987072405,0.0013031877015185,-0.001205871454113,0.0012058721401083,-0.0012058802052767,0.0012058630160066,-0.0010407212745973,0.0010407354258934,-0.0010407403207492,0.0010407157602442,2.4385747744498e-09,-1.3244156748338e-09,-0.0014834856019579,0.0014834867084364,-3.7594914598518e-09,5.1381971540451e-09,-0.0017609168417002,0.0017609161746049,-0.0017609138725244,0.0017609190578929,-0.0017609181488491,0.0017609149432655,-0.0017609151721188,0.001760917840845,-0.0013333666564739,0.0013333670670107,-0.00133336284369,0.0013333706139653,0.60218093132479,131329,3014,0.004132400492152,0.0045191342717526,0.0061593852601615,37.210007122986,5.7680056983885e-05,5.7680056983885e-05,5.7680056983885e-05,4780694.0228005,0.014922637709215
12019200,0.92903937852164,0.015211647125448,0.0044346699802541,0.0047392851107908,0.0060376920344026,-0.00099661163467257,0.00099661336163189,-9.9085460913067e-10,2.6872611913976e-09,-8.7944427790451e-09,1.0960871012797e-08,-0.0012151417676178,0.0012151356976754,-0.0012151405757427,0.0012151369335276,-0.0012151354258793,0.0012151422232356,-0.0012151342081332,0.0012151434574327,-0.0011161554243563,0.0011161600533158,-0.0011161518028335,0.0011161636428325,8.7006243787724e-09,-1.0938513963977e-08,3.6306142591994e-09,-5.3934082537135e-09,-0.0010907100457586,0.0010907082603591,-0.0013087597281159,0.0013087674635038,-0.0013087626683402,0.0013087644598299,-0.0013087660450035,0.001308760976908,-0.001308768966363,0.0013087579778559,-0.0012108399957159,0.0012108405651946,-0.0012108486471609,0.0012108315409822,-0.0010444894221119,0.0010445036671822,-0.001044508525275,0.0010444839448106,2.4749421323932e-09,-1.3674171335805e-09,-0.0014903430503095,0.0014903441500612,-3.7124786563548e-09,5.0840106766401e-09,-0.0017699212270839,0.0017699206133625,-0.0017699182915032,0.0017699234628423,-0.0017699225607066,0.0017699193556286,-0.0017699196175505,0.0017699222194329,-0.0013390506607292,0.0013390509532788,-0.001339046769916,0.0013390545776454,0.61929851169073,131329,3014,0.0041472592646149,0.0045363205184961,0.0061877495926082,37.027683157713,5.6221465261702e-05,5.6221465261702e-05,5.6221465261702e-05,4774942.9144173,0.01498397142043
12219200,0.93372029186416,0.015277876458934,0.0044529833860218,0.0047591984352558,0.0060656946376561,-0.0010001247528769,0.0010001264796272,-1.0307627054069e-09,2.7268747324076e-09,-8.8248012734375e-09,1.0991131061755e-08,-0.0012200435390462,0.0012200374221526,-0.0012200423207918,0.0012200386843355,-0.001220037176626,0.0012200439676905,-0.0012200359322224,0.0012200452286235,-0.0011204332174191,0.0011204377880396,-0.0011204295175233,0.0011204414559103,8.7348108103636e-09,-1.0970588391042e-08,3.587067347087e-09,-5.3476495937575e-09,-0.0010947531539186,0.0010947513708806,-0.0013141341844283,0.0013141419152101,-0.0013141370956164,0.0013141389411684,-0.0013141405239019,0.0013141354062345,-0.0013141434158843,0.001314132437157,-0.0012157496379706,0.0012157500991766,-0.0012157582014166,0.0012157411632916,-0.001048267803869,0.0010482821452668,-0.0010482869715748,0.0010482623586235,2.5116859416009e-09,-1.4104469535784e-09,-0.0014969358342509,0.0014969369276903,-3.6717526005079e-09,5.0365233925499e-09,-0.0017784923173937,0.0017784917534801,-0.0017784894112511,0.0017784945733184,-0.0017784936777857,0.0017784904690797,-0.0017784907636908,0.001778493303558,-0.0013446195628328,0.0013446197421589,-0.0013446155941763,0.001344623443942,0.63789981891802,131329,3014,0.0041618758488066,0.0045531176841187,0.0062150166011176,36.914119650989,5.5312957207915e-05,5.5312957207915e-05,5.5312957207915e-05,4765941.0407335,0.015043553852854
12419200,0.93807826455519,0.015337511912768,0.0044693898790229,0.0047770738549161,0.0060910481788292,-0.0010032919359359,0.0010032936631659,-1.070686030012e-09,2.767293064067e-09,-8.8629278160213e-09,1.103000701721e-08,-0.0012245806950098,0.0012245745258401,-0.0012245794497359,0.0012245758149316,-0.0012245743063504,0.0012245810971473,-0.0012245730353385,0.0012245823846887,-0.0011242603691163,0.0011242648879835,-0.0011242565914451,0.0011242686341406,8.7717245330568e-09,-1.1005641830167e-08,3.5521007241711e-09,-5.310491225131e-09,-0.0010984063615137,0.0010984045805377,-0.0013190969066997,0.0013191046397429,-0.0013190997941416,0.0013191016899588,-0.0013191032703815,0.0013190981068119,-0.0013191061389581,0.0013190951616144,-0.0012201587968232,0.0012201591662315,-0.0012201672911888,0.0012201503013082,-0.0010516542104738,0.0010516686490874,-0.0010516734493878,0.0010516487911348,2.5481883406542e-09,-1.4528873896993e-09,-0.0015029709206647,0.0015029720081299,-3.6388677374708e-09,4.9970629229519e-09,-0.0017864127193079,0.0017864121997664,-0.0017864098369325,0.0017864149955928,-0.0017864141058757,0.0017864108893103,-0.001786411215909,0.0017864136994453,-0.0013496846342454,0.0013496847055946,-0.0013496805876405,0.0013496884851438,0.61826607259743,131329,3014,0.0041750566988307,0.0045682975362829,0.0062399734994096,36.802123527527,5.4416988220213e-05,5.4416988220213e-05,5.4416988220213e-05,4756907.3260889,0.015097697027674
12619200,0.94213574125069,0.015390058329209,0.0044837283000738,0.0047927441858128,0.0061135858433223,-0.0010061000131845,0.0010061017409104,-1.1104292574719e-09,2.8074947862555e-09,-8.900602576348e-09,1.1068448806104e-08,-0.0012286754862951,0.0012286692654328,-0.0012286742143162,0.0012286705811644,-0.0012286690718503,0.0012286758620795,-0.0012286677742031,0.0012286771762832,-0.0011275865767941,0.0011275910434,-0.0011275827210391,0.0011275948678253,8.8103932742898e-09,-1.1043011222817e-08,3.5222237292034e-09,-5.279020474369e-09,-0.0011016591117492,0.00110165733235,-0.001323585295424,0.0013235930353347,-0.0013235881628523,0.0013235901060436,-0.0013235916847076,0.0013235864769542,-0.0013235945332949,0.0013235835522166,-0.0012240025194553,0.001224002804861,-0.0012240109541926,0.0012239940005195,-0.0010545799895806,0.0010545945247684,-0.0010545993031849,0.0010545745920739,2.5850975130455e-09,-1.4953059010194e-09,-0.0015084162242185,0.0015084173061399,-3.6113364720909e-09,4.9635487609631e-09,-0.0017936338992617,0.0017936334209683,-0.0017936310370504,0.0017936361963847,-0.0017936353122966,0.0017936320841523,-0.0017936324425225,0.0017936348738722,-0.0013541574498549,0.0013541574175533,-0.0013541533252226,0.0013541612747027,0.58731202971608,131329,3014,0.0041867431341804,0.0045818129748978,0.0062624916509044,36.690182864227,5.3521462913814e-05,5.3521462913814e-05,5.3521462913814e-05,4753640.2811801,0.015146158830909
12819200,0.94587941494766,0.015438927931943,0.0044971000403792,0.0048073382524335,0.0061344896391304,-0.0010083930632081,0.0010083947859105,-1.1527616846571e-09,2.8447543225905e-09,-8.9527077120424e-09,1.1115590208232e-08,-0.0012320674226555,0.0012320611372844,-0.0012320661248383,0.0012320624787103,-0.0012320609754618,0.0012320677663759,-0.0012320596503943,0.0012320691079399,-0.0011303437070833,0.0011303481216736,-0.0011303397711275,0.0011303520267422,8.8689597544111e-09,-1.1101627824543e-08,3.5093051119672e-09,-5.2656562530492e-09,-0.0011043459568859,0.0011043441778801,-0.0013273378481409,0.0013273456196952,-0.0013273407079801,0.0013273426983419,-0.0013273442777017,0.0013273390219436,-0.0013273471170782,0.0013273361067714,-0.0012272060898149,0.0012272063079705,-0.0012272144965856,0.0012271975327192,-0.0010569495742623,0.0010569642310479,-0.0010569690012505,0.0010569441864821,2.6228296215907e-09,-1.537165023546e-09,-0.0015130828062727,0.0015130838840818,-3.6014317272329e-09,4.949203805074e-09,-0.0017998917606545,0.0017998913137357,-0.0017998889072133,0.0017998940801953,-0.0017998932011958,0.0017998899497677,-0.001799890338521,0.0017998927321252,-0.0013579213315564,0.0013579212115871,-0.0013579171320288,0.0013579251447386,0.59134554316955,131329,3014,0.0041962857322279,0.0045929762633567,0.0062817910418967,36.406503293441,5.1252026347529e-05,5.1252026347529e-05,5.1252026347529e-05,4751609.1893507,0.015186786171647
13019200,0.94929026289976,0.015483606848989,0.0045093444189013,0.0048206902299383,0.0061535722001499,-0.0010100031830893,0.0010100049057662,-1.1929049978065e-09,2.8847781947416e-09,-9.0321395021617e-09,1.1195627230597e-08,-0.0012346578403593,0.0012346514736291,-0.0012346565140875,0.0012346528434706,-0.0012346513385534,0.0012346581571952,-0.0012346499884726,0.0012346595238078,-0.0011323671373561,0.001132371532156,-0.0011323631284352,0.001132375510219,8.9298548284755e-09,-1.1163273573901e-08,3.515743330415e-09,-5.2721889773494e-09,-0.0011062885446103,0.0011062867654233,-0.0013302332562393,0.0013302410717191,-0.0013302361189264,0.0013302381478048,-0.0013302397255949,0.0013302344344743,-0.0013302425712354,0.0013302315133273,-0.0012296023402345,0.0012296025357265,-0.0012296107656682,0.0012295937426834,-0.0010586123352895,0.0010586271127888,-0.0010586318876489,0.0010586069426931,2.6611847239863e-09,-1.5777520836392e-09,-0.0015167971768713,0.0015167982524439,-3.607135987354e-09,4.9525209132386e-09,-0.0018050401461368,0.0018050397185437,-0.001805037287758,0.0018050424897185,-0.0018050416114521,0.0018050383301716,-0.0018050387472293,0.0018050411137886,-0.0013608302266178,0.001360830024891,-0.0013608259442876,0.0013608340402946,0.5930269742144,131329,3014,0.004202990830114,0.0046010505161521,0.0062971508102415,35.873453920303,4.6987631362424e-05,4.6987631362424e-05,4.6987631362424e-05,4744815.4702973,0.015217397210335
13219200,0.95240149842191,0.01552453406553,0.0045205834864495,0.0048329311918976,0.0061710193871827,-0.0010113877174111,0.0010113894398779,-1.232834349698e-09,2.924424564337e-09,-9.0810808529782e-09,1.1244801067664e-08,-0.0012369270066619,0.0012369205812426,-0.0012369256550667,0.0012369219764262,-0.0012369204729305,0.0012369272965669,-0.0012369190950625,0.0012369286909324,-0.0011341338837727,0.0011341382293602,-0.0011341297932982,0.0011341422895345,8.9892339886727e-09,-1.1223576732727e-08,3.5279644430211e-09,-5.2847184534488e-09,-0.001107967955492,0.001107966175963,-0.0013327719980653,0.0013327798626305,-0.0013327748704261,0.0013327769292277,-0.0013327785084225,0.0013327731844346,-0.0013327813612397,0.0013327702562576,-0.001231701093715,0.0012317012689951,-0.0012317095395507,0.0012316924560086,-0.0010600508152959,0.001060065698021,-0.00106007048176,0.0010600454138904,2.7003583788463e-09,-1.6181096760954e-09,-0.00152007901647,0.001520080090945,-3.6211414653198e-09,4.9654160770649e-09,-0.0018096186457505,0.0018096182358214,-0.0018096157794547,0.0018096210146498,-0.0018096201388957,0.0018096168197717,-0.0018096172643231,0.0018096196136359,-0.0013633921131812,0.0013633918448506,-0.0013633877562185,0.0013633959344719,0.59512404356174,131329,3014,0.0042087575557932,0.0046080317041241,0.0063107214007279,35.334702825376,4.267762260301e-05,4.267762260301e-05,4.267762260301e-05,4737106.1656197,0.015244129128057
13419200,0.95524360385515,0.015561321851036,0.0045306716018976,0.0048439206700901,0.0061867295790482,-0.001012547357032,0.0010125490788199,-1.2732465454861e-09,2.9640487064643e-09,-9.1161382882623e-09,1.1279496674325e-08,-0.0012389025372886,0.0012388960608119,-0.0012389011587301,0.0012388974829529,-0.001238895979767,0.0012389027997004,-0.001238894575586,0.0012389042203995,-0.0011356240633383,0.0011356283543349,-0.0011356198956661,0.001135632491518,9.022955733986e-09,-1.1257124491405e-08,3.547357188195e-09,-5.3036449117405e-09,-0.0011093873217098,0.0011093855427113,-0.0013349838622754,0.0013349917624625,-0.0013349867472229,0.0013349888166243,-0.0013349903948633,0.0013349850622072,-0.001334993260921,0.0013349821209012,-0.0012334821287045,0.0012334823204551,-0.0012334906129349,0.0012334734686788,-0.0010612456431497,0.0010612605803754,-0.00106126537651,0.0010612402292715,2.739844699684e-09,-1.6576824036463e-09,-0.0015229470765002,0.001522948150865,-3.6400159664814e-09,4.9843607946403e-09,-0.0018136746891241,0.0018136742923448,-0.001813671809723,0.0018136770840977,-0.0018136762083654,0.0018136728504134,-0.0018136733213877,0.0018136756565068,-0.0013655995990791,0.0013655992650905,-0.0013655951637022,0.0013656034328749,0.58608288286586,131329,3014,0.0042135892164678,0.004613933109193,0.006322580198692,34.795750018478,3.8366000147824e-05,3.8366000147824e-05,3.8366000147824e-05,4729246.4052217,0.015267077587977
13619200,0.95785753736357,0.015594722337,0.0045398246568323,0.0048538903919002,0.0062010072882677,-0.0010136965005797,0.0010136982223937,-1.3116334164995e-09,3.0028056194084e-09,-9.1288463292462e-09,1.1292593381259e-08,-0.0012407899327046,0.0012407834204569,-0.0012407885272736,0.0012407848694955,-0.0012407833653692,0.0012407901691548,-0.0012407819368125,0.0012407916143396,-0.0011370670542354,0.0011370712814507,-0.001137062815177,0.0011370754898328,9.0123159277409e-09,-1.1243622226064e-08,3.5719905065202e-09,-5.3256664478816e-09,-0.0011107750340792,0.0011107732579061,-0.0013370908144965,0.0013370987242448,-0.0013370937139197,0.0013370957644983,-0.001337097338974,0.0013370920339097,-0.0013371002214774,0.0013370890757905,-0.0012351871010798,0.0012351873528829,-0.0012351956349097,0.0012351784491584,-0.0010624180365502,0.0010624329423599,-0.0010624377526617,0.0010624126112443,2.7814059984266e-09,-1.6980900445148e-09,-0.0015256600809731,0.0015256611563872,-3.6597031674921e-09,5.0056694092062e-09,-0.0018174731803185,0.0018174727960888,-0.0018174702853691,0.0018174756025164,-0.0018174747256921,0.0018174713280114,-0.0018174718268101,0.001817474147565,-0.0013676960443755,0.0013676956412914,-0.0013676915223889,0.0013676998909649,0.57889843851006,131329,3014,0.0042183750240054,0.0046197014555271,0.0063337987965727,34.355187721569,3.4841501772555e-05,3.4841501772555e-05,3.4841501772555e-05,4724471.2902871,0.01528919352702
13819200,0.96027601184114,0.015625610183222,0.0045482992723401,0.0048631140020239,0.0062141969088576,-0.00101486225509,0.0010148639721748,-1.3548650561555e-09,3.0410273836126e-09,-9.0924175405913e-09,1.1251011338503e-08,-0.0012426235989174,0.0012426170811584,-0.0012426221666599,0.0012426185567587,-0.0012426170577615,0.0012426238033987,-0.0012426156012192,0.0012426252762447,-0.001138508586351,0.0011385127021412,-0.001138504265405,0.0011385169926745,8.9912391173926e-09,-1.1220607084531e-08,3.5962767894696e-09,-5.3480662940279e-09,-0.0011121627605903,0.0011121609862692,-0.0013391295140128,0.0013391374270259,-0.0013391324295887,0.0013391344507317,-0.0013391360240337,0.0013391307502811,-0.0013391389218843,0.0013391277772235,-0.0012368691263284,0.0012368694382233,-0.0012368777034645,0.0012368604928654,-0.0010636074020278,0.0010636222477664,-0.0010636270706621,0.0010636019622347,2.8203795009305e-09,-1.7366748915977e-09,-0.0015282693809522,0.0015282704568763,-3.6844972149922e-09,5.0308540243335e-09,-0.0018210757639812,0.0018210753906215,-0.0018210728532308,0.0018210782132503,-0.0018210773358224,0.0018210738962078,-0.0018210744190635,0.0018210767323708,-0.0013697335499369,0.0013697330893125,-0.0013697289549846,0.0013697374148131,0.5784214845549,131329,3014,0.0042232278508317,0.0046254683840837,0.0063445894866775,34.003072026889,3.2024576215113e-05,3.2024576215113e-05,3.2024576215113e-05,4721935.5722289,0.015310940848194
14019200,0.96251592815843,0.015654216183397,0.004556155351893,0.0048716593648301,0.0062264014666739,-0.0010159040498095,0.0010159057632436,-1.3968741303365e-09,3.0794056042138e-09,-9.0507415591757e-09,1.120518643457e-08,-0.0012442782816772,0.0012442717627758,-0.0012442768231396,0.0012442732648168,-0.0012442717693762,0.0012442784555588,-0.0012442702857419,0.0012442799556089,-0.0011398050833133,0.0011398090866217,-0.0011398006826073,0.0011398134570035,8.9542329518463e-09,-1.1179761183928e-08,3.623947832868e-09,-5.3722457818742e-09,-0.0011134058365095,0.0011134040656658,-0.0013409688927369,0.0013409768008675,-0.001340971826033,0.001340973806867,-0.0013409753774018,0.0013409701499851,-0.0013409782922528,0.0013409671599428,-0.0012383841002801,0.0012383844910587,-0.0012383927268276,0.0012383754962942,-0.0010646702458448,0.0010646849999512,-0.0010646898369168,0.0010646647927334,2.8604568045964e-09,-1.7752776812501e-09,-0.001530634062806,0.0015306351401927,-3.7099959594348e-09,5.0579743627081e-09,-0.0018243541362591,0.0018243537734031,-0.0018243512082554,0.0018243566132178,-0.0018243557346932,0.0018243522523897,-0.0018243528000109,0.0018243551064284,-0.0013715749060742,0.0013715743886609,-0.0013715702356527,0.0013715787903052,0.57820997477228,131329,3014,0.0042275649512747,0.0046306344189734,0.0063543684725682,33.652985642362,2.92238851389e-05,2.92238851389e-05,2.92238851389e-05,4719040.8317881,0.015330526999091
14219200,0.96459235208085,0.015679767628496,0.0045631355305826,0.0048792661481352,0.006237365949778,-0.001016786371762,0.0010167880815051,-1.438640104297e-09,3.1175215179164e-09,-9.0079527538149e-09,1.1158255436132e-08,-0.0012457383854127,0.0012457318660127,-0.0012457369003025,0.0012457333946645,-0.0012457319026072,0.0012457385288189,-0.0012457303923771,0.0012457400554875,-0.0011408953829342,0.0011408992747294,-0.0011408909042547,0.0011409037231897,8.9117260746161e-09,-1.1133020574457e-08,3.6524269358937e-09,-5.396974227958e-09,-0.0011144688886793,0.0011144671216135,-0.0013425950913368,0.0013426029912906,-0.0013425980424127,0.0013425999795507,-0.0013426015466502,0.0013425963702639,-0.0013426044792552,0.0013425933624687,-0.0012396689572721,0.0012396694335231,-0.0012396776358296,0.0012396603867008,-0.0010655479293537,0.0010655625819292,-0.0010655674329341,0.0010655424628462,2.9009149220992e-09,-1.8140163595748e-09,-0.0015327247285306,0.0015327258076658,-3.7354964977638e-09,5.0854279063153e-09,-0.0018273015045121,0.0018273011521003,-0.0018272985587679,0.0018273040095801,-0.0018273031294054,0.001827299604723,-0.0018273001769723,0.0018273024764035,-0.0013731651853463,0.0013731646098789,-0.0013731604374527,0.0013731690889815,0.55856306496707,131329,3014,0.0042312391098841,0.004635052967107,0.0063630140312278,33.302970997798,2.6423767982382e-05,2.6423767982382e-05,2.6423767982382e-05,4716563.7110721,0.015347530431345
14419200,0.96648689554287,0.015703331556466,0.0045695926586829,0.0048862927354659,0.0062474461623171,-0.0010170212397567,0.0010170229469957,-1.4807661226114e-09,3.1571815549766e-09,-8.9900821419557e-09,1.1137693917773e-08,-0.0012464245489718,0.0012464180132013,-0.0012464230375511,0.0012464195681609,-0.0012464180794288,0.001246424662518,-0.0012464165410236,0.001246426217302,-0.0011412955083376,0.0011412993021583,-0.001141290946968,0.0011413038336962,8.9055419410252e-09,-1.1124712576404e-08,3.6856077677815e-09,-5.4280868147771e-09,-0.00111483914063,0.0011148373755903,-0.0013434179886228,0.0013434259080026,-0.0013434209620334,0.0013434228738691,-0.001343424440064,0.0013434192911337,-0.00134342739316,0.0013434162627693,-0.0012402036658361,0.0012402042090886,-0.0012402124047466,0.0012401951025071,-0.0010657312949819,0.0010657459113934,-0.0010657507819013,0.0010657258092687,2.9407357232481e-09,-1.8513110900699e-09,-0.0015339717087834,0.0015339727904986,-3.7673495190288e-09,5.1200282767095e-09,-0.0018292952176064,0.0018292948722509,-0.001829292250607,0.0018292977510253,-0.001829296869219,0.0018292932982698,-0.0018292938936265,0.0018292961930075,-0.0013739495928817,0.0013739489695196,-0.0013739447726759,0.0013739535215503,0.56383118897938,131329,3014,0.0042322219700704,0.0046365948205476,0.0063681711279852,32.646959242934,2.1175673943474e-05,2.1175673943474e-05,2.1175673943474e-05,4710940.1858574,0.015355335231719
14619200,0.9682023311541,0.015724784391978,0.0045754846113816,0.0048926965496683,0.0062566032309281,-0.0010168433101441,0.0010168450152329,-1.5191536910152e-09,3.1931133169918e-09,-9.0077848007693e-09,1.1153064487418e-08,-0.001246636564265,0.0012466299891769,-0.0012466350256181,0.0012466315713588,-0.001246630082097,0.0012466366509476,-0.0012466285209672,0.0012466382282077,-0.0011412557006874,0.0011412594385759,-0.0011412510741477,0.001141264035967,8.8923800977414e-09,-1.1109317590847e-08,3.7235634363727e-09,-5.4638813010082e-09,-0.0011147705094126,0.0011147687463971,-0.001343739489818,0.0013437474247265,-0.0013437424852214,0.001343744368074,-0.0013437459299898,0.0013437408182536,-0.0013437489100523,0.0013437377630081,-0.0012402797982342,0.0012402804329991,-0.0012402886170523,0.0012402712475423,-0.001065495017073,0.0010655095891331,-0.0010655144810776,0.0010654895076723,2.9840853955925e-09,-1.8925966233546e-09,-0.0015346470340788,0.0015346481181608,-3.799618262535e-09,5.1547249047807e-09,-0.0018306391623542,0.0018306388232675,-0.0018306361708377,0.0018306417269727,-0.0018306408397102,0.0018306372235198,-0.0018306378435783,0.0018306401377656,-0.0013742212528432,0.0013742205638698,-0.0013742163436813,0.0013742252069942,0.56645234289034,131329,3014,0.0042314902999986,0.0046363156223977,0.0063709631017053,31.822372945407,1.4578983563252e-05,1.4578983563252e-05,1.4578983563252e-05,4700553.1482636,0.015357148174417
14819200,0.96975836819599,0.015744370802883,0.0045808780736519,0.0048985511327265,0.0062649415965043,-0.0010165545003351,0.0010165562045081,-1.5604694830814e-09,3.2337303516987e-09,-8.9981479498155e-09,1.1142538654181e-08,-0.001246691617955,0.0012466850211509,-0.001246690052758,0.0012466866301799,-0.0012466851422002,0.0012466916761252,-0.0012466835534591,0.0012466932813732,-0.001141091984128,0.0011410956319216,-0.0011410872756268,0.0011411003108814,8.8962714555975e-09,-1.1111906998189e-08,3.7551674735211e-09,-5.4944444764642e-09,-0.0011145740281212,0.001114572266313,-0.0013438869389317,0.0013438948981727,-0.0013438899557442,0.0013438918205305,-0.0013438933820657,0.001343888290052,-0.0013438963820832,0.001343885214687,-0.0012402171370343,0.001240217829233,-0.001240226014245,0.001240208583915,-0.0010651525186985,0.0010651670765562,-0.0010651719890851,0.0010651469913046,3.0244829959441e-09,-1.9292234953112e-09,-0.0015351020869139,0.0015351031745912,-3.8298125289738e-09,5.18895916333e-09,-0.0018316906341241,0.0018316903028202,-0.0018316876213806,0.0018316932272331,-0.0018316923378248,0.0018316886768675,-0.0018316893199348,0.0018316916136509,-0.0013743211131901,0.0013743203752238,-0.001374316128594,0.0013743250911931,0.56961685959653,131329,3014,0.0042302976629698,0.0046355056503233,0.0063728438203341,30.993890693637,7.9511255490937e-06,7.9511255490937e-06,7.9511255490937e-06,4689078.883027,0.015357028501936
15019200,0.97115085090357,0.015761833098869,0.004585690713481,0.0049037723812643,0.0062723700041238,-0.0010156636402992,0.0010156653405846,-1.5970572510561e-09,3.264386656699e-09,-9.0572792551595e-09,1.1197204735199e-08,-0.0012460858768704,0.0012460792167947,-0.0012460842848479,0.0012460808496848,-0.0012460793643916,0.0012460859109495,-0.0012460777529829,0.0012460875341069,-0.0011402814615557,0.0011402850895534,-0.0011402766932683,0.0011402898272311,8.8830387292699e-09,-1.1094283042585e-08,3.7947612916906e-09,-5.5299374471591e-09,-0.0011137476437909,0.0011137458856069,-0.0013433478160848,0.0013433557936362,-0.0013433508523067,0.0013433526906275,-0.001343354245059,0.0013433491915652,-0.0013433572709526,0.001343346087012,-0.0012394816075758,0.0012394824010488,-0.0012394905731792,0.0012394730730049,-0.0010641866269934,0.0010642011408126,-0.0010642060735761,0.0010641810722191,3.0680808455891e-09,-1.9771412026346e-09,-0.0015348042002979,0.0015348052849648,-3.8621038688779e-09,5.2171726914261e-09,-0.0018319061238998,0.0018319057987928,-0.0018319030910544,0.0018319087490185,-0.0018319078537699,0.0018319041433498,-0.0018319048172174,0.0018319070966753,-0.001373716122088,0.0013737153062748,-0.0013737110440799,0.0013737201234941,0.56737760622159,131329,3014,0.0042266048650402,0.0046320820866164,0.0063716091981847,29.890561239492,-8.7551008406332e-07,-8.7551008406332e-07,-8.7551008406332e-07,4672007.4712445,0.015348552536199
15219200,0.97237849975438,0.015776550291947,0.0045897243034355,0.0049081567493778,0.0062786692391341,-0.0010140931903049,0.0010140948930031,-1.6421602757484e-09,3.3132838276299e-09,-9.0542438013023e-09,1.1197186765101e-08,-0.0012447318229959,0.0012447251343335,-0.0012447302048702,0.001244726796517,-0.0012447253103701,0.0012447318263699,-0.001244723666884,0.0012447334859018,-0.0011387273546839,0.0011387308786711,-0.0011387224862631,0.0011387357181287,8.9625760048599e-09,-1.1178949605897e-08,3.8185351181238e-09,-5.5580760425234e-09,-0.0011122117100524,0.0011122099477997,-0.0013420353511574,0.0013420433969983,-0.0013420384103618,0.0013420402757796,-0.0013420418380922,0.0013420367433338,-0.0013420448794419,0.0013420336259664,-0.00123797111096,0.0012379718805372,-0.0012379801109072,0.0012379625134147,-0.0010624965526095,0.0010625111963692,-0.0010625161509787,0.0010624909811457,3.1043003781661e-09,-2.005796533528e-09,-0.0015336805766121,0.001533681667824,-3.8921940256442e-09,5.2549587754989e-09,-0.0018312107784899,0.00183121046095,-0.0018312077242502,0.0018312134282068,-0.0018312125346843,0.0018312087818446,-0.0018312094729626,0.0018312117615535,-0.0013723146626212,0.0013723138197548,-0.0013723095278182,0.0013723186881438,0.54391181254475,131329,3014,0.0042200893489968,0.0046257139341924,0.0063669586960379,28.484471499184,-1.2124228006526e-05,-1.2124228006526e-05,-1.2124228006526e-05,4650652.1912038,0.015330751342232
15419200,0.97346314566629,0.015791404341816,0.0045938895911049,0.0049126435980029,0.0062848711527086,-0.0010125053894482,0.0010125070930979,-1.680492550312e-09,3.3528886497297e-09,-9.086292397769e-09,1.123074385719e-08,-0.0012432313393522,0.0012432246035158,-0.0012432296950761,0.0012432262915866,-0.0012432248048399,0.0012432313174332,-0.0012432231356672,0.0012432330027861,-0.0011371894617094,0.0011371929323786,-0.0011371845179831,0.0011371978479682,8.9856273415156e-09,-1.1202463742459e-08,3.842495377283e-09,-5.58217287272e-09,-0.001110643837505,0.0011106420751202,-0.0013405703045228,0.0013405783816039,-0.0013405733798291,0.0013405752447798,-0.0013405768074235,0.0013405717130817,-0.0013405798650368,0.0013405685796806,-0.0012364552679018,0.0012364560695458,-0.001236464315253,0.0012364466552167,-0.001060811210903,0.0010608258842773,-0.0010608308554168,0.0010608056238382,3.1458132721521e-09,-2.0451667249134e-09,-0.0015324376715264,0.0015324387649379,-3.9140675039833e-09,5.279241934371e-09,-0.0018302782611589,0.0018302779573767,-0.0018302751908766,0.0018302809397097,-0.0018302800446435,0.0018302762516011,-0.0018302769677638,0.0018302792469208,-0.001370852635554,0.0013708517304144,-0.0013708474205642,0.0013708566772193,0.61487581221166,131329,3014,0.0042134982879075,0.004619210517823,0.0063618173519231,27.071479555834,-2.342816355333e-05,-2.342816355333e-05,-2.342816355333e-05,4630933.4092481,0.015312234389669
15619200,0.97444091018702,0.015805080698128,0.0045977385066846,0.0049167836392154,0.0062905585522282,-0.0010113730151857,0.0010113747253384,-1.6787173936301e-09,3.3558724421063e-09,-9.2784261367152e-09,1.1429544698726e-08,-0.001242329024352,0.0012423221624023,-0.0012423273716637,0.0012423238575692,-0.0012423223585962,0.0012423290089497,-0.0012423206939802,0.0012423306880904,-0.0011361434079696,0.0011361470354195,-0.0011361384816011,0.0011361519315225,8.7591153911995e-09,-1.0963620561484e-08,3.8774584708499e-09,-5.6071347600808e-09,-0.0011095353572088,0.0011095336061407,-0.0013396812780163,0.0013396892299868,-0.0013396843653866,0.0013396860792621,-0.0013396876241874,0.0013396827179065,-0.0013396907068441,0.0013396795572934,-0.0012354723934488,0.0012354734396249,-0.0012354815165019,0.0012354639443422,-0.0010596774526651,0.0010596916825379,-0.0010596966676207,0.0010596718641179,3.2246265835184e-09,-2.1241855081791e-09,-0.001531669435434,0.0015316705283076,-3.9070663491285e-09,5.2719906401283e-09,-0.0018298550393939,0.0018298547838304,-0.0018298519664265,0.0018298577679908,-0.0018298568665363,0.0018298530310153,-0.0018298538022738,0.0018298560170385,-0.0013699653517468,0.0013699642714831,-0.0013699599535696,0.0013699693838312,0.62694798077266,131329,3014,0.0042088049641445,0.0046146189371455,0.006358633068042,25.962929046286,-3.2296567629711e-05,-3.2296567629711e-05,-3.2296567629711e-05,4605218.0205236,0.015299579657888
15819200,0.97536064431606,0.015818882401282,0.0046016632340697,0.0049209881690963,0.0062962309981164,-0.0010114583643007,0.0010114600645921,-1.7496370352602e-09,3.4188409578732e-09,-9.0326670489866e-09,1.1173098459894e-08,-0.0012426945010388,0.0012426877505229,-0.0012426928093259,0.0012426894865613,-0.001242688000399,0.0012426944299384,-0.0012426862881027,0.0012426961588853,-0.0011363784827576,0.0011363817877035,-0.0011363734126468,0.0011363868272072,8.8155868549227e-09,-1.1021962393041e-08,3.8572991820447e-09,-5.5882324927121e-09,-0.0011096693470086,0.0011096675938596,-0.0013400751129544,0.001340083086611,-0.0013400781932559,0.0013400799458192,-0.0013400814977793,0.0013400765388953,-0.0013400845641925,0.0013400733969187,-0.0012357940377271,0.0012357949918286,-0.00123580310985,0.001235785548158,-0.0010598502334722,0.0010598645708232,-0.0010598695411945,0.0010598446516243,3.2379545572403e-09,-2.1357908638787e-09,-0.0015321852753733,0.0015321863698602,-3.9129509624458e-09,5.2796581338916e-09,-0.0018307153991654,0.001830715153789,-0.001830712325343,0.0018307181371443,-0.0018307172402004,0.0018307133893016,-0.0018307141667793,0.0018307163838357,-0.001370403271312,0.0013704021810732,-0.0013703978642233,0.0013704073093426,0.66919701000364,131329,3014,0.0042091680824342,0.0046151824583066,0.0063607608392651,25.547565925032,-3.5619472599741e-05,-3.5619472599741e-05,-3.5619472599741e-05,4589814.6058892,0.015302687694912
16019200,0.97622726110962,0.015831852352482,0.0046053506905577,0.0049249388129409,0.0063015628489839,-0.0010115061142648,0.0010115078062624,-1.8063884321028e-09,3.4671774598439e-09,-8.8804974403696e-09,1.101114521866e-08,-0.0012431027824795,0.0012430960948703,-0.0012431010585184,0.0012430978627114,-0.0012430963868014,0.0012431026686693,-0.0012430946373736,0.0012431044341067,-0.0011365641195235,0.0011365672017232,-0.0011365589391756,0.001136572352013,8.7908730229285e-09,-1.0994718512018e-08,3.8407009440759e-09,-5.569738331315e-09,-0.0011097659270698,0.0011097641758176,-0.0013404995173386,0.0013405074650957,-0.0013405025884509,0.001340504332873,-0.0013405058853426,0.0013405009330474,-0.0013405089380636,0.0013404978045444,-0.0012360836671439,0.0012360845985753,-0.001236092698478,0.0012360751976941,-0.0010600220463582,0.0010600363386118,-0.0010600412947478,0.0010600164776229,3.2639154377415e-09,-2.1632806464377e-09,-0.0015326678609728,0.0015326689541154,-3.9077038612412e-09,5.272807621876e-09,-0.0018315645878848,0.0018315643667881,-0.0018315615212803,0.0018315673438405,-0.0018315664495801,0.0018315625812767,-0.0018315633776722,0.0018315655732874,-0.001370853481106,0.0013708523408156,-0.0013708480322785,0.0013708575167032,0.66742793821397,131329,3014,0.0042093787139605,0.0046155938412224,0.0063627470870239,25.147857775737,-3.8817137794107e-05,-3.8817137794107e-05,-3.8817137794107e-05,4570498.2520913,0.015305345999543
16219200,0.97704445204777,0.015844025322363,0.0046088121225295,0.0049286467063023,0.0063065664935313,-0.0010115011358935,0.0010115028241021,-1.847006690184e-09,3.5040673772646e-09,-8.8090818293616e-09,1.0935163987952e-08,-0.0012434419528732,0.0012434352848843,-0.0012434402030777,0.0012434370784374,-0.0012434356058861,0.0012434418094909,-0.0012434338310017,0.0012434436004454,-0.001136679233573,0.001136682187541,-0.0011366739779553,0.0011366874132503,8.704749049126e-09,-1.0903160691252e-08,3.8287479086254e-09,-5.5533284511911e-09,-0.0011098065312981,0.001109804784581,-0.001340852794626,0.0013408606782878,-0.001340855856354,0.0013408575555686,-0.0013408591037056,0.0013408542057141,-0.0013408621473408,0.0013408510863983,-0.0012362909955495,0.0012362919635773,-0.001236299999656,0.0012362825903448,-0.0010601368449982,0.0010601509767068,-0.0010601559192001,0.001060131290876,3.3039679374004e-09,-2.2043112592159e-09,-0.0015330689260592,0.0015330700181857,-3.8931312833646e-09,5.2570001756061e-09,-0.001832310672065,0.0018323104874461,-0.0018323076157713,0.0018323134545319,-0.001832312561087,0.00183230867483,-0.001832309499515,0.0018323116563577,-0.0013712271041663,0.0013712258732503,-0.0013712215762129,0.0013712311289302,0.6642560629199,131329,3014,0.0042093697051408,0.0046157723557716,0.0063643962600728,24.748698092488,-4.2010415260093e-05,-4.2010415260093e-05,-4.2010415260093e-05,4553089.6894076,0.015307201585444
16419200,0.97781841082007,0.015854362121461,0.0046117102423478,0.0049317674020564,0.0063108844770568,-0.001011514385576,0.0010115160715231,-1.8831279426163e-09,3.5379093210046e-09,-8.7734767304847e-09,1.0896786560768e-08,-0.0012437991240132,0.0012437924555844,-0.0012437973505623,0.001243794272431,-0.0012437928021042,0.0012437989549485,-0.0012437910036645,0.0012438007691148,-0.0011367669651905,0.001136769824259,-0.001136761641006,0.0011367751179049,8.610651797174e-09,-1.0803015514303e-08,3.8145494977043e-09,-5.5340990361927e-09,-0.0011098625309232,0.0011098607893952,-0.0013412233180069,0.0013412311315968,-0.0013412263684108,0.0013412280199261,-0.0013412295631188,0.0013412247231726,-0.0013412325955432,0.0013412216148137,-0.0012364577917263,0.0012364587971096,-0.001236466763295,0.0012364494561008,-0.0010602368514068,0.0010602508090818,-0.0010602557360832,0.0010602313143711,3.3481086340501e-09,-2.2488337384377e-09,-0.0015334613240243,0.0015334624157176,-3.872548843144e-09,5.2357850869772e-09,-0.0018330426497375,0.0018330425080163,-0.0018330396074333,0.0018330454613818,-0.0018330445680466,0.0018330406657577,-0.001833041520584,0.0018330436334341,-0.0013715718118385,0.0013715704800608,-0.0013715661962572,0.0013715758220241,0.59981699293927,131329,3014,0.0042094357323368,0.0046160140594537,0.0063660100163194,24.411317634592,-4.4709458923261e-05,-4.4709458923261e-05,-4.4709458923261e-05,4539408.0125199,0.015309161123841
16619200,0.97855551081462,0.015866025612527,0.0046150590190394,0.0049353404781071,0.0063156261153807,-0.0010117490916084,0.0010117507739639,-1.9268478553265e-09,3.578160076754e-09,-8.7096328736942e-09,1.0828736162249e-08,-0.0012442153964608,0.0012442087399172,-0.0012442135946858,0.0012442105853399,-0.0012442091176272,0.0012442151955878,-0.0012442072918267,0.0012442170374101,-0.00113711047937,0.0011371132100779,-0.0011371050748174,0.0011371185847807,8.5815229390193e-09,-1.0771127033281e-08,3.7922617878015e-09,-5.5094634585198e-09,-0.0011101384845768,0.0011101367453467,-0.0013416701549842,0.0013416779345112,-0.001341673189608,0.0013416748391749,-0.0013416763798174,0.0013416715470445,-0.0013416793973945,0.001341668454075,-0.0012368470674773,0.0012368480507846,-0.0012368559948035,0.0012368387549855,-0.0010605449959007,0.0010605589136084,-0.0010605638223541,0.0010605394773245,3.3846519819112e-09,-2.287066362222e-09,-0.0015340263705968,0.001534027460657,-3.8522615599654e-09,5.2135516708399e-09,-0.0018338503300404,0.0018338502252446,-0.0018338473013243,0.0018338531648583,-0.00183385227283,0.0018338483588588,-0.0018338492398637,0.0018338513118405,-0.0013720753527785,0.0013720739302041,-0.0013720696628798,0.0013720793469392,0.70235633426121,131329,3014,0.0042104145558887,0.0046171626949094,0.0063683441640746,24.157595944167,-4.6739232446662e-05,-4.6739232446662e-05,-4.6739232446662e-05,4534651.3721978,0.015313692915498
16819200,0.97925789989505,0.015877192370314,0.0046182646111059,0.0049387612849669,0.0063201664742411,-0.0010119294633226,0.0010119311443385,-1.9669529264971e-09,3.6169747684919e-09,-8.6859119539991e-09,1.0803424341802e-08,-0.0012447554450561,0.0012447487773149,-0.0012447536169917,0.0012447506490269,-0.0012447491825271,0.0012447552164479,-0.0012447473303978,0.0012447570846508,-0.0011374090897874,0.0011374117254037,-0.001137403608014,0.0011374171774393,8.5545896850957e-09,-1.0742321634534e-08,3.7702495481132e-09,-5.4859645588803e-09,-0.0011103606494674,0.0011103589117486,-0.0013422141904566,0.0013422219378525,-0.001342217210074,0.0013422188577003,-0.0013422203969923,0.0013422155689781,-0.0013422233995154,0.0013422124912357,-0.0012372409295925,0.0012372418882607,-0.0012372498124424,0.0012372326372867,-0.0010608767441236,0.0010608906236574,-0.001060895515677,0.0010608712425068,3.4235703462171e-09,-2.3279398520943e-09,-0.0015345764783404,0.0015345775664202,-3.8305694991136e-09,5.1896501058104e-09,-0.0018347158154754,0.0018347157505831,-0.0018347128019849,0.0018347186749061,-0.0018347177849134,0.0018347138575794,-0.0018347147671347,0.0018347167954072,-0.0013726611016786,0.0013726595836953,-0.0013726553338063,0.0013726650788163,0.70571573220818,131329,3014,0.0042111765256867,0.0046180955236367,0.0063706080893432,23.905768018411,-4.8753855852708e-05,-4.8753855852708e-05,-4.8753855852708e-05,4517795.0945872,0.015317722593898
17019200,0.97992751076172,0.015887627752315,0.0046212547683857,0.0049419540317521,0.0063244189521771,-0.0010120535244682,0.0010120552044662,-2.007502278154e-09,3.6565345255273e-09,-8.6713375271202e-09,1.0787650830525e-08,-0.0012452440171633,0.001245237331854,-0.001245242162366,0.00124523923027,-0.001245237764694,0.0012452437607558,-0.0012452358858416,0.0012452456556995,-0.0011376358151241,0.0011376383611669,-0.0011376302549399,0.0011376438916367,8.5439370802796e-09,-1.0730626274406e-08,3.7480446245402e-09,-5.4629391267009e-09,-0.0011105254259603,0.0011105236890857,-0.0013427066532265,0.0013427143790531,-0.0013427096579105,0.0013427113139903,-0.0013427128525241,0.0013427080175892,-0.0013427158400889,0.00134270495495,-0.0012375574527817,0.0012375583752973,-0.0012375662914405,0.0012375491687975,-0.0010611532073314,0.0010611670808247,-0.0010611719569245,0.0010611477218006,3.4618837690625e-09,-2.368209785699e-09,-0.0015350575343475,0.0015350586204475,-3.8094656352927e-09,5.166332763198e-09,-0.0018355047422024,0.0018355047163742,-0.0018355017435468,0.0018355076258568,-0.0018355067378327,0.0018355027972019,-0.0018355037348753,0.0018355057202427,-0.0013731823116277,0.0013731806999149,-0.0013731764667583,0.0013731862719144,0.69245977434452,131329,3014,0.004211704853269,0.0046187905889301,0.0063725854564499,23.654006400874,-5.0767948793011e-05,-5.0767948793011e-05,-5.0767948793011e-05,4502112.784989,0.015320982270414
17219200,0.98055075094975,0.015897078441532,0.0046239557885371,0.0049448403736319,0.0063282822793635,-0.0010114034125008,0.0010114050902705,-2.0610891769051e-09,3.7084721707208e-09,-8.6088571357062e-09,1.0722872385197e-08,-0.0012448892941076,0.0012448826106893,-0.0012448874023006,0.0012448845475354,-0.0012448830804644,0.0012448889998004,-0.0012448811700403,0.0012448909282603,-0.0011370324744541,0.0011370348802117,-0.001137026822318,0.0011370405084127,8.6968630574311e-09,-1.0891204374929e-08,3.7226121641485e-09,-5.4438306462204e-09,-0.0011098937852764,0.0011098920412921,-0.0013423427985273,0.0013423506033339,-0.0013423457870319,0.0013423475568554,-0.0013423491003579,0.0013423441417895,-0.0013423520768154,0.0013423410924571,-0.0012370103128471,0.0012370110893541,-0.0012370191181858,0.0012370019219277,-0.0010605971836838,0.0010606113818659,-0.001060616247209,0.0010605917060814,3.4885415072163e-09,-2.394930089118e-09,-0.0015346725397294,0.0015346736261499,-3.7986557563212e-09,5.1551415012599e-09,-0.0018353805013767,0.0018353804988596,-0.0018353775069501,0.0018353834030483,-0.0018353825134853,0.0018353785659587,-0.0018353795199514,0.0018353814787088,-0.0013728250315396,0.0013728233498336,-0.0013728191279935,0.0013728289834062,0.67475988670213,131329,3014,0.0042090170682654,0.0046161798781058,0.0063709809070091,22.993665594863,-5.6050675241097e-05,-5.6050675241097e-05,-5.6050675241097e-05,4482363.050618,0.015313980590212
17419200,0.98111953243629,0.015905334348642,0.0046263048683365,0.0049473541640132,0.0063316753162923,-0.0010100935355571,0.0010100952226531,-2.0757634301168e-09,3.7319447260033e-09,-8.8611115345075e-09,1.0986442477547e-08,-0.0012437905495734,0.001243783695874,-0.0012437886484384,0.0012437856406467,-0.0012437841702059,0.0012437902524667,-0.0012437822418008,0.0012437921970579,-0.0011357153804086,0.0011357179181515,-0.0011357096760297,0.0011357235948377,8.6199659579263e-09,-1.0809098502876e-08,3.7227986404545e-09,-5.4395250250502e-09,-0.0011085806734455,0.0011085789343491,-0.0013412235823367,0.0013412313425445,-0.0013412265726034,0.0013412282921436,-0.0013412298346661,0.0013412249280622,-0.0013412328046936,0.0013412218834045,-0.0012357170676862,0.0012357178855113,-0.0012357258551723,0.0012357087329439,-0.001059317803644,0.0010593318370367,-0.0010593366974309,0.001059312331312,3.5477118169569e-09,-2.4564109241559e-09,-0.0015335345498408,0.0015335356337665,-3.7809919867902e-09,5.1350810548575e-09,-0.0018344472869975,0.0018344473394104,-0.0018344443100848,0.0018344502271978,-0.0018344493428417,0.0018344453606801,-0.0018344463580867,0.0018344482652736,-0.001371697546591,0.00137169574533,-0.0013716915362738,0.0013717014849268,0.64747799598936,131329,3014,0.0042035873423485,0.0046107395597706,0.0063662633270119,21.990044375735,-6.4079644994123e-05,-6.4079644994123e-05,-6.4079644994123e-05,4459906.4573645,0.01529815848194
17619200,0.98163904618571,0.015912585243236,0.0046283603759266,0.004949556091065,0.0063346687762441,-0.0010087341866955,0.0010087358778266,-2.1098419999516e-09,3.7699200019141e-09,-8.9697550543167e-09,1.1099983654119e-08,-0.0012425660992203,0.0012425591538072,-0.0012425641753125,0.0012425611213908,-0.0012425596485672,0.0012425657821026,-0.0012425576946279,0.0012425677522754,-0.0011343238918068,0.0011343264331398,-0.0011343181125218,0.0011343321845062,8.680614957432e-09,-1.0873064859702e-08,3.713943474102e-09,-5.4332161105757e-09,-0.0011072098351389,0.0011072080935308,-0.0013399794081373,0.001339987205546,-0.0013399823948799,0.0013399841589238,-0.0013399857050229,0.0013399807465299,-0.0013399886685447,0.0013399777083433,-0.0012343273462877,0.0012343281006836,-0.0012343361145209,0.001234318966951,-0.0010579458140096,0.0010579599691628,-0.0010579648278457,0.0010579403438843,3.5908486314509e-09,-2.5000751324208e-09,-0.0015322936988898,0.001532294782301,-3.7710758438098e-09,5.1245264434995e-09,-0.0018333631265722,0.0018333632147748,-0.0018333601573718,0.0018333660944146,-0.0018333652120661,0.0018333612061882,-0.0018333622329132,0.001833364105723,-0.001370441296996,0.0013704394086828,-0.0013704352033504,0.0013704452247815,0.62390235217602,131329,3014,0.004197948724151,0.0046050567795987,0.0063611235581388,20.978618102952,-7.2171055176385e-05,-7.2171055176385e-05,-7.2171055176385e-05,4441153.9306833,0.015281446884549
17819200,0.98211477486086,0.015918994471009,0.0046301711068274,0.004951497641255,0.0063373257229268,-0.0010073868569159,0.0010073885455322,-2.1658283665477e-09,3.8231248122789e-09,-8.9410465601944e-09,1.1068396773959e-08,-0.0012412912528998,0.0012412842833306,-0.0012412892888678,0.0012412862910362,-0.0012412848164085,0.0012412908969092,-0.0012412828302142,0.0012412928993223,-0.0011329263383521,0.0011329287615923,-0.0011329204624754,0.0011329346066663,8.854630794947e-09,-1.1057264048773e-08,3.6967561459866e-09,-5.4247087699345e-09,-0.0011058455579014,0.0011058438079806,-0.0013386873756345,0.0013386952706232,-0.0013386903500477,0.0013386922363112,-0.001338693785727,0.0013386886971002,-0.0013386967448368,0.0013386856634474,-0.0012329147723378,0.0012329153843769,-0.0012329235258425,0.0012329062627468,-0.0010565503197104,0.0010565648379096,-0.0010565696967292,0.0010565448479668,3.6158311514286e-09,-2.5248330039084e-09,-0.0015310229046261,0.0015310239879201,-3.7689849833606e-09,5.1226783366343e-09,-0.001832210245166,0.001832210347004,-0.0018322072734408,0.0018322132292921,-0.0018322123433925,0.0018322083257282,-0.0018322093690748,0.001832211219379,-0.0013691319905247,0.0013691300416446,-0.0013691258387476,0.0013691359197037,0.60341630049251,131329,3014,0.0041923570452901,0.0045993987063148,0.0063558628961745,19.988945712667,-8.0088434298665e-05,-8.0088434298665e-05,-8.0088434298665e-05,4426048.7928823,0.015264683384302
18019200,0.98255139070288,0.015924871864642,0.0046318337097843,0.0049532789894115,0.0063397591654462,-0.0010060579925319,0.0010060596838168,-2.2071518339383e-09,3.8676090451103e-09,-8.978111737614e-09,1.1108909336416e-08,-0.0012399787092821,0.0012399716851326,-0.0012399767152041,0.0012399737225879,-0.0012399722445364,0.0012399783272131,-0.0012399702314726,0.0012399803565063,-0.0011315411128328,0.0011315434847387,-0.0011315351585197,0.0011315494095616,8.9304506203866e-09,-1.113641853515e-08,3.688637732442e-09,-5.4189952667545e-09,-0.0011044954036089,0.0011044936510796,-0.001337359929798,0.0013373678666588,-0.0013373628981558,0.0013373648386484,-0.0013373663893839,0.0013373612447523,-0.0013373693451551,0.0013373582139688,-0.0012315014359862,0.0012315019853749,-0.0012315101817718,0.0012314928722268,-0.0010551499379708,0.0010551646156716,-0.0010551694739013,0.001055144469252,3.6525086073692e-09,-2.5613437467655e-09,-0.0015297342125486,0.0015297352958665,-3.7643548868069e-09,5.1181696276664e-09,-0.001831004097137,0.0018310042246821,-0.0018310011266493,0.0018310071051769,-0.0018310062186482,0.0018310021803777,-0.0018310032493225,0.0018310050700724,-0.0013677885279914,0.0013677864993199,-0.0013677822997849,0.0013677924543151,0.60265705076979,131329,3014,0.0041868396185878,0.0045937972186711,0.0063505306466955,19.017580425215,-8.7859356598278e-05,-8.7859356598278e-05,-8.7859356598278e-05,4413763.9741617,0.015247978509869
18219200,0.98295253086321,0.015930377352855,0.0046333968815663,0.0049549511422579,0.006342029329031,-0.0010047155761914,0.0010047172692706,-2.241132783873e-09,3.9030812007838e-09,-9.0540718969068e-09,1.1187163526892e-08,-0.0012386350301525,0.0012386279366794,-0.0012386330149313,0.0012386299954767,-0.0012386285176466,0.0012386346268288,-0.0012386264791523,0.0012386366815735,-0.0011301459198158,0.0011301482707887,-0.0011301398911493,0.0011301542700264,8.9417752468041e-09,-1.1148070052427e-08,3.6860850202988e-09,-5.4166738785299e-09,-0.0011031278059164,0.0011031260531174,-0.0013359984871124,0.0013360064330241,-0.001336001455988,0.0013360034044822,-0.0013360049573618,0.001335999799688,-0.00133600790967,0.001335996772781,-0.0012300755854964,0.0012300761154862,-0.0012300843199179,0.001230067014319,-0.0010537339646314,0.0010537486593422,-0.0010537535149957,0.0010537284962539,3.6968169415447e-09,-2.606553110827e-09,-0.0015284079753102,0.0015284090579014,-3.7588785642224e-09,5.1117009308101e-09,-0.0018297429127243,0.001829743075677,-0.0018297399484048,0.0018297459502071,-0.0018297450659285,0.0018297409996492,-0.0018297420982194,0.001829743887155,-0.0013664119257922,0.0013664098107216,-0.0013664056167277,0.0013664158478033,0.61338752940544,131329,3014,0.0041812655686765,0.0045881231101619,0.0063450434392189,18.046630417767,-9.5626956657861e-05,-9.5626956657861e-05,-9.5626956657861e-05,4401382.05644,0.015230985327125
18419200,0.98333078569172,0.015935606782006,0.0046348844065719,0.0049565410418877,0.006344181333546,-0.0010040639520243,0.0010040656424455,-2.2867059120276e-09,3.945866932062e-09,-9.0135930303319e-09,1.1143473533768e-08,-0.0012380241542578,0.0012380170571469,-0.0012380221101703,0.0012380191445554,-0.0012380176699304,0.0012380237188714,-0.0012380156011808,0.0012380258035363,-0.0011294768171385,0.0011294790485323,-0.0011294706987182,0.0011294851356016,8.9492033817e-09,-1.1155963235608e-08,3.6782517933416e-09,-5.4091804121341e-09,-0.0011024652731675,0.0011024635202791,-0.001335378003241,0.0013353859497452,-0.0013353809675403,0.0013353829253904,-0.0013353844786473,0.0013353793105722,-0.0013353874250792,0.0013353762892766,-0.0012293935178362,0.0012293940248193,-0.0012294022343582,0.0012293849398656,-0.0010530495214001,0.0010530642336165,-0.0010530690853853,0.0010530440574482,3.7317491590954e-09,-2.6420070497923e-09,-0.0015278147960442,0.0015278158779894,-3.7537944699498e-09,5.1060925464365e-09,-0.0018292321283596,0.0018292323182716,-0.0018292291685994,0.001829235188834,-0.0018292343056972,0.001829230217965,-0.0018292313406469,0.0018292331023593,-0.001365780310705,0.0013657781254354,-0.0013657739357769,0.0013657842299989,0.61738404860585,131329,3014,0.0041785606174311,0.0045853750523992,0.0063425885728095,17.474617553129,-0.00010020305957496,-0.00010020305957496,-0.00010020305957496,4394241.5531048,0.015222956203846
18619200,0.98369512170718,0.015940595896434,0.0046363025913016,0.0049580571134044,0.006346236191728,-0.0010039800652926,0.0010039817540692,-2.3261668239944e-09,3.9842172194871e-09,-8.9560884253816e-09,1.1084105161313e-08,-0.0012380142360798,0.0012380071502566,-0.0012380121664762,0.0012380092634366,-0.0012380077907346,0.0012380137725935,-0.0012380056960917,0.0012380158836956,-0.001129398170882,0.0011294002841251,-0.0011293919767183,0.001129406448991,8.8845156236426e-09,-1.108671929827e-08,3.6731802077874e-09,-5.4001512083654e-09,-0.0011023835870349,0.0011023818379142,-0.0013353674084074,0.0013353753094727,-0.0013353703686161,0.0013353722900169,-0.0013353738404667,0.0013353687154661,-0.0013353767820085,0.0013353656992944,-0.0012293149128337,0.0012293154536513,-0.001229323615466,0.0012293063838815,-0.0010529594370922,0.001052974026822,-0.0010529788706486,0.0010529539839011,3.7723947651647e-09,-2.6824880774776e-09,-0.0015278270496973,0.0015278281317831,-3.7464122060317e-09,5.098765213458e-09,-0.0018293441860544,0.0018293444080054,-0.0018293412310078,0.001829347273109,-0.0018293463908376,0.0018293422805837,-0.0018293434307763,0.0018293451608578,-0.001365755695239,0.0013657534260825,-0.0013657492409898,0.0013657596083238,0.61178641850767,131329,3014,0.0041782133642346,0.0045850372355645,0.0063426384883916,17.230273882769,-0.00010215780893785,-0.00010215780893785,-0.00010215780893785,4392198.1141225,0.015222311829734
18819200,0.98404632115512,0.015945721984252,0.00463777227196,0.0049596232699296,0.0063483264423624,-0.001003915200727,0.0010039168862598,-2.3647674864765e-09,4.0193140517147e-09,-8.9102313046087e-09,1.1034390289598e-08,-0.001238008451258,0.0012380013700021,-0.0012380063566054,0.0012380035081989,-0.0012380020379018,0.0012380079600783,-0.0012379999187912,0.0012380100954776,-0.0011293459992564,0.0011293480070856,-0.0011293397337666,0.0011293542426202,8.804774550464e-09,-1.1002101294387e-08,3.6711726688007e-09,-5.394280594437e-09,-0.0011023212010445,0.001102319455929,-0.0013353625288126,0.0013353703768366,-0.0013353654860086,0.0013353673601594,-0.0013353689064304,0.0013353638370166,-0.001335371845823,0.0013353608231757,-0.0012292611373474,0.0012292617304259,-0.0012292698332443,0.0012292526674774,-0.0010528902431434,0.0010529046787385,-0.0010529095149745,0.0010528847962817,3.8146006326279e-09,-2.7254800551022e-09,-0.0015278520770759,0.0015278531584272,-3.7413278597667e-09,5.0928137162721e-09,-0.0018294591643138,0.0018294594174262,-0.0018294562128473,0.0018294622793725,-0.0018294613970207,0.0018294572620678,-0.0018294584407136,0.001829460138058,-0.0013657451659219,0.0013657428079599,-0.0013657386273178,0.0013657490750382,0.64922938664716,131329,3014,0.0041779446160608,0.0045847790634397,0.0063427417589831,16.993362235533,-0.00010405310211574,-0.00010405310211574,-0.00010405310211574,4390701.1598887,0.015221881718852
19019200,0.98438496043328,0.015950973338085,0.0046392885132937,0.0049612349941603,0.0063504498306315,-0.001003840487745,0.0010038421702995,-2.406105484482e-09,4.0577221100808e-09,-8.8496517997416e-09,1.0970230289083e-08,-0.0012380552070794,0.0012380481378122,-0.0012380530857692,0.0012380503026921,-0.0012380488350753,0.0012380546862413,-0.0012380466894247,0.0012380568482006,-0.0011293006744633,0.0011293025599174,-0.0011292943312772,0.0011293088734659,8.7452261273334e-09,-1.0938649734726e-08,3.669561636148e-09,-5.3894308414478e-09,-0.0011022502391605,0.001102248497246,-0.0013354019009625,0.0013354097089909,-0.0013354048559798,0.0013354066945392,-0.0013354082378721,0.0013354032102027,-0.0013354111751947,0.0013354001984686,-0.0012292344257145,0.0012292350569018,-0.0012292431156938,0.0012292260003351,-0.0010528502575722,0.0010528645782505,-0.0010528694089489,0.0010528448166283,3.8540092773091e-09,-2.7652028067759e-09,-0.0015278853771376,0.0015278864582371,-3.7384055329536e-09,5.0895220679474e-09,-0.0018296068027296,0.0018296070840437,-0.0018296038533179,0.0018296099440165,-0.0018296090617039,0.0018296049023876,-0.0018296061075437,0.0018296077762539,-0.0013657844623116,0.001365782024219,-0.0013657778460993,0.0013657883690786,0.68719102768216,131329,3014,0.0041776383437355,0.0045844881857387,0.0063428759975237,16.756710152026,-0.0001059463187838,-0.0001059463187838,-0.0001059463187838,4384264.9397255,0.015221414833989
19219200,0.98472209952625,0.015956360268882,0.0046408489148279,0.0049628918245927,0.0063526195294611,-0.0010046402054589,0.0010046418845324,-2.4459936532788e-09,4.0942139154282e-09,-8.7697470374831e-09,1.0885962918158e-08,-0.0012390812182297,0.0012390741751221,-0.0012390790717351,0.0012390763652155,-0.0012390749009496,0.0012390806683434,-0.0012390727296022,0.0012390828560894,-0.0011301768733613,0.0011301786250021,-0.0011301704545112,0.0011301850139997,8.6436940355932e-09,-1.083170692711e-08,3.6666994542314e-09,-5.3820589220879e-09,-0.0011030771930686,0.0011030754557983,-0.0013364298902574,0.0013364376304542,-0.001336432842226,0.0013364346192223,-0.001336436158438,0.0013364312010907,-0.0013364390921353,0.0013364281930816,-0.0012301662598598,0.0012301669543353,-0.0012301749387921,0.0012301579084099,-0.001053763160622,0.0010537772835605,-0.0010537821071119,0.0010537577285806,3.8952795614715e-09,-2.8065925590533e-09,-0.0015288826418502,0.0015288837227838,-3.7323928414901e-09,5.0833251880225e-09,-0.0018307705741362,0.0018307708870714,-0.001830767629006,0.0018307737426872,-0.0018307728608861,0.0018307686776056,-0.0018307699106238,0.001830771547778,-0.0013668243679034,0.0013668218454443,-0.0013668176712658,0.0013668282701883,0.70677989626577,131329,3014,0.004180966025029,0.0045879254798789,0.0063469955335195,17.022801377951,-0.00010381758897639,-0.00010381758897639,-0.00010381758897639,4382110.5420733,0.015232472150336
19419200,0.98506292732479,0.015961690090225,0.0046423886337938,0.0049645284764165,0.0063547729800145,-0.0010058614211125,0.0010058630966565,-2.486521825965e-09,4.130972695208e-09,-8.6916774850426e-09,1.0803438246877e-08,-0.0012405924942262,0.0012405854765944,-0.001240590322176,0.0012405876916643,-0.0012405862314264,0.0012405919156053,-0.0012405840330903,0.0012405941293655,-0.0011314892400269,0.0011314908596237,-0.0011314827441992,0.0011314973252518,8.5434591310147e-09,-1.0725618381324e-08,3.6645499728272e-09,-5.3752170924351e-09,-0.0011043388034671,0.0011043370711293,-0.0013379494890188,0.0013379571635643,-0.0013379524381338,0.0013379541542056,-0.0013379556892573,0.0013379508018452,-0.001337958619007,0.0013379477971179,-0.0012315501577999,0.0012315509161835,-0.0012315588275886,0.0012315418804097,-0.0010551324023248,0.0010551463278623,-0.001055151144854,0.0010551269779341,3.9355054224814e-09,-2.8481485933685e-09,-0.0015303537536221,0.001530354833271,-3.7273401816984e-09,5.0768993464452e-09,-0.0018324436798809,0.001832444023099,-0.0018324407398036,0.0018324468748927,-0.0018324459943791,0.0018324417857904,-0.0018324430473131,0.0018324446527713,-0.0013683511714571,0.0013683485660105,-0.0013683443945451,0.0013683550687431,0.69264759750589,131329,3014,0.0041860455729194,0.0045931675204767,0.0063530736918877,17.539765047306,-9.9681879621553e-05,-9.9681879621553e-05,-9.9681879621553e-05,4383057.7136734,0.015249130809328
19619200,0.98540730667586,0.01596694064448,0.0046439009618737,0.0049661378638345,0.0063569018187717,-0.0010070811786765,0.0010070828513115,-2.5283772578103e-09,4.1701751549233e-09,-8.6213113047987e-09,1.0729611479176e-08,-0.0012420856483565,0.0012420786480737,-0.0012420834494611,0.0012420808904197,-0.001242079432604,0.0012420850391121,-0.0012420772078356,0.0012420872800873,-0.0011327940206681,0.0011327955083698,-0.001132787445488,0.0011328020537697,8.4841838201515e-09,-1.0662962561243e-08,3.6631470347205e-09,-5.371152473616e-09,-0.0011055997353784,0.0011055980055879,-0.0013394553475746,0.0013394629813763,-0.0013394582951802,0.001339459974332,-0.0013394615072364,0.001339456661097,-0.0013394644356021,0.0013394536583926,-0.0012329144615991,0.0012329152573185,-0.0012329231251614,0.0012329062272719,-0.0010564875922538,0.0010565014039787,-0.001056506215085,0.0010564821737048,3.9748500242367e-09,-2.8868306765986e-09,-0.0015318221693712,0.0015318232496856,-3.7246776053618e-09,5.074797716325e-09,-0.0018341095276948,0.0018341098993153,-0.0018341065887168,0.001834112749182,-0.0018341118682234,0.0018341076359656,-0.0018341089228887,0.0018341105012253,-0.0013698582216813,0.0013698555381216,-0.001369851369366,0.0013698621174965,0.67638955549077,131329,3014,0.0041911181082148,0.0045984056192219,0.0063591414362068,18.062473898665,-9.5500208810679e-05,-9.5500208810679e-05,-9.5500208810679e-05,4386299.6437115,0.015265766599457
19819200,0.98575496285768,0.015972085876363,0.0046453777266538,0.0049677114811282,0.0063589966685811,-0.0010082948869187,0.0010082965567468,-2.57121333258e-09,4.2102968594975e-09,-8.5602007811833e-09,1.0665111787773e-08,-0.0012435454930937,0.0012435385034125,-0.0012435432658653,0.0012435407741246,-0.0012435393181267,0.0012435448532741,-0.0012435370663943,0.0012435471212535,-0.0011340859198064,0.0011340872836501,-0.0011340792654596,0.0011340939081494,8.4495790799783e-09,-1.0626175961655e-08,3.6619907824274e-09,-5.3682801824361e-09,-0.0011068554141626,0.0011068536860969,-0.0013409335786578,0.0013409411882022,-0.0013409365242717,0.0013409381831968,-0.0013409397139226,0.001340934892566,-0.0013409426416836,0.0013409318905347,-0.0012342556742701,0.0012342564934546,-0.0012342643358467,0.00123424746528,-0.0010578214218017,0.0010578351686278,-0.0010578399765139,0.0010578160067994,4.0129391470519e-09,-2.924887412462e-09,-0.0015332793522091,0.0015332804324905,-3.7244602730011e-09,5.0746057280431e-09,-0.0018357540215129,0.0018357544179874,-0.0018357510820121,0.0018357572683803,-0.0018357563867833,0.0018357521298871,-0.0018357534422368,0.0018357549942777,-0.0013713337583924,0.0013713309980162,-0.001371326829672,0.0013713376543472,0.65786896538964,131329,3014,0.0041961641132108,0.004603620656313,0.0063651638895958,18.585383754408,-9.1316929964734e-05,-9.1316929964734e-05,-9.1316929964734e-05,4391579.88387,0.015282304779444
20019200,0.98609624975075,0.015977322267634,0.0046468873940798,0.0049693174881866,0.0063611173853675,-0.0010087435302843,0.0010087452017925,-2.607386358313e-09,4.2481218406467e-09,-8.6079931980695e-09,1.0715090633189e-08,-0.0012441652115508,0.0012441581666885,-0.0012441629598231,0.0012441604617743,-0.0012441590045728,0.0012441645488074,-0.0012441567278135,0.0012441668416746,-0.001134580112749,0.0011345814380125,-0.0011345733858976,0.0011345881361963,8.4540574896715e-09,-1.0630253391633e-08,3.6695658150866e-09,-5.375547193473e-09,-0.0011073275015167,0.0011073257735846,-0.0013415626507068,0.0013415702684113,-0.0013415656014321,0.001341567258094,-0.0013415687891518,0.0013415639694211,-0.0013415717215932,0.0013415609626668,-0.001234775125736,0.0012347759565654,-0.0012347838017046,0.0012347669154774,-0.0010583400309589,0.0010583537807576,-0.0010583585920902,0.0010583346109247,4.0553486111778e-09,-2.9674469068869e-09,-0.0015339035038704,0.0015339045841935,-3.7302867745937e-09,5.0802760133197e-09,-0.0018365252726962,0.0018365256943296,-0.0018365223296965,0.0018365285482928,-0.0018365276665738,0.0018365233775932,-0.0018365247179086,0.001836526246053,-0.0013719619715984,0.0013719591317984,-0.0013719549604392,0.0013719658710393,0.68048385657869,131329,3014,0.0041980317126563,0.0046055829942615,0.006367741418534,18.671798390153,-9.0625612878779e-05,-9.0625612878779e-05,-9.0625612878779e-05,4391451.6899903,0.015288813308214
20219200,0.98642875280541,0.015982572173779,0.0046484059798334,0.0049709309712686,0.006363235222677,-0.0010089726104629,0.0010089742844694,-2.6502239028319e-09,4.2941893570216e-09,-8.6491673306986e-09,1.0759592562362e-08,-0.0012445797138273,0.0012445726123187,-0.0012445774331099,0.0012445749364436,-0.0012445734780612,0.0012445790231523,-0.001244571171498,0.0012445813460018,-0.0011348535901158,0.0011348548564367,-0.0011348467747302,0.0011348616436748,8.5270438584399e-09,-1.0706817857715e-08,3.677517140867e-09,-5.3860779206696e-09,-0.0011075748592271,0.001107573128328,-0.0013419782420393,0.0013419859123147,-0.001341981199479,0.0013419828956653,-0.0013419844300817,0.0013419795638145,-0.0013419873679697,0.0013419765512063,-0.0012350803433716,0.0012350811375732,-0.0012350890363319,0.0012350720793595,-0.001058646337016,0.0010586602242678,-0.00105866504538,0.0010586409083135,4.0907945359173e-09,-3.0020947660068e-09,-0.0015342983822625,0.0015342994633161,-3.7395819543088e-09,5.0905007678135e-09,-0.0018370692462285,0.0018370696857605,-0.0018370662966066,0.0018370725453728,-0.0018370716636684,0.0018370673446333,-0.0018370687083599,0.0018370702204149,-0.0013723832166237,0.0013723803169195,-0.0013723761385442,0.0013723871228023,0.69908661501987,131329,3014,0.0041989891091513,0.0046066142036813,0.0063693689928731,18.638340293789,-9.0893277649684e-05,-9.0893277649684e-05,-9.0893277649684e-05,4386669.1425237,0.015292489098073
20419200,0.98675265392655,0.015987693215145,0.0046498876401928,0.0049725050015299,0.0063653005734227,-0.0010091799535423,0.001009181629985,-2.6798463782091e-09,4.3256782148822e-09,-8.7255205016616e-09,1.0838665184866e-08,-0.0012449978249284,0.001244990653281,-0.0012449955222958,0.0012449929993928,-0.0012449915366255,0.0012449971171369,-0.001244989210986,0.0012449994590275,-0.0011351064978747,0.0011351077643244,-0.0011350996269442,0.0011351146062214,8.5840292228113e-09,-1.0767612235589e-08,3.6858761218137e-09,-5.3977232771624e-09,-0.0011078004078023,0.0011077986739151,-0.0013423935748688,0.0013424012874211,-0.001342396537459,0.0013423982653911,-0.0013423998009223,0.001342394900628,-0.0013424027471196,0.0013423918800538,-0.0012353719208549,0.0012353726971041,-0.0012353806371273,0.0012353636148085,-0.0010589440767984,0.001058958073104,-0.0010589629042004,0.0010589386372818,4.1400486742372e-09,-3.0507045497172e-09,-0.0015346762368082,0.0015346773184571,-3.7498870138199e-09,5.1015274823961e-09,-0.0018376056885314,0.0018376061527038,-0.0018376027306707,0.0018376090211273,-0.0018376081374787,0.0018376037808915,-0.0018376051762614,0.0018376066620762,-0.0013728032100595,0.0013728002180738,-0.0013727960310432,0.0013728071242522,0.69998402706611,131329,3014,0.0041998575967373,0.0046075560743834,0.0063709247653522,18.602082271049,-9.1183341831604e-05,-9.1183341831604e-05,-9.1183341831604e-05,4380171.4447967,0.015295912191204
20619200,0.98706818710846,0.015992158279893,0.0046511623720116,0.0049738658138081,0.0063671300940737,-0.0010093521409897,0.0010093538190359,-2.7282372459308e-09,4.3755190644843e-09,-8.7779715488182e-09,1.0893150917129e-08,-0.001245385504624,0.0012453782673837,-0.001245383170403,0.0012453806451017,-0.0012453791820681,0.001245384765688,-0.0012453768224447,0.001245387141562,-0.0011353066472818,0.0011353078510357,-0.00113529967647,0.0011353147927645,8.667250453609e-09,-1.0855573413509e-08,3.6944729618351e-09,-5.4102191018142e-09,-0.0011079900224284,0.0011079882846417,-0.0013427779088616,0.0013427856828681,-0.0013427808796604,0.0013427826526281,-0.0013427841929374,0.0013427792376823,-0.001342787144956,0.0013427762112648,-0.0012356059033193,0.0012356066355668,-0.0012356146366773,0.0012355975362428,-0.0010591936616705,0.0010592078113355,-0.0010592126534129,0.0010591882105178,4.1707246086379e-09,-3.0808060878417e-09,-0.0015350139065478,0.001535014988788,-3.7601249327349e-09,5.112428770281e-09,-0.0018381053906666,0.0018381058696666,-0.0018381024269995,0.001838108743932,-0.0018381078609814,0.0018381034766564,-0.001838104891374,0.0018381063659812,-0.0013731718402701,0.0013731687999661,-0.0013731646053948,0.0013731757622495,0.63099126624906,131329,3014,0.0042005800289025,0.0046083487178187,0.0063723143223508,18.565725935298,-9.1474192517612e-05,-9.1474192517612e-05,-9.1474192517612e-05,4374414.8995135,0.015298866659685
20819200,0.98736085128266,0.015996621323788,0.0046524497753602,0.0049752346131208,0.0063689369353068,-0.0010081511317994,0.0010081528130168,-2.7731235956542e-09,4.4234759880508e-09,-8.8608927077219e-09,1.0980328091102e-08,-0.0012442016731711,0.0012441943515993,-0.0012441993088392,0.0012441967585674,-0.0012441952947414,0.0012442009067012,-0.0012441929027107,0.001244203313973,-0.0011340676680289,0.0011340688374799,-0.0011340606035897,0.0011340758742849,8.8496022047075e-09,-1.1046703186104e-08,3.7087392865417e-09,-5.4316425335084e-09,-0.0011067697910712,0.0011067680457806,-0.0013415791975143,0.0013415871005139,-0.0013415821806665,0.0013415840566978,-0.001341585605401,0.0013415805298412,-0.0013415885675665,0.0013415774920904,-0.0012343381118095,0.001234338744311,-0.0012343468779992,0.0012343296139025,-0.0010579523610127,0.0010579668563843,-0.0010579717168811,0.0010579468897241,4.2038841959882e-09,-3.113844281724e-09,-0.0015338273435343,0.0015338284260711,-3.7806369788413e-09,5.1331942050288e-09,-0.0018369739757438,0.0018369744648433,-0.0018369709997671,0.0018369773522206,-0.0018369764694253,0.0018369720480912,-0.0018369734848367,0.0018369749521617,-0.0013719632782532,0.0013719601906313,-0.0013719559836971,0.0013719672159378,0.67642719897732,131329,3014,0.0041955945308768,0.0046032866248826,0.0063674035092646,17.741140647788,-9.8070874817699e-05,-9.8070874817699e-05,-9.8070874817699e-05,4362749.0401214,0.015283676946584
21019200,0.98763106183183,0.01600060973022,0.0046535961346169,0.004976454837577,0.0063705587580264,-0.0010067703299058,0.0010067720290673,-2.7769791756041e-09,4.4472496438996e-09,-9.146526005909e-09,1.1287851617058e-08,-0.0012428840315834,0.0012428765170873,-0.0012428816557755,0.0012428789373265,-0.0012428774534035,0.0012428832728315,-0.0012428750567871,0.0012428856875461,-0.0011326445483247,0.0011326459155446,-0.0011326374698795,0.0011326529710574,8.7997289552915e-09,-1.0992292573868e-08,3.7354684961693e-09,-5.4534788316182e-09,-0.0011053638932317,0.0011053621520093,-0.0013402334484877,0.0013402413336071,-0.0013402364461117,0.0013402382790372,-0.0013402398223977,0.0013402348045231,-0.0013402428043258,0.0013402317485635,-0.0012329033113985,0.0012329040425268,-0.0012329121372152,0.0012328948543489,-0.0010565472512488,0.0010565616437073,-0.0010565665198938,0.0010565417725879,4.2713476866719e-09,-3.1778468744888e-09,-0.0015324534530997,0.0015324545388709,-3.7916900570009e-09,5.1477768607446e-09,-0.0018356685791815,0.001835669102364,-0.0018356655890262,0.0018356719995775,-0.001835671114525,0.0018356666461217,-0.0018356681266647,0.0018356695583277,-0.0013706053574337,0.0013706021415924,-0.0013705979155001,0.0013706092964233,0.6560166733409,131329,3014,0.0041898653617035,0.0045974568780298,0.0063617150286684,16.830300882165,-0.00010535759294268,-0.00010535759294268,-0.00010535759294268,4344668.2422772,0.015266166754871
21219200,0.98788071616666,0.016004318409676,0.0046546640408833,0.0049775905029864,0.0063720638658062,-0.001005380779765,0.0010053824713457,-2.8399689998083e-09,4.500870940894e-09,-9.117331180732e-09,1.1249596367965e-08,-0.0012415097087547,0.0012415021739773,-0.0012415072954365,0.0012415046308544,-0.0012415031556565,0.001241508904388,-0.0012415007168827,0.0012415113594821,-0.0011312070870062,0.0011312083043944,-0.0011311998843723,0.0011312154785935,9.0137047774291e-09,-1.1220386252266e-08,3.7413284799298e-09,-5.4717995286226e-09,-0.0011039457897331,0.0011039440369025,-0.0013388335067176,0.0013388415394289,-0.0013388365135213,0.0013388384731114,-0.0013388400275851,0.0013388348563962,-0.0013388430155146,0.0013388317938974,-0.0012314414367386,0.0012314420234554,-0.0012314502762933,0.0012314328179571,-0.001055112849547,0.0010551276472058,-0.0010551325401479,0.0010551073449146,4.2922728822451e-09,-3.1992299694264e-09,-0.0015310447211353,0.0015310458064668,-3.812786519489e-09,5.1687464637847e-09,-0.0018343001253074,0.0018343006508663,-0.0018342971250163,0.0018343035612959,-0.0018343026759266,0.0018342981781025,-0.0018342996697968,0.0018343011038662,-0.0013691950946161,0.0013691918586038,-0.0013691876232297,0.0013691990545208,0.65967104360493,131329,3014,0.0041840976480119,0.0045915747022767,0.0063558843958415,15.917314196369,-0.00011266148642905,-0.00011266148642905,-0.00011266148642905,4329198.8662621,0.015248418233715
21419200,0.9881148956715,0.016007821312742,0.0046556743017629,0.0049786640200059,0.0063734829909736,-0.0010043822031786,0.0010043839012785,-2.8884052919657e-09,4.5583360290809e-09,-9.1038236123789e-09,1.1244967991976e-08,-0.0012405397786373,0.0012405322218712,-0.0012405373305263,0.0012405347031816,-0.0012405332366884,0.0012405389459856,-0.001240530753272,0.0012405414358903,-0.0011301772253301,0.0011301783221821,-0.001130169900572,0.0011301856133864,9.1005952217966e-09,-1.1307324627658e-08,3.7514185886784e-09,-5.4797851297255e-09,-0.0011029259013753,0.0011029241502785,-0.0013378429090345,0.0013378510113989,-0.0013378459207579,0.0013378479296285,-0.0013378494895423,0.001337844266679,-0.0013378524701943,0.0013378411970639,-0.0012303947599544,0.0012303952974624,-0.0012304036099172,0.0012303860770273,-0.0010540866879042,0.0010541016443138,-0.0010541065559082,0.0010540811829757,4.3181435846776e-09,-3.226710405565e-09,-0.0015300457402686,0.0015300468223319,-3.8272238827022e-09,5.1822144886105e-09,-0.0018333455659002,0.0018333460978809,-0.0018333425624113,0.0018333490153142,-0.0018333481370543,0.001833343597295,-0.0018333451206687,0.0018333465430729,-0.0013681974088249,0.0013681941486508,-0.001368189893759,0.0013682013743298,0.66373456407401,131329,3014,0.0041799532970288,0.0045873447542743,0.0063517491552964,15.229184593629,-0.00011816652325097,-0.00011816652325097,-0.00011816652325097,4317279.8908385,0.015235717444785
21619200,0.98833503336311,0.016011144024962,0.004656634135129,0.0049796832115596,0.0063748266782736,-0.001003418336564,0.0010034200274823,-2.9399765842628e-09,4.6004148386904e-09,-9.1052321530843e-09,1.1236830036497e-08,-0.0012396084930175,0.0012396009061706,-0.001239606020868,0.0012396034213106,-0.0012396019549211,0.0012396076217719,-0.001239599442337,0.0012396101502322,-0.0011291827772506,0.0011291837673105,-0.0011291753567676,0.0011291911584658,9.1197012420673e-09,-1.1331498613632e-08,3.7564907740198e-09,-5.4908235383369e-09,-0.0011019405455431,0.0011019387888085,-0.0013368899159888,0.0013368980350928,-0.001336892941291,0.0013368949495209,-0.0013368965151377,0.001336891273427,-0.0013368995063482,0.0013368882066893,-0.0012293848350913,0.0012293853559551,-0.0012293936859611,0.0012293761379349,-0.0010530975608594,0.0010531125338919,-0.0010531174446768,0.0010530920409643,4.3525548279083e-09,-3.258108477846e-09,-0.0015290782950635,0.0015290793816561,-3.8358241287353e-09,5.193551292573e-09,-0.0018324219417725,0.0018324224993929,-0.0018324189331622,0.0018324254185764,-0.0018324245399662,0.0018324199788342,-0.0018324215105704,0.0018324229282769,-0.0013672345838474,0.001367231272112,-0.0013672270199595,0.0013672385636561,0.66920857802052,131329,3014,0.0041759531780648,0.0045832582263061,0.0063477442708255,14.564908781698,-0.00012348072974642,-0.00012348072974642,-0.00012348072974642,4305591.7721541,0.015223441526713
21819200,0.98854209878457,0.016014223763878,0.0046575226591641,0.0049806269998528,0.0063760741048612,-0.0010024430947212,0.001002444785001,-2.9795039707577e-09,4.6392122335449e-09,-9.1089725487295e-09,1.1239915369889e-08,-0.0012386698105758,0.0012386621960317,-0.0012386673131228,0.0012386647363709,-0.0012386632715005,0.0012386689125971,-0.0012386607318433,0.0012386714679489,-0.0011281749222308,0.0011281758346164,-0.0011281674227575,0.0011281833047896,9.0993365043896e-09,-1.1309389273108e-08,3.76480805938e-09,-5.4976937105476e-09,-0.0011009426619574,0.0011009409066884,-0.0013359275100568,0.0013359356224032,-0.0013359305412527,0.0013359325307938,-0.0013359340960204,0.0013359288736811,-0.0013359370914784,0.0013359258027813,-0.0012283622492579,0.0012283627986928,-0.0012283711127852,0.0012283535685233,-0.001052097614566,0.0010521125396163,-0.0010521174527634,0.0010520920906401,4.3930520707453e-09,-3.2985121862463e-09,-0.001528094238716,0.0015280953254213,-3.8424412961148e-09,5.2002334457025e-09,-0.0018314809054263,0.0018314814868898,-0.0018314778933619,0.0018314844097895,-0.0018314835314437,0.0018314789386198,-0.0018314804965845,0.0018314818930951,-0.0013662589572949,0.001366255573127,-0.0013662513176047,0.0013662629420729,0.6598885731908,131329,3014,0.0041719060795538,0.0045791199642921,0.0063436704042479,13.901228609519,-0.00012879017112384,-0.00012879017112384,-0.00012879017112384,4293565.5907647,0.015210995867579
22019200,0.98874885791711,0.016017249811361,0.0046583946204857,0.0049815534887303,0.0063773017021454,-0.0010030877169714,0.0010030894038247,-3.0047412333943e-09,4.6610936968753e-09,-9.0334082561668e-09,1.1160071289659e-08,-0.0012394046504964,0.0012393970618689,-0.0012394021300541,0.0012393996251629,-0.0012393981562984,0.0012394037331989,-0.0012393956078483,0.0012394062973345,-0.0011288547423537,0.0011288555748247,-0.0011288472179956,0.0011288630699364,8.9413452530495e-09,-1.1142217984696e-08,3.764366379124e-09,-5.489482269568e-09,-0.001101601575626,0.0011015998281979,-0.0013366695163171,0.0013366775186835,-0.0013366725375402,0.0013366744370354,-0.0013366759879051,0.001336670885206,-0.001336678987538,0.0013366678101387,-0.0012290530108952,0.0012290536894187,-0.0012290618869382,0.0012290444465578,-0.0010527828349632,0.0010527974723737,-0.0010528023756089,0.001052777322997,4.4487136910858e-09,-3.3549127152489e-09,-0.0015288418181124,0.0015288429041192,-3.8335569018505e-09,5.1905464934264e-09,-0.0018323053404325,0.0018323059575648,-0.0018323023274794,0.0018323088813907,-0.0018323079965379,0.0018323033791174,-0.0018323049751316,0.0018323063205186,-0.0013670030047004,0.0013669994827303,-0.001366995233523,0.0013670069817969,0.64982381213094,131329,3014,0.0041745841178603,0.0045818550024085,0.006346762179188,14.153764474526,-0.00012676988420379,-0.00012676988420379,-0.00012676988420379,4298104.9811843,0.015219631614895
22219200,0.98895649412811,0.016020264281049,0.0046592623434346,0.0049824758713058,0.0063785260663081,-0.0010039006723466,0.001003902352465,-3.0549400295909e-09,4.704608698963e-09,-8.8840378700943e-09,1.1002570799015e-08,-0.0012403096926527,0.0012403021710619,-0.0012403071440441,0.0012403047625588,-0.0012403033030662,0.001240308736958,-0.0012403007201517,0.0012403113356155,-0.0011297050671604,0.0011297056893958,-0.0011296974414469,0.0011297132857472,8.8410729782079e-09,-1.1036037107541e-08,3.755943331224e-09,-5.476377205995e-09,-0.0011024341966452,0.0011024324540494,-0.0013375881311547,0.0013375960654498,-0.0013375911483561,0.0013375929878707,-0.0013375945373171,0.0013375894976784,-0.0013375975267144,0.0013375864329113,-0.0012299132089291,0.0012299139301082,-0.0012299220543264,0.0012299047179192,-0.001053633394538,0.0010536478326509,-0.0010536527238322,0.0010536278958639,4.4812423898858e-09,-3.3878673139203e-09,-0.0015297709466839,0.0015297720322429,-3.8260221657374e-09,5.1824960453032e-09,-0.0018333187565031,0.0018333194033326,-0.0018333157520202,0.0018333223188434,-0.0018333214374842,0.0018333167998022,-0.0018333184180215,0.0018333197391166,-0.0013679142057834,0.0013679106230651,-0.0013679063799806,0.0013679181776311,0.64497437652611,131329,3014,0.0041779605424254,0.0045853101486836,0.0063506057828651,14.500407396106,-0.00012399674083115,-0.00012399674083115,-0.00012399674083115,4305561.9879905,0.015230470545953
22419200,0.98916494237975,0.016023422839203,0.0046601760530319,0.0049834454648993,0.006379801321272,-0.0010047225549313,0.001004724231104,-3.090018496556e-09,4.7358176512568e-09,-8.7956194992736e-09,1.090933382384e-08,-0.0012412166207996,0.0012412091310571,-0.0012412140471409,0.0012412117476195,-0.0012412102886864,0.0012412156390671,-0.0012412076865878,0.0012412182569174,-0.0011305697372899,0.0011305702394282,-0.0011305620559331,0.0011305778917604,8.7069533583005e-09,-1.0894028388635e-08,3.7502686163304e-09,-5.4642279166453e-09,-0.0011032771190437,0.0011032753829604,-0.0013385107900223,0.0013385186300422,-0.0013385137984323,0.0013385155613604,-0.0013385171019485,0.0013385121573342,-0.001338520088448,0.0013385090956371,-0.0012307880649895,0.0012307888763965,-0.0012307969021515,0.001230779672904,-0.0010544929016823,0.00105450708979,-0.0010545119681587,0.0010544874162151,4.5273339385853e-09,-3.4348032395305e-09,-0.0015307113546887,0.0015307124394496,-3.8149183684507e-09,5.170422743752e-09,-0.0018343416186656,0.0018343423006467,-0.0018343386189892,0.0018343452113897,-0.0018343443277227,0.0018343396690941,-0.0018343413190533,0.0018343425977848,-0.0013688342173938,0.0013688305261735,-0.0013688262915575,0.0013688381804858,0.6713935632185,131329,3014,0.0041813737843117,0.004588807750881,0.0063544963600714,14.849408382715,-0.00012120473293828,-0.00012120473293828,-0.00012120473293828,4313185.5606716,0.015241437502992
22619200,0.98937395796106,0.016026626525674,0.0046611036239767,0.004984429567223,0.0063810933344747,-0.00100551519291,0.0010055168654371,-3.1302973524764e-09,4.7724969595527e-09,-8.7115527974537e-09,1.0820788558867e-08,-0.0012421417978325,0.0012421343357169,-0.0012421391977749,0.0012421369786969,-0.0012421355223674,0.0012421407866367,-0.0012421328952311,0.0012421434295589,-0.0011314127586294,0.0011314131264997,-0.0011314050039922,0.0011314208522304,8.615905630477e-09,-1.0797845485054e-08,3.7420277694865e-09,-5.451837904151e-09,-0.0011040920510293,0.0011040903191486,-0.0013394466052123,0.001339454379642,-0.0013394496061296,0.0013394513185533,-0.0013394528545942,0.001339447969947,-0.0013394558349716,0.0013394449144724,-0.0012316552057127,0.0012316560655011,-0.0012316640246949,0.0012316468804321,-0.0010553463156968,0.0010553603333729,-0.0010553652005669,0.0010553408420707,4.5681282955221e-09,-3.4762905424749e-09,-0.0015316391312643,0.0015316402153524,-3.8045811768919e-09,5.1592776664323e-09,-0.0018353751786114,0.0018353758938274,-0.0018353721854851,0.0018353787980831,-0.0018353779143353,0.0018353732355591,-0.001835374913486,0.0018353761564645,-0.001369765460928,0.0013697616790139,-0.0013697574522002,0.0013697694159714,0.67880270060083,131329,3014,0.0041846680356652,0.0045921912685557,0.0063583323369373,15.187568000544,-0.00011849945599565,-0.00011849945599565,-0.00011849945599565,4317375.5421847,0.015252114795091
22819200,0.98958049969064,0.016029782536698,0.0046620168514038,0.0049853987298929,0.0063823669554013,-0.0010059038979026,0.0010059055691887,-3.1707831376928e-09,4.8117645786009e-09,-8.6809734554551e-09,1.0788702544131e-08,-0.0012426608153377,0.001242653346923,-0.0012426581893073,0.001242656015853,-0.0012426545613014,0.0012426597762663,-0.0012426519069152,0.0012426624464255,-0.0011318372472008,0.0011318375131389,-0.0011318294127983,0.0011318453189735,8.5724000023625e-09,-1.0751767956656e-08,3.7350393579414e-09,-5.4428391050693e-09,-0.0011044950711724,0.0011044933412828,-0.0013399682670669,0.0013399760089103,-0.001339971263332,0.0013399729525087,-0.0013399744874286,0.001339969628451,-0.0013399774618995,0.0013399665789421,-0.0012320998403556,0.0012321007145305,-0.0012321086419659,0.001232091547343,-0.0010557857727769,0.0010557997081052,-0.0010558045674471,0.0010557803068031,4.6074921585714e-09,-3.5162457979869e-09,-0.0015321405148998,0.0015321415984221,-3.7967174027719e-09,5.1507067031223e-09,-0.0018359794420141,0.0018359801893409,-0.0018359764550264,0.0018359830874626,-0.0018359822048159,0.0018359775039262,-0.0018359792088319,0.0018359804200273,-0.0013702775293904,0.0013702736653423,-0.0013702694447879,0.0013702814782266,0.6769180520518,131329,3014,0.0041862858611892,0.0045938663890738,0.006360403294357,15.303727519674,-0.00011757017984261,-0.00011757017984261,-0.00011757017984261,4317032.6359856,0.015257563796697
23019200,0.98978449962744,0.016032682071507,0.0046628486129472,0.0049862842462171,0.0063835492123429,-0.0010062681944317,0.0010062698648979,-3.2113419216498e-09,4.8514811610219e-09,-8.6632762722095e-09,1.0769923639931e-08,-0.0012431512548152,0.0012431437709021,-0.001243148601954,0.0012431464667321,-0.0012431450126856,0.0012431501881617,-0.0012431423316832,0.0012431528850047,-0.0011322317576841,0.0011322319324405,-0.001132223844927,0.0011322398164081,8.5635454935737e-09,-1.0742760761116e-08,3.7271404342394e-09,-5.4348401409111e-09,-0.0011048734341013,0.0011048717043754,-0.0013404619261745,0.0013404696569076,-0.0013404649171258,0.0013404666059434,-0.0013404681405349,0.0013404632825132,-0.0013404711099137,0.0013404602382439,-0.0012325115898941,0.0012325124547551,-0.001232520376079,0.0012325033027678,-0.0010561952686316,0.0010562091920158,-0.0010562140461985,0.0010561898081164,4.6467125404156e-09,-3.5558516377027e-09,-0.0015326148319022,0.0015326159150155,-3.7894547863751e-09,5.1429849430168e-09,-0.0018365551751437,0.0018365559532452,-0.0018365521930459,0.0018365588464739,-0.0018365579641348,0.0018365532416746,-0.001836554973235,0.0018365561526126,-0.0013707563497432,0.001370752402904,-0.001370748187635,0.0013707602932724,0.63260005274959,131329,3014,0.0041878021161091,0.0045954389760393,0.0063623624460364,15.414924166242,-0.00011668060667006,-0.00011668060667006,-0.00011668060667006,4316966.6137674,0.015262691822883
23219200,0.98998595595284,0.016035674067569,0.0046637119808213,0.0049872013689199,0.0063847607178278,-0.001006649310802,0.0010066509809614,-3.2511978440493e-09,4.8910186098859e-09,-8.6605759776723e-09,1.0766856154965e-08,-0.0012435755237349,0.0012435680145432,-0.0012435728440551,0.0012435707371983,-0.001243569283012,0.0012435744302674,-0.0012435665759162,0.0012435771532415,-0.001132639101573,0.0011326391974811,-0.0011326311122502,0.0011326471581145,8.5649775752905e-09,-1.0744236515711e-08,3.7198484101992e-09,-5.4275742719407e-09,-0.0011052673685109,0.0011052656387817,-0.0013408993817494,0.0013409071082519,-0.0013409023675738,0.0013409040625099,-0.0013409055966965,0.0013409007333075,-0.0013409085616661,0.0013408976935455,-0.0012329152664432,0.0012329161170976,-0.0012329240394483,0.0012329069784328,-0.0010565870125373,0.001056600944533,-0.0010566057939274,0.0010565815568082,4.6863343539964e-09,-3.595948217368e-09,-0.0015330819122405,0.0015330829948978,-3.7824440900471e-09,5.1354340589264e-09,-0.0018370842038462,0.0018370850126181,-0.0018370812262448,0.0018370879013405,-0.0018370870190814,0.0018370822748282,-0.0018370840333623,0.0018370851805164,-0.0013711896228478,0.0013711855914222,-0.0013711813816364,0.0013711935611039,0.65900012258537,131329,3014,0.0041893843022477,0.0045970727560158,0.0063642954635355,15.525947956925,-0.0001157924163446,-0.0001157924163446,-0.0001157924163446,4321632.6915211,0.01526791859895
23419200,0.99018572795536,0.016038609623769,0.0046645577801111,0.0049881003574492,0.0063859514862089,-0.0010071422403136,0.0010071439111774,-3.2900359809827e-09,4.9305175471028e-09,-8.6795225017219e-09,1.0786623626788e-08,-0.0012441609587327,0.0012441534111388,-0.0012441582528368,0.0012441561601138,-0.0012441547050041,0.0012441598398936,-0.0012441519719807,0.0012441625888853,-0.0011331674372139,0.0011331674705588,-0.0011331593715174,0.0011331755071742,8.5749470692995e-09,-1.0754846583545e-08,3.7129475397389e-09,-5.4212112901713e-09,-0.0011057767858148,0.001105775055579,-0.0013414951609652,0.0013415028892856,-0.0013414981423044,0.0013414998481565,-0.0013415013826413,0.0013414965076266,-0.0013415043434486,0.0013414934722016,-0.0012334565688003,0.0012334573994003,-0.0012334653290055,0.0012334482731728,-0.0010571133963218,0.0010571273525955,-0.0010571321980916,0.0010571079443208,4.7265907049573e-09,-3.6364952096852e-09,-0.0015336833115566,0.0015336843938797,-3.7756833687883e-09,5.1283176214463e-09,-0.0018377717828744,0.0018377726227381,-0.0018377688097327,0.0018377755069256,-0.0018377746249361,0.001837769858202,-0.0018377716439742,0.0018377727590725,-0.0013717784696136,0.001371774353654,-0.0013717701486725,0.0013717824029598,0.6525637067168,131329,3014,0.0041914329263001,0.0045991875932541,0.0063667822239114,15.704719246345,-0.00011436224602924,-0.00011436224602924,-0.00011436224602924,4324255.0563769,0.015274672086778
23619200,0.99038804513187,0.016041651390516,0.0046654366336069,0.0049890335431434,0.0063871812137661,-0.0010082333459422,0.0010082350157477,-3.3326629941979e-09,4.9719684625411e-09,-8.6620258096162e-09,1.0767770651821e-08,-0.0012453621203225,0.0012453545556845,-0.0012453593863416,0.0012453573324493,-0.0012453558785461,0.0012453609724373,-0.0012453531172621,0.0012453637493353,-0.0011343227385518,0.0011343226759833,-0.0011343145895595,0.0011343307947494,8.5957097778427e-09,-1.0777112789503e-08,3.7027151686043e-09,-5.4122097964423e-09,-0.0011068988836615,0.0011068971523672,-0.0013427191685882,0.0013427269039467,-0.0013427221434317,0.0013427238689432,-0.001342725404229,0.001342720507704,-0.0013427283584024,0.0013427174785602,-0.0012346341173611,0.0012346349129632,-0.0012346428579964,0.0012346258052133,-0.0010582637556873,0.00105827775903,-0.0010582826002061,0.0010582583087806,4.7637908022845e-09,-3.6742624499219e-09,-0.0015349265065146,0.0015349275881719,-3.7677863421841e-09,5.1198152196006e-09,-0.001839113738372,0.0018391146079804,-0.0018391107709531,0.0018391174867949,-0.0018391166053769,0.0018391118181673,-0.0018391136297542,0.0018391147135668,-0.0013730037112824,0.0013729995166305,-0.0013729953175278,0.0013730076394575,0.66669036284772,131329,3014,0.0041959648702573,0.0046038440221336,0.0063719247718853,16.219830910765,-0.00011024135271388,-0.00011024135271388,-0.00011024135271388,4333123.4357622,0.015289224055597
23819200,0.99059286986202,0.016044898300263,0.0046663800273549,0.0049900333277564,0.0063884849451513,-0.0010093391007322,0.0010093407707229,-3.3744924569541e-09,5.0140879317026e-09,-8.6620601549787e-09,1.0768108174569e-08,-0.001246608263401,0.001246600670831,-0.00124660550181,0.0012466034754962,-0.0012466020214396,0.0012466070875441,-0.0012465992322015,0.0012466098927997,-0.0011355020234045,0.001135501878234,-0.0011354937921987,0.0011355100799874,8.6244149223346e-09,-1.080724955032e-08,3.6944684340621e-09,-5.4052070996424e-09,-0.0011080378046572,0.0011080360719823,-0.0013439862243344,0.001343993972636,-0.0013439891945531,0.0013439909427389,-0.0013439924797174,0.0013439875570375,-0.0013439954288708,0.0013439845333949,-0.0012358437958552,0.0012358445551084,-0.0012358525212712,0.0012358354634611,-0.0010594463514205,0.0010594604158938,-0.001059465252515,0.0010594409082764,4.8007108732252e-09,-3.7124782108684e-09,-0.0015361992807965,0.0015362003611889,-3.7613466555298e-09,5.1119588386077e-09,-0.0018405021095184,0.001840503008036,-0.0018404991469252,0.0018405058817131,-0.0018405050020251,0.0018405001931608,-0.001840502030865,0.0018405030838684,-0.0013742728051327,0.0013742685308924,-0.0013742643386116,0.0013742767270424,0.70079156766097,131329,3014,0.0042005591230093,0.0046085714508365,0.0063771882486194,16.742475925283,-0.00010606019259774,-0.00010606019259774,-0.00010606019259774,4340378.4381234,0.015304035692505
24019200,0.99080005989277,0.016048221011725,0.0046673461081387,0.004991057024284,0.0063898178793026,-0.0010104280249439,0.0010104296972778,-3.408542703566e-09,5.050419533003e-09,-8.7161060275909e-09,1.0824973895096e-08,-0.0012479019704915,0.0012478943195873,-0.0012478991849318,0.0012478971482124,-0.0012478956914845,0.0012479007736604,-0.0012478928792222,0.0012479036018965,-0.0011366713907772,0.0011366712177594,-0.0011366630923358,0.0011366794869162,8.6146027464246e-09,-1.079672880908e-08,3.6893846329294e-09,-5.3995581952609e-09,-0.0011091618906666,0.0011091601585444,-0.0013452939937995,0.0013453017318957,-0.0013452969599797,0.0013452987060357,-0.0013453002420025,0.0013452953234823,-0.0013453031881087,0.0013452923029455,-0.0012370597879864,0.0012370605457315,-0.0012370685044651,0.0012370514632514,-0.0010606463419053,0.0010606603917398,-0.0010606652239712,0.001060640902697,4.8446806396849e-09,-3.7571575435925e-09,-0.0015374903454292,0.0015374914251412,-3.7548009574964e-09,5.1046240713268e-09,-0.0018419364495794,0.0018419373812361,-0.0018419334912094,0.001841940250815,-0.0018419393712245,0.0018419345373012,-0.0018419364052375,0.001841937422914,-0.0013755933479548,0.0013755889799561,-0.0013755847929375,0.0013755972644675,0.70866202494969,131329,3014,0.0042050866260523,0.0046132399397819,0.0063825242608499,17.265383413831,-0.00010187693268936,-0.00010187693268936,-0.00010187693268936,4344012.3402581,0.015318796334721
24219200,0.99100821789305,0.016051415690266,0.004668270107728,0.0049920380505833,0.0063911075319549,-0.0010113280119819,0.0010113296864539,-3.4418935946604e-09,5.0857786205718e-09,-8.7638855080782e-09,1.0875291988001e-08,-0.0012490184166995,0.0012490107109967,-0.0012490156064568,0.0012490135645959,-0.0012490121036895,0.0012490171993533,-0.0012490092703857,0.0012490200489137,-0.001137639961698,0.0011376397626193,-0.0011376316024372,0.0011376480942801,8.6435085815013e-09,-1.0827031220825e-08,3.6861015007967e-09,-5.3973184403101e-09,-0.001110094625309,0.0011100928919156,-0.0013464201483453,0.0013464279016562,-0.0013464231110556,0.0013464248796202,-0.001346426415194,0.0013464214751706,-0.0013464293615465,0.0013464184548802,-0.0012380764928334,0.0012380772307251,-0.0012380852101883,0.0012380681493513,-0.0010616560645706,0.0010616701790048,-0.0010616750101413,0.0010616506257009,4.8895693131903e-09,-3.8025697332813e-09,-0.0015385983773826,0.001538599456772,-3.7523913109036e-09,5.1015892180395e-09,-0.0018431918430541,0.0018431928045653,-0.0018431888846739,0.0018431956741342,-0.0018431947932594,0.001843189932992,-0.0018431918307865,0.0018431928149029,-0.001376738992992,0.0013767345283371,-0.0013767303433022,0.0013767429061526,0.68010065223369,131329,3014,0.0042088304189076,0.0046171151594743,0.0063871019893252,17.693090636434,-9.8455274908531e-05,-9.8455274908531e-05,-9.8455274908531e-05,4345711.2955947,0.015331186319641
24419200,0.99121415302849,0.016054572674812,0.0046691832140201,0.004993007453733,0.0063923820070588,-0.001011815257618,0.0010118169337369,-3.4896634635589e-09,5.1348407440517e-09,-8.8376896437361e-09,1.0951183687444e-08,-0.0012496498949748,0.0012496421128843,-0.0012496470562755,0.0012496449948485,-0.0012496435364549,0.0012496486470571,-0.0012496406666324,0.001249651532585,-0.001138174188926,0.001138173935339,-0.0011381657225529,0.0011381823730623,8.6934190535553e-09,-1.0879596290265e-08,3.6887589360941e-09,-5.4022705179858e-09,-0.0011106031312178,0.0011106013955162,-0.0013470604593616,0.0013470682512325,-0.0013470634283219,0.0013470652223769,-0.0013470667635374,0.0013470617854193,-0.0013470697085246,0.0013470587663034,-0.0012386318066404,0.0012386325033305,-0.0012386405197079,0.0012386234262598,-0.001062208919736,0.0010622231175608,-0.0010622279524121,0.0010622034740787,4.9201819422896e-09,-3.8340722446659e-09,-0.0015392429704542,0.0015392440491749,-3.754477935041e-09,5.1028230784636e-09,-0.0018439489574414,0.0018439499421832,-0.0018439460021815,0.0018439528090078,-0.0018439519318093,0.0018439470456857,-0.0018439489638672,0.0018439499320237,-0.0013773925628642,0.0013773880495974,-0.0013773838650206,0.001377396478159,0.67934591503707,131329,3014,0.004210857995896,0.0046192279990226,0.006389764635656,17.885168316244,-9.691865347005e-05,-9.691865347005e-05,-9.691865347005e-05,4346584.0687569,0.015338096821427
24619200,0.99141775948521,0.016057841458277,0.0046701336488678,0.0049940144749326,0.0063936933344767,-0.0010122998313502,0.0010123015094164,-3.518959476527e-09,5.1664846196766e-09,-8.8580404217102e-09,1.0974048482764e-08,-0.0012502651224305,0.0012502573011417,-0.0012502622578867,0.0012502602089129,-0.0012502587433869,0.0012502638558077,-0.0012502558592041,0.0012502667561543,-0.0011387093686457,0.0011387090873723,-0.0011387008595619,0.0011387175682452,8.7861435905513e-09,-1.0977633120151e-08,3.6886597297916e-09,-5.4063389926018e-09,-0.0011111080880836,0.001111106348133,-0.0013476849086922,0.0013476927552205,-0.0013476878734958,0.0013476897309891,-0.0013476912708748,0.0013476862324591,-0.0013476942226333,0.0013476832064836,-0.0012391861404481,0.0012391867896413,-0.0012391948737091,0.0012391776913917,-0.0010627571705311,0.0010627715673429,-0.0010627764090336,0.0010627517201841,4.9698452809911e-09,-3.8824425580449e-09,-0.0015398820284857,0.0015398831082742,-3.7594485260458e-09,5.1091301730509e-09,-0.001844692243363,0.0018446932520608,-0.0018446892781325,0.0018446961280678,-0.0018446952450635,0.0018446903284661,-0.0018446922794733,0.0018446932135415,-0.0013780410792519,0.001378036458289,-0.0013780322677931,0.0013780449975471,0.70944460152064,131329,3014,0.004212873988886,0.004621325711546,0.0063924048930659,18.071955068908,-9.5424359448735e-05,-9.5424359448735e-05,-9.5424359448735e-05,4347372.877025,0.015344957141571
24819200,0.99161900108829,0.016060837682971,0.0046709970253452,0.0049949322415213,0.0063949084161042,-0.0010127603420404,0.0010127620225775,-3.5651040065492e-09,5.2149236275746e-09,-8.9287578140189e-09,1.1047808992548e-08,-0.0012509083382313,0.0012509004440247,-0.0012509054463238,0.0012509033791268,-0.0012509019155097,0.0012509070426847,-0.0012508989954226,0.0012509099788182,-0.0011392167335513,0.001139216397525,-0.0011392081190375,0.0011392249834654,8.8178327464964e-09,-1.1011130191003e-08,3.6933543902567e-09,-5.4125726262522e-09,-0.0011115894304134,0.001111587689041,-0.0013483311649881,0.0013483390396133,-0.0013483341376512,0.0013483360074175,-0.0013483375526589,0.0013483324908927,-0.0013483405037922,0.0013483294654523,-0.0012397246663766,0.0012397252903394,-0.0012397333974856,0.0012397161940188,-0.0010632979721921,0.0010633124144901,-0.0010633172612024,0.0010632925161569,5.0021709365233e-09,-3.9144476155476e-09,-0.0015405126729982,0.0015405137530435,-3.7625081547821e-09,5.1125568531034e-09,-0.0018454520773104,0.0018454531097811,-0.0018454491144033,0.0018454559835694,-0.0018454551046022,0.0018454501605024,-0.0018454521324494,0.0018454530520011,-0.001378701951042,0.0013786972818387,-0.0013786930892256,0.0013787058724719,0.66112229203762,131329,3014,0.0042147924458086,0.0046233275140188,0.0063950080234506,18.258557386243,-9.3931540910058e-05,-9.3931540910058e-05,-9.3931540910058e-05,4345371.8766048,0.015351585793969
25019200,0.99182014288382,0.016063796711123,0.004671848892436,0.0049958379561659,0.0063961098625214,-0.0010135578154032,0.0010135594957806,-3.6028330366297e-09,5.2523353816712e-09,-8.9357202741735e-09,1.1054610077839e-08,-0.0012518193431685,0.0012518114176299,-0.0012518164245659,0.0012518143793424,-0.0012518129142371,0.0012518180225228,-0.0012518099707489,0.0012518209819264,-0.0011400689414118,0.0011400685411254,-0.0011400602576415,0.0011400771951684,8.8493609803392e-09,-1.1044582897539e-08,3.6941425166616e-09,-5.4150357753777e-09,-0.0011124132838574,0.0011124115410115,-0.0013492605201431,0.0013492684146259,-0.0013492634921276,0.001349265382926,-0.0013492669277038,0.0013492618455988,-0.0013492698815077,0.0013492588173606,-0.0012405883430661,0.0012405889513786,-0.0012405970816811,0.0012405798463013,-0.0010641515929781,0.001064166101484,-0.0010641709510773,0.001064146134045,5.0442231167404e-09,-3.9562469237251e-09,-0.0015414887364886,0.0015414898166775,-3.7650657894128e-09,5.1154288260431e-09,-0.0018465262891736,0.0018465273461865,-0.0018465233227677,0.0018465302236538,-0.0018465293428199,0.0018465243705045,-0.0018465263705092,0.00184652726199,-0.0013796607549705,0.0013796560013596,-0.0013796518061177,0.001379664678658,0.6536253908644,131329,3014,0.0042181060155226,0.0046267467561533,0.0063990441308509,18.630343457452,-9.0957252340385e-05,-9.0957252340385e-05,-9.0957252340385e-05,4351864.9523232,0.015362521542545
25219200,0.99202442729275,0.016066904700628,0.0046727471979641,0.0049967915803493,0.0063973659223149,-0.0010148422473482,0.0010148439358485,-3.6270657322787e-09,5.2865374642916e-09,-8.9919882952241e-09,1.1120982802609e-08,-0.0012532214905932,0.0012532135078154,-0.0012532185513123,0.0012532164914128,-0.0012532150175624,0.0012532201570286,-0.0012532120582781,0.0012532231345133,-0.0011414334610101,0.0011414330550096,-0.0011414247275689,0.0011414417606654,8.7576850766748e-09,-1.0946234651496e-08,3.697039450205e-09,-5.4120678686168e-09,-0.0011137357990458,0.0011137340622144,-0.0013506923046223,0.001350700138207,-0.0013506952756985,0.0013506971109823,-0.0013506986488155,0.0013506936393413,-0.0013507016043025,0.001350690609432,-0.0012419707452853,0.0012419714269176,-0.0012419794907357,0.0012419623124774,-0.0010655071627074,0.0010655215013201,-0.0010655263517352,0.0010655017182683,5.096692466779e-09,-4.0042575805031e-09,-0.0015430021475934,0.0015430032310412,-3.7580793613434e-09,5.1130313444022e-09,-0.0018481436206657,0.0018481447129347,-0.0018481406526499,0.0018481475875978,-0.0018481467056381,0.0018481417052781,-0.001848143741452,0.0018481445950997,-0.0013811477285131,0.0013811428720508,-0.0013811386674343,0.0013811516454788,0.6745467516706,131329,3014,0.0042234406670763,0.0046322342171127,0.0064053043017398,19.271671177759,-8.5826630577929e-05,-8.5826630577929e-05,-8.5826630577929e-05,4363784.3736085,0.015379867977505
25419200,0.99223172929892,0.016070323865785,0.0046737436735283,0.0049978462546257,0.0063987339376311,-0.0010161427676118,0.0010161444430045,-3.6958328724897e-09,5.340822062905e-09,-8.8350911289718e-09,1.0948443551741e-08,-0.0012546779833548,0.001254670064697,-0.0012546750082915,0.0012546730830421,-0.0012546716265084,0.0012546765968871,-0.0012546686186896,0.0012546796209126,-0.0011428268671912,0.0011428262042482,-0.0011428179938735,0.0011428350476832,8.8736283433413e-09,-1.1070053915161e-08,3.6875405418046e-09,-5.4094486627076e-09,-0.0011150766551577,0.0011150749113171,-0.0013521750938036,0.0013521830039561,-0.001352178065926,0.0013521799726224,-0.0013521815223298,0.0013521764144634,-0.0013521844681913,0.0013521733943516,-0.001243396728748,0.0012433972953584,-0.0012434054435057,0.0012433882139965,-0.001066901546149,0.0010669160957285,-0.0010669209423271,0.0010668960906518,5.1127202953163e-09,-4.0240305508054e-09,-0.0015445549994218,0.0015445560799713,-3.7628531380666e-09,5.1139209302847e-09,-0.0018498201923643,0.0018498212999572,-0.001849817230953,0.0018498241719351,-0.0018498232952831,0.0018498182749846,-0.0018498203201916,0.0018498211694302,-0.0013826978668338,0.0013826929908617,-0.0013826887960541,0.0013827017898957,0.7278919156617,131329,3014,0.0042288440430653,0.0046377994328384,0.0064117257111892,19.919072576078,-8.0647419391378e-05,-8.0647419391378e-05,-8.0647419391378e-05,4373287.6700635,0.015397529097368
25619200,0.99244183051068,0.016073810797569,0.0046747595282685,0.0049989216346249,0.0064001296346752,-0.0010174191942444,0.0010174208705756,-3.7282064513226e-09,5.3739650392922e-09,-8.8589805299317e-09,1.097328183189e-08,-0.0012562086548038,0.0012562006968783,-0.0012562056556555,0.0012562037392996,-0.0012562022796179,0.0012562072475597,-0.0012561992524147,0.0012562102909786,-0.0011442053534901,0.0011442046491888,-0.0011441964238512,0.0011442135496382,8.8040745039698e-09,-1.099621651061e-08,3.6900136567963e-09,-5.4082510487101e-09,-0.0011163955788422,0.0011163938385498,-0.0013537211173282,0.0013537289802008,-0.0013537240875105,0.0013537259507606,-0.0013537274949882,0.0013537224420267,-0.0013537304436747,0.0013537194191635,-0.0012448328923289,0.0012448335190281,-0.0012448416157813,0.0012448244294047,-0.0010683200019353,0.0010683344191308,-0.0010683392627391,0.0010683145501771,5.1591621516083e-09,-4.0709926656744e-09,-0.0015461209085939,0.0015461219888334,-3.7606175293629e-09,5.1110982760737e-09,-0.001851555493191,0.0018515566314645,-0.0018515525310596,0.001851559504162,-0.0018515586252176,0.0018515535774352,-0.0018515556545303,0.0018515564677565,-0.0013843126849103,0.001384307707983,-0.0013843035159271,0.0013843166058511,0.73243475437334,131329,3014,0.0042341522379697,0.004643277727885,0.0064181962698779,20.566678181992,-7.5466574544066e-05,-7.5466574544066e-05,-7.5466574544066e-05,4377125.8968219,0.015415059929253
25819200,0.99264927446776,0.016077160390907,0.004675732025615,0.0049999523410427,0.0064014760242497,-0.0010179559297814,0.0010179576084387,-3.7744518324992e-09,5.4223446524459e-09,-8.9341043926846e-09,1.1051272828407e-08,-0.00125698106193,0.0012569730287402,-0.0012569780358209,0.0012569760976457,-0.001256974641247,0.0012569796256284,-0.0012569715768791,0.0012569827053307,-0.0011448066111809,0.001144805855158,-0.0011447975749051,0.0011448148629545,8.7562473932588e-09,-1.0944661928159e-08,3.7014301630538e-09,-5.4164482406322e-09,-0.0011169576204232,0.0011169558830325,-0.0013544942689333,0.0013545021133103,-0.001354497250212,0.001354499071775,-0.0013545006182868,0.0013544956021459,-0.0013545035683394,0.0013544925774112,-0.001245476533655,0.0012454772022916,-0.0012454852628227,0.0012454681088202,-0.0010689701469839,0.0010689844491809,-0.0010689892950582,0.0010689646906042,5.1907280335275e-09,-4.1035105274525e-09,-0.0015468778098434,0.0015468788895325,-3.7665736401725e-09,5.1161195788234e-09,-0.0018524697722524,0.0018524709330724,-0.0018524668119953,0.0018524738048504,-0.0018524729302762,0.001852467852687,-0.0018524699505962,0.0018524707512143,-0.0013851235449938,0.0013851185221913,-0.0013851143281257,0.0013851274696302,0.71386319695019,131329,3014,0.0042363898571154,0.0046456161294918,0.0064213189767131,20.805346375549,-7.3557228995609e-05,-7.3557228995609e-05,-7.3557228995609e-05,4373696.0661182,0.015422884297491
26019200,0.99284946736582,0.016080263139103,0.0046766288665494,0.0050009042409845,0.0064027300315691,-0.001017837096909,0.0010178387750719,-3.7928121204873e-09,5.4402286690426e-09,-8.9240087478937e-09,1.1040653277092e-08,-0.0012570279913838,0.0012570199418133,-0.0012570249423144,0.0012570230340338,-0.0012570215666681,0.0012570265425409,-0.0012570185017994,0.0012570296231857,-0.0011447154892329,0.001144714723577,-0.0011447064508257,0.0011447237348079,8.8486945455392e-09,-1.1042291565481e-08,3.7110766433398e-09,-5.4304832360401e-09,-0.0011168469555143,0.0011168452136297,-0.0013545335828624,0.0013545414836776,-0.0013545365610115,0.0013545384457788,-0.0013545399855046,0.0013545349196438,-0.0013545429547606,0.001354531876039,-0.0012454005966876,0.0012454012530772,-0.0012454093823895,0.0012453921041748,-0.0010689135353688,0.0010689280464478,-0.0010689329042427,0.0010689080665419,5.2523238191715e-09,-4.1637729075958e-09,-0.0015468941982526,0.0015468952793878,-3.7813161421816e-09,5.132298064023e-09,-0.0018526068075471,0.0018526079890426,-0.0018526038252956,0.0018526108823044,-0.0018526099953842,0.0018526048792614,-0.0018526070166656,0.0018526077768952,-0.0013851736056845,0.001385168442879,-0.0013851642365352,0.0013851775409578,0.68688292253942,131329,3014,0.0042359035670037,0.0046451617280902,0.0064213799629816,20.675609365569,-7.459512507545e-05,-7.459512507545e-05,-7.459512507545e-05,4366039.5148809,0.015421994973555
26219200,0.99304260331012,0.016083435556038,0.00467755252682,0.0050018818187293,0.0064040012104886,-0.0010177208582664,0.0010177225379145,-3.8353260068349e-09,5.4842570362415e-09,-8.9577373697134e-09,1.1076219125168e-08,-0.0012570115639708,0.0012570034651994,-0.0012570084877692,0.0012570065846323,-0.0012570051176917,0.0012570100874994,-0.0012570020221075,0.0012570131991559,-0.001144626289997,0.0011446254571095,-0.0011446171607943,0.0011446345583662,8.8810634808083e-09,-1.1077043020711e-08,3.7230117795967e-09,-5.4443459816084e-09,-0.0011167362089893,0.0011167344653818,-0.0013545150198613,0.0013545229511273,-0.0013545180085787,0.0013545199029621,-0.0013545214460987,0.0013545163639415,-0.0013545244220296,0.0013545133136362,-0.0012453111270304,0.0012453117785315,-0.0012453199313652,0.0012453026093184,-0.0010688353681956,0.0010688499279628,-0.001068854797074,0.001068829889286,5.289099555698e-09,-4.19868694529e-09,-0.0015468874473108,0.0015468885300824,-3.793248410306e-09,5.1462492185895e-09,-0.0018526861581854,0.0018526873578004,-0.001852683169282,0.0018526902573835,-0.0018526893714686,0.0018526842226413,-0.0018526863822047,0.001852687131259,-0.0013851766815797,0.0013851714638608,-0.0013851672470026,0.0013851806269532,0.72524661703892,131329,3014,0.0042354250047924,0.0046447045129542,0.0064213482069306,20.537521456737,-7.5699828346105e-05,-7.5699828346105e-05,-7.5699828346105e-05,4361154.0426686,0.015421013684073
26419200,0.99322896801184,0.016086585166947,0.004678472261719,0.00500285410359,0.0064052588016384,-0.0010175951336746,0.0010175968147137,-3.8802552245135e-09,5.530539207e-09,-8.9970729323625e-09,1.1117282169955e-08,-0.0012570392591823,0.0012570311078476,-0.0012570361557737,0.0012570342545118,-0.0012570327893926,0.0012570377537931,-0.0012570296603157,0.0012570408989498,-0.0011445314094204,0.0011445305061164,-0.0011445221814411,0.0011445397058899,8.8944013456862e-09,-1.1091235667592e-08,3.7354594879863e-09,-5.457469426246e-09,-0.0011166160651923,0.0011166143209813,-0.0013545332766079,0.0013545412281845,-0.0013545362769691,0.0013545381683815,-0.0013545397151363,0.0013545346286766,-0.0013545426964124,0.0013545315730023,-0.0012452317536469,0.0012452324111568,-0.0012452405735039,0.0012452232260838,-0.0010687738168875,0.0010687883849838,-0.001068793263522,0.001068768328664,5.3230123256273e-09,-4.2318374132719e-09,-0.0015468828338865,0.0015468839173725,-3.804319532032e-09,5.1581810769029e-09,-0.0018527905333916,0.0018527917515468,-0.0018527875399419,0.0018527946556631,-0.0018527937722336,0.0018527885908909,-0.0018527907721681,0.0018527915103018,-0.0013852160403281,0.0013852107745642,-0.001385206549088,0.001385219994029,0.74502756029817,131329,3014,0.0042349096446968,0.0046442107604761,0.0064213227593276,20.399141782577,-7.6806865739383e-05,-7.6806865739383e-05,-7.6806865739383e-05,4352691.502136,0.015419967216591
26619200,0.9934129381711,0.016089665583994,0.0046793710311363,0.005003804410525,0.0064064901423323,-0.0010181047028058,0.0010181063813216,-3.9160000775327e-09,5.5635822031474e-09,-8.9602593229341e-09,1.1077383629416e-08,-0.0012577629879068,0.0012577548347929,-0.0012577598593441,0.0012577580065342,-0.0012577565414269,0.0012577614571921,-0.0012577533916917,0.0012577646228941,-0.001145099139004,0.0011450981466507,-0.0011450898492215,0.0011451074062455,8.8913967432109e-09,-1.1088539388934e-08,3.7386224532827e-09,-5.4610756748426e-09,-0.001117145771662,0.0011171440273962,-0.0013552541765124,0.0013552621266693,-0.0013552571767734,0.0013552590667795,-0.0013552606110757,0.0013552555308728,-0.00135526359678,0.0013552524706209,-0.0012458335991095,0.0012458342705108,-0.0012458424311322,0.0012458250711128,-0.0010693928592214,0.0010694074255063,-0.0010694123073929,0.0010693873686303,5.368170914534e-09,-4.2760771283084e-09,-0.0015475829583704,0.0015475840425438,-3.808203914308e-09,5.1630706619412e-09,-0.0018536278427283,0.0018536290860253,-0.0018536248441062,0.0018536319954901,-0.0018536311091795,0.0018536258976194,-0.0018536281084541,0.0018536288176004,-0.0013859783673164,0.0013859730120997,-0.0013859687818776,0.0013859823251886,0.73848440587566,131329,3014,0.0042370336255709,0.0046464143398206,0.006424211307503,20.630137917209,-7.4958896662326e-05,-7.4958896662326e-05,-7.4958896662326e-05,4349208.1172375,0.015427300841381
26819200,0.9935967311917,0.016092666742494,0.0046802443974711,0.0050047286126891,0.0064076937323338,-0.001018965757203,0.0010189674360169,-3.9624274597963e-09,5.6107943188497e-09,-8.9305897299669e-09,1.1048028726747e-08,-0.0012588471600142,0.0012588389981172,-0.0012588440047016,0.0012588421993155,-0.0012588407351888,0.0012588455976565,-0.0012588375526811,0.0012588487994426,-0.0011460300909276,0.0011460289772907,-0.0011460207007912,0.0011460383369814,8.8326414511555e-09,-1.1027155190848e-08,3.7385515366183e-09,-5.4592041419798e-09,-0.0011180342479493,0.0011180325058217,-0.0013563421974584,0.0013563501114004,-0.0013563452021051,0.0013563470510153,-0.0013563485968198,0.0013563435556581,-0.0013563515803304,0.0013563405008463,-0.0012467978932673,0.0012467985950152,-0.0012468067127111,0.0012467894061299,-0.0010703722579126,0.0010703866998328,-0.0010703915793927,0.0010703667725678,5.4021431632346e-09,-4.3068229659265e-09,-0.0015486744985379,0.0015486755854684,-3.8056235037554e-09,5.1636211541535e-09,-0.0018548636300884,0.0018548649008179,-0.0018548606340618,0.0018548678051454,-0.0018548669222799,0.0018548616893129,-0.001854863919451,0.0018548646123384,-0.0013871222082439,0.0013871168001549,-0.0013871125656767,0.0013871261647048,0.7212190572344,131329,3014,0.0042406166378186,0.0046501057780676,0.0064287195399043,21.065083970028,-7.1479328239776e-05,-7.1479328239776e-05,-7.1479328239776e-05,4350643.1770217,0.015439271348575
27019200,0.99378024265932,0.016095579493164,0.0046810893496816,0.0050056236282753,0.0064088665152072,-0.0010198345821339,0.0010198362577025,-4.0077528686656e-09,5.652627916509e-09,-8.8981028000085e-09,1.1011883293583e-08,-0.0012599114628465,0.0012599032930901,-0.0012599082784079,0.0012599065210324,-0.0012599050627244,0.0012599098687706,-0.0012599018485339,0.0012599130993031,-0.0011469648120224,0.0011469635852617,-0.0011469553332013,0.0011469730341396,8.7805257650636e-09,-1.0971127821069e-08,3.7388046582146e-09,-5.455907362054e-09,-0.0011189301964256,0.0011189284574955,-0.0013574139866977,0.0013574218683057,-0.0013574169898768,0.0013574188060426,-0.001357420349936,0.0013574153449946,-0.0013574233299788,0.001357412290919,-0.0012477563117477,0.0012477570478801,-0.0012477651265795,0.0012477478660415,-0.0010713432351059,0.0010713575720907,-0.001071362446621,0.0010713377527858,5.4361864344125e-09,-4.3438274414652e-09,-0.0015497684880171,0.0015497695722891,-3.8048009845005e-09,5.1597884822684e-09,-0.0018560912406156,0.0018560925358266,-0.0018560882483589,0.0018560954386254,-0.0018560945567041,0.0018560892980812,-0.0018560915540984,0.0018560922201991,-0.0013882484384858,0.0013882429601739,-0.0013882387323278,0.0013882523938243,0.70228506305886,131329,3014,0.0042442303920359,0.0046538268798895,0.0064332393315489,21.504692047719,-6.7962463618251e-05,-6.7962463618251e-05,-6.7962463618251e-05,4354162.9133471,0.015451313551627
27219200,0.99396331337721,0.016098395220518,0.0046819031569671,0.0050064866597163,0.0064100054038344,-0.0010207069380867,0.001020708611135,-4.0412763249588e-09,5.6836325121635e-09,-8.8468704337692e-09,1.0957581620197e-08,-0.0012609444006403,0.001260936239436,-0.0012609411920215,0.0012609394915094,-0.0012609380328654,0.0012609427824858,-0.0012609347999185,0.0012609460317581,-0.0011478991446222,0.0011478978251732,-0.0011478896108537,0.0011479073292732,8.7518881380416e-09,-1.0940853788727e-08,3.7370026579814e-09,-5.4528002733322e-09,-0.0011198292646776,0.0011198275270162,-0.0013584589411451,0.0013584668001482,-0.0013584619399735,0.001358463742171,-0.0013584652823336,0.0013584602990325,-0.0013584682634487,0.0013584572438968,-0.0012487055153744,0.001248706275331,-0.0012487143333971,0.001248697090528,-0.0010722979389185,0.0010723122291349,-0.0010723171005954,0.0010722924597691,5.482774254363e-09,-4.3908701751066e-09,-0.0015508566297795,0.0015508577137403,-3.8028379766455e-09,5.157369895184e-09,-0.0018572985819284,0.001857299907021,-0.001857295588437,0.0018573028111194,-0.0018573019267041,0.0018572966406067,-0.0018572989282672,0.0018572995584665,-0.0013893461272479,0.0013893405474234,-0.0013893363215371,0.0013893500807478,0.68191773082319,131329,3014,0.0042478569737187,0.0046575593670438,0.0064377367618162,21.944463300404,-6.4444293596769e-05,-6.4444293596769e-05,-6.4444293596769e-05,4359675.5336349,0.015463356150354
27419200,0.99414434320423,0.016101267642959,0.0046827363578481,0.0050073689810366,0.0064111623040745,-0.0010213607247431,0.0010213623972141,-4.0839877654477e-09,5.7258318764136e-09,-8.8376322674889e-09,1.0947694090872e-08,-0.001261707311971,0.0012616991291919,-0.001261704076092,0.0012617024086065,-0.0012617009515213,0.0012617056648506,-0.0012616976892271,0.0012617089435688,-0.0011486055284604,0.0011486041158652,-0.0011485959089049,0.0011486137066327,8.7244186473832e-09,-1.091179240739e-08,3.7374034110521e-09,-5.4518170787628e-09,-0.0011205038816513,0.0011205021452679,-0.0013592348834333,0.0013592427255385,-0.0013592378831823,0.0013592396667782,-0.0013592412069117,0.0013592362424552,-0.0013592441868915,0.0013592331886089,-0.0012494141041852,0.0012494148810304,-0.0012494229190231,0.0012494057004312,-0.001073004477894,0.0010730187110692,-0.0010730235807206,0.0010729990003373,5.5193143043249e-09,-4.427554141319e-09,-0.0015516904373196,0.0015516915212483,-3.802213636601e-09,5.1565657737788e-09,-0.0018582276203864,0.0018582289714384,-0.0018582246284449,0.0018582318739067,-0.001858230990554,0.0018582256797223,-0.0018582279915153,0.0018582285982286,-0.0013901687944006,0.0013901631448234,-0.0013901589199518,0.0013901727471003,0.70214878878732,131329,3014,0.0042505740625178,0.0046603590184213,0.0064411840147459,22.25257310874,-6.1979415130077e-05,-6.1979415130077e-05,-6.1979415130077e-05,4364798.458786,0.015472459572392
27619200,0.99432280236396,0.016104143353944,0.0046835717164757,0.0050082530557348,0.0064123185817336,-0.001021938774172,0.0010219404457663,-4.1209470620136e-09,5.7619142239462e-09,-8.8224138475188e-09,1.0931436121836e-08,-0.0012624192323746,0.0012624110337364,-0.0012624159709533,0.0012624143384981,-0.0012624128812912,0.0012624175600422,-0.0012624095956871,0.0012624208618576,-0.0011492382031896,0.0011492367112753,-0.0011492285157941,0.0011492463707479,8.7249094849242e-09,-1.091226232625e-08,3.7370823802119e-09,-5.4513783841382e-09,-0.0011211014881592,0.0011210997517547,-0.001359955170211,0.0013599630112498,-0.0013599581684922,0.0013599599537505,-0.0013599614928726,0.0013599565287668,-0.0013599644736135,0.0013599534739492,-0.0012500575319392,0.0012500583113267,-0.0012500663497906,0.0012500491286786,-0.0010736456983654,0.0010736599363654,-0.0010736648057826,0.0010736402212721,5.5616690657689e-09,-4.4702974026594e-09,-0.0015524489944623,0.001552450078134,-3.8021558931885e-09,5.1560956738459e-09,-0.0018590921547918,0.0018590935331948,-0.0018590891619606,0.0018590964367023,-0.001859095552178,0.0018590902140583,-0.0018590925544471,0.0018590931312498,-0.0013909336120064,0.0013909278752129,-0.0013909236512522,0.0013909375643804,0.71252807597304,131329,3014,0.0042529781091545,0.0046628405491768,0.0064443186259197,22.519517103098,-5.9843863175215e-05,-5.9843863175215e-05,-5.9843863175215e-05,4367006.2455598,0.015480606279449
27819200,0.99449862172672,0.016107024113724,0.0046844099450307,0.0050091395672834,0.0064134746014098,-0.0010225108444431,0.0010225125160387,-4.1643828743147e-09,5.8052927820551e-09,-8.8278358249693e-09,1.0936869098156e-08,-0.0012631408992439,0.0012631326693491,-0.0012631376102165,0.0012631360017779,-0.0012631345457811,0.001263139197935,-0.0012631312298882,0.0012631425301081,-0.0011498688445974,0.0011498672671813,-0.0011498590678014,0.001149877014975,8.7164281435015e-09,-1.0903207021229e-08,3.7364993337119e-09,-5.4504194437713e-09,-0.0011216927574189,0.0011216910215721,-0.001360682486701,0.0013606903233135,-0.0013606854858488,0.0013606872650236,-0.0013606888048416,0.0013606838454639,-0.0013606917837811,0.0013606807925349,-0.0012507024642727,0.0012507032441584,-0.0012507112761359,0.0012506940663866,-0.0010742904898644,0.0010743047073716,-0.0010743095759385,0.00107428501373,5.5974386635028e-09,-4.5058645438135e-09,-0.0015532049234646,0.0015532060071969,-3.8012604166624e-09,5.1554065753091e-09,-0.00185996084154,0.0018599622454618,-0.0018599578506034,0.0018599651470596,-0.0018599642640344,0.0018599589013137,-0.0018599612654701,0.0018599618193411,-0.001391705856665,0.0013917000536208,-0.0013916958295786,0.0013917098086296,0.72383356901503,131329,3014,0.0042553582501113,0.004665296552329,0.0064474414965132,22.785502747367,-5.7715978021066e-05,-5.7715978021066e-05,-5.7715978021066e-05,4368131.7781102,0.015488691775703
28019200,0.99467174505865,0.016109911696354,0.0046852516436316,0.0050100291200304,0.006414630932692,-0.0010230771094546,0.0010230787806964,-4.2014657819867e-09,5.8420058529666e-09,-8.8243800136008e-09,1.0933011728173e-08,-0.0012638742478158,0.0012638659945488,-0.0012638709332736,0.0012638693524807,-0.0012638678958593,0.0012638725215589,-0.0012638645563239,0.0012638758773639,-0.0011504974092974,0.0011504957597425,-0.0011504875630374,0.0011505055769002,8.7232781380311e-09,-1.0910363801807e-08,3.7352851606051e-09,-5.4494612269335e-09,-0.0011222779998529,0.0011222762637667,-0.0013614186106492,0.0013614264501725,-0.0013614216081492,0.0013614233935247,-0.0013614249326157,0.0013614199684494,-0.0013614279117758,0.0013614169153217,-0.0012513484252958,0.001251349200804,-0.0012513572377194,0.0012513400223989,-0.0010749402756509,0.0010749545101083,-0.0010749593782383,0.0010749347999144,5.6395483193171e-09,-4.5480740022847e-09,-0.0015539595001286,0.0015539605837497,-3.8003176114056e-09,5.154348863445e-09,-0.0018608354928512,0.0018608369245921,-0.0018608325016296,0.0018608398264864,-0.0018608389426224,0.0018608335531902,-0.0018608359456611,0.0018608364695496,-0.0013924878719985,0.0013924819828634,-0.0013924777595572,0.0013924918232037,0.73612510200482,131329,3014,0.0042577152515498,0.0046677283287445,0.0064505578014619,23.051454696445,-5.5588362428441e-05,-5.5588362428441e-05,-5.5588362428441e-05,4368182.6551629,0.01549672340589
28219200,0.99484144880072,0.016112796599683,0.0046860941122327,0.0050109188315907,0.0064157836558592,-0.0010235193643748,0.0010235210378345,-4.2479856419546e-09,5.8910177543925e-09,-8.8575152344602e-09,1.096890847017e-08,-0.0012644968335265,0.0012644885296135,-0.0012644934896614,0.0012644919168284,-0.0012644904609959,0.0012644950775035,-0.0012644870870989,0.0012644984678027,-0.001150999052421,0.001150997327388,-0.0011509891064694,0.0011510072466865,8.714040514992e-09,-1.089978810976e-08,3.7362954506004e-09,-5.448994650738e-09,-0.001122736174222,0.001122734439177,-0.0013620388715703,0.0013620467076473,-0.0013620418718779,0.0013620436484525,-0.0013620451895884,0.0013620402307498,-0.0013620481662379,0.0013620371799663,-0.0012518681440714,0.0012518689216455,-0.0012518769509036,0.0012518597508788,-0.0010754714809119,0.001075485690729,-0.0010754905582216,0.0010754660073253,5.6708525369947e-09,-4.5794544090466e-09,-0.0015545826938766,0.001554583777553,-3.7997109953197e-09,5.153626394163e-09,-0.0018615831007385,0.0018615845563941,-0.0018615801122474,0.0018615874550775,-0.0018615865738796,0.0018615811615553,-0.0018615835751764,0.0018615840805129,-0.001393150945169,0.0013931450011776,-0.0013931407780935,0.0013931548947083,0.74948917680546,131329,3014,0.004259558358628,0.0046696336749163,0.0064531295653,23.251196658761,-5.3990426729911e-05,-5.3990426729911e-05,-5.3990426729911e-05,4365973.2940095,0.015503146296742
28419200,0.99500764079094,0.01611567979093,0.0046869377513835,0.0050118090742496,0.0064169329652967,-0.0010239367858161,0.001023938459498,-4.2952135715855e-09,5.938157671124e-09,-8.8891203491221e-09,1.1000826013111e-08,-0.0012651117811876,0.0012651034269766,-0.0012651084072569,0.0012651068438994,-0.001265105389568,0.0012651099942646,-0.0012651019821655,0.0012651134174494,-0.0011514764390252,0.0011514746393967,-0.0011514663956216,0.0011514846546667,8.7118975460155e-09,-1.089769430473e-08,3.7361159537617e-09,-5.4490323783013e-09,-0.0011231686712724,0.0011231669362342,-0.0013626481820065,0.0013626560188907,-0.0013626511835932,0.0013626529575931,-0.0013626545000892,0.0013626495406555,-0.0013626574749847,0.0013626464914079,-0.0012523661740235,0.0012523669476832,-0.001252374975461,0.001252357781555,-0.0010759881545234,0.0010760023548106,-0.0010760072217356,0.0010759826796214,5.7024352840458e-09,-4.6116683741085e-09,-0.0015551841139987,0.0015551851970928,-3.7994079721945e-09,5.1526845527592e-09,-0.0018623149856219,0.0018623164643037,-0.0018623119996486,0.0018623193613959,-0.0018623184817224,0.0018623130464578,-0.0018623154814887,0.0018623159661212,-0.001393805650359,0.0013937996475484,-0.0013937954261038,0.0013938096002293,0.76402417242055,131329,3014,0.004261299304934,0.0046714332250681,0.0064556102439622,23.44180150103,-5.2465587991758e-05,-5.2465587991758e-05,-5.2465587991758e-05,4362546.7946676,0.015509266275335
28619200,0.99517032626764,0.016118521346612,0.0046877696904863,0.0050126866972828,0.0064180649588433,-0.0010243416974207,0.0010243433705081,-4.3251136451588e-09,5.9674661012421e-09,-8.8788406512481e-09,1.0989851996477e-08,-0.0012657344618742,0.0012657260919193,-0.0012657310656994,0.001265729531402,-0.0012657280745644,0.0012657326545508,-0.0012657246506278,0.0012657360946882,-0.0011519402505686,0.0011519383931988,-0.0011519301572305,0.0011519484578622,8.7510272878731e-09,-1.0939534937879e-08,3.7338527742716e-09,-5.4491680308339e-09,-0.0011235881400658,0.0011235864027573,-0.0013632620332973,0.0013632698918357,-0.0013632650315544,0.0013632668342955,-0.0013632683760308,0.0013632633891669,-0.0013632713532436,0.0013632603380309,-0.0012528534871479,0.0012528542368591,-0.0012528622942049,0.0012528450643282,-0.0010765025365436,0.0010765168232514,-0.0010765216919383,0.0010764970600591,5.7520452360252e-09,-4.660888284827e-09,-0.0015557786147898,0.0015557796981558,-3.7991318948931e-09,5.1527870003942e-09,-0.0018630476071655,0.0018630491164616,-0.0018630446181326,0.0018630520161674,-0.001863051133785,0.0018630456682514,-0.0018630481364812,0.0018630485849972,-0.001394467121077,0.0013944610136903,-0.001394456791483,0.001394471070786,0.76896080128306,131329,3014,0.0042629893038036,0.0046731794792118,0.0064580612221485,23.632183035423,-5.0942535716614e-05,-5.0942535716614e-05,-5.0942535716614e-05,4358112.0332106,0.015515251031912
28819200,0.9953295357493,0.016121228672593,0.0046885601396849,0.0050135212426958,0.0064191472902122,-0.001024737540584,0.0010247392134406,-4.3597131585203e-09,6.001836950001e-09,-8.8810994565078e-09,1.0991897875447e-08,-0.0012663529168711,0.001266344521074,-0.001266349496591,0.0012663479848145,-0.0012663465275429,0.001266351086929,-0.0012663430818155,0.0012663545489218,-0.0011523908051763,0.0011523888842172,-0.0011523806473889,0.0011523990131714,8.7716567717923e-09,-1.0969715917641e-08,3.7281226973381e-09,-5.4525176131482e-09,-0.0011239983489485,0.0011239966029371,-0.001363871212941,0.0013638790771034,-0.0013638742087917,0.0013638760216827,-0.0013638775712364,0.0013638725588614,-0.0013638805483787,0.0013638695074429,-0.001253325865241,0.0012533265902739,-0.0012533346735044,0.0012533174167874,-0.0010770088007512,0.0010770231318182,-0.0010770280088553,0.0010770033155569,5.7965905789603e-09,-4.7054597340821e-09,-0.0015563648269672,0.0015563659102406,-3.7986408953046e-09,5.1519965010434e-09,-0.0018637733044938,0.0018637748426934,-0.0018637703152265,0.001863777743327,-0.0018637768594851,0.001863771366064,-0.001863773864159,0.001863774281545,-0.0013951222285531,0.0013951160301478,-0.0013951118084804,0.001395126177899,0.74978435526365,131329,3014,0.0042646418077001,0.0046748873604649,0.0064604776461735,23.824781934463,-4.9401744524299e-05,-4.9401744524299e-05,-4.9401744524299e-05,4353759.3648465,0.015521123650656
29019200,0.99548641932079,0.016123751167207,0.0046892922678778,0.0050142956843009,0.0064201632150283,-0.001025347167236,0.0010253488355219,-4.4026875566232e-09,6.0403613350487e-09,-8.8844266554524e-09,1.0990553663483e-08,-0.001267159598587,0.0012671511699578,-0.0012671561514421,0.0012671546605257,-0.0012671532086756,0.0012671577365819,-0.0012671497354778,0.0012671612260976,-0.0011530576565999,0.0011530556497452,-0.001153047416613,0.0011530658588632,8.7694376108223e-09,-1.0970225910756e-08,3.7233021240523e-09,-5.4505435322172e-09,-0.0011246262600054,0.0011246245115269,-0.0013646762483888,0.0013646841070608,-0.0013646792423628,0.0013646810537099,-0.0013646826060647,0.0013646775897046,-0.0013646855805009,0.0013646745408118,-0.0012540077138911,0.0012540084278937,-0.0012540165130686,0.0012539992608862,-0.0010777177183962,0.00107773204588,-0.0010777369243516,0.0010777122336458,5.8351568736688e-09,-4.7436242125953e-09,-0.0015571767414818,0.0015571778248345,-3.7950509790623e-09,5.1488637260416e-09,-0.001864713717546,0.001864715283606,-0.0018647107307829,0.0018647181815151,-0.0018647172981757,0.0018647117808868,-0.0018647143049571,0.0018647146946749,-0.0013959792505607,0.0013959729766114,-0.0013959687565399,0.0013959831981697,0.71130254367789,131329,3014,0.0042671800954464,0.0046774967327648,0.0064638296114597,24.140769620816,-4.6873843033472e-05,-4.6873843033472e-05,-4.6873843033472e-05,4353885.6140606,0.015529759837311
29219200,0.99564092780026,0.016126175533217,0.0046899941185507,0.0050150386149264,0.0064211427997399,-0.0010259743253443,0.0010259759932078,-4.4425300627561e-09,6.0796882532265e-09,-8.8863960205838e-09,1.0992056281049e-08,-0.001267915299776,0.0012679068436478,-0.001267911826093,0.0012679103607262,-0.0012679089091329,0.0012679134114236,-0.0012679054094277,0.0012679169273354,-0.0011537361423129,0.0011537340600895,-0.0011537258262044,0.0011537443470685,8.7652949985631e-09,-1.0966901656693e-08,3.7195581490394e-09,-5.4475260553395e-09,-0.0011252707492272,0.0011252689997613,-0.001365438668213,0.0013654465212771,-0.0013654416598447,0.0013654434701372,-0.0013654450238177,0.0013654400063775,-0.0013654479961143,0.0013654369597579,-0.0012546842413664,0.0012546849518389,-0.0012546930353401,0.0012546757923491,-0.0010784075147914,0.0010784218366323,-0.0010784267134859,0.0010784020312606,5.8742100810319e-09,-4.7836380249067e-09,-0.0015579856817656,0.0015579867644553,-3.7921854525434e-09,5.1449403636035e-09,-0.0018656210265403,0.0018656226207793,-0.0018656180422813,0.0018656255166959,-0.0018656246337867,0.0018656190922062,-0.0018656216427935,0.0018656220036043,-0.0013967912885123,0.0013967849332678,-0.0013967807167019,0.0013967952329199,0.69516968082852,131329,3014,0.0042697876835701,0.0046801718574767,0.0064671728049838,24.459523793803,-4.4323809649579e-05,-4.4323809649579e-05,-4.4323809649579e-05,4358003.6709581,0.015538521066869
29419200,0.99579298857874,0.01612839902688,0.0046906322681618,0.0050157160687053,0.006422050690013,-0.0010266050331823,0.0010266067002181,-4.4827149842519e-09,6.1190185964174e-09,-8.8849497966767e-09,1.0989775620251e-08,-0.0012686422614008,0.0012686337791824,-0.0012686387612232,0.0012686373227482,-0.0012686358720735,0.0012686403457486,-0.0012686323458245,0.0012686438881979,-0.0011544121824813,0.0011544100204113,-0.0011544017885157,0.001154420385263,8.7641154310029e-09,-1.0966808626315e-08,3.7157395840942e-09,-5.4448028198141e-09,-0.0011259183667745,0.0011259166162305,-0.0013661765406708,0.0013661843900493,-0.0013661795301313,0.0013661813410697,-0.001366182895959,0.0013661778755374,-0.0013661858660396,0.0013661748311286,-0.001255352753407,0.001255353456763,-0.0012553615409374,0.0012553443037955,-0.0010790776900359,0.0010790920117366,-0.0010790968874512,0.0010790722076593,5.913400880074e-09,-4.8231525490592e-09,-0.0015587875823518,0.0015587886647179,-3.789041868166e-09,5.1414260229054e-09,-0.0018665081161016,0.0018665097385307,-0.0018665051341469,0.0018665126322505,-0.0018665117496501,0.0018665061837284,-0.0018665087608796,0.0018665090929507,-0.0013975733986316,0.0013975669637733,-0.0013975627497911,0.0013975773405101,0.65089858651839,131329,3014,0.0042724082463088,0.0046828585627677,0.0064704887557693,24.778374664066,-4.177300268747e-05,-4.177300268747e-05,-4.177300268747e-05,4363821.2265295,0.015547278412841
29619200,0.99594245018498,0.016130552229305,0.0046912492024498,0.005016371276031,0.0064229317508242,-0.0010272377466157,0.0010272394128997,-4.5226238421226e-09,6.1582112259919e-09,-8.8844602446322e-09,1.0988550892725e-08,-0.0012692892758101,0.0012692807670135,-0.0012692857492889,0.0012692843370127,-0.0012692828870877,0.0012692873330815,-0.0012692793345086,0.0012692909019321,-0.001155086261398,0.00115508402092,-0.0011550757905631,0.0011550944635503,8.7636496996844e-09,-1.0967190150867e-08,3.7124686727862e-09,-5.4422513857637e-09,-0.0011265668404965,0.0011265650890927,-0.0013668442961254,0.0013668521425642,-0.0013668472836868,0.0013668490955815,-0.0013668506514881,0.0013668456281472,-0.0013668536197112,0.0013668425857204,-0.0012560028456188,0.0012560035429059,-0.001256011627981,0.0012559943961902,-0.0010797077142591,0.0010797220370657,-0.0010797269114799,0.0010797022329531,5.9527557413982e-09,-4.8629256403127e-09,-0.0015595655819756,0.0015595666640576,-3.7863965131562e-09,5.138312451317e-09,-0.0018673350651258,0.0018673367157489,-0.0018673320851081,0.0018673396075757,-0.0018673387251212,0.0018673331346701,-0.00186733573828,0.0018673360419408,-0.0013982841487873,0.0013982776337628,-0.0013982734224866,0.0013982880882682,0.64191387304565,131329,3014,0.0042750331186917,0.0046855454871501,0.0064737099237138,25.08798474622,-3.9296122030242e-05,-3.9296122030242e-05,-3.9296122030242e-05,4373821.8913499,0.015555940595575
29819200,0.99608875952178,0.016132788258353,0.0046918944764937,0.0050170548090815,0.0064238389727782,-0.0010277840444709,0.0010277857101611,-4.5622108085914e-09,6.197074340868e-09,-8.8934974834037e-09,1.0997019953295e-08,-0.0012698238872785,0.0012698153456709,-0.0012698203340533,0.0012698189419443,-0.001269817492663,0.0012698219179558,-0.0012698139139803,0.0012698255123577,-0.0011556776310206,0.0011556753200774,-0.0011556670844846,0.0011556858389954,8.7645856394425e-09,-1.0968830341294e-08,3.7108565166307e-09,-5.44123576069e-09,-0.0011271265267867,0.0011271247746667,-0.0013674007566259,0.0013674086020871,-0.0013674037426793,0.0013674055559953,-0.0013674071123197,0.0013674020866377,-0.0013674100797633,0.0013673990445135,-0.0012565677922755,0.0012565684867355,-0.0012565765736379,0.001256559342027,-0.0010802390801539,0.0010802534068581,-0.0010802582810227,0.0010802335989649,5.9921840137739e-09,-4.9032589828626e-09,-0.0015602389312341,0.0015602400126028,-3.7852477599263e-09,5.1362289927593e-09,-0.0018680452757451,0.0018680469531697,-0.0018680422967412,0.0018680498445136,-0.0018680489618352,0.0018680433456157,-0.0018680459763681,0.0018680462514215,-0.001398879543337,0.0013988729475121,-0.0013988687387268,0.0013988834817549,0.67837704751498,131329,3014,0.0042772983465967,0.0046878636304127,0.0064764990655338,25.340158406478,-3.7278732748178e-05,-3.7278732748178e-05,-3.7278732748178e-05,4383261.5806934,0.015563423810503
30019200,0.99623188813358,0.016135010750154,0.0046925366962198,0.0050177348023624,0.0064247392515723,-0.0010283178667082,0.001028319532068,-4.6020896586729e-09,6.2367214126184e-09,-8.8941887762852e-09,1.0997458715832e-08,-0.0012704136639318,0.001270405095183,-0.0012704100846025,0.0012704087178528,-0.0012704072689793,0.0012704116676733,-0.0012704036637388,0.0012704152890452,-0.0011562662122009,0.0011562638226402,-0.0011562555869577,0.001156274419665,8.7720221667817e-09,-1.097785613979e-08,3.7086923154776e-09,-5.4406335029924e-09,-0.0011276743170229,0.0011276725635232,-0.0013680038436797,0.0013680116925193,-0.001368006829271,0.0013680086473483,-0.0013680102053084,0.0013680051717844,-0.0013680131717031,0.0013680021310161,-0.001257150804853,0.0012571514885957,-0.001257159582192,0.0012571423469291,-0.0010807918905686,0.0010808062319568,-0.0010808111069044,0.0010807864089374,6.0317811273446e-09,-4.9423655107145e-09,-0.001560916798746,0.0015609178804322,-3.7839286956346e-09,5.1354071322196e-09,-0.001868790611305,0.0018687923160795,-0.0018687876331289,0.0018687952063084,-0.0018687943240622,0.0018687886822232,-0.0018687913391315,0.0018687915876922,-0.0013995169891448,0.0013995103164697,-0.0013995061074162,0.0013995209265107,0.688730913668,131329,3014,0.0042795153487236,0.0046901356768783,0.0064793034500566,25.591040571166,-3.5271675430672e-05,-3.5271675430672e-05,-3.5271675430672e-05,4388192.5265,0.015570830543331
30219200,0.99637182203486,0.016137086974508,0.0046931332037598,0.0050183676449655,0.006425586125783,-0.0010288421304357,0.0010288437953574,-4.6417772834785e-09,6.2759453990584e-09,-8.8985998729998e-09,1.1001470804266e-08,-0.0012710154116603,0.001271006813274,-0.0012710118059385,0.0012710104623471,-0.0012710090138412,0.0012710133886935,-0.001271005382386,0.00127101703629,-0.0011568481855409,0.0011568457213406,-0.0011568374831177,0.0011568563950932,8.7744719268254e-09,-1.0981508978385e-08,3.7070515687065e-09,-5.4402173190807e-09,-0.0011282124166718,0.001128210662058,-0.0013686158660727,0.001368623715091,-0.0013686188508902,0.0013686206707132,-0.0013686222296591,0.0013686171924341,-0.0013686251954588,0.0013686141522799,-0.0012577278511148,0.0012577285297564,-0.0012577366264711,0.0012577193896362,-0.0010813430901969,0.0010813574372624,-0.0010813623127557,0.0010813376080828,6.0714275341153e-09,-4.9820209757378e-09,-0.0015615887934999,0.0015615898751105,-3.7828740693527e-09,5.1343299935078e-09,-0.0018695407984549,0.001869542530152,-0.0018695378209386,0.0018695454197835,-0.0018695445375792,0.0018695388699651,-0.0018695415534825,0.0018695417746605,-0.0014001577436627,0.0014001509923985,-0.0014001467839076,0.0014001616803455,0.66008313942692,131329,3014,0.0042816937288588,0.0046923684386549,0.006482082591578,25.841877504221,-3.3264979966229e-05,-3.3264979966229e-05,-3.3264979966229e-05,4391911.1328883,0.015578133779529
30419200,0.9965088459485,0.016139005396327,0.0046936803704863,0.0050189495711152,0.0064263754547259,-0.0010294359902152,0.0010294376544907,-4.6818205115383e-09,6.3153926823827e-09,-8.8936946543214e-09,1.0995930688512e-08,-0.0012716391120224,0.0012716304900476,-0.001271635480142,0.0012716341655858,-0.0012716327176781,0.0012716370618296,-0.0012716290597367,0.0012716407362971,-0.0011574959812915,0.0011574934344624,-0.0011574852001217,0.0011575041858462,8.7763481037089e-09,-1.098464586282e-08,3.7047281634299e-09,-5.4392504174989e-09,-0.0011288211932686,0.00112881943755,-0.001369256872957,0.0013692647216437,-0.0013692598570755,0.0013692616784188,-0.0013692632385903,0.0013692581975015,-0.0013692662032708,0.0013692551588095,-0.0012583614437958,0.0012583621153053,-0.0012583702146367,0.001258352978288,-0.0010819400100478,0.0010819543611878,-0.0010819592369526,0.0010819345278907,6.1110505128369e-09,-5.0211426071282e-09,-0.0015623210397343,0.0015623221216189,-3.7813684286431e-09,5.1333420179838e-09,-0.0018703304078501,0.0018703321668552,-0.0018703274312191,0.0018703350553448,-0.001870334173559,0.0018703284804033,-0.0018703311901716,0.0018703313845359,-0.0014008287414143,0.0014008219131242,-0.0014008177044081,0.0014008326772204,0.62526528707626,131329,3014,0.0042841585427445,0.0046948922238547,0.0064851135082723,26.129876950817,-3.0960984393468e-05,-3.0960984393468e-05,-3.0960984393468e-05,4399384.3942997,0.015586276970413
30619200,0.99664375424597,0.016141017384236,0.004694258936248,0.0050195631053492,0.0064271953426385,-0.0010302368689336,0.0010302385319998,-4.7218950881698e-09,6.3541949310595e-09,-8.8845330347614e-09,1.0985421124661e-08,-0.0012724114964133,0.0012724028534251,-0.0012724078379346,0.001272406555273,-0.0012724051086108,0.0012724094188244,-0.0012724014243312,0.0012724131192626,-0.0011583613464185,0.0011583587152173,-0.0011583504887308,0.0011583695438279,8.761808255017e-09,-1.0969772949999e-08,3.7016511174017e-09,-5.4358772890443e-09,-0.0011296412152622,0.0011296394597365,-0.0013700582656833,0.0013700661024833,-0.0013700612473164,0.0013700630613401,-0.0013700646213004,0.0013700595879993,-0.0013700675838491,0.0013700565511461,-0.001259204821315,0.0012592054972858,-0.0012592135868259,0.0012591963666388,-0.0010827243828118,0.0010827387079901,-0.0010827435813601,0.0010827189030983,6.1503719974161e-09,-5.0612065838483e-09,-0.0015632636196408,0.0015632647009596,-3.7782860168675e-09,5.1294741218807e-09,-0.0018713036264627,0.0018713054137357,-0.0018713006521892,0.0018713083002369,-0.0018713074183909,0.0018713017008538,-0.0018713044374453,0.00187130460247,-0.0014016760976066,0.0014016691881501,-0.0014016649829035,0.001401680030914,0.66318231534873,131329,3014,0.0042874797539399,0.0046982898302416,0.0064890176220498,26.524257519052,-2.7805939847582e-05,-2.7805939847582e-05,-2.7805939847582e-05,4412254.1950564,0.015597061664911
30819200,0.99677646598224,0.01614308914279,0.0046948574949783,0.0050201968490179,0.0064280347987938,-0.0010310327953295,0.001031034457488,-4.7618193865099e-09,6.3932383107228e-09,-8.8746336070645e-09,1.0974539336268e-08,-0.0012732558278693,0.0012732471644843,-0.0012732521429875,0.0012732508927142,-0.0012732494469264,0.0012732537230445,-0.0012732457363736,0.001273257449742,-0.0011592328525506,0.0011592301365091,-0.0011592219178969,0.0011592410422889,8.7507274431126e-09,-1.0958697513436e-08,3.6988977400986e-09,-5.4332256434276e-09,-0.0011304571439982,0.0011304553883409,-0.0013709225932719,0.0013709304206578,-0.0013709255730352,0.0013709273813838,-0.0013709289415324,0.0013709239136474,-0.0013709319023345,0.0013709208785329,-0.0012600750231417,0.0012600757013706,-0.0012600837836827,0.0012600665759634,-0.0010835424193408,0.0010835567247146,-0.0010835615963539,0.0010835369414309,6.1898671516898e-09,-5.1010067843913e-09,-0.0015642250859773,0.0015642261670189,-3.7757229872251e-09,5.1265646027939e-09,-0.0018723304518882,0.0018723322671123,-0.0018723274794102,0.0018723351518796,-0.0018723342701994,0.0018723285278689,-0.0018723312911702,0.001872331427627,-0.0014025844330511,0.0014025774435114,-0.0014025732404824,0.0014025883641922,0.69236329460414,131329,3014,0.0042907843806446,0.0047016740178531,0.0064929959642912,26.921037998857,-2.4631696009141e-05,-2.4631696009141e-05,-2.4631696009141e-05,4420129.9747248,0.015607895477576
31019200,0.99690688448267,0.016145186797492,0.0046954652553679,0.0050208397304275,0.0064288818116969,-0.0010318169618613,0.0010318186231211,-4.801822217098e-09,6.4323447885762e-09,-8.8657349715294e-09,1.0964647701422e-08,-0.0012741458616358,0.0012741371772199,-0.0012741421503561,0.0012741409318449,-0.0012741394869335,0.0012741437295573,-0.0012741357500276,0.0012741474826068,-0.0011601014599355,0.0011600986594473,-0.001160090447923,0.001160109642513,8.7413887637239e-09,-1.0949611153956e-08,3.6963666521523e-09,-5.431054708726e-09,-0.0011312621374378,0.0011312603814404,-0.0013718251333009,0.001371832952582,-0.001371828111472,0.0013718299149014,-0.0013718314754599,0.0013718264517655,-0.0013718344347106,0.001371823418204,-0.0012609561831818,0.0012609568626527,-0.0012609649391455,0.0012609477417551,-0.0010843790985686,0.0010843933871368,-0.0010843982575667,0.0010843736219938,6.2293396947719e-09,-5.1406829575467e-09,-0.0015651924769311,0.0015651935577669,-3.773500239452e-09,5.1241082638922e-09,-0.0018733885494685,0.001873390392417,-0.0018733855785759,0.001873393275671,-0.0018733923941635,0.0018733866268215,-0.0018733894167379,0.0018733895250158,-0.0014035326787001,0.0014035256098062,-0.0014035214085221,0.0014035366081187,0.71215833408196,131329,3014,0.0042940431250291,0.0047050152970723,0.006496995959588,27.317902609154,-2.1456779126768e-05,-2.1456779126768e-05,-2.1456779126768e-05,4424418.283216,0.015618664067809
31219200,0.99703603976332,0.0161473673093,0.0046961000834578,0.0050215101406759,0.0064297570851667,-0.0010328602040972,0.0010328618651232,-4.8424082771629e-09,6.4728397135428e-09,-8.883082224318e-09,1.0981939068476e-08,-0.001275343691082,0.0012753349675206,-0.001275339953184,0.0012753387482901,-0.0012753373049558,0.0012753415313345,-0.0012753335403784,0.0012753453115336,-0.0011612456056235,0.0011612427337863,-0.0011612345105387,0.0011612537970086,8.6838475732241e-09,-1.0889916972791e-08,3.6947581888748e-09,-5.4279817370108e-09,-0.0011323329145118,0.0011323311603693,-0.0013730350223549,0.0013730428030164,-0.0013730379991968,0.0013730397660719,-0.001373041324989,0.0013730363404746,-0.0013730442817709,0.0013730333085959,-0.0012621247792686,0.0012621254912854,-0.0012621335270852,0.0012621163752753,-0.0010855128493373,0.0010855270239356,-0.0010855318913711,0.0010855073762496,6.2677945530023e-09,-5.1794269080633e-09,-0.0015664632553163,0.0015664643355052,-3.7661900447146e-09,5.1165106825225e-09,-0.0018747709041581,0.0018747727775997,-0.0018747679388327,0.0018747756553632,-0.0018747747744595,0.0018747689847208,-0.001874771801742,0.0018747718785799,-0.0014048091126846,0.0014048019652725,-0.0014047977696711,0.0014048130378203,0.74546030998246,131329,3014,0.0042983794289274,0.0047094607005017,0.006502249040711,27.867604821274,-1.7059161429808e-05,-1.7059161429808e-05,-1.7059161429808e-05,4429261.3174646,0.015632923288281
31419200,0.99716388462063,0.016149423879762,0.0046966952766572,0.0050221399738787,0.0064305886292265,-0.0010339068131731,0.0010339084698399,-4.8817441873013e-09,6.5077423971722e-09,-8.7880993996546e-09,1.088162382945e-08,-0.0012766128608622,0.0012766041731817,-0.001276609097024,0.0012766079803862,-0.0012766065390084,0.0012766106722939,-0.0012766027511633,0.0012766144763268,-0.0011623901669834,0.0011623871587509,-0.0011623790048622,0.0011623982911252,8.7450384466593e-09,-1.0955935230058e-08,3.6825620128171e-09,-5.4199807876725e-09,-0.0011334094550546,0.0011334076965094,-0.0013743088366181,0.0013743166480724,-0.0013743118056772,0.0013743136195606,-0.0013743151817431,0.001374310144161,-0.0013743181334738,0.001374307118157,-0.0012633079801415,0.0012633086309615,-0.0012633167136324,0.0012632995318382,-0.0010866837508283,0.0010866980569943,-0.0010867029217851,0.0010866782798491,6.3097706572494e-09,-5.2215447562154e-09,-0.0015677653298854,0.001567766410162,-3.7677196655152e-09,5.1178168176798e-09,-0.0018762157527726,0.001876217652037,-0.0018762127851042,0.001876220532194,-0.0018762196504173,0.0018762138333876,-0.0018762166776998,0.0018762167267168,-0.0014061523720856,0.0014061451386049,-0.0014061409418203,0.001406156297339,0.71242631518306,131329,3014,0.0043027327234074,0.0047139323971933,0.0065076285150271,28.435735617425,-1.2514115060597e-05,-1.2514115060597e-05,-1.2514115060597e-05,4431243.8177176,0.015647357824887
31619200,0.99729023212641,0.01615135982127,0.0046972523866707,0.0050227305846288,0.0064313768499704,-0.0010349534060184,0.0010349550647776,-4.9223803703056e-09,6.5504275588168e-09,-8.8361380745178e-09,1.0932194597753e-08,-0.00127782443877,0.0012778156929926,-0.0012778206481409,0.0012778195269174,-0.0012778180848539,0.0012778222246782,-0.0012778142680417,0.0012778260575949,-0.0011635242970359,0.0011635212381067,-0.0011635130501308,0.0011635324551496,8.671540437422e-09,-1.0878515190746e-08,3.6850805622945e-09,-5.4192981671354e-09,-0.0011344850352958,0.001134483279913,-0.0013755313500894,0.0013755391149874,-0.0013755343208907,0.0013755360846477,-0.0013755376452817,0.0013755326615071,-0.0013755405965532,0.0013755296358751,-0.0012644639862487,0.0012644646895038,-0.0012644727184493,0.001264455591583,-0.0010878262419018,0.0010878403988496,-0.0010878452612965,0.001087820774113,6.3469580784345e-09,-5.2593785967117e-09,-0.0015690523188466,0.0015690533984568,-3.7597871174079e-09,5.1091503412877e-09,-0.0018776201743094,0.0018776221046564,-0.0018776172134896,0.0018776249779909,-0.0018776240979575,0.0018776182599426,-0.0018776211300625,0.0018776211489481,-0.0014074480800478,0.001407440769998,-0.0014074365789952,0.0014074519987828,0.68057768320159,131329,3014,0.0043070830915842,0.0047183973253093,0.0065129483599595,29.00432414543,-7.96540683656e-06,-7.96540683656e-06,-7.96540683656e-06,4437261.5223113,0.015661718876037
31819200,0.99741275895609,0.016153170910348,0.0046977712362985,0.0050232814022677,0.0064321182717815,-0.0010354693009145,0.0010354709595855,-4.9601458642428e-09,6.5881644598628e-09,-8.8417880725613e-09,1.0937874625468e-08,-0.0012784204932296,0.001278411717519,-0.0012784166763581,0.0012784155778503,-0.0012784141346771,0.0012784182538743,-0.0012784102939373,0.0012784221108717,-0.0011640955470004,0.0011640924230847,-0.0011640842307575,0.0011641037114492,8.7126597037403e-09,-1.0922847002838e-08,3.6862138101966e-09,-5.4230893764167e-09,-0.0011350167995258,0.0011350150411526,-0.0013761367042101,0.0013761444955545,-0.0013761396755478,0.0013761414648704,-0.0013761430273737,0.0013761380140377,-0.0013761459815736,0.0013761349857625,-0.0012650312349241,0.0012650319159247,-0.0012650399763327,0.0012650228111204,-0.0010883789147794,0.0010883931554909,-0.0010883980215479,0.001088373441949,6.3883779293806e-09,-5.3007517745542e-09,-0.0015697291686681,0.0015697302486282,-3.7656785100476e-09,5.1150711706751e-09,-0.0018783738621677,0.0018783758156398,-0.0018783708961313,0.0018783786941953,-0.0018783778124278,0.0018783719446714,-0.0018783748414863,0.0018783748363125,-0.0014080984389662,0.0014080910478933,-0.0014080868540212,0.0014081023618637,0.65805654580151,131329,3014,0.0043092270046483,0.0047206035956236,0.0065157471709442,29.266187707631,-5.8704983389484e-06,-5.8704983389484e-06,-5.8704983389484e-06,4441345.5645979,0.015668980720002
32019200,0.99752985250969,0.016155069593463,0.0046983213417328,0.0050238630710859,0.006432885180644,-0.0010355709013735,0.0010355725614288,-5.0002845881499e-09,6.6296526404273e-09,-8.8806714729354e-09,1.097858463104e-08,-0.0012785276894167,0.0012785188618307,-0.0012785238459774,0.0012785227484378,-0.0012785213051443,0.0012785254243135,-0.0012785174362523,0.0012785293091475,-0.0011642339974215,0.0011642308184688,-0.0011642225985594,0.0011642421889048,8.7689880593746e-09,-1.0982950511814e-08,3.6943535922152e-09,-5.4344453270604e-09,-0.0011351235513053,0.0011351217897928,-0.0013762515608962,0.0013762593950281,-0.0013762545393008,0.0013762563569107,-0.0013762579231185,0.0013762528740008,-0.0013762608827396,0.0013762498398,-0.0012651497092359,0.0012651503647642,-0.0012651584672232,0.0012651412425889,-0.0010884758224226,0.0010884901652249,-0.0010884950414274,0.0010884703396373,6.4270608430559e-09,-5.3385724624523e-09,-0.0015699236356021,0.0015699247163394,-3.7755906530031e-09,5.1259683108044e-09,-0.0018786068818042,0.0018786088552451,-0.0018786039097615,0.0018786117400145,-0.0018786108582414,0.0018786049578292,-0.0018786078796955,0.0018786078573622,-0.0014082459797276,0.0014082385240559,-0.0014082343220774,0.0014082499105586,0.71766340321581,131329,3014,0.0043096482310886,0.0047210447715034,0.0065165529992757,29.281031875242,-5.7517449980602e-06,-5.7517449980602e-06,-5.7517449980602e-06,4443254.1949151,0.015670673147292
32219200,0.99764171265245,0.01615692533165,0.0046988601356542,0.0050244323700002,0.0064336328259951,-0.0010356421822798,0.0010356438442858,-5.0382832640224e-09,6.669542994275e-09,-8.9356723685781e-09,1.1035993255099e-08,-0.0012787063239491,0.0012786974346865,-0.001278702454301,0.0012787013476412,-0.0012786999021377,0.0012787040349082,-0.0012786960076591,0.0012787079454733,-0.0011643503818797,0.0011643471668347,-0.0011643389076119,0.0011643586124785,8.7987709528793e-09,-1.1015251170936e-08,3.7041188975972e-09,-5.4463832068515e-09,-0.001135199611913,0.0011351978482848,-0.0013764244126962,0.0013764322724004,-0.0013764273980506,0.0013764292274294,-0.0013764307953215,0.0013764257309749,-0.0013764337625252,0.0013764226893197,-0.0012652721410839,0.0012652727957656,-0.0012652809209575,0.0012652636513931,-0.0010885918325159,0.0010886062274217,-0.0010886111131581,0.0010885863400909,6.4676234883655e-09,-5.3782484285552e-09,-0.0015701104443641,0.0015701115259875,-3.7839520736263e-09,5.1352976164181e-09,-0.0018788749201175,0.0018788769149721,-0.00187887194181,0.0018788798058865,-0.0018788789230513,0.001878872991208,-0.001878875938936,0.0018788758963297,-0.001408448591469,0.0014084410630033,-0.0014084368540056,0.0014084525288156,0.73340853512684,131329,3014,0.0043099488291238,0.0047213633510424,0.0065173219604553,29.290225323091,-5.6781974152684e-06,-5.6781974152684e-06,-5.6781974152684e-06,4438354.3495102,0.015672086508111
32419200,0.99774856874971,0.01615874353713,0.0046993894943771,0.0050249911385982,0.0064343629041545,-0.0010357004089321,0.0010357020716952,-5.0780642196238e-09,6.7100440407605e-09,-8.9643825971474e-09,1.106571682577e-08,-0.0012788990135014,0.001278890079123,-0.0012788951173934,0.0012788940185455,-0.0012788925727203,0.0012788966984979,-0.0012788886511489,0.0012789006361538,-0.0011644523593343,0.0011644490851962,-0.0011644408055631,0.0011644606102269,8.8424051524557e-09,-1.106209662935e-08,3.7114860477367e-09,-5.4565242624293e-09,-0.0011352624506356,0.0011352606842529,-0.0013766064801434,0.0013766143734912,-0.0013766094715879,0.0013766113223838,-0.0013766128932064,0.0013766078014321,-0.001376615865872,0.0013766047542711,-0.0012653838826759,0.0012653845206754,-0.0012653926787044,0.0012653753599894,-0.0010887125295098,0.0010887270037166,-0.0010887318980653,0.0010887070281213,6.5069560396066e-09,-5.416749257499e-09,-0.0015702890418515,0.0015702901242956,-3.7934563344247e-09,5.1457099640633e-09,-0.0018791449101004,0.0018791469253498,-0.0018791419254713,0.0018791498226362,-0.0018791489393257,0.0018791429753705,-0.0018791459482103,0.0018791458874417,-0.0014086625079133,0.0014086549116307,-0.0014086506950883,0.0014086664527509,0.75109427155351,131329,3014,0.0043101965548065,0.0047216281055678,0.0065180555624977,29.2992197888,-5.6062416896029e-06,-5.6062416896029e-06,-5.6062416896029e-06,4432201.3823621,0.015673356652735
32619200,0.99785038088052,0.016160342492962,0.0046998508688291,0.0050254795848088,0.0064350120393242,-0.001035656419209,0.0010356580838639,-5.1173094654144e-09,6.7511536625957e-09,-9.0139374019586e-09,1.1117622515705e-08,-0.0012790172438432,0.0012790082505786,-0.0012790133207712,0.0012790122167147,-0.0012790107694125,0.0012790149041351,-0.0012790068209452,0.001279018868426,-0.001164441842003,0.0011644385253753,-0.0011644302102885,0.001164450129595,8.8519266025965e-09,-1.1072241661888e-08,3.7218507978934e-09,-5.4673143276977e-09,-0.0011352200385669,0.0011352182715166,-0.0013767073468586,0.0013767152527535,-0.0013767103451361,0.0013767121944867,-0.0013767137661791,0.0013767086743231,-0.0013767167457458,0.0013767056199242,-0.0012653852474137,0.0012653858999306,-0.001265394064961,0.00126537671902,-0.0010887397178012,0.0010887542042664,-0.0010887591061349,0.0010887342089007,6.5459278167515e-09,-5.4555143543695e-09,-0.0015703621430274,0.0015703632258431,-3.8006641882591e-09,5.1531424841226e-09,-0.0018793200025987,0.0018793220394039,-0.0018793170131619,0.0018793249416982,-0.0018793240576804,0.0018793180634792,-0.0018793210618578,0.0018793209804677,-0.0014087884320837,0.0014087807645437,-0.0014087765430972,0.001408792381956,0.696538879962,131329,3014,0.0043100214144167,0.0047214573137656,0.0065183511683015,29.262857470413,-5.8971402366931e-06,-5.8971402366931e-06,-5.8971402366931e-06,4424034.3199576,0.015673311099338
32819200,0.99794727477756,0.016161743335245,0.0047002512889363,0.0050259047721455,0.0064355872741628,-0.0010355852332945,0.0010355868983422,-5.156485566729e-09,6.7907733766524e-09,-9.0315626655189e-09,1.1135867886527e-08,-0.0012790062558167,0.0012789972249012,-0.0012790023066625,0.0012790012175145,-0.0012789997695981,0.0012790038901613,-0.0012789957950962,0.0012790078808904,-0.0011643890082616,0.0011643856270983,-0.0011643772995043,0.0011643973080262,8.8734103386769e-09,-1.1095636524288e-08,3.7288639988632e-09,-5.4760927470321e-09,-0.0011351478257128,0.0011351460569647,-0.0013766897040313,0.0013766976287725,-0.0013766927077374,0.0013766945655222,-0.0013766961387842,0.001376691035205,-0.0013766991238252,0.0013766879757726,-0.0012653187449927,0.0012653193959524,-0.0012653275777376,0.0012653101994362,-0.0010886866183876,0.001088701141939,-0.0010887060503916,0.0010886811021404,6.5860872385557e-09,-5.4946753319109e-09,-0.0015703685323105,0.0015703696160836,-3.8081133802796e-09,5.161659275764e-09,-0.0018793811464436,0.001879383205215,-0.0018793781514639,0.0018793861127914,-0.0018793852281219,0.0018793792030598,-0.0018793822268796,0.0018793821253487,-0.0014087912662477,0.0014087835269952,-0.0014087792991261,0.0014087952220419,0.64446137040976,131329,3014,0.0043097282932043,0.0047211585096422,0.0065183757301012,29.204354147548,-6.3651668196144e-06,-6.3651668196144e-06,-6.3651668196144e-06,4421632.4995071,0.015672735231495
33019200,0.99803949902211,0.016163189688075,0.0047006692291168,0.0050263468360331,0.0064361736229255,-0.001035546097409,0.001035547762065,-5.1957579396909e-09,6.829592529401e-09,-9.0317759280039e-09,1.1135686345397e-08,-0.0012789195771812,0.0012789105197567,-0.001278915601871,0.0012789145383885,-0.0012789130908839,0.0012789171851167,-0.0012789090903298,0.0012789212017382,-0.001164362806679,0.0011643593487016,-0.0011643510214302,0.0011643711057847,8.8960967649431e-09,-1.1120407790504e-08,3.7338706555792e-09,-5.4829046803413e-09,-0.0011351067964742,0.0011351050260416,-0.0013766092206331,0.0013766171634991,-0.0013766122281065,0.0013766140962736,-0.001376615670941,0.0013766105540256,-0.0013766186598701,0.0013766074905186,-0.0012652590248834,0.0012652596698184,-0.0012652678691827,0.0012652504613699,-0.0010886146530782,0.0010886292175027,-0.001088634131978,0.0010886091308838,6.6264437788676e-09,-5.5343488459711e-09,-0.0015703707788791,0.0015703718633037,-3.8155672408046e-09,5.1699066249896e-09,-0.0018793865070717,0.001879388587802,-0.001879383506836,0.0018793915007287,-0.0018793906153095,0.0018793845589184,-0.0018793876088415,0.0018793874863778,-0.0014087360413586,0.0014087282296114,-0.00140872399583,0.0014087400033611,0.69524136834144,131329,3014,0.0043095628478891,0.0047209847349057,0.0065183884471305,29.145339254239,-6.8372859660885e-06,-6.8372859660885e-06,-6.8372859660885e-06,4424829.5855477,0.015672399232409
33219200,0.99812729169318,0.016164637966227,0.0047010899845242,0.0050267910735823,0.0064367569081206,-0.0010354948565375,0.0010354965210174,-5.2354018331854e-09,6.8690482842312e-09,-9.0359459235546e-09,1.1139721566859e-08,-0.0012789096388167,0.0012789005520937,-0.0012789056371283,0.0012789045971158,-0.0012789031498159,0.0012789072202323,-0.0012788991228808,0.0012789112632232,-0.001164334929386,0.0011643313964932,-0.0011643230665219,0.001164343230733,8.9002637322126e-09,-1.1125086786463e-08,3.7394127306164e-09,-5.4889516475958e-09,-0.001135053863731,0.0011350520928288,-0.0013765945711927,0.0013766025203616,-0.0013765975824999,0.0013765994492722,-0.0013766010244418,0.0013765959079668,-0.0013766040172036,0.0013765928405752,-0.0012652215531374,0.0012652222058857,-0.0012652304085343,0.0012652129857821,-0.0010885738053333,0.0010885883740751,-0.001088593292884,0.0010885682788271,6.6662582752091e-09,-5.5735534714144e-09,-0.001570381214324,0.0015703822993006,-3.8210201516337e-09,5.1760300840986e-09,-0.0018794394990999,0.0018794416027775,-0.0018794364950107,0.0018794445195906,-0.0018794436336675,0.001879437547567,-0.0018794406233813,0.0018794404789173,-0.0014087401313304,0.001408732246742,-0.0014087280084152,0.0014087440979895,0.72922792140619,131329,3014,0.0043093517544965,0.004720765834117,0.0065184305127069,29.086306315722,-7.3095494742199e-06,-7.3095494742199e-06,-7.3095494742199e-06,4422206.3315177,0.015672005759619
33419200,0.99821223286722,0.016166066839264,0.0047015059279123,0.0050272299319887,0.0064373309793634,-0.0010359289475062,0.0010359306090997,-5.2715981854117e-09,6.9025313370528e-09,-8.9643182713772e-09,1.1064619098011e-08,-0.0012794674739127,0.0012794584086208,-0.0012794634479151,0.0012794624782227,-0.0012794610321166,0.0012794650289891,-0.0012794569835681,0.0012794690941322,-0.0011648216380452,0.0011648179878825,-0.0011648097104859,0.0011648298865406,8.9016571537261e-09,-1.1127619400059e-08,3.7350989460985e-09,-5.4857435040338e-09,-0.0011354979870957,0.0011354962153077,-0.0013771484165692,0.0013771563623817,-0.0013771514243399,0.0013771532954641,-0.0013771548703064,0.0013771497505906,-0.0013771578618946,0.0013771466846157,-0.0012657183394167,0.0012657189856607,-0.0012657271905254,0.0012657097686363,-0.0010890729670268,0.0010890875449996,-0.0010890924633527,0.0010890674432034,6.7109444251368e-09,-5.6172999246373e-09,-0.0015709412238352,0.0015709423095151,-3.8217221391002e-09,5.1776933149057e-09,-0.0018800804224485,0.0018800825538923,-0.0018800774159422,0.0018800854725069,-0.001880084585378,0.0018800784705513,-0.0018800815758145,0.0018800814017643,-0.001409328276485,0.0014093203033844,-0.0014093160624558,0.0014093322438194,0.74278653964374,131329,3014,0.0043111587066638,0.0047226114623187,0.006520743057845,29.312152910828,-5.502776713376e-06,-5.502776713376e-06,-5.502776713376e-06,4421115.5817377,0.015678068605598
33619200,0.99829471515543,0.016167454809062,0.004701909921225,0.0050276561801806,0.0064378887076562,-0.0010364815555505,0.0010364832197049,-5.3228015078912e-09,6.9562591737043e-09,-9.0172924650814e-09,1.1120549216502e-08,-0.0012801781076529,0.0012801689764521,-0.0012801740504064,0.0012801730782923,-0.0012801716324059,0.0012801756303536,-0.0012801675457269,0.001280179734509,-0.0011654292079864,0.0011654254844865,-0.001165417167872,0.001165437494911,8.7579076341351e-09,-1.0975971966083e-08,3.7404759768068e-09,-5.4848878142868e-09,-0.0011360641775464,0.0011360624122359,-0.0013778532234903,0.0013778610812942,-0.0013778562368009,0.0013778580099178,-0.0013778595821581,0.0013778545663005,-0.0013778625725613,0.0013778515027427,-0.0012663421795439,0.0012663429254933,-0.0012663510247458,0.0012663337137524,-0.0010897108023082,0.0010897250848519,-0.0010897299981278,0.0010897052841775,6.7375406277587e-09,-5.6439921633842e-09,-0.0015716484699072,0.0015716495554254,-3.8117944338848e-09,5.1675344413111e-09,-0.0018808834354212,0.0018808855945427,-0.0018808804390161,0.0018808885026378,-0.0018808876197294,0.0018808814908458,-0.0018808846136261,0.0018808844186998,-0.0014100804108668,0.001410072388226,-0.0014100681533275,0.0014100843704938,0.74303043589276,131329,3014,0.0043134589753049,0.0047249643406522,0.0065236634306962,29.614032798678,-3.0877376105761e-06,-3.0877376105761e-06,-3.0877376105761e-06,4420559.2500182,0.015685766284746
33819200,0.99837474842774,0.0161688057172,0.0047023032281414,0.0050280710840826,0.0064384314049762,-0.0010370267843091,0.0010370284433269,-5.3583944320224e-09,6.9866977755906e-09,-8.9223666893516e-09,1.1019612444286e-08,-0.0012808845209013,0.0012808754271329,-0.001280880439443,0.0012808795520585,-0.0012808781100376,0.0012808820166531,-0.0012808740026672,0.0012808861402375,-0.0011660280200038,0.0011660241683765,-0.0011660159205252,0.0011660362385547,8.7650148765469e-09,-1.0983906853112e-08,3.7322289442393e-09,-5.4773703253068e-09,-0.0011366222717249,0.0011366205054723,-0.0013785526602196,0.0013785605166352,-0.0013785556657049,0.001378557451597,-0.0013785590229822,0.0013785539956514,-0.0013785620092318,0.0013785509349812,-0.0012669550653121,0.0012669557952318,-0.0012669639009953,0.0012669465942731,-0.001090344079542,0.0010903583879437,-0.0010903632962734,0.0010903385652417,6.7828453684358e-09,-5.690686162444e-09,-0.0015723510985682,0.0015723521828287,-3.8107500768186e-09,5.1650662213018e-09,-0.0018816818004609,0.0018816839888025,-0.001881678803735,0.0018816868984101,-0.0018816860135469,0.0018816798552603,-0.001881683010112,0.0018816827799993,-0.0014108304765275,0.0014108223562793,-0.0014108181252155,0.0014108344353022,0.74517770280141,131329,3014,0.0043157288513624,0.0047272836176948,0.0065265642967318,29.917705993024,-6.5835205580493e-07,-6.5835205580493e-07,-6.5835205580493e-07,4420260.0555287,0.015693378944741
34019200,0.998452337008,0.016170076317651,0.0047026719029118,0.0050284604026645,0.0064389440120747,-0.0010375623622029,0.0010375640199375,-5.398649721545e-09,7.0256916321786e-09,-8.8830079049119e-09,1.0978562609625e-08,-0.0012815838158458,0.0012815747208407,-0.0012815797079213,0.0012815788721897,-0.0012815774313619,0.0012815812837747,-0.0012815732974678,0.001281585433867,-0.001166615126482,0.0011666111682724,-0.0011666029494118,0.0011666233163276,8.723145236741e-09,-1.0940316107147e-08,3.7277358337548e-09,-5.4715146538068e-09,-0.0011371706210171,0.0011371688560878,-0.0013792444678249,0.00137925229304,-0.0013792474699087,0.0013792492313935,-0.0013792508016343,0.0013792458011487,-0.0013792537844074,0.0013792427439384,-0.0012675542920839,0.0012675550415947,-0.0012675631177193,0.0012675458509675,-0.0010909697302798,0.0010909839586742,-0.0010909888621936,0.0010909642209629,6.8219827326986e-09,-5.7304224141758e-09,-0.0015730451195903,0.0015730462033264,-3.8058710376346e-09,5.1595193050504e-09,-0.0018824720119954,0.0018824742295893,-0.0018824690189411,0.0018824771355747,-0.0018824762511964,0.0018824700698021,-0.0018824732513184,0.0018824729911156,-0.0014115729981464,0.0014115647966502,-0.0014115605697752,0.0014115769528835,0.72426546315215,131329,3014,0.0043179587560974,0.004729562463102,0.0065294293517493,30.221442715874,1.7715417269954e-06,1.7715417269954e-06,1.7715417269954e-06,4419997.4476577,0.015700873500992
34219200,0.99852878789272,0.016171294674471,0.0047030243852946,0.0050288329372596,0.0064394373519166,-0.0010386410736612,0.0010386427286617,-5.4409938410789e-09,7.065032175352e-09,-8.830155497899e-09,1.09221585872e-08,-0.0012828117764945,0.0012828026884029,-0.0012828076415354,0.0012828068669562,-0.0012828054283349,0.0012828092144774,-0.001282801267093,0.0012828133920006,-0.0011677689258177,0.0011677648480556,-0.0011677566672344,0.0011677770752695,8.6577926747058e-09,-1.087229285803e-08,3.7169187090097e-09,-5.4589063455661e-09,-0.0011382741676105,0.0011382724050565,-0.0013804789057867,0.0013804866817515,-0.0013804819003119,0.0013804836277823,-0.0013804851954872,0.0013804802339873,-0.0013804881705199,0.0013804771848231,-0.0012687196156853,0.0012687203874055,-0.0012687284168023,0.0012687112191282,-0.0010921448993656,0.0010921590056541,-0.0010921638999259,0.0010921394001652,6.8599635466461e-09,-5.7691063587608e-09,-0.0015743335666479,0.0015743346494701,-3.7939695319821e-09,5.14683696784e-09,-0.0018838506892213,0.0018838529396004,-0.0018838477046723,0.0018838558373213,-0.0018838549540947,0.0018838487542017,-0.0018838519621885,0.0018838516672872,-0.0014128854503952,0.0014128771658069,-0.0014128729469431,0.0014128893966613,0.70594349833881,131329,3014,0.0043224417523311,0.0047341428087902,0.0065347551362967,30.833386678015,6.6670934241164e-06,6.6670934241164e-06,6.6670934241164e-06,4427564.321898,0.015715492434332
34419200,0.99860410457956,0.016172499821587,0.0047033731376854,0.0050292014558778,0.0064399252280241,-0.0010397818385103,0.0010397834920012,-5.4810506520767e-09,7.1038855109387e-09,-8.782492001545e-09,1.0872769695349e-08,-0.0012840729376555,0.0012840638538281,-0.0012840687762817,0.0012840680586144,-0.0012840666216612,0.0012840703476747,-0.0012840624341925,0.0012840745513534,-0.0011689854851503,0.0011689812967898,-0.0011689731506027,0.0011689936020453,8.613492891729e-09,-1.0825060062217e-08,3.7065195308786e-09,-5.4458978485964e-09,-0.0011394423617928,0.0011394406014426,-0.001381753581908,0.0013817613214459,-0.001381756568555,0.0013817582753971,-0.001381759841431,0.0013817549044814,-0.001381762808603,0.0013817518629705,-0.0012699444028166,0.0012699451855076,-0.0012699531823501,0.001269936040713,-0.0010933670535659,0.001093381081261,-0.0010933859651464,0.0010933615653152,6.8990308437552e-09,-5.8094767858249e-09,-0.0015756846382269,0.001575685719926,-3.7828186631629e-09,5.1342826457777e-09,-0.0018852808695444,0.0018852831532921,-0.0018852778927212,0.0018852860431646,-0.0018852851608461,0.0018852789413196,-0.0018852821771255,0.0018852818467112,-0.0014142388930061,0.0014142305206981,-0.0014142263115692,0.0014142428295523,0.70867959612842,131329,3014,0.0043271807772633,0.0047389899052177,0.0065403415663274,31.477281613245,1.1818252905958e-05,1.1818252905958e-05,1.1818252905958e-05,4437581.9984931,0.015730905851538
34619200,0.99867815070197,0.016173733348409,0.0047037315684988,0.0050295796628777,0.0064404221170329,-0.0010409234567298,0.0010409251083858,-5.5204334900169e-09,7.1414454519788e-09,-8.7416617814684e-09,1.0829712407896e-08,-0.0012853362062713,0.0012853271226991,-0.0012853320190016,0.0012853313533613,-0.0012853299178345,0.0012853335887533,-0.0012853257049321,0.0012853378178661,-0.001170201976,0.001170197683252,-0.0011701895667021,0.0011702100630403,8.5874967596842e-09,-1.0798092410202e-08,3.6953679989137e-09,-5.4340940541558e-09,-0.0011406173544964,0.001140615594825,-0.0013830385141369,0.0013830462288411,-0.0013830414929412,0.0013830431906544,-0.0013830447558597,0.001383039829733,-0.0013830477156777,0.0013830367956646,-0.0012711891813428,0.0012711899604351,-0.001271197938929,0.0012711808375575,-0.001094589260046,0.0010946032447572,-0.0010946081200709,0.001094583780344,6.9392985729566e-09,-5.8506068591529e-09,-0.0015770396135608,0.0015770406943524,-3.7727516970254e-09,5.1232208706191e-09,-0.0018867170508147,0.0018867193676155,-0.0018867140808605,0.0018867222507006,-0.0018867213690149,0.001886715128734,-0.0018867183925299,0.0018867180268084,-0.001415601051482,0.0014155925908478,-0.0014155883898608,0.0014156049803421,0.73613739844231,131329,3014,0.0043319235729095,0.0047438653267006,0.0065459439916304,32.121984690745,1.6975877525964e-05,1.6975877525964e-05,1.6975877525964e-05,4446950.7444948,0.015746368664138
34819200,0.99875193121481,0.016174973202957,0.0047040919307248,0.0050299599020853,0.0064409213701472,-0.0010425492325178,0.0010425508810901,-5.5570664290822e-09,7.1744235644613e-09,-8.6773098498463e-09,1.0761195008615e-08,-0.0012871556781563,0.0012871466122317,-0.0012871514666463,0.0012871508673998,-0.0012871494327899,0.0012871530346333,-0.0012871451978812,0.0012871572860692,-0.0011719286774555,0.0011719242717769,-0.0011719162018341,0.0011719367150398,8.5681526705789e-09,-1.0780031098349e-08,3.6794863808528e-09,-5.4201296929382e-09,-0.0011423014055047,0.0011422996449911,-0.0013848930802719,0.0013849007715325,-0.0013848960481789,0.001384897744447,-0.0013848993088258,0.0013848943858768,-0.0013849022600446,0.0013848913608312,-0.0012729869073681,0.0012729876698749,-0.0012729956357912,0.0012729785705473,-0.0010963533715765,0.0010963673305079,-0.0010963721985375,0.0010963479011433,6.9836125836646e-09,-5.8950259191223e-09,-0.0015789536683848,0.0015789547488484,-3.760865269824e-09,5.1117196291212e-09,-0.0018887463386248,0.001888748690764,-0.0018887433755535,0.0018887515672378,-0.0018887506854804,0.0018887444238037,-0.0018887477177627,0.0018887473128354,-0.0014175503527433,0.0014175417946293,-0.0014175376000587,0.0014175542734611,0.74236048508106,131329,3014,0.0043386791330213,0.0047508545670665,0.0065538564610152,33.053056234333,2.4424449874662e-05,2.4424449874662e-05,2.4424449874662e-05,4457793.4276523,0.015768373085414
35019200,0.99882559852745,0.016176173659333,0.0047044393564577,0.0050303270912899,0.0064414072115852,-0.001044333251965,0.001044334901633,-5.6017876336448e-09,7.2206183354781e-09,-8.6739187574125e-09,1.0759199661571e-08,-0.0012891617267482,0.0012891526341206,-0.0012891574861287,0.0012891569180585,-0.0012891554844061,0.001289159053992,-0.0012891512175131,0.0012891633370917,-0.001173822031453,0.001173817532506,-0.0011738094639027,0.0011738300695226,8.5125534629982e-09,-1.0720517450593e-08,3.6704570668695e-09,-5.4075401727347e-09,-0.0011441647418046,0.0011441629843675,-0.0013869473187919,0.0013869549681489,-0.0013869502808544,0.0013869519468383,-0.0013869535103579,0.0013869486204158,-0.0013869564526338,0.0013869456038114,-0.0012749769429341,0.0012749777235491,-0.0012749856487276,0.0012749686501282,-0.0010983105251909,0.0010983243777728,-0.0010983292357792,0.0010983050655441,7.0166151678113e-09,-5.9295807496136e-09,-0.0015810610011993,0.0015810620801129,-3.7478255800011e-09,5.0966794618527e-09,-0.0018909839731226,0.0018909863569953,-0.0018909810209176,0.0018909892226324,-0.0018909883437496,0.0018909820662054,-0.0018909853843989,0.0018909849478095,-0.001419694172934,0.001419685541711,-0.0014196813570793,0.0014196980817921,0.7213648936029,131329,3014,0.0043460927816353,0.0047585880766601,0.0065625672338385,34.085267751929,3.2682142015436e-05,3.2682142015436e-05,3.2682142015436e-05,4468931.6433263,0.015792614299749
35219200,0.99889887043871,0.016177333598955,0.0047047736763833,0.0050306810472853,0.0064418788752862,-0.0010461188481416,0.0010461204962008,-5.6391098997693e-09,7.2564689373844e-09,-8.6482538756923e-09,1.0731732940749e-08,-0.0012911372275223,0.0012911281258929,-0.0012911329619097,0.0012911324348256,-0.0012911310021241,0.0012911345284237,-0.0012911267116443,0.0012911388351173,-0.0011757142244149,0.0011757096366345,-0.0011757015872047,0.0011757222437307,8.5145523492091e-09,-1.072295057177e-08,3.6589633192778e-09,-5.3963725157083e-09,-0.0011460335256754,0.0011460317675874,-0.0013889791365455,0.0013889867784817,-0.0013889820904217,0.0013889837653744,-0.001388985328815,0.0013889804292471,-0.0013889882643952,0.0013889774195331,-0.0012769630876272,0.0012769638457995,-0.0012769717733822,0.0012769547940648,-0.0011002560372843,0.0011002699036626,-0.0011002747532291,0.0011002505843543,7.0586049970508e-09,-5.9727961264724e-09,-0.0015831678671526,0.0015831689449277,-3.7391183926468e-09,5.0864197044871e-09,-0.0018932079920669,0.0018932104093687,-0.0018932050453969,0.0018932132693635,-0.0018932123903619,0.0018932060904047,-0.001893209437772,0.0018932089646148,-0.0014218159220987,0.0014218071975528,-0.0014218030225861,0.0014218198245417,0.70214230314021,131329,3014,0.0043535113658791,0.0047663425885825,0.0065712774959964,35.11984621908,4.0958769752643e-05,4.0958769752643e-05,4.0958769752643e-05,4482047.2480818,0.015816880069123
35419200,0.99897059819169,0.016178433457549,0.0047050891920143,0.0050310157572607,0.006442328508274,-0.0010475184197963,0.0010475200692701,-5.6780715328711e-09,7.296928753306e-09,-8.6783417100002e-09,1.0763610023867e-08,-0.0012926744050907,0.0012926652576454,-0.0012926701130444,0.0012926695929291,-0.001292668159187,0.0012926716809068,-0.0012926638420389,0.0012926760142054,-0.0011772019271295,0.0011771972834226,-0.0011771892125299,0.0011772099693487,8.5503180901772e-09,-1.0760539809292e-08,3.6537930896296e-09,-5.3924948039123e-09,-0.0011475030725419,0.0011475013127335,-0.0013905668881901,0.0013905745495858,-0.0013905698392107,0.0013905715393874,-0.0013905731047914,0.0013905681759428,-0.0013905760372642,0.0013905651693642,-0.001278521353912,0.0012785220777089,-0.0012785300319166,0.0012785130365461,-0.0011017748632444,0.0011017888027622,-0.0011017936504378,0.001101769411551,7.0977036394376e-09,-6.0126404054923e-09,-0.0015848371675352,0.0015848382447351,-3.7354350370825e-09,5.0816340521267e-09,-0.0018949710109179,0.0018949734571591,-0.0018949680672077,0.0018949763141364,-0.0018949754355748,0.0018949691118661,-0.0018949724857011,0.0018949719833643,-0.0014234776190019,0.0014234688137296,-0.0014234646428383,0.001423481517957,0.68162298479019,131329,3014,0.0043593254511088,0.0047724393937734,0.006578179542779,35.93162670662,4.7453013652964e-05,4.7453013652964e-05,4.7453013652964e-05,4493347.9422506,0.01583599340834
35619200,0.99903997046622,0.01617945646079,0.0047053810311297,0.0050313260324768,0.0064427493971831,-0.0010486320498129,0.0010486337008926,-5.7174922621831e-09,7.3376831244056e-09,-8.7301518469419e-09,1.0817374821272e-08,-0.0012938700695622,0.0012938608623354,-0.0012938657511703,0.0012938652239334,-0.0012938637890277,0.0012938673203402,-0.0012938594446469,0.0012938716808346,-0.0011783895605247,0.0011783848738629,-0.0011783767660057,0.0011783976396866,8.6235997615283e-09,-1.0838480278196e-08,3.6516921097378e-09,-5.3943108063963e-09,-0.0011486767985085,0.0011486750348202,-0.0013918103720405,0.0013918180803743,-0.0013918133233872,0.0013918150696996,-0.0013918166390236,0.0013918116555819,-0.0013918195710595,0.0013918086495306,-0.0012797616107446,0.0012797622784213,-0.0012797702866711,0.0012797532393679,-0.0011029701617808,0.0011029842442656,-0.00110298909559,0.0011029647057687,7.1367411728678e-09,-6.0517534220871e-09,-0.001586174925053,0.0015861760022356,-3.736863055987e-09,5.08299413643e-09,-0.0018963765556022,0.001896379027486,-0.0018963736115405,0.0018963818849998,-0.0018963810067405,0.0018963746558092,-0.0018963780552684,0.0018963775283561,-0.0014247834107639,0.001424774531224,-0.0014247703599184,0.001424787311114,0.65729900137042,131329,3014,0.0043639502749345,0.0047773073411771,0.0065837123125074,36.575687084914,5.2605496679311e-05,5.2605496679311e-05,5.2605496679311e-05,4503854.1101899,0.015851257417296
35819200,0.99910687444673,0.016180505591403,0.0047056825673433,0.005031645858178,0.006443177165882,-0.0010497541662669,0.001049755821241,-5.7551349088143e-09,7.379361894089e-09,-8.8161921102062e-09,1.0908130966792e-08,-0.0012950220266578,0.0012950127371887,-0.0012950176811874,0.0012950171259092,-0.0012950156869076,0.0012950192550481,-0.0012950113168456,0.0012950236412405,-0.0011795865693929,0.0011795818695222,-0.0011795736995186,0.0011795947108615,8.666118809413e-09,-1.0884287246329e-08,3.6540377116842e-09,-5.3993745975397e-09,-0.001149863815652,0.0011498620492019,-0.001393019746791,0.0013930274833503,-0.0013930226997484,0.0013930244710758,-0.0013930260425133,0.0013930210301032,-0.0013930289774361,0.0013930180208943,-0.0012810115015287,0.0012810121464962,-0.0012810201873616,0.0012810030976115,-0.0011041549212292,0.0011041690869764,-0.0011041739440169,0.0011041494596389,7.1762779211061e-09,-6.0912290365459e-09,-0.0015875058293282,0.001587506906535,-3.7376702144759e-09,5.0837810905067e-09,-0.0018977513452562,0.0018977538423019,-0.0018977483998711,0.001897756700978,-0.0018977558220459,0.001897749444934,-0.0018977528710643,0.0018977523175552,-0.0014260554563842,0.001426046497791,-0.0014260423253737,0.0014260593566286,0.69619236085012,131329,3014,0.0043686078473614,0.0047822284769271,0.0065892192530215,37.215884087283,5.7727072698266e-05,5.7727072698266e-05,5.7727072698266e-05,4516535.9378751,0.015866580630471
36019200,0.99917122408493,0.016181575681138,0.0047059919551297,0.0050319734572106,0.0064436102687974,-0.0010508622968616,0.0010508639539238,-5.7938281719382e-09,7.4201017458674e-09,-8.8695157556761e-09,1.096408402223e-08,-0.0012962335396803,0.001296224189691,-0.0012962291681169,0.0012962286045322,-0.0012962271639698,0.0012962307436923,-0.0012962227670655,0.001296235156747,-0.0011807815110304,0.0011807767713315,-0.0011807685621468,0.0011807896912053,8.7361417774899e-09,-1.0958768550809e-08,3.6547518755898e-09,-5.4038743761892e-09,-0.0011510493380701,0.001151047567893,-0.0013942853471339,0.0013942931303404,-0.0013942883021722,0.0013942901159681,-0.0013942916911638,0.0013942866284004,-0.0013942946274169,0.0013942836178386,-0.0012822888312837,0.0012822894283583,-0.0012822975206569,0.0012822803751208,-0.0011053756630006,0.0011053899641106,-0.0011053948265602,0.0011053701951734,7.2159070521104e-09,-6.1304796054091e-09,-0.0015888423603651,0.0015888434378876,-3.7412631971539e-09,5.0878635145268e-09,-0.0018991652240376,0.00189916774541,-0.0018991622764499,0.0018991706062561,-0.0018991697275432,0.0018991633213713,-0.0018991667735393,0.0018991661969157,-0.0014273777700694,0.0014273687382279,-0.001427364562962,0.0014273816734083,0.73586310876351,131329,3014,0.0043732110813643,0.0047871467171926,0.0065947458849552,37.855944116662,6.2847552933297e-05,6.2847552933297e-05,6.2847552933297e-05,4524304.7177923,0.015881869942016
36219200,0.99923085077799,0.016182535067442,0.0047062679965954,0.005032266354408,0.0064440007164384,-0.0010507800958333,0.0010507817586565,-5.8339473667361e-09,7.4659882747713e-09,-9.0073565100886e-09,1.1109166194922e-08,-0.001296280014728,0.0012962705478757,-0.0012962756151036,0.0012962749907712,-0.0012962735457468,0.0012962771958758,-0.0012962691195077,0.0012962816382347,-0.0011807353625802,0.0011807306367185,-0.0011807223279441,0.0011807436427958,8.8252802025903e-09,-1.1052345379126e-08,3.6667312938143e-09,-5.4193916150842e-09,-0.0011509796678096,0.0011509778937924,-0.0013943272770911,0.0013943351267593,-0.0013943302418424,0.0013943321025749,-0.0013943336821407,0.001394328563317,-0.0013943366268481,0.0013943255442032,-0.0012822605580967,0.0012822611158919,-0.001282269272923,0.0012822520379763,-0.0011053576094169,0.0011053720752622,-0.0011053769496173,0.0011053521276901,7.2523521926776e-09,-6.1661548157912e-09,-0.0015888742734956,0.0015888753518321,-3.751068858333e-09,5.0984210877355e-09,-0.0018992811242562,0.0018992836644572,-0.0018992781704738,0.0018992865313947,-0.00189928565244,0.001899279215781,-0.0018992826910282,0.0018992820986937,-0.001427440747862,0.0014274316544708,-0.0014274274719737,0.001427444658559,0.7136105615826,131329,3014,0.0043728762875721,0.0047868613904194,0.006594872364845,37.827198108501,6.2617584868008e-05,6.2617584868008e-05,6.2617584868008e-05,4517283.6930936,0.015881372719035
36419200,0.99928524566741,0.016183398362588,0.004706516130366,0.0050325296801486,0.0064443525520735,-0.0010501676559901,0.0010501693231593,-5.8674799165162e-09,7.5040291967649e-09,-9.106166235284e-09,1.1213506914826e-08,-0.0012957206717835,0.0012957111169325,-0.0012957162475166,0.0012957155844456,-0.0012957141348407,0.0012957178334996,-0.0012957096856298,0.0012957222987859,-0.0011801319981111,0.0011801272772494,-0.0011801188969198,0.0011801403515694,8.9562102590376e-09,-1.119010479954e-08,3.6770272431432e-09,-5.4352249298781e-09,-0.0011503640309055,0.0011503622510298,-0.0013937572333787,0.0013937651747837,-0.0013937602058937,0.0013937621428366,-0.001393763727306,0.0013937585222935,-0.0013937666813438,0.0013937554935972,-0.0012816511109532,0.0012816516019936,-0.0012816598549201,0.0012816424963905,-0.0011047636620588,0.0011047783811018,-0.0011047832694064,0.00110475816522,7.2957316723466e-09,-6.2090688193273e-09,-0.0015883131023592,0.0015883141813407,-3.7656611421664e-09,5.1136557843848e-09,-0.001898762917608,0.0018987654765702,-0.0018987599527616,0.0018987683542862,-0.0018987674739558,0.0018987609998827,-0.0018987645034707,0.0018987638920986,-0.0014268908144954,0.0014268816441233,-0.0014268774511024,0.0014268947349406,0.70434021020132,131329,3014,0.0043703377355763,0.0047843093265808,0.0065925478524637,37.495843894359,5.996675115487e-05,5.996675115487e-05,5.996675115487e-05,4507745.6122179,0.015873840796379
36619200,0.99933491180417,0.016184141962677,0.0047067284351876,0.0050327554562303,0.0064446580712596,-0.0010495507389206,0.0010495524083356,-5.9046424221683e-09,7.5431550927309e-09,-9.1788812548312e-09,1.1288938471002e-08,-0.0012951257284575,0.0012951161008796,-0.0012951212784402,0.0012951205942272,-0.001295119142041,0.0012951228671197,-0.0012951146676855,0.0012951273576045,-0.0011795191648629,0.001179514421256,-0.0011795059890044,0.0011795275686931,9.0477082904364e-09,-1.1287615295877e-08,3.6870154492512e-09,-5.4501489245608e-09,-0.001149741853223,0.0011497400686362,-0.0013931530964365,0.0013931611042992,-0.001393156076905,0.0013931580642992,-0.0013931596524513,0.0013931543888669,-0.0013931626151399,0.0013931513516086,-0.0012810265573798,0.0012810270052944,-0.0012810353253949,0.0012810178737871,-0.0011041494360031,0.001104164326891,-0.0011041692289976,0.0011041439249278,7.3370704202409e-09,-6.24931992986e-09,-0.001587729411034,0.0015877304909723,-3.7792862471347e-09,5.1285328795762e-09,-0.0018982041886672,0.0018982067657655,-0.0018982012141372,0.0018982096532758,-0.0018982087718068,0.0018982022623287,-0.001898205791909,0.0018982051635033,-0.0014263061149981,0.0014262968747626,-0.0014262926710514,0.0014263100466391,0.66675281944156,131329,3014,0.0043677789527642,0.0047817290977453,0.0065901316777495,37.157429770322,5.7259438162575e-05,5.7259438162575e-05,5.7259438162575e-05,4499495.0290253,0.015866165460889
36819200,0.99938031697699,0.016184803264015,0.00470691672061,0.0050329558335792,0.0064449307098254,-0.001048956157989,0.0010489578297244,-5.9445860867991e-09,7.5853267742974e-09,-9.2361922135796e-09,1.1349127124898e-08,-0.0012944752644287,0.0012944655729811,-0.0012944707874099,0.0012944700933393,-0.0012944686394442,0.0012944723781078,-0.0012944641372933,0.0012944768963748,-0.0011789198466278,0.0011789150626928,-0.0011789065891173,0.0011789282915071,9.0964349513991e-09,-1.1339220825817e-08,3.6986753049913e-09,-5.4641292010135e-09,-0.0011491397242271,0.0011491379373541,-0.0013925013474631,0.0013925093953511,-0.001392504336822,0.001392506346413,-0.0013925079370399,0.0013925026461584,-0.0013925109078144,0.0013924996007243,-0.001280400845561,0.0012804012816319,-0.0012804096373359,0.0012803921258935,-0.0011035168729578,0.0011035318501179,-0.0011035367632386,0.0011035113506256,7.3753345657093e-09,-6.2868485400926e-09,-0.0015871372363644,0.0015871383169985,-3.7909627487197e-09,5.1410727899611e-09,-0.0018975999717934,0.0018976025670644,-0.0018975969895971,0.0018976054621993,-0.0018976045805694,0.0018975980380465,-0.0018976015922334,0.001897600947698,-0.0014256714564538,0.0014256621520483,-0.0014256579392398,0.001425675396811,0.64957834823854,131329,3014,0.004365308910543,0.0047792288919423,0.0065876843390008,36.818764670694,5.4550117365554e-05,5.4550117365554e-05,5.4550117365554e-05,4495619.7982429,0.015858626415122
37019200,0.99942306309918,0.01618546709351,0.0047071073903394,0.0050331581012811,0.0064452016018896,-0.0010493244808322,0.00104932615006,-5.9859160841961e-09,7.6241708324616e-09,-9.183788971845e-09,1.129365249311e-08,-0.0012947952928373,0.00129478560849,-0.0012947907895505,0.0012947901551495,-0.0012947887039534,0.0012947923772421,-0.0012947841746699,0.0012947969226575,-0.0011793244818232,0.0011793195797339,-0.0011793111443496,0.0011793328880941,9.0569398332463e-09,-1.1297819288861e-08,3.7045737548515e-09,-5.468349797768e-09,-0.0011495209064968,0.0011495191213801,-0.0013928399740063,0.0013928480004788,-0.001392842967157,0.0013928449477415,-0.0013928465370719,0.0013928412779443,-0.0013928495107685,0.0013928382295637,-0.0012807918866488,0.0012807923599018,-0.0012808006867078,0.0012807831952938,-0.0011038738301213,0.0011038887246313,-0.0011038936401027,0.0011038683063765,7.4143293900912e-09,-6.3254462246069e-09,-0.001587559924553,0.0015875610055486,-3.7967402763378e-09,5.1473413432847e-09,-0.0018980188772779,0.0018980214951336,-0.0018980158915301,0.0018980243938889,-0.0018980235123353,0.0018980169397906,-0.0018980205195359,0.0018980198538698,-0.0014260348448231,0.0014260254702424,-0.0014260212529919,0.0014260387898811,0.68961816697597,131329,3014,0.0043668348523747,0.0047808064971358,0.0065894364666853,37.016464816831,5.6131718534646e-05,5.6131718534646e-05,5.6131718534646e-05,4502577.9110609,0.015863555417258
37219200,0.99946354626373,0.016186138415295,0.0047073016145552,0.0050333636389707,0.0064454731617692,-0.0010499079684041,0.0010499096335876,-6.0268466206786e-09,7.6609592384246e-09,-9.092010671962e-09,1.1196893686731e-08,-0.0012954270200223,0.0012954173686034,-0.001295422490078,0.0012954219418759,-0.0012954204934729,0.0012954240748331,-0.0012954159387777,0.0012954286456139,-0.0011799614865336,0.0011799564446414,-0.0011799480746753,0.0011799698260709,8.9878177880883e-09,-1.1224982986006e-08,3.7078428090365e-09,-5.4687215226045e-09,-0.0011501229209708,0.001150121139021,-0.0013934838844362,0.0013934918679228,-0.0013934868780876,0.0013934888145898,-0.0013934904003308,0.0013934851933397,-0.0013934933758384,0.001393482143193,-0.0012814358372182,0.0012814363672507,-0.0012814446429758,0.0012814271960665,-0.0011044952428753,0.0011045100011943,-0.0011045149154125,0.0011044897208232,7.4545099320739e-09,-6.3653209430498e-09,-0.0015882359171471,0.0015882369983638,-3.8012053765497e-09,5.1521425214061e-09,-0.0018987378301688,0.0018987404709322,-0.001898734840942,0.0018987433736956,-0.0018987424914726,0.001898735889929,-0.0018987394962451,0.0018987388066091,-0.0014266956033244,0.0014266861518578,-0.001426681929607,0.0014266995510889,0.7336254429039,131329,3014,0.0043692583355969,0.0047833038126011,0.0065922322207009,37.343455482789,5.874764386231e-05,5.874764386231e-05,5.874764386231e-05,4506981.3620756,0.015871395459505
37419200,0.99950184122752,0.016186730113598,0.0047074712956116,0.0050335437590718,0.0064457150589149,-0.0010504709846952,0.0010504726465766,-6.0680095200038e-09,7.6990125836269e-09,-9.0213369379373e-09,1.1122287374697e-08,-0.0012961248653251,0.0012961152323266,-0.0012961203093438,0.0012961198316456,-0.0012961183868963,0.0012961218899243,-0.0012961138055854,0.0012961264873354,-0.0011805839086683,0.0011805787354386,-0.0011805704187317,0.0011805921963025,8.8822212363886e-09,-1.1113023093433e-08,3.7143099085322e-09,-5.4700320823986e-09,-0.0011507045374377,0.0011507027605359,-0.0013941823008696,0.0013941902191628,-0.0013941852974343,0.0013941871629628,-0.0013941887445109,0.0013941836170048,-0.0013941917222783,0.0013941805644875,-0.0012820792959041,0.0012820799093162,-0.0012820881083463,0.0012820707325005,-0.0011051369154567,0.001105151462639,-0.0011051563734633,0.001105131397666,7.4943582330886e-09,-6.4039774230032e-09,-0.0015889172592084,0.0015889183417043,-3.8006436602098e-09,5.1527231106107e-09,-0.0018995014965318,0.001899504165313,-0.0018994985074628,0.0018995070675769,-0.0018995061840219,0.0018994995573973,-0.0018995031886151,0.0018995024743814,-0.0014274091043043,0.0014273995778679,-0.0014273953561086,0.0014274130539539,0.68665560152125,131329,3014,0.0043716011159893,0.0047857199654991,0.0065950459115242,37.67353215061,6.1388257204878e-05,6.1388257204878e-05,6.1388257204878e-05,4506718.3390793,0.015879093507598
37619200,0.99953801690752,0.016187269610663,0.0047076253918224,0.0050337075427711,0.0064459366760697,-0.0010510430203251,0.0010510446782109,-6.1093911241183e-09,7.7364783431325e-09,-8.9309719312615e-09,1.1027062429341e-08,-0.0012967439954694,0.001296734393968,-0.0012967394130988,0.0012967390196788,-0.0012967375784701,0.0012967409896824,-0.0012967329709818,0.0012967456132773,-0.0011812053343876,0.0011812000187499,-0.0011811917675779,0.0011812135564397,8.7984837886722e-09,-1.1024592107979e-08,3.7170754474504e-09,-5.4690458486209e-09,-0.0011513034122148,0.0011513016391199,-0.0013948183664955,0.0013948262317056,-0.0013948213635203,0.0013948231750295,-0.0013948247530287,0.00139481968707,-0.0013948277314688,0.0013948166338514,-0.0012827113311078,0.0012827120077173,-0.0012827201455123,0.0012827028287875,-0.0011057569477091,0.0011057713298175,-0.0011057762373323,0.001105751433918,7.5338960256479e-09,-6.4433469674083e-09,-0.001589597671211,0.001589598753859,-3.8021667596507e-09,5.1544450194487e-09,-0.0019002235186026,0.0019002262126341,-0.0019002205283686,0.0019002291161651,-0.0019002282322809,0.001900221578483,-0.0019002252359041,0.0019002244964458,-0.0014280702047115,0.0014280606018792,-0.0014280563788762,0.0014280741556054,0.66415286963046,131329,3014,0.0043739769366657,0.0047882037212656,0.0065978601531206,38.003718955543,6.4029751644341e-05,6.4029751644341e-05,6.4029751644341e-05,4511629.3941312,0.015886889817505
37819200,0.99957122103119,0.016187745679204,0.0047077606682574,0.0050338515869432,0.0064461334240036,-0.0010506960396254,0.0010506976969691,-6.1485026890516e-09,7.7751044164854e-09,-8.9175792898681e-09,1.1013098644867e-08,-0.0012963572495853,0.0012963476303787,-0.0012963526409018,0.0012963522823768,-0.0012963508413308,0.0012963542173156,-0.0012963462082933,0.0012963588664366,-0.0011808607301635,0.0011808553300053,-0.0011808470886857,0.0011808689427902,8.7659234491526e-09,-1.0990025337009e-08,3.72303514862e-09,-5.473432386772e-09,-0.0011509522475211,0.0011509504759539,-0.0013944314501603,0.0013944392975534,-0.0013944344502169,0.0013944362378159,-0.0013944378141385,0.0013944327756963,-0.0013944407963659,0.0013944297186454,-0.0012823423149258,0.0012823430268973,-0.0012823511409893,0.0012823338370411,-0.0011053798842917,0.0011053942000487,-0.0011053991089181,0.0011053743689986,7.5739756652424e-09,-6.4833081252695e-09,-0.0015892570979903,0.0015892581808059,-3.8054814933584e-09,5.1578306224032e-09,-0.0018998798173514,0.0018998825357081,-0.0018998768245145,0.0018998854418684,-0.0018998845573306,0.0018998778752355,-0.0018998815591562,0.0018998807951166,-0.0014276885511297,0.00142767887095,-0.0014276746456961,0.0014276925042021,0.64016142424972,131329,3014,0.0043725349717304,0.0047867447899672,0.0065964535438259,37.803931287503,6.2431450300026e-05,6.2431450300026e-05,6.2431450300026e-05,4510250.1015653,0.015882511056578
38019200,0.99960165080634,0.016188200717154,0.0047078907511705,0.0050339897941555,0.0064463201718278,-0.0010502872265997,0.0010502888830543,-6.1889137137578e-09,7.8146621170836e-09,-8.8977116392229e-09,1.0992139154106e-08,-0.001295848927657,0.0012958392947765,-0.0012958442927044,0.0012958439730482,-0.001295842533192,0.0012958458678055,-0.0012958378731227,0.0012958505439522,-0.0011804499883897,0.0011804444944484,-0.0011804362675388,0.0011804581866029,8.7618513546766e-09,-1.0985867258669e-08,3.7251673258455e-09,-5.4754140066474e-09,-0.0011505358016493,0.0011505340302233,-0.0013939276989261,0.0013939355454123,-0.0013939307007246,0.0013939324839243,-0.0013939340604916,0.0013939290260222,-0.0013939370436895,0.0013939259679618,-0.001281899540729,0.001281900258505,-0.0012819083696475,0.001281891065613,-0.0011049122806778,0.0011049265859225,-0.0011049314963677,0.0011049067641077,7.6129691447243e-09,-6.5221050151687e-09,-0.0015888264829497,0.0015888275659727,-3.8087710501295e-09,5.1613984252622e-09,-0.0018994157067125,0.0018994184492854,-0.0018994127119763,0.0018994213573699,-0.0018994204730177,0.0018994137625,-0.0018994174721572,0.0018994166850308,-0.0014271924033687,0.0014271826505712,-0.0014271784228414,0.0014271963589785,0.66569814712477,131329,3014,0.0043708337413508,0.0047850132317865,0.0065946769070824,37.559548633582,6.047638906866e-05,6.047638906866e-05,6.047638906866e-05,4510520.2626733,0.015877213775349
38219200,0.99962956257809,0.01618862148939,0.0047080111579318,0.005034117672883,0.0064464926585751,-0.0010498688144656,0.0010498704705488,-6.2286230521942e-09,7.8539828639794e-09,-8.8903186556029e-09,1.0984267373642e-08,-0.0012953825772036,0.0012953729226769,-0.0012953779158773,0.0012953776273394,-0.0012953761877552,0.0012953794906298,-0.0012953715013759,0.0012953841930975,-0.0011800355737929,0.001180029997156,-0.0011800217757143,0.0011800437666115,8.7540835373377e-09,-1.0977877087019e-08,3.726775605392e-09,-5.4768453382583e-09,-0.0011501094936434,0.0011501077224067,-0.0013934591737255,0.0013934670161421,-0.0013934621765049,0.0013934639536745,-0.0013934655300154,0.0013934605020154,-0.0013934685142665,0.0013934574429167,-0.0012814657393615,0.0012814664656246,-0.0012814745713161,0.0012814572697552,-0.0011044608140192,0.0011044751029226,-0.0011044800143076,0.0011044552966942,7.6523664091061e-09,-6.5614287128568e-09,-0.0015883963256973,0.0015883974088175,-3.8102237677205e-09,5.1629357456511e-09,-0.0018989743351012,0.0018989771030154,-0.0018989713393528,0.0018989800121392,-0.001898979127599,0.0018989723900083,-0.0018989761257618,0.0018989753134821,-0.0014267270814247,0.0014267172525105,-0.0014267130238245,0.0014267310382546,0.67076172597657,131329,3014,0.0043690953222468,0.004783243288102,0.0065928994964943,37.314001404197,5.8512011233577e-05,5.8512011233577e-05,5.8512011233577e-05,4507460.6243979,0.015871841899539
38419200,0.99965536039656,0.016189036305507,0.0047081308138043,0.0050342444009006,0.0064466610908019,-0.0010496770183376,0.0010496786733883,-6.2692342589027e-09,7.8934354701411e-09,-8.8690977209762e-09,1.0961664719255e-08,-0.0012951638154551,0.0012951541481601,-0.0012951591276494,0.0012951588793285,-0.0012951574407259,0.0012951607012378,-0.0012951527274343,0.0012951654306452,-0.0011798590746442,0.0011798534034448,-0.001179845196893,0.0011798672512235,8.7459438890925e-09,-1.0969954146405e-08,3.7249667668153e-09,-5.4753098247939e-09,-0.0011499142606253,0.001149912489354,-0.0013932397106864,0.0013932475470387,-0.0013932427125739,0.0013932444854658,-0.0013932460618682,0.0013932410380279,-0.0013932490448146,0.0013932379802848,-0.0012812758905458,0.001281276617849,-0.0012812847178483,0.0012812674251927,-0.0011042523647332,0.0011042666377508,-0.0011042715489349,0.0011042468483733,7.6913682562735e-09,-6.600123399643e-09,-0.0015882088345724,0.0015882099178335,-3.8095726138775e-09,5.1626114378232e-09,-0.0018987851054978,0.0018987878997853,-0.0018987821103548,0.0018987908084189,-0.0018987899241259,0.001898783160718,-0.0018987869223632,0.00189878608404,-0.0014265132164029,0.0014265033123606,-0.0014264990830504,0.0014265171733822,0.71253733196533,131329,3014,0.0043682983222278,0.0047824324090894,0.0065921252576941,37.196447742258,5.7571581938062e-05,5.7571581938062e-05,5.7571581938062e-05,4505876.9951583,0.015869420792048
38619200,0.99967935850427,0.016189424308686,0.004708242781319,0.0050343629714353,0.0064468185559317,-0.0010496687720906,0.0010496704278597,-6.3089798539961e-09,7.9338436301702e-09,-8.8744555525334e-09,1.0967709293216e-08,-0.0012952207102188,0.001295211013917,-0.0012952159964546,0.0012952157710534,-0.0012952143325364,0.00129521757006,-0.0012952095917916,0.0012952223269321,-0.0011798799714302,0.0011798742242109,-0.0011798660134149,0.0011798881531971,8.7034531960881e-09,-1.092514708414e-08,3.7250441041489e-09,-5.4735096766517e-09,-0.0011499070751452,0.0011499053057602,-0.0013932883144575,0.0013932961237374,-0.0013932913165462,0.0013932930620711,-0.0013932946376292,0.0013932896433015,-0.0013932976191866,0.0013932865868615,-0.0012813018031267,0.0012813025577912,-0.0012813106269266,0.0012812933693719,-0.0011042768247948,0.0011042910135591,-0.0011042959227698,0.0011042713122902,7.7300260171289e-09,-6.6390910688545e-09,-0.0015882419264401,0.001588243009429,-3.8043018905416e-09,5.1569470566896e-09,-0.0018988581700845,0.0018988609943552,-0.0018988551791873,0.0018988638984631,-0.0018988630152865,0.0018988562285928,-0.0018988600166846,0.0018988591492839,-0.001426567202249,0.0014265572207072,-0.0014265529945086,0.0014265711547479,0.71625966948393,131329,3014,0.0043682674978283,0.0047824050270949,0.0065922593385042,37.193709552401,5.7549676419212e-05,5.7549676419212e-05,5.7549676419212e-05,4501522.3053858,0.015869501036526
38819200,0.99970168574096,0.016189786513177,0.0047083473607554,0.0050344736926147,0.0064469654598067,-0.0010496616246182,0.0010496632784808,-6.347879426288e-09,7.9710077947716e-09,-8.8354757876325e-09,1.0926617352017e-08,-0.0012952835504509,0.0012952738521128,-0.001295278810032,0.0012952786358658,-0.0012952771979544,0.0012952803828242,-0.0012952724331099,0.0012952851637791,-0.001179897811315,0.0011798919646439,-0.0011798837825482,0.0011799059640889,8.7183819314403e-09,-1.0941169625602e-08,3.7179625712818e-09,-5.4674599657391e-09,-0.0011499002479954,0.0011498984774675,-0.0013933409263062,0.0013933487390552,-0.001393343922738,0.0013933456829902,-0.0013933472583571,0.001393342249336,-0.0013933502368613,0.0013933391960043,-0.0012813226225906,0.001281323356451,-0.0012813314372998,0.0012813141771815,-0.0011043035348899,0.0011043177603585,-0.0011043226652892,0.0011042980246399,7.7707631489905e-09,-6.6800363228875e-09,-0.0015882770420403,0.0015882781248267,-3.8033552086973e-09,5.155753695146e-09,-0.0018989339521775,0.0018989368030401,-0.0018989309608432,0.0018989397078047,-0.0018989388233418,0.0018989320113128,-0.0018989358265159,0.0018989349297859,-0.0014266273872899,0.0014266173205884,-0.0014266130964574,0.0014266313392478,0.7184460054886,131329,3014,0.0043682414106954,0.0047823790534445,0.0065924016040477,37.193612250174,5.7548898001395e-05,5.7548898001395e-05,5.7548898001395e-05,4497309.3043699,0.01586959581276
38880000,0.99970832224825,0.016189894295714,0.0047083784951696,0.0050345066474004,0.0064470091531444,-0.0010496566295626,0.001049658284113,-6.3601471992218e-09,7.983967601682e-09,-8.8491048472153e-09,1.0941062433641e-08,-0.0012953035541298,0.0012952938392731,-0.0012952988058586,0.0012952986308675,-0.0012952971929084,0.0012953003788261,-0.0012952924190733,0.0012953051687425,-0.0011799029190227,0.0011798970559369,-0.0011798888640781,0.0011799110818136,8.7050404810292e-09,-1.0927032615072e-08,3.7182304781397e-09,-5.4670571688798e-09,-0.0011498944564131,0.0011498926865252,-0.0013933556560406,0.0013933634606414,-0.0013933586529848,0.0013933604040484,-0.0013933619794301,0.0013933569796746,-0.001393364957309,0.0013933539269532,-0.0012813258255483,0.0012813265675227,-0.0012813346386075,0.0012813173901723,-0.0011043108261603,0.0011043250235425,-0.0011043299277715,0.0011043053167464,7.782010019171e-09,-6.6915241342368e-09,-0.0015882860954518,0.0015882871780234,-3.8005777945454e-09,5.152693067352e-09,-0.0018989566120836,0.0018989594728717,-0.0018989536232736,0.0018989623750921,-0.001898961491372,0.0018989546729934,-0.001898958496002,0.0018989575901351,-0.0014266460625093,0.0014266359729142,-0.0014266317511329,0.0014266500123009,0.71909630842689,131329,3014,0.0043682220287059,0.0047823556500416,0.0065924380234658,37.193608869065,5.7548870952521e-05,5.7548870952521e-05,5.7548870952521e-05,4495976.6717208,0.01586959034294
