time,ASR_ext,ASR_strain,ASR_strain_xx,ASR_strain_yy,ASR_strain_zz,disp_x_101,disp_x_102,disp_x_103,disp_x_104,disp_x_105,disp_x_106,disp_x_p1_neg,disp_x_p1_pos,disp_x_p2_neg,disp_x_p2_pos,disp_x_p3_neg,disp_x_p3_pos,disp_x_p4_neg,disp_x_p4_pos,disp_x_p5_neg,disp_x_p5_pos,disp_x_p6_neg,disp_x_p6_pos,disp_y_101,disp_y_102,disp_y_103,disp_y_104,disp_y_105,disp_y_106,disp_y_p1_neg,disp_y_p1_pos,disp_y_p2_neg,disp_y_p2_pos,disp_y_p3_neg,disp_y_p3_pos,disp_y_p4_neg,disp_y_p4_pos,disp_y_p5_neg,disp_y_p5_pos,disp_y_p6_neg,disp_y_p6_pos,disp_y_p7_neg,disp_y_p7_pos,disp_y_p8_neg,disp_y_p8_pos,disp_z_101,disp_z_102,disp_z_103,disp_z_104,disp_z_105,disp_z_106,disp_z_p1_neg,disp_z_p1_pos,disp_z_p2_neg,disp_z_p2_pos,disp_z_p3_neg,disp_z_p3_pos,disp_z_p4_neg,disp_z_p4_pos,disp_z_p5_neg,disp_z_p5_pos,disp_z_p6_neg,disp_z_p6_pos,humidity,ndof,nelem,strain_xx,strain_yy,strain_zz,temp,thermal_strain_xx,thermal_strain_yy,thermal_strain_zz,vonmises,vstrain
2419200,0,0,0,0,0,0,0,0,0,0,0,0,0,0,0,0,0,0,0,0,0,0,0,0,0,0,0,0,0,0,0,0,0,0,0,0,0,0,0,0,0,0,0,0,0,0,0,0,0,0,0,0,0,0,0,0,0,0,0,0,0,0,0,0,0,0,0,0,0,0,0,0,0,0,0
2619200,0.019606421935655,0.00040218148226018,0.00013406049408673,0.00013406049408673,0.00013406049408673,-3.3274935184871e-05,3.3275103616688e-05,7.1135715036559e-11,9.5795056181202e-11,-3.2843235525578e-10,5.1107411132991e-10,-3.3221051839293e-05,3.3220934758274e-05,-3.3221028430721e-05,3.3220927787725e-05,-3.322077677767e-05,3.3221205931871e-05,-3.3220770440805e-05,3.322121598945e-05,-3.4587091594108e-05,3.4587512253536e-05,-3.4587064967427e-05,3.4587533909601e-05,3.1984195524675e-10,-5.1525992133095e-10,-4.1224627407914e-09,3.942274572152e-09,-3.3963190192029e-05,3.3963008487339e-05,-3.3837559065925e-05,3.3835009671045e-05,-3.3834975660494e-05,3.3837712836436e-05,-3.3837823965368e-05,3.3834731406825e-05,-3.3835240566236e-05,3.3837434545949e-05,-3.5121854891873e-05,3.5113484659187e-05,-3.5114047210716e-05,3.51215044235e-05,-3.4710745103484e-05,3.4714050726494e-05,-3.4711558176021e-05,3.4713212915111e-05,-1.0192199750551e-09,-1.0436991019276e-09,-3.5184576190904e-05,3.518249896487e-05,2.8889421758731e-09,-5.0881184507488e-09,-3.4900524792867e-05,3.4901135815437e-05,-3.4903169311546e-05,3.4898489478477e-05,-3.4900534006858e-05,3.4901128712315e-05,-3.4903178549106e-05,3.4898482356632e-05,-3.5634081015869e-05,3.5629337066971e-05,-3.5634054276356e-05,3.5629358269037e-05,0.81992968229933,131329,3014,0.00013863628514893,0.00014150285444917,0.00014658725046464,31.574755723855,1.259804579084e-05,1.259804579084e-05,1.259804579084e-05,594527.36612385,0.00042681769051549
2819200,0.041187392180481,0.00083466366794279,0.0002761161102726,0.00027794451580946,0.00028060304186074,-6.7580428307719e-05,6.7584808406941e-05,2.1001209043877e-09,2.2387383397128e-09,-8.8372344652848e-09,1.3596648292621e-08,-6.8621112979312e-05,6.8618039044717e-05,-6.8621068252368e-05,6.8618086028214e-05,-6.8613994688544e-05,6.8625514954965e-05,-6.8613943846464e-05,6.8625557145096e-05,-7.0173610519144e-05,7.0185236837173e-05,-7.0173469620991e-05,7.018536879305e-05,8.6553125583519e-09,-1.3769624141684e-08,-6.9672187619955e-10,-4.0077390735772e-09,-6.9385818535966e-05,6.9381072417117e-05,-7.0215937799579e-05,7.0219686216565e-05,-7.0217015271496e-05,7.0218573681473e-05,-7.0223051660805e-05,7.0212213593485e-05,-7.0224128416952e-05,7.021110168269e-05,-7.1590930956179e-05,7.1582052516349e-05,-7.1594141767404e-05,7.1578771454606e-05,-7.0595416874029e-05,7.0611457375561e-05,-7.0617251483819e-05,7.0588959081914e-05,1.0472509006855e-09,9.1430003518064e-10,-7.2519801373353e-05,7.2521762166937e-05,-6.3535640677033e-10,2.6374246407303e-09,-7.2835320771552e-05,7.2836226636541e-05,-7.2834214200218e-05,7.2837283891387e-05,-7.2835393722476e-05,7.2836210261026e-05,-7.2834285831822e-05,7.2837267525223e-05,-7.3007579346673e-05,7.3010497187855e-05,-7.3007378133235e-05,7.3010554938594e-05,0.82138491994784,131329,3014,0.0002815547644522,0.00028905585394362,0.00030212397815231,32.742168821996,2.1937350575966e-05,2.1937350575966e-05,2.1937350575966e-05,855227.42578274,0.00087311617783105
3019200,0.062593510999734,0.0012541129353311,0.00041090413702563,0.00041662075967478,0.00042658803863073,-9.7625452174644e-05,9.7630106027558e-05,2.1818530443173e-09,2.4285178598177e-09,-1.1637256896062e-08,1.6808101905804e-08,-9.9880040781706e-05,9.9875227755066e-05,-9.9879974735719e-05,9.9875325846126e-05,-9.9871060093003e-05,9.9884704311633e-05,-9.9870971853244e-05,9.9884780811865e-05,-0.00010212351547251,0.00010213729628503,-0.00010212326878796,0.0001021375331484,1.1335050060072e-08,-1.7121947689888e-08,2.9015315704506e-09,-8.1371327209257e-09,-0.00010091497192846,0.00010090969266573,-0.00010286407287549,0.0001028718021037,-0.00010286761785721,0.00010286809960636,-0.00010287306575109,0.00010286232970223,-0.00010287661039579,0.00010285862751892,-0.00010474211648681,0.00010473829878897,-0.00010475280511648,0.00010472731904886,-0.00010264630795851,0.00010266514582143,-0.00010267402459799,0.00010263653811022,1.9699577436505e-09,1.7218373170298e-09,-0.00010693245695735,0.0001069361606508,-3.5227547915607e-09,7.3951233980178e-09,-0.00010817423720191,0.00010817435340544,-0.00010817058525974,0.00010817793256823,-0.00010817436211521,0.00010817431266745,-0.00010817070948162,0.00010817789180434,-0.00010732393626584,0.00010733101704646,-0.00010732360594912,0.00010733117221587,0.82013326245846,131329,3014,0.00040670036406081,0.00042037966069111,0.00044545955148304,32.49158659021,1.993269272168e-05,1.993269272168e-05,1.993269272168e-05,1162991.1361994,0.0012733512129501
3219200,0.083748958742919,0.0016546036751957,0.00053775698897322,0.00054846772056378,0.00056837896565865,-0.00012575239158869,0.00012575638237174,1.7969353185029e-09,2.157860645651e-09,-1.1758900169745e-08,1.6301706262946e-08,-0.00012964192856987,0.00012963656864384,-0.0001296418352612,0.00012963671543652,-0.00012963315628772,0.00012964591152902,-0.00012963302906543,0.00012964602537556,-0.00013224411015716,0.00013225698874545,-0.00013224374903508,0.00013225733532261,1.1185865647828e-08,-1.6836553126849e-08,5.2067530053513e-09,-1.0251329887931e-08,-0.00013073386289213,0.00013072877875108,-0.00013424006648968,0.0001342492754905,-0.00013424500144014,0.0001342440911623,-0.00013424886935198,0.00013423996909686,-0.00013425380375061,0.00013423478524411,-0.00013624444960336,0.00013624531665821,-0.00013625940403475,0.00013622991404731,-0.00013279552096861,0.00013281263332803,-0.00013282281415077,0.00013278440453546,2.4992537372051e-09,2.1421847041689e-09,-0.00014021941198139,0.00014022407237836,-5.172486963765e-09,1.0092458784878e-08,-0.00014285316919633,0.00014285281358524,-0.00014284807133162,0.00014285781737585,-0.00014285333411951,0.00014285273998073,-0.00014284824123427,0.00014285774974745,-0.00014021759303829,0.00014022696270238,-0.00014021715180503,0.0001402272199189,0.80675915170149,131329,3014,0.00052384113217583,0.00054456572140041,0.00058408490817467,32.203450358743,1.7627602869946e-05,1.7627602869946e-05,1.7627602869946e-05,1409309.2856544,0.0016538608856409
3419200,0.10463264928899,0.0020333682974746,0.00065618607438817,0.00067262846997281,0.00070455375311364,-0.00015191055710823,0.00015191386323958,1.4034449143903e-09,1.8756549363601e-09,-1.1239267760761e-08,1.5094483635372e-08,-0.00015788451842893,0.00015787901412355,-0.00015788439463204,0.00015787920467643,-0.00015787632404749,0.00015788777021142,-0.00015787615947546,0.00015788792090367,-0.00016031957471413,0.00016033109467625,-0.00016031910064543,0.00016033154622592,1.0776966452874e-08,-1.5519493663772e-08,6.9326274798818e-09,-1.1080194654597e-08,-0.00015870747842007,0.00015870330281279,-0.00016425215687665,0.00016426252646801,-0.00016425789103656,0.00016425648624523,-0.00016426038194338,0.00016425380627456,-0.00016426611557445,0.00016424776650955,-0.00016579855517181,0.00016580340471094,-0.00016581596937077,0.00016578543630953,-0.00016081308171018,0.00016082856035829,-0.00016083869411944,0.00016080203375215,2.75373917146e-09,2.2847502089715e-09,-0.000172111833042,0.00017211689327679,-6.1939590113186e-09,1.1580334292262e-08,-0.00017669058737401,0.00017668981822727,-0.00017668466067852,0.00017669564672417,-0.00017669079165354,0.00017668970945371,-0.000176684869871,0.00017669554382427,-0.00017130282182745,0.00017131331305854,-0.00017130227927953,0.00017131368815515,0.78589838147022,131329,3014,0.00063277101902535,0.00066105462293858,0.0007168830616559,31.913955396997,1.5311643175976e-05,1.5311643175976e-05,1.5311643175976e-05,1621369.0336805,0.0020127361400224
3619200,0.12577025641397,0.0024029457221193,0.00077064653551577,0.00079338770413147,0.00083891148247204,-0.00017780528787463,0.00017780781134995,9.5608472092247e-10,1.5503473312841e-09,-1.0762298761094e-08,1.3807349332809e-08,-0.00018613501632037,0.00018612927191559,-0.00018613485411617,0.00018612950510455,-0.00018612738203373,0.00018613743295958,-0.00018612717761319,0.00018613762544259,-0.00018822505515493,0.00018823509981613,-0.00018822445701226,0.00018823566724832,1.0310254473421e-08,-1.4158315210886e-08,7.5962971414685e-09,-1.0881569608499e-08,-0.00018652344213567,0.00018652013966828,-0.00019444821493902,0.00019445900484986,-0.00019445408643652,0.0001944528101783,-0.00019445586485254,0.00019445090345328,-0.0001944617355245,0.00019444470954327,-0.0001952919945875,0.0001952987637899,-0.00019530984251918,0.00019528032134479,-0.00018842463408475,0.00018843903658336,-0.00018844847726818,0.00018841435371028,2.6810474552671e-09,2.1108948816471e-09,-0.00020422965705034,0.0002042344687351,-6.5258578376513e-09,1.1692070264033e-08,-0.00021126358379081,0.00021126244302832,-0.00021125751363032,0.00021126841408873,-0.00021126381924947,0.00021126229769878,-0.00021125775545201,0.00021126827668002,-0.00020226665179098,0.00020227694607976,-0.00020226602044275,0.00020227742953765,0.77011576722178,131329,3014,0.00074059321842514,0.00077687392865953,0.00085059991821666,31.9939494928,1.59515959424e-05,1.59515959424e-05,1.59515959424e-05,1849761.9607819,0.0023708796751494
3819200,0.14750952089925,0.0027775241097856,0.00088585777283342,0.00091548113972829,0.00097618519722385,-0.00020431535284979,0.00020431746577235,6.9472740166505e-10,1.4072540736334e-09,-1.0459296026061e-08,1.307572359209e-08,-0.00021512389528381,0.00021511803866965,-0.0002151236934781,0.00021511831133171,-0.00021511657879146,0.00021512584770217,-0.00021511633623986,0.00021512608130923,-0.00021711731859991,0.00021712650109654,-0.00021711660187037,0.00021712718197174,1.0080484483429e-08,-1.3322505413327e-08,7.5898204691417e-09,-1.0292738768765e-08,-0.00021506510376638,0.00021506239158103,-0.00022556951323923,0.00022558034748197,-0.00022557519150578,0.00022557435462331,-0.00022557683089854,0.00022557260682526,-0.00022558250831995,0.0002255666148795,-0.00022592015779959,0.00022592727323944,-0.00022593741732709,0.00022590941757158,-0.0002167737291788,0.00021678787944826,-0.00021679654758159,0.00021676427122146,2.4732357597129e-09,1.7980973713375e-09,-0.00023746628071909,0.00023747056747831,-6.4834250599251e-09,1.1132321113511e-08,-0.00024737504089515,0.00024737360523013,-0.00024736917406101,0.00024737937541429,-0.00024737530825315,0.00024737342220068,-0.00024736944807102,0.00024737920076568,-0.00023419515250627,0.00023420462429302,-0.00023419442797947,0.00023420521949964,0.77140162287581,131329,3014,0.00085096788885754,0.00089570072032256,0.00098895422987215,32.325697813697,1.8605582509577e-05,1.8605582509577e-05,1.8605582509577e-05,2087374.3670064,0.0027393773506304
4019200,0.16983958268986,0.0031578091316218,0.0010019967117275,0.0010390756955237,0.0011167367243706,-0.0002310248477656,0.0002310267725057,5.4737652222151e-10,1.3700235892859e-09,-1.0321191043728e-08,1.2739102989736e-08,-0.0002445497342011,0.00024454380612357,-0.00024454949522088,0.00024454411540052,-0.00024454255837512,0.00024455145053916,-0.00024454228061377,0.00024455172266061,-0.00024652368820268,0.00024653242126494,-0.00024652286095702,0.00024653320718468,1.0009839504118e-08,-1.2925468679216e-08,7.327908607469e-09,-9.7188309591655e-09,-0.00024390756763065,0.00024390517289576,-0.00025725977021513,0.00025727049309687,-0.0002572651791355,0.00025726478358716,-0.00025726694461901,0.00025726291315986,-0.00025727235278092,0.00025725720457582,-0.00025717668940888,0.00025718344891643,-0.00025719313362806,0.00025716642109718,-0.00024547048041414,0.0002454847706691,-0.00024549285371656,0.00024546163813069,2.2624442667924e-09,1.4741383932604e-09,-0.00027143363812944,0.0002714373849052,-6.3344806689784e-09,1.044413648827e-08,-0.00028459404724774,0.00028459238403078,-0.00028458846098964,0.00028459787668125,-0.00028459434945163,0.0002845921610583,-0.00028458876986744,0.00028459766201933,-0.00026678772265039,0.00026679627189312,-0.00026678689576074,0.00026679698611509,0.77299486339635,131329,3014,0.00096216305607062,0.0010157655497863,0.0011303291967785,32.663234134635,2.1305873077082e-05,2.1305873077082e-05,2.1305873077082e-05,2311919.3340848,0.0031131065997338
4219200,0.19273473429424,0.0035439612087122,0.00111912267494,0.0011641649446814,0.0012606735890908,-0.00025793843707356,0.00025794027960818,4.5199362371388e-10,1.3855649282808e-09,-1.0298569924302e-08,1.2627211765811e-08,-0.00027448932368058,0.00027448331894259,-0.00027448904684501,0.00027448366436166,-0.00027448218196817,0.00027449091252254,-0.00027448186861556,0.00027449122303207,-0.00027640737817565,0.0002764158789535,-0.00027640643954279,0.0002764167706921,1.0026956229505e-08,-1.2776298309133e-08,6.9621876327347e-09,-9.1964379997807e-09,-0.00027304325896027,0.00027304102468835,-0.00028955111037943,0.00028956165829713,-0.00028955623398561,0.00028955625033271,-0.00028955824837636,0.00028955412661546,-0.00028956337122324,0.00028954871954382,-0.00028899664028792,0.00028900272740172,-0.00028901222265626,0.00028898658093954,-0.00027451129571106,0.00027452591311675,-0.00027453354874718,0.00027450292255138,2.0814032484566e-09,1.1807390258068e-09,-0.00030614630068108,0.0003061495676746,-6.133655931426e-09,9.7597289341569e-09,-0.00032288488210073,0.0003228830693086,-0.00032287959235338,0.00032288826857109,-0.00032288521935507,0.00032288280682032,-0.00032287993618573,0.00032288801425225,-0.00030011734894439,0.00030012502029347,-0.00030011641945846,0.00030012585195006,0.77488674239124,131329,3014,0.0010741980712408,0.001137036905788,0.0012747840547977,33.000974898561,2.4007799188489e-05,2.4007799188489e-05,2.4007799188489e-05,2520444.9700254,0.0034921206950417
4419200,0.21656483837694,0.0039419435863634,0.0012390612577043,0.0012926203105,0.0014102620181591,-0.00028595437208082,0.00028595614767403,4.0904489453278e-10,1.3633930551604e-09,-1.0161085071414e-08,1.2414408535591e-08,-0.00030594021566245,0.00030593425077944,-0.00030593992887126,0.00030593460325197,-0.00030593317863467,0.00030594172333484,-0.00030593286086065,0.00030594204084227,-0.00030766198724085,0.00030767029025437,-0.00030766102981688,0.00030767119514222,1.0047907937613e-08,-1.2687053729852e-08,6.5270834506581e-09,-8.6604214157558e-09,-0.0003033849598758,0.00030338282956896,-0.00032343242124201,0.00032344273010264,-0.00032343723304891,0.00032343765292289,-0.00032343954036447,0.00032343522608272,-0.00032344435415799,0.00032343014695336,-0.00032227996468457,0.00032228522548982,-0.00032229461033902,0.00032227003905474,-0.00030481853737406,0.00030483351929394,-0.00030484073362045,0.00030481060131876,1.973934320088e-09,8.7072030250421e-10,-0.00034263099671085,0.00034263384073822,-5.8590001893086e-09,9.0553283929187e-09,-0.00036331673158111,0.00036331488693023,-0.00036331176812689,0.00036331976351225,-0.00036331713222937,0.00036331455606689,-0.00036331217752128,0.00036331943738751,-0.00033521864309486,0.00033522536909213,-0.00033521751902668,0.0003352264116809,0.77612069144743,131329,3014,0.0011908115119297,0.0012633132727774,0.0014265888918151,33.595436330252,2.8763490642013e-05,2.8763490642013e-05,2.8763490642013e-05,2722706.4909706,0.0038882789207308
4619200,0.24146776641889,0.0043534607045733,0.0013623509924662,0.0014249422970675,0.0015661674150396,-0.00031492912349745,0.00031493086118326,3.3296389807853e-10,1.4030308827814e-09,-1.0118711811462e-08,1.2326234847119e-08,-0.00033881247322321,0.00033880647779985,-0.00033881214797755,0.00033880686592921,-0.00033880547226863,0.00033881390080665,-0.00033880511842135,0.00033881425665487,-0.00034011663575211,0.0003401247474049,-0.00034011556365952,0.00034012576211258,1.0010833750239e-08,-1.2568987893494e-08,6.1129032325832e-09,-8.1731962670862e-09,-0.00033476426895546,0.00033476221404231,-0.0003587676092356,0.00035877764715965,-0.00035877213273701,0.00035877287629231,-0.00035877468518091,0.00035877019684882,-0.00035877920993208,0.00035876542352026,-0.00035683416034505,0.00035683866188909,-0.00035684793415437,0.000356824371032,-0.00033624839024076,0.00033626359484882,-0.00033627043837077,0.00033624083842954,1.8546539818292e-09,6.4415442402451e-10,-0.00038073925112974,0.00038074174430336,-5.5902630859912e-09,8.4273002216527e-09,-0.0004057983159668,0.00040579645654045,-0.00040579365351152,0.00040580103679131,-0.00040579875127858,0.0004057960859893,-0.00040579409646102,0.00040580066986175,-0.00037192020108492,0.00037192617748582,-0.0003719189779188,0.00037192733266286,0.77693647581476,131329,3014,0.0013114054874183,0.0013938924145219,0.0015851220053542,34.293448535169,3.4347588281352e-05,3.4347588281352e-05,3.4347588281352e-05,2917381.1497237,0.0042996718356123
4819200,0.26741394235455,0.0047777966713545,0.0014888847784176,0.00156089676743,0.0017280151255069,-0.00034465956719533,0.00034466129902147,2.7248722195241e-10,1.4582153701979e-09,-1.0101272239508e-08,1.2295981776829e-08,-0.00037290435758646,0.00037289833494198,-0.00037290399296801,0.00037289875992601,-0.00037289736580931,0.00037290573743957,-0.00037289697490611,0.0003729061325887,-0.00037354192063364,0.000373549897032,-0.00037354073347552,0.00037355102321478,1.0007629804051e-08,-1.2513172271414e-08,5.7421660175029e-09,-7.7569140722292e-09,-0.00036693723125821,0.00036693522351441,-0.00039532529566725,0.00039533510359413,-0.00039532956721835,0.00039533060007565,-0.00039533235888984,0.00039532767415054,-0.00039533663164836,0.00039532316836186,-0.00039240755133717,0.00039241134577969,-0.00039242056591337,0.00039239783845187,-0.00036857157840964,0.00036858703494198,-0.00036859357421425,0.00036856434487705,1.7763350135817e-09,4.5868214931049e-10,-0.00042016844226876,0.00042017066698759,-5.338667806172e-09,7.8990407764764e-09,-0.00045005846703647,0.00045005663648334,-0.00045005406632464,0.00045006095876795,-0.00045005893606003,0.0004500562260911,-0.00045005454300734,0.00045006055229239,-0.00040995215300316,0.00040995750045036,-0.00040995082908184,0.00040995876572937,0.77792180354007,131329,3014,0.0014351344526338,0.0015277580838626,0.0017491205770109,34.993874809947,3.9950998479579e-05,3.9950998479579e-05,3.9950998479579e-05,3106114.5183304,0.0047231792432611
5019200,0.2943567527342,0.0052127450338024,0.0016181541625552,0.0016997885438853,0.0018948023273619,-0.00037503044727514,0.0003750321831544,2.1806100562126e-10,1.5168270876501e-09,-1.0076449833036e-08,1.2268142246793e-08,-0.00040811295484538,0.00040810691867157,-0.00040811255143988,0.00040810738008305,-0.00040810597851694,0.00040811430081329,-0.00040810555094518,0.00040811473449701,-0.00040772709364678,0.00040773494453609,-0.00040772579431487,0.00040773617998801,9.968694736337e-09,-1.2495002346204e-08,5.3765733744193e-09,-7.4152560488758e-09,-0.00039973806920986,0.00039973603777684,-0.0004329708390482,0.00043298037191838,-0.00043297488359854,0.00043297610864272,-0.00043297788826322,0.0004329729639086,-0.00043298193410126,0.00043296869853169,-0.00042877288431001,0.00042877598055905,-0.00042878521684406,0.00042876317770244,-0.00040161518100366,0.00040163079159646,-0.00040163712625064,0.00040160816579271,1.7304782227693e-09,3.0286150505362e-10,-0.00046066313044071,0.00046066514953906,-5.0952653593982e-09,7.4418981495022e-09,-0.00049588192250902,0.00049588015778141,-0.00049587775667117,0.00049588424803069,-0.00049588242525297,0.00049587970702868,-0.00049587826786653,0.00049588380207987,-0.00044905123701641,0.00044905604166641,-0.00044904980853064,0.00044905741753106,0.77677326950594,131329,3014,0.0015615190634164,0.0016642196594365,0.001917518337876,35.694386685014,4.555509348011e-05,4.555509348011e-05,4.555509348011e-05,3286875.3978857,0.0051565690526495
5219200,0.32160142581479,0.0056489220794523,0.0017476531134327,0.001838702709603,0.0020625662564166,-0.00040478067431462,0.00040478242883076,1.731418072984e-10,1.5802849965693e-09,-1.0108460340843e-08,1.2313185392227e-08,-0.00044302664569066,0.00044302056847765,-0.0004430262048697,0.0004430210653147,-0.00044301964219945,0.00044302797485361,-0.00044301917928171,0.00044302844521943,-0.00044135891477085,0.00044136670332553,-0.00044135750868209,0.00044136804327854,9.9960749651923e-09,-1.2544291888952e-08,5.1365910981844e-09,-7.1998420933029e-09,-0.00043179144495164,0.00043178938853261,-0.00047020179666013,0.00047021118027855,-0.00047020569577011,0.00047020707261123,-0.00047020887488533,0.00047020374886812,-0.00047021277580684,0.00047019963886581,-0.00046451377854914,0.00046451637904116,-0.00046452567369267,0.00046450403099475,-0.00043405361870761,0.00043406943076517,-0.00043407564353614,0.00043404673624583,1.7218087566156e-09,1.7951700406993e-10,-0.00050053560912386,0.00050053749316974,-4.9399273541176e-09,7.144959514406e-09,-0.00054145185806773,0.00054145014809009,-0.00054144784449138,0.00054145408922339,-0.00054145239597487,0.00054144965610548,-0.00054144839192427,0.00054145360235822,-0.00048760305795034,0.00048760746718895,-0.00048760151891549,0.00048760895779815,0.77855553461979,131329,3014,0.0016853132499913,0.001797556379188,0.0020832945717452,36.023388383804,4.8187107070428e-05,4.8187107070428e-05,4.8187107070428e-05,3455721.0128508,0.0055817663293782
5419200,0.34894621402213,0.0060771425142147,0.0018748233826601,0.0019747659949976,0.002227553136557,-0.00043382265330104,0.00043382447187654,1.4500658114848e-10,1.6718836589107e-09,-1.0076688418145e-08,1.2343304266175e-08,-0.00047754381218907,0.00047753776055537,-0.00047754333147655,0.00047753829686299,-0.00047753680684364,0.00047754516439081,-0.00047753630419651,0.00047754567537193,-0.00047406340098072,0.00047407113406106,-0.00047406187654313,0.00047407259116646,9.9941021428061e-09,-1.2539232928056e-08,4.9004544265234e-09,-6.9629706105449e-09,-0.00046296297843353,0.00046296092190717,-0.00050689806559842,0.00050690728689527,-0.00050690180738101,0.00050690333930084,-0.00050690514243611,0.00050689985867769,-0.00050690888556786,0.00050689590927374,-0.00049919577672966,0.00049919791736338,-0.00049920721194216,0.00049918603637802,-0.00046560187917084,0.00046561784428154,-0.00046562389888105,0.00046559515970037,1.7738060534427e-09,1.2817904389467e-10,-0.00053967486905215,0.0005396767521032,-4.7101463528871e-09,6.9107102223846e-09,-0.00058668543592195,0.0005866839155504,-0.00058668158091451,0.00058668770219853,-0.00058668600727109,0.00058668338739553,-0.00058668216110096,0.00058668717941152,-0.00052529488992073,0.00052529904369364,-0.00052529325075988,0.00052530063536717,0.76958004409012,131329,3014,0.0018061540932978,0.0019272113145226,0.0022459883103546,36.27612588903,5.0209007112241e-05,5.0209007112241e-05,5.0209007112241e-05,3598435.4545137,0.0059973705151744
5619200,0.37631387552627,0.006482182274082,0.001994990639011,0.002102980070329,0.002384211564742,-0.00046119248659055,0.00046119433517578,1.0412364643231e-10,1.7425094444149e-09,-1.0020991339417e-08,1.2315344704996e-08,-0.00051070363461645,0.00051069760390629,-0.00051070311542337,0.00051069817642845,-0.00051069665440821,0.00051070497808909,-0.00051069611443163,0.00051070552630762,-0.00050438762419013,0.00050439524984896,-0.00050438598956952,0.00050439681500243,9.9500812370978e-09,-1.2498901075834e-08,4.679706939274e-09,-6.7472979541973e-09,-0.00049224117274309,0.00049223911024894,-0.00054204836439966,0.00054205740566698,-0.00054205196509513,0.00054205360558038,-0.0005420554141307,0.00054205000684508,-0.00054205901642822,0.00054204620512942,-0.00053133968817358,0.00053134142431098,-0.00053135070102724,0.00053132997654283,-0.00049479425089412,0.00049481027528768,-0.00049481619138731,0.00049478767719941,1.8076747722471e-09,5.0499706356871e-11,-0.00057723609619027,0.00057723793389743,-4.51685793337e-09,6.6689416361902e-09,-0.00063081631086409,0.00063081492716491,-0.00063081260181649,0.00063081857047897,-0.00063081691860011,0.00063081436129724,-0.0006308132182498,0.00063081800987346,-0.00056077307811448,0.00056077693435262,-0.00056077133003811,0.00056077863501148,0.73637049691571,131329,3014,0.0019200344055498,0.0020489806389045,0.0024020879276778,36.527029120535,5.2216232964277e-05,5.2216232964277e-05,5.2216232964277e-05,3713869.4226412,0.0063915685955083
5819200,0.4036267525469,0.006868803070532,0.0021095889156933,0.0022247107853621,0.0025345033694766,-0.0004872082131332,0.00048721005155469,4.3181966526446e-11,1.7932815310537e-09,-9.9691716824717e-09,1.2251027026651e-08,-0.00054259252799732,0.00054258648749054,-0.00054259197029515,0.00054258709599118,-0.00054258558288586,0.00054259382196545,-0.00054258500549051,0.00054259440726243,-0.00053304193944706,0.00053304940750814,-0.00053304019412696,0.00053305108058238,9.8912381251572e-09,-1.2441441634503e-08,4.4808576093067e-09,-6.5530317756835e-09,-0.00051998549583695,0.00051998342895287,-0.00057578221620748,0.00057579108447124,-0.00057578569091228,0.00057578741699928,-0.00057578923121987,0.00057578372611515,-0.00057579270766432,0.00057578005715129,-0.00056163945113357,0.00056164083585787,-0.00056165008262225,0.00056162977762332,-0.00052208592611379,0.00052210196545585,-0.00052210775571323,0.00052207948653422,1.8352561713308e-09,-3.3184841431756e-11,-0.00061353191281302,0.00061353369301299,-4.3508510605896e-09,6.4428439821124e-09,-0.00067409087236576,0.00067408959847373,-0.00067408729433832,0.00067409311267226,-0.0006740915165341,0.00067408899496799,-0.00067408794737051,0.00067409251460186,-0.00059441614540176,0.00059441970628812,-0.00059441428842552,0.00059442151601562,0.7131758485353,131329,3014,0.0020282779240039,0.0021643628392325,0.0025528956580133,36.777866855087,5.4222934840698e-05,5.4222934840698e-05,5.4222934840698e-05,3837528.9212635,0.0067684889117254
6019200,0.43039906989524,0.0072378066527277,0.0022188242050342,0.0023402302429177,0.0026787522047758,-0.00051148401531604,0.00051148584945837,-2.5123526140581e-11,1.8577184701524e-09,-9.9320846904539e-09,1.2207568723846e-08,-0.00057280606718842,0.00057280000323365,-0.00057280546369623,0.00057280065483705,-0.00057279914354411,0.00057280730956367,-0.00057279852215469,0.00057280793837959,-0.00055966785747967,0.00055967516618189,-0.00055966598195518,0.0005596769671275,9.852040258517e-09,-1.2401557074465e-08,4.3367661456009e-09,-6.4115938519914e-09,-0.00054583005473792,0.00054582798597529,-0.00060763929769287,0.00060764804287894,-0.00060764267917162,0.00060764447212062,-0.00060764628960482,0.00060764071240027,-0.0006076496737827,0.00060763713969941,-0.00058969339876419,0.00058969452803361,-0.00058970375482182,0.00058968375222542,-0.00054743195881208,0.00054744801628844,-0.0005474537153315,0.00054742561875349,1.8551234086062e-09,-1.0362148734646e-10,-0.00064810994080918,0.00064811166974468,-4.2416614931383e-09,6.2790359136453e-09,-0.00071566490656394,0.0007156637025198,-0.00071566141973446,0.00071566712723247,-0.0007156655799045,0.00071566306848946,-0.00071566210276701,0.00071566649803586,-0.0006261685422702,0.00062617187249245,-0.00062616659613789,0.00062617377172884,0.70261524185677,131329,3014,0.0021292800615144,0.0022718385052623,0.0026965362752996,36.775506653242,5.4204053225935e-05,5.4204053225935e-05,5.4204053225935e-05,3940868.4027393,0.007123078641751
6219200,0.45656079176936,0.0075991272930892,0.0023258016793765,0.0024528676139915,0.0028204579997212,-0.00053508090956128,0.00053508274010341,-8.066137564446e-11,1.9099309905957e-09,-9.8803012466673e-09,1.2150577411583e-08,-0.00060264792069985,0.00060264185153719,-0.00060264727983615,0.00060264253818628,-0.000602641027759,0.00060264911950534,-0.00060264036952795,0.00060264978460255,-0.00058567909706671,0.00058568625993445,-0.00058567711421387,0.00058568816602786,9.8004990468538e-09,-1.2343059499808e-08,4.2258514708568e-09,-6.296857523221e-09,-0.0005708941967283,0.000570892132115,-0.00063900882280862,0.00063901746187488,-0.00063901213135686,0.00063901396770132,-0.00063901578214505,0.00063901016894435,-0.00063901909285413,0.00063900667291295,-0.00061693393393812,0.00061693488174765,-0.00061694407110339,0.00061692433061246,-0.00057210549470985,0.00057212152391562,-0.00057212714631353,0.00057209923946374,1.889040425494e-09,-1.8526449397335e-10,-0.00068227068719862,0.0006822723678913,-4.1540379070522e-09,6.1402771753648e-09,-0.00075671444311875,0.00075671330413278,-0.00075671103180206,0.00075671665424215,-0.00075671515373502,0.00075671263143759,-0.00075671175206936,0.00075671598672212,-0.00065763649165928,0.00065763958642724,-0.00065763443317144,0.00065764159807769,0.70745492731216,131329,3014,0.0022274538242785,0.0023760626851435,0.0028384188249084,36.758743367946,5.406994694357e-05,5.406994694357e-05,5.406994694357e-05,4016572.1835533,0.0074699013604036
6419200,0.48207176373065,0.0079478716070699,0.0024286580629712,0.0025609332761742,0.0029582802679244,-0.00055769723452369,0.00055769906198437,-1.3739574486019e-10,1.9641224435252e-09,-9.8171344462226e-09,1.2082574437527e-08,-0.00063172795961473,0.00063172189300738,-0.00063172728057833,0.00063172261556327,-0.000631721105476,0.00063172911561909,-0.00063172040990861,0.00063172981755664,-0.00061054144321677,0.00061054845099919,-0.00061053935077004,0.00061055046505254,9.7390933956834e-09,-1.2272736464432e-08,4.1336321228476e-09,-6.1979778526159e-09,-0.00059486022573506,0.0005948581679312,-0.00066951832638787,0.00066952686648261,-0.00066952157483765,0.00066952343684441,-0.00066952524499801,0.00066951961847403,-0.00066952849540976,0.00066951618685716,-0.00064291465078403,0.00064291546128736,-0.00064292460221568,0.00064290509991698,-0.00059559111744604,0.00059560708739491,-0.00059561264225096,0.00059558493657028,1.922831923334e-09,-2.6374701003342e-10,-0.00071564691891127,0.00071564855475227,-4.0827163922579e-09,6.0212741886773e-09,-0.00079696092392676,0.00079695984076313,-0.00079695757608769,0.00079696312807232,-0.00079696167109716,0.00079695913024001,-0.00079695833299023,0.00079696242290526,-0.00068831334263059,0.00068831621978167,-0.00068831117453317,0.00068831834125893,0.7021089368364,131329,3014,0.0023215459760552,0.002475715485591,0.0029770185173659,36.741580840558,5.3932646724463e-05,5.3932646724463e-05,5.3932646724463e-05,4081565.1283055,0.007804817466355
6619200,0.50730857768184,0.0083151364965191,0.0025373478477102,0.0026746317869993,0.0031031568618096,-0.00058164562111481,0.00058164744459808,-1.9875747962484e-10,2.0216709598693e-09,-9.6921896937284e-09,1.1952114671395e-08,-0.00066185897782921,0.00066185295212599,-0.00066185825763852,0.00066185371364654,-0.00066185220519718,0.00066186008845941,-0.0006618514701616,0.00066186082934456,-0.00063793822956308,0.00063794503262227,-0.00063793602098657,0.00063794716108847,9.6188032707348e-09,-1.2139309931045e-08,4.0448503867626e-09,-6.0987120556962e-09,-0.0006202530167459,0.0006202509695939,-0.0007011038371001,0.00070111224265306,-0.00070110702719674,0.0007011088760497,-0.00070111067213185,0.00070110507994336,-0.00070111386497223,0.00070110171045317,-0.00067155034152986,0.00067155106332029,-0.00067156011022853,0.00067154088615003,-0.00062101272225873,0.00062102851677794,-0.00062103399979657,0.00062100661624713,1.9541259593521e-09,-3.3679299414639e-10,-0.00075066279333308,0.00075066438713986,-4.0128818880805e-09,5.9071516295137e-09,-0.00083890571574313,0.00083890468647202,-0.00083890242885452,0.00083890791333116,-0.00083890649683205,0.00083890394117252,-0.00083890322059016,0.00083890717271793,-0.00072107231989861,0.00072107499085686,-0.00072107004782158,0.0007210772150551,0.7407066700276,131329,3014,0.0024211732214909,0.0025812932746159,0.0031224033534365,37.009296800954,5.6074374407631e-05,5.6074374407631e-05,5.6074374407631e-05,4146408.139796,0.0081582463121402
6819200,0.53336985976021,0.0087262851514527,0.0026591974451435,0.0028020983304939,0.0032649893758152,-0.0006094952677366,0.00060949708165949,-2.7156080718022e-10,2.085017131099e-09,-9.4325199280498e-09,1.1679808621511e-08,-0.00069532990711081,0.0006953240036661,-0.0006953291397273,0.00069532481012214,-0.00069532330875702,0.00069533096174034,-0.00069532252859172,0.00069533174712497,-0.00067119563257211,0.00067120211657935,-0.00067119329052745,0.00067120437520115,9.3686485870607e-09,-1.1869177543167e-08,3.9097286643752e-09,-5.9472381865048e-09,-0.00064971289284973,0.0006497108626283,-0.00073608403431373,0.00073609218942883,-0.00073608713212067,0.0007360889186954,-0.0007360906965744,0.00073608520107303,-0.00073609379862743,0.00073608192641653,-0.00070625816242499,0.00070625879384342,-0.00070626765200686,0.00070624889658609,-0.0006511987631212,0.00065121415893269,-0.00065121953327604,0.00065119277146376,1.9757971445476e-09,-4.0260194719864e-10,-0.00079028306862029,0.00079028461778398,-3.9003900515848e-09,5.747773684327e-09,-0.00088590096576547,0.00088590001115816,-0.00088589776887651,0.00088590314838072,-0.00088590177490815,0.00088589923710183,-0.00088589859000863,0.00088590237777695,-0.00075890280763025,0.00075890525680874,-0.00075890044763975,0.00075890756778647,0.79221451429106,131329,3014,0.0025370170287463,0.002703768608084,0.0032868754218484,38.075384925802,6.4603079406416e-05,6.4603079406416e-05,6.4603079406416e-05,4274960.5992748,0.0085644568996303
7019200,0.56015477057396,0.0091130607608249,0.0027720522640737,0.002920821971703,0.0034201865250482,-0.00063606177235061,0.00063606357633735,-3.3102719366999e-10,2.1346765368324e-09,-9.1932005820915e-09,1.1427240970279e-08,-0.00072847163106364,0.00072846584463947,-0.00072847082581901,0.00072846668699834,-0.00072846519322278,0.00072847263724347,-0.00072846437588686,0.0007284734596046,-0.00070157103118699,0.00070157723306215,-0.00070156857953472,0.00070157959881303,9.1316107531585e-09,-1.1611001948987e-08,3.798558786441e-09,-5.8185682996647e-09,-0.00067799236947833,0.00067799035742164,-0.00077078567944709,0.00077079361003129,-0.00077078870016786,0.00077079041884036,-0.00077079217876021,0.00077078678634008,-0.0007707952043723,0.00077078359217975,-0.0007381575933016,0.00073815817064428,-0.00073816684694094,0.00073814851027366,-0.00067955246546018,0.00067956747203877,-0.00067957275138723,0.00067954657552838,2.010657741345e-09,-4.8244433950953e-10,-0.00082938740216254,0.00082938890597702,-3.8039460930433e-09,5.6040458073503e-09,-0.00093275746764107,0.00093275658491891,-0.00093275435058883,0.00093275964287783,-0.00093275831372401,0.00093275577298384,-0.00093275520858339,0.00093275883434292,-0.00079543403166958,0.00079543624536258,-0.00079543156088039,0.00079543866734515,0.73335807701485,131329,3014,0.0026475246209156,0.0028213329349844,0.0034491655441479,39.159656457165,7.327725165732e-05,7.327725165732e-05,7.327725165732e-05,4319263.078689,0.0089582912755005
7219200,0.58751140767332,0.0094911588822797,0.0028816439603672,0.0030363805376135,0.003573134384299,-0.00066207118265615,0.00066207297438094,-3.9201434364266e-10,2.1836741364011e-09,-8.9818305899173e-09,1.120025919577e-08,-0.00076136813878208,0.00076136244877189,-0.00076136729607306,0.00076136332715156,-0.00076136184296632,0.00076136909422628,-0.0007613609887201,0.00076136995347337,-0.00073070696016269,0.0007307128959777,-0.00073070440095408,0.00073071537046451,8.9233417830758e-09,-1.1379698574704e-08,3.7076993061918e-09,-5.7085846862151e-09,-0.00070583274755477,0.00070583075478452,-0.00080534625373194,0.00080535399191476,-0.00080534921064288,0.00080535086748384,-0.0008053526097211,0.00080534731512377,-0.00080535557126113,0.00080534418778905,-0.00076908745430969,0.00076908799964811,-0.00076909651140404,0.00076907853813435,-0.00070705778516757,0.00070707244674262,-0.00070707764114244,0.00070705198584176,2.044367206044e-09,-5.6246593825756e-10,-0.00086830118908796,0.00086830264690992,-3.7278379346835e-09,5.4793913155624e-09,-0.00097968429406348,0.00097968347017203,-0.00097968124379571,0.00097968646166057,-0.00097968517729403,0.00097968262007903,-0.00097968213889269,0.0009796856152618,-0.00083143624291599,0.00083143823253649,-0.00083143366180454,0.0008314407655999,0.70718848708629,131329,3014,0.0027557123404039,0.0029370649786528,0.00361063035817,40.24457176913,8.195657415304e-05,8.195657415304e-05,8.195657415304e-05,4374620.2097921,0.0093472565995497
7419200,0.61444126519258,0.009848653776449,0.0029846280756173,0.0031453062685939,0.0037187194322378,-0.00068565449577671,0.00068565627588245,-4.5717469468572e-10,2.2372866644576e-09,-8.9188410284993e-09,1.1123218202202e-08,-0.00079184745641897,0.00079184176028413,-0.00079184657322191,0.00079184267788157,-0.00079184120289889,0.00079184835885848,-0.00079184030934487,0.00079184925725118,-0.00075677645530156,0.00075678221807327,-0.0007567737814989,0.00075678480845046,8.8612497576955e-09,-1.1302021141481e-08,3.6971210859489e-09,-5.6846782000124e-09,-0.00073123307198753,0.00073123109250145,-0.00083749759763191,0.00083750529244208,-0.00083750054557203,0.00083750217983689,-0.00083750391027603,0.00083749866305834,-0.00083750686316229,0.00083749554660157,-0.00079700032494844,0.00079700089709804,-0.00079700935065883,0.00079699147068283,-0.00073182977000418,0.00073184432151257,-0.00073184949201786,0.0007318240000655,2.0771518384372e-09,-6.3479208559635e-10,-0.00090457343227564,0.00090457485083238,-3.7333986221319e-09,5.4437795524479e-09,-0.0010239750267056,0.0010239742087697,-0.0010239719858783,0.0010239771910901,-0.0010239759443186,0.0010239733237328,-0.0010239729161343,0.0010239763093162,-0.00086455528530068,0.00086455712169336,-0.00086455260084629,0.00086455975879924,0.6850144429619,131329,3014,0.0028538099360861,0.0030426504357368,0.0037611022965781,40.771742835708,8.6173942685664e-05,8.6173942685664e-05,8.6173942685664e-05,4421450.3502147,0.0097048376341586
7619200,0.64020220424796,0.010181803673145,0.0030802884550034,0.0032466136931888,0.0038549015249528,-0.0007067337334123,0.00070673550787823,-5.1046598114409e-10,2.2849989395568e-09,-8.9688971005266e-09,1.1166564160336e-08,-0.00081973148722731,0.00081972572065781,-0.00081973057015647,0.00081972667082651,-0.00081972520143168,0.0008197323491999,-0.00081972427295838,0.00081973328223066,-0.00077981724531479,0.00077982293278769,-0.00077981447027325,0.00077982562468789,8.9103430461649e-09,-1.1343958936935e-08,3.7515676098304e-09,-5.7331276956064e-09,-0.00075405486095525,0.0007540528874815,-0.00086686658094661,0.00086687434871276,-0.00086686956611456,0.00086687120068481,-0.00086687292686139,0.00086686768805555,-0.00086687591549036,0.00086686453776756,-0.00082187156962898,0.00082187221512353,-0.00082188069377848,0.00082186269167504,-0.00075376610590365,0.0007537807168557,-0.00075378591660376,0.00075376031092887,2.1248046379121e-09,-7.1016624593808e-10,-0.00093791962622289,0.00093792101705532,-3.7962053684583e-09,5.4781873796065e-09,-0.0010650435347787,0.0010650426981801,-0.0010650404619177,0.0010650457129008,-0.001065044493629,0.0010650417717368,-0.0010650414319898,0.001065044791259,-0.00089477346686214,0.00089477519011164,-0.00089477066454488,0.00089477794535952,0.67223241467375,131329,3014,0.0029414934533167,0.0031375140077043,0.0038994112445288,40.851904742591,8.6815237940731e-05,8.6815237940731e-05,8.6815237940731e-05,4452509.7679175,0.010028911293024
7819200,0.66475976325572,0.010495253779607,0.0031701226993534,0.0033417632075696,0.0039833678726842,-0.00072636451829646,0.00072636629064906,-5.6877714301341e-10,2.3411838024125e-09,-9.0323285496217e-09,1.1227479306096e-08,-0.00084621030248746,0.00084620445375312,-0.00084620934669648,0.00084620544175614,-0.00084620397308512,0.00084621112339852,-0.00084620300685885,0.00084621209389481,-0.00080112595237004,0.00080113156849326,-0.00080112306642777,0.00080113437129052,8.9759607686575e-09,-1.1401827863875e-08,3.8208239528738e-09,-5.7952727189012e-09,-0.00077545704414168,0.00077545507770611,-0.00089485360181472,0.00089486146303127,-0.0008948566325118,0.00089485827104855,-0.00089485998997308,0.00089485476152788,-0.00089486302438348,0.0008948515663846,-0.00084501644710887,0.00084501718757294,-0.00084502570063904,0.00084500753437413,-0.00077432798368577,0.00077434268032548,-0.00077434791763941,0.00077432215364812,2.1699779626334e-09,-7.7428704073887e-10,-0.00096963222741249,0.00096963359924569,-3.8720223651393e-09,5.5345087087198e-09,-0.0011041527258054,0.0011041518627916,-0.0011041496082843,0.0011041549218272,-0.0011041537210214,0.0011041508998134,-0.0011041506151308,0.0011041539634562,-0.00092348504071898,0.00092348668125517,-0.00092348213030232,0.00092348954426901,0.66655083966218,131329,3014,0.003023150828444,0.0032264734572108,0.004030927262511,40.921735798124,8.7373886384992e-05,8.7373886384992e-05,8.7373886384992e-05,4464615.3885609,0.010334174342384
8019200,0.68810557759192,0.010789947450234,0.0032542610101675,0.0034310550568763,0.00410463138319,-0.00074468155111678,0.00074468331962179,-6.2662591297908e-10,2.3951835953147e-09,-9.098596200014e-09,1.1289744569729e-08,-0.0008712058458888,0.00087119991276212,-0.00087120485297226,0.00087120093812724,-0.00087119947245882,0.0008712066245948,-0.0008711984692702,0.00087120763276981,-0.00082097931225529,0.00082098485821682,-0.0008209763182982,0.0008209877720163,9.0430250765727e-09,-1.1462523270212e-08,3.8971060268396e-09,-5.8660217204814e-09,-0.00079553960607018,0.00079553764533132,-0.00092135276447921,0.00092136072404233,-0.00092135584606304,0.00092135748302188,-0.0009213591963941,0.00092135398019122,-0.00092136228151942,0.0009213507360052,-0.00086666789086839,0.00086666873758449,-0.00086667728941733,0.0008666589420362,-0.00079364630270298,0.00079366108166755,-0.00079366636321282,0.00079364043125712,2.2185358365472e-09,-8.3773583209832e-10,-0.00099972635024438,0.00099972770774956,-3.9526628354665e-09,5.6002342379235e-09,-0.0011413276289749,0.0011413267403238,-0.0011413244622164,0.0011413298482821,-0.001141328661673,0.0011413257400372,-0.001141325506487,0.0011413288527519,-0.00095064666505145,0.00095064822995707,-0.00095064364478753,0.00095065120263405,0.66097249598707,131329,3014,0.0030993431422332,0.0033099460503787,0.0041557144079824,40.991199339979,8.7929594719831e-05,8.7929594719831e-05,8.7929594719831e-05,4474104.8309788,0.010621662309671
8219200,0.71038336975482,0.011068313925636,0.0033334319941006,0.0035152618275975,0.0042196201039378,-0.00076210077103222,0.00076210253659379,-6.8374814102246e-10,2.4494469541652e-09,-9.1373159845335e-09,1.1325373894278e-08,-0.00089507224274932,0.00089506624448526,-0.0008950712128263,0.00089506730699568,-0.00089506584341016,0.00089507298037606,-0.00089506480328929,0.00089507402602712,-0.00083984510870877,0.00083985056757404,-0.00083984200647508,0.00083985359158526,9.0822997041152e-09,-1.1496523623939e-08,3.9708500827612e-09,-5.9350097032855e-09,-0.00081470865330107,0.00081470669756859,-0.00094671614496734,0.00094672418271916,-0.00094671927563115,0.00094672089407196,-0.00094672260241382,0.00094671741449305,-0.00094672573640829,0.00094671412275665,-0.00088729301367001,0.00088729397952254,-0.00088730255238741,0.0008872840454384,-0.00081207725249129,0.00081209205999143,-0.00081209738577346,0.00081207133969713,2.2702969287519e-09,-8.9842662359512e-10,-0.0010285939406182,0.0010285952892984,-4.0279106096693e-09,5.666704485406e-09,-0.0011770249072769,0.0011770240003515,-0.0011770216929178,0.0011770271556422,-0.0011770259776169,0.0011770229625866,-0.0011770227746631,0.0011770261228282,-0.00097663331837109,0.00097663481191923,-0.00097663018793499,0.00097663789438003,0.65549139972814,131329,3014,0.0031717996158323,0.0033896184246177,0.0042754010443931,41.181779668801,8.9454237350406e-05,8.9454237350406e-05,8.9454237350406e-05,4486219.1483448,0.010896458428396
8419200,0.73164378979737,0.01133317248258,0.0034085381142528,0.0035953080657824,0.0043293263025452,-0.00077867809594744,0.0007786798586892,-7.415450220733e-10,2.5044362536033e-09,-9.1559234078542e-09,1.1341216741584e-08,-0.00091782792080255,0.0009178218702924,-0.00091782685311726,0.00091782297040957,-0.00091782150869618,0.00091782861713983,-0.00091782043127957,0.00091782970040707,-0.00085783775123359,0.00085784310891842,-0.00085783453949904,0.00085784624348921,9.1018023474505e-09,-1.1510619612349e-08,4.0427246973021e-09,-6.0022246034205e-09,-0.00083301212652878,0.00083301017581247,-0.00097094191508873,0.00097095001659262,-0.0009709450934444,0.00097094668162512,-0.00097094838454198,0.00097094323735325,-0.00097095156634987,0.00097093989900292,-0.00090702827721799,0.00090702937234271,-0.0009070379523766,0.00090701930193288,-0.00082966505414092,0.00082967985337232,-0.00082968522133104,0.00082965910097483,2.324427751563e-09,-9.5529702356697e-10,-0.0010562666475649,0.0010562679936929,-4.0984863190416e-09,5.734769579417e-09,-0.0012112642225427,0.0012112633039321,-0.0012112609616029,0.0012112665055936,-0.0012112653300315,0.0012112622294381,-0.0012112620806501,0.0012112654358505,-0.0010015451409277,0.0010015465690531,-0.0010015419009922,0.0010015497602008,0.65380935432181,131329,3014,0.0032407528094958,0.0034656901002394,0.0043901198791441,41.431189963066,9.1449519704529e-05,9.1449519704529e-05,9.1449519704529e-05,4499576.1122675,0.011159123069043
8619200,0.75187047536141,0.011584694543875,0.0034796709957906,0.0036712665124424,0.0044337570356421,-0.00079436165988204,0.00079436341466159,-8.0138524487792e-10,2.5562014198895e-09,-9.1676406600472e-09,1.1344898280145e-08,-0.00093938864443069,0.00093938254315199,-0.00093938753972783,0.00093938368059504,-0.0009393822262613,0.0009393892948826,-0.00093938111171982,0.00093939041558592,-0.00087488357598577,0.00087488882180997,-0.00087488025569543,0.00087489206662568,9.1121520641077e-09,-1.1514863104489e-08,4.1149010197312e-09,-6.0683533867503e-09,-0.00085035411445027,0.00085035216977234,-0.00099391562211354,0.00099392378166012,-0.00099391884740002,0.0009939204004033,-0.00099392209758403,0.0009939169978443,-0.00099392532615455,0.00099391361327293,-0.00092579952018115,0.00092580075144702,-0.00092580933063438,0.00092579054610572,-0.00084635546633415,0.00084637023972886,-0.00084637564872485,0.00084634947458222,2.3807739823714e-09,-1.0110901718011e-09,-0.0010825936705019,0.0010825950175479,-4.1665836587881e-09,5.8040614476274e-09,-0.0012438480587677,0.0012438471329525,-0.0012438447516226,0.0012438503803036,-0.001243849204167,0.0012438460215447,-0.0012438459084126,0.0012438492736596,-0.0010252756974688,0.0010252770623582,-0.0010252723470804,0.0010252803626293,0.65260875719416,131329,3014,0.0033059879404584,0.0035377629325016,0.0044992464082425,41.681974188402,9.3455793507215e-05,9.3455793507215e-05,9.3455793507215e-05,4511192.2902937,0.011408394540793
8819200,0.77105382941646,0.011813150064346,0.0035437746999443,0.0037399558538216,0.0045294195105801,-0.00080870386616312,0.00080870561464145,-8.6045618527183e-10,2.6089988313766e-09,-9.1658796567564e-09,1.1336848600645e-08,-0.00095945944479378,0.00095945330266194,-0.00095945830296553,0.0009594544775213,-0.00095945302872925,0.00095946005079028,-0.00095945187710791,0.00095946120899683,-0.00089013707092896,0.00089014219801143,-0.00089013364227085,0.00089014555348044,9.1102544018111e-09,-1.1506276268383e-08,4.1839737699609e-09,-6.1310278911863e-09,-0.00086626453000224,0.00086626259172856,-0.0010153473326424,0.0010153555398286,-0.0010153506026952,0.0010153521147106,-0.0010153538055969,0.0010153487596737,-0.0010153570788401,0.0010153453312052,-0.00094268780314574,0.00094268917311354,-0.00094269774324614,0.00094267883961011,-0.00086148739478078,0.00086150212049217,-0.00086150756745116,0.00086148136665413,2.4380956094998e-09,-1.0655756996585e-09,-0.0011070447204636,0.0011070460708666,-4.230290491441e-09,5.8711775346741e-09,-0.0012742929825608,0.0012742920539946,-0.0012742896313957,0.0012742953448605,-0.0012742941656554,0.0012742909057216,-0.001274290825781,0.0012742942012995,-0.0010470855799852,0.0010470868818061,-0.001047082119535,0.0010470902910984,0.62941993000116,131329,3014,0.003365645681962,0.0036038860791167,0.0046005827938629,41.932807414233,9.5462459313864e-05,9.5462459313864e-05,9.5462459313864e-05,4525763.1600245,0.011638183493736
9019200,0.78879036197842,0.012024536494752,0.0036030583266204,0.0038035197268137,0.0046179584413176,-0.00082111926912431,0.0008211210136783,-9.1648168770178e-10,2.6611892846705e-09,-9.213827663713e-09,1.1381469021757e-08,-0.0009771785407146,0.00097717232741967,-0.00097717736337935,0.00097717353780465,-0.00097717209344541,0.00097717910564275,-0.00097717090505988,0.00097718030066354,-0.00090349337143724,0.00090349841813175,-0.00090348983619648,0.00090350188280766,9.1589973534426e-09,-1.1550693978138e-08,4.275192758289e-09,-6.2179005115372e-09,-0.00088014505340977,0.0008801431192183,-0.001034336646483,0.0010343449491858,-0.0010343399769968,0.0010343414639885,-0.0010343431518295,0.0010343381373328,-0.0010343464842488,0.0010343346500529,-0.00095753631163177,0.00095753782694371,-0.00095754642483028,0.00095752732289207,-0.00087467767830717,0.00087469243948834,-0.00087469793983147,0.00087467159642973,2.4997084628576e-09,-1.1194272203845e-09,-0.001128835552163,0.0011288369106484,-4.3142319847625e-09,5.963532872429e-09,-0.0013016687800253,0.0013016678402205,-0.0013016653703554,0.0013016711891592,-0.0013016700024751,0.001301666653255,-0.0013016666026586,0.001301670007992,-0.0010664248204671,0.0010664260773834,-0.0010664212489032,0.0010664295978459,0.62977530424401,131329,3014,0.0034172913771029,0.0036615745189329,0.0046908836511513,41.749804634464,9.3998437075716e-05,9.3998437075716e-05,9.3998437075716e-05,4529359.6084553,0.011840213457041
9219200,0.80507328691663,0.012216216971699,0.0036566992409538,0.0038610978274063,0.0046984199033391,-0.00083208894700018,0.00083209068787445,-9.7538496292362e-10,2.7162078816255e-09,-9.2509928931055e-09,1.1415228490605e-08,-0.0009930998467046,0.00099309356753907,-0.00099309863133978,0.00099309481628297,-0.00099309337439713,0.00099310036957964,-0.00099309214869052,0.00099310160216209,-0.00091529585297937,0.00091530080939206,-0.00091529220771701,0.00091530438439242,9.1952332094637e-09,-1.1583967859156e-08,4.3602527553398e-09,-6.2995758605363e-09,-0.00089246319747262,0.00089246126671932,-0.0010514122633778,0.0010514206485641,-0.0010514156492301,0.0010514171082253,-0.0010514187924669,0.0010514138140601,-0.0010514221807946,0.0010514102708068,-0.00097069732882403,0.00097069898898804,-0.00097070760668357,0.00097068831952132,-0.00088628833863742,0.00088630311611378,-0.0008863086708103,0.00088628220446851,2.5597177322627e-09,-1.1690247849188e-09,-0.0011484244741198,0.0011484258431671,-4.3915195435336e-09,6.0521465535772e-09,-0.0013264044701694,0.0013264035220475,-0.0013264010044681,0.001326406926473,-0.0013264057294026,0.001326402299171,-0.0013264022741778,0.0013264057087271,-0.001083731435975,0.0010837326504986,-0.001083727755,0.0010837362784298,0.62300580611688,131329,3014,0.0034629256455114,0.0037127707604151,0.0047720502460031,41.451766637768,9.1614133102146e-05,9.1614133102146e-05,9.1614133102146e-05,4530358.8716996,0.012020382935718
9419200,0.8200115843632,0.012389919524173,0.0037052309021036,0.0039132289768824,0.0047714596451872,-0.00084194047753607,0.00084194221462191,-1.0332482433284e-09,2.7702680552125e-09,-9.2689441043554e-09,1.1429674300619e-08,-0.0010075249524497,0.0010075186208641,-0.0010075236998935,0.0010075199070095,-0.0010075184683884,0.0010075254334878,-0.0010075172053715,0.0010075267034584,-0.00092587188250921,0.00092587673678333,-0.00092586812857841,0.00092588042205186,9.2134386681128e-09,-1.1597467457249e-08,4.4366362325011e-09,-6.3709331373925e-09,-0.00090354832774294,0.00090354640187242,-0.0010668636769139,0.001066872127003,-0.0010668671117405,0.0010668685373501,-0.0010668702174467,0.0010668652819677,-0.0010668736546641,0.0010668616894079,-0.00098253126743467,0.00098253306680577,-0.00098254169050894,0.00098252225315834,-0.00089666547475311,0.00089668023886853,-0.0008966858385541,0.00089665929669267,2.6212168215077e-09,-1.2191221891246e-09,-0.0011661612029814,0.0011661625837158,-4.4587161197537e-09,6.1315496898364e-09,-0.0013488624768255,0.001348861528945,-0.001348858961881,0.001348864982079,-0.0013488637736575,0.0013488602691578,-0.0013488602690854,0.0013488637273907,-0.0010993474465329,0.0010993486118236,-0.0010993436557146,0.001099352348692,0.61620824446407,131329,3014,0.0035039090187693,0.0037588419906528,0.0048455350313352,41.150983396628,8.9207867173022e-05,8.9207867173022e-05,8.9207867173022e-05,4531862.1177872,0.01218291056255
9619200,0.83371120668544,0.012547229984765,0.0037491215240799,0.0039604013179517,0.0048377071427333,-0.00085078178930904,0.00085078352195964,-1.0914327080682e-09,2.8239526021864e-09,-9.2653619510818e-09,1.1421747488719e-08,-0.0010205922385471,0.0010205858686782,-0.0010205909488162,0.0010205871922932,-0.0010205857574522,0.0010205926772677,-0.0010205844571982,0.0010205939846522,-0.00093535009278918,0.00093535482951718,-0.00093534622949777,0.00093535862432834,9.2098082515859e-09,-1.1589092612176e-08,4.5003319963051e-09,-6.4299682335227e-09,-0.00091352087767715,0.00091351895655752,-0.0010808080126793,0.0010808165039573,-0.0010808114870201,0.0010808128732578,-0.0010808145494885,0.0010808096628351,-0.0010808180264266,0.0010808060293013,-0.00099317379080302,0.00099317571861574,-0.00099318433371185,0.00099316478440436,-0.00090597530112584,0.00090599001668403,-0.00090599565366236,0.00090596908726246,2.6829893893394e-09,-1.2689378588783e-09,-0.0011822148491059,0.0011822162419012,-4.5131975270606e-09,6.1987877267606e-09,-0.0013692446367947,0.0013692436975814,-0.0013692410809574,0.0013692471911612,-0.001369245971138,0.0013692424008599,-0.0013692424256149,0.0013692458994876,-0.001113420777371,0.0011134218860965,-0.0011134168767104,0.0011134257318716,0.60938040997578,131329,3014,0.0035406902307378,0.0038002892673861,0.0049120409565843,40.850101887574,8.6800815100596e-05,8.6800815100596e-05,8.6800815100596e-05,4533553.8308851,0.01232946128532
9819200,0.84603576387615,0.012689683908277,0.0037889277085054,0.0040031652924485,0.0048975909073227,-0.00085801452712288,0.00085801625622318,-1.1493244486329e-09,2.8784251909392e-09,-9.2804285063677e-09,1.1433417635057e-08,-0.0010315836028395,0.0010315771825601,-0.0010315822755141,0.0010315785440315,-0.0010315771120787,0.0010315840001337,-0.0010315757745331,0.0010315853449073,-0.00094322163484816,0.00094322626805006,-0.00094321766260941,0.00094323017263386,9.2245542276326e-09,-1.15998773453e-08,4.5628428613373e-09,-6.4885388890242e-09,-0.00092174844546788,0.000921746528274,-0.001092512004964,0.0010925205489411,-0.0010925155192157,0.0010925168780499,-0.0010925185508027,0.0010925136995742,-0.0010925220680545,0.0010925100254474,-0.0010020668519557,0.0010020688943541,-0.0010020775143507,0.0010020578414237,-0.00091361284048741,0.00091362754588067,-0.00091363321843163,0.00091360659075281,2.7446632587744e-09,-1.3183940390259e-09,-0.0011958722472279,0.0011958736524092,-4.566830839835e-09,6.2652562842506e-09,-0.0013867639334476,0.0013867630035584,-0.001386760337136,0.0013867665372639,-0.0013867653049186,0.0013867616702313,-0.0013867617192195,0.0013867652085034,-0.0011253179201764,0.0011253189717028,-0.001125313909948,0.0011253229268565,0.61213711642366,131329,3014,0.0035707836424436,0.0038344870614489,0.004968614557228,40.183317276157,8.146653820926e-05,8.146653820926e-05,8.146653820926e-05,4527858.3297896,0.012451861856703
10019200,0.8571148573966,0.012818834441132,0.0038250967509453,0.0040419845146889,0.0049517531754976,-0.00086434354439209,0.00086434526915472,-1.207141005465e-09,2.9319587973184e-09,-9.2731668683822e-09,1.1421773994233e-08,-0.0010412456725927,0.0010412392171359,-0.001041244308177,0.001041240616182,-0.0010412391881822,0.0010412460282033,-0.00104123781307,0.0010412474106574,-0.00095019980160985,0.00095020431496409,-0.00095019572025769,0.0009502083295201,9.2177567530185e-09,-1.1588350021917e-08,4.609232464148e-09,-6.5303044392063e-09,-0.00092895282368536,0.00092895091111506,-0.0011028073705221,0.0011028159427198,-0.0011028109141049,0.0011028122422601,-0.0011028139112112,0.0011028090994296,-0.0011028174574426,0.0011028053960762,-0.001009931588382,0.0010099337272627,-0.0010099423367751,0.0010099225888139,-0.00092031884277525,0.00092033350458987,-0.00092033920270971,0.00092031256881177,2.8063163311389e-09,-1.3688412807797e-09,-0.0012079353744092,0.0012079367909423,-4.6046629592662e-09,6.3148358792162e-09,-0.0014022592026633,0.0014022582926194,-0.0014022555771979,0.0014022618552056,-0.0014022606119181,0.0014022569219759,-0.0014022569966435,0.0014022604894583,-0.0011358386951247,0.0011358396776731,-0.0011358345753617,0.0011358437419067,0.61574677593848,131329,3014,0.0035971184817535,0.0038644325002869,0.005018580273511,39.479073922181,7.5832591377451e-05,7.5832591377451e-05,7.5832591377451e-05,4519907.0829901,0.012559471464544
10219200,0.86708796720824,0.012936249069971,0.0038580601526894,0.0040773214991079,0.0050008674181736,-0.00086994394083592,0.00086994566077362,-1.265465022971e-09,2.9855352261541e-09,-9.2486770303829e-09,1.1392277565093e-08,-0.0010497737397774,0.0010497672599346,-0.0010497723380392,0.001049768696593,-0.001049767272856,0.0010497740529002,-0.0010497658603986,0.0010497754728177,-0.00095645085626004,0.00095645523759883,-0.00095644666583755,0.00095645936197658,9.193129086825e-09,-1.1558306075941e-08,4.6427627212784e-09,-6.5586883959109e-09,-0.00093532229727299,0.00093532038994235,-0.0011119237952916,0.0011119323752879,-0.0011119273592801,0.0011119286541858,-0.0011119303184855,0.0011119255503278,-0.0011119338851598,0.0011119218262844,-0.0010169578470366,0.0010169600698039,-0.0010169686561225,0.001016948870705,-0.00092631469709582,0.00092632928956331,-0.00092633500384854,0.00092630840824986,2.8669308134669e-09,-1.4197275328278e-09,-0.0012186484764633,0.0012186499028993,-4.6301461515663e-09,6.3505866732305e-09,-0.0014160270690284,0.0014160261857051,-0.0014160234229488,0.00141602976866,-0.0014160285156431,0.0014160247781071,-0.0014160248797237,0.0014160283658669,-0.0011452114069194,0.0011452123103429,-0.0011452071776947,0.0011452164836858,0.62007023583073,131329,3014,0.0036204221904465,0.0038909078378744,0.0050629509878953,38.773872901796,7.0190983214367e-05,7.0190983214367e-05,7.0190983214367e-05,4511225.0731748,0.012654840016646
10419200,0.87609326220876,0.013043446466766,0.0038882339968365,0.00410962699742,0.0050455854725093,-0.00087497124620611,0.00087497296031376,-1.3241194953524e-09,3.038374927114e-09,-9.2001866397605e-09,1.1337442142778e-08,-0.001057409995676,0.0010574035070998,-0.0010574085568525,0.0010574049810323,-0.0010574035624706,0.001057410265348,-0.0010574021127576,0.0010574117226494,-0.00096213403591892,0.00096213826775452,-0.00096212973593387,0.00096214250121068,9.1451492204423e-09,-1.1503868825812e-08,4.6576999994241e-09,-6.5678837810428e-09,-0.00094103344774273,0.00094103154646485,-0.0011200795200436,0.0011200880803414,-0.0011200830920592,0.0011200843511446,-0.0011200860098799,0.0011200812895646,-0.0011200895844366,0.0011200775575675,-0.0010233355485374,0.0010233378340307,-0.00102334638031,0.0010233266108704,-0.00093176195665672,0.00093177644585988,-0.00093178216321797,0.00093175566644659,2.926777500074e-09,-1.4717487415568e-09,-0.0012282596357546,0.001228261069997,-4.6379759116666e-09,6.3665740736205e-09,-0.0014283914641926,0.0014283906179931,-0.0014283878101192,0.0014283942087393,-0.001428392948353,0.0014283891731968,-0.0014283893042265,0.0014283927688437,-0.0011536628131908,0.0011536636232449,-0.0011536584741985,0.0011536679055959,0.62506143515873,131329,3014,0.003641341425105,0.003914647067948,0.0051027551925609,38.098864753403,6.4790918027225e-05,6.4790918027225e-05,6.4790918027225e-05,4501695.6277758,0.012740404531626
10619200,0.88450197410159,0.013141531572186,0.0039157955287995,0.0041391414236201,0.0050865946197664,-0.00088055557850886,0.00088055728342711,-1.388880812174e-09,3.0939179633123e-09,-9.0743746277017e-09,1.1200850925458e-08,-0.0010654923385335,0.0010654858861922,-0.0010654908573433,0.0010654874027088,-0.0010654859896211,0.001065492558753,-0.001065484502439,0.0010654940537578,-0.00096830951779431,0.00096831354249538,-0.00096830510706732,0.00096831788558221,8.9982317264559e-09,-1.1345895120312e-08,4.6311977350744e-09,-6.5319471308102e-09,-0.00094729843383336,0.00094729654279767,-0.0011286755223473,0.0011286839690879,-0.0011286790712008,0.0011286802633016,-0.0011286819096181,0.0011286772823991,-0.0011286854658233,0.0011286735688597,-0.0010302195963654,0.0010302219382216,-0.0010302303729394,0.0010302107661853,-0.00093777778776312,0.00093779201408135,-0.00093779770425153,0.00093777152959002,2.9803216881594e-09,-1.5217958164177e-09,-0.0012382003161472,0.0012382017537898,-4.6031415092454e-09,6.3356856793574e-09,-0.0014409407871621,0.0014409399980839,-0.0014409371523659,0.0014409435693117,-0.0014409423036974,0.0014409385211465,-0.0014409386839197,0.0014409420925831,-0.0011625005015736,0.001162501184717,-0.0011624960521608,0.001162505574728,0.61395113271715,131329,3014,0.0036645721825734,0.0039406835168126,0.0051439235199603,38.029351874832,6.4234814998653e-05,6.4234814998653e-05,6.4234814998653e-05,4502598.0168565,0.012832025833432
10819200,0.89235546862231,0.013231421752401,0.0039409964198715,0.0041661522480525,0.0051242730844766,-0.00088570218242099,0.00088570387716595,-1.4469110941534e-09,3.142061352359e-09,-8.9353608421833e-09,1.1050532833925e-08,-0.0010729762133245,0.001072969812451,-0.0010729746982394,0.0010729713628354,-0.0010729699611379,0.001072976387088,-0.0010729684364819,0.0010729779195149,-0.00097395039924078,0.00097395420811933,-0.00097394587937311,0.00097395866208396,8.8757035227992e-09,-1.1210806558233e-08,4.5908155658842e-09,-6.4804671588772e-09,-0.00095307875234623,0.00095307687199022,-0.0011366398819855,0.0011366482239582,-0.00113664340215,0.0011366445469076,-0.0011366461855564,0.0011366416219691,-0.0011366497097439,0.0011366379408115,-0.0010365168577012,0.0010365192012542,-0.0010365275402255,0.0010365081282412,-0.00094328397754004,0.0009432979878357,-0.00094330363478016,0.00094327776283623,3.0392930572716e-09,-1.5805762619507e-09,-0.0012474010736927,0.0012474025116547,-4.5588327752292e-09,6.2906376588082e-09,-0.0014525813908267,0.0014525806732934,-0.0014525777873867,0.0014525842128644,-0.0014525829481004,0.0014525791555115,-0.0014525793564229,0.0014525826987426,-0.0011706366483649,0.0011706371910699,-0.0011706320892665,0.0011706416920472,0.60386754670278,131329,3014,0.0036859818489488,0.0039647051685952,0.0051820260202279,37.973591385966,6.3788731087725e-05,6.3788731087725e-05,6.3788731087725e-05,4504847.9019976,0.012916662238073
11019200,0.89968700374256,0.013313628033029,0.0039639866517683,0.0041908163949022,0.0051588249863588,-0.00089041697889395,0.00089041866094828,-1.5090562208683e-09,3.1917128307168e-09,-8.8182479757539e-09,1.0919326039702e-08,-0.0010798694966807,0.0010798631282815,-0.0010798679442585,0.0010798647160153,-0.0010798633261229,0.0010798696198998,-0.0010798617640946,0.0010798711897781,-0.00097907855936139,0.00097908216378555,-0.00097907393015097,0.00097908672741021,8.7578022540379e-09,-1.1081192290426e-08,4.5441361468289e-09,-6.4236712943873e-09,-0.00095837799456716,0.00095837612447414,-0.0011439812150607,0.001143989450589,-0.0011439847011343,0.0011439858080224,-0.0011439874373448,0.0011439829315656,-0.0011439909273422,0.0011439792849682,-0.0010422452558466,0.0010422475904594,-0.0010422558373959,0.0010422366194381,-0.00094828890248096,0.00094830271450071,-0.00094830831756233,0.00094828273478882,3.0946729241017e-09,-1.6373020841923e-09,-0.001255879443612,0.0012558808802422,-4.5082100390132e-09,6.2381410446319e-09,-0.0014633336163161,0.0014633329693233,-0.001463330047284,0.0014633364744762,-0.001463335211095,0.0014633314143997,-0.0014633316536973,0.0014633349232209,-0.0011780831925458,0.0011780835902819,-0.0011780785243225,0.0011780882006326,0.59320720604233,131329,3014,0.0037055950756007,0.0039867271867044,0.0052171358935081,37.918317530794,6.3346540246352e-05,6.3346540246352e-05,6.3346540246352e-05,4507708.6792523,0.012994426598153
11219200,0.90651903968938,0.013390216397322,0.0039854180837746,0.0042138053386,0.0051909929749478,-0.00089474612694888,0.00089474779948887,-1.5697061739951e-09,3.2430276202029e-09,-8.7305496309076e-09,1.0821032947989e-08,-0.0010862042862372,0.0010861979327306,-0.0010862026964213,0.0010861995578097,-0.0010861981766405,0.0010862043621083,-0.0010861965772248,0.0010862059694361,-0.00098380906900582,0.00098381249273178,-0.0009838043305641,0.00098381716635477,8.6700386868454e-09,-1.0983184931284e-08,4.4916910096715e-09,-6.3622022899493e-09,-0.00096325183909549,0.00096324997809896,-0.0011507299133119,0.00115073805837,-0.0011507333618909,0.0011507344537932,-0.0011507360747271,0.0011507316014515,-0.0011507395271464,0.0011507279928828,-0.0010475330731254,0.0010475353671057,-0.0010475435438376,0.0010475245086103,-0.00095287834453437,0.00095289202139209,-0.00095289757787146,0.00095287222554112,3.1491379441151e-09,-1.6947379689772e-09,-0.0012637046430759,0.0012637060767982,-4.453249820069e-09,6.1795940860543e-09,-0.0014732518664341,0.0014732512919424,-0.0014732483352404,0.0014732547592348,-0.0014732534986204,0.0014732496997976,-0.0014732499789666,0.0014732531707599,-0.001184944590114,0.0011849448374018,-0.0011849398124704,0.0011849495573514,0.59263237139965,131329,3014,0.0037236033945382,0.0040069808713019,0.005249540529925,37.83748810248,6.2699904819838e-05,6.2699904819838e-05,6.2699904819838e-05,4510324.7868492,0.013066036777895
11419200,0.91284142846432,0.013461680388966,0.0040054477111539,0.0042352813475258,0.0052209513302865,-0.00089852974639816,0.00089853141202795,-1.6289942146979e-09,3.2955340045807e-09,-8.6904578461252e-09,1.0773402911877e-08,-0.0010918208338116,0.0010918144652356,-0.0010918192068368,0.0010918161274258,-0.0010918147527363,0.001091820865052,-0.0010918131158239,0.0010918225099396,-0.0009879965523173,0.00098799983017079,-0.00098799170398864,0.0009880046139019,8.6308960590967e-09,-1.0936868871439e-08,4.4393663845146e-09,-6.3035459843349e-09,-0.00096753202520004,0.00096753017064672,-0.0011567269768684,0.0011567350634154,-0.0011567303891165,0.0011567314956789,-0.0011567331107679,0.001156728634947,-0.0011567365264441,0.0011567250636044,-0.001052225812014,0.0010522280312542,-0.0010522361738273,0.0010522172826885,-0.00095690843635016,0.00095692207218108,-0.00095692758568241,0.00095690236198268,3.2032229245031e-09,-1.75270919929e-09,-0.001270703393548,0.0012707048233481,-4.4003515611333e-09,6.1221741865752e-09,-0.0014821667293162,0.0014821662253747,-0.001482163235062,0.0014821696556782,-0.0014821683991402,0.0014821645957765,-0.0014821649159922,0.0014821680301061,-0.0011910710493588,0.0011910711468565,-0.0011910661625539,0.0011910759759132,0.5962623900587,131329,3014,0.0037393437084605,0.0040247685601393,0.0052785215326153,37.630278497495,6.1042227979964e-05,6.1042227979964e-05,6.1042227979964e-05,4509826.2605937,0.013129385607116
11619200,0.91869246085098,0.013528210059348,0.0040241191394513,0.0042552926069025,0.0052487983129946,-0.00090200597216353,0.00090200763229661,-1.6877925939183e-09,3.3489126078127e-09,-8.6785030949229e-09,1.0755534155814e-08,-0.0010969842330419,0.0010969778311791,-0.0010969825684341,0.0010969795309578,-0.0010969781610223,0.001096984221037,-0.0010969764868755,0.0010969859032443,-0.00099187752600437,0.00099188067946141,-0.000991872568549,0.0009918855725002,8.6174329271236e-09,-1.0918160509649e-08,4.3862075930894e-09,-6.2455684080846e-09,-0.00097146674494884,0.00097146489527391,-0.0011622397499221,0.0011622477938498,-0.0011622431254125,0.0011622442634063,-0.0011622458736915,0.0011622413763277,-0.001162249252927,0.0011622378419422,-0.0010565764232541,0.001056578549572,-0.0010565866771243,0.0010565679097603,-0.00096063853377038,0.00096065218027214,-0.00096065765257936,0.00096063250202669,3.2566475999454e-09,-1.8109295689918e-09,-0.0012771455325464,0.0012771469575243,-4.3475664985336e-09,6.0639690619959e-09,-0.0014903773045156,0.001490376869953,-0.0014903738470629,0.0014903802634081,-0.0014903790115254,0.0014903752034092,-0.0014903755654328,0.0014903786005182,-0.0011967277684145,0.0011967277142297,-0.0011967227716083,0.0011967326530474,0.59873359980061,131329,3014,0.0037538056102107,0.0040411209009676,0.0053051964358493,37.420193557664,5.936154846131e-05,5.936154846131e-05,5.936154846131e-05,4508028.4166697,0.013187651276495
11819200,0.92410860867727,0.013590281486888,0.0040415668613338,0.0042739826834573,0.0052747319420964,-0.00090521087024205,0.00090521252611875,-1.7458886934459e-09,3.4028045248928e-09,-8.6858352687536e-09,1.0758436948548e-08,-0.0011017376521676,0.0011017312050745,-0.0011017359501702,0.0011017329421933,-0.0011017315761219,0.0011017375982227,-0.001101729864604,0.0011017393178725,-0.00099548974882005,0.00099549279196915,-0.00099548468178597,0.0009954977947617,8.6244622044431e-09,-1.0921406347298e-08,4.334261329536e-09,-6.1900936459909e-09,-0.00097509501603907,0.00097509316995089,-0.0011673126808211,0.0011673206963653,-0.0011673160209969,0.001167317201761,-0.001167318808626,0.001167314275459,-0.0011673221524987,0.0011673107769565,-0.0010606235089475,0.0010606255298973,-0.0010606336579054,0.0010606149958813,-0.00096410364636504,0.00096411734214394,-0.00096412277558882,0.00096409765456186,3.3098718375109e-09,-1.8695196757513e-09,-0.0012830842668612,0.0012830856864378,-4.2970810801226e-09,6.0074841041314e-09,-0.0014979505906528,0.001497950223785,-0.0014979471688242,0.001497953581532,-0.0014979523350713,0.001497948520051,-0.0014979489245187,0.0014979518814653,-0.001201958954747,0.0012019587500303,-0.001201953848332,0.00120196379826,0.6021809313261,131329,3014,0.0037671389607023,0.0040561998980764,0.0053297857735642,37.210006866255,5.7680054930042e-05,5.7680054930042e-05,5.7680054930042e-05,4505350.8435198,0.013241372289433
12019200,0.92913104674397,0.013649860863728,0.0040583994461466,0.0042919836312796,0.005299477786302,-0.00090829209084364,0.00090829374348335,-1.8035082040035e-09,3.4571935050821e-09,-8.7075253371369e-09,1.0776860706774e-08,-0.0011062192659951,0.0011062127647216,-0.0011062175265644,0.0011062145392384,-0.0011062131760059,0.001106219171166,-0.0011062114271704,0.0011062209282238,-0.00099904237858268,0.00099904532242789,-0.00099903720189158,0.000999050434649,8.6451641692604e-09,-1.0939728799986e-08,4.2849811551425e-09,-6.1385136801198e-09,-0.00097857322900859,0.00097857138535913,-0.0011720899863087,0.0011720979841011,-0.0011720932932979,0.0011720945232094,-0.0011720961275839,0.0011720915502443,-0.0011720994383151,0.0011720880853993,-0.0010645894779181,0.0010645913890909,-0.0010645995281938,0.0010645809539313,-0.000967489961471,0.00096750373126776,-0.00096750912949016,0.00096748400594488,3.363012750916e-09,-1.9281709737591e-09,-0.0012887001704825,0.0012887015844583,-4.2498514474849e-09,5.9541789140095e-09,-0.0015050673502125,0.0015050670485456,-0.0015050639618052,0.0015050703727697,-0.0015050691319834,0.0015050653076806,-0.0015050657548707,0.0015050686354956,-0.0012069704535156,0.0012069701002738,-0.0012069652372662,0.0012069752578802,0.61929851169222,131329,3014,0.0037799571897308,0.0040706548766646,0.0053530376723471,37.027682933988,5.6221463471903e-05,5.6221463471903e-05,5.6221463471903e-05,4501437.7232626,0.013292585726388
12219200,0.93380644454732,0.013707353705962,0.0040747198334844,0.0043094108954019,0.0053232229770759,-0.0009113419833012,0.00091134363331454,-1.860794842936e-09,3.5118418406718e-09,-8.7325933987366e-09,1.0799354389195e-08,-0.0011105698448241,0.0011105632877151,-0.0011105680681912,0.0011105650993904,-0.0011105637386658,0.0011105697097993,-0.001110561952328,0.0011105715044299,-0.001002625985763,0.0010026288328478,-0.0010026206988968,0.0010026340551211,8.6722805647811e-09,-1.0965318999791e-08,4.2390643126793e-09,-6.0910347205022e-09,-0.00098200027621823,0.0009819984342602,-0.0011767187632303,0.0011767267497235,-0.0011767220396853,0.0011767233198304,-0.0011767249226225,0.0011767202981722,-0.0011767282024524,0.0011767168646834,-0.0010685781686817,0.001068579971512,-0.0010685881269644,0.0010685696285557,-0.00097090234684079,0.00097091620030482,-0.00097092156660646,0.00097089642429498,3.4161943531957e-09,-1.9868804031675e-09,-0.0012941291780123,0.0012941305863892,-4.2066398899507e-09,5.9049159930756e-09,-0.0015118984520089,0.0015118982130924,-0.0015118950945549,0.0015119015062826,-0.0015119002713704,0.0015118964348639,-0.0015118969248128,0.0015118997319728,-0.0012119033091128,0.0012119028105657,-0.0012118979835613,0.0012119080770207,0.63789981891962,131329,3014,0.0037926452197783,0.0040848974600512,0.0053755141001525,36.914119514953,5.5312956119621e-05,5.5312956119621e-05,5.5312956119621e-05,4495552.4519491,0.013342669327011
12419200,0.93815921583855,0.013758962992133,0.0040893017664689,0.0043250068698075,0.0053446543558565,-0.00091407004307507,0.00091407169120371,-1.917732473707e-09,3.5669466373463e-09,-8.765496658741e-09,1.0830605796133e-08,-0.0011145876007703,0.0011145809827336,-0.0011145857866234,0.0011145828318893,-0.0011145814728119,0.001114587426243,-0.0011145796492336,0.0011145892581837,-0.0010057735948569,0.0010057763523353,-0.0010057681989743,0.0010057816841572,8.7031660909179e-09,-1.0994877478195e-08,4.199075219934e-09,-6.0496292387009e-09,-0.0009850746653125,0.00098507282468065,-0.0011809870244511,0.0011809950054076,-0.0011809902741015,0.0011809916028642,-0.0011809932042323,0.0011809885338057,-0.0011809964574843,0.0011809851274515,-0.0010721033745561,0.001072105079321,-0.0010721132542949,0.0010720948166512,-0.0009739449360681,0.00097395887783342,-0.00097396421541402,0.000973939042186,3.4692798376471e-09,-2.0455583970657e-09,-0.0012990773917159,0.0012990787945245,-4.169074376169e-09,5.8611148255241e-09,-0.0015181933088938,0.0015181931288745,-0.001518189978393,0.0015181963950207,-0.0015181951655153,0.0015181913136081,-0.0015181918460823,0.0015181945834117,-0.001216382210444,0.0012163815692552,-0.0012163767751184,0.0012163869455699,0.61826607259913,131329,3014,0.0038039970026426,0.0040976764828367,0.0053959973640731,36.802123386904,5.4416987095234e-05,5.4416987095234e-05,5.4416987095234e-05,4488527.5887848,0.01338789901727
12619200,0.94221179131436,0.013804197541346,0.0041019885481385,0.0043386069660017,0.0053636020272058,-0.00091647855258575,0.00091648019918151,-1.9744772456931e-09,3.6221879255276e-09,-8.8005515377209e-09,1.0864374037243e-08,-0.0011182090277112,0.0011182023476919,-0.0011182071761737,0.0011182042341781,-0.0011182028765361,0.001118208814091,-0.0011182010155974,0.0011182106834321,-0.0010084522998443,0.0010084549692676,-0.0010084467945741,0.0010084604109809,8.737900424866e-09,-1.1028877797861e-08,4.1674613438049e-09,-6.0170652547113e-09,-0.00098779678997461,0.00098779495021841,-0.0011848378569684,0.0011848458405568,-0.0011848410855987,0.0011848424594611,-0.0011848440599378,0.0011848393460423,-0.001184847292148,0.001184835961155,-0.0010751144770892,0.0010751160970075,-0.0010751242945846,0.0010751058979912,-0.00097656108675476,0.00097657511822265,-0.00097658043367506,0.00097655521522855,3.5226986656797e-09,-2.1039414719734e-09,-0.0013035275529196,0.0013035289507904,-4.1398615921877e-09,5.8264293092605e-09,-0.0015238949515521,0.0015238948253349,-0.0015238916422761,0.0015238980701399,-0.0015238968455611,0.0015238929728913,-0.0015238935473007,0.0015238962213548,-0.0012203288922355,0.0012203281151828,-0.001220323347336,0.001220333600975,0.58731202971757,131329,3014,0.0038140189658219,0.0041089909131229,0.0054144190467376,36.690182722433,5.3521461779461e-05,5.3521461779461e-05,5.3521461779461e-05,4485363.0110585,0.013428206765393
12819200,0.94595089425532,0.013846328098295,0.0041138327672904,0.0043512916919608,0.0053812036390437,-0.00091842042574393,0.00091842207185359,-2.0306197945474e-09,3.6778306053584e-09,-8.8539523229812e-09,1.0917811630231e-08,-0.0011211818638293,0.0011211751099447,-0.0011211799745723,0.0011211770341341,-0.0011211756765046,0.001121181612239,-0.0011211737786912,0.0011211835185063,-0.0010106436383751,0.0010106462348757,-0.0010106380250789,0.001010651784848,8.7868482776633e-09,-1.1077831997647e-08,4.1514240237961e-09,-6.000736029834e-09,-0.00099000989779564,0.00099000805824629,-0.0011880133587465,0.0011880213642106,-0.001188016576491,0.0011880179943602,-0.0011880195941468,0.0011880148372927,-0.0011880228162968,0.0011880114628579,-0.001077581361415,0.0010775829185698,-0.0010775911490266,0.0010775727508008,-0.00097865444470841,0.00097866858468448,-0.00097867388851263,0.00097864858405162,3.5768438439346e-09,-2.1617852772378e-09,-0.0013072930041532,0.0013072943983001,-4.1253453452373e-09,5.8077779199594e-09,-0.001528761063795,0.0015287609819872,-0.0015287577650634,0.0015287642160957,-0.0015287629948406,0.0015287590927332,-0.0015287597078785,0.001528762329642,-0.001223611279798,0.0012236103769264,-0.0012236056238642,0.0012236159736283,0.59134554317125,131329,3014,0.0038220988318401,0.0041181892030143,0.0054300076091725,36.406502952988,5.1252023623907e-05,5.1252023623907e-05,5.1252023623907e-05,4482998.5716835,0.013461527616838
13019200,0.94935753962724,0.013884876178419,0.0041246844765895,0.0043629061496778,0.0053972855521516,-0.00091971357590475,0.00091971522279174,-2.0860656912721e-09,3.7341756650261e-09,-8.9225909697059e-09,1.0988033401769e-08,-0.0011233910706603,0.0011233842338793,-0.0011233891441033,0.0011233861952132,-0.0011233848371618,0.0011233907825218,-0.001123382901932,0.0011233927261016,-0.0010121544272504,0.001012156961609,-0.0010121487050958,0.0010121626218895,8.8546653576625e-09,-1.1146341681247e-08,4.1513078938236e-09,-6.0007141977185e-09,-0.00099152332472677,0.00099152148465228,-0.0011903858367731,0.0011903938870515,-0.0011903890546697,0.0011903905172254,-0.0011903921178964,0.0011903873147597,-0.0011903953400117,0.0011903839404296,-0.0010793111949583,0.0010793127072101,-0.0010793209841846,0.0010793025410763,-0.00098006119596013,0.00098007547051221,-0.000980080773287,0.00098005533496019,3.6316300967816e-09,-2.2190109932668e-09,-0.0013101872025144,0.0013101885943197,-4.1265991927273e-09,5.806137770859e-09,-0.0015326465039362,0.0015326464575618,-0.0015326432052233,0.0015326496914741,-0.0015326484725381,0.0015326445310451,-0.0015326451856035,0.0015326477680227,-0.0012260802532613,0.001226079237965,-0.0012260744875725,0.0012260849441757,0.59302697421643,131329,3014,0.0038274830560441,0.004124482380567,0.0054419881404425,35.873453299481,4.6987626395851e-05,4.6987626395851e-05,4.6987626395851e-05,4475477.1916516,0.013485515302827
13219200,0.95246491008211,0.013920221484657,0.0041346529969678,0.0043735648145299,0.0054120036731594,-0.00092081011691379,0.00092081176362045,-2.1423614172705e-09,3.7901565635245e-09,-8.973239662276e-09,1.1038787123366e-08,-0.0011253120099191,0.0011253051017502,-0.0011253100462142,0.0011253071003509,-0.0011253057425411,0.0011253116839877,-0.0011253037696674,0.0011253136653458,-0.0010134591397674,0.0010134615967793,-0.001013453306346,0.0010134673673748,8.9086634312969e-09,-1.1202371345361e-08,4.1572189096762e-09,-6.0081461103587e-09,-0.00099281376220753,0.00099281192096303,-0.0011924497147577,0.0011924578056055,-0.0011924529375712,0.0011924544310973,-0.0011924560326344,0.0011924511963669,-0.0011924592591859,0.0011924478178898,-0.0010808081118408,0.0010808095969989,-0.0010808179117541,0.0010807994177883,-0.00098126573756235,0.0009812801120513,-0.00098128542253584,0.00098125987031066,3.6869523350782e-09,-2.2751839153402e-09,-0.0013127231498895,0.0013127245407875,-4.1339732762776e-09,5.8129449934618e-09,-0.0015360785219551,0.0015360785071616,-0.001536075218692,0.0015360817454986,-0.0015360805280224,0.0015360765432887,-0.0015360772359586,0.0015360797851185,-0.0012282406279341,0.0012282395084594,-0.0012282347536372,0.0012282453228016,0.59512404356414,131329,3014,0.0038320494545504,0.0041298490616768,0.00545248542186,35.334702157003,4.2677617256021e-05,4.2677617256021e-05,4.2677617256021e-05,4467227.6949361,0.013506231550802
13419200,0.95530345807568,0.013951953802018,0.0041435917376615,0.0043831226677158,0.0054252393966408,-0.00092170596619991,0.00092170761259586,-2.1985280857996e-09,3.8460046454922e-09,-9.0121686519045e-09,1.107776223138e-08,-0.0011269680335662,0.0011269610616567,-0.0011269660325164,0.0011269630976223,-0.0011269617401232,0.0011269676698577,-0.00112695972989,0.0011269696886171,-0.0010145209712122,0.0010145233442613,-0.001014515028222,0.0010145292246084,8.9475422385309e-09,-1.1241812982297e-08,4.1679012542056e-09,-6.019034405644e-09,-0.00099387896189797,0.00099387712045795,-0.0011942302015021,0.0011942383255758,-0.0011942334316498,0.0011942349438958,-0.0011942365455583,0.001194231690244,-0.0011942397794132,0.0011942283046159,-0.0010820383671862,0.0010820398470676,-0.0010820481883137,0.0010820296469162,-0.00098224561994491,0.00098226006364441,-0.00098226538188635,0.00098223974512737,3.742587775336e-09,-2.3312932102398e-09,-0.0013149126860457,0.0013149140764922,-4.1449582953105e-09,5.8234781799155e-09,-0.0015390885751844,0.0015390885900478,-0.0015390852646716,0.0015390918355329,-0.0015390906186083,0.0015390865890111,-0.001539087319253,0.00153908983799,-0.0012300851861063,0.001230083963952,-0.0012300792022858,0.0012300898875771,0.58608288286858,131329,3014,0.0038357814115247,0.0041342801705767,0.0054615482201558,34.795749347,3.8365994776e-05,3.8365994776e-05,3.8365994776e-05,4458716.2471643,0.013523699748084
13619200,0.95791409647864,0.013980741708109,0.0041516965850587,0.0043917872159801,0.0054372579070701,-0.00092261720960541,0.00092261885481588,-2.2543017994804e-09,3.9003746451437e-09,-9.0254872701475e-09,1.1089865591924e-08,-0.0011285672244932,0.0011285602059545,-0.0011285651861164,0.0011285622792761,-0.001128560922109,0.0011285668228801,-0.0011285588756825,0.0011285688778712,-0.0010155753767289,0.0010155776512621,-0.0010155693275657,0.0010155836374319,8.9466107254126e-09,-1.123977089142e-08,4.1815647729507e-09,-6.0316420151917e-09,-0.00099494555453347,0.0009949437144234,-0.0011959442921573,0.001195952425335,-0.0011959475305888,0.0011959490355469,-0.0011959506352187,0.0011959457914256,-0.0011959538784433,0.0011959423965238,-0.0010832427284218,0.0010832442378468,-0.0010832525769927,0.0010832340097399,-0.00098322444198034,0.00098323887720414,-0.00098324420465574,0.00098321856066178,3.7994431018566e-09,-2.3880671762458e-09,-0.0013170078455224,0.0013170092359974,-4.1564774907011e-09,5.8351529703175e-09,-0.0015419277041184,0.0015419277483058,-0.0015419243851624,0.0015419310020879,-0.0015419297849194,0.0015419257101038,-0.0015419264783594,0.0015419289663579,-0.0012318514994683,0.0012318501728198,-0.0012318454015334,0.0012318562085046,0.57889843851303,131329,3014,0.0038395756275556,0.0041387156981474,0.0054702211933043,34.355187179529,3.4841497436232e-05,3.4841497436232e-05,3.4841497436232e-05,4453141.8946999,0.013540839417119
13819200,0.96032950185063,0.014007377428939,0.0041592037823176,0.0043998077551223,0.0054483658914994,-0.00092356577039431,0.00092356741249704,-2.313264637765e-09,3.956418303519e-09,-8.9928755803534e-09,1.1053951655482e-08,-0.0011301387494435,0.001130131712635,-0.0011301366738598,0.0011301338232219,-0.0011301324701053,0.0011301383060227,-0.001130130384342,0.0011301404004227,-0.0010166647636584,0.001016666896117,-0.0010166585982322,0.0010166729980957,8.9356544827793e-09,-1.1226624590452e-08,4.1947268717363e-09,-6.042826677332e-09,-0.00099603915430236,0.00099603731617826,-0.001197622469337,0.0011976306052507,-0.0011976257170969,0.0011976272062504,-0.0011976288050609,0.0011976239787151,-0.0011976320555125,0.0011976205767615,-0.0010844684190745,0.0010844699583963,-0.0010844782875237,0.0010844597099549,-0.00098423669529386,0.0009842510966194,-0.0009842564297865,0.00098423080710373,3.8539721195031e-09,-2.4422968752716e-09,-0.0013190503119841,0.0013190517026949,-4.1707029120066e-09,5.8497557869467e-09,-0.0015446474463994,0.0015446475186333,-0.001544644118885,0.001544650780936,-0.0015446495645608,0.0015446454430812,-0.0015446462471996,0.0015446487098749,-0.0012335858687294,0.0012335844483608,-0.0012335796683029,0.0012335905879814,0.5784214845581,131329,3014,0.0038435234433552,0.0041432622045305,0.0054786768266354,34.003071577924,3.2024572623396e-05,3.2024572623396e-05,3.2024572623396e-05,4449816.9945764,0.013558026259332
14019200,0.96256655798862,0.014032056938819,0.0041661657408682,0.004407242235441,0.0054586489625097,-0.00092440602789502,0.0009244076671615,-2.3700083455484e-09,4.010399062238e-09,-8.9642989000572e-09,1.1022288685705e-08,-0.0011315524240174,0.0011315453670564,-0.0011315503109318,0.0011315475151242,-0.0011315461641289,0.0011315519406565,-0.0011315440419401,0.0011315540714784,-0.0010176366467674,0.0010176386498062,-0.0010176303750742,0.0010176448586059,8.8986511188302e-09,-1.1185806509016e-08,4.2124470802389e-09,-6.0571973784646e-09,-0.00099701034166411,0.0009970085068285,-0.0011991291978873,0.0011991373214743,-0.0011991324558232,0.0011991339123249,-0.0011991355076254,0.0011991307213199,-0.0011991387693474,0.0011991273081634,-0.0010855637170654,0.0010855653189897,-0.0010855736191533,0.0010855550376995,-0.00098513493810568,0.00098514925773581,-0.00098515459775972,0.00098512904319884,3.9107315888344e-09,-2.4985718783442e-09,-0.0013208916597197,0.0013208930509762,-4.1854883344103e-09,5.8650759676022e-09,-0.0015471117197994,0.0015471118197424,-0.0015471083816748,0.0015471150926572,-0.0015471138751731,0.0015471097071018,-0.0015471105482477,0.0015471129834066,-0.001235146300483,0.0012351447781913,-0.0012351399876859,0.0012351510301591,0.5782099747757,131329,3014,0.0038470207494013,0.0041473000685389,0.0054862998149875,33.652985201364,2.9223881610915e-05,2.9223881610915e-05,2.9223881610915e-05,4446245.0147289,0.01357339678484
14219200,0.96464031517253,0.014054023203606,0.0041723334144029,0.0044138369162281,0.0054678528729747,-0.00092510094511268,0.0009251025812087,-2.4275575745766e-09,4.0648336272111e-09,-8.9272709390596e-09,1.0981719984375e-08,-0.0011327919721535,0.0011327849004753,-0.0011327898217455,0.0011327870858889,-0.0011327857378383,0.001132791448071,-0.0011327835782683,0.0011327936163076,-0.0010184165550894,0.0010184184195045,-0.0010184101738151,0.0010184247381436,8.8618717981266e-09,-1.1145291448381e-08,4.2305314304151e-09,-6.0719980969512e-09,-0.00099782138450545,0.00099781955293478,-0.0012004494616709,0.0012004575737809,-0.0012004527306461,0.0012004541536634,-0.0012004557460141,0.0012004509994034,-0.0012004590187128,0.0012004475753529,-0.0010864537043461,0.0010864553673986,-0.00108646363865,0.0010864450541797,-0.00098586078783509,0.00098587502405023,-0.00098588037170621,0.00098585488581142,3.967016315904e-09,-2.5540529499061e-09,-0.0013224997247564,0.0013225011168514,-4.2014036452967e-09,5.8818922066424e-09,-0.0015493015892805,0.00154930171643,-0.0015492982402043,0.0015493050002431,-0.0015493037819662,0.0015492995665554,-0.001549300444008,0.0015493028538121,-0.0012364811324752,0.0012364795124524,-0.0012364747102175,0.0012364858738304,0.55856306497031,131329,3014,0.0038499138751565,0.0041506727589331,0.005492956831927,33.302970563211,2.6423764505685e-05,2.6423764505685e-05,2.6423764505685e-05,4442750.7761771,0.013586501456965
14419200,0.96653241310244,0.014074317034371,0.0041780474667951,0.0044199398462789,0.0054763297212975,-0.00092517124380063,0.00092517287463718,-2.4889063474725e-09,4.1205222273156e-09,-8.9033765947213e-09,1.0952172845902e-08,-0.0011332875096947,0.0011332804116256,-0.0011332853215102,0.001133282635103,-0.0011332812931725,0.0011332869404035,-0.0011332790933554,0.0011332891488514,-0.0010185445667323,0.0010185462895073,-0.0010185380673323,0.0010185527285786,8.86326748349e-09,-1.1145997078725e-08,4.2568293900328e-09,-6.0979210227175e-09,-0.00099797783601047,0.00099797600468837,-0.0012010059185333,0.0012010140491804,-0.0012010092062839,0.0012010106096822,-0.0012010122026148,0.0012010074718226,-0.0012010154924791,0.0012010040314268,-0.0010866572701642,0.0010866589773657,-0.0010866672494185,0.0010866486227588,-0.00098591438692465,0.00098592860319829,-0.00098593396493544,0.00098590846927959,4.0209664607053e-09,-2.6067537189926e-09,-0.0013233189281774,0.0013233203220197,-4.229777360058e-09,5.9117109985811e-09,-0.0015506066875819,0.0015506068353286,-0.0015506033210109,0.001550610137258,-0.0015506089165196,0.0015506046483131,-0.001550605556987,0.0015506079543089,-0.0012370406487914,0.0012370389479951,-0.0012370341314756,0.0012370454144996,0.56383118898292,131329,3014,0.0038502105826824,0.004151326563254,0.0054963486319813,32.646958459819,2.1175667678554e-05,2.1175667678554e-05,2.1175667678554e-05,4435764.2552439,0.013590906037182
14619200,0.96824562481781,0.014092813743002,0.0041832659978634,0.0044255088143978,0.0054840389307408,-0.00092483824015935,0.00092483987314892,-2.5428694750536e-09,4.177675530292e-09,-8.9025480949137e-09,1.0954131516919e-08,-0.0011333270409797,0.0011333199080283,-0.0011333248160787,0.0011333221679394,-0.0011333208247841,0.0011333264371649,-0.0011333185877252,0.0011333286830414,-0.0010182530127897,0.0010182546290027,-0.0010182464055429,0.0010182611773413,8.8605995465859e-09,-1.1140312948044e-08,4.2906630747108e-09,-6.1284637752631e-09,-0.00099771240163058,0.00099771057302686,-0.0012010888604628,0.001201097012994,-0.0012010921699901,0.0012010935525607,-0.0012010951444406,0.0012010904401218,-0.0012010984544699,0.0012010869786555,-0.0010864291752234,0.0010864309544701,-0.0010864392207103,0.0010864205338918,-0.00098555562432948,0.00098556981612171,-0.00098557519791805,0.00098554968888985,4.0788476704741e-09,-2.6615999607129e-09,-0.0013236127559945,0.0013236141528359,-4.2596162327951e-09,5.9448100309284e-09,-0.0015513277700579,0.0015513279366871,-0.0015513243820051,0.0015513312592315,-0.0015513300377056,0.0015513257122269,-0.0015513266577735,0.001551329041439,-0.0012371121834539,0.0012371103966808,-0.0012371055516658,0.0012371169685091,0.56645234289429,131329,3014,0.0038488320577728,0.0041502292136359,0.0054975646007299,31.822371910755,1.457897528604e-05,1.457897528604e-05,1.457897528604e-05,4424319.7834953,0.013589631949665
14819200,0.96979963675888,0.014109723252978,0.0041880478538304,0.0044306070400006,0.0054910683591474,-0.00092440656527578,0.00092440819593751,-2.5987471695578e-09,4.2307356743116e-09,-8.9057039190349e-09,1.095447655332e-08,-0.0011332228725458,0.0011332156995422,-0.0011332206101267,0.0011332179971013,-0.0011332166544502,0.0011332222302193,-0.0011332143820421,0.0011332245113372,-0.001017859253733,0.0010178607656358,-0.0010178525421555,0.0010178674158945,8.8453337766588e-09,-1.112421456842e-08,4.3216451907142e-09,-6.1588555838808e-09,-0.00099733641417676,0.00099733458676172,-0.0012010229511872,0.0012010311148175,-0.0012010262798978,0.0012010276350173,-0.0012010292240129,0.0012010245524203,-0.0012010325557093,0.001201021069498,-0.0010860892123066,0.0010860910653894,-0.0010860993203,0.0010860805797851,-0.00098509851247431,0.00098511265615102,-0.00098511805840215,0.00098509255625363,4.1376486062047e-09,-2.7176251224768e-09,-0.0013237241402994,0.0013237255396554,-4.2867518662319e-09,5.9749424516389e-09,-0.0015518186966889,0.0015518188836342,-0.001551815288549,0.0015518222266087,-0.0015518210013659,0.001551816622083,-0.0015518176031022,0.0015518199689828,-0.0012370321664637,0.0012370302866071,-0.0012370254188099,0.0012370369746915,0.56961685960094,131329,3014,0.0038470433448076,0.0041486727006987,0.0054980250188323,30.993889667138,7.951117337102e-06,7.951117337102e-06,7.951117337102e-06,4412124.2643823,0.013586710680101
15019200,0.97119030115458,0.014124801542974,0.004192315043405,0.0044351546330652,0.0054973318665041,-0.00092338384948054,0.00092338547797665,-2.6538730518235e-09,4.282930164394e-09,-8.9327374738842e-09,1.0979295692347e-08,-0.0011324683813114,0.0011324611530878,-0.0011324660815577,0.0011324634873284,-0.0011324621458588,0.0011324677013431,-0.0011324598380002,0.0011324700167974,-0.0010168397429088,0.0010168411691711,-0.0010168329306676,0.0010168479230558,8.846761896592e-09,-1.1123208473883e-08,4.3553632406932e-09,-6.1907731741487e-09,-0.00099634656397671,0.00099634473796269,-0.0012002888498788,0.0012002970360381,-0.001200292198664,0.0012002935346402,-0.001200295121473,0.0012002904723868,-0.0012002984758809,0.001200286966243,-0.0010851041115926,0.0010851060357013,-0.0010851142896021,0.0010850954847747,-0.00098402576926145,0.00098403989914519,-0.00098404531559632,0.00098401979232638,4.195384910812e-09,-2.7762624190888e-09,-0.0013231293120834,0.0013231307113118,-4.3172893902432e-09,6.0046321490802e-09,-0.0015515462517609,0.0015515464572708,-0.0015515428230989,0.0015515498220524,-0.0015515485935215,0.0015515441576489,-0.0015515451756622,0.0015515475228966,-0.0012362716719105,0.0012362696938393,-0.00123626480977,0.0012362765020776,0.56737760622653,131329,3014,0.0038427996437464,0.004144568054023,0.0054955605901919,29.890559909106,-8.7552072714839e-07,-8.7552072714839e-07,-8.7552072714839e-07,4394572.2027966,0.013575752935223
15219200,0.97241634262291,0.014137457391552,0.0041958788757032,0.0044389573899483,0.0055026211259008,-0.00092169722769787,0.00092169886420209,-2.7089833692999e-09,4.3493454828045e-09,-8.9333820996913e-09,1.099039452205e-08,-0.0011309831922695,0.0011309759256992,-0.0011309808552012,0.0011309782978017,-0.0011309769529704,0.0011309824779539,-0.0011309746037323,0.0011309848370485,-0.0010150964615724,0.0010150977714918,-0.0010150895263564,0.0010151046527905,8.9049993439752e-09,-1.1181896707691e-08,4.386293166836e-09,-6.2211415045605e-09,-0.00099466705500153,0.00099466522869534,-0.0011988037230041,0.0011988119682081,-0.0011988070958887,0.0011988084459652,-0.001198810038107,0.00119880537026,-0.0011988134098554,0.0011988018465075,-0.0010833711168579,0.0010833730549876,-0.0010833813485121,0.001083362450836,-0.00098224322521004,0.0009822574440569,-0.00098226288709083,0.00098223723515436,4.249599026255e-09,-2.8244322927675e-09,-0.0013217491666182,0.0013217505714374,-4.349532925843e-09,6.0434355103112e-09,-0.0015504244029184,0.0015504246247035,-0.0015504209506164,0.001550428009038,-0.0015504267831472,0.0015504222897055,-0.0015504233414011,0.001550425684282,-0.0012347351275546,0.0012347330830076,-0.0012347281638854,0.0012347399754645,0.54391181254976,131329,3014,0.0038357978660703,0.0041376002035167,0.0054898441105122,28.4844697738,-1.2124241809601e-05,-1.2124241809601e-05,-1.2124241809601e-05,4372250.6897689,0.013555800174636
15419200,0.9734995651631,0.014150418696625,0.0041996029579943,0.0044429053617765,0.0055079103768542,-0.00092001701092509,0.00092001864174019,-2.7665400214543e-09,4.3988988405423e-09,-8.9718348011642e-09,1.1021523963008e-08,-0.001129378050835,0.0011293707213428,-0.0011293756764869,0.0011293731309215,-0.0011293717883017,0.0011293772964494,-0.0011293694038214,0.0011293796896665,-0.0010134230213507,0.0010134242490653,-0.0010134159816417,0.0010134312291598,8.9121952042297e-09,-1.1191433019815e-08,4.4141317418733e-09,-6.2511920450439e-09,-0.00099298338276143,0.00099298155529548,-0.0011971932010649,0.0011972014706948,-0.0011971965912076,0.0011971979293811,-0.0011971995189528,0.0011971948638139,-0.0011972029119006,0.0011971913193712,-0.0010816920539081,0.0010816940438898,-0.0010817023435667,0.001081683377914,-0.00098047973308841,0.00098049394733353,-0.00098049941056028,0.00098047371580677,4.3078341700937e-09,-2.8826987920601e-09,-0.0013202915181795,0.0013202929228547,-4.375732469259e-09,6.0698166108867e-09,-0.0015491287860326,0.001549129028671,-0.0015491253163971,0.0015491324329344,-0.0015491312026015,0.0015491266555339,-0.0015491277430167,0.0015491300640842,-0.0012331538499407,0.001233151707698,-0.0012331467735089,0.0012331587238512,0.61487581221807,131329,3014,0.003828820062246,0.0041306128866155,0.0054838087409028,27.071477809091,-2.3428177527275e-05,-2.3428177527275e-05,-2.3428177527275e-05,4352084.2513726,0.013535526429873
15619200,0.97447604387897,0.014162377938556,0.004203049589705,0.0044465552810274,0.0055127730678235,-0.00091876973545312,0.00091877136364734,-2.8254528341789e-09,4.4549772285037e-09,-8.9448533851632e-09,1.0991342749847e-08,-0.0011283529086957,0.0011283455575068,-0.0011283504960704,0.0011283480051711,-0.0011283466651221,0.001128352113386,-0.0011283442420084,0.0011283545449616,-0.0010122131226184,0.0010122142155749,-0.0010122059687503,0.0010122213078469,8.8974558899718e-09,-1.1175811311878e-08,4.4263098872442e-09,-6.2625189196377e-09,-0.00099174191109012,0.00099174008476751,-0.0011961576766302,0.0011961659456335,-0.0011961610746284,0.0011961623961103,-0.0011961639844202,0.0011961593484578,-0.0011961673849785,0.0011961557962423,-0.0010805094084604,0.0010805114313554,-0.0010805197196083,0.0010805007417103,-0.00097925385692497,0.00097926803292006,-0.00097927350467007,0.00097924783206771,4.3625445513762e-09,-2.9367607543866e-09,-0.0013192991951077,0.0013193006002133,-4.3880549463452e-09,6.0829275394156e-09,-0.0015483760584657,0.0015483763292673,-0.0015483725806685,0.0015483797419983,-0.0015483785113715,0.0015483739196148,-0.0015483750429703,0.0015483773366068,-0.0012321375194628,0.0012321352811219,-0.0012321303373244,0.0012321424036762,0.62694798078005,131329,3014,0.0038236455708577,0.0041254656638836,0.0054796953279304,25.962927656404,-3.2296578748765e-05,-3.2296578748765e-05,-3.2296578748765e-05,4327726.270089,0.013520900809907
15819200,0.97539456526089,0.014174527190282,0.0042065822855007,0.0044502853925463,0.0055176595122351,-0.00091874617764353,0.00091874780185644,-2.8827273904217e-09,4.5085288349801e-09,-8.8597681932221e-09,1.0901475360176e-08,-0.0011285925666628,0.0011285852326645,-0.0011285901171525,0.0011285877175945,-0.0011285863808501,0.0011285917301361,-0.0011285839212051,0.0011285941987971,-0.0010123033115004,0.0010123042340253,-0.0010122960499379,0.0010123114343741,8.8068784778597e-09,-1.1079724805404e-08,4.418377344634e-09,-6.2497888010058e-09,-0.00099174947957732,0.00099174765801208,-0.0011964046752757,0.0011964128798827,-0.0011964080666151,0.0011964093377151,-0.0011964109215368,0.001196406345557,-0.0011964143156055,0.0011964028003379,-0.0010806495350861,0.001080651605117,-0.0010806598263309,0.0010806409354431,-0.00097933574673444,0.00097934975113508,-0.00097935521213728,0.00097932973457875,4.4189264068904e-09,-2.9933763681126e-09,-0.0013195963947106,0.0013195977995462,-4.377427546505e-09,6.0719698784588e-09,-0.0015489317478209,0.0015489320629394,-0.0015489282768747,0.0015489354684337,-0.0015489342384124,0.0015489296159796,-0.0015489307774524,0.0015489330257835,-0.0012324469549999,0.0012324445976662,-0.0012324396611643,0.0012324518307484,0.6691970100113,131329,3014,0.0038235538501341,0.0041255030926058,0.0054809219431558,25.547565377129,-3.5619476982964e-05,-3.5619476982964e-05,-3.5619476982964e-05,4314646.1858417,0.013522095839296
16019200,0.97626003611644,0.014185940610055,0.0042099000883618,0.0044537886631164,0.0055222518585773,-0.00091867814740807,0.00091867976764079,-2.9392681245235e-09,4.5610390263297e-09,-8.783938172189e-09,1.0820973818207e-08,-0.0011288661220578,0.0011288587999001,-0.001128863636022,0.0011288613211445,-0.0011288599881671,0.0011288652450929,-0.0011288574920334,0.0011288677500132,-0.0010123305283334,0.0010123312881775,-0.0010123231598611,0.0010123385949692,8.7178580378913e-09,-1.0984782337399e-08,4.406062190989e-09,-6.232871524571e-09,-0.00099171417752005,0.00099171236074988,-0.0011966805225727,0.0011966886610384,-0.001196683904093,0.0011966851285223,-0.0011966867078742,0.001196682187888,-0.0011966900922101,0.0011966786522939,-0.0010807401252879,0.0010807422326521,-0.0010807503880394,0.0010807315914718,-0.00097941128410042,0.00097942512329345,-0.00097943056889491,0.00097940528749707,4.4756706194525e-09,-3.0513759416184e-09,-0.0013198577655704,0.0013198591690747,-4.3624084509457e-09,6.0554489066043e-09,-0.001549489133835,0.0015494894963562,-0.0015494856734889,0.0015494928914669,-0.0015494916625093,0.0015494870110711,-0.0015494882121574,0.001549490410369,-0.001232764904482,0.0012327624230773,-0.0012327574981122,0.0012327697686134,0.66742793822181,131329,3014,0.0038232801221683,0.004125365006002,0.0054819973517628,25.147857281221,-3.8817141750229e-05,-3.8817141750229e-05,-3.8817141750229e-05,4298017.331467,0.01352277829028
16219200,0.97707614346215,0.014196650869552,0.0042130137513373,0.0044570756702977,0.0055265614479166,-0.0009185696572387,0.0009185712736038,-2.9979139239051e-09,4.6158792246464e-09,-8.7072001374538e-09,1.0739633118345e-08,-0.0011290801415246,0.0011290728302016,-0.0011290776175485,0.0011290753893456,-0.0011290740598538,0.00112907922274,-0.0011290715259552,0.0011290817654154,-0.0010122986762484,0.0010122992687351,-0.0010122911969939,0.0010123066865281,8.648599132194e-09,-1.0911097886302e-08,4.3899361653454e-09,-6.2131430585056e-09,-0.00099163603672494,0.00099163422359739,-0.0011968954446279,0.0011969035270528,-0.0011968988142291,0.0011969000065687,-0.0011969015824806,0.001196897101726,-0.0011969049550526,0.0011968935780171,-0.0010807658704134,0.0010807679941969,-0.001080776098495,0.0010807573881508,-0.00097943831116095,0.00097945202602431,-0.00097945745583665,0.00097943233086197,4.5302041174915e-09,-3.1071692329363e-09,-0.0013200563720522,0.0013200577743213,-4.3460914642126e-09,6.0376887106367e-09,-0.0015499581667197,0.0015499585761233,-0.0015499547177093,0.0015499619599829,-0.0015499607320568,0.001549956054132,-0.0015499572931652,0.0015499594419908,-0.0012330187240194,0.0012330161216005,-0.0012330112095406,0.0012330235756601,0.66425606292789,131329,3014,0.0038228376979881,0.0041250485023964,0.0054828131433589,24.748697600049,-4.2010419199607e-05,-4.2010419199607e-05,-4.2010419199607e-05,4283003.4172409,0.013522844668171
16419200,0.9778490732777,0.014205655764346,0.0042155995253935,0.0044598150741534,0.0055302411647995,-0.00091848851310511,0.00091849012485589,-3.0602024285047e-09,4.6736734159559e-09,-8.6243124047937e-09,1.0651183651504e-08,-0.0011293219979981,0.0011293146985644,-0.0011293194339427,0.0011293172980952,-0.0011293159723199,0.001129321034294,-0.0011293133988044,0.0011293236168824,-0.0010122392293177,0.0010122396424621,-0.0010122316320967,0.0010122471760095,8.609095805223e-09,-1.086970132942e-08,4.3692460761533e-09,-6.1909398085956e-09,-0.00099158270345717,0.000991580892104,-0.0011971375337391,0.0011971455763684,-0.0011971408891079,0.0011971420705328,-0.0011971436441285,0.0011971391784583,-0.0011971470029884,0.0011971356689904,-0.0010807557288775,0.0010807578383235,-0.0010807659144326,0.0010807472726796,-0.00097945800361599,0.00097947165348732,-0.00097947706845988,0.00097945203811987,4.5816380392793e-09,-3.1594540934932e-09,-0.0013202640978788,0.0013202654990392,-4.3267197028301e-09,6.0173016720644e-09,-0.0015504240420519,0.0015504244978712,-0.0015504206061509,0.0015504278687084,-0.0015504266417933,0.0015504219415521,-0.0015504232161,0.0015504253155476,-0.0012332568646628,0.0012332541460898,-0.0012332492489346,0.0012332617034937,0.59981699294738,131329,3014,0.0038225082194954,0.0041248343180709,0.0054836670629211,24.411317218565,-4.4709462251482e-05,-4.4709462251482e-05,-4.4709462251482e-05,4270794.4842795,0.01352316695076
16619200,0.97858519084294,0.014215979387049,0.0042186257143949,0.0044630004245797,0.0055343532480747,-0.00091865985247308,0.00091866146282805,-3.1131440471745e-09,4.7251994059311e-09,-8.6009694142001e-09,1.0626164956602e-08,-0.0011296536277588,0.001129646308758,-0.0011296510288692,0.0011296489428353,-0.0011296476185464,0.001129652627865,-0.0011296450099003,0.0011296552453765,-0.0010124946483115,0.0010124949419793,-0.0010124869493796,0.0010125025791246,8.5454720729281e-09,-1.080011860009e-08,4.349217677873e-09,-6.1656907931132e-09,-0.000991779938312,0.00099177813205514,-0.001197477829056,0.0011974858176727,-0.0011974811694854,0.0011974823266744,-0.0011974838959114,0.0011974794639481,-0.0011974872394611,0.0011974759696257,-0.0010810380219157,0.001081040137314,-0.0010810481638599,0.0010810296175149,-0.00097970599311643,0.00097971953353244,-0.00097972492805826,0.00097970004975239,4.6403437356841e-09,-3.2200821870525e-09,-0.0013206795878756,0.0013206809873169,-4.3038010397443e-09,5.9921623362597e-09,-0.0015509927578889,0.0015509932681921,-0.0015509893381894,0.0015509966228508,-0.0015509953976056,0.0015509906718918,-0.0015509919879572,0.00155099403022,-0.0012336726298948,0.0012336697766066,-0.0012336648968442,0.001233677449844,0.70235633426928,131329,3014,0.0038232224042159,0.0041256556563668,0.0054853860875961,24.157595630655,-4.6739234954759e-05,-4.6739234954759e-05,-4.6739234954759e-05,4267132.9757882,0.013526467425357
16819200,0.97928664166418,0.014225860647476,0.0042215212648492,0.0044660488929512,0.0055382904896756,-0.00091873929317483,0.00091874090223769,-3.169999230523e-09,4.7807789302501e-09,-8.5753280313797e-09,1.0599003618097e-08,-0.0011300745155385,0.0011300671753657,-0.0011300718791079,0.0011300698469424,-0.0011300685238308,0.0011300734767556,-0.0011300658776626,0.0011300761317879,-0.0010126572473422,0.0010126574121458,-0.001012649438379,0.0010126651595486,8.5224836972998e-09,-1.0775333412055e-08,4.3267864131741e-09,-6.1418808388998e-09,-0.00099188939815967,0.00099188759330281,-0.0011978958704854,0.00119790382929,-0.0011978991956165,0.0011979003537198,-0.0011979019216926,0.0011978974914141,-0.0011979052499461,0.0011978940125214,-0.0010812627123201,0.0010812647998837,-0.0010812728092306,0.0010812543256475,-0.00097995217985163,0.00097996569062271,-0.00097997106792625,0.00097994625376018,4.6952791752089e-09,-3.2765270498183e-09,-0.0013210483317234,0.0013210497296569,-4.2817977297832e-09,5.9683757833049e-09,-0.0015516245367013,0.0015516250978991,-0.0015516211322827,0.0015516284372916,-0.0015516272134952,0.0015516224645291,-0.0015516238191209,0.0015516258076006,-0.0012341449476666,0.0012341419685312,-0.0012341371055693,0.0012341497507312,0.70571573221618,131329,3014,0.0038235616678519,0.004126118685361,0.0054869050864753,23.905767710096,-4.875385831923e-05,-4.875385831923e-05,-4.875385831923e-05,4252729.7428849,0.013528830302196
17019200,0.97995535592603,0.014235080464597,0.004224218661429,0.0044688895439756,0.005541972259192,-0.0009187741075418,0.00091877571584385,-3.2259886180268e-09,4.8360203298691e-09,-8.5646347641105e-09,1.0587449978965e-08,-0.0011304512040043,0.001130443833393,-0.0011304485304847,0.0011304465420274,-0.0011304452195903,0.0011304501273527,-0.0011304425363318,0.0011304528194758,-0.0010127568610777,0.001012756908842,-0.0010127489432364,0.0010127647651607,8.5079412649642e-09,-1.0759552594444e-08,4.3050853923441e-09,-6.1191694227494e-09,-0.00099195188051242,0.000991950076662,-0.0011982681995629,0.0011982761344912,-0.0011982715100117,0.0011982726737229,-0.0011982742407728,0.0011982698067455,-0.0011982775543323,0.0011982663426703,-0.001081419054428,0.0010814211095631,-0.001081429107964,0.0010814106789911,-0.00098014912117,0.00098016261801565,-0.00098016797945365,0.000980143211118,4.7508762712852e-09,-3.3335333445504e-09,-0.0013213600054406,0.0013213614019517,-4.2603598363432e-09,5.9452762674793e-09,-0.0015521877234766,0.0015521883356915,-0.0015521843339184,0.0015521916602095,-0.0015521904377884,0.0015521856647906,-0.0015521870582834,0.001552188993017,-0.001234559361173,0.0012345562554833,-0.0012345514087589,0.0012345641479283,0.69245977435248,131329,3014,0.0038237156622527,0.0041263867128999,0.0054881872745607,23.654006093495,-5.0767951252041e-05,-5.0767951252041e-05,-5.0767951252041e-05,4239218.3169937,0.013530567107076
17219200,0.98057775982354,0.014243412430841,0.0042266508740078,0.004471452047699,0.0055453095091343,-0.00091804834549929,0.00091804995653103,-3.2747651870832e-09,4.8873464306567e-09,-8.6444392478442e-09,1.0670857832677e-08,-0.0011299971840145,0.0011299897298215,-0.0011299944781733,0.0011299924705354,-0.0011299911470328,0.0011299960768928,-0.0011299884288777,0.0011299988034965,-0.0010120398390914,0.0010120398432325,-0.0010120318206512,0.0010120478021674,8.5122525893914e-09,-1.0762068504691e-08,4.2947183600581e-09,-6.1076176235433e-09,-0.00099123221371388,0.00099123041076843,-0.0011977956541876,0.0011978035860922,-0.0011977989584507,0.0011978001311345,-0.0011978016989056,0.0011977972542664,-0.0011978050039329,0.0011977937986027,-0.0010807335186974,0.0010807355487039,-0.0010807435487079,0.0010807251447375,-0.00097952397629705,0.0009795374867902,-0.00097954283592446,0.00097951807498145,4.8117113176986e-09,-3.3963077004252e-09,-0.0013208297376611,0.001320831132602,-4.2485392472188e-09,5.9312753018756e-09,-0.0015518544933738,0.0015518551555797,-0.0015518511138366,0.0015518584703511,-0.0015518572499266,0.0015518524421523,-0.0015518538778113,0.0015518557629523,-0.0012341107683754,0.0012341075342631,-0.0012341026986844,0.001234115544489,0.67475988671019,131329,3014,0.0038207094656562,0.0041234069492839,0.0054859836359914,22.993664827312,-5.6050681381507e-05,-5.6050681381507e-05,-5.6050681381507e-05,4220908.6577905,0.013522273227378
17419200,0.98114577679537,0.014250665293961,0.0042287599920886,0.0044736759716579,0.0055482293302148,-0.0009166756738961,0.0009166772875663,-3.3325995199605e-09,4.9480585902948e-09,-8.7042071780926e-09,1.073398061726e-08,-0.0011288147989166,0.00112880726539,-0.0011288120529972,0.0011288100474459,-0.0011288087195953,0.0011288136545946,-0.0011288059638621,0.0011288164201911,-0.0010106244524083,0.0010106243874074,-0.0010106163227073,0.0010106324596193,8.6098296334668e-09,-1.0864384580591e-08,4.2892941819459e-09,-6.1061091470573e-09,-0.00098984492893042,0.00098984312178118,-0.0011965817230292,0.0011965897135537,-0.0011965850246506,0.0011965862629748,-0.0011965878336689,0.001196583317148,-0.0011965911383228,0.0011965798632523,-0.0010793247530748,0.0010793267094954,-0.0010793347806015,0.0010793163097181,-0.0009781851662658,0.00097819887573119,-0.00097820422582268,0.00097817926354571,4.8645358854737e-09,-3.4486423926951e-09,-0.001319569224417,0.0013195706199862,-4.245537376865e-09,5.9287166954217e-09,-0.0015507306845705,0.0015507313830362,-0.0015507273049745,0.0015507346965313,-0.001550733475266,0.0015507286363585,-0.0015507301062985,0.0015507319542298,-0.0012329053275272,0.0012329019850172,-0.001232897150441,0.0012329101002465,0.64747799599768,131329,3014,0.0038150145352375,0.0041176543513115,0.0054807573784518,21.990043183947,-6.4079654528427e-05,-6.4079654528427e-05,-6.4079654528427e-05,4199096.1816462,0.013505377459578
17619200,0.98166459127853,0.01425701581552,0.004230600908618,0.0044756181228063,0.0055507967840957,-0.00091526758311447,0.00091526919826212,-3.3903550205108e-09,5.0070036945623e-09,-8.765973341914e-09,1.0797458047245e-08,-0.0011275232358036,0.0011275156225925,-0.0011275204501109,0.0011275184434896,-0.0011275171142387,0.0011275220544144,-0.0011275143196114,0.001127524857916,-0.0010091541438278,0.0010091540088482,-0.0010091458999386,0.0010091621931168,8.702984468041e-09,-1.0963467091409e-08,4.2847366867937e-09,-6.1060549214373e-09,-0.00098841522468785,0.00098841341329035,-0.0011952590994636,0.0011952671481449,-0.0011952623985712,0.0011952636989941,-0.0011952652726792,0.0011952606875665,-0.0011952685757753,0.0011952572342583,-0.0010778455490069,0.0010778474329906,-0.001077855572339,0.001077837035235,-0.00097676562926288,0.00097677952369486,-0.00097678487958176,0.00097675972183376,4.9178679279812e-09,-3.5022079768915e-09,-0.0013182280272293,0.0013182294223214,-4.2444537575571e-09,5.9274241247617e-09,-0.001549474097979,0.001549474831833,-0.0015494707190554,0.0015494781453277,-0.0015494769235984,0.0015494720495193,-0.00154947355576,0.0015494753660091,-0.0012315863921573,0.0012315829431442,-0.0012315781096891,0.0012315911654597,0.62390235218462,131329,3014,0.0038091698676466,0.0041117234485732,0.0054751993505947,20.978616876075,-7.2171064991397e-05,-7.2171064991397e-05,-7.2171064991397e-05,4180438.1898491,0.013487810464924
17819200,0.98213967883204,0.014262613620158,0.0042322189346628,0.0044773259779378,0.0055530687075578,-0.00091388202181449,0.00091388364005842,-3.4448099222744e-09,5.0647209648982e-09,-8.831563321891e-09,1.0866852102657e-08,-0.0011261952935429,0.0011261876004349,-0.0011261924704367,0.0011261904588219,-0.0011261891266321,0.0011261940776557,-0.0011261862948978,0.0011261969185278,-0.0010076936043792,0.0010076934073381,-0.0010076852500215,0.0010077016998643,8.7711409322673e-09,-1.1035469405624e-08,4.2822670382371e-09,-6.1066715227446e-09,-0.0009870034321426,0.00098700161790861,-0.0011939011745951,0.0011939092664825,-0.0011939044731031,0.0011939058182565,-0.0011939073942936,0.0011939027598902,-0.0011939106968595,0.0011938993071468,-0.0010763648360195,0.0010763666676094,-0.0010763748564907,0.00107635626989,-0.00097533224161455,0.00097534627033843,-0.00097535163091735,0.00097532633156926,4.9739663788002e-09,-3.5575418277745e-09,-0.0013168742652975,0.0013168756607368,-4.243222685489e-09,5.9269614370436e-09,-0.0015481652688204,0.0015481660400467,-0.0015481618901001,0.0015481693529181,-0.0015481681316929,0.0015481632207972,-0.001548164764644,0.0015481665368231,-0.0012302263285072,0.0012302227705312,-0.0012302179353436,0.0012302311012532,0.60341630050133,131329,3014,0.0038034165944901,0.0041058649927861,0.0054695913747653,19.98894452819,-8.0088443774478e-05,-8.0088443774478e-05,-8.0088443774478e-05,4164889.322321,0.013470357067599
18019200,0.98257570560332,0.014267750131337,0.0042337054546757,0.0044788939629805,0.0055551507136809,-0.00091252332269125,0.00091252494239011,-3.4996877280893e-09,5.1208908401529e-09,-8.8858221964078e-09,1.0922987751046e-08,-0.0011248411532081,0.0011248333887583,-0.0011248382937954,0.0011248362834247,-0.001124834950574,0.0011248399018854,-0.0011248320809388,0.0011248427805426,-0.0010062600757338,0.0010062598061756,-0.001006251610389,0.0010062682098973,8.8216111889703e-09,-1.1088287475418e-08,4.2813119774852e-09,-6.1075865730736e-09,-0.00098561507412958,0.00098561325795718,-0.0011925183621839,0.001192526487474,-0.0011925216614241,0.0011925230383785,-0.0011925246169087,0.0011925199452387,-0.0011925279187715,0.0011925164932824,-0.0010749018863591,0.0010749036795737,-0.0010749119046729,0.0010748932845786,-0.00097390176264495,0.00097391588862446,-0.00097392125033275,0.0009738958497752,5.0300152106645e-09,-3.6140442410175e-09,-0.0013155168451913,0.0013155182402893,-4.2434286589908e-09,5.9266793747486e-09,-0.0015468191944872,0.0015468200038898,-0.0015468158166673,0.0015468233160198,-0.0015468220956123,0.0015468171463886,-0.0015468187276346,0.001546820462953,-0.0012288414832057,0.001228837816848,-0.0012288329824963,0.0012288462559047,0.6026570507788,131329,3014,0.0037977731087674,0.0041001022797094,0.0054639699365654,19.017579252773,-8.7859365977814e-05,-8.7859365977814e-05,-8.7859365977814e-05,4151801.2890418,0.013453096935005
18219200,0.9829763039981,0.014272573366581,0.0042351059614474,0.0044803694441041,0.0055570979610292,-0.00091115220262578,0.00091115382376196,-3.5548563764308e-09,5.1774635552776e-09,-8.9279021508353e-09,1.0966924196994e-08,-0.0011234590700721,0.0011234512406659,-0.0011234561728787,0.0011234541730092,-0.0011234528384765,0.001123457782966,-0.0011234499319787,0.0011234606983808,-0.0010048204378869,0.0010048200904823,-0.0010048118645836,0.0010048286022317,8.8622858149438e-09,-1.1130646997441e-08,4.2813904824693e-09,-6.1090040265901e-09,-0.00098421164427582,0.00098420982673776,-0.0011911062073239,0.0011911143589951,-0.0011911095065551,0.0011911109098109,-0.0011911124891907,0.0011911077894749,-0.0011911157919715,0.0011911043365024,-0.0010734304011469,0.001073432168282,-0.0010734404224323,0.0010734217704482,-0.00097245696745835,0.00097247117479669,-0.0009724765381286,0.00097245105270788,5.0858906786485e-09,-3.6700366653697e-09,-0.0013141279333081,0.0013141293282779,-4.244099238358e-09,5.9272185699237e-09,-0.0015454321152678,0.0015454329609252,-0.0015454287365856,0.0015454362739399,-0.0015454350532265,0.0015454300666185,-0.0015454316853064,0.0015454333831517,-0.0012274263832239,0.0012274226061993,-0.0012274177714686,0.0012274311561755,0.61338752941468,131329,3014,0.0037920778044193,0.0040942768471588,0.0054582182579742,18.046629237358,-9.5626966101138e-05,-9.5626966101138e-05,-9.5626966101138e-05,4138666.8890421,0.01343558906046
18419200,0.98335404746821,0.014277160063522,0.0042364400106395,0.0044817739631225,0.0055589460897599,-0.00091046873146825,0.00091047035254905,-3.6084512987015e-09,5.2311224718581e-09,-8.9289270402315e-09,1.0967694692779e-08,-0.001122807114493,0.0011227992486426,-0.0011228041815491,0.00112280221721,-0.001122800882068,0.0011228057914435,-0.0011227979402999,0.0011228087427242,-0.0010041043609635,0.0010041039095779,-0.0010040956829239,0.0010041125250132,8.837123657613e-09,-1.1104783042425e-08,4.27645097076e-09,-6.1030703058213e-09,-0.00098351085053166,0.00098350903416709,-0.0011904348403445,0.0011904429728773,-0.0011904381361082,0.0011904395279012,-0.0011904411056188,0.0011904364207772,-0.0011904444052461,0.0011904329715032,-0.0010726979809879,0.0010726997555853,-0.0010727079913726,0.0010726893669947,-0.00097174266161154,0.00097175682195901,-0.00097176218379375,0.00097173675119601,5.1442700354345e-09,-3.7279954996494e-09,-0.0013134699699503,0.0013134713651314,-4.2372133596875e-09,5.9207512734657e-09,-0.0015448039046785,0.0015448047932183,-0.0015448005299282,0.0015448081017278,-0.001544806881272,0.0015448018605106,-0.0015448035181161,0.0015448051725522,-0.0012267561326211,0.0012267522370669,-0.0012267474050584,0.0012267609005755,0.61738404861525,131329,3014,0.0037892392137553,0.0040913685413306,0.0054554932910604,17.474616839841,-0.00010020306528127,-0.00010020306528127,-0.00010020306528127,4131261.4275007,0.013427002235293
18619200,0.98371789038756,0.014281533480934,0.0042377113032078,0.0044831125163977,0.0055607096613283,-0.00091035153724341,0.00091035315520562,-3.6665956318438e-09,5.2860567547711e-09,-8.8738693625587e-09,1.0908994438502e-08,-0.0011227550481527,0.0011227471795093,-0.001122752077425,0.0011227501854703,-0.0011227488535884,0.0011227536842891,-0.0011227458737302,0.0011227566731743,-0.0010039775598577,0.001003976956514,-0.0010039687707369,0.0010039856833733,8.7891394912341e-09,-1.1053173300919e-08,4.2671707348181e-09,-6.0908595196068e-09,-0.0009833897576798,0.00098338794420468,-0.0011903737874009,0.0011903818824149,-0.0011903770759314,0.0011903784441812,-0.0011903800193875,0.0011903753631936,-0.0011903833116166,0.0011903719210093,-0.0010725671541354,0.001072568943779,-0.0010725771435449,0.0010725585770737,-0.00097162278750538,0.00097163686053867,-0.00097164221106332,0.00097161688758152,5.1990010430281e-09,-3.7840422844586e-09,-0.0013134168451138,0.0013134182391063,-4.2275789478063e-09,5.9096394639533e-09,-0.0015448029383454,0.0015448038699265,-0.0015447995708626,0.0015448071715806,-0.0015448059518211,0.0015448008999701,-0.0015448025953958,0.0015448042051023,-0.0012266935711446,0.0012266895593262,-0.001226684736295,0.0012266983317025,0.61178641851715,131329,3014,0.003788752886218,0.004090866734601,0.0054552731308644,17.230273569495,-0.00010215781144404,-0.00010215781144404,-0.00010215781144404,4129160.4525905,0.013425777860586
18819200,0.98406861392513,0.014286054240233,0.0042390351996677,0.0044845034927523,0.0055625155478133,-0.00091025562115287,0.00091025723612907,-3.7253999521475e-09,5.3419140636628e-09,-8.8119903568316e-09,1.0843651724501e-08,-0.0011227095446015,0.0011227016771465,-0.0011227065358544,0.0011227047210841,-0.0011227033922246,0.0011227081394444,-0.0011227003739552,0.0011227111667056,-0.0010038832442412,0.0010038824828072,-0.0010038743426546,0.0010038913228847,8.7421755899991e-09,-1.1002584250144e-08,4.2597044283158e-09,-6.0805594188501e-09,-0.00098329078270335,0.00098328897202881,-0.0011903212155781,0.0011903292748261,-0.0011903244984287,0.0011903258422983,-0.0011903274152414,0.0011903227881483,-0.001190330701403,0.0011903193520607,-0.0010724683977095,0.0010724702049032,-0.0010724783696458,0.0010724598567398,-0.00097152511926792,0.00097153910577238,-0.0009715444461686,0.0009715192289415,5.2532222203142e-09,-3.8390309420046e-09,-0.0013133803328228,0.0013133817261553,-4.2198746679902e-09,5.9010544201911e-09,-0.0015448113142386,0.0015448122873642,-0.0015448079524499,0.0015448155834324,-0.0015448143643263,0.001544809280766,-0.0015448110131301,0.001544812580635,-0.001226647462016,0.0012266433374647,-0.0012266385211334,0.0012266522165152,0.64922938665669,131329,3014,0.0037883545684325,0.0040904563874123,0.0054551221940139,16.993361951211,-0.00010405310439031,-0.00010405310439031,-0.00010405310439031,4127592.95803,0.013424805173473
19019200,0.98440679376034,0.014290708644427,0.0042404063783991,0.0044859417898733,0.0055643604761541,-0.0009101364604979,0.00091013807298325,-3.7826295804981e-09,5.3967153241101e-09,-8.7595122855301e-09,1.0788177339117e-08,-0.0011227035966497,0.0011226957252673,-0.0011227005505234,0.0011226988065847,-0.0011226974799893,0.0011227021515913,-0.0011226944244098,0.0011227052161715,-0.0010037788245643,0.0010037779151014,-0.001003769813381,0.0010037868646963,8.68984314879e-09,-1.0946780834042e-08,4.2539117328541e-09,-6.0719137500452e-09,-0.00098317143885292,0.00098316963106103,-0.0011903049658402,0.0011903129870498,-0.0011903082438934,0.0011903095593588,-0.0011903111296636,0.0011903065365425,-0.0011903144110804,0.0011903031052314,-0.0010723751643544,0.0010723769963282,-0.0010723851222128,0.0010723666622042,-0.00097144758910358,0.00097146147741909,-0.00097146681007139,0.0009714417071339,5.3089155964492e-09,-3.8951635270162e-09,-0.0013133400778967,0.001313341470768,-4.2129677905788e-09,5.8936239925973e-09,-0.0015448557629192,0.0015448567776057,-0.0015448524059023,0.00154486006894,-0.0015448588502386,0.0015448537337492,-0.0015448555038951,0.001544857028842,-0.0012266423646061,0.001226638125233,-0.0012266333140752,0.0012266471138933,0.68719102769168,131329,3014,0.0037878622451022,0.0040899638103636,0.0054549533419673,16.756709865541,-0.00010594632107567,-0.00010594632107567,-0.00010594632107567,4121838.4238324,0.013423638850357
19219200,0.98474347489712,0.014295493929616,0.0042418198791322,0.0044874233549433,0.0055662506955403,-0.00091088199713228,0.00091088360419566,-3.8482788334291e-09,5.4570538296926e-09,-8.6377545826443e-09,1.0659635781738e-08,-0.001123664576706,0.0011236567399581,-0.0011236614872716,0.0011236598643707,-0.0011236585415351,0.0011236630840432,-0.0011236554451669,0.0011236661892663,-0.0010045868171669,0.0010045856987183,-0.0010045776854866,0.0010045947673351,8.647583996006e-09,-1.0903347940957e-08,4.2400407878234e-09,-6.0567386366428e-09,-0.0009839398559581,0.00098393804967825,-0.0011912690097545,0.0011912769932759,-0.001191272276837,0.001191273576458,-0.0011912751436961,0.0011912705726734,-0.0011912784165906,0.0011912671497053,-0.0010732215924859,0.0010732234287493,-0.0010732315248397,0.001073213118486,-0.00097231542569593,0.00097232924267725,-0.00097233456756711,0.0009723095542289,5.3577397869625e-09,-3.9444130990639e-09,-0.0013142499916889,0.00131425138391,-4.2008216687522e-09,5.8809528933377e-09,-0.0015459144090038,0.0015459154625093,-0.0015459110590911,0.001545918746918,-0.0015459175277236,0.0015459123871025,-0.0015459141907735,0.0015459156725596,-0.0012276269310637,0.0012276225837742,-0.00122761778119,0.0012276316725601,0.70677989627528,131329,3014,0.0037909637494225,0.0040931583101673,0.0054587174255788,17.022801665244,-0.00010381758667805,-0.00010381758667805,-0.00010381758667805,4121273.3189157,0.013433841032746
19419200,0.98508383905651,0.014300219273531,0.0042432123805524,0.0044888839718095,0.0055681229211693,-0.00091204811536252,0.00091204972181913,-3.8957998553121e-09,5.5044236331364e-09,-8.5848550632766e-09,1.060570632704e-08,-0.0011251055473045,0.0011250977141827,-0.001125102427968,0.0011251008707552,-0.0011250995473926,0.001125104022083,-0.0011250964203925,0.0011251071606703,-0.0010058245737195,0.0010058233239471,-0.0010058153475546,0.001005832485738,8.5320555094866e-09,-1.0782390309938e-08,4.2285891989231e-09,-6.0409185589842e-09,-0.00098514169966356,0.00098513989818565,-0.0011927210634432,0.001192728964294,-0.0011927243234984,0.0011927255576374,-0.0011927271208354,0.0011927226241791,-0.0011927303854535,0.0011927192120602,-0.0010745131167749,0.0010745150071488,-0.0010745230192097,0.0010745047240113,-0.00097363657924983,0.0009736501746342,-0.00097365548864668,0.00097363072343636,5.4234611743957e-09,-4.0078744557747e-09,-0.0013156301844026,0.0013156315783354,-4.1840878444296e-09,5.8664094835995e-09,-0.0015474782255116,0.001547479334032,-0.0015474748856312,0.0015474826066359,-0.0015474813887488,0.0015474762161292,-0.0015474780621103,0.0015474794921134,-0.0012290965945451,0.001229092113377,-0.0012290873171105,0.0012291013244797,0.69264759751538,131329,3014,0.0037958132799591,0.0040981528683782,0.0054644280181268,17.539765656712,-9.9681874746301e-05,-9.9681874746301e-05,-9.9681874746301e-05,4124001.6986352,0.013449613550071
19619200,0.9854277491918,0.014304864078818,0.0042445775684568,0.0044903170898389,0.0055699694205226,-0.00091322230482658,0.00091322390812966,-3.950352566029e-09,5.5554616540775e-09,-8.5404992414636e-09,1.0557815000058e-08,-0.0011265348632465,0.0011265270234162,-0.0011265317079279,0.0011265302140015,-0.001126528895243,0.0011265332999264,-0.0011265257312245,0.0011265364730976,-0.0010070620471455,0.0010070606601403,-0.0010070527168405,0.0010070699278462,8.453557549805e-09,-1.0697667936034e-08,4.220214861195e-09,-6.0276700140563e-09,-0.00098635189407569,0.00098635009717973,-0.0011941639490887,0.0011941717934038,-0.0011941672010831,0.0011941683921674,-0.0011941699518119,0.0011941655053314,-0.0011941732078605,0.0011941620997216,-0.0010757995328316,0.0010758014617183,-0.0010758094150118,0.0010757912025472,-0.00097495098884179,0.00097496443780101,-0.00097496973532053,0.00097494514533554,5.4808836414729e-09,-4.0688324468441e-09,-0.0013170172468752,0.0013170186377838,-4.1740435845101e-09,5.8525897900464e-09,-0.0015490336178533,0.0015490347719268,-0.0015490302872264,0.0015490380369803,-0.001549036819973,0.0015490316132876,-0.0015490335007253,0.0015490348814248,-0.0012305560228091,0.0012305514155206,-0.0012305466326028,0.0012305607437977,0.67638955550019,131329,3014,0.00380069548869,0.0041031811501278,0.0054701676998093,18.062474526195,-9.5500203790439e-05,-9.5500203790439e-05,-9.5500203790439e-05,4128768.8262352,0.013465481554785
19819200,0.9857749309573,0.014309403629919,0.004245907656749,0.0044917147078172,0.0055717812653528,-0.00091439794594958,0.00091439954643721,-4.0142380697825e-09,5.6165541696843e-09,-8.475856344995e-09,1.048974761094e-08,-0.0011279380312081,0.0011279301912577,-0.0011279348343495,0.0011279334233765,-0.0011279321073259,0.0011279364232685,-0.0011279289015104,0.0011279396382643,-0.0010082964438568,0.0010082948869745,-0.0010082869909418,0.00100830427765,8.4237183877522e-09,-1.0665795986201e-08,4.2108759843929e-09,-6.0167504266594e-09,-0.00098756336585449,0.0009875615704687,-0.0011955833065143,0.0011955911250727,-0.0011955865519477,0.0011955877304619,-0.0011955892889784,0.0011955848574497,-0.0011955925381979,0.0011955814587423,-0.0010770757848682,0.0010770777155841,-0.0010770856470206,0.0010770674769354,-0.00097624921900764,0.00097626261567466,-0.00097626790441405,0.000976243384342,5.5301132352485e-09,-4.1187316982797e-09,-0.0013183999098277,0.0013184013001543,-4.1660767553913e-09,5.8438519565988e-09,-0.001550567077345,0.0015505682695687,-0.0015505637524303,0.0015505715289495,-0.0015505703125637,0.0015505650778265,-0.001550566998709,0.0015505683404825,-0.0012319895054941,0.0012319847953832,-0.0012319800188975,0.0012319942203337,0.65786896539894,131329,3014,0.0038055827219418,0.0041082137052489,0.005475889972742,18.585384384682,-9.1316924922546e-05,-9.1316924922546e-05,-9.1316924922546e-05,4135198.5663415,0.013481340013554
20019200,0.98611575141329,0.014314037952097,0.0042472706825886,0.0044931454066104,0.0055736218628981,-0.0009148148604249,0.00091481646250366,-4.0658605961321e-09,5.6697480869996e-09,-8.5148900484245e-09,1.0530881767614e-08,-0.0011285091726849,0.0011285012728122,-0.001128505941017,0.0011285045396975,-0.0011285032224083,0.001128507531457,-0.0011284999815002,0.0011285107814833,-0.0010087446164244,0.0010087429852621,-0.0010087350615398,0.0010087524795817,8.4258880961735e-09,-1.0667032674842e-08,4.2154680703454e-09,-6.0208335046652e-09,-0.0009879979940569,0.00098799619903509,-0.0011961598488343,0.0011961676716679,-0.0011961630972709,0.0011961642739806,-0.0011961658326084,0.0011961614027352,-0.0011961690845873,0.0011961580012531,-0.0010775442715925,0.0010775462103529,-0.0010775541428005,0.0010775359645946,-0.00097673774503217,0.00097675114377505,-0.00097675643234899,0.00097673190856468,5.5894747899114e-09,-4.1784055204031e-09,-0.0013189592306208,0.0013189606208948,-4.1693333591396e-09,5.8467885981806e-09,-0.0015512315958662,0.0015512328261736,-0.0015512282690689,0.0015512360875028,-0.0015512348710024,0.0015512295945466,-0.0015512315549974,0.0015512328594368,-0.0012325797655341,0.0012325749402938,-0.0012325701625665,0.0012325844816915,0.68048385658794,131329,3014,0.0038073174219629,0.0041100205403431,0.0054782035045829,18.671798521879,-9.0625611824966e-05,-9.0625611824966e-05,-9.0625611824966e-05,4135630.7318852,0.013487276852872
20219200,0.98644779945506,0.014318694709423,0.0042486441188271,0.0044945858681208,0.0055754647224751,-0.00091500430527393,0.00091500590777897,-4.1249041858321e-09,5.7287758764176e-09,-8.5580194526743e-09,1.0574529825843e-08,-0.0011288695235384,0.00112886155643,-0.0011288662521268,0.0011288648618372,-0.001128863545145,0.0011288678437306,-0.0011288602637245,0.0011288711326614,-0.0010089645739908,0.0010089628563347,-0.0010089549022821,0.0010089724674031,8.4809406958307e-09,-1.0724873000236e-08,4.2229921082265e-09,-6.0305244096781e-09,-0.00098820108137046,0.00098819928404379,-0.0011965195256165,0.0011965273901157,-0.0011965227792006,0.0011965239854463,-0.0011965255463142,0.0011965210817374,-0.0011965288030934,0.0011965176740861,-0.0010777879498753,0.0010777898652278,-0.0010777978377155,0.0010777796036908,-0.00097700893641945,0.00097702243734598,-0.00097702773307463,0.00097700309023469,5.641665219706e-09,-4.2319631260197e-09,-0.0013192835556541,0.0013192849448651,-4.1790815996022e-09,5.8552002271816e-09,-0.0015516718566367,0.0015516731157452,-0.0015516685246712,0.0015516763834145,-0.0015516751666495,0.001551669847993,-0.0015516718440132,0.0015516731188285,-0.0012329569912443,0.001232952068585,-0.001232947287362,0.0012329617146645,0.69908661502906,131329,3014,0.0038081085385108,0.004110867363887,0.00547954270996,18.638340262511,-9.0893277899908e-05,-9.0893277899908e-05,-9.0893277899908e-05,4131699.3328414,0.013490298248864
20419200,0.98677125679303,0.014323237226031,0.0042499840745262,0.004495991070807,0.0055772620806982,-0.00091516846579002,0.00091517007153846,-4.1792553416769e-09,5.7866594301148e-09,-8.6090385137829e-09,1.0629344194625e-08,-0.0011292296759525,0.0011292216387988,-0.0011292263676375,0.0011292249822289,-0.0011292236617455,0.0011292279616863,-0.0011292203438274,0.0011292312885891,-0.0010091590113812,0.0010091572220801,-0.0010091492302968,0.0010091669421559,8.5444086320612e-09,-1.0792655548406e-08,4.231901351644e-09,-6.0428448826782e-09,-0.00098837881438319,0.00098837701374316,-0.0011968770815146,0.0011968849932365,-0.0011968803428052,0.0011968815824749,-0.0011968831463336,0.0011968786425691,-0.0011968864108274,0.0011968752283733,-0.0010780105034612,0.0010780123921385,-0.0010780204114695,0.0010780021088162,-0.00097726847339266,0.00097728209163673,-0.00097728740040279,0.00097726261696988,5.6986648796997e-09,-4.2866203054568e-09,-0.0013195879557223,0.0013195893470101,-4.1887653635346e-09,5.8673808752183e-09,-0.0015521062843407,0.0015521075748573,-0.0015521029443443,0.0015521108494004,-0.001552109632107,0.0015521042705697,-0.0015521063024775,0.0015521075488777,-0.0012333303649047,0.0012333253418508,-0.0012333205495567,0.001233335095749,0.69998402707522,131329,3014,0.0038087956513443,0.0041116098656844,0.0054807983832317,18.602082229251,-9.1183342165993e-05,-9.1183342165993e-05,-9.1183342165993e-05,4126233.5742284,0.013493024991812
20619200,0.98708635713435,0.014327159027124,0.004251127598754,0.0044971942783578,0.0055788371500121,-0.00091530044300796,0.00091530205118,-4.2332554703924e-09,5.843061619449e-09,-8.6695644319929e-09,1.0692867847933e-08,-0.0011295620065331,0.0011295538934612,-0.0011295586612828,0.001129557273857,-0.0011295559509685,0.0011295602579544,-0.0011295525963774,0.0011295636215358,-0.0010092993364969,0.0010092974833049,-0.0010092894476139,0.0010093073109281,8.6029833010792e-09,-1.0854545274685e-08,4.2422483232928e-09,-6.0558776672074e-09,-0.00098852303892565,0.00098852123561815,-0.001197206226203,0.0011972141830851,-0.0011972094951303,0.0011972107646661,-0.0011972123308059,0.0011972077923787,-0.0011972156032092,0.001197204370253,-0.0010781762088099,0.0010781780779486,-0.0010781861399702,0.001078167771141,-0.00097748179535924,0.00097749552149346,-0.00097750084096708,0.00097747592790633,5.7557795531797e-09,-4.3429506256042e-09,-0.001319856139873,0.0013198575318522,-4.1997922979634e-09,5.8793017483379e-09,-0.0015525036769882,0.001552504998174,-0.0015525003291752,0.001552508280466,-0.0015525070624638,0.0015525016562287,-0.0015525037252863,0.0015525049420316,-0.001233656290416,0.0012336511642378,-0.0012336463635022,0.0012336610297308,0.63099126625819,131329,3014,0.0038093490091247,0.004112213173327,0.0054819040590724,18.56572589236,-9.1474192861118e-05,-9.1474192861118e-05,-9.1474192861118e-05,4121207.0103653,0.013495322787012
20819200,0.98737861933503,0.014331107611667,0.0042522893813704,0.0044984132077233,0.005580405022573,-0.00091408549038926,0.00091408710109455,-4.2907614584769e-09,5.9025026627424e-09,-8.7697875681273e-09,1.0796976178966e-08,-0.0011283503578715,0.0011283421403039,-0.001128346972442,0.0011283455581594,-0.0011283442353901,0.001128348573276,-0.0011283408398944,0.0011283519745388,-0.0010080374969654,0.0010080355996136,-0.0010080274935244,0.0010080455444749,8.7438435069402e-09,-1.0999489094414e-08,4.2672402807937e-09,-6.0848669835671e-09,-0.00098728320784829,0.00098728139989129,-0.0011959721010358,0.0011959801659046,-0.0011959753862811,0.0011959767273667,-0.0011959782989777,0.0011959736776676,-0.0011959815875918,0.0011959702362549,-0.0010768890239405,0.0010768908475399,-0.0010768990099341,0.0010768804905553,-0.00097622018666632,0.00097623417582917,-0.0009762395092415,0.00097621429695555,5.8080605662071e-09,-4.3976649828829e-09,-0.0013186322946998,0.0013186336851107,-4.2292565214693e-09,5.9063768469475e-09,-0.0015512833583024,0.0015512846960012,-0.0015512799930189,0.0015512879980805,-0.0015512867787811,0.0015512813171602,-0.0015512834221985,0.0015512846216061,-0.0012324242225989,0.001232419008882,-0.0012324141955721,0.0012324289821428,0.67642719898646,131329,3014,0.0038043034495826,0.0041070672894886,0.0054768348828709,17.741139714301,-9.8070882285593e-05,-9.8070882285593e-05,-9.8070882285593e-05,4108922.0500097,0.013479853342545
21019200,0.98764845846295,0.014334626285183,0.0042533214586382,0.0044994968488865,0.0055818079776586,-0.00091267388853203,0.00091267550668456,-4.3383387771989e-09,5.9580363827547e-09,-8.9160179323312e-09,1.095188489014e-08,-0.0011269922857482,0.0011269839405662,-0.0011269888667489,0.0011269873941926,-0.001126986062656,0.0011269904740146,-0.0011269826345097,0.0011269939105408,-0.0010065709241187,0.0010065690347128,-0.0010065608220741,0.0010065790793851,8.8145633004344e-09,-1.1075541574311e-08,4.2949214132189e-09,-6.1161251052417e-09,-0.00098584321095642,0.00098584139928863,-0.001194583609104,0.0011945917387486,-0.0011945869150139,0.0011945882824938,-0.0011945898569965,0.0011945852034975,-0.0011945931666443,0.0011945817433016,-0.0010754083903083,0.0010754102198746,-0.0010754184345706,0.0010753998040271,-0.00097478628894917,0.00097480039704913,-0.00097480575855363,0.00097478037547697,5.8704144511623e-09,-4.4563172695075e-09,-0.0013172080329761,0.0013172094270012,-4.2535729234434e-09,5.9348142787035e-09,-0.0015498947241634,0.0015498960873446,-0.0015498913398548,0.0015498994063612,-0.0015498981854648,0.0015498926694665,-0.0015498948119308,0.0015498959916117,-0.0012310307228089,0.0012310254098829,-0.0012310205726809,0.0012310354996092,0.65601667335016,131329,3014,0.0037984433097662,0.0041010927544891,0.0054709336523133,16.830299788487,-0.0001053576016921,-0.0001053576016921,-0.0001053576016921,4090840.5575037,0.013461878760633
21219200,0.98789776936589,0.01433790171194,0.0042542837876038,0.0045005064594954,0.0055831114648406,-0.00091126358318066,0.00091126520329288,-4.3966275185767e-09,6.0181194021421e-09,-8.9769140505554e-09,1.1015136687018e-08,-0.0011255877938723,0.0011255793700494,-0.0011255843357961,0.0011255828631232,-0.0011255815296381,0.0011255859446296,-0.001125578061893,0.001125589421083,-0.0010051037655918,0.0010051018025262,-0.0010050935453226,0.0010051119622952,8.9248824930574e-09,-1.1193038884524e-08,4.3167142338699e-09,-6.14383325021e-09,-0.00098440077784044,0.00098439896068347,-0.0011931490156086,0.0011931572329321,-0.0011931523383561,0.0011931537600806,-0.0011931553394092,0.0011931506213608,-0.0011931586654104,0.0011931471450957,-0.0010739167445449,0.0010739185389169,-0.0010739268345794,0.0010739080735635,-0.00097332952037175,0.00097334382729712,-0.00097334921323779,0.00097332358286704,5.9245491256792e-09,-4.5078818758913e-09,-0.0013157608603325,0.0013157622564109,-4.2788919234654e-09,5.9629919299544e-09,-0.0015484513736542,0.0015484527559932,-0.0015484479716147,0.0015484560924799,-0.0015484548705394,0.0015484493028153,-0.0015484514786948,0.0015484526428863,-0.0012295934098741,0.0012295880153297,-0.0012295831566304,0.0012295982074543,0.65967104361429,131329,3014,0.0037925869328924,0.0040951066314081,0.0054649389967785,15.917313103832,-0.00011266149516935,-0.00011266149516935,-0.00011266149516935,4075042.6680706,0.013443799985755
21419200,0.98813162651438,0.014340998406827,0.0042551949095113,0.0045014617266476,0.0055843417706682,-0.00091024382560652,0.00091024544681951,-4.4526745677308e-09,6.0750460513073e-09,-9.0104125694339e-09,1.1049657938623e-08,-0.0011245881036673,0.0011245796206888,-0.0011245846078035,0.0011245831517362,-0.0011245818165054,0.0011245862181739,-0.0011245783113936,0.0011245897321691,-0.0010040449340708,0.0010040428846452,-0.0010040346016864,0.001004053151799,8.9673926226157e-09,-1.1239664806961e-08,4.3336104587786e-09,-6.1639287107876e-09,-0.00098335668343701,0.00098335486385153,-0.0011921252079834,0.0011921334656204,-0.0011921285428658,0.0011921299807841,-0.0011921315613294,0.0011921268246563,-0.0011921348998388,0.0011921233359506,-0.0010728408062273,0.001072842603376,-0.0010728509307989,0.0010728320979828,-0.00097228228863678,0.00097229666524139,-0.00097230207161646,0.00097227633390157,5.981403928157e-09,-4.5623240234857e-09,-0.0013147238665824,0.0013147252643681,-4.2958269607881e-09,5.9826009961168e-09,-0.0015474273463583,0.0015474287542103,-0.0015474239318634,0.0015474321031037,-0.0015474308802659,0.0015474252643323,-0.0015474274764368,0.0015474286164584,-0.0012285696428062,0.001228564154668,-0.0012285592780807,0.0012285744549833,0.66373456408342,131329,3014,0.0037883526049129,0.0040907740015721,0.0054606431186297,15.229183767295,-0.00011816652986164,-0.00011816652986164,-0.00011816652986164,4063010.8757098,0.013430763451501
21619200,0.98835146095665,0.014343938851145,0.0042560612911195,0.004502369565712,0.0055855079943139,-0.00090925823034315,0.00090925985077111,-4.5093344336637e-09,6.1304898955065e-09,-9.0221344986606e-09,1.1060791431414e-08,-0.0011236270440682,0.0011236185144697,-0.001123623508855,0.0011236220824155,-0.001123620749045,0.0011236251205765,-0.0011236172059441,0.0011236286698831,-0.0010030207838941,0.001003018633684,-0.0010030103438649,0.0010030290095899,8.9814228518311e-09,-1.1252473597475e-08,4.3497023798873e-09,-6.179134437581e-09,-0.00098234684164412,0.00098234502267762,-0.0011911397408251,0.0011911480175013,-0.001191143083825,0.0011911445214264,-0.0011911461010792,0.0011911413667163,-0.0011911494492749,0.001191137865418,-0.0010718002660046,0.0010718020886411,-0.0010718104244239,0.0010717915514928,-0.00097127166847229,0.00097128606699463,-0.00097129147972464,0.0009712657055047,6.0365162429842e-09,-4.6192803274509e-09,-0.0013137193708328,0.001313720767221,-4.3107504917962e-09,5.9957156826486e-09,-0.0015464382321144,0.0015464396663378,-0.0015464348083138,0.0015464430261406,-0.0015464418017006,0.001546436138631,-0.0015464383892414,0.0015464394992722,-0.001227581129702,0.0012275755372028,-0.0012275706556719,0.0012275859518884,0.66920857802995,131329,3014,0.0037842602681768,0.0040865836640635,0.005456481727851,14.564907987309,-0.00012348073610153,-0.00012348073610153,-0.00012348073610153,4051216.817445,0.013418151795517
21819200,0.98855824092795,0.014346661392225,0.0042568626289055,0.0045032093659798,0.00558658939734,-0.00090826077805489,0.00090826239891334,-4.5646105410165e-09,6.1866870601923e-09,-9.022613990336e-09,1.1061893998937e-08,-0.0011226586419666,0.0011226500749499,-0.0011226550707726,0.0011226536811634,-0.0011226523460201,0.0011226566813515,-0.0011226487670432,0.0011226602690015,-0.0010019818392587,0.0010019795809926,-0.001001971291833,0.0010019900666596,8.9740967132274e-09,-1.1244239037534e-08,4.3627696851892e-09,-6.1914295372002e-09,-0.00098132427003536,0.00098132245155519,-0.0011901457763655,0.0011901540561837,-0.0011901491291719,0.0011901505530448,-0.001190152132483,0.0011901474120102,-0.0011901554904599,0.0011901439035519,-0.001070745304929,0.0010707471583515,-0.0010707554886889,0.0010707365975791,-0.00097025008476441,0.00097026445994778,-0.0009702698792421,0.00097024411414207,6.0939243632643e-09,-4.6747308841804e-09,-0.0013126992491223,0.0013127006476199,-4.3218309020032e-09,6.0089378971896e-09,-0.0015454354312399,0.0015454368971691,-0.0015454319986215,0.0015454402643418,-0.0015454390392751,0.0015454333329074,-0.0015454356186131,0.0015454367015836,-0.0012265802671705,0.0012265745729839,-0.0012265696816875,0.0012265850974153,0.65988857320029,131329,3014,0.0037801188598774,0.0040823406653687,0.0054522554298224,13.901227815138,-0.0001287901774789,-0.0001287901774789,-0.0001287901774789,4039112.0343968,0.013405371744338
22019200,0.98876471491879,0.014349333700888,0.0042576483873808,0.0045040329316175,0.0055876523818898,-0.00090888757433848,0.00090888919095456,-4.6220540019524e-09,6.2400118791557e-09,-8.9300399268807e-09,1.096395141984e-08,-0.0011233666192449,0.0011233580754141,-0.001123363011792,0.0011233617178371,-0.0011233603872342,0.0011233646173921,-0.0011233567705601,0.0011233682426918,-0.0010026387132908,0.0010026362767903,-0.0010026280549047,0.0010026468727341,8.8657335455026e-09,-1.1130432996048e-08,4.3556326402808e-09,-6.1792214091725e-09,-0.00098196238821278,0.00098196057486339,-0.001190858650026,0.0011908668555891,-0.001190861997134,0.0011908633581593,-0.0011908649332534,0.0011908602847975,-0.0011908682840782,0.0011908567834771,-0.0010714131830248,0.0010714150944009,-0.0010714233452697,0.0010714045542827,-0.00097091852495657,0.0009709326894996,-0.00097093810036531,0.00097091256585671,6.150480766505e-09,-4.731738057768e-09,-0.0013134104964332,0.0013134118943726,-4.313776078249e-09,6.0003527946645e-09,-0.0015461989955748,0.0015462005049798,-0.001546195569243,0.0015462038658838,-0.0015462026420895,0.0015461969021023,-0.0015461992263275,0.0015462002660157,-0.0012273033373608,0.0012272975282048,-0.0012272926425816,0.0012273081616569,0.64982381214037,131329,3014,0.0037827229939178,0.0040849903955156,0.0054552004603588,14.153764722892,-0.00012676988221686,-0.00012676988221686,-0.00012676988221686,4044080.3457719,0.013413682023107
22219200,0.98897206455871,0.014351993855975,0.0042584298489584,0.0045048522970839,0.0055887117099332,-0.00090968513296974,0.00090968674469965,-4.6816007470166e-09,6.2947905350289e-09,-8.8125395259078e-09,1.0840649614419e-08,-0.0011242473961423,0.0011242388893264,-0.001124243750412,0.0011242425699164,-0.0011242412438608,0.0011242453510739,-0.0011242375891492,0.0011242490143622,-0.0010034679999479,0.0010034653665665,-0.0010034572300927,0.0010034760742696,8.7653034146851e-09,-1.1023519036965e-08,4.3448299183746e-09,-6.1634066355904e-09,-0.00098277632319515,0.00098277451496502,-0.0011917498259922,0.0011917579583355,-0.0011917531641499,0.0011917544698798,-0.0011917560403096,0.0011917514570962,-0.0011917593823562,0.0011917479644993,-0.0010722541716059,0.0010722561314334,-0.0010722643084143,0.0010722456172649,-0.00097175381621808,0.00097176779286627,-0.00097177318850882,0.00097174787268781,6.2051197189108e-09,-4.7871858251709e-09,-0.0013143061081437,0.0013143075052678,-4.3015569596229e-09,5.9871725453709e-09,-0.0015471505562961,0.0015471521099427,-0.0015471471383771,0.0015471554625314,-0.00154715423939,0.00154714847044,-0.0015471508323159,0.00154715182589,-0.0012281973645802,0.0012281914379564,-0.0012281865616222,0.0012282021794223,0.64497437653545,131329,3014,0.0037860359442961,0.0040883694161435,0.0054589096087191,14.500407803365,-0.00012399673757308,-0.00012399673757308,-0.00012399673757308,4051707.6163419,0.01342422382688
22419200,0.98918022488444,0.014354791429247,0.0042592551430876,0.0045057167104634,0.0055898195756961,-0.00091049237867232,0.00091049398621981,-4.7390310711479e-09,6.3480869481542e-09,-8.7198847440361e-09,1.0742940287696e-08,-0.0011251310481172,0.0011251225639122,-0.0011251273656294,0.00112512628132,-0.001125124959167,0.0011251289618752,-0.0011251212674305,0.0011251326622391,-0.0010043143959789,0.0010043115863592,-0.00100430351768,0.0010043224030653,8.6598087116673e-09,-1.09116354816e-08,4.333292907276e-09,-6.1467185388695e-09,-0.00098360112023568,0.00098359931718111,-0.0011926458145586,0.0011926538702636,-0.0011926491435431,0.0011926503910982,-0.0011926519569529,0.0011926474413902,-0.0011926552895959,0.0011926439583794,-0.0010731125328528,0.0010731145424208,-0.0010731226420214,0.0010731040567605,-0.00097259898391368,0.00097261276191228,-0.00097261814198805,0.00097259305594385,6.2614541488738e-09,-4.8445381932719e-09,-0.0013152136290767,0.0013152150252497,-4.2877359408749e-09,5.9721694392055e-09,-0.0015481124669186,0.001548114067421,-0.0015481090588139,0.0015481174102914,-0.0015481161880012,0.0015481103898831,-0.0015481127904093,0.0015481137358176,-0.0012291005329239,0.0012290944844757,-0.0012290896192251,0.0012291053372202,0.67139356322778,131329,3014,0.0037893889659936,0.0040917933258651,0.0054626682719295,14.849408799318,-0.00012120472960546,-0.00012120472960546,-0.00012120472960546,4059503.3918078,0.013434901832715
22619200,0.98938895151916,0.014357630934608,0.0042600933660904,0.0045065946468581,0.0055909429216598,-0.00091126012222212,0.00091126172640744,-4.7966670617903e-09,6.4025689588838e-09,-8.6373053641912e-09,1.0656328541066e-08,-0.0011260231151086,0.0011260146465296,-0.0011260193950024,0.0011260184010131,-0.0011260170823802,0.0011260209880236,-0.0011260133530269,0.0011260247256082,-0.0010051254854964,0.0010051225063027,-0.0010051144976999,0.001005133433415,8.5765263448329e-09,-1.0823381017239e-08,4.3208882081341e-09,-6.130160439614e-09,-0.00098438855205804,0.0009843867530483,-0.0011935484612252,0.0011935564540706,-0.0011935517804142,0.0011935529843104,-0.0011935545467555,0.0011935500823417,-0.0011935578695322,0.0011935466088345,-0.0010739448582061,0.0010739469010798,-0.0010739549394115,0.0010739364444485,-0.00097343152898291,0.00097344515293396,-0.00097345051865697,0.00097342561587402,6.3170168481185e-09,-4.9012601954536e-09,-0.0013160985799445,0.0013160999750314,-4.2739402899402e-09,5.9570798665051e-09,-0.0015490835855485,0.0015490852321803,-0.0015490801872302,0.0015490885655182,-0.0015490873439866,0.001549081517093,-0.0015490839560995,0.0015490848535772,-0.00123000728596,0.0012300011165173,-0.0012299962627388,0.001230012079289,0.67880270061004,131329,3014,0.0037925797307651,0.0040950637741419,0.0054663317488238,15.187568410282,-0.00011849945271775,-0.00011849945271775,-0.00011849945271775,4064256.3413314,0.013445165761636
22819200,0.98959520745929,0.014360426984473,0.0042609182930697,0.0045074588778351,0.0055920498135687,-0.00091162274021275,0.00091162434191443,-4.8571447418563e-09,6.460778038107e-09,-8.5662220922364e-09,1.0582462548974e-08,-0.0011265073164,0.0011264988529407,-0.0011265035561749,0.0011265026474691,-0.0011265013308017,0.0011265051467992,-0.0011264975625561,0.0011265089234121,-0.0010055138854193,0.0010055107401944,-0.001005502783476,0.0010055217825156,8.5653670435482e-09,-1.0810979120119e-08,4.3103442201901e-09,-6.1189385393292e-09,-0.00098476300276255,0.00098476120428216,-0.001194035962628,0.0011940439397528,-0.0011940392740513,0.0011940404778758,-0.0011940420396701,0.0011940375768991,-0.0011940453556904,0.0011940341100358,-0.0010743498299391,0.0010743518615108,-0.0010743598916505,0.0010743414254146,-0.00097384855967396,0.00097386217132545,-0.00097386752749495,0.00097384265616382,6.3696218247785e-09,-4.9543360883157e-09,-0.0013165572518971,0.0013165586465919,-4.2647024828842e-09,5.9472343696606e-09,-0.0015496255723455,0.0015496272596488,-0.0015496221797009,0.0015496305870956,-0.0015496293654962,0.0015496235098042,-0.001549625984563,0.0015496268394043,-0.0012304946207306,0.0012304883386352,-0.0012304834931164,0.0012304994069893,0.67691805206096,131329,3014,0.0037940883995658,0.0040966204509349,0.0054682291943312,15.303727672328,-0.00011757017862138,-0.00011757017862138,-0.00011757017862138,4064418.3347205,0.013450198383193
23019200,0.98979892489246,0.014362979374665,0.004261665686819,0.0045082435782234,0.0055930701096229,-0.00091196317454616,0.00091196477537484,-4.9131747174732e-09,6.5157409373517e-09,-8.5540141942381e-09,1.0568842979102e-08,-0.0011269650209132,0.0011269565287127,-0.0011269612240865,0.0011269603604728,-0.0011269590439651,0.0011269628137906,-0.0011269552387988,0.0011269666277214,-0.0010058735782044,0.001005870315234,-0.0010058623670546,0.001005881465639,8.5358753098184e-09,-1.0780744016615e-08,4.3010753238738e-09,-6.1089345250081e-09,-0.00098511479354283,0.00098511299603747,-0.0011944970532693,0.0011945050055133,-0.0011945003587121,0.0011945015501663,-0.0011945031106282,0.0011944986624792,-0.0011945064205798,0.0011944952024479,-0.0010747241179939,0.0010747261507475,-0.0010747341604004,0.0010747157331053,-0.00097423651410096,0.00097425007263534,-0.00097425542328641,0.00097423061655037,6.4260680536202e-09,-5.011243420424e-09,-0.0013169909822477,0.0013169923763529,-4.2552574779814e-09,5.9372405243481e-09,-0.0015501388259466,0.0015501405570755,-0.0015501354400087,0.0015501438779398,-0.0015501426571557,0.0015501367695674,-0.0015501392824319,0.001550140092531,-0.0012309502595434,0.0012309438602465,-0.0012309390205548,0.0012309550394953,0.63260005275871,131329,3014,0.0037955047907698,0.0040980829024702,0.0054700234049694,15.414924299674,-0.00011668060560261,-0.00011668060560261,-0.00011668060560261,4064763.7759265,0.013454937055202
23219200,0.99000010201404,0.014365624364114,0.0042624441653986,0.0045090596809012,0.0055941205178141,-0.00091233613707237,0.00091233773821226,-4.9671723622351e-09,6.5700273257633e-09,-8.5620454320363e-09,1.0577196380793e-08,-0.0011273726458193,0.001127364112877,-0.0011273688132034,0.0011273679803235,-0.0011273666639328,0.0011273704029032,-0.0011273628222093,0.0011273742532936,-0.0010062692537012,0.0010062658895094,-0.0010062579352618,0.0010062771469472,8.5099089343138e-09,-1.0753280552537e-08,4.2929808216635e-09,-6.0995716019112e-09,-0.00098549728818158,0.00098549549201152,-0.0011949129206004,0.0011949208511998,-0.0011949162206212,0.0011949174012577,-0.0011949189607706,0.0011949145254212,-0.001194922264526,0.0011949110715611,-0.0010751205410294,0.0010751225747017,-0.001075130565118,0.0010751121752079,-0.00097461795511251,0.00097463146697994,-0.00097463681088039,0.00097461206473134,6.4838017651891e-09,-5.0695755622994e-09,-0.0013174331484714,0.001317434541953,-4.2460187057784e-09,5.9273271500772e-09,-0.0015506097138243,0.0015506114897462,-0.0015506063346902,0.0015506148038635,-0.0015506135840457,0.0015506076631332,-0.0015506102153784,0.001550610980148,-0.0012313723119917,0.0012313657931821,-0.0012313609601991,0.0012313770848135,0.65900012259444,131329,3014,0.0037970534132892,0.0040996701316804,0.0054718552673431,15.525948089195,-0.00011579241528644,-0.00011579241528644,-0.00011579241528644,4069276.5082993,0.013459970740251
23419200,0.99019959695079,0.014368216610647,0.0042632060895327,0.0045098588157904,0.0055951517053243,-0.00091280889873725,0.00091281049982733,-5.0246000635641e-09,6.6274623392219e-09,-8.5568366783955e-09,1.0571865611939e-08,-0.0011279313087732,0.0011279227407772,-0.001127927437789,0.0011279266467075,-0.001127925330142,0.0011279290274246,-0.0011279214503311,0.0011279329160989,-0.0010067714172458,0.0010067679372372,-0.0010067599863577,0.0010067793064241,8.5254531141134e-09,-1.0770021851238e-08,4.2830885417165e-09,-6.0906335077161e-09,-0.00098598433413626,0.00098598253710136,-0.0011954805102559,0.0011954884444122,-0.0011954838040041,0.0011954850009846,-0.001195486561118,0.0011954821081561,-0.001195489858801,0.0011954786605318,-0.0010756357798644,0.0010756377834474,-0.001075645785363,0.0010756274015962,-0.00097512793766768,0.00097514148640962,-0.00097514682595762,0.00097512205246869,6.5385119873e-09,-5.1243616243287e-09,-0.0013179984670577,0.0013179998603036,-4.2373512249758e-09,5.9185218178682e-09,-0.0015512384111494,0.0015512402288363,-0.0015512350376514,0.0015512435372029,-0.0015512423178126,0.0015512363659478,-0.0015512389550854,0.0015512396770423,-0.0012319414246089,0.0012319347924764,-0.0012319299650245,0.0012319461913576,0.65256370672581,131329,3014,0.003799018172166,0.0041016929015614,0.0054741956933814,15.704719455533,-0.00011436224435573,-0.00011436224435573,-0.00011436224435573,4072138.4178957,0.013466385526155
23619200,0.99040163333925,0.014370908122753,0.0042639990737642,0.0045106900014892,0.0055962190474999,-0.0009138822986507,0.00091388389896726,-5.0811333357174e-09,6.6829118486598e-09,-8.5552258979567e-09,1.0569110286759e-08,-0.0011291073076052,0.0011290987033681,-0.0011291033990871,0.0011291026461722,-0.0011291013306804,0.0011291049883881,-0.0011290974129539,0.0011291089141507,-0.0010079042635113,0.0010079006711689,-0.0010078927213267,0.0010079121495325,8.5206070737868e-09,-1.0765676750311e-08,4.2696832645736e-09,-6.0774873493649e-09,-0.00098708624622187,0.00098708444920469,-0.0011966773976924,0.0011966853206243,-0.0011966806823464,0.0011966818854071,-0.0011966834451965,0.0011966789865641,-0.0011966867335962,0.001196675547566,-0.0010767920057737,0.0010767939851707,-0.0010768019840341,0.0010767836287315,-0.00097626415098528,0.00097627769746243,-0.00097628303029844,0.00097625827336675,6.594160879441e-09,-5.1812228534337e-09,-0.001319205999169,0.0013192073910508,-4.224819490547e-09,5.9046547672912e-09,-0.0015525215813038,0.0015525234440083,-0.0015525182170913,0.0015525267437226,-0.0015525255252843,0.0015525195431247,-0.0015525221711067,0.0015525228453775,-0.0012331495476039,0.0012331427965781,-0.0012331379787544,0.0012331543058594,0.66669036285663,131329,3014,0.003803477305711,0.0041062675272936,0.0054791961710742,16.219831506398,-0.00011024134794881,-0.00011024134794881,-0.00011024134794881,4081423.4016107,0.013480610956967
23819200,0.9906061735625,0.014373793117138,0.0042648530796728,0.0045115840844757,0.0055973559529896,-0.00091496477580454,0.00091496637762378,-5.135165747829e-09,6.7386212219825e-09,-8.5755375256563e-09,1.0591377414073e-08,-0.0011303228290295,0.0011303141752235,-0.0011303188839911,0.0011303181551357,-0.0011303168377709,0.0011303204746033,-0.0011303128840367,0.0011303244370929,-0.0010090533277887,0.0010090496446502,-0.0010090416800292,0.0010090612303702,8.5201609981164e-09,-1.0764391618708e-08,4.258807749916e-09,-6.0661713993796e-09,-0.00098819968277148,0.00098819788600912,-0.0011979135453032,0.0011979214599754,-0.0011979168227895,0.0011979180328052,-0.0011979195925251,0.0011979151272668,-0.0011979228741409,0.0011979116957889,-0.0010779707884174,0.0010779727482693,-0.0010779807464855,0.0010779624138162,-0.00097742874903391,0.00097744230370528,-0.00097744762667121,0.00097742288009901,6.651392633756e-09,-5.2388063577677e-09,-0.0013204368481318,0.0013204382398089,-4.213668747518e-09,5.8930129846161e-09,-0.0015538488156458,0.0015538507238892,-0.0015538454585638,0.0015538540159799,-0.0015538527979645,0.0015538467853284,-0.0015538494517407,0.0015538500798971,-0.0012343978933273,0.0012343910205517,-0.0012343862106166,0.001234402642341,0.7007915676699,131329,3014,0.0038079752551572,0.0041108909349811,0.0054842921610176,16.742476540458,-0.00010606018767634,-0.00010606018767634,-0.00010606018767634,4089266.880414,0.013495023489823
24019200,0.99081307554899,0.01437674702719,0.0042657279174866,0.0045124999772982,0.0055985191324048,-0.00091602171592613,0.00091602331839064,-5.1916096150664e-09,6.7957240828235e-09,-8.5896833324233e-09,1.0606350163342e-08,-0.0011315756693698,0.001131566968946,-0.0011315716867607,0.001131570986385,-0.0011315696687795,0.0011315732776704,-0.0011315656768622,0.0011315772783161,-0.0010101810890321,0.001010177304119,-0.0010101693292725,0.0010101890021547,8.5424089705453e-09,-1.0787899905377e-08,4.2487261170202e-09,-6.0571818311652e-09,-0.00098929000912081,0.00098928821118476,-0.0011991839646188,0.0011991918873337,-0.0011991872360915,0.0011991884661969,-0.0011991900273564,0.0011991855389038,-0.0011991933023348,0.0011991821140787,-0.0010791390360233,0.0010791409600712,-0.0010791489747104,0.0010791306455428,-0.00097860316575098,0.00097861676991766,-0.00097862208718287,0.00097859730205337,6.7065823822177e-09,-5.2946041474777e-09,-0.0013216647558262,0.0013216661469156,-4.2044126180511e-09,5.883052026593e-09,-0.0015552118713564,0.0015552138227859,-0.0015552085209711,0.0015552171081161,-0.0015552158909113,0.0015552098468904,-0.0015552125507573,0.0015552131353305,-0.0012356778285907,0.0012356708408155,-0.0012356660383208,0.0012356825705728,0.70866202495867,131329,3014,0.003812369457781,0.0041154204506032,0.0054893736824785,17.265384032389,-0.00010187692774089,-0.00010187692774089,-0.00010187692774089,4093798.5315358,0.013509223939738
24219200,0.99102094388564,0.014379576151835,0.0042665620209111,0.0045133744059279,0.0055996397249958,-0.00091689259267027,0.00091689419401104,-5.2519730652397e-09,6.8545361857423e-09,-8.577260019947e-09,1.0592649918493e-08,-0.0011326521994351,0.0011326434664835,-0.0011326481753302,0.0011326475247641,-0.0011326462071486,0.0011326497675505,-0.0011326421760747,0.001132653806326,-0.0010111096563042,0.0010111057504609,-0.0010110977853381,0.0010111175621923,8.6254430248768e-09,-1.0874736066123e-08,4.2418061289247e-09,-6.053560506562e-09,-0.00099019061831559,0.00099018881684249,-0.0012002739627231,0.0012002819341757,-0.0012002772289159,0.001200278517229,-0.0012002800806676,0.0012002755293682,-0.0012002833531322,0.0012002721064514,-0.0010801058392038,0.0010801076984764,-0.0010801157740185,0.0010800973917321,-0.00097958912968043,0.00097960290626671,-0.00097960822133868,0.00097958326518377,6.7582621527891e-09,-5.3482602037926e-09,-0.0013227013514067,0.0013227027409946,-4.200446455597e-09,5.8769743562911e-09,-0.0015563867938429,0.001556388781329,-0.0015563834461514,0.0015563920651383,-0.0015563908471228,0.0015563847717601,-0.0015563875113749,0.0015563880553378,-0.00123677145828,0.00123676435817,-0.0012367595610816,0.0012367761961551,0.6801006522426,131329,3014,0.0038159914723531,0.0041191629031983,0.0054936621601935,17.693091145035,-9.8455270839722e-05,-9.8455270839722e-05,-9.8455270839722e-05,4096216.7272823,0.013521040541669
24419200,0.99122659217588,0.014382371730568,0.0042673862806208,0.0045142384735194,0.0056007469764273,-0.00091736175012572,0.00091736335573281,-5.3040924128236e-09,6.911316564376e-09,-8.6600502194397e-09,1.068073319305e-08,-0.0011332555006992,0.001133246677957,-0.0011332514413102,0.0011332507720192,-0.0011332494511012,0.0011332530360971,-0.0011332453837896,0.0011332571120106,-0.0010116164241984,0.001011612469568,-0.0010116044443815,0.001011624389771,8.6586945555533e-09,-1.0909586829403e-08,4.2431459018237e-09,-6.0561568480881e-09,-0.00099067801958757,0.00099067621672359,-0.0012008856452436,0.0012008936385988,-0.0012008889137655,0.0012008902202796,-0.0012008917857018,0.0012008872119969,-0.0012008950591158,0.0012008837886191,-0.0010806326893175,0.001080634525414,-0.0010806426248625,0.0010806242164918,-0.0009801253336602,0.00098013917189483,-0.0009801444895131,0.0009801194672731,6.8166337998695e-09,-5.4054056375682e-09,-0.0013232910722378,0.0013232924629053,-4.2019396899209e-09,5.8797313963595e-09,-0.0015570681769308,0.0015570702031878,-0.0015570648279415,0.0015570734873941,-0.0015570722697089,0.0015570661544426,-0.0015570689319836,0.0015570694401049,-0.0012373881984934,0.0012373809889235,-0.0012373761903696,0.001237392938208,0.6793459150459,131329,3014,0.0038179431689101,0.0041211884561928,0.0054961015947507,17.885168559355,-9.6918651525163e-05,-9.6918651525163e-05,-9.6918651525163e-05,4097346.9746999,0.013527546934892
24619200,0.99142991480294,0.014385277336443,0.0042682468831623,0.0045151394184367,0.005601891034844,-0.00091782839319834,0.00091783000205497,-5.3570947549619e-09,6.9676271257447e-09,-8.7334125897991e-09,1.0757966863644e-08,-0.0011338437353677,0.0011338348299078,-0.0011338396400552,0.0011338389600028,-0.0011338376364407,0.0011338412376367,-0.0011338335322292,0.0011338453505897,-0.001012126117875,0.0010121221083017,-0.0010121140292334,0.0010121341366144,8.6965882884146e-09,-1.0949940215714e-08,4.2465901334228e-09,-6.0613539758686e-09,-0.00099116289437357,0.00099116108979382,-0.0012014831182775,0.0012014911398519,-0.0012014863902444,0.0012014877182442,-0.0012014892856101,0.0012014846864968,-0.0012014925614752,0.0012014812608193,-0.0010811624109387,0.0010811642262237,-0.0010811723530212,0.0010811539098346,-0.0009806584535653,0.00098067236167165,-0.00098067768556917,0.00098065258187562,6.8744268156266e-09,-5.4627376725256e-09,-0.0013238750014482,0.0013238763924474,-4.2049898917099e-09,5.8832876038669e-09,-0.001557737008113,0.0015577390711851,-0.0015577336572941,0.0015577423569889,-0.001557741139793,0.0015577349837227,-0.0015577377994419,0.0015577382721716,-0.0012379989375516,0.0012379916195214,-0.0012379868173897,0.0012380036792519,0.70944460152943,131329,3014,0.0038198840475061,0.004123203277878,0.0054985173981138,18.0719552931,-9.5424357655199e-05,-9.5424357655199e-05,-9.5424357655199e-05,4098476.1392307,0.013534007331037
24819200,0.99163087565317,0.014387922940549,0.0042690244424562,0.0045159552724169,0.0056029432256759,-0.00091826157130029,0.0009182631818906,-5.4124945832999e-09,7.0246066999401e-09,-8.7857783825012e-09,1.0812463124879e-08,-0.0011344512549197,0.0011344422782756,-0.001134447122084,0.0011344464459079,-0.0011344451206119,0.0011344487215574,-0.0011344409789613,0.0011344528719039,-0.0010125930898039,0.0010125890077355,-0.0010125808910661,0.0010126011457335,8.7467775283141e-09,-1.1003080958464e-08,4.2497712969132e-09,-6.0669581457432e-09,-0.00099161537678063,0.00099161356984162,-0.001202096964027,0.0012021050208869,-0.001202100238852,0.0012021015963799,-0.0012021031656536,0.0012020985327053,-0.0012021064445131,0.0012020951040241,-0.0010816580360852,0.0010816598232114,-0.0010816679866966,0.0010816494979123,-0.00098117815570402,0.0009811921598343,-0.00098119748917628,0.00098117227787564,6.9306516698783e-09,-5.5185744683381e-09,-0.0013244402293776,0.0013244416207045,-4.2098576342979e-09,5.8886035598798e-09,-0.0015584188844026,0.0015584209816328,-0.0015584155301127,0.0015584242708823,-0.0015584230532354,0.0015584168568444,-0.0015584197094898,0.001558420148538,-0.0012386142710775,0.0012386068471175,-0.0012386020411709,0.0012386190168002,0.66112229204636,131329,3014,0.0038216876852771,0.0041250852689412,0.0055008540855301,18.258557608656,-9.3931539130754e-05,-9.3931539130754e-05,-9.3931539130754e-05,4097032.9249979,0.013540116105458
25019200,0.99183173662186,0.014390533618445,0.0042697911832691,0.0045167598618516,0.0056039825733239,-0.00091905152709549,0.00091905313828683,-5.4685010148713e-09,7.0810803695024e-09,-8.8086883190007e-09,1.0836015448725e-08,-0.0011353457372567,0.0011353367083565,-0.0011353415669179,0.0011353409133641,-0.0011353395875798,0.0011353431670871,-0.0011353354082492,0.0011353473549319,-0.001013429190929,0.0010134250144569,-0.0010134168810545,0.0010134372620905,8.771813521605e-09,-1.1029939196978e-08,4.2519114569207e-09,-6.0704796555713e-09,-0.00099242940845222,0.00099242760033782,-0.0012030081509168,0.0012030162261435,-0.0012030114276158,0.0012030127995526,-0.0012030143697453,0.0012030097203598,-0.001203017650322,0.0012030062897855,-0.0010825124351138,0.0010825142083863,-0.0010825223902621,0.0010825038769412,-0.00098202455033891,0.00098203860089703,-0.0009820439349743,0.00098201866855646,6.9868168840107e-09,-5.5744622404756e-09,-0.0013253593583257,0.0013253607497572,-4.2124749178711e-09,5.891538022087e-09,-0.0015594108543412,0.001559412987078,-0.0015594074983533,0.0015594162781705,-0.0015594150605123,0.0015594088247901,-0.0015594117148023,0.0015594121183559,-0.0012395354070138,0.0012395278761593,-0.0012395230675475,0.0012395401553664,0.65362539087303,131329,3014,0.003824970110498,0.0041284650866446,0.0055046592308917,18.630343889923,-9.0957248880612e-05,-9.0957248880612e-05,-9.0957248880612e-05,4103508.5238011,0.013550726654335
25219200,0.99203573560594,0.014393283787043,0.0042706017152518,0.0045176095779485,0.0056050724938425,-0.0009203293811395,0.00092033099147608,-5.5254159503061e-09,7.1370209931136e-09,-8.7977824798725e-09,1.0824019306228e-08,-0.0011367355631281,0.0011367265034777,-0.0011367313550746,0.0011367307459662,-0.0011367294210801,0.0011367329545246,-0.0011367252039447,0.0011367371798993,-0.0010147749231141,0.0010147706274369,-0.0010147625020517,0.0010147829851845,8.7653057897631e-09,-1.1023278446636e-08,4.2511643213311e-09,-6.0695901091706e-09,-0.00099374301256609,0.00099374120479992,-0.0012044255825657,0.0012044336534399,-0.0012044288586092,0.0012044302271947,-0.0012044317968861,0.0012044271518138,-0.0012044350767623,0.0012044237216899,-0.0010838849958605,0.0010838867716119,-0.0010838949487862,0.0010838764413169,-0.0009833779617146,0.00098339199941709,-0.00098339733362538,0.00098337208037198,7.0426110013623e-09,-5.630345952796e-09,-0.001326813855109,0.0013268152463465,-4.211993140089e-09,5.8909648072747e-09,-0.0015609399650151,0.0015609421350626,-0.0015609366095366,0.0015609454258925,-0.0015609442083448,0.0015609379354208,-0.0015609408628986,0.0015609412285971,-0.0012409881428041,0.0012409805026392,-0.001240975694204,0.0012409928912604,0.67454675167913,131329,3014,0.0038302783231961,0.0041339179882957,0.0055106822318761,19.271671917061,-8.5826624663512e-05,-8.5826624663512e-05,-8.5826624663512e-05,4115347.6594872,0.013567740009494
25419200,0.99224274772155,0.014396328309774,0.0042715054097529,0.0045185551548826,0.0056062677451385,-0.00092161412203546,0.00092161573235834,-5.5806145866727e-09,7.1923706321907e-09,-8.7927638606585e-09,1.0819187581364e-08,-0.0011381721692145,0.001138163075741,-0.0011381679244301,0.0011381673553604,-0.0011381660302912,0.0011381695235674,-0.001138161776642,0.0011381737859522,-0.0010161381364288,0.0010161337296538,-0.0010161256084053,0.0010161461960266,8.7417378370171e-09,-1.0997451091675e-08,4.25272838384e-09,-6.0693516387391e-09,-0.00099506625344317,0.00099506444722679,-0.0012058883358717,0.0012058963918013,-0.0012058916125508,0.0012058929654916,-0.0012058945339981,0.0012058899071382,-0.0012058978146296,0.0012058864767196,-0.0010852864946497,0.0010852882907076,-0.0010852964499033,0.001085277959758,-0.00098476426822218,0.00098477826008201,-0.00098478359122369,0.00098475838898541,7.0993113005012e-09,-5.6876725960946e-09,-0.0013282987009606,0.0013283000917142,-4.2126076646981e-09,5.8909317053742e-09,-0.0015625256399087,0.0015625278473514,-0.001562522283955,0.0015625311382679,-0.0015625299213683,0.0015625236100086,-0.0015625265758896,0.00156252690339,-0.001242498647154,0.0012424908939115,-0.0012424860862331,0.0012425033941628,0.72789191567049,131329,3014,0.0038356166362631,0.004139412240889,0.0055168294948086,19.919073350619,-8.0647413195045e-05,-8.0647413195045e-05,-8.0647413195045e-05,4125027.7058983,0.013584954001178
25619200,0.99245255486642,0.014399432821954,0.0042724266249778,0.0045195192818551,0.0056074869151207,-0.00092285625077283,0.00092285786009015,-5.6374586273028e-09,7.2482245163635e-09,-8.7754845123542e-09,1.0800746925419e-08,-0.0011396636318087,0.0011396545117619,-0.0011396593495043,0.0011396588288882,-0.0011396575048302,0.0011396609475625,-0.0011396532135276,0.0011396652475843,-0.0010174611229626,0.0010174565928079,-0.0010174484844705,0.0010174691698029,8.7268545028392e-09,-1.0981154713305e-08,4.2546374493186e-09,-6.0700523922382e-09,-0.00099635039121438,0.0009963485861692,-0.0012073993802764,0.0012074074279536,-0.0012074026578919,0.0012074040007048,-0.0012074055682168,0.0012074009535942,-0.001207408849646,0.00120739752236,-0.0010866713834529,0.0010866731936011,-0.0010866813411697,0.0010866628603783,-0.00098615886726371,0.00098617282902046,-0.0009861781596067,0.00098615298871303,7.155253663971e-09,-5.7435820738043e-09,-0.0013297844312543,0.0013297858220391,-4.2138143957156e-09,5.8921813549924e-09,-0.0015641716569345,0.0015641739009205,-0.0015641683002249,0.0015641771925809,-0.0015641759757058,0.0015641696262476,-0.0015641726293754,0.0015641729205497,-0.0012440689395951,0.0012440610777745,-0.0012440562692656,0.0012440736873511,0.73243475438239,131329,3014,0.0038407815308192,0.0041447474195172,0.005522976866727,20.566678959837,-7.5466568321304e-05,-7.5466568321304e-05,-7.5466568321304e-05,4129787.9682163,0.013601835655984
25819200,0.99265970818367,0.01440240776433,0.0042733068201827,0.0045204412377479,0.0056086597063995,-0.00092336094426835,0.0009233625552173,-5.694213251488e-09,7.3068128411774e-09,-8.8112675483835e-09,1.0838790545036e-08,-0.0011403959496915,0.0011403867696805,-0.0011403916308594,0.0011403911236271,-0.0011403897999136,0.0011403932285331,-0.0011403854685107,0.0011403975689437,-0.0010180115067662,0.0010180068855508,-0.0010179987519799,0.0010180195821299,8.7213215619382e-09,-1.0973227507642e-08,4.2668352955495e-09,-6.08034537535e-09,-0.00099687958013866,0.00099687777640686,-0.0012081372777451,0.0012081453306929,-0.0012081405647976,0.0012081418943344,-0.0012081434630674,0.0012081388595073,-0.0012081467503658,0.0012081354227081,-0.0010872641042813,0.0010872659390493,-0.0010872740806644,0.0010872555907623,-0.00098678684306347,0.0009868007832724,-0.000986806116113,0.00098678096013213,7.2100164044186e-09,-5.7980204977478e-09,-0.0013304710689694,0.0013304724605401,-4.2252132541648e-09,5.9039563835381e-09,-0.00156500237258,0.001565004648248,-0.0015649990098056,0.0015650079457283,-0.0015650067296582,0.0015650003355852,-0.0015650033738955,0.001565003639461,-0.0012448372468916,0.0012448292902786,-0.0012448244751229,0.001244842002118,0.71386319695918,131329,3014,0.0038428841205678,0.0041469492615728,0.0055258143129759,20.805346686708,-7.3557226506337e-05,-7.3557226506337e-05,-7.3557226506337e-05,4127205.845774,0.013609081395669
26019200,0.99285962035468,0.014405154106522,0.0042741163161625,0.0045212899449374,0.0056097478454221,-0.00092321875729717,0.00092322036836216,-5.7491648491073e-09,7.3617832248699e-09,-8.8237741111696e-09,1.0851571179773e-08,-0.0011404095888303,0.0011404003625156,-0.0011404052315563,0.0011404047545088,-0.0011404034293161,0.0011404068311687,-0.0011403990627068,0.0011404112063991,-0.0010178826676638,0.0010178779517188,-0.0010178698095212,0.0010178907508436,8.7850639852035e-09,-1.1040647662059e-08,4.2822888068533e-09,-6.0989040290674e-09,-0.00099674388475727,0.00099674207806828,-0.0012081466549332,0.0012081547588743,-0.0012081499514106,0.0012081513125943,-0.001208152882369,0.0012081482449548,-0.0012081561823047,0.0012081447949777,-0.0010871523560309,0.0010871541814955,-0.001087162369984,0.0010871437946338,-0.0009867133509944,0.00098672741020726,-0.00098673275782936,0.00098670745312027,7.2678216366849e-09,-5.8548845458255e-09,-0.0013304354058407,0.0013304367982355,-4.2416905073843e-09,5.921544132715e-09,-0.0015650660918694,0.0015650683934572,-0.0015650627161065,0.0015650717039975,-0.0015650704854362,0.0015650640439885,-0.0015650671199499,0.0015650673575987,-0.001244854545407,0.0012448464846265,-0.0012448416566018,0.0012448593129689,0.68688292254834,131329,3014,0.0038422985792187,0.0041463899820625,0.0055256618329652,20.67560923791,-7.4595126096721e-05,-7.4595126096721e-05,-7.4595126096721e-05,4120146.13092,0.013607770097709
26219200,0.99305248528687,0.014407976505122,0.0042749534327426,0.0045221658257278,0.005610857246652,-0.00092308932373885,0.00092309093542412,-5.8046376955088e-09,7.4177341949003e-09,-8.8498170605165e-09,1.0878218448188e-08,-0.0011403703569042,0.0011403610759386,-0.001140365962026,0.0011403655056818,-0.0011403641791755,0.001140367562832,-0.0011403597759497,0.0011403719747528,-0.0010177718085306,0.0010177670029471,-0.0010177588422397,0.0010177799091144,8.8192159844801e-09,-1.1077379747719e-08,4.2975325830975e-09,-6.115992902891e-09,-0.0009966181615972,0.00099661635320047,-0.0012081056317495,0.0012081137679064,-0.0012081089385034,0.0012081103113749,-0.0012081118818824,0.0012081072309927,-0.0012081151931288,0.0012081037697921,-0.0010870479695205,0.0010870498022006,-0.0010870580159201,0.0010870393815173,-0.00098662402969319,0.00098663814552048,-0.00098664350763232,0.00098661811799128,7.3249769822754e-09,-5.91093945521e-09,-0.0013303882402285,0.0013303896336089,-4.257216910828e-09,5.9383529738047e-09,-0.0015650785643592,0.0015650808932308,-0.0015650751773834,0.0015650842150749,-0.0015650829951805,0.0015650765066201,-0.0015650796192561,0.0015650798303666,-0.001244834125134,0.0012448259639988,-0.001244821123896,0.0012448389050985,0.72524661704765,131329,3014,0.0038417637442302,0.004145870133111,0.0055254638997552,20.537521293457,-7.5699829652341e-05,-7.5699829652341e-05,-7.5699829652341e-05,4115631.0255157,0.013606501536589
26419200,0.99323858831736,0.014410784309673,0.0042757882804929,0.0045230386351454,0.0056119573940349,-0.00092293761134518,0.00092293922446364,-5.8605962309551e-09,7.4751148183734e-09,-8.8859156243478e-09,1.0916053512852e-08,-0.0011403638883966,0.0011403545470209,-0.0011403594564301,0.001140359013906,-0.0011403576867179,0.0011403610579657,-0.0011403532450638,0.0011403655083639,-0.0010176396735071,0.0010176347809863,-0.0010176265941492,0.0010176477999846,8.8305634909009e-09,-1.1089353371341e-08,4.312906144516e-09,-6.1317723499025e-09,-0.00099647128562654,0.00099646947686718,-0.001208093774966,0.0012081019296085,-0.0012080970927636,0.0012080984620627,-0.0012081000334953,0.0012080953843646,-0.0012081033544329,0.0012080919134799,-0.001086933378715,0.0010869352317872,-0.0010869434534532,0.0010869247824174,-0.00098654241965417,0.00098655654514127,-0.00098656191869886,0.00098653649699306,7.3810633639337e-09,-5.9661488034847e-09,-0.0013303330441758,0.0013303344384049,-4.2716366198746e-09,5.9537873889998e-09,-0.0015651170622099,0.0015651194196544,-0.0015651136659165,0.0015651227507513,-0.0015651215308384,0.0015651149953376,-0.0015651181442698,0.0015651183297429,-0.0012448410837529,0.0012448328263652,-0.0012448279751652,0.001244845874313,0.74502756030664,131329,3014,0.0038411383138175,0.0041452644366927,0.0055252309238224,20.39914161835,-7.6806867053198e-05,-7.6806867053198e-05,-7.6806867053198e-05,4107943.2803516,0.013605021469178
26619200,0.99342230002894,0.014413528231356,0.0042766035430792,0.0045238910273146,0.0056130336609618,-0.00092342007578434,0.00092342168661468,-5.9138701518851e-09,7.5259464332084e-09,-8.8441494785984e-09,1.0871316763882e-08,-0.001141050849222,0.0011410414977797,-0.001141046380221,0.001141046001584,-0.001141044674056,0.0011410479818426,-0.0011410401999883,0.0011410524645702,-0.0010181679006283,0.0010181628809605,-0.0010181547242447,0.0010181759937335,8.83607109276e-09,-1.1096465670655e-08,4.3169610712391e-09,-6.1370078337356e-09,-0.00099697305369151,0.00099697124427763,-0.0012087841047224,0.001208792264549,-0.0012087874232167,0.0012087887961478,-0.0012087903653416,0.0012087857169663,-0.0012087936915504,0.0012087822406093,-0.0010874944462776,0.0010874963083041,-0.0010875045348231,0.001087485841337,-0.00098714150842918,0.00098715564643791,-0.00098716102759375,0.00098713558061603,7.4424649510398e-09,-6.0253743288914e-09,-0.0013309698851879,0.0013309712811019,-4.2743706124118e-09,5.9587796167259e-09,-0.0015658806549429,0.0015658830489321,-0.0015658772537624,0.0015658863849312,-0.0015658851614066,0.0015658785865487,-0.0015658817745437,0.0015658819212232,-0.0012455608074005,0.0012455524310261,-0.0012455475734523,0.0012455656029437,0.73848440588411,131329,3014,0.0038431478900992,0.0041473520041066,0.0055278627132939,20.630138168279,-7.4958894653771e-05,-7.4958894653771e-05,-7.4958894653771e-05,4105489.5303274,0.01361184812396
26819200,0.99360583468272,0.014416196037583,0.0042773944506158,0.0045247183941331,0.0056140831928345,-0.00092425897139155,0.00092426058032372,-5.9718833405044e-09,7.5821280744566e-09,-8.80950771291e-09,1.0834428224772e-08,-0.0011421023560791,0.0011420929881985,-0.0011420978490798,0.0011420975293438,-0.0011420962045335,0.0011420994484184,-0.0011420916917073,0.0011421039692727,-0.0010190632619027,0.0010190581025249,-0.0010190499708801,0.0010190713272445,8.7920183186196e-09,-1.1049829995394e-08,4.3168633862785e-09,-6.1350133800427e-09,-0.00099783861626562,0.0009978368091281,-0.0012098447484653,0.0012098528796327,-0.0012098480662916,0.0012098494112544,-0.0012098509784411,0.0012098463619495,-0.0012098543030751,0.0012098428863009,-0.0010884261891483,0.0010884280786254,-0.0010884362731453,0.0010884176134007,-0.00098810536634015,0.00098811941590581,-0.00098812479451367,0.00098809944088647,7.4978232601755e-09,-6.080716474521e-09,-0.0013320025847968,0.0013320039803561,-4.2721772105658e-09,5.9565521176863e-09,-0.0015670417939546,0.0015670442260106,-0.0015670383947483,0.0015670475602771,-0.0015670463372861,0.0015670397258821,-0.0015670429513851,0.0015670430594746,-0.0012466700673268,0.0012466615828511,-0.0012466567263349,0.0012466748623578,0.72121905724286,131329,3014,0.0038466374883384,0.0041509491300423,0.0055321341178069,21.065084475628,-7.1479324194975e-05,-7.1479324194975e-05,-7.1479324194975e-05,4107776.9228097,0.013623366825111
27019200,0.99378908799266,0.014418779002093,0.0042781581278191,0.0045255178452411,0.0056151030290326,-0.00092511286898842,0.00092511447692472,-6.0301959190363e-09,7.6395164080177e-09,-8.7798011750126e-09,1.0803589936832e-08,-0.0011431408454215,0.0011431314591662,-0.0011431363009842,0.001143136038487,-0.001143134714964,0.001143137898297,-0.0011431301629963,0.0011431424589844,-0.001019970921471,0.001019965626635,-0.0010199575172753,0.0010199789688326,8.7435949906914e-09,-1.0997283842193e-08,4.3162109720701e-09,-6.1308532578741e-09,-0.00099871814310738,0.00099871633884432,-0.0012108940474729,0.0012109021466434,-0.0012108973649802,0.0012108986793767,-0.0012109002453936,0.0012108956623283,-0.0012109035681371,0.0012108921895499,-0.0010893619835898,0.0010893639052786,-0.0010893720627681,0.0010893534497225,-0.00098906563020088,0.00098907958559019,-0.00098908495671706,0.00098905971150319,7.5520312405707e-09,-6.1357868748051e-09,-0.0013330451281235,0.0013330465234305,-4.2698219974571e-09,5.9532630309303e-09,-0.0015681954058556,0.0015681978772823,-0.0015681920093122,0.0015682012087101,-0.0015681999868291,0.001568193340538,-0.001568196601956,0.0015681966730567,-0.0012477668970941,0.0012477583039404,-0.0012477534515718,0.0012477716885257,0.70228506306722,131329,3014,0.0038501883023769,0.0041546031291512,0.005536447305962,21.504692568252,-6.7962459453984e-05,-6.7962459453984e-05,-6.7962459453984e-05,4111875.5386863,0.013635046162425
27219200,0.9939719009912,0.014421269035297,0.004278892012385,0.0045262867674949,0.0056160902554167,-0.00092597643392545,0.0009259780404824,-6.0878626562394e-09,7.6958439020161e-09,-8.7468584191264e-09,1.076900491338e-08,-0.0011441547796,0.0011441453770285,-0.0011441501976834,0.0011441499938497,-0.0011441486720993,0.0011441517930508,-0.0011441440816115,0.0011441563922797,-0.001020885941128,0.0010208805094891,-0.0010208724239492,0.0010208939647368,8.7028229314812e-09,-1.0953844986976e-08,4.313046641916e-09,-6.1255064529918e-09,-0.00099960618192636,0.00099960437981739,-0.0012119209000152,0.0012119289709447,-0.0012119242152435,0.0012119255060225,-0.0012119270706479,0.0012119225142005,-0.0012119303900737,0.0012119190447898,-0.0010902980926014,0.001090300034787,-0.0010903081620398,0.001090289589086,-0.00099001311757431,0.00099002699427644,-0.00099003235999415,0.00099000720439801,7.6073944714385e-09,-6.1913548081252e-09,-0.0013340887069249,0.0013340901020061,-4.2681017249809e-09,5.9513218870839e-09,-0.0015693299604074,0.0015693324703336,-0.001569326565557,0.0015693358000178,-0.0015693345788789,0.0015693278960875,-0.001569331194746,0.0015693312279391,-0.0012488413851993,0.0012488326834218,-0.0012488278324834,0.0012488461750978,0.6819177308314,131329,3014,0.0038537779603448,0.0041582912022577,0.0055407660782238,21.944463823381,-6.4444289412953e-05,-6.4444289412953e-05,-6.4444289412953e-05,4117704.0332689,0.01364680361067
27419200,0.99415267578957,0.014423816104004,0.0042796450566456,0.0045270750200753,0.0056170960272826,-0.00092662645944986,0.00092662806406529,-6.1455565774356e-09,7.7511326212778e-09,-8.7407058505538e-09,1.0760513426113e-08,-0.0011449045514417,0.0011448951145048,-0.0011448999307752,0.0011448997687114,-0.0011448984491806,0.0011449015257679,-0.0011448938204086,0.0011449061614784,-0.0010215815605487,0.0010215760133499,-0.0010215679341569,0.0010215895792462,8.6726218382184e-09,-1.092090974933e-08,4.3145760261117e-09,-6.1246804856226e-09,-0.0010002747696541,0.0010002729695102,-0.0012126824040619,0.0012126904560276,-0.0012126857182455,0.0012126869900722,-0.0012126885526455,0.0012126840188944,-0.0012126918720866,0.0012126805481628,-0.0010910051766484,0.0010910071452493,-0.0010910152493227,0.0010909966991428,-0.00099071534778042,0.0009907291670029,-0.00099073452749043,0.00099070943573495,7.6620243080639e-09,-6.2484978387978e-09,-0.0013348871151985,0.0013348885083924,-4.2676929950261e-09,5.9482770684833e-09,-0.001570191567735,0.0015701941147239,-0.001570188174558,0.0015701974442792,-0.001570196222555,0.0015701895030086,-0.0015701928395789,0.0015701928327656,-0.0012496484029967,0.0012496395872629,-0.0012496347426036,0.0012496531922761,0.70214878879546,131329,3014,0.0038564793023306,0.0041610671093231,0.0055440709881444,22.25257348112,-6.197941215104e-05,-6.197941215104e-05,-6.197941215104e-05,4122907.0847838,0.013655706445357
27619200,0.99433088337988,0.014426368893827,0.0042804007081251,0.0045278657297103,0.005618102455992,-0.00092719190515951,0.00092719351025983,-6.2014092570864e-09,7.8079338195108e-09,-8.7172188402129e-09,1.073758686418e-08,-0.0011455958803318,0.0011455864218064,-0.001145591223307,0.0011455911133924,-0.0011455897935883,0.0011455928170963,-0.0011455851274037,0.0011455974916519,-0.0010221932844605,0.0010221876098662,-0.0010221795467491,0.0010222012880155,8.6767251004596e-09,-1.0925492206724e-08,4.3127365780252e-09,-6.123116950475e-09,-0.001000858391372,0.0010008565909169,-0.0012133832047828,0.0012133912585598,-0.0012133865192262,0.001213387794045,-0.0012133893577443,0.001213384819337,-0.0012133926758491,0.0012133813509521,-0.0010916338014696,0.0010916357612937,-0.0010916438688369,0.0010916253203889,-0.00099134734067953,0.00099136116710931,-0.00099136652882077,0.0009913414308253,7.7188710014364e-09,-6.3038639376368e-09,-0.0013356048018892,0.0013356061964173,-4.2679539044967e-09,5.9500562341016e-09,-0.0015709908037041,0.0015709933889222,-0.0015709874097315,0.0015709967179712,-0.0015709954969987,0.0015709887395834,-0.0015709921130974,0.0015709920712351,-0.0012503924793156,0.0012503835570178,-0.0012503787086193,0.0012503972679024,0.71252807598113,131329,3014,0.003858830433416,0.0041634914527655,0.0055470406679055,22.519517425875,-5.9843860592996e-05,-5.9843860592996e-05,-5.9843860592996e-05,4125452.641156,0.01366355981151
27819200,0.9945064547387,0.014428929358854,0.0042811596973941,0.0045286595893129,0.0056191100721468,-0.00092774812135763,0.00092774972596569,-6.257910889765e-09,7.8639314055583e-09,-8.7078903676031e-09,1.0727651475023e-08,-0.0011462939788616,0.0011462844889404,-0.001146289284618,0.0011462892179505,-0.0011462878985411,0.0011462908776135,-0.0011462831947641,0.0011462955899747,-0.0010227987318277,0.0010227929393101,-0.0010227848827377,0.0010228067273584,8.6777265099103e-09,-1.0927099638998e-08,4.3110739015027e-09,-6.1220917668866e-09,-0.0010014328893316,0.0010014310885404,-0.0012140892689526,0.0012140973226557,-0.0012140925828294,0.0012140938589571,-0.001214095422893,0.0012140908825459,-0.001214098740047,0.0012140874153447,-0.0010922584432451,0.0010922603978819,-0.0010922685066533,0.0010922499593242,-0.00099198087226677,0.00099199470015629,-0.00099200006229502,0.00099197496247884,7.7752997055194e-09,-6.3597508795056e-09,-0.0013363171316715,0.0013363185264559,-4.2674792873489e-09,5.9501654496181e-09,-0.0015717950353585,0.0015717976583673,-0.001571791641672,0.0015718009870326,-0.0015717997663155,0.0015717929714864,-0.0015717963823433,0.0015717963031298,-0.0012511423019113,0.0012511332708396,-0.0012511284215648,0.0012511470909712,0.72383356902311,131329,3014,0.0038611438898245,0.004165878523931,0.0055499875303462,22.785503062764,-5.7715975497884e-05,-5.7715975497884e-05,-5.7715975497884e-05,4127033.1025853,0.01367131498162
28019200,0.99467933371793,0.014431499228474,0.0042819225951164,0.004529457168371,0.0056201194649862,-0.00092829580294872,0.00092829740807404,-6.3138500716555e-09,7.9203995129081e-09,-8.7177898409751e-09,1.0738174472023e-08,-0.0011470008271425,0.001146991293014,-0.0011469960950725,0.0011469960598841,-0.0011469947395809,0.0011469976889433,-0.0011469899987138,0.0011470024384412,-0.0010233985878626,0.001023392693677,-0.00102338462971,0.0010234065906012,8.6661125109196e-09,-1.0914846178418e-08,4.3114741267113e-09,-6.1219657230978e-09,-0.0010019988342533,0.0010019970340245,-0.001214802456008,0.0012148105019665,-0.0012148057696534,0.0012148070385617,-0.0012148086015921,0.0012148040703531,-0.0012148119192386,0.0012148006027126,-0.0010928792368931,0.0010928812014284,-0.0010928893015601,0.001092870761426,-0.0009926170380072,0.00099263084381021,-0.00099263620573843,0.00099261112876308,7.831456673492e-09,-6.4159904105441e-09,-0.0013370256503031,0.0013370270449555,-4.2653754726778e-09,5.9479602211922e-09,-0.0015726057507005,0.0015726084120911,-0.0015726023581002,0.0015726117396565,-0.0015726105187794,0.00157260368817,-0.0015726071366541,0.0015726070179991,-0.0012518997089931,0.0012518905652759,-0.0012518857173649,0.0012519044964038,0.73612510201291,131329,3014,0.0038634225991081,0.0041682307040043,0.0055529179136565,23.051455011981,-5.5588359904149e-05,-5.5588359904149e-05,-5.5588359904149e-05,4127662.0280504,0.013678983736874
28219200,0.99484879778316,0.014434070161689,0.0042826869745891,0.0045302559032196,0.0056211272838808,-0.00092871726949327,0.00092871887418558,-6.3666569482064e-09,7.9722662124749e-09,-8.7315408482148e-09,1.0751357752812e-08,-0.0011475942407493,0.0011475846610159,-0.0011475894710713,0.0011475894647673,-0.0011475881428407,0.0011475910678788,-0.0011475833686056,0.0011475958496143,-0.0010238685410583,0.001023862560821,-0.0010238544874916,0.0010238765541474,8.6715572920836e-09,-1.0919919618955e-08,4.3143227825756e-09,-6.1245749922601e-09,-0.0010024357926718,0.0010024339925197,-0.0012153983046067,0.0012154063542556,-0.0012154016172873,0.0012154028904989,-0.0012154044513523,0.0012153999200616,-0.0012154077728099,0.001215396447983,-0.0010933696829666,0.0010933716572602,-0.001093379760715,0.0010933612064145,-0.00099313269171861,0.0009931465140783,-0.00099315187573931,0.0009931267799246,7.8906322279547e-09,-6.4768762224067e-09,-0.0013376011686599,0.0013376025620047,-4.2636962431536e-09,5.9444832788516e-09,-0.0015732900872728,0.001573292787306,-0.0015732866948727,0.0015732961159142,-0.0015732948929861,0.0015732880256091,-0.0015732915144588,0.0015732913510697,-0.0012525358642385,0.0012525265931282,-0.0012525217494807,0.0012525406499941,0.74948917681357,131329,3014,0.0038651778125018,0.0041700481031964,0.0055552968115903,23.251196896811,-5.3990424825515e-05,-5.3990424825515e-05,-5.3990424825515e-05,4126155.2333418,0.013685021352767
28419200,0.99501475491715,0.014436643185904,0.0042834532348082,0.0045310561605869,0.0056221337905084,-0.00092911229666939,0.00092911390296112,-6.4179280859965e-09,8.0255610773828e-09,-8.7451964560747e-09,1.0766969396829e-08,-0.0011481776092555,0.0011481679842566,-0.0011481728037924,0.0011481728244589,-0.0011481714995398,0.001148174402488,-0.0011481666924707,0.0011481792180913,-0.0010243127268661,0.00102430665826,-0.0010242985744147,0.0010243207500004,8.6819781722497e-09,-1.0931067396723e-08,4.316093147028e-09,-6.1268335886746e-09,-0.0010028456511453,0.0010028438505253,-0.0012159819247193,0.001215989980597,-0.0012159852378928,0.0012159865175767,-0.0012159880774543,0.0012159835417046,-0.0012159914018684,0.0012159800672507,-0.0010938357659415,0.0010938377391325,-0.0010938458503862,0.0010938272800546,-0.00099363255563086,0.00099364640045308,-0.00099365176540081,0.0009936266426826,7.9513138369968e-09,-6.5364348954007e-09,-0.0013381531178225,0.0013381545120328,-4.2609458923219e-09,5.9428639650852e-09,-0.0015739590235234,0.0015739617641524,-0.0015739556305104,0.0015739650921679,-0.0015739638680534,0.0015739569637891,-0.0015739604925753,0.0015739602869074,-0.0012531611866677,0.0012531517932988,-0.0012531469492411,0.0012531659702739,0.76402417242868,131329,3014,0.0038668239006859,0.0041717535980619,0.0055575774037471,23.441801716648,-5.2465586266813e-05,-5.2465586266813e-05,-5.2465586266813e-05,4123585.176861,0.013690736006009
28619200,0.99517721036061,0.014439179915787,0.0042842090370832,0.0045318453088666,0.0056231255698369,-0.00092949358219114,0.0009294951885781,-6.4886076131384e-09,8.0963476476075e-09,-8.7485955565875e-09,1.0770518920687e-08,-0.0011487664222019,0.0011487567539503,-0.0011487615755791,0.0011487616353653,-0.0011487603164417,0.0011487631682003,-0.0011487554558703,0.0011487680373533,-0.0010247419961869,0.0010247357738612,-0.0010247276875405,0.0010247500215429,8.7045494034488e-09,-1.0954959823598e-08,4.3067524969795e-09,-6.1186007421099e-09,-0.0010032412506078,0.001003239448926,-0.0012165689129818,0.0012165769836832,-0.0012165722264294,0.0012165735205176,-0.0012165750874518,0.0012165705230237,-0.0012165783998011,0.0012165670607088,-0.0010942881394836,0.0010942900612055,-0.0010942981890325,0.0010942796367628,-0.00099412936497677,0.00099414324216022,-0.00099414860240068,0.00099412345683967,7.9933019776408e-09,-6.5778867694274e-09,-0.0013386965745691,0.0013386979692246,-4.2687706296345e-09,5.9512990854569e-09,-0.0015746284659549,0.0015746312350767,-0.0015746250734772,0.0015746345624327,-0.0015746333441698,0.0015746264010188,-0.0015746299569224,0.0015746297359208,-0.0012537906927549,0.0012537812412005,-0.0012537763909172,0.0012537954823351,0.76896080129125,131329,3014,0.0038684136250456,0.0041734005230917,0.0055598220606614,23.632183266088,-5.0942533871296e-05,-5.0942533871296e-05,-5.0942533871296e-05,4120116.4127869,0.013696298476831
28819200,0.99533619459732,0.014441591500953,0.0042849258668528,0.0045325941614891,0.0056240714726113,-0.0009298681559961,0.00092986976324738,-6.5318078478421e-09,8.1403751990666e-09,-8.7688796358346e-09,1.0791844706493e-08,-0.0011493525428957,0.0011493428280881,-0.0011493476628507,0.0011493477428963,-0.0011493464185356,0.0011493492609986,-0.0011493415337967,0.0011493541543217,-0.0010251603061609,0.0010251540262779,-0.0010251459251237,0.0010251683459908,8.7092578190782e-09,-1.0959892631919e-08,4.3130729185738e-09,-6.1251275923818e-09,-0.0010036291416677,0.0010036273398409,-0.0012171519800575,0.0012171600534787,-0.0012171552933273,0.0012171565904784,-0.0012171581528984,0.0012171535944187,-0.0012171614742728,0.0012171501230646,-0.0010947271896794,0.0010947291337562,-0.0010947372648632,0.0010947186833759,-0.0009946191386694,0.00099463303372428,-0.00099463839880523,0.0009946132258015,8.0618063391737e-09,-6.6467350877468e-09,-0.0013392335869323,0.0013392349811722,-4.2614901096671e-09,5.9436005496713e-09,-0.0015752910228889,0.0015752938385364,-0.0015752876310607,0.0015752971652815,-0.0015752959427968,0.0015752889628456,-0.0015752925655485,0.0015752922877128,-0.0012544147617097,0.0012544051573207,-0.0012544003123919,0.0012544195458643,0.74978435527181,131329,3014,0.0038699755997613,0.0041750154786493,0.0055620398393886,23.824782161296,-4.9401742709634e-05,-4.9401742709634e-05,-4.9401742709634e-05,4116704.3982149,0.013701773108012
29019200,0.99549285610031,0.01444382809815,0.0042855873317153,0.004533286059877,0.0056249547065573,-0.00093046523497391,0.00093046684192789,-6.5962427564293e-09,8.2044836891551e-09,-8.7627389135177e-09,1.0785290007823e-08,-0.0011501350843051,0.0011501253332004,-0.0011501301639077,0.0011501302883663,-0.0011501289668624,0.0011501317589534,-0.0011501240363389,0.0011501366980813,-0.0010258056410301,0.001025799222834,-0.0010257911259481,0.0010258136757771,8.7178067289855e-09,-1.0968206629995e-08,4.3049476357744e-09,-6.1166371921984e-09,-0.0010042428153848,0.0010042410140332,-0.0012179369149214,0.0012179449918616,-0.0012179402253063,0.0012179415318128,-0.0012179430962281,0.0012179385243089,-0.001217946409285,0.0012179350613293,-0.0010953884024377,0.0010953903167714,-0.0010953984531484,0.0010953798899907,-0.00099531746139095,0.00099533137076776,-0.00099533673074738,0.00099531155437203,8.1101007773412e-09,-6.6948176075058e-09,-0.001340002717155,0.0013400041114686,-4.262831027203e-09,5.945162785799e-09,-0.0015761685658494,0.0015761714146724,-0.0015761651754804,0.0015761747397762,-0.0015761735201739,0.0015761665045121,-0.001576170138934,0.0015761698333235,-0.0012552469205176,0.0012552372308588,-0.0012552323841118,0.0012552517058265,0.71130254368593,131329,3014,0.003872460326882,0.0041775662374969,0.0055652201073572,24.140769986913,-4.6873840104696e-05,-4.6873840104696e-05,-4.6873840104696e-05,4117543.1514969,0.013710105958045
29219200,0.99564714575454,0.014445973373762,0.0042862204152309,0.0045339485939519,0.0056258043645791,-0.00093109211894751,0.00093109372585776,-6.6481920005626e-09,8.256412597939e-09,-8.7690941594869e-09,1.0791714672289e-08,-0.0011508792019122,0.0011508694104883,-0.00115087424562,0.0011508744015582,-0.0011508730787606,0.0011508758419383,-0.0011508681150943,0.0011508808142446,-0.0010264789559648,0.0010264724444243,-0.0010264643435686,0.0010264869953264,8.7126851645965e-09,-1.0961951679928e-08,4.3049399201328e-09,-6.1156201945804e-09,-0.0010048848200446,0.0010048830195574,-0.0012186882156672,0.0012186962877696,-0.00121869152444,0.0012186928294015,-0.0012186943917548,0.0012186898255574,-0.0012186977059277,0.0012186863615128,-0.0010960656193477,0.0010960675417973,-0.0010960756734095,0.0010960571123842,-0.00099600495963606,0.00099601886341301,-0.00099602422137675,0.00099599905407794,8.1702834376846e-09,-6.7555450347364e-09,-0.0013407815587479,0.0013407829525957,-4.2568997658401e-09,5.9386171702631e-09,-0.0015770160294814,0.0015770189213901,-0.0015770126420201,0.0015770222435675,-0.0015770210229877,0.0015770139721464,-0.0015770176474193,0.0015770172952205,-0.0012560451549772,0.0012560353379627,-0.0012560304963474,0.0012560499355076,0.69516968083642,131329,3014,0.003875066289898,0.0041802322262464,0.0055684430615715,24.45952417078,-4.4323806633761e-05,-4.4323806633761e-05,-4.4323806633761e-05,4121901.1131181,0.013718718661834
29419200,0.995798991063,0.014447928170151,0.0042867929970532,0.0045345490512903,0.0056265861218078,-0.00093172532766844,0.00093172693432413,-6.7068377047413e-09,8.3148152790125e-09,-8.767465136576e-09,1.0789835075827e-08,-0.0011515990480098,0.001151589219159,-0.0011515940533643,0.0011515942485758,-0.0011515929267402,0.0011515956486683,-0.0011515879232822,0.0011516006607719,-0.0010271540020362,0.0010271473723953,-0.0010271392729296,0.0010271620400386,8.7148781004899e-09,-1.096378282694e-08,4.3005225588444e-09,-6.1108417527791e-09,-0.0010055329990911,0.0010055311989281,-0.0012194180345246,0.0012194261059661,-0.0012194213409652,0.0012194226499695,-0.0012194242127527,0.0012194196416562,-0.0012194275231561,0.0012194161814118,-0.0010967419430965,0.0010967438533821,-0.0010967519860622,0.0010967334351723,-0.00099667564558961,0.00099668955488232,-0.00099669490930643,0.00099666974351695,8.2242127192409e-09,-6.8094254841962e-09,-0.0013415584821952,0.001341559876088,-4.2549240278446e-09,5.9366667470824e-09,-0.0015778463700125,0.0015778492997769,-0.0015778429844938,0.0015778526199444,-0.0015778514000706,0.0015778443139833,-0.0015778480250072,0.0015778476365378,-0.0012568172798314,0.0012568073580649,-0.0012568025176768,0.0012568220590449,0.65089858652607,131329,3014,0.0038776972641801,0.0041829227736095,0.0055716593828179,24.778375041295,-4.1772999669643e-05,-4.1772999669643e-05,-4.1772999669643e-05,4127690.6543809,0.013727373748074
29619200,0.99594824077544,0.014449818907965,0.0042873460358749,0.0045351292135945,0.0056273436584953,-0.00093237349845504,0.00093237510487531,-6.7632884287987e-09,8.3710517301746e-09,-8.7681762547047e-09,1.079032661587e-08,-0.0011522524916383,0.0011522426246804,-0.0011522474595156,0.0011522476915993,-0.0011522463700452,0.0011522490545107,-0.0011522413289745,0.0011522541042252,-0.0010278453623548,0.0010278386226519,-0.0010278305233544,0.0010278534014001,8.7159927446132e-09,-1.0964342119503e-08,4.2980042566473e-09,-6.1076628392693e-09,-0.0010061945794279,0.0010061927796946,-0.0012200870077874,0.0012200950782515,-0.0012200903124341,0.0012200916240647,-0.0012200931866161,0.0012200886132912,-0.0012200964951294,0.0012200851550102,-0.0010974227081905,0.0010974246132775,-0.0010974327460632,0.0010974142015841,-0.00099731515815845,0.00099732907169443,-0.0009973344230569,0.00099730925852779,8.2800498928065e-09,-6.8657513750083e-09,-0.0013423250297176,0.001342326423328,-4.2524300992383e-09,5.9336437651384e-09,-0.0015786218939405,0.0015786248630072,-0.001578618510363,0.0015786281812511,-0.0015786269615045,0.0015786198397687,-0.001578623588184,0.0015786231604269,-0.0012575290961398,0.0012575190620542,-0.0012575142246392,0.0012575338731205,0.64191387305314,131329,3014,0.0038803874511524,0.0041856662909582,0.0055748356423141,25.087985111257,-3.9296119109945e-05,-3.9296119109945e-05,-3.9296119109945e-05,4137195.122917,0.013736098555507
29819200,0.99609434258559,0.014451793244117,0.0042879271322371,0.0045357377702799,0.0056281283416001,-0.00093293438118364,0.0009329359880558,-6.818874209103e-09,8.4272166933735e-09,-8.7744098760954e-09,1.0797202875981e-08,-0.0011527944084628,0.0011527845000423,-0.0011527893389856,0.0011527896043863,-0.0011527882822843,0.0011527909344127,-0.0011527832041851,0.0011527960213134,-0.0010284518817521,0.0010284450378895,-0.001028436933997,0.0010284599256364,8.7200508524282e-09,-1.0968164974265e-08,4.2974327193523e-09,-6.106834925434e-09,-0.0010067674493727,0.0010067656498434,-0.0012206453512057,0.0012206534238098,-0.0012206486553384,0.0012206499703623,-0.0012206515326437,0.0012206469566171,-0.0012206548408547,0.0012206434987227,-0.0010980182148635,0.0010980201166564,-0.0010980282518826,0.0010980097059272,-0.00099785624265301,0.00099787016523085,-0.00099787551583813,0.00099785034408248,8.3366512613794e-09,-6.9222529695705e-09,-0.001342988408114,0.0013429898017944,-4.2511502155143e-09,5.9324721133727e-09,-0.0015792852186929,0.0015792882261041,-0.0015792818356505,0.0015792915435832,-0.0015792903238673,0.0015792831653637,-0.0015792869515836,0.0015792864851931,-0.0012581283997206,0.0012581182534878,-0.0012581134166349,0.0012581331754647,0.67837704752236,131329,3014,0.0038827144849213,0.0041880412153646,0.0055775853639376,25.340158711231,-3.7278730310154e-05,-3.7278730310154e-05,-3.7278730310154e-05,4146124.0718871,0.013743648798582
30019200,0.99623726808924,0.01445375789821,0.0042885060191831,0.0045363438912425,0.0056289079877848,-0.000933465915726,0.00093346752246184,-6.875269802021e-09,8.4833703691232e-09,-8.7787426475557e-09,1.0801351663445e-08,-0.0011533768377729,0.0011533668889572,-0.0011533717307388,0.0011533720307806,-0.0011533707087885,0.0011533733260962,-0.001153365593086,0.0011533784504934,-0.0010290331796235,0.0010290262280749,-0.0010290181211183,0.0010290412256143,8.7242396773119e-09,-1.0972612145339e-08,4.2965662045696e-09,-6.1062012545772e-09,-0.0010073129450296,0.0010073111454529,-0.0012212406730365,0.0012212487481822,-0.001221243976638,0.0012212452951532,-0.0012212468572856,0.0012212422779431,-0.0012212501649584,0.0012212388205278,-0.0010986021422809,0.0010986040391007,-0.001098612177307,0.001098593629429,-0.000998408290963,0.00099842222185148,-0.00099842757267404,0.00099840239241329,8.3928200658139e-09,-6.9783623728197e-09,-0.0013436415797561,0.0013436429733799,-4.2504173072571e-09,5.9317962982537e-09,-0.0015799830646625,0.0015799861098239,-0.0015799796821536,0.0015799894268637,-0.0015799882072251,0.0015799810116149,-0.001579984835349,0.0015799843309368,-0.0012587593599587,0.0012587491036736,-0.00125874426691,0.0012587641355559,0.68873091367531,131329,3014,0.003884922235803,0.0041903050764632,0.0055802903758295,25.591040857159,-3.5271673142724e-05,-3.5271673142724e-05,-3.5271673142724e-05,4151012.5945278,0.013750923977853
30219200,0.99637700332396,0.014455585650072,0.004289041904492,0.0045369057772137,0.0056296379683666,-0.00093398263798651,0.00093398424474894,-6.9315863063258e-09,8.5397052558369e-09,-8.7822782950441e-09,1.0804945800705e-08,-0.0011539671659051,0.0011539571772138,-0.0011539620213579,0.0011539623565566,-0.0011539610345642,0.0011539636166752,-0.0011539558812723,0.001153968778678,-0.0010295963563774,0.0010295892968265,-0.0010295811874205,0.001029604404677,8.7275404253545e-09,-1.0975887526172e-08,4.2959713338596e-09,-6.1055501796512e-09,-0.0010078443446053,0.0010078425451114,-0.0012218425206058,0.001221850597691,-0.0012218458238564,0.0012218471450487,-0.0012218487070915,0.0012218441252305,-0.0012218520143277,0.0012218406682749,-0.0010991732041607,0.0010991750974558,-0.0010991832377755,0.0010991646890672,-0.00099895594031313,0.0009989698779401,-0.00099897522839736,0.00099895004219587,8.4489141528252e-09,-7.0344472706998e-09,-0.0013442850202859,0.0013442864138904,-4.2498570905184e-09,5.9312384010323e-09,-0.0015806854815538,0.0015806885644651,-0.0015806820994438,0.00158069188108,-0.0015806906615479,0.0015806834288415,-0.0015806872899986,0.0015806867478257,-0.0012593926640911,0.0012593822976942,-0.001259377461214,0.0012593974393001,0.66008313943409,131329,3014,0.0038870692584182,0.0041925111714185,0.0055829543512212,25.841877802121,-3.3264977583033e-05,-3.3264977583033e-05,-3.3264977583033e-05,4154748.8334233,0.013758038619882
30419200,0.99651383261577,0.014457265575331,0.0042895313580006,0.0045374198685958,0.0056303143487347,-0.00093457825068235,0.00093457985717727,-6.988055905483e-09,8.5958532461426e-09,-8.7806405467527e-09,1.0802977795385e-08,-0.0011545888030585,0.0011545787778172,-0.0011545836210001,0.0011545839946684,-0.0011545826729037,0.0011545852160009,-0.0011545774820238,0.001154590415597,-0.0010302423983896,0.001030235226861,-0.0010302271186162,0.0010302504446171,8.726596018266e-09,-1.0974869905127e-08,4.2946056632072e-09,-6.1041560398099e-09,-0.0010084548854301,0.0010084530861476,-0.0012224799948401,0.0012224880707475,-0.0012224832972314,0.001222484618989,-0.0012224861807089,0.0012224815988787,-0.0012224894870019,0.0012224781428926,-0.0010998159538178,0.0010998178446044,-0.0010998259841244,0.0010998074385638,-0.00099955538334935,0.00099956931956755,-0.00099957466955036,0.00099954948611552,8.5050881639241e-09,-7.0904920045717e-09,-0.0013449981018934,0.0013449994954862,-4.2485234732889e-09,5.9300284749359e-09,-0.001581430258737,0.0015814333797957,-0.0015814268775138,0.0015814366955227,-0.0015814354761667,0.0015814282067288,-0.0015814321054078,0.0015814315248946,-0.0012600627859275,0.001260052309246,-0.0012600474730602,0.0012600675604753,0.62526528708328,131329,3014,0.0038895420663602,0.0041950439855105,0.0055859085298656,26.129877291559,-3.0960981667525e-05,-3.0960981667525e-05,-3.0960981667525e-05,4161883.2890864,0.013766106795515
30619200,0.99664854921782,0.014459038336234,0.004290051523698,0.0045379651671909,0.0056310216453455,-0.00093539247022288,0.00093539407586415,-7.0448459622034e-09,8.6517100252563e-09,-8.769905307501e-09,1.0791207966769e-08,-0.0011553701195852,0.001155360063541,-0.0011553648999251,0.0011553653178919,-0.0011553639969414,0.0011553664941391,-0.0011553587684103,0.0011553717312415,-0.0010311205507539,0.0010311132605844,-0.0010311051605584,0.001031128588661,8.7153105828162e-09,-1.0962708314031e-08,4.2911912317465e-09,-6.0999433142213e-09,-0.0010092878083458,0.0010092860098912,-0.0012232853151478,0.0012232933816268,-0.0012232886149627,0.0012232899323008,-0.0012232914931648,0.0012232869173787,-0.0012232947968991,0.001223283463901,-0.0011006872971101,0.0011006891889915,-0.0011006973199208,0.001100678790515,-0.0010003503755903,0.0010003642919804,-0.0010003696386741,0.0010003444815923,8.5609543220749e-09,-7.1468600526841e-09,-0.0013459297436529,0.0013459311367739,-4.2450277335814e-09,5.9259899603392e-09,-0.0015823621758666,0.001582365336456,-0.0015823587972571,0.0015823686497271,-0.0015823674306602,0.0015823601259226,-0.0015823640623301,0.0015823634414981,-0.0012609161929313,0.0012609056034653,-0.0012609007704814,0.0012609209648833,0.66318231535563,131329,3014,0.0038929204914491,0.0041984977516258,0.0055897699331697,26.524257979212,-2.7805936166303e-05,-2.7805936166303e-05,-2.7805936166303e-05,4174144.6370885,0.013776944061322
30819200,0.99678107229789,0.014460870563111,0.0042905912704269,0.0045385304771133,0.0056317488155708,-0.00093618333273217,0.00093618493810928,-7.1011809848836e-09,8.707920399568e-09,-8.7601474898309e-09,1.078121989625e-08,-0.0011562074364177,0.0011561973490552,-0.0011562021793031,0.0011562026409642,-0.0011562013202723,0.0011562037730766,-0.0011561960543059,0.0011562090477832,-0.0010319800798828,0.001031972672808,-0.0010319645799856,0.0010319881113777,8.7049150482784e-09,-1.0951165055235e-08,4.2884582608651e-09,-6.0961927040763e-09,-0.0010101000212579,0.0010100982236788,-0.0012241428413278,0.0012241508990464,-0.0012241461391012,0.0012241474519977,-0.001224149012213,0.0012241444423556,-0.0012241523138408,0.001224140991111,-0.0011015557834655,0.0011015576775656,-0.0011015658003047,0.001101547285827,-0.0010011678754401,0.0010011817738589,-0.001001187116992,0.0010011619850348,8.6170018278621e-09,-7.2031526406901e-09,-0.0013468630485084,0.0013468644414456,-4.241900499028e-09,5.9225868633015e-09,-0.0015833453940595,0.001583348594121,-0.0015833420175244,0.0015833519051204,-0.0015833506863666,0.0015833433462048,-0.0015833473202703,0.0015833466596958,-0.0012618180929709,0.0012618073907159,-0.0012618025602843,0.0012618228620293,0.69236329461099,131329,3014,0.0038962048422631,0.0042018683603896,0.0055936354618165,26.921038472194,-2.4631692222446e-05,-2.4631692222446e-05,-2.4631692222446e-05,4181936.9861073,0.013787609984958
31019200,0.99691130532022,0.014462729895587,0.0042911402871278,0.0045391051846869,0.0056324844237727,-0.00093695085130228,0.00093695245621473,-7.1577064510106e-09,8.7639934548393e-09,-8.7512917551617e-09,1.0771821443602e-08,-0.0011570794056259,0.0011570692863532,-0.001157074110993,0.0011570746157871,-0.0011570732955404,0.0011570757042526,-0.0011570679920159,0.0011570810165287,-0.0010328189469859,0.001032811423084,-0.0010328033367712,0.0010328269718861,8.6959423782302e-09,-1.0941417196199e-08,4.285873988016e-09,-6.0929459044772e-09,-0.001010890444446,0.0010108886475298,-0.001225031432377,0.0012250394825906,-0.0012250347282565,0.0012250360374743,-0.0012250375970908,0.0012250330321429,-0.0012250408967804,0.0012250295828723,-0.0011024134782391,0.0011024153734242,-0.0011024234892735,0.0011024049874299,-0.001001996277811,0.0010020101604484,-0.0010020155009413,0.001001990390128,8.6730206247616e-09,-7.25939842342e-09,-0.0013477912073995,0.0013477926000892,-4.2391551400439e-09,5.9195830872412e-09,-0.0015843577719086,0.0015843610110722,-0.0015843543973002,0.00158436432012,-0.0015843631016514,0.0015843557257228,-0.0015843597374529,0.0015843590373138,-0.0012627512324271,0.0012627404181142,-0.0012627355897848,0.0012627559993249,0.71215833408882,131329,3014,0.003899394408722,0.0042051505014258,0.0055974775746655,27.317903083173,-2.1456775334614e-05,-2.1456775334614e-05,-2.1456775334614e-05,4186482.878556,0.013798069289825
31219200,0.99704027684704,0.014464669765715,0.0042917153914166,0.0045397065584174,0.0056332478158814,-0.0009379719896531,0.00093797359039863,-7.2165718113907e-09,8.8172153218302e-09,-8.7023397497883e-09,1.071722430783e-08,-0.0011582529485423,0.0011582428236316,-0.0011582476153277,0.0011582481912844,-0.0011582468732044,0.001158249206866,-0.0011582415323216,0.001158254555579,-0.0010339292042656,0.001033921535612,-0.0010339134846419,0.0010339371892583,8.7072075980307e-09,-1.0955199303698e-08,4.2768983610001e-09,-6.0868149051119e-09,-0.0010119416506862,0.0010119398523322,-0.001226223782414,0.0012262318358941,-0.0012262270720518,0.0012262283958375,-0.0012262299549859,0.0012262253760041,-0.0012262332504482,0.0012262219308475,-0.0011035527859653,0.0011035546574151,-0.0011035627833104,0.0011035442817117,-0.0010031177645427,0.0010031316765068,-0.0010031370167186,0.0010031118779521,8.7291878547148e-09,-7.315949406944e-09,-0.0013490134320466,0.0013490148239188,-4.2349170905428e-09,5.9148918975244e-09,-0.0015856915557637,0.0015856948334024,-0.0015856881843568,0.0015856981409769,-0.0015856969222792,0.0015856895117074,-0.0015856935612123,0.001585692818843,-0.0012640048492009,0.0012639939212252,-0.0012639890928771,0.0012640096152214,0.74546030998966,131329,3014,0.0039036386975066,0.0042095162395215,0.0056025359320403,27.867605467721,-1.7059156258231e-05,-1.7059156258231e-05,-1.7059156258231e-05,4191851.6446942,0.013811931680591
31419200,0.99716793973425,0.014466491734809,0.0042922527951089,0.0045402693031695,0.0056339696365309,-0.00093898738895738,0.00093898898988865,-7.2723867779583e-09,8.8744132582666e-09,-8.6669149027283e-09,1.0682459123559e-08,-0.001159488342031,0.0011594782011192,-0.0011594829714275,0.0011594836064406,-0.0011594822889028,0.0011594845615609,-0.0011594769111402,0.0011594899480285,-0.0010350295530526,0.0010350217488226,-0.0010350137246121,0.0010350375149906,8.7107170167662e-09,-1.0957446546761e-08,4.2714012589204e-09,-6.0797070326785e-09,-0.0010129902326501,0.0010129884348174,-0.0012274740611775,0.0012274821110402,-0.0012274773469767,0.0012274786759753,-0.0012274802353868,0.0012274756509086,-0.0012274835267532,0.0012274722100051,-0.001104692241481,0.0011046940999318,-0.0011047022276355,0.0011046837380766,-0.0010042729061802,0.0010042868287867,-0.0010042921619384,0.0010042670263189,8.7848929275513e-09,-7.3720559809266e-09,-0.0013502567159169,0.0013502581077052,-4.2307250875762e-09,5.9102403844779e-09,-0.0015870819018805,0.0015870852199474,-0.0015870785324698,0.0015870885239748,-0.0015870873055887,0.001587079860677,-0.0015870839480227,0.0015870831652868,-0.0012653135497952,0.0012653025067374,-0.0012652976845846,0.0012653183104504,0.71242631519026,131329,3014,0.0039078614498792,0.0042138731443064,0.0056076791070329,28.435736293823,-1.2514109649418e-05,-1.2514109649418e-05,-1.2514109649418e-05,4194583.5488336,0.013825852104919
31619200,0.99729410732126,0.014468199872073,0.0042927541773577,0.0045407949928975,0.0056346507018177,-0.00094001843078212,0.00094002003368663,-7.3275775063312e-09,8.9317096001086e-09,-8.7053874730354e-09,1.0723359333704e-08,-0.0011606796064125,0.0011606694038104,-0.0011606741992076,0.0011606748457504,-0.0011606735272865,0.0011606757904666,-0.0011606681111318,0.0011606812153485,-0.0010361397594054,0.0010361318712035,-0.0010361238182756,0.0010361477500125,8.6480492366635e-09,-1.089029850663e-08,4.2710874525585e-09,-6.075600615676e-09,-0.0010140519077691,0.0010140501136438,-0.001228682697251,0.0012286907061592,-0.0012286859825174,0.0012286872716576,-0.0012286888286257,0.0012286842892478,-0.0012286921176785,0.0012286808507016,-0.0011058266886569,0.0011058285875893,-0.0011058366679124,0.0011058182326831,-0.0010054058328387,0.0010054196308795,-0.0010054249583883,0.0010053999588714,8.8407972542419e-09,-7.4284735333503e-09,-0.0013514993433129,0.0013515007345382,-4.2239222279577e-09,5.9028577666001e-09,-0.0015884322708517,0.001588435631481,-0.0015884289071701,0.0015884389298532,-0.0015884377129433,0.001588430233917,-0.0015884343593124,0.0015884335346976,-0.0012665855183712,0.001266574362508,-0.0012665695457742,0.0012665902736764,0.68057768320863,131329,3014,0.0039121469844252,0.0042182821151739,0.0056128215555377,29.004324830751,-7.9654013539886e-06,-7.9654013539886e-06,-7.9654013539886e-06,4200959.4998098,0.013839885127874
31819200,0.9974164595829,0.014469792799512,0.0042932199367358,0.0045412838365387,0.0056352890262372,-0.00094052966844965,0.00094053127152985,-7.3839514914387e-09,8.988371509685e-09,-8.7153677811732e-09,1.0733809201056e-08,-0.0011612664904776,0.0011612562441446,-0.0011612610456956,0.0011612617231194,-0.0011612604054161,0.001161262637029,-0.0011612549508967,0.0011612680996946,-0.0010367005924376,0.0010366926002244,-0.0010366845404247,0.001036708592012,8.6786660712602e-09,-1.0921571925535e-08,4.274748767813e-09,-6.0796925283214e-09,-0.0010145798515732,0.001014578056565,-0.001229281157406,0.0012292891892796,-0.0012292844453133,0.0012292857515196,-0.0012292873100072,0.0012292827505362,-0.0012292906009418,0.0012292793095369,-0.0011063910732904,0.0011063929586356,-0.0011064010602358,0.0011063825984752,-0.001005956676147,0.0010059705325279,-0.0010059758613316,0.0010059507991574,8.8964187829835e-09,-7.484595249341e-09,-0.0013521480758017,0.0013521494668972,-4.2294060320195e-09,5.9078456533412e-09,-0.0015891376947169,0.0015891410896132,-0.0015891343279811,0.0015891443913184,-0.001589143174244,0.0015891356542268,-0.0015891398167189,0.001589138958946,-0.0012672245306105,0.0012672132690235,-0.0012672084505005,0.0012672292892262,0.65805654580841,131329,3014,0.0039142715112574,0.0042204737987548,0.0056155068734756,29.266188041606,-5.8704956671528e-06,-5.8704956671528e-06,-5.8704956671528e-06,4204929.5742687,0.013846984473499
32019200,0.99753338623558,0.014471476595743,0.0042937170484622,0.0045418041591727,0.0056359553881077,-0.00094063311049611,0.00094063471481195,-7.4397570435292e-09,9.0453596402661e-09,-8.7549969205596e-09,1.077502510485e-08,-0.0011613718725623,0.0011613615627648,-0.001161366389907,0.0011613670793932,-0.0011613657605824,0.0011613679828364,-0.0011613602684517,0.0011613734828212,-0.0010368387356048,0.0010368306616878,-0.0010368225740327,0.0010368467640175,8.7236608548951e-09,-1.0968491989989e-08,4.2854322191537e-09,-6.0917819551737e-09,-0.0010146892168584,0.0010146874201446,-0.00122939370539,0.001229401773423,-0.0012293970005461,0.001229398328008,-0.0012293998880532,0.0012293953039708,-0.0012294031866066,0.0012293918551076,-0.0011065201309555,0.0011065220073985,-0.0011065301412011,0.0011065116251456,-0.0010060547292413,0.0010060686674068,-0.0010060740043088,0.0010060488425901,8.9525765999302e-09,-7.540364477747e-09,-0.0013523268600186,0.0013523282517505,-4.2408397790499e-09,5.9197446062187e-09,-0.0015893307227167,0.0015893341478775,-0.0015893273481931,0.0015893374576279,-0.0015893362393444,0.0015893286752863,-0.0015893328740715,0.0015893319874539,-0.001267368593038,0.0012673572293495,-0.00126735240373,0.0012673733604346,0.71766340322265,131329,3014,0.0039147005746934,0.0042209266406599,0.0056162480470916,29.281031915063,-5.7517446794973e-06,-5.7517446794973e-06,-5.7517446794973e-06,4206564.689579,0.013848628213653
32219200,0.9976450868857,0.014473124825606,0.0042942045069392,0.0045423141485961,0.0056366061700711,-0.00094068301829867,0.000940684624691,-7.4947479980639e-09,9.1024447470023e-09,-8.7972672208486e-09,1.081968519275e-08,-0.0011615278758015,0.0011615175015308,-0.0011615223559628,0.0011615230560356,-0.0011615217345413,0.0011615239506993,-0.0011615162056537,0.001161529488238,-0.0010369223231934,0.0010369141707371,-0.0010369060518656,0.0010369303812175,8.7568076095152e-09,-1.100439023961e-08,4.2959364711696e-09,-6.1045688931513e-09,-0.0010147467533443,0.0010147449547381,-0.0012295504042297,0.0012295585012482,-0.0012295537073751,0.0012295550487408,-0.0012295566100374,0.0012295520094822,-0.0012295599168432,0.0012295485530367,-0.0011066150605413,0.0011066169341354,-0.0011066250929872,0.0011066065274189,-0.0010061581080995,0.001006172103259,-0.0010061774524155,0.0010061522112355,9.0099298948852e-09,-7.5956772065105e-09,-0.0013524778098662,0.0013524792032984,-4.2508141281933e-09,5.9319051696336e-09,-0.0015895579044691,0.0015895613608922,-0.0015895545220141,0.0015895646778735,-0.0015895634587072,0.001589555851206,-0.0015895600863237,0.0015895591707048,-0.001267552037482,0.0012675405725262,-0.0012675357357693,0.0012675568131469,0.73340853513359,131329,3014,0.0039149111053964,0.0042211680852037,0.0056168703643246,29.290225333835,-5.6781973293187e-06,-5.6781973293187e-06,-5.6781973293187e-06,4202090.4084907,0.013849720905632
32419200,0.99775179057716,0.014474742850368,0.0042946841446002,0.0045428155896655,0.0056372431161027,-0.00094071751358615,0.00094071912126825,-7.5503573879999e-09,9.1592968485038e-09,-8.83185563052e-09,1.0855872126088e-08,-0.001161694658107,0.0011616842241101,-0.0011616891008391,0.0011616898160605,-0.0011616884934259,0.0011616906968362,-0.0011616829269792,0.0011616962719259,-0.001036990388227,0.0010369821503934,-0.0010369740065065,0.0010369984709821,8.7878984298969e-09,-1.1037117761612e-08,4.3063500632906e-09,-6.1162855490078e-09,-0.0010147886254523,0.0010147868255847,-0.0012297146163679,0.0012297227408969,-0.0012297179269204,0.0012297192809573,-0.0012297208434087,0.0012297162277206,-0.0012297241575012,0.0012297127639516,-0.0011066962663096,0.0011066981388201,-0.0011067063201101,0.0011066877104068,-0.0010062630635874,0.0010062771123815,-0.0010062824704132,0.0010062571576899,9.0665330959316e-09,-7.6513178019638e-09,-0.001352617811053,0.0013526192053823,-4.260888966061e-09,5.9430489764332e-09,-0.0015897859100636,0.0015897893977334,-0.0015897825205757,0.0015897927217142,-0.0015897915017649,0.0015897838505827,-0.0015897881222214,0.0015897871772005,-0.001267743207575,0.0012677316409122,-0.0012677267959869,0.0012677479912732,0.75109427156016,131329,3014,0.0039150586217282,0.004221345377386,0.0056174462918935,29.299219799509,-5.606241603924e-06,-5.606241603924e-06,-5.606241603924e-06,4196507.3928911,0.013850638665947
32619200,0.9978534574503,0.014476156286994,0.004295099948876,0.0045432511573851,0.0056378051807334,-0.00094064707855671,0.00094064868728738,-7.6049287967337e-09,9.2149582980553e-09,-8.8560099316227e-09,1.0881395418457e-08,-0.0011617832133549,0.0011617727268102,-0.0011617776190525,0.0011617783559402,-0.0011617770319424,0.0011617792164307,-0.001161771429156,0.0011617848279744,-0.0010369419186243,0.0010369335918826,-0.0010369254307884,0.0010369500199471,8.8178222078584e-09,-1.10679687036e-08,4.3164943967333e-09,-6.1270977728034e-09,-0.0010147230953727,0.0010147212945826,-0.0012297961364412,0.0012298042868299,-0.001229799453684,0.0012298008203436,-0.0012298023835242,0.0012297977538134,-0.0012298057050134,0.0012297942827783,-0.0011066607155439,0.0011066625893184,-0.0011066707916787,0.0011066521400459,-0.001006272558391,0.0010062866609051,-0.0010062920258437,0.0010062666449399,9.1239105448546e-09,-7.7083890744756e-09,-0.0013526502147369,0.0013526516095614,-4.2709164337876e-09,5.9534498347824e-09,-0.0015899180710964,0.001589921590377,-0.0015899146743934,0.0015899249214706,-0.0015899237006968,0.001589916005581,-0.0015899203147127,0.0015899193386863,-0.0012678432339766,0.0012678315609363,-0.0012678267091882,0.0012678480244526,0.69653887996861,131329,3014,0.0039147713808937,0.0042210778168197,0.0056175755499838,29.262857430003,-5.8971405599774e-06,-5.8971405599774e-06,-5.8971405599774e-06,4188959.5096772,0.013850212693217
32819200,0.99795021306621,0.014477385787588,0.0042954587242271,0.0045436277544224,0.0056382993089388,-0.00094057164940558,0.00094057325821979,-7.6622488322048e-09,9.2722958684907e-09,-8.8773763722161e-09,1.0902974767076e-08,-0.0011617625325889,0.0011617519937548,-0.0011617569003163,0.0011617576607511,-0.0011617563371048,0.0011617584974695,-0.0011617506957278,0.001161764147509,-0.0010368805099616,0.0010368720841108,-0.0010368639082758,0.0010368886247789,8.8296674176409e-09,-1.1080566951872e-08,4.3251062782336e-09,-6.1363395371762e-09,-0.0010146481977736,0.0010146463965351,-0.0012297726130815,0.0012297807774568,-0.0012297759364858,0.0012297773046544,-0.0012297788684067,0.001229774235976,-0.0012297821954282,0.0012297707592458,-0.0011065921424935,0.0011065940235194,-0.0011066022344465,0.0011065835569737,-0.0010062160473381,0.001006230165816,-0.0010062355378397,0.0010062101270529,9.1793051882333e-09,-7.763034919612e-09,-0.0013526372900504,0.0013526386854477,-4.2794653620649e-09,5.9628481758166e-09,-0.0015899409396983,0.0015899444903547,-0.0015899375373204,0.0015899478271383,-0.0015899466062057,0.0015899388685327,-0.0015899432138788,0.0015899422079113,-0.0012678364596843,0.0012678246867875,-0.0012678198280009,0.0012678412571119,0.64446137041639,131329,3014,0.0039144596698846,0.0042207678569047,0.0056175206122111,29.204354073927,-6.3651674085813e-06,-6.3651674085813e-06,-6.3651674085813e-06,4186603.0107303,0.013849527055778
33019200,0.99804230565979,0.014478665245049,0.0042958356126274,0.0045440222779568,0.0056388073544644,-0.00094054606422244,0.000940547673241,-7.7183313517165e-09,9.3285848454011e-09,-8.8871863351461e-09,1.0913091524427e-08,-0.0011616837362565,0.0011616731535443,-0.001161678066528,0.0011616788580011,-0.0011616775341615,0.0011616796638635,-0.001161671855343,0.0011616853513442,-0.0010368710794202,0.0010368625505621,-0.0010368543679467,0.0010368792013138,8.8392834902024e-09,-1.1090743911826e-08,4.3327662450389e-09,-6.144387511717e-09,-0.0010146211010469,0.0010146192994172,-0.0012296977358108,0.0012297059117071,-0.0012297010644375,0.0012297024337015,-0.001229703997734,0.0012296993635961,-0.0012297073299935,0.001229695881643,-0.0011065623088469,0.0011065641983817,-0.0011065724163495,0.001106553716658,-0.0010061524985881,0.0010061666308362,-0.0010061720086424,0.001006146572514,9.236076272151e-09,-7.8186079504823e-09,-0.0013526390414946,0.0013526404381457,-4.2866440553489e-09,5.9712862006878e-09,-0.0015899165307185,0.0015899201149001,-0.001589913123081,0.0015899234568834,-0.0015899222346857,0.0015899144556293,-0.0015899188371502,0.0015899178001976,-0.0012677850424176,0.0012677731657497,-0.0012677683006848,0.001267789846198,0.69524136834801,131329,3014,0.0039143510797497,0.0042206528473864,0.0056175302329052,29.145339184668,-6.8372865226526e-06,-6.8372865226526e-06,-6.8372865226526e-06,4189381.8078657,0.013849305850118
33219200,0.99812997297606,0.014479951508248,0.0042962162358524,0.0045444202405125,0.0056393150318832,-0.00094048653945497,0.00094048814838301,-7.7745832329366e-09,9.3847420158381e-09,-8.8908897415684e-09,1.0916733356025e-08,-0.001161663054641,0.001161652431893,-0.0011616573474386,0.0011616581738495,-0.0011616568500944,0.0011616589446771,-0.0011616511338134,0.0011616646696423,-0.0010368314800899,0.0010368228434774,-0.0010368146583678,0.0010368396040435,8.8424815628902e-09,-1.109383532185e-08,4.3394728073386e-09,-6.1509770324707e-09,-0.0010145619965279,0.0010145601950426,-0.0012296757972374,0.0012296839797708,-0.0012296791302668,0.0012296804973394,-0.0012296820612577,0.0012296774295956,-0.0012296853979207,0.0012296739432001,-0.0011065200596966,0.0011065219601388,-0.0011065301799532,0.0011065114650527,-0.0010061065635961,0.0010061206976743,-0.001006126079887,0.001006100633252,9.292573624725e-09,-7.8743982484799e-09,-0.001352630584565,0.0013526319818458,-4.2928362219472e-09,5.9782668654627e-09,-0.0015899393980477,0.0015899430158012,-0.0015899359860072,0.0015899463621763,-0.0015899451394405,0.0015899373191258,-0.0015899417375162,0.0015899406680871,-0.0012677787151933,0.0012677667337043,-0.0012677618633337,0.0012677835240789,0.72922792141268,131329,3014,0.0039141049035667,0.0042204082974904,0.0056174944495281,29.086306245167,-7.3095500386668e-06,-7.3095500386668e-06,-7.3095500386668e-06,4186895.7578902,0.013848772646756
33419200,0.9982147928496,0.014481222328452,0.0042965929123131,0.004544813890776,0.0056398155253634,-0.0009409012718187,0.00094090287846439,-7.8306768817847e-09,9.4384410511047e-09,-8.8478605356988e-09,1.0870776613207e-08,-0.0011621999420479,0.0011621893096767,-0.001162194197651,0.001162195088731,-0.0011621937664287,0.0011621957932002,-0.0011621880140596,0.0011622015541756,-0.0010372869430031,0.0010372781680025,-0.0010372700140538,0.001037295033264,8.8242941051084e-09,-1.1075618648203e-08,4.3364124601068e-09,-6.1479097535909e-09,-0.0010149899025328,0.0010149881015749,-0.0012302163403932,0.00123022450925,-0.0012302196707827,0.0012302210293656,-0.0012302225917637,0.0012302179716041,-0.0012302259268648,0.0012302144866615,-0.0011069919211368,0.001106993828238,-0.0011070020355841,0.0011069833361497,-0.0010065940848746,0.0010066081852197,-0.0010066135678509,0.0010065881562546,9.3502247435818e-09,-7.9317174808873e-09,-0.0013531583937795,0.0013531597910099,-4.2904884576404e-09,5.9762528928411e-09,-0.0015905464226241,0.0015905500791844,-0.0015905430115333,0.0015905534247123,-0.001590552201702,0.0015905443446328,-0.0015905488017727,0.0015905476915995,-0.0012683506919555,0.0012683385958633,-0.0012683337254755,0.0012683555000098,0.74278653965027,131329,3014,0.0039158305243933,0.0042221870451382,0.0056196771543684,29.312153162286,-5.5027747017139e-06,-5.5027747017139e-06,-5.5027747017139e-06,4186364.3121186,0.013854542791371
33619200,0.99829715732179,0.014482456652957,0.0042969587301119,0.0045451961899279,0.0056403017329177,-0.000941432806044,0.00094143441118424,-7.8905675822826e-09,9.4959864036043e-09,-8.8422212157996e-09,1.0863074293419e-08,-0.0011628865429908,0.0011628758762156,-0.0011628807599278,0.0011628816935233,-0.0011628803733306,0.0011628823543118,-0.0011628745802541,0.0011628881551432,-0.0010378649068987,0.0010378560098517,-0.0010378478604045,0.0010378729921311,8.7515545278678e-09,-1.0998300893075e-08,4.3328280899515e-09,-6.1409454528916e-09,-0.0010155380057978,0.0010155362086197,-0.0012309066661925,0.0012309147867619,-0.0012309099935992,0.0012309113088598,-0.0012309128684338,0.0012309082973611,-0.0012309161991218,0.0012309048166196,-0.0011075905274117,0.0011075924758935,-0.0011076006295233,0.001107581996851,-0.0010072187701616,0.0010072327291092,-0.001007238103486,0.0010072128486234,9.40325843638e-09,-7.9860667551425e-09,-0.001353830135673,0.001353831531707,-4.2848866357134e-09,5.9692141055477e-09,-0.0015913142952447,0.0015913179916172,-0.0015913108901214,0.0015913213326277,-0.0015913201108968,0.0015913122206751,-0.0015913167139978,0.0015913155638868,-0.0012690810735989,0.0012690688700051,-0.0012690640047729,0.0012690858778407,0.74303043589935,131329,3014,0.0039180421786624,0.0042244654174329,0.0056224548927477,29.614033144762,-3.0877348419022e-06,-3.0877348419022e-06,-3.0877348419022e-06,4186416.6004875,0.01386191668717
33819200,0.99837707624742,0.014483658247774,0.0042973149190919,0.0045455683797444,0.0056407749489372,-0.00094196036511279,0.00094196196919937,-7.9462939227046e-09,9.5514932723193e-09,-8.7897799260509e-09,1.0809612855159e-08,-0.0011635708364089,0.0011635601657687,-0.0011635650164714,0.0011635660203927,-0.0011635647011698,0.0011635666085983,-0.0011635588718683,0.0011635724465564,-0.0010384383741121,0.0010384293317205,-0.0010384212203686,0.0010384464236777,8.7270508751529e-09,-1.0971003330434e-08,4.3275537983289e-09,-6.1329466410995e-09,-0.0010160811526775,0.0010160793575487,-0.0012315933484888,0.0012316014485208,-0.0012315966717458,0.0012315979758845,-0.0012315995338998,0.0012315949774711,-0.0012316028605036,0.0012315915012084,-0.0011081808748948,0.0011081828309106,-0.0011081909651227,0.0011081723653683,-0.0010078408332517,0.0010078547494962,-0.0010078601161594,0.0010078349199368,9.4599052209773e-09,-8.043019568979e-09,-0.001354498136774,0.0013544995326814,-4.2785101515106e-09,5.9624633256323e-09,-0.0015920766334511,0.0015920803719538,-0.0015920732316952,0.0015920837081869,-0.0015920824869007,0.0015920745631145,-0.0015920790949459,0.0015920779021933,-0.0012698097453494,0.001269797424097,-0.0012697925646002,0.0012698145429998,0.74517770280808,131329,3014,0.0039202374687556,0.004226723181717,0.0056252168813699,29.917706355138,-6.5834915889955e-07,-6.5834915889955e-07,-6.5834915889955e-07,4186698.839663,0.013869236918736
34019200,0.99845455394689,0.01448478555239,0.0042976481183062,0.0045459167954941,0.0056412206385895,-0.00094248083436066,0.00094248243670319,-8.0030549928106e-09,9.6066590514544e-09,-8.7512394569946e-09,1.0769007544006e-08,-0.0011642487533436,0.0011642380699051,-0.0011642428960024,0.0011642439619322,-0.0011642426441695,0.0011642444864132,-0.0011642367776374,0.0011642503616003,-0.0010390025668537,0.0010389933870155,-0.0010389853038433,0.001039010588334,8.6949903494783e-09,-1.0936745588779e-08,4.3215193232e-09,-6.1250690254895e-09,-0.0010166166847879,0.0010166148914728,-0.0012322731302059,0.0012322812051195,-0.00123227644878,0.0012322777372244,-0.0012322792934853,0.0012322747564427,-0.0012322826155712,0.0012322712847295,-0.0011087607917939,0.0011087627583902,-0.0011087708687837,0.0011087523063006,-0.0010084553732422,0.0010084692309476,-0.0010084745910906,0.0010084494668234,9.5160450698258e-09,-8.0997604769362e-09,-0.0013551595460945,0.0013551609413924,-4.2720738232831e-09,5.9553424266415e-09,-0.0015928308417123,0.0015928346216848,-0.0015928274443854,0.0015928379534676,-0.0015928367326561,0.001592828775281,-0.0015928333453159,0.0015928321097612,-0.0012705318877399,0.0012705194504527,-0.0012705145963507,0.0012705366803897,0.7242654631588,131329,3014,0.0039224033590072,0.0042289492695502,0.0056279514842454,30.221443078197,1.7715446255743e-06,1.7715446255743e-06,1.7715446255743e-06,4187038.1166908,0.013876467344397
34219200,0.99853089556277,0.01448586411151,0.0042979661115752,0.0045462495068163,0.0056416484931183,-0.00094355461377432,0.00094355621398342,-8.0612110916817e-09,9.6626427373383e-09,-8.7031750588584e-09,1.0718145068702e-08,-0.0011654636391813,0.001165452948724,-0.0011654577440088,0.0011654588787922,-0.0011654575627542,0.0011654593320207,-0.0011654516581692,0.0011654652454959,-0.001040145902641,0.0010401365753011,-0.0010401285266325,0.0010401538877337,8.6391220566931e-09,-1.0878626480552e-08,4.3081977709115e-09,-6.1098937171083e-09,-0.0010177168338141,0.0010177150427881,-0.0012335014981738,0.0012335095283604,-0.0012335048075647,0.0012335060699797,-0.0012335076237995,0.0012335031177429,-0.0012335109364517,0.0012334996557704,-0.0011099227226837,0.0011099247001164,-0.0011099327703904,0.0011099142753326,-0.0010096270996575,0.0010096408550448,-0.0010096462059045,0.001009621204619,9.5711612553583e-09,-8.1555032570325e-09,-0.0013564183376415,0.0013564197320078,-4.257799631938e-09,5.9403147964606e-09,-0.001594173292379,0.0015941771179995,-0.0015941699049139,0.0015941804398364,-0.0015941792203964,0.0015941712345856,-0.0015941758427378,0.001594174559422,-0.0012718287461814,0.0012718161906557,-0.0012718113459907,0.0012718335283132,0.70594349834534,131329,3014,0.0039268657622567,0.004233517298214,0.0056331610338573,30.833387397279,6.6670991782308e-06,6.6670991782308e-06,6.6670991782308e-06,4195055.4321278,0.013890908907283
34419200,0.9986061045768,0.014486931310217,0.004298280820656,0.0045465787603315,0.0056420717292297,-0.00094469705333655,0.00094469865141754,-8.1169504230304e-09,9.7163886882893e-09,-8.6509281022024e-09,1.0663431843947e-08,-0.0011667186892805,0.0011667079956162,-0.0011667127574553,0.0011667139623843,-0.0011667126481326,0.0011667143433269,-0.0011667067072846,0.0011667202931615,-0.0010413604006169,0.0010413509289488,-0.0010413429181748,0.0010413683481189,8.6074481258835e-09,-1.0844614018984e-08,4.2940420010554e-09,-6.0939508874933e-09,-0.0010188865885312,0.0010188847992581,-0.0012347732693428,0.0012347812690666,-0.0012347765686267,0.0012347778209721,-0.0012347793731418,0.0012347748806463,-0.0012347826760318,0.0012347714285671,-0.0011111516314921,0.0011111536037451,-0.001111161650459,0.0011111432081351,-0.001010849959349,0.0010108636633442,-0.0010108690014237,0.0010108440767685,9.6283664052508e-09,-8.2138126190745e-09,-0.0013577456367741,0.0013577470300122,-4.2447887026777e-09,5.9260609294064e-09,-0.001595568626941,0.0015955724988867,-0.0015955652483191,0.0015955758117651,-0.0015955745933166,0.0015955665771511,-0.0015955712249528,0.0015955698927449,-0.0012731719245599,0.0012731592449534,-0.0012731544107094,0.0012731766963769,0.70867959613486,131329,3014,0.0039316121751184,0.0042383730573074,0.0056386553669851,31.477282380257,1.1818259042054e-05,1.1818259042054e-05,1.1818259042054e-05,4205306.2088677,0.013906217665518
34619200,0.99868004481756,0.014488027140887,0.0042986050969066,0.0045469177135421,0.0056425043304385,-0.00094583886801907,0.00094584046467052,-8.1735589040625e-09,9.7716082301055e-09,-8.6181132930546e-09,1.0628899582355e-08,-0.0011679773385601,0.0011679666285065,-0.0011679713692626,0.001167972632527,-0.0011679713196851,0.0011679729538846,-0.001167965341495,0.0011679789408362,-0.0010425779364481,0.0010425683317492,-0.0010425603450813,0.0010425858606942,8.5782405908022e-09,-1.0813285499966e-08,4.2815569026242e-09,-6.0796560186495e-09,-0.0010200562740363,0.0010200544864056,-0.0012360490822783,0.0012360570542904,-0.0012360523725217,0.0012360536150715,-0.0012360551657597,0.0012360506861382,-0.001236058459758,0.0012360472428156,-0.0011123849409482,0.0011123869095513,-0.0011123949345123,0.0011123765404976,-0.0010120750060841,0.001012088661988,-0.001012093988696,0.0010120691346617,9.6842065067858e-09,-8.2711552387674e-09,-0.0013590769346317,0.001359078326503,-4.2324065283564e-09,5.9120201961941e-09,-0.0015969720133614,0.0015969759305432,-0.0015969686436176,0.0015969792347546,-0.0015969780172835,0.0015969699711256,-0.0015969746578129,0.0015969732778014,-0.0012745213558817,0.0012745085547775,-0.0012745037314646,0.0012745261176907,0.73613739844892,131329,3014,0.003936356181484,0.0042432286833277,0.0056441660915755,32.121985460345,1.6975883682757e-05,1.6975883682757e-05,1.6975883682757e-05,4215138.6289278,0.013921541057218
34819200,0.9987537198145,0.014489129010081,0.0042989312237226,0.0045472586004916,0.005642939185867,-0.00094745755983473,0.00094745915423083,-8.2303409562627e-09,9.8256300435115e-09,-8.5771323048486e-09,1.0584745445675e-08,-0.0011697865034886,0.0011697757826206,-0.0011697804967752,0.0011697818241907,-0.0011697805123297,0.0011697820797756,-0.0011697744976987,0.0011697881032684,-0.0010442992832663,0.0010442895400692,-0.0010442815823727,0.0010443071737113,8.5425476488189e-09,-1.0777803656871e-08,4.2631041818335e-09,-6.0617840007157e-09,-0.0010217156884844,0.0010217139014017,-0.0012378815426771,0.001237889479983,-0.0012378848204517,0.0012378860533434,-0.001237887602026,0.0012378831356783,-0.0012378908846477,0.0012378797040801,-0.0011141396197151,0.0011141415754183,-0.0011141495764803,0.0011141312382499,-0.0010138309231694,0.0010138445198497,-0.0010138498384318,0.0010138250629474,9.7412062453064e-09,-8.3285154125123e-09,-0.00136095999329,0.0013609613841476,-4.2144394708259e-09,5.8935523911964e-09,-0.0015989691293747,0.0015989730947367,-0.0015989657714685,0.0015989763873612,-0.0015989751708338,0.0015989670977473,-0.0015989718239003,0.0015989703915957,-0.0012764545235083,0.0012764415978689,-0.0012764367848234,0.0012764592732845,0.74236048508802,131329,3014,0.0039430825616195,0.0042501185542168,0.0056519595693749,33.053057351435,2.4424458811479e-05,2.4424458811479e-05,2.4424458811479e-05,4227427.118564,0.013943255181938
35019200,0.99882728175068,0.01449019283595,0.0042992449502788,0.0045475868621213,0.0056433610235494,-0.00094923736304322,0.00094923895879601,-8.2868805105182e-09,9.8843033179362e-09,-8.5565250609152e-09,1.0565960082349e-08,-0.001171785085947,0.0011717743417569,-0.0011717790417459,0.0011717804206174,-0.0011717791089366,0.0011717806252218,-0.0011717730548269,0.0011717866881871,-0.001046190698508,0.0010461808293079,-0.0010461728844102,0.0010461985796337,8.5090949334049e-09,-1.0740485782273e-08,4.2465269500819e-09,-6.0416247816279e-09,-0.0010235404112959,0.001023538627071,-0.001239905001602,0.0012399129063173,-0.0012399082682023,0.0012399094912554,-0.0012399110392579,0.0012399065859085,-0.0012399143082536,0.0012399031675665,-0.0011160673935549,0.0011160693399092,-0.0011160773149564,0.0011160590416977,-0.001015766651078,0.0010157801927714,-0.0010157854947249,0.0010157608064739,9.7952047443364e-09,-8.3845893077874e-09,-0.0013630384285522,0.0013630398175973,-4.1988430606679e-09,5.8756601720856e-09,-0.0016011748743587,0.0016011788866729,-0.001601171528383,0.0016011821671535,-0.0016011809538875,0.0016011728523689,-0.001601177617572,0.0016011761369269,-0.0012785908983675,0.0012785778536227,-0.0012785730524207,0.0012785956329807,0.72136489360985,131329,3014,0.0039504788172892,0.004257694975248,0.0056605611312381,34.085268965158,3.2682151721261e-05,3.2682151721261e-05,3.2682151721261e-05,4240844.2273976,0.013967165369458
35219200,0.99890044882528,0.014491218024899,0.004299546242158,0.0045479024100736,0.0056437693726677,-0.00095102811945368,0.00095102971363063,-8.3445499114046e-09,9.9402140959591e-09,-8.546251058073e-09,1.0553885818827e-08,-0.0011737617266051,0.0011737509498209,-0.0011737556440083,0.0011737570670449,-0.0011737557563289,0.0011737572261175,-0.0011737496649214,0.0011737633263199,-0.0010480955037943,0.0010480855153837,-0.0010480775796688,0.0010481033762701,8.4970877395243e-09,-1.0727747644501e-08,4.2332201932771e-09,-6.0277903172273e-09,-0.001025375798579,0.0010253740146914,-0.0012419088043722,0.0012419166913902,-0.0012419120614476,0.0012419132856267,-0.0012419148326518,0.0012419103789894,-0.0012419180934622,0.0012419069690769,-0.0011180017026539,0.0011180036320778,-0.0011180115980706,0.0011179933607982,-0.0010176956460633,0.0010177091749983,-0.0010177144655112,0.0010176898120605,9.8502231348565e-09,-8.4412360785615e-09,-0.001365123665561,0.0013651250531622,-4.1837095696915e-09,5.8587297130053e-09,-0.0016033681345676,0.00160337219338,-0.0016033647988841,0.0016033754635665,-0.0016033742504371,0.0016033661220143,-0.0016033709251029,0.0016033693946923,-0.0012807104606737,0.0012806972923991,-0.0012806925066318,0.0012807151842782,0.70214230314692,131329,3014,0.0039579194107923,0.0042653143892034,0.0056691918141995,35.119847461372,4.0958779690978e-05,4.0958779690978e-05,4.0958779690978e-05,4256113.3804508,0.013991192363462
35419200,0.99897207391873,0.014492187163868,0.0042998299392066,0.0045481998582973,0.005644157366364,-0.00095243723624992,0.00095243883206016,-8.4005935318399e-09,9.9980754128062e-09,-8.5808147392351e-09,1.0590604874614e-08,-0.0011753046327111,0.0011752937958692,-0.0011752985122156,0.0011752999508376,-0.0011752986390766,0.0011753000958803,-0.001175292509473,0.0011753062341067,-0.0010496004704404,0.0010495903962306,-0.0010495824362691,0.0010496083707578,8.5173464501075e-09,-1.0747582589253e-08,4.2284076064316e-09,-6.022319092022e-09,-0.0010268219030679,0.0010268201190707,-0.0012434757308001,0.0012434836272489,-0.0012434789845223,0.0012434802247112,-0.0012434817725738,0.0012434773013317,-0.0012434850297545,0.001243473894921,-0.0011195254449984,0.0011195273527164,-0.0011195353321339,0.001119517093823,-0.0010192056864027,0.0010192192598475,-0.0010192245438823,0.0010191998564325,9.905115797688e-09,-8.4976342685767e-09,-0.0013667794484357,0.0013667808351026,-4.1791916268292e-09,5.8525796016811e-09,-0.0016051029329829,0.0016051070322111,-0.0016050996009773,0.0016051102987529,-0.0016051090861169,0.0016051009235911,-0.0016051057641838,0.0016051041929238,-0.0012823749438653,0.0012823616609082,-0.001282356881846,0.0012823796622887,0.68162298479653,131329,3014,0.003963773749544,0.0042713169510373,0.0056760455347004,35.931627712108,4.7453021696868e-05,4.7453021696868e-05,4.7453021696868e-05,4268885.2460284,0.014010167760816
35619200,0.99904134687785,0.014493085244533,0.0043000915989892,0.0045484745627719,0.0056445190827715,-0.00095356245370932,0.00095356405142889,-8.4557239594961e-09,1.0055016157541e-08,-8.627912569664e-09,1.0640034837004e-08,-0.0011765081815762,0.001176497277196,-0.001176502023829,0.0011765034694913,-0.0011765021559338,0.0011765036092698,-0.0011764959889459,0.0011765097849799,-0.001050806746852,0.0010507965966025,-0.0010507886023212,0.0010508146806786,8.5776374905561e-09,-1.0811560135702e-08,4.2293975913343e-09,-6.0263840497511e-09,-0.0010279903705355,0.001027988583622,-0.0012447104589585,0.0012447183959091,-0.0012447137144998,0.0012447149916673,-0.0012447165421012,0.0012447120283911,-0.001244719800942,0.001244708620408,-0.0011207569332752,0.0011207588007166,-0.001120766824484,0.0011207485367619,-0.0010204084461675,0.0010204221364249,-0.0010204274259841,0.0010204026112568,9.9619635017944e-09,-8.5539545010323e-09,-0.0013681088027208,0.0013681101898052,-4.1821721334827e-09,5.856135764484e-09,-0.0016064806939985,0.001606484829104,-0.0016064773597927,0.0016064880976735,-0.0016064868849421,0.0016064786826949,-0.0016064835607375,0.0016064819542691,-0.0012836836423316,0.0012836702517174,-0.0012836654693912,0.0012836883633622,0.65729900137638,131329,3014,0.0039684475192302,0.0042761658044411,0.0056815491694938,36.575687870622,5.2605502964974e-05,5.2605502964974e-05,5.2605502964974e-05,4279564.2177293,0.014025405270401
35819200,0.99910815505793,0.014494011522686,0.0043003632242116,0.0045487592841411,0.0056448890143336,-0.00095470296246883,0.00095470456237819,-8.5110043762173e-09,1.0112409428186e-08,-8.6845033927944e-09,1.0699268356608e-08,-0.0011776748287616,0.0011776638503333,-0.0011776686334165,0.0011776700802485,-0.0011776687645473,0.001177670221118,-0.0011776625600403,0.0011776764343604,-0.0010520325354412,0.0010520223154983,-0.0010520142802615,0.0010520405092795,8.6336384224319e-09,-1.0870913382586e-08,4.2334829255242e-09,-6.0331736961869e-09,-0.0010291764685505,0.001029174679106,-0.0012459144737231,0.0012459224502698,-0.0012459177328428,0.0012459190424442,-0.0012459205949933,0.0012459160443236,-0.0012459238574964,0.0012459126326807,-0.00112200695909,0.0011220087957012,-0.001122016860505,0.0011219985204228,-0.0010216024775825,0.0010216162739103,-0.0010216215705952,0.0010215966354759,1.0018645554138e-08,-8.6098498827608e-09,-0.0013694399831979,0.001369441370934,-4.1870550927822e-09,5.8618704972624e-09,-0.0016078335505547,0.0016078377201309,-0.001607830212757,0.0016078409922666,-0.0016078397789999,0.0016078315362899,-0.0016078364512466,0.0016078348113042,-0.0012849647817506,0.0012849512852266,-0.0012849464982143,0.0012849695070722,0.69619236085597,131329,3014,0.0039731829439373,0.0042810863143181,0.005687062109433,37.215884847552,5.7727078780419e-05,5.7727078780419e-05,5.7727078780419e-05,4292287.8297305,0.014040785656096
36019200,0.99917241253655,0.014494960678281,0.0043006429519613,0.0045490521964567,0.0056452655298628,-0.00095581367030336,0.00095581527244958,-8.5663297628e-09,1.0169917341859e-08,-8.7401066221833e-09,1.0757634835405e-08,-0.0011788872362466,0.0011788761844396,-0.0011788810032729,0.0011788824519979,-0.0011788811341913,0.0011788825932575,-0.0011788748920965,0.0011788888441,-0.0010532307229172,0.0010532204327206,-0.0010532123572095,0.0010532387367666,8.6867712509691e-09,-1.0926996187539e-08,4.2389565899537e-09,-6.0410524094045e-09,-0.0010303344008226,0.0010303326090231,-0.0012471601690253,0.0012471681841401,-0.0012471634325631,0.0012471647718936,-0.0012471663265117,0.0012471617417313,-0.0012471695934693,0.0012471583256251,-0.0011232435616102,0.0011232453724747,-0.0011232534759867,0.0011232350839047,-0.0010228096431487,0.001022823539729,-0.0010228288434361,0.0010228037937256,1.0075170590866e-08,-8.665726770525e-09,-0.0013707643233372,0.001370765711668,-4.1931419706558e-09,5.8686672417736e-09,-0.0016092253875402,0.0016092295907839,-0.0016092220453926,0.0016092328672129,-0.0016092316534457,0.0016092233695269,-0.001609228321391,0.0016092266488062,-0.0012862862780979,0.0012862726764002,-0.0012862678842808,0.001286291008292,0.73586310876959,131329,3014,0.0039777973240215,0.0042858926030207,0.0056925441307623,37.855944888537,6.2847559108296e-05,6.2847559108296e-05,6.2847559108296e-05,4300811.3509334,0.01405590035423
36219200,0.99923195379938,0.014495808957348,0.0043008919195228,0.0045493132556321,0.0056456037821935,-0.00095571528369169,0.00095571689255532,-8.6246503068239e-09,1.0235182132417e-08,-8.8822934356797e-09,1.0908337751005e-08,-0.0011789167457941,0.0011789055634222,-0.0011789104736789,0.0011789118700751,-0.0011789105485167,0.0011789120683577,-0.0011789042631052,0.0011789183624881,-0.0010531590295422,0.0010531487173817,-0.0010531405382966,0.0010531671494035,8.7475033966927e-09,-1.0988877649362e-08,4.2652336380581e-09,-6.0681779522536e-09,-0.0010302440759084,0.0010302422826652,-0.001247187736326,0.0012471958099072,-0.0012471910196621,0.0012471923778722,-0.0012471939365616,0.0012471893251024,-0.0012471972190156,0.0012471858932397,-0.0011231831111174,0.0011231849277831,-0.0011231930734282,0.0011231745936369,-0.0010227792004815,0.0010227931949023,-0.0010227985143366,0.0010227733321787,1.0126630848673e-08,-8.7158452537338e-09,-0.0013707742463143,0.0013707756363116,-4.2142989719416e-09,5.8913403500963e-09,-0.0016093163990152,0.0016093206254276,-0.0016093130441851,0.0016093239143419,-0.0016093227009931,0.0016093143683673,-0.0016093193524417,0.0016093176646353,-0.0012863398154345,0.0012863261354766,-0.0012863213275505,0.0012863445606774,0.71361056158865,131329,3014,0.0039773932830024,0.0042855210943627,0.0056925811682702,37.827198113061,6.2617584904489e-05,6.2617584904489e-05,6.2617584904489e-05,4293994.3687518,0.01405515567509
36419200,0.99928627073569,0.014496571554138,0.0043011155431455,0.0045495477512409,0.0056459082597511,-0.00095509790111404,0.00095509951185577,-8.6766592841618e-09,1.0288782590107e-08,-8.9518739889827e-09,1.0980357169508e-08,-0.0011783494981429,0.0011783382347232,-0.0011783431895452,0.0011783445778533,-0.0011783432532139,0.0011783447874965,-0.0011783369339162,0.0011783511154175,-0.0010525464460046,0.0010525360832158,-0.0010525278548522,0.001052554614982,8.8839360030832e-09,-1.1133261989751e-08,4.2879497703504e-09,-6.0975268077164e-09,-0.0010296196119257,0.0010296178121094,-0.0012466101150718,0.0012466182925222,-0.0012466134142729,0.00124661484429,-0.0012466164075876,0.0012466117141149,-0.001246619708687,0.0012466082635723,-0.0011225611089378,0.0011225628796694,-0.0011225711252305,0.0011225524914602,-0.0010221796277274,0.0010221938781245,-0.0010221992213647,0.0010221737349756,1.0187232604154e-08,-8.774784362361e-09,-0.0013702021321779,0.0013702035238951,-4.2433565543112e-09,5.9223381304295e-09,-0.0016087764052787,0.0016087806520704,-0.0016087730289908,0.0016087839623479,-0.0016087827457707,0.001608774356198,-0.0016087793782661,0.0016087776709435,-0.0012857858703217,0.0012857720913101,-0.0012857672625,0.0012857906378776,0.70434021020736,131329,3014,0.0039748321273925,0.0042829312131308,0.0056902099161682,37.495843512804,5.9966748102429e-05,5.9966748102429e-05,5.9966748102429e-05,4284439.1694497,0.014047528574808
36619200,0.99933586568841,0.014497225148232,0.0043013061079934,0.0045497478536187,0.0056461711866196,-0.00095448006808696,0.00095448168100992,-8.7296858468544e-09,1.0343946324834e-08,-9.0112505971269e-09,1.1042318481044e-08,-0.0011777506684245,0.001177739329633,-0.0011777443230279,0.001177745709686,-0.001177744382132,0.0011777459239177,-0.0011777380275691,0.0011777522871989,-0.0010519290596512,0.0010519186351559,-0.0010519103641923,0.0010519372697821,8.9744141867431e-09,-1.1229358340092e-08,4.3108850024545e-09,-6.1248064144819e-09,-0.0010289925932484,0.0010289907892297,-0.0012460015114785,0.0012460097628433,-0.001246004826609,0.0012460062986991,-0.0012460078648315,0.0012460031232563,-0.0012460111833784,0.0012459996552366,-0.0011219310488446,0.0011219328038207,-0.0011219411158571,0.0011219223629467,-0.0010215612115134,0.0010215756240679,-0.0010215809904147,0.0010215552959654,1.0246665526814e-08,-8.8323488553935e-09,-0.0013696121870569,0.0013696135804285,-4.2693922515856e-09,5.9505339802421e-09,-0.0016081994987875,0.0016082037670829,-0.0016081961036638,0.0016082070961609,-0.0016082058775333,0.0016081974331577,-0.0016082024926034,0.0016082007650764,-0.0012852000280268,0.0012851861524572,-0.001285181302961,0.0012852048155873,0.66675281944773,131329,3014,0.0039722679375914,0.0042803298705891,0.0056877658891158,37.157429364,5.7259434911999e-05,5.7259434911999e-05,5.7259434911999e-05,4276123.2550159,0.014039811876679
36819200,0.99938120577811,0.014497805161125,0.0043014748239633,0.004549925091202,0.0056464052459593,-0.00095389750606813,0.0009538991216179,-8.7854634494457e-09,1.0402292196202e-08,-9.074896860042e-09,1.1109195411176e-08,-0.0011771089839278,0.0011770975661982,-0.0011771026006298,0.0011771039842042,-0.0011771026543654,0.0011771042040451,-0.0011770962616,0.00117711060556,-0.0010513431257934,0.0010513326351044,-0.0010513243181268,0.0010513513818256,9.0182102583599e-09,-1.1275445063415e-08,4.3350079014484e-09,-6.1506855255483e-09,-0.0010283983959165,0.0010283965901474,-0.0012453540769093,0.0012453623731752,-0.0012453574087788,0.0012453588922311,-0.0012453604600904,0.0012453557035906,-0.0012453637950867,0.0012453522190519,-0.0011213217420924,0.0011213235138076,-0.001121331857525,0.0011213130241321,-0.0010209323947558,0.0010209468764064,-0.0010209522615908,0.0010209264603933,1.0302893255036e-08,-8.887240147561e-09,-0.001369026740975,0.0013690281356851,-4.2918335554015e-09,5.9745540385635e-09,-0.0016075820872799,0.0016075863785061,-0.0016075786768403,0.0016075897228953,-0.0016075885032081,0.0016075800075361,-0.0016075851026187,0.0016075833550523,-0.0012845736968113,0.0012845597297557,-0.0012845548630399,0.0012845785009777,0.64957834824489,131329,3014,0.0039698473163624,0.0042778622101962,0.0056853432828163,36.818764262094,5.4550114096751e-05,5.4550114096751e-05,5.4550114096751e-05,4271828.0611573,0.014032394620121
37019200,0.99942389063516,0.014498391036788,0.0043016465424765,0.0045501050922074,0.0056466394021043,-0.00095428204493678,0.00095428365831234,-8.8435031049035e-09,1.0458074826022e-08,-9.0364151181622e-09,1.1067937677513e-08,-0.001177442135366,0.0011774307045319,-0.0011774357146199,0.0011774371600886,-0.0011774358325367,0.0011774373152934,-0.0011774294014079,0.001177443755244,-0.0010517695117404,0.0010517588791751,-0.0010517505901382,0.001051777737755,8.9902880938329e-09,-1.1246938124079e-08,4.3448973062889e-09,-6.1598372379279e-09,-0.0010287919163712,0.0010287901116727,-0.0012457002056161,0.0012457084911959,-0.0012457035442911,0.0012457050034357,-0.0012457065702855,0.0012457018399576,-0.00124570991121,0.0012456983495402,-0.001121738384904,0.0011217401925631,-0.0011217485160459,0.0011217296847142,-0.0010212982038227,0.0010213126212111,-0.0010213180146759,0.0010212922634521,1.0359272540805e-08,-8.9424161113261e-09,-0.0013694580201519,0.0013694594157604,-4.3017780368397e-09,5.9858712743003e-09,-0.0016079912093252,0.0016079955317079,-0.0016079877922984,0.0016079988827417,-0.0016079976628236,0.0016079891230629,-0.0016079942545853,0.0016079924779699,-0.0012849489844903,0.0012849349183774,-0.0012849300429528,0.0012849537975131,0.68961816698225,131329,3014,0.0039714416975215,0.0042794927311658,0.0056871315942344,37.016465020873,5.6131720166985e-05,5.6131720166985e-05,5.6131720166985e-05,4278594.8222905,0.014037474783561
37219200,0.99946431577494,0.014498986644875,0.0043018221798227,0.0045502889259898,0.0056468755390626,-0.00095486334170266,0.00095486495387035,-8.8999411382309e-09,1.0513576451192e-08,-8.9938415181976e-09,1.1023935745918e-08,-0.0011780711683319,0.0011780597279268,-0.0011780647104255,0.0011780662205682,-0.0011780648944598,0.0011780663096874,-0.0011780584259082,0.0011780727870392,-0.0010524017517833,0.0010523909793012,-0.0010523827206839,0.0010524099479148,8.8991288955956e-09,-1.1149441820533e-08,4.3539738052902e-09,-6.1637358938247e-09,-0.0010293894291559,0.0010293876296014,-0.0012463413350766,0.001246349567254,-0.0012463446781819,0.0012463460751754,-0.0012463476377303,0.0012463429792457,-0.0012463509826233,0.0012463394846167,-0.0011223788046559,0.0011223806930551,-0.0011223889488906,0.0011223701725307,-0.0010219178834258,0.0010219321174349,-0.0010219375092578,0.0010219119454409,1.0415964921127e-08,-8.999211440209e-09,-0.0013701267528641,0.0013701281483899,-4.3034984967808e-09,5.9874870494394e-09,-0.0016086977827738,0.0016087021418359,-0.0016086943645721,0.0016087054937798,-0.0016087042743156,0.0016086956951858,-0.0016087008651652,0.0016086990518223,-0.0012856117534574,0.0012855975773743,-0.0012855927000617,0.0012856165664716,0.73362544291026,131329,3014,0.0039738563104266,0.0042819727574418,0.005689900153816,37.343455878175,5.87476470254e-05,5.87476470254e-05,5.87476470254e-05,4283190.1112299,0.014045246822558
37419200,0.99950255584469,0.014499508296219,0.0043019748452121,0.0045504490563508,0.005647084394656,-0.00095540789054892,0.00095540949784069,-8.9589325800241e-09,1.0567631943098e-08,-8.8971398586904e-09,1.0921462771927e-08,-0.0011787516722395,0.0011787402553015,-0.001178745176044,0.0011787467862048,-0.0011787454640087,0.0011787467709286,-0.0011787389582328,0.0011787532854471,-0.0010529922146148,0.0010529812622031,-0.0010529730747393,0.0010530003403497,8.8453672395567e-09,-1.1092208453249e-08,4.3544301284583e-09,-6.1614912521223e-09,-0.0010299517248047,0.0010299499279214,-0.0012470283754176,0.0012470365720534,-0.001247031717357,0.0012470330810052,-0.0012470346405757,0.0012470300213268,-0.0012470379855118,0.001247026526783,-0.0011229900950174,0.0011229920235289,-0.0011230002393774,0.0011229815040185,-0.001022547336577,0.0010225614673499,-0.0010225668544019,0.0010225414024033,1.0473299195487e-08,-9.0542391908549e-09,-0.0013707872239145,0.0013707886218913,-4.3055865100229e-09,5.9918542182313e-09,-0.0016094455026803,0.0016094498991425,-0.0016094420819779,0.0016094532539413,-0.0016094520310375,0.0016094434156003,-0.0016094486200763,0.0016094467736136,-0.0012863184214987,0.001286304138015,-0.001286299257359,0.0012863232395944,0.68665560152749,131329,3014,0.0039761214085222,0.0042843094021084,0.0056926315697882,37.67353254839,6.1388260387121e-05,6.1388260387121e-05,6.1388260387121e-05,4283468.0249111,0.014052688280917
37619200,0.99953867966338,0.014499982523535,0.0043021131557957,0.0045505942567035,0.0056472751110363,-0.00095598294802021,0.00095598455226067,-9.0167830764958e-09,1.0622487338774e-08,-8.8268692374979e-09,1.0847458616762e-08,-0.001179371793375,0.0011793603839321,-0.0011793652596714,0.0011793669523543,-0.0011793656329981,0.0011793668513525,-0.0011793590895995,0.0011793734035116,-0.0010536151787596,0.00105360406473,-0.0010535959284504,0.0010536232534089,8.764964913086e-09,-1.1006871371505e-08,4.3566467677967e-09,-6.159645486713e-09,-0.0010305432665921,0.001030541473798,-0.0012476604552072,0.0012476686008251,-0.0012476637973469,0.0012476651095944,-0.0012476666654936,0.001247662105386,-0.0012476700105107,0.0012476586107737,-0.0011236177098807,0.0011236196976901,-0.0011236278544982,0.0011236091780301,-0.0010231608138848,0.0010231747858154,-0.0010231801688224,0.0010231548844478,1.0529657674833e-08,-9.1106121394647e-09,-0.0013714657558761,0.0013714671538478,-4.3046946144462e-09,5.9909396873461e-09,-0.00161015581209,0.0016101602468269,-0.0016101523920819,0.0016101636009497,-0.0016101623780452,0.0016101537256087,-0.0016101589676868,0.0016101570831131,-0.0012869889940899,0.0012869745996953,-0.0012869697197585,0.0012869938115971,0.66415286963665,131329,3014,0.0039785099567231,0.0042867643498057,0.0056954408277282,38.003719352538,6.4029754820305e-05,6.4029754820305e-05,6.4029754820305e-05,4288901.5611788,0.01406044932975
37819200,0.99957183617237,0.014500399485469,0.0043022342234227,0.0045507215112453,0.0056474437508013,-0.00095564396051633,0.00095564556339563,-9.0742506555478e-09,1.0678751828432e-08,-8.7958901893572e-09,1.0815155905234e-08,-0.0011789915480847,0.0011789801206005,-0.0011789849767542,0.0011789867265247,-0.0011789854090874,0.0011789865665937,-0.0011789788273429,0.001178993156972,-0.0010532778860984,0.0010532666377974,-0.001053258524959,0.0010532859406319,8.7538506367292e-09,-1.0993583770612e-08,4.3622245337357e-09,-6.1635887638631e-09,-0.001030198530209,0.0010301967385541,-0.0012472786826545,0.0012472868241892,-0.0012472820282705,0.0012472833293323,-0.0012472848850711,0.0012472803365524,-0.0012472882328897,0.0012472768390554,-0.0011232628267411,0.001123264833619,-0.001123272981249,0.0011232543077714,-0.0010227872092846,0.0010228011570425,-0.001022806538238,0.0010227812795927,1.058522695323e-08,-9.1666303365002e-09,-0.0013711312865845,0.0013711326846321,-4.311474805816e-09,5.9973055704315e-09,-0.0016098022050835,0.0016098066735361,-0.0016097987811115,0.0016098100317312,-0.0016098088085411,0.0016098001147485,-0.001609805393407,0.0016098034769326,-0.0012866159986627,0.0012866014990943,-0.0012865966173246,0.0012866208203888,0.64016142425598,131329,3014,0.0039771009569139,0.0042853321879511,0.0056940573859995,37.803931083021,6.2431448664169e-05,6.2431448664169e-05,6.2431448664169e-05,4287041.1592905,0.014056162509956
38019200,0.99960222230761,0.014500799740435,0.0043023510506299,0.0045508441257848,0.0056476045640202,-0.00095525061822809,0.00095525222063216,-9.130710948254e-09,1.0734716581718e-08,-8.786353185059e-09,1.0804829142681e-08,-0.0011784976732001,0.0011784862143579,-0.0011784910642872,0.0011784928579463,-0.0011784915405681,0.0011784926538269,-0.001178484921547,0.0011784992815693,-0.0010528855759283,0.0010528742106434,-0.0010528661042614,0.0010528936220146,8.7362060141188e-09,-1.0975749257256e-08,4.3659514234925e-09,-6.166953666147e-09,-0.001029795897859,0.0010297941068689,-0.0012467847566498,0.0012467928896258,-0.0012467881044965,0.0012467893926222,-0.0012467909472573,0.0012467864139947,-0.0012467942975759,0.0012467829140329,-0.0011228458277079,0.0011228478535005,-0.0011228559886317,0.0011228373189759,-0.0010223280454665,0.0010223419549991,-0.0010223473404703,0.001022322112868,1.0642063633437e-08,-9.2226600953589e-09,-0.0013707142657904,0.0013707156643195,-4.3139290652224e-09,6.0006174546675e-09,-0.0016093329813486,0.0016093374855356,-0.0016093295552609,0.0016093408457974,-0.0016093396223002,0.0016093308892904,-0.0016093362054045,0.001609334253308,-0.0012861338208145,0.0012861192133393,-0.0012861143278298,0.0012861386451652,0.66569814713106,131329,3014,0.0039754643820772,0.0042836581932765,0.0056923338936597,37.559548352209,6.047638681767e-05,6.047638681767e-05,6.047638681767e-05,4286715.9751214,0.014051052696083
38219200,0.99963009404829,0.014501170132556,0.0043024592532249,0.0045509576643394,0.0056477532149912,-0.00095483524010699,0.00095483684220087,-9.1869718732272e-09,1.0790627531706e-08,-8.7792532908971e-09,1.0797272857726e-08,-0.0011780356206938,0.0011780241289147,-0.0011780289741717,0.0011780308101315,-0.0011780294927457,0.0011780305636255,-0.0011780228365544,0.0011780372285568,-0.0010524719612502,0.0010524604815651,-0.0010524523801699,0.0010524800018106,8.7223018056618e-09,-1.0961293805662e-08,4.3674994253078e-09,-6.168011352612e-09,-0.0010293715367367,0.0010293697463501,-0.0012463186854909,0.001246326810449,-0.0012463220339959,0.0012463233128227,-0.0012463248665634,0.0012463203444442,-0.0012463282179696,0.0012463168434141,-0.0011224165665606,0.0011224186053208,-0.0011224267304078,0.0011224080672605,-0.0010218775116838,0.0010218913933548,-0.001021896779947,0.001021871578853,1.0698732071432e-08,-9.2791045629603e-09,-0.0013702869229453,0.0013702883216264,-4.314318137513e-09,6.0012458568526e-09,-0.0016088857849872,0.0016088903263552,-0.00160888235832,0.0016088936871722,-0.0016088924633969,0.0016088836926252,-0.0016088890463993,0.001608887056797,-0.0012856751132724,0.0012856603951276,-0.0012856555086056,0.0012856799382026,0.67076172598287,131329,3014,0.0039737382940655,0.0042818959417241,0.0056905657761193,37.314001108779,5.8512008870235e-05,5.8512008870235e-05,5.8512008870235e-05,4283333.3229579,0.014045720276744
38419200,0.99965585486731,0.014501537369942,0.0043025672674708,0.0045510707947787,0.0056478993076923,-0.00095464348882327,0.00095464508988242,-9.2442139081106e-09,1.0846734616497e-08,-8.7583049287081e-09,1.0774920126204e-08,-0.0011778184947624,0.0011778069787942,-0.0011778118105904,0.0011778136977284,-0.0011778123812133,0.0011778133988824,-0.0011778056871513,0.0011778201017571,-0.0010522923992082,0.001052280792595,-0.0010522727059887,0.0010523004233379,8.7083517652851e-09,-1.0947294089116e-08,4.3630093745273e-09,-6.1634669730846e-09,-0.0010291757571526,0.0010291739671154,-0.0012461002546023,0.0012461083679925,-0.0012461036002724,0.0012461048732905,-0.0012461064265037,0.0012461019111676,-0.0012461097748592,0.0012460984133015,-0.0011222272409514,0.0011222292793857,-0.0011222373946565,0.0011222187496782,-0.0010216688267608,0.0010216826828244,-0.0010216880679211,0.0010216628968441,1.0754853654956e-08,-9.3349405775025e-09,-0.0013700993649218,0.0013701007636359,-4.310384891965e-09,5.9975856524929e-09,-0.0016086910874559,0.001608695668574,-0.0016086876634441,0.0016086990267401,-0.0016086978032689,0.0016086889974227,-0.0016086943886602,0.0016086923591279,-0.0012854659860452,0.0012854511568154,-0.0012854462717939,0.00128547080894,0.71253733197151,131329,3014,0.0039729413139997,0.0042810827410364,0.0056897900764135,37.196447594444,5.757158075555e-05,5.757158075555e-05,5.757158075555e-05,4281585.3982972,0.014043299810113
38619200,0.99967981855641,0.014501880971424,0.0043026683611345,0.0045511766687058,0.0056480359415832,-0.00095461902210284,0.00095462062266783,-9.3005123818779e-09,1.0902621944383e-08,-8.7440395455058e-09,1.0760053603513e-08,-0.0011778620024353,0.0011778504582101,-0.0011778552808397,0.0011778572145334,-0.0011778558985171,0.0011778568685966,-0.0011778491670656,0.0011778636088413,-0.0010522871655213,0.001052275438906,-0.0010522673626352,0.0010522951794998,8.6810708030734e-09,-1.0918322348036e-08,4.3559831671717e-09,-6.1550383929829e-09,-0.0010291532651185,0.0010291514764205,-0.0012461404662106,0.0012461485569513,-0.0012461438067353,0.001246145067414,-0.0012461466194239,0.0012461421189322,-0.0012461499626528,0.0012461386261912,-0.0011222285038279,0.0011222305473074,-0.001122238642607,0.0011222200328229,-0.0010216833653274,0.0010216971726975,-0.0010217025508813,0.0010216774420195,1.0811114257822e-08,-9.391822765379e-09,-0.0013701176076331,0.0013701190057364,-4.3019590403102e-09,5.9884377627193e-09,-0.0016087555534821,0.0016087601776063,-0.0016087521353218,0.0016087635299281,-0.0016087623069721,0.0016087534687275,-0.0016087588982595,0.0016087568245754,-0.0012855138180091,0.0012854988712232,-0.0012854939930242,0.0012855186344129,0.71625966949004,131329,3014,0.0039728420331004,0.0042809914878657,0.0056898635931356,37.193709544867,5.7549676358934e-05,5.7549676358934e-05,5.7549676358934e-05,4277524.6175009,0.01404318435284
38819200,0.99970211376922,0.014502201832055,0.0043027628059572,0.0045512755602096,0.0056481634658877,-0.00095459636073964,0.00095459796061665,-9.357292375494e-09,1.0958735554004e-08,-8.7241640448358e-09,1.0739383603203e-08,-0.0011779107579437,0.0011778991887833,-0.0011779039985453,0.0011779059828652,-0.0011779046673847,0.0011779055857442,-0.0011778978984188,0.0011779123634838,-0.0010522798359145,0.0010522679851328,-0.0010522599231822,0.0010522878360527,8.671504351829e-09,-1.0907983813911e-08,4.3464344152246e-09,-6.1449693768354e-09,-0.0010291325546018,0.0010291307663713,-0.0012461854394992,0.001246193517333,-0.0012461887733814,0.001246190034474,-0.0012461915860153,0.001246187086118,-0.0012461949228752,0.0012461835997723,-0.0011222275283002,0.0011222295603941,-0.0011222376486265,0.0011222190650211,-0.0010217006997348,0.0010217144957392,-0.0010217198661461,0.0010216947839168,1.0867032139333e-08,-9.4483493637067e-09,-0.0013701383976529,0.0013701397952042,-4.2933674008377e-09,5.9791267571348e-09,-0.0016088221406332,0.001608826807567,-0.0016088187283141,0.0016088301540619,-0.0016088289314594,0.0016088200613648,-0.0016088255288752,0.0016088234111256,-0.0012855669357899,0.0012855518717562,-0.0012855470002514,0.0012855717455203,0.71844600549463,131329,3014,0.0039727503118743,0.0042809076598015,0.0056899475254606,37.193612250833,5.7548898006664e-05,5.7548898006664e-05,5.7548898006664e-05,4273595.0696969,0.014043094598011
38880000,0.99970874075763,0.01450229733602,0.0043027909283609,0.0045513050009855,0.0056482014066735,-0.00095458661181088,0.00095458821177912,-9.3743061505584e-09,1.0975848005878e-08,-8.7257296319787e-09,1.0741063686877e-08,-0.0011779254843494,0.0011779139028306,-0.0011779187135906,0.0011779207082476,-0.001177919392736,0.0011779203008692,-0.0011779126123532,0.001177927090006,-0.0010522752186454,0.0010522633355889,-0.0010522552725572,0.0010522832201334,8.6679257406887e-09,-1.0904128229171e-08,4.3434264994352e-09,-6.1417246957712e-09,-0.0010291234988037,0.0010291217107737,-0.0012461986502891,0.0012462067237639,-0.0012462019821225,0.0012462032429521,-0.0012462047943709,0.0012462002950155,-0.001246208129124,0.0012461968107747,-0.0011222252018319,0.0011222272305181,-0.0011222353161224,0.0011222167415162,-0.0010217050346501,0.0010217188256586,-0.0010217241936269,0.0010216991212322,1.0884081312611e-08,-9.4656750114789e-09,-0.0013701433757817,0.0013701447730869,-4.2899174588193e-09,5.9753556727506e-09,-0.001608841917211,0.0016088465978298,-0.0016088385073322,0.0016088499418843,-0.0016088487195159,0.001608839840144,-0.0016088453193351,0.0016088431875369,-0.0012855837151072,0.0012855686147089,-0.0012855637460066,0.0012855885221067,0.71909630843289,131329,3014,0.0039727106177117,0.0042808707788309,0.0056899673691651,37.193608866533,5.7548870932268e-05,5.7548870932268e-05,5.7548870932268e-05,4272383.1805988,0.014043038054762
