time,ASR_ext,ASR_strain,ASR_strain_xx,ASR_strain_yy,ASR_strain_zz,disp_x_101,disp_x_102,disp_x_103,disp_x_104,disp_x_105,disp_x_106,disp_x_p1_neg,disp_x_p1_pos,disp_x_p2_neg,disp_x_p2_pos,disp_x_p3_neg,disp_x_p3_pos,disp_x_p4_neg,disp_x_p4_pos,disp_x_p5_neg,disp_x_p5_pos,disp_x_p6_neg,disp_x_p6_pos,disp_y_101,disp_y_102,disp_y_103,disp_y_104,disp_y_105,disp_y_106,disp_y_p1_neg,disp_y_p1_pos,disp_y_p2_neg,disp_y_p2_pos,disp_y_p3_neg,disp_y_p3_pos,disp_y_p4_neg,disp_y_p4_pos,disp_y_p5_neg,disp_y_p5_pos,disp_y_p6_neg,disp_y_p6_pos,disp_y_p7_neg,disp_y_p7_pos,disp_y_p8_neg,disp_y_p8_pos,disp_z_101,disp_z_102,disp_z_103,disp_z_104,disp_z_105,disp_z_106,disp_z_p1_neg,disp_z_p1_pos,disp_z_p2_neg,disp_z_p2_pos,disp_z_p3_neg,disp_z_p3_pos,disp_z_p4_neg,disp_z_p4_pos,disp_z_p5_neg,disp_z_p5_pos,disp_z_p6_neg,disp_z_p6_pos,humidity,ndof,nelem,strain_xx,strain_yy,strain_zz,temp,thermal_strain_xx,thermal_strain_yy,thermal_strain_zz,vonmises,vstrain
2419200,0,0,0,0,0,0,0,0,0,0,0,0,0,0,0,0,0,0,0,0,0,0,0,0,0,0,0,0,0,0,0,0,0,0,0,0,0,0,0,0,0,0,0,0,0,0,0,0,0,0,0,0,0,0,0,0,0,0,0,0,0,0,0,0,0,0,0,0,0,0,0,0,0,0,0
2619200,0.01955019244269,0.00040105108809069,0.00013368369603023,0.00013368369603023,0.00013368369603023,-3.4470994166867e-05,3.4465011546382e-05,-3.003791890374e-09,-2.933588145122e-09,8.3684807768607e-09,-1.4708659588803e-08,-3.4035515558323e-05,3.4037129735115e-05,-3.403549920823e-05,3.403716017276e-05,-3.4042859849574e-05,3.4029435093914e-05,-3.404283582239e-05,3.4029457883504e-05,-3.5258741446534e-05,3.5245097251598e-05,-3.5258674273629e-05,3.5245167604079e-05,-8.3697006292178e-09,1.4710844184821e-08,4.724349625917e-09,1.2139480594592e-09,-3.4465011087536e-05,3.4470994625703e-05,-3.4036404033756e-05,3.4035916789236e-05,-3.4037528023351e-05,3.403473973009e-05,-3.4029062518763e-05,3.4043616389224e-05,-3.4030186493844e-05,3.4042439344589e-05,-3.5243495955624e-05,3.526051805148e-05,-3.5246893294719e-05,3.5257026207441e-05,-3.5260641118442e-05,3.5242931179716e-05,-3.5238163038181e-05,3.5266052731126e-05,4.8556197205476e-10,4.1518320923023e-10,-3.4467549223275e-05,3.4468456490529e-05,-1.2613257831453e-09,2.22220983423e-09,-3.4036356484895e-05,3.4036116830416e-05,-3.4035223332654e-05,3.4037294163556e-05,-3.4036357872382e-05,3.40360712845e-05,-3.4035224715037e-05,3.4037248641582e-05,-3.5250932732735e-05,3.5252925016618e-05,-3.5250936683243e-05,3.5253066749966e-05,0.81992966261385,131329,3014,0.0001436063166777,0.00014360631667771,0.00014360631667772,31.535793968995,1.2286351751957e-05,1.2286351751957e-05,1.2286351751957e-05,452837.90433151,0.0004309119819435
2819200,0.041143138127144,0.00084157331236605,0.00028052443745268,0.00028052443745255,0.00028052443746082,-7.1367155571141e-05,7.1372559841898e-05,2.5607083108652e-09,2.8708020648168e-09,-1.459297795579e-09,6.9920361358051e-09,-7.1354436467009e-05,7.1356968287842e-05,-7.1354340178416e-05,7.1357080745301e-05,-7.1351826362767e-05,7.1359776885468e-05,-7.1351726137869e-05,7.1359881417173e-05,-7.2654255964289e-05,7.2662167530176e-05,-7.2653964444961e-05,7.2662477461343e-05,1.4758141279268e-09,-7.0225149755408e-09,-1.439648444382e-09,-4.0051785645065e-09,-7.1372566498091e-05,7.1367148914829e-05,-7.1356705511422e-05,7.1354915104597e-05,-7.1357534166977e-05,7.1354057054342e-05,-7.135933168025e-05,7.1352095348238e-05,-7.1360162327394e-05,7.1351235299703e-05,-7.266107215291e-05,7.2655349845574e-05,-7.2663556881045e-05,7.2652795792559e-05,-7.2657247885413e-05,7.2659270962591e-05,-7.2665517136226e-05,7.2650769756894e-05,2.3181224064444e-10,-7.1147876529004e-11,-7.1369771707927e-05,7.1369943709514e-05,-1.1740715723275e-09,1.3856525961099e-09,-7.1356048547988e-05,7.1355460818421e-05,-7.135520531179e-05,7.1356323822302e-05,-7.1356138449497e-05,7.1355350766497e-05,-7.1355297111511e-05,7.1356211678789e-05,-7.2657825710755e-05,7.2658543471187e-05,-7.265757455196e-05,7.2658891431679e-05,0.82138489935667,131329,3014,0.0002973300972804,0.00029733009728017,0.00029733009728942,32.737957225091,2.1903657800725e-05,2.1903657800725e-05,2.1903657800725e-05,487128.84334492,0.00089238868403619
3019200,0.062599262182936,0.0012772362809915,0.00042574542699381,0.00042574542699335,0.00042574542700431,-0.00010511185009664,0.00010511848666387,3.0375947180848e-09,3.5841095080287e-09,-5.3220501474661e-09,1.2232593384551e-08,-0.00010551592719462,0.00010551657689734,-0.00010551575130406,0.00010551676608762,-0.00010551035792342,0.00010552242977768,-0.00010551017841762,0.00010552261416435,-0.00010708076671838,0.00010709266592848,-0.00010708024125651,0.00010709320921053,5.3249400044882e-09,-1.2235304252674e-08,-2.4424317569935e-09,-4.1789312303307e-09,-0.0001051184864393,0.00010511185032091,-0.00010551652746976,0.00010551627121661,-0.00010551709150142,0.00010551569030832,-0.00010552210099936,0.00010551041808912,-0.00010552266562168,0.00010550983658174,-0.00010709205034879,0.00010708131839517,-0.00010709372946872,0.0001070795909231,-0.00010708186844037,0.00010709177365931,-0.00010709894326611,0.00010707419088334,2.4145456471041e-10,-2.9840585279574e-10,-0.00010511519185182,0.00010511514491616,-8.7552628218667e-10,8.5642322331061e-10,-0.00010551654999049,0.00010551610048946,-0.00010551596138607,0.00010551666832104,-0.00010551673994944,0.00010551593128642,-0.00010551615190735,0.00010551649849168,-0.00010708671121802,0.00010708670609319,-0.00010708614725617,0.00010708720088812,0.82013324295722,131329,3014,0.00043788379371399,0.00043788379371337,0.00043788379372888,32.491844078151,1.9934752625212e-05,1.9934752625212e-05,1.9934752625212e-05,609595.6785384,0.0013145155229736
3219200,0.08382057952271,0.0016994331869225,0.00056647772897017,0.00056647772896955,0.00056647772898282,-0.00013768630983376,0.00013769246405764,2.6729587581359e-09,3.4548743925397e-09,-6.2163857191981e-09,1.2693962638464e-08,-0.00013882511383577,0.00013882472983065,-0.00013882485787541,0.00013882499624954,-0.00013881908577627,0.00013883104077613,-0.00013881882777863,0.00013883130339084,-0.00014020251933995,0.00014021415302258,-0.00014020176257326,0.00014021492520985,6.2279171292011e-09,-1.2712630381444e-08,-2.4503321908483e-09,-3.6841613133418e-09,-0.00013769246739586,0.00013768630649502,-0.00013882480058317,0.00013882533408173,-0.00013882520166707,0.00013882492214702,-0.00013883083958291,0.0001388190143827,-0.00013883124156232,0.00013881860157619,-0.00014021389708026,0.00014020269247264,-0.00014021509076698,0.0001402014651283,-0.00014020252787697,0.00014021439184851,-0.00014022092198755,0.00014019540395917,3.0666136799983e-10,-4.7110542758933e-10,-0.00013768946489596,0.00013768930900421,-6.8582611972914e-10,5.4986502299364e-10,-0.00013882515076643,0.00013882483826922,-0.00013882471700592,0.00013882523178705,-0.00013882542953577,0.00013882459963995,-0.00013882499650582,0.0001388249921207,-0.00014020859327337,0.00014020808154132,-0.00014020776220307,0.00014020877592505,0.80675913299741,131329,3014,0.00057354102182529,0.0005735410218242,0.00057354102184278,32.204001126691,1.7632009013528e-05,1.7632009013528e-05,1.7632009013528e-05,705493.60133083,0.0017221056067944
3419200,0.10478148684293,0.0021041411813882,0.00070138039379045,0.00070138039379053,0.00070138039380719,-0.00016885288037771,0.00016885822802277,2.1510664201401e-09,3.1695528188665e-09,-6.1913294120702e-09,1.1875471304231e-08,-0.00017115907423913,0.00017115807273753,-0.00017115873829974,0.00017115841688106,-0.00017115331187272,0.00017116410163436,-0.00017115297484632,0.00017116444288231,-0.00017162854863674,0.00017163886772386,-0.00017162755927483,0.00017163987051952,6.2027018211227e-09,-1.1893232772252e-08,-2.1970195047216e-09,-3.1294766590064e-09,-0.0001688582309539,0.00016885287744631,-0.00017115822295887,0.00017115919648289,-0.00017115852658063,0.00017115888598601,-0.00017116399571054,0.0001711531584484,-0.00017116430024558,0.0001711528470573,-0.00017163887256001,0.0001716284564863,-0.00017163977603792,0.00017162752991178,-0.00017162787486734,0.00017163979628488,-0.00017164542928544,0.00017162163504267,3.9660715885001e-10,-6.1788364699783e-10,-0.00016885566108716,0.0001688554473238,-5.6898687587828e-10,3.6931726467725e-10,-0.0001711587373173,0.00017115854621993,-0.00017115839765603,0.00017115883640993,-0.00017115909957953,0.00017115823326682,-0.00017115876067793,0.00017115852240679,-0.00017163416248674,0.00017163326253333,-0.00017163308901701,0.00017163417819697,0.785898363158,131329,3014,0.00070331719568926,0.00070331719568868,0.00070331719571036,31.914522241515,1.5316177932119e-05,1.5316177932119e-05,1.5316177932119e-05,793936.17259228,0.0021121808645431
3619200,0.12600290356245,0.0025038504594434,0.00083461681980724,0.00083461681980816,0.00083461681982803,-0.00020029507770884,0.00020029937183052,1.514969284265e-09,2.757854716108e-09,-5.5564858444069e-09,1.0170557771824e-08,-0.00020417203348911,0.00020417066760041,-0.00020417162223819,0.00020417108618225,-0.0002041670106925,0.00020417591423507,-0.00020416659868702,0.00020417632997527,-0.00020311639175777,0.00020312467011182,-0.00020311518234143,0.00020312589186921,5.5915736325608e-09,-1.022995996021e-08,-1.6790328979881e-09,-2.6166548326965e-09,-0.00020029938322456,0.00020029506631499,-0.00020417083168555,0.00020417210007019,-0.00020417113561885,0.00020417178830477,-0.00020417588517674,0.0002041668224627,-0.00020417619015755,0.0002041665096583,-0.00020312480681493,0.00020311617864232,-0.0002031257172824,0.00020311524740241,-0.00020311529134683,0.00020312601023646,-0.00020313062220536,0.00020311011428573,5.3066995513978e-10,-7.3266981773411e-10,-0.00020029732217793,0.00020029712737377,-5.636720039572e-10,3.8149707148222e-10,-0.00020417145359257,0.00020417136263646,-0.0002041711106973,0.00020417165391528,-0.00020417189962555,0.00020417096770565,-0.00020417155743016,0.00020417125759645,-0.00020312109706391,0.00020311997436506,-0.00020311978483708,0.00020312113904414,0.77011574952121,131329,3014,0.0008342235699719,0.0008342235699723,0.00083422356999706,31.993830239272,1.595064191418e-05,1.595064191418e-05,1.595064191418e-05,939938.93428058,0.0025058071071639
3819200,0.14782409809935,0.002913026096531,0.00097100869883719,0.00097100869883571,0.00097100869885808,-0.00023293235028416,0.00023293579540959,9.8887963283984e-10,2.4414901559016e-09,-4.9119340994908e-09,8.653259897122e-09,-0.00023854686404748,0.0002385452993645,-0.00023854638413217,0.00023854578652836,-0.00023854254282251,0.00023854981667976,-0.00023854206001243,0.00023855030290187,-0.00023584595705819,0.00023585246652749,-0.0002358445396581,0.00023585389601066,4.9877891353705e-09,-8.7848412629324e-09,-1.2114977280124e-09,-2.2713291457134e-09,-0.00023293582146889,0.00023293232422408,-0.00023854545934752,0.00023854690856221,-0.00023854580360871,0.00023854655512753,-0.00023854985046905,0.0002385423192325,-0.00023855019357308,0.00023854196659154,-0.00023585268899022,0.00023584567124038,-0.000235853715418,0.00023584462156774,-0.00023584457880343,0.00023585406754225,-0.00023585791099876,0.00023584021494415,6.8395567318249e-10,-8.4294150748027e-10,-0.00023293414863717,0.00023293399706888,-6.005293456488e-10,4.6246734650987e-10,-0.00023854613134707,0.00023854613354976,-0.00023854574988987,0.00023854646257764,-0.00023854666691616,0.0002385456498756,-0.00023854628351535,0.00023854597891058,-0.00023584986390887,0.00023584856779956,-0.00023584830518963,0.00023584999713975,0.77140160605247,131329,3014,0.00097008786936304,0.00097008786936143,0.00097008786938825,32.325074249917,1.8600593999334e-05,1.8600593999334e-05,1.8600593999334e-05,1099041.0990348,0.0029145052848293
4019200,0.1702341251864,0.0033319257531567,0.0011106419177135,0.0011106419177092,0.001110641917734,-0.00026632325310987,0.00026632616011068,6.0140533981793e-10,2.2959765083613e-09,-4.6783351648662e-09,7.8704617643985e-09,-0.00027386488948221,0.00027386304616711,-0.00027386432984907,0.00027386361313107,-0.0002738608956293,0.00027386721785873,-0.00027386033308008,0.00027386778354649,-0.00026939141175755,0.00026939681553393,-0.00026938975879848,0.00026939848056719,4.7397495425638e-09,-7.9849928640342e-09,-8.9569620052801e-10,-2.0510936241314e-09,-0.00026632618443316,0.00026632322878519,-0.00027386322209133,0.000273864899665,-0.00027386359740959,0.00027386451448596,-0.00027386727992572,0.00027386066324789,-0.00027386765373715,0.00027386027819974,-0.00026939710642299,0.0002693910669342,-0.00026939822533982,0.00026938992139368,-0.00026938972947084,0.00026939870941254,-0.00026940205057386,0.00026938589740556,8.1807624368525e-10,-9.4015375083797e-10,-0.00026632476378196,0.00026632464945055,-6.2917137120973e-10,5.2929685654289e-10,-0.00027386397094177,0.00027386405663014,-0.00027386355763056,0.00027386441722957,-0.00027386458538001,0.00027386349581572,-0.00027386416960746,0.00027386385559216,-0.00026939484508352,0.0002693933897715,-0.00026939306405542,0.00026939505257072,0.77299484739946,131329,3014,0.0011090709747173,0.0011090709747127,0.0011090709747418,32.662573198261,2.1300585586085e-05,2.1300585586085e-05,2.1300585586085e-05,1242816.5511657,0.0033327580142041
4219200,0.19320769282135,0.0037605250924509,0.0012535083641455,0.0012535083641393,0.0012535083641661,-0.00030045194342643,0.00030045454962045,3.3300169573266e-10,2.2670461012389e-09,-4.5130881092121e-09,7.4016504761292e-09,-0.00031010845545702,0.00031010644297442,-0.00031010781627575,0.00031010708958047,-0.00031010466709147,0.00031011039881451,-0.00031010402498467,0.00031011104383378,-0.00030374968630963,0.00030375434798586,-0.00030374779959115,0.00030375624679789,4.5691170564163e-09,-7.5095617455113e-09,-7.1089232669247e-10,-1.9370865775485e-09,-0.0003004545732008,0.00030045191984304,-0.00031010664253533,0.00031010843179856,-0.00031010704063005,0.00031010802301609,-0.0003101104922833,0.00031010441448814,-0.00031011088879541,0.00031010400545951,-0.0003037547206395,0.00030374926484337,-0.00030375590811273,0.00030374804854341,-0.0003037478055352,0.00030375643625621,-0.00030375950299295,0.00030374425976461,9.4972969121868e-10,-1.0423325089132e-09,-0.0003004532888097,0.0003004532042492,-6.4898889738614e-10,5.7977327226568e-10,-0.00031010740742116,0.00031010757758625,-0.00031010696999896,0.00031010796078145,-0.00031010810109497,0.00031010693966386,-0.00031010766100276,0.00031010732152627,-0.00030375283682626,0.00030375120469834,-0.00030375082897649,0.00030375310004622,0.77488672715418,131329,3014,0.0012511055267488,0.0012511055267425,0.0012511055267736,33.000311318151,2.400249054521e-05,2.400249054521e-05,2.400249054521e-05,1376463.4945455,0.0037603743243428
4419200,0.21711472744786,0.0042055287140497,0.0014018429046802,0.0014018429046706,0.0014018429046989,-0.00033632668531985,0.00033632895832561,4.884758485746e-11,2.2213712400452e-09,-4.1832791013567e-09,6.7298832870087e-09,-0.00034833165420609,0.00034832956085814,-0.00034833093628856,0.00034833028668065,-0.00034832818721959,0.00034833317902098,-0.00034832746549263,0.00034833390370432,-0.00033994039369141,0.0003399441599584,-0.00033993827357031,0.00033994629105813,4.2273066589736e-09,-6.8166864216084e-09,-4.8704738055718e-10,-1.8221744115641e-09,-0.00033632897746125,0.00033632666618008,-0.00034832977459295,0.0003483316000293,-0.00034833020836549,0.00034833115493269,-0.00034833329374725,0.00034832793142488,-0.00034833372455264,0.00034832748592286,-0.00033994458763443,0.00033993992196065,-0.0003399458807642,0.0003399385966065,-0.00033993841196558,0.00033994633825823,-0.00033994910433813,0.00033993518894729,1.0840784522798e-09,-1.1429095273249e-09,-0.0003363278470066,0.00033632779664922,-6.8636788610869e-10,6.5267603996705e-10,-0.00034833052355612,0.0003483307698866,-0.00034833004908822,0.00034833118865276,-0.00034833129682921,0.00034833005382913,-0.00034833081936333,0.00034833047231443,-0.00033994317722092,0.00033994138454634,-0.00033994094053836,0.00033994351243679,0.7761206770947,131329,3014,0.0014003849412759,0.0014003849412674,0.0014003849412973,33.594293032257,2.8754344258056e-05,2.8754344258056e-05,2.8754344258056e-05,1511151.5627116,0.0042099992582945
4619200,0.24209370712498,0.0046692577706578,0.0015564192568764,0.0015564192568545,0.001556419256927,-0.00037383901876605,0.00037384097248076,-1.320715227174e-10,2.0862489450415e-09,-3.9028498086027e-09,6.1198396281737e-09,-0.00038846284739286,0.00038846071562575,-0.00038846211715094,0.00038846145338389,-0.00038845966594628,0.00038846403062487,-0.00038845892466964,0.00038846477444866,-0.00037785250034336,0.00037785559861981,-0.00037785032423105,0.00037785778489486,4.1308764349149e-09,-6.4695754374793e-09,-3.0089765161532e-10,-1.7669228903509e-09,-0.00037384102899266,0.0003738389622457,-0.00038846086973077,0.00038846283918109,-0.00038846134896641,0.00038846234647946,-0.00038846425277534,0.00038845931791069,-0.000388464721849,0.00038845883221027,-0.00037785611160513,0.0003778519506625,-0.00037785751996132,0.00037785050596391,-0.0003778503019495,0.00037785798987654,-0.00037786055564889,0.00037784729162847,1.3081513424774e-09,-1.3464966443341e-09,-0.00037384001039522,0.00037383998087372,-6.9323559853273e-10,6.8122051929104e-10,-0.00038846161652705,0.00038846201726836,-0.00038846113320629,0.00038846244353446,-0.0003884625351159,0.00038846115524595,-0.00038846204094138,0.00038846158775634,-0.00037785513541108,0.00037785296700979,-0.00037785249860578,0.0003778555108581,0.77693646234464,131329,3014,0.0015564549288686,0.0015564549288511,0.0015564549289144,34.292085083477,3.4336680667817e-05,3.4336680667817e-05,3.4336680667817e-05,1649774.2046369,0.0046802930639245
4819200,0.26811441615472,0.0051511743217484,0.0017170581072398,0.0017170581072048,0.0017170581073039,-0.00041275611505566,0.00041275788024972,-3.53072929982e-10,2.1202138729069e-09,-3.8907583628851e-09,5.9120012988155e-09,-0.00043027715499528,0.00043027483568928,-0.00043027634516913,0.00043027565348537,-0.00043027404712151,0.00043027806983282,-0.00043027322669869,0.00043027889238442,-0.00041726248599261,0.00041726508520292,-0.00041726006617717,0.00041726751278074,4.0789179893111e-09,-6.2550555354665e-09,-2.0002210401189e-10,-1.7108380065206e-09,-0.00041275795115059,0.00041275604414014,-0.00043027503135938,0.00043027709557404,-0.00043027552673501,0.0004302765878956,-0.00043027833933129,0.00043027366204603,-0.00043027882356201,0.00043027315865302,-0.00041726570471457,0.00041726183918282,-0.00041726715238345,0.0004172603410216,-0.00041726009063348,0.00041726767138443,-0.00041727009235149,0.00041725722956354,1.4257084664674e-09,-1.447461214877e-09,-0.00041275700400117,0.00041275699133349,-7.1084330323238e-10,7.1634772093649e-10,-0.00043027578900096,0.00043027626841672,-0.00043027528918108,0.00043027671131267,-0.00043027678632865,0.00043027532909795,-0.00043027627576796,0.00043027577659688,-0.00041726496120368,0.00041726260661003,-0.00041726211092691,0.00041726537926596,0.77792179087528,131329,3014,0.0017183441759269,0.0017183441758964,0.0017183441759876,34.992493463826,3.9939947710605e-05,3.9939947710605e-05,3.9939947710605e-05,1790786.2220363,0.0051683556864936
5019200,0.29512861506207,0.005648898388778,0.0018829661295879,0.001882966129542,0.0018829661296481,-0.00045288876874563,0.00045289044657984,-5.2102165991064e-10,2.2026269192596e-09,-3.896299251953e-09,5.8272713069204e-09,-0.00047362169117536,0.00047361923365862,-0.00047362079957854,0.00047362013331563,-0.00047361861115073,0.00047362243702537,-0.000473617709312,0.00047362334073149,-0.00045795402270597,0.00045795626915122,-0.00045795136035191,0.00045795893835044,4.0670816948645e-09,-6.1542217666134e-09,-1.4448290495962e-10,-1.6809045618842e-09,-0.0004528905176011,0.0004528886977046,-0.00047361946739001,0.0004736215902925,-0.00047361997130941,0.00047362107398708,-0.00047362274093236,0.00047361819540553,-0.00047362323386869,0.00047361768249124,-0.00045795699093161,0.0004579532773909,-0.00045795846265786,0.00045795175050041,-0.00045795146296942,0.00045795901849249,-0.00045796136082423,0.00045794868384834,1.5427258473137e-09,-1.5535999469116e-09,-0.0004528896085514,0.00045288960680037,-7.2070557178508e-10,7.3782712354961e-10,-0.00047362021704495,0.0004736207732491,-0.00047361970674607,0.00047362122591669,-0.00047362129053164,0.00047361975805486,-0.00047362076996472,0.00047362021473593,-0.0004579564197837,0.00045795386527741,-0.00045795335199213,0.00045795686360452,0.77677325761909,131329,3014,0.0018852630149629,0.0018852630149218,0.0018852630150174,35.69300233507,4.5544018680563e-05,4.5544018680563e-05,4.5544018680563e-05,1935064.8087807,0.00567183050458
5219200,0.32243996608907,0.0061513172443017,0.0020504390814327,0.0020504390813817,0.0020504390814873,-0.00049264884606454,0.00049265061108084,-5.4576282945254e-10,2.3147863068231e-09,-4.2723584168536e-09,6.297818595612e-09,-0.0005168350495685,0.00051683235695101,-0.00051683411343085,0.00051683330082376,-0.00051683169784289,0.00051683583924613,-0.00051683074976898,0.00051683678868791,-0.0004983776809382,0.00049838015683459,-0.00049837487941783,0.00049838296567288,4.4984878781295e-09,-6.6932490025948e-09,-2.2249120661277e-10,-1.7018305716661e-09,-0.00049265068787856,0.0004926487692435,-0.00051683261052204,0.00051683493699272,-0.00051683309657608,0.00051683443842712,-0.00051683619818913,0.00051683121823344,-0.00051683667206227,0.0005168307251054,-0.00049838100529513,0.00049837681046543,-0.00049838241452982,0.00049837534474454,-0.00049837480740124,0.00049838322886708,-0.00049838564821538,0.00049837193442568,1.7049298898122e-09,-1.7280983426054e-09,-0.00049264973566445,0.00049264972150406,-6.6711430532913e-10,6.7113530845348e-10,-0.00051683338938167,0.00051683408697088,-0.00051683291961204,0.0005168344978795,-0.00051683457611296,0.000516832958072,-0.0005168340942915,0.00051683337441061,-0.00049838037856446,0.00049837744812015,-0.00049837698960986,0.00049838077401791,0.77855552324295,131329,3014,0.0020506055300304,0.002050605529982,0.0020506055300783,36.022699409281,4.8181595274249e-05,4.8181595274249e-05,4.8181595274249e-05,2073931.7327663,0.0061708003058
5419200,0.34984433903266,0.0066476484786154,0.0022158828262038,0.0022158828261594,0.0022158828262522,-0.00053186090707438,0.00053186277898222,-6.0618551683092e-10,2.4806682028186e-09,-4.4141678582314e-09,6.5538173182032e-09,-0.00055982035898257,0.00055981757732316,-0.00055981935213159,0.00055981859215712,-0.00055981688767391,0.00055982118830892,-0.00055981586782859,0.0005598222085085,-0.00053816540998325,0.00053816790444896,-0.0005381623888931,0.0005381709303872,4.6407954156569e-09,-6.9553616516487e-09,-3.1711531014573e-10,-1.7169193032808e-09,-0.00053186285758875,0.0005318608284475,-0.00055981787915617,0.00055982020545418,-0.0005598183418845,0.00055981973279201,-0.00055982159585413,0.00055981635086972,-0.00055982204436601,0.00055981588240999,-0.0005381689007924,0.00053816438842028,-0.00053817023102865,0.00053816299708908,-0.00053816239583744,0.00053817112452467,-0.00053817362577541,0.00053815941930784,1.8197236827641e-09,-1.8606032803323e-09,-0.00053186185906279,0.00053186182701611,-6.3332302871767e-10,6.1838743285017e-10,-0.00055981860657132,0.00055981940373283,-0.00055981816638525,0.00055981978360508,-0.00055981988182821,0.00055981818928277,-0.0005598194279599,0.00055981857382613,-0.00053816826107461,0.00053816503899701,-0.00053816462580372,0.00053816860942041,0.76958003320912,131329,3014,0.0022136429104437,0.0022136429104014,0.0022136429104898,36.275616063822,5.0204928510575e-05,5.0204928510575e-05,5.0204928510575e-05,2193632.2638291,0.0066630571222168
5619200,0.37726187953703,0.0071202939406365,0.0023734313135435,0.0023734313135031,0.0023734313135898,-0.00056941683849534,0.00056941885797127,-6.5652784478971e-10,2.6773231623799e-09,-4.328543265798e-09,6.6191802322051e-09,-0.00060161893306695,0.00060161622907181,-0.00060161784549602,0.00060161732449671,-0.00060161547670023,0.00060161983174454,-0.00060161437636885,0.00060162093225106,-0.00057566057030747,0.00057566296488908,-0.00057565730913802,0.00057566622947427,4.5367569734499e-09,-7.0214191979044e-09,-4.3145665756389e-10,-1.7677577968331e-09,-0.00056941894597318,0.0005694167504748,-0.00060161659520191,0.00060161872086646,-0.00060161703819493,0.00060161826936659,-0.00060162029373188,0.00060161487881617,-0.00060162072220717,0.00060161443069581,-0.00057566411594071,0.00057565939199522,-0.00057566538387801,0.00057565806026848,-0.00057565760240415,0.00057566614423892,-0.00057566878799056,0.00057565446850478,1.9226207566674e-09,-1.9842601354796e-09,-0.00056941787471589,0.0005694178217722,-6.1561606380771e-10,5.7900059813505e-10,-0.00060161718305795,0.00060161805623798,-0.0006016167612245,0.00060161841578302,-0.00060161853675832,0.00060161676583474,-0.00060161810113684,0.00060161712942849,-0.00057566350226393,0.00057566001633779,-0.00057565964172205,0.00057566381015534,0.73637048667128,131329,3014,0.002369769886267,0.0023697698862282,0.0023697698863113,36.526531659952,5.2212253279615e-05,5.2212253279615e-05,5.2212253279615e-05,2318813.4121011,0.0071346765415687
5819200,0.40461054516587,0.0075736893785122,0.0025245631261683,0.0025245631261288,0.0025245631262151,-0.00060587065982639,0.00060587276436723,-7.3605336072214e-10,2.8408134411582e-09,-4.1927548840398e-09,6.5680782708938e-09,-0.00064262513025733,0.00064262249487288,-0.00064262396094684,0.00064262367044064,-0.00064262173860952,0.00064262603396468,-0.00064262055907756,0.00064262721514853,-0.00061156642295589,0.00061156860493636,-0.00061156292508428,0.00061157210548582,4.3908582954962e-09,-6.9695384934162e-09,-5.0293139570653e-10,-1.7897786821296e-09,-0.00060587285710413,0.00060587056707126,-0.00064262291804864,0.00064262486525857,-0.00064262334203913,0.00064262442792644,-0.00064262654447528,0.00064262108724441,-0.00064262696044665,0.0006426206577854,-0.00061156989875658,0.0006115651016526,-0.00061157111806086,0.00061156381666387,-0.00061156348654215,0.00061157175530738,-0.00061157447474466,0.00061156027060672,2.0298034907202e-09,-2.1075727938037e-09,-0.00060587174668738,0.0006058716775274,-6.0120058455835e-10,5.4784137691022e-10,-0.00064262337812847,0.00064262432741839,-0.00064262296763232,0.00064262466881169,-0.00064262480665255,0.00064262295803093,-0.00064262438891275,0.0006426233080125,-0.00061156937673171,0.00061156563274747,-0.0006115652890198,0.00061156965401419,0.71317583898447,131329,3014,0.002521291676896,0.0025212916768581,0.0025212916769397,36.777369837874,5.4218958702992e-05,5.4218958702992e-05,5.4218958702992e-05,2430802.7642714,0.007592599060263
6019200,0.43141095935242,0.0080091606160691,0.0026697202053517,0.0026697202053157,0.0026697202054017,-0.00064092235676069,0.00064092451078427,-8.31957634383e-10,2.9855704616365e-09,-4.1253812237295e-09,6.5494535930414e-09,-0.00068268206070851,0.00068267942484242,-0.00068268081035396,0.00068268068020734,-0.00068267869895947,0.00068268293310173,-0.00068267744029646,0.00068268419460363,-0.00064599709984488,0.00064599906911732,-0.00064599336749473,0.00064600280384404,4.3183081641171e-09,-6.9489289484005e-09,-5.6629777603326e-10,-1.7787139371052e-09,-0.00064092460519133,0.00064092226233726,-0.00068267990380281,0.0006826817410714,-0.00068268030107583,0.00068268132695601,-0.00068268349542514,0.00068267799406669,-0.00068268388941741,0.00068267759116922,-0.00064600051561907,0.00064599562569764,-0.00064600166211368,0.00064599441278938,-0.000645994117743,0.00064600226703246,-0.00064600501290015,0.00064599087116892,2.1396918588236e-09,-2.2306025409471e-09,-0.00064092347495833,0.00064092339260884,-5.7206635539788e-10,5.0500045546509e-10,-0.00068268026484186,0.00068268130247185,-0.00068267987525826,0.00068268161766374,-0.00068268176968355,0.00068267985451081,-0.00068268137744271,0.00068268018148545,-0.00064600007950949,0.00064599606931974,-0.00064599576357625,0.00064600032112309,0.70261523243272,131329,3014,0.0026669644592664,0.0026669644592324,0.0026669644593123,36.775485134457,5.4203881075659e-05,5.4203881075659e-05,5.4203881075659e-05,2476881.9203361,0.0080330454306121
6219200,0.45759668142731,0.0084371730417954,0.0028123910139268,0.0028123910138914,0.0028123910139772,-0.00067554259161165,0.00067554476121313,-9.4390709699199e-10,3.113342739987e-09,-4.0317502793259e-09,6.4720749389356e-09,-0.00072259207863296,0.00072258943375256,-0.00072259074823078,0.00072259076903249,-0.0007225887714852,0.00072259288545044,-0.00072258743305393,0.00072259422685306,-0.00068023136216227,0.00068023305699727,-0.00068022739572986,0.0006802370258276,4.2218908626502e-09,-6.8685429707086e-09,-6.0165004718213e-10,-1.7589062822243e-09,-0.00067554485542817,0.00067554249738064,-0.00072258996153744,0.000722591708128,-0.00072259034060152,0.00072259131253631,-0.00072259349642603,0.00072258801962317,-0.00072259387240318,0.00072258763514958,-0.00068023464583207,0.0006802297449459,-0.00068023573851745,0.00068022858585781,-0.00068022832944507,0.00068023630718447,-0.00068023904895357,0.00068022508308006,2.2520694062373e-09,-2.3520559458054e-09,-0.00067554372214547,0.00067554363070155,-5.5019639264258e-10,4.735810320422e-10,-0.00072259023439456,0.00072259135866946,-0.00072258986264551,0.00072259165643718,-0.0007225918170459,0.00072258983277691,-0.00072259144270897,0.00072259014210326,-0.00068023433190046,0.00068023006528882,-0.00068022978790866,0.00068023454822052,0.70745491798637,131329,3014,0.0028108245458397,0.0028108245458065,0.0028108245458856,36.758773867833,5.4070190942663e-05,5.4070190942663e-05,5.4070190942663e-05,2455252.3491163,0.0084682032176695
6419200,0.48312843802437,0.0088517535743707,0.002950584524785,0.0029505845247498,0.0029505845248359,-0.00070911552397393,0.00070911767511578,-1.0724652487758e-09,3.223989259547e-09,-3.989892678488e-09,6.4116808787268e-09,-0.00076143599477915,0.00076143328358664,-0.00076143458483614,0.00076143469874339,-0.0007614327179795,0.0007614367026938,-0.0007614312996149,0.00076143812372996,-0.00071344686569043,0.00071344827522406,-0.0007134426654333,0.00071345247797098,4.1780825231155e-09,-6.8052915309563e-09,-6.1270920582852e-10,-1.7290552888431e-09,-0.00070911776885476,0.00070911543021925,-0.00076143385667113,0.00076143557573132,-0.00076143422308906,0.00076143519452964,-0.0007614373605,0.00076143192228291,-0.00076143772227796,0.00076143155079704,-0.00071344999973608,0.0007134451124411,-0.00071345105252259,0.000713443993342,-0.00071344372693366,0.00071345163161596,-0.00071345433990053,0.0007134405135751,2.3661918303462e-09,-2.4722386226012e-09,-0.0007091166483114,0.00070911655080055,-5.3370149609447e-10,4.5067925619044e-10,-0.00076143407378723,0.0007614352833554,-0.00076143371648914,0.00076143556928274,-0.00076143573481303,0.00076143367957413,-0.00076143537333846,0.00076143397562042,-0.00071344981674807,0.0007134453011148,-0.00071344504412892,0.00071345001496372,0.70210892760317,131329,3014,0.0029503137133723,0.0029503137133397,0.0029503137134183,36.741614674271,5.3932917394171e-05,5.3932917394171e-05,5.3932917394171e-05,2449847.1897148,0.0088903214662491
6619200,0.50838029912794,0.0092859508893963,0.0030953169631267,0.0030953169630916,0.003095316963178,-0.0007439968699059,0.00074399899628335,-1.205244243851e-09,3.3324996045423e-09,-3.8841364123576e-09,6.2801692167001e-09,-0.00080115529736208,0.00080115255848219,-0.00080115380718173,0.00080115405418586,-0.0008011520963519,0.00080115590007639,-0.00080115059762994,0.00080115740121425,-0.00074867165888284,0.00074867272939153,-0.00074866722257342,0.00074867716822081,4.0696171972983e-09,-6.6706766755867e-09,-5.9368037857489e-10,-1.723433188686e-09,-0.0007439990898112,0.00074399677636352,-0.00080115316898787,0.00080115483841601,-0.00080115354059372,0.00080115445339886,-0.00080115659563605,0.00080115126519339,-0.00080115696159552,0.00080115088856252,-0.00074867456388034,0.00074866979533964,-0.00074867563028559,0.00074866866274942,-0.00074866845942642,0.00074867614601818,-0.00074867883301984,0.00074866526811925,2.4806488618212e-09,-2.5902505733877e-09,-0.00074399798364311,0.00074399788256983,-5.4371479738616e-10,4.5701692978474e-10,-0.00080115332750196,0.00080115460565011,-0.00080115296605866,0.00080115489845283,-0.00080115506589068,0.00080115292418408,-0.00080115469926028,0.00080115322576945,-0.00074867455314884,0.00074866981157492,-0.00074866955352726,0.00074867475410602,0.74070666123559,131329,3014,0.0030952181623188,0.0030952181622886,0.0030952181623677,37.008795508222,5.6070364065779e-05,5.6070364065779e-05,5.6070364065779e-05,2392559.6427685,0.009329012012075
6819200,0.53444639463265,0.0097676801966335,0.0032558933988741,0.0032558933988367,0.0032558933989227,-0.00078313659442762,0.00078313867964079,-1.3334672441381e-09,3.4200429835639e-09,-3.5832199434139e-09,5.9350442265317e-09,-0.00084446823031891,0.000844465592913,-0.00084446666889827,0.00084446716009193,-0.00084446524176757,0.0008444687195247,-0.00084446367064584,0.00084447029316333,-0.00078887189277166,0.00078887249285171,-0.00078886724277081,0.00078887714706105,3.774353254213e-09,-6.3321851870248e-09,-5.0147356729458e-10,-1.7758991590686e-09,-0.00078313877349139,0.00078313650056328,-0.0008444662118357,0.00084446776048135,-0.00084446663233084,0.00084446732683394,-0.00084446943111782,0.00084446439728078,-0.00084446984448816,0.00084446397274051,-0.0007888743697261,0.0007888699901278,-0.00078887557479549,0.0007888687191278,-0.00078886877476719,0.00078887582866714,-0.00078887852322193,0.00078886557920361,2.6112510676017e-09,-2.7187222500485e-09,-0.00078313768653967,0.00078313758756565,-6.0617358384252e-10,5.2210838727069e-10,-0.00084446628743447,0.00084446761184721,-0.0008444658849298,0.0008444679476235,-0.00084446811191847,0.00084446584263009,-0.00084446770299526,0.00084446618814771,-0.00078887465471525,0.00078886970802331,-0.00078886940546651,0.00078887490186693,0.79221450471143,131329,3014,0.0032577861584973,0.0032577861584688,0.0032577861585738,38.073350877765,6.458680702212e-05,6.458680702212e-05,6.458680702212e-05,2361463.2665293,0.0098213987543828
7019200,0.56122842911932,0.010225246355322,0.0034084154517779,0.0034084154517348,0.0034084154518095,-0.00082161219156901,0.00082161422549709,-1.4801148869768e-09,3.5155057064197e-09,-3.3629911864571e-09,5.6594120348471e-09,-0.00088768180083447,0.00088767919732846,-0.00088768015969662,0.00088768084457693,-0.000887678974521,0.00088768215819055,-0.00088767732346394,0.00088768381145259,-0.00082740714780667,0.00082740729597498,-0.00082740226192592,0.00082741218492023,3.5513989643119e-09,-6.0535039903253e-09,-4.1110088114706e-10,-1.8146251156639e-09,-0.00082161431904366,0.00082161209800926,-0.00088767983275318,0.00088768131086819,-0.00088768029675026,0.00088768083405885,-0.00088768288886144,0.0008876781148414,-0.00088768334523633,0.00088767764645859,-0.00082740922551321,0.00082740519265271,-0.00082741055759726,0.00082740379286158,-0.00082740404311258,0.00082741061520706,-0.00082741330102002,0.000827400861004,2.7304260298884e-09,-2.8322370260147e-09,-0.00082161325519736,0.00082161316189789,-6.6888376183963e-10,5.9108954964941e-10,-0.00088767985376,0.00088768121857674,-0.00088767940803817,0.00088768159835882,-0.00088768175649829,0.00088767937091509,-0.00088768130405841,0.00088767975986264,-0.0008274097738649,0.00082740464703052,-0.00082740429512778,0.00082741007059838,0.73335806895785,131329,3014,0.0034175708914366,0.0034175708914092,0.0034175708914969,39.157503019628,7.3260024157021e-05,7.3260024157021e-05,7.3260024157021e-05,2363120.5406054,0.010305596286474
7219200,0.58857311789412,0.010674883849379,0.0035582946164669,0.0035582946164197,0.0035582946164922,-0.0008598925429539,0.00085989452045289,-1.6282147223932e-09,3.6076759060363e-09,-3.2046361210663e-09,5.4414766489177e-09,-0.00093097583421254,0.00093097321879607,-0.00093097411322457,0.00093097494614684,-0.00093097312949412,0.00093097605429034,-0.00093097139851651,0.00093097778741383,-0.00086534090237235,0.0008653406346991,-0.00086533578191817,0.00086534575840929,3.3911918084996e-09,-5.833202813489e-09,-3.2274272381644e-10,-1.8465212475366e-09,-0.00085989461374641,0.00085989244964378,-0.00093097387269011,0.00093097532202705,-0.00093097437672089,0.00093097480520111,-0.00093097680603969,0.00093097225290464,-0.00093097730219977,0.00093097174409146,-0.00086534262223281,0.00086533889030557,-0.00086534407214234,0.00086533737200635,-0.00086533776623157,0.00086534398305144,-0.00086534665248926,0.00086533460579384,2.8522013857055e-09,-2.9449841929603e-09,-0.00085989357378273,0.00085989348964677,-7.2472097596283e-10,6.5671342004698e-10,-0.00093097385672677,0.00093097526847299,-0.00093097337091189,0.00093097568919708,-0.00093097583765273,0.00093097334241526,-0.00093097534486114,0.00093097377187272,-0.0008653434110391,0.00086533810342448,-0.00086533770241644,0.00086534375756477,0.70718848111968,131329,3014,0.0035765196719275,0.003576519671893,0.0035765196719745,40.242406588474,8.1939252707795e-05,8.1939252707795e-05,8.1939252707795e-05,2404767.6826879,0.010787495305351
7419200,0.61548451964524,0.011102399141151,0.0037007997137247,0.0037007997136769,0.0037007997137499,-0.00089562014056994,0.00089562207967305,-1.8680832433098e-09,3.8094001997329e-09,-3.3317318132625e-09,5.529324562636e-09,-0.00097184873585415,0.00097184585136294,-0.00097184685644971,0.00097184773734164,-0.00097184594395844,0.00097184877119729,-0.00097184408028611,0.00097185063707864,-0.00090039874213921,0.00090039811377646,-0.00090039322772069,0.00090040363264586,3.4476201470347e-09,-5.8462088131683e-09,-3.2503386269826e-10,-1.8024750960871e-09,-0.00089562217116941,0.00089562004905602,-0.00097184661874965,0.00097184810720342,-0.00097184709506422,0.00097184761820608,-0.00097184956649084,0.00097184502701088,-0.00097185006055251,0.00097184452005162,-0.00090040027610649,0.0009003965553247,-0.00090040172019697,0.00090039504465537,-0.00090039534173212,0.00090040172399305,-0.00090040433745089,0.00090039224333293,2.8737995279853e-09,-2.9570899396969e-09,-0.00089562114739106,0.0008956210728724,-7.643699811247e-10,7.0655985100803e-10,-0.0009718466329693,0.00097184802489973,-0.00097184610524938,0.00097184848812965,-0.00097184861384269,0.00097184609894154,-0.00097184810468164,0.00097184654484707,-0.00090040108694422,0.00090039574768949,-0.00090039530703007,0.0009004014721666,0.68501443827446,131329,3014,0.0037248461755101,0.0037248461754735,0.0037248461755523,40.770631007164,8.6165048057311e-05,8.6165048057311e-05,8.6165048057311e-05,2478237.3777332,0.011237403471637
7619200,0.64122206838072,0.011502628071492,0.0038342093571711,0.0038342093571229,0.0038342093571984,-0.00092836523770893,0.0009283671672594,-1.9722239771466e-09,3.9037701690598e-09,-3.5989561704477e-09,5.7878367462074e-09,-0.0010096986916,0.001009695545688,-0.0010096967393838,0.001009697504234,-0.0010096957212497,0.00100969864205,-0.0010096937803947,0.0010097005854667,-0.00093234366739653,0.00093234299335967,-0.00093233794488703,0.00093234872510263,3.729519772874e-09,-6.1157492120835e-09,-3.4267877432284e-10,-1.7714868990835e-09,-0.00092836725698348,0.00092836514796652,-0.0010096963543209,0.0010096980206163,-0.0010096968132573,0.0010096975478836,-0.0010096994869866,0.0010096947559166,-0.0010096999599886,0.0010096942708846,-0.0009323452921697,0.00093234133957915,-0.00093234668337068,0.00093233989568037,-0.00093233996208976,0.00093234690314814,-0.00093234949518829,0.00093233690065928,3.0149886732833e-09,-3.0928492675779e-09,-0.00092836623702055,0.00092836616796829,-7.2408535491003e-10,6.7176178457977e-10,-0.0010096964008923,0.0010096979061322,-0.0010096958976844,0.0010096983449226,-0.0010096984674902,0.00100969589425,-0.0010096979782646,0.0010096963204785,-0.0009323461298007,0.00093234051480671,-0.00093234009207774,0.00093234649157845,0.67223241029276,131329,3014,0.0038607710934876,0.0038607710934495,0.00386077109353,40.851694947372,8.6813559578973e-05,8.6813559578973e-05,8.6813559578973e-05,2546473.5177047,0.011649876677204
7819200,0.665751056797,0.011880131691618,0.0039600438972136,0.0039600438971643,0.0039600438972405,-0.00095938930617853,0.00095939124384753,-2.0845141275243e-09,4.0232804786313e-09,-3.8609350215853e-09,6.058842714867e-09,-0.0010458863041767,0.001045882909679,-0.0010458842742665,0.0010458849462207,-0.0010458831553574,0.0010458861843427,-0.0010458811355623,0.0010458882064461,-0.00096263162414716,0.00096263090569697,-0.00096262567145896,0.00096263686720542,3.9942758445113e-09,-6.3866165706025e-09,-3.8016851032666e-10,-1.738405871759e-09,-0.00095939133216283,0.00095938921784433,-0.0010458837672276,0.0010458855837509,-0.0010458842031252,0.0010458851347448,-0.0010458870798049,0.0010458821400861,-0.0010458875280742,0.0010458816790251,-0.0009626333541713,0.00096262914712545,-0.00096263467372667,0.00096262777373662,-0.00096262762469615,0.00096263510947268,-0.00096263768239318,0.00096262458238871,3.1375946246085e-09,-3.2137999544116e-09,-0.00095939030871837,0.00095939024132771,-6.8604545385584e-10,6.3525120817341e-10,-0.0010458838356466,0.0010458854477327,-0.0010458833574735,0.0010458858614447,-0.001045885983167,0.0010458833555015,-0.0010458855177635,0.0010458837573753,-0.00096263419411888,0.00096262832047555,-0.00096262791970925,0.0009626345314754,0.66655083551092,131329,3014,0.0039895363563243,0.003989536356285,0.0039895363563656,40.921592775413,8.7372742203301e-05,8.7372742203301e-05,8.7372742203301e-05,2568407.0065228,0.012040783926252
8019200,0.68906436562498,0.012235719042369,0.0040785730141307,0.0040785730140808,0.0040785730141574,-0.00098873433341466,0.00098873629065508,-2.1922590305209e-09,4.1501358189936e-09,-4.0744517218555e-09,6.2935451278399e-09,-0.0010802338814109,0.0010802302781407,-0.0010802317729815,0.0010802323932146,-0.0010802305827741,0.0010802337026687,-0.0010802284840954,0.0010802358036559,-0.00099128263711119,0.00099128185600182,-0.00099127645308045,0.00099128804890833,4.2092743122542e-09,-6.6204540992655e-09,-4.2508471742013e-10,-1.7103438994893e-09,-0.00098873637782449,0.00098873424622574,-0.0010802311860393,0.0010802331106965,-0.0010802315977554,0.0010802326860064,-0.0010802346486124,0.0010802295168559,-0.0010802350723195,0.0010802290804473,-0.00099128445543929,0.00099128000902897,-0.00099128570254206,0.00099127870832042,-0.00099127838269626,0.00099128631474803,-0.00099128888091602,0.00099127534720842,3.2573845433146e-09,-3.3346684225216e-09,-0.00098873534627647,0.00098873527781265,-6.4922629846458e-10,5.971002347624e-10,-0.001080231256631,0.0010802329724445,-0.0010802308033504,0.0010802333609567,-0.0010802334842744,0.00108023080049,-0.0010802330433702,0.0010802311774863,-0.00099128530632681,0.00099127917256789,-0.00099127879672358,0.00099128561630066,0.66097249205233,131329,3014,0.0041113188328594,0.0041113188328189,0.0041113188328994,40.99106024534,8.7928481962716e-05,8.7928481962716e-05,8.7928481962716e-05,2569593.4834699,0.012410635997173
8219200,0.71130601074793,0.012572154196022,0.0041907180653482,0.0041907180652981,0.0041907180653753,-0.001016776485864,0.0010167784634597,-2.3001671413257e-09,4.2778847022059e-09,-4.1806529299815e-09,6.4209737627767e-09,-0.0011130700057779,0.0011130662661859,-0.0011130678186843,0.0011130684599098,-0.0011130666292847,0.001113069768732,-0.00111306445163,0.0011130719486998,-0.0010186148585302,0.0010186139441078,-0.0010186084435155,0.0010186203681684,4.3165012365348e-09,-6.7469311565095e-09,-4.5991248044944e-10,-1.6934414898881e-09,-0.0010167785496618,0.0010167763996421,-0.0011130672211697,0.0011130691881468,-0.0011130676158602,0.001113068780623,-0.001113070761681,0.0011130655160428,-0.0011130711680477,0.0011130650971289,-0.0010186166832195,0.0010186120903708,-0.0010186178795756,0.0010186108412601,-0.0010186104235235,0.0010186185832403,-0.0010186211510124,0.0010186073870249,3.3760502284535e-09,-3.4555332477136e-09,-0.0010167775100087,0.0010167774393341,-6.2395979710356e-10,5.693810880486e-10,-0.0011130672652891,0.0011130690762896,-0.0011130668295565,0.0011130694468371,-0.0011130695728816,0.001113066824743,-0.0011130691492436,0.0011130671841347,-0.0010186175885461,0.0010186112007991,-0.0010186108436897,0.0010186178776638,0.65549139622332,131329,3014,0.004227681530907,0.0042276815308658,0.0042276815309461,41.181411110723,8.9451288885787e-05,8.9451288885787e-05,8.9451288885787e-05,2572712.4805338,0.012764157780512
8419200,0.73252727443911,0.012892460964482,0.0042974869881682,0.0042974869881179,0.0042974869881957,-0.0010435488472968,0.0010435508415875,-2.4098911370682e-09,4.4038740984045e-09,-4.2166861074868e-09,6.4741728845507e-09,-0.0011444159339929,0.0011444121027157,-0.0011444136683958,0.0011444143749132,-0.0011444125276071,0.0011444156349077,-0.0011444102710029,0.001144417893835,-0.0010446098297366,0.0010446087299977,-0.0010446031833311,0.00104461538545,4.3535023851882e-09,-6.799331391709e-09,-4.8621152285527e-10,-1.6817025987813e-09,-0.0010435509269294,0.0010435487619347,-0.001144413102183,0.001144415071619,-0.0011444134845098,0.0011444146765812,-0.0011444166729686,0.0011444113693509,-0.0011444170665368,0.0011444109634208,-0.0010446116027069,0.0010446069278935,-0.0010446127612653,0.0010446057167903,-0.0010446052595658,0.0010446135043128,-0.0010446160744444,0.0010446022207527,3.4944029645646e-09,-3.5765492351994e-09,-0.0010435498811276,0.0010435498077754,-6.0580301310438e-10,5.4832149852225e-10,-0.0011444131024671,0.0011444150037637,-0.0011444126797539,0.0011444153608057,-0.0011444154901319,0.0011444126724773,-0.0011444150791339,0.0011444130189156,-0.0010446125921307,0.0010446059549259,-0.0010446056127082,0.0010446128647467,0.65380935133881,131329,3014,0.004338763386826,0.0043387633867843,0.0043387633868647,41.430697533674,9.1445580269392e-05,9.1445580269392e-05,9.1445580269392e-05,2574563.4387794,0.013101753708283
8619200,0.7527125329419,0.013196724044068,0.0043989080146969,0.0043989080146466,0.004398908014725,-0.0010689424611938,0.0010689444675352,-2.5223239983215e-09,4.5280194534668e-09,-4.2113297850011e-09,6.4809613096689e-09,-0.0011741412019145,0.0011741373032376,-0.0011741388574312,0.0011741396542748,-0.0011741377946948,0.0011741408358491,-0.0011741354590374,0.0011741431738541,-0.0010692716945613,0.0010692703752515,-0.0010692648162605,0.0010692772625566,4.3487184183421e-09,-6.8051940834792e-09,-5.0724902061304e-10,-1.670928424419e-09,-0.0010689445521466,0.001068942376562,-0.0011741383465094,0.0011741402953174,-0.0011741387184146,0.0011741399107912,-0.0011741419181028,0.0011741365924913,-0.0011741423011211,0.0011741361973501,-0.0010692733786847,0.0010692686620282,-0.001069274505811,0.0010692674824127,-0.001069267014278,0.0010692752597723,-0.0010692778298631,0.0010692639754257,3.6121530342043e-09,-3.6972126941312e-09,-0.0010689435025141,0.0010689434262336,-5.9118031011203e-10,5.3055393144158e-10,-0.0011741382929181,0.0011741402815934,-0.0011741378808389,0.0011741406275459,-0.001174140760208,0.0011741378709253,-0.0011741403597581,0.0011741382065929,-0.0010692744708172,0.0010692675867378,-0.00106926725766,0.0010692747292036,0.65260875471726,131329,3014,0.0044441139639284,0.0044441139638859,0.0044441139639666,41.681472430393,9.3451779443146e-05,9.3451779443146e-05,9.3451779443146e-05,2576009.1988671,0.013422037808329
8819200,0.77185278121344,0.01347461185811,0.0044915372860437,0.0044915372859933,0.0044915372860724,-0.0010924816552206,0.0010924836699234,-2.6365592541599e-09,4.6504035141295e-09,-4.1908987352733e-09,6.4687927276461e-09,-0.0012019229618652,0.0012019190036503,-0.0012019205385145,0.0012019214335139,-0.0012019195652501,0.0012019225252444,-0.0012019171505193,0.001201924942344,-0.001091873300321,0.0010918717465374,-0.0010918661901215,0.0010918788657767,4.328753455507e-09,-6.7922449447337e-09,-5.2483860874068e-10,-1.6602898795513e-09,-0.0010924837539344,0.0010924815711879,-0.0012019200902101,0.0012019220115306,-0.0012019204529299,0.0012019216363098,-0.0012019236512685,0.001201918319545,-0.0012019240249244,0.0012019179340072,-0.001091874879072,0.001091870138706,-0.0010918759783705,0.0010918689871343,-0.0010918685180874,0.0010918767331121,-0.0010918793009734,0.0010918654814541,3.7297233675113e-09,-3.8178907608815e-09,-0.0010924827022791,0.0010924826228823,-5.784723904479e-10,5.1451954728101e-10,-0.0012019199800415,0.0012019220546806,-0.0012019195774058,0.0012019223907572,-0.0012019225269155,0.0012019195646253,-0.0012019221358013,0.0012019198907833,-0.0010918760823389,0.0010918689525901,-0.0010918686357979,0.0010918763276957,0.62941992802559,131329,3014,0.004541761265782,0.004541761265737,0.004541761265818,41.932304843558,9.5458438748466e-05,9.5458438748466e-05,9.5458438748466e-05,2605566.958445,0.013718999079468
9019200,0.78954712602165,0.013731726543333,0.0045772421811177,0.004577242181068,0.0045772421811478,-0.0011133890338085,0.001113391060642,-2.7490334089752e-09,4.7747317255762e-09,-4.2480235953245e-09,6.5385418645637e-09,-0.0012267999614547,0.0012267958941615,-0.001226797459131,0.0012267984029179,-0.0012267965223925,0.0012267994580308,-0.0012267940285812,0.0012268019542343,-0.0011119108624925,0.0011119091310842,-0.0011119035203036,0.0011119164822705,4.386198657006e-09,-6.8612362852023e-09,-5.6789456547004e-10,-1.628046635196e-09,-0.0011133911441263,0.0011133889503033,-0.0012267970320723,0.0012267989595035,-0.0012267973699686,0.0012267986093231,-0.0012268006355214,0.0012267952251776,-0.0012268009842576,0.0012267948649028,-0.0011119124157582,0.0011119075485952,-0.0011119134412779,0.0011119064711314,-0.0011119059225526,0.0011119142755574,-0.0011119168293963,0.0011119028996589,3.8461054877645e-09,-3.9394512207047e-09,-0.0011133900895406,0.0011133900049283,-5.4355292750765e-10,4.7397530164459e-10,-0.0012267968753868,0.001226799049379,-0.0012267964977596,0.0012267993600156,-0.0012267995017411,0.001226796480088,-0.0012267991355785,0.0012267967810676,-0.0011119136874528,0.0011119062945319,-0.0011119060076275,0.0011119139020372,0.62977530206851,131329,3014,0.0046284840793908,0.0046284840793473,0.0046284840794287,41.750125611112,9.4001004888893e-05,9.4001004888893e-05,9.4001004888893e-05,2618430.734142,0.013982814184254
9219200,0.80578889425935,0.01396517641419,0.0046550588047363,0.0046550588046868,0.0046550588047673,-0.0011321503937853,0.0011321524333988,-2.8561622347337e-09,4.8944640985403e-09,-4.2980146971307e-09,6.6018727213201e-09,-0.0012492661801678,0.0012492620139016,-0.0012492636039306,0.0012492645964992,-0.0012492627049895,0.0012492656137418,-0.0012492601334248,0.0012492681876855,-0.0011298240341555,0.0011298221253793,-0.0011298164641056,0.0011298297041588,4.4418426672134e-09,-6.9295059367142e-09,-6.109875225084e-10,-1.5968325363125e-09,-0.0011321525165417,0.0011321503106199,-0.0012492631979977,0.0012492651317472,-0.0012492635132754,0.0012492648045079,-0.0012492668447541,0.0012492613541944,-0.0012492671669912,0.0012492610207203,-0.0011298255644633,0.0011298205657234,-0.0011298265113151,0.0011298195667861,-0.0011298189413445,0.0011298274231025,-0.0011298299636863,0.0011298159306686,3.9667767085768e-09,-4.0664875207741e-09,-0.0011321514591199,0.0011321513680811,-5.0655095412783e-10,4.3009350970321e-10,-0.0012492629921239,0.0012492652710405,-0.001249262643151,0.0012492655526511,-0.0012492657029639,0.0012492626175198,-0.0012492653616377,0.0012492628933934,-0.0011298269055982,0.0011298192424483,-0.0011298189885859,0.0011298270865802,0.62300580354407,131329,3014,0.0047062998565959,0.0047062998565492,0.0047062998566308,41.452349066054,9.1618792528429e-05,9.1618792528429e-05,9.1618792528429e-05,2630173.2184962,0.01421959571399
9419200,0.82068716081236,0.014176965344211,0.0047256551147423,0.0047256551146939,0.004725655114775,-0.001149107893467,0.0011491099439253,-2.9721879744035e-09,5.0210298509846e-09,-4.32193092133e-09,6.6368846636704e-09,-0.0012696786810578,0.001269674424653,-0.0012696760232424,0.001269677088771,-0.0012696751852266,0.0012696780449672,-0.0012696725341203,0.0012696806984365,-0.0011459519270935,0.0011459498146745,-0.0011459441229617,0.0011459576274189,4.4627294260007e-09,-6.960701439452e-09,-6.4896041308628e-10,-1.5686515985199e-09,-0.0011491100266841,0.001149107810685,-0.0012696756612842,0.001269677579718,-0.0012696759539309,0.0012696772755072,-0.0012696793248618,0.0012696737855895,-0.0012696796264013,0.0012696734730468,-0.0011459533998405,0.0011459483124761,-0.0011459542853668,0.0011459473750018,-0.00114594669937,0.0011459552476002,-0.0011459577760407,0.0011459437002736,4.0793905092437e-09,-4.1857185663475e-09,-0.00114910896754,0.0011491088698686,-4.7890131054075e-10,3.9535859491925e-10,-0.0012696754023744,0.0012696777723238,-0.0012696750731549,0.0012696780338872,-0.0012696781900128,0.0012696750423104,-0.0012696778704541,0.0012696752961193,-0.0011459548257934,0.0011459469047469,-0.0011459466778688,0.0011459549789236,0.61620824149526,131329,3014,0.0047766286914824,0.0047766286914343,0.004776628691516,41.151584237249,8.9212673897994e-05,8.9212673897994e-05,8.9212673897994e-05,2644033.4485841,0.014433645843526
9619200,0.83434809474675,0.014368971237095,0.0047896570790359,0.0047896570789889,0.0047896570790705,-0.0011644298608776,0.0011644319197135,-3.0864714014762e-09,5.1435784899137e-09,-4.3214615720801e-09,6.6449268246938e-09,-0.0012882415475695,0.0012882372182438,-0.0012882388108931,0.0012882399611725,-0.001288238049225,0.0012882408409728,-0.0012882353190081,0.0012882435735566,-0.0011604816974273,0.0011604793639612,-0.0011604736612206,0.0011604874086343,4.4623406350407e-09,-6.968204085402e-09,-6.7887193630013e-10,-1.5463916098366e-09,-0.0011644320021684,0.0011644297784002,-0.0012882385024095,0.0012882403983303,-0.001288238778167,0.0012882401114829,-0.0012882421687604,0.0012882366016802,-0.0012882424530204,0.0012882363066638,-0.0011604830901483,0.0011604779416105,-0.0011604839245182,0.0011604770555336,-0.0011604763510214,0.0011604849156685,-0.0011604874344106,0.0011604733614079,4.194873640078e-09,-4.3077148686206e-09,-0.0011644309424228,0.0011644308381855,-4.5629202073904e-10,3.6579650810895e-10,-0.0012882381872263,0.0012882406474106,-0.0012882378755209,0.0012882408914528,-0.0012882410543985,0.0012882378382813,-0.001288240751878,0.0012882380746464,-0.0011604846137792,0.0011604764365317,-0.0011604762332119,0.0011604847428232,0.60938040662725,131329,3014,0.0048401701262254,0.0048401701261786,0.0048401701262609,40.850703449161,8.6805627593288e-05,8.6805627593288e-05,8.6805627593288e-05,2659320.1978254,0.014627079196632
9819200,0.84663674170325,0.014542579399385,0.0048475264664651,0.0048475264664189,0.0048475264665006,-0.0011774118239238,0.0011774138948516,-3.1824786996956e-09,5.2516559224576e-09,-4.3677303657766e-09,6.7038408013829e-09,-0.001304160223037,0.0013041558110619,-0.0013041574267979,0.0013041586133231,-0.001304156698236,0.0013041594601567,-0.0013041538904269,0.0013041622703625,-0.0011727823306141,0.0011727798161937,-0.0011727740661092,0.0011727880890177,4.5354784632421e-09,-7.0549853600547e-09,-7.197607397667e-10,-1.5184072619228e-09,-0.0011774139777324,0.0011774117410159,-0.0013041571235979,0.0013041590453667,-0.0013041573854521,0.0013041587724802,-0.0013041608517541,0.0013041551865325,-0.0013041611042163,0.0013041549239162,-0.0011727837141267,0.0011727784033145,-0.0011727844517786,0.0011727776134723,-0.0011727768251615,0.0011727855282604,-0.0011727880358392,0.0011727738445645,4.3259830818334e-09,-4.446606657513e-09,-0.0011774129154925,0.0011774128033103,-4.1526394785379e-10,3.1642567703042e-10,-0.0013041567609956,0.0013041593418643,-0.0013041564881839,0.0013041595467503,-0.0013041597269284,0.0013041564342346,-0.001304159445113,0.0013041566495751,-0.0011727852932464,0.0011727768420807,-0.0011727766769037,0.0011727853844921,0.61213711223232,131329,3014,0.0048940044151176,0.0048940044150613,0.0048940044151744,40.184610429608,8.1476883436867e-05,8.1476883436867e-05,8.1476883436867e-05,2667233.2169618,0.014790992818314
10019200,0.85768229789678,0.014699642251063,0.0048998807503563,0.0048998807503147,0.0048998807503918,-0.0011888611189882,0.0011888632004165,-3.3046105261815e-09,5.3840354959408e-09,-4.404495464981e-09,6.7513938562579e-09,-0.0013182486308477,0.0013182441141755,-0.0013182457468691,0.0013182470041905,-0.0013182450747267,0.0013182477944715,-0.0013182421869522,0.0013182506847017,-0.0011836911748722,0.0011836884625665,-0.0011836826741052,0.0011836969716643,4.5573785367273e-09,-7.0870808363504e-09,-7.5858350136322e-10,-1.4893315689931e-09,-0.0011888632830303,0.0011888610363469,-0.0013182454874798,0.0013182473922003,-0.001318245723461,0.0013182471455431,-0.0013182492307395,0.0013182435182665,-0.0013182494650851,0.0013182432741243,-0.0011836925002325,0.001183687107943,-0.0011836931845494,0.0011836863716525,-0.0011836855313431,0.0011836943128937,-0.0011836968078571,0.0011836825629869,4.4320148026371e-09,-4.5600215384133e-09,-0.0011888622194636,0.0011888620999628,-3.9122446741989e-10,2.8453515594042e-10,-0.0013182450754257,0.001318247738421,-0.0013182448175886,0.0013182479280229,-0.0013182481116286,0.0013182447604817,-0.0013182478526836,0.0013182449529234,-0.0011836941655067,0.0011836854606529,-0.0011836853211437,0.0011836942305977,0.61574677081899,131329,3014,0.0049414806105032,0.0049414806104461,0.0049414806105481,39.480472470183,7.5843779761461e-05,7.5843779761461e-05,7.5843779761461e-05,2668551.0510224,0.014935569931495
10219200,0.86762412439773,0.014842101331346,0.0049473671104493,0.0049473671104107,0.0049473671104862,-0.0011990278417494,0.0011990299306172,-3.4211767719862e-09,5.5079347697265e-09,-4.4079296313049e-09,6.7623733416657e-09,-0.0013307551124099,0.0013307505168498,-0.001330752146845,0.0013307534883927,-0.0013307515498647,0.0013307542034858,-0.0013307485836234,0.0013307571721882,-0.001193452524292,0.0011934495944592,-0.0011934437937554,0.0011934583328762,4.5575961161319e-09,-7.0945722568456e-09,-7.8510582440525e-10,-1.469875543242e-09,-0.0011990300130861,0.0011990277592617,-0.0013307519399081,0.0013307538237122,-0.0013307521593532,0.0013307535939672,-0.0013307556846177,0.0013307499484912,-0.0013307559054404,0.0013307497180882,-0.0011934537648532,0.0011934483237046,-0.0011934544103569,0.0011934476268096,-0.0011934467610502,0.0011934555638534,-0.0011934580511364,0.0011934438007615,4.5454678540772e-09,-4.6799555573937e-09,-0.0011990289492213,0.0011990288231695,-3.7293516520434e-10,2.5935151934205e-10,-0.0013307514752054,0.0013307542226879,-0.0013307512304501,0.0013307543993794,-0.0013307545879621,0.0013307511684249,-0.0013307543450086,0.0013307513446912,-0.0011934555340179,0.0011934465736475,-0.0011934464548801,0.001193455577621,0.62007022976993,131329,3014,0.0049836364750881,0.004983636475049,0.0049836364751385,38.775276651302,7.020221321042e-05,7.020221321042e-05,7.020221321042e-05,2665299.2015185,0.015063962716173
10419200,0.87660022741881,0.014971852749759,0.0049906175832539,0.0049906175832147,0.0049906175832909,-0.0012081508641538,0.0012081529558135,-3.5383455008561e-09,5.6278013482378e-09,-4.3708932555643e-09,6.7277950950074e-09,-0.0013419239182718,0.0013419192702591,-0.0013419208734816,0.0013419223208527,-0.0013419203792398,0.0013419229331719,-0.0013419173341141,0.0013419259807506,-0.0012022821224293,0.0012022789398418,-0.0012022731600143,0.0012022879098494,4.5201211964056e-09,-7.0593724157942e-09,-7.9535940321509e-10,-1.4621263032917e-09,-0.0012081530381493,0.0012081507818068,-0.0013419207357665,0.0013419225868571,-0.0013419209491724,0.0013419223631761,-0.0013419244562796,0.0013419187358577,-0.0013419246714588,0.0013419185113997,-0.0012022832341988,0.0012022777976703,-0.0012022838625552,0.001202277118096,-0.0012022762665332,0.0012022850016207,-0.0012022874856217,0.001202273309959,4.6613401020831e-09,-4.800819889189e-09,-0.0012081519755725,0.0012081518444277,-3.6666721450946e-10,2.4781518962195e-10,-0.0013419202149016,0.0013419230420487,-0.0013419199759724,0.00134192321297,-0.0013419234065069,0.0013419199089808,-0.0013419231696069,0.0013419200791882,-0.0012022851273596,0.0012022759239116,-0.0012022758159194,0.0012022851598559,0.62506142819753,131329,3014,0.0050214631819578,0.0050214631819345,0.0050214631820259,38.100209954658,6.4801679637262e-05,6.4801679637262e-05,6.4801679637262e-05,2657983.6241814,0.015179184067489
10619200,0.88498027981321,0.015090750208178,0.0050302500693953,0.0050302500693532,0.0050302500694296,-0.0012176263359837,0.0012176284138363,-3.6634522468133e-09,5.739195327287e-09,-4.1693766839925e-09,6.5106138459808e-09,-0.001353316437849,0.0013533118367589,-0.0013533133142755,0.0013533149661714,-0.0013533130375876,0.0013533153597598,-0.0013533099135133,0.0013533184863602,-0.0012114592588912,0.0012114556910642,-0.0012114500646204,0.0012114648932029,4.3188710466211e-09,-6.8421647327589e-09,-7.418507470622e-10,-1.5016365259758e-09,-0.0012176284960545,0.0012176262537454,-0.0013533133255483,0.0013533150821295,-0.0013533135699649,0.0013533148273413,-0.0013533169074243,0.0013533113707873,-0.0013533171535007,0.001353311115476,-0.0012114600561689,0.0012114548638852,-0.0012114607752635,0.0012114540936616,-0.0012114534240101,0.0012114617311536,-0.0012114642322787,0.0012114504522438,4.779888382691e-09,-4.9193513671925e-09,-0.0012176274404517,0.0012176273093922,-4.1279169485002e-10,2.9425545928594e-10,-0.0013533127335428,0.0013533156089816,-0.00135331246378,0.0013533158107571,-0.0013533160042128,0.0013533123967676,-0.0013533157363135,0.0013533125980317,-0.001211462171685,0.0012114527675038,-0.0012114526285981,0.0012114622351935,0.6139511256035,131329,3014,0.0050607492637148,0.0050607492636728,0.0050607492637639,38.029553141542,6.4236425132338e-05,6.4236425132338e-05,6.4236425132338e-05,2656378.7071395,0.015298863391983
10819200,0.89280622745487,0.015199899712308,0.0050666332374384,0.0050666332373964,0.0050666332374732,-0.0012263906634082,0.0012263927247381,-3.7902130407698e-09,5.8495260602883e-09,-3.9955464339756e-09,6.3184656029189e-09,-0.0013638884092483,0.0013638838343233,-0.0013638852064029,0.0013638870430519,-0.0013638851298434,0.0013638872353348,-0.001363881926916,0.0013638904408024,-0.0012198969467635,0.0012198930089291,-0.0012198875209313,0.0012199024426716,4.1444923472483e-09,-6.6492247424689e-09,-6.7811756674725e-10,-1.5487036452137e-09,-0.0012263928068393,0.0012263905812866,-0.0013638853440366,0.0013638870315573,-0.0013638856250249,0.0013638867400382,-0.0013638888041494,0.0013638834431219,-0.0013638890872408,0.0013638831506553,-0.001219897435227,0.0012198924910942,-0.0012198982633009,0.0012198916116631,-0.0012198911163896,0.0012198990436015,-0.0012199015652067,0.0012198881263391,4.8992616498019e-09,-5.0364022497802e-09,-0.0012263917584365,0.0012263916297334,-4.6671636863531e-10,3.5094013425509e-10,-0.0013638846957538,0.0013638876151646,-0.0013638843888775,0.0013638878541548,-0.0013638880450002,0.0013638843243462,-0.0013638877403861,0.0013638845623559,-0.0012198997710984,0.0012198901741347,-0.0012198899959175,0.0012198998738067,0.6038675394965,131329,3014,0.0050970854266172,0.0050970854265746,0.0050970854266659,37.973706606476,6.3789652851805e-05,6.3789652851805e-05,6.3789652851805e-05,2660869.1293781,0.015409569906534
11019200,0.9001113978637,0.015299915419288,0.0050999718064315,0.0050999718063896,0.0050999718064668,-0.0012344563359714,0.0012344583818754,-3.9162804584967e-09,5.9602620482034e-09,-3.8742857112309e-09,6.1803595779043e-09,-0.00137366605832,0.0013736614753164,-0.0013736627764324,0.0013736647631463,-0.0013736628644463,0.0013736647898162,-0.0013736595826279,0.0013736680741912,-0.0012276145840988,0.0012276103127801,-0.001227604926593,0.0012276199782552,4.0230113455734e-09,-6.5106853322087e-09,-6.1334356493595e-10,-1.5979370625859e-09,-0.0012344584638715,0.0012344562539548,-0.0013736630052459,0.0013736646595589,-0.0013736633239477,0.0013736643300871,-0.0013736663793992,0.0013736611580562,-0.0013736667004089,0.0013736608274966,-0.0012276147990861,0.0012276100689543,-0.0012276157388731,0.001227609077501,-0.0012276087251054,0.0012276163752404,-0.0012276189194757,0.0012276057144082,5.019499861313e-09,-5.1528130164523e-09,-0.0012344574213507,0.0012344572965197,-5.2136206654086e-10,4.0992006234112e-10,-0.0013736623182124,0.0013736652822948,-0.0013736619733388,0.0013736655593558,-0.0013736657462244,0.001373661912655,-0.0013736654037787,0.0013736621885559,-0.0012276173368869,0.0012276075498247,-0.00122760732981,0.0012276174813064,0.59320719875402,131329,3014,0.0051305238098459,0.0051305238098032,0.0051305238098948,37.91842764149,6.3347421131917e-05,6.3347421131917e-05,6.3347421131917e-05,2669410.8468854,0.015511459486553
11219200,0.90691832264511,0.015393033870859,0.0051310112902884,0.0051310112902465,0.0051310112903242,-0.0012418832803309,0.001241885314936,-4.0402842852649e-09,6.0730308315474e-09,-3.8198549962284e-09,6.1137758820494e-09,-0.001382673995136,0.0013826693620791,-0.0013826706342175,0.0013826727289781,-0.0013826708409984,0.0013826726363262,-0.0013826674803388,0.0013826759995794,-0.0012347270275532,0.001234722473058,-0.0012347171383505,0.0012347323702232,3.9683820961065e-09,-6.4437030029692e-09,-5.5588051420475e-10,-1.6439681342493e-09,-0.0012418853968352,0.0012418831984111,-0.0013826709142485,0.001382672573826,-0.0013826712671019,0.0013826722098601,-0.0013826742481721,0.0013826691129268,-0.0013826746036323,0.0013826687477914,-0.0012347270244712,0.0012347224478256,-0.001234728065522,0.0012347213545712,-0.0012347210976185,0.001234728605906,-0.0012347311731672,0.0012347180651631,5.1400874650915e-09,-5.2688598471248e-09,-0.0012418843577666,0.001241884237524,-5.7040329177686e-10,4.6400404020096e-10,-0.0013826702054315,0.0013826732184122,-0.0013826698261014,0.0013826735300573,-0.0013826737121862,0.0013826697699156,-0.001382673335467,0.0013826700802029,-0.0012347297352582,0.001234719755377,-0.0012347194963408,0.0012347299186562,0.59263236401671,131329,3014,0.0051613131442472,0.0051613131442044,0.0051613131442964,37.837646080121,6.2701168640964e-05,6.2701168640964e-05,6.2701168640964e-05,2676624.939499,0.015605286428947
11419200,0.91321708041647,0.015479775534701,0.0051599251782355,0.0051599251781937,0.0051599251782717,-0.0012485076087378,0.0012485096395391,-4.1605873888524e-09,6.1895186285722e-09,-3.848624879387e-09,6.1386599849159e-09,-0.001390741862118,0.0013907371281805,-0.0013907384221107,0.0013907405742246,-0.0013907386896111,0.0013907404205403,-0.001390735250139,0.0013907438626212,-0.0012410910265356,0.001241086254679,-0.0012410809058675,0.0012410963833575,3.9967442003188e-09,-6.4679835306532e-09,-5.1724420808723e-10,-1.6785988994946e-09,-0.0012485097213431,0.0012485075269132,-0.0013907387078214,0.0013907404132002,-0.0013907390847742,0.0013907400249139,-0.0013907420594533,0.0013907369348316,-0.0013907424393445,0.0013907365451135,-0.0012410908856582,0.0012410863675181,-0.0012410919986919,0.0012410852019774,-0.0012410849718593,0.0012410925119915,-0.0012410950997407,0.0012410819195448,5.2603944592072e-09,-5.3850848158259e-09,-0.0012485086822093,0.0012485085660914,-6.046853835119e-10,5.0275768674484e-10,-0.0013907379927158,0.0013907410640958,-0.00139073758886,0.0013907414002765,-0.0013907415781793,0.0013907375368997,-0.0013907411772231,0.0013907378714177,-0.0012410937274133,0.001241083544045,-0.0012410832564142,0.0012410939391328,0.59626238246534,131329,3014,0.0051887744558485,0.0051887744558057,0.005188774455898,37.630676845251,6.1045414762008e-05,6.1045414762008e-05,6.1045414762008e-05,2679769.1704645,0.01568897940204
11619200,0.91904583602472,0.015560412652893,0.0051868042176328,0.0051868042175911,0.0051868042176694,-0.001254604277443,0.0012546063087918,-4.278657870939e-09,6.3080911357929e-09,-3.9083696681071e-09,6.1992221264311e-09,-0.001398160015789,0.001398155163297,-0.0013981564968843,0.0013981586882879,-0.0013981568030074,0.001398158495896,-0.0013981532846248,0.001398162016901,-0.0012469754174111,0.0012469704544436,-0.0012469650649756,0.0012469808149205,4.0564970366707e-09,-6.528386268733e-09,-4.900753129469e-10,-1.7061046986276e-09,-0.0012546063905135,0.0012546041957007,-0.0013981567733118,0.0013981585365649,-0.001398157168341,0.0013981581300147,-0.0013981601651189,0.0013981550180397,-0.001398160563122,0.0013981546100836,-0.0012469751745496,0.0012469706694477,-0.0012469763409199,0.0012469694502786,-0.0012469692174197,0.0012469768569868,-0.0012469794633301,0.0012469661466677,5.3805499048938e-09,-5.5015560963553e-09,-0.0012546053493278,0.0012546052369309,-6.2989485623276e-10,5.3196494333614e-10,-0.0013981560549096,0.0013981591906837,-0.0013981556328746,0.0013981595450211,-0.0013981597192718,0.0013981555846269,-0.0013981593001347,0.0013981559372899,-0.0012469781276983,0.0012469677345767,-0.0012469674249401,0.00124697836111,0.59873359198336,131329,3014,0.0052140477617185,0.0052140477616756,0.0052140477617681,37.420609765179,5.936487812143e-05,5.936487812143e-05,5.936487812143e-05,2679782.8870251,0.015766010179723
11819200,0.92444100630274,0.015635522281084,0.0052118407603631,0.0052118407603214,0.0052118407604,-0.0012602273127033,0.0012602293473269,-4.3953900222049e-09,6.4280163829236e-09,-3.9788459009889e-09,6.2733880068909e-09,-0.0014049913609593,0.0014049863844745,-0.001404987763097,0.0014049899884623,-0.0014049880998445,0.001404989765492,-0.0014049845026015,0.0014049933653695,-0.001252429264006,0.0012524241208866,-0.0012524186799624,0.0012524347129989,4.1268543148732e-09,-6.6022693890698e-09,-4.7355890196826e-10,-1.7256526367031e-09,-0.0012602294289697,0.00126022723104,-0.0014049880281076,0.0014049898482845,-0.0014049884349917,0.001404989429731,-0.0014049914679534,0.0014049862816165,-0.0014049918779511,0.0014049858615754,-0.0012524289389705,0.0012524244181606,-0.0012524301406606,0.0012524231634534,-0.0012524229106109,0.0012524306768596,-0.001252433298276,0.0012524198246862,5.5003592417419e-09,-5.6183109219873e-09,-0.0012602283846837,0.0012602282753705,-6.4620703255402e-10,5.5156039859078e-10,-0.0014049873031746,0.0014049905088225,-0.001404986869074,0.0014049908751736,-0.0014049910463685,0.001404986823984,-0.0014049906152784,0.0014049871885516,-0.0012524319926322,0.0012524213828352,-0.0012524210579808,0.0012524322409121,0.60218092328253,131329,3014,0.0052373571588317,0.0052373571587889,0.0052373571588813,37.210423963528,5.7683391708221e-05,5.7683391708221e-05,5.7683391708221e-05,2677433.2938688,0.015837060226065
12019200,0.92944366767344,0.015707268181658,0.0052357560605542,0.0052357560605126,0.0052357560605914,-0.0012655493555911,0.001265551394159,-4.5117676943587e-09,6.5482556850484e-09,-4.0395118693911e-09,6.3383836268487e-09,-0.0014113967783196,0.0014113916848787,-0.0014113931015215,0.0014113953678301,-0.0014113934752596,0.0014113951079684,-0.0014113897991669,0.0014113987867071,-0.001257669111745,0.0012576637827473,-0.0012576582960384,0.0012576746065508,4.1874258673931e-09,-6.667016155516e-09,-4.6645280196466e-10,-1.7364685524843e-09,-0.0012655514757279,0.0012655492740016,-0.0014113933651327,0.0014113952292087,-0.0014113937778714,0.0014113948047,-0.0014113968466654,0.0014113916207119,-0.0014113972626322,0.0014113911946415,-0.0012576687077383,0.001257664159018,-0.0012576699269791,0.001257662886642,-0.0012576626087537,0.0012576704883476,-0.0012576731195082,0.0012576595129716,5.6197729544409e-09,-5.7354624439711e-09,-0.0012655504284016,0.0012655503213724,-6.5391348477426e-10,5.6167021818391e-10,-0.0014113926245211,0.0014113959053064,-0.0014113921844115,0.0014113962776305,-0.0014113964465675,0.0014113921416824,-0.0014113960095476,0.0014113925121137,-0.0012576718592242,0.0012576610260057,-0.0012576606927391,0.0012576721155119,0.61929850344494,131329,3014,0.0052594184422356,0.0052594184421927,0.0052594184422851,37.02804753876,5.622438031008e-05,5.622438031008e-05,5.622438031008e-05,2669067.8975098,0.015904309193148
12219200,0.934100350291,0.015776175830821,0.0052587252769417,0.0052587252769001,0.0052587252769792,-0.0012707095434119,0.0012707115845196,-4.6288369057393e-09,6.667806462266e-09,-4.0729296419129e-09,6.3745287909917e-09,-0.0014175368943155,0.0014175317012658,-0.0014175331385892,0.0014175354631627,-0.0014175335679764,0.001417535147665,-0.0014175298130264,0.0014175389052715,-0.00126283248447,0.0012628269495884,-0.001262821437185,0.0012628380049686,4.2207801201887e-09,-6.7029528955041e-09,-4.6487894720753e-10,-1.7403818028672e-09,-0.0012707116660184,0.0012707094618925,-0.0014175334201195,0.0014175353066728,-0.0014175338346123,0.0014175348803489,-0.0014175369247319,0.0014175316750459,-0.0014175373425477,0.0014175312471067,-0.0012628319875502,0.0012628274188531,-0.0012628332121677,0.0012628261409587,-0.0012628258465986,0.0012628337900967,-0.0012628364254459,0.0012628227465597,5.7388154481862e-09,-5.8529524310267e-09,-0.0012707106167084,0.0012707105112471,-6.5582037143194e-10,5.652036819449e-10,-0.0014175326514431,0.0014175360107878,-0.0014175322094645,0.0014175363849443,-0.0014175365523302,0.0014175321683672,-0.0014175361135127,0.0014175325405534,-0.0012628352432422,0.0012628241816828,-0.0012628238449076,0.001262835502758,0.63789981058051,131329,3014,0.0052808084602955,0.0052808084602525,0.0052808084603451,36.914352023611,5.5314816188886e-05,5.5314816188886e-05,5.5314816188886e-05,2653884.1205076,0.015969515186845
12419200,0.93843546000372,0.015838274223579,0.0052794247411943,0.0052794247411527,0.0052794247412322,-0.001275423314721,0.0012754253575118,-4.7463124995876e-09,6.7869196667923e-09,-4.0918017500888e-09,6.3951562023678e-09,-0.0014232010917563,0.0014231958082711,-0.0014231972570896,0.0014231996491121,-0.0014231977521256,0.0014231992679431,-0.0014231939183385,0.0014232031043975,-0.001267508362618,0.0012675026110004,-0.0012674970837766,0.0012675138979447,4.2395175700058e-09,-6.7232993199054e-09,-4.7081033730129e-10,-1.7359452891737e-09,-0.0012754254389401,0.0012754232332721,-0.0014231975683563,0.001423199462878,-0.0014231979793421,0.0014231990400445,-0.0014232010859853,0.0014231958182281,-0.001423201500414,0.0014231953937,-0.0012675077696334,0.0012675031763502,-0.0012675089841864,0.0012675019085069,-0.00126750159617,0.0012675095800586,-0.0012675122135044,0.0012674984981019,5.8573953478281e-09,-5.9708868207415e-09,-0.0012754243885326,0.0012754242837241,-6.5032925494649e-10,5.6034648438777e-10,-0.0014231967622113,0.0014232002044595,-0.0014231963236227,0.0014232005751953,-0.0014232007419128,0.001423196283257,-0.0014232003065849,0.0014231966519227,-0.0012675111303266,0.0012674998342851,-0.0012674995001854,0.0012675113869015,0.61826606417625,131329,3014,0.0053003478085851,0.0053003478085421,0.0053003478086348,36.802345983411,5.4418767867286e-05,5.4418767867286e-05,5.4418767867286e-05,2643563.6024926,0.016029085211984
12619200,0.94247138703088,0.015893069929232,0.0052976899764116,0.0052976899763702,0.0052976899764498,-0.0012796549754082,0.0012796570188776,-4.8642664622927e-09,6.9055179570489e-09,-4.0973059850558e-09,6.4013048147672e-09,-0.0014283463608888,0.0014283409952691,-0.0014283424472989,0.0014283449150275,-0.0014283430172272,0.0014283444588973,-0.0014283391046005,0.0014283483742017,-0.0012716156494188,0.0012716096707933,-0.0012716041390227,0.0012716211892974,4.2449397474771e-09,-6.7292337227201e-09,-4.8188262122755e-10,-1.7253878131389e-09,-0.001279657100242,0.0012796548940231,-0.0014283427983922,0.0014283446888962,-0.0014283432021542,0.0014283442733022,-0.0014283463198395,0.0014283410404755,-0.0014283467271377,0.0014283406231291,-0.0012716149556451,0.0012716103369423,-0.001271616149099,0.0012716090902457,-0.0012716087604911,0.0012716167622727,-0.0012716193890826,0.0012716056692208,5.9756345818183e-09,-6.0891493424909e-09,-0.0012796560495704,0.0012796559447394,-6.3958871423911e-10,5.4951027354423e-10,-0.0014283419472622,0.001428345475501,-0.0014283415158286,0.001428345839063,-0.0014283460057827,0.001428341475506,-0.0014283455776822,0.0014283418369195,-0.0012716184231062,0.0012716068882195,-0.001271606561233,0.0012716186723458,0.58731202123171,131329,3014,0.00531788829306,0.0053178882930169,0.0053178882931096,36.69040467945,5.3523237435597e-05,5.3523237435597e-05,5.3523237435597e-05,2644408.4817989,0.016082565650189
12819200,0.94619502277317,0.01594400720952,0.005314669069841,0.0053146690697995,0.0053146690698795,-0.0012832105541086,0.0012832126001506,-4.9819809290789e-09,7.0258275794372e-09,-4.1191781444646e-09,6.4259621276797e-09,-0.0014327152084203,0.0014327097521228,-0.0014327112173489,0.0014327137493379,-0.001432711850856,0.0014327132296543,-0.0014327078570142,0.0014327172261835,-0.0012750529860099,0.001275046786474,-0.0012750412366368,0.0012750585438053,4.2800993327602e-09,-6.7677178386266e-09,-5.0621948767164e-10,-1.7040785429574e-09,-0.0012832126817588,0.0012832104724785,-0.0014327115966057,0.0014327134950793,-0.001432711987097,0.0014327130928281,-0.0014327151442306,0.0014327098203652,-0.0014327155345288,0.0014327094201341,-0.0012750522206354,0.0012750475239877,-0.0012750533635531,0.0012750463278692,-0.0012750459472557,0.0012750540278183,-0.0012750566422438,0.0012750428679516,6.0924671450755e-09,-6.2072588345623e-09,-0.0012832116302152,0.0012832115240666,-6.1727212405444e-10,5.257201945501e-10,-0.0014327107023004,0.0014327143248469,-0.0014327102881258,0.0014327146711449,-0.0014327148410752,0.0014327102446533,-0.001432714426436,0.0014327105925067,-0.0012750557695693,0.0012750439936949,-0.0012750436837318,0.0012750560022368,0.59134553450144,131329,3014,0.005332626064595,0.0053326260645493,0.0053326260646418,36.407047285191,5.1256378281527e-05,5.1256378281527e-05,5.1256378281527e-05,2647331.4651543,0.01612750277115
13019200,0.94958752361112,0.015990563067756,0.0053301876892526,0.0053301876892114,0.0053301876892916,-0.0012859265980485,0.0012859286521204,-5.0896028385387e-09,7.1413699518147e-09,-4.2224345057007e-09,6.5380660410998e-09,-0.0014361647758784,0.0014361591697186,-0.0014361606973888,0.0014361632542628,-0.001436161335326,0.0014361627306657,-0.0014361572796321,0.001436166789025,-0.0012776681927431,0.001277661894049,-0.0012776562648657,0.0012776738302682,4.2991894423205e-09,-6.7911482796111e-09,-5.4556552079682e-10,-1.668854403256e-09,-0.0012859287318238,0.001285926518321,-0.0014361611023506,0.00143616297458,-0.0014361614553878,0.001436162609901,-0.0014361646526621,0.0014361592970125,-0.0014361650310743,0.0014361589088701,-0.0012776674043232,0.0012776626553024,-0.001277668513802,0.0012776614927016,-0.0012776610544386,0.0012776692357496,-0.0012776718296449,0.0012776579956778,6.2158700504955e-09,-6.3335202828911e-09,-0.0012859276795883,0.001285927570601,-5.829459466956e-10,4.8819149470259e-10,-0.0014361601491639,0.0014361638632328,-0.0014361597462141,0.0014361641982462,-0.001436164358171,0.0014361597127387,-0.0014361639804192,0.0014361600238957,-0.0012776710830515,0.0012776589962386,-0.0012776587113189,0.00127767128741,0.59302696515701,131329,3014,0.0053438841290602,0.0053438841290101,0.0053438841291025,35.874481754854,4.6995854038831e-05,4.6995854038831e-05,4.6995854038831e-05,2647688.6603875,0.016161832827736
13219200,0.95268187524896,0.01603319353042,0.0053443978434738,0.0053443978434328,0.0053443978435132,-0.0012883030517191,0.0012883051091986,-5.2127997030179e-09,7.2679112264186e-09,-4.2246036283179e-09,6.543697908756e-09,-0.0014392038172761,0.0014391981429067,-0.0014391996709645,0.0014392022952368,-0.0014392003880453,0.0014392016924748,-0.0014391962340861,0.0014392058491104,-0.0012799659928181,0.001279959408699,-0.0012799537731606,0.0012799716366083,4.3812542805186e-09,-6.880379221759e-09,-5.8307635250729e-10,-1.6377423836133e-09,-0.0012883051904454,0.0012883029704466,-0.0014392000887922,0.0014392020027488,-0.0014392004343333,0.0014392016457845,-0.0014392037100249,0.0014391982539902,-0.0014392040504301,0.0014391979039761,-0.0012799651498099,0.0012799602235819,-0.0012799661454832,0.001279959175474,-0.0012799586420227,0.0012799669625713,-0.001279969540029,0.0012799555991086,6.3258257933054e-09,-6.4466180409499e-09,-0.0012883041365404,0.0012883040243961,-5.4960166786984e-10,4.5136662755936e-10,-0.0014391991014044,0.0014392029256093,-0.001439198737023,0.0014392032219289,-0.0014392034002603,0.0014391986853001,-0.0014392030305768,0.0014391989882025,-0.0012799688389623,0.0012799565543338,-0.001279956296658,0.0012799690172998,0.5951240340676,131329,3014,0.0053537345752972,0.0053537345752435,0.0053537345753361,35.33576552818,4.2686124225444e-05,4.2686124225444e-05,4.2686124225444e-05,2646226.7730485,0.016191871777589
13419200,0.95550842672053,0.016071521536635,0.0053571738455452,0.0053571738455048,0.0053571738455854,-0.0012903541785095,0.0012903562398868,-5.3293386820674e-09,7.3882905913822e-09,-4.251084629812e-09,6.5742907774589e-09,-0.0014418672209796,0.0014418614523698,-0.001441862996096,0.0014418656832361,-0.0014418637725573,0.0014418650211916,-0.0014418595393449,0.0014418692570978,-0.0012819343498923,0.0012819275548132,-0.0012819218963164,0.0012819400166572,4.4094997985384e-09,-6.9126700000552e-09,-6.171174210852e-10,-1.6074714852982e-09,-0.0012903563210942,0.0012903540972706,-0.0014418634479848,0.0014418653567206,-0.0014418637725716,0.0014418650208663,-0.0014418670891619,0.0014418615879162,-0.0014418674079206,0.0014418612597337,-0.0012819334457189,0.001281928430575,-0.0012819343765121,0.0012819274478322,-0.0012819268566359,0.0012819352511429,-0.0012819378110592,0.0012819238312326,6.44214226627e-09,-6.5661361481655e-09,-0.0012903552668864,0.0012903551515237,-5.1921016148597e-10,4.1745502556493e-10,-0.0014418624093172,0.0014418663308618,-0.0014418620667464,0.0014418666053842,-0.0014418667872915,0.0014418620115319,-0.0014418664386644,0.0014418622932989,-0.0012819372172143,0.0012819246789401,-0.0012819244462241,0.0012819373711474,0.58608287301745,131329,3014,0.0053622365659557,0.00536223656589,0.0053622365659843,34.796813647625,3.8374509180997e-05,3.8374509180997e-05,3.8374509180997e-05,2645466.331804,0.016217800190004
13619200,0.95810791505377,0.016106324266813,0.005368774755604,0.0053687747555643,0.0053687747556451,-0.0012923180253128,0.0012923200878372,-5.4392937956023e-09,7.4992882020696e-09,-4.2605739746249e-09,6.5848621960976e-09,-0.001444391904159,0.0014443860540316,-0.0014443876021394,0.0014443903622042,-0.001444388446875,0.0014443896317778,-0.0014443841430208,0.001444393938484,-0.0012838121539881,0.0012838051618624,-0.0012837994948392,0.001283817827669,4.3631414749983e-09,-6.8641561644284e-09,-6.3619453943065e-10,-1.5865982530651e-09,-0.0012923201676171,0.0012923179455178,-0.0014443881129669,0.0014443899763129,-0.0014443884210678,0.0014443896571414,-0.001444391720629,0.0014443862414768,-0.001444392029485,0.0014443859235342,-0.001283811148167,0.0012838061383237,-0.001283812050729,0.0012838051827921,-0.0012838045957755,0.0012838129221702,-0.0012838154678626,0.0012838015852654,6.5667340463707e-09,-6.6932952197196e-09,-0.0012923191155303,0.0012923189976203,-4.9973636963224e-10,3.951199058581e-10,-0.0014443870057056,0.0014443910191198,-0.0014443866738759,0.0014443912830973,-0.0014443914642795,0.0014443866196124,-0.0014443911328351,0.0014443868842698,-0.0012838150606272,0.0012838022473859,-0.0012838020302172,0.0012838151963114,0.57889842841361,131329,3014,0.0053703765911584,0.0053703765911268,0.0053703765911596,34.35606654981,3.4848532398479e-05,3.4848532398479e-05,3.4848532398479e-05,2646532.218898,0.016242624955089
13819200,0.96051290287337,0.016138501405521,0.0053795004685062,0.0053795004684662,0.0053795004685487,-0.0012942341577316,0.0012942362141625,-5.5753660016899e-09,7.6293727907806e-09,-4.1598280231681e-09,6.4772123698435e-09,-0.0014468205095972,0.0014468146369356,-0.0014468161230151,0.0014468190294855,-0.0014468171237979,0.0014468181426014,-0.0014468127278408,0.0014468225413424,-0.0012856513396745,0.0012856439985867,-0.0012856384075267,0.0012856569382533,4.3543284778964e-09,-6.8533241240641e-09,-6.4480810853422e-10,-1.576170765026e-09,-0.0012942362960322,0.0012942340758415,-0.0014468167112219,0.0014468185660521,-0.0014468170168701,0.0014468182493634,-0.0014468203147875,0.0014468148353069,-0.0014468206135347,0.0014468145274095,-0.0012856501706721,0.0012856451386407,-0.0012856510426288,0.0012856442145975,-0.0012856436176658,0.001285651923086,-0.0012856544598427,0.001285640615843,6.6693906996334e-09,-6.7972089366975e-09,-0.0012942352455812,0.0012942351263382,-4.9312806954068e-10,3.8721146813191e-10,-0.001446815561498,0.0014468196515056,-0.0014468152382958,0.0014468199067444,-0.0014468200931052,0.0014468151787511,-0.001446819762644,0.0014468154422319,-0.0012856541690429,0.0012856411604256,-0.0012856409506033,0.0012856543001841,0.57842147423433,131329,3014,0.0053783186581377,0.0053783186580951,0.0053783186581902,34.003775376367,3.2030203010938e-05,3.2030203010938e-05,3.2030203010938e-05,2647993.9326685,0.01626684598024
14019200,0.96274024216365,0.016168295849306,0.0053894319497677,0.0053894319497277,0.0053894319498104,-0.0012959609690654,0.0012959630225366,-5.6771689413858e-09,7.7282200698288e-09,-4.1508539970832e-09,6.4650765622312e-09,-0.0014490202498388,0.0014490143044972,-0.0014490157851852,0.0014490187751002,-0.0014490168616334,0.0014490178124884,-0.0014490124090171,0.001449022267857,-0.0012873107097641,0.0012873031958918,-0.0012872976151749,0.0012873162984025,4.2419368536414e-09,-6.7323882025441e-09,-6.4284373925345e-10,-1.570663122514e-09,-0.0012959631021331,0.0012959608894482,-0.00144901645537,0.0014490182293858,-0.0014490167491485,0.0014490179246021,-0.0014490199721969,0.0014490145858985,-0.0014490202804767,0.001449014268471,-0.0012873093974274,0.0012873044799242,-0.0012873102990914,0.0012873035262462,-0.0012873029959493,0.0012873111120646,-0.0012873136403508,0.001287300003868,6.8049103957173e-09,-6.9337416613047e-09,-0.0012959620559394,0.0012959619356878,-4.8928140361251e-10,3.8229432599429e-10,-0.001449015224651,0.0014490193960945,-0.0014490148936523,0.0014490196591408,-0.0014490198357295,0.0014490148437266,-0.0014490195190434,0.0014490150937503,-0.001287313605223,0.0012873002926927,-0.0012873000857726,0.0012873137318327,0.57820996421718,131329,3014,0.0053854760009455,0.0053854760009024,0.0053854760009978,33.653675591679,2.9229404733432e-05,2.9229404733432e-05,2.9229404733432e-05,2648828.0311754,0.016288674507027
14219200,0.96480493363699,0.01619493358153,0.0053983111938426,0.0053983111938026,0.0053983111938853,-0.0012974676818982,0.0012974697288051,-5.8060024668453e-09,7.8505144049973e-09,-4.070207105908e-09,6.3770494291644e-09,-0.001450977029184,0.0014509710541062,-0.0014509724853605,0.0014509756038805,-0.0014509737010726,0.0014509745015336,-0.0014509691603364,0.0014509790450332,-0.0012887315089163,0.0012887236725943,-0.0012887181545777,0.0012887370346072,4.2031297971585e-09,-6.6882753973695e-09,-6.4133203733932e-10,-1.5673716511849e-09,-0.0012974698092478,0.0012974676014474,-0.0014509732291906,0.001450974984108,-0.0014509735268955,0.0014509746754499,-0.0014509767227967,0.0014509713641118,-0.0014509770260333,0.0014509710517496,-0.0012887300268441,0.0012887251266949,-0.0012887309132631,0.0012887241877056,-0.0012887236775837,0.0012887317062059,-0.0012887342289627,0.0012887206912093,6.9154140294954e-09,-7.0447866596033e-09,-0.0012974687657884,0.0012974686449501,-4.8987967227699e-10,3.823350018399e-10,-0.0014509719502366,0.0014509761992638,-0.0014509716234933,0.0014509764580331,-0.0014509766396956,0.0014509715684316,-0.0014509763183076,0.0014509718231303,-0.0012887343451455,0.0012887208291459,-0.0012887206220563,0.0012887344710295,0.5585630543556,131329,3014,0.0053917210554042,0.0053917210553869,0.005391721055477,33.303659690427,2.6429277523413e-05,2.6429277523413e-05,2.6429277523413e-05,2651457.5739105,0.016307722018693
14419200,0.96668877249998,0.016219486941315,0.0054064956471047,0.0054064956470639,0.0054064956471469,-0.001298202692743,0.0012982047390087,-5.9289708119527e-09,7.9727855043462e-09,-4.0638567511423e-09,6.3698977632899e-09,-0.0014521002714614,0.0014520942218206,-0.0014520956500111,0.001452098849191,-0.0014520969508916,0.0014520976617266,-0.0014520923249119,0.0014521022904716,-0.0012893801948763,0.0012893721013693,-0.0012893665883813,0.001289385716392,4.2186567882612e-09,-6.7039324374511e-09,-6.5231375286188e-10,-1.5564607345275e-09,-0.0012982048198436,0.0012982026118851,-0.0014520964313209,0.0014520981921773,-0.0014520967255736,0.0014520978868916,-0.0014520999381387,0.0014520945585828,-0.0014521002304017,0.0014520942573377,-0.0012893786063703,0.0012893736619334,-0.0012893794594377,0.0012893727576107,-0.0012893722224184,0.0012893802761257,-0.0012893827920434,0.001289369243709,7.0282504571259e-09,-7.1592187808982e-09,-0.0012982037770658,0.0012982036547107,-4.806891212773e-10,3.7144132557541e-10,-0.0014520951126867,0.0014520994469475,-0.0014520947964688,0.0014520996950837,-0.0014520998819615,0.001452094736072,-0.0014520995635707,0.001452094987877,-0.0012893830114069,0.0012893692772847,-0.0012893690789224,0.0012893831298836,0.56383117811605,131329,3014,0.0053947677184724,0.0053947677184242,0.0053947677185237,32.648216948469,2.1185735587754e-05,2.1185735587754e-05,2.1185735587754e-05,2654727.0934595,0.016317016453356
14619200,0.9683944985792,0.016241831931353,0.0054139439771172,0.0054139439770766,0.0054139439771594,-0.001298434699013,0.0012984367472057,-6.0534971268181e-09,8.0995707031454e-09,-4.0810346933091e-09,6.389484827095e-09,-0.0014526739077633,0.0014526677674032,-0.0014526692066429,0.0014526724743764,-0.0014526705782304,0.0014526712162822,-0.0014526658648365,0.0014526759324416,-0.0012895399062563,0.0012895315683158,-0.0012895260409888,0.0012895454409473,4.2679721251303e-09,-6.7571230265629e-09,-6.680299882619e-10,-1.5441960174441e-09,-0.0012984368287614,0.0012984346174332,-0.0014526700098885,0.0014526717956169,-0.0014526702987421,0.0014526714957218,-0.0014526735540014,0.0014526681243938,-0.0014526738331655,0.0014526678363908,-0.0012895382331584,0.0012895332124435,-0.0012895390465552,0.00128953234739,-0.0012895317641035,0.0012895399123699,-0.0012895424215549,0.0012895287908226,7.1379557344108e-09,-7.2704839045309e-09,-0.0012984357851633,0.0012984356610606,-4.6882605318589e-10,3.5786652283514e-10,-0.001452668661342,0.0014526730801368,-0.0014526683575687,0.0014526733159527,-0.0014526735084805,0.0014526682914952,-0.0014526731946386,0.0014526685385676,-0.0012895427068566,0.0012895287579056,-0.0012895285717878,0.0012895428160858,0.56645233157619,131329,3014,0.0053957297891928,0.0053957297891424,0.0053957297892034,31.823971768749,1.4591774149989e-05,1.4591774149989e-05,1.4591774149989e-05,2654889.5685344,0.016319954524226
14819200,0.96994168808432,0.016262223364863,0.0054207411216205,0.00542074112158,0.0054207411216622,-0.0012984985529289,0.0012985006031381,-6.1737107233752e-09,8.2215175593997e-09,-4.105217755239e-09,6.4156087542035e-09,-0.0014530399801508,0.0014530337512661,-0.0014530352049863,0.0014530385322949,-0.0014530366406371,0.0014530372102084,-0.001453031839876,0.0014530420137628,-0.0012895451579314,0.001289536580583,-0.0012895310345675,0.0012895507119779,4.2973467978737e-09,-6.789189292898e-09,-6.7678779706198e-10,-1.5378765993716e-09,-0.0012985006849556,0.0012984984710893,-0.001453036028222,0.0014530378335875,-0.001453036318724,0.0014530375320542,-0.0014530395995104,0.0014530341350848,-0.0014530398670604,0.0014530338588524,-0.0012895433948947,0.0012895383147151,-0.0012895441728993,0.0012895374863539,-0.0012895368753332,0.0012895450652307,-0.0012895475728418,0.0012895339049069,7.2523460177486e-09,-7.3861938098492e-09,-0.00129849964071,0.0012984995153795,-4.6163547297083e-10,3.4926881822441e-10,-0.001453034645712,0.0014530391520106,-0.0014530343538731,0.0014530393759227,-0.001453039576327,0.0014530342800324,-0.0014530392609861,0.0014530345284865,-0.0012895479442075,0.0012895337848997,-0.0012895336050998,0.0012895480472792,0.5696168476964,131329,3014,0.0053959949701325,0.0053959949700863,0.0053959949701791,30.995511775708,7.9640942056671e-06,7.9640942056671e-06,7.9640942056671e-06,2653129.2786043,0.016320767280923
15019200,0.9713262603169,0.016280401381679,0.0054268004605595,0.0054268004605189,0.0054268004606011,-0.0012978772547567,0.0012978793071853,-6.3029470000604e-09,8.3533952830963e-09,-4.1494479196261e-09,6.4629307787246e-09,-0.0014526796880477,0.0014526733464988,-0.0014526748292134,0.0014526782110767,-0.0014526763209012,0.0014526768332106,-0.0014526714300976,0.0014526817267799,-0.0012888643652286,0.0012888555539074,-0.0012888499755473,0.0012888699507034,4.3860112266064e-09,-6.8844841250519e-09,-6.982598534928e-10,-1.5222020049469e-09,-0.0012978793907685,0.0012978771711488,-0.001452675656881,0.0014526775084184,-0.0014526759383037,0.0014526772159077,-0.0014526792918915,0.0014526737455236,-0.0014526795440358,0.0014526734848212,-0.0012888625410373,0.001288857348064,-0.0012888632728852,0.0012888565659822,-0.0012888558765569,0.0012888642443096,-0.0012888667445446,0.0012888529120004,7.3574522578839e-09,-7.492225852349e-09,-0.001297878344231,0.0012978782177288,-4.4811837570299e-10,3.3466474466295e-10,-0.0014526742562805,0.001452678844623,-0.001452673977209,0.0014526790559391,-0.0014526792607745,0.0014526738988401,-0.0014526789515083,0.0014526741408516,-0.0012888671372479,0.0012888527702109,-0.0012888526033428,0.0012888672308536,0.56737759363542,131329,3014,0.0053934206200203,0.0053934206199687,0.0053934206200572,29.892688994022,-8.5848804782085e-07,-8.5848804782085e-07,-8.5848804782085e-07,2648473.0329325,0.016312921936165
15219200,0.97254695106139,0.016295738151841,0.0054319127172799,0.0054319127172394,0.0054319127173216,-0.0012964881867799,0.0012964902449083,-6.4266029442209e-09,8.4827428861453e-09,-4.2430333685961e-09,6.5631477366359e-09,-0.0014515118189986,0.0014515053335778,-0.0014515068753554,0.0014515102829189,-0.0014515083867984,0.0014515088857164,-0.001451503412335,0.0014515138629705,-0.0012873949890223,0.0012873860020837,-0.0012873803537732,0.001287400644565,4.5050035034049e-09,-7.0118543604933e-09,-7.2763576391852e-10,-1.5000385557641e-09,-0.0012964903292894,0.001296488102372,-0.0014515076876045,0.0014515095961716,-0.0014515079513964,0.0014515093213356,-0.001451511403601,0.0014515057516333,-0.0014515116393247,0.0014515055075886,-0.0012873931454762,0.0012873878147887,-0.0012873938296678,0.0012873870816305,-0.0012873862855999,0.0012873949072094,-0.0012873973978875,0.0012873833304767,7.4663042124138e-09,-7.6027437674555e-09,-0.0012964892799528,0.0012964891517505,-4.2573546910307e-10,3.1037095161577e-10,-0.001451506272036,0.0014515109470501,-0.0014515060080426,0.001451511143332,-0.0014515113493332,0.0014515059286626,-0.0014515110560872,0.0014515061543551,-0.0012873977898506,0.0012873831885742,-0.0012873830399921,0.0012873978670315,0.54391180032496,131329,3014,0.0053876642564741,0.0053876642564182,0.0053876642565055,28.487178901784,-1.2102568785726e-05,-1.2102568785726e-05,-1.2102568785726e-05,2642715.5663278,0.016295374535528
15419200,0.97362543182772,0.016311154416411,0.0054370514721365,0.0054370514720961,0.0054370514721784,-0.0012950162065251,0.001295018272216,-6.5116627974066e-09,8.5748031404736e-09,-4.3653750594355e-09,6.693646412285e-09,-0.0014501773373823,0.0014501707045968,-0.0014501723207289,0.0014501757270297,-0.0014501738105186,0.0014501743519728,-0.0014501687887868,0.0014501793765622,-0.0012858905553382,0.0012858815281013,-0.0012858757882704,0.0012858963033534,4.5257708096474e-09,-7.0346370685082e-09,-7.4112220298921e-10,-1.4882387119635e-09,-0.0012950183537436,0.001295016124972,-0.0014501731357206,0.0014501750375918,-0.0014501733782058,0.0014501747843243,-0.0014501768555496,0.0014501711894471,-0.0014501770956066,0.0014501709411125,-0.0012858886928478,0.0012858833604797,-0.0012858893928082,0.0012858826117062,-0.0012858817876832,0.00128589049798,-0.0012858929828814,0.0012858788391136,7.613031978393e-09,-7.7512603971979e-09,-0.001295017304246,0.001295017174512,-4.0705703515758e-10,2.8969825765238e-10,-0.0014501716688399,0.0014501764399037,-0.0014501714048053,0.00145017663596,-0.0014501768306143,0.0014501713371175,-0.0014501765633984,0.0014501715371583,-0.001285893509531,0.00128587856409,-0.0012858784269731,0.0012858935702817,0.61487579747434,131329,3014,0.0053815640309524,0.0053815640308993,0.0053815640309874,27.074222079104,-2.3406223367169e-05,-2.3406223367169e-05,-2.3406223367169e-05,2634277.5148285,0.016276776542619
15619200,0.97459758921285,0.016325338137757,0.0054417793792518,0.0054417793792116,0.0054417793792939,-0.0012940399815144,0.0012940420232887,-6.8659999147686e-09,8.9035145735061e-09,-3.997448065882e-09,6.2969261925213e-09,-0.0014493689612663,0.0014493623802705,-0.0014493637686896,0.0014493675791681,-0.0014493657313111,0.0014493657297732,-0.0014493604373556,0.0014493710275867,-0.0012849390075832,0.0012849288746159,-0.0012849234167851,0.0012849444841096,4.8247850707488e-09,-7.3531494534346e-09,-7.6674152959143e-10,-1.4802120355586e-09,-0.0012940421255333,0.0012940398791797,-0.0014493646771102,0.0014493667980811,-0.001449364955349,0.0014493665054061,-0.0014493686421301,0.0014493626984716,-0.0014493688261283,0.0014493625123895,-0.0012849368036849,0.001284931055815,-0.0012849373195553,0.0012849305058462,-0.0012849294692144,0.0012849386309211,-0.001284941123578,0.0012849265153814,7.510285619459e-09,-7.6432388783576e-09,-0.0012940410650442,0.0012940409400018,-4.4152441034999e-10,3.3048512734739e-10,-0.001449363337606,0.0014493680691293,-0.0014493630988907,0.0014493682436368,-0.0014493684821409,0.001449362986898,-0.0014493681398324,0.0014493632578488,-0.0012849412061822,0.0012849266589284,-0.0012849265020714,0.0012849413110207,0.62694796435258,131329,3014,0.0053775189057264,0.0053775189055384,0.0053775189062316,25.965107783983,-3.2279137728133e-05,-3.2279137728133e-05,-3.2279137728133e-05,2616912.3065733,0.016264446899949
15819200,0.97551196055697,0.016339623225767,0.0054465410752566,0.0054465410752184,0.005446541075292,-0.0012943411446666,0.0012943431899115,-6.8340053492394e-09,8.8763825885461e-09,-4.0236682122863e-09,6.3278212115232e-09,-0.0014498423179995,0.0014498357301915,-0.0014498371332848,0.0014498409207543,-0.0014498390611513,0.0014498391059895,-0.0014498337954775,0.001449844374646,-0.0012853125932723,0.0012853025804072,-0.0012852970963979,0.0012853180876784,4.3810031823708e-09,-6.8799227289839e-09,-6.7853120449188e-10,-1.5424697961027e-09,-0.0012943432775005,0.0012943410570562,-0.0014498381471663,0.0014498400317112,-0.0014498384662288,0.001449839700943,-0.0014498418024728,0.0014498362480214,-0.0014498420439482,0.001449835998891,-0.0012853101842323,0.0012853049557301,-0.0012853108845318,0.0012853042180353,-0.001285303552233,0.0012853118190482,-0.0012853143406012,0.0012853005800134,7.7755667189506e-09,-7.9091217885819e-09,-0.0012943422298817,0.0012943421047281,-4.8063163562169e-10,3.6872395253047e-10,-0.001449836621232,0.0014498414927406,-0.0014498363448331,0.0014498417019644,-0.0014498419300053,0.00144983624353,-0.0014498415736229,0.0014498365317319,-0.0012853151197245,0.0012853000362923,-0.0012852998527156,0.0012853152455039,0.66919699324052,131329,3014,0.0053787679598059,0.0053787679597611,0.0053787679598719,25.548440936283,-3.5612472509734e-05,-3.5612472509734e-05,-3.5612472509734e-05,2602300.7496785,0.016268258298552
16019200,0.97637350386564,0.016353047684559,0.0054510158948539,0.0054510158948158,0.0054510158948896,-0.001294621245662,0.0012946232896551,-6.8372761283193e-09,8.8787213106292e-09,-3.9953680050147e-09,6.2980662251647e-09,-0.0014503241182101,0.0014503175363012,-0.0014503189150287,0.0014503227454699,-0.0014503208744002,0.001450320899135,-0.0014503156153381,0.0014503261611072,-0.0012856794906296,0.0012856694896237,-0.0012856640277637,0.0012856849615859,4.0280721686577e-09,-6.5027697857659e-09,-5.9674063391294e-10,-1.6034124486482e-09,-0.0012946233672983,0.0012946211679951,-0.0014503200407769,0.0014503217436796,-0.0014503203941682,0.0014503213785175,-0.0014503234476812,0.0014503182103374,-0.0014503237484174,0.0014503179013465,-0.0012856768681729,0.0012856720826775,-0.001285677744855,0.0012856711593947,-0.0012856708064573,0.0012856783737811,-0.0012856809178466,0.0012856678065703,8.0100084185646e-09,-8.1410850852624e-09,-0.0012946223289927,0.0012946222063599,-5.2467654405056e-10,4.1569924899682e-10,-0.0014503183691486,0.0014503233510083,-0.0014503180493021,0.0014503236037384,-0.0014503238166392,0.0014503179628284,-0.0014503234425188,0.0014503182698862,-0.001285682258538,0.0012856667112283,-0.0012856664869481,0.0012856824095407,0.66742792126609,131329,3014,0.0053799299744657,0.0053799299744164,0.0053799299745393,25.148635863955,-3.8810913088357e-05,-3.8810913088357e-05,-3.8810913088357e-05,2585631.7207196,0.016271805846242
16219200,0.9771858963746,0.016365647018542,0.0054552156728481,0.00545521567281,0.0054552156728838,-0.0012948348422602,0.0012948368730015,-6.9946425952936e-09,9.0230055493741e-09,-3.7741355811604e-09,6.061577334738e-09,-0.0014507316988263,0.0014507251405411,-0.0014507263788029,0.0014507304666308,-0.0014507285925636,0.0014507283647672,-0.0014507232474567,0.0014507337128119,-0.0012859717252611,0.0012859613083635,-0.0012859560133816,0.0012859770290584,3.9188353466416e-09,-6.386451539168e-09,-5.406641089746e-10,-1.6536101656829e-09,-0.0012948369542699,0.00129483476097,-0.0014507276571246,0.0014507293116321,-0.0014507280301762,0.001450728926498,-0.0014507309748047,0.0014507258678533,-0.0014507313261123,0.0014507255081523,-0.0012859687798479,0.0012859642260805,-0.0012859698069082,0.0012859631491377,-0.001285962933618,0.0012859703008248,-0.0012859728726569,0.0012859599038799,8.0968479681466e-09,-8.2245989497359e-09,-0.0012948359172699,0.001294835798028,-5.8255431207153e-10,4.7747119664152e-10,-0.0014507259594684,0.0014507309450885,-0.0014507255842695,0.0014507312533855,-0.0014507314474288,0.0014507255164133,-0.0014507310485011,0.0014507258479387,-0.0012859743709146,0.0012859586536812,-0.0012859583846728,0.0012859745639222,0.66425604584071,131329,3014,0.0053808162417483,0.0053808162417028,0.0053808162418235,24.749469918632,-4.2004240650944e-05,-4.2004240650944e-05,-4.2004240650944e-05,2571997.5778371,0.016274512305096
16419200,0.97795529261015,0.016376374618573,0.0054587915395253,0.0054587915394871,0.005458791539561,-0.0012950559156437,0.0012950579369211,-7.1397738889263e-09,9.1586461993512e-09,-3.6116899964086e-09,5.8880202121419e-09,-0.0014511546825719,0.0014511481068577,-0.0014511492440797,0.0014511535515564,-0.0014511516602879,0.0014511512463781,-0.0014511462484269,0.0014511566612375,-0.0012862314842914,0.0012862207519336,-0.0012862155774779,0.0012862366677635,3.8402461670398e-09,-6.3026228696572e-09,-4.8792999005581e-10,-1.7019859439676e-09,-0.0012950580206972,0.0012950558318447,-0.0014511506536765,0.0014511522646041,-0.0014511510345156,0.0014511518716077,-0.0014511538900839,0.0014511489027099,-0.0014511543008398,0.0014511484832963,-0.0012862282622342,0.0012862239458662,-0.0012862294680326,0.0012862226912048,-0.0012862225896654,0.0012862298461095,-0.0012862324482547,0.0012862195321566,8.1940173592178e-09,-8.3186627713272e-09,-0.0012950569843246,0.0012950568682751,-6.3693072032135e-10,5.3549733289465e-10,-0.0014511489320792,0.0014511539222558,-0.0014511484935403,0.0014511542938425,-0.0014511544588399,0.0014511484547272,-0.0014511540483627,0.0014511487978253,-0.0012862340849016,0.0012862181411877,-0.0012862178328985,0.0012862343199325,0.59981697577034,131329,3014,0.0053817333575893,0.0053817333575414,0.0053817333576617,24.411975491127,-4.4704196070986e-05,-4.4704196070986e-05,-4.4704196070986e-05,2563856.5549629,0.016277313058214
16619200,0.97868802869574,0.016388424710158,0.00546280823672,0.0054628082366819,0.0054628082367558,-0.0012954566401947,0.0012954586573878,-7.257625922157e-09,9.272559582905e-09,-3.5523260557598e-09,5.8240209387463e-09,-0.001451679723997,0.0014516731245662,-0.0014516742252944,0.0014516786295009,-0.0014516767589042,0.0014516762066195,-0.0014516712533648,0.0014516817150941,-0.001286685062681,0.0012866740101102,-0.0012866688806213,0.0012866902011771,3.7539391729489e-09,-6.2096244838448e-09,-4.3580626953342e-10,-1.7483545480025e-09,-0.0012954587402971,0.0012954565572617,-0.0014516756855962,0.0014516772916404,-0.0014516761158325,0.0014516768490197,-0.001451678878828,0.0014516739732754,-0.0014516793054972,0.0014516735375993,-0.0012866816238749,0.0012866774211066,-0.0012866828773194,0.0012866761186693,-0.0012866761340821,0.0012866831377715,-0.0012866857669418,0.0012866730505475,8.3155238992764e-09,-8.4373779237196e-09,-0.0012954577054327,0.0012954575921834,-6.830206426588e-10,5.8486093404699e-10,-0.0014516739276263,0.0014516789858199,-0.0014516734739686,0.0014516793724776,-0.0014516795513448,0.0014516734209808,-0.0014516790924801,0.0014516738127296,-0.0012866875791141,0.0012866714830644,-0.001286671140753,0.0012866878492659,0.70235631734109,131329,3014,0.0053833945120487,0.0053833945119991,0.0053833945121184,24.158094397886,-4.6735244816908e-05,-4.6735244816908e-05,-4.6735244816908e-05,2560315.3414113,0.016282378698455
16819200,0.97938624853607,0.016399961509414,0.0054666538364722,0.0054666538364341,0.0054666538365081,-0.001295845521796,0.0012958475383889,-7.3742453544546e-09,9.3886056534242e-09,-3.5304930932712e-09,5.8013768118618e-09,-0.0014522560780661,0.0014522494245106,-0.0014522505110021,0.0014522549978633,-0.0014522531368981,0.0014522524826033,-0.0014522475447073,0.0014522580777283,-0.0012871759333227,0.0012871646093037,-0.0012871594952302,0.0012871810563027,3.7196963457523e-09,-6.1736112043015e-09,-3.9442711612575e-10,-1.7883120231714e-09,-0.001295847620874,0.0012958454392882,-0.0014522520055113,0.0014522536257199,-0.0014522524718721,0.0014522531468642,-0.0014522551845663,0.0014522503217285,-0.0014522556290423,0.0014522498680194,-0.0012871723207874,0.0012871681942799,-0.0012871736253917,0.0012871668400545,-0.0012871669302746,0.0012871738112554,-0.0012871764660005,0.0012871638212768,8.4361776322701e-09,-8.5560305965501e-09,-0.0012958465857207,0.0012958464744981,-7.2156108583354e-10,6.2577730187416e-10,-0.001452250222425,0.0014522553450343,-0.0014522497513651,0.0014522557490765,-0.0014522559350795,0.0014522496912031,-0.0014522554406123,0.0014522501186602,-0.00128717840308,0.0012871621294079,-0.0012871617580693,0.0012871787012738,0.70571571555388,131329,3014,0.0053850073206606,0.005385007320613,0.0053850073207309,23.906254520236,-4.8749963838111e-05,-4.8749963838111e-05,-4.8749963838111e-05,2546217.1219472,0.016287300482555
17019200,0.9800518748966,0.01641074656219,0.005470248854064,0.0054702488540258,0.0054702488540999,-0.0012961776049775,0.0012961796214446,-7.4927756259067e-09,9.5070227399812e-09,-3.5196502376306e-09,5.7902979579014e-09,-0.0014527762647321,0.001452769524596,-0.0014527706040433,0.0014527751916489,-0.0014527733159909,0.0014527725902327,-0.0014527676596186,0.0014527782495577,-0.0012876006592087,0.0012875891388524,-0.0012875840321604,0.0012876057746712,3.7231501946125e-09,-6.1778576825598e-09,-3.6026798088999e-10,-1.8232645464967e-09,-0.001296179704389,0.0012961775220188,-0.0014527721439793,0.0014527737740747,-0.0014527726185589,0.0014527732869191,-0.0014527753107152,0.001452770482373,-0.0014527757928342,0.0014527699908576,-0.0012875968949348,0.0012875928758019,-0.0012875983100334,0.0012875914105266,-0.0012875915446216,0.0012875984523791,-0.0012876011308483,0.001287588411725,8.5545621734095e-09,-8.6726619574833e-09,-0.0012961786679573,0.0012961785585065,-7.5544215237845e-10,6.6174536222166e-10,-0.0014527703447796,0.0014527755094874,-0.0014527698356489,0.0014527759515457,-0.0014527761210854,0.0014527697919265,-0.0014527756180369,0.0014527702279505,-0.0012876031549241,0.0012875866331088,-0.001287586236575,0.0012876034781321,0.69245975782616,131329,3014,0.0053863847069908,0.0053863847069607,0.0053863847070773,23.65449197554,-5.0764064195681e-05,-5.0764064195681e-05,-5.0764064195681e-05,2534741.715291,0.016291504392302
17219200,0.98067142616357,0.016420519446228,0.0054735064820768,0.0054735064820385,0.0054735064821127,-0.0012956713482587,0.001295673368944,-7.647923629477e-09,9.6662387606881e-09,-3.5907269104635e-09,5.866176760209e-09,-0.0014524341214294,0.0014524272098364,-0.0014524283343667,0.0014524330032422,-0.0014524311017175,0.0014524303467287,-0.0014524253625466,0.0014524360888321,-0.0012871548606894,0.0012871431503865,-0.0012871379908038,0.00128716002957,3.9079613766427e-09,-6.3756219506295e-09,-3.6824991003328e-10,-1.8265047135901e-09,-0.0012956734554415,0.001295671261737,-0.0014524298690443,0.0014524315915603,-0.0014524303202165,0.0014524311277079,-0.0014524331404949,0.0014524281941817,-0.0014524336429187,0.0014524276825247,-0.0012871510404735,0.0012871469426329,-0.0012871525162612,0.0012871454178465,-0.001287145436058,0.0012871527744253,-0.001287155462644,0.0012871422924689,8.6333113671462e-09,-8.7515455728783e-09,-0.0012956724134043,0.0012956723038337,-7.542192795599e-10,6.6038482137348e-10,-0.0014524280999562,0.001452433296419,-0.0014524275698953,0.0014524337593822,-0.0014524339073496,0.0014524275479692,-0.0014524334267269,0.0014524279610993,-0.0012871573710644,0.0012871406292526,-0.0012871402344585,0.0012871576941258,0.67475987013226,131329,3014,0.0053842875120367,0.0053842875119857,0.0053842875121099,22.994896823436,-5.6040825412508e-05,-5.6040825412508e-05,-5.6040825412508e-05,2524112.3668093,0.016285113884472
17419200,0.98123685718143,0.016429064839497,0.0054763549464998,0.0054763549464615,0.0054763549465357,-0.0012944358883651,0.0012944379425343,-7.5174236544558e-09,9.5686319877433e-09,-4.1289893132696e-09,6.4422883931e-09,-0.0014513304005967,0.0014513233601837,-0.0014513248201471,0.0014513289471158,-0.0014513271455465,0.0014513267351722,-0.0014513213490244,0.0014513325347243,-0.0012859464071041,0.001285934936344,-0.0012859293703146,0.0012859519830729,3.7912585381286e-09,-6.2495632551104e-09,-3.931450919079e-10,-1.7930856427539e-09,-0.0012944380081073,0.0012944358227638,-0.0014513260626707,0.0014513278275651,-0.001451326627042,0.0014513272518497,-0.0014513293888164,0.0014513243778908,-0.0014513297394323,0.0014513240172449,-0.001285942886653,0.001285938429889,-0.001285943911962,0.0012859373530163,-0.0012859374049331,0.0012859441384424,-0.0012859467991565,0.001285934289232,8.9821519958927e-09,-9.1024737969678e-09,-0.001294436971189,0.0012944368597365,-7.2288237605727e-10,6.266415920001e-10,-0.0014513241234513,0.001451329703723,-0.0014513237464169,0.0014513300124116,-0.0014513302943817,0.0014513235912267,-0.0014513297049303,0.0014513241161139,-0.0012859491994722,0.0012859321397765,-0.0012859317615464,0.0012859494925295,0.64747797906891,131329,3014,0.0053791680411977,0.0053791680411386,0.0053791680412522,21.991937537736,-6.4064499698108e-05,-6.4064499698108e-05,-6.4064499698108e-05,2514198.3620522,0.016269507969968
17619200,0.98175330651185,0.016436575625573,0.0054788585418582,0.0054788585418201,0.0054788585418943,-0.0012931105879636,0.0012931126347725,-7.8454921968341e-09,9.8896866936836e-09,-4.0403448931781e-09,6.3460633140042e-09,-0.0014501056822045,0.0014500983607084,-0.001450099769056,0.0014501042801501,-0.0014501023683665,0.0014501017936366,-0.0014500964746311,0.0014501076902789,-0.0012846229232306,0.0012846110893836,-0.0012846055948488,0.0012846284268303,4.2660522759771e-09,-6.7574702105155e-09,-4.4384713387262e-10,-1.7711187517643e-09,-0.0012931127184987,0.0012931105042053,-0.0014501011272319,0.0014501030467282,-0.0014501015491399,0.001450102612195,-0.0014501046585529,0.0014500993877131,-0.0014501051034379,0.0014500989340749,-0.001284619261658,0.0012846147248884,-0.0012846205635781,0.0012846133687294,-0.0012846130832788,0.0012846211326427,-0.0012846237946573,0.0012846099572491,8.8924496982952e-09,-9.0147088603617e-09,-0.0012931116681569,0.0012931115546006,-6.8960511062547e-10,5.9111536286083e-10,-0.0014500993414734,0.0014501047672425,-0.0014500988704463,0.001450105171312,-0.001450105337696,0.0014500988307477,-0.0014501048872243,0.0014500992130853,-0.0012846256309583,0.0012846083750998,-0.0012846080242896,0.0012846259004456,0.62390233489594,131329,3014,0.0053736758537444,0.0053736758536772,0.0053736758537888,20.980555705797,-7.215555435362e-05,-7.215555435362e-05,-7.215555435362e-05,2507524.9738197,0.016252764793291
17819200,0.98222622314284,0.016443219045862,0.0054810730152879,0.0054810730152499,0.0054810730153241,-0.0012917659122239,0.0012917679630109,-8.0299830465888e-09,1.0077974900196e-08,-4.1068095808452e-09,6.4171178548074e-09,-0.0014488366303171,0.001448829085921,-0.0014488305386903,0.0014488351837736,-0.0014488332121455,0.0014488326234163,-0.0014488272520682,0.0014488385863748,-0.0012832589960897,0.001283247023231,-0.001283241477219,0.0012832645509098,4.49494704344e-09,-7.0019460745596e-09,-4.8696831386267e-10,-1.7413767100352e-09,-0.0012917680514684,0.0012917658237476,-0.0014488319332177,0.0014488339143494,-0.0014488322751225,0.0014488335603692,-0.0014488355632022,0.0014488301561092,-0.0014488360397681,0.001448829670476,-0.0012832552973676,0.0012832506920029,-0.0012832567039025,0.0012832492383997,-0.001283248763053,0.0012832574565935,-0.0012832601114174,0.0012832456496545,8.9409185616047e-09,-9.0651186154959e-09,-0.0012917669954275,0.0012917668798434,-6.5489609599145e-10,5.5411867352547e-10,-0.0014488301780246,0.0014488356044931,-0.0014488296744748,0.0014488360402602,-0.0014488361527807,0.0014488296889226,-0.0014488357824257,0.0014488299913673,-0.0012832617803407,0.001283244227238,-0.0012832439072877,0.001283262029116,0.60341628301627,131329,3014,0.0053681031328634,0.0053681031328238,0.0053681031329384,19.990842141385,-8.0073262868918e-05,-8.0073262868918e-05,-8.0073262868918e-05,2503637.7721438,0.016235775495488
18019200,0.98266025320633,0.016449309652822,0.005483103217608,0.0054831032175698,0.0054831032176441,-0.0012904131974856,0.0012904152577427,-8.0966583912322e-09,1.0154062928818e-08,-4.2628275890139e-09,6.5840469875311e-09,-0.0014475345178079,0.0014475268461213,-0.001447528395731,0.0014475329743744,-0.0014475310119955,0.0014475304720092,-0.0014475249852123,0.0014475365016627,-0.0012818753960571,0.0012818633461824,-0.0012818576832664,0.0012818810677576,4.5262151227418e-09,-7.035455782225e-09,-5.2256409057491e-10,-1.7075897307343e-09,-0.0012904153424008,0.0012904131128081,-0.0014475297490686,0.0014475317464043,-0.0014475300862461,0.0014475313975536,-0.001447533420189,0.0014475279471853,-0.0014475338554888,0.001447527502692,-0.0012818717318657,0.0012818669800403,-0.0012818730156892,0.001281865649627,-0.0012818651102284,0.0012818738323324,-0.0012818764661385,0.0012818620178989,9.1043623038046e-09,-9.2305680587172e-09,-0.0012904142864388,0.0012904141688246,-6.2088979703701e-10,5.1777271298727e-10,-0.0014475279279243,0.0014475335027125,-0.0014475274658211,0.0014475338966688,-0.0014475340293866,0.0014475274602047,-0.0014475336646665,0.0014475277575778,-0.001281878288738,0.0012818604422281,-0.0012818601471444,0.0012818785113782,0.60265703312343,131329,3014,0.0053624968919404,0.0053624968918994,0.0053624968920132,19.019441471525,-8.7844468227798e-05,-8.7844468227798e-05,-8.7844468227798e-05,2501463.039888,0.016218683480581
18219200,0.98305901424261,0.016455010644599,0.0054850035482004,0.0054850035481622,0.0054850035482365,-0.0012890329389337,0.0012890350054981,-8.1698248787521e-09,1.023351670603e-08,-4.3682631343245e-09,6.6967801153761e-09,-0.0014461917311238,0.0014461839734562,-0.0014461855879887,0.001446190122706,-0.0014461881855121,0.001446187639646,-0.0014461820755312,0.0014461937524803,-0.0012804668437614,0.0012804546263788,-0.0012804488852503,0.0012804725934924,4.5352764909567e-09,-7.0453436786382e-09,-5.5614683693136e-10,-1.6746375693776e-09,-0.0012890350873279,0.0012890328570868,-0.0014461869114005,0.0014461889249181,-0.0014461872575879,0.0014461885671579,-0.0014461906213714,0.0014461850867824,-0.0014461910035459,0.0014461846955675,-0.00128046318063,0.0012804582598653,-0.0012804643022956,0.0012804570897774,-0.0012804565025545,0.0012804651688687,-0.0012804677802289,0.0012804534305838,9.2629289482319e-09,-9.391033019564e-09,-0.0012890340320183,0.0012890339124507,-5.8829761314704e-10,4.8295710949182e-10,-0.0014461850199145,0.0014461907514865,-0.0014461846114279,0.0014461910918889,-0.0014461912576614,0.0014461845728279,-0.0014461908844223,0.0014461848788364,-0.0012804697737734,0.001280451686616,-0.0012804514143122,0.0012804699702623,0.6133875114881,131329,3014,0.0053567764379201,0.0053567764378839,0.0053567764379972,18.048488870467,-9.5612089036266e-05,-9.5612089036266e-05,-9.5612089036266e-05,2498439.9486506,0.01620124342141
18419200,0.98343500531846,0.016460423428248,0.0054868078094167,0.0054868078093784,0.0054868078094527,-0.0012883810346112,0.0012883831001681,-8.2375830768445e-09,1.0299935243519e-08,-4.3516009092263e-09,6.6785301067249e-09,-0.0014455873720775,0.0014455796057715,-0.0014455812083034,0.0014455857757417,-0.0014455838641826,0.0014455832342077,-0.0014455776836978,0.0014455894176057,-0.0012798044977187,0.0012797920604045,-0.0012797863320767,0.0012798102356632,4.3850266307459e-09,-6.884535147666e-09,-5.5732265492637e-10,-1.6642977254844e-09,-0.0012883831779294,0.0012883809568303,-0.0014455825839383,0.0014455845251101,-0.0014455829513179,0.0014455841463906,-0.0014455862169828,0.0014455807649452,-0.0014455865703435,0.0014455804024734,-0.0012798007132541,0.0012797958167736,-0.0012798017466042,0.0012797947339176,-0.0012797942312825,0.0012798025286105,-0.0012798051271846,0.001279791173063,9.4315247306288e-09,-9.5602694257433e-09,-0.0012883821273976,0.0012883820074163,-5.8173982801228e-10,4.7569361850413e-10,-0.0014455805860262,0.0014455864585835,-0.0014455802069889,0.0014455867693993,-0.0014455869604259,0.0014455801432029,-0.0014455865671549,0.0014455804698517,-0.0012798074488804,0.0012797891027203,-0.001279788832209,0.0012798076382107,0.61738403049455,131329,3014,0.0053540747027454,0.005354074702704,0.0053540747028173,17.475751610024,-0.00010019398711981,-0.00010019398711981,-0.00010019398711981,2496346.7503992,0.016193007026686
18619200,0.98379714333174,0.016465587840891,0.0054885292802977,0.0054885292802594,0.0054885292803337,-0.0012883298024036,0.0012883318546666,-8.3904436515294e-09,1.0439956490848e-08,-4.1321112447202e-09,6.4440665441905e-09,-0.00144559577168,0.0014455880414698,-0.0014455895072635,0.0014455943120368,-0.001445592409468,0.0014455915231755,-0.0014455861358458,0.0014455977996625,-0.001279750623187,0.001279737745257,-0.0012797321815392,0.0012797561957049,4.2475009924764e-09,-6.7373162249228e-09,-5.3861362561041e-10,-1.6747679675772e-09,-0.0012883319348715,0.0012883297221774,-0.0014455910421631,0.0014455929015741,-0.0014455914153593,0.0014455925167139,-0.0014455945756149,0.0014455892412492,-0.0014455949425153,0.0014455888653449,-0.0012797465465023,0.0012797417939366,-0.0012797476197285,0.0012797406701423,-0.001279740270283,0.0012797482995148,-0.0012797508984925,0.0012797372112449,9.5216532559701e-09,-9.6493789609199e-09,-0.0012883308881099,0.0012883307689923,-5.9614356789968e-10,4.9126174858491e-10,-0.0014455889796099,0.0014455948997378,-0.0014455885870529,0.0014455952244916,-0.0014455954108072,0.0014455885275993,-0.0014455950111059,0.0014455888602631,-0.0012797534415215,0.0012797349190623,-0.0012797346393079,0.0012797536423521,0.6117864003069,131329,3014,0.0053538624640395,0.0053538624639947,0.0053538624641061,17.230775592432,-0.00010215379526054,-0.00010215379526054,-0.00010215379526054,2496309.0213754,0.016192360577081
18819200,0.98414622011334,0.016470885143186,0.0054902950477295,0.0054902950476912,0.0054902950477656,-0.0012882934348743,0.0012882954760891,-8.5191353065583e-09,1.0557554115733e-08,-3.9576076912722e-09,6.2567238092648e-09,-0.0014456124053779,0.0014456046928442,-0.0014456060491183,0.0014456110556272,-0.0014456091532106,0.0014456080643656,-0.0014456028077018,0.0014456144126089,-0.0012797162852093,0.0012797030666961,-0.0012796976336734,0.0012797217270162,4.0792747032308e-09,-6.5566568938532e-09,-5.172688929494e-10,-1.6854487227939e-09,-0.001288295556443,0.0012882933544915,-0.0014456077373489,0.0014456094914266,-0.0014456081109813,0.001445609105794,-0.0014456111443497,0.0014456059575677,-0.0014456115322737,0.0014456055610597,-0.0012797119443978,0.0012797073807673,-0.0012797130796309,0.0012797061949711,-0.0012797059189696,0.0012797136356817,-0.0012797162349133,0.001279702860841,9.635034575131e-09,-9.7618267564228e-09,-0.0012882945146074,0.0012882943963934,-6.0987158198886e-10,5.0611819437775e-10,-0.0014456055936674,0.0014456115705908,-0.0014456051819053,0.001445611915327,-0.0014456120901333,0.0014456051329533,-0.0014456116911807,0.001445605465129,-0.0012797190538395,0.001279700289342,-0.0012797000002475,0.001279719266176,0.64922936839819,131329,3014,0.0053537118124422,0.0053537118123817,0.0053537118125201,16.993817961979,-0.00010404945630416,-0.00010404945630416,-0.00010404945630416,2496311.493889,0.01619190167397
19019200,0.98448280988825,0.016476304283252,0.0054921014277514,0.0054921014277132,0.0054921014277873,-0.0012882660701585,0.0012882681013984,-8.6539902637731e-09,1.0682764495407e-08,-3.7854085455438e-09,6.0731457738007e-09,-0.0014456553673694,0.0014456476824405,-0.0014456489308178,0.0014456541252137,-0.0014456522384405,0.0014456509292958,-0.0014456458006012,0.0014456573699871,-0.0012797190589264,0.0012797054386949,-0.0012797001344071,0.0012797243718831,3.945296384838e-09,-6.4138460251897e-09,-5.0008495964849e-10,-1.6951419372289e-09,-0.00128826818292,0.0012882659886178,-0.0014456507475558,0.0014456524314361,-0.0014456511363528,0.0014456520309227,-0.0014456540686073,0.0014456489849175,-0.0014456544589981,0.0014456485853245,-0.0012797144623783,0.0012797100074527,-0.0012797156063116,0.0012797088134195,-0.0012797086354916,0.0012797160619702,-0.0012797186627781,0.0012797055780147,9.7414581047888e-09,-9.8674625495571e-09,-0.0012882671444895,0.0012882670271002,-6.2479347013542e-10,5.2192557912006e-10,-0.0014456485353245,0.0014456545799985,-0.0014456481191083,0.0014456549286046,-0.0014456551089696,0.00144564806504,-0.0014456546935811,0.0014456484136101,-0.0012797217158277,0.0012797027730613,-0.0012797024730594,0.0012797219393012,0.68719100955042,131329,3014,0.0053535987538288,0.0053535987537888,0.0053535987538971,16.757163222375,-0.000105942694221,-0.000105942694221,-0.000105942694221,2491387.7073809,0.016191558478397
19219200,0.98481788654653,0.016481859312953,0.0054939531043185,0.0054939531042803,0.0054939531043544,-0.0012891863575083,0.0012891883765573,-8.789779659912e-09,1.08065323975e-08,-3.5740792357445e-09,5.8476924071875e-09,-0.0014466822135248,0.0014466745682869,-0.0014466756833121,0.0014466811047651,-0.00144667922221,0.0014466776766037,-0.0014466727051424,0.0014466841965125,-0.0012807057181853,0.0012806917074077,-0.001280686560518,0.0012807108737175,3.7613935531773e-09,-6.2177903394681e-09,-4.5594933635809e-10,-1.7289852743734e-09,-0.0012891884589464,0.0012891862750985,-0.0014466776620179,0.0014466792481976,-0.0014466780694486,0.0014466788288995,-0.0014466808496268,0.0014466759359443,-0.0014466812730838,0.0014466755030788,-0.0012807008093194,0.0012806965889056,-0.0012807020504206,0.0012806952974242,-0.0012806952829437,0.0012807023417272,-0.0012807049582243,0.0012806922114214,9.8488764897014e-09,-9.9726783189935e-09,-0.0012891874246376,0.0012891873094601,-6.6305186304425e-10,5.6276676974384e-10,-0.0014466753813711,0.0014466814655458,-0.0014466749315742,0.0014466818478242,-0.0014466820186564,0.001446674886747,-0.0014466815841578,0.0014466752545406,-0.0012807082800364,0.0012806891366314,-0.0012806888084409,0.0012807085324797,0.70677987814649,131329,3014,0.0053574135125949,0.0053574135125512,0.0053574135126615,17.022341551762,-0.0001038212675859,-0.0001038212675859,-0.0001038212675859,2486327.408813,0.016203191009066
19419200,0.98515661595435,0.016487358051729,0.0054957860172437,0.0054957860172056,0.0054957860172797,-0.0012905730618838,0.0012905750692725,-8.9149827701018e-09,1.0920680715818e-08,-3.3780059203555e-09,5.6386584327378e-09,-0.0014482037819873,0.0014481961966379,-0.0014481971889871,0.0014482027956895,-0.0014482009418745,0.0014481991528298,-0.001448194327974,0.0014482057692746,-0.0012821676512266,0.0012821532085874,-0.0012821482090576,0.0012821726591833,3.6060348170105e-09,-6.05266511239e-09,-4.0526915256109e-10,-1.7714561855436e-09,-0.0012905751533192,0.001290572977819,-0.0014481992857413,0.001448200821169,-0.0014481997409968,0.0014482003535235,-0.0014482023832034,0.0014481975986159,-0.0014482028204971,0.001448197151422,-0.0012821624492458,0.0012821583846865,-0.0012821637308288,0.0012821570520994,-0.0012821571942936,0.0012821638649032,-0.0012821665028321,0.0012821541007769,9.9666755886669e-09,-1.0087998795267e-08,-0.0012905741220201,0.001290574009171,-7.0864797658487e-10,6.1129634737502e-10,-0.0014481969469814,0.0014482030967294,-0.0014481964829276,0.0014482034933715,-0.0014482036785429,0.001448196422523,-0.0014482031956538,0.0014481968385564,-0.001282170068431,0.001282150780532,-0.001282150420634,0.0012821703566545,0.69264757941724,131329,3014,0.0053631614119937,0.0053631614119554,0.0053631614120661,17.538802531882,-9.968957974494e-05,-9.968957974494e-05,-9.968957974494e-05,2483186.905029,0.016220717986134
19619200,0.98549887159074,0.016492778161943,0.0054975927206485,0.0054975927206103,0.0054975927206845,-0.0012919597891025,0.0012919617958003,-9.0127462579649e-09,1.101744177901e-08,-3.3390845736113e-09,5.5982422004259e-09,-0.0014497229699416,0.0014497153140191,-0.0014497162798401,0.0014497220104765,-0.0014497201241848,0.0014497182758902,-0.001449713477779,0.0014497249250889,-0.001283615480777,0.0012836009170199,-0.0012835959432955,0.0012836204630674,3.4407790298661e-09,-5.8762797457462e-09,-3.5963266273326e-10,-1.8075752739322e-09,-0.0012919618753963,0.0012919597094872,-0.001449718492643,0.0014497199187618,-0.0014497189427988,0.0014497194564612,-0.0014497214452052,0.0014497168430019,-0.0014497219418842,0.0014497163363902,-0.0012836100684123,0.0012836063029046,-0.0012836115250554,0.001283604794995,-0.0012836050916092,0.0012836115040586,-0.0012836141610682,0.0012836019822516,1.0106670055167e-08,-1.0225951287031e-08,-0.0012919608477882,0.0012919607371478,-7.448163594009e-10,6.4986041059289e-10,-0.0014497160806901,0.0014497222680278,-0.0014497155592231,0.0014497227219699,-0.0014497228728308,0.0014497155338825,-0.0014497223976027,0.0014497159430412,-0.0012836180085687,0.0012835983805404,-0.0012835979914794,0.001283618321855,0.67638953754617,131329,3014,0.0053689092569523,0.0053689092569114,0.0053689092570213,18.061475230739,-9.5508198154084e-05,-9.5508198154084e-05,-9.5508198154084e-05,2483200.4453861,0.01623824459488
19819200,0.98584438113268,0.016498093283381,0.0054993644277944,0.0054993644277562,0.0054993644278304,-0.0012933356794018,0.0012933376831693,-9.1281547441384e-09,1.1129906068539e-08,-3.2862385250218e-09,5.5418773959791e-09,-0.0014512242353248,0.0014512165332916,-0.0014512174654132,0.0014512233096608,-0.0014512214221945,0.0014512194622677,-0.0014512147036295,0.0014512261836993,-0.0012850382402264,0.001285023426543,-0.0012850184920202,0.0012850431831533,3.372535055481e-09,-5.8037396825233e-09,-3.2360880695286e-10,-1.8399938779672e-09,-0.0012933377624085,0.0012933356001537,-0.0014512197469352,0.0014512211489293,-0.0014512202159158,0.0014512206676232,-0.0014512226492095,0.0014512181237637,-0.0014512231724562,0.0014512175905629,-0.0012850326381821,0.001285029002659,-0.0012850341738095,0.0012850274147454,-0.0012850277982437,0.0012850340663443,-0.0012850367423787,0.0012850246700406,1.0229861569928e-08,-1.0347359392862e-08,-0.0012933367357113,0.0012933366269018,-7.7734257560026e-10,6.8450163682721e-10,-0.0014512172943954,0.0014512235387472,-0.0014512167467815,0.0014512240190719,-0.0014512241643202,0.0014512167270584,-0.0014512236704107,0.0014512171547337,-0.0012850407574088,0.0012850209016943,-0.0012850204873682,0.0012850410940353,0.65786894765467,131329,3014,0.0053746120009129,0.0053746120008938,0.0053746120010002,18.584383011975,-9.1324935904201e-05,-9.1324935904201e-05,-9.1324935904201e-05,2485673.7189922,0.016255633404192
20019200,0.98618357480345,0.016503498098892,0.0055011660329649,0.0055011660329266,0.0055011660330008,-0.0012938915754237,0.0012938935850219,-9.2436195774729e-09,1.1251080618328e-08,-3.3866053150617e-09,5.6489226401145e-09,-0.0014518773778694,0.0014518695659274,-0.0014518705615912,0.0014518763886413,-0.0014518745281593,0.0014518725319131,-0.0014518676982279,0.0014518793646907,-0.0012856230196532,0.0012856079528206,-0.001285602943396,0.0012856280378354,3.5102919541883e-09,-5.9509214207259e-09,-3.3333524919081e-10,-1.8383974087859e-09,-0.001293893665458,0.0012938914949659,-0.0014518727771417,0.0014518742944104,-0.0014518732748805,0.0014518737843722,-0.0014518758062872,0.0014518711417842,-0.0014518762932734,0.0014518706448298,-0.0012856173963302,0.0012856135500697,-0.0012856188243984,0.0012856120698986,-0.0012856123619727,0.0012856188088487,-0.0012856214891335,0.0012856092283767,1.0347676923808e-08,-1.0465384723445e-08,-0.0012938926347244,0.0012938925257512,-7.7495536561612e-10,6.8189063153281e-10,-0.0014518703257379,0.001451876682812,-0.0014518698122864,0.0014518771289268,-0.00145187730687,0.0014518697600072,-0.0014518767820548,0.0014518702184081,-0.0012856254784252,0.0012856054864614,-0.0012856050738847,0.0012856258130953,0.68048383896277,131329,3014,0.0053769161865385,0.0053769161864926,0.0053769161866007,18.671590058597,-9.0627279531221e-05,-9.0627279531221e-05,-9.0627279531221e-05,2486628.602162,0.016262659869184
20219200,0.98651404128972,0.016508913293727,0.0055029710979098,0.0055029710978715,0.0055029710979458,-0.0012942199215614,0.0012942219409442,-9.3676460441377e-09,1.1384797903357e-08,-3.5517092162508e-09,5.8253634979674e-09,-0.0014523046039542,0.0014522966055044,-0.0014522977056143,0.0014523035102339,-0.0014523016442878,0.0014522996821591,-0.0014522947248161,0.0014523066044501,-0.0012859926007028,0.0012859773933009,-0.0012859722602839,0.0012859977423814,3.7163754319257e-09,-6.1712495937412e-09,-3.592711531264e-10,-1.8246994982197e-09,-0.0012942220226641,0.0012942198398205,-0.0014522998503223,0.0014523014876783,-0.0014523003386587,0.0014523009870891,-0.001452303024358,0.0014522981891849,-0.0014523034944825,0.0014522977091969,-0.0012859870092303,0.0012859829582116,-0.0012859883868584,0.0012859815286635,-0.0012859816694845,0.0012859885235619,-0.0012859912027522,0.0012859785351156,1.0454429712937e-08,-1.0573314004456e-08,-0.0012942209863643,0.0012942208761726,-7.5547766932284e-10,6.6104129423045e-10,-0.001452297414893,0.0014523038596878,-0.0014522969185965,0.0014523042885262,-0.0014523044715442,0.0014522968614794,-0.0014523039563355,0.0014522973100314,-0.0012859950954812,0.001285974890333,-0.001285974492862,0.0012859954158171,0.69908659756149,131329,3014,0.0053782774682262,0.0053782774681817,0.0053782774682912,18.638390558307,-9.0892875533546e-05,-9.0892875533546e-05,-9.0892875533546e-05,2483891.0990337,0.016266812053611
20419200,0.9868359564371,0.016514195230116,0.0055047317433726,0.0055047317433344,0.0055047317434086,-0.0012945326017849,0.0012945346319081,-9.4862894551335e-09,1.1514063570144e-08,-3.7361919983697e-09,6.0222943079251e-09,-0.0014527241921375,0.0014527159919438,-0.0014527172086346,0.0014527229818045,-0.0014527211031775,0.0014527191986815,-0.0014527141037287,0.0014527262009362,-0.0012863542998916,0.0012863389955232,-0.0012863337247592,0.0012863595793338,3.9152698224011e-09,-6.3836674720465e-09,-3.8968340785436e-10,-1.8058619817237e-09,-0.0012945347141104,0.0012945325195613,-0.0014527192848642,0.0014527210285774,-0.0014527197542878,0.0014527205469901,-0.0014527225926458,0.0014527175953587,-0.0014527230490492,0.0014527171292153,-0.0012863487542459,0.0012863445142035,-0.0012863500916354,0.0012863431253871,-0.00128634311274,0.0012863503824504,-0.0012863530567098,0.0012863399816199,1.0565941815848e-08,-1.0686315004941e-08,-0.0012945336727184,0.0012945335610075,-7.310887539757e-10,6.3492861927828e-10,-0.0014527168585728,0.0014527233910807,-0.0014527163764667,0.0014527238055615,-0.0014527239875936,0.0014527163205394,-0.0014527234917548,0.0014527167495551,-0.0012863568690819,0.0012863364177094,-0.0012863360388514,0.0012863571713006,0.69998400976206,131329,3014,0.0053795739347144,0.0053795739346693,0.0053795739347827,18.602150764496,-9.1182793884032e-05,-9.1182793884032e-05,-9.1182793884032e-05,2479770.4183564,0.016270767099491
20619200,0.98714955261845,0.016518812758503,0.0055062709195019,0.0055062709194636,0.0055062709195379,-0.0012948090860998,0.0012948111276662,-9.591016032632e-09,1.1630128456559e-08,-3.9322680683803e-09,6.2316264998527e-09,-0.0014531134113211,0.0014531050048989,-0.0014531063453368,0.0014531120772003,-0.00145311017893,0.0014531083559145,-0.0014531031147719,0.0014531154228931,-0.0012866630833373,0.001286647735963,-0.001286642318604,0.00128666850923,4.0823837223647e-09,-6.5618041092416e-09,-4.2145291236606e-10,-1.783451642854e-09,-0.0012948112088816,0.0012948090048627,-0.001453108361848,0.001453110184372,-0.0014531088044786,0.0014531097297826,-0.0014531117754301,0.0014531066448009,-0.0014531122226926,0.0014531061878137,-0.0012866575913798,0.0012866532004206,-0.0012866589022869,0.0012866518381989,-0.0012866516880455,0.0012866593314259,-0.0012866619971472,0.0012866485642105,1.0690942825976e-08,-1.0812938630147e-08,-0.0012948101635692,0.0012948100502268,-7.0487062771558e-10,6.0682024605802e-10,-0.0014531059290494,0.001453112553137,-0.0014531054561092,0.0014531129582653,-0.0014531131331707,0.0014531054076085,-0.0014531126643552,0.0014531058096469,-0.0012866657774863,0.0012866450333043,-0.00128664467384,0.0012866660595548,0.63099124895567,131329,3014,0.0053807203517152,0.0053807203516695,0.0053807203517775,18.565795473273,-9.1473636213818e-05,-9.1473636213818e-05,-9.1473636213818e-05,2477316.058001,0.016274264845965
20819200,0.98744044413434,0.016523419278117,0.0055078064260398,0.0055078064260016,0.0055078064260758,-0.0012935903706346,0.0012935924304472,-9.696470368545e-09,1.1753598533927e-08,-4.2413553730342e-09,6.5618315327862e-09,-0.0014519309572405,0.0014519222812477,-0.001451923816404,0.0014519294282987,-0.0014519275144803,0.0014519258439642,-0.0014519203723027,0.0014519329889491,-0.0012854279566681,0.0012854126117783,-0.0012854069633683,0.0012854336139129,4.3773847699376e-09,-6.8769178454281e-09,-5.0430219186871e-10,-1.7177462498486e-09,-0.0012935925112357,0.0012935902898197,-0.0014519257043317,0.0014519276653146,-0.0014519260993502,0.0014519272586811,-0.0014519293221614,0.0014519239201455,-0.0014519297185909,0.0014519235143159,-0.0012854226509357,0.0012854178893756,-0.0012854238121956,0.0012854166775014,-0.001285416249996,0.0012854245199409,-0.0012854271532883,0.0012854131558734,1.0810365576987e-08,-1.0936532811959e-08,-0.0012935914592983,0.001293591341808,-6.3403987089952e-10,5.3111090554405e-10,-0.0014519232767926,0.0014519300283317,-0.0014519228542679,0.0014519303828126,-0.0014519305635437,0.0014519228003618,-0.0014519301419379,0.0014519231549696,-0.0012854307954536,0.0012854097649021,-0.0012854094577882,0.0012854310238796,0.67642718173158,131329,3014,0.0053756695366245,0.0053756695365691,0.0053756695366754,17.742641369963,-9.8058869040293e-05,-9.8058869040293e-05,-9.8058869040293e-05,2475114.6868236,0.016258865269041
21019200,0.98770902021627,0.016527538788745,0.0055091795962492,0.005509179596211,0.0055091795962852,-0.0012921857426063,0.00129218781514,-9.8131287784165e-09,1.1883096334976e-08,-4.4729814661336e-09,6.8086109311391e-09,-0.0014505749474465,0.0014505660423703,-0.0014505677247556,0.0014505732711192,-0.0014505713458157,0.0014505697648895,-0.0014505641215223,0.0014505769919573,-0.0012840249883791,0.0012840095737411,-0.0012840037535655,0.0012840308169424,4.6310286000564e-09,-7.1471753021417e-09,-5.8474542883249e-10,-1.6514054983708e-09,-0.001292187896698,0.0012921856610161,-0.0014505695247172,0.0014505715972847,-0.0014505698712027,0.0014505712393652,-0.0014505733162017,0.00145056767703,-0.0014505736638331,0.0014505673202984,-0.0012840198138162,0.001284014719559,-0.0012840208309437,0.001284013651913,-0.0012840129733464,0.0012840217914443,-0.0012840243891899,0.0012840099113426,1.0921178486023e-08,-1.1051462906806e-08,-0.001292186839759,0.0012921867180059,-5.6273472666391e-10,4.5498523310168e-10,-0.0014505670924385,0.0014505739645414,-0.0014505667192674,0.0014505742695788,-0.0014505744547581,0.0014505666610255,-0.0014505740820614,0.0014505669663921,-0.0012840279289832,0.0012840066239768,-0.0012840063711265,0.0012840281043101,0.65601665591441,131329,3014,0.005369848476486,0.0053698484764185,0.0053698484765246,16.832032237306,-0.00010534374210156,-0.00010534374210156,-0.00010534374210156,2467099.0287761,0.016241118929265
21219200,0.98795716312951,0.016531367968531,0.0055104559895109,0.0055104559894728,0.0055104559895471,-0.0012907525629192,0.0012907546461526,-9.9201993654836e-09,1.2000540679073e-08,-4.6599416096296e-09,7.0078101170348e-09,-0.0014491692330537,0.001449160133947,-0.0014491619340744,0.0014491674388959,-0.0014491655020879,0.0014491639867326,-0.0014491582042385,0.0014491712873549,-0.0012825825011863,0.0012825670105047,-0.0012825610506079,0.0012825884695586,4.7908093586708e-09,-7.3173662327197e-09,-6.563303403555e-10,-1.5885900436978e-09,-0.001290754726797,0.0012907524822464,-0.0014491636859472,0.001449165813811,-0.0014491639865647,0.0014491655021233,-0.001449167585758,0.001449161784658,-0.0014491678901364,0.0014491614713972,-0.0012825774112982,0.0012825720706592,-0.0012825783012463,0.0012825711310548,-0.0012825702663766,0.0012825794480431,-0.0012825820104822,0.0012825672392873,1.1043028273478e-08,-1.1176994748541e-08,-0.001290753667262,0.0012907535418331,-4.9812302356591e-10,3.860320054578e-10,-0.0014491612201629,0.0014491682143557,-0.0014491608901671,0.0014491684761204,-0.0014491686636245,0.0014491608297964,-0.0014491683369206,0.0014491610893384,-0.0012825855512936,0.0012825639519808,-0.0012825637463667,0.0012825856777431,0.65967102604622,131329,3014,0.0053639088903515,0.0053639088902917,0.0053639088903999,15.919060942531,-0.00011264751245975,-0.00011264751245975,-0.00011264751245975,2460993.2122518,0.016223010714922
21419200,0.98818991747289,0.016534983367844,0.0055116611226152,0.0055116611225771,0.0055116611226514,-0.0012897266691387,0.001289728744756,-1.0111090652474e-08,1.2183776441405e-08,-4.555587196997e-09,6.8949350172916e-09,-0.0014481729020893,0.0014481637420173,-0.0014481654785274,0.0014481711711805,-0.0014481692415524,0.0014481675233353,-0.0014481618197678,0.0014481749477066,-0.0012815545693259,0.0012815386301456,-0.0012815327521782,0.0012815604580949,4.935718910893e-09,-7.4724809342816e-09,-7.0021018866094e-10,-1.5536004820834e-09,-0.0012897288336229,0.0012897265802493,-0.0014481672926255,0.0014481694841486,-0.0014481675667837,0.0014481691988616,-0.0014481712903974,0.001448165355948,-0.0014481715688582,0.0014481650685107,-0.0012815493486363,0.0012815438208908,-0.0012815501622105,0.001281542961114,-0.0012815419539096,0.0012815514486773,-0.0012815539930903,0.0012815389444553,1.1090964338476e-08,-1.1226891065479e-08,-0.0012897277707316,0.0012897276432099,-4.5648772002526e-10,3.420583167944e-10,-0.0014481648290329,0.0014481718824821,-0.0014481645272088,0.0014481721156596,-0.0014481723052375,0.0014481644647606,-0.0014481720069547,0.0014481646948682,-0.0012815574565132,0.0012815357331956,-0.00128153555977,0.0012815575558765,0.66373454647149,131329,3014,0.00535965723273,0.0053596572326826,0.0053596572328271,15.230523774134,-0.00011815580980693,-0.00011815580980693,-0.00011815580980693,2455930.9305467,0.016210048861601
21619200,0.98840871330322,0.016538411610858,0.0055128038702866,0.0055128038702485,0.0055128038703227,-0.0012887351862232,0.001288737268207,-1.0141882245341e-08,1.2221628505521e-08,-4.6278336115657e-09,6.97481409657e-09,-0.0014472115587256,0.0014472023337521,-0.0014472041135425,0.001447209781882,-0.0014472078487237,0.0014472061617455,-0.0014472004020692,0.0014472136110702,-0.0012805617904217,0.0012805458379712,-0.0012805399019694,0.0012805677313204,4.7442117653912e-09,-7.2701035752416e-09,-7.257308344754e-10,-1.5184721747925e-09,-0.0012887373488941,0.0012887351055641,-0.001447205983303,0.0014472080363413,-0.0014472062404368,0.0014472077708992,-0.0014472098565199,0.0014472040408232,-0.0014472101093231,0.0014472037738217,-0.0012805565159066,0.0012805510732379,-0.0012805572675872,0.0012805502708022,-0.0012805493404953,0.0012805584764197,-0.0012805609902429,0.0012805463634269,1.1290822134546e-08,-1.1430368459266e-08,-0.0012887362924105,0.0012887361619722,-4.3214168810336e-10,3.1343122136192e-10,-0.0014472033765768,0.0014472105820989,-0.0014472030918432,0.0014472107934163,-0.0014472109896873,0.0014472030272036,-0.0014472107073602,0.001447203243648,-0.0012805648791925,0.0012805427399764,-0.0012805425854969,0.0012805649526291,0.66920856042749,131329,3014,0.0053555482153923,0.0053555482154509,0.0053555482152926,14.566183587371,-0.00012347053130103,-0.00012347053130103,-0.00012347053130103,2450804.7207872,0.016197522181201
21819200,0.98861451535534,0.016541589893546,0.0055138632978491,0.0055138632978104,0.0055138632978861,-0.001287730371215,0.0012877324493596,-1.021802584756e-08,1.22934684808e-08,-4.5971560472148e-09,6.9394032017015e-09,-0.0014462372748221,0.0014462280193085,-0.0014462297798809,0.001446235519785,-0.0014462335894514,0.0014462318257302,-0.0014462260926362,0.0014462393253343,-0.001279555878014,0.0012795397551265,-0.0012795338441413,0.0012795617971448,4.5843398709232e-09,-7.0952449347369e-09,-7.404737630601e-10,-1.4907432121589e-09,-0.0012877325255081,0.0012877302950478,-0.0014462317421544,0.0014462336830974,-0.0014462319842027,0.001446233430677,-0.001446235502549,0.0014462297953362,-0.0014462357446852,0.0014462295441336,-0.0012795504848094,0.0012795451184362,-0.0012795511918043,0.0012795443612487,-0.0012795435015725,0.0012795523329229,-0.0012795548206714,0.0012795405504604,1.1453297785144e-08,-1.1591833728084e-08,-0.0012877314753423,0.0012877313452694,-4.1223995429355e-10,2.9468806157024e-10,-0.0014462290180317,0.0014462363430744,-0.0014462287485481,0.0014462365438488,-0.0014462367377951,0.0014462286822729,-0.0014462364688877,0.0014462288845626,-0.0012795590460448,0.0012795365798962,-0.0012795364367194,0.0012795591075922,0.65988855553712,131329,3014,0.0053513839269844,0.005351383926944,0.0053513839270612,13.902499089479,-0.00012878000728416,-0.00012878000728416,-0.00012878000728416,2445337.4554073,0.016184827323273
22019200,0.98881998999333,0.01654471312397,0.0055149043746573,0.0055149043746185,0.0055149043746943,-0.0012884327239407,0.0012884347791806,-1.0385829145108e-08,1.2438545956606e-08,-4.2228590862595e-09,6.5386930258282e-09,-0.0014469882089869,0.0014469790855036,-0.0014469806109095,0.0014469866892358,-0.0014469847813818,0.001446982632485,-0.0014469771795823,0.0014469902370513,-0.0012802757582592,0.0012802590445039,-0.001280253414868,0.0012802813962462,4.3105656061982e-09,-6.8023758259702e-09,-6.8566987664748e-10,-1.5292554258541e-09,-0.0012884348585971,0.0012884326445044,-0.0014469828122984,0.001446984612192,-0.0014469830860401,0.001446984327617,-0.0014469863850425,0.0014469809129088,-0.001446986657369,0.0014469806315984,-0.001280269923352,0.0012802648504397,-0.0012802707188197,0.0012802640043145,-0.0012802633723084,0.0012802716311796,-0.0012802741335184,0.0012802604085202,1.1534456739029e-08,-1.1670365152238e-08,-0.0012884338152607,0.0012884336878883,-4.5536879379593e-10,3.4087946648394e-10,-0.0014469800041836,0.0014469873564303,-0.0014469797060621,0.0014469875864096,-0.0014469877782957,0.0014469796412669,-0.0014469874785084,0.001446979874078,-0.0012802786910836,0.0012802561043106,-0.0012802559292899,0.0012802787857399,0.64982379459903,131329,3014,0.0053542949207295,0.0053542949206871,0.0053542949207869,14.153371269162,-0.00012677302984671,-0.00012677302984671,-0.00012677302984671,2447250.224491,0.016193702211357
22219200,0.9890263319338,0.016547824945393,0.005515941648465,0.0055159416484262,0.005515941648502,-0.0012893157010261,0.0012893177350868,-1.0550124716638e-08,1.2581505779282e-08,-3.883506147847e-09,6.1746183213546e-09,-0.0014479260783618,0.001447917072481,-0.0014479183846613,0.0014479247728469,-0.0014479228908577,0.0014479203791093,-0.0014479151805173,0.0014479280922544,-0.0012811680015576,0.0012811507134335,-0.001281145338649,0.0012811733872855,4.0244066615886e-09,-6.4949773215078e-09,-6.2141264387139e-10,-1.5754303711078e-09,-0.0012893178160166,0.0012893156200536,-0.0014479208094379,0.0014479224719569,-0.0014479211256181,0.001447922143526,-0.0014479241899991,0.0014479189636066,-0.0014479244940785,0.0014479186527178,-0.001281161731346,0.0012811569606814,-0.0012811626142481,0.001281156028491,-0.0012811556430984,0.0012811632789205,-0.0012811658002426,0.0012811526630864,1.161926709319e-08,-1.1750871797462e-08,-0.0012893167797503,0.0012893166564355,-5.0928592648806e-10,3.9984198836642e-10,-0.0014479179183604,0.0014479252982971,-0.0014479175898809,0.0014479255605791,-0.0014479257538914,0.0014479175218169,-0.0014479254102626,0.0014479177982154,-0.001281170696941,0.0012811480105078,-0.0012811477948445,0.0012811708357204,0.64497435915042,131329,3014,0.0053579544265755,0.0053579544264854,0.0053579544267273,14.499757327816,-0.00012400194137747,-0.00012400194137747,-0.00012400194137747,2451649.4452656,0.016204859128392
22419200,0.98923347972159,0.016551082287959,0.0055170274293203,0.0055170274292817,0.0055170274293569,-0.0012902093296548,0.0012902113497267,-1.0603831693515e-08,1.2621623014551e-08,-3.6398583041803e-09,5.914888066465e-09,-0.0014488714569199,0.0014488625460967,-0.0014488637047064,0.0014488703044283,-0.0014488684088997,0.0014488657111621,-0.0014488606939196,0.0014488734288744,-0.0012820722663544,0.001282054786037,-0.0012820495927519,0.0012820774682797,3.7352187526756e-09,-6.1867486357046e-09,-5.53951020666e-10,-1.626585241047e-09,-0.0012902114293936,0.0012902092499706,-0.0014488663192079,0.0014488678116988,-0.0014488666483752,0.0014488674713887,-0.0014488694757262,0.0014488645310749,-0.0014488698446463,0.0014488641527896,-0.0012820656910494,0.0012820613348535,-0.0012820667713399,0.0012820602032399,-0.0012820600721116,0.0012820671803102,-0.001282069724688,0.001282057071334,1.1809778372613e-08,-1.1939130434466e-08,-0.0012902104001047,0.0012902102793132,-5.6081172041043e-10,4.539962862545e-10,-0.0014488633108462,0.0014488707573059,-0.0014488629194376,0.0014488710810975,-0.0014488712453536,0.0014488628810647,-0.0014488708934919,0.0014488631664748,-0.0012820750734383,0.0012820519711124,-0.0012820517177704,0.0012820752489597,0.67139354597413,131329,3014,0.0053616580579867,0.0053616580579499,0.0053616580580624,14.848741205716,-0.00012121007035427,-0.00012121007035427,-0.00012121007035427,2456039.3404455,0.0162161505396
22619200,0.98944119064278,0.016554385531889,0.0055181285106302,0.0055181285105916,0.0055181285106668,-0.0012910887114192,0.0012910907191615,-1.0800574883733e-08,1.2806285330656e-08,-3.4238002232534e-09,5.684608528935e-09,-0.0014498198638683,0.0014498109892195,-0.0014498120115837,0.0014498188474886,-0.0014498169903534,0.001449813978698,-0.0014498091219576,0.0014498218498902,-0.0012829772628381,0.0012829591678674,-0.0012829541356849,0.0012829823035639,3.577862606855e-09,-6.0192829708018e-09,-4.9979693592214e-10,-1.6722034787252e-09,-0.0012910908006413,0.0012910886299163,-0.001449814763914,0.0014498162164173,-0.0014498151526698,0.0014498158159368,-0.0014498178390242,0.0014498130177106,-0.001449818214364,0.0014498126329882,-0.001282970312092,0.0012829660919468,-0.0012829714111994,0.0012829649408252,-0.0012829649711281,0.0012829716581652,-0.0012829742269907,0.0012829619471215,1.1856869652477e-08,-1.198320970111e-08,-0.0012910897741618,0.0012910896564468,-6.1400477313447e-10,5.1069437951961e-10,-0.0014498117236464,0.0014498191940172,-0.0014498113223325,0.0014498195278557,-0.001449819715693,0.0014498112602065,-0.0014498193003956,0.001449811609035,-0.0012829797473413,0.0012829566754054,-0.0012829563827056,0.0012829799626807,0.67880268346985,131329,3014,0.0053653028393879,0.0053653028393389,0.0053653028394458,15.186919746885,-0.00011850464202492,-0.00011850464202492,-0.00011850464202492,2457546.1283431,0.016227263597739
22819200,0.98964644746751,0.016557640038869,0.0055192133462904,0.0055192133462518,0.005519213346327,-0.0012915486040792,0.0012915506123866,-1.0790212460181e-08,1.2795859331222e-08,-3.4474148302551e-09,5.7084227518386e-09,-0.0014503480070578,0.0014503390791658,-0.0014503401157517,0.001450346976039,-0.0014503450732617,0.0014503421296508,-0.0014503372563374,0.0014503499489297,-0.0012834601406317,0.0012834422088204,-0.001283437165378,0.0012834652039503,3.465483276537e-09,-5.8990443431086e-09,-4.5894127045334e-10,-1.7066728466374e-09,-0.0012915506903121,0.0012915485260831,-0.001450342926954,0.0014503442879528,-0.0014503432947662,0.0014503439060274,-0.0014503458783531,0.0014503412103981,-0.0014503463252668,0.0014503407561417,-0.0012834531364585,0.0012834491982633,-0.0012834544356742,0.0012834478531578,-0.0012834479978898,0.0012834545649613,-0.0012834571471568,0.0012834449582617,1.210570943771e-08,-1.2227729672664e-08,-0.0012915496653776,0.0012915495512707,-6.4107192386925e-10,5.429048685407e-10,-0.0014503397895376,0.0014503473615938,-0.0014503393238298,0.0014503477606278,-0.0014503478999499,0.0014503393090712,-0.0014503475104335,0.0014503396320611,-0.0012834629990507,0.0012834393449415,-0.0012834390278813,0.0012834632438591,0.67691803503889,131329,3014,0.005367209133457,0.0053672091333089,0.0053672091338359,15.303483311261,-0.00011757213350991,-0.00011757213350991,-0.00011757213350991,2457062.773439,0.016233076743208
23019200,0.98984917773821,0.016560635153145,0.0055202117177157,0.0055202117176773,0.0055202117177516,-0.0012919825251535,0.001291984532373,-1.1027134112975e-08,1.3032239179039e-08,-3.4006610162579e-09,5.6606107028169e-09,-0.0014508491399688,0.0014508401253442,-0.0014508411323898,0.0014508481390372,-0.0014508462779129,0.0014508431034364,-0.0014508382628331,0.0014508511212383,-0.0012839109040753,0.0012838923617402,-0.0012838873460618,0.0012839159290718,3.5488929113362e-09,-5.9892580060438e-09,-4.3738218241702e-10,-1.7339441941393e-09,-0.0012919846137881,0.0012919824437151,-0.001450843961205,0.001450845431659,-0.0014508443866397,0.001450844993919,-0.0014508470122691,0.0014508422567163,-0.0014508474333228,0.0014508418263635,-0.0012839036535425,0.0012838995877178,-0.0012839048859702,0.001283898301686,-0.0012838984322681,0.0012839050341276,-0.0012839076426415,0.001283895367296,1.2105025618365e-08,-1.2227678918155e-08,-0.0012919835858497,0.0012919834717149,-6.7263604393057e-10,5.7367660916161e-10,-0.00145084086844,0.0014508484614159,-0.0014508404223386,0.0014508488403136,-0.0014508490202761,0.0014508403679456,-0.0014508485687009,0.0014508407528959,-0.0012839133901127,0.0012838898684689,-0.001283889530948,0.0012839136496282,0.63260003581766,131329,3014,0.0053690077551068,0.0053690077550572,0.0053690077551865,15.414709843241,-0.00011668232125407,-0.00011668232125407,-0.00011668232125407,2457170.3115583,0.016238561575095
23219200,0.99004937931437,0.016563722222811,0.0055212407409378,0.0055212407408994,0.0055212407409738,-0.0012924108785019,0.0012924128889673,-1.1138673057184e-08,1.3147023425753e-08,-3.4563383494124e-09,5.7200392187871e-09,-0.0014513127763101,0.0014513036490521,-0.0014513046916252,0.0014513117398745,-0.0014513098733866,0.0014513066681813,-0.0014513017857169,0.0014513147585831,-0.0012843367934004,0.0012843180784651,-0.0012843130210127,0.0012843418601816,3.6018687974748e-09,-6.0457771678303e-09,-4.1523180527461e-10,-1.7591383374978e-09,-0.0012924129702707,0.0012924107971731,-0.0014513075179005,0.0014513090350163,-0.0014513079569876,0.001451308583949,-0.0014513106029802,0.0014513058263351,-0.0014513110417754,0.0014513053776989,-0.0012843294497101,0.0012843253965144,-0.0012843307349606,0.0012843240595955,-0.0012843241882045,0.0012843308831152,-0.0012843335114516,0.0012843211052141,1.2228808211068e-08,-1.2350153803926e-08,-0.0012924119401374,0.0012924118273731,-6.9513229795016e-10,5.9769199609626e-10,-0.0014513044154552,0.0014513120746673,-0.0014513039514162,0.00145131247117,-0.001451312647628,0.0014513039006714,-0.0014513121829001,0.0014513042989649,-0.0012843393086042,0.0012843155554289,-0.0012843152016341,0.0012843395854636,0.65900010576383,131329,3014,0.0053707829817591,0.005370782981705,0.0053707829818448,15.525735372487,-0.0001157941170201,-0.0001157941170201,-0.0001157941170201,2461129.142882,0.016243973467036
23419200,0.99024790463362,0.016566751866133,0.0055222506220452,0.0055222506220068,0.0055222506220812,-0.0012929689000968,0.0012929709168708,-1.1238358249458e-08,1.3252858280394e-08,-3.559689451166e-09,5.8305199727935e-09,-0.0014519248425598,0.0014519155814192,-0.001451916688736,0.0014519237418074,-0.0014519218687382,0.001451918672348,-0.0014519137127108,0.00145192683118,-0.001284906455335,0.0012848876187338,-0.0012848824834202,0.001284911600457,3.6652179049941e-09,-6.1130768750506e-09,-3.9705874547622e-10,-1.7806725491446e-09,-0.001292970996758,0.0012929688201775,-0.0014519194911549,0.0014519210613133,-0.0014519199428361,0.0014519205972951,-0.0014519226191374,0.0014519178088433,-0.00145192307201,0.0014519173468345,-0.0012848990552252,0.0012848949947474,-0.0012849003803504,0.0012848936175849,-0.0012848937341955,0.0012849005414851,-0.0012849031867641,0.0012848906338484,1.2362980324496e-08,-1.2483083790947e-08,-0.0012929699642838,0.0012929698527322,-7.1382591275541e-10,6.1784518610661e-10,-0.0014519163766834,0.0014519241123577,-0.0014519158995015,0.0014519245225439,-0.001451924697239,0.0014519158503439,-0.0014519242200124,0.0014519162610253,-0.0012849090344224,0.0012848850325285,-0.001284884663845,0.0012849093250154,0.65256369001504,131329,3014,0.0053730958096973,0.0053730958096294,0.0053730958097979,15.70438373313,-0.00011436493013496,-0.00011436493013496,-0.00011436493013496,2462653.6948298,0.016251025432096
23619200,0.99044895058281,0.016569889251596,0.0055232964171994,0.005523296417161,0.0055232964172354,-0.0012941596211279,0.0012941616443268,-1.1320057195317e-08,1.3340591901839e-08,-3.6600644194855e-09,5.9378614689963e-09,-0.001453174784474,0.0014531654054601,-0.0014531665749057,0.0014531736214091,-0.0014531717430364,0.0014531685641586,-0.0014531635292785,0.0014531767807681,-0.0012861170592074,0.0012860981293216,-0.0012860929183727,0.0012861222801628,3.6604551830637e-09,-6.1084091163092e-09,-3.6798493612024e-10,-1.8097744927435e-09,-0.0012941617210288,0.001294159544405,-0.0014531693650763,0.0014531709529524,-0.0014531698372155,0.0014531704687993,-0.0014531724919724,0.0014531677026928,-0.0014531729626204,0.0014531672220512,-0.0012861095833078,0.0012861055802002,-0.0012861109625532,0.0012861041485423,-0.0012861043060153,0.0012861110823322,-0.0012861137476011,0.0012861011866433,1.2515304423276e-08,-1.2634165234748e-08,-0.0012941606877713,0.0012941605777296,-7.4206291525202e-10,6.4757968562042e-10,-0.0014531662176102,0.0014531740374301,-0.0014531657217138,0.0014531744656531,-0.0014531746401671,0.0014531656734092,-0.0014531741427374,0.0014531661048677,-0.0012861197290524,0.0012860954543737,-0.0012860950625973,0.001286120038848,0.66669034630169,131329,3014,0.0053780307777614,0.0053780307777168,0.0053780307778572,16.218878363962,-0.0001102489730883,-0.0001102489730883,-0.0001102489730883,2467010.2723142,0.016266071779089
23819200,0.99065248696024,0.016573234465974,0.0055244114886588,0.0055244114886205,0.0055244114886949,-0.0012953783246864,0.0012953803537898,-1.1411861546934e-08,1.3438613762927e-08,-3.7576352098825e-09,6.042596561117e-09,-0.0014544648114948,0.0014544553082552,-0.0014544565394843,0.0014544635865732,-0.0014544617038747,0.0014544585336174,-0.0014544534257997,0.001454466814462,-0.0012873663505961,0.001287347304801,-0.0012873420206335,0.0012873716440077,3.7052971304058e-09,-6.1564117548358e-09,-3.4981609907383e-10,-1.8306497458812e-09,-0.001295380428887,0.0012953782495666,-0.0014544593091366,0.0014544609392398,-0.001454459795121,0.0014544604410261,-0.0014544624676338,0.0014544576568942,-0.0014544629503094,0.0014544571641131,-0.0012873588156168,0.0012873548150763,-0.0012873602296588,0.0012873533467133,-0.0012873535031787,0.0012873603528568,-0.0012873630323805,0.0012873503666958,1.2657372465901e-08,-1.2775107047602e-08,-0.0012953793937944,0.0012953792847248,-7.6121726880555e-10,6.6805276194669e-10,-0.0014544561411752,0.0014544640438914,-0.001454455633087,0.001454464484435,-0.0014544646589392,0.0014544555846164,-0.0014544641473575,0.0014544560301762,-0.0012873690925532,0.0012873445573924,-0.0012873441517224,0.0012873694159539,0.70079155104889,131329,3014,0.00538308180586,0.0053830818058118,0.0053830818059494,16.741477845132,-0.00010606817723894,-0.00010606817723894,-0.00010606817723894,2470022.9750124,0.016281472751135
24019200,0.99085837292717,0.01657665722106,0.0055255524070209,0.0055255524069824,0.0055255524070569,-0.0012966037475552,0.0012966057791565,-1.1549606464745e-08,1.3578851441939e-08,-3.8005687542334e-09,6.0885222139433e-09,-0.001455785252969,0.0014557756284615,-0.0014557768873853,0.001455784000368,-0.0014557821141242,0.0014557788852305,-0.0014557737448991,0.0014557872572198,-0.0012886408460243,0.001288621563204,-0.0012886162469362,0.0012886461714605,3.8215370836285e-09,-6.280988691651e-09,-3.3957943237647e-10,-1.8480833987755e-09,-0.0012966058566206,0.0012966036700689,-0.0014557796499622,0.0014557813605679,-0.0014557801438523,0.0014557808542927,-0.0014557828865478,0.001455777999442,-0.0014557833796568,0.0014557774962593,-0.0012886332207803,0.0012886291636493,-0.0012886346655654,0.0012886276643985,-0.0012886277680917,0.0012886348421461,-0.0012886375379118,0.00128862461417,1.2755049244883e-08,-1.2872274991953e-08,-0.0012966048176577,0.001296604709098,-7.7459378060347e-10,6.8206283759556e-10,-0.001455776494363,0.0014557844524886,-0.001455775975943,0.0014557849034217,-0.0014557850762488,0.0014557759292181,-0.0014557845565583,0.0014557763825235,-0.0012886435613767,0.0012886188419484,-0.0012886184270265,0.0012886438947694,0.70866200821036,131329,3014,0.0053881608976484,0.0053881608976011,0.00538816089774,17.264382672936,-0.00010188493861651,-0.00010188493861651,-0.00010188493861651,2470099.5598807,0.016296960660698
24219200,0.99106522215518,0.016579951446879,0.0055266504822937,0.0055266504822552,0.0055266504823298,-0.0012976415073944,0.0012976435428186,-1.1718335885353e-08,1.3751285879244e-08,-3.8665498708497e-09,6.1588866160062e-09,-0.0014569238771505,0.0014569140991405,-0.0014569153999234,0.0014569225827446,-0.0014569206947004,0.0014569173997637,-0.0014569122099707,0.0014569258873043,-0.0012897241956581,0.0012897046229579,-0.0012896992574687,0.0012897295704342,3.9613052057534e-09,-6.4305148507773e-09,-3.4535282097492e-10,-1.8507368463984e-09,-0.0012976436226281,0.0012976414275595,-0.0014569181533173,0.0014569199524489,-0.001456918648131,0.0014569194453381,-0.0014569214876,0.0014569164931048,-0.0014569219777699,0.0014569159929352,-0.0012897164818968,0.0012897123112612,-0.0012897179185214,0.001289710820879,-0.0012897108375615,0.0012897181820884,-0.0012897208856526,0.0012897076755012,1.2820643636843e-08,-1.2938280645819e-08,-0.0012976425795847,0.001297642470667,-7.7154471366214e-10,6.7856798600793e-10,-0.0014569150179956,0.0014569230239286,-0.0014569145035692,0.0014569234706585,-0.0014569236458692,0.0014569144547619,-0.0014569231263232,0.0014569149077313,-0.0012897268290622,0.0012897019833368,-0.0012897015712251,0.0012897271601794,0.68010063564412,131329,3014,0.0053924622583332,0.0053924622582791,0.0053924622584136,17.692262635787,-9.8461898913705e-05,-9.8461898913705e-05,-9.8461898913705e-05,2469787.2826605,0.016310077718025
24419200,0.99126986716226,0.016583206810069,0.0055277356033571,0.0055277356033187,0.0055277356033933,-0.0012982280190196,0.0012982300657695,-1.1726054870838e-08,1.3770205298092e-08,-4.060207975904e-09,6.3656258395002e-09,-0.0014575849882661,0.0014575750737786,-0.0014575764968579,0.0014575835715161,-0.0014575816676687,0.0014575785133928,-0.0014575731793093,0.0014575870045623,-0.0012903344204152,0.0012903149828017,-0.0012903094725283,0.0012903399400026,4.043811126957e-09,-6.5180976242021e-09,-3.7544590891875e-10,-1.8248171340994e-09,-0.0012982301420794,0.0012982279426835,-0.0014575791820762,0.0014575810098182,-0.0014575796532258,0.0014575805268131,-0.0014575825677328,0.0014575774990788,-0.0014575830444217,0.0014575770121405,-0.0012903268241589,0.0012903225533561,-0.0012903282214973,0.0012903211026388,-0.0012903210320414,0.00129032857247,-0.0012903312617506,0.0012903178837979,1.3042929928208e-08,-1.3162010584847e-08,-0.0012982290975995,0.0012982289872263,-7.4938059311375e-10,6.5472961710668e-10,-0.001457575982417,0.0014575841457158,-0.0014575754779576,0.0014575845822001,-0.0014575847536594,0.001457575433065,-0.0014575842549142,0.0014575758655678,-0.0012903373564335,0.0012903120408349,-0.0012903116450521,0.0012903376703185,0.67934589859465,131329,3014,0.0053948932620519,0.0053948932619963,0.0053948932621282,17.884777068922,-9.692178344862e-05,-9.692178344862e-05,-9.692178344862e-05,2470737.6975428,0.01631749100918
24619200,0.99147219759095,0.016586573827497,0.0055288579424997,0.0055288579424613,0.0055288579425359,-0.0012988063091187,0.001298808360935,-1.1846064620916e-08,1.3895274815069e-08,-4.1553654982011e-09,6.466807135481e-09,-0.0014582309668751,0.001458220908734,-0.0014582223921146,0.0014582294897676,-0.0014582275799257,0.0014582244150747,-0.0014582190108229,0.0014582329869756,-0.0012909397207929,0.0012909201155267,-0.0012909145350998,0.0012909453103553,4.1726498374416e-09,-6.6556638126678e-09,-4.0970037413011e-10,-1.7980115601025e-09,-0.0012988084384715,0.0012988062315562,-0.0014582250591913,0.0014582269467959,-0.0014582255086955,0.0014582264853234,-0.0014582285319524,0.0014582233481191,-0.0014582289898127,0.0014582228803548,-0.0012909321171276,0.0012909276941261,-0.0012909334577139,0.0012909262982108,-0.0012909261097996,0.0012909339293472,-0.0012909366045217,0.0012909229721323,1.3155824908991e-08,-1.3276685070855e-08,-0.0012988073911458,0.0012988072789446,-7.1988100348243e-10,6.2315463764181e-10,-0.0014582218428415,0.0014582300989834,-0.0014582213575241,0.0014582305164015,-0.0014582306884452,0.0014582213121879,-0.001458230211218,0.0014582217228277,-0.0012909426967378,0.0012909171337637,-0.0012909167599612,0.0012909429880135,0.70944458516534,131329,3014,0.005397290160252,0.0053972901601971,0.0053972901603285,18.071595955076,-9.5427232359392e-05,-9.5427232359392e-05,-9.5427232359392e-05,2471225.8347469,0.01632480011283
24819200,0.99167217713958,0.016589665453367,0.0055298884844566,0.0055298884844181,0.0055298884844928,-0.0012993739798005,0.0012993760340645,-1.2021781031842e-08,1.407338921462e-08,-4.2088832860929e-09,6.5232801492104e-09,-0.0014588880499849,0.0014588778418337,-0.0014588793597105,0.001458886538332,-0.0014588846283334,0.0014588813830354,-0.0014588759395223,0.0014588900746334,-0.00129154143874,0.001291521519823,-0.001291515900313,0.0012915470673229,4.2977545348355e-09,-6.7889084242173e-09,-4.4423095445415e-10,-1.770431383077e-09,-0.0012993761138813,0.0012993738999563,-0.0014588820372991,0.0014588839852189,-0.0014588824682786,0.0014588835423311,-0.0014588855975899,0.001458880298371,-0.001458886032782,0.0014588798534716,-0.0012915337579873,0.001291529174923,-0.0012915350319455,0.001291527846408,-0.0012915275405852,0.0012915356209288,-0.0012915382825541,0.0012915244158765,1.3214258402241e-08,-1.3337061414752e-08,-0.001299375064032,0.0012993749498677,-6.8773766417468e-10,5.8874643011246e-10,-0.0014588788198212,0.0014588871383324,-0.0014588783587811,0.0014588875313997,-0.0014588877075384,0.0014588783094815,-0.0014588872502794,0.0014588786998873,-0.0012915443246988,0.0012915186274535,-0.0012915182783158,0.0012915445922859,0.66112227584219,131329,3014,0.0053996432300252,0.0053996432299669,0.0053996432300972,18.258200136157,-9.3934398910744e-05,-9.3934398910744e-05,-9.3934398910744e-05,2469787.8984029,0.016331976727621
25019200,0.99187205251009,0.016592719149923,0.0055309063833083,0.0055309063832699,0.0055309063833445,-0.0013002779895961,0.0013002800438024,-1.2172670917142e-08,1.4224066259893e-08,-4.2117394760736e-09,6.5259669840118e-09,-0.0014598549598819,0.0014598446516595,-0.0014598461714746,0.0014598534463075,-0.0014598515383436,0.001459848192736,-0.001459842747259,0.0014598569866408,-0.0012924595986277,0.0012924393811827,-0.0012924337597028,0.0012924652293743,4.3090140033333e-09,-6.800674656006e-09,-4.6608510962847e-10,-1.7489543245551e-09,-0.0013002801238428,0.0013002779095331,-0.0014598488996721,0.0014598508424435,-0.0014598493183943,0.0014598504120038,-0.0014598524696576,0.0014598471460366,-0.0014598528883663,0.0014598467176573,-0.0012924517966816,0.0012924471568163,-0.0012924530228058,0.0012924458777795,-0.001292445535887,0.0012924536461411,-0.0012924562948201,0.0012924424259869,1.3299091365652e-08,-1.3423204993243e-08,-0.0013002790744335,0.0013002789590044,-6.657582260726e-10,5.6524146558475e-10,-0.0014598456430025,0.0014598540348645,-0.0014598451991583,0.0014598544106471,-0.0014598545901401,0.0014598451466257,-0.0014598541459988,0.0014598455239685,-0.001292462424549,0.001292436548981,-0.001292436216081,0.0012924626759166,0.65362537488244,131329,3014,0.005403389839293,0.0054033898392449,0.005403389839375,18.629650060436,-9.0962799516512e-05,-9.0962799516512e-05,-9.0962799516512e-05,2474157.5045095,0.016343400720589
25219200,0.99207504364604,0.016595923836091,0.0055319746120311,0.0055319746119927,0.0055319746120674,-0.0013016989670349,0.0013017010205743,-1.2294841371389e-08,1.4345507538357e-08,-4.1684149323734e-09,6.4814521696147e-09,-0.0014613402678751,0.0014613299088433,-0.001461331399764,0.0014613387831969,-0.0014613368771619,0.001461333418904,-0.0014613280034663,0.0014613422954218,-0.001293900660265,0.00129388017046,-0.001293874578869,0.0012939062614538,4.211714470276e-09,-6.6982859856375e-09,-4.7255460517687e-10,-1.7383274763621e-09,-0.0013017010988521,0.0013016988887359,-0.001461334215261,0.001461336091634,-0.0014613346298078,0.0014613356654808,-0.0014613377207235,0.0014613324603076,-0.0014613381322844,0.0014613320390551,-0.0012938926973802,0.0012938881069015,-0.0012938939028809,0.0012938868496112,-0.0012938865562697,0.001293894475925,-0.0012938971155454,0.0012938834576365,1.3415329538244e-08,-1.3536330054938e-08,-0.001301700049954,0.0013016999376955,-6.5579332649344e-10,5.5829238543321e-10,-0.0014613308821172,0.0014613393608096,-0.0014613304453702,0.0014613397294897,-0.0014613399071934,0.0014613303945495,-0.0014613394673697,0.0014613307678255,-0.0012939034617565,0.001293877363421,-0.0012938770323135,0.0012939037103379,0.67454673586642,131329,3014,0.0054092788614089,0.0054092788613634,0.0054092788614927,19.270471005594,-8.583623195525e-05,-8.583623195525e-05,-8.583623195525e-05,2480433.1972145,0.016361357169478
25419200,0.99228103215452,0.016599443370318,0.0055331477901067,0.0055331477900682,0.005533147790143,-0.0013031560589011,0.0013031581053702,-1.2412848164186e-08,1.4456776140354e-08,-4.0939957248291e-09,6.3995466497721e-09,-0.0014628751064873,0.0014628647160008,-0.0014628661620514,0.0014628736665829,-0.0014628717678346,0.0014628681736066,-0.0014628628172882,0.0014628771269417,-0.0012953956656054,0.0012953748914251,-0.001295369359072,0.0012954012070296,4.1338368186394e-09,-6.6123552344064e-09,-4.7749897780523e-10,-1.7261044521525e-09,-0.0013031581835059,0.0013031559807294,-0.001462869064362,0.0014628708879506,-0.0014628694734892,0.001462870467238,-0.0014628725156679,0.0014628673111054,-0.0014628729211967,0.0014628668957874,-0.0012953875378346,0.0012953829922528,-0.0012953887258371,0.0012953817520848,-0.0012953814930818,0.0012953892648339,-0.0012953918907823,0.0012953784077219,1.353700859415e-08,-1.3658357016275e-08,-0.0013031571384908,0.0013031570258034,-6.4777474686731e-10,5.4983900788397e-10,-0.0014628656616533,0.0014628742268374,-0.0014628652307593,0.0014628745898077,-0.001462874768112,0.0014628651791206,-0.0014628743334894,0.0014628655471596,-0.0012953984469511,0.0012953721039493,-0.0012953717795563,0.0012953986893894,0.72789189930952,131329,3014,0.0054153176816673,0.0054153176815913,0.005415317681715,19.917835287439,-8.065731770049e-05,-8.065731770049e-05,-8.065731770049e-05,2483868.52645,0.016379771452354
25619200,0.99248980143975,0.016603032668241,0.0055343442227476,0.0055343442227092,0.0055343442227839,-0.0013046228953803,0.0013046249326636,-1.2526715375738e-08,1.4561475536447e-08,-3.9796873079316e-09,6.274963836868e-09,-0.0014644563559873,0.0014644459601493,-0.0014644473357632,0.0014644549865562,-0.0014644530936839,0.0014644493408689,-0.0014644440730119,0.0014644583643334,-0.0012969284801371,0.0012969074114233,-0.0012969019677723,0.0012969339325712,4.0983118372818e-09,-6.5715133522522e-09,-4.8347805455341e-10,-1.7152129316264e-09,-0.0013046250129002,0.0013046228151297,-0.0014644503254897,0.0014644521201136,-0.0014644507261712,0.0014644517078414,-0.0014644537484922,0.0014644485716591,-0.0014644541513234,0.0014644481591764,-0.0012969201943758,0.0012969156706932,-0.0012969213739671,0.0012969144385778,-0.0012969141884758,0.0012969219041355,-0.0012969245195955,0.001296911113837,1.3664080875767e-08,-1.3785690016221e-08,-0.0013046239705458,0.0013046238575441,-6.3949483357768e-10,5.4121847567649e-10,-0.0014644468647594,0.0014644555171106,-0.0014644464367264,0.0014644558773293,-0.0014644560531135,0.0014644463875485,-0.001464455626856,0.0014644467469756,-0.0012969312456633,0.0012969046394248,-0.0012969043212932,0.0012969314827915,0.73243473747738,131329,3014,0.0054213972347793,0.005421397234749,0.0054213972348752,20.565437324186,-7.5476501406511e-05,-7.5476501406511e-05,-7.5476501406511e-05,2482869.0989759,0.016398312114681
25819200,0.99269593887315,0.016606482935999,0.0055354943120003,0.0055354943119618,0.0055354943120366,-0.0013053073137166,0.001305309353754,-1.2656112627506e-08,1.4693613340552e-08,-4.033710665261e-09,6.3322109228323e-09,-0.0014652504639465,0.00146523995652,-0.0014652413667857,0.0014652490598543,-0.0014652471747719,0.0014652433643873,-0.0014652380564297,0.0014652524855408,-0.0012976650915593,0.0012976437770359,-0.0012976382931884,0.0012976705843897,4.0530476060194e-09,-6.5230855031273e-09,-5.1076957307269e-10,-1.6851904380717e-09,-0.0013053094312538,0.0013053072361916,-0.0014652443964237,0.0014652461534541,-0.0014652447884756,0.0014652457499239,-0.0014652477983953,0.0014652426262999,-0.0014652481718876,0.0014652422433442,-0.0012976567086747,0.0012976521332374,-0.0012976578023346,0.0012976509874061,-0.001297650727064,0.0012976583424176,-0.0012976609361846,0.0012976476746262,1.3768535269993e-08,-1.3892434488663e-08,-0.0013053083913829,0.0013053082761216,-6.0975597105011e-10,5.0890113259619e-10,-0.0014652408673698,0.0014652496189303,-0.0014652404703804,0.0014652499480167,-0.0014652501363816,0.0014652404086802,-0.0014652497206523,0.0014652407579538,-0.0012976678340829,0.0012976410280427,-0.0012976407328994,0.0012976680481607,0.71386318017069,131329,3014,0.0054242342536269,0.005424234253573,0.0054242342536972,20.804848501243,-7.3561211990057e-05,-7.3561211990057e-05,-7.3561211990057e-05,2480232.089071,0.016406965628575
26019200,0.99289487862681,0.016609681832642,0.0055365606108813,0.0055365606108428,0.0055365606109177,-0.0013052767652994,0.0013052788056484,-1.2755677530925e-08,1.4793464386759e-08,-4.0361274383714e-09,6.3349652834532e-09,-0.001465303501417,0.0014652929123903,-0.0014652943235954,0.001465302096311,-0.0014653001966894,0.0014652963356992,-0.0014652910261998,0.0014653055090062,-0.0012976622041001,0.0012976407370075,-0.0012976352516388,0.0012976676984137,4.187872251077e-09,-6.6663264879562e-09,-5.6323841089618e-10,-1.6398669477981e-09,-0.0013052788865877,0.0013052766843354,-0.0014652973735546,0.0014652991698077,-0.0014652977189709,0.0014652988131648,-0.0014653008540109,0.0014652955635293,-0.0014653012092935,0.0014652951989397,-0.0012976538222276,0.0012976490917262,-0.0012976548615149,0.0012976480009665,-0.0012976475935978,0.0012976555487349,-0.0012976581170772,0.0012976445656003,1.3903783692423e-08,-1.4030021212012e-08,-0.0013052778443067,0.0013052777266756,-5.662562076439e-10,4.6262602282786e-10,-0.0014652938117917,0.0014653026678188,-0.0014652934305728,0.0014653029812271,-0.0014653031577128,0.0014652933808297,-0.0014653027858794,0.0014652936856017,-0.0012976650406265,0.0012976378939437,-0.0012976376311398,0.0012976652224398,0.68688290592861,131329,3014,0.0054241080993842,0.0054241080993314,0.0054241080994559,20.675819855467,-7.4593441156266e-05,-7.4593441156266e-05,-7.4593441156266e-05,2477386.6909486,0.016406582665606
26219200,0.99308680533369,0.016612947855528,0.0055376492851766,0.0055376492851381,0.005537649285213,-0.0013052252912317,0.0013052273330594,-1.2866217883464e-08,1.4905495467227e-08,-4.0659447763545e-09,6.3666075225104e-09,-0.0014653069341298,0.0014652962445857,-0.0014652976752018,0.0014653055095367,-0.0014653036018611,0.0014652996955035,-0.0014652943637649,0.0014653089363925,-0.001297628636691,0.0012976069936899,-0.0012976014863178,0.0012976341529177,4.2703878245102e-09,-6.7540660544109e-09,-6.0708354394184e-10,-1.6004552267316e-09,-0.0013052274154959,0.0013052252087708,-0.0014653007473344,0.0014653025611115,-0.0014653010584078,0.0014653022389331,-0.0014653042771179,0.0014652989050139,-0.0014653046115697,0.001465298561452,-0.0012976202279713,0.0012976153751667,-0.0012976212059562,0.0012976143456239,-0.0012976138337057,0.0012976219984215,-0.0012976245431507,0.0012976108280198,1.4027590796024e-08,-1.4155900127203e-08,-0.0013052263720367,0.0013052262522882,-5.2748438368475e-10,4.2138903261901e-10,-0.0014652971438015,0.0014653061008487,-0.0014652967824954,0.0014653063941957,-0.0014653065660358,0.00146529673742,-0.0014653062276146,0.0014652970086848,-0.0012976315314567,0.0012976040913774,-0.0012976038583524,0.0012976316853469,0.72524660079958,131329,3014,0.0054238950213596,0.0054238950213075,0.0054238950214299,20.537783483433,-7.5697732132539e-05,-7.5697732132539e-05,-7.5697732132539e-05,2476116.4057508,0.016405933329715
26419200,0.99327200241444,0.016616188373682,0.0055387294578947,0.0055387294578562,0.0055387294579311,-0.0013051748192814,0.001305176865147,-1.2993979643253e-08,1.5037255742806e-08,-4.1371029044637e-09,6.4424288821611e-09,-0.0014653312149391,0.0014653204011513,-0.0014653218766006,0.0014653297454692,-0.0014653278411233,0.0014653238939408,-0.0014653185093876,0.0014653332284657,-0.0012976143602356,0.0012975924951356,-0.0012975869347401,0.0012976199294567,4.2848699525984e-09,-6.7688505611293e-09,-6.4136687391663e-10,-1.5663136751772e-09,-0.0013051769456439,0.0013051747387602,-0.0014653249690248,0.0014653267768913,-0.0014653252645211,0.0014653264703975,-0.0014653285157606,0.0014653231038111,-0.0014653288204186,0.0014653227902141,-0.0012976058892349,0.0012976009386685,-0.0012976067794765,0.00129759999713,-0.0012975994312148,0.0012976076259184,-0.0012976101481325,0.0012975964480576,1.413308882272e-08,-1.4263131279012e-08,-0.0013051759029816,0.0013051757814804,-4.9261577051459e-10,3.8444578665099e-10,-0.0014653213123881,0.0014653303697491,-0.0014653209821436,0.0014653306319702,-0.0014653308126822,0.0014653209282688,-0.0014653304912029,0.0014653211827863,-0.001297617250493,0.0012975895974052,-0.0012975893899356,0.0012976173785305,0.74502754455386,131329,3014,0.0054236863480607,0.0054236863480086,0.0054236863481305,20.399406729891,-7.6804746160872e-05,-7.6804746160872e-05,-7.6804746160872e-05,2471640.0952588,0.016405298608627
26619200,0.99345481174282,0.016619358006248,0.0055397860020832,0.0055397860020448,0.0055397860021197,-0.0013058105874413,0.0013058126333134,-1.312964372275e-08,1.5172923889531e-08,-4.1089716473837e-09,6.4139917206027e-09,-0.0014660634069619,0.0014660525321934,-0.0014660539887033,0.0014660619564477,-0.0014660600625527,0.0014660559954821,-0.0014660506297048,0.0014660654311389,-0.0012983040320129,0.0012982818520311,-0.0012982763102572,0.0012983095825475,4.2072745587715e-09,-6.6887265472711e-09,-6.4486154699592e-10,-1.5610410986144e-09,-0.0013058127128953,0.0013058105078382,-0.0014660571519426,0.0014660589167536,-0.0014660574551382,0.0014660586026055,-0.0014660606570152,0.0014660552857881,-0.0014660609481658,0.0014660549857166,-0.0012982953960223,0.0012982904604989,-0.0012982962469034,0.0012982895584476,-0.0012982890354793,0.0012982970498779,-0.0012982995676634,0.0012982860577746,1.4232271734103e-08,-1.4365299664191e-08,-0.0013058116726443,0.0013058115481471,-4.8653480651916e-10,3.7531852436495e-10,-0.0014660534339713,0.0014660625710693,-0.001466053119467,0.0014660628176855,-0.001466063011981,0.0014660530519828,-0.001466062685038,0.0014660533120798,-0.0012983068523546,0.0012982790246177,-0.0012982788248143,0.0012983069719877,0.73848439013468,131329,3014,0.0054263217196506,0.0054263217196051,0.0054263217197269,20.629731591988,-7.4962147264095e-05,-7.4962147264095e-05,-7.4962147264095e-05,2468761.6532065,0.01641333681884
26819200,0.99363743993543,0.016622447515315,0.005540815838439,0.0055408158384005,0.0055408158384755,-0.0013068262395048,0.0013068282746008,-1.3208827029989e-08,1.524146225132e-08,-3.9713368018573e-09,6.2643740737309e-09,-0.0014671805841481,0.0014671697206281,-0.0014671710917782,0.0014671792189732,-0.0014671773102495,0.0014671731127075,-0.0014671678536462,0.0014671825721139,-0.0012993710350456,0.0012993486759308,-0.0012993432409664,0.0012993764785111,4.1709643968434e-09,-6.6468653654176e-09,-6.3459465483085e-10,-1.5661685834585e-09,-0.0013068283569636,0.001306826157124,-0.0014671743548386,0.0014671760791128,-0.0014671746379355,0.0014671757850335,-0.0014671778091488,0.0014671724989914,-0.001467178130504,0.0014671721685948,-0.0012993622502221,0.0012993574331683,-0.0012993631888092,0.0012993564436424,-0.0012993559508839,0.0012993639610578,-0.0012993664787805,0.0012993529736314,1.4395459872053e-08,-1.4527030494661e-08,-0.0013068273186068,0.0013068271955388,-5.0201064241947e-10,3.9240799664624e-10,-0.0014671705796696,0.0014671797907221,-0.0014671702291492,0.001467180073465,-0.001467180241108,0.0014671701881161,-0.0014671799282906,0.0014671704337852,-0.0012993739548319,0.0012993457487411,-0.0012993455370501,0.0012993740870781,0.72121904152425,131329,3014,0.005430531313995,0.0054305313139561,0.0054305313140782,21.064271424791,-7.1485828601673e-05,-7.1485828601673e-05,-7.1485828601673e-05,2468573.624625,0.016426175244751
27019200,0.99381978749331,0.016625447821284,0.0055418159404288,0.0055418159403903,0.0055418159404653,-0.0013078463848885,0.0013078484120648,-1.3309317136203e-08,1.533406870255e-08,-3.8754522512998e-09,6.1596642358975e-09,-0.0014682924272515,0.001468281547538,-0.0014682828599617,0.0014682911208476,-0.0014682892093302,0.0014682848831935,-0.0014682796984569,0.0014682943968703,-0.0013004291181845,0.0013004065256516,-0.0013004011653519,0.0013004344871891,4.1135785633336e-09,-6.5827540035345e-09,-6.1717093945714e-10,-1.577481024727e-09,-0.0013078484953043,0.0013078463016299,-0.0014682862073815,0.0014682878962822,-0.0014682864896711,0.0014682876029124,-0.0014682896107742,0.0014682843673086,-0.0014682899520458,0.0014682840169999,-0.0013004201639827,0.0013004154527906,-0.0013004211614845,0.0013004144037048,-0.0013004139635421,0.0013004218813236,-0.001300424402269,0.0013004109831484,1.453603469353e-08,-1.4666002705861e-08,-0.0013078474592137,0.0013078473377777,-5.1908016972183e-10,4.1124683122101e-10,-0.001468282378454,0.0014682916618027,-0.0014682820056097,0.0014682919668234,-0.0014682921224627,0.0014682819765092,-0.0014682918080339,0.0014682822238233,-0.0013004320662387,0.0013004035698285,-0.0013004033450691,0.0013004322126623,0.70228504755756,131329,3014,0.0054347593696536,0.0054347593696123,0.0054347593697329,21.503849457251,-6.7969204341996e-05,-6.7969204341996e-05,-6.7969204341996e-05,2470198.9145252,0.016439069531707
27219200,0.99400169656764,0.016628350244696,0.0055427834148992,0.0055427834148607,0.0055427834149357,-0.0013088617296966,0.0013088637518121,-1.3452202803674e-08,1.5471941713801e-08,-3.831973963767e-09,6.1107055949033e-09,-0.0014693863981712,0.0014693754616823,-0.0014693767486056,0.001469385117336,-0.0014693832222405,0.001469378755128,-0.0014693736059653,0.0014693883742488,-0.0013014694678746,0.0013014465315072,-0.0013014412068204,0.0013014748012275,4.0243065896877e-09,-6.4851521706043e-09,-5.9376269310528e-10,-1.5934410586158e-09,-0.0013088638338364,0.0013088616476599,-0.0014693801649658,0.0014693818234979,-0.0014693804718674,0.0014693815054085,-0.0014693835176893,0.0014693783456113,-0.0014693838605143,0.0014693779937498,-0.0013014603043022,0.0013014556684904,-0.0013014613069534,0.0013014546135608,-0.0013014542524203,0.001301461947877,-0.0013014644744202,0.0013014512668953,1.4632712742611e-08,-1.4761213747994e-08,-0.0013088628007466,0.0013088626808054,-5.3381036957728e-10,4.2759526884629e-10,-0.0014693762877277,0.0014693856374741,-0.0014693759160986,0.001469385941309,-0.0014693861070016,0.0014693758769019,-0.0014693857707325,0.0014693761462023,-0.001301472315345,0.0013014436762164,-0.001301443439724,0.0013014724737867,0.68191771565185,131329,3014,0.0054389673699987,0.0054389673699711,0.0054389673700885,21.943618261094,-6.4451053911247e-05,-6.4451053911247e-05,-6.4451053911247e-05,2473257.3760187,0.016451902171004
27419200,0.99418157978281,0.016631309000623,0.005543769666875,0.0055437696668365,0.0055437696669116,-0.0013096320284742,0.0013096340504854,-1.3601171411844e-08,1.5620601658518e-08,-3.8513465735353e-09,6.1298974494877e-09,-0.0014702145100899,0.0014702034759351,-0.0014702047755196,0.00147021321661,-0.0014702113357167,0.0014702067679499,-0.0014702016061212,0.0014702165003531,-0.0013022527992859,0.0013022295432202,-0.0013022242056555,0.0013022581463859,3.9700903296992e-09,-6.4264756396651e-09,-5.7778391297215e-10,-1.6054844927117e-09,-0.0013096341306162,0.00130963194832,-0.001470208233069,0.0014702098814673,-0.0014702085634079,0.0014702095399185,-0.0014702115627727,0.0014702064269917,-0.0014702119007135,0.0014702060799259,-0.0013022434624591,0.0013022388535408,-0.0013022444512752,0.0013022378136529,-0.0013022375024537,0.0013022450405621,-0.0013022475734579,0.001302234512657,1.4720639660269e-08,-1.4848264058608e-08,-0.0013096330989458,0.0013096329800464,-5.4309828942594e-10,4.3785165731478e-10,-0.0014702043172525,0.0014702137341149,-0.0014702039532286,0.0014702140303474,-0.0014702142090904,0.0014702039010234,-0.0014702138522417,0.0014702041911113,-0.0013022555484513,0.0013022267874413,-0.0013022265422187,0.0013022557138853,0.70214877376506,131329,3014,0.0054421596935657,0.0054421596935152,0.0054421596936332,22.251967595906,-6.1984259232752e-05,-6.1984259232752e-05,-6.1984259232752e-05,2476137.8925008,0.016461636943703
27619200,0.99435890902348,0.016634270262988,0.0055447567543301,0.0055447567542916,0.0055447567543666,-0.0013103278108872,0.0013103298340594,-1.3736498604691e-08,1.5757327057828e-08,-3.8731759312516e-09,6.1533302556316e-09,-0.0014709762752675,0.0014709651444993,-0.0014709664580716,0.0014709749677668,-0.0014709730939283,0.0014709684435897,-0.001470963265716,0.0014709782745929,-0.0013029719298872,0.0013029484002364,-0.0013029430464007,0.0013029772924323,3.9692153440087e-09,-6.4257355197311e-09,-5.6593913064059e-10,-1.6174579385888e-09,-0.0013103299136471,0.0013103277312769,-0.0014709699422931,0.0014709716060968,-0.0014709702885146,0.0014709712485841,-0.0014709732794948,0.0014709681440727,-0.0014709736173087,0.0014709677970311,-0.0013029624557917,0.0013029578474062,-0.0013029634440745,0.0013029568075211,-0.0013029565126103,0.0013029640177844,-0.0013029665581984,0.0013029535145166,1.482144086445e-08,-1.4948014100077e-08,-0.0013103288814831,0.0013103287634966,-5.5202859622884e-10,4.4792601328541e-10,-0.0014709659993871,0.0014709754857019,-0.0014709656371035,0.0014709757803559,-0.0014709759662179,0.0014709655776954,-0.0014709755949898,0.0014709658820848,-0.0013029746251873,0.0013029456977284,-0.0013029454458152,0.0013029747976591,0.71252806104371,131329,3014,0.0054450433450105,0.0054450433449617,0.0054450433450791,22.518998815792,-5.9848009473663e-05,-5.9848009473663e-05,-5.9848009473663e-05,2476611.4982346,0.016470431200672
27819200,0.99453361473259,0.016637235698098,0.0055457452327,0.0055457452326615,0.0055457452327366,-0.0013110221722798,0.0013110241938508,-1.379288395304e-08,1.5812078067281e-08,-3.8302946898323e-09,6.1084517045817e-09,-0.0014717407743707,0.001471729606349,-0.0014717308921378,0.0014717394946766,-0.0014717375941108,0.0014717329041051,-0.0014717277571391,0.0014717427438913,-0.0013036959590334,0.0013036723715043,-0.0013036670487724,0.0013037012905417,4.0551632161154e-09,-6.5175452872116e-09,-5.6101404049072e-10,-1.6274527108938e-09,-0.0013110242767886,0.001311022089319,-0.0014717344072498,0.0014717361021507,-0.0014717347303193,0.0014717357678644,-0.0014717377754614,0.0014717326087928,-0.0014717381463038,0.0014717322286033,-0.0013036864399164,0.0013036818635002,-0.0013036875249476,0.0013036807272174,-0.0013036803896673,0.0013036881412429,-0.001303690691781,0.0013036773810675,1.5002775189752e-08,-1.5128143513071e-08,-0.0013110232414594,0.0013110231247035,-5.6577909227827e-10,4.6301503594377e-10,-0.0014717304377931,0.0014717400082072,-0.0014717300377303,0.0014717403406354,-0.0014717404971637,0.0014717300077186,-0.0014717401442334,0.0014717302934045,-0.0013036988378125,0.0013036694852797,-0.0013036692227883,0.0013036990214485,0.72383355411787,131329,3014,0.0054479211697425,0.0054479211696931,0.0054479211698097,22.784990388791,-5.7720076889672e-05,-5.7720076889672e-05,-5.7720076889672e-05,2476168.1286544,0.016479208088975
28019200,0.99470564099847,0.016640207062472,0.0055467356874912,0.0055467356874527,0.0055467356875278,-0.0013117162293503,0.0013117182564216,-1.3979081695238e-08,1.6003773184303e-08,-3.9182586978276e-09,6.2027367993544e-09,-0.0014725104495631,0.0014724991303896,-0.0014725004718629,0.0014725091142023,-0.0014725072394119,0.0014725024585224,-0.0014724972450846,0.0014725124556375,-0.0013044260900108,0.0013044021091055,-0.00130439671994,0.0013044314881902,4.0182336837064e-09,-6.4790160087436e-09,-5.4555977785875e-10,-1.6416164683413e-09,-0.0013117183359837,0.001311716149753,-0.0014725039987858,0.0014725057101415,-0.0014725043625212,0.0014725053349105,-0.0014725073724231,0.001472502211372,-0.0014725077222714,0.0014725018523097,-0.0013044163912116,0.0013044117813245,-0.001304417415458,0.0013044107048299,-0.0013044104105246,0.0013044179894369,-0.001304420548067,0.0013044073930653,1.505049156252e-08,-1.5175131581029e-08,-0.0013117173008863,0.0013117171849058,-5.722507376916e-10,4.7028273915572e-10,-0.0014725000083518,0.0014725096371045,-0.0014724996345944,0.0014725099431002,-0.0014725101297614,0.0014724995744831,-0.001472509741567,0.0014724998959002,-0.0013044287707899,0.0013043994206856,-0.0013043991530876,0.0013044289598202,0.73612508706556,131329,3014,0.0054507978130406,0.0054507978129657,0.0054507978130827,23.05094240667,-5.5592460746638e-05,-5.5592460746638e-05,-5.5592460746638e-05,2474924.035117,0.016487981776978
28219200,0.99487427007575,0.01664317453552,0.005547724845174,0.0055477248451356,0.0055477248452107,-0.0013122831122769,0.0013122851405319,-1.4043730837251e-08,1.6069581501316e-08,-3.9146238325761e-09,6.2002638597245e-09,-0.0014731580141825,0.0014731466341856,-0.0014731479719554,0.0014731566825254,-0.0014731547849502,0.0014731499813406,-0.0014731447692488,0.0014731599998423,-0.0013050330093529,0.0013050089620336,-0.0013050035740186,0.0013050384060955,4.1047273362544e-09,-6.5724674008383e-09,-5.4475725263821e-10,-1.6485482069768e-09,-0.001312285222571,0.0013122830302135,-0.0014731515153632,0.0014731532620871,-0.0014731518601465,0.0014731529059628,-0.0014731549276772,0.0014731497243508,-0.0014731553015468,0.0014731493410743,-0.0013050232755596,0.0013050186685275,-0.0013050243696816,0.001305017523221,-0.0013050171812241,0.0013050249905583,-0.0013050275584569,0.0013050141550048,1.5222010119157e-08,-1.5345723543327e-08,-0.0013122841839642,0.0013122840688752,-5.8103134362658e-10,4.8007693139105e-10,-0.001473147498735,0.0014731572151149,-0.0014731470972185,0.0014731575489549,-0.0014731577132243,0.0014731470595326,-0.0014731573401675,0.0014731473653969,-0.0013050358522608,0.0013050061117075,-0.0013050058366601,0.001305036048155,0.74948916181747,131329,3014,0.0054531474899204,0.0054531474898681,0.005453147489984,23.25080518332,-5.3993558533436e-05,-5.3993558533436e-05,-5.3993558533436e-05,2472759.6154356,0.016495148828911
28419200,0.9950394093881,0.016646138985983,0.0055487129953281,0.0055487129952896,0.0055487129953648,-0.0013128292034591,0.0013128312345131,-1.4136978707593e-08,1.6165600339359e-08,-3.9392100860123e-09,6.2278868384497e-09,-0.0014737904950847,0.0014737790300851,-0.0014737803825595,0.0014737891487429,-0.0014737872413161,0.0014737824018838,-0.0014737771695566,0.0014737924764466,-0.0013056254041813,0.0013056012116534,-0.0013055958035345,0.0013056308210728,4.1623006320991e-09,-6.6349330024541e-09,-5.427193566188e-10,-1.6549241104055e-09,-0.0013128313173373,0.0013128291206099,-0.0014737839382771,0.0014737857162384,-0.0014737842786758,0.0014737853643747,-0.0014737873831471,0.0014737821455545,-0.0014737877669915,0.0014737817524008,-0.0013056156053774,0.0013056109833609,-0.0013056167286248,0.0013056098083912,-0.0013056094382952,0.0013056173784055,-0.0013056199531355,0.0013056064041887,1.5363950736204e-08,-1.5487078632908e-08,-0.0013128302762481,0.0013128301617539,-5.871658447512e-10,4.8685642178227e-10,-0.001473779895442,0.0014737896953466,-0.001473779482424,0.0014737900405489,-0.0014737901971309,0.0014737794524868,-0.0014737898268862,0.0014737797555304,-0.00130562832055,0.0013055982875024,-0.0013055980079104,0.0013056285216801,0.76402415732157,131329,3014,0.0054554110720574,0.0054554110720038,0.0054554110721192,23.441432845102,-5.2468537239181e-05,-5.2468537239181e-05,-5.2468537239181e-05,2469856.9609642,0.01650205365877
28619200,0.99520106395611,0.016649060184525,0.0055496867281756,0.0055496867281371,0.0055496867282122,-0.0013133687772386,0.0013133708106183,-1.4224427359096e-08,1.6255352971772e-08,-3.9594567869601e-09,6.2506523465673e-09,-0.0014744241832928,0.0014744126412235,-0.0014744140056649,0.0014744228249894,-0.0014744209091582,0.0014744160334729,-0.0014744107845759,0.0014744261608538,-0.0013062164920254,0.0013061921593834,-0.0013061867347254,0.0013062219254371,4.2150431468451e-09,-6.692123378798e-09,-5.4132033993179e-10,-1.6602631708969e-09,-0.0013133708942616,0.001313368693571,-0.0014744175736349,0.0014744193804304,-0.0014744179101002,0.001474419032444,-0.0014744210488574,0.0014744157790851,-0.0014744214410946,0.0014744153775647,-0.0013062066312277,0.0013062019929447,-0.0013062077789389,0.0013062007936294,-0.0013062003967044,0.0013062084556608,-0.0013062110365954,0.0013061973560536,1.5511899952281e-08,-1.5634486477464e-08,-0.0013133698509203,0.0013133697369667,-5.927827748049e-10,4.930665908894e-10,-0.0014744135006491,0.0014744233895751,-0.0014744130775034,0.0014744237448394,-0.0014744238947664,0.001474413054263,-0.0014744235266723,0.0014744133550776,-0.0013062194890832,0.0013061891544465,-0.0013061888704335,0.0013062196947623,0.76896078607621,131329,3014,0.0054576477077979,0.0054576477077458,0.0054576477078605,23.631815805759,-5.0945473553925e-05,-5.0945473553925e-05,-5.0945473553925e-05,2466435.9385741,0.0165088766752
28819200,0.99535926408601,0.016651844850228,0.0055506149500767,0.0055506149500382,0.0055506149501134,-0.001313901359374,0.0013139033974827,-1.4406976875805e-08,1.6442600867948e-08,-4.0306651325352e-09,6.3272315458901e-09,-0.0014750536114666,0.0014750419201345,-0.0014750433296298,0.0014750522081191,-0.0014750503077009,0.0014750453423863,-0.0014750400390931,0.0014750556137869,-0.0013067984288368,0.0013067737316783,-0.0013067682526567,0.0013068039165471,4.2011194207551e-09,-6.6781931777568e-09,-5.3430218575162e-10,-1.6673833482487e-09,-0.0013139034788163,0.0013139012780178,-0.0014750469198905,0.0014750487414303,-0.0014750472809417,0.0014750483687496,-0.0014750504052532,0.0014750451300013,-0.0014750507823467,0.0014750447436724,-0.0013067884027367,0.0013067837310331,-0.0013067895068463,0.0013067825741061,-0.0013067821959517,0.0013067901659378,-0.0013067927513024,0.0013067791500256,1.5563395599301e-08,-1.5685749984576e-08,-0.001313902435304,0.0013139023215838,-5.9346507975507e-10,4.9398819041164e-10,-0.0014750428277119,0.0014750527696987,-0.0014750424239625,0.0014750531055547,-0.0014750532751881,0.0014750423810774,-0.0014750528868056,0.0014750427024174,-0.0013068012651707,0.0013067708873999,-0.0013067706026364,0.0013068014715698,0.74978434011806,131329,3014,0.0054598553641849,0.0054598553641361,0.0054598553642494,23.824410564994,-4.9404715480048e-05,-4.9404715480048e-05,-4.9404715480048e-05,2463455.6346325,0.016515611375787
29019200,0.99551515058613,0.016654442394758,0.0055514807982533,0.0055514807982149,0.00555148079829,-0.0013146551591884,0.0013146571955911,-1.4477066666021e-08,1.6510997298131e-08,-4.0039391322315e-09,6.298560203074e-09,-0.0014758936335089,0.001475881901916,-0.0014758832942698,0.0014758922473024,-0.0014758903366278,0.0014758853171446,-0.0014758800343559,0.001475895622209,-0.001307589575316,0.0013075647564198,-0.0013075592977303,0.0013075950426274,4.2214619906112e-09,-6.6996105506987e-09,-5.2810837354692e-10,-1.674467550929e-09,-0.0013146572782184,0.0013146550765399,-0.001475886918809,0.0014758887462948,-0.0014758872724112,0.001475888381124,-0.0014758904065718,0.0014758851324364,-0.0014758907998578,0.0014758847297841,-0.0013075794721765,0.0013075748321461,-0.0013075806235991,0.00130757362923,-0.0013075732463495,0.0013075812861395,-0.0013075838774081,0.0013075701956518,1.5730938248576e-08,-1.5852323315698e-08,-0.0013146562337868,0.001314656121026,-6.0406144313167e-10,5.0565666335956e-10,-0.0014758827827767,0.0014758928183974,-0.0014758823597318,0.001475893173614,-0.0014758933304293,0.0014758823296353,-0.0014758929463635,0.001475882646471,-0.0013075925273696,0.0013075617966159,-0.0013075615032571,0.0013075927419798,0.71130252881478,131329,3014,0.0054629795706061,0.0054629795705603,0.0054629795706754,24.140171873624,-4.6878625011006e-05,-4.6878625011006e-05,-4.6878625011006e-05,2462807.607103,0.016525140559895
29219200,0.99566867661285,0.016656940151191,0.0055523133837308,0.0055523133836924,0.0055523133837676,-0.0013154077627447,0.0013154097978268,-1.4569862593405e-08,1.6602444025143e-08,-3.9867668277747e-09,6.2798840311477e-09,-0.0014767073153984,0.0014766955272434,-0.0014766969091499,0.0014767059396454,-0.0014767040250424,0.0014766989358521,-0.0014766936660816,0.0014767092975938,-0.0013083571237728,0.0013083321265873,-0.0013083266810868,0.0013083625779203,4.2216121377062e-09,-6.6991859945215e-09,-5.2126604185533e-10,-1.6807450606722e-09,-0.001315409880837,0.0013154076797152,-0.0014767005726752,0.0014767023996336,-0.0014767009254478,0.0014767020351978,-0.0014767040549575,0.0014766987912108,-0.001476704457801,0.0014766983790217,-0.0013083469170596,0.0013083423063912,-0.0013083480967029,0.001308341074361,-0.0013083407000563,0.0013083487513788,-0.0013083513461448,0.0013083376452432,1.5875519111024e-08,-1.5996108317106e-08,-0.0013154088362867,0.0013154087243202,-6.1211835241039e-10,5.1458697551524e-10,-0.001476696393534,0.0014767065148313,-0.0014766959596481,0.0014767068808331,-0.0014767070317302,0.0014766959355207,-0.0014767066471604,0.0014766962528192,-0.0013083601321902,0.0013083291102532,-0.0013083288106397,0.0013083603534779,0.69516966631124,131329,3014,0.0054660985302607,0.0054660985302187,0.0054660985303342,24.458908836517,-4.4328729307866e-05,-4.4328729307866e-05,-4.4328729307866e-05,2465112.4819433,0.01653465250216
29419200,0.99581977020106,0.016659234828861,0.0055530782762876,0.0055530782762491,0.0055530782763243,-0.001316152839361,0.0013161548757474,-1.4806104342323e-08,1.6839981440362e-08,-4.0239323534523e-09,6.3186694832787e-09,-0.0014775026729181,0.0014774907293845,-0.0014774921354015,0.0014775012731129,-0.0014774993841487,0.0014774941365607,-0.0014774888401895,0.0014775046833439,-0.001309104009736,0.0013090784967523,-0.0013090730244302,0.0013091094905402,4.1639277670599e-09,-6.6375925277736e-09,-5.0799508526245e-10,-1.6906317574414e-09,-0.0013161549564101,0.0013161527586875,-0.0014774958534028,0.0014774976785416,-0.0014774962406874,0.0014774972794895,-0.0014774993229097,0.0014774940831399,-0.0014774997066362,0.0014774936901451,-0.0013090935515781,0.0013090889284356,-0.0013090946750593,0.0013090877516232,-0.0013090874281232,0.0013090952795291,-0.0013090978785198,0.0013090843690942,1.5875154516103e-08,-1.5995307352987e-08,-0.0013161539133354,0.0013161538018131,-6.1344247704753e-10,5.1637707947585e-10,-0.0014774916605432,0.0014775018075028,-0.0014774912524896,0.0014775021476799,-0.0014775023250398,0.0014774912019397,-0.0014775019126667,0.0014774915472385,-0.0013091067197086,0.0013090757790585,-0.001309075477695,0.0013091069422955,0.65089857247998,131329,3014,0.0054691861700221,0.0054691861699976,0.0054691861701054,24.777758329384,-4.1777933364927e-05,-4.1777933364927e-05,-4.1777933364927e-05,2468549.6919502,0.016544068574596
29619200,0.99596828102439,0.016661457699853,0.0055538192332848,0.0055538192332463,0.0055538192333215,-0.001316875906458,0.0013168779415653,-1.4920793094837e-08,1.6953425265495e-08,-4.0110162833235e-09,6.3043803348612e-09,-0.0014782445001216,0.0014782324895888,-0.0014782338875699,0.0014782431083106,-0.0014782412210411,0.0014782358870099,-0.0014782306012175,0.0014782465096328,-0.0013098063199083,0.0013097805719684,-0.0013097751101328,0.0013098117903309,4.1563801896361e-09,-6.6290987648405e-09,-5.0378570384973e-10,-1.6939536186418e-09,-0.0013168780224313,0.0013168758255692,-0.0014782376476921,0.0014782394714788,-0.0014782380380057,0.0014782390696586,-0.0014782411127268,0.0014782358809041,-0.0014782414983306,0.0014782354856696,-0.0013097957380902,0.0013097911263617,-0.0013097968677349,0.0013097899453001,-0.001309789629837,0.0013097974622672,-0.0013098000636091,0.0013097865701725,1.5997634178375e-08,-1.6117326489857e-08,-0.0013168769795497,0.0013168768685041,-6.1731720632427e-10,5.2075437201728e-10,-0.0014782334140541,0.0014782436412946,-0.0014782330037184,0.0014782439839113,-0.001478244161168,0.0014782329532487,-0.001478243745533,0.00147823330167,-0.0013098090300625,0.0013097778543005,-0.0013097775495676,0.0013098092555272,0.64191385941521,131329,3014,0.0054721822696828,0.0054721822696331,0.0054721822697458,25.087384929253,-3.9300920565972e-05,-3.9300920565972e-05,-3.9300920565972e-05,2474818.5360048,0.016553204087531
29819200,0.99611366027277,0.016663762843372,0.005554587614458,0.0055545876144195,0.0055545876144948,-0.0013174973517997,0.0013174993862225,-1.4999425276089e-08,1.7031266713257e-08,-4.0003717578594e-09,6.2928587953658e-09,-0.0014788734135499,0.0014788613451381,-0.0014788627364747,0.0014788720283818,-0.0014788701297638,0.0014788647471908,-0.0014788594693215,0.0014788754104296,-0.0013104061396386,0.0013103802662509,-0.0013103748124223,0.0013104116023578,4.1656222546519e-09,-6.638665416913e-09,-5.067816294292e-10,-1.6911937911938e-09,-0.0013174994675706,0.0013174972704291,-0.0014788665361353,0.001478868351978,-0.0014788669126066,0.0014788679640223,-0.0014788699953984,0.0014788647671568,-0.0014788703910537,0.0014788643618698,-0.0013103954836747,0.001310390895046,-0.0013103966431029,0.0013103896843147,-0.0013103893591451,0.0013103972471731,-0.0013103998470418,0.0013103863010914,1.6155728518819e-08,-1.6275394325405e-08,-0.0013174984244994,0.0013174983135534,-6.1748294993738e-10,5.2094725000734e-10,-0.0014788622520004,0.00147887257231,-0.0014788618295949,0.0014788729269703,-0.0014788730921547,0.0014788617912106,-0.0014788726883479,0.0014788621277619,-0.0013104089595775,0.0013103774390039,-0.0013103771338599,0.0013104091853717,0.67837703409188,131329,3014,0.0054747571947338,0.0054747571946849,0.0054747571947972,25.339664578622,-3.7282683371021e-05,-3.7282683371021e-05,-3.7282683371021e-05,2480607.9619003,0.016561054984459
30019200,0.99625587882345,0.016666053381376,0.0055553511271258,0.0055553511270873,0.0055553511271626,-0.0013181228107162,0.0013181248449313,-1.5131286665461e-08,1.7163000312357e-08,-3.999393656622e-09,6.291745498435e-09,-0.0014795297631443,0.0014795176130137,-0.0014795190039,0.0014795283784198,-0.0014795264856464,0.0014795210087625,-0.0014795157318145,0.001479531765386,-0.0013110324520748,0.0013110063028591,-0.0013110008499064,0.0013110379136442,4.1636856434186e-09,-6.6364894613466e-09,-5.089896331058e-10,-1.6887629484804e-09,-0.0013181249262558,0.0013181227293701,-0.0014795228433886,0.0014795246621999,-0.0014795232238972,0.0014795242701522,-0.0014795263068728,0.0014795210731162,-0.0014795266954035,0.0014795206750175,-0.0013110216678353,0.0013110170598251,-0.0013110228059812,0.0013110158700672,-0.0013110155430729,0.0013110234122201,-0.001311026010072,0.0013110124867111,1.6260187234971e-08,-1.6379967355417e-08,-0.0013181238834041,0.0013181237722747,-6.1423284313768e-10,5.175526000351e-10,-0.0014795185220204,0.0014795289197394,-0.0014795181074476,0.0014795292665803,-0.0014795294375842,0.0014795180632441,-0.0014795290303759,0.0014795184031849,-0.0013110352292146,0.0013110035181475,-0.0013110032156754,0.0013110354526103,0.6887309004012,131329,3014,0.0054773490597237,0.0054773490596766,0.0054773490597886,25.590554356398,-3.5275565148817e-05,-3.5275565148817e-05,-3.5275565148817e-05,2482632.233677,0.016568959163807
30219200,0.99639492273445,0.01666819552897,0.0055560651763239,0.0055560651762854,0.0055560651763607,-0.0013187438428592,0.0013187458767892,-1.5243395794075e-08,1.727483122347e-08,-3.9970651816377e-09,6.2891141881727e-09,-0.0014801894425097,0.001480177216519,-0.0014801786060175,0.0014801880591443,-0.0014801861641085,0.0014801806131692,-0.0014801753381579,0.0014801914418894,-0.0013116581215161,0.0013116317587886,-0.0013116263078354,0.0013116635811602,4.1624882609014e-09,-6.6350544673501e-09,-5.1251751512233e-10,-1.6850063618908e-09,-0.001318745958144,0.0013187437614765,-0.0014801824876283,0.001480184300796,-0.0014801828631738,0.0014801839137523,-0.0014801859477158,0.0014801807151655,-0.0014801863363611,0.0014801803169025,-0.0013116472297196,0.0013116426232777,-0.001311648368372,0.0013116414330851,-0.0013116411018819,0.0013116489787665,-0.001311651573917,0.0013116380481915,1.6384408930025e-08,-1.6504427581243e-08,-0.0013187449155205,0.0013187448041546,-6.1113923317475e-10,5.1418655492429e-10,-0.0014801781223115,0.0014801886023002,-0.0014801777073434,0.0014801889495579,-0.0014801891182134,0.0014801776654779,-0.0014801887157225,0.0014801780006982,-0.0013116609186946,0.0013116289539773,-0.0013116286539831,0.0013116611397156,0.66008312638383,131329,3014,0.0054799226704279,0.0054799226703678,0.0054799226704831,25.841391511307,-3.3268867909541e-05,-3.3268867909541e-05,-3.3268867909541e-05,2483796.9888814,0.016576808270938
30419200,0.99653107440465,0.01667017763577,0.0055567258785907,0.0055567258785522,0.0055567258786275,-0.0013194263433239,0.0013194283764455,-1.5362559765992e-08,1.7393148692305e-08,-3.9906940298602e-09,6.281832138399e-09,-0.0014808916786641,0.0014808793771079,-0.0014808807628441,0.0014808902990829,-0.0014808884046602,0.0014808827692948,-0.0014808774996296,0.0014808936771223,-0.0013123294297164,0.0013123028294688,-0.0013122973838068,0.0013123348840256,4.1523676927404e-09,-6.6239105168306e-09,-5.1449789789275e-10,-1.6820971902105e-09,-0.0013194284577387,0.0013194262620099,-0.0014808846898956,0.0014808864952056,-0.0014808850636853,0.0014808861099087,-0.0014808881428303,0.0014808829167767,-0.0014808885300057,0.0014808825200505,-0.0013123184174323,0.0013123138145451,-0.0013123195516582,0.0013123126287148,-0.0013123123002843,0.0013123201592084,-0.0013123227519466,0.0013123092492478,1.6501916468897e-08,-1.6622079983631e-08,-0.0013194274156542,0.0013194273041471,-6.0858481379875e-10,5.114651123272e-10,-0.0014808802807421,0.0014808908405754,-0.0014808798674074,0.0014808911861911,-0.0014808913548906,0.0014808798255291,-0.0014808909542829,0.0014808801588657,-0.0013123322244016,0.0013123000272821,-0.0013122997290288,0.0013123324435102,0.62526527430004,131329,3014,0.0054827507773338,0.0054827507772885,0.0054827507774001,26.129322370749,-3.0965421034006e-05,-3.0965421034006e-05,-3.0965421034006e-05,2487370.869052,0.016585432679012
30619200,0.99666512221411,0.016672253175795,0.0055574177252654,0.0055574177252269,0.0055574177253022,-0.0013203153538116,0.0013203173845852,-1.5484669392803e-08,1.7512869625384e-08,-3.9690159967563e-09,6.25754264025e-09,-0.0014817738029703,0.0014817614345907,-0.0014817628072852,0.0014817724364329,-0.0014817705449867,0.0014817648106318,-0.0014817595586236,0.0014817757997957,-0.0013131966307185,0.0013131697739074,-0.0013131643458868,0.0013132020674673,4.1253311896976e-09,-6.5940623069229e-09,-5.1100239551021e-10,-1.6830438070599e-09,-0.0013203174657787,0.0013203152725988,-0.001481766787785,0.001481768578964,-0.0014817671637818,0.0014817681914548,-0.0014817702226738,0.00148176501875,-0.0014817706105783,0.00148176462127,-0.0013131854784454,0.001313180899097,-0.0013131866148845,0.0013131797111731,-0.0013131794014192,0.0013131872033825,-0.0013131897952801,0.0013131763517667,1.6617452878751e-08,-1.6737385020259e-08,-0.0013203164248393,0.0013203163135911,-6.1046751484235e-10,5.1360074746736e-10,-0.0014817623332801,0.0014817729697478,-0.0014817619193512,0.0014817733159834,-0.0014817734851482,0.0014817618769879,-0.0014817730824744,0.0014817622124093,-0.0013131994083001,0.0013131669890047,-0.0013131666889803,0.0013131996289828,0.66318230281138,131329,3014,0.0054864343727653,0.005486434372723,0.0054864343728349,26.523503206904,-2.7811974344764e-05,-2.7811974344764e-05,-2.7811974344764e-05,2493188.0339332,0.016596665058877
30819200,0.99679698724669,0.016674388442861,0.0055581294809543,0.0055581294809158,0.005558129480991,-0.0013212209726985,0.0013212230013614,-1.5606010655852e-08,1.7632196181216e-08,-3.9455262322937e-09,6.2318044875329e-09,-0.001482699694708,0.0014826872617426,-0.0014826886202243,0.0014826983423745,-0.0014826964543942,0.0014826906199923,-0.0014826853864206,0.0014827016907524,-0.0013141053496715,0.0013140782345195,-0.0013140728250076,0.0013141107677428,4.110473552333e-09,-6.5774058203002e-09,-5.0895788796024e-10,-1.6834487197404e-09,-0.001321223082772,0.0013212208912682,-0.0014826926505158,0.0014826944350317,-0.0014826930287271,0.0014826940452988,-0.0014826960762961,0.0014826908839905,-0.001482696463603,0.001482690487093,-0.0013140940629301,0.0013140894940916,-0.0013140951975189,0.001314088307854,-0.001314088008228,0.001314095776036,-0.001314098366876,0.0013140849595042,1.6733554612805e-08,-1.6853281091419e-08,-0.0013212220425898,0.0013212219315027,-6.1149263937844e-10,5.1484159688379e-10,-0.0014826881536083,0.0014826988682521,-0.0014826877403409,0.0014826992138525,-0.0014826993842557,0.0014826876967011,-0.0014826989794039,0.0014826880342659,-0.0013141081090742,0.0013140754675279,-0.0013140751668934,0.001314108330772,0.69236328214576,131329,3014,0.0054901871221326,0.0054901871220892,0.0054901871222001,26.920268305633,-2.4637853554933e-05,-2.4637853554933e-05,-2.4637853554933e-05,2494948.3585901,0.016608110155065
31019200,0.99692657356907,0.0166765492279,0.005558849742634,0.0055588497425954,0.0055588497426707,-0.0013221316852873,0.0013221337126078,-1.5725746988871e-08,1.7750594834101e-08,-3.9327584238709e-09,6.217563965924e-09,-0.0014836506567132,0.0014836381519864,-0.0014836395027805,0.0014836493120827,-0.0014836474252975,0.0014836415012622,-0.0014836362780365,0.001483652651326,-0.0013150373190388,0.0013150099606327,-0.0013150045614318,0.0013150427267312,4.0930169922548e-09,-6.558259966726e-09,-5.0758150565667e-10,-1.6833106557991e-09,-0.0013221337939248,0.0013221316039549,-0.0014836435817483,0.0014836453559575,-0.0014836439602986,0.0014836449659028,-0.0014836469953367,0.0014836418172091,-0.0014836473831368,0.0014836414198219,-0.0013150259031278,0.0013150213494091,-0.0013150270391346,0.0013150201617155,-0.0013150198732205,0.0013150276064276,-0.0013150301962435,0.0013150168257659,1.6850864875939e-08,-1.697049471733e-08,-0.0013221327544627,0.0013221326434688,-6.1195477226059e-10,5.1540589040972e-10,-0.0014836390407826,0.001483649833287,-0.001483638627094,0.0014836501793152,-0.0014836503495553,0.0014836385836178,-0.0014836499444405,0.0014836389214457,-0.0013150400715534,0.0013150072005684,-0.0013150068994468,0.0013150402936934,0.71215832155148,131329,3014,0.005493961210033,0.0054939612099989,0.0054939612101085,27.317131425953,-2.1462948592376e-05,-2.1462948592376e-05,-2.1462948592376e-05,2493986.7291949,0.016619621612453
31219200,0.99705490261492,0.016678793221157,0.0055595977403863,0.0055595977403478,0.0055595977404231,-0.0013233360839399,0.0013233381065676,-1.5848081516165e-08,1.7868507102021e-08,-3.8683795837767e-09,6.1481510323827e-09,-0.0014849097245235,0.0014848971795186,-0.001484898490584,0.0014849084195568,-0.0014849065375624,0.0014849004840337,-0.001484895310131,0.0014849117142129,-0.0013162823664003,0.0013162547230368,-0.0013162493734404,0.0013162877241224,4.0949264527068e-09,-6.5590300503916e-09,-5.047877959093e-10,-1.6849849108712e-09,-0.0013233381896411,0.0013233360008474,-0.0014849026276072,0.0014849044054483,-0.0014849030076997,0.0014849040137538,-0.0014849060420051,0.0014849008656105,-0.0014849064311837,0.001484900466756,-0.0013162708057771,0.0013162662567472,-0.0013162719457531,0.0013162650644331,-0.0013162647773345,0.0013162725124919,-0.001316275101707,0.0013162617290227,1.6967529625205e-08,-1.7086293134591e-08,-0.0013233371503749,0.0013233370401658,-6.2357043482184e-10,5.2800135556808e-10,-0.0014848980532942,0.0014849089160764,-0.0014848976316695,0.0014849092701187,-0.0014849094395742,0.0014848975886715,-0.0014849090262277,0.0014848979345565,-0.0013162850854686,0.0013162519954139,-0.0013162516865136,0.001316285317103,0.74546029672453,131329,3014,0.0054989524271867,0.0054989524271451,0.0054989524272557,27.866550760412,-1.7067593916704e-05,-1.7067593916704e-05,-1.7067593916704e-05,2491778.8187505,0.016634846085267
31419200,0.99718192929087,0.016680912101324,0.0055603040337753,0.0055603040337367,0.005560304033812,-0.0013245680777176,0.0013245700948516,-1.597376666204e-08,1.798843475249e-08,-3.7721893029708e-09,6.045306406039e-09,-0.001486224608998,0.0014862120438491,-0.0014862132933904,0.0014862233656829,-0.0014862214887302,0.0014862152811742,-0.0014862101791577,0.0014862265936122,-0.0013175667686733,0.0013175388123802,-0.001317533534802,0.0013175720548472,4.1450084869074e-09,-6.611437200698e-09,-5.1057474244053e-10,-1.6810853598975e-09,-0.001324570181616,0.001324567990939,-0.001486217487043,0.0014862192945132,-0.0014862178641385,0.0014862189059784,-0.0014862209362689,0.0014862157199386,-0.0014862213219454,0.0014862153246762,-0.0013175550748619,0.0013175504792131,-0.0013175562051884,0.0013175492969958,-0.0013175489727563,0.0013175568085314,-0.0013175593970761,0.0013175459258471,1.7081658774226e-08,-1.7199270868846e-08,-0.0013245691407949,0.0013245690318136,-6.4080467447471e-10,5.465410097532e-10,-0.0014862128950698,0.0014862238229485,-0.0014862124615363,0.0014862241886796,-0.0014862243572761,0.0014862124197398,-0.0014862239315713,0.0014862127777993,-0.0013175694356593,0.0013175361373189,-0.0013175358148411,0.0013175696806239,0.71242630191495,131329,3014,0.0055040582033323,0.0055040582033004,0.005504058203414,28.434631560272,-1.2522947517823e-05,-1.2522947517823e-05,-1.2522947517823e-05,2488041.8274764,0.01665042146232
31619200,0.99730746822451,0.016682908961002,0.0055609696536678,0.0055609696536293,0.0055609696537046,-0.0013257894516692,0.0013257914708841,-1.6089066456593e-08,1.8105889238571e-08,-3.8207851225784e-09,6.0965020531647e-09,-0.0014875053639307,0.0014874926896454,-0.0014874939712571,0.0014875040885432,-0.0014875022102631,0.0014874959606925,-0.0014874908226247,0.0014875073510807,-0.0013188197625629,0.0013187916127768,-0.0013187862994991,0.0013188250846038,4.0670128828245e-09,-6.5277939059616e-09,-4.9316938853255e-10,-1.6935903266493e-09,-0.0013257915541563,0.0013257893683835,-0.0014874982070624,0.0014874999752669,-0.0014874985946725,0.0014874995761425,-0.0014875016022729,0.0014874964549891,-0.0014875019975011,0.0014874960500579,-0.0013188079285143,0.0013188034200706,-0.0013188090867049,0.0013188022098937,-0.0013188019525606,0.001318809622915,-0.0013188122165861,0.0013187989011281,1.7201618333956e-08,-1.7319280312522e-08,-0.0013257905158115,0.0013257904067808,-6.3659284626082e-10,5.4223848616293e-10,-0.0014874935538065,0.0014875045651501,-0.0014874931236374,0.0014875049273531,-0.0014875050963884,0.001487493081248,-0.0014875046734466,0.0014874934370658,-0.0013188224508067,0.0013187889158673,-0.0013187885970218,0.001318822693412,0.68057767028305,131329,3014,0.0055091196808141,0.0055091196807836,0.0055091196808951,29.003215505773,-7.9742759538132e-06,-7.9742759538132e-06,-7.9742759538132e-06,2487771.7229126,0.016665860548228
31819200,0.99742921482157,0.016684778794022,0.0055615929313414,0.0055615929313029,0.0055615929313782,-0.0013264186946019,0.0013264207201176,-1.6200333000006e-08,1.8223280850632e-08,-3.9081214171616e-09,6.1907874919269e-09,-0.0014881680916188,0.0014881552835268,-0.0014881566191366,0.0014881667622232,-0.0014881648743375,0.0014881586185626,-0.0014881534140611,0.0014881700816408,-0.0013194526758726,0.0013194243798478,-0.0013194189996186,0.0013194580653121,4.083408011227e-09,-6.5471004217711e-09,-5.0558291399812e-10,-1.6838861671295e-09,-0.0013264208016431,0.0013264186130544,-0.0014881608687734,0.0014881626353321,-0.0014881612454584,0.0014881622471636,-0.0014881642725085,0.0014881591064602,-0.001488164663993,0.0014881587053885,-0.0013194407817675,0.0013194362472725,-0.0013194419290584,0.001319435048743,-0.0013194347673058,0.0013194424885114,-0.0013194450781498,0.001319431720759,1.7323115468184e-08,-1.7442056141216e-08,-0.0013264197624744,0.0013264196522739,-6.2233700620812e-10,5.2656975259669e-10,-0.0014881561712487,0.0014881672693327,-0.0014881557475575,0.0014881676252082,-0.0014881677918286,0.0014881557076964,-0.0014881673823967,0.0014881560499375,-0.0013194554219505,0.0013194216264055,-0.0013194213172869,0.0013194556523856,0.65805653314873,131329,3014,0.0055117272000258,0.0055117271999779,0.0055117272000856,29.265645759435,-5.8748339245197e-06,-5.8748339245197e-06,-5.8748339245197e-06,2489550.1059603,0.016673813800479
32019200,0.99754556578867,0.016686734875357,0.0055622449584529,0.0055622449584144,0.0055622449584897,-0.0013265784051491,0.0013265804386408,-1.6318041792613e-08,1.8349005269014e-08,-3.9956127555965e-09,6.2871900024258e-09,-0.001488334834005,0.0014883218956037,-0.0014883232844299,0.0014883334513255,-0.0014883315598981,0.0014883252878573,-0.0014883200143879,0.0014883368361587,-0.0013196032078365,0.0013195747306555,-0.0013195692811484,0.001319608666071,4.1793172936012e-09,-6.6525112676303e-09,-5.3376553481644e-10,-1.6642241817332e-09,-0.0013265805204584,0.0013265783233103,-0.0014883275227488,0.0014883293361812,-0.0014883278876223,0.0014883289598978,-0.0014883309974848,0.0014883257358406,-0.0014883313690108,0.0014883253548451,-0.0013195912899237,0.0013195866213584,-0.0013195923783173,0.0013195854814478,-0.001319585112221,0.0013195930267563,-0.0013195956084914,0.0013195820718857,1.743659583379e-08,-1.7557877981056e-08,-0.0013265794782277,0.0013265793655926,-5.9409832979207e-10,4.9570709128275e-10,-0.0014883227996335,0.0014883339955351,-0.0014883223997526,0.0014883343276443,-0.0014883345008418,0.0014883223534385,-0.0014883341069387,0.0014883226799707,-0.0013196059807394,0.00131957195017,-0.0013195716632741,0.0013196061887189,0.7176633906929,131329,3014,0.0055123888942357,0.0055123888941892,0.0055123888942987,29.280976480303,-5.7521881575794e-06,-5.7521881575794e-06,-5.7521881575794e-06,2491757.7701402,0.016675831098344
32219200,0.99765671654797,0.01668864587349,0.0055628819578307,0.0055628819577921,0.0055628819578675,-0.001326728464487,0.0013267305048793,-1.6434275008415e-08,1.847210322875e-08,-4.0725013771725e-09,6.3717124431468e-09,-0.0014885291267857,0.0014885160628098,-0.0014885174985391,0.0014885276971609,-0.0014885258002498,0.0014885195078325,-0.0014885141738333,0.0014885311370484,-0.0013197771830806,0.0013197485289215,-0.0013197430187842,0.0013197827018783,4.2579476054038e-09,-6.7388828556332e-09,-5.6156619468253e-10,-1.6433793253502e-09,-0.0013267305867538,0.0013267283825902,-0.0014885217364109,0.0014885235827992,-0.0014885220862992,0.0014885232216201,-0.0014885252670266,0.0014885199262105,-0.0014885256212977,0.0014885195625696,-0.0013197652329617,0.0013197604515409,-0.0013197662704975,0.0013197593626713,-0.0013197589152175,0.0013197669975596,-0.0013197695699678,0.0013197558834113,1.7552217401395e-08,-1.7675638288383e-08,-0.0013267295420973,0.0013267294272981,-5.6951316802835e-10,4.6873715566635e-10,-0.0014885169827028,0.0014885282726243,-0.0014885166011307,0.0014885285863635,-0.0014885287628777,0.0014885165516023,-0.0014885283850276,0.0014885168620292,-0.001319779989779,0.001319745714538,-0.0013197454469984,0.001319780178355,0.73340852275642,131329,3014,0.0055130110542959,0.0055130110542472,0.0055130110543563,29.290205596304,-5.6783552295681e-06,-5.6783552295681e-06,-5.6783552295681e-06,2488711.7164216,0.016677730016953
32419200,0.9977628948063,0.016690517161677,0.0055635057205597,0.0055635057205212,0.0055635057205965,-0.0013268721465344,0.0013268741927735,-1.6548723269158e-08,1.8592345238027e-08,-4.1403257860657e-09,6.4459999465381e-09,-0.0014887262272342,0.0014887130418444,-0.0014887145190886,0.0014887247560622,-0.0014887228518847,0.0014887165359888,-0.0014887111489088,0.001488728241761,-0.0013199529648946,0.0013199241387712,-0.0013199185755273,0.0013199585368033,4.3186448504628e-09,-6.8056074948111e-09,-5.8834918690513e-10,-1.6220172406786e-09,-0.0013268742744598,0.0013268720648222,-0.0014887187666092,0.0014887206323182,-0.0014887190988592,0.0014887202888797,-0.0014887223378503,0.0014887169348329,-0.0014887226778053,0.0014887165856043,-0.0013199409738582,0.001319936102022,-0.0013199419690419,0.0013199350558152,-0.0013199345409978,0.001319942763616,-0.0013199453254374,0.0013199315192999,1.7670292904152e-08,-1.7795580181535e-08,-0.001326873228005,0.0013268731113285,-5.4856165925903e-10,4.4570781104997e-10,-0.0014887139772494,0.0014887253576986,-0.0014887136086611,0.0014887256584201,-0.0014887258351568,0.0014887135589859,-0.0014887254736267,0.0014887138530809,-0.0013199558127451,0.0013199212831516,-0.0013199210321637,0.0013199559847479,0.75109425935268,131329,3014,0.0055136068954157,0.0055136068953594,0.0055136068954689,29.299202140758,-5.6063828739355e-06,-5.6063828739355e-06,-5.6063828739355e-06,2484948.8977619,0.016679549093408
32619200,0.99786406138136,0.016692165655844,0.0055640552186154,0.0055640552185769,0.0055640552186522,-0.0013269146105399,0.0013269166606041,-1.6660536261701e-08,1.8707987900282e-08,-4.1880352325161e-09,6.4979983984917e-09,-0.0014888344338787,0.0014888211401472,-0.0014888226468594,0.0014888329332003,-0.0014888310224131,0.0014888246705992,-0.0014888192465536,0.0014888364492385,-0.0013200296675797,0.0013200006644439,-0.001319995064245,0.0013200352763737,4.3587941372031e-09,-6.8495918855851e-09,-6.1335643191098e-10,-1.6004564223804e-09,-0.0013269167421146,0.0013269145290074,-0.0014888269161387,0.0014888287879268,-0.0014888272299228,0.0014888284629711,-0.0014888305122126,0.0014888250653004,-0.0014888308397473,0.0014888247286422,-0.0013200176221438,0.0013200126819424,-0.0013200185805964,0.0013200116727312,-0.0013200111035463,0.0013200194295714,-0.0013200219793129,0.0013200080936125,1.7792118183414e-08,-1.7918957246862e-08,-0.0013269156947192,0.0013269155764538,-5.3073286485764e-10,4.2614771539158e-10,-0.0014888220849773,0.0014888335550377,-0.001488821725855,0.0014888338462423,-0.0014888340215824,0.001488821677579,-0.0014888336755142,0.0014888219561949,-0.0013200325583599,0.0013199977658486,-0.0013199975288841,0.0013200327163172,0.69653886784773,131329,3014,0.0055137833899942,0.005513783389946,0.0055137833900542,29.262923836115,-5.8966093110813e-06,-5.8966093110813e-06,-5.8966093110813e-06,2480569.2192837,0.016680089656221
32819200,0.99796034096306,0.01669361256867,0.0055645375228906,0.0055645375228521,0.0055645375229275,-0.0013268968752632,0.001326898926425,-1.6786507269902e-08,1.8834999336405e-08,-4.2050625464022e-09,6.5162474089969e-09,-0.0014888449321688,0.0014888315489701,-0.0014888330661963,0.0014888434209751,-0.0014888415144559,0.0014888350857339,-0.0014888296489357,0.0014888469540459,-0.0013200138277177,0.0013199845744841,-0.0013199789614489,0.0013200194494299,4.3830682019796e-09,-6.8755078360544e-09,-6.2708694841085e-10,-1.5881180319388e-09,-0.0013268990080959,0.0013268967935693,-0.001488837363638,0.0014888392475547,-0.001488837674166,0.0014888389259295,-0.0014888409818616,0.0014888355027427,-0.0014888412954331,0.0014888351801362,-0.0013200016867888,0.001319996687465,-0.0013200026042442,0.0013199957191666,-0.0013199951181107,0.0013200034853653,-0.0013200060278388,0.0013199921151467,1.7901368057964e-08,-1.8029377933351e-08,-0.0013268979605706,0.0013268978411456,-5.1053785318374e-10,4.0458010953184e-10,-0.001488832492802,0.0014888440543302,-0.0014888321529789,0.0014888443262102,-0.0014888445080799,0.0014888320982943,-0.0014888441705928,0.0014888323682955,-0.0013200167009798,0.0013199816935525,-0.0013199814715465,0.0013200168437174,0.64446135826703,131329,3014,0.0055137100003838,0.0055137100003334,0.0055137100004418,29.204465843454,-6.3642732523692e-06,-6.3642732523692e-06,-6.3642732523692e-06,2480898.2704252,0.016679865973924
33019200,0.99805198033733,0.016695103359757,0.0055650344532527,0.0055650344532142,0.0055650344532896,-0.0013268762507028,0.0013268783031946,-1.6901699354039e-08,1.8951515068047e-08,-4.2095258589334e-09,6.5221071056931e-09,-0.0014888117248144,0.0014887982605848,-0.0014887997799182,0.0014888102114854,-0.0014888083019866,0.0014888018024751,-0.0014887963609425,0.0014888137463236,-0.0013199703753721,0.0013199409050034,-0.0013199352871697,0.00131997600178,4.3839708360805e-09,-6.8776708831586e-09,-6.4204313879075e-10,-1.5743795947047e-09,-0.0013268783848117,0.0013268761690628,-0.0014888041214605,0.0014888059939585,-0.0014888044207917,0.0014888056836112,-0.0014888077390189,0.0014888022498118,-0.0014888080447589,0.0014888019350892,-0.0013199581385684,0.0013199531136838,-0.0013199590327977,0.0013199521688397,-0.0013199515490904,0.0013199599324675,-0.0013199624666753,0.0013199485544835,1.8020995130087e-08,-1.8150710083266e-08,-0.0013268773375377,0.001326877216388,-4.9948212169345e-10,3.9169822653511e-10,-0.0014887992024629,0.001488810848924,-0.0014887988689314,0.0014888111145135,-0.0014888112964145,0.0014887988142195,-0.0014888109686007,0.0014887990745545,-0.0013199732653368,0.0013199380072808,-0.0013199377950128,0.0013199733984035,0.69524135629317,131329,3014,0.0055136242397788,0.0055136242397286,0.0055136242398375,29.145454215794,-6.8363662736458e-06,-6.8363662736458e-06,-6.8363662736458e-06,2484816.3125384,0.01667960252997
33219200,0.99813921608238,0.016696594515746,0.0055655315052493,0.0055655315052108,0.0055655315052862,-0.0013268632476323,0.0013268652997412,-1.7021151252631e-08,1.9070595256935e-08,-4.2031666856723e-09,6.5153136305232e-09,-0.001488818538649,0.0014888049995507,-0.0014888065148648,0.0014888170293176,-0.0014888151208277,0.0014888085363974,-0.0014888030996364,0.0014888205603892,-0.0013199632073912,0.0013199334968593,-0.0013199278838338,0.001319968829087,4.3768148805741e-09,-6.8700090422704e-09,-6.5198526456701e-10,-1.5639984121572e-09,-0.0013268653813358,0.0013268631660101,-0.0014888109031623,0.0014888127650043,-0.0014888111963895,0.001488812460803,-0.0014888145164487,0.0014888090251647,-0.0014888148148163,0.0014888087178564,-0.0013199508586769,0.0013199458173976,-0.0013199517312143,0.0013199448944316,-0.0013199442656169,0.001319952639828,-0.001319955166798,0.0013199412782613,1.813772702936e-08,-1.8268100338486e-08,-0.0013268643345973,0.0013268642127996,-4.8889132311743e-10,3.8033976629298e-10,-0.0014888059361489,0.0014888176680217,-0.0014888056105769,0.0014888179256561,-0.001488818108799,0.0014888055546174,-0.0014888177876766,0.0014888058082642,-0.0013199660949733,0.0013199306015116,-0.001319930397272,0.0013199662200539,0.72922790955255,131329,3014,0.0055135704571366,0.0055135704570767,0.0055135704571852,29.086421457949,-7.308628336409e-06,-7.308628336409e-06,-7.308628336409e-06,2483933.8800644,0.016679438626122
33419200,0.99822361580201,0.01669806503435,0.0055660216781173,0.0055660216780788,0.0055660216781541,-0.0013273872882473,0.00132738933288,-1.7149357234026e-08,1.9191318659388e-08,-4.1228128977783e-09,6.426650118015e-09,-0.0014893901130217,0.0014893765420859,-0.0014893780084813,0.0014893886526366,-0.001489386753526,0.0014893800202501,-0.0014893746470869,0.0014893921294771,-0.0013205189125954,0.0013204888882495,-0.0013204833387764,0.0013205244706126,4.276170688305e-09,-6.7596401583905e-09,-6.2668556884138e-10,-1.5805800704324e-09,-0.0013273894138033,0.0013273872072944,-0.0014893824840701,0.0014893843005524,-0.0014893827934134,0.0014893839801423,-0.0014893860296191,0.0014893806290223,-0.0014893863396376,0.0014893803099815,-0.0013205063503417,0.0013205014225875,-0.0013205072572613,0.0013205004649708,-0.0013204999229317,0.0013205080785203,-0.0013205106110467,0.0013204969313755,1.82500268785e-08,-1.837949507263e-08,-0.0013273883710279,0.001327388250131,-5.0379353571801e-10,3.9629585278667e-10,-0.0014893774607904,0.0014893892600353,-0.0014893771271803,0.0014893895257651,-0.0014893897102564,0.0014893770698551,-0.0014893893766522,0.0014893773360962,-0.0013205217440652,0.0013204860493062,-0.0013204858335869,0.0013205218802419,0.74278652767946,131329,3014,0.005515742325082,0.0055157423250181,0.0055157423251474,29.311740990991,-5.5060720720709e-06,-5.5060720720709e-06,-5.5060720720709e-06,2481715.5297305,0.016686064481385
33619200,0.99830557151177,0.016699493452083,0.0055664978173614,0.0055664978173229,0.0055664978173983,-0.0013280544552712,0.0013280564877643,-1.7232945059416e-08,1.9263001980218e-08,-3.9707497008517e-09,6.2611956248892e-09,-0.0014901162232086,0.0014901026817301,-0.0014901040542666,0.001490114856705,-0.0014901129564129,0.0014901060664325,-0.0014901008113501,0.0014901182143105,-0.0013212238156752,0.0013211935580696,-0.0013211881269639,0.0013212292551909,4.2285854888713e-09,-6.7053171225948e-09,-6.1573088327156e-10,-1.5853396066515e-09,-0.0013280565716211,0.0013280543713933,-0.0014901086264397,0.0014901104077196,-0.0014901089280105,0.0014901100950072,-0.0014901121254053,0.001490106782729,-0.0014901124534347,0.0014901064456193,-0.0013212110905016,0.0013212062555085,-0.0013212120502098,0.0013212052450915,-0.0013212047403039,0.0013212128340212,-0.0013212153650207,0.0013212017500588,1.8410365907077e-08,-1.8536552577984e-08,-0.001328055530352,0.0013280554127145,-5.4383675674862e-10,4.400137845868e-10,-0.0014901035514666,0.0014901154190169,-0.0014901031769721,0.001490115725691,-0.001490115893951,0.0014901031355196,-0.0014901155450912,0.0014901034167834,-0.0013212266886255,0.0013211906770147,-0.0013211904308521,0.0013212268566584,0.74303042375231,131329,3014,0.005518507334472,0.0055185073344255,0.0055185073345363,29.613452359045,-3.0923811276415e-06,-3.0923811276415e-06,-3.0923811276415e-06,2479048.945589,0.016694500021741
33819200,0.99838509379477,0.01670088365146,0.0055669612171538,0.0055669612171152,0.0055669612171906,-0.0013287182054534,0.001328720233883,-1.7411261564028e-08,1.9437230990171e-08,-3.9522989429214e-09,6.2384026361405e-09,-0.0014908400046661,0.0014908263718203,-0.0014908277351733,0.0014908386473913,-0.0014908367684857,0.00149082972595,-0.001490824487879,0.0014908420092898,-0.0013219246096123,0.0013218939392774,-0.001321888525496,0.0013219300321106,4.0704361575253e-09,-6.5341450767061e-09,-5.6083895350908e-10,-1.6287367788932e-09,-0.0013287203139837,0.0013287181253339,-0.001490832386285,0.0014908341190908,-0.0014908327380695,0.0014908337559072,-0.0014908357929159,0.001490830587324,-0.0014908361362778,0.0014908302347204,-0.0013219115945955,0.0013219069274802,-0.0013219125998832,0.0013219058700994,-0.0013219055252487,0.0013219132240969,-0.0013219157764363,0.0013219025146434,1.8470921908015e-08,-1.8596118025418e-08,-0.0013287192779927,0.001328719161377,-5.451979942814e-10,4.4240100398242e-10,-0.001490827258671,0.001490839183192,-0.0014908269006064,0.0014908394734917,-0.0014908396582046,0.0014908268427278,-0.0014908392910588,0.0014908271427607,-0.0013219273088521,0.0013218912321945,-0.0013218909837671,0.0013219274790524,0.7451776904959,131329,3014,0.0055212581747108,0.0055212581746693,0.0055212581747801,29.91711323736,-6.6309410112328e-07,-6.6309410112328e-07,-6.6309410112328e-07,2476957.5677114,0.016702892317248
34019200,0.99846218700739,0.016702192079096,0.0055673973596993,0.0055673973596607,0.0055673973597361,-0.0013293739927403,0.0013293760108164,-1.7475625478226e-08,1.9491317533276e-08,-3.8094536885106e-09,6.0838988343609e-09,-0.0014915571028426,0.0014915435041558,-0.0014915447780688,0.001491555835099,-0.0014915539495383,0.0014915467746304,-0.0014915416465592,0.0014915590804924,-0.0013226158374583,0.0013225849888661,-0.0013225796847358,0.0013226211499014,4.0588649632117e-09,-6.5191502389903e-09,-5.5732530430959e-10,-1.6290036115216e-09,-0.0013293760944498,0.0013293739090905,-0.0014915495115055,0.0014915512239977,-0.0014915498479199,0.001491550876297,-0.0014915528935842,0.0014915477168414,-0.0014915532543905,0.0014915473467664,-0.0013226027018662,0.0013225980968599,-0.0013226037584151,0.0013225969896645,-0.0013225966515688,0.001322604374264,-0.0013226069250815,0.001322593643907,1.8649687806133e-08,-1.8771564404357e-08,-0.0013293750584259,0.0013293749451671,-5.9132443576792e-10,4.9229370582403e-10,-0.001491544337174,0.0014915563349839,-0.0014915439303969,0.0014915566740259,-0.0014915568389386,0.0014915438922319,-0.0014915564557644,0.0014915442079244,-0.0013226186271535,0.0013225821915948,-0.0013225819073486,0.0013226188325655,0.72426545091473,131329,3014,0.0055239759850851,0.0055239759850483,0.0055239759851606,30.220848910786,1.7667912862894e-06,1.7667912862894e-06,1.7667912862894e-06,2475214.7271619,0.016711183892483
34219200,0.99853814744528,0.016703447403456,0.0055678158011526,0.005567815801114,0.0055678158011895,-0.0013306086212871,0.001330610639352,-1.776733301329e-08,1.9783320922655e-08,-3.8834333060723e-09,6.1587441075951e-09,-0.0014928420759642,0.0014928282790951,-0.0014928296035779,0.0014928407575145,-0.0014928389204032,0.0014928315524479,-0.001492826373912,0.0014928441015023,-0.0013238824685154,0.0013238509596404,-0.0013238456051513,0.0013238878306245,3.7896508019947e-09,-6.2297599051038e-09,-4.4455376522117e-10,-1.7241328454738e-09,-0.0013306107140886,0.0013306085465349,-0.0014928344114488,0.0014928360720231,-0.0014928348648726,0.0014928356065904,-0.0014928376551342,0.0014928327044401,-0.0014928380372579,0.0014928323125642,-0.0013238688684807,0.001323864533568,-0.0013238699881397,0.0013238633594294,-0.0013238633222896,0.0013238703056404,-0.0013238729068775,0.0013238602634543,1.8594169000312e-08,-1.8716063158882e-08,-0.0013306096870278,0.0013306095736468,-5.6450269612424e-10,4.6525391237116e-10,-0.0014928291970509,0.0014928412230285,-0.0014928288566383,0.0014928414960307,-0.0014928417088816,0.0014928287702517,-0.0014928412965564,0.0014928291160151,-0.001323884813283,0.0013238486064662,-0.0013238483413874,0.0013238850004558,0.70594348637037,131329,3014,0.0055290922114335,0.005529092211398,0.005529092211507,30.83222006077,6.6577604861592e-06,6.6577604861592e-06,6.6577604861592e-06,2475914.5886607,0.01672679048778
34419200,0.99861298075871,0.016704689079798,0.0055682296932666,0.005568229693228,0.0055682296933035,-0.0013319047304995,0.0013319067446965,-1.7953021090176e-08,1.9964930006093e-08,-3.8651574200351e-09,6.1361081389319e-09,-0.0014941783952325,0.001494164504553,-0.0014941658178248,0.0014941770879553,-0.001494175270802,0.0014941677466491,-0.0014941625866736,0.0014941804333646,-0.0013252000061933,0.0013251680727561,-0.001325162734987,0.0013252053508438,3.679009760838e-09,-6.1100712518593e-09,-3.8481193755173e-10,-1.7758816638932e-09,-0.0013319068173661,0.0013319046578149,-0.0014941706908885,0.0014941723368672,-0.0014941711973033,0.0014941718185131,-0.0014941738759615,0.0014941690288581,-0.0014941742781445,0.0014941686164238,-0.0013251861218201,0.0013251819289824,-0.001325187301353,0.0013251806990036,-0.0013251807972216,0.0013251874783144,-0.001325190111399,0.0013251777127735,1.8647950764258e-08,-1.8767688459588e-08,-0.0013319057931647,0.0013319056820678,-5.7779518084208e-10,4.8086547921322e-10,-0.0014941654468775,0.0014941775176516,-0.0014941651128115,0.0014941777845375,-0.0014941780114394,0.0014941650124332,-0.0014941775727086,0.0014941653846187,-0.0013252021613983,0.0013251659115678,-0.0013251656313782,0.0013252023581952,0.70867958436572,131329,3014,0.0055344630172056,0.0055344630171714,0.0055344630172812,31.476024165499,1.1808193323996e-05,1.1808193323996e-05,1.1808193323996e-05,2478194.8713529,0.016743173266627
34619200,0.99868655182901,0.016705958989881,0.0055686529966276,0.0055686529965891,0.0055686529966645,-0.0013332048996861,0.0013332069083943,-1.8050526299459e-08,2.0056986288131e-08,-3.78994496143e-09,6.0547302236772e-09,-0.0014955193927507,0.0014955054791022,-0.0014955067454033,0.0014955181324886,-0.0014955163134196,0.0014955086757076,-0.0014955035735539,0.0014955214182332,-0.001326523843565,0.0013264916884138,-0.0013264864081036,0.0013265291303983,3.6759987341992e-09,-6.1051204522719e-09,-3.6462978850786e-10,-1.7941963549868e-09,-0.001333206982862,0.0013332048252115,-0.0014955116742777,0.0014955133253711,-0.0014955121862909,0.0014955128014225,-0.0014955148499175,0.001495510026878,-0.0014955152718117,0.0014955095945869,-0.0013265098169844,0.0013265056862587,-0.001326511054577,0.0013265043991126,-0.0013265045221436,0.0013265112056826,-0.0013265138502648,0.0013265014273157,1.8791140457911e-08,-1.8907641880755e-08,-0.0013332059579847,0.0013332058501391,-6.1863380207376e-10,5.2533395037901e-10,-0.0014955064017156,0.0014955185347483,-0.001495506031994,0.0014955188373291,-0.0014955190539122,0.0014955059419013,-0.0014955185935998,0.0014955063354794,-0.0013265260214871,0.0013264895045567,-0.0013264891925787,0.0013265262498542,0.73613738635718,131329,3014,0.0055398506348279,0.0055398506348105,0.0055398506349177,32.120719590044,1.6965756720349e-05,1.6965756720349e-05,1.6965756720349e-05,2480034.3966058,0.016759607703938
34819200,0.99875985711956,0.01670723530543,0.0055690784351439,0.0055690784351053,0.0055690784351808,-0.001335049855346,0.0013350518584943,-1.8160524131101e-08,2.0161431662396e-08,-3.7074411447473e-09,5.9659027027088e-09,-0.0014974270458029,0.0014974131036591,-0.0014974143187489,0.0014974258368321,-0.0014974240151771,0.0014974162511556,-0.0014974112112466,0.0014974290577758,-0.0013284150635375,0.0013283826600154,-0.0013283774425733,0.0013284202881411,3.6707458970872e-09,-6.0978664740819e-09,-3.3685876331733e-10,-1.8200681794922e-09,-0.0013350519347817,0.0013350497790457,-0.0014974193092437,0.0014974209678788,-0.0014974198313584,0.00149742043376,-0.0014974224725975,0.0014974176817095,-0.0014974229202181,0.0014974172235373,-0.0013284008721232,0.001328396823605,-0.0013284021854164,0.0013283954597823,-0.001328395620419,0.001328402299486,-0.0013284049596175,0.001328392509352,1.8922084209081e-08,-1.9035060810253e-08,-0.001335050909076,0.0013350508048014,-6.6411006374636e-10,5.7477507219256e-10,-0.0014974140155486,0.0014974261984482,-0.0014974136064112,0.0014974265403773,-0.0014974267455807,0.0014974135276699,-0.001497426261488,0.0014974139449,-0.0013284172380733,0.0013283804792169,-0.001328380132708,0.0013284175023468,0.74236047233084,131329,3014,0.005547495839118,0.005547495839088,0.0055474958391948,33.05125455737,2.4410036458959e-05,2.4410036458959e-05,2.4410036458959e-05,2480439.0501019,0.016782930045483
35019200,0.99883304946837,0.016708472083339,0.005569490694447,0.0055694906944083,0.0055694906944838,-0.0013370845326236,0.0013370865325353,-1.8216165478355e-08,2.0213951627359e-08,-3.6368298351685e-09,5.8915003685314e-09,-0.0014995342039298,0.0014995202530933,-0.0014995214226806,0.001499533040678,-0.0014995312029417,0.0014995233704593,-0.0014995183820545,0.0014995361944436,-0.0013304997874786,0.0013304672832441,-0.0013304621163346,0.0013305049583165,3.7081724275591e-09,-6.1370071634379e-09,-3.2825578955691e-10,-1.8299811463386e-09,-0.0013370866111301,0.0013370844540223,-0.0014995264567316,0.0014995281271161,-0.0014995269664353,0.0014995276060709,-0.001499529627879,0.0014995248345568,-0.0014995300997349,0.001499524351752,-0.0013304855197568,0.0013304815201583,-0.0013304869079897,0.0013304800790684,-0.001330480231059,0.0013304870334225,-0.0013304897020513,0.0013304771111527,1.9105965455988e-08,-1.9215935348718e-08,-0.0013370855830681,0.001337085482087,-7.1717578024279e-10,6.312621370515e-10,-0.0014995211339757,0.001499533387024,-0.0014995206693981,0.0014995337843775,-0.0014995339678949,0.0014995206133672,-0.0014995334654172,0.0014995210488128,-0.0013305020989601,0.0013304649642235,-0.0013304645788726,0.0013305024015913,0.72136488090922,131329,3014,0.005555927163699,0.0055559271636825,0.0055559271636908,34.083245308502,3.2665962468016e-05,3.2665962468016e-05,3.2665962468016e-05,2481172.6309675,0.016808651301902
35219200,0.99890584935523,0.016709668064273,0.0055698893547582,0.0055698893547196,0.0055698893547952,-0.001339119462142,0.0013391214594922,-1.8270226428124e-08,2.0265413639289e-08,-3.5955053802493e-09,5.8472474072525e-09,-0.001501629243059,0.0015016152616966,-0.0015016164060208,0.0015016281050313,-0.0015016262494898,0.0015016183713753,-0.0015016134141599,0.0015016312095846,-0.0013325729959007,0.0013325404133098,-0.001332535279525,0.0013325781374086,3.7734704942656e-09,-6.2068827627238e-09,-3.2966614251663e-10,-1.8326201292338e-09,-0.00133912154134,0.0013391193802829,-0.0015016214707219,0.0015016231617469,-0.0015016219600218,0.0015016226604254,-0.001501624664885,0.0015016198440673,-0.0015016251582854,0.0015016193401309,-0.0013325586859824,0.0013325546961743,-0.0013325601338675,0.0013325531970486,-0.0013325533089552,0.0013325602972899,-0.0013325629682177,0.0013325501850444,1.9291674364002e-08,-1.9397623885788e-08,-0.0013391205094407,0.0013391204122374,-7.6272415871227e-10,6.8136334740568e-10,-0.001501616121444,0.001501628447955,-0.0015016156042528,0.0015016288975463,-0.001501629056546,0.0015016155717225,-0.00150162854294,0.0015016160179914,-0.0013325754577723,0.0013325379440537,-0.0013325375234497,0.0013325757991288,0.7021422909991,131329,3014,0.005564359306313,0.0055643593062865,0.0055643593064037,35.117803771337,4.0942430170694e-05,4.0942430170694e-05,4.0942430170694e-05,2483695.5601897,0.016834374947579
35419200,0.99897711703342,0.016710803144809,0.005570267714937,0.0055702677148984,0.005570267714974,-0.0013407278982438,0.0013407299107896,-1.8481883709022e-08,2.0492482742778e-08,-3.8241240628702e-09,6.0933733340979e-09,-0.0015032819471215,0.0015032677217642,-0.0015032690093316,0.0015032806660591,-0.0015032788417657,0.0015032709447427,-0.0015032658140492,0.0015032839752247,-0.0013342031043529,0.001334170135065,-0.001334164825969,0.0013342084177637,3.7074393062187e-09,-6.1394249750239e-09,-2.7609014174184e-10,-1.8851758577224e-09,-0.0013407299846638,0.0013407278243607,-0.0015032740343426,0.0015032757625351,-0.0015032746047686,0.0015032751802524,-0.0015032772302125,0.0015032724443921,-0.0015032777130059,0.0015032719506258,-0.0013341885893884,0.0013341846201668,-0.0013341900103339,0.0013341831442671,-0.001334183371511,0.0013341900623595,-0.0013341927687654,0.0013341802119363,1.9307224975589e-08,-1.9416180939353e-08,-0.0013407289545306,0.0013407288544739,-7.1493535418627e-10,6.2998370163624e-10,-0.0015032686597713,0.0015032810738188,-0.0015032682216798,0.0015032814447485,-0.00150328165212,0.0015032681412301,-0.0015032811262658,0.0015032686004601,-0.001334205342521,0.001334167888776,-0.0013341675043938,0.0013342056453705,0.68162297339114,131329,3014,0.0055710240691925,0.0055710240691708,0.0055710240691323,35.92999788101,4.743998304808e-05,4.743998304808e-05,4.743998304808e-05,2487044.6865833,0.016854706874812
35619200,0.9990460458911,0.016711860052564,0.0055706200175218,0.0055706200174831,0.0055706200175588,-0.0013420126436549,0.0013420146607425,-1.8510074267996e-08,2.0525963171444e-08,-3.8431097024013e-09,6.1180581714048e-09,-0.0015045918383394,0.0015045775490209,-0.0015045788480244,0.0015045905449045,-0.0015045886857065,0.001504580818664,-0.00150457567021,0.0015045938363396,-0.0013354948113445,0.0013354618890274,-0.0013354565643011,0.0013355001441732,3.9333800327588e-09,-6.3848097573527e-09,-3.3940343558624e-10,-1.8391264928234e-09,-0.0013420147408443,0.0013420125635444,-0.001504583858187,0.0015045856580387,-0.0015045843602554,0.0015045851443287,-0.0015045871772653,0.0015045822141023,-0.0015045876554772,0.0015045817235696,-0.001335480417172,0.001335476255065,-0.0013354818212288,0.0013354748013914,-0.0013354748150105,0.0013354820806483,-0.0013354847646185,0.001335471675804,1.951341404736e-08,-1.9620956804885e-08,-0.0013420137017704,0.0013420136026523,-7.3519192342081e-10,6.5193383254539e-10,-0.0015045784737299,0.0015045909795147,-0.0015045779888579,0.0015045913959911,-0.0015045915701557,0.0015045779399581,-0.0015045910624525,0.0015045783805657,-0.00133549731098,0.0013354593817374,-0.0013354589818853,0.0013354976317607,0.65729899073752,131329,3014,0.0055763473960254,0.0055763473960046,0.0055763473960777,36.574392848212,5.2595142785692e-05,5.2595142785692e-05,5.2595142785692e-05,2491112.573303,0.016870946115975
35819200,0.99911252258687,0.0167129423748,0.0055709807916004,0.0055709807915617,0.0055709807916375,-0.0013432902608776,0.0013432922892822,-1.8620094770886e-08,2.0646201080847e-08,-3.959998520587e-09,6.2463156621677e-09,-0.0015058736137372,0.0015058591773083,-0.0015058605452677,0.0015058722520603,-0.0015058703792099,0.0015058625298745,-0.00150585728749,0.0015058756243116,-0.00133677090116,0.0013367378526967,-0.0013367324331217,0.001336776328267,4.0507543661138e-09,-6.5129118591053e-09,-3.6729720542498e-10,-1.8208709000064e-09,-0.0013432923687171,0.0013432901814218,-0.0015058655325126,0.0015058673878181,-0.0015058660179219,0.0015058668903763,-0.0015058689325312,0.0015058638629796,-0.0015058693972337,0.0015058633878721,-0.0013367565098763,0.0013367522159715,-0.0013367578735045,0.0013367508007347,-0.0013367507183134,0.001336758233705,-0.0013367609140937,0.0013367475819721,1.9633606767849e-08,-1.9743142497843e-08,-0.0013432913254728,0.0013432912247115,-7.1427777533368e-10,6.2885163592595e-10,-0.001505860129128,0.0015058727274029,-0.0015058596580965,0.0015058731306459,-0.0015058733056913,0.0015058596099111,-0.0015058728135458,0.0015058600349127,-0.0013367734674482,0.0013367352792539,-0.0013367348953412,0.0013367737705234,0.69619235043579,131329,3014,0.0055816410078974,0.0055816410078508,0.0055816410079477,37.214612944873,5.7716903558986e-05,5.7716903558986e-05,5.7716903558986e-05,2496266.5404056,0.016887094066632
36019200,0.99917646152544,0.016714045000429,0.0055713483334769,0.0055713483334382,0.005571348333514,-0.001344575668862,0.0013445777067844,-1.8729149695274e-08,2.0764696383132e-08,-4.0625316249769e-09,6.3593472015435e-09,-0.0015071881483369,0.0015071735728963,-0.0015071750032152,0.0015071867241807,-0.0015071848415837,0.0015071769982318,-0.0015071716746744,0.0015071901677792,-0.0013380782582237,0.0013380450704614,-0.0013380395698545,0.0013380837666644,4.1630224554601e-09,-6.6361380379536e-09,-3.986874751498e-10,-1.7992928503383e-09,-0.001344577786413,0.0013445755891937,-0.0015071799727735,0.001507181878282,-0.0015071804398653,0.0015071813991713,-0.0015071834501266,0.0015071782754642,-0.0015071838979968,0.001507177817277,-0.0013380638660388,0.0013380594342707,-0.0013380651802461,0.001338058068976,-0.0013380578853598,0.001338065642039,-0.0013380683142729,0.0013380547558063,1.9755127641293e-08,-1.9866704366054e-08,-0.0013445767392339,0.0013445766364217,-6.9257083070123e-10,6.0487769463693e-10,-0.001507174547235,0.0015071872397357,-0.0015071740907151,0.00150718762842,-0.0015071878047649,0.0015071740413014,-0.0015071873285756,0.0015071744502848,-0.0013380808846569,0.0013380424367361,-0.0013380420702764,0.0013380811703232,0.73586309782184,131329,3014,0.0055869671633328,0.0055869671632473,0.0055869671633518,37.854672752037,6.28373820163e-05,6.28373820163e-05,6.28373820163e-05,2497475.9704408,0.016903343188157
36219200,0.99923571169316,0.016715034510144,0.0055716781700486,0.0055716781700099,0.0055716781700856,-0.0013445854224847,0.0013445874744258,-1.8837810813869e-08,2.0887223461249e-08,-4.2213702035674e-09,6.5336414692086e-09,-0.0015072487346836,0.0015072339843028,-0.0015072355116997,0.0015072472134569,-0.0015072453165698,0.0015072375216492,-0.0015072320733469,0.0015072507675762,-0.0013381096881966,0.0013380764011505,-0.0013380707755136,0.0013381153213856,4.3240201157759e-09,-6.8127824543968e-09,-4.7046035780312e-10,-1.7415688293522e-09,-0.0013445875541193,0.001344585342771,-0.0015072404445699,0.0015072424047636,-0.0015072408680108,0.0015072419696191,-0.001507244033174,0.001507238689943,-0.0015072444389395,0.0015072382742406,-0.0013380953718029,0.0013380906887928,-0.0013380965615118,0.0013380894481978,-0.0013380890848266,0.0013380972038906,-0.0013380998471805,0.001338085982901,1.9872944864705e-08,-1.998984061015e-08,-0.00134458650257,0.0013445863943666,-6.3234190230071e-10,5.3872598390864e-10,-0.0015072349881043,0.0015072477969692,-0.0015072345729338,0.0015072481441282,-0.0015072483252343,0.0015072345190337,-0.0015072478919345,0.0015072348850103,-0.0013381124077628,0.0013380736743125,-0.00133807335506,0.0013381126458607,0.7136105507149,131329,3014,0.0055870079601685,0.0055870079601232,0.0055870079602222,37.827185774167,6.2617486193334e-05,6.2617486193334e-05,6.2617486193334e-05,2494741.0580371,0.016903469418758
36419200,0.9992897648088,0.016715925126932,0.0055719750423113,0.0055719750422726,0.0055719750423483,-0.0013440150454901,0.0013440171061459,-1.8948577459848e-08,2.1006735718467e-08,-4.3789713836654e-09,6.7015808945391e-09,-0.0015066962371701,0.0015066813090117,-0.0015066829364597,0.0015066946156719,-0.0015066927099904,0.0015066849559987,-0.0015066793910616,0.0015066982775294,-0.0013375434001983,0.0013375100062202,-0.0013375042644645,0.0013375491508641,4.4859602097729e-09,-6.9855980416573e-09,-5.5377609259127e-10,-1.6675213246957e-09,-0.001344017186171,0.0013440149654411,-0.001506687834091,0.0015066898432024,-0.0015066882044102,0.0015066894614006,-0.0015066915324698,0.0015066860172455,-0.0015066918870983,0.0015066856529582,-0.001337529167277,0.0013375242111135,-0.0013375302052804,0.0013375231233637,-0.0013375225575117,0.0013375310501281,-0.0013375336493261,0.0013375194974728,1.999173642541e-08,-2.0112668507371e-08,-0.0013440161320423,0.0013440160196268,-5.582812484499e-10,4.5990986721631e-10,-0.0015066823386971,0.0015066952740787,-0.0015066819735984,0.0015066955710788,-0.001506695755341,0.0015066819162462,-0.0015066953739607,0.0015066822299854,-0.0013375462126749,0.0013375071861289,-0.0013375069224455,0.0013375463968286,0.7043401993487,131329,3014,0.0055846447715598,0.0055846447715069,0.0055846447716283,37.496466961783,5.9971735694262e-05,5.9971735694262e-05,5.9971735694262e-05,2491306.8109698,0.016896260398667
36619200,0.99933911885157,0.01671669324863,0.0055722310828773,0.0055722310828387,0.0055722310829144,-0.0013434226648643,0.0013434247312713,-1.9061448176843e-08,2.1125195293138e-08,-4.4761120089683e-09,6.8052833723231e-09,-0.0015061096103904,0.0015060945435356,-0.0015060962319994,0.0015061079278637,-0.0015061060161277,0.0015060982579952,-0.0015060926203757,0.0015061116564727,-0.0013369490179464,0.0013369154718919,-0.0013369096568526,0.0013369548408699,4.5856479172984e-09,-7.0918153597286e-09,-6.2696343617763e-10,-1.5998429710401e-09,-0.001343424811216,0.0013434225848975,-0.0015061011300497,0.0015061031549832,-0.0015061014533259,0.0015061028206829,-0.0015061048965782,0.0015060992609391,-0.0015061052048942,0.0015060989432988,-0.0013369348132734,0.001336929647157,-0.0013369357154838,0.0013369286953324,-0.0013369279766212,0.0013369367139699,-0.0013369392724217,0.0013369249568555,2.0110048488764e-08,-2.0234917178111e-08,-0.001343423756234,0.0013434236399252,-4.9182209343735e-10,3.8883339102446e-10,-0.0015060955816314,0.0015061086388796,-0.0015060952619835,0.0015061088903774,-0.0015061090781784,0.0015060952016506,-0.0015061087430464,0.0015060954691079,-0.0013369518980973,0.0013369125842501,-0.0013369123699472,0.001336952031437,0.66675280831113,131329,3014,0.005582190306538,0.0055821903064888,0.0055821903065866,37.158098697881,5.7264789583052e-05,5.7264789583052e-05,5.7264789583052e-05,2488421.9370319,0.016888772485025
36819200,0.99938423857133,0.016717376723739,0.0055724589079137,0.005572458907875,0.0055724589079507,-0.0013428244328624,0.001342826502401,-1.9175588273941e-08,2.124237467627e-08,-4.5263077505229e-09,6.8590644311134e-09,-0.0015054881828483,0.001505473006827,-0.0015054747267265,0.0015054864688059,-0.0015054845535787,0.0015054767565322,-0.0015054710812032,0.0015054902316452,-0.001336327896751,0.001336294163586,-0.0013362883107716,0.0013363337574295,4.6392854635682e-09,-7.1491871534605e-09,-6.9068832005393e-10,-1.5392713527675e-09,-0.0013428265823702,0.0013428243528708,-0.0015054796519332,0.0015054816688837,-0.0015054799334972,0.0015054813765764,-0.0015054834547981,0.0015054777383502,-0.0015054837224721,0.0015054774616505,-0.0013363136784376,0.0013363083520947,-0.0013363144608109,0.0013363075205426,-0.0013363066876528,0.0013363155737294,-0.0013363180940757,0.0013363037055587,2.0228636763327e-08,-2.0356911535267e-08,-0.0013428255275089,0.001342825407777,-4.3339797369528e-10,3.264002285206e-10,-0.0015054740411992,0.001505487215089,-0.0015054737613555,0.0015054874267698,-0.0015054876174608,0.0015054736983053,-0.0015054873231965,0.0015054739248872,-0.0013363308238405,0.0013362912290887,-0.0013362910583592,0.0013363309133071,0.64957833677608,131329,3014,0.0055797112914183,0.0055797112913685,0.0055797112914648,36.819435843273,5.4555486746184e-05,5.4555486746184e-05,5.4555486746184e-05,2488387.6166422,0.016881208277923
