time,ASR_ext,ASR_strain,ASR_strain_xx,ASR_strain_yy,ASR_strain_zz,disp_x_101,disp_x_102,disp_x_103,disp_x_104,disp_x_105,disp_x_106,disp_x_p1_neg,disp_x_p1_pos,disp_x_p2_neg,disp_x_p2_pos,disp_x_p3_neg,disp_x_p3_pos,disp_x_p4_neg,disp_x_p4_pos,disp_x_p5_neg,disp_x_p5_pos,disp_x_p6_neg,disp_x_p6_pos,disp_y_101,disp_y_102,disp_y_103,disp_y_104,disp_y_105,disp_y_106,disp_y_p1_neg,disp_y_p1_pos,disp_y_p2_neg,disp_y_p2_pos,disp_y_p3_neg,disp_y_p3_pos,disp_y_p4_neg,disp_y_p4_pos,disp_y_p5_neg,disp_y_p5_pos,disp_y_p6_neg,disp_y_p6_pos,disp_y_p7_neg,disp_y_p7_pos,disp_y_p8_neg,disp_y_p8_pos,disp_z_101,disp_z_102,disp_z_103,disp_z_104,disp_z_105,disp_z_106,disp_z_p1_neg,disp_z_p1_pos,disp_z_p2_neg,disp_z_p2_pos,disp_z_p3_neg,disp_z_p3_pos,disp_z_p4_neg,disp_z_p4_pos,disp_z_p5_neg,disp_z_p5_pos,disp_z_p6_neg,disp_z_p6_pos,humidity,ndof,nelem,strain_xx,strain_yy,strain_zz,temp,thermal_strain_xx,thermal_strain_yy,thermal_strain_zz,vonmises,vstrain
2419200,0,0,0,0,0,0,0,0,0,0,0,0,0,0,0,0,0,0,0,0,0,0,0,0,0,0,0,0,0,0,0,0,0,0,0,0,0,0,0,0,0,0,0,0,0,0,0,0,0,0,0,0,0,0,0,0,0,0,0,0,0,0,0,0,0,0,0,0,0,0,0,0,0,0,0
2619200,0.019550192442469,0.00040105108808624,0.00013368369602875,0.00013368369602875,0.00013368369602875,-3.4470997566429e-05,3.4465008146064e-05,-3.0057491515811e-09,-2.9383851156624e-09,8.3779423804825e-09,-1.4725321885916e-08,-3.4035514298377e-05,3.4037131222978e-05,-3.4035498840129e-05,3.4037160697211e-05,-3.4042866896803e-05,3.402942790714e-05,-3.404284374798e-05,3.402944964509e-05,-3.5258747806386e-05,3.5245091028777e-05,-3.5258683272702e-05,3.5245158341629e-05,-8.3772871098439e-09,1.4724146797069e-08,4.7373076237623e-09,1.2063322044336e-09,-3.4465008392568e-05,3.4470997319915e-05,-3.4036401438112e-05,3.4035919402156e-05,-3.4037531961517e-05,3.4034735432802e-05,-3.402905324905e-05,3.4043625983622e-05,-3.4030183795486e-05,3.4042441991572e-05,-3.5243479908013e-05,3.5260534492171e-05,-3.5246897175722e-05,3.5257022071151e-05,-3.5260651894507e-05,3.5242920140672e-05,-3.5238153521194e-05,3.5266062543682e-05,4.8335570489773e-10,4.1629014666957e-10,-3.4467549763774e-05,3.4468455949275e-05,-1.2600963825041e-09,2.2198587760275e-09,-3.4036357000981e-05,3.4036116321283e-05,-3.4035225022144e-05,3.4037292510913e-05,-3.4036357233321e-05,3.4036071866867e-05,-3.403522527231e-05,3.4037248028636e-05,-3.525093224466e-05,3.5252925397112e-05,-3.525093952391e-05,3.5253064088554e-05,0.81992966261385,131329,3014,0.00014360631667613,0.00014360631667614,0.00014360631667615,31.53579396884,1.2286351750716e-05,1.2286351750716e-05,1.2286351750716e-05,452837.90537823,0.00043091198193877
2819200,0.041143138150108,0.00083692696753671,0.0002789756558442,0.00027897565584413,0.00027897565584838,-7.1003821351602e-05,7.1009236241244e-05,2.5686231329956e-09,2.8552627402347e-09,-1.2535986273636e-09,6.7888911281023e-09,-7.1046049810153e-05,7.1048699339926e-05,-7.1045960015874e-05,7.1048803161719e-05,-7.1043501074844e-05,7.1051383635055e-05,-7.104340794264e-05,7.1051479043737e-05,-7.2250722836128e-05,7.2258526112866e-05,-7.2250450404135e-05,7.2258807564187e-05,1.2786675980272e-09,-6.8336565147217e-09,-1.4274431551642e-09,-4.0151793271268e-09,-7.1009245604272e-05,7.1003811988474e-05,-7.1048401708771e-05,7.1046504045952e-05,-7.104922710626e-05,7.1045640351181e-05,-7.1050972736541e-05,7.1043801822083e-05,-7.1051800676379e-05,7.1042935588898e-05,-7.2257412015823e-05,7.2251833108962e-05,-7.2259920846367e-05,7.2249254720755e-05,-7.2253876441058e-05,7.2255460812747e-05,-7.2261738131277e-05,7.2247373967142e-05,2.1430329928425e-10,-6.3083700354639e-11,-7.1006448918039e-05,7.1006608677728e-05,-1.1871160054577e-09,1.3869523042558e-09,-7.1047717720559e-05,7.1047103619726e-05,-7.1046863054491e-05,7.1047964887111e-05,-7.1047805388196e-05,7.1047008888555e-05,-7.1046953061649e-05,7.1047867420105e-05,-7.225424602325e-05,7.2254981914426e-05,-7.2253972072892e-05,7.2255258638004e-05,0.82138489935668,131329,3014,0.00029581669638131,0.00029581669638112,0.00029581669638727,32.737957239822,2.1903657918572e-05,2.1903657918572e-05,2.1903657918572e-05,457946.03871165,0.00088784440105466
3019200,0.062600232319883,0.0012659166714899,0.00042197222382956,0.00042197222382932,0.00042197222383099,-0.00010422714852471,0.00010423422713591,3.2865342017427e-09,3.7857216634673e-09,-5.1923620817004e-09,1.2566216613322e-08,-0.00010478838839318,0.00010478942758048,-0.00010478822536591,0.00010478960110275,-0.00010478277208304,0.00010479534883101,-0.00010478260867015,0.00010479551468073,-0.00010614953797707,0.00010616199800994,-0.00010614905845234,0.00010616248593644,5.2268946016545e-09,-1.2624421643093e-08,-2.6546985120402e-09,-4.4399064693889e-09,-0.0001042342383201,0.00010422713734033,-0.00010478937704594,0.00010478875936822,-0.00010478994447462,0.0001047881654754,-0.00010479502193919,0.00010478281145559,-0.000104795593032,0.00010478221393523,-0.00010616135172623,0.00010615011165537,-0.00010616308538981,0.00010614833058704,-0.00010615102529552,0.00010616073043268,-0.00010616837951259,0.00010614283472332,2.1305141827836e-10,-2.8221867949762e-10,-0.00010423071899087,0.00010423065667331,-9.0716039051248e-10,8.7290066852053e-10,-0.00010478923494084,0.00010478873715293,-0.00010478863042974,0.00010478932336152,-0.00010478940710948,0.00010478858290598,-0.00010478880580567,0.0001047891650348,-0.00010615573233141,0.00010615576888794,-0.00010615521894489,0.0001061562355438,0.82013324295723,131329,3014,0.00043420011697041,0.00043420011697003,0.00043420011697717,32.491844072094,1.9934752576753e-05,1.9934752576753e-05,1.9934752576753e-05,580245.38216227,0.0013034500047666
3219200,0.083823062358544,0.0016789391039251,0.00055964636797321,0.00055964636797291,0.00055964636797902,-0.00013608413226049,0.0001360907401271,2.9438575676132e-09,3.6585701166502e-09,-6.1212371568846e-09,1.308049899333e-08,-0.00013749348078163,0.00013749350249221,-0.00013749324493334,0.00013749374655603,-0.00013748743142339,0.00013749990085437,-0.00013748719605209,0.00013750013871892,-0.00013856962004261,0.00013858187688846,-0.00013856892876173,0.00013858257632192,6.1534430122891e-09,-1.3131157929059e-08,-2.6490681378367e-09,-3.9705379065824e-09,-0.0001360907487418,0.00013608412364546,-0.00013749358232492,0.00013749376144126,-0.0001374940020214,0.00013749332317506,-0.00013749965768349,0.00013748733805053,-0.00013750008073823,0.00013748689646049,-0.0001385815497883,0.00013856985383976,-0.00013858283492436,0.00013856853603988,-0.00013857001469451,0.00013858174267565,-0.00013858876012858,0.00013856236392888,2.6579397908815e-10,-4.443713030926e-10,-0.00013608752248141,0.0001360873499123,-7.3652488349391e-10,5.8400289174489e-10,-0.00013749377124999,0.00013749338958421,-0.00013749331405724,0.00013749381821043,-0.00013749402042672,0.00013749316876165,-0.00013749356607737,0.00013749359355459,-0.00013857594577594,0.00013857551004375,-0.00013857521911749,0.0001385761830839,0.80675913299741,131329,3014,0.00056687013043836,0.00056687013043768,0.00056687013045029,32.204001123007,1.7632008984056e-05,1.7632008984056e-05,1.7632008984056e-05,686000.13215319,0.001702058762377
3419200,0.10478587199246,0.002072343735595,0.00069078124519435,0.00069078124519475,0.0006907812452059,-0.0001663652736503,0.00016637097681162,2.3863483328068e-09,3.3162094872162e-09,-6.131966605997e-09,1.2201556955355e-08,-0.00016904362783897,0.00016904295973982,-0.00016904331947071,0.00016904327460573,-0.00016903787437076,0.0001690490638411,-0.00016903756718654,0.00016904937341067,-0.00016916931860157,0.0001691801772074,-0.00016916841641482,0.00016918108737279,6.1650803353332e-09,-1.2251276770801e-08,-2.3327012128719e-09,-3.3851283393008e-09,-0.00016637098448096,0.00016636526598085,-0.0001690431177275,0.00016904382921014,-0.00016904345240153,0.00016904348136407,-0.00016904889692947,0.00016903769955793,-0.00016904923486355,0.00016903734848684,-0.0001691800848399,0.00016916931398664,-0.00016918111075993,0.00016916826556426,-0.00016916895019264,0.00016918081449302,-0.00016918684438792,0.00016916227339672,3.4704290479807e-10,-5.7838132006093e-10,-0.00016636823814542,0.00016636801232505,-6.332450365966e-10,4.2182705676341e-10,-0.00016904351949061,0.00016904324604067,-0.00016904314746354,0.00016904358386469,-0.00016904384326258,0.00016904295620764,-0.00016904347397044,0.00016904329028543,-0.00016917511948405,0.00016917433185776,-0.00016917418482396,0.00016917521815227,0.78589836315801,131329,3014,0.00069296029555744,0.00069296029555724,0.00069296029557453,31.914522223023,1.5316177784184e-05,1.5316177784184e-05,1.5316177784184e-05,787901.48204659,0.0020810453724835
3619200,0.12600827683278,0.0024580605313614,0.00081935351044842,0.00081935351044934,0.00081935351046365,-0.00019670976331947,0.00019671433878886,1.7282187984255e-09,2.8539937829343e-09,-5.4053321708493e-09,1.0325787695796e-08,-0.00020093727580569,0.00020093627704119,-0.00020093690178099,0.00020093665705867,-0.00020093236975227,0.00020094150740699,-0.00020093199720573,0.00020094188209452,-0.00019966475138084,0.00019967343426577,-0.00019966365756956,0.0001996745358924,5.4741619947161e-09,-1.0436448992692e-08,-1.7695983040984e-09,-2.8517573007742e-09,-0.00019671435836555,0.00019670974374298,-0.00020093644607728,0.00020093744040408,-0.0002009367907415,0.00020093708298699,-0.00020094140796265,0.00020093215238571,-0.00020094175604341,0.00020093179157263,-0.0001996734564985,0.00019966464300406,-0.00019967451311188,0.00019966356567893,-0.00019966397230802,0.00019967446689059,-0.00019967941521523,0.00019965841931718,4.7505803872213e-10,-6.8481598088598e-10,-0.00019671215314831,0.00019671194896947,-6.3878841563621e-10,4.4801050186611e-10,-0.00020093695086068,0.00020093676700112,-0.00020093656725554,0.00020093711456149,-0.00020093735330998,0.00020093639974706,-0.00020093697234164,0.00020093674313614,-0.00019966956250626,0.00019966857700897,-0.00019966840625623,0.00019966970143392,0.77011574952123,131329,3014,0.00081929791712276,0.0008192979171232,0.0008192979171419,31.993830241045,1.5950641928359e-05,1.5950641928359e-05,1.5950641928359e-05,934243.35175225,0.0024609196489443
3819200,0.14783458771149,0.002850098151569,0.0009500327171853,0.00095003271718357,0.00095003271720015,-0.00022799949991574,0.00022800311388982,1.1497276204339e-09,2.4781742070967e-09,-4.8151868590673e-09,8.7522684711325e-09,-0.00023391292973081,0.0002339116186618,-0.00023391248919609,0.00023391206523866,-0.00023390872083852,0.00023391612116681,-0.00023390828049633,0.00023391656341831,-0.00023118971717802,0.0002311965289891,-0.00023118842376658,0.00023119783028836,4.9046161827522e-09,-8.9012470280864e-09,-1.2341203310284e-09,-2.44943145685e-09,-0.0002280031416836,0.0002279994721211,-0.00023391178115084,0.000233913071091,-0.00023391216953108,0.00023391266879624,-0.00023391606813294,0.00023390848812132,-0.00023391645857359,0.00023390808336113,-0.0002311966118906,0.00023118956205769,-0.00023119779621294,0.00023118835426799,-0.00023118857303336,0.0002311979082737,-0.0002312019667729,0.00023118395863927,6.1209801459787e-10,-7.7554122598319e-10,-0.00022800138567301,0.00022800122814225,-6.7925924664775e-10,5.3601536699553e-10,-0.00023391240057715,0.00023391229756647,-0.00023391197479652,0.00023391268718816,-0.00023391288016014,0.00023391185355264,-0.00023391245534267,0.00023391223961969,-0.00023119365855167,0.00023119254026711,-0.00023119228932677,0.00023119389540373,0.77140160605246,131329,3014,0.00094955472501834,0.00094955472501658,0.00094955472503814,32.325074274397,1.8600594195173e-05,1.8600594195173e-05,1.8600594195173e-05,1078895.248407,0.0028527293438153
4019200,0.17025482683088,0.0032494493308737,0.0010831497769549,0.0010831497769497,0.0010831497769691,-0.00025984980670424,0.00025985282279615,7.4244996245005e-10,2.2927362451727e-09,-4.5997236897384e-09,7.9283141606211e-09,-0.00026759981365815,0.00026759817492889,-0.00026759929962298,0.00026759869512668,-0.00026759593684149,0.00026760232570839,-0.00026759542316356,0.00026760284104531,-0.00026337595943392,0.00026338161860224,-0.00026337444991603,0.00026338313604249,4.6765046643596e-09,-8.0603159511489e-09,-8.8473480492696e-10,-2.2015704852978e-09,-0.00025985284827963,0.00025984978121821,-0.0002675983490083,0.0002675999240468,-0.00026759876979189,0.00026759948798951,-0.00026760229692058,0.00026759570076888,-0.00026760271989714,0.00026759526168065,-0.00026338175692235,0.00026337575857655,-0.00026338303992927,0.00026337444905284,-0.00026337446948209,0.00026338333280219,-0.00026338683013881,0.0002633704457732,7.375400453123e-10,-8.5870332882774e-10,-0.0002598513722217,0.00025985125728768,-7.0837402727369e-10,6.0873319988698e-10,-0.00026759907632821,0.00026759905198588,-0.00026759861645268,0.00026759947523098,-0.00026759962638726,0.0002675985386108,-0.00026759916751346,0.00026759895763787,-0.00026337938889236,0.0002633781413586,-0.00026337781967411,0.00026337970722142,0.77299484739943,131329,3014,0.0010821285421011,0.0010821285420958,0.0010821285421195,32.662573238001,2.1300585904009e-05,2.1300585904009e-05,2.1300585904009e-05,1215551.6760119,0.003251666277507
4219200,0.19324277166448,0.0036564333774356,0.0012188111258092,0.0012188111258028,0.0012188111258237,-0.00029227342998184,0.00029227608139192,4.5412663047846e-10,2.220256359354e-09,-4.5271133804114e-09,7.4864483036726e-09,-0.0003020167093368,0.00030201480353696,-0.00030201612351982,0.00030201539558243,-0.00030201299535864,0.00030201877901242,-0.0003020124097301,0.00030201936609147,-0.00029625133864404,0.00029625625595301,-0.00029624961788362,0.00029625798459061,4.603336703997e-09,-7.6131422789048e-09,-6.6416934114503e-10,-2.0564884497782e-09,-0.00029227610441096,0.00029227340695972,-0.00030201499331237,0.0003020167920707,-0.0003020154382637,0.00030201633068895,-0.00030201877705764,0.00030201274549906,-0.0003020192241638,0.00030201228111043,-0.00029625646229506,0.00029625107604309,-0.00029625781824209,0.00029624969151416,-0.00029624955532807,0.00029625825761981,-0.00029626141555815,0.0002962458876752,8.6052214203631e-10,-9.5032990295615e-10,-0.00029227479735665,0.0002922747140262,-7.2952788532828e-10,6.6236939598874e-10,-0.00030201579619939,0.00030201585017207,-0.00030201531106993,0.00030201629766623,-0.00030201641836316,0.0003020152655655,-0.00030201593425229,0.0003020157089226,-0.00029625447394679,0.00029625307234899,-0.00029625269826277,0.00029625485229935,0.77488672715413,131329,3014,0.001217071277483,0.0012170712774766,0.0012170712775016,33.000311370885,2.4002490967084e-05,2.4002490967084e-05,2.4002490967084e-05,1348087.0752576,0.0036578952297034
4419200,0.21716699523073,0.0040774541950995,0.0013591513983643,0.0013591513983565,0.0013591513983787,-0.0003262598598208,0.00032626220347127,1.8454848711157e-10,2.1857450281074e-09,-4.3227818790838e-09,6.9669870112556e-09,-0.00033821209459069,0.00033821004211099,-0.00033821143049009,0.00033821071259539,-0.00033820861297667,0.00033821377308191,-0.00033820794915515,0.00033821443820432,-0.00033081457480707,0.00033081871913964,-0.00033081262452952,0.00033082067724264,4.3859586236907e-09,-7.0708106974076e-09,-4.5808529363478e-10,-1.9488834142268e-09,-0.00032626222163987,0.00032625984164858,-0.00033821024982807,0.00033821214758038,-0.00033821072632862,0.00033821165329218,-0.00033821378987348,0.00033820835744656,-0.00033821426883601,0.00033820785998003,-0.0003308189835954,0.00033081426049803,-0.00033082043569464,0.00033081277759551,-0.00033081262905894,0.00033082087554564,-0.00033082375406216,0.00033080926137174,9.7439298203678e-10,-1.0319346387963e-09,-0.00032626105706627,0.00032626100623491,-7.6556601426318e-10,7.321951667932e-10,-0.00033821107392532,0.0003382111901132,-0.000338210553503,0.00033821167273468,-0.00033821176131479,0.00033821054043799,-0.00033821124233337,0.00033821101885448,-0.00033081738588053,0.00033081585963635,-0.00033081542160146,0.00033081783519022,0.77612067709462,131329,3014,0.0013584989837758,0.0013584989837683,0.0013584989837945,33.594293127576,2.875434502061e-05,2.875434502061e-05,2.875434502061e-05,1484837.3854899,0.0040838236235518
4619200,0.24216461851357,0.0045144631799413,0.0015048210599796,0.0015048210599706,0.0015048210599911,-0.00036167249639917,0.00036167463042226,-8.1447553936076e-11,2.2459138871224e-09,-4.2666228981139e-09,6.6964048467815e-09,-0.00037613921185135,0.00037613694791108,-0.00037613843828437,0.00037613772819314,-0.00037613583312047,0.00037614056826797,-0.00037613506101996,0.00037614134184083,-0.00036692822750219,0.00036693174032132,-0.00036692595933086,0.00036693401735261,4.2144885964381e-09,-6.630018073373e-09,-3.0815421499341e-10,-1.8408638231421e-09,-0.00036167462251221,0.0003616725043052,-0.00037613722063466,0.00037613919083499,-0.00037613770979066,0.00037613868312858,-0.0003761405643302,0.00037613560818333,-0.00037614105736275,0.00037613509616686,-0.00036693207127456,0.0003669278521213,-0.00036693356564278,0.00036692632668831,-0.00036692613581913,0.0003669340343839,-0.00036693667085252,0.00036692303255302,1.0419565865297e-09,-1.0688015473905e-09,-0.00036167357338205,0.00036167355344739,-8.0475804993663e-10,8.0379611685979e-10,-0.0003761380694465,0.00037613821322795,-0.00037613751225545,0.0003761387338187,-0.00037613879048528,0.00037613752940486,-0.00037613823664723,0.00037613804517167,-0.00036693074148878,0.00036692917969505,-0.00036692867532615,0.00036693125982816,0.77693646234451,131329,3014,0.0015058407964362,0.0015058407964278,0.0015058407964526,34.292085230535,3.4336681844282e-05,3.4336681844282e-05,3.4336681844282e-05,1624221.2968053,0.0045277562850773
4819200,0.26820406813189,0.0049665785841674,0.0016555261947218,0.0016555261947116,0.001655526194734,-0.00039824947375855,0.00039825147061027,-2.2057228387402e-10,2.2508064055123e-09,-4.2005215851842e-09,6.4894257750559e-09,-0.00041558510005045,0.00041558273521926,-0.00041558427652197,0.00041558356560133,-0.00041558180451445,0.00041558626424454,-0.00041558098141145,0.00041558708865602,-0.00040434457286548,0.00040434771530336,-0.00040434216099573,0.00040435013634773,4.2220659406046e-09,-6.4943695849414e-09,-2.0925842763599e-10,-1.803785765027e-09,-0.0003982514618368,0.00039824948252858,-0.00041558299870827,0.00041558508215503,-0.00041558350720675,0.0004155845539468,-0.00041558630027476,0.00041558154675062,-0.00041558681193365,0.00041558101529269,-0.00040434811532711,0.00040434413139841,-0.00040434966921174,0.00040434254756563,-0.00040434229739674,0.00040435018796872,-0.00040435271038363,0.00040433932197918,1.1924479105643e-09,-1.2049121454816e-09,-0.00039825047487574,0.00039825046950305,-8.0754510508813e-10,8.2202662360679e-10,-0.00041558385510863,0.00041558409900341,-0.00041558329116432,0.00041558462716016,-0.000415584669473,0.00041558332146801,-0.00041558410759654,0.00041558384529995,-0.00040434703000355,0.00040434521129563,-0.00040434468885149,0.00040434757207149,0.77792179087509,131329,3014,0.0016580048575406,0.0016580048575334,0.0016580048575611,34.992493671162,3.9939949369298e-05,3.9939949369298e-05,3.9939949369298e-05,1763644.930322,0.0049864252399464
5019200,0.29523600733781,0.0054311751792546,0.0018103917264147,0.0018103917264074,0.0018103917264325,-0.00043578011845314,0.00043578204117428,-3.7308047013302e-10,2.3314010981056e-09,-4.1977504109299e-09,6.4103021018916e-09,-0.0004563445319778,0.0004563420421529,-0.00045634363094218,0.00045634295016052,-0.00045634126063771,0.00045634554188325,-0.0004563403600895,0.00045634644347769,-0.00044279908853293,0.00044280190571472,-0.00044279644923987,0.00044280455379906,4.2052270164817e-09,-6.4028680163075e-09,-1.6473415440355e-10,-1.778265571517e-09,-0.00043578203328796,0.0004357801263367,-0.00045634234385665,0.00045634447040879,-0.00045634285845089,0.0004563439361935,-0.00045634561280862,0.00045634097375158,-0.00045634613031267,0.00045634043553416,-0.00044280240663091,0.00044279854928675,-0.00044280397888206,0.00044279694535463,-0.00044279666836274,0.00044280451946538,-0.00044280697953002,0.00044279376454905,1.2945913103888e-09,-1.3003053417114e-09,-0.00043578107911274,0.0004357810805256,-8.1719115450353e-10,8.391069956808e-10,-0.0004563431911934,0.00045634349887512,-0.00045634261882522,0.0004563440363657,-0.00045634407157585,0.00045634265541661,-0.00045634350113067,0.00045634318793465,-0.0004428014714595,0.00044279947424447,-0.00044279893865762,0.00044280203229596,0.77677325761884,131329,3014,0.0018141128337634,0.0018141128337577,0.0018141128337859,35.693002545526,4.5544020364212e-05,4.5544020364212e-05,4.5544020364212e-05,1899600.8195195,0.0054572013343845
5219200,0.32256383484191,0.0058977065152582,0.0019659021717493,0.0019659021717414,0.0019659021717675,-0.00047272670190155,0.00047272868066738,-4.5424276325421e-10,2.4695074220669e-09,-4.523208494453e-09,6.7972941660938e-09,-0.00049676856219645,0.00049676581833194,-0.00049676758802984,0.00049676679923594,-0.00049676505688906,0.00049676955359048,-0.00049676408284784,0.00049677052868157,-0.00048077017093874,0.00048077306716271,-0.00048076731681618,0.00048077592966055,4.5283369374301e-09,-6.7896274352447e-09,-2.2867580444984e-10,-1.77358719408e-09,-0.00047272867395856,0.00047272670860726,-0.0004967661702804,0.00049676845161999,-0.00049676666244607,0.00049676794025732,-0.00049676967253403,0.00049676472023004,-0.0004967701671293,0.00049676420534376,-0.00048077370884514,0.00048076948931338,-0.0004807752147311,0.00048076795293291,-0.00048076746147876,0.00048077597112207,-0.00048077847014786,0.00048076451601746,1.3963598425035e-09,-1.4099447497145e-09,-0.00047272769453894,0.00047272768804052,-7.8832678545195e-10,8.0203708767045e-10,-0.00049676705239408,0.0004967674446827,-0.00049676650191382,0.00049676795972093,-0.00049676800366952,0.0004967665310475,-0.00049676745472546,0.00049676704168968,-0.00048077271133223,0.00048077047692913,-0.00048076997205019,0.00048077324273213,0.77855552324268,131329,3014,0.0019677684685556,0.0019677684685491,0.0019677684685773,36.022699512148,4.8181596097184e-05,4.8181596097184e-05,4.8181596097184e-05,2033202.4670735,0.0059207989889893
5419200,0.34998287044069,0.0063560561970664,0.0021186853990169,0.0021186853990104,0.0021186853990391,-0.00050887330413208,0.00050887535661405,-5.4536992577901e-10,2.6347838686761e-09,-4.7186919511999e-09,7.0732267252494e-09,-0.00053670818488494,0.00053670527286955,-0.00053670712502613,0.00053670633922547,-0.00053670452846548,0.00053670916371307,-0.00053670346889487,0.00053671022451051,-0.00051782332961181,0.00051782620500717,-0.00051782022422843,0.00051782931907975,4.6810948364312e-09,-7.0136411214834e-09,-3.0564353952554e-10,-1.7623572478481e-09,-0.00050887534574091,0.00050887331500256,-0.00053670569567903,0.00053670800709449,-0.00053670615915332,0.00053670752531999,-0.00053670931802413,0.00053670415181199,-0.00053670978395412,0.00053670366662849,-0.00051782699430979,0.00051782249810857,-0.00051782841442729,0.00051782104929954,-0.00051782044666422,0.00051782928559759,-0.00051783182287705,0.00051781745570097,1.4781613197893e-09,-1.5024164596202e-09,-0.00050887433900685,0.00050887432175064,-7.7110332108755e-10,7.7355663274351e-10,-0.00053670656076787,0.00053670701560467,-0.00053670602509564,0.00053670751504271,-0.00053670757045382,0.00053670604442535,-0.0005367070365247,0.00053670653976698,-0.00051782595702356,0.00051782352646321,-0.00051782304713052,0.00051782646229779,0.76958003320882,131329,3014,0.0021180749401558,0.0021180749401503,0.0021180749401792,36.275616161184,5.020492928947e-05,5.020492928947e-05,5.020492928947e-05,2147552.3302408,0.0063745000725032
5619200,0.37741366057317,0.006789751791403,0.0022632505971267,0.0022632505971222,0.0022632505971541,-0.00054317949749466,0.00054318156738807,-6.4000312228511e-10,2.7472261117163e-09,-4.7298007528925e-09,7.1053640625934e-09,-0.00057525295493819,0.00057524997489037,-0.0005752518246557,0.00057525111117185,-0.00057524928645082,0.00057525387989228,-0.00057524815679767,0.00057525501095351,-0.00055242399873794,0.00055242670137219,-0.00055242068981609,0.00055243001960404,4.7014633223886e-09,-7.0531800856605e-09,-3.3829376253998e-10,-1.7460858786701e-09,-0.00054318155582382,0.00054317950905728,-0.00057525044025302,0.00057525273688363,-0.00057525088716085,0.00057525227186657,-0.00057525407699454,0.00057524886388536,-0.00057525452683847,0.00057524839593987,-0.00055242761886331,0.00055242303772729,-0.00055242899182253,0.00055242163872217,-0.00055242100353446,0.00055242989658318,-0.00055243243583188,0.00055241800655769,1.5845796979132e-09,-1.619546507113e-09,-0.00054318054648382,0.00054318051841292,-7.4859830046813e-10,7.3965871365461e-10,-0.00057525125695201,0.00057525179264173,-0.00057525073884436,0.00057525227327961,-0.00057525234021776,0.00057525074832071,-0.00057525182429812,0.00057525122530236,-0.00055242666378305,0.00055242398559092,-0.00055242353552666,0.00055242713871324,0.73637048667088,131329,3014,0.0022607083114741,0.0022607083114707,0.0022607083115029,36.526531758905,5.221225407124e-05,5.221225407124e-05,5.221225407124e-05,2245662.3327523,0.0068052294774722
5819200,0.40477519049359,0.0072023339260066,0.0024007779753269,0.0024007779753234,0.0024007779753564,-0.00057595317572702,0.00057595531223969,-7.132656226366e-10,2.8876095618924e-09,-4.6616750150282e-09,7.1046939168012e-09,-0.00061239660797967,0.0006123936463976,-0.00061239540627559,0.00061239485394008,-0.00061239296404618,0.00061239752819084,-0.00061239176305736,0.00061239873061936,-0.00058505717156562,0.00058505970885966,-0.00058505365332418,0.00058506323654532,4.637399559125e-09,-7.0519588933494e-09,-3.9123887931234e-10,-1.7556893074723e-09,-0.00057595529840274,0.00057595318956199,-0.00061239415254746,0.00061239635032633,-0.00061239458536718,0.00061239589987397,-0.00061239776543033,0.000612392499598,-0.00061239820122037,0.00061239204627239,-0.00058506075027949,0.00058505608576217,-0.00058506208110294,0.00058505472977419,-0.00058505415148031,0.00058506293001698,-0.0005850655172311,0.00058505110414517,1.6865261862827e-09,-1.7345286703103e-09,-0.00057595426455405,0.00057595422342647,-7.3305199470593e-10,7.1055854255663e-10,-0.00061239488252468,0.00061239549226855,-0.00061239437890871,0.00061239595785936,-0.00061239603823967,0.00061239437602599,-0.00061239553683339,0.00061239483800243,-0.00058505987380828,0.00058505695543638,-0.00058505653344107,0.00058506032090415,0.71317583898395,131329,3014,0.0023969512970445,0.0023969512970404,0.0023969512970729,36.777369942485,5.4218959539876e-05,5.4218959539876e-05,5.4218959539876e-05,2363793.0115975,0.007216833962138
6019200,0.43158459805308,0.0075950220883666,0.0025316740294423,0.0025316740294461,0.0025316740294782,-0.0006068895263555,0.00060689171042329,-7.9638977436847e-10,3.0183552127319e-09,-4.6491127251505e-09,7.1393994162485e-09,-0.00064762821616432,0.00064762522436164,-0.00064762694306529,0.00064762650323713,-0.00064762456580854,0.0006476291137648,-0.00064762329341251,0.00064763038762016,-0.0006156960240727,0.00061569840641399,-0.00061569229638112,0.00061570214377679,4.6267466470937e-09,-7.0870992694472e-09,-4.4083880383707e-10,-1.7522139635899e-09,-0.00060689169584338,0.00060688954093724,-0.00064762577444179,0.00064762791556111,-0.00064762618993998,0.00064762748290479,-0.00064762939430237,0.00064762405662251,-0.00064762981267826,0.00064762362110637,-0.00061569957836364,0.00061569480729085,-0.00061570085751177,0.00061569350386514,-0.00061569292947281,0.00061570170245499,-0.00061570431782246,0.00061568985350011,1.7889348261514e-09,-1.8488094846393e-09,-0.00060689064491606,0.00060689059187966,-7.1218298497514e-10,6.7737212968758e-10,-0.00064762643675026,0.00064762712476562,-0.00064762595123619,0.00064762757254818,-0.00064762766450581,0.00064762593624122,-0.00064762718111057,0.00064762638042473,-0.00061569876974533,0.00061569560935796,-0.00061569521771881,0.0006156991872348,0.7026152324322,131329,3014,0.0025255392991263,0.0025255392991301,0.0025255392991612,36.775485138799,5.4203881110394e-05,5.4203881110394e-05,5.4203881110394e-05,2446205.3522589,0.0076054683928773
6219200,0.45777446202985,0.00797908958535,0.0026596965284359,0.0026596965284413,0.0026596965284728,-0.00063725307941603,0.00063725529192696,-8.8947283789183e-10,3.1398873756842e-09,-4.5923286012194e-09,7.1099629275425e-09,-0.00068215949223468,0.0006821564864984,-0.00068215814770273,0.00068215783711173,-0.00068215587175616,0.00068216034739021,-0.00068215452764552,0.00068216169270787,-0.00064598707402728,0.00064598924566098,-0.00064598313621774,0.00064599319335173,4.5707717825254e-09,-7.0579936407034e-09,-4.7296536222181e-10,-1.7480365605883e-09,-0.00063725527710431,0.00063725309424136,-0.00068215707836843,0.00068215915058765,-0.00068215748238877,0.00068215873040618,-0.00068216066902315,0.00068215532035976,-0.00068216107531743,0.00068215489672071,-0.00064599054041509,0.0006459857342446,-0.00064599178417899,0.00064598446667829,-0.00064598392425451,0.00064599259743961,-0.00064599522770039,0.00064598083248839,1.8924460728362e-09,-1.9612126916809e-09,-0.00063725421664638,0.0006372541547138,-6.9840481472702e-10,6.5441579757601e-10,-0.00068215766843639,0.00068215843177509,-0.00068215719563483,0.00068215886792317,-0.00068215896801331,0.00068215717121525,-0.00068215849687788,0.00068215760331794,-0.00064598983008961,0.00064598643722109,-0.00064598606803858,0.00064599022777563,0.70745491798587,131329,3014,0.0026517307558354,0.002651730755841,0.0026517307558709,36.758773860672,5.4070190885377e-05,5.4070190885377e-05,5.4070190885377e-05,2456203.7420141,0.0079870084805895
6419200,0.48330696193881,0.0083505880253054,0.002783529341754,0.0027835293417604,0.002783529341791,-0.0006667182932176,0.00066672051041144,-9.942233428064e-10,3.2497559783621e-09,-4.5416816231557e-09,7.0638585769693e-09,-0.00071583124648394,0.00071582820492808,-0.00071582983052879,0.00071582962728084,-0.00071582765793557,0.00071583203393776,-0.00071582624214417,0.00071583345076677,-0.00067533327251627,0.00067533520731269,-0.00067532912460425,0.00067533936536942,4.5208384588976e-09,-7.0122046441361e-09,-4.8884349620489e-10,-1.7368844276694e-09,-0.00066672049539952,0.00066671830823263,-0.00071582883655885,0.00071583086468956,-0.00071582923196697,0.00071583045380841,-0.00071583239593872,0.00071582706641658,-0.00071583279313394,0.00071582665162053,-0.00067533662029076,0.00067533181417642,-0.00067533783767949,0.00067533057328536,-0.00067533004930905,0.00067533863313555,-0.0006753412577678,0.00067532696195315,1.9980405104104e-09,-2.0714950628066e-09,-0.00066671943511635,0.00066671936853025,-6.8712080398992e-10,6.3825109988172e-10,-0.00071582936647698,0.00071583020634234,-0.00071582890331363,0.00071583063390575,-0.00071583073772534,0.00071582887361396,-0.00071583027592227,0.00071582929685579,-0.00067533602204743,0.00067533240399909,-0.00067533205036186,0.00067533640753091,0.70210892760268,131329,3014,0.0027741740929839,0.0027741740929903,0.0027741740930201,36.741614665554,5.3932917324431e-05,5.3932917324431e-05,5.3932917324431e-05,2460652.8425049,0.0083573563673669
6619200,0.50855766652993,0.0087414499914265,0.0029138166637941,0.0029138166638009,0.0029138166638315,-0.00069778760637138,0.00069778981845338,-1.1126872674619e-09,3.3634150943894e-09,-4.4171595659544e-09,6.933162151773e-09,-0.0007510422946586,0.00075103925417348,-0.00075104080040434,0.0007510407549278,-0.00075103878894667,0.00075104299961391,-0.00075103729702971,0.00075104449258181,-0.00070698490539263,0.00070698652648309,-0.00070698053344839,0.00070699090869728,4.3885340887689e-09,-6.8728530351421e-09,-4.8360275418992e-10,-1.7365235030654e-09,-0.00069778980303544,0.00069778762179351,-0.00075103992649688,0.00075104187130003,-0.00075104032264383,0.00075104145991631,-0.00075104339557257,0.00075103816424107,-0.00075104379563725,0.00075103774663689,-0.00070698804416555,0.00070698334208788,-0.00070698926976564,0.00070698209321723,-0.00070698165470094,0.00070698997952612,-0.00070699259940797,0.0007069785725761,2.0960446540099e-09,-2.1721443610396e-09,-0.00069778874703009,0.00069778867781366,-6.973614861147e-10,6.4580817228305e-10,-0.00075104038662027,0.00075104128324417,-0.00075103991691903,0.00075104171829113,-0.00075104182268399,0.00075103988486251,-0.00075104135651804,0.00075104031332693,-0.0007069875950821,0.0007069837825924,-0.00070698342630759,0.00070698798451808,0.74070666123505,131329,3014,0.0029032678658842,0.0029032678658929,0.0029032678659235,37.008795645938,5.6070365167501e-05,5.6070365167501e-05,5.6070365167501e-05,2415189.7430391,0.0087479678660935
6819200,0.53462303540691,0.009179176109589,0.0030597253698488,0.0030597253698546,0.0030597253698855,-0.00073333677163599,0.00073333896020817,-1.2305180855466e-09,3.4576883888755e-09,-4.1133597390659e-09,6.6025517644875e-09,-0.00079049876649512,0.00079049584313384,-0.00079049720152449,0.00079049741452711,-0.0007904954698916,0.00079049937729477,-0.00079049390652569,0.00079050094184045,-0.0007440304179143,0.00074403159543224,-0.00074402583722624,0.0007440361856623,4.0872306130614e-09,-6.5438928592875e-09,-4.2106169489423e-10,-1.7746751424215e-09,-0.00073333894432847,0.0007333367875251,-0.00079049653180701,0.0007904983246658,-0.00079049696158108,0.00079049787943568,-0.0007904997935899,0.00079049482703705,-0.00079050022657211,0.00079049437654479,-0.00074403316774248,0.00074402879861273,-0.00074403449168391,0.00074402745157854,-0.00074402725806481,0.00074403495494048,-0.00074403758427161,0.00074402417019779,2.2067721240676e-09,-2.2812341493038e-09,-0.00073333789972651,0.00073333783214025,-7.4503889933775e-10,6.9547212868621e-10,-0.00079049689535594,0.00079049783412405,-0.00079049639393133,0.00079049830199488,-0.00079049840418757,0.00079049636196292,-0.00079049790552311,0.00079049682414974,-0.00074403297629674,0.00074402898303025,-0.00074402859284137,0.00074403339948308,0.79221450471123,131329,3014,0.0030509548936405,0.0030509548936601,0.0030509548936873,38.07335150147,6.458681201176e-05,6.458681201176e-05,6.458681201176e-05,2437870.0992464,0.0091950232032751
7019200,0.56140472884819,0.00959513868481,0.0031983795615928,0.0031983795615919,0.0031983795616253,-0.00076810816739661,0.00076811032001112,-1.3537181131644e-09,3.5446584710286e-09,-3.8688618384265e-09,6.3183881802253e-09,-0.00082955612437206,0.00082955327059714,-0.00082955448941994,0.00082955491212135,-0.00082955300159197,0.00082955662860231,-0.00082955136795543,0.00082955826346857,-0.00077936466946503,0.00077936542829661,-0.00077935988243733,0.00077937022497651,3.8469238760454e-09,-6.2632104182632e-09,-3.5495732472202e-10,-1.8038122184534e-09,-0.00076811030374946,0.00076810818366517,-0.00082955397571745,0.00082955566377223,-0.00082955443725069,0.00082955518676173,-0.00082955706639995,0.0008295523397662,-0.00082955753077899,0.00082955185761383,-0.00077936705904828,0.00077936299329487,-0.00077936847520037,0.00077936155312429,-0.00077936155249074,0.0007793687436587,-0.00077937136741585,0.00077935847395867,2.3197689805029e-09,-2.389939996856e-09,-0.00076810927534714,0.00076810921208384,-7.8820105488117e-10,7.4338372512277e-10,-0.00082955426357924,0.00082955525005011,-0.00082955373227608,0.00082955574869832,-0.00082955584596101,0.000829553703643,-0.00082955531710369,0.00082955419677249,-0.00077936710947288,0.00077936293459606,-0.00077936250970658,0.00077936756778176,0.73335806895718,131329,3014,0.0031953905115155,0.0031953905115297,0.0031953905115635,39.157503753921,7.326003003137e-05,7.326003003137e-05,7.326003003137e-05,2422503.0061455,0.0096324313544867
7219200,0.58874745345126,0.01000278068626,0.0033342602287477,0.0033342602287392,0.0033342602287728,-0.00080254645770093,0.00080254856595656,-1.4838818748685e-09,3.6304138251732e-09,-3.6694390384503e-09,6.0709643080606e-09,-0.00086834826265788,0.00086834544121964,-0.00086834655610574,0.00086834715493146,-0.00086834528673809,0.00086834864976368,-0.00086834358129364,0.00086835035672282,-0.00081392558527367,0.00081392593965463,-0.00081392058746151,0.00081393094833392,3.6478276946164e-09,-6.0153192728532e-09,-2.8865553180979e-10,-1.8248812438224e-09,-0.00080254854944616,0.00080254647418757,-0.00086834616653181,0.00086834777943415,-0.00086834665732858,0.00086834727347884,-0.00086834911060814,0.00086834460505673,-0.00086834960389742,0.00086834409371889,-0.00081392763365484,0.00081392384748751,-0.00081392913534709,0.00081392232183234,-0.0008139224763751,0.00081392924579287,-0.00081393185353487,0.00081391941820651,2.4307455000994e-09,-2.4948998792271e-09,-0.00080254754022074,0.00080254748343266,-8.2832175826534e-10,7.9006664381518e-10,-0.0008683463925277,0.00086834742895851,-0.00086834583239646,0.00086834795667253,-0.0008683480471006,0.00086834581052035,-0.00086834748919769,0.00086834633261949,-0.00081392791151608,0.00081392356046019,-0.00081392310036358,0.00081392840518883,0.7071884811182,131329,3014,0.0033384216706922,0.0033384216706429,0.0033384216706836,40.24240741947,8.1939259355762e-05,8.1939259355762e-05,8.1939259355762e-05,2435083.6746153,0.010065775035419
7419200,0.61565551629865,0.010388710503713,0.0034629035012135,0.0034629035012322,0.0034629035012671,-0.0008343761676259,0.00083437823982219,-1.5681139217843e-09,3.6788720159558e-09,-3.6567320242291e-09,6.020658064323e-09,-0.00090448713556642,0.00090448425757367,-0.00090448538843399,0.00090448601207967,-0.00090448418285068,0.0009044874413161,-0.00090448242820203,0.00090448919711244,-0.0008454770840472,0.00084547724027724,-0.00084547194421985,0.00084548239034955,3.6858071536711e-09,-6.0182297831046e-09,-2.4580529181293e-10,-1.8341066214351e-09,-0.00083437822436967,0.0008343761830768,-0.00090448497580857,0.00090448665766493,-0.00090448548787319,0.00090448613057917,-0.00090448793916733,0.00090448346615673,-0.00090448844491718,0.00090448294154829,-0.0008454790046504,0.00084547527694017,-0.00084548054420217,0.0008454737116518,-0.00084547385266541,0.00084548066791362,-0.00084548325838245,0.00084547081338101,2.5830718622512e-09,-2.6419088285282e-09,-0.00083437722949154,0.00083437717797263,-8.1529044664238e-10,7.8251425574133e-10,-0.00090448517912829,0.00090448633067883,-0.00090448463004699,0.00090448684789184,-0.00090448693702958,0.00090448460891762,-0.00090448638149429,0.00090448512849932,-0.00084547945229077,0.00084547481823058,-0.00084547436068588,0.00084547994518707,0.68501443827246,131329,3014,0.0034706003973024,0.0034706003972991,0.0034706003973358,40.770631481423,8.6165051851388e-05,8.6165051851388e-05,8.6165051851388e-05,2485569.3919742,0.010466407003942
7619200,0.64138843879703,0.010748291199531,0.0035827637331438,0.0035827637331758,0.0035827637332115,-0.00086334693702529,0.00086334899310616,-1.6958374441537e-09,3.7899803191146e-09,-3.8502084421867e-09,6.1976918916493e-09,-0.00093774726004208,0.00093774416433227,-0.00093774543355322,0.00093774599650617,-0.00093774418138063,0.00093774747095643,-0.00093774235309102,0.00093774930211182,-0.00087398058816007,0.00087398062416549,-0.00087397521921387,0.0008739860012219,3.8640867330099e-09,-6.1817601972763e-09,-2.6553964977869e-10,-1.7994584883618e-09,-0.00086334897849111,0.00086334695164704,-0.00093774493472872,0.00093774672978258,-0.00093774542595445,0.00093774621942015,-0.00093774801159773,0.00093774342218444,-0.00093774850457845,0.00093774291434452,-0.00087398252361102,0.00087397864801332,-0.00087398401191918,0.00087397712877261,-0.00087397710974931,0.00087398429950109,-0.00087398685459835,0.00087397410286885,2.6808625927233e-09,-2.7372315434847e-09,-0.00086334798960219,0.00086334794055436,-7.9684458776835e-10,7.6652862665015e-10,-0.000937745154232,0.00093774638662627,-0.00093774461445458,0.00093774689144177,-0.00093774697649498,0.00093774459824867,-0.00093774643695605,0.00093774510410167,-0.00087398299713115,0.00087397815937898,-0.00087397771172636,0.00087398348233894,0.67223241029066,131329,3014,0.0035908921102746,0.0035908921102886,0.0035908921103267,40.851695039662,8.6813560317296e-05,8.6813560317296e-05,8.6813560317296e-05,2535962.361299,0.010831151514122
7819200,0.66591201569372,0.01108651798104,0.0036955059936432,0.0036955059936803,0.0036955059937167,-0.00089069635824595,0.00089069841480155,-1.805030532821e-09,3.8993796938623e-09,-4.0434497467387e-09,6.3920285298573e-09,-0.00096961283398163,0.00096960953631834,-0.00096961093448669,0.00096961144106099,-0.00096960962492797,0.0009696129721335,-0.00096960772487533,0.00096961487550493,-0.00090084402270732,0.00090084397618526,-0.00090083844140567,0.00090084956576976,4.0551063300098e-09,-6.3749603749027e-09,-2.9200085008871e-10,-1.7742539537062e-09,-0.00089069840071697,0.00089069637233919,-0.00096961035231048,0.00096961225766844,-0.00096961082562725,0.00096961176415116,-0.00096961355760389,0.00096960882135105,-0.00096961403456974,0.00096960833065473,-0.0009008460064643,0.00090084195186235,-0.00090084744541503,0.00090084048233487,-0.00090084030548331,0.00090084788987487,-0.000900850429543,0.00090083731534013,2.787715233272e-09,-2.8436476665452e-09,-0.00089069741083971,0.00089069736223534,-7.7205850534851e-10,7.4204926793364e-10,-0.00096961058291939,0.00096961190364378,-0.00096961005879161,0.00096961239158702,-0.00096961247624384,0.00096961004395477,-0.00096961195388621,0.00096961053287177,-0.00090084650408045,0.0009008414400164,-0.00090084100728801,0.00090084697243898,0.66655083550876,131329,3014,0.0037044398732403,0.0037044398732583,0.0037044398732974,40.921592841388,8.7372742731107e-05,8.7372742731107e-05,8.7372742731107e-05,2549054.813182,0.011175572374348
8019200,0.68921925572853,0.011404790671955,0.0038015968906128,0.0038015968906525,0.0038015968906893,-0.00091649877537113,0.00091650084325244,-1.9081756060157e-09,4.0134296055981e-09,-4.2085282607328e-09,6.5692022570568e-09,-0.00099998953471357,0.00099998606161251,-0.0009999875626966,0.00099998803853831,-0.00099998621073357,0.00099998961162783,-0.00099998423896347,0.00099999158705108,-0.00092620955867419,0.00092620942554409,-0.00092620376549434,0.00092621522698001,4.2189256815359e-09,-6.5517167867627e-09,-3.2365058062983e-10,-1.7543231206932e-09,-0.00091650082957668,0.00091649878905659,-0.00099998692275083,0.00099998891300866,-0.00099998737849759,0.00099998843639879,-0.00099999024185176,0.00099998536254882,-0.00099999070248583,0.00099998488906247,-0.00092621158684878,0.00092620735687321,-0.00092621297576121,0.00092620593739153,-0.00092620562794016,0.00092621355267913,-0.00092621608728033,0.00092620264306131,2.8944389980813e-09,-2.9515082588605e-09,-0.00091649983420173,0.00091649978445077,-7.4757829237868e-10,7.1622808281194e-10,-0.00099998715217257,0.00099998856030166,-0.00099998664427855,0.00099998903111436,-0.0009999891170526,0.00099998662897656,-0.00099998861188515,0.0009999871007839,-0.00092621211152682,0.00092620681868156,-0.00092620640290329,0.00092621256111627,0.6609724920501,131329,3014,0.0038115542492087,0.0038115542492289,0.0038115542492687,40.991060312462,8.7928482499693e-05,8.7928482499693e-05,8.7928482499693e-05,2552006.9762999,0.011500590056775
8219200,0.71145420025965,0.011705798827593,0.0039019329424911,0.0039019329425321,0.0039019329425694,-0.00094116768972223,0.00094116977118649,-2.0100006681534e-09,4.1283843181929e-09,-4.2942843211499e-09,6.6689814887227e-09,-0.0010292009721833,0.0010291973784015,-0.0010291989278406,0.0010291994275251,-0.0010291975855163,0.0010292009905431,-0.0010291955417735,0.0010292030380523,-0.00095049087390076,0.00095049060434881,-0.00095048486911755,0.00095049661734471,4.3037616028306e-09,-6.6512313827649e-09,-3.4726661323874e-10,-1.7444722825282e-09,-0.00094116975782801,0.00094116770309113,-0.001029198281431,0.0010292003081175,-0.0010291987259729,0.0010291998426038,-0.0010292016626281,0.0010291966958174,-0.0010292021125173,0.0010291962334227,-0.00095049288769769,0.0009504885500551,-0.00095049424422976,0.00095048716296761,-0.00095048678559829,0.00095049488889471,-0.00095049742670126,0.00095048379782054,3.0010776259327e-09,-3.0597821420206e-09,-0.00094116875616797,0.00094116870477063,-7.3220042610311e-10,6.9904748099107e-10,-0.0010291984887187,0.001029199977791,-0.0010291979914149,0.0010292004375904,-0.001029200525353,0.0010291979749015,-0.0010292000311241,0.0010291984355792,-0.00095049347074997,0.0009504879543394,-0.00095048754996898,0.0009504939068582,0.65549139622092,131329,3014,0.0039139531747053,0.003913953174727,0.0039139531747673,41.181411295993,8.9451290367942e-05,8.9451290367942e-05,8.9451290367942e-05,2554317.1932172,0.011811399501783
8419200,0.73266829343971,0.011992456914448,0.0039974856381089,0.0039974856381508,0.0039974856381884,-0.00096473041832622,0.00096473251157559,-2.1125236694108e-09,4.242282150957e-09,-4.3205172800158e-09,6.7070719969662e-09,-0.0010571666852682,0.0010571630097175,-0.0010571645688479,0.0010571651309445,-0.0010571632763001,0.0010571666435976,-0.0010571611604186,0.0010571687631962,-0.00097376405785473,0.00097376360978326,-0.00097375784159843,0.00097376983423933,4.3293383326446e-09,-6.6891765053082e-09,-3.6433738597135e-10,-1.7392728204173e-09,-0.00096473249846406,0.00096473043144885,-0.001057163952429,0.0010571659807781,-0.0010571643897799,0.001057165522727,-0.0010571673558582,0.0010571623470421,-0.0010571677983727,0.0010571618919736,-0.00097376600971782,0.00097376161742435,-0.00097376734472982,0.00097376025194643,-0.00097375985118665,0.00097376801241171,-0.00097377055528654,0.00097375685895716,3.1077977089133e-09,-3.1682469440542e-09,-0.00096473149154305,0.00096473143838943,-7.2231751790153e-10,6.8728181910043e-10,-0.0010571641221024,0.0010571656884528,-0.001057163632017,0.001057166140958,-0.0010571662307147,0.0010571636139376,-0.0010571657435399,0.0010571640672042,-0.00097376667593331,0.0009737609394484,-0.00097376054294089,0.00097376710206617,0.65380935133617,131329,3014,0.0040117512055408,0.0040117512055639,0.0040117512056044,41.430697791277,9.1445582330215e-05,9.1445582330215e-05,9.1445582330215e-05,2555355.8850143,0.012108335223582
8619200,0.75284607323022,0.012264878319899,0.0040882927732585,0.004088292773301,0.0040882927733391,-0.00098707305491709,0.00098707515761814,-2.2160737873493e-09,4.3549512398466e-09,-4.3218760753878e-09,6.7178729147114e-09,-0.0010836764568884,0.0010836727146647,-0.0010836742684746,0.0010836749079558,-0.0010836730430152,0.0010836763528988,-0.001083670854955,0.0010836785445797,-0.00099588935877001,0.00099588871256058,-0.00099588293111106,0.00099589514841533,4.3302134641838e-09,-6.6998979314911e-09,-3.7874766226155e-10,-1.7343757533686e-09,-0.00098707514470062,0.00098707306784661,-0.0010836736964406,0.0010836757125318,-0.0010836741276513,0.0010836752609908,-0.0010836771048528,0.001083672074741,-0.0010836775408597,0.0010836716260189,-0.00099589122769378,0.00099588680315845,-0.00099589254403209,0.00099588545649879,-0.00099588504874096,0.00099589321814181,-0.00099589576485027,0.00099588205360536,3.2145392330918e-09,-3.2768194422977e-09,-0.00098707413378312,0.00098707407878393,-7.1387678492189e-10,6.7688299936547e-10,-0.0010836738220643,0.0010836754646756,-0.0010836733383192,0.001083675910852,-0.0010836760027091,0.001083673318513,-0.0010836755215721,0.0010836737653518,-0.00099589198783623,0.0009958860320991,-0.00099588564272359,0.00099589240490396,0.65260875471439,131329,3014,0.0041044766757731,0.0041044766757981,0.0041044766758392,41.681472701182,9.3451781609458e-05,9.3451781609458e-05,9.3451781609458e-05,2556243.2528461,0.01238995191902
8819200,0.77197866102431,0.012513021023611,0.0041710070078292,0.0041710070078718,0.0041710070079103,-0.0010077144937432,0.0010077166033004,-2.3208324325446e-09,4.4663076920423e-09,-4.3089787963026e-09,6.7116135142848e-09,-0.0011083528904033,0.0011083490893882,-0.0011083506300154,0.0011083513547118,-0.0011083494820839,0.0011083527214314,-0.0011083472218983,0.0011083549851553,-0.0010161000767986,0.0010160992195627,-0.0010160934378353,0.0010161058667582,4.3169067455201e-09,-6.6935311285679e-09,-3.9071251256068e-10,-1.7293049228499e-09,-0.001007716590532,0.0010077145065235,-0.0011083501097522,0.0011083521065992,-0.0011083505355587,0.0011083516608024,-0.0011083535126767,0.0011083484752503,-0.0011083539429707,0.0011083480321256,-0.0010161018487448,0.0010160974072307,-0.0010161031486355,0.0010160960771966,-0.0010160956712956,0.0010161038202087,-0.0010161063687618,0.0010160926753514,3.3212680872456e-09,-3.3854062247519e-09,-0.0010077155769708,0.0010077155201048,-7.0656062388147e-10,6.675827818925e-10,-0.0011083501882262,0.0011083519063468,-0.0011083497100573,0.0011083523469347,-0.0011083524408799,0.0011083496885168,-0.0011083519650691,0.0011083501296792,-0.0010161027100022,0.0010160965357629,-0.0010160961529306,0.0010161031188503,0.62941992802246,131329,3014,0.0041901342712745,0.0041901342712993,0.0041901342713407,41.932305126822,9.5458441014579e-05,9.5458441014579e-05,9.5458441014579e-05,2582325.0743495,0.012650176068646
9019200,0.78966542882069,0.012742576283982,0.0042475254279524,0.0042475254279955,0.0042475254280343,-0.0010259485952069,0.0010259507160998,-2.4231934171633e-09,4.5797100833241e-09,-4.3666349930925e-09,6.7810174247194e-09,-0.0011303216926823,0.0011303177887077,-0.0011303193605031,0.0011303201258487,-0.001130318241541,0.001130321463254,-0.0011303159092457,0.0011303237990133,-0.001033998371461,0.0010339973563254,-0.001033991521161,0.0010340042148937,4.3744067712021e-09,-6.7630219769551e-09,-4.2813828081922e-10,-1.7031588848597e-09,-0.0010259507034496,0.0010259486078693,-0.0011303188553043,0.0011303208620771,-0.0011303192603456,0.0011303204374524,-0.0011303223014171,0.0011303171881304,-0.0011303227104699,0.0011303167662382,-0.0010340001225002,0.0010339955648107,-0.0010340013601044,0.001033994297436,-0.0010339938198387,0.0010340021029469,-0.0010340046421901,0.001033990833666,3.4271477274894e-09,-3.4951275520171e-09,-0.0010259496860353,0.0010259496253037,-6.7704923322832e-10,6.3387910491375e-10,-0.0011303188942694,0.0011303207016574,-0.0011303184372858,0.0011303211209776,-0.001130321219126,0.0011303184120014,-0.0011303207640817,0.0011303188320137,-0.0010340010440362,0.0010339946338453,-0.0010339942751447,0.0010340014271649,0.62977530206555,131329,3014,0.0042657967148815,0.004265796714907,0.0042657967149488,41.75012542501,9.4001003400083e-05,9.4001003400083e-05,9.4001003400083e-05,2590097.9079164,0.012880094190133
9219200,0.80589986736383,0.012950884470056,0.0043169614899766,0.00431696149002,0.0043169614900592,-0.0010422651401665,0.0010422672731762,-2.5170410293008e-09,4.6854480460725e-09,-4.4133001827088e-09,6.840251164934e-09,-0.0011500939277551,0.0011500899379577,-0.0011500915332179,0.0011500923373969,-0.0011500904451076,0.0011500936438055,-0.0011500880415988,0.0011500960506842,-0.0010499498858387,0.0010499487089612,-0.0010499428267202,0.0010499557759374,4.4341408979212e-09,-6.8360870226218e-09,-4.6550849823299e-10,-1.6783086169789e-09,-0.0010422672608641,0.0010422651524936,-0.001150091039679,0.0011500930614927,-0.0011500914286846,0.0011500926534648,-0.0011500945348038,0.0011500893391078,-0.0011500949186409,0.0011500889422968,-0.0010499516210738,0.0010499469328977,-0.0010499527846488,0.0010499457393532,-0.0010499451903996,0.0010499535990297,-0.0010499561300874,0.0010499422118389,3.5403882210407e-09,-3.6134577250234e-09,-0.0010422662395963,0.001042266173777,-6.4305360950658e-10,5.9434758785387e-10,-0.0011500910359261,0.0011500929441464,-0.0011500906076793,0.0011500933345169,-0.0011500934423691,0.0011500905732259,-0.0011500930071728,0.0011500909730855,-0.0010499525991191,0.00104994594576,-0.0010499456163578,0.0010499529522985,0.62300580354144,131329,3014,0.004333498171869,0.0043334981719003,0.0043334981719324,41.452348712137,9.1618789697097e-05,9.1618789697097e-05,9.1618789697097e-05,2596072.0304446,0.013085868081911
9419200,0.82079111249832,0.013139789866981,0.004379929955617,0.0043799299556584,0.0043799299557054,-0.0010570082069506,0.0010570103506189,-2.6251468085376e-09,4.8040149780812e-09,-4.4436927036499e-09,6.8817097059041e-09,-0.0011680051987377,0.0011680011177946,-0.0011680027258695,0.0011680035955572,-0.0011680016890629,0.0011680048505083,-0.0011679992137981,0.0011680073291488,-0.00106426761628,0.0010642662620441,-0.0010642603453042,0.0010642735409275,4.4552970178694e-09,-6.8683735146722e-09,-5.0183839235852e-10,-1.6525769166788e-09,-0.0010570103383753,0.0010570082192034,-0.0011680022730111,0.0011680042786672,-0.0011680026385341,0.0011680038944106,-0.0011680057834127,0.0011680005411421,-0.0011680061503708,0.0011680001615807,-0.0010642693026852,0.0010642645352045,-0.0010642704153446,0.0010642633924763,-0.0010642627963457,0.0010642712772494,-0.0010642737984844,0.0010642598274755,3.6400188672752e-09,-3.7182050251829e-09,-0.0010570093142847,0.0010570092433188,-6.1894050992463e-10,5.6476871930624e-10,-0.0011680022220817,0.0011680042087085,-0.0011680018086011,0.0011680045841939,-0.0011680046940444,0.0011680017725355,-0.0011680042800998,0.0011680021508523,-0.0010642703576005,0.0010642634710022,-0.0010642631643317,0.0010642706874295,0.61620824149295,131329,3014,0.0043946672843741,0.0043946672843932,0.0043946672844446,41.15158386994,8.9212670959518e-05,8.9212670959518e-05,8.9212670959518e-05,2603418.6802998,0.01327182509216
9619200,0.83444537934617,0.013310978579134,0.0044369928596673,0.0044369928597099,0.0044369928597571,-0.0010703274891871,0.0010703296414302,-2.7284650070316e-09,4.9157385223272e-09,-4.450338448627e-09,6.8970519774435e-09,-0.0011842397598035,0.0011842356090489,-0.0011842372158831,0.0011842381578665,-0.0011842362431882,0.0011842393485316,-0.0011842336956118,0.0011842418994237,-0.0010771530102012,0.0010771514598739,-0.0010771455274478,0.0010771589505561,4.462194269999e-09,-6.8841912201672e-09,-5.3080233591044e-10,-1.6322363820718e-09,-0.001070329629301,0.0010703275013259,-0.001184236807384,0.0011842387961666,-0.0011842371574658,0.0011842384278364,-0.0011842403263642,0.0011842350504659,-0.0011842406764607,0.0011842346878702,-0.0010771546314114,0.0010771497980871,-0.0010771556946426,0.001077148705242,-0.0010771480778052,0.0010771565874453,-0.0010771591012378,0.0010771451167397,3.7453679208162e-09,-3.828768661922e-09,-0.0010703286034247,0.001070328527224,-5.9705848465548e-10,5.3731304094072e-10,-0.0011842367062035,0.0011842387767456,-0.0011842363097581,0.0011842391351342,-0.0011842392509689,0.0011842362681127,-0.0011842388526854,0.0011842366304144,-0.0010771557695947,0.0010771486511252,-0.0010771483657115,0.0010771560773072,0.60938040662526,131329,3014,0.0044499263022676,0.0044499263022876,0.0044499263023327,40.850703077205,8.6805624617644e-05,8.6805624617644e-05,8.6805624617644e-05,2610539.8507469,0.013439846309968
9819200,0.84672786836246,0.013465940074702,0.0044886466915225,0.0044886466915659,0.0044886466916134,-0.0010815513611378,0.0010815535276085,-2.8804625721398e-09,5.0815668489738e-09,-4.5763369184602e-09,7.037831883714e-09,-0.0011980589117987,0.0011980545447856,-0.0011980562231978,0.0011980572389477,-0.0011980552693522,0.0011980584108785,-0.0011980526573268,0.0011980610262918,-0.0010880101145757,0.0010880084754204,-0.001088002440835,0.0010880161627182,4.457126236284e-09,-6.8886109919881e-09,-5.9271132996129e-10,-1.5803359680108e-09,-0.0010815535133678,0.0010815513753431,-0.0011980558951026,0.0011980577982615,-0.0011980561671899,0.0011980575056769,-0.0011980593745104,0.0011980540878125,-0.0011980597305091,0.0011980537239937,-0.0010880116982682,0.0010880068559129,-0.0010880127674453,0.0010880057631025,-0.001088005072824,0.0010880137218854,-0.0010880162114204,0.0010880021408421,3.8001178460083e-09,-3.8871624139153e-09,-0.0010815524847087,0.0010815524040817,-5.7814220959353e-10,5.1460932250903e-10,-0.001198055745978,0.001198057825119,-0.001198055324759,0.0011980582095641,-0.0011980582897181,0.0011980553183926,-0.0011980579457342,0.0011980556245727,-0.0010880129548315,0.0010880055896913,-0.0010880053209367,0.0010880132428293,0.61213711223102,131329,3014,0.0044964901315615,0.0044964901314875,0.004496490131653,40.184609601752,8.1476876814019e-05,8.1476876814019e-05,8.1476876814019e-05,2608435.1955873,0.013581452128739
10019200,0.85776777716565,0.013606338806017,0.0045354462686375,0.0045354462687176,0.0045354462686614,-0.0010914398582196,0.0010914420356999,-2.9491952188164e-09,5.1612552616064e-09,-4.5575545550132e-09,7.0303352006737e-09,-0.0012102430155312,0.0012102386372872,-0.0012102403006841,0.0012102413572756,-0.0012102394031228,0.0012102424730946,-0.0012102367129232,0.0012102451664631,-0.0010976219570121,0.0010976200966598,-0.0010976140606289,0.0010976280028992,4.5261519835661e-09,-6.9700619834828e-09,-6.1711716495699e-10,-1.5671833636006e-09,-0.001091442021701,0.0010914398722463,-0.0012102399686621,0.0012102419191375,-0.0012102402543199,0.0012102416157929,-0.0012102435213653,0.0012102381387254,-0.0012102438359311,0.0012102378130708,-0.0010976235110344,0.0010976184993432,-0.001097624471027,0.001097617516501,-0.0010976167609505,0.0010976254872716,-0.0010976279740662,0.0010976138302274,3.9373215782344e-09,-4.0324321867294e-09,-0.0010914409910522,0.0010914409028342,-5.4021889256601e-10,4.6799301339939e-10,-0.0012102397751775,0.0012102419917107,-0.0012102394065408,0.0012102423230277,-0.0012102424367482,0.0012102393673304,-0.0012102420937022,0.0012102396729455,-0.0010976248047287,0.0010976172025633,-0.0010976169691684,0.0010976250558466,0.61574677081844,131329,3014,0.0045375122321469,0.0045375122322044,0.004537512232079,39.480471537873,7.5843772302981e-05,7.5843772302981e-05,7.5843772302981e-05,2601552.9085876,0.013706221779194
10219200,0.86770442820005,0.013733877981682,0.0045779593271915,0.0045779593272722,0.0045779593272187,-0.0011002128738867,0.0011002150592608,-3.0507489477726e-09,5.2707369499571e-09,-4.5548376069553e-09,7.03570817618e-09,-0.0012210347517527,0.0012210303114224,-0.0012210319682482,0.001221033099932,-0.0012210311398657,0.0012210341464207,-0.0012210283768048,0.0012210369127713,-0.0011062080651556,0.0011062059982604,-0.0011061999531231,0.0011062141203574,4.5291402300764e-09,-6.9805819209147e-09,-6.4352114110479e-10,-1.5481104200614e-09,-0.0011002150450033,0.0011002128881561,-0.0012210316819948,0.001221033615978,-0.0012210319546614,0.0012210333256906,-0.0012210352408544,0.001221029829247,-0.0012210355383316,0.0012210295212035,-0.0011062095481496,0.0011062044722392,-0.0011062104551183,0.0011062035422153,-0.0011062027601405,0.0011062114983976,-0.0011062139769644,0.0011061998367298,4.0443382132437e-09,-4.145188073585e-09,-0.0011002140135289,0.0011002139196119,-5.192229985938e-10,4.408592093773e-10,-0.001221031437729,0.0012210337395867,-0.0012210310868901,0.0012210340525795,-0.0012210341742147,0.0012210310400247,-0.0012210338450148,0.0012210313320335,-0.0011062109232451,0.0011062030935934,-0.0011062028818263,0.001106211153134,0.62007022977011,131329,3014,0.0045739054038566,0.0045739054038812,0.0045739054038433,38.7752757589,7.0202206071203e-05,7.0202206071203e-05,7.0202206071203e-05,2593337.3594617,0.013816925490371
10419200,0.87667577694151,0.01385020917947,0.0046167363931192,0.0046167363932028,0.0046167363931484,-0.0011080864334661,0.0011080886226889,-3.1579137789017e-09,5.3816060651582e-09,-4.5237837562174e-09,7.0081883763028e-09,-0.001230709578135,0.0012307050889684,-0.0012307067222095,0.0012307079498742,-0.0012307059859512,0.0012307089041191,-0.0012307031499893,0.0012307117433061,-0.0011139693379466,0.001113967042008,-0.0011139610125741,0.0011139753773377,4.4914011601813e-09,-6.945767918624e-09,-6.5808517615088e-10,-1.5366894068831e-09,-0.0011080886080799,0.0011080864481016,-0.0012307065014442,0.0012307084000019,-0.0012307067659977,0.0012307081181999,-0.001230710036844,0.0012307046371765,-0.0012307103255799,0.0012307043379231,-0.0011139707086616,0.0011139656283216,-0.0011139715906315,0.0011139647236458,-0.0011139639510243,0.0011139726236192,-0.0011139750974205,0.00111396103348,4.1484375553744e-09,-4.2537958791617e-09,-0.0011080875773221,0.001108087478844,-5.097333693484e-10,4.2660106451266e-10,-0.0012307062022943,0.0012307085786968,-0.0012307058596918,0.0012307088836147,-0.0012307090101074,0.0012307058080601,-0.0012307086885366,0.00123070609231,-0.0011139721921714,0.0011139641418348,-0.0011139639417604,0.0011139724093613,0.62506142819839,131329,3014,0.0046065662417203,0.0046065662417752,0.0046065662417437,38.100209104016,6.4801672832132e-05,6.4801672832132e-05,6.4801672832132e-05,2582939.2013482,0.013916286222332
10619200,0.88505130940189,0.013956714946824,0.0046522383155708,0.0046522383156545,0.0046522383155989,-0.00111639648942,0.001116398667033,-3.270229079864e-09,5.4824509783565e-09,-4.3335113246154e-09,6.8046296008836e-09,-0.001240727327956,0.0012407228875447,-0.0012407244012962,0.0012407258191813,-0.0012407238665325,0.0012407265709691,-0.0012407209590242,0.0012407294816543,-0.0011221507971122,0.001122148149525,-0.0011221422628482,0.0011221566936771,4.3068485710143e-09,-6.7476548246151e-09,-6.1415981605013e-10,-1.5688515602183e-09,-0.0011163986523007,0.0011163965041747,-0.0012407243202199,0.001240726128575,-0.0012407246105925,0.0012407258210998,-0.0012407277291005,0.0012407224933902,-0.001240728042697,0.0012407221691013,-0.0011221518852575,0.0011221470187227,-0.001122152841402,0.0011221460395895,-0.0011221454286659,0.0011221537120814,-0.0011221561992923,0.0011221424990279,4.2572144650792e-09,-4.3626961430981e-09,-0.0011163976275111,0.0011163975289463,-5.4675737026118e-10,4.6373755498896e-10,-0.001240723952213,0.0012407263766413,-0.0012407235852791,0.0012407267060593,-0.0012407268329613,0.0012407235331311,-0.0012407264861484,0.0012407238425491,-0.0011221535697537,0.0011221453309314,-0.0011221451064439,0.0011221538115773,0.61395112560452,131329,3014,0.0046410359494322,0.0046410359494786,0.0046410359494418,38.029553007689,6.4236424061514e-05,6.4236424061514e-05,6.4236424061514e-05,2578861.4514375,0.014021159275956
10819200,0.89287295929056,0.014054400856969,0.0046848002856193,0.0046848002857033,0.0046848002856468,-0.0011240805332947,0.0011240826969622,-3.3845461636144e-09,5.5829188908955e-09,-4.1684620196408e-09,6.6239851601532e-09,-0.0012500163139983,0.0012500119038511,-0.0012500133163725,0.0012500149065003,-0.0012500129676274,0.0012500154712648,-0.0012500099878505,0.001250018454167,-0.0011296728871714,0.0011296698992245,-0.0011296641415604,0.0011296786547271,4.1430495075376e-09,-6.5679787343022e-09,-5.6126547173889e-10,-1.607615608333e-09,-0.0011240826820874,0.0011240805481922,-0.0012500133554296,0.00125001509468,-0.0012500136769979,0.0012500147560725,-0.0012500166513492,0.0012500115736489,-0.0012500169947202,0.0012500112193298,-0.0011296736967565,0.0011296690475026,-0.0011296747414928,0.001129667979459,-0.0011296675253471,0.0011296754544083,-0.0011296779581251,0.0011296645809989,4.366064365613e-09,-4.4698509791796e-09,-0.0011240816635459,0.0011240815667143,-5.9120923631659e-10,5.1024185604978e-10,-0.001250012931121,0.0012500153995207,-0.001250012534551,0.0012500157588108,-0.0012500158845488,0.0012500124834209,-0.0012500155066982,0.0012500128238164,-0.0011296755789081,0.001129667161685,-0.0011296669051838,0.0011296758528604,0.60386753949763,131329,3014,0.0046729078515043,0.0046729078515512,0.0046729078515115,37.973706529435,6.3789652235481e-05,6.3789652235481e-05,6.3789652235481e-05,2580244.1702687,0.014118138794464
11019200,0.90017404914548,0.014143810926037,0.0047146036419752,0.0047146036420592,0.0047146036420024,-0.0011311466223729,0.0011311487728593,-3.4985834487948e-09,5.6838684347209e-09,-4.0480977548629e-09,6.4891277536014e-09,-0.0012585842021007,0.0012585797926078,-0.0012585811333061,0.0012585828664844,-0.0012585809405637,0.0012585832743606,-0.0012585778886097,0.0012585863293906,-0.0011365493222068,0.0011365460250781,-0.0011365403654874,0.0011365549917038,4.0234389699989e-09,-6.433623907522e-09,-5.0708426353182e-10,-1.6484599518752e-09,-0.0011311487578588,0.0011311466373961,-0.0012585812629457,0.0012585829631501,-0.0012585816166375,0.0012585825924204,-0.0012585844755526,0.0012585795264889,-0.0012585848499394,0.0012585791408635,-0.0011365498822915,0.0011365454233729,-0.0011365510193186,0.0011365442626658,-0.0011365439394028,0.0011365516005363,-0.0011365541227025,0.001136540978275,4.4753954756226e-09,-4.5762724642528e-09,-0.0011311477445571,0.0011311476506778,-6.3676396009223e-10,5.5912203323509e-10,-0.0012585807974043,0.0012585833096063,-0.0012585803698965,0.0012585837000682,-0.0012585838232842,0.0012585803211383,-0.0012585834133973,0.0012585806935153,-0.00113655194755,0.0011365433541091,-0.0011365430631904,0.0011365522559587,0.59320719875525,131329,3014,0.0047022157265246,0.0047022157265715,0.0047022157265308,37.918427567513,6.3347420540102e-05,6.3347420540102e-05,6.3347420540102e-05,2585411.9747821,0.014207325332963
11219200,0.90697711089543,0.014227082855671,0.0047423609518532,0.0047423609519372,0.0047423609518803,-0.0011376535978413,0.0011376557389114,-3.6107694700006e-09,5.7866848517499e-09,-3.9900552105522e-09,6.4208577441446e-09,-0.0012664673545302,0.0012664629063677,-0.0012664642144875,0.0012664660515553,-0.0012664641348863,0.0012664663455866,-0.0012664610108383,0.001266469472671,-0.0011428846947174,0.0011428811351526,-0.0011428755269451,0.0011428903128432,3.9660690324002e-09,-6.3658129923122e-09,-4.588775987174e-10,-1.6870843295001e-09,-0.0011376557238031,0.0011376536129722,-0.0012664643970599,0.0012664660945718,-0.001266464780034,0.001266465694515,-0.0012664675690725,0.001266462699335,-0.0012664679718254,0.0012664622850675,-0.0011428850559479,0.0011428807327375,-0.0011428862773014,0.0011428794873059,-0.0011428792516994,0.001142886770318,-0.0011428893119113,0.0011428762723241,4.5849814908451e-09,-4.6823768037792e-09,-0.0011376547135541,0.0011376546232014,-6.7796189005316e-10,6.042100307689e-10,-0.0012664639068092,0.0012664664660106,-0.0012664634509758,0.0012664668849614,-0.0012664670050502,0.0012664634052788,-0.0012664665659249,0.0012664638068212,-0.0011428872781119,0.0011428785062944,-0.0011428781830564,0.0011428876187782,0.59263236401806,131329,3014,0.0047292039045199,0.0047292039045665,0.0047292039045263,37.837645973489,6.2701167787915e-05,6.2701167787915e-05,6.2701167787915e-05,2589366.563939,0.014289459835001
11419200,0.91327224364238,0.014304727911834,0.0047682426372409,0.0047682426373248,0.004768242637268,-0.0011434381612516,0.0011434402996685,-3.7196042324675e-09,5.8928589392633e-09,-4.009797028865e-09,6.4378690035211e-09,-0.0012735049265133,0.0012735003919465,-0.0012735017151123,0.0012735036085514,-0.0012735016944733,0.0012735038431957,-0.0012734984984401,0.0012735070422249,-0.0011485324476412,0.0011485286869713,-0.0011485230691052,0.0011485380754244,3.9862001862829e-09,-6.3830207852877e-09,-4.2711164057714e-10,-1.7159980637683e-09,-0.0011434402844644,0.0011434381764781,-0.0012735019076914,0.0012735036411188,-0.0012735023111276,0.0012735032205677,-0.0012735050930088,0.0012735002331319,-0.0012735055155222,0.0012734997988327,-0.0011485326836873,0.0011485284100014,-0.0011485339640886,0.0011485271051835,-0.0011485268943646,0.0011485344321708,-0.0011485369911891,0.0011485238980458,4.6943095494185e-09,-4.7886587026461e-09,-0.001143439274097,0.0011434391868254,-7.06408333975e-10,6.3601013609162e-10,-0.0012735014079058,0.0012735040222325,-0.0012735009323063,0.0012735044610535,-0.0012735045784013,0.0012735008893966,-0.0012735041188174,0.0012735013112712,-0.0011485350244259,0.0011485260648784,-0.0011485257183586,0.00114853538813,0.5962623824669,131329,3014,0.0047531955279973,0.0047531955280437,0.0047531955280027,37.630676575244,6.1045412601954e-05,6.1045412601954e-05,6.1045412601954e-05,2589397.2964038,0.014362480955402
11619200,0.9190976029785,0.014376973016608,0.0047923243388324,0.0047923243389162,0.0047923243388594,-0.0011487632951693,0.0011487654347905,-3.8264975260684e-09,6.0009310009712e-09,-4.0599132197909e-09,6.4894980057023e-09,-0.0012799781801941,0.0012799735414875,-0.0012799748975132,0.0012799768294175,-0.0012799749143507,0.0012799770264115,-0.0012799716462561,0.0012799802974692,-0.0011537526317573,0.0011537486951393,-0.0011537430421206,0.0011537582946961,4.0370503663685e-09,-6.4352347369079e-09,-4.0455346683932e-10,-1.7395852233303e-09,-0.0011487654195121,0.0011487633104702,-0.0012799750846734,0.0012799768672223,-0.0012799755038077,0.0012799764309329,-0.0012799783050357,0.001279973424466,-0.0012799787424089,0.0012799729750839,-0.0011537527753458,0.001153748510808,-0.0011537541002151,0.0011537471612497,-0.0011537469483578,0.0011537545703881,-0.0011537571458717,0.0011537439357174,4.803496797176e-09,-4.8950824616497e-09,-0.0011487644072188,0.001148764322743,-7.2776595642606e-10,6.6038637359077e-10,-0.0012799745795836,0.0012799772536649,-0.001279974089124,0.001279977707415,-0.0012799778223938,0.001279974048644,-0.0012799773471176,0.0012799744861,-0.0011537552168817,0.001153746064855,-0.0011537457001756,0.0011537555984913,0.59873359198514,131329,3014,0.0047752812950311,0.0047752812950773,0.0047752812950358,37.420609481304,5.9364875850432e-05,5.9364875850432e-05,5.9364875850432e-05,2586834.9803725,0.014429706247694
11819200,0.9244895935126,0.014444336421973,0.0048147788072874,0.0048147788073711,0.0048147788073144,-0.0011536752010477,0.0011536773442557,-3.9322351965022e-09,6.110204334393e-09,-4.1219629227445e-09,6.5555441546848e-09,-0.0012859436292101,0.0012859388799307,-0.0012859402751639,0.0012859422392638,-0.0012859403208465,0.00128594240738,-0.0012859369807684,0.0012859457503918,-0.0011585899534792,0.0011585858522065,-0.0011585801529242,0.0011585956626786,4.0995797230921e-09,-6.5016350721291e-09,-3.9044142758479e-10,-1.7571063245802e-09,-0.0011536773289132,0.0011536752164126,-0.0012859404531809,0.0012859422861632,-0.0012859408831209,0.0012859418390479,-0.0012859437170251,0.001285938800056,-0.0012859441645291,0.0012859383403507,-0.0011585900227119,0.0011585857423382,-0.0011585913780702,0.0011585843620593,-0.0011585841316327,0.0011585918659226,-0.0011585944554095,0.0011585811048979,4.912415330319e-09,-5.0016923226152e-09,-0.0011536763137232,0.0011536762315817,-7.4218090923562e-10,6.7729472564046e-10,-0.0012859399412821,0.0012859426793837,-0.0012859394406856,0.0012859431433106,-0.001285943256319,0.0012859394022811,-0.0012859427702376,0.0012859398504148,-0.0011585925552889,0.0011585832053616,-0.0011585828277727,0.0011585929495134,0.60218092328453,131329,3014,0.0047956528238296,0.0047956528238759,0.0047956528238333,37.21042367788,5.7683389423043e-05,5.7683389423043e-05,5.7683389423043e-05,2582523.9802056,0.014491717656177
12019200,0.92948927458156,0.014508869917785,0.0048362899725582,0.0048362899726417,0.004836289972585,-0.0011583418592902,0.0011583440067188,-4.0376617996154e-09,6.2197987352416e-09,-4.1774059426454e-09,6.6156116345469e-09,-0.0012915590199852,0.0012915541649344,-0.0012915555945313,0.0012915575957036,-0.0012915556732973,0.0012915577307388,-0.0012915522612709,0.0012915611456742,-0.0011632516236844,0.0011632473542369,-0.0011632416122477,0.0011632573755691,4.155453479487e-09,-6.5620293098656e-09,-3.8386298777312e-10,-1.7677474010017e-09,-0.0011583439913231,0.0011583418747084,-0.0012915557707167,0.0012915576444127,-0.0012915562066457,0.0012915571913127,-0.001291559073735,0.0012915541192159,-0.0012915595266358,0.0012915536539689,-0.0011632516219988,0.0011632473153485,-0.0011632529938057,0.0011632459184311,-0.0011632456657748,0.0011632535040531,-0.0011632561033945,0.0011632426290385,5.0210223103326e-09,-5.1085795969294e-09,-0.0011583429732055,0.0011583428928042,-7.497482574995e-10,6.8670013757629e-10,-0.0012915552450726,0.001291558051348,-0.0012915547390863,0.0012915585206902,-0.0012915586322826,0.0012915547022069,-0.0012915581402247,0.0012915551561973,-0.0011632542431117,0.0011632446898834,-0.0011632443047565,0.0011632546445752,0.61929850344714,131329,3014,0.0048150068501374,0.0048150068501838,0.0048150068501395,37.028047288131,5.6224378305048e-05,5.6224378305048e-05,5.6224378305048e-05,2572952.2539543,0.014550634552279
12219200,0.93414315512759,0.014571028887995,0.0048570096292951,0.0048570096293785,0.0048570096293218,-0.0011628909083702,0.0011628930587974,-4.1436899511752e-09,6.32878718219e-09,-4.2095510739278e-09,6.6509784397623e-09,-0.001296979346642,0.0012969744006017,-0.0012969758497567,0.0012969779028229,-0.001296975977595,0.001296977988745,-0.001296972493646,0.0012969814755819,-0.0011678673721116,0.0011678629172483,-0.0011678571497769,0.0011678731494623,4.1880547769788e-09,-6.597776311606e-09,-3.8126088794011e-10,-1.7732317840317e-09,-0.0011628930433623,0.0011628909238281,-0.0012969760404321,0.001296977936976,-0.0012969764792954,0.0012969774809566,-0.0012969793666278,0.0012969743887168,-0.001296979821926,0.0012969739209598,-0.0011678672868061,0.0011678629620373,-0.0011678686661205,0.0011678615574835,-0.001167861290923,0.0011678691903402,-0.0011678717953264,0.0011678582485154,5.1293567146145e-09,-5.2156843076599e-09,-0.0011628920231619,0.0011628919440054,-7.5304334204281e-10,6.9129515387816e-10,-0.0012969754908774,0.0012969783678248,-0.0012969749825076,0.0012969788395706,-0.0012969789502061,0.0012969749466742,-0.0012969784552352,0.0012969754034795,-0.0011678700022626,0.0011678602422789,-0.0011678598531638,0.0011678704074619,0.63789981058284,131329,3014,0.0048338728455833,0.0048338728456302,0.0048338728455831,36.914351863096,5.5314814904764e-05,5.5314814904764e-05,5.5314814904764e-05,2558122.4831252,0.014608068785332
12419200,0.93847563187224,0.014626928103144,0.0048756427010113,0.0048756427010946,0.0048756427010379,-0.0011670316032673,0.0011670337559582,-4.2500737702813e-09,6.4374057011452e-09,-4.2294947287216e-09,6.6733130595727e-09,-0.0013019754142911,0.001301970384917,-0.0013019718459345,0.0013019739586191,-0.0013019720312539,0.0013019739870029,-0.0013019684754259,0.0013019775456995,-0.0011720338484012,0.0011720291990892,-0.0011720234152804,0.0011720396420765,4.2082922564575e-09,-6.620345407812e-09,-3.8490419647042e-10,-1.7717623939459e-09,-0.0011670337404921,0.0011670316187562,-0.0013019720610597,0.0013019739682241,-0.0013019724984476,0.0013019735137264,-0.0013019754018873,0.001301970405467,-0.0013019758552543,0.0013019699395679,-0.0011720336767544,0.0011720293302537,-0.0011720350507752,0.0011720279309358,-0.0011720276493456,0.0011720355900325,-0.0011720381955533,0.001172024606428,5.2373268006731e-09,-5.3231265157271e-09,-0.001167032718922,0.0011670326403024,-7.5015678384283e-10,6.8893737584784e-10,-0.0013019714796762,0.0013019744309332,-0.0013019709732717,0.0013019749007412,-0.0013019750110701,0.0013019709378128,-0.0013019745176156,0.0013019713930179,-0.0011720364873286,0.0011720265154362,-0.0011720261274405,0.0011720368912005,0.61826606417868,131329,3014,0.0048510451711896,0.0048510451712366,0.0048510451711879,36.802345829641,5.4418766637127e-05,5.4418766637127e-05,5.4418766637127e-05,2548305.6019643,0.014660351467972
12619200,0.9425090852727,0.014676066331543,0.0048920221104776,0.0048920221105609,0.0048920221105043,-0.0011707362040566,0.001170738358108,-4.3569065814358e-09,6.5455764652497e-09,-4.2371363493342e-09,6.6823382195661e-09,-0.0013064913677376,0.0013064862626785,-0.0013064877279163,0.0013064899078467,-0.0013064879792396,0.0013064898701398,-0.0013064843515181,0.0013064935007104,-0.0011756792628111,0.0011756744095972,-0.001175668618889,0.0011756850633801,4.2162551585375e-09,-6.6296361998303e-09,-3.9311249642481e-10,-1.7648344925852e-09,-0.0011707383426126,0.0011707362195746,-0.0013064879767536,0.0013064898835961,-0.0013064884093623,0.0013064894339528,-0.0013064913237268,0.001306486314866,-0.0013064917718306,0.0013064858541803,-0.0011756790003058,0.0011756746316464,-0.0011756803592237,0.001175673247431,-0.0011756729515749,0.0011756809126812,-0.0011756835145038,0.0011756699124609,5.3450090567011e-09,-5.4308154516099e-09,-0.0011707373203924,0.0011707372417709,-7.425757929369e-10,6.8129824162991e-10,-0.0013064873566861,0.0013064903850501,-0.0013064868555976,0.0013064908495867,-0.0013064909601425,0.001306486819958,-0.0013064904715245,0.0013064872702488,-0.0011756819076837,0.0011756717200821,-0.0011756713370911,0.0011756823063859,0.58731202123425,131329,3014,0.0048664085399564,0.0048664085400033,0.0048664085399543,36.690404525912,5.3523236207295e-05,5.3523236207295e-05,5.3523236207295e-05,2547775.2422162,0.014707129403491
12819200,0.94623041942653,0.014721793962381,0.0049072646540903,0.0049072646541735,0.0049072646541171,-0.0011738188740281,0.001173821030338,-4.4693255962886e-09,6.6601736697367e-09,-4.2413961490238e-09,6.688834738396e-09,-0.0013102790887997,0.0013102739139254,-0.0013102753814149,0.001310277626594,-0.0013102757036833,0.0013102775179041,-0.0013102719924908,0.0013102812318988,-0.0011786980918871,0.0011786929980399,-0.0011786872013127,0.0011787038993768,4.2714383391927e-09,-6.6899475291106e-09,-4.1563411457257e-10,-1.7469852559104e-09,-0.0011738210160449,0.0011738188883384,-0.0013102756490876,0.0013102775835665,-0.0013102760763416,0.001310277139392,-0.0013102790416036,0.0013102739691084,-0.0013102794683579,0.0013102735297432,-0.0011786977633646,0.0011786932871927,-0.0011786990582277,0.0011786919677636,-0.001178691611693,0.0011786996709896,-0.001178702264283,0.001178688581444,5.4461082445433e-09,-5.5329893863252e-09,-0.001173819992029,0.0011738199123417,-7.2498046466798e-10,6.6249833224835e-10,-0.0013102749993213,0.0013102781147313,-0.0013102745183863,0.0013102785591139,-0.0013102786786695,0.0013102744736933,-0.0013102781941926,0.0013102749196478,-0.0011787007099369,0.0011786903352023,-0.0011786899656526,0.001178701096286,0.59134553450417,131329,3014,0.0048791924916285,0.004879192491664,0.0048791924916387,36.407046910188,5.1256375281503e-05,5.1256375281503e-05,5.1256375281503e-05,2548456.9497642,0.014746054708095
13019200,0.94962080800298,0.014763610344548,0.0049212034481461,0.0049212034482297,0.0049212034481719,-0.0011761059576888,0.0011761081197743,-4.5767351835288e-09,6.7733219840157e-09,-4.2930695730244e-09,6.746723194767e-09,-0.0013132032954999,0.0013131980223535,-0.0013131995202092,0.001313201802929,-0.0013131998798825,0.0013132016569345,-0.0013131960894768,0.0013132054501776,-0.0011809319726122,0.0011809266882857,-0.0011809208493699,0.0011809378214428,4.336609172425e-09,-6.762230298804e-09,-4.516398323432e-10,-1.717464732919e-09,-0.0011761081058926,0.0011761059715907,-0.0013131997949835,0.001313201752812,-0.0013132002061669,0.001313201324858,-0.0013132032392545,0.0013131980865177,-0.0013132036386409,0.0013131976747207,-0.0011809316142544,0.0011809270056682,-0.0011809328289467,0.0011809257665969,-0.0011809253297947,0.0011809335230328,-0.0011809361010472,0.0011809223142341,5.5496787061838e-09,-5.6391530348045e-09,-0.0011761070798802,0.0011761069975763,-6.9448123172214e-10,6.2908443528468e-10,-0.0013131991096516,0.0013132023193764,-0.0013131986557957,0.0013132027368992,-0.0013132028648182,0.0013131986030606,-0.0013132023957641,0.0013131990331473,-0.0011809346015691,0.0011809240134211,-0.0011809236688573,0.0011809349642638,0.59302696516011,131329,3014,0.0048886773788824,0.0048886773789241,0.0048886773788696,35.874481039594,4.6995848316752e-05,4.6995848316752e-05,4.6995848316752e-05,2547252.6946998,0.014774937214636
13219200,0.95271322021378,0.014801925270329,0.0049339750900731,0.0049339750901568,0.0049339750900991,-0.001178094171048,0.0011780963398795,-4.6680959504613e-09,6.8713364792108e-09,-4.3744489172354e-09,6.835507963865e-09,-0.0013157659138771,0.0013157605050446,-0.0013157620510138,0.0013157643731222,-0.0013157624196766,0.0013157642184992,-0.0013157585894872,0.0013157680514888,-0.0011828821050522,0.0011828767729301,-0.0011828708715393,0.0011828880167017,4.3354836431569e-09,-6.7645665989794e-09,-4.8269606028517e-10,-1.6897885351688e-09,-0.0011780963243566,0.0011780941865879,-0.0013157623678374,0.0013157642810369,-0.0013157627356408,0.0013157638966255,-0.0013157657905999,0.0013157606363516,-0.0013157661943404,0.0013157602202939,-0.0011828817166663,0.0011828771205531,-0.0011828829487697,0.0011828758643654,-0.0011828753927121,0.0011828836773908,-0.0011828862393839,0.001182872393447,5.6687017496998e-09,-5.7610192256995e-09,-0.001178095298026,0.0011780952128934,-6.6372723447094e-10,5.9516995617226e-10,-0.0013157616228669,0.0013157649072482,-0.0013157611667024,0.0013157653271858,-0.00131576543403,0.001315761135128,-0.0013157650103654,0.0013157615197821,-0.0011828848782888,0.0011828739550033,-0.001182873633545,0.0011828852155515,0.59512403407108,131329,3014,0.0048969228537968,0.0048969228538317,0.0048969228537806,35.33576478232,4.2686118258558e-05,4.2686118258558e-05,4.2686118258558e-05,2544823.0471682,0.014800046544258
13419200,0.95553798932815,0.014836340024347,0.0049454466747454,0.0049454466748294,0.0049454466747718,-0.0011797914438269,0.0011797936158671,-4.7804626747938e-09,6.9869008291521e-09,-4.3814661106296e-09,6.8458487666076e-09,-0.0013179947350646,0.0013179892637808,-0.0013179908130929,0.0013179931909377,-0.0013179912509221,0.0013179929671441,-0.0013179873283552,0.0013179968925043,-0.0011845341335121,0.0011845285359317,-0.0011845226251064,0.001184540054426,4.3790787002642e-09,-6.8131925662174e-09,-5.1416663264917e-10,-1.6629167887006e-09,-0.0011797936010558,0.0011797914586534,-0.0013179911464376,0.0013179930822944,-0.0013179915116049,0.001317992700703,-0.0013179946158255,0.0013179893909202,-0.0013179949836027,0.0013179890109178,-0.0011845336839669,0.0011845289444825,-0.001184534807517,0.0011845277968311,-0.0011845272611012,0.0011845356005857,-0.0011845381476814,0.0011845242761104,5.7684444368644e-09,-5.8635781518889e-09,-0.0011797925738332,0.0011797924858507,-6.3720542269409e-10,5.6555031982594e-10,-0.0013179903626808,0.0013179937473272,-0.0013179899419005,0.0013179941318619,-0.0013179942582204,0.0013179898908995,-0.0013179938366162,0.0013179902733877,-0.0011845368580494,0.001184525766645,-0.00118452546679,0.0011845371736307,0.58608287302129,131329,3014,0.0049039618128042,0.0049039618128356,0.004903961812784,34.796812894658,3.8374503157268e-05,3.8374503157268e-05,3.8374503157268e-05,2543262.94205,0.014821482967065
13619200,0.95813582907133,0.014867568698185,0.0049558562326912,0.0049558562327755,0.0049558562327179,-0.0011814338247727,0.0011814359970168,-4.8852566420571e-09,7.0921296234259e-09,-4.3695395799182e-09,6.8342682181501e-09,-0.001320119106657,0.0013201135748669,-0.0013201151162385,0.0013201175703947,-0.0013201156320507,0.001320117268657,-0.0013201116377095,0.0013201212656816,-0.0011861235888066,0.0011861177721852,-0.0011861118695419,0.0011861295013509,4.3537878745703e-09,-6.7874023835015e-09,-5.3180854205159e-10,-1.6449760499969e-09,-0.0011814359819274,0.0011814338398877,-0.001320115501039,0.0013201174103197,-0.001320115856121,0.0013201170388447,-0.0013201189551929,0.0013201137340829,-0.0013201193095681,0.0013201133675083,-0.0011861230414932,0.0011861182790403,-0.0011861241246162,0.001186117171386,-0.0011861166290725,0.0011861249245347,-0.0011861274588816,0.0011861136562585,5.8775766761847e-09,-5.9746199085218e-09,-0.0011814349559459,0.0011814348658504,-6.1954915546328e-10,5.4579450635248e-10,-0.0013201146613773,0.0013201181313226,-0.0013201142548144,0.0013201185016822,-0.0013201186318078,0.0013201141997628,-0.0013201182211154,0.001320114571391,-0.0011861263160906,0.0011861149996837,-0.0011861147148356,0.0011861266176449,0.57889842841772,131329,3014,0.0049107729230129,0.0049107729230656,0.0049107729230276,34.356065938619,3.4848527508955e-05,3.4848527508955e-05,3.4848527508955e-05,2543268.0353816,0.014842225410636
13819200,0.96053928341705,0.014896450163524,0.0049654833878045,0.0049654833878885,0.0049654833878306,-0.0011830560625723,0.0011830582327326,-4.9813449870359e-09,7.1858969654862e-09,-4.3473690143314e-09,6.809494455501e-09,-0.001322177305043,0.0013221717236288,-0.0013221732501823,0.0013221757837501,-0.0013221738461516,0.0013221754015321,-0.0013221697889545,0.0013221794614984,-0.0011876969584662,0.0011876909419738,-0.0011876850569172,0.0011877028536742,4.272229958651e-09,-6.7000569842369e-09,-5.3517622037445e-10,-1.6365993958856e-09,-0.0011830582162114,0.0011830560791177,-0.0013221737019995,0.0013221755560337,-0.0013221740523648,0.0013221751894628,-0.0013221771005433,0.0013221719361332,-0.0013221774518108,0.0013221715728275,-0.0011876962848383,0.0011876915748906,-0.0011876973601033,0.0011876904755811,-0.0011876899754459,0.0011876981168652,-0.0011877006433554,0.0011876870124176,5.9969477490098e-09,-6.0955684930961e-09,-0.0011830571934125,0.0011830571018887,-6.1007494571742e-10,5.3461792193652e-10,-0.0013221727926599,0.0013221763469961,-0.001322172392074,0.0013221767113972,-0.0013221768421288,0.0013221723366809,-0.0013221764390769,0.0013221727007744,-0.0011876997101997,0.0011876881468722,-0.0011876878684277,0.0011877000019624,0.57842147423867,131329,3014,0.0049175003191666,0.0049175003192162,0.0049175003191594,34.003774891298,3.203019913038e-05,3.203019913038e-05,3.203019913038e-05,2543649.6899428,0.014862712732599
14019200,0.96276519542674,0.014923200848066,0.0049744002826522,0.0049744002827361,0.0049744002826781,-0.001184512164694,0.0011845143304966,-5.0888293771086e-09,7.2890634718202e-09,-4.2912429307682e-09,6.7484733838881e-09,-0.0013240341300386,0.0013240285117557,-0.0013240300040354,0.0013240326429351,-0.0013240307084546,0.0013240321519791,-0.0013240265821977,0.0013240362809739,-0.0011891105146912,0.0011891042523971,-0.0011890984103648,0.0011891163664882,4.2126238052691e-09,-6.6350799370977e-09,-5.3645011376441e-10,-1.6305827884696e-09,-0.0011845143137442,0.0011845121814691,-0.0013240305285614,0.0013240323420937,-0.0013240308756136,0.0013240319790481,-0.001324033884505,0.0013240287653654,-0.0013240342342996,0.0013240284033213,-0.0011891096968206,0.0011891050299284,-0.0011891107680817,0.0011891039336875,-0.0011891034645182,0.0011891114945394,-0.0011891140133077,0.0011891005087691,6.1062055978458e-09,-6.2058187340269e-09,-0.0011845132938506,0.0011845132013374,-6.0680041792846e-10,5.3029179324384e-10,-0.0013240295622271,0.0013240331904515,-0.0013240291630563,0.0013240335532235,-0.0013240336838814,0.0013240291077106,-0.0013240332845293,0.00132402946835,-0.0011891132548377,0.0011891014692264,-0.0011891011939719,0.0011891135424599,0.57820996422174,131329,3014,0.0049235387623111,0.0049235387623579,0.0049235387623063,33.653675114478,2.9229400915825e-05,2.9229400915825e-05,2.9229400915825e-05,2543611.3169555,0.014881102480746
14219200,0.96482855773385,0.014947053162164,0.0049823510540181,0.0049823510541019,0.0049823510540441,-0.0011857686309583,0.001185770790614,-5.2109967193919e-09,7.4051215507962e-09,-4.2086783390598e-09,6.6589791764041e-09,-0.0013256713643477,0.0013256657151609,-0.0013256671576134,0.0013256699270687,-0.0013256679964813,0.0013256693011443,-0.0013256637932812,0.0013256735070724,-0.001190305903917,0.0011902993516086,-0.001190293572281,0.0011903116927549,4.1807491713181e-09,-6.5986756961855e-09,-5.3756896250485e-10,-1.6253430157317e-09,-0.0011857707748421,0.0011857686467638,-0.0013256677590517,0.0013256695488589,-0.0013256681022238,0.0013256691897573,-0.001325671089285,0.0013256659981695,-0.0013256714389342,0.0013256656362253,-0.0011903049272756,0.0011903002878863,-0.0011903059985071,0.0011902991916728,-0.0011902987356959,0.0011903067114431,-0.0011903092241558,0.001190295786608,6.2019189183989e-09,-6.3020157953904e-09,-0.001185769757314,0.0011857696642659,-6.0764356443562e-10,5.3063861341343e-10,-0.0013256667500845,0.0013256704400898,-0.0013256663486979,0.001325670805046,-0.0013256709343573,0.0013256662946318,-0.0013256705365793,0.0013256666536616,-0.0011903085958815,0.0011902966161128,-0.0011902963415782,0.0011903088839197,0.55856305436031,131329,3014,0.0049287493430368,0.0049287493431059,0.0049287493430531,33.303659216203,2.6429273729624e-05,2.6429273729624e-05,2.6429273729624e-05,2545240.273208,0.014896971936494
14419200,0.96671117890508,0.01496906701979,0.0049896890065605,0.0049896890066437,0.004989689006586,-0.0011862846319985,0.0011862867875238,-5.3629614310919e-09,7.5531559729168e-09,-4.1242666998951e-09,6.5699021085298e-09,-0.0013265019209698,0.0013264962380836,-0.0013264976302645,0.0013265005342406,-0.0013264986220194,0.0013264997551861,-0.0013264943057591,0.0013265040741693,-0.0011907539453041,0.0011907469929836,-0.0011907412740268,0.0011907596730059,4.2723401281481e-09,-6.6944553810569e-09,-5.6016102334484e-10,-1.6062462423163e-09,-0.0011862867755876,0.0011862846439511,-0.0013264982708415,0.0013265001172723,-0.0013264986148802,0.0013264997570447,-0.0013265016741086,0.0013264964922655,-0.0013265019961598,0.0013264961586174,-0.0011907528420524,0.0011907480531824,-0.0011907538286479,0.0011907470434737,-0.0011907465010391,0.0011907546277918,-0.0011907571302346,0.001190743561094,6.2664522491264e-09,-6.3675714687096e-09,-0.0011862857568708,0.0011862856626603,-6.0560768427742e-10,5.2753889122546e-10,-0.0013264972597079,0.0013265010099346,-0.0013264968753563,0.0013265013587754,-0.0013265015033566,0.0013264968052411,-0.00132650109289,0.00132649717634,-0.0011907564778285,0.0011907444122027,-0.0011907441458904,0.0011907567662112,0.56383117812106,131329,3014,0.0049308895636289,0.0049308895636622,0.0049308895636482,32.648216084877,2.1185728679015e-05,2.1185728679015e-05,2.1185728679015e-05,2546925.4130937,0.014903491615409
14619200,0.9684157985614,0.01498911527261,0.0049963717575005,0.0049963717575848,0.0049963717575248,-0.0011863219183448,0.0011863240773945,-5.4613500923859e-09,7.6550400681923e-09,-4.1785641379692e-09,6.6281535161069e-09,-0.0013268144404211,0.0013268086633713,-0.001326810087588,0.0013268130213405,-0.0013268111111981,0.0013268122103771,-0.0013268067219726,0.0013268166023621,-0.0011907330973378,0.0011907259725311,-0.0011907202144471,0.0011907388651137,4.2812912696132e-09,-6.7059016479806e-09,-5.7391501892523e-10,-1.5948646371781e-09,-0.0011863240649111,0.0011863219308487,-0.0013268107413241,0.0013268125909444,-0.0013268110824227,0.0013268122339111,-0.0013268141591533,0.001326808952044,-0.0013268144669766,0.0013268086323234,-0.0011907319339678,0.0011907270934784,-0.0011907328802201,0.001190726125328,-0.0011907255623068,0.0011907336981402,-0.0011907361951421,0.0011907226298699,6.3803831887909e-09,-6.4834909688014e-09,-0.0011863230459162,0.0011863229498126,-5.9000851782125e-10,5.0976701617346e-10,-0.0013268096867472,0.0013268135274663,-0.001326809318552,0.0013268138596524,-0.0013268140119058,0.0013268092414871,-0.0013268136067576,0.0013268096071203,-0.0011907356545735,0.0011907233673439,-0.0011907231137026,0.0011907359305034,0.56645233158163,131329,3014,0.004931044984632,0.0049310449846743,0.004931044984611,31.823970664346,1.4591765314771e-05,1.4591765314771e-05,1.4591765314771e-05,2545758.8818667,0.014903967935663
14819200,0.96996198139128,0.015007427010296,0.0050024756700624,0.0050024756701468,0.0050024756700866,-0.0011862106043889,0.0011862127667485,-5.5367915298782e-09,7.7336320522023e-09,-4.2577955807971e-09,6.7112012849957e-09,-0.0013269470692721,0.0013269411665322,-0.0013269426386439,0.0013269456022905,-0.0013269436639562,0.0013269447899188,-0.0013269392468681,0.0013269492097626,-0.0011905745619984,0.0011905674213891,-0.0011905616069891,0.0011905803863492,4.2535007718445e-09,-6.6774983895593e-09,-5.7715308789553e-10,-1.5912138480838e-09,-0.0011862127524112,0.0011862106187501,-0.0013269433288284,0.0013269451354173,-0.0013269436424001,0.0013269448059515,-0.0013269467059728,0.0013269415374953,-0.0013269470362026,0.0013269411954144,-0.0011905733465431,0.0011905685951214,-0.0011905743640479,0.0011905675551926,-0.0011905670064416,0.0011905751677706,-0.0011905776622212,0.0011905640770161,6.5178534278754e-09,-6.6220798608882e-09,-0.0011862117341474,0.0011862116369818,-5.7551853403913e-10,4.9400348523851e-10,-0.0013269422155413,0.0013269461306269,-0.0013269418322471,0.0013269464780624,-0.001326946606435,0.0013269417791958,-0.0013269462360678,0.0013269421100974,-0.0011905772922062,0.0011905646454399,-0.0011905644003444,0.0011905775554101,0.56961684770232,131329,3014,0.0049305842380844,0.0049305842381335,0.0049305842380679,30.99551065969,7.96408527752e-06,7.96408527752e-06,7.96408527752e-06,2543007.2498015,0.014902567915018
15019200,0.97134565041382,0.015023752201365,0.0050079174004188,0.0050079174005031,0.0050079174004428,-0.001185433940641,0.0011854361052157,-5.6607542775484e-09,7.8601283954729e-09,-4.2984516396059e-09,6.7548152237375e-09,-0.0013263812140542,0.0013263751907819,-0.0013263766897407,0.0013263797200868,-0.0013263777693208,0.0013263788536996,-0.0013263732798246,0.0013263833459422,-0.0011897478248354,0.0011897405017859,-0.0011897346569613,0.0011897536786088,4.3536247242964e-09,-6.7844173381154e-09,-6.0036009324903e-10,-1.5738690054947e-09,-0.0011854360927257,0.0011854339531505,-0.0013263773944116,0.0013263792392723,-0.0013263776840046,0.0013263789337063,-0.0013263808286247,0.0013263755834446,-0.0013263811562489,0.001326375244215,-0.001189746557954,0.0011897417263386,-0.0011897475686635,0.0011897406922618,-0.0011897400558078,0.0011897484623127,-0.0011897509476867,0.0011897371321806,6.6071505632033e-09,-6.7123221054025e-09,-0.0011854350720575,0.0011854349737866,-5.626311043295e-10,4.8003175994748e-10,-0.0013263762712648,0.0013263802440164,-0.0013263758865149,0.0013263805930436,-0.0013263807119159,0.0013263758428787,-0.0013263803610213,0.0013263761538736,-0.0011897505725959,0.0011897377063414,-0.0011897374733974,0.0011897508263494,0.56737759364192,131329,3014,0.0049273647093643,0.0049273647094042,0.0049273647093388,29.892687532079,-8.5849974337029e-07,-8.5849974337029e-07,-8.5849974337029e-07,2537383.5038556,0.014892767818093
15219200,0.97256554315436,0.015037482501519,0.005012494167137,0.0050124941672214,0.0050124941671609,-0.0011839096765799,0.0011839118530922,-5.7097510465543e-09,7.9207801127811e-09,-4.4954219911792e-09,6.9652954435936e-09,-0.0013250315175627,0.0013250253638176,-0.0013250269838791,0.0013250299028893,-0.0013250279691831,0.0013250291311492,-0.0013250234127738,0.0013250336903744,-0.0011881523887722,0.0011881450176226,-0.0011881390261983,0.0011881583896762,4.379753772901e-09,-6.8124369929246e-09,-6.1744947309427e-10,-1.5582380072811e-09,-0.0011839118354863,0.0011839096942156,-0.0013250276142737,0.0013250294958958,-0.0013250279216569,0.0013250291731659,-0.0013250310986024,0.0013250257908146,-0.0013250313862745,0.0013250254913823,-0.0011881511687569,0.0011881461956909,-0.0011881520588232,0.00118814528158,-0.0011881446093646,0.0011881529878698,-0.0011881554644186,0.0011881416950426,6.7660093598231e-09,-6.8737879984362e-09,-0.0011839108151645,0.0011839107144815,-5.2814029191191e-10,4.4260699083672e-10,-0.0013250264321433,0.0013250305600813,-0.001325026099461,0.0013250308564458,-0.0013250310067087,0.0013250260252765,-0.0013250306510667,0.0013250263415623,-0.001188155240231,0.0011881421222792,-0.001188141911271,0.001188155464643,0.54391180033163,131329,3014,0.0049210452764627,0.004921045276524,0.004921045276409,28.48717699653,-1.2102584027762e-05,-1.2102584027762e-05,-1.2102584027762e-05,2530416.825163,0.014873529138814
15419200,0.97364331752865,0.015051435351305,0.0050171451170652,0.0050171451171491,0.0050171451170902,-0.001182327750476,0.0011823299276321,-5.8616693897885e-09,8.0731612915818e-09,-4.5021026836181e-09,6.9725980605037e-09,-0.0013235402509043,0.0013235339690624,-0.0013235355958277,0.001323538629169,-0.0013235366732308,0.0013235377657825,-0.001323532038919,0.0013235424029017,-0.0011865378364758,0.0011865302395254,-0.0011865242414478,0.001186543844516,4.523223927779e-09,-6.9662733225473e-09,-6.4800449158958e-10,-1.5367329355294e-09,-0.0011823299141922,0.0011823277639339,-0.0013235362595954,0.0013235381897142,-0.001323536528241,0.0013235379054683,-0.0013235398175503,0.0013235344097568,-0.0013235401101001,0.0013235341058467,-0.001186536549526,0.0011865314844346,-0.0011865374553043,0.0011865305562723,-0.0011865297607176,0.0011865385073802,-0.0011865409761864,0.0011865268540686,6.8284491288017e-09,-6.9370079704624e-09,-0.0011823288897955,0.0011823287883001,-5.1882703571961e-10,4.3236264008872e-10,-0.0013235350873101,0.0013235392434145,-0.0013235347400198,0.0013235395548063,-0.0013235396840784,0.0013235346865945,-0.0013235393566218,0.0013235349740578,-0.0011865406722572,0.0011865273585162,-0.001186527156561,0.0011865408907782,0.61487579748246,131329,3014,0.0049144864926412,0.004914486492678,0.0049144864926158,27.074220188789,-2.3406238489685e-05,-2.3406238489685e-05,-2.3406238489685e-05,2520751.6036659,0.01485356003208
15619200,0.9746148370602,0.015064293033932,0.0050214310112744,0.0050214310113584,0.0050214310112991,-0.0011812323520859,0.0011812345226322,-6.0160088364125e-09,8.2220039328943e-09,-4.4054885586427e-09,6.8696263038672e-09,-0.001322602585588,0.0013225963648614,-0.0013225979338059,0.0013226010211679,-0.0013225991765638,0.001322599992368,-0.0013225943379929,0.0013226048333931,-0.0011854712934539,0.0011854630043587,-0.0011854570811297,0.0011854772246686,4.5523801826177e-09,-6.9973146698363e-09,-6.4444409250025e-10,-1.54196787786e-09,-0.0011812345133035,0.001181232361443,-0.0013225985630947,0.001322600617335,-0.0013225989382666,0.0013226002256575,-0.0013226022426938,0.0013225967138947,-0.0013226024345699,0.0013225965106143,-0.0011854698263232,0.0011854644292697,-0.0011854704208204,0.0011854638113058,-0.0011854630051804,0.0011854714860449,-0.0011854739564346,0.0011854600919129,6.8924232004377e-09,-7.0000850027376e-09,-0.0011812334879111,0.0011812333868032,-5.308863275224e-10,4.454362114942e-10,-0.0013225973831532,0.0013226016779997,-0.0013225971317814,0.0013226018939924,-0.0013226021264947,0.0013225969737968,-0.0013226016866829,0.0013225973728496,-0.001185473678672,0.0011854605678883,-0.0011854603632306,0.0011854739103832,0.62694796436167,131329,3014,0.0049099455750703,0.0049099455751288,0.0049099455750632,25.965106306049,-3.2279149551605e-05,-3.2279149551605e-05,-3.2279149551605e-05,2505184.8500205,0.014839738110096
15819200,0.97552860719864,0.015077308945332,0.0050257696484079,0.0050257696484919,0.0050257696484324,-0.0011814175718878,0.0011814197347331,-6.0839457472807e-09,8.2814433504138e-09,-4.2668774629989e-09,6.7210041052322e-09,-0.0013229582419287,0.0013229519679434,-0.001322953445642,0.0013229567692432,-0.0013229548297694,0.0013229555980417,-0.0013229500482074,0.001322960382388,-0.0011857300200798,0.0011857218155258,-0.0011857159949018,0.001185735850391,4.2873454786828e-09,-6.7142277935784e-09,-5.787022531105e-10,-1.5922333531246e-09,-0.0011814197214464,0.0011814175852008,-0.0013229543057684,0.0013229561326595,-0.0013229546185614,0.0013229558036783,-0.0013229577056826,0.0013229525114609,-0.0013229580366245,0.0013229521691347,-0.001185728284792,0.0011857235089569,-0.0011857293045064,0.0011857224670609,-0.0011857218973977,0.0011857301289667,-0.0011857326258516,0.0011857189654805,7.0451513161692e-09,-7.1502683932087e-09,-0.0011814187023743,0.0011814186042394,-5.7789570897689e-10,4.9545036647845e-10,-0.0013229530278691,0.0013229572920254,-0.0013229526430063,0.0013229576415378,-0.0013229577703826,0.0013229525896154,-0.0013229573989167,0.0013229529208385,-0.0011857327357566,0.0011857190535824,-0.0011857188086756,0.0011857329997164,0.66919699324986,131329,3014,0.0049107145549304,0.0049107145549846,0.004910714554916,25.548440337509,-3.5612477299931e-05,-3.5612477299931e-05,-3.5612477299931e-05,2493231.6476353,0.014842082838939
16019200,0.97638958285745,0.015089538399312,0.0050298461330679,0.0050298461331518,0.005029846133092,-0.0011815791969025,0.0011815813502661,-6.1758798552274e-09,8.3639049445628e-09,-4.1042252815584e-09,6.5472085049214e-09,-0.0013233321966246,0.0013233259259938,-0.0013233273005703,0.0013233308271366,-0.0013233288552189,0.0013233294846813,-0.0013233240565581,0.0013233342860958,-0.0011859804942806,0.0011859721230187,-0.0011859664234752,0.0011859862033265,4.071720509609e-09,-6.4838595852499e-09,-5.1551871107526e-10,-1.6428128507061e-09,-0.0011815813353489,0.0011815792118496,-0.0013233283313009,0.0013233300191084,-0.0013233286404617,0.0013233296936307,-0.0013233315423904,0.0013233265878606,-0.0013233319523045,0.0013233261661981,-0.0011859784770524,0.0011859740993824,-0.0011859797326561,0.0011859728200244,-0.001185972456855,0.0011859803508,-0.001185982872629,0.0011859695010118,7.1746047959836e-09,-7.2767037679889e-09,-0.0011815803211128,0.0011815802260515,-6.2928486066182e-10,5.5037052988163e-10,-0.0013233269785467,0.0013233312537994,-0.001323326516791,0.0013233316801863,-0.0013233317645635,0.0013233265076193,-0.0013233313991494,0.0013233268332177,-0.001185983295731,0.0011859692762765,-0.0011859689919823,0.0011859835973676,0.66742792127561,131329,3014,0.0049113859702384,0.0049113859703,0.0049113859702302,25.14863530982,-3.8810917521439e-05,-3.8810917521439e-05,-3.8810917521439e-05,2480092.5654383,0.014844132193042
16219200,0.97720143899296,0.015101015191551,0.0050336717304809,0.0050336717305647,0.0050336717305048,-0.0011816840518342,0.0011816861949073,-6.3023577381796e-09,8.4801936346702e-09,-3.9306106277787e-09,6.3616622684081e-09,-0.0013236344707032,0.0013236282766052,-0.0013236295420848,0.0013236332103848,-0.0013236312962132,0.0013236316675871,-0.0013236263687982,0.0013236365977837,-0.0011861639218889,0.0011861550377877,-0.0011861494680581,0.001186169501265,3.9331100476271e-09,-6.3358491217761e-09,-4.5949600023237e-10,-1.6908723456019e-09,-0.0011816861811133,0.0011816840656526,-0.0013236306459898,0.0013236323285775,-0.0013236310377294,0.0013236319202592,-0.0013236338097007,0.0013236289452647,-0.0013236342060801,0.0013236285369834,-0.0011861616183509,0.0011861573009792,-0.0011861628304771,0.0011861560646575,-0.0011861558542337,0.0011861632953695,-0.0011861658437502,0.0011861528728514,7.2698329538288e-09,-7.3689872623798e-09,-0.0011816851693878,0.0011816850773422,-6.8119773531796e-10,6.0575182813863e-10,-0.0013236292516977,0.0013236336049717,-0.0013236288023146,0.0013236340191622,-0.001323634148543,0.0013236287479381,-0.0013236336992014,0.0013236291573753,-0.0011861664666834,0.0011861524477338,-0.0011861521248489,0.0011861668072241,0.66425604585037,131329,3014,0.0049118218781688,0.0049118218782189,0.0049118218781458,24.749469392364,-4.2004244861087e-05,-4.2004244861087e-05,-4.2004244861087e-05,2469327.2670319,0.014845463961312
16419200,0.97797032622641,0.015110714384539,0.0050369047948105,0.0050369047948943,0.0050369047948343,-0.0011818030574374,0.0011818051936922,-6.4141766591295e-09,8.5852398501099e-09,-3.8136460653187e-09,6.2367274934914e-09,-0.0013239520562012,0.001323945893338,-0.001323947085069,0.001323950869711,-0.0013239489915549,0.0013239491739739,-0.0013239439622427,0.0013239542060761,-0.0011863245277489,0.001186315253191,-0.0011863097707741,0.0011863300198118,3.8161082190149e-09,-6.2109172321022e-09,-4.0550489150281e-10,-1.7381280493972e-09,-0.0011818051798982,0.0011818030712576,-0.0013239482521888,0.0013239499241768,-0.0013239487071826,0.001323949452424,-0.0013239513652593,0.0013239465921063,-0.0013239517655218,0.0013239461797153,-0.0011863219813366,0.0011863177595201,-0.0011863232016318,0.0011863165148663,-0.0011863164422824,0.001186323527912,-0.0011863261035215,0.0011863134351664,7.3779481394547e-09,-7.4742892145362e-09,-0.0011818041701604,0.0011818040809595,-7.3000672564857e-10,6.5786285882947e-10,-0.0013239468176974,0.0013239512409606,-0.0013239463643332,0.0013239516591885,-0.0013239518153995,0.0013239462830018,-0.0013239513027581,0.0013239467558533,-0.0011863269181476,0.0011863128175321,-0.0011863124582613,0.0011863272953655,0.59981697578012,131329,3014,0.004912316296358,0.0049123162964117,0.0049123162963383,24.411975039997,-4.4704199680022e-05,-4.4704199680022e-05,-4.4704199680022e-05,2462979.3199772,0.014846973710646
16619200,0.97870257659645,0.015121740058935,0.0050405800196091,0.0050405800196929,0.0050405800196328,-0.0011821247736669,0.0011821269052527,-6.5198142251508e-09,8.6862320835723e-09,-3.7443418781023e-09,6.1619983884731e-09,-0.0013243735105052,0.0013243673119966,-0.00132436846034,0.0013243723674719,-0.0013243704835136,0.0013243705546329,-0.0013243653954068,0.0013243756455273,-0.0011866932482222,0.0011866837484617,-0.0011866783186362,0.001186698687753,3.7357919468337e-09,-6.1244687181038e-09,-3.5579042789858e-10,-1.7825844509619e-09,-0.0011821268911397,0.001182124787806,-0.0013243697030583,0.0013243713459835,-0.0013243701791297,0.0013243708529677,-0.0013243727508176,0.0013243680796956,-0.0013243731924065,0.0013243676257428,-0.0011866904981272,0.0011866864589356,-0.0011866918400519,0.001186685092158,-0.0011866851300684,0.0011866920555378,-0.0011866946572788,0.0011866820976935,7.491137900291e-09,-7.5847798401823e-09,-0.0011821258826845,0.0011821257962244,-7.7463198873036e-10,7.056517819695e-10,-0.0013243682359899,0.0013243726954708,-0.001324367741661,0.0013243731547044,-0.0013243732980424,0.0013243676730963,-0.0013243727647434,0.0013243681667121,-0.0011866956337346,0.0011866813179906,-0.0011866809249382,0.0011866960443677,0.70235631735079,131329,3014,0.0049136507078467,0.0049136507079002,0.0049136507078252,24.15809405007,-4.6735247599439e-05,-4.6735247599439e-05,-4.6735247599439e-05,2459500.8555218,0.014851037245539
16819200,0.9794003328055,0.015132293405435,0.005044097801776,0.0050440978018597,0.0050440978017995,-0.0011824140509822,0.0011824161810569,-6.631851515665e-09,8.7967931283612e-09,-3.7095493532254e-09,6.1253996553628e-09,-0.0013248632729863,0.0013248570070847,-0.0013248581333589,0.0013248621520606,-0.0013248602540928,0.0013248602414797,-0.0013248551072836,0.0013248653910664,-0.0011870834183367,0.0011870737229582,-0.0011870683183137,0.0011870888325832,3.7120114630214e-09,-6.0996633553024e-09,-3.170374806679e-10,-1.8205483210842e-09,-0.0011824161672962,0.0011824140647699,-0.0013248594345517,0.0013248610720335,-0.0013248599206677,0.0013248605688028,-0.0013248624506198,0.0013248578375205,-0.0013248629330444,0.0013248573425751,-0.0011870805005792,0.0011870766012449,-0.0011870819650735,0.0011870751114943,-0.0011870752147185,0.0011870821153989,-0.0011870847418045,0.0011870721577111,7.5959762517867e-09,-7.6876362162259e-09,-0.0011824151582491,0.0011824150737796,-8.1218497974755e-10,7.455492237771e-10,-0.0013248579497201,0.0013248624392653,-0.0013248574141659,0.0013248629397327,-0.001324863065714,0.0013248573629058,-0.0013248625219647,0.0013248578669623,-0.0011870858175716,0.0011870712786343,-0.0011870708579125,0.0011870862560928,0.70571571556349,131329,3014,0.0049148513765491,0.0049148513766046,0.0049148513765283,23.906254180948,-4.8749966552413e-05,-4.8749966552413e-05,-4.8749966552413e-05,2448863.2214621,0.01485469787102
17019200,0.98006551638156,0.015142147381467,0.0050473824604535,0.0050473824605371,0.0050473824604768,-0.0011826522428421,0.001182654373243,-6.7360368849323e-09,8.9012956042941e-09,-3.7070760486655e-09,6.1232081559587e-09,-0.0013252972232595,0.0013252908971976,-0.0013252920216501,0.0013252961042425,-0.0013252942133954,0.0013252941225466,-0.0013252889895227,0.0013252993492347,-0.0011874122235122,0.0011874023008146,-0.0011873968973138,0.0011874176364942,3.7008922259644e-09,-6.0882690549014e-09,-2.8297639353978e-10,-1.8544505479045e-09,-0.0011826543592344,0.0011826522568843,-0.0013252933433631,0.0013252950036288,-0.0013252938595696,0.0013252944702283,-0.0013252963594922,0.0013252917691441,-0.0013252968569284,0.0013252912590663,-0.0011874091659811,0.0011874053190668,-0.0011874106750445,0.0011874037843292,-0.0011874039394315,0.0011874107736339,-0.0011874134225918,0.0011874008600608,7.7076143563192e-09,-7.7975953996954e-09,-0.001182653349428,0.0011826532666517,-8.4454789740616e-10,7.7991345676749e-10,-0.0013252918395344,0.0013252963898667,-0.0013252912892147,0.0013252969050552,-0.0013252970369404,0.0013252912320746,-0.001325296463405,0.0013252917659475,-0.0011874145947612,0.0011873998845982,-0.0011873994397628,0.0011874150571631,0.69245975783578,131329,3014,0.0049158401679426,0.0049158401680119,0.0049158401679321,23.654491643094,-5.0764066855246e-05,-5.0764066855246e-05,-5.0764066855246e-05,2440098.2129129,0.014857713136779
17219200,0.98068465487018,0.015151061727991,0.0050503539092947,0.0050503539093783,0.0050503539093181,-0.0011820648020741,0.0011820669323807,-6.9200520173963e-09,9.0855705818788e-09,-3.7200887006085e-09,6.1366926258997e-09,-0.001324870157574,0.0013248636963813,-0.0013248648308092,0.0013248690283077,-0.0013248671354496,0.0013248669338699,-0.0013248617918046,0.0013248722800462,-0.0011868814241017,0.0011868711558413,-0.0011868657448275,0.0011868868443658,3.9231393850077e-09,-6.3260482657039e-09,-2.8828142410157e-10,-1.8626201578126e-09,-0.0011820669252344,0.0011820648092394,-0.0013248661419963,0.0013248679395419,-0.0013248666562627,0.001324867407508,-0.0013248693068478,0.0013248645541538,-0.001324869808049,0.0013248640403671,-0.0011868782720164,0.0011868742682205,-0.0011868797917256,0.0011868727236959,-0.0011868727458849,0.0011868800239922,-0.0011868826860851,0.0011868696498592,7.7383776548157e-09,-7.8286922178854e-09,-0.0011820659088021,0.0011820658256302,-8.4431485981942e-10,7.7935057652191e-10,-0.001324864697279,0.0013248692658771,-0.0013248641447103,0.0013248697834936,-0.001324869912853,0.0013248640895045,-0.0013248693418343,0.0013248646197932,-0.0011868836554592,0.0011868688760355,-0.0011868684353454,0.0011868841200039,0.67475987014196,131329,3014,0.004913405409445,0.0049134054094838,0.004913405409399,22.994896011834,-5.6040831905331e-05,-5.6040831905331e-05,-5.6040831905331e-05,2430798.3897191,0.014850303879908
17419200,0.98124970867546,0.015158835031121,0.005052945010338,0.0050529450104216,0.0050529450103615,-0.0011807612298872,0.0011807633677679,-7.0862984173299e-09,9.2590967890665e-09,-3.8461748622922e-09,6.271362974166e-09,-0.0013236852550317,0.0013236785924136,-0.0013236798063744,0.001323684046361,-0.0013236821369678,0.001323681926298,-0.0013236766894008,0.0013236873765773,-0.0011856004898637,0.0011855900104089,-0.0011855845051598,0.0011856060048393,4.191420210585e-09,-6.6123993628634e-09,-3.2163609623436e-10,-1.8447919985241e-09,-0.0011807633646714,0.0011807612329906,-0.0013236810676573,0.0013236830080318,-0.0013236815558921,0.0013236825020604,-0.0013236844073753,0.0013236794468406,-0.0013236849007281,0.0013236789414147,-0.0011855973429657,0.0011855931152224,-0.0011855988414519,0.0011855915958035,-0.0011855914191323,0.0011855992699453,-0.0011856019325983,0.0011855883245878,7.7826380445147e-09,-7.8745751951919e-09,-0.0011807623411601,0.0011807622564611,-8.1849471672471e-10,7.5166790644378e-10,-0.0013236796751283,0.0013236842815529,-0.0013236791314578,0.0013236847904012,-0.0013236849125116,0.0013236790842591,-0.0013236843679103,0.0013236795874088,-0.0011856026821888,0.0011855877680409,-0.001185587348311,0.0011856031288715,0.64747797907887,131329,3014,0.0049080010952291,0.0049080010952428,0.0049080010951595,21.991936294496,-6.4064509644034e-05,-6.4064509644034e-05,-6.4064509644034e-05,2421128.7190159,0.014833852435426
17619200,0.98176581306456,0.015165650825856,0.0050552169419162,0.0050552169419999,0.0050552169419399,-0.0011793805948361,0.0011793827562417,-7.0152128289459e-09,9.2112286774632e-09,-4.2301665353749e-09,6.6821609545108e-09,-0.001322382485614,0.0013223756302406,-0.0013223770830999,0.0013223810380783,-0.0013223791146516,0.0013223792188916,-0.001322373696568,0.0013223846397437,-0.0011842164677166,0.0011842063693899,-0.0011842005758981,0.0011842222710504,4.1705816079538e-09,-6.5893261090516e-09,-3.531158876522e-10,-1.8110718062321e-09,-0.0011793827402977,0.0011793806107955,-0.0013223782136603,0.0013223801308123,-0.00132237868887,0.0013223796384884,-0.001322381550014,0.0013223765739217,-0.0013223820132444,0.0013223760983868,-0.0011842135476413,0.0011842092478725,-0.0011842149568402,0.0011842078164242,-0.00118420761042,0.0011842154159342,-0.0011842180548679,0.0011842045395355,8.0563068597085e-09,-8.1497656840761e-09,-0.0011793817186375,0.0011793816324145,-7.9077828156043e-10,7.2215709139068e-10,-0.0013223767061458,0.001322381519627,-0.0013223761897307,0.0013223820008326,-0.0013223821329937,0.0013223761329107,-0.0013223815998399,0.0013223766259531,-0.0011842191193381,0.0011842036709624,-0.001184203268267,0.001184219542196,0.62390233490619,131329,3014,0.0049022769676397,0.0049022769676709,0.0049022769675867,20.980554374784,-7.2155565001727e-05,-7.2155565001727e-05,-7.2155565001727e-05,2413756.0229031,0.014816426191762
17819200,0.98223841349275,0.01517166623168,0.0050572220771908,0.0050572220772745,0.0050572220772145,-0.0011779902610961,0.0011779924342231,-7.0591933404891e-09,9.2667434038794e-09,-4.4313902390112e-09,6.8968386957238e-09,-0.0013210392711785,0.0013210322597885,-0.0013210338384794,0.0013210376977548,-0.001321035767162,0.0013210359824412,-0.0013210303111086,0.0013210414412459,-0.0011828028516885,0.001182792794386,-0.0011827868503761,0.0011828088053366,4.2496463203495e-09,-6.6740951059795e-09,-3.8780291241618e-10,-1.7811791494306e-09,-0.0011779924148347,0.0011779902805113,-0.0013210349047371,0.0013210368552777,-0.0013210353624947,0.0013210363806309,-0.0013210383005195,0.0013210332388412,-0.0013210387383812,0.0013210327886773,-0.0011828000201969,0.0011827955859518,-0.0011828013523117,0.0011827942278404,-0.0011827939331233,0.001182801904257,-0.0011828045250071,0.0011827908764358,8.220679983987e-09,-8.3157991428679e-09,-0.0011779913916307,0.001177991303676,-7.6055751087246e-10,6.8997223093961e-10,-0.0013210333477342,0.0013210382934543,-0.0013210328560169,0.0013210387498779,-0.0013210388878148,0.0013210327936523,-0.0013210383717342,0.0013210332698967,-0.0011828056922522,0.0011827899099459,-0.0011827895265491,0.0011828060896868,0.60341628302676,131329,3014,0.0048965123338153,0.0048965123338703,0.0048965123337901,19.990840868155,-8.0073273054756e-05,-8.0073273054756e-05,-8.0073273054756e-05,2408474.3488735,0.014798875918837
18019200,0.9826721530695,0.015177182888549,0.0050590609628138,0.0050590609628974,0.0050590609628375,-0.0011766002295815,0.0011766024093957,-7.1354928001812e-09,9.349682694788e-09,-4.5453644253545e-09,7.0186083999194e-09,-0.0013196678622895,0.0013196607311261,-0.0013196623818785,0.0013196662166472,-0.0013196642855072,0.0013196645269681,-0.0013196587706143,0.001319670044604,-0.0011813783098827,0.0011813681653793,-0.001181362136672,0.0011813843485046,4.3277019603435e-09,-6.7578894027205e-09,-4.2133271249397e-10,-1.7525010585747e-09,-0.0011766023891157,0.0011766002498899,-0.0013196634190228,0.0013196654035292,-0.0013196638619735,0.0013196649442372,-0.001319666874259,0.001319661727776,-0.0013196672855853,0.0013196613036446,-0.001181375503721,0.0011813709327693,-0.0011813767572346,0.0011813696515695,-0.0011813692697158,0.0011813773980925,-0.0011813800019676,0.0011813662273646,8.3550848879507e-09,-8.4520698705378e-09,-0.0011766013644104,0.0011766012745586,-7.3063327124333e-10,6.5788708847163e-10,-0.0013196618219007,0.0013196668821237,-0.0013196613562146,0.0013196673119682,-0.0013196674574661,0.0013196612864195,-0.0013196669567243,0.0013196617477999,-0.0011813812430221,0.0011813651894716,-0.0011813648273402,0.0011813816170861,0.60265703313415,131329,3014,0.0048907487319494,0.0048907487320076,0.0048907487319329,19.019440225299,-8.7844478197612e-05,-8.7844478197612e-05,-8.7844478197612e-05,2404477.724684,0.014781328224849
18219200,0.98307064698511,0.015182355426933,0.0050607851422753,0.0050607851423589,0.0050607851422991,-0.0011751855874007,0.0011751877606357,-7.4404399113151e-09,9.6480301479487e-09,-4.4326282725431e-09,6.8984005031881e-09,-0.0013182633504562,0.001318256061971,-0.001318257646098,0.00131826177149,-0.0013182598190833,0.0013182598118502,-0.0013182541350032,0.0013182654986475,-0.0011799324051837,0.0011799216684013,-0.001179915721415,0.0011799383615762,4.5673918744106e-09,-7.0138188089734e-09,-4.5711803816792e-10,-1.7308408806163e-09,-0.0011751877507477,0.0011751855973192,-0.0013182587788444,0.0013182608632782,-0.0013182591750405,0.0013182604502825,-0.0013182623662545,0.0013182570534702,-0.0013182627862889,0.0013182566215016,-0.0011799293764591,0.0011799246552287,-0.0011799306592458,0.0011799233496468,-0.0011799227797351,0.0011799314848684,-0.0011799340857,0.0011799197425693,8.2675729724384e-09,-8.3661973890008e-09,-0.0011751867197807,0.0011751866282481,-7.0001707401772e-10,6.253308038673e-10,-0.0013182572619019,0.0013182622608734,-0.0013182567900841,0.0013182626972757,-0.0013182628170551,0.0013182567460794,-0.0013182623640386,0.0013182571582755,-0.0011799350071372,0.0011799190199291,-0.0011799186843555,0.001179935361794,0.61338751149905,131329,3014,0.0048848830204027,0.0048848830204652,0.0048848830203875,18.048487615643,-9.5612099074857e-05,-9.5612099074857e-05,-9.5612099074857e-05,2399897.0694249,0.014763469964903
18419200,0.98344638596618,0.015187270285048,0.0050624234283138,0.0050624234283972,0.0050624234283374,-0.0011744973682438,0.0011744995383366,-7.570637838799e-09,9.7745798435894e-09,-4.3769711793585e-09,6.8385112588223e-09,-0.0013176036191745,0.001317596261469,-0.0013175978089251,0.0013176020770614,-0.0013176001072691,0.0013175999916436,-0.0013175943570394,0.0013176057447133,-0.0011792323051218,0.001179221334886,-0.0011792154294399,0.0011792382214623,4.4808695343703e-09,-6.9213663311971e-09,-4.574721854542e-10,-1.7253948019701e-09,-0.0011744995274392,0.0011744973791695,-0.0013175990504467,0.0013176010594927,-0.0013175994246309,0.0013176006683371,-0.0013176025596775,0.0013175973284359,-0.0013176029977908,0.0013175968788565,-0.0011792291009827,0.0011792244969969,-0.0011792304388477,0.0011792231395112,-0.0011792226166937,0.0011792312127227,-0.0011792338093766,0.0011792195896468,8.3537576991424e-09,-8.4530972537402e-09,-0.0011744984992755,0.0011744984072934,-6.912070785688e-10,6.1572291152888e-10,-0.0013175974742937,0.0013176025163139,-0.0013175969887232,0.0013176029666694,-0.0013176030670662,0.0013175969645088,-0.0013176026399521,0.0013175973507701,-0.001179234908632,0.0011792186874211,-0.0011792183558677,0.00117923525578,0.61738403050567,131329,3014,0.0048820294632589,0.004882029463317,0.0048820294632358,17.47575083992,-0.00010019399328064,-0.00010019399328064,-0.00010019399328064,2397089.4652919,0.01475478263244
18619200,0.98380828093909,0.015191957343016,0.0050639857809697,0.0050639857810531,0.0050639857809933,-0.0011744090194569,0.0011744111827125,-7.5962893523393e-09,9.7939477040323e-09,-4.2675078200948e-09,6.7216010208792e-09,-0.0013175596104434,0.0013175523246519,-0.0013175538025765,0.0013175581377413,-0.0013175561941296,0.0013175559587751,-0.0013175504076137,0.0013175617480266,-0.0011791406409158,0.0011791294851294,-0.0011791236627376,0.0011791464730129,4.261914380983e-09,-6.6870939918136e-09,-4.3997021500514e-10,-1.7297021166535e-09,-0.0011744111685956,0.0011744090335993,-0.0013175551324484,0.0013175570314223,-0.0013175555332615,0.0013175566134801,-0.0013175585115748,0.0013175534310999,-0.001317558937652,0.001317552993423,-0.0011791372813742,0.0011791328034936,-0.0011791385794035,0.0011791314824571,-0.0011791311100095,0.0011791392061066,-0.0011791417942992,0.0011791280883966,8.5467822686685e-09,-8.645120807023e-09,-0.0011744101466652,0.0011744100554901,-7.0557462317959e-10,6.3123729592803e-10,-0.0013175534331113,0.0013175586117716,-0.0013175529570988,0.0013175590527252,-0.0013175591714639,0.0013175529139294,-0.001317558715329,0.0013175533295628,-0.0011791433057345,0.0011791267753247,-0.0011791264342607,0.0011791436634153,0.61178640031809,131329,3014,0.0048816632622964,0.0048816632623487,0.0048816632622679,17.2307752515,-0.000102153797988,-0.000102153797988,-0.000102153797988,2396647.8863878,0.014753668086443
18819200,0.98415712321667,0.0151967868851,0.0050655956283309,0.0050655956284143,0.0050655956283544,-0.0011743392863547,0.0011743414406331,-7.6742357569537e-09,9.8630418286659e-09,-4.1209985351471e-09,6.5647360186444e-09,-0.0013175258844276,0.0013175186559786,-0.0013175200415081,0.0013175245041308,-0.0013175225835968,0.0013175221739493,-0.0013175167327632,0.0013175280275338,-0.0011790711015143,0.0011790596475203,-0.0011790539352871,0.0011790768234189,4.090010542383e-09,-6.5031834779109e-09,-4.235188687447e-10,-1.7358633188073e-09,-0.0011743414258032,0.0011743393012106,-0.0013175214775999,0.0013175232907343,-0.0013175219007163,0.0013175228507093,-0.0013175247536659,0.0013175197945564,-0.0013175251725094,0.0013175193637951,-0.0011790675399009,0.0011790631686417,-0.0011790688153854,0.0011790618691797,-0.0011790616167124,0.0011790693221635,-0.0011790719072445,0.0011790585988914,8.6887178861622e-09,-8.786206590008e-09,-0.0011743404086498,0.0011743403183241,-7.1959152841393e-10,6.4624594886516e-10,-0.0013175196858872,0.0013175249640377,-0.0013175192148338,0.0013175253999789,-0.0013175255324153,0.0013175191577495,-0.0013175250521747,0.0013175195978411,-0.0011790737286337,0.0011790569756063,-0.0011790566240217,0.0011790740967366,0.64922936840942,131329,3014,0.0048813742118248,0.0048813742118779,0.0048813742117966,16.993817658358,-0.00010404945873313,-0.00010404945873313,-0.00010404945873313,2396145.6828965,0.01475278815641
19019200,0.98449348666265,0.015201746131406,0.0050672487104329,0.0050672487105163,0.0050672487104564,-0.0011742704430153,0.0011742725879362,-7.7969817435598e-09,9.9765427267032e-09,-3.9651343613376e-09,6.3980715480707e-09,-0.0013175267240292,0.0013175195160448,-0.0013175208038149,0.0013175254415189,-0.0013175235307774,0.0013175229257134,-0.0013175176006693,0.0013175288585876,-0.0011790314731154,0.0011790196680962,-0.0011790140724402,0.0011790370784154,3.9562811484792e-09,-6.3601963781753e-09,-4.0747321475378e-10,-1.7440101462486e-09,-0.0011742725737967,0.0011742704571828,-0.0013175223649701,0.0013175241024125,-0.0013175227970946,0.0013175236533371,-0.001317525549804,0.0013175206980565,-0.0013175259756797,0.0013175202602188,-0.0011790276755238,0.0011790234254442,-0.0011790289719062,0.0011790221049981,-0.0011790219496733,0.0011790293808774,-0.0011790319661514,0.0011790189328154,8.7859606779322e-09,-8.8827732337869e-09,-0.001174271560288,0.0011742714706516,-7.313932264978e-10,6.5884058869579e-10,-0.0013175205062614,0.0013175258430119,-0.001317520028094,0.0013175262861565,-0.0013175264187909,0.0013175199706042,-0.0013175259294332,0.0013175204198458,-0.0011790340135575,0.001179017082688,-0.0011790167226017,0.0011790343908396,0.6871910095616,131329,3014,0.0048810891598412,0.0048810891598984,0.0048810891598172,16.757162918345,-0.00010594269665324,-0.00010594269665324,-0.00010594269665324,2392128.4680645,0.014751921922502
19219200,0.98482833778375,0.015206838398069,0.0050689461326539,0.0050689461327373,0.0050689461326773,-0.0011751404039011,0.0011751425366256,-7.9342128717136e-09,1.0101696103648e-08,-3.7537282000037e-09,6.1724964927044e-09,-0.0013185153713878,0.0013185082008472,-0.001318509355228,0.0013185142223095,-0.0013185123142883,0.0013185114734432,-0.0013185063056845,0.0013185174848037,-0.0011799683119764,0.0011799561183102,-0.0011799506804592,0.0011799737595521,3.7805260239355e-09,-6.1728804686948e-09,-3.6669593199843e-10,-1.7749997371762e-09,-0.0011751425236254,0.0011751404169263,-0.0013185110787671,0.0013185127200231,-0.001318511525923,0.0013185122557411,-0.00131851413424,0.0013185094457815,-0.0013185145926474,0.0013185089752831,-0.001179964206539,0.0011799601835903,-0.001179965599601,0.001179958766892,-0.0011799587657011,0.0011799658529245,-0.0011799684526013,0.0011799557366083,8.8708234008461e-09,-8.965660095709e-09,-0.0011751415140752,0.0011751414264362,-7.6577948060958e-10,6.9554618357095e-10,-0.0013185091593045,0.0013185145216973,-0.0013185086487301,0.0013185149973818,-0.0013185151191937,0.0013185086018043,-0.00131851461486,0.0013185090660628,-0.0011799707402207,0.0011799536447221,-0.0011799532595309,0.0011799711437794,0.70677987815764,131329,3014,0.0048846970857494,0.0048846970858005,0.0048846970857183,17.022341863764,-0.00010382126508989,-0.00010382126508989,-0.00010382126508989,2389401.7805197,0.014762908782448
19419200,0.98516683894178,0.015211871654674,0.0050706238848557,0.005070623884939,0.0050706238848792,-0.0011764729163897,0.0011764750386486,-8.0224758885155e-09,1.0179811029878e-08,-3.5715775350521e-09,5.9784112501106e-09,-0.0013199971528425,0.0013199900520109,-0.0013199910917237,0.0013199961183589,-0.001319994230978,0.0013199931885413,-0.0013199881564389,0.0013199992657131,-0.0011813773710355,0.0011813648472512,-0.0011813595456608,0.0011813826820592,3.6120552375581e-09,-5.9936949355538e-09,-3.1877132765503e-10,-1.8138769911245e-09,-0.0011764750263073,0.0011764729287595,-0.0013199929286365,0.0013199945023625,-0.0013199934150215,0.0013199939985439,-0.0013199958788538,0.0013199913335785,-0.0013199963555192,0.0013199908444738,-0.0011813730117488,0.0011813691673764,-0.0011813744581851,0.0011813676964046,-0.0011813678561626,0.0011813745505896,-0.0011813771692459,0.001181364807893,9.0038226996323e-09,-9.0964507969075e-09,-0.0011764740202535,0.0011764739347729,-8.0691511562064e-10,7.3930155181566e-10,-0.0013199909394182,0.001319996374005,-0.0013199904110852,0.0013199968675635,-0.0013199969974964,0.0013199903553283,-0.0013199964543811,0.001319990858341,-0.0011813797321837,0.0011813624396291,-0.0011813620251763,0.0011813801674244,0.69264757942834,131329,3014,0.0048902230313457,0.0048902230314038,0.0048902230313217,17.538803184853,-9.9689574521174e-05,-9.9689574521174e-05,-9.9689574521174e-05,2388908.5100059,0.014779735750604
19619200,0.98550886368381,0.015216824688424,0.0050722748961058,0.0050722748961891,0.0050722748961292,-0.0011778102942765,0.001177812411495,-8.1196476056921e-09,1.0271837076075e-08,-3.4696262044776e-09,5.8702805714287e-09,-0.0013214713527678,0.0013214642599623,-0.00132146523425,0.0013214703838701,-0.0013214685066228,0.0013214673204308,-0.0013214623631191,0.0013214734666802,-0.001182776089596,0.0011827632886995,-0.0011827580617388,0.0011827813261519,3.5033075914873e-09,-5.8780865064701e-09,-2.7996824388935e-10,-1.8469064870458e-09,-0.0011778123987426,0.0011778103070562,-0.0013214671518057,0.0013214686864195,-0.0013214676678669,0.0013214681530521,-0.0013214700338612,0.0013214655869153,-0.001321470528517,0.0013214650796591,-0.0011827715247213,0.0011827678143449,-0.0011827730246004,0.0011827662896977,-0.0011827665629902,0.0011827730028251,-0.0011827756403004,0.0011827634979709,9.1252730401725e-09,-9.2159661784417e-09,-0.0011778113946138,0.0011778113111444,-8.4127227068019e-10,7.7593035227212e-10,-0.0013214651110683,0.0013214706098995,-0.0013214645647821,0.0013214711214406,-0.001321471255223,0.0013214645054622,-0.0013214706827312,0.0013214650381165,-0.0011827784090414,0.0011827609235019,-0.0011827604827996,0.0011827788693907,0.67638953755717,131329,3014,0.0048957689785569,0.0048957689786129,0.0048957689785302,18.061475904737,-9.5508192762107e-05,-9.5508192762107e-05,-9.5508192762107e-05,2390587.2037067,0.014796623108526
19819200,0.98585413986802,0.015221671946245,0.0050738906487126,0.0050738906487959,0.0050738906487361,-0.0011791413739117,0.0011791434881332,-8.2365734215711e-09,1.0385766409436e-08,-3.4126421808298e-09,5.8097013103188e-09,-0.0013229236733721,0.0013229165360921,-0.0013229174741546,0.0013229227407997,-0.0013229208624572,0.001322919561035,-0.0013229146458813,0.0013229257804255,-0.0011841538712496,0.0011841408131225,-0.0011841356280881,0.001184159065735,3.4276135350669e-09,-5.7974973989377e-09,-2.4695708587227e-10,-1.8757837386421e-09,-0.0011791434747919,0.0011791413872891,-0.0013229194655648,0.0013229209691044,-0.0013229199983717,0.0013229204189731,-0.0013229222921087,0.0013229179255592,-0.0013229228110824,0.0013229173938344,-0.0011841491141788,0.0011841455317838,-0.0011841506850211,0.0011841439347288,-0.0011841442954225,0.0011841505766848,-0.0011841532302606,0.0011841412140469,9.2257558677852e-09,-9.3147939856142e-09,-0.0011791424719133,0.0011791423901267,-8.7128722665565e-10,8.0790309755611e-10,-0.0013229173875939,0.0013229229300224,-0.0013229168167694,0.0013229234660584,-0.0013229235943634,0.0013229167628859,-0.0013229230050599,0.0013229173124709,-0.0011841561541728,0.001184138485071,-0.0011841380213877,0.0011841566364104,0.65786894766554,131329,3014,0.0049012886314055,0.0049012886314797,0.0049012886313964,18.58438368259,-9.1324930539282e-05,-9.1324930539282e-05,-9.1324930539282e-05,2393948.7190982,0.014813429898948
20019200,0.98619310420118,0.015226612295295,0.0050755374317295,0.0050755374318127,0.005075537431753,-0.0011796590117857,0.0011796611312976,-8.3667090484876e-09,1.0521184059578e-08,-3.5032917854289e-09,5.9065094551905e-09,-0.0013235269794556,0.001323519688882,-0.0013235206843129,0.0013235259894524,-0.0013235240985568,0.0013235227841965,-0.001323517801299,0.0013235290842077,-0.0011846985488458,0.0011846853212751,-0.0011846800685777,0.0011847038110985,3.5488026855128e-09,-5.9269233210389e-09,-2.5451965164806e-10,-1.8753206158568e-09,-0.0011796611189034,0.0011796590242043,-0.0013235226623094,0.0013235242317873,-0.0013235231847452,0.0013235236918571,-0.001323525564212,0.0013235211121589,-0.0013235260881954,0.0013235205755226,-0.0011846937445255,0.0011846900866931,-0.0011846953306619,0.001184688474885,-0.0011846887561063,0.0011846953020367,-0.001184697959862,0.0011846856694563,9.3076518819182e-09,-9.3969666771184e-09,-0.0011796601125627,0.0011796600305036,-8.6760472135955e-10,8.0392171044946e-10,-0.0013235205922872,0.0013235261843546,-0.0013235200164592,0.0013235267254895,-0.0013235268464493,0.0013235199699605,-0.0013235262671985,0.0013235205092193,-0.0011847008400986,0.0011846829844585,-0.0011846825240436,0.0011847013196015,0.68048383897357,131329,3014,0.0049034352958511,0.0049034352959007,0.0049034352958164,18.671590199171,-9.0627278406632e-05,-9.0627278406632e-05,-9.0627278406632e-05,2394863.0451083,0.014819966671269
20219200,0.98652334703629,0.01523157023053,0.0050771900768078,0.0050771900768909,0.0050771900768313,-0.0011799459455415,0.0011799480729282,-8.512976658936e-09,1.0675260217716e-08,-3.6387335051303e-09,6.0511256093251e-09,-0.001323909272937,0.0013239017840572,-0.0013239028650969,0.0013239081972746,-0.0013239062863053,0.0013239049856272,-0.001323899901736,0.0013239113729171,-0.0011850252424855,0.001185011859516,-0.0011850065060476,0.0011850306054693,3.7551227631563e-09,-6.1475747891704e-09,-2.7879992727455e-10,-1.863368152314e-09,-0.0011799480628223,0.0011799459556714,-0.0013239048044689,0.0013239064790723,-0.001323905302141,0.0013239059638356,-0.0013239078352111,0.0013239032294556,-0.0013239083599336,0.001323902692261,-0.0011850204364034,0.001185016625928,-0.0011850220252851,0.0011850150124435,-0.0011850151441248,0.0011850221462627,-0.0011850248045556,0.0011850120558781,9.3716968215069e-09,-9.4621503378023e-09,-0.0011799470508368,0.0011799469676152,-8.4940826963101e-10,7.844067704116e-10,-0.0013239027657793,0.0013239083998218,-0.0013239021898393,0.0013239089410283,-0.0013239090505293,0.0013239021549521,-0.0013239084963488,0.0013239026687108,-0.0011850275447647,0.0011850095108704,-0.0011850090648442,0.0011850280111431,0.69908659757221,131329,3014,0.004904625535608,0.004904625535657,0.004904625535572,18.638390530546,-9.0892875755632e-05,-9.0892875755632e-05,-9.0892875755632e-05,2392843.4162939,0.014823592288502
20419200,0.98684504411633,0.015236405947494,0.0050788019824624,0.0050788019825455,0.0050788019824859,-0.0011802147578099,0.0011802168989658,-8.5629411319674e-09,1.0738786628263e-08,-3.8670320949416e-09,6.295191109174e-09,-0.0013242866058459,0.001324278947804,-0.0013242801722187,0.0013242853868427,-0.0013242834750301,0.0013242822946052,-0.001324277040127,0.0013242887322669,-0.001185342260447,0.0011853289020441,-0.0011853233774406,0.0011853477946735,3.8850753523342e-09,-6.286106875283e-09,-3.0607386124187e-10,-1.843348593374e-09,-0.001180216885653,0.0011802147711476,-0.0013242820135602,0.0013242837671999,-0.0013242825079264,0.0013242832555657,-0.0013242851461474,0.0013242804155346,-0.0013242856428737,0.0013242799063483,-0.0011853375560379,0.001185333566413,-0.0011853390627916,0.0011853320355068,-0.0011853320568243,0.0011853392943919,-0.0011853419446528,0.0011853289762719,9.5290655190012e-09,-9.6208599311567e-09,-0.0011802158706595,0.0011802157860996,-8.2745244183707e-10,7.6089635919735e-10,-0.0013242799486872,0.0013242857140027,-0.0013242794000901,0.0013242862276586,-0.0013242863509275,0.0013242793518311,-0.0013242857997795,0.0013242798628222,-0.0011853447205699,0.0011853263962192,-0.001185325965811,0.0011853451697053,0.69998400977269,131329,3014,0.0049057407594366,0.0049057407594873,0.0049057407594027,18.602150718446,-9.1182794252432e-05,-9.1182794252432e-05,-9.1182794252432e-05,2389864.1210532,0.014826990116991
20619200,0.98715842767044,0.015240601909989,0.0050802006366274,0.0050802006367106,0.005080200636651,-0.0011804486219807,0.0011804507726325,-8.6735679048661e-09,1.0858800218989e-08,-4.0331946747888e-09,6.4723901911578e-09,-0.0013246319494011,0.0013246241071433,-0.0013246254364322,0.001324630625463,-0.0013246287024385,0.0013246275707691,-0.0013246221928154,0.001324634083155,-0.0011856091102696,0.0011855956556494,-0.0011855900070753,0.0011856147684721,4.0617695877496e-09,-6.4746464797849e-09,-3.3629985439713e-10,-1.8232198158224e-09,-0.001180450759674,0.0011804486349631,-0.0013246272190145,0.0013246290653516,-0.0013246276943412,0.0013246285727656,-0.0013246304706165,0.0013246255938128,-0.0013246309529707,0.0013246250991649,-0.0011856044450188,0.0011856002807722,-0.0011856059084799,0.0011855987926512,-0.0011855986729926,0.0011856062825423,-0.0011856089257225,0.0011855955972813,9.62778759958e-09,-9.7210606495641e-09,-0.0011804497403228,0.0011804496542724,-8.0310719327358e-10,7.348250743925e-10,-0.001324625160652,0.0013246310052265,-0.001324624626574,0.0013246315043402,-0.0013246316268778,0.0013246245792468,-0.0013246310947397,0.0013246250710117,-0.001185611631822,0.0011855930887118,-0.0011855926761312,0.0011856120621618,0.6309912489663,131329,3014,0.0049067110173662,0.0049067110174149,0.0049067110173296,18.565795426797,-9.1473636585627e-05,-9.1473636585627e-05,-9.1473636585627e-05,2388139.8705256,0.014829946598144
20819200,0.98744912179088,0.015244810521205,0.0050816035070328,0.0050816035071159,0.0050816035070564,-0.0011792080407039,0.0011792102098505,-8.7554436898523e-09,1.095895302339e-08,-4.3453191013077e-09,6.8058939894927e-09,-0.0013234017440013,0.0013233936462838,-0.0013233951721215,0.0013234002234399,-0.0013233982849133,0.0013233973233841,-0.001323391712557,0.0013234038985001,-0.0011843474409604,0.0011843340362159,-0.0011843281543028,0.0011843533330028,4.33192542109e-09,-6.7630551675717e-09,-4.11826726166e-10,-1.7632417528013e-09,-0.0011792101955315,0.0011792080550391,-0.0013233968226633,0.0013233987965116,-0.0013233972550591,0.0013233983472527,-0.0013234002617901,0.0013233951363476,-0.001323400697273,0.0013233946888013,-0.0011843429703707,0.0011843384660256,-0.0011843442959997,0.0011843371167548,-0.0011843367431707,0.0011843449247184,-0.0011843475384292,0.0011843336949592,9.7496940694798e-09,-9.8467952378117e-09,-0.0011792091701813,0.0011792090803456,-7.3801121008765e-10,6.6526224578328e-10,-0.0013233947650374,0.0013234007352729,-0.0013233942776923,0.0013234011873679,-0.001323401315695,0.0013233942250031,-0.0013234008265473,0.0013233946737234,-0.0011843501305473,0.001184331301738,-0.0011843309371681,0.0011843505115329,0.67642718174221,131329,3014,0.0049015671653401,0.0049015671653727,0.0049015671652836,17.742640376915,-9.8058876984681e-05,-9.8058876984681e-05,-9.8058876984681e-05,2384130.2395106,0.014814285049132
21019200,0.98771751550749,0.01524856574298,0.0050828552476245,0.0050828552477076,0.0050828552476481,-0.0011777735104528,0.0011777756927937,-8.8481019455592e-09,1.1064882629372e-08,-4.586343878578e-09,7.062581766622e-09,-0.0013220083531552,0.0013220000364548,-0.0013220017154609,0.0013220066792709,-0.0013220047289587,0.0013220038796358,-0.0013219980901771,0.0013220105211397,-0.0011829126203899,0.0011828991985701,-0.0011828931380536,0.0011829186907002,4.5675623777308e-09,-7.013928779919e-09,-4.8556270852997e-10,-1.7023918541386e-09,-0.0011777756784232,0.0011777735248313,-0.0013220032706191,0.0013220053489186,-0.001322003658714,0.0013220049441193,-0.0013220068711337,0.0013220015259907,-0.0013220072616908,0.001322001123621,-0.0011829082949159,0.0011829034828097,-0.0011829094874033,0.0011829022665193,-0.0011829016608731,0.0011829103502378,-0.0011829129309417,0.0011828986416866,9.8633254119438e-09,-9.9642582191629e-09,-0.0011777746484935,0.001177774554718,-6.7227149186151e-10,5.950439874617e-10,-0.0013220012054834,0.0013220072947427,-0.0013220007638145,0.001322007701015,-0.001322007833601,0.0013220007069131,-0.0013220073894318,0.0013220011104501,-0.001182915438305,0.0011828963347395,-0.0011828960202468,0.0011829157703382,0.65601665592516,131329,3014,0.0048956193990092,0.004895619399025,0.0048956193989374,16.832031092178,-0.00010534375126257,-0.00010534375126257,-0.00010534375126257,2375963.9238506,0.014796178006431
21219200,0.98796548982398,0.015252058927439,0.0050840196424439,0.0050840196425271,0.0050840196424676,-0.0011763180100886,0.0011763202024934,-8.9372862798625e-09,1.1163848578442e-08,-4.7613723110501e-09,7.2491339997558e-09,-0.001320565759396,0.0013205572704469,-0.0013205590596191,0.001320563975294,-0.0013205620161409,0.0013205612334928,-0.0013205553136627,0.0013205679387081,-0.0011814448010013,0.00118143132352,-0.0011814251321392,0.0011814510020372,4.7343675905965e-09,-7.1917780218203e-09,-5.5118892263995e-10,-1.6461201347034e-09,-0.0011763201877913,0.0011763180248085,-0.0013205605579081,0.0013205627021956,-0.0013205609064819,0.0013205623373525,-0.0013205642739424,0.0013205587635281,-0.0013205646232031,0.0013205584026305,-0.0011814405703134,0.0011814355124064,-0.0011814416413555,0.0011814344177041,-0.0011814336301356,0.0011814426868656,-0.0011814452369569,0.0011814306410272,9.9824087005605e-09,-1.0086708509332e-08,-0.0011763191548601,0.0011763190576958,-6.120716386904e-10,5.308600009149e-10,-0.0013205584660062,0.0013205646746322,-0.001320558066579,0.0013205650385314,-0.0013205651755264,0.0013205580058448,-0.0013205647720267,0.0013205583687317,-0.0011814477310275,0.0011814283484607,-0.0011814280776621,0.0011814480173305,0.65967102605707,131329,3014,0.0048895844664782,0.0048895844665141,0.0048895844664246,15.919059770314,-0.00011264752183749,-0.00011264752183749,-0.00011264752183749,2369078.563605,0.014777804912518
21419200,0.98819808593381,0.015255359280908,0.0050851197602669,0.00508511976035,0.0050851197602906,-0.00117526967652,0.0011752718652209,-9.1377131908991e-09,1.1360585330328e-08,-4.7155142131012e-09,7.1992183553504e-09,-0.0013195360529293,0.0013195274529608,-0.0013195292145545,0.0013195342963257,-0.0013195323338712,0.0013195313914569,-0.0013195255065919,0.0013195382214933,-0.0011803922125233,0.00118037833013,-0.0011803721742965,0.001180398377407,4.8379186116501e-09,-7.3021364644493e-09,-5.9576078693851e-10,-1.6073976809688e-09,-0.0011752718552858,0.0011752696864851,-0.0013195307808284,0.0013195329554717,-0.0013195310948015,0.0013195326251241,-0.0013195345601033,0.0013195289526589,-0.0013195348887835,0.0013195286127831,-0.0011803878481329,0.0011803826519183,-0.0011803888583761,0.001180381618968,-0.0011803807129848,0.0011803900220649,-0.0011803925504472,0.0011803777450489,9.9978507206998e-09,-1.0103891496109e-08,-0.0011752708203713,0.0011752707213585,-5.775216646684e-10,4.9422101712247e-10,-0.0013195286906517,0.0013195349258957,-0.0013195283081986,0.001319535272955,-0.0013195354049367,0.0013195282524263,-0.0013195350317727,0.0013195285843424,-0.0011803949780977,0.0011803755180834,-0.0011803752742606,0.0011803952400804,0.66373454648238,131329,3014,0.0048852377796498,0.0048852377797109,0.0048852377796274,15.230522855456,-0.00011815581715635,-0.00011815581715635,-0.00011815581715635,2363612.3089229,0.014764571970116
21619200,0.98841673293351,0.015258491081154,0.0050861636936823,0.0050861636937654,0.005086163693706,-0.0011742563107553,0.001174258498157,-9.207795700456e-09,1.1428912776619e-08,-4.7140246548415e-09,7.1957972446865e-09,-0.001318543972342,0.0013185353282822,-0.0013185370883144,0.0013185422180463,-0.001318540257627,0.0013185392640129,-0.0013185333823288,0.0013185461418718,-0.0011793757658174,0.0011793617424273,-0.0011793555889681,0.0011793819305883,4.7409511093789e-09,-7.1960779029214e-09,-6.1724555441668e-10,-1.5781065619846e-09,-0.0011742584849501,0.0011742563239519,-0.0013185387167151,0.0013185408160604,-0.0013185390143529,0.0013185405006628,-0.0013185424291139,0.0013185368778103,-0.0013185427415186,0.001318536556885,-0.0011793713225583,0.0011793661454009,-0.0011793722784625,0.0011793651697542,-0.0011793642885452,0.0011793734170257,-0.0011793759209508,0.001179361347044,1.0143495446471e-08,-1.0249601602177e-08,-0.0011742574541765,0.0011742573547361,-5.4978173898644e-10,4.6631837652899e-10,-0.001318536530481,0.0013185428810909,-0.00131853616879,0.0013185432095149,-0.001318543342153,0.0013185361106753,-0.0013185429868305,0.0013185364247207,-0.0011793786113399,0.0011793588512749,-0.0011793586264485,0.0011793788546781,0.6692085604384,131329,3014,0.0048810360895337,0.0048810360895111,0.0048810360895359,14.566182734161,-0.00012347053812671,-0.00012347053812671,-0.00012347053812671,2358187.3894416,0.014751780787457
21819200,0.98862239491393,0.015261392077375,0.0050871306924228,0.0050871306925062,0.005087130692446,-0.0011732299328136,0.0011732321168732,-9.2865872244878e-09,1.1504757654139e-08,-4.6532252281634e-09,7.131497210479e-09,-0.0013175413884706,0.0013175327334136,-0.0013175344554847,0.0013175396714094,-0.001317537717108,0.001317536624083,-0.0013175307876949,0.0013175435562195,-0.0011783467302143,0.0011783325023661,-0.0011783263944179,0.0011783528477374,4.6255752784164e-09,-7.0735658458049e-09,-6.3250496457846e-10,-1.5565218451939e-09,-0.0011732321021524,0.0011732299475634,-0.0013175361672371,0.0013175381843706,-0.0013175364559345,0.001317537879498,-0.0013175398046929,0.0013175343243712,-0.0013175401006371,0.0013175340175161,-0.001178342161582,0.0011783370289375,-0.001178343074766,0.0011783360935522,-0.0011783352583146,0.0011783441663713,-0.001178346651789,0.0011783323357363,1.0279987458675e-08,-1.0388260348895e-08,-0.0011732310754711,0.0011732309741964,-5.3097250671322e-10,4.4500378926323e-10,-0.0013175338877115,0.0013175403446347,-0.0013175335410496,0.0013175406560681,-0.0013175407938688,0.0013175334792068,-0.0013175404492051,0.0013175337831887,-0.0011783496127008,0.0011783295747936,-0.001178329363943,0.001178349839589,0.65988855554808,131329,3014,0.0048767804462744,0.0048767804463336,0.0048767804462353,13.902498252697,-0.00012878001397843,-0.00012878001397843,-0.00012878001397843,2352552.9558262,0.014738825706585
22019200,0.98882772963141,0.015264240485248,0.0050880801617137,0.0050880801617971,0.0050880801617369,-0.0011739100421672,0.0011739122137811,-9.3490504139861e-09,1.1553969962619e-08,-4.4077561902505e-09,6.8700773776166e-09,-0.0013182629572529,0.0013182544324034,-0.0013182559929183,0.0013182613993498,-0.0013182594633086,0.0013182581445087,-0.0013182524883809,0.0013182651233288,-0.0011790444576934,0.0011790299200833,-0.0011790239879731,0.0011790503908221,4.2591121614955e-09,-6.6837409738637e-09,-5.8120191236711e-10,-1.5880339277265e-09,-0.0011739121948287,0.0011739100611274,-0.0013182578966295,0.0013182597193244,-0.0013182582197337,0.0013182593800698,-0.001318261294635,0.0013182561045831,-0.0013182616080124,0.0013182557787558,-0.0011790395627787,0.0011790347671417,-0.0011790405335103,0.0011790337647152,-0.0011790332126476,0.0011790413534072,-0.0011790438464066,0.0011790302844144,1.0440216532904e-08,-1.0547854145826e-08,-0.0011739111777427,0.0011739110781778,-5.6993448492212e-10,4.848187829425e-10,-0.0013182554753304,0.0013182620216366,-0.0013182551097357,0.0013182623532072,-0.0013182624965331,0.0013182550435923,-0.0013182621177178,0.0013182553845132,-0.0011790473201554,0.0011790270135134,-0.0011790267738173,0.0011790475664674,0.64982379460992,131329,3014,0.0048796006142967,0.0048796006143131,0.004879600614243,14.153371524348,-0.00012677302780522,-0.00012677302780522,-0.00012677302780522,2354761.5682761,0.014747411496815
22219200,0.98903393097648,0.015267076891594,0.0050890256304959,0.0050890256305792,0.005089025630519,-0.0011747724800679,0.0011747746272867,-9.5265748213844e-09,1.1708124150256e-08,-4.0373158281257e-09,6.4727790712778e-09,-0.0013191696031645,0.0013191611892265,-0.0013191625231922,0.0013191682746289,-0.0013191663554385,0.0013191646538496,-0.0013191592776582,0.0013191717344305,-0.001179916508156,0.0011799013838547,-0.0011798957360677,0.0011799221648155,4.034505233774e-09,-6.4413660417368e-09,-5.2462185186934e-10,-1.629232154468e-09,-0.0011747746132287,0.0011747724941478,-0.0013191646572761,0.0013191663625155,-0.0013191650064417,0.0013191659968301,-0.001319167889384,0.0013191629105655,-0.0013191682447361,0.0013191625442457,-0.0011799111822006,0.0011799066682298,-0.0011799122704418,0.0011799055564264,-0.0011799051998142,0.0011799128818878,-0.0011799153927979,0.0011799022566488,1.0492480073407e-08,-1.0595487014439e-08,-0.0011747736016136,0.0011747735057219,-6.1845095739483e-10,5.3861633458188e-10,-0.0013191621795703,0.0013191687219357,-0.0013191617734418,0.0013191690936181,-0.0013191692262248,0.0013191617159458,-0.0013191688206983,0.0013191620811973,-0.001179919114422,0.0011798987327033,-0.0011798984565113,0.0011799194067813,0.64497435916121,131329,3014,0.004883176692403,0.0048831766924472,0.0048831766923644,14.499757758873,-0.00012400193792901,-0.00012400193792901,-0.00012400193792901,2358992.8033907,0.014758298435445
22419200,0.98924093753263,0.015270054180489,0.0050900180601277,0.0050900180602109,0.0050900180601508,-0.0011756462790653,0.0011756484183088,-9.531881758967e-09,1.1705698466947e-08,-3.8974824635273e-09,6.3236685309142e-09,-0.0013200840182329,0.0013200757069765,-0.0013200769514988,0.0013200827788543,-0.001320080882227,0.0013200790590989,-0.0013200737876794,0.0013200861564624,-0.0011808007998654,0.0011807855244584,-0.0011807799813023,0.0011808063518866,3.6622664839496e-09,-6.0436966979167e-09,-4.6113973987478e-10,-1.6708862640703e-09,-0.0011756483971783,0.0011756463002215,-0.0013200792147389,0.001320080736349,-0.0013200796139524,0.0013200803207767,-0.0013200822077545,0.0013200775259802,-0.0013200825824326,0.0013200771393987,-0.0011807952311879,0.0011807910535222,-0.0011807963762302,0.0011807898823928,-0.0011807898232229,0.0011807966905602,-0.0011807992136447,0.0011807868695609,1.0708183140708e-08,-1.0808459957673e-08,-0.0011756473952327,0.0011756473021285,-6.6505735316026e-10,5.8841709093825e-10,-0.0013200765819107,0.0013200832519958,-0.0013200761584186,0.0013200836406747,-0.0013200837855463,0.0013200760884882,-0.0013200833333092,0.001320076501709,-0.0011808035019716,0.0011807827791762,-0.0011807824664674,0.0011808038278664,0.67139354598484,131329,3014,0.0048867998813208,0.0048867998813729,0.0048867998812948,14.848741652134,-0.00012121006678292,-0.00012121006678292,-0.00012121006678292,2363196.8189004,0.014769328773762
22619200,0.98944850675058,0.015273074953671,0.0050910249845216,0.0050910249846048,0.0050910249845447,-0.0011764996244522,0.0011765017479961,-9.7206907006893e-09,1.187899502815e-08,-3.6306902968448e-09,6.0387927134984e-09,-0.0013210050515516,0.001320996778025,-0.0013209978553762,0.0013210039793529,-0.0013210020879938,0.0013209999563868,-0.0013209948830999,0.00132100716411,-0.0011816806685322,0.0011816648665682,-0.0011816595223866,0.0011816860218629,3.5647919496433e-09,-5.9403335182232e-09,-4.1287424883724e-10,-1.7143184226325e-09,-0.001176501732254,0.0011764996402133,-0.0013210002876788,0.0013210017671389,-0.0013210007076895,0.0013210013304586,-0.0013210032034311,0.0013209986342671,-0.0013210036180837,0.0013209982075703,-0.0011816747412778,0.0011816707543057,-0.0011816760049325,0.0011816694650772,-0.0011816695242462,0.0011816761994621,-0.001181678748313,0.0011816665461555,1.074424251359e-08,-1.0841833823242e-08,-0.0011765007313914,0.0011765006410358,-7.1219175247201e-10,6.3870027746847e-10,-0.0013209976415264,0.0013210042962512,-0.0013209971760502,0.001321004727049,-0.0013210048595156,0.0013209971182661,-0.0013210043840995,0.0013209975542264,-0.0011816831367298,0.0011816623542749,-0.0011816620075945,0.0011816834990122,0.67880268348048,131329,3014,0.0048903384466686,0.004890338446707,0.0048903384466258,15.186920173013,-0.0001185046386159,-0.0001185046386159,-0.0001185046386159,2365344.8663521,0.014780102753647
22819200,0.98965362345595,0.015276050161657,0.0050920167205168,0.0050920167206,0.00509201672054,-0.001176933277393,0.0011769354005552,-9.8091504016003e-09,1.1967124775023e-08,-3.6124058843034e-09,6.0199547786314e-09,-0.0013215064422045,0.0013214981246247,-0.0013214991902577,0.0013215053817545,-0.0013215034935573,0.0013215012880822,-0.0013214962272285,0.0013215085572229,-0.0011821376785144,0.0011821216835251,-0.0011821163519877,0.0011821430191711,3.4869886289734e-09,-5.8576374746041e-09,-3.8016612677172e-10,-1.7428931409946e-09,-0.0011769353829225,0.001176933295044,-0.0013215016694436,0.001321503122489,-0.0013215021126343,0.0013215026625837,-0.0013215045345525,0.001321500040697,-0.0013215049666464,0.0013214995963154,-0.0011821316000567,0.0011821277226758,-0.0011821329153744,0.0011821263812998,-0.001182126528953,0.001182133021378,-0.0011821355864313,0.001182123535162,1.0872552554336e-08,-1.096850717787e-08,-0.0011769343833115,0.0011769342946143,-7.4097992168967e-10,6.6941139341202e-10,-0.0013214989752303,0.0013215056998173,-0.0013214984927017,0.001321506147628,-0.0013215062812235,0.0013214984336631,-0.0013215057832954,0.0013214988924582,-0.0011821401607489,0.0011821191575207,-0.0011821187890432,0.0011821405441651,0.67691803504946,131329,3014,0.0048921368628889,0.0048921368629259,0.0048921368628437,15.303483473601,-0.00011757213221119,-0.00011757213221119,-0.00011757213221119,2365421.267241,0.01478557924972
23019200,0.98985621524639,0.015278774889599,0.0050929249631642,0.0050929249632474,0.0050929249631873,-0.0011773418235483,0.0011773439454299,-9.9446232528212e-09,1.2101274482136e-08,-3.5870077569635e-09,5.9930038990211e-09,-0.0013219799209866,0.001321971525711,-0.001321972575281,0.0013219788766247,-0.0013219769855588,0.0013219746757271,-0.0013219696334396,0.0013219820306846,-0.0011825636147495,0.0011825473484005,-0.0011825420355907,0.0011825689369492,3.5301738334673e-09,-5.9045711855357e-09,-3.5692019943815e-10,-1.7695040755797e-09,-0.0011773439301182,0.0011773418388787,-0.0013219750898235,0.0013219765820266,-0.0013219755455257,0.0013219761094356,-0.001321977980739,0.0013219734742054,-0.0013219784334006,0.0013219730092634,-0.0011825573873574,0.0011825535369849,-0.0011825587629018,0.0011825521352822,-0.0011825522895292,0.0011825588623736,-0.0011825614471737,0.0011825492755845,1.0954275162001e-08,-1.1048734426806e-08,-0.0011773429280815,0.0011773428408763,-7.6599057595488e-10,6.96175648253e-10,-0.0013219723980014,0.0013219791568478,-0.0013219718941881,0.0013219796259015,-0.001321979754147,0.0013219718406723,-0.0013219792427649,0.0013219723125956,-0.0011825660367822,0.0011825448825526,-0.0011825444954227,0.0011825664392053,0.63260003582818,131329,3014,0.0048938311381442,0.0048938311381817,0.0048938311381026,15.414709988077,-0.00011668232009538,-0.00011668232009538,-0.00011668232009538,2365908.3750637,0.014790738592768
23219200,0.99005627998619,0.015281592274883,0.0050938640915923,0.0050938640916754,0.0050938640916155,-0.0011777550113646,0.0011777571349197,-1.0063476245003e-08,1.222179382e-08,-3.6167712095928e-09,6.024718817858e-09,-0.0013224114762547,0.0013224029803044,-0.0013224040489739,0.0013224104128337,-0.0013224085182629,0.0013224061530403,-0.0013224010884116,0.0013224135856973,-0.0011829730647856,0.0011829565922846,-0.0011829512574005,0.0011829784089015,3.5861954195942e-09,-5.9642601466267e-09,-3.3705436947957e-10,-1.7925293697994e-09,-0.0011777571203672,0.001177755025937,-0.0013224065711153,0.0013224081108785,-0.001322407039096,0.0013224076259182,-0.0013224094983111,0.0013224049664919,-0.0013224099670993,0.0013224044852647,-0.0011829667310493,0.0011829628868382,-0.0011829681546671,0.0011829614371071,-0.0011829615854878,0.0011829682600674,-0.0011829708624986,0.0011829585537708,1.1051000792864e-08,-1.1144214474368e-08,-0.0011777561161094,0.0011777560301549,-7.8709226454807e-10,7.1873596972713e-10,-0.0013224038785222,0.0013224106862957,-0.0013224033582217,0.001322411171869,-0.0013224112969224,0.0013224033077939,-0.0013224107728902,0.0013224037923239,-0.0011829754728898,0.0011829541400084,-0.0011829537373465,0.0011829758914067,0.65900010577428,131329,3014,0.0048955443239454,0.0048955443239855,0.0048955443239049,15.525735513456,-0.00011579411589235,-0.00011579411589235,-0.00011579411589235,2369006.8438958,0.014795953617209
23419200,0.99025466953904,0.015284354826371,0.0050947849420882,0.0050947849421714,0.0050947849421115,-0.0011782911319894,0.0011782932604836,-1.0179190704123e-08,1.2342433440601e-08,-3.697717720556e-09,6.1113919281716e-09,-0.0013229958022872,0.0013229871730178,-0.0013229882927345,0.0013229946878567,-0.0013229927850912,0.001322990405309,-0.0013229852800676,0.0013229979131248,-0.0011835216112443,0.0011835049785005,-0.0011834995830149,0.0011835270160245,3.6671245320315e-09,-6.0508708683646e-09,-3.2241918286262e-10,-1.8120402977978e-09,-0.00117829324594,0.0011782911465547,-0.0013229908013672,0.0013229923998338,-0.0013229912770956,0.0013229919070084,-0.0013229937805491,0.0013229892029853,-0.0013229942642503,0.0013229887068025,-0.0011835152057681,0.0011835113447499,-0.0011835166733935,0.0011835098510861,-0.0011835099726633,0.0011835168057468,-0.0011835194244492,0.0011835069241258,1.1149082197545e-08,-1.1241381091465e-08,-0.0011782922387503,0.0011782921537043,-8.0354091217082e-10,7.3626384973302e-10,-0.001322988112441,0.0013229949713511,-0.0013229875772275,0.0013229954717783,-0.0013229955924222,0.0013229875312494,-0.001322995060587,0.0013229880234925,-0.0011835240339203,0.0011835025115804,-0.0011835020966689,0.0011835244647823,0.65256369002542,131329,3014,0.0048977674535879,0.0048977674536319,0.0048977674535509,15.704383960759,-0.00011436492831393,-0.00011436492831393,-0.00011436492831393,2370675.2817937,0.014802722426953
23619200,0.99045557791752,0.015287220008184,0.0050957400026925,0.0050957400027756,0.0050957400027157,-0.0011794599751997,0.0011794621056193,-1.0282189321998e-08,1.2447265029186e-08,-3.7291308986696e-09,6.1449560699866e-09,-0.00132421724958,0.0013242085361572,-0.0013242096756574,0.0013242161154088,-0.0013242142156473,0.0013242117853062,-0.0013242066363732,0.0013242193674046,-0.0011847112690881,0.0011846944420454,-0.0011846890229266,0.0011847166974288,3.7347191180842e-09,-6.1232818645709e-09,-2.9901110624086e-10,-1.8396161896989e-09,-0.0011794620922052,0.0011794599886356,-0.0013242121745318,0.0013242138373055,-0.0013242126720958,0.0013242133225737,-0.0013242152051027,0.0013242105889164,-0.0013242157007359,0.0013242100806745,-0.001184704774095,0.0011847008976867,-0.001184706277129,0.0011846993684922,-0.0011846994824417,0.0011847064174144,-0.0011847090574448,0.0011846964123086,1.1261651513277e-08,-1.1352554336846e-08,-0.0011794610822048,0.0011794609985964,-8.2890940803363e-10,7.6328359079848e-10,-0.0013242094859648,0.0013242164082815,-0.0013242089381914,0.0013242169212788,-0.001324217045519,0.0013242088887936,-0.0013242164911654,0.0013242094033984,-0.001184713687445,0.001184691979298,-0.0011846915455708,0.0011847141372958,0.66669034631197,131329,3014,0.0049026140474019,0.0049026140474459,0.0049026140473657,16.218879021886,-0.00011024896782491,-0.00011024896782491,-0.00011024896782491,2375281.1378858,0.014817478325844
23819200,0.99065897493231,0.015290284647003,0.0050967615489654,0.0050967615490485,0.0050967615489887,-0.0011806533097134,0.0011806554430805,-1.0383516312881e-08,1.255147518746e-08,-3.7770170955439e-09,6.1962233614531e-09,-0.0013254804258945,0.0013254716223531,-0.0013254727920505,0.0013254792615515,-0.0013254773676619,0.0013254748959983,-0.0013254697110865,0.0013254825553919,-0.0011859364656377,0.0011859194472788,-0.0011859139923725,0.0011859419298424,3.829653879908e-09,-6.2249277174224e-09,-2.8501633174404e-10,-1.8594091934024e-09,-0.0011806554311107,0.0011806533217075,-0.0013254752661614,0.0013254770085287,-0.0013254757836168,0.0013254764738378,-0.0013254783705902,0.001325473685865,-0.0013254788687489,0.0013254731750238,-0.001185929907102,0.0011859259665219,-0.0011859314173528,0.0011859244299175,-0.0011859245085181,0.0011859315934647,-0.0011859342504916,0.0011859214206585,1.1375161761381e-08,-1.1465074304321e-08,-0.001180654417698,0.00118065433508,-8.4688396827609e-10,7.8242971542692e-10,-0.0013254725810198,0.0013254795758435,-0.001325472029544,0.0013254800925305,-0.0013254802245585,0.0013254719724721,-0.0013254796490339,0.0013254725080267,-0.0011859388792189,0.0011859169890307,-0.0011859165421598,0.0011859393427623,0.70079155105916,131329,3014,0.0049075622936928,0.004907562293742,0.0049075622936607,16.741478508414,-0.00010606817193268,-0.00010606817193268,-0.00010606817193268,2378925.6329589,0.014832544581496
24019200,0.9908647198364,0.015293421555656,0.0050978071851834,0.0050978071852664,0.0050978071852067,-0.0011818459496037,0.0011818480886014,-1.0487540732418e-08,1.2661094867243e-08,-3.8696540646069e-09,6.2953715890722e-09,-0.0013267770507713,0.001326768115581,-0.0013267693434266,0.0013267758282977,-0.0013267739268546,0.0013267714553372,-0.0013267662013101,0.0013267791836907,-0.0011871805382755,0.0011871633863543,-0.0011871578622952,0.0011871860715772,3.8949620341378e-09,-6.2947763811819e-09,-2.7393707411906e-10,-1.8743478751597e-09,-0.0011818480757738,0.0011818459624572,-0.0013267718015606,0.0013267735916784,-0.0013267723253431,0.0013267730505596,-0.001326774948743,0.0013267702258667,-0.0013267754578143,0.0013267697040924,-0.0011871739215158,0.0011871699638417,-0.0011871754637238,0.0011871683950647,-0.0011871684514881,0.0011871756625086,-0.0011871783319509,0.0011871653503875,1.1484353611057e-08,-1.1573798587692e-08,-0.0011818470601764,0.0011818469780162,-8.588908754145e-10,7.9501472558115e-10,-0.0013267691089023,0.0013267761663074,-0.0013267685469023,0.0013267766934335,-0.0013267768227838,0.0013267684925615,-0.0013267762413374,0.0013267690340672,-0.0011871829906264,0.0011871608892245,-0.001187160433673,0.001187183462883,0.70866200822066,131329,3014,0.0049125078978392,0.0049125078978918,0.004912507897814,17.264383337697,-0.00010188493329842,-0.00010188493329842,-0.00010188493329842,2380524.1134217,0.014847604387405
24219200,0.99107142724603,0.015296431768723,0.0050988105895389,0.0050988105896219,0.0050988105895622,-0.0011828501834793,0.0011828523281246,-1.0595756234391e-08,1.2775012593899e-08,-3.9675817371014e-09,6.3999791011492e-09,-0.0013278904986788,0.0013278814238994,-0.0013278827136354,0.0013278892142676,-0.0013278873039991,0.0013278848348025,-0.0013278795080172,0.0013278926335437,-0.001188233082806,0.0011882157969871,-0.0011882102000488,0.0011882386890644,3.9981914650048e-09,-6.4049952071128e-09,-2.7854635447323e-10,-1.8757191704764e-09,-0.00118285231551,0.0011828501961149,-0.0013278851497084,0.0013278870002959,-0.0013278856687731,0.0013278864638378,-0.0013278883640704,0.0013278835666029,-0.0013278888757188,0.0013278830422558,-0.0011882264338525,0.0011882224066124,-0.0011882279835582,0.0011882208303828,-0.0011882208217591,0.0011882282480566,-0.0011882309219311,0.0011882177146681,1.1588885169748e-08,-1.1678664598107e-08,-0.0011828512970429,0.0011828512145414,-8.5701050082924e-10,7.9278226933998e-10,-0.0013278824535479,0.001327889578172,-0.001327881889283,0.0013278901075118,-0.0013278902335657,0.0013278818382003,-0.0013278896570472,0.0013278823745879,-0.0011882355767927,0.0011882132578406,-0.0011882128043312,0.0011882360475022,0.68010063565433,131329,3014,0.0049166723165548,0.0049166723165972,0.0049166723165152,17.69226318387,-9.8461894529042e-05,-9.8461894529042e-05,-9.8461894529042e-05,2381589.2470724,0.014860286144321
24419200,0.99127593185362,0.01529940631013,0.0050998021033411,0.0050998021034241,0.0050998021033645,-0.0011834111588862,0.0011834133139386,-1.0691627231774e-08,1.2881114415502e-08,-4.1402160173015e-09,6.5845255214416e-09,-0.0013285224433658,0.0013285131912667,-0.0013285145895004,0.0013285210504894,-0.0013285191287992,0.0013285167228586,-0.001328511266952,0.0013285245875206,-0.0011888188477433,0.0011888014983905,-0.0011887957717854,0.0011888245838062,4.0924594823921e-09,-6.5053237227706e-09,-3.0331940107808e-10,-1.8560276466072e-09,-0.001183413298699,0.0011834111741468,-0.0013285169841394,0.0013285188783202,-0.0013285174870258,0.001328518358239,-0.0013285202618601,0.0013285153811629,-0.0013285207602269,0.0013285148701977,-0.0011888122212102,0.0011888080851917,-0.0011888137321101,0.0011888065481398,-0.001188806452274,0.0011888140839305,-0.0011888167485866,0.0011888033544166,1.1702915563139e-08,-1.1794069837968e-08,-0.0011834122783327,0.0011834121944723,-8.3484272015737e-10,7.6902119884202e-10,-0.0013285142652162,0.0013285214788322,-0.0013285137147289,0.001328521994269,-0.0013285221203415,0.0013285136640097,-0.0013285215607119,0.0013285141837153,-0.0011888214332683,0.0011887988685249,-0.001188798430717,0.0011888218864503,0.67934589860478,131329,3014,0.0049189986033502,0.0049189986033923,0.0049189986033099,17.884777324073,-9.6921781407413e-05,-9.6921781407413e-05,-9.6921781407413e-05,2382761.7986483,0.01486737008194
24619200,0.9914781233878,0.015302491675011,0.0051008305583017,0.0051008305583847,0.0051008305583251,-0.0011839649086665,0.0011839670712533,-1.0791541547813e-08,1.2988521527465e-08,-4.2726075718892e-09,6.7256992415049e-09,-0.0013291401997999,0.0013291307933933,-0.0013291322752005,0.0013291387233058,-0.0013291367930041,0.0013291344177915,-0.0013291288635972,0.0013291423500014,-0.0011894000344651,0.0011893825854789,-0.0011893767600824,0.0011894058692526,4.1775767888786e-09,-6.5959335239607e-09,-3.323058950252e-10,-1.8316581029573e-09,-0.0011839670545934,0.0011839649253467,-0.0013291346462817,0.0013291365751706,-0.0013291351298972,0.0013291360744525,-0.001329137980842,0.0013291330207604,-0.0013291384631066,0.0013291325260093,-0.0011893934132775,0.0011893891667402,-0.0011893948765696,0.0011893876773118,-0.0011893874941215,0.0011893953163519,-0.0011893979676922,0.0011893844084687,1.1814161947874e-08,-1.1906914383527e-08,-0.00118396603269,0.001183965947209,-8.0843580389995e-10,7.407547779206e-10,-0.0013291318997469,0.0013291392031238,-0.0013291313659064,0.0013291397018586,-0.0013291398280031,0.00132913131522,-0.0013291392882135,0.0013291318151004,-0.00118940269233,0.0011893798836436,-0.0011893794651898,0.0011894031250974,0.7094445851754,131329,3014,0.0049212949032044,0.0049212949032453,0.0049212949031623,18.071596193417,-9.542723045266e-05,-9.542723045266e-05,-9.542723045266e-05,2383595.286431,0.0148743625661
24819200,0.99167796557574,0.015305310240806,0.0051017700802333,0.0051017700803163,0.0051017700802568,-0.0011845019164291,0.0011845040803276,-1.0913321509637e-08,1.3111564354297e-08,-4.3088408395171e-09,6.7635937953229e-09,-0.0013297716152773,0.0013297621038498,-0.0013297636091028,0.001329770115283,-0.0013297681838519,0.0013297657529522,-0.0013297601727678,0.0013297737668232,-0.0011899735254699,0.0011899558624677,-0.0011899500112118,0.0011899793862635,4.3193953574503e-09,-6.7471803179382e-09,-3.6527308361851e-10,-1.8067795787151e-09,-0.0011845040670867,0.0011845019296839,-0.0013297659742489,0.0013297679734538,-0.0013297664387321,0.001329767491945,-0.0013297694060399,0.0013297643211221,-0.001329769869084,0.0013297638457344,-0.0011899668784238,0.0011899624693043,-0.0011899682851244,0.0011899610368852,-0.0011899607288261,0.0011899688501416,-0.0011899714901242,0.001189957653256,1.1906641222107e-08,-1.2001016559182e-08,-0.0011845030419202,0.0011845029548089,-7.816352383153e-10,7.1206041148438e-10,-0.0013297632231391,0.0013297706057258,-0.0013297627078965,0.0013297710858824,-0.0013297712137327,0.0013297626556248,-0.0013297706921916,0.0013297631368201,-0.0011899761774666,0.0011899531661292,-0.0011899527681845,0.0011899765904057,0.66112227585217,131329,3014,0.0049235219658328,0.0049235219658602,0.0049235219657764,18.258200374189,-9.3934397006487e-05,-9.3934397006487e-05,-9.3934397006487e-05,2383174.5609102,0.014881145531946
25019200,0.9918777035744,0.015308092491677,0.0051026974971901,0.005102697497273,0.0051026974972135,-0.0011853845324402,0.00118538669655,-1.1020852533579e-08,1.3219154810777e-08,-4.313405166433e-09,6.7682829359552e-09,-0.0013307060004152,0.0013306964147638,-0.0013306979230622,0.0013307044974146,-0.0013307025661465,0.001330700066713,-0.0013306944829169,0.0013307081527793,-0.001190870652992,0.0011908527813691,-0.0011908469267767,0.0011908765172575,4.3343266928053e-09,-6.7629155135255e-09,-3.8513362484803e-10,-1.7875585437228e-09,-0.0011853866835113,0.0011853845455035,-0.0013307003237634,0.0013307023198694,-0.0013307007758196,0.00133070185097,-0.0013307037660529,0.0013306986571707,-0.0013307042156427,0.0013306981953085,-0.0011908639269992,0.0011908594670461,-0.0011908652943305,0.0011908580746327,-0.0011908577315632,0.0011908658934911,-0.0011908685219222,0.0011908546687742,1.2014363182334e-08,-1.2109751280411e-08,-0.0011853856585461,0.0011853855704278,-7.632874507982e-10,6.925166560327e-10,-0.001330697528999,0.0013307049959007,-0.0013306970268307,0.001330705462885,-0.001330705592302,0.0013306969731578,-0.0013307050829398,0.0013306974422307,-0.0011908733127519,0.0011908500774608,-0.0011908496928648,0.0011908737123229,0.6536253748923,131329,3014,0.0049271816370672,0.0049271816371169,0.0049271816370345,18.629650515811,-9.0962795873511e-05,-9.0962795873511e-05,-9.0962795873511e-05,2387256.8150634,0.014892288439549
25219200,0.99208055511234,0.015311018704121,0.0051036729013383,0.0051036729014212,0.0051036729013617,-0.001186780391053,0.0011867825530671,-1.1111351866004e-08,1.3307475402879e-08,-4.2773009709208e-09,6.7296004801482e-09,-0.0013321559626128,0.001332146341301,-0.0013321478263904,0.0013321544828443,-0.0013321525543764,0.0013321499671064,-0.0013321444105067,0.0013321581138216,-0.0011922864561146,0.0011922683799678,-0.0011922625523454,0.0011922922937815,4.2218979222001e-09,-6.6425276932209e-09,-3.8660629261639e-10,-1.779194195921e-09,-0.0011867825375997,0.0011867804065466,-0.001332150304293,0.0013321522276598,-0.0013321507540105,0.0013321517612103,-0.0013321536706054,0.001332148641627,-0.0013321541160213,0.0013321481839062,-0.0011922795920161,0.0011922752040769,-0.0011922809472432,0.0011922738240683,-0.0011922735426695,0.0011922814836279,-0.0011922841024265,0.00119227049133,1.2140697129213e-08,-1.2236339233942e-08,-0.0011867815162185,0.001186781427887,-7.58473801646e-10,6.8740050241591e-10,-0.0013321474292318,0.0013321549842875,-0.0013321469312495,0.0013321554470775,-0.0013321555775604,0.00133214687648,-0.0013321550707972,0.0013321473432981,-0.0011922891382971,0.0011922656546638,-0.0011922652726067,0.0011922895337857,0.67454673587618,131329,3014,0.004932969275842,0.004932969275895,0.0049329692758125,19.270471795374,-8.5836225637011e-05,-8.5836225637011e-05,-8.5836225637011e-05,2393716.616654,0.01490991055537
25419200,0.99228640186601,0.015314247632149,0.0051047492106808,0.0051047492107637,0.0051047492107043,-0.0011882030518292,0.0011882052042075,-1.1270149431259e-08,1.345690432381e-08,-4.1271755397379e-09,6.568689118527e-09,-0.0013336552558739,0.0013336456209696,-0.0013336470123645,0.0013336538697917,-0.0013336519459844,0.0013336491478676,-0.0013336437041322,0.0013336573924078,-0.0011937466071755,0.00119372812903,-0.0011937224145907,0.0011937523306138,4.2097013389024e-09,-6.6294301814843e-09,-3.9071109331222e-10,-1.7743778201387e-09,-0.0011882051932073,0.0011882030628671,-0.0013336495986457,0.001333651506365,-0.001333650040591,0.0013336510473629,-0.0013336529511941,0.0013336479332255,-0.0013336533985146,0.0013336474738702,-0.0011937395348453,0.0011937351611022,-0.0011937408947108,0.0011937337757251,-0.0011937334964779,0.0011937414303045,-0.0011937440445238,0.0011937304478187,1.2202354879199e-08,-1.2298195129875e-08,-0.0011882041723419,0.0011882040836961,-7.5279511083199e-10,6.8146130526608e-10,-0.0013336466955253,0.0013336542907679,-0.0013336461970061,0.0013336547545571,-0.0013336548803603,0.0013336461461729,-0.0013336543819052,0.0013336466040748,-0.0011937491569095,0.0011937255343516,-0.001193725158346,0.0011937495495933,0.7278918993195,131329,3014,0.0049388681810497,0.0049388681811265,0.0049388681810535,19.917836099898,-8.0657311200818e-05,-8.0657311200818e-05,-8.0657311200818e-05,2398562.6616803,0.014927872722971
25619200,0.9924950273796,0.015317540072891,0.0051058466909282,0.0051058466910111,0.0051058466909517,-0.0011896218065714,0.001189623954192,-1.1386354036171e-08,1.3568432384469e-08,-4.0450639944246e-09,6.4810769340779e-09,-0.0013352040534608,0.0013351943938724,-0.0013351957332258,0.0013352027193533,-0.0013352007992833,0.0013351978644778,-0.001335192482109,0.0013352061844312,-0.001195232242885,0.0011952134829725,-0.0011952078304129,0.0011952379047797,4.1336985152607e-09,-6.5483577668454e-09,-3.9400243017636e-10,-1.7667880242259e-09,-0.0011896239433693,0.0011896218174229,-0.0013351984095919,0.0013352002652141,-0.0013351988473161,0.0013351998106072,-0.0013352017097471,0.0013351967452673,-0.0013352021540136,0.0013351962888221,-0.0011952250058638,0.0011952206797458,-0.0011952263572988,0.00119521930335,-0.0011952190637951,0.0011952268520155,-0.0011952294584353,0.0011952160242693,1.2304181904453e-08,-1.2400370907063e-08,-0.0011896229248661,0.0011896228358846,-7.4732275739098e-10,6.75597188352e-10,-0.0013351954453017,0.001335203111221,-0.0013351949497445,0.0013352035717765,-0.0013352036973749,0.0013351948994089,-0.0013352032034229,0.0013351953529718,-0.00119523475514,0.0011952109256919,-0.0011952105540237,0.0011952351437867,0.7324347374876,131329,3014,0.0049447512673423,0.0049447512674006,0.0049447512673166,20.565438161567,-7.547649470746e-05,-7.547649470746e-05,-7.547649470746e-05,2400466.5898018,0.014945789233199
25819200,0.99270102274864,0.015320698810391,0.0051068996034281,0.0051068996035109,0.0051068996034516,-0.0011902653899577,0.0011902675429719,-1.1446602559326e-08,1.3634079673578e-08,-4.1263026089936e-09,6.5684489361585e-09,-0.0013359681222066,0.0013359583778806,-0.0013359597683888,0.0013359667369433,-0.0013359648198992,0.0013359618970277,-0.0013359564528561,0.0013359702668876,-0.0011959293281927,0.0011959104832479,-0.0011959047685983,0.0011959350523965,4.0769945269978e-09,-6.4871643806767e-09,-4.2052332272119e-10,-1.7363103497584e-09,-0.0011902675274753,0.0011902654054765,-0.0013359624591843,0.0013359642682822,-0.0013359628862086,0.0013359638245981,-0.0013359657281591,0.0013359607800241,-0.0013359661453339,0.0013359603507194,-0.0011959220664194,0.0011959177045587,-0.0011959233385732,0.0011959164079603,-0.0011959161644362,0.0011959238366873,-0.0011959264204177,0.0011959131484692,1.2456254521445e-08,-1.2553939925576e-08,-0.001190266511682,0.0011902664212275,-7.2141567783448e-10,6.479463169789e-10,-0.0013359594083648,0.0013359672010291,-0.001335958938806,0.0013359676355375,-0.0013359677707202,0.0013359588789398,-0.0013359672867295,0.0013359593230293,-0.0011959319455586,0.0011959078213936,-0.0011959074685422,0.0011959323142804,0.71386318018084,131329,3014,0.004947420339242,0.0049474203392865,0.0049474203392011,20.804848831898,-7.3561209344815e-05,-7.3561209344815e-05,-7.3561209344815e-05,2399523.7568062,0.014953919377123
26019200,0.99289982531431,0.015323619636303,0.0051078732120657,0.0051078732121485,0.0051078732120892,-0.0011902046439313,0.0011902068046809,-1.1486485448754e-08,1.3681715504748e-08,-4.2595712087882e-09,6.7107404425447e-09,-0.001335991816782,0.001335981961854,-0.0013359834363969,0.0013359903473806,-0.0013359884258027,0.0013359855702783,-0.0013359800269533,0.0013359939719109,-0.0011958968925503,0.0011958780528155,-0.0011958722383047,0.0011959027164631,4.1077190132923e-09,-6.5197040204954e-09,-4.6603005706351e-10,-1.6922610978783e-09,-0.0011902067860718,0.001190204662561,-0.0013359861023027,0.0013359879039975,-0.0013359865022841,0.0013359874875306,-0.0013359893950283,0.0013359843918169,-0.0013359897798575,0.0013359839949737,-0.0011958896922983,0.0011958852126728,-0.0011958908684633,0.0011958840115872,-0.0011958836900368,0.001195891445734,-0.0011958940005407,0.0011958807014729,1.2627020460134e-08,-1.2727079553044e-08,-0.0011902057707282,0.001190205677862,-6.7942747357471e-10,6.0316920333016e-10,-0.0013359829758088,0.001335990912375,-0.001335982537858,0.0013359913152718,-0.0013359914554551,0.0013359824729671,-0.0013359909978915,0.0013359828908115,-0.0011958996923869,0.0011958752089081,-0.0011958748868533,0.0011959000290467,0.68688290593867,131329,3014,0.0049471689427277,0.004947168942769,0.0049471689426829,20.675819726167,-7.4593442190663e-05,-7.4593442190663e-05,-7.4593442190663e-05,2397045.1420903,0.014953155730137
26219200,0.99309161960248,0.015326613195981,0.0051088710652915,0.0051088710653743,0.005108871065315,-0.001190130261279,0.0011901324202494,-1.1688416649248e-08,1.3881810053996e-08,-4.2427339643897e-09,6.6919734402167e-09,-0.0013359648487838,0.0013359548610273,-0.0013359563250797,0.0013359633898453,-0.0013359614610455,0.0013359584660045,-0.0013359529366546,0.0013359669931832,-0.0011958399413498,0.0011958207190712,-0.0011958149185186,0.0011958457514565,4.2600144614612e-09,-6.6828703216269e-09,-5.0890866813437e-10,-1.6587987176511e-09,-0.001190132407267,0.0011901302742821,-0.001335959037102,0.0013359609006035,-0.0013359594028376,0.0013359605184071,-0.0013359624259123,0.0013359572914783,-0.0013359627944149,0.0013359569113017,-0.0011958326317196,0.0011958279883529,-0.0011958337589733,0.0011958268360499,-0.0011958263717554,0.0011958344798254,-0.0011958370183131,0.001195823397808,1.264064431664e-08,-1.2742852938472e-08,-0.0011901313882714,0.0011901312932354,-6.4041401496791e-10,5.6161252229942e-10,-0.0013359559287344,0.0013359638906007,-0.0013359555087924,0.001335964275473,-0.0013359644089695,0.0013359554507526,-0.0013359639868737,0.0013359558325091,-0.0011958425912634,0.0011958180250235,-0.0011958177320795,0.0011958428991065,0.72524660080944,131329,3014,0.0049468607611711,0.0049468607612126,0.004946860761127,20.537783319054,-7.5697733447568e-05,-7.5697733447568e-05,-7.5697733447568e-05,2395611.0952007,0.014952217768091
26419200,0.99327668884796,0.015329587800119,0.0051098626000042,0.005109862600087,0.0051098626000278,-0.0011900500432626,0.0011900522056163,-1.1782877594589e-08,1.3979613549402e-08,-4.3034915751688e-09,6.756668955519e-09,-0.0013359643645423,0.0013359542748997,-0.0013359557776247,0.0013359628668814,-0.0013359609355726,0.0013359579213508,-0.0013359523466652,0.0013359665130421,-0.00119579694828,0.0011957775823211,-0.0011957717369056,0.0011958028031881,4.3033424778413e-09,-6.7286618678112e-09,-5.4429211263193e-10,-1.6254551590161e-09,-0.0011900521919711,0.0011900500569302,-0.0013359584993189,0.0013359603680588,-0.0013359588430093,0.0013359600082002,-0.0013359619182108,0.0013359567288432,-0.0013359622631835,0.0013359563721705,-0.001195789616991,0.0011957848725129,-0.0011957906758181,0.0011957837899418,-0.0011957832540872,0.0011957914672673,-0.0011957939854984,0.0011957803011554,1.2759382436331e-08,-1.2863265647182e-08,-0.0011900511727999,0.0011900510760591,-6.0739203179624e-10,5.2659156531268e-10,-0.0013359553427991,0.0013359634063239,-0.0013359549461438,0.0013359637677373,-0.0013359639036091,0.0013359548857918,-0.0013359635036469,0.0013359552455877,-0.0011957996552903,0.0011957748307269,-0.0011957745625438,0.0011957999391344,0.74502754456344,131329,3014,0.0049465286532021,0.0049465286532469,0.0049465286531618,20.399406554683,-7.6804747562538e-05,-7.6804747562538e-05,-7.6804747562538e-05,2392059.7310332,0.01495120843109
26619200,0.99345937192989,0.015332495391942,0.0051108317972787,0.0051108317973614,0.0051108317973023,-0.0011906504722263,0.0011906526314593,-1.1879436906122e-08,1.4073098566264e-08,-4.2563410800546e-09,6.7059709060155e-09,-0.0013366711445179,0.0013366610157343,-0.0013366624889076,0.0013366696763836,-0.001336667742699,0.0013366646348032,-0.0013366590958143,0.0013366732844499,-0.0011964527927183,0.0011964332200902,-0.0011964274103619,0.0011964586118247,4.2582089497819e-09,-6.680217567119e-09,-5.4788178667711e-10,-1.6190002544506e-09,-0.0011906526179217,0.0011906504857898,-0.0013366652780932,0.0013366671099097,-0.0013366656130687,0.0013366667587174,-0.0013366686605837,0.0013366635072033,-0.0013366690076018,0.0013366631485285,-0.0011964453383885,0.0011964406335054,-0.0011964464026259,0.0011964395452764,-0.0011964390302983,0.0011964471732456,-0.0011964496851396,0.0011964360837584,1.2880215923951e-08,-1.2984173279537e-08,-0.0011906516002531,0.0011906515034154,-6.0135120922158e-10,5.2041544798882e-10,-0.0013366620635243,0.0013366702062846,-0.0013366616656343,0.0013366705690038,-0.0013366706995726,0.0013366616104689,-0.0013366703090426,0.00133666196081,-0.001196455524418,0.0011964304438077,-0.0011964301797982,0.0011964558041376,0.73848439014425,131329,3014,0.0049490187370329,0.0049490187370848,0.004949018736998,20.629731861526,-7.4962145107793e-05,-7.4962145107793e-05,-7.4962145107793e-05,2390856.635644,0.014958793235585
26819200,0.99364187393461,0.015335324859548,0.0051117749531472,0.0051117749532299,0.0051117749531708,-0.0011916308589711,0.0011916330131557,-1.2007655342607e-08,1.4196343784501e-08,-4.1710877460737e-09,6.6148848208682e-09,-0.0013377583788973,0.0013377482307491,-0.0013377496502386,0.0013377569644664,-0.0013377550464688,0.0013377517800484,-0.0013377463046609,0.0013377605246321,-0.0011974862818717,0.0011974663676504,-0.0011974606215978,0.0011974920371644,4.1597923366016e-09,-6.575004032596e-09,-5.3490912606847e-10,-1.6261509736191e-09,-0.0011916329991933,0.0011916308729631,-0.0013377525248223,0.0013377543122114,-0.0013377528773675,0.0013377539433619,-0.0013377558506038,0.0013377507666165,-0.0013377561933549,0.0013377504121902,-0.0011974786259682,0.0011974739829724,-0.0011974796781429,0.0011974729063606,-0.0011974724646622,0.0011974803753603,-0.0011974828880328,0.0011974695178879,1.2970899651802e-08,-1.3073901457932e-08,-0.0011916319840049,0.0011916318881099,-6.1399440459828e-10,5.3414358230962e-10,-0.0013377492566231,0.001337757462388,-0.0013377488608883,0.0013377578230199,-0.0013377579635479,0.0013377487956178,-0.0013377575533192,0.001337749165762,-0.0011974889104046,0.0011974636945039,-0.0011974634208306,0.0011974892000059,0.72121904153381,131329,3014,0.0049530841130445,0.0049530841131046,0.0049530841130206,21.064271965982,-7.1485824272142e-05,-7.1485824272142e-05,-7.1485824272142e-05,2392181.669378,0.014971174516083
27019200,0.99382409542832,0.015338067386614,0.0051126891288359,0.0051126891289186,0.0051126891288595,-0.0011926206088504,0.0011926227557854,-1.2134873493003e-08,1.4316364696827e-08,-4.0950423774428e-09,6.5308710612544e-09,-0.0013388394546641,0.0013388292785752,-0.0013388306519072,0.0013388380864323,-0.001338836183658,0.0013388327661417,-0.0013388273511805,0.0013388416014094,-0.001198515732395,0.001198495491635,-0.0011984898060141,0.001198521427461,4.0722037912485e-09,-6.4782861843187e-09,-5.1651242172957e-10,-1.6362972609394e-09,-0.0011926227412871,0.0011926206233753,-0.0013388336041211,0.0013388353561463,-0.0013388339744215,0.0013388349695098,-0.0013388368770845,0.0013388318638599,-0.001338837221022,0.0013388315081936,-0.0011985078765919,0.0011985033069001,-0.0011985089324893,0.0011985022268216,-0.0011985018547648,0.001198509559243,-0.0011985120734193,0.0011984989077901,1.3063719432162e-08,-1.3165729456297e-08,-0.0011926217297454,0.0011926216348746,-6.2999856479982e-10,5.5130308039285e-10,-0.0013388302884181,0.0013388385540014,-0.001338829889928,0.0013388389174579,-0.0013388390652063,0.0013388298173809,-0.001338838635682,0.0013388302069246,-0.001198518270111,0.0011984929095799,-0.0011984926236918,0.0011985185716607,0.70228504756702,131329,3014,0.004957188140993,0.0049571881410465,0.0049571881409609,21.503850022814,-6.796919981749e-05,-6.796919981749e-05,-6.796919981749e-05,2394402.8418129,0.014983672869931
27219200,0.99400587867333,0.015340714704172,0.005113571568022,0.0051135715681047,0.0051135715680457,-0.0011936097198295,0.0011936118599819,-1.2239086778653e-08,1.4413835761623e-08,-4.0207748799697e-09,6.4491118608242e-09,-0.0013399014685941,0.0013398912667525,-0.0013398925948456,0.0013399001456675,-0.0013398982454368,0.0013398947060831,-0.0013398893498209,0.001339903604537,-0.0011995314343231,0.0011995109486981,-0.0011995053217643,0.0011995370705487,4.0006220706912e-09,-6.3994605230025e-09,-4.9594374102109e-10,-1.6503415658954e-09,-0.0011936118455819,0.0011936097342655,-0.0013398956229643,0.0013398973390805,-0.0013398960008394,0.0013398969448393,-0.001339898842147,0.0013398939009228,-0.0013398992015137,0.0013398935297835,-0.0011995234053299,0.0011995189373119,-0.0011995245062922,0.0011995178120816,-0.0011995175047493,0.0011995250678657,-0.0011995275872737,0.0011995145534656,1.3179589471706e-08,-1.3280062062043e-08,-0.001193610836568,0.0011936107432372,-6.4507980587238e-10,5.6807466182667e-10,-0.0013398922574782,0.001339900586893,-0.0013398918444407,0.001339900964909,-0.0013399011071968,0.0013398917772982,-0.0013399006709811,0.0013398921735359,-0.0011995339619394,0.0011995083768301,-0.0011995080787141,0.0011995342757396,0.68191771566117,131329,3014,0.0049612893542484,0.0049612893543214,0.0049612893542363,21.943618817848,-6.4451049457213e-05,-6.4451049457213e-05,-6.4451049457213e-05,2397576.1197694,0.014996162004672
27419200,0.99418563739469,0.015343418836463,0.0051144729454524,0.005114472945535,0.0051144729454761,-0.0011943571978257,0.0011943593345464,-1.2342659274643e-08,1.4514189862816e-08,-3.9803590437046e-09,6.4050792669897e-09,-0.0013406967995815,0.0013406865508047,-0.0013406878543669,0.0013406955011421,-0.001340693600889,0.0013406899655239,-0.0013406846407643,0.001340698928388,-0.0012002922966244,0.001200271589658,-0.0012002659945257,0.0012002979007512,3.9908511149806e-09,-6.3876828395048e-09,-4.8347914530318e-10,-1.6609375753866e-09,-0.0011943593209319,0.0011943572114683,-0.0013406909311412,0.0013406926460176,-0.0013406913131344,0.0013406922474718,-0.0013406941395199,0.0013406892184787,-0.0013406945100258,0.0013406888361111,-0.00120028413592,0.0012002797099794,-0.0012002852694257,0.0012002785515872,-0.0012002782649298,0.0012002858111986,-0.0012002883354548,0.0012002753073579,1.3294077917516e-08,-1.3393539664322e-08,-0.0011943583123603,0.0011943582199907,-6.5483984812155e-10,5.7894724367676e-10,-0.0013406875316855,0.0013406959277238,-0.0013406871083472,0.0013406963161271,-0.0013406964538374,0.0013406870455019,-0.0013406960142259,0.0013406874450594,-0.0012002948260877,0.0012002690149299,-0.0012002687101084,0.0012002951481357,0.7021487737743,131329,3014,0.0049643885706367,0.0049643885706933,0.0049643885705937,22.251967990933,-6.1984256072536e-05,-6.1984256072536e-05,-6.1984256072536e-05,2400729.7115078,0.015005599220729
27619200,0.99436284384716,0.015346127344657,0.0051153757815168,0.0051153757815994,0.0051153757815405,-0.0011950268554471,0.0011950289920416,-1.2443635680472e-08,1.4614939778151e-08,-3.9775526066746e-09,6.4020162655623e-09,-0.0013414294799666,0.0013414191619043,-0.0013414204635175,0.0013414281834868,-0.0013414262793036,0.0013414225785478,-0.0013414172557947,0.0013414316048265,-0.0012009864089731,0.0012009655141193,-0.0012009599210595,0.0012009920114625,3.9981638431274e-09,-6.3953608636781e-09,-4.734109423022e-10,-1.671304804598e-09,-0.0011950289786374,0.001195026868875,-0.0013414235730587,0.0013414252955112,-0.0013414239579098,0.0013414248941279,-0.0013414267825837,0.0013414218669438,-0.001341427163771,0.0013414214738586,-0.0012009781413019,0.0012009737415428,-0.0012009793067217,0.0012009725516436,-0.0012009722736393,0.0012009798391582,-0.0012009823710523,0.0012009693093481,1.3409595913755e-08,-1.3508175793972e-08,-0.001195027969446,0.0011950278780243,-6.6343827473964e-10,5.8851149087792e-10,-0.0013414201436024,0.0013414286072516,-0.0013414197102217,0.0013414290056373,-0.0013414291385299,0.0013414196523424,-0.0013414286967523,0.0013414200540761,-0.0012009889596053,0.001200962918774,-0.0012009626064197,0.001200989288529,0.71252806105289,131329,3014,0.0049671652789513,0.0049671652789985,0.004967165278914,22.518999157893,-5.9848006736857e-05,-5.9848006736857e-05,-5.9848006736857e-05,2401826.7504476,0.01501405532666
27819200,0.99453742852567,0.015348842144046,0.0051162807146466,0.0051162807147292,0.0051162807146704,-0.0011956934966137,0.0011956956327423,-1.2534940466702e-08,1.4705760114358e-08,-3.9601222016321e-09,6.383957621065e-09,-0.0013421668404296,0.0013421564638453,-0.0013421577540499,0.0013421655553733,-0.0013421636423642,0.0013421598777837,-0.0013421545673705,0.001342168955539,-0.0012016840059785,0.0012016629472048,-0.0012016573666143,0.0012016895960327,4.043094057328e-09,-6.4434499744821e-09,-4.6370403595274e-10,-1.6837508194151e-09,-0.0011956956209506,0.0011956935084284,-0.0013421608910797,0.0013421626399775,-0.0013421612740511,0.0013421622404426,-0.001342164122302,0.001342159189488,-0.0013421645200539,0.0013421587797803,-0.0012016756489581,0.0012016712640099,-0.001201676863082,0.0012016700253389,-0.0012016697347454,0.0012016774082909,-0.0012016799502359,0.0012016667599713,1.3534916197542e-08,-1.3632609305261e-08,-0.0011956946099258,0.0011956945194108,-6.714046594897e-10,5.9744484441128e-10,-0.0013421574401634,0.0013421659731071,-0.0013421569918949,0.0013421663863475,-0.001342166509117,0.0013421569441565,-0.0013421660708314,0.0013421573422101,-0.0012016866070155,0.0012016603012839,-0.0012016599825785,0.0012016869426721,0.72383355412703,131329,3014,0.0049699295513904,0.0049699295514364,0.0049699295513509,22.784990727662,-5.7720074178701e-05,-5.7720074178701e-05,-5.7720074178701e-05,2402198.0958957,0.015022474034858
28019200,0.99470933556008,0.015351564980924,0.0051171883269394,0.0051171883270219,0.0051171883269632,-0.0011963588845956,0.0011963610256386,-1.2664656269797e-08,1.4840361230092e-08,-4.040547536164e-09,6.470016320325e-09,-0.0013429111038156,0.0013429006008648,-0.0013429019419553,0.0013429097678956,-0.0013429078630123,0.0013429040579639,-0.0013428986870029,0.0013429132367558,-0.0012023870470502,0.0012023657529088,-0.0012023601117761,0.0012023926979069,3.9997451119172e-09,-6.3979663380275e-09,-4.550720593844e-10,-1.6906210407093e-09,-0.0011963610105278,0.0011963588997194,-0.001342905096499,0.0013429068350895,-0.001342905497345,0.0013429064176096,-0.0013429083107612,0.0013429034018278,-0.0013429087008939,0.0013429029997487,-0.0012023785675012,0.0012023741923487,-0.0012023797597728,0.0012023729754912,-0.0012023727220689,0.0012023802677283,-0.0012023828131076,0.0012023697441856,1.361916728367e-08,-1.3715917169322e-08,-0.0011963599998602,0.001196359910345,-6.8234314673819e-10,6.0943502088433e-10,-0.0013429016095058,0.0013429102043015,-0.0013429011663253,0.0013429106124244,-0.0013429107469646,0.0013429011068951,-0.0013429102884327,0.0013429015255655,-0.0012023895896628,0.001202363165664,-0.001202362838092,0.0012023899336476,0.73612508707472,131329,3014,0.0049726887002047,0.0049726887002299,0.0049726887001452,23.050942745698,-5.5592458034416e-05,-5.5592458034416e-05,-5.5592458034416e-05,2401767.7124423,0.015030877615443
28219200,0.99487784770608,0.015354286972078,0.0051180956573238,0.0051180956574064,0.0051180956573476,-0.0011968963692317,0.0011968985081831,-1.2729031991516e-08,1.4902585229192e-08,-3.9766253111205e-09,6.4033923025842e-09,-0.0013435345732058,0.0013435240489505,-0.0013435253478376,0.001343533279509,-0.0013435313548102,0.0013435274832729,-0.0013435221585364,0.0013435366823228,-0.0012029662631023,0.0012029448614288,-0.0012029392663146,0.0012029718678288,4.1370970630532e-09,-6.5452781288784e-09,-4.505094635728e-10,-1.7038562754208e-09,-0.0011968984984545,0.0011968963789815,-0.0013435285196229,0.0013435303295507,-0.001343528904807,0.00134352992779,-0.001343531807488,0.0013435268220908,-0.0013435322251356,0.0013435263923951,-0.0012029577417259,0.0012029533424173,-0.0012029590140693,0.001202952045791,-0.0012029517206266,0.0012029595938735,-0.0012029621540128,0.0012029487273473,1.3772027503602e-08,-1.3868302050304e-08,-0.001196897483227,0.0011968973941665,-6.841261241518e-10,6.1171661930071e-10,-0.0013435250284436,0.0013435337027641,-0.0013435245622884,0.0013435341338482,-0.0013435342463835,0.0013435245249558,-0.0013435338078237,0.0013435249230205,-0.0012029689317579,0.0012029421482085,-0.0012029418187382,0.0012029692775896,0.74948916182664,131329,3014,0.0049749176017481,0.0049749176017906,0.0049749176017049,23.250805442472,-5.3993556460224e-05,-5.3993556460224e-05,-5.3993556460224e-05,2400498.7114561,0.015037666918943
28419200,0.9950428724561,0.015357009027936,0.0051190030092765,0.0051190030093591,0.0051190030093004,-0.0011974118353491,0.0011974139772548,-1.2825353141736e-08,1.5001852155244e-08,-4.0044673732117e-09,6.4344833922433e-09,-0.0013441440634168,0.0013441334549807,-0.001344134770818,0.001344142752758,-0.0013441408232532,0.0013441369111737,-0.0013441315637047,0.0013441461734894,-0.0012035296821837,0.0012035081162426,-0.0012035024990171,0.0012035353089398,4.186748416589e-09,-6.5992080246586e-09,-4.4759138304122e-10,-1.7105722930132e-09,-0.0011974139679618,0.0011974118446631,-0.0013441379520083,0.0013441397936472,-0.0013441383383727,0.0013441393906141,-0.001344141271985,0.0013441362537266,-0.0013441416948213,0.0013441358188575,-0.0012035210903806,0.0012035166678237,-0.0012035223779277,0.0012035153554946,-0.0012035150084783,0.0012035229803379,-0.0012035255471502,0.0012035120074804,1.389035990751e-08,-1.398621820787e-08,-0.0011974129506144,0.0011974128619681,-6.8758979989771e-10,6.156326730209e-10,-0.0013441344393024,0.0013441431882936,-0.001344133968633,0.0013441436237439,-0.0013441437339043,0.0013441339336778,-0.0013441432948787,0.0013441343322487,-0.0012035323852068,0.0012035053679603,-0.0012035050362675,0.0012035327344924,0.76402415733077,131329,3014,0.0049770552877971,0.0049770552878387,0.0049770552877534,23.441433088104,-5.2468535295171e-05,-5.2468535295171e-05,-5.2468535295171e-05,2398718.6976569,0.015044178845652
28619200,0.9952044148307,0.015359691946797,0.0051198973155636,0.0051198973156461,0.0051198973155876,-0.0011979198655514,0.0011979220105864,-1.2923461913463e-08,1.5103075956103e-08,-4.039853808298e-09,6.4733393145157e-09,-0.001344755440811,0.0013447447451875,-0.0013447460827305,0.0013447541084431,-0.0013447521768806,0.0013447482253064,-0.0013447428499485,0.001344757555,-0.0012040908358015,0.0012040690991583,-0.0012040634540596,0.0012040964904325,4.2232462078554e-09,-6.6391733339517e-09,-4.4520731652355e-10,-1.7160578819972e-09,-0.0011979220012911,0.0011979198748679,-0.0013447492729697,0.0013447511404674,-0.0013447496628865,0.0013447507338502,-0.00134475261918,0.0013447475741255,-0.0013447530436792,0.0013447471375844,-0.0012040821704779,0.001204077724174,-0.0012040834628596,0.0012040764070927,-0.0012040760439231,0.0012040840815029,-0.0012040866540723,0.0012040730369424,1.400680516407e-08,-1.4102272278439e-08,-0.0011979209821887,0.00119792089393,-6.9072076219014e-10,6.1918434028461e-10,-0.0013447457348411,0.0013447545604577,-0.0013447452628633,0.0013447549971594,-0.0013447551079056,0.0013447452273573,-0.0013447546657019,0.001344745629111,-0.0012040935643702,0.0012040663254506,-0.0012040659909867,0.0012040939161303,0.76896078608544,131329,3014,0.0049791622028674,0.0049791622029096,0.0049791622028286,23.631816049822,-5.0945471601426e-05,-5.0945471601426e-05,-5.0945471601426e-05,2396561.9545298,0.015050597473292
28819200,0.99536250511834,0.015362245024982,0.005120748341625,0.0051207483417075,0.005120748341649,-0.0011984220491752,0.0011984241988136,-1.3048112715584e-08,1.5232254834777e-08,-4.1108063288649e-09,6.5494978868059e-09,-0.0013453617812107,0.0013453509642443,-0.0013453523467206,0.0013453604039149,-0.0013453584764447,0.0013453544855038,-0.0013453490561351,0.0013453639085815,-0.001204643787186,0.0012046218315789,-0.0012046161323056,0.0012046494958841,4.2119175668019e-09,-6.627785613313e-09,-4.4359953875081e-10,-1.7176820807084e-09,-0.0011984241872405,0.0011984220607738,-0.0013453555519934,0.0013453574209645,-0.0013453559514379,0.0013453570048028,-0.0013453588987208,0.0013453538542777,-0.0013453593157879,0.0013453534251688,-0.0012046350190248,0.0012046305595488,-0.0012046362899719,0.0012046292635669,-0.001204628909654,0.0012046368995539,-0.0012046394733131,0.0012046259016135,1.4096028307952e-08,-1.4191048365802e-08,-0.0011984231679031,0.0011984230800718,-6.9487834620821e-10,6.2382685978235e-10,-0.0013453519821005,0.0013453608726987,-0.0013453515156359,0.0013453613038663,-0.0013453614227775,0.0013453514721287,-0.0013453609691985,0.0013453518853967,-0.0012046464795382,0.0012046190942563,-0.0012046187561364,0.0012046468344858,0.74978434012726,131329,3014,0.0049812448615474,0.0049812448615983,0.0049812448615194,23.824410802089,-4.9404713583286e-05,-4.9404713583286e-05,-4.9404713583286e-05,2394644.6227989,0.015056942242645
29019200,0.9955182833388,0.015364618031862,0.0051215393439187,0.0051215393440011,0.0051215393439427,-0.0011991501431583,0.0011991522932063,-1.3167854926777e-08,1.5352455673723e-08,-4.1240577402787e-09,6.5633294408497e-09,-0.0013461756689282,0.0013461647585727,-0.0013461661498705,0.0013461742827937,-0.0013461723506005,0.0013461682934362,-0.001346162854598,0.0013461777921818,-0.0012054104776191,0.0012053883096645,-0.001205382600755,0.0012054161957794,4.1991783153258e-09,-6.614071287063e-09,-4.3602292135558e-10,-1.7243938281597e-09,-0.0011991522810059,0.0011991501553849,-0.0013461693969289,0.0013461712581313,-0.0013461697966508,0.0013461708416148,-0.0013461727302751,0.001346167704799,-0.0013461731565083,0.0013461672664659,-0.001205401584985,0.0012053971622118,-0.0012054028824553,0.0012053958394607,-0.0012053955022516,0.0012054034755755,-0.0012054060529743,0.0012053924902225,1.4192411278048e-08,-1.4286626911237e-08,-0.0011991512616998,0.001199151174652,-7.0362471933605e-10,6.3346582031872e-10,-0.0013461657961159,0.0013461747407545,-0.0013461653190955,0.0013461751825093,-0.0013461752961985,0.0013461652807399,-0.0013461748409187,0.0013461656956933,-0.0012054131608308,0.001205385581384,-0.001205385236407,0.0012054135226771,0.71130252882385,131329,3014,0.0049842639541244,0.0049842639541768,0.0049842639540988,24.14017226648,-4.687862186816e-05,-4.687862186816e-05,-4.687862186816e-05,2394429.2481028,0.01506613785565
29219200,0.99567170268222,0.015366896309223,0.0051222987697055,0.005122298769788,0.0051222987697296,-0.0011998855993999,0.0011998877499854,-1.3285133356589e-08,1.5470227884981e-08,-4.1371119847158e-09,6.5769908316212e-09,-0.0013469596109395,0.0013469486268721,-0.0013469500265319,0.0013469582164755,-0.0013469562967405,0.0013469521576739,-0.0013469467093132,0.0013469617478603,-0.0012061611302966,0.001206138704611,-0.0012061329860117,0.0012061668583255,4.1764094277792e-09,-6.5896234363067e-09,-4.2839529825382e-10,-1.7305569857394e-09,-0.0011998877367858,0.0011998856126251,-0.0013469533003892,0.001346955164889,-0.0013469537177396,0.0013469547307753,-0.0013469566311507,0.0013469516144207,-0.0013469570489146,0.0013469511845271,-0.0012061521121377,0.0012061476826525,-0.0012061533856804,0.0012061463840228,-0.0012061460691873,0.0012061539559828,-0.0012061565368574,0.0012061430544845,1.4291194699929e-08,-1.4384705809288e-08,-0.0011998867178462,0.0011998866315255,-7.1007701722278e-10,6.4068752317125e-10,-0.0013469496638568,0.0013469586832852,-0.0013469491953008,0.0013469591165808,-0.001346959242622,0.0013469491447216,-0.0013469587697754,0.0013469495773171,-0.0012061637598988,0.0012061360303562,-0.0012061356796955,0.0012061641267289,0.69516966632015,131329,3014,0.0049873132621558,0.0049873132622068,0.0049873132621283,24.45890925151,-4.432872598792e-05,-4.432872598792e-05,-4.432872598792e-05,2396143.6022174,0.015075423950805
29419200,0.99582269123648,0.015368978952577,0.0051229929841568,0.0051229929842392,0.0051229929841809,-0.0012006165675733,0.0012006187169925,-1.3390444426173e-08,1.5574339429445e-08,-4.1214011699057e-09,6.5599407830767e-09,-0.0013477245264387,0.0013477134679359,-0.0013477148577986,0.0013477231418307,-0.0013477212086625,0.0013477170021785,-0.0013477115659765,0.0013477266476801,-0.0012068944164359,0.0012068718158513,-0.0012068661092721,0.0012069001322637,4.1791710367025e-09,-6.592279281349e-09,-4.2279847460565e-10,-1.736021499622e-09,-0.0012006187043035,0.0012006165802937,-0.0013477181830099,0.0013477200387727,-0.0013477185895664,0.0013477196154783,-0.0013477215011816,0.0013477165009068,-0.0013477219370981,0.001347716052842,-0.0012068852852314,0.0012068809069855,-0.0012068866116285,0.0012068795553227,-0.001206879245751,0.0012068871767188,-0.0012068897612967,0.0012068762275043,1.4402782950397e-08,-1.4495610099415e-08,-0.001200617685101,0.0012006175994571,-7.1616787673943e-10,6.4753080826064e-10,-0.0013477145140967,0.0013477235895664,-0.001347714026736,0.0013477240416724,-0.0013477241526101,0.001347713991298,-0.0013477236898693,0.0013477144136653,-0.0012068970861647,0.0012068691015417,-0.0012068687457486,0.0012068974579995,0.6508985724896,131329,3014,0.004990343823215,0.0049903438232784,0.0049903438232,24.777758738762,-4.1777930089902e-05,-4.1777930089902e-05,-4.1777930089902e-05,2398671.9838366,0.015084652490113
29619200,0.99597109878216,0.015370994541211,0.0051236648470347,0.0051236648471171,0.0051236648470588,-0.0012013348159206,0.0012013369649708,-1.3501626648162e-08,1.5685183801696e-08,-4.1201592192582e-09,6.5583390970071e-09,-0.0013484330740495,0.0013484219443326,-0.0013484233336736,0.0013484316899299,-0.0013484297594806,0.0013484254753832,-0.001348420040437,0.0013484351971984,-0.0012075910273244,0.0012075682018512,-0.0012075624966746,0.0012075967419985,4.1667779235973e-09,-6.5787060340685e-09,-4.1868779955435e-10,-1.7390770814207e-09,-0.0012013369519547,0.0012013348289587,-0.0013484266965252,0.001348428549247,-0.001348427107756,0.0013484281212366,-0.0013484300083552,0.0013484250178103,-0.0013484304443369,0.0013484245696426,-0.0012075817783921,0.0012075774107412,-0.0012075831056722,0.0012075760583098,-0.0012075757607087,0.001207583658692,-0.0012075862444096,0.0012075727412226,1.450792289162e-08,-1.4600365413741e-08,-0.0012013359330491,0.001201335847825,-7.1961050036376e-10,6.5139664745603e-10,-0.0013484229909444,0.0013484321367125,-0.0013484225034734,0.0013484325889514,-0.0013484327017302,0.0013484224661878,-0.0013484322342672,0.0013484228933079,-0.0012075936828589,0.0012075655016285,-0.0012075651432267,0.0012075940575353,0.64191385942458,131329,3014,0.0049933213199603,0.0049933213200042,0.0049933213199252,25.087385324923,-3.9300917400612e-05,-3.9300917400612e-05,-3.9300917400612e-05,2403104.3972661,0.015093717764921
29819200,0.99611637689428,0.015373093522044,0.0051243645073125,0.0051243645073948,0.0051243645073365,-0.0012019526075639,0.0012019547568564,-1.3612636655883e-08,1.5796450758272e-08,-4.1255669839958e-09,6.5640545660505e-09,-0.0013490312559669,0.0013490200545361,-0.0013490214472945,0.001349029868421,-0.0013490279435125,0.0013490235834792,-0.0013490181446465,0.0013490333851116,-0.0012081861450384,0.0012081630888245,-0.0012081573797451,0.0012081918635417,4.1648716875056e-09,-6.5766790630389e-09,-4.2009881099534e-10,-1.7375588306457e-09,-0.0012019547436706,0.0012019526207703,-0.0013490248407634,0.0013490266971175,-0.0013490252567903,0.0013490262643163,-0.0013490281571231,0.0013490231611782,-0.0013490285863709,0.0013490227197462,-0.0012081767899262,0.0012081724038393,-0.0012081780973058,0.0012081710712155,-0.0012081707728942,0.0012081786511721,-0.0012081812357139,0.0012081677544512,1.4612743411366e-08,-1.4705161560585e-08,-0.0012019537248025,0.0012019536395985,-7.1831561286286e-10,6.5011760073591e-10,-0.0013490210987116,0.0013490303210547,-0.0013490206178755,0.0013490307666762,-0.0013490308851984,0.0013490205748636,-0.001349030412822,0.0013490210068727,-0.0012081887797645,0.0012081604093136,-0.0012081600518632,0.0012081891535618,0.67837703410108,131329,3014,0.0049958822958071,0.0049958822958476,0.0049958822957679,25.339664912899,-3.7282680696806e-05,-3.7282680696806e-05,-3.7282680696806e-05,2407186.7158254,0.015101514482007
30019200,0.99625849647344,0.015375181056282,0.0051250603520587,0.005125060352141,0.0051250603520827,-0.0012025649810998,0.0012025671305245,-1.3721377789092e-08,1.5905287141043e-08,-4.1293365668377e-09,6.5679528160205e-09,-0.0013496636908358,0.0013496524167381,-0.0013496538118543,0.0013496623009263,-0.0013496603781045,0.0013496559459657,-0.001349650504485,0.001349665822345,-0.0012088006656882,0.0012087773926453,-0.0012087716809005,0.0012088063869373,4.1617934782466e-09,-6.5733903496796e-09,-4.2257656598453e-10,-1.7348913535428e-09,-0.0012025671171776,0.00120256499447,-0.0013496572399564,0.0013496590949632,-0.0013496576564994,0.001349658661662,-0.0013496605564988,0.0013496555588865,-0.0013496609818099,0.00134965512139,-0.0012087912068633,0.0012087868114534,-0.0012087925027754,0.0012087854904216,-0.0012087851904954,0.0012087930580159,-0.0012087956408393,0.0012087821740902,1.4719829442432e-08,-1.481237990155e-08,-0.0012025660984714,0.0012025660131367,-7.156138375473e-10,6.4725562190269e-10,-0.0013496534595486,0.0013496627572744,-0.0013496529827862,0.001349663198818,-0.0013496633197103,0.0013496529374236,-0.0013496628469696,0.0013496533698054,-0.0012088032947301,0.0012087747190176,-0.0012087743633283,0.0012088036665128,0.68873090041026,131329,3014,0.0049984211383911,0.0049984211384372,0.0049984211383581,25.590554678414,-3.5275562572687e-05,-3.5275562572687e-05,-3.5275562572687e-05,2408809.8609436,0.015109245762242
30219200,0.99639744358843,0.015377127175819,0.005125709058571,0.0051257090586533,0.0051257090585951,-0.0012031705429648,0.0012031726923235,-1.3829346013913e-08,1.6013189701811e-08,-4.1298085520071e-09,6.5683603302183e-09,-0.0013503014363912,0.0013502900887078,-0.001350291484154,0.0013503000461297,-0.001350298122102,0.0013502936195009,-0.0013502881778058,0.001350303566536,-0.0012094127453494,0.0012093892650055,-0.0012093835530685,0.0012094184668709,4.1604106148774e-09,-6.5718145914687e-09,-4.2572620431349e-10,-1.7315605550213e-09,-0.001203172678923,0.0012031705563851,-0.0013502949508352,0.0013502968015961,-0.0013502953639342,0.0013502963717358,-0.0013502982651416,0.0013502932677863,-0.0013502986895863,0.0013502928311513,-0.0012094031835455,0.0012093987867757,-0.0012094044769736,0.0012093974683265,-0.0012093971648268,0.0012094050356999,-0.0012094076161572,0.0012093941507911,1.482772390833e-08,-1.4920492082797e-08,-0.0012031716604096,0.0012031715748598,-7.1251743187567e-10,6.4390846806771e-10,-0.0013502911319657,0.0013503005023675,-0.0013502906560697,0.0013503009430535,-0.0013503010628634,0.0013502906118029,-0.0013503005935696,0.0013502910407461,-0.0012094153796253,0.0012093865861509,-0.001209386232857,0.0012094157490173,0.66008312639253,131329,3014,0.0050009318310836,0.0050009318311225,0.0050009318310451,25.841391831955,-3.3268865344363e-05,-3.3268865344363e-05,-3.3268865344363e-05,2409835.9493085,0.015116891959396
30419200,0.9965335004435,0.015378920681718,0.0051263068938705,0.0051263068939528,0.0051263068938946,-0.0012038433324248,0.0012038454812861,-1.3936620614924e-08,1.6119895107623e-08,-4.1278103663444e-09,6.5657659082408e-09,-0.0013509787462559,0.0013509673262147,-0.0013509687205521,0.0013509773571346,-0.0013509754313944,0.0013509708575428,-0.0013509654179075,0.0013509808737944,-0.0012100751165983,0.001210051431124,-0.0012100457211691,0.0012100808362676,4.1463941633098e-09,-6.5566093303246e-09,-4.2692705447623e-10,-1.7292977228424e-09,-0.0012038454675989,0.0012038433461371,-0.0013509722304051,0.0013509740692951,-0.0013509726402294,0.0013509736427581,-0.001350975532984,0.0013509705473556,-0.0013509759584157,0.0013509701097484,-0.0012100654455199,0.0012100610623318,-0.0012100667419653,0.0012100597410476,-0.0012100594434869,0.0012100672942995,-0.0012100698729308,0.0012100564319947,1.4936624178914e-08,-1.5029528058235e-08,-0.0012038444496843,0.001203844364013,-7.098327930366e-10,6.4106425186833e-10,-0.0013509683695285,0.0013509778121417,-0.0013509678933212,0.00135097825312,-0.0013509783709507,0.0013509678510908,-0.0013509779056417,0.0013509682760692,-0.001210077759262,0.0012100487442822,-0.0012100483924949,0.0012100781266049,0.62526527430856,131329,3014,0.0050037210123104,0.0050037210123602,0.0050037210122828,26.129322735575,-3.0965418115401e-05,-3.0965418115401e-05,-3.0965418115401e-05,2412539.0180864,0.015125385183792
30619200,0.9966674548721,0.015380807695081,0.005126935898325,0.0051269358984073,0.0051269358983491,-0.0012047279611887,0.0012047301077771,-1.4045893744411e-08,1.6226893741358e-08,-4.1058074309307e-09,6.5412586307448e-09,-0.0013518332964202,0.0013518218180203,-0.0013518231990643,0.0013518319205944,-0.001351829997491,0.0013518253332949,-0.0013518199114474,0.0013518354220999,-0.0012109379072596,0.0012109139909655,-0.0012109082988208,0.0012109436091705,4.1185982603594e-09,-6.5260018020988e-09,-4.232912148547e-10,-1.7303980442102e-09,-0.0012047300939538,0.0012047279750377,-0.0013518267587378,0.001351828582798,-0.0013518271705797,0.0013518281542343,-0.0013518300424774,0.0013518250798564,-0.0013518304690188,0.0013518246411189,-0.0012109281082039,0.0012109237502786,-0.0012109294080136,0.0012109224256482,-0.0012109221475047,0.0012109299407108,-0.0012109325184664,0.0012109191372493,1.5044590934662e-08,-1.5137236055359e-08,-0.0012047290771773,0.0012047289917754,-7.1176913467681e-10,6.4328136490175e-10,-0.0013518228548719,0.0013518323686998,-0.0013518223777327,0.0013518328106257,-0.0013518329286341,0.0013518223353062,-0.0013518324614921,0.001351822762135,-0.0012109405386843,0.0012109113154771,-0.0012109109619372,0.0012109409076783,0.66318230281973,131329,3014,0.005007388197682,0.0050073881977331,0.0050073881976556,26.523503707779,-2.7811970337769e-05,-2.7811970337769e-05,-2.7811970337769e-05,2417012.9667636,0.015136551067337
30819200,0.99679922801372,0.015382754661841,0.005127584887245,0.0051275848873273,0.0051275848872691,-0.0012056191247326,0.0012056212693451,-1.4157716643828e-08,1.6336809068638e-08,-4.0790068185534e-09,6.5122872532711e-09,-0.0013527389088615,0.0013527273760461,-0.0013527287405903,0.0013527375495157,-0.0013527356312853,0.0013527308698398,-0.0013527254684006,0.0013527410354706,-0.0012118343850643,0.0012118102223019,-0.0012118045506423,0.0012118400662083,4.1041790305238e-09,-6.5100538520147e-09,-4.2207512760689e-10,-1.7302428169694e-09,-0.0012056212558178,0.0012056191382858,-0.0013527323466917,0.0013527341652283,-0.0013527327618581,0.0013527337333186,-0.0013527356231954,0.001352730669555,-0.0013527360471404,0.0013527302334071,-0.001211824460744,0.0012118201067737,-0.0012118257526782,0.0012118187896942,-0.0012118185207713,0.0012118262764851,-0.0012118288529499,0.0012118155114816,1.5149844911696e-08,-1.5242181856219e-08,-0.0012056202395984,0.0012056201544671,-7.1374305255144e-10,6.4558152683927e-10,-0.0013527284041087,0.0013527379898738,-0.0013527279285418,0.0013527384302615,-0.0013527385509387,0.0013527278833784,-0.0013527380794099,0.0013527283145654,-0.0012118369908633,0.0012118075720723,-0.0012118072172472,0.0012118373616446,0.69236328215401,131329,3014,0.0050110828252956,0.0050110828253473,0.005011082825271,26.920268811331,-2.4637849509354e-05,-2.4637849509354e-05,-2.4637849509354e-05,2418662.0330425,0.015147802696764
31019200,0.99692872400278,0.015384728465516,0.0051282428218032,0.0051282428218854,0.0051282428218273,-0.0012065081801668,0.0012065103234145,-1.4265780102857e-08,1.6443509492602e-08,-4.0663038440911e-09,6.4980876388831e-09,-0.001353673780431,0.0013536621826235,-0.0013536635395319,0.0013536724287365,-0.0013536705107654,0.0013536656684295,-0.0013536602773303,0.0013536759046256,-0.0012127483855501,0.0012127240052391,-0.0012127183438794,0.0012127540563242,4.0833792970365e-09,-6.4873336967212e-09,-4.2015588647782e-10,-1.7304468663421e-09,-0.001206510309703,0.0012065081939085,-0.001353667192245,0.001353668997723,-0.0013536676070817,0.0013536685661531,-0.0013536704533141,0.0013536655176006,-0.0013536708790052,0.0013536650797131,-0.0012127383418174,0.0012127340091792,-0.0012127396388687,0.0012127326869076,-0.0012127324317462,0.0012127401488386,-0.0012127427243707,0.0012127294236493,1.525848323687e-08,-1.5350709070257e-08,-0.0012065092942993,0.0012065092092738,-7.1412545045768e-10,6.4607992131954e-10,-0.0013536632075854,0.0013536728645034,-0.0013536627306821,0.0013536733062248,-0.0013536734257712,0.0013536626866544,-0.0013536729549928,0.0013536631171068,-0.0012127509902604,0.0012127213561585,-0.0012127210008521,0.001212751361434,0.71215832155971,131329,3014,0.0050147689553171,0.0050147689553774,0.0050147689553009,27.317131934039,-2.146294452769e-05,-2.146294452769e-05,-2.146294452769e-05,2418482.0637997,0.015159029982319
31219200,0.99705696356243,0.015386784200407,0.0051289280667669,0.0051289280668491,0.005128928066791,-0.0012076860512765,0.0012076881924493,-1.4373868842997e-08,1.6549489314344e-08,-4.0491876838604e-09,6.4786751045698e-09,-0.0013549184138927,0.0013549067545783,-0.0013549081013506,0.0013549170723545,-0.0013549151560612,0.0013549102284931,-0.0013549048515625,0.0013549205357463,-0.0012139696409691,0.0012139450378515,-0.0012139393905499,0.0012139752976781,4.0348364981403e-09,-6.4346534150419e-09,-4.0913523278634e-10,-1.7377836234998e-09,-0.0012076881779165,0.0012076860658428,-0.0013549118069609,0.0013549135882421,-0.0013549122275927,0.0013549131508569,-0.0013549150341987,0.0013549101422821,-0.0013549154662625,0.0013549096979694,-0.0012139594577321,0.0012139551813958,-0.0012139607736489,0.0012139538402431,-0.0012139536259581,0.0012139612422901,-0.0012139638205836,0.0012139506159846,1.5367729302772e-08,-1.5459451101322e-08,-0.0012076871641241,0.0012076870795981,-7.1811445250817e-10,6.5060758956121e-10,-0.00135490777524,0.001354917502173,-0.0013549072952018,0.0013549179470425,-0.0013549180658292,0.0013549072519695,-0.0013549175925602,0.0013549076850293,-0.0012139722399181,0.0012139423949066,-0.0012139420358741,0.0012139726142347,0.74546029673302,131329,3014,0.005019652610412,0.0050196526104792,0.005019652610405,27.866551429354,-1.7067588565168e-05,-1.7067588565168e-05,-1.7067588565168e-05,2417686.453365,0.015173905432792
31419200,0.99718390163067,0.015388719173971,0.0051295730579548,0.005129573058037,0.0051295730579789,-0.001208885638287,0.0012088877789427,-1.4480435078119e-08,1.6655567934009e-08,-4.0537572923209e-09,6.4827768360882e-09,-0.0013562198615201,0.0013562081273084,-0.0013562094776354,0.0013562185164137,-0.0013562166001857,0.0013562116047891,-0.0013562062252867,0.0013562219824321,-0.0012152272644195,0.0012152024570629,-0.0012151968070326,0.0012152329238196,3.9827797190675e-09,-6.3786519791892e-09,-3.9634672989969e-10,-1.7471290173494e-09,-0.0012088877629379,0.0012088856543213,-0.0013562132300113,0.0013562149854546,-0.001356213657546,0.0013562145411257,-0.0013562164207685,0.0013562115762755,-0.001356216860673,0.0013562111240757,-0.001215216947667,0.0012152127340568,-0.0012152182864686,0.0012152113699498,-0.001215211201338,0.0012152187094026,-0.0012152212916681,0.0012152081877582,1.547755108085e-08,-1.5569038292861e-08,-0.0012088867507465,0.0012088866664754,-7.1884411427633e-10,6.5158314181758e-10,-0.0013562091491728,0.0013562189485395,-0.0013562086681669,0.0013562193944567,-0.0013562195124956,0.0013562086256837,-0.0013562190392224,0.001356209058872,-0.0012152298690045,0.0012151998085309,-0.0012151994487012,0.0012152302438795,0.7124263019234,131329,3014,0.005024626500449,0.0050246265005079,0.0050246265004333,28.434632300294,-1.2522941597644e-05,-1.2522941597644e-05,-1.2522941597644e-05,2415918.3689062,0.01518905729696
31619200,0.9973093529649,0.015390537150535,0.005130179050143,0.0051301790502252,0.0051301790501672,-0.0012100823850954,0.0012100845228797,-1.4592590851778e-08,1.6764894067229e-08,-4.0138467948533e-09,6.4396543345099e-09,-0.001357482739677,0.0013574709580018,-0.0013574722831483,0.0013574814197417,-0.0013574795074803,0.0013574744061167,-0.0013574690575522,0.0013574848587875,-0.0012164618234649,0.0012164367648235,-0.0012164311454838,0.0012164674520178,3.9915694762648e-09,-6.3874253269672e-09,-3.9582927713766e-10,-1.7475572962545e-09,-0.0012100845082652,0.0012100823997443,-0.00135747608052,0.0013574778437811,-0.0013574765094929,0.001357477397985,-0.0013574792786518,0.0013574744270418,-0.001357479717616,0.0013574739757762,-0.0012164513855032,0.0012164471631205,-0.001216452721421,0.0012164458017703,-0.0012164456279898,0.0012164531496796,-0.0012164557319682,0.0012164426139978,1.5583180750172e-08,-1.5673991633785e-08,-0.0012100834957887,0.0012100834121827,-7.2760935859237e-10,6.6110791934216e-10,-0.0013574719706523,0.0013574818358917,-0.0013574714846816,0.001357482286774,-0.0013574824053103,0.0013574714415872,-0.0013574819246005,0.0013574718820468,-0.0012164644003125,0.0012164341440586,-0.0012164337773824,0.0012164647819658,0.68057767029131,131329,3014,0.0050295882824785,0.0050295882825476,0.0050295882824718,29.003216237369,-7.9742701010463e-06,-7.9742701010463e-06,-7.9742701010463e-06,2416143.9365576,0.01520417090197
31819200,0.99743101458085,0.015392235505969,0.0051307451686209,0.005130745168703,0.005130745168645,-0.0012106972399702,0.0012106993796765,-1.4705549609613e-08,1.6879833098392e-08,-4.0163353730642e-09,6.4442064260936e-09,-0.0013581245539806,0.0013581126987561,-0.0013581140246394,0.0013581232332974,-0.0013581213223344,0.0013581161462661,-0.0013581107932698,0.0013581266781096,-0.0012170828723378,0.001217057585048,-0.001217051961871,0.0012170885048542,4.0866633740848e-09,-6.4898589908766e-09,-4.1757625222184e-10,-1.7322623431922e-09,-0.0012106993673576,0.0012106972523126,-0.0013581178331997,0.0013581196463713,-0.0013581182530618,0.0013581192097348,-0.0013581210997576,0.0013581161606891,-0.0013581215232936,0.001358115724959,-0.001217072378859,0.0012170680385526,-0.0012170736691687,0.0012170667230039,-0.0012170664677611,0.00121707417953,-0.0012170767553194,0.0012170634586786,1.5684772001394e-08,-1.5776279609781e-08,-0.0012106983519677,0.0012106982676595,-7.2303626009151e-10,6.5580129248538e-10,-0.0013581137113301,0.0013581236503465,-0.0013581132318193,0.0013581240947214,-0.0013581242171177,0.0013581131849138,-0.0013581237364025,0.0013581136250969,-0.0012170854316895,0.0012170549809352,-0.0012170546192626,0.0012170858098432,0.65805653315683,131329,3014,0.0050321373711109,0.0050321373711574,0.0050321373710711,29.265646118704,-5.874831050364e-06,-5.874831050364e-06,-5.874831050364e-06,2417381.4101352,0.015211934711554
32019200,0.99754728430961,0.015394023460104,0.0051313411533324,0.0051313411534146,0.0051313411533566,-0.0012108493761224,0.0012108515244614,-1.4808914586707e-08,1.699170729777e-08,-4.1170184567945e-09,6.5544068943097e-09,-0.0013582705028013,0.0013582585139775,-0.0013582599016321,0.0013582691203355,-0.0013582672009697,0.0013582620321417,-0.0013582566002612,0.0013582726356191,-0.001217225943423,0.0012172005242883,-0.0012171948224962,0.0012172316548178,4.1617694059413e-09,-6.5729441017203e-09,-4.4356164051887e-10,-1.7134775707039e-09,-0.0012108515114647,0.0012108493891434,-0.0013582637001774,0.0013582655437468,-0.001358264105147,0.0013582651221376,-0.0013582670190496,0.0013582620054722,-0.0013582674278541,0.0013582615845641,-0.0012172154358529,0.0012172109917074,-0.0012172166827858,0.0012172097200646,-0.0012172093916938,0.0012172172660903,-0.0012172198344894,0.0012172063899625,1.5791999437551e-08,-1.5885576859825e-08,-0.0012108504934724,0.0012108504070915,-6.9898345650579e-10,6.2943425971543e-10,-0.0013582595500036,0.001358269575938,-0.0013582590871849,0.0013582700034969,-0.0013582701279199,0.0013582590384152,-0.0013582696641767,0.0013582594616948,-0.0012172285524006,0.0012171978706925,-0.0012171975276624,0.0012172289116861,0.7176633907009,131329,3014,0.0050327679707207,0.0050327679707687,0.0050327679706798,29.280976520768,-5.7521878338552e-06,-5.7521878338552e-06,-5.7521878338552e-06,2418686.6130931,0.015213854206946
32219200,0.99765835744242,0.015395772207952,0.0051319240692818,0.005131924069364,0.005131924069306,-0.0012109786030947,0.0012109807590399,-1.4909502153414e-08,1.7099808846283e-08,-4.211998029175e-09,6.6578270994816e-09,-0.0013584525176264,0.0013584403984534,-0.0013584418444563,0.0013584510767884,-0.0013584491477389,0.0013584439851094,-0.0013584384798251,0.0013584546557937,-0.0012173816795584,0.0012173561367218,-0.0012173503613526,0.0012173874645863,4.21900094879e-09,-6.6365879311068e-09,-4.6661427566686e-10,-1.6962339450083e-09,-0.0012109807451705,0.00121097861699,-0.0013584456405561,0.001358447502943,-0.0013584460297588,0.0013584470971966,-0.001358448997337,0.0013584439265391,-0.0013584493951524,0.0013584435167054,-0.0012173711493818,0.0012173666265731,-0.001217372364037,0.0012173653874949,-0.0012173649994769,0.0012173730070422,-0.0012173755680116,0.0012173620049716,1.5902536752595e-08,-1.5998090335263e-08,-0.0012109797252403,0.0012109796368749,-6.7514250650692e-10,6.0338152972609e-10,-0.001358441456437,0.0013584515689777,-0.0013584410078289,0.0013584519822705,-0.0013584521063282,0.0013584409595545,-0.0013584516616314,0.0013584413638396,-0.0012173843488397,0.0012173534231273,-0.0012173530982732,0.0012173846892314,0.7334085227643,131329,3014,0.0050333040807898,0.0050333040808411,0.0050333040807501,29.290205598861,-5.6783552091099e-06,-5.6783552091099e-06,-5.6783552091099e-06,2416578.6063292,0.015215488612885
32419200,0.9977644615292,0.015397487121061,0.0051324957069849,0.005132495707067,0.0051324957070091,-0.0012110994465437,0.0012111016083268,-1.501403522153e-08,1.7210141340054e-08,-4.2813087507212e-09,6.7336214237229e-09,-0.0013586387056356,0.0013586264719778,-0.0013586279604889,0.0013586372222588,-0.0013586352872836,0.0013586301073879,-0.0013586245480792,0.0013586408493637,-0.0012175374816773,0.001217511783787,-0.001217505954105,0.0012175433211004,4.2780500164931e-09,-6.7014539006613e-09,-4.8959960920083e-10,-1.6784749667388e-09,-0.001211101594182,0.001211099460707,-0.0013586317603614,0.0013586336448934,-0.001358632135724,0.0013586332530752,-0.0013586351579686,0.0013586300274269,-0.0013586355426139,0.0013586296308502,-0.0012175269164705,0.0012175223084639,-0.0012175280923374,0.001217521108443,-0.0012175206585719,0.0012175287974031,-0.0012175313499767,0.0012175176718451,1.6010083799106e-08,-1.6107412185791e-08,-0.0012111005724873,0.0012111004823555,-6.5465756439608e-10,5.8091817014278e-10,-0.0013586275449778,0.0013586377420939,-0.0013586271103561,0.001358638141376,-0.001358638266871,0.0013586270607516,-0.0013586378368212,0.0013586274503445,-0.0012175401883022,0.0012175090330623,-0.0012175087240642,0.0012175405122243,0.75109425936043,131329,3014,0.0050338055267838,0.0050338055268199,0.0050338055267267,29.299202154148,-5.6063827668161e-06,-5.6063827668161e-06,-5.6063827668161e-06,2413965.4026178,0.015217017961797
32619200,0.99786555741716,0.01539899008061,0.0051329966935013,0.0051329966935835,0.0051329966935255,-0.0012111173381975,0.0012111195013369,-1.5130419231608e-08,1.7327810788157e-08,-4.3081570620531e-09,6.7620281317999e-09,-0.0013587365693249,0.0013587242447484,-0.0013587257500757,0.0013587350691293,-0.0013587331367841,0.0013587278943752,-0.0013587223155232,0.001358738718473,-0.0012175928201007,0.0012175669011938,-0.0012175610518242,0.0012175986792094,4.3435868902458e-09,-6.7712354910397e-09,-5.1336364879374e-10,-1.658332551562e-09,-0.0012111194883317,0.001211117351219,-0.0013587295630889,0.0013587314786783,-0.001358729927878,0.0013587310975701,-0.0013587330098462,0.0013587278118906,-0.0013587333758938,0.0013587274339584,-0.0012175821960171,0.0012175774845861,-0.0012175833173835,0.001217576339157,-0.0012175758204553,0.001217584091514,-0.0012175866332165,0.0012175728442569,1.6108468624223e-08,-1.6206657961018e-08,-0.0012111184652513,0.0012111183742546,-6.3822218416213e-10,5.6347211775476e-10,-0.0013587253230941,0.0013587356004442,-0.0013587249037173,0.0013587359844349,-0.0013587361148434,0.0013587248493651,-0.0013587356920036,0.0013587252315891,-0.0012175955133582,0.0012175641639917,-0.0012175638669569,0.0012175958250311,0.69653886785541,131329,3014,0.0050338802300887,0.0050338802301203,0.0050338802300303,29.262923792079,-5.8966096633639e-06,-5.8966096633639e-06,-5.8966096633639e-06,2410807.1153623,0.015217248133174
32819200,0.99796176971164,0.015400302066514,0.005133434022136,0.0051334340222182,0.0051334340221602,-0.001211089057584,0.001211091222212,-1.5236326989963e-08,1.7435227890521e-08,-4.3332188093163e-09,6.7888601726289e-09,-0.0013587303873909,0.0013587179753108,-0.0013587194967045,0.001358728871083,-0.0013587269370237,0.0013587216428966,-0.0013587160451313,0.0013587325375709,-0.0012175665191727,0.001217540411072,-0.0012175345429952,0.001217572396934,4.3627306276979e-09,-6.7915957887525e-09,-5.2959687847944e-10,-1.6431129464348e-09,-0.0012110912089823,0.0012110890708373,-0.0013587233369153,0.0013587252536051,-0.0013587236908959,0.0013587248833361,-0.0013587267961019,0.0013587215741745,-0.0013587271521789,0.0013587212063148,-0.0012175558224511,0.0012175510669924,-0.0012175569140237,0.0012175499515837,-0.0012175494005592,0.0012175577204805,-0.0012175602526265,0.0012175464335946,1.6217206178777e-08,-1.6316273218288e-08,-0.0012110901858407,0.0012110900939314,-6.2276159132557e-10,5.4696184901449e-10,-0.0013587190563089,0.0013587294159523,-0.0013587186472279,0.0013587297896321,-0.0013587299205133,0.0013587185923294,-0.0013587295087836,0.0013587189634535,-0.0012175692308834,0.0012175376550908,-0.0012175373699202,0.0012175695312394,0.64446135827473,131329,3014,0.005033763062264,0.0050337630623106,0.0050337630622151,29.20446576477,-6.3642738818432e-06,-6.3642738818432e-06,-6.3642738818432e-06,2410699.7217307,0.015216891346152
33019200,0.99805334502886,0.015401661895744,0.005133887298546,0.0051338872986281,0.0051338872985702,-0.0012110699302189,0.0012110720959596,-1.5339434943439e-08,1.7539434563667e-08,-4.3485197674708e-09,6.8054289881688e-09,-0.0013586766850566,0.0013586641926057,-0.0013586657234801,0.0013586751592509,-0.0013586732223698,0.0013586678725865,-0.0013586622631328,0.0013586788346096,-0.0012175220261352,0.0012174957320607,-0.0012174898522528,0.0012175279156987,4.3593314992017e-09,-6.788068069566e-09,-5.4113083774761e-10,-1.6314488632883e-09,-0.0012110720821151,0.001211069944084,-0.0013586696002186,0.0013586715052452,-0.0013586699447499,0.0013586711444837,-0.0013586730553618,0.0013586678299053,-0.0013586734055287,0.0013586674680201,-0.0012175112438877,0.0012175064734454,-0.0012175123180869,0.001217505375596,-0.0012175048113545,0.0012175131376305,-0.0012175156619789,0.0012175018522749,1.6328969651362e-08,-1.6428889031894e-08,-0.0012110710594567,0.0012110709666944,-6.0954843368435e-10,5.3275815578051e-10,-0.0013586652731094,0.0013586757141043,-0.0013586648714183,0.0013586760804153,-0.0013586762103778,0.0013586648174883,-0.0013586758095722,0.0013586651777076,-0.0012175247624244,0.0012174929516485,-0.0012174926763361,0.0012175250526255,0.69524135630081,131329,3014,0.0050336834354174,0.0050336834354577,0.0050336834353612,29.145454140261,-6.8363668779123e-06,-6.8363668779123e-06,-6.8363668779123e-06,2413095.5581384,0.015216646542093
33219200,0.9981405197838,0.015403026147816,0.0051343420492365,0.0051343420493186,0.0051343420492607,-0.0012110462781788,0.0012110484436317,-1.5447621143895e-08,1.7647341293249e-08,-4.345201121559e-09,6.8017965608428e-09,-0.0013586712836739,0.0013586587212129,-0.0013586602500437,0.0013586697598913,-0.0013586678232906,0.0013586623988704,-0.0013586567920231,0.0013586734329157,-0.0012175048116734,0.0012174783034228,-0.001217472426248,0.0012175106986543,4.3550043563404e-09,-6.7833499515836e-09,-5.513185549339e-10,-1.6209089693612e-09,-0.0012110484297604,0.0012110462920692,-0.0013586641686027,0.001358666064047,-0.0013586645062563,0.0013586657102044,-0.0013586676207393,0.0013586623917294,-0.0013586679640425,0.0013586620367469,-0.0012174939307857,0.0012174891433981,-0.0012174949847715,0.0012174880659133,-0.0012174874906154,0.0012174958152746,-0.0012174983323806,0.0012174845388133,1.6436487477355e-08,-1.6536956934611e-08,-0.0012110474075444,0.0012110473142366,-5.9954844073609e-10,5.2210453903531e-10,-0.0013586597975982,0.0013586703168317,-0.0013586594027936,0.0013586706762566,-0.001358670806724,0.00135865934835,-0.0013586704128219,0.0013586597016678,-0.0012175075501705,0.0012174755208136,-0.0012174752529432,0.0012175078329309,0.72922790956001,131329,3014,0.0050335854810893,0.0050335854811264,0.0050335854810284,29.086421381514,-7.3086289478883e-06,-7.3086289478883e-06,-7.3086289478883e-06,2412303.817433,0.015216348386792
33419200,0.99822486048661,0.015404372943333,0.0051347909810756,0.0051347909811577,0.0051347909810998,-0.0012115505608685,0.0012115527217104,-1.556475326906e-08,1.7759872346502e-08,-4.2770967095726e-09,6.7283940894144e-09,-0.0013592338774223,0.0013592212831672,-0.0013592227694162,0.0013592323962416,-0.0013592304661741,0.0013592249113999,-0.0013592193561175,0.0013592360242326,-0.0012180435676152,0.0012180167764868,-0.001218010950841,0.0012180494029271,4.2636772137165e-09,-6.6854819008707e-09,-5.3662551770419e-10,-1.6299623663854e-09,-0.0012115527072849,0.0012115505753224,-0.0013592267698894,0.0013592286180855,-0.0013592271176275,0.0013592282541296,-0.0013592301614536,0.0013592250068226,-0.0013592305104312,0.0013592246461202,-0.0012180325026164,0.001218027800757,-0.0012180335733495,0.0012180267063387,-0.0012180262020034,0.0012180343324169,-0.0012180368520529,0.001218023248806,1.6537320098576e-08,-1.6638438907171e-08,-0.0012115516882704,0.0012115515942875,-6.0704294851932e-10,5.2902103147651e-10,-0.0013592223433057,0.0013592329266327,-0.0013592219459206,0.0013592332886901,-0.0013592334220431,0.0013592218885292,-0.0013592330211948,0.0013592222489171,-0.0012180462585565,0.001218014041683,-0.0012180137694321,0.0012180465453742,0.74278652768694,131329,3014,0.0050356764899929,0.0050356764900493,0.0050356764899499,29.311741261965,-5.5060699042806e-06,-5.5060699042806e-06,-5.5060699042806e-06,2411313.4189541,0.01522271882456
33619200,0.99830675887782,0.015405681071442,0.0051352270237785,0.0051352270238606,0.0051352270238027,-0.00121219644244,0.0012121985913901,-1.5626052438059e-08,1.780953784802e-08,-4.1181591938282e-09,6.5562919095473e-09,-0.0013599511165016,0.0013599385690401,-0.0013599399566515,0.0013599497339306,-0.001359947800257,0.0013599421014689,-0.0013599366687207,0.0013599532357319,-0.0012187304323701,0.0012187034530782,-0.001218697750372,0.0012187361446241,4.240218340292e-09,-6.6572635952588e-09,-5.3435334227706e-10,-1.6277770991643e-09,-0.0012121985806526,0.0012121964532058,-0.0013599440460761,0.0013599458666884,-0.0013599443785277,0.0013599455178752,-0.001359947405425,0.0013599422872176,-0.0013599477695409,0.0013599419113322,-0.0012187192409235,0.0012187146042225,-0.0012187203554082,0.0012187134659343,-0.0012187129743163,0.0012187211018259,-0.0012187236160563,0.0012187100254652,1.6698943900962e-08,-1.6797854156674e-08,-0.0012121975628219,0.0012121974709877,-6.3883263660146e-10,5.633305775199e-10,-0.0013599395696898,0.0013599502251258,-0.001359939135001,0.0013599506244834,-0.0013599507403397,0.0013599390945671,-0.0013599503324168,0.0013599394617351,-0.0012187331955565,0.0012187006450292,-0.0012187003496518,0.00121873350769,0.74303042375985,131329,3014,0.0050383545787965,0.0050383545788527,0.0050383545787544,29.61345273859,-3.0923780912781e-06,-3.0923780912781e-06,-3.0923780912781e-06,2409883.1527203,0.015230877896908
33819200,0.99838622553367,0.015406954394713,0.005135651464869,0.0051356514649511,0.0051356514648932,-0.0012128407566026,0.0012128429082124,-1.5888034306693e-08,1.8074114086986e-08,-4.2210271687527e-09,6.6626103635915e-09,-0.0013606655063249,0.0013606527549822,-0.0013606542107591,0.0013606640556062,-0.0013606621604426,0.0013606563177467,-0.0013606508112005,0.00136066766962,-0.0012194145469637,0.0012193870079062,-0.0012193812312761,0.001219420333159,3.9726386038563e-09,-6.3702710071449e-09,-4.6104385575572e-10,-1.6841969582667e-09,-0.0012128428876569,0.0012128407771878,-0.0013606583761462,0.0013606601119822,-0.0013606587928679,0.0013606596786291,-0.0013606615913764,0.0013606566783352,-0.0013606619578544,0.0013606562998687,-0.0012194029702243,0.0012193985450409,-0.0012194040926905,0.0012193973972119,-0.0012193971528781,0.0012194045918225,-0.0012194071331699,0.0012193941795087,1.6651252647073e-08,-1.675099120607e-08,-0.0012128418787055,0.0012128417860897,-6.1049194644892e-10,5.3391824295829e-10,-0.0013606538439047,0.0013606645264934,-0.0013606534698448,0.0013606648654077,-0.001360665023054,0.0013606533878568,-0.0013606645942415,0.0013606537769302,-0.0012194169355932,0.0012193845755012,-0.0012193842992269,0.0012194172263801,0.74517769050351,131329,3014,0.0050410261619494,0.0050410261620087,0.0050410261619087,29.917113631419,-6.6309094864772e-07,-6.6309094864772e-07,-6.6309094864772e-07,2408699.2609403,0.015239017072231
34019200,0.99846326480852,0.015408150500741,0.0051360501668781,0.0051360501669602,0.0051360501669023,-0.0012134781516058,0.0012134802890298,-1.5876303760642e-08,1.8048240370057e-08,-4.0033605574948e-09,6.4287326887469e-09,-0.0013613724988316,0.0013613598675927,-0.0013613611854406,0.0013613711861406,-0.0013613692725216,0.0013613633095731,-0.0013613579690956,0.001361374615859,-0.0012200896232138,0.0012200620487236,-0.0012200564370819,0.0012200952441284,4.0438905394791e-09,-6.4435218049716e-09,-4.8118779243892e-10,-1.6654592173444e-09,-0.0012134802762522,0.0012134781644155,-0.0013613654268347,0.0013613671659528,-0.0013613657985647,0.0013613667778908,-0.00136136865988,0.0013613637142051,-0.0013613690447955,0.0013613633173014,-0.0012200780269308,0.0012200736042478,-0.0012200792032123,0.0012200724048757,-0.0012200720875189,0.0012200797733605,-0.001220082303767,0.0012200691262284,1.6887794166069e-08,-1.6984054924251e-08,-0.0012134792648606,0.0012134791757565,-6.6393959880689e-10,5.9135155676292e-10,-0.0013613608502173,0.00136137162499,-0.001361360406961,0.0013613720331284,-0.0013613721554954,0.001361360360196,-0.0013613717206251,0.0013613607544793,-0.0012200922502764,0.0012200593780659,-0.0012200590610703,0.0012200925815636,0.72426545092228,131329,3014,0.0050436690009263,0.0050436690009903,0.0050436690008884,30.220849302039,1.7667944163115e-06,1.7667944163115e-06,1.7667944163115e-06,2407747.7406369,0.015247068680736
34219200,0.99853917209329,0.015409296124166,0.0051364320413533,0.0051364320414354,0.0051364320413775,-0.0012146989120219,0.0012147010344639,-1.5852154735201e-08,1.8008950862795e-08,-3.7716077009149e-09,6.1796530140188e-09,-0.0013626444651994,0.0013626319681608,-0.0013626331406966,0.001362643298029,-0.0013626413659721,0.0013626352818983,-0.001362630116046,0.0013626465348644,-0.0012213440403892,0.0012213164453269,-0.0012213110097784,0.0012213494861966,4.0852945112459e-09,-6.4835317285635e-09,-4.8720716145344e-10,-1.6577832802114e-09,-0.0012147010283094,0.0012146989182103,-0.001362637464076,0.0013626391950922,-0.0013626377989558,0.0013626388439525,-0.001362640691821,0.0013626357486465,-0.0013626411045697,0.0013626353241011,-0.0012213324061298,0.0012213280395184,-0.001221333665124,0.0012213267573615,-0.0012213264047641,0.0012213342700589,-0.0012213367943848,0.0012213234499403,1.7137847725928e-08,-1.7229591422456e-08,-0.0012147000154845,0.0012146999309853,-7.3130754423298e-10,6.6386970717732e-10,-0.0013626328381643,0.0013626437036609,-0.0013626323157586,0.001362644190688,-0.0013626442762679,0.0013626323060039,-0.0013626438268332,0.0013626327145099,-0.0012213469204139,0.0012213135216596,-0.001221313153766,0.001221347304149,0.7059434863778,131329,3014,0.0050487301235536,0.0050487301236216,0.0050487301235212,30.83222083191,6.6577666552824e-06,6.6577666552824e-06,6.6577666552824e-06,2408675.8610469,0.015262485171604
34419200,0.99861395303312,0.015410429636505,0.0051368098787997,0.0051368098788818,0.0051368098788239,-0.0012159852802196,0.0012159873966486,-1.5943812456827e-08,1.8094783956418e-08,-3.7064178696547e-09,6.1079866357304e-09,-0.001363966151935,0.001363953628806,-0.0013639547631199,0.0013639650229404,-0.0013639630928982,0.0013639569021047,-0.0013639517866274,0.0013639682112781,-0.0012226530139877,0.001222625204049,-0.0012226198205868,0.0012226584078243,4.0182323183387e-09,-6.4094515649962e-09,-4.5646466719734e-10,-1.6822169221359e-09,-0.0012159873903165,0.0012159852865874,-0.0013639591513626,0.001363960855157,-0.0013639595007866,0.0013639604891633,-0.0013639623268513,0.0013639574608899,-0.0013639627622556,0.0013639570135755,-0.0012226412125635,0.0012226369668853,-0.0012226425378046,0.0012226356159694,-0.0012226353415083,0.0012226430668737,-0.0012226456015803,0.0012226323738844,1.7266545183426e-08,-1.7355605621044e-08,-0.0012159863793585,0.0012159862974943,-7.6242395308923e-10,6.9797652388454e-10,-0.0013639544813894,0.0013639654077939,-0.001363953933586,0.0013639659202602,-0.0013639659990953,0.0013639539301648,-0.0013639655323002,0.0013639543561192,-0.001222655903946,0.0012226222690427,-0.0012226218784501,0.0012226563134434,0.70867958437306,131329,3014,0.0050540630795365,0.0050540630796081,0.0050540630795051,31.476024990335,1.1808199922683e-05,1.1808199922683e-05,1.1808199922683e-05,2410637.8910835,0.015278729124394
34619200,0.99868747260427,0.01541159184179,0.0051371972805612,0.0051371972806433,0.0051371972805854,-0.0012172750969565,0.001217277210015,-1.6038386438774e-08,1.8186042340772e-08,-3.677082040903e-09,6.0750091265236e-09,-0.0013652937578051,0.0013652811866187,-0.0013652823036028,0.0013652926461598,-0.0013652907160862,0.0013652844425078,-0.0013652793509398,0.001365295810563,-0.0012239686160361,0.0012239406089564,-0.0012239352495214,0.001223973985646,3.9627605850068e-09,-6.3490497111138e-09,-4.270911375477e-10,-1.7071916806562e-09,-0.0012172772031472,0.0012172751038666,-0.0013652867428311,0.0013652884272116,-0.0013652871070537,0.0013652880463121,-0.0013652898765609,0.0013652850750682,-0.0013652903332605,0.0013652846063084,-0.0012239566630358,0.0012239525234408,-0.0012239580511433,0.0012239511091914,-0.0012239509038989,0.0012239585111522,-0.0012239610596425,0.0012239479230127,1.7390907508007e-08,-1.7477613712016e-08,-0.0012172761932349,0.0012172761137264,-7.8842160711404e-10,7.2658819264123e-10,-0.0013652820317563,0.0013652930209866,-0.0013652814625532,0.001365293554941,-0.001365293628185,0.0013652814647157,-0.0013652931465013,0.0013652819056344,-0.0012239715223182,0.0012239376577915,-0.0012239372464253,0.0012239719522211,0.73613738636467,131329,3014,0.0050594103359647,0.00505941033605,0.0050594103359443,32.120720409412,1.6965763275298e-05,1.6965763275298e-05,1.6965763275298e-05,2412289.983059,0.015295017062657
34819200,0.99876072657434,0.015412760330656,0.0051375867768499,0.0051375867769319,0.005137586776874,-0.0012191029590405,0.0012191050730074,-1.6295427698458e-08,1.844415426063e-08,-3.7354306789216e-09,6.1349174728353e-09,-0.0013671910748387,0.0013671783268959,-0.0013671794827102,0.0013671899243384,-0.0013671880278376,0.0013671815884605,-0.0013671764566986,0.0013671931623337,-0.0012258471048173,0.0012258185333693,-0.0012258131335397,0.0012258525148049,3.8055317703554e-09,-6.1807660688981e-09,-3.5219480137486e-10,-1.772469749148e-09,-0.0012191050608556,0.0012191029712329,-0.0013671839807074,0.0013671856468131,-0.0013671844253865,0.0013671851849865,-0.0013671870401407,0.001367182369314,-0.0013671875093756,0.0013671818876856,-0.0012258347923627,0.0012258308085036,-0.0012258362170911,0.0012258293564245,-0.0012258293388475,0.0012258364894922,-0.0012258390744608,0.0012258263216777,1.7350044742454e-08,-1.7435574749571e-08,-0.0012191040552181,0.0012191039768216,-7.8693614187633e-10,7.2631565873166e-10,-0.0013671792565477,0.0013671902536326,-0.0013671787220741,0.0013671907529885,-0.0013671908590243,0.0013671786910257,-0.0013671903442584,0.0013671791655205,-0.0012258496379676,0.0012258159554829,-0.001225815543385,0.0012258500682952,0.74236047233867,131329,3014,0.0050669883298618,0.0050669883299434,0.0050669883298451,33.051255737409,2.4410045899269e-05,2.4410045899269e-05,2.4410045899269e-05,2413290.9540816,0.015318101474682
35019200,0.99883386767315,0.015413890308619,0.005137963436171,0.005137963436253,0.0051379634361951,-0.0012211193811535,0.0012211214881793,-1.6245897489336e-08,1.8387657910849e-08,-3.6115829023273e-09,6.0029506377433e-09,-0.0013692873643264,0.0013692747007893,-0.0013692757770703,0.001369286293453,-0.0013692843712637,0.0013692779077416,-0.0013692728689426,0.0013692894129795,-0.0012279180011145,0.0012278895346082,-0.0012278842267948,0.0012279233185841,3.8809838702324e-09,-6.2602411872378e-09,-3.5810128209677e-10,-1.769924097588e-09,-0.0012211214811737,0.0012211193881989,-0.0013692803051533,0.0013692819854555,-0.0013692807148008,0.0013692815588779,-0.0013692833852442,0.0013692786872557,-0.001369283883235,0.0013692781768644,-0.0012279057259292,0.0012279017704772,-0.0012279072357779,0.0012279002360128,-0.0012279001643181,0.0012279075599972,-0.0012279101468567,0.0012278971474449,1.7621379987996e-08,-1.7702569368363e-08,-0.0012211204716477,0.0012211203976727,-8.5140124745279e-10,7.9572520978811e-10,-0.0013692755339592,0.0013692866393762,-0.0013692749224545,0.001369287215719,-0.001369287285475,0.0013692749279385,-0.0013692867573469,0.0013692754152838,-0.0012279208726667,0.0012278866186336,-0.0012278861570477,0.0012279213514954,0.72136488091706,131329,3014,0.0050753479780775,0.0050753479781575,0.0050753479780524,34.083246607144,3.2665972857149e-05,3.2665972857149e-05,3.2665972857149e-05,2414566.9642551,0.015343567737347
35219200,0.99890661657613,0.015414980965323,0.0051383269884056,0.0051383269884876,0.0051383269884297,-0.0012231411464298,0.0012231432511267,-1.623323940415e-08,1.8372655642864e-08,-3.5589744358916e-09,5.9475532620951e-09,-0.001371368830909,0.0013713561881721,-0.0013713572316856,0.0013713677929295,-0.0013713658525693,0.0013713593800058,-0.0013713543788844,0.0013713708567169,-0.0012299814669632,0.0012299530470279,-0.0012299477781353,0.0012299867463199,3.9409704825972e-09,-6.3237161619223e-09,-3.5796148315108e-10,-1.7730314898031e-09,-0.0012231432467602,0.0012231411508348,-0.0013713617729543,0.0013713634717225,-0.0013713621635408,0.0013713630640902,-0.00137136487286,0.0013713601531771,-0.0013713653925484,0.0013713596212685,-0.001229969205859,0.0012299652704466,-0.0012299707791213,0.0012299636708997,-0.0012299635660416,0.0012299711379296,-0.001229973727611,0.0012299605439654,1.78529864874e-08,-1.7930933231827e-08,-0.0012231422341384,0.0012231421634077,-8.9805299045053e-10,8.4607210828374e-10,-0.001371356959444,0.0013713681679621,-0.0013713562953395,0.0013713687966176,-0.0013713688429135,0.0013713563242984,-0.0013713683028544,0.0013713568233955,-0.0012299845978699,0.0012299498711186,-0.0012299493748409,0.0012299851134151,0.70214229100668,131329,3014,0.0050837295451016,0.0050837295451787,0.0050837295450807,35.117805122592,4.0942440980734e-05,4.0942440980734e-05,4.0942440980734e-05,2416970.0496191,0.015369100461885
35419200,0.99897783433414,0.015416013856642,0.005138671285512,0.0051386712855941,0.0051386712855362,-0.0012247415134012,0.001224743625732,-1.6342313829707e-08,1.848932586908e-08,-3.6525386656274e-09,6.0496223576014e-09,-0.0013730064264164,0.0013729936519587,-0.0013729947538006,0.0013730053301281,-0.0013730033858428,0.0013729969066105,-0.0013729918319342,0.0013730084634808,-0.0012316055359775,0.0012315769583379,-0.0012315716166902,0.0012316108889301,3.9958558627531e-09,-6.3843716272189e-09,-3.5108476668547e-10,-1.785161396656e-09,-0.0012247436202329,0.0012247415189212,-0.0013729992816897,0.001373001022766,-0.0013729996822408,0.0013730006050411,-0.0013730024225241,0.0013729976630031,-0.0013730029454773,0.001372997127882,-0.001231593212954,0.0012315892444127,-0.0012315947960146,0.0012315876336931,-0.0012315875105374,0.0012315951752515,-0.001231597775698,0.0012315844755319,1.7956233002349e-08,-1.8034101235528e-08,-0.0012247426048232,0.001224742534279,-8.9785405414555e-10,8.4597145277046e-10,-0.0013729944535186,0.0013730057334125,-0.0013729937932519,0.0013730063582821,-0.0013730064077125,0.0013729938191473,-0.0013730058647185,0.0013729943212677,-0.0012316086841851,0.0012315737649806,-0.0012315732690925,0.0012316091998375,0.68162297339835,131329,3014,0.0050903639877917,0.0050903639878324,0.0050903639877282,35.929998962492,4.7439991699936e-05,4.7439991699936e-05,4.7439991699936e-05,2419678.705467,0.015389310735961
35619200,0.99904671490172,0.015416973021431,0.0051389910071082,0.0051389910071902,0.0051389910071323,-0.0012260233292302,0.0012260254524501,-1.6443964993804e-08,1.8601703347849e-08,-3.7809655152753e-09,6.1900464868583e-09,-0.0013743004098743,0.001374287484118,-0.001374288664952,0.0013742992345491,-0.00137429727975,0.0013742908289069,-0.0013742856536204,0.0013743024580235,-0.0012328950300251,0.0012328663446414,-0.0012328609021778,0.0012329004839384,4.1000247103941e-09,-6.4993156257917e-09,-3.633643481639e-10,-1.7826159970889e-09,-0.0012260254464037,0.0012260233352948,-0.0013742931606551,0.0013742949598741,-0.0013742935564289,0.0013742945470176,-0.0013742963739165,0.0013742915273102,-0.0013742968920858,0.0013742909969566,-0.0012328827017005,0.0012328786362432,-0.0012328842701473,0.0012328770398664,-0.0012328768456915,0.001232884721287,-0.0012328873265775,0.001232873804763,1.8064731884547e-08,-1.8143634095021e-08,-0.0012260244266093,0.001226024355041,-8.8266017345523e-10,8.2961194465985e-10,-0.0013742883207244,0.0013742996820326,-0.0013742876711096,0.0013743002962748,-0.0013743003467665,0.0013742876961203,-0.0013742998144154,0.0013742881875013,-0.0012328982375234,0.0012328630922327,-0.0012328626076678,0.0012328987412406,0.65729899074432,131329,3014,0.0050956776836835,0.0050956776837186,0.0050956776836221,36.574393721603,5.2595149772827e-05,5.2595149772827e-05,5.2595149772827e-05,2422723.9258403,0.01540549707977
35819200,0.99911314501868,0.015417959538023,0.0051393198459724,0.0051393198460544,0.0051393198459966,-0.0012273036212446,0.0012273057574454,-1.664497951636e-08,1.8815644642325e-08,-3.9495602912912e-09,6.3732149259529e-09,-0.0013755656390697,0.001375552483704,-0.0013755537687722,0.0013755643594251,-0.0013755624054643,0.0013755559327813,-0.0013755506275978,0.0013755677135851,-0.0012341725447935,0.0012341435440389,-0.0012341379712095,0.0012341781284368,4.1564293331152e-09,-6.5636755273174e-09,-3.6270520914849e-10,-1.7905436459373e-09,-0.0012273057486025,0.0012273036301111,-0.001375558250742,0.001375560098943,-0.0013755586626156,0.0013755596701099,-0.001375561517449,0.0013755566129747,-0.0013755620251644,0.0013755560928408,-0.0012341600968969,0.0012341559544545,-0.0012341616354101,0.0012341543876022,-0.001234154167888,0.0012341621129112,-0.0012341647284792,0.0012341511160874,1.807213196348e-08,-1.8153347368817e-08,-0.0012273047262762,0.0012273046523807,-8.4617399237714e-10,7.9045911292846e-10,-0.0013755534143651,0.0013755648173299,-0.0013755528032336,0.0013755653931874,-0.0013755654592741,0.0013755528128722,-0.0013755649390177,0.0013755532922422,-0.0012341755973619,0.0012341404467467,-0.0012341399892191,0.0012341760727997,0.69619235044247,131329,3014,0.0051009848745327,0.005100984874579,0.0051009848744647,37.214613795126,5.7716910361007e-05,5.7716910361007e-05,5.7716910361007e-05,2426509.8624722,0.015421662830323
36019200,0.99917703915054,0.015418968147983,0.0051396560492923,0.0051396560493743,0.0051396560493165,-0.0012285802071158,0.0012285823545875,-1.6866803489496e-08,1.9048691532137e-08,-4.0936877287676e-09,6.5299604492494e-09,-0.0013768694620907,0.001376856095171,-0.0013768574687497,0.0013768680937603,-0.0013768661566354,0.0013768596168334,-0.0013768542008118,0.0013768715754695,-0.0012354714691349,0.0012354420521388,-0.0012354363681476,0.0012354771640073,4.2213889614375e-09,-6.636878400575e-09,-3.6842398202249e-10,-1.7923402963348e-09,-0.0012285823439203,0.0012285802177947,-0.0013768619357916,0.0013768638488503,-0.0013768623736773,0.0013768633940543,-0.0013768652763199,0.0013768602888308,-0.0013768657549831,0.0013768597975525,-0.0012354588823196,0.0012354546009113,-0.0012354603360072,0.0012354531197269,-0.0012354528601001,0.0012354608530661,-0.0012354634748591,0.0012354498019259,1.805954072978e-08,-1.8143124446649e-08,-0.0012285813189661,0.0012285812426933,-8.1199058374504e-10,7.5357449161067e-10,-0.0013768571105673,0.0013768685558355,-0.001376856550493,0.0013768690807174,-0.0013768691766063,0.0013768565303641,-0.0013768686524502,0.0013768570136984,-0.0012354742745147,0.0012354392022016,-0.0012354387702784,0.0012354747234506,0.73586309782823,131329,3014,0.005106277010971,0.0051062770109923,0.0051062770108806,37.854673590509,6.2837388724072e-05,6.2837388724072e-05,6.2837388724072e-05,2428032.8394767,0.015437784988173
36219200,0.99923624778937,0.015419871170978,0.0051399570569571,0.0051399570570392,0.0051399570569813,-0.0012285760770917,0.001228578238802,-1.6972427694278e-08,1.9168408611981e-08,-4.2601561722121e-09,6.7121666850917e-09,-0.0013769245578272,0.0013769110132787,-0.001376912488644,0.0013769230876062,-0.0013769211357212,0.0013769146521593,-0.0013769091062229,0.0013769266846316,-0.0012354920626099,0.0012354625575702,-0.001235456742467,0.0012354978877006,4.3733135274149e-09,-6.803964210244e-09,-4.2850268925849e-10,-1.7459026251319e-09,-0.0012285782278704,0.001228576088051,-0.0013769169145966,0.0013769188840619,-0.0013769173164071,0.0013769184661826,-0.001376920360424,0.0013769152186542,-0.0013769208044854,0.0013769147616927,-0.0012354795421329,0.0012354750379477,-0.0012354808941034,0.0012354736614509,-0.0012354732409538,0.001235481569936,-0.0012354841717147,0.001235470204576,1.8160303559251e-08,-1.82485838887e-08,-0.0012285771984586,0.0012285771174073,-7.5694083047721e-10,6.9329122616423e-10,-0.0013769120666929,0.0013769236136942,-0.0013769115440886,0.0013769241012254,-0.0013769242009986,0.0013769115203273,-0.0013769237161227,0.0013769119640336,-0.001235494947786,0.0012354596283277,-0.0012354592387537,0.001235495352584,0.71361055072127,131329,3014,0.0051062602612408,0.0051062602612955,0.0051062602611837,37.827185786719,6.2617486293754e-05,6.2617486293754e-05,6.2617486293754e-05,2425901.4274122,0.015437735942328
36419200,0.99929026301358,0.015420683328976,0.0051402277762901,0.0051402277763721,0.0051402277763143,-0.0012279988250165,0.0012280009965935,-1.708985373317e-08,1.9295796096969e-08,-4.4356992086693e-09,6.899432623187e-09,-0.0013763651877489,0.0013763514537551,-0.001376353040316,0.0013763636062086,-0.0013763616484157,0.0013763552106161,-0.0013763495344752,0.0013763673274066,-0.0012349193337441,0.0012348897118545,-0.0012348837664829,0.0012349252890418,4.5140305313794e-09,-6.9540319431821e-09,-4.9751383120021e-10,-1.6848095092251e-09,-0.0012280009847616,0.0012279988368751,-0.0013763574258362,0.0013763594440645,-0.0013763577874234,0.0013763590662998,-0.0013763609710096,0.0013763556780532,-0.0013763613689657,0.0013763552677092,-0.0012349068756631,0.0012349021298026,-0.0012349080905977,0.0012349008902426,-0.0012349002982442,0.0012349089392963,-0.0012349115047411,0.0012348972953693,1.8251651677687e-08,-1.8343868754931e-08,-0.0012279999533461,0.0012279998682361,-6.8772824863879e-10,6.1945131827567e-10,-0.00137635254748,0.0013763642038211,-0.001376352075616,0.0013763646404151,-0.0013763647472738,0.0013763520446615,-0.0013763643070482,0.0013763524437256,-0.0012349222737406,0.0012348867270561,-0.0012348863898251,0.0012349226272217,0.70434019935507,131329,3014,0.0051038674069948,0.0051038674070476,0.0051038674069378,37.496466546267,5.9971732370137e-05,5.9971732370137e-05,5.9971732370137e-05,2422355.4931474,0.015430446982611
36619200,0.9993395824559,0.015421381111498,0.0051404603704639,0.0051404603705459,0.0051404603704881,-0.0012274029102709,0.0012274050880597,-1.7201937623143e-08,1.9413827453839e-08,-4.5403116081264e-09,7.0110292040469e-09,-0.0013757712377591,0.0013757573633165,-0.0013757590152217,0.0013757695908709,-0.001375767628459,0.0013757611906279,-0.0013757554364076,0.0013757733855965,-0.0012343206123482,0.0012342908400075,-0.001234284815984,0.0012343266464587,4.6135789309434e-09,-7.0602712822131e-09,-5.610309998922e-10,-1.6269805741353e-09,-0.0012274050759784,0.0012274029223765,-0.0013757633934651,0.0013757654360131,-0.001375763716323,0.0013757650973577,-0.0013757670089926,0.0013757615998384,-0.0013757673651303,0.0013757612315945,-0.0012343081772131,0.0012343032342804,-0.0012343092695209,0.0012343021177167,-0.0012343013849686,0.0012343102593819,-0.0012343127909105,0.0012342984162774,1.8350539103156e-08,-1.8446307094451e-08,-0.001227404043432,0.0012274039548641,-6.2668020811452e-10,5.5422995353771e-10,-0.0013757584735054,0.001375770237345,-0.0013757580451773,0.0013757706303274,-0.0013757707423084,0.0013757580097437,-0.0013757703426605,0.0013757583683244,-0.0012343235970005,0.0012342878114713,-0.0012342875188304,0.0012343239039601,0.66675280831766,131329,3014,0.0051013970873835,0.0051013970874311,0.0051013970873125,37.158098264442,5.7264786115538e-05,5.7264786115538e-05,5.7264786115538e-05,2419209.7114704,0.015422921493355
36819200,0.99938467054119,0.015422000973357,0.0051406669910837,0.0051406669911658,0.0051406669911079,-0.0012268095805682,0.0012268117609086,-1.7306235406564e-08,1.9520661665009e-08,-4.5877793573722e-09,7.0615604811746e-09,-0.0013751393110177,0.0013751253350838,-0.0013751270171596,0.0013751376338773,-0.0013751356682436,0.0013751291960181,-0.0013751234067968,0.0013751414603725,-0.0012337018897314,0.0012336719483792,-0.0012336658892852,0.0012337079589261,4.6764038117526e-09,-7.1276245357351e-09,-6.1821042373792e-10,-1.5736709657339e-09,-0.0012268117495176,0.0012268095919848,-0.0013751314152023,0.0013751334595047,-0.0013751317005017,0.0013751331586278,-0.0013751350728258,0.001375129580675,-0.0013751353933173,0.001375129248347,-0.001233689446541,0.001233684350572,-0.0012336904333281,0.0012336833401867,-0.0012336824964875,0.0012336915340078,-0.0012336940324395,0.0012336795600249,1.8459267799746e-08,-1.8557899135685e-08,-0.0012268107164776,0.001226810624969,-5.7467893124724e-10,4.988367717908e-10,-0.0013751264433612,0.0013751383126937,-0.0013751260499054,0.0013751386707386,-0.0013751387846376,0.0013751260124701,-0.0013751384217027,0.0013751263341726,-0.0012337049183051,0.0012336688756495,-0.0012336686219867,0.0012337051867817,0.64957833678282,131329,3014,0.0050989371762176,0.0050989371762679,0.0050989371761555,36.819435398328,5.455548318662e-05,5.455548318662e-05,5.455548318662e-05,2418043.0945092,0.01541542603872
