time,ASR_ext,ASR_strain,ASR_strain_xx,ASR_strain_yy,ASR_strain_zz,disp_x_101,disp_x_102,disp_x_103,disp_x_104,disp_x_105,disp_x_106,disp_x_p1_neg,disp_x_p1_pos,disp_x_p2_neg,disp_x_p2_pos,disp_x_p3_neg,disp_x_p3_pos,disp_x_p4_neg,disp_x_p4_pos,disp_x_p5_neg,disp_x_p5_pos,disp_x_p6_neg,disp_x_p6_pos,disp_y_101,disp_y_102,disp_y_103,disp_y_104,disp_y_105,disp_y_106,disp_y_p1_neg,disp_y_p1_pos,disp_y_p2_neg,disp_y_p2_pos,disp_y_p3_neg,disp_y_p3_pos,disp_y_p4_neg,disp_y_p4_pos,disp_y_p5_neg,disp_y_p5_pos,disp_y_p6_neg,disp_y_p6_pos,disp_y_p7_neg,disp_y_p7_pos,disp_y_p8_neg,disp_y_p8_pos,disp_z_101,disp_z_102,disp_z_103,disp_z_104,disp_z_105,disp_z_106,disp_z_p1_neg,disp_z_p1_pos,disp_z_p2_neg,disp_z_p2_pos,disp_z_p3_neg,disp_z_p3_pos,disp_z_p4_neg,disp_z_p4_pos,disp_z_p5_neg,disp_z_p5_pos,disp_z_p6_neg,disp_z_p6_pos,humidity,ndof,nelem,strain_xx,strain_yy,strain_zz,temp,thermal_strain_xx,thermal_strain_yy,thermal_strain_zz,vonmises,vstrain
2419200,0,0,0,0,0,0,0,0,0,0,0,0,0,0,0,0,0,0,0,0,0,0,0,0,0,0,0,0,0,0,0,0,0,0,0,0,0,0,0,0,0,0,0,0,0,0,0,0,0,0,0,0,0,0,0,0,0,0,0,0,0,0,0,0,0,0,0,0,0,0,0,0,0,0,0
2619200,0.019548180480974,0.00040101063607723,0.00013367021202574,0.00013367021202574,0.00013367021202574,-3.4481242945245e-05,3.4475269608619e-05,-2.9916829995607e-09,-2.9366844087851e-09,8.2907287381302e-09,-1.4618225605955e-08,-3.4036543360696e-05,3.4038116373165e-05,-3.4036532641146e-05,3.4038142342364e-05,-3.4043835051149e-05,3.4030478017823e-05,-3.4043815948096e-05,3.4030495557055e-05,-3.5265039614434e-05,3.5251474942409e-05,-3.5264987329197e-05,3.5251530295898e-05,-8.2890737282864e-09,1.4615251646404e-08,4.8900065812931e-09,1.0371058624979e-09,-3.4475270234987e-05,3.4481242318866e-05,-3.4037334877827e-05,3.4037006588448e-05,-3.4038568547441e-05,3.403571465663e-05,-3.4030048822484e-05,3.4044647618341e-05,-3.4031282515317e-05,3.4043355663255e-05,-3.5249702334638e-05,3.5266991075759e-05,-3.5253431213595e-05,3.5263158528794e-05,-3.5266956452754e-05,3.5249293284859e-05,-3.5244649938276e-05,3.5272237308069e-05,5.2112757020457e-10,4.6639503246845e-10,-3.4477758941819e-05,3.4478753612592e-05,-1.3724370636249e-09,2.4254502133392e-09,-3.4037376464806e-05,3.4037113378995e-05,-3.4036138724733e-05,3.4038394712726e-05,-3.4037372886e-05,3.4037073335263e-05,-3.4036135156345e-05,3.4038354632954e-05,-3.5257167113413e-05,3.5259366126258e-05,-3.5257185883547e-05,3.5259492148424e-05,0.81992966189477,131329,3014,0.00014364903313525,0.00014364903313526,0.00014364903313527,31.534397772173,1.2275182177383e-05,1.2275182177383e-05,1.2275182177383e-05,450413.29651285,0.00043104018616058
2819200,0.041141379090092,0.00083697734925462,0.00027899244975033,0.00027899244975027,0.00027899244975402,-7.1041444710985e-05,7.1046767913487e-05,2.5446560514419e-09,2.7880890373562e-09,-1.1286259475351e-09,6.5675824586177e-09,-7.1060616028492e-05,7.106330505847e-05,-7.1060542994387e-05,7.106339255013e-05,-7.1058180604504e-05,7.106587223032e-05,-7.1058099781483e-05,7.1065955379386e-05,-7.2276161015229e-05,7.2283794867011e-05,-7.2275924832675e-05,7.2284040399516e-05,1.1184605095874e-09,-6.5481154876318e-09,-1.3183040611317e-09,-4.0055657120826e-09,-7.1046763478344e-05,7.1041449146082e-05,-7.1062982404748e-05,7.1061091068286e-05,-7.1063841826962e-05,7.106019205226e-05,-7.1065412886305e-05,7.1058535546101e-05,-7.1066270590956e-05,7.1057638253295e-05,-7.2282587803841e-05,7.2277367316646e-05,-7.2285186903624e-05,7.2274696271068e-05,-7.2279405264637e-05,7.2280634359633e-05,-7.2286826542257e-05,7.227299925597e-05,1.8676675116866e-10,-6.2999454840046e-11,-7.1044039909042e-05,7.1044172718062e-05,-1.234574895873e-09,1.4083371160013e-09,-7.1062331102541e-05,7.1061659890508e-05,-7.1061455900579e-05,7.106254259278e-05,-7.1062411634911e-05,7.1061572151669e-05,-7.1061534745072e-05,7.1062456612158e-05,-7.2279585574294e-05,7.2280350444566e-05,-7.2279345154053e-05,7.2280594161868e-05,0.82138489860403,131329,3014,0.00029597322327759,0.00029597322327751,0.00029597322328296,32.737803255056,2.1902426040448e-05,2.1902426040448e-05,2.1902426040448e-05,450140.98490603,0.00088831439296358
3019200,0.062600188283596,0.0012662938334956,0.00042209794449809,0.00042209794449817,0.00042209794449932,-0.00010430788800446,0.00010431484133484,3.2536857047859e-09,3.6941837249951e-09,-4.9467840324596e-09,1.2184621281316e-08,-0.00010482594329043,0.0001048270879993,-0.00010482580427314,0.00010482723738247,-0.00010482052978426,0.0001048327972369,-0.00010482038163666,0.00010483294773795,-0.00010620803678506,0.0001062202109178,-0.00010620760239966,0.00010622065353201,4.9078233522191e-09,-1.2114808772177e-08,-2.5803378848742e-09,-4.3382138664621e-09,-0.00010431482668661,0.00010430790265265,-0.00010482702994079,0.00010482630994054,-0.0001048275933595,0.00010482572074473,-0.00010483241542238,0.0001048206351645,-0.00010483297370179,0.00010482005107368,-0.00010621950315083,0.0001062086751585,-0.00010622119820806,0.00010620693370904,-0.00010620969383274,0.00010621876349346,-0.00010622622909339,0.00010620171183679,1.5477103136594e-10,-2.8231060535847e-10,-0.00010431142488542,0.00010431130445718,-9.0484870807213e-10,8.1121094948696e-10,-0.000104826865408,0.00010482631639749,-0.00010482628736937,0.00010482687797564,-0.00010482702233282,0.00010482617667707,-0.00010482643949451,0.00010482674370375,-0.0001062140949335,0.00010621412123378,-0.00010621365013355,0.00010621451803855,0.82013324224441,131329,3014,0.00043453612493544,0.00043453612493536,0.00043453612494169,32.491852783377,1.9934822267019e-05,1.9934822267019e-05,1.9934822267019e-05,567359.62675532,0.0013044593228941
3219200,0.083825354509423,0.0016797600990878,0.00055992003302744,0.00055992003302747,0.00055992003303285,-0.00013621705331961,0.0001362235068548,2.9088383910942e-09,3.5403350469077e-09,-5.7825829365459e-09,1.2571990769459e-08,-0.00013755865242436,0.00013755882973979,-0.0001375584481314,0.00013755904183983,-0.00013755287311197,0.00013756494444947,-0.00013755266153578,0.00013756515838923,-0.00013866938487447,0.00013868127983403,-0.00013866876443395,0.00013868190809598,5.7516674548301e-09,-1.2520719985616e-08,-2.5984568156739e-09,-3.8316323724214e-09,-0.00013622349732666,0.00013621706284763,-0.00013755890879024,0.0001375589174066,-0.00013755930485105,0.00013755850455978,-0.00013756466584467,0.00013755282958004,-0.00013756505733644,0.00013755242128287,-0.00013868092129662,0.00013866965347415,-0.00013868211081552,0.00013866843437497,-0.00013866998151519,0.00013868093053335,-0.00013868773072878,0.00013866258025955,1.9238370674364e-10,-4.3807412914341e-10,-0.00013622039984912,0.00013622016033106,-7.1103902728991e-10,4.891824661938e-10,-0.00013755904113671,0.00013755861087623,-0.00013755862904895,0.00013755899676582,-0.00013755926689211,0.00013755841173266,-0.00013755885064129,0.000137558802582,-0.00013867554081826,0.00013867508662318,-0.0001386749023886,0.00013867567084066,0.80675913231381,131329,3014,0.00056742333241169,0.00056742333241144,0.00056742333242298,32.204020845419,1.763216676335e-05,1.763216676335e-05,1.763216676335e-05,669036.8660508,0.0017037211503555
3419200,0.10479097390901,0.0020736976647257,0.00069123255490504,0.00069123255490526,0.0006912325549154,-0.00016655733231925,0.00016656289477541,2.3696810180774e-09,3.1930719120067e-09,-5.775902546289e-09,1.1687642574866e-08,-0.00016914020326988,0.00016913971947977,-0.00016913993395327,0.00016913999469239,-0.00016913472594259,0.00016914553269934,-0.00016913445045492,0.00016914581041936,-0.0001693172955992,0.00016932782136161,-0.00016931648755947,0.00016932863712068,5.7454220972805e-09,-1.1640153811742e-08,-2.306200246027e-09,-3.2408194427318e-09,-0.00016656288694308,0.00016655734015142,-0.00016913987904538,0.00016914038522391,-0.00016914018067867,0.00016914007286226,-0.00016914533477442,0.00016913459716527,-0.00016914563206136,0.00016913428913303,-0.0001693277033871,0.000169317319529,-0.00016932860584593,0.00016931639891295,-0.00016931715641625,0.00016932821559708,-0.00016933403677684,0.00016931072248804,2.6133575356329e-10,-5.6159174182396e-10,-0.00016656026084974,0.00016655996625277,-5.9493575553649e-10,3.1160748968229e-10,-0.00016914020720734,0.00016913988516869,-0.00016913988963947,0.00016914017126678,-0.0001691404996126,0.00016913962457918,-0.00016914017810065,0.00016913991541143,-0.00016932293600802,0.0001693221405344,-0.00016932211146297,0.00016932291626382,0.78589836248879,131329,3014,0.00069375968829001,0.00069375968828968,0.0006937596883057,31.914542578803,1.5316340630425e-05,1.5316340630425e-05,1.5316340630425e-05,767911.01403652,0.0020834484694989
3619200,0.1260164123428,0.0024600085709889,0.00082000285699127,0.00082000285699221,0.0008200028570054,-0.0001969663735922,0.00019697085966708,1.731754560859e-09,2.7616578192493e-09,-5.107848001588e-09,9.9233390554653e-09,-0.00020106846964494,0.0002010676471497,-0.00020106813126652,0.00020106799088648,-0.00020106378545727,0.00020107264342695,-0.00020106344101084,0.00020107298985053,-0.00019986448247663,0.0001998729298017,-0.00019986347206733,0.00019987394782073,5.050806659594e-09,-9.8311998441814e-09,-1.7439072521872e-09,-2.7166760530549e-09,-0.00019697084327641,0.00019696638998315,-0.00020106782532556,0.00020106860813977,-0.00020106813984782,0.00020106828332438,-0.00020107246570219,0.00020106366047648,-0.00020107277584414,0.00020106334003224,-0.00019987287866198,0.00019986444983318,-0.00019987381989662,0.00019986349248217,-0.00019986398632593,0.0001998736650708,-0.00019987841786285,0.00019985866460121,3.6394674158128e-10,-6.3679436790594e-10,-0.00019696875017299,0.00019696848309513,-6.0087088316359e-10,3.4389393772111e-10,-0.0002010682606819,0.00020106801329909,-0.00020106792974776,0.00020106831157054,-0.00020106861323701,0.00020106769422793,-0.00020106827850806,0.0002010679974595,-0.00019986915096661,0.00019986822146721,-0.0001998681580465,0.00019986917684166,0.77011574887442,131329,3014,0.00082036605197193,0.00082036605197249,0.00082036605198985,31.993826018305,1.5950608146438e-05,1.5950608146438e-05,1.5950608146438e-05,912679.06527997,0.0024641318318148
3819200,0.14784591647392,0.002852707067373,0.00095090235578651,0.0009509023557855,0.00095090235580098,-0.00022832710523222,0.00022833064195627,1.1809846530383e-09,2.3699996276162e-09,-4.5164703167482e-09,8.360973147936e-09,-0.0002340821360649,0.00023408102146247,-0.00023408174489167,0.00023408141802995,-0.00023407814373228,0.00023408529528428,-0.00023407774497435,0.00023408569569893,-0.00023144658894225,0.00023145322187512,-0.0002314454205894,0.00023145439795565,4.5151206460025e-09,-8.3580026693765e-09,-1.2127647406836e-09,-2.3374490219135e-09,-0.00022833064158559,0.00022832710560227,-0.00023408117985924,0.00023408226582576,-0.00023408154411107,0.00023408188953172,-0.00023408517353237,0.00023407799274504,-0.00023408553220002,0.00023407762229363,-0.00023145322312718,0.00023144651700202,-0.00023145431069116,0.00023144541153473,-0.0002314457268271,0.00023145430561454,-0.00023145820097328,0.0002314413087901,5.0440413536608e-10,-7.215878697359e-10,-0.00022832897910775,0.00022832876809005,-6.461804275065e-10,4.4625659535851e-10,-0.00023408173251807,0.00023408156741237,-0.00023408135283764,0.00023408191371028,-0.00023408216019927,0.00023408117285151,-0.00023408177527208,0.00023408152533485,-0.00023145040655907,0.0002314493634828,-0.00023144920391491,0.00023145054584825,0.77140160543778,131329,3014,0.00095091826552864,0.00095091826552732,0.00095091826554764,32.325051924632,1.8600415397059e-05,1.8600415397059e-05,1.8600415397059e-05,1054469.0005212,0.002856831478877
4019200,0.17026950806398,0.0032527914319047,0.0010842638106315,0.0010842638106276,0.0010842638106456,-0.00026025497950529,0.00026025792567055,7.7975469613957e-10,2.1855024918917e-09,-4.3046528872135e-09,7.5477390034603e-09,-0.00026781000626373,0.00026780856868047,-0.0002678095430458,0.00026780903749009,-0.00026780634213998,0.00026781249599599,-0.00026780587228537,0.00026781296725092,-0.00026369541339639,0.0002637009115103,-0.0002636940350824,0.00026370229752585,4.2729077284816e-09,-7.5095101223402e-09,-8.578408096554e-10,-2.1019537819538e-09,-0.00026025792293423,0.00026025498223999,-0.00026780874147979,0.00026781010328408,-0.00026780914351347,0.00026780968764025,-0.00026781238807505,0.00026780619739185,-0.00026781278546816,0.00026780578618478,-0.00026370094980704,0.00026369531435888,-0.00026370215455069,0.0002636940879978,-0.00026369423081078,0.00026370230468912,-0.00026370565166075,0.00026369039102683,6.1390765969681e-10,-7.797203680118e-10,-0.0002602565322324,0.00026025637295264,-6.8001388585139e-10,5.3304623202777e-10,-0.00026780940269627,0.00026780930517055,-0.00026780898229702,0.00026780969177677,-0.00026780988699155,0.00026780885527026,-0.0002678094622639,0.00026780924662891,-0.0002636987011482,0.0002636975831332,-0.00026369733686454,0.0002636989367197,0.77299484681502,131329,3014,0.0010838147460343,0.0010838147460309,0.0010838147460532,32.662549505587,2.1300396044698e-05,2.1300396044698e-05,2.1300396044698e-05,1187659.2426424,0.0032567411199529
4219200,0.19326093802269,0.0036605859704831,0.0012201953234954,0.001220195323484,0.0012201953235037,-0.00029276388431717,0.00029276647052161,5.0889945313279e-10,2.1001190124675e-09,-4.2315295142662e-09,7.1105191994605e-09,-0.00030227087365252,0.0003022691815609,-0.0003022703485138,0.00030226971239678,-0.0003022673706038,0.00030227293544438,-0.00030226683837424,0.00030227346884328,-0.00029663911462049,0.00029664390542188,-0.00029663755411366,0.00029664547373841,4.2054073481458e-09,-7.0776323951096e-09,-6.3450274889667e-10,-1.9688070452011e-09,-0.00029276646766203,0.00029276388717154,-0.00030226936302678,0.00030227095048968,-0.00030226979395343,0.0003022705043872,-0.00030227285194755,0.00030226721434723,-0.00030227327805726,0.00030226677307467,-0.00029664399553136,0.0002966389696357,-0.00029664528748505,0.00029663765457046,-0.00029663765325857,0.00029664557178959,-0.00029664859324228,0.00029663415480809,7.3257800828883e-10,-8.599545502729e-10,-0.0002927652376797,0.00029276511716542,-7.048273112521e-10,5.9761240843938e-10,-0.00030227010218718,0.00030227007978159,-0.00030226965180996,0.00030227049535278,-0.00030227065308827,0.00030226956418113,-0.00030227019811905,0.00030226998481535,-0.00029664211168172,0.00029664086766957,-0.00029664055669903,0.0002966424188105,0.77488672659753,131329,3014,0.0012191121409627,0.0012191121409519,0.0012191121409757,33.000287541221,2.400230032977e-05,2.400230032977e-05,2.400230032977e-05,1316351.506865,0.0036640399156398
4419200,0.21718876808383,0.004082522308578,0.0013608407695284,0.0013608407695143,0.0013608407695353,-0.00032684515070314,0.00032684743315272,2.4991575348057e-10,2.0588478097156e-09,-4.033543335461e-09,6.6016667251572e-09,-0.00033851167561912,0.00033850984097518,-0.00033851107798913,0.00033851044450474,-0.00033850839942549,0.00033851335619762,-0.00033850779479062,0.00033851396187001,-0.00033127925764407,0.00033128330191565,-0.00033127748488576,0.00033128508219549,3.9825441096362e-09,-6.5332696301985e-09,-4.2584804513706e-10,-1.8671009745419e-09,-0.00032684742522172,0.00032684515862785,-0.00033851004005045,0.0003385117230964,-0.00033851050526291,0.00033851124135228,-0.00033851328302012,0.00033850824609702,-0.00033851374353764,0.0003385077687894,-0.0003312834326479,0.00033127907783358,-0.00033128482945729,0.00033127765542675,-0.00033127765348238,0.00033128510291269,-0.00033128785111579,0.00033127444865378,8.3508508948845e-10,-9.2422131039397e-10,-0.00032684633292289,0.00032684625093842,-7.4434743954225e-10,6.7708344420525e-10,-0.00033851080263164,0.00033851083452132,-0.00033851031259147,0.00033851128961105,-0.0003385114094034,0.0003385102636534,-0.00033851091514984,0.00033851072368395,-0.00033128192494745,0.00033128059423697,-0.0003312802085122,0.00033128231268383,0.77612067657036,131329,3014,0.0013609341367115,0.0013609341366984,0.0013609341367226,33.594252094708,2.8754016757661e-05,2.8754016757661e-05,2.8754016757661e-05,1449671.3493908,0.0040911585030689
4619200,0.24219012181463,0.0045205732348625,0.0015068577449584,0.00150685774494,0.0015068577449641,-0.00036236489656187,0.0003623669185315,9.6670404138452e-11,1.955244730498e-09,-3.8289322241018e-09,6.1288972027946e-09,-0.0003764810919223,0.00037647920304685,-0.00037648047777556,0.00037647982301173,-0.00037647803267087,0.00037648248982903,-0.00037647740935759,0.0003764831136786,-0.00036747996324992,0.00036748347306372,-0.00036747813816258,0.00036748530490527,3.9332592924932e-09,-6.2768035698796e-09,-2.6066048696049e-10,-1.8333334115767e-09,-0.00036236693954984,0.0003623648755354,-0.00037647935310811,0.00037648118013524,-0.00037647986139478,0.00037648065353648,-0.0003764824983839,0.00037647780730985,-0.00037648300007051,0.00037647728715363,-0.00036748366179499,0.00036747973143342,-0.00036748518259408,0.00036747818207479,-0.00036747815954335,0.00036748546864088,-0.0003674880607902,0.00036747512362572,1.0132234848063e-09,-1.0809880547775e-09,-0.00036236593772049,0.00036236587737831,-7.5421952956697e-10,7.0945331399707e-10,-0.00037648012994327,0.00037648028065035,-0.00037647962672075,0.00037648074901721,-0.00037648084776121,0.0003764795974247,-0.00037648033766495,0.00037648007197251,-0.00036748250576165,0.00036748088585279,-0.0003674804717569,0.00036748293594517,0.7769364618525,131329,3014,0.0015087210347439,0.001508721034727,0.001508721034755,34.292036280677,3.4336290245416e-05,3.4336290245416e-05,3.4336290245416e-05,1585827.0557917,0.0045364355571657
4819200,0.26823340942431,0.0049738760223623,0.001657958674126,0.0016579586741049,0.0016579586741313,-0.0003990614941217,0.00039906336838391,-1.00489093436e-10,2.0074885521468e-09,-3.843523035039e-09,5.9909072772185e-09,-0.00041597470869079,0.00041597263600889,-0.00041597401380943,0.00041597333688334,-0.00041597169031804,0.00041597587680416,-0.00041597098698743,0.00041597658047105,-0.00040499621948777,0.00040499930509936,-0.0004049941530783,0.00040500137739148,3.8846467095417e-09,-6.0856904898054e-09,-1.7250119865325e-10,-1.785459037256e-09,-0.00039906339377901,0.00039906146871771,-0.000415972835657,0.00041597474071238,-0.00041597335752474,0.00041597420046506,-0.0004159759097549,0.00041597144767448,-0.00041597642543404,0.00041597091247164,-0.00040499957902694,0.00040499590771406,-0.00040500113900296,0.00040499431450179,-0.00040499425325966,0.00040500145725456,-0.00040500392870683,0.00040499135211261,1.0905504052866e-09,-1.1388265647625e-09,-0.00039906245159654,0.00039906241091388,-7.7938799468764e-10,7.5523716208194e-10,-0.00041597363144173,0.00041597382629296,-0.00041597310536254,0.00041597431803896,-0.00041597439632834,0.00041597309541179,-0.00041597386436736,0.00041597359252498,-0.00040499859456725,0.00040499688256755,-0.00040499642889509,0.00040499907238154,0.77792179041252,131329,3014,0.0016613821387587,0.0016613821387403,0.0016613821387686,34.992444016175,3.99395521294e-05,3.99395521294e-05,3.99395521294e-05,1722301.7192448,0.0049966068414653
5019200,0.29526920421036,0.0054398017502992,0.001813267250107,0.0018132672500821,0.0018132672501101,-0.00043672495217976,0.00043672675415852,-2.3022459413492e-10,2.0671680024512e-09,-3.8492884615415e-09,5.9220041472942e-09,-0.00045679165804798,0.00045678947104316,-0.00045679090012327,0.00045679023483739,-0.0004567886581283,0.00045679268820182,-0.00045678789176244,0.00045679345489302,-0.00044356269432196,0.00044356550201439,-0.00044356044201943,0.00044356776024116,3.8915636863399e-09,-6.0154965489357e-09,-1.1860030578095e-10,-1.7664958639278e-09,-0.00043672677817331,0.0004367249281538,-0.00045678969211121,0.00045679166389007,-0.00045679022490511,0.00045679111158028,-0.0004567927486798,0.00045678839329864,-0.00045679327571719,0.00045678784656415,-0.00044356585270929,0.00044356230844328,-0.00044356744651176,0.00044356068086609,-0.00044356058679761,0.0004435677913345,-0.00044357020422598,0.00044355775466974,1.1940745340485e-09,-1.2304749103508e-09,-0.00043672586752195,0.00043672583881964,-7.8985013210593e-10,7.7845270234106e-10,-0.00045679048951671,0.00045679075030372,-0.000456789952336,0.00045679125291328,-0.00045679131913061,0.00045678995373898,-0.00045679077656745,0.00045679046230942,-0.00044356501376827,0.00044356313391435,-0.00044356265986082,0.00044356551686073,0.77677325718467,131329,3014,0.0018180418676121,0.0018180418675888,0.0018180418676188,35.692952826092,4.554362260874e-05,4.554362260874e-05,4.554362260874e-05,1855521.3125671,0.0054690517359288
5219200,0.32260079653349,0.0059077537434072,0.0019692512478096,0.0019692512477844,0.0019692512478132,-0.00047381128156716,0.00047381318961666,-4.0866205765466e-10,2.3525073088548e-09,-4.3170641298601e-09,6.5039410050668e-09,-0.0004972762757112,0.00049727369320824,-0.00049727536433712,0.0004972746107279,-0.00049727293346997,0.00049727725775466,-0.0004972720129133,0.00049727817948214,-0.00048165609513362,0.00048165890324373,-0.00048165338770863,0.00048166161900841,4.127105697123e-09,-6.2822348207986e-09,-2.2554097029339e-10,-1.6876964513181e-09,-0.00047381317426707,0.00047381129690526,-0.00049727407290306,0.00049727612477852,-0.00049727454562769,0.00049727563394284,-0.0004972772965692,0.00049727268749564,-0.00049727776264592,0.00049727220339696,-0.00048165944217892,0.00048165551997558,-0.00048166085397765,0.00048165407810575,-0.00048165372690114,0.00048166145394885,-0.00048166383676096,0.00048165092635674,1.1600995746514e-09,-1.1853203926286e-09,-0.00047381224436101,0.00047381222682569,-8.1152795269428e-10,8.1203807916173e-10,-0.00049727492650889,0.00049727515489377,-0.0004972743718666,0.00049727567507237,-0.00049727573128416,0.00049727438425134,-0.00049727517118802,0.00049727491237114,-0.00048165836182751,0.00048165659133052,-0.00048165608432422,0.00048165889134883,0.77855552282716,131329,3014,0.0019722779997377,0.0019722779997138,0.0019722779997434,36.022674706987,4.8181397655899e-05,4.8181397655899e-05,4.8181397655899e-05,1986412.1059535,0.0059344063435651
5419200,0.35002338149188,0.006367578226791,0.0021225260756028,0.0021225260755796,0.0021225260756087,-0.00051010718073911,0.00051010918097066,-4.5674702966236e-10,2.4931467555633e-09,-4.4651348280783e-09,6.7521391097556e-09,-0.00053727956050043,0.00053727686568044,-0.00053727858091384,0.00053727785034542,-0.0005372760860119,0.00053728056452947,-0.00053727509821615,0.00053728155447559,-0.00051884086098717,0.00051884369816689,-0.00051883796498366,0.00051884660529497,4.3133062965588e-09,-6.5276950965454e-09,-2.9284786525021e-10,-1.6750251358935e-09,-0.0005101091467269,0.00051010721497215,-0.00053727727691708,0.00053727938290078,-0.00053727771991586,0.00053727891970049,-0.00053728063195772,0.00053727580624707,-0.00053728107061855,0.0005372753521935,-0.00051884436172798,0.00051884015709037,-0.00051884569683678,0.00051883879941844,-0.00051883831557501,0.00051884642910883,-0.00051884884397827,0.00051883547848469,1.2548282762252e-09,-1.2865043072942e-09,-0.00051010819291135,0.00051010816880192,-7.6966097892953e-10,7.6353551280831e-10,-0.00053727811499547,0.0005372784252227,-0.00053727758731001,0.00053727891615274,-0.00053727898007827,0.00053727759383923,-0.00053727844852952,0.00053727809440078,-0.00051884325626385,0.00051884126048183,-0.00051884078943638,0.00051884374454135,0.76958003281143,131329,3014,0.0021232044325549,0.0021232044325326,0.0021232044325619,36.275597830719,5.020478264575e-05,5.020478264575e-05,5.020478264575e-05,2098017.0642109,0.0063899849428845
5619200,0.37745747149876,0.006802770123583,0.0022675900411986,0.0022675900411776,0.0022675900412068,-0.00054456267414459,0.00054456480301846,-4.8287866341771e-10,2.6481108812656e-09,-4.434063521609e-09,6.8527094633416e-09,-0.00057589027343539,0.00057588762070175,-0.00057588923138046,0.00057588866739787,-0.00057588677724927,0.00057589134273435,-0.00057588572733738,0.0005758923949555,-0.00055357594818105,0.00055357875790182,-0.00055357287318434,0.00055358184393051,4.3088177378204e-09,-6.6220110866546e-09,-3.7553803725181e-10,-1.6891021685284e-09,-0.00054456475268379,0.00054456272446927,-0.00057588805810648,0.00057589007174474,-0.00057588847776112,0.00057588963203167,-0.0005758914374021,0.00057588646736745,-0.00057589185329456,0.00057588603726852,-0.00055357953161489,0.00055357513298238,-0.00055358079975805,0.00055357384389989,-0.00055357338505147,0.00055358150877499,-0.00055358399827256,0.00055357046893743,1.3507199951078e-09,-1.3941067657306e-09,-0.0005445637565381,0.00054456372062905,-7.3713633154989e-10,7.1853656523057e-10,-0.00057588880962307,0.00057588919921622,-0.0005758883066585,0.00057588966476287,-0.00057588974091751,0.00057588830215741,-0.00057588923429131,0.00057588877742883,-0.00055357844703992,0.00055357621601265,-0.00055357578286424,0.00055357889802414,0.73637048629675,131329,3014,0.0022664577884583,0.0022664577884374,0.0022664577884665,36.526513891431,5.2212111131447e-05,5.2212111131447e-05,5.2212111131447e-05,2195531.2262103,0.0068225932904229
5819200,0.40482181580611,0.0072167929642882,0.0024055976547665,0.0024055976547463,0.0024055976547754,-0.00057749948967357,0.00057750167667234,-5.4756712005329e-10,2.771426567909e-09,-4.3838276161637e-09,6.8616336110091e-09,-0.00061310209852541,0.00061309945434889,-0.00061310099320648,0.00061310056405861,-0.00061309861709744,0.00061310316254184,-0.00061309750414011,0.000613104277909,-0.00058635399440506,0.00058635666506142,-0.00058635073537325,0.00058635993529096,4.2688905286744e-09,-6.6279786274919e-09,-4.2869151533924e-10,-1.681526034185e-09,-0.00057750161981941,0.0005774995465165,-0.00061309992664358,0.00061310186289635,-0.00061310032628109,0.00061310144361328,-0.0006131032924371,0.00061309827036007,-0.00061310368856338,0.00061309786085612,-0.00058635755458045,0.00058635306238465,-0.00058635876385856,0.00058635183336011,-0.00058635139251459,0.00058635945582224,-0.00058636197032669,0.0005863484489777,1.4414944524516e-09,-1.4998748092659e-09,-0.00057750060864549,0.00057750055770448,-7.1306943232125e-10,6.7882200142441e-10,-0.0006131006036234,0.00061310106442187,-0.00061310012131793,0.00061310150863549,-0.00061310160020254,0.00061310010255592,-0.0006131011143967,0.00061310055656934,-0.00058635653782687,0.0005863540781735,-0.00058635368141346,0.00058635695280048,0.71317583863511,131329,3014,0.0024033778045778,0.002403377804557,0.002403377804586,36.77735209061,5.4218816724884e-05,5.4218816724884e-05,5.4218816724884e-05,2308973.9121706,0.0072362503700725
6019200,0.43163389130218,0.0076109874138783,0.0025369958046269,0.0025369958046115,0.0025369958046399,-0.0006085957920592,0.00060859802799052,-6.18049596862e-10,2.8908894725169e-09,-4.4021806588732e-09,6.9289354738951e-09,-0.00064839918675301,0.00064839650002179,-0.00064839801773402,0.00064839767334036,-0.00064839567748699,0.00064840023716299,-0.00064839450094121,0.00064840141612883,-0.0006171360010343,0.00061713856232299,-0.00061713255614793,0.00061714201897624,4.2916312819566e-09,-6.695068156087e-09,-4.8513738311252e-10,-1.6693585687506e-09,-0.00060859796880412,0.00060859585123793,-0.00064839701326286,0.00064839891105279,-0.00064839739038004,0.00064839851492587,-0.00064840040756583,0.00064839528875866,-0.00064840078116259,0.0006483949022798,-0.00061713957721707,0.00061713494290393,-0.00061714072019173,0.00061713378207118,-0.00061713331189455,0.00061714144053559,-0.00061714397705655,0.00061713034659907,1.5313188964941e-09,-1.6046811932675e-09,-0.00060859694301747,0.00060859687703807,-6.8578330737894e-10,6.3595313443593e-10,-0.00064839763442709,0.00064839816805295,-0.0006483971753589,0.00064839858916729,-0.00064839869550627,0.00064839714160073,-0.00064839823294512,0.00064839757240058,-0.00061713860453713,0.00061713591575094,-0.00061713555758957,0.00061713898070739,0.70261523208804,131329,3014,0.0025326294568324,0.0025326294568164,0.0025326294568442,36.775484326155,5.4203874609241e-05,5.4203874609241e-05,5.4203874609241e-05,2391423.5521622,0.0076268981023379
6219200,0.45782597491999,0.0079965332689265,0.0026655110896426,0.002665511089628,0.0026655110896559,-0.00063911575332457,0.00063911801943035,-6.982426771361e-10,3.0012860724765e-09,-4.3705337906633e-09,6.9266936769687e-09,-0.00068300260595639,0.0006829998973131,-0.00068300137349706,0.00068300113469136,-0.00068299910917862,0.00068300362354964,-0.00068299786869802,0.00068300486587543,-0.00064757141361721,0.00064757380656861,-0.00064756778223435,0.00064757745027917,4.2624065415597e-09,-6.6932457600946e-09,-5.2228298292221e-10,-1.6603338252889e-09,-0.00063911795922403,0.00063911581352359,-0.0006830004489324,0.00068300229221427,-0.00068300081173287,0.00068300191243454,-0.00068300383229655,0.00068299868128418,-0.00068300419015644,0.00068299830952684,-0.0006475749371275,0.00064757023940393,-0.00064757603544546,0.00064756912455345,-0.00064756866248924,0.00064757674719339,-0.00064757929624962,0.00064756568444134,1.6226400763418e-09,-1.7073196059109e-09,-0.00063911692503413,0.00063911684772653,-6.67980548491e-10,6.064591824265e-10,-0.0006830010083655,0.00068300161088327,-0.00068300056564496,0.00068300201719148,-0.00068300213421717,0.00068300052032973,-0.00068300168694917,0.00068300093506376,-0.00064757404121951,0.00064757113543492,-0.0006475708054082,0.0006475743910729,0.70745491764534,131329,3014,0.0026594696756726,0.0026594696756574,0.0026594696756842,36.758774949308,5.4070199594463e-05,5.4070199594463e-05,5.4070199594463e-05,2400001.7383349,0.0080104078201537
6419200,0.48336022420215,0.0083694630994984,0.0027898210331665,0.0027898210331522,0.0027898210331796,-0.00066873763285793,0.00066873990719059,-7.893770328382e-10,3.1008869724727e-09,-4.3316060113509e-09,6.8959211309312e-09,-0.00071677540093661,0.00071677265906382,-0.00071677410498467,0.00071677396036245,-0.00071677192725576,0.00071677636239591,-0.00071677062300784,0.00071677766820951,-0.00067706318272894,0.00067706537429566,-0.00067705936466062,0.00067706920516157,4.224235271512e-09,-6.6642963289522e-09,-5.4361483548703e-10,-1.648413603886e-09,-0.00066873984748503,0.00066873769255639,-0.00071677324795136,0.0007167750493921,-0.00071677360028921,0.00071677468125503,-0.0007167766095243,0.00071677146129165,-0.00071677695611674,0.00071677110021395,-0.00067706661557738,0.00067706189744024,-0.00067706768165791,0.00067706081561707,-0.00067706036320855,0.00067706838364409,-0.00067707093057204,0.00067705738695399,1.7163880116127e-09,-1.8073554584431e-09,-0.00066873881181,0.00066873872824446,-6.5412005814005e-10,5.860433775418e-10,-0.00071677375178001,0.00071677442406349,-0.00071677332089084,0.00071677481954479,-0.00071677494218574,0.00071677326912531,-0.00071677450619275,0.0007167736723183,-0.0006770658129964,0.00067706269977614,-0.00067706238858985,0.00067706614601651,0.70210892726557,131329,3014,0.0027825626979632,0.0027825626979484,0.0027825626979752,36.741615880297,5.3932927042374e-05,5.3932927042374e-05,5.3932927042374e-05,2403919.0794547,0.0083827293603228
6619200,0.5086122339731,0.008761785549549,0.0029205951831834,0.0029205951831691,0.0029205951831965,-0.00069996269830793,0.00069996496960466,-8.8634914558319e-10,3.1951660958396e-09,-4.1991176919546e-09,6.7594568854967e-09,-0.00075206882384481,0.00075206610415313,-0.00075206746413845,0.00075206746930636,-0.00075206543883179,0.0007520697182521,-0.00075206407086667,0.0007520710877944,-0.00070885976973637,0.00070886168209999,-0.00070885576449854,0.00070886570010076,4.0924935531099e-09,-6.5292129581951e-09,-5.374877972893e-10,-1.6524351394597e-09,-0.00069996491019887,0.00069996275770783,-0.00075206672284865,0.00075206844178206,-0.00075206707874116,0.00075206807038721,-0.00075206999643948,0.0007520649423789,-0.0007520703465524,0.00075206457784686,-0.00070886301247991,0.0007088583952864,-0.00070886408845365,0.00070885730333265,-0.00070885694213067,0.00070886469970997,-0.00070886724685288,0.00070885396519255,1.8111869062774e-09,-1.9061751022767e-09,-0.00069996387774725,0.00069996379017305,-6.6081971476426e-10,5.8861153680688e-10,-0.00075206715692609,0.00075206788664395,-0.00075206672329507,0.00075206828568731,-0.00075206841143921,0.00075206666685481,-0.00075206797272669,0.00075206707346878,-0.0007088623552999,0.00070885905149353,-0.00070885874207122,0.00070886268837147,0.74070666091398,131329,3014,0.0029123021274905,0.0029123021274781,0.0029123021275062,37.00877768455,5.6070221476397e-05,5.6070221476397e-05,5.6070221476397e-05,2352572.6908743,0.0087753040474098
6819200,0.53467830730765,0.0092010613148948,0.0030670204383003,0.0030670204382839,0.0030670204383107,-0.00073566893055607,0.00073567117728568,-1.0159194568285e-09,3.3001693374156e-09,-3.8790752312673e-09,6.411577020429e-09,-0.00079157053720999,0.00079156793601655,-0.00079156909769087,0.00079156938086904,-0.00079156737088647,0.00079157132945422,-0.00079156592654806,0.00079157277548044,-0.00074604082939957,0.00074604227024275,-0.00074603659915499,0.00074604651307092,3.7549332862725e-09,-6.1635907152312e-09,-4.804582607394e-10,-1.6848138276101e-09,-0.00073567111772796,0.00073566899010962,-0.00079156858516746,0.00079157012293166,-0.00079156896895553,0.00079156972311074,-0.00079157162499241,0.00079156685887822,-0.00079157200672403,0.00079156646304196,-0.00074604366107639,0.00074603939557819,-0.0007460448290296,0.00074603821091486,-0.00074603811089431,0.00074604517856619,-0.00074604773039763,0.00074603513199629,1.8875310487515e-09,-1.9811257483801e-09,-0.00073567009705832,0.00073567001080004,-7.2065799634877e-10,6.5029574266144e-10,-0.00079156892427686,0.00079156966349237,-0.00079156844901604,0.00079157010526598,-0.00079157022709592,0.00079156839434837,-0.00079156975008502,0.00079156884034517,-0.00074604323465123,0.00074603981993863,-0.00074603946875068,0.0007460436101186,0.79221450436102,131329,3014,0.0030606398328009,0.0030606398327922,0.0030606398328353,38.073278555535,6.4586228444277e-05,6.4586228444277e-05,6.4586228444277e-05,2370102.0963713,0.0092243404689754
7019200,0.5614601462951,0.0096185788638427,0.0032061929546243,0.0032061929546084,0.00320619295461,-0.00077061759640556,0.00077061980605966,-1.1249619007156e-09,3.3719994643486e-09,-3.6038141208935e-09,6.0955287991323e-09,-0.00083069754354003,0.00083069504042745,-0.00083069604303611,0.00083069654632394,-0.00083069457185808,0.00083069823692213,-0.00083069306565336,0.00083069974482116,-0.00078152071461613,0.0007815217415047,-0.00078151630503537,0.00078152616383969,3.4857938951501e-09,-5.853062987267e-09,-4.0893654882612e-10,-1.7184864973222e-09,-0.00077061974612044,0.00077061765635436,-0.00083069569974047,0.00083069711699216,-0.00083069611829272,0.00083069668204882,-0.00083069854838097,0.00083069404620683,-0.00083069896416054,0.00083069361619658,-0.00078152317296087,0.00078151924002504,-0.00078152444283513,0.00078151795447309,-0.0007815180710481,0.00078152457159147,-0.00078152712160506,0.00078151509995095,1.9921478325747e-09,-2.0814612567286e-09,-0.00077061874229218,0.00077061866019103,-7.6611644975658e-10,7.0048881800333e-10,-0.00083069595947727,0.00083069673785002,-0.00083069545259938,0.0008306972119425,-0.00083069732946964,0.00083069540069817,-0.00083069682000334,0.00083069587989094,-0.00078152299445719,0.0007815194175639,-0.00078151902998228,0.00078152340594766,0.73335806866229,131329,3014,0.0032058097167687,0.0032058097167884,0.0032058097168059,39.15742632462,7.3259410596964e-05,7.3259410596964e-05,7.3259410596964e-05,2352551.5967859,0.0096639844614972
7219200,0.58880258532125,0.01002785031494,0.0033426167716689,0.0033426167716381,0.0033426167716333,-0.00080523716501299,0.00080523932786178,-1.2431422286229e-09,3.4435116800525e-09,-3.3889222879268e-09,5.8302840042669e-09,-0.00086957355697818,0.00086957110373856,-0.00086957199346448,0.00086957267297868,-0.00086957074342649,0.00086957413986967,-0.00086956917379424,0.00086957571115419,-0.00081622496773018,0.00081622560179066,-0.00081622037200376,0.00081623021041678,3.2727834089937e-09,-5.5891144792035e-09,-3.3829197086885e-10,-1.7418814276204e-09,-0.00080523926765611,0.00080523722521595,-0.00086957177703907,0.00086957311417655,-0.00086957222705134,0.0008695726479213,-0.00086957446905326,0.00086957020261295,-0.00086957491576261,0.0008695697412111,-0.00081622708120734,0.00081622344622147,-0.00081622844243485,0.00081622206854746,-0.00081622235247993,0.00081622840181043,-0.00081623093541886,0.00081621940170789,2.0934843720483e-09,-2.1762442392323e-09,-0.00080523828416048,0.00080523820871577,-8.0811464288767e-10,7.4961393202952e-10,-0.00086957197649568,0.00086957279647918,-0.00086957143965699,0.00086957330127288,-0.00086957341170283,0.00086957139367676,-0.0008695728718365,0.0008695719035908,-0.00081622712844949,0.0008162233969524,-0.00081622297297717,0.00081622757749931,0.70718848089931,131329,3014,0.0033495915725246,0.0033495915725188,0.0033495915725275,40.242329587566,8.1938636700526e-05,8.1938636700526e-05,8.1938636700526e-05,2366834.285102,0.010099615382331
7419200,0.61570991354045,0.01041532767611,0.0034717758920655,0.003471775892026,0.0034717758920184,-0.00083723730751939,0.0008372394336428,-1.357649806995e-09,3.5214267404479e-09,-3.3949683738995e-09,5.797894788794e-09,-0.00090580629183383,0.00090580374572558,-0.00090580466422232,0.00090580537944232,-0.00090580348555452,0.00090580677306675,-0.00090580185175,0.00090580840836037,-0.00084791869621897,0.00084791909626881,-0.00084791391198422,0.00084792389450136,3.2790707290855e-09,-5.5569799651776e-09,-3.1084551113485e-10,-1.732747819373e-09,-0.00083723937349359,0.00083723736765336,-0.00090580444745718,0.00090580581899124,-0.00090580490362332,0.00090580534687043,-0.00090580713240804,0.00090580291648423,-0.00090580758504346,0.00090580244860122,-0.00084792066283053,0.00084791708976789,-0.00084792204125937,0.0008479156947382,-0.00084791596100871,0.00084792201618897,-0.00084792451897915,0.0008479130439883,2.1933052029434e-09,-2.2702552034384e-09,-0.00083723840532846,0.00083723833582367,-8.1392228096831e-10,7.615558704615e-10,-0.00090580463227804,0.00090580551681022,-0.00090580408969207,0.00090580602785249,-0.00090580613192564,0.00090580404949622,-0.00090580558618195,0.00090580456512906,-0.00084792082874016,0.00084791691998375,-0.00084791648453656,0.00084792129012002,0.68501443810006,131329,3014,0.0034824758678599,0.003482475867828,0.0034824758678388,40.770591446753,8.6164731574027e-05,8.6164731574027e-05,8.6164731574027e-05,2422342.1218051,0.01050239899523
7619200,0.64144175910883,0.010776339373532,0.00359211312454,0.0035921131245036,0.0035921131244881,-0.00086637020226175,0.00086637231283235,-1.4609613988968e-09,3.6090514142508e-09,-3.5756211705806e-09,5.9630556395081e-09,-0.00093916192113413,0.00093915917963492,-0.00093916023029101,0.00093916087700571,-0.00093915899843913,0.0009391623224312,-0.00093915730063271,0.00093916402135656,-0.00087655252324046,0.0008765528359035,-0.00087654755167526,0.00087655782127657,3.4611870459722e-09,-5.7236003246963e-09,-3.2493932543695e-10,-1.7029411693522e-09,-0.00086637225267047,0.00086637026241196,-0.00093915991899741,0.00093916140914752,-0.00093916036109584,0.00093916095188382,-0.0009391627224406,0.00093915839032293,-0.00093916315974667,0.00093915793678213,-0.00087655451799172,0.00087655080080657,-0.00087655585337988,0.0008765494488691,-0.00087654955723017,0.00087655598542729,-0.00087655845811896,0.00087654667177772,2.2923881576448e-09,-2.3664170821708e-09,-0.00086637129081992,0.00086637122426042,-7.8965176700409e-10,7.4018999876245e-10,-0.00093916012180822,0.00093916108986679,-0.00093915959470734,0.00093916158551419,-0.00093916168701428,0.00093915955750867,-0.00093916115607257,0.00093916005781338,-0.00087655471386932,0.00087655060168829,-0.00087655017867548,0.00087655516263195,0.67223241012945,131329,3014,0.0036034385461423,0.0036034385461179,0.0036034385461136,40.851687418528,8.6813499348222e-05,8.6813499348222e-05,8.6813499348222e-05,2475540.7063486,0.010869190629301
7819200,0.6659639522613,0.011115901456567,0.0037053004855529,0.0037053004855151,0.0037053004854986,-0.00089388138932578,0.0008938834999584,-1.5572003274224e-09,3.704797054199e-09,-3.7663350029333e-09,6.1541056387677e-09,-0.00097113115563562,0.00097112822213094,-0.0009711294009738,0.00097112998343374,-0.00097112810489619,0.00097113149221618,-0.00097112634316628,0.0009711332549948,-0.00090354919670698,0.00090354944860134,-0.00090354403740741,0.0009035546217172,3.6527242658899e-09,-5.9153854738651e-09,-3.505199502826e-10,-1.6767720294884e-09,-0.00089388343975788,0.00089388144951433,-0.00097112900118192,0.00097113060308198,-0.00097112942623292,0.00097113016308955,-0.0009711319335735,0.00097112745629568,-0.00097113235362223,0.00097112701984439,-0.00090355125019131,0.00090354735492892,-0.00090355253508062,0.00090354605355351,-0.00090354600288616,0.00090355282547721,-0.00090355528090242,0.00090354313575112,2.3898022642695e-09,-2.4631243027727e-09,-0.00089388247755811,0.00089388241171217,-7.6309949886353e-10,7.1422382793761e-10,-0.00097112921853508,0.00097113026978926,-0.00097112870876236,0.00097113074757285,-0.00097113084881978,0.00097112867282214,-0.00097113033522285,0.0009711291553068,-0.00090355146096306,0.00090354714154597,-0.00090354673465667,0.00090355189202304,0.6665508353559,131329,3014,0.0037176557235613,0.0037176557235362,0.0037176557235322,40.921587690715,8.7372701525716e-05,8.7372701525716e-05,8.7372701525716e-05,2488860.6177461,0.011215654441716
8019200,0.68926957282512,0.011435442548421,0.0038118141828381,0.0038118141827998,0.0038118141827831,-0.00091983728023705,0.0009198394017552,-1.6479397890412e-09,3.8060577985468e-09,-3.9310434139691e-09,6.3306040205397e-09,-0.0010016008090052,0.0010015977083884,-0.0010015989904222,0.0010015995335701,-0.0010015976438942,0.0010016010923506,-0.0010015958182637,0.0010016029190935,-0.00092904442086895,0.00092904460922794,-0.00092903907365061,0.0009290499702794,3.8182033707736e-09,-6.0925737068091e-09,-3.8219252171004e-10,-1.6555404675812e-09,-0.00091983934152251,0.00091983734045746,-0.0010015985275848,0.0010016002158653,-0.0010015989351053,0.0010015997933859,-0.0010016015749625,0.0010015969543869,-0.0010016019775661,0.0010015965355999,-0.00092904653089162,0.00092904245896034,-0.00092904776406265,0.00092904120946206,-0.00092904102349811,0.00092904818949311,-0.00092905063834579,0.0009290381632553,2.4863012786144e-09,-2.5606575455815e-09,-0.00091983837442665,0.00091983830755113,-7.3693284220752e-10,6.8682609902237e-10,-0.0010015987474115,0.0010015998803828,-0.0010015982552922,0.001001600339943,-0.0010016004426114,0.0010015982187374,-0.0010015999468027,0.0010015986831987,-0.00092904675826436,0.00092904222983101,-0.00092904184096809,0.0009290471694429,0.6609724919051,131329,3014,0.0038254050420843,0.0038254050420586,0.003825405042054,40.991055312158,8.7928442497263e-05,8.7928442497263e-05,8.7928442497263e-05,2491563.4438794,0.01154261121087
8219200,0.71150267549458,0.011737653735792,0.0039125512452953,0.0039125512452566,0.00391255124524,-0.00094465150171354,0.00094465363668332,-1.7373470585046e-09,3.9084878299679e-09,-4.0182586691324e-09,6.4317267641623e-09,-0.001030883758134,0.0010308805440631,-0.001030881875596,0.0010308824330637,-0.0010308805294551,0.001030883990995,-0.001030878639904,0.0010308858817926,-0.00095345036036038,0.00095345043658949,-0.00095344482523415,0.00095345598560596,3.906222428304e-09,-6.1944340201567e-09,-4.06160485036e-10,-1.644533595501e-09,-0.00094465357642418,0.00094465156196001,-0.0010308814004614,0.0010308831273616,-0.0010308817963436,0.001030882716331,-0.001030884511851,0.0010308798020303,-0.001030884903011,0.0010308793950879,-0.00095345246968567,0.00095344828689246,-0.00095345366862568,0.00095344707193037,-0.00095344681451516,0.00095345416510728,-0.00095345661601574,0.00095344395269159,2.5825227074099e-09,-2.6585227747188e-09,-0.0009446526034548,0.00094465253492699,-7.1997504688888e-10,6.68049037634e-10,-0.0010308816021838,0.0010308828102202,-0.0010308811218133,0.0010308832575581,-0.0010308833621893,0.0010308810838279,-0.0010308828782356,0.0010308815363747,-0.00095345274396342,0.00095344801194304,-0.0009534476356558,0.00095345314044014,0.65549139609146,131329,3014,0.0039284049397787,0.0039284049397522,0.0039284049397472,41.181398068032,8.9451184544261e-05,8.9451184544261e-05,8.9451184544261e-05,2493882.5541235,0.011855257408901
8419200,0.73271474222358,0.012025451476482,0.0040084838255254,0.0040084838254865,0.0040084838254701,-0.00096835658774402,0.00096835873439718,-1.8277891638545e-09,4.0102292178678e-09,-4.0445311388206e-09,6.4697835725235e-09,-0.0010588980095836,0.0010588947215264,-0.001058896062858,0.0010588966745579,-0.0010588947584552,0.001058898190173,-0.0010588928048899,0.0010589001451242,-0.00097683885166539,0.00097683877246842,-0.00097683312842164,0.00097684450963591,3.9330906285942e-09,-6.2330318930623e-09,-4.2366363069043e-10,-1.6382811726621e-09,-0.00096835867411701,0.000968356648011,-0.0010588956134604,0.0010588973427238,-0.0010588960013379,0.0010588969394758,-0.0010588987473676,0.0010588939951476,-0.0010588991308652,0.0010588935962779,-0.00097684091147222,0.00097683667220192,-0.00097684208731017,0.00097683548058981,-0.0009768351976629,0.00097684260882325,-0.00097684506381699,0.00097683233242891,2.6784483914167e-09,-2.7562810594762e-09,-0.00096835769624711,0.00096835762587879,-7.0883519214497e-10,6.5492753156053e-10,-0.0010588957811125,0.0010588970599184,-0.0010588953086418,0.0010588974990085,-0.0010588976056622,0.0010588952689981,-0.0010588971297967,0.0010588957134348,-0.00097684125786046,0.00097683632614794,-0.00097683595882772,0.0009768416433167,0.65380935122555,131329,3014,0.0040267916004735,0.004026791600446,0.0040267916004416,41.430680101459,9.1445440811676e-05,9.1445440811676e-05,9.1445440811676e-05,2494007.9993511,0.012153992568649
8619200,0.75289034671532,0.012298936725365,0.0040996455751532,0.004099645575114,0.0040996455750979,-0.00099083397256734,0.00099083612818535,-1.9195781111769e-09,4.1106466990356e-09,-4.0406412288311e-09,6.4747274241687e-09,-0.0010854453098783,0.0010854419662475,-0.0010854432989909,0.0010854439833095,-0.0010854420574359,0.0010854454354468,-0.001085440039816,0.001085447454563,-0.00099907106257535,0.00099907080407384,-0.00099906515113566,0.00099907672949597,3.9297317798829e-09,-6.2384702827302e-09,-4.3797182232534e-10,-1.6325719093935e-09,-0.00099083606789317,0.00099083403284596,-0.0010854428930665,0.0010854446075067,-0.0010854432742392,0.0010854442108102,-0.0010854460284015,0.0010854412588959,-0.0010854464054303,0.0010854408668396,-0.00099907304725769,0.00099906877888762,-0.00099907420360847,0.00099906760705056,-0.00099906731885651,0.00099907472975235,-0.00099907718741547,0.00099906445185426,2.7742699578101e-09,-2.8540562607462e-09,-0.00099083508653268,0.00099083501420427,-6.9964414841035e-10,6.4364161792568e-10,-0.0010854430187676,0.0010854443669537,-0.0010854425529896,0.0010854447990797,-0.0010854449078671,0.0010854425115262,-0.0010854444387909,0.0010854429491223,-0.00099907347875211,0.00099906834863955,-0.00099906798923475,0.00099907385441805,0.65260875462204,131329,3014,0.004120074120142,0.0041200741201136,0.0041200741201091,41.681454665867,9.3451637326933e-05,9.3451637326933e-05,9.3451637326933e-05,2495030.8243544,0.012437313036368
8819200,0.77202064754792,0.012548054310147,0.0041826847700806,0.0041826847700414,0.0041826847700254,-0.0010115980634472,0.0010116002252293,-2.0127578671582e-09,4.2096994390424e-09,-4.0219301247072e-09,6.4618866934736e-09,-0.0011101585068336,0.0011101551156719,-0.0011101564317919,0.0011101571967879,-0.0011101552639978,0.0011101585744867,-0.0011101531823038,0.0011101606577596,-0.0010193864459201,0.0010193859943913,-0.0010193803462227,0.001019392108178,3.9114861219963e-09,-6.2260805772217e-09,-4.495850876873e-10,-1.6268236934444e-09,-0.0010116001649371,0.0010115981237257,-0.0011101560769276,0.0011101577693314,-0.0011101564523227,0.0011101573783351,-0.001110159202793,0.0011101544306946,-0.0011101595742141,0.0011101540445295,-0.0010193883405469,0.0010193840592656,-0.0010193894800155,0.0010193829046708,-0.0010193826206909,0.0010193900011472,-0.0010193924596066,0.0010193797539916,2.870014310974e-09,-2.9517904008589e-09,-0.0010115991814917,0.001011599107169,-6.9182185111145e-10,6.3369511213755e-10,-0.0011101561575743,0.0011101575741772,-0.0011101556975988,0.0011101580002624,-0.0011101581112081,0.0011101556542924,-0.0011101576479995,0.0011101560859352,-0.0010193888646703,0.0010193835372028,-0.0010193831849608,0.0010193892315111,0.62941992794813,131329,3014,0.0042062387488981,0.0042062387488693,0.0042062387488649,41.932287057904,9.545829646323e-05,9.545829646323e-05,9.545829646323e-05,2524506.8225207,0.012699089160821
9019200,0.78970515121076,0.012778489186329,0.0042594963954746,0.0042594963954352,0.0042594963954194,-0.0010299409119574,0.0010299430844999,-2.1035195868029e-09,4.310957255068e-09,-4.0769884140966e-09,6.5281537100323e-09,-0.0011321635390122,0.0011321600538762,-0.001132161399867,0.0011321621989934,-0.0011321602550971,0.0011321635533535,-0.0011321581092691,0.0011321657008214,-0.0010373848296928,0.0010373842407395,-0.0010373785416374,0.0010373905429801,3.9671645186039e-09,-6.2929701421204e-09,-4.8662145367684e-10,-1.6002939986742e-09,-0.0010299430242159,0.0010299409722276,-0.0011321610573681,0.0011321627588564,-0.0011321614117043,0.0011321623889864,-0.0011321642245885,0.0011321593790798,-0.0011321645749588,0.0011321590142727,-0.0010373867125694,0.001037382317177,-0.0010373877897595,0.0010373812254021,-0.001037380870469,0.001037388381289,-0.0010373908297612,0.0010373780143314,2.9648658274724e-09,-3.0506240868811e-09,-0.0010299420373827,0.0010299419590586,-6.6200394051345e-10,5.9953788289686e-10,-0.0011321611017269,0.0011321626002165,-0.0011321606629895,0.00113216300481,-0.0011321631199832,0.0011321606158638,-0.0011321626779467,0.0011321610261728,-0.0010373872874236,0.0010373817453132,-0.0010373814176506,0.0010373876280881,0.62977530198418,131329,3014,0.0042823507124657,0.0042823507124366,0.004282350712432,41.750136895194,9.4001095161549e-05,9.4001095161549e-05,9.4001095161549e-05,2534736.3632845,0.012930383921857
9219200,0.80593737557839,0.012987592396054,0.0043291974653826,0.0043291974653434,0.0043291974653277,-0.0010463546006147,0.0010463567851065,-2.1913134956122e-09,4.4104603530813e-09,-4.1295522749538e-09,6.5931243784877e-09,-0.0011519722876751,0.0011519687139394,-0.0011519700872886,0.0011519709201941,-0.001151968965458,0.0011519722514682,-0.0011519667557666,0.0011519744628409,-0.0010533958217612,0.0010533950961534,-0.0010533893463164,0.0010534015859006,4.0242208603132e-09,-6.3626828020807e-09,-5.2621686911095e-10,-1.5726338966109e-09,-0.0010463567249398,0.0010463546607668,-0.0011519697570442,0.0011519714675903,-0.0011519700904981,0.0011519711188327,-0.00115197296807,0.0011519680441046,-0.0011519732948957,0.0011519677031352,-0.0010533976984195,0.0010533931788863,-0.0010533987057724,0.001053392157345,-0.0010533917289752,0.0010533993704516,-0.0010534018088363,0.001053388883024,3.061451746633e-09,-3.1523125715736e-09,-0.0010463557345701,0.0010463556511351,-6.2928881443809e-10,5.6130520618772e-10,-0.0011519697630742,0.001151971347502,-0.0011519693491706,0.0011519717269799,-0.0011519718487682,0.0011519692958572,-0.0011519714289182,0.0011519696837941,-0.0010533983207742,0.001053392559838,-0.0010533922604282,0.0010533986322137,0.62300580344594,131329,3014,0.004350453565269,0.0043504535652384,0.0043504535652354,41.452369630442,9.1618957043535e-05,9.1618957043535e-05,9.1618957043535e-05,2540983.7705605,0.013137387581911
9419200,0.820826469743,0.013177217272099,0.0043924057573974,0.0043924057573581,0.004392405757343,-0.0010611860401299,0.0010611882350457,-2.2835947166607e-09,4.5129633188037e-09,-4.1567147454237e-09,6.6310024998959e-09,-0.0011699189180803,0.0011699152677714,-0.001169916652243,0.0011699175393955,-0.0011699155734308,0.0011699188275282,-0.0011699132995408,0.0011699211031397,-0.0010677884512461,0.0010677875686591,-0.0010677817869567,0.0010677942471793,4.0495885997308e-09,-6.398813675322e-09,-5.6086000366059e-10,-1.5482727979208e-09,-0.0010611881749173,0.0010611861002429,-0.0011699163539953,0.0011699180545815,-0.0011699166674648,0.0011699177260273,-0.0011699195852536,0.0011699146109362,-0.0011699198933671,0.0011699142890601,-0.0010677902925099,0.0010677856864488,-0.0010677912441387,0.0010677847209525,-0.0010677842441849,0.001067791957145,-0.0010677943864312,0.0010677814073312,3.1541422347963e-09,-3.2503148211133e-09,-0.0010611871819684,0.0010611870931902,-6.0347797750027e-10,5.2979080657805e-10,-0.0011699163166422,0.0011699179780652,-0.0011699159211884,0.0011699183388671,-0.0011699184655536,0.001169915863413,-0.001169918065356,0.001169916231492,-0.0010677909784384,0.0010677850044011,-0.0010677847290609,0.0010677912650106,0.61620824138338,131329,3014,0.0044119877647756,0.0044119877647432,0.00441198776474,41.151605461289,8.921284369031e-05,8.921284369031e-05,8.921284369031e-05,2548969.3703857,0.0133244636025
9619200,0.8344786644115,0.013349061093859,0.0044496870313169,0.0044496870312783,0.0044496870312636,-0.0010745858795925,0.00107458808288,-2.3758010370856e-09,4.6133661110085e-09,-4.1632978151096e-09,6.6460736831287e-09,-0.0011861888456888,0.0011861851321698,-0.0011861865154807,0.0011861874681085,-0.00118618549344,0.0011861886992977,-0.0011861831554946,0.0011861910389832,-0.0010807443542365,0.0010807432990169,-0.001080737501946,0.0010807501655722,4.0561464187194e-09,-6.4139525561374e-09,-5.8951389144094e-10,-1.5279109193482e-09,-0.0010745880228092,0.0010745859396471,-0.0011861862586062,0.001186187941618,-0.0011861865558771,0.0011861876295688,-0.0011861894972054,0.0011861844908151,-0.0011861897893893,0.0011861841851574,-0.0010807461405898,0.0010807414715599,-0.0010807470449735,0.0010807405537606,-0.0010807400459249,0.001080747788668,-0.0010807502102818,0.0010807372170706,3.2478736955704e-09,-3.3493639821118e-09,-0.0010745870282824,0.0010745869341723,-5.8188569355619e-10,5.0251815018016e-10,-0.001186186174997,0.0011861879115977,-0.0011861857955961,0.0011861882561546,-0.0011861883881669,0.001186185732899,-0.0011861880042831,0.0011861860844378,-0.0010807469007604,0.0010807407157691,-0.0010807404616326,0.0010807471653018,0.60938040650225,131329,3014,0.0044675794935752,0.0044675794935413,0.0044675794935379,40.850724698749,8.6805797589992e-05,8.6805797589992e-05,8.6805797589992e-05,2557132.5746696,0.013493504904715
9819200,0.84675922832311,0.013504611914798,0.0045015373049627,0.0045015373049246,0.0045015373049104,-0.0010858778826065,0.0010858800990138,-2.4793103238303e-09,4.7297139811904e-09,-4.2375694112809e-09,6.734084425755e-09,-0.001200040664405,0.0012000368271358,-0.0012000382507545,0.0012000392464332,-0.0012000372481522,0.001200040458374,-0.0012000348479068,0.0012000428604114,-0.0010916659069789,0.0010916647350942,-0.0010916588714053,0.001091671785712,4.0945331807544e-09,-6.4642932500211e-09,-6.3759177686412e-10,-1.4911858264273e-09,-0.0010858800381556,0.0010858779434487,-0.0012000380252878,0.0012000396884933,-0.0012000382842379,0.0012000394151271,-0.0012000412836331,0.0012000362179063,-0.0012000415585917,0.001200035929878,-0.0010916676813332,0.0010916629195222,-0.0010916685355196,0.0010916620536774,-0.0010916614726865,0.0010916693507627,-0.0010916717568361,0.0010916586607208,3.3273989623045e-09,-3.4353138024038e-09,-0.00108587904105,0.001085878940553,-5.5243720154035e-10,4.661939808586e-10,-0.0012000379014366,0.0012000396989008,-0.0012000375334418,0.0012000400317839,-0.0012000401597431,0.0012000374751926,-0.0012000398084545,0.0012000377940974,-0.0010916685067239,0.0010916620999819,-0.0010916618728561,0.0010916687420275,0.61213711207807,131329,3014,0.0045144246921113,0.0045144246920777,0.004514424692075,40.184656026117,8.1477248208938e-05,8.1477248208938e-05,8.1477248208938e-05,2556284.770461,0.013635974006728
10019200,0.85779734861753,0.01364554884262,0.0045485162809031,0.0045485162808655,0.0045485162808516,-0.0010958263415876,0.0010958285679143,-2.5611542223201e-09,4.821600110544e-09,-4.2485988681621e-09,6.7555609773082e-09,-0.0012122544767862,0.0012122505855949,-0.0012122520112007,0.0012122530567779,-0.0012122510554272,0.0012122542219672,-0.0012122485894148,0.0012122566897417,-0.0011013346458964,0.0011013333034019,-0.0011013274187616,0.0011013405451758,4.1308059783519e-09,-6.5113749730267e-09,-6.6871280377689e-10,-1.4702952182954e-09,-0.0010958285072063,0.0010958264022799,-0.0012122518078219,0.0012122534766519,-0.0012122520563814,0.0012122532141139,-0.0012122550996316,0.0012122499725421,-0.0012122553502641,0.001212249709091,-0.0011013363893065,0.0011013315177775,-0.0011013371713069,0.0011013307245649,-0.0011013300925967,0.0011013380380666,-0.0011013404366689,0.0011013272871668,3.4300208705698e-09,-3.5442151660713e-09,-0.0010958275081799,0.0010958274013036,-5.2329625062934e-10,4.3034101858316e-10,-0.0012122516410288,0.0012122535300505,-0.001212251301309,0.0012122538347209,-0.0012122539760445,0.0012122512299844,-0.0012122536389654,0.0012122515342941,-0.0011013372673078,0.0011013306465156,-0.0011013304474223,0.0011013374742768,0.61574677063242,131329,3014,0.0045556943256605,0.0045556943256277,0.0045556943256221,39.480521785285,7.5844174282282e-05,7.5844174282282e-05,7.5844174282282e-05,2549873.4648485,0.013761503217192
10219200,0.86773233826537,0.013773576530948,0.0045911921770118,0.0045911921769745,0.0045911921769614,-0.001104652969044,0.0011046552025639,-2.6535356001324e-09,4.9211051922614e-09,-4.2467150140067e-09,6.7609654747339e-09,-0.0012230714160236,0.0012230674664379,-0.0012230688861255,0.0012230700018697,-0.0012230679930221,0.0012230711042994,-0.0012230654631283,0.0012230736359949,-0.001109969569638,0.0011099680476138,-0.0011099621546018,0.0011099754774996,4.1295624900645e-09,-6.5171800589684e-09,-6.9389597746799e-10,-1.4520136415017e-09,-0.0011046551417621,0.0011046530298246,-0.0012230687279144,0.0012230703764247,-0.001223068962006,0.0012230701286107,-0.0012230720209593,0.0012230668710684,-0.0012230722575519,0.0012230666220101,-0.0011099712487251,0.0011099663263557,-0.0011099719884162,0.001109965575904,-0.0011099649208215,0.001109972878021,-0.0011099752691083,0.0011099621228087,3.5238521370302e-09,-3.6436760160812e-09,-0.0011046541420402,0.0011046540295453,-5.0443991900085e-10,4.055167563591e-10,-0.001223068514507,0.0012230704766493,-0.0012230681889918,0.0012230707668805,-0.0012230709136727,0.0012230681124556,-0.0012230705912633,0.0012230684020321,-0.0011099722059701,0.0011099653758992,-0.0011099651968407,0.0011099723927223,0.62007022955045,131329,3014,0.0045923087116346,0.0045923087115904,0.004592308711588,38.775326181669,7.0202609453349e-05,7.0202609453349e-05,7.0202609453349e-05,2541759.313736,0.013872885697429
10419200,0.87670214208664,0.013890350858713,0.0046301169529327,0.0046301169528967,0.0046301169528838,-0.0011125774650252,0.0011125797018689,-2.7494309982997e-09,5.0201931740739e-09,-4.2153797953349e-09,6.7326017226976e-09,-0.0012327686020171,0.0012327646098715,-0.0012327660061368,0.0012327672112527,-0.0012327651977697,0.0012327682287026,-0.0012327626038856,0.0012327708243997,-0.00111777445494,0.001117772728465,-0.0011177668520826,0.0011177803461956,4.0918768185475e-09,-6.482105004932e-09,-7.0669977200835e-10,-1.4420906393357e-09,-0.0011125796408537,0.0011125775260295,-0.0012327659101407,0.0012327675231595,-0.0012327661359022,0.0012327672839368,-0.0012327691783368,0.0012327640430263,-0.0012327694085383,0.0012327638005546,-0.001117776030827,0.0011177711104225,-0.0011177767516559,0.0011177703793604,-0.0011177697355889,0.001117777628994,-0.0011177800161713,0.0011177669427001,3.616715328947e-09,-3.7409481081326e-09,-0.00111257864192,0.0011125785249626,-4.9630278855519e-10,3.9272854594191e-10,-0.0012327656466439,0.0012327676737204,-0.0012327653270748,0.0012327679579436,-0.0012327681083348,0.0012327652471803,-0.0012327677938302,0.0012327655287715,-0.0011177770896422,0.0011177700590652,-0.0011177698906934,0.0011177772646166,0.62506142794649,131329,3014,0.0046251797275363,0.0046251797275136,0.0046251797275123,38.100257431409,6.4802059451274e-05,6.4802059451274e-05,6.4802059451274e-05,2531237.6828882,0.013972890880648
10619200,0.88507617018391,0.013997266521718,0.004665755507268,0.0046657555072313,0.0046657555072192,-0.0011209360802105,0.0011209383050849,-2.8501277313777e-09,5.1090634543832e-09,-4.0262319709652e-09,6.529812544062e-09,-0.0012428066587041,0.0012428027230736,-0.001242804000867,0.0012428053864205,-0.0012428033854734,0.0012428062098748,-0.0012428007269672,0.0012428088701859,-0.0011259960741321,0.0011259940154816,-0.0011259882816254,0.0011260018228432,3.9092804823005e-09,-6.2858738562214e-09,-6.6011460685216e-10,-1.4768239727047e-09,-0.001120938244092,0.0011209361411883,-0.0012428040377204,0.0012428055645025,-0.0012428042918912,0.0012428052968669,-0.0012428071814639,0.0012428022097633,-0.0012428074374146,0.0012428019415343,-0.0011259973771614,0.0011259926706147,-0.0011259981734448,0.001125991863886,-0.0011259913839197,0.0011259988863113,-0.0011260012885963,0.0011259885772465,3.7147353816781e-09,-3.8388450478601e-09,-0.0011209372510481,0.0011209371342321,-5.355457043287e-10,4.3235215276204e-10,-0.0012428037111854,0.001242805778587,-0.0012428033665791,0.0012428060878775,-0.0012428062394133,0.00124280328547,-0.0012428058971905,0.0012428035947586,-0.0011259986234792,0.0011259914314056,-0.0011259912368691,0.0011259988249282,0.6139511253471,131329,3014,0.0046598497347628,0.0046598497347314,0.0046598497347311,38.029560334539,6.4236482676312e-05,6.4236482676312e-05,6.4236482676312e-05,2527277.6003334,0.0140783787527
10819200,0.89289637623802,0.014095331282011,0.0046984437606986,0.0046984437606619,0.00469844376065,-0.0011286638120362,0.0011286660228456,-2.9532803433127e-09,5.1982476786899e-09,-3.8643557064681e-09,6.3522530874991e-09,-0.0012521144125613,0.0012521105119046,-0.001252111690654,0.0012521132393774,-0.0012521112516956,0.0012521138853263,-0.0012521085290033,0.0012521166098202,-0.0011335549708896,0.0011335525968795,-0.001133546990102,0.0011335605925608,3.7477290234386e-09,-6.108520690408e-09,-6.0542292077844e-10,-1.5174351639543e-09,-0.0011286659617998,0.0011286638730669,-0.0012521118420976,0.0012521133018316,-0.0012521121280163,0.0012521130023917,-0.0012521148737301,0.0012521100602668,-0.0012521151613118,0.0012521097602896,-0.001133556006311,0.0011335515201171,-0.0011335568958728,0.001133550619854,-0.0011335502976775,0.0011335574499582,-0.0011335598700643,0.0011335474750173,3.8122476802149e-09,-3.9344354362864e-09,-0.001128664974865,0.0011286648600014,-5.8174500829521e-10,4.8085336799497e-10,-0.0012521114649205,0.0012521135670221,-0.0012521110887594,0.0012521139079451,-0.0012521140575674,0.0012521110095069,-0.0012521136836537,0.0012521113504651,-0.0011335574404347,0.0011335500927724,-0.001133549864757,0.0011335576754542,0.60386753923691,131329,3014,0.004691901813877,0.0046919018138454,0.0046919018138449,37.973710681685,6.3789685453479e-05,6.3789685453479e-05,6.3789685453479e-05,2529072.4413997,0.014175911613013
11019200,0.9001960857516,0.014185090859954,0.0047283636200132,0.0047283636199764,0.0047283636199647,-0.0011357691537955,0.0011357713516346,-3.055828387011e-09,5.2879160823817e-09,-3.7493951696689e-09,6.2230401373367e-09,-0.0012606997308697,0.0012606958346209,-0.0012606969450213,0.0012606986261019,-0.0012606966507808,0.0012606991264033,-0.00126069386385,0.0012607019151333,-0.0011404662846985,0.0011404636280509,-0.0011404581154863,0.0011404718122158,3.6332960814696e-09,-5.9797483190619e-09,-5.5007286674664e-10,-1.5598205664977e-09,-0.0011357712905489,0.0011357692148661,-0.0012606971798819,0.0012606986042666,-0.001260697498403,0.0012606982721149,-0.0012607001313244,0.0012606954438075,-0.0012607004512214,0.0012606951113565,-0.0011404670843259,0.0011404627875557,-0.0011404680692773,0.0011404617916276,-0.0011404615989774,0.0011404684929476,-0.0011404709328098,0.0011404587582401,3.9103918988588e-09,-4.0294688496102e-09,-0.0011357703085655,0.0011357701968493,-6.2848494474576e-10,5.3113505792386e-10,-0.0012606967676037,0.0012606989049279,-0.0012606963592047,0.0012606992781633,-0.0012606994247745,0.0012606962829009,-0.0012606990183163,0.0012606966563899,-0.0011404686897454,0.0011404611886535,-0.0011404609251473,0.0011404689602427,0.59320719849161,131329,3014,0.0047213715137917,0.0047213715137601,0.0047213715137598,37.918431524028,6.3347452192226e-05,6.3347452192226e-05,6.3347452192226e-05,2534658.8557587,0.014265595357826
11219200,0.90699783388622,0.01426868622764,0.0047562287425751,0.0047562287425383,0.0047562287425268,-0.0011423117536272,0.0011423139425626,-3.1563951285896e-09,5.3796208785102e-09,-3.6984873803375e-09,6.1624933999979e-09,-0.0012685990766523,0.0012685951445084,-0.0012685962268101,0.0012685980000574,-0.0012685960331122,0.0012685983990174,-0.001268593181946,0.0012686012519758,-0.001146834382689,0.001146831491669,-0.001146826025073,0.0011468398642966,3.582820404457e-09,-5.9195597946881e-09,-5.0169306014391e-10,-1.5992653572155e-09,-0.0011423138814427,0.001142311814732,-0.0012685965066581,0.0012685979325059,-0.0012685968544222,0.00126859757098,-0.0012685994220027,0.001268594808925,-0.0012685997709115,0.0012685944472705,-0.0011468349995379,0.0011468308343311,-0.0011468360702235,0.0011468297523823,-0.0011468296440017,0.0011468364090319,-0.0011468388693694,0.001146826783986,4.0087439846818e-09,-4.1242020946335e-09,-0.0011423129021173,0.0011423127940573,-6.7006307394481e-10,5.767488008965e-10,-0.0012685960757847,0.0012685982520509,-0.0012685956383806,0.001268598654324,-0.0012685987974303,0.001268595565602,-0.0012685983617224,0.0012685959682862,-0.0011468367487506,0.0011468290914615,-0.0011468287951803,0.0011468370518756,0.59263236375108,131329,3014,0.004748506536277,0.0047485065362454,0.0047485065362453,37.837651644592,6.2701213156738e-05,6.2701213156738e-05,6.2701213156738e-05,2538912.515329,0.014348181189996
11419200,0.91329173025601,0.014346629147878,0.0047822097159878,0.0047822097159509,0.0047822097159396,-0.0011481287429014,0.0011481309295413,-3.2536938280635e-09,5.4746116057263e-09,-3.7223257225631e-09,6.184001330416e-09,-0.0012756519007244,0.0012756478869877,-0.0012756489868415,0.0012756508066363,-0.0012756488417114,0.0012756511566284,-0.0012756459263647,0.001275654073764,-0.0011525125455225,0.0011525094790411,-0.0011525039996237,0.0011525180400143,3.6069275907013e-09,-5.9412667379088e-09,-4.7028441449425e-10,-1.628298950276e-09,-0.0011481308683899,0.0011481288040377,-0.0012756492708557,0.0012756507345798,-0.0012756496387138,0.0012756503528459,-0.0012756522019416,0.0012756475956386,-0.0012756525708159,0.0012756472138647,-0.0011525130516615,0.0011525089326217,-0.0011525141814442,0.0011525077913861,-0.0011525077053578,0.0011525144976549,-0.0011525169758952,0.0011525048279845,4.1068133370834e-09,-4.2191479538673e-09,-0.0011481298886667,0.0011481297837609,-6.9830956700442e-10,6.08429172877e-10,-0.0012756488352228,0.0012756510589911,-0.0012756483778557,0.001275651481213,-0.0012756516213009,0.0012756483081923,-0.0012756511654867,0.0012756487308992,-0.0011525149068935,0.0011525070837338,-0.0011525067642015,0.0011525152329628,0.59626238219248,131329,3014,0.0047726318042671,0.0047726318042356,0.0047726318042357,37.630690864049,6.1045526912394e-05,6.1045526912394e-05,6.1045526912394e-05,2539154.5160194,0.014421613024399
11619200,0.91911592518757,0.014419148780878,0.0048063829269876,0.0048063829269508,0.0048063829269397,-0.0011534835994535,0.0011534857874893,-3.3491555674787e-09,5.5714309294918e-09,-3.7743544137105e-09,6.2377028119902e-09,-0.0012821393348148,0.0012821352231236,-0.0012821363569652,0.0012821382067959,-0.0012821362404333,0.0012821385279965,-0.0012821332608271,0.0012821415093841,-0.0011577612500599,0.0011577580316498,-0.001157752515621,0.0011577667812095,3.6594449172401e-09,-5.9954135332283e-09,-4.4844655840701e-10,-1.6514511023872e-09,-0.0011534857263182,0.0011534836606095,-0.0012821366312462,0.001282138144325,-0.001282137014141,0.0012821377474668,-0.0012821395982628,0.0012821349696409,-0.0012821399818831,0.0012821345729734,-0.0011577616768789,0.0011577575646788,-0.001157762850372,0.0011577563795583,-0.0011577562898199,0.0011577631702698,-0.0011577656649196,0.0011577533961936,4.2046997120747e-09,-4.3142478999822e-09,-0.0011534847445104,0.0011534846424174,-7.1906113852874e-10,6.3221455486755e-10,-0.0012821361941167,0.0012821384702499,-0.0012821357219911,0.0012821389071977,-0.0012821390447011,0.0012821356550522,-0.0012821385738294,0.0012821360927072,-0.001157763621081,0.0011577556268655,-0.0011577552895406,0.0011577639646155,0.59873359170276,131329,3014,0.0047948400471776,0.004794840047146,0.0047948400471463,37.420624428818,5.9364995430546e-05,5.9364995430546e-05,5.9364995430546e-05,2536703.7877227,0.014489214763351
11819200,0.92450682040031,0.014486766038848,0.0048289220129777,0.0048289220129409,0.0048289220129299,-0.0011584226033699,0.0011584247950908,-3.4434903050878e-09,5.6693979947241e-09,-3.8369075192267e-09,6.3043685575151e-09,-0.0012881175852525,0.0012881133700419,-0.0012881145433802,0.0012881164177827,-0.0012881144477459,0.0012881167180286,-0.0012881114039254,0.0012881197636245,-0.0011626251880625,0.0011626218279227,-0.0011626162651914,0.0011626307659514,3.7223323664071e-09,-6.062377550961e-09,-4.3565901399016e-10,-1.6678354997861e-09,-0.0011584247339037,0.001158422664542,-0.0012881148052029,0.0012881163677475,-0.0012881151978368,0.0012881159610852,-0.00128811781572,0.0012881131496166,-0.0012881182088881,0.0012881127432846,-0.0011626255533046,0.0011626214225946,-0.0011626267551706,0.0011626202089698,-0.0011626200999746,0.0011626270944144,-0.0011626296024728,0.001162617192876,4.3022931183102e-09,-4.4095862478141e-09,-0.0011584237491315,0.0011584236493144,-7.322463099661e-10,6.4783099900179e-10,-0.0012881143642755,0.0012881166974358,-0.001288113882592,0.0012881171438951,-0.001288117279306,0.0012881138179042,-0.001288116798677,0.0012881142652025,-0.0011626275767542,0.0011626194056201,-0.0011626190562788,0.0011626279319673,0.60218092299408,131329,3014,0.0048153232225406,0.0048153232225091,0.0048153232225096,37.210438659215,5.7683509273723e-05,5.7683509273723e-05,5.7683509273723e-05,2532407.4571785,0.014551569415073
12019200,0.929505470106,0.014551536551626,0.0048505121839034,0.0048505121838665,0.0048505121838557,-0.001163114602304,0.0011631167981668,-3.5376046209013e-09,5.7676009361034e-09,-3.8910813081958e-09,6.3630802019147e-09,-0.0012937441964355,0.0012937398836237,-0.0012937410905281,0.0012937429954353,-0.0012937410212934,0.0012937432692679,-0.0012937379132629,0.0012937463790677,-0.0011673117535495,0.0011673082466822,-0.0011673026422349,0.0011673173731762,3.7768198810399e-09,-6.1213796964823e-09,-4.3034959870294e-10,-1.6772102546039e-09,-0.0011631167369693,0.0011631146634863,-0.0012937413482556,0.0012937429495005,-0.0012937417458206,0.001293742537872,-0.0012937443967645,0.0012937396933939,-0.0012937447946841,0.0012937392822244,-0.0011673120592897,0.0011673079008952,-0.0011673132753593,0.0011673066729692,-0.0011673065409821,0.0011673136377002,-0.0011673161547951,0.0011673036247299,4.3995603564511e-09,-4.5052151428287e-09,-0.0011631157493099,0.0011631156511461,-7.385664995063e-10,6.5589608626597e-10,-0.0012937408960552,0.0012937432904248,-0.0012937404096216,0.0012937437415877,-0.0012937438755134,0.0012937403465734,-0.0012937433899486,0.0012937407986977,-0.0011673141601039,0.0011673058066481,-0.0011673054507268,0.0011673145215874,0.61929850314937,131329,3014,0.0048347816469094,0.0048347816468778,0.0048347816468785,37.028060387981,5.6224483103849e-05,5.6224483103849e-05,5.6224483103849e-05,2522727.0288425,0.014610807325198
12219200,0.93415837602762,0.014613918108407,0.0048713060361637,0.0048713060361268,0.0048713060361162,-0.0011676883584353,0.0011676905569334,-3.6324358098147e-09,5.8650025343161e-09,-3.9209239784639e-09,6.3957324921155e-09,-0.0012991743225825,0.0012991699275352,-0.0012991711526471,0.001299173103391,-0.0012991711265669,0.0012991733339832,-0.0012991679543627,0.0012991765079561,-0.0011719509280445,0.0011719472562223,-0.0011719416283374,0.0011719565711046,3.807026466888e-09,-6.1543990552562e-09,-4.2872954205807e-10,-1.6814019671837e-09,-0.0011676904957377,0.001167688419616,-0.0012991714230598,0.0012991730447033,-0.001299171822602,0.0012991726310678,-0.001299174492793,0.0012991697674492,-0.0012991748925472,0.0012991693544045,-0.0011719511604149,0.0011719469838996,-0.0011719523819944,0.0011719457503625,-0.0011719456042712,0.0011719527583725,-0.0011719552801374,0.0011719426835178,4.4965975127385e-09,-4.6011106722861e-09,-0.0011676895061828,0.0011676894091713,-7.4071015872486e-10,6.592433168339e-10,-0.0012991709492268,0.0012991734072736,-0.0012991704609729,0.0012991738601569,-0.0012991739931223,0.0012991703991134,-0.0012991735055862,0.0012991708530814,-0.0011719533451097,0.0011719448058545,-0.0011719444467759,0.0011719537093761,0.63789981028175,131329,3014,0.0048537494558151,0.0048537494557836,0.0048537494557844,36.91436022524,5.5314881801917e-05,5.5314881801917e-05,5.5314881801917e-05,2507583.0035002,0.01466855460004
12419200,0.93848993367946,0.014670022394854,0.0048900074649793,0.0048900074649424,0.0048900074649319,-0.0011718532801265,0.0011718554805668,-3.7276453876392e-09,5.962114499024e-09,-3.9381166012411e-09,6.4149630396355e-09,-0.0013041795635551,0.001304175094196,-0.0013041763295546,0.0013041783341276,-0.0013041763553214,0.0013041785127657,-0.0013041731189401,0.0013041817509151,-0.0011761394864012,0.0011761356402337,-0.0011761299983048,0.001176145143517,3.8244217827319e-09,-6.1738447806879e-09,-4.3334911643324e-10,-1.6786969770045e-09,-0.0011718554193781,0.0011718533413002,-0.001304176622839,0.0013041782524582,-0.0013041770199999,0.0013041778412144,-0.0013041797050383,0.0013041749628467,-0.0013041801022934,0.0013041745522888,-0.0011761396423536,0.0011761354443538,-0.0011761408566826,0.001176134218071,-0.0011761340571574,0.0011761412478242,-0.0011761437691651,0.0011761311369163,4.5932146656214e-09,-4.6973015569559e-09,-0.0011718544286299,0.0011718543320488,-7.367533502497e-10,6.5570169341042e-10,-0.0013041761193859,0.0013041786446938,-0.0013041756336647,0.001304179094998,-0.0013041792276503,0.0013041755722472,-0.0013041787425218,0.0013041760237241,-0.0011761419117585,0.0011761331816885,-0.0011761328245788,0.0011761422738168,0.61826606387463,131329,3014,0.0048710216512985,0.004871021651267,0.004871021651268,36.802353825647,5.4418830605179e-05,5.4418830605179e-05,5.4418830605179e-05,2497573.3818263,0.01472114412759
12619200,0.94252252128044,0.01471934823102,0.0049064494103682,0.0049064494103313,0.0049064494103209,-0.0011755800330626,0.0011755822345234,-3.8233041256246e-09,6.0587704811325e-09,-3.9429616672276e-09,6.4208269757904e-09,-0.001308704716364,0.0013087001803633,-0.0013087014182999,0.0013087034843622,-0.0013087015044738,0.0013087036024626,-0.0013086982039085,0.001308706904796,-0.0011798048781085,0.0011798008481031,-0.0011797952016107,0.0011798105398026,3.8294970864644e-09,-6.1799392036877e-09,-4.4247411785454e-10,-1.6705693081882e-09,-0.0011755821733359,0.001175580094235,-0.0013087017437377,0.0013087033703925,-0.0013087021352369,0.0013087029648491,-0.0013087048298599,0.001308700076994,-0.0013087052213222,0.0013086996722423,-0.0011798049530216,0.0011798007332707,-0.0011798061503854,0.0011797995240161,-0.0011797993491222,0.0011798065553755,-0.0011798090720676,0.0011797964337037,4.6895472092577e-09,-4.7937480707576e-09,-0.0011755811821331,0.0011755810854383,-7.2814944721068e-10,6.4692186715749e-10,-0.0013087012038303,0.0013087037991536,-0.0013087007239548,0.0013087042435847,-0.0013087043764509,0.0013087006624183,-0.0013087038970291,0.0013087011081199,-0.0011798073088987,0.0011797983842297,-0.0011797980329508,0.0011798076649331,0.58731202092803,131329,3014,0.0048864763515189,0.0048864763514874,0.0048864763514886,36.690412497617,5.3523299980939e-05,5.3523299980939e-05,5.3523299980939e-05,2497192.0615322,0.014768202705943
12819200,0.9462430504994,0.014765248679407,0.0049217495598303,0.0049217495597934,0.0049217495597832,-0.0011786817350061,0.0011786839391003,-3.9206100571128e-09,6.1587084267439e-09,-3.9591977472265e-09,6.4398566169773e-09,-0.0013125011435766,0.00131249653561,-0.0013124977830742,0.0013124999020296,-0.0013124979227203,0.0013124999666004,-0.0013124945532063,0.0013125033378875,-0.0011828416511684,0.0011828374324891,-0.0011828317714849,0.0011828473272875,3.8680164057299e-09,-6.2224006278879e-09,-4.6508873809773e-10,-1.6515529315848e-09,-0.0011786838784149,0.0011786817956752,-0.0013124981287232,0.0013124997678135,-0.0013124985096984,0.0013124993728825,-0.0013125012447447,0.0013124964444633,-0.0013125016191567,0.0013124960568414,-0.0011828416721924,0.001182837371348,-0.0011828428188649,0.0011828362129033,-0.0011828359878773,0.0011828432741274,-0.0011828457804812,0.001182833082429,4.7828257296041e-09,-4.8882777100596e-09,-0.0011786828860267,0.0011786827880641,-7.0907658196186e-10,6.2642588447217e-10,-0.0013124975560794,0.0013125002293229,-0.0013124970926802,0.0013125006572649,-0.0013125007946913,0.0013124970266925,-0.0013125003251487,0.0013124974623517,-0.0011828440816565,0.0011828349685238,-0.0011828346321343,0.0011828444234477,0.59134553419155,131329,3014,0.0048993387877058,0.0048993387876715,0.0048993387876731,36.407066429978,5.1256531439826e-05,5.1256531439826e-05,5.1256531439826e-05,2498068.3964631,0.014807369175668
13019200,0.94963270199828,0.014807222144069,0.0049357407147175,0.0049357407146808,0.0049357407146707,-0.0011809852735138,0.001180987477042,-4.0562584222072e-09,6.2937399512118e-09,-3.8715968763142e-09,6.3509889694112e-09,-0.0013154333940634,0.0013154287951554,-0.0013154299884435,0.0013154322062087,-0.0013154302711519,0.0013154321273161,-0.0013154267685492,0.0013154356317888,-0.00118509207291,0.0011850873944422,-0.0011850817908828,0.0011850976904455,4.0727016857279e-09,-6.4425651624243e-09,-5.1320100569069e-10,-1.6170703155263e-09,-0.0011809874234024,0.0011809853271351,-0.0013154303131332,0.0013154320929532,-0.001315430711105,0.0013154316815677,-0.0013154336103409,0.0013154285883509,-0.0013154339129246,0.0013154282719882,-0.0011850920479022,0.0011850873775364,-0.0011850929781457,0.0011850864360103,-0.0011850860298451,0.0011850936151202,-0.0011850961071798,0.0011850831365808,4.8384273777766e-09,-4.9467088534989e-09,-0.00118098642561,0.0011809863249346,-6.8484180311183e-10,5.9908905629939e-10,-0.0013154297617865,0.0013154325332069,-0.001315429359732,0.0013154328996614,-0.0013154330839373,0.0013154292473238,-0.001315432587108,0.0013154297094158,-0.0011850942685592,0.0011850851600032,-0.0011850848489006,0.001185094594554,0.59302696483376,131329,3014,0.0049088915438202,0.004908891543782,0.0049088915437967,35.874517940888,4.6996143527108e-05,4.6996143527108e-05,4.6996143527108e-05,2496933.9729716,0.014836459993728
13219200,0.95272443622906,0.014845680176235,0.0049485600587726,0.0049485600587351,0.0049485600587276,-0.0011829881708623,0.0011829903863544,-4.0988961297721e-09,6.348200483774e-09,-4.0854795030526e-09,6.5785189614085e-09,-0.00131800347914,0.0013179986553308,-0.0013179999761329,0.0013180021640768,-0.0013180001547589,0.0013180021901603,-0.0013179966805666,0.0013180056661852,-0.0011870571129087,0.001187052692684,-0.0011870469342774,0.0011870628867308,3.9385436656557e-09,-6.3049238407612e-09,-5.3454060337208e-10,-1.5932767845772e-09,-0.0011829903255915,0.0011829882316069,-0.0013180003654702,0.0013180019864328,-0.0013180006850225,0.0013180016531087,-0.0013180035171079,0.0013179986272833,-0.0013180038678929,0.0013179982636617,-0.0011870570970627,0.0011870526675957,-0.0011870581803248,0.0011870515743887,-0.0011870512281364,0.0011870587554113,-0.0011870612313599,0.001187048354302,4.9807859364674e-09,-5.0919357773867e-09,-0.0011829893304249,0.0011829892267795,-6.456357781231e-10,5.5664634171871e-10,-0.0013179997071856,0.0013180025332107,-0.0013179992695045,0.0013180029360583,-0.0013180030603411,0.0013179992169451,-0.0013180026535368,0.0013179995891134,-0.001187059693771,0.0011870500763509,-0.0011870497919486,0.0011870599875485,0.59512403372925,131329,3014,0.004917197608321,0.0049171976082827,0.0049171976082954,35.335802944425,4.2686423555404e-05,4.2686423555404e-05,4.2686423555404e-05,2494494.9446604,0.014861755275398
13419200,0.9555485810617,0.014880224798735,0.0049600749329389,0.0049600749329016,0.0049600749328943,-0.0011846989698989,0.0011847011898228,-4.1895661773938e-09,6.4433370353588e-09,-4.1218315613457e-09,6.619738605706e-09,-0.0013202391070563,0.0013202341912454,-0.0013202355330992,0.0013202377708866,-0.0013202357483808,0.001320237760446,-0.0013202322209445,0.0013202412897097,-0.0011887228122716,0.0011887182681927,-0.0011887124789061,0.0011887286169122,3.9536931188447e-09,-6.3236042029639e-09,-5.6494764472852e-10,-1.5661750182477e-09,-0.0011847011285385,0.0011846990311569,-0.0013202359572577,0.0013202375584492,-0.0013202362488837,0.0013202372531937,-0.0013202391117287,0.0013202341964544,-0.0013202394522718,0.0013202338432218,-0.0011887227558883,0.0011887182839037,-0.0011887238102428,0.0011887172188563,-0.0011887168261704,0.0011887244328628,-0.0011887268923408,0.0011887139673931,5.0787092928585e-09,-5.1928621453319e-09,-0.0011847001331743,0.0011847000265232,-6.1721239532029e-10,5.2492626615701e-10,-0.0013202352519211,0.0013202381523544,-0.0013202348253927,0.0013202385439839,-0.0013202386624006,0.0013202347787805,-0.0013202382844647,0.001320235122084,-0.0011887254549155,0.0011887155923983,-0.0011887153287027,0.0011887257231049,0.58608287266702,131329,3014,0.0049242923797503,0.0049242923796954,0.0049242923797,34.796851129735,3.8374809037879e-05,3.8374809037879e-05,3.8374809037879e-05,2492910.0739044,0.014883362880468
13619200,0.95814584138216,0.014911572101646,0.004970524033909,0.0049705240338721,0.004970524033865,-0.0011863533698205,0.0011863555895417,-4.286625386831e-09,6.5401469428238e-09,-4.094834006926e-09,6.5922742403118e-09,-0.0013223698397655,0.0013223648732961,-0.0013223661982385,0.0013223685205012,-0.0013223664948767,0.0013223684285369,-0.001322362906209,0.0013223720190085,-0.0011903253186979,0.0011903205752531,-0.0011903148035931,0.0011903311055608,3.9438646863923e-09,-6.3138124240997e-09,-5.8342627619236e-10,-1.5478225835057e-09,-0.0011863555284093,0.0011863534309401,-0.0013223666759954,0.0013223682541988,-0.0013223669523557,0.001322367964405,-0.0013223698198505,0.0013223649030225,-0.0013223701513816,0.0013223645588107,-0.0011903251732902,0.0011903206802356,-0.0011903261995622,0.0011903196431226,-0.0011903192326343,0.001190326839871,-0.0011903292874333,0.0011903163860744,5.1730418798274e-09,-5.2893086866621e-09,-0.001186354534095,0.0011863544252572,-5.9990380761517e-10,5.0529911192957e-10,-0.0013223659239107,0.0013223688951573,-0.0013223655064142,0.001322369277432,-0.0013223693949182,0.0013223654607704,-0.0013223690326604,0.0013223657886713,-0.0011903279665834,0.001190317894761,-0.0011903176449322,0.0011903282199937,0.57889842805484,131329,3014,0.0049311530755476,0.0049311530755206,0.0049311530755267,34.356097527165,3.4848780217322e-05,3.4848780217322e-05,3.4848780217322e-05,2492920.9152215,0.014904257542308
13819200,0.96054875503333,0.01494056292085,0.0049801876403104,0.0049801876402734,0.0049801876402663,-0.0011879862682283,0.0011879884835808,-4.3923563140002e-09,6.6416111542794e-09,-4.0207123120576e-09,6.5131947304895e-09,-0.001324433920949,0.0013244289491759,-0.0013244302287844,0.00132443264702,-0.0013244306434947,0.0013244324365561,-0.0013244269681494,0.0013244361137203,-0.0011919113358569,0.0011919062769712,-0.0011919005601377,0.0011919170675676,3.9139954830206e-09,-6.280902934304e-09,-5.9134698931743e-10,-1.5372042778389e-09,-0.0011879884232675,0.0011879863285279,-0.0013244307581459,0.001324432328744,-0.001324431046514,0.0013244320270552,-0.0013244338979384,0.0013244289818709,-0.0013244342053965,0.0013244286617764,-0.0011919110582552,0.0011919065138484,-0.0011919120087743,0.0011919055524466,-0.0011919051472074,0.0011919126439591,-0.0011919150824562,0.0011919023096096,5.2611243061462e-09,-5.3786707041844e-09,-0.0011879874309754,0.0011879873208219,-5.9428113406046e-10,4.9831357639171e-10,-0.0013244299621019,0.0013244330139201,-0.0013244295668381,0.0013244333738157,-0.0013244335106287,0.0013244295018616,-0.0013244331346598,0.0013244298435325,-0.0011919138865871,0.0011919036928119,-0.0011919034494801,0.0011919141349618,0.57842147386794,131329,3014,0.0049379244434803,0.0049379244434516,0.0049379244434559,34.003800165053,3.2030401320421e-05,3.2030401320421e-05,3.2030401320421e-05,2493305.079036,0.01492488001028
14019200,0.96277416296787,0.014967414646104,0.004989138215395,0.0049891382153578,0.0049891382153508,-0.001189452007964,0.0011894542188216,-4.4901560259332e-09,6.73490613577e-09,-3.9657385777028e-09,6.4531527110261e-09,-0.0013262961219173,0.0013262911170828,-0.0013262923629487,0.0013262948817305,-0.0013262928792781,0.0013262945693127,-0.0013262891433999,0.0013262983069985,-0.0011933364320661,0.0011933311518153,-0.001193325477832,0.0011933421211655,3.8536980732913e-09,-6.215205334508e-09,-5.9192667927145e-10,-1.5318405862972e-09,-0.0011894541583551,0.0011894520684165,-0.0013262929636054,0.0013262944917667,-0.0013262932469155,0.0013262941952284,-0.0013262960584312,0.0013262911902641,-0.0013262963670588,0.0013262908689946,-0.0011933360192796,0.0011933315240163,-0.001193336972559,0.0011933305602983,-0.0011933301870564,0.0011933375748481,-0.0011933400069216,0.0011933273569948,5.357417767447e-09,-5.4759050123901e-09,-0.001189453168925,0.0011894530578495,-5.9138818543806e-10,4.9442701777047e-10,-0.0013262921150866,0.0013262952296845,-0.0013262917189002,0.0013262955904218,-0.0013262957249873,0.0013262916561543,-0.0013262953544635,0.0013262919924822,-0.0011933389727077,0.0011933285778827,-0.0011933283376491,0.0011933392180505,0.57820996384277,131329,3014,0.0049440026429495,0.0049440026429201,0.0049440026429263,33.653699892958,2.9229599143663e-05,2.9229599143663e-05,2.9229599143663e-05,2493246.8803392,0.014943391948606
14219200,0.96483705517861,0.014991359368017,0.0049971197893662,0.0049971197893288,0.0049971197893219,-0.0011907173358017,0.0011907195412815,-4.5904558964293e-09,6.8298332698112e-09,-3.9043803923297e-09,6.3857777493437e-09,-0.001327938281916,0.0013279332557896,-0.0013279344643852,0.001327937079012,-0.0013279350880491,0.0013279366588211,-0.0013279312807073,0.0013279404679723,-0.0011945424901847,0.0011945369504434,-0.0011945313244701,0.0011945481310816,3.801236785605e-09,-6.1572882121195e-09,-5.9050314127886e-10,-1.5283810625869e-09,-0.0011907194810292,0.0011907173960505,-0.0013279351258435,0.0013279366277896,-0.0013279354149547,0.0013279363254836,-0.0013279381903991,0.0013279333569667,-0.0013279384919095,0.0013279330428032,-0.0011945419379451,0.0011945374622309,-0.0011945428689928,0.0011945365206452,-0.001194536176678,0.0011945434416246,-0.0011945458683543,0.0011945333528005,5.4518493944492e-09,-5.5708488793319e-09,-0.0011907184943557,0.001190718382726,-5.9133063772551e-10,4.938395204534e-10,-0.0013279342296932,0.0013279374135717,-0.0013279338401756,0.0013279377676296,-0.0013279379092256,0.0013279337703717,-0.0013279375324859,0.001327934112927,-0.0011945449840722,0.0011945344233391,-0.0011945341838008,0.0011945452287263,0.55856305397973,131329,3014,0.0049492497850294,0.0049492497850219,0.0049492497850262,33.303683951682,2.6429471613459e-05,2.6429471613459e-05,2.6429471613459e-05,2494903.4994551,0.014959373722482
14419200,0.96671924728382,0.015013457579387,0.0050044858598234,0.0050044858597854,0.0050044858597786,-0.0011912402735233,0.001191242479856,-4.6788320831268e-09,6.919064930904e-09,-3.9242459813907e-09,6.4066322731347e-09,-0.0013287735066044,0.0013287684047843,-0.0013287696255727,0.0013287722914388,-0.0013287702956412,0.0013287718249234,-0.0013287664328599,0.0013287756894509,-0.0011949999215268,0.0011949942344682,-0.0011949885945534,0.0011950055768215,3.7896476425863e-09,-6.1448063772398e-09,-5.9944647428584e-10,-1.5186798277118e-09,-0.0011912424188444,0.0011912403345188,-0.0013287703212468,0.0013287718060095,-0.0013287706001167,0.0013287715140059,-0.0013287733743942,0.0013287685466926,-0.0013287736737019,0.0013287682347591,-0.0011949992945573,0.0011949948211133,-0.0011950002197619,0.0011949938857015,-0.0011949935368735,0.0011950007970175,-0.0011950032166708,0.0011949907201501,5.5544499614841e-09,-5.675163543767e-09,-0.0011912414333186,0.0011912413200412,-5.7927696639807e-10,4.7991481478478e-10,-0.0013287693806288,0.0013287726363048,-0.0013287689957204,0.0013287729858055,-0.0013287731248991,0.0013287689284025,-0.0013287727607829,0.001328769258295,-0.0011950024547751,0.0011949916687154,-0.0011949914388324,0.0011950026884835,0.56383117773194,131329,3014,0.0049514186812118,0.0049514186811781,0.0049514186811714,32.648261212454,2.1186089699632e-05,2.1186089699632e-05,2.1186089699632e-05,2496659.6226812,0.014965981193443
14619200,0.96842347772508,0.015033582151078,0.0050111940503867,0.005011194050349,0.0050111940503421,-0.001191283416102,0.0011912856236,-4.7911961961862e-09,7.0328779501121e-09,-3.9227823488684e-09,6.4066349862871e-09,-0.0013290900767122,0.0013290849027861,-0.0013290861235722,0.001329088861518,-0.0013290868672993,0.0013290883212165,-0.0013290829271188,0.0013290922631913,-0.0011949874109445,0.001194981494569,-0.0011949758534354,0.0011949930663266,3.8565902587673e-09,-6.2166444293608e-09,-6.1969269266104e-10,-1.5027536326358e-09,-0.0011912855641507,0.0011912834755324,-0.0013290868396782,0.0013290883557732,-0.0013290871093517,0.0013290880729495,-0.00132908994005,0.001329085048806,-0.0013290902249464,0.0013290847514882,-0.0011949867153438,0.0011949821489498,-0.0011949875965394,0.0011949812568706,-0.0011949808435968,0.001194988239826,-0.0011949906507368,0.0011949780333406,5.6329082949299e-09,-5.7550496795357e-09,-0.001191284577275,0.001191284462408,-5.6970582231937e-10,4.688157920876e-10,-0.0013290858838939,0.0013290892010768,-0.0013290855087718,0.0013290895409124,-0.0013290896843231,0.0013290854371213,-0.0013290893244204,0.0013290857624393,-0.0011949899063478,0.0011949789645076,-0.0011949787454593,0.0011949901324323,0.56645233117678,131329,3014,0.0049515983208326,0.004951598320793,0.0049515983207932,31.82402805141,1.4592224411277e-05,1.4592224411277e-05,1.4592224411277e-05,2495551.0198041,0.014966531341505
14819200,0.96996930598345,0.015051963034096,0.0050173210113928,0.0050173210113551,0.0050173210113481,-0.0011911772627421,0.00119117947367,-4.8648230488187e-09,7.1096151004919e-09,-3.9883553058361e-09,6.4758815162649e-09,-0.0013292263701557,0.0013292211071622,-0.0013292223677617,0.001329225115176,-0.0013292231191143,0.0013292245675058,-0.0013292191263667,0.0013292285620326,-0.0011948363504037,0.0011948303301334,-0.0011948246412395,0.0011948420546229,3.8458570207821e-09,-6.205483774609e-09,-6.2465840492012e-10,-1.4974401320328e-09,-0.0011911794123661,0.0011911773240264,-0.0013292230922972,0.0013292246008958,-0.0013292233601709,0.0013292243201105,-0.001329226188682,0.0013292212982562,-0.0013292264683606,0.0013292210061467,-0.0011948356076833,0.001194831032237,-0.0011948364738881,0.0011948301560649,-0.0011948297431222,0.0011948371153744,-0.0011948395235282,0.0011948269375485,5.7493792497046e-09,-5.8727179737912e-09,-0.0011911784261525,0.0011911783102403,-5.5693122701566e-10,4.5469942250947e-10,-0.001329222089497,0.0013292254934511,-0.0013292217246762,0.0013292258227116,-0.0013292259688068,0.0013292216505512,-0.0013292256162374,0.0013292219689082,-0.0011948389117365,0.0011948277362258,-0.0011948275249317,0.0011948391268591,0.56961684727668,131329,3014,0.0049511589274016,0.0049511589273607,0.0049511589273616,30.995568895408,7.9645511632673e-06,7.9645511632673e-06,7.9645511632673e-06,2492853.7674369,0.014965196283108
15019200,0.97135265788129,0.015068349848969,0.0050227832830172,0.0050227832829797,0.0050227832829727,-0.0011904048322534,0.0011904070467121,-4.9667291750095e-09,7.2149831039835e-09,-4.0473764565451e-09,6.5389555839837e-09,-0.0013286634609186,0.0013286580909402,-0.0013286593893197,0.0013286621681464,-0.0013286601683172,0.0013286615930169,-0.0013286561071877,0.0013286656559558,-0.0011940161175573,0.0011940099398323,-0.0011940042064059,0.0011940218664415,3.9311693392393e-09,-6.2966059629218e-09,-6.4546096950521e-10,-1.4816321428692e-09,-0.0011904069861784,0.0011904048927652,-0.0013286601093709,0.0013286616586002,-0.0013286603647578,0.0013286613903571,-0.0013286632633304,0.0013286582979839,-0.0013286635313948,0.001328658017685,-0.001194015345125,0.0011940106715867,-0.0011940161767539,0.0011940098301361,-0.0011940093405667,0.0011940168951817,-0.0011940192961338,0.0011940065414175,5.8373558537268e-09,-5.9619224773608e-09,-0.0011904059980326,0.0011904058809111,-5.4190063989566e-10,4.3827585826749e-10,-0.0013286590926169,0.0013286625649143,-0.0013286587379703,0.0013286628840717,-0.0013286630310131,0.0013286586631559,-0.0013286626892321,0.0013286589704209,-0.0011940186933395,0.0011940073317079,-0.0011940071318868,0.0011940188964948,0.56737759319207,131329,3014,0.0049479569749163,0.0049479569748705,0.0049479569748711,29.89276389779,-8.5788881768241e-07,-8.5788881768241e-07,-8.5788881768241e-07,2487364.3557731,0.014955449135855
15219200,0.97257227156082,0.015082133493736,0.0050273778312724,0.0050273778312351,0.0050273778312281,-0.0011888834928732,0.0011888857106358,-5.0939698991868e-09,7.3459714622614e-09,-4.1008604310582e-09,6.5968173368174e-09,-0.0013273160069505,0.0013273105212889,-0.0013273118557142,0.0013273146779572,-0.0013273126808391,0.0013273140570046,-0.001327308529241,0.0013273182103958,-0.001192425705519,0.0011924192976776,-0.0011924135237851,0.0011924314936223,4.0939707264666e-09,-6.4706099644726e-09,-6.8192148980518e-10,-1.4548311687369e-09,-0.0011888856533032,0.0011888835501844,-0.0013273125551949,0.0013273141897523,-0.0013273127952174,0.0013273139367511,-0.0013273158241778,0.0013273107128769,-0.0013273160661697,0.0013273104589327,-0.0011924249168502,0.0011924200441225,-0.0011924256699158,0.0011924192814062,-0.0011924186507876,0.0011924265310178,-0.001192428919427,0.0011924158610097,5.8998704835948e-09,-6.0256111793029e-09,-0.0011888846610197,0.0011888845424685,-5.2425348747464e-10,4.1925418374895e-10,-0.0013273115510638,0.0013273150829526,-0.0013273112144633,0.0013273153842444,-0.0013273155380901,0.0013273111326017,-0.0013273152030502,0.0013273114325172,-0.0011924282248115,0.001192416742091,-0.0011924165601459,0.0011924284166068,0.54391179989687,131329,3014,0.0049416497484321,0.0049416497483873,0.0049416497483887,28.487274175201,-1.2101806598394e-05,-1.2101806598394e-05,-1.2101806598394e-05,2480685.1021649,0.014936246498645
15419200,0.97364979872354,0.015096135279607,0.0050320450932295,0.0050320450931924,0.0050320450931854,-0.0011873028512915,0.0011873050773007,-5.1590453769992e-09,7.4163015491373e-09,-4.2231438810298e-09,6.7274255239446e-09,-0.0013258264929598,0.0013258208820616,-0.0013258222914542,0.0013258250880366,-0.0013258230791194,0.0013258245048675,-0.0013258188863237,0.0013258287000459,-0.0011908149940938,0.0011908085621621,-0.0011908026971497,0.0011908208766209,4.1251638972913e-09,-6.5034576027866e-09,-6.9425800030779e-10,-1.4437793767074e-09,-0.0011873050168313,0.00118730291184,-0.0013258229747086,0.0013258246162621,-0.0013258232023173,0.0013258243762494,-0.0013258262618068,0.0013258211217937,-0.0013258264989935,0.0013258208719664,-0.001190814212215,0.0011908093040826,-0.0011908149535425,0.001190808552706,-0.0011908078895116,0.0011908158452273,-0.0011908182291983,0.0011908051063835,6.0219532876372e-09,-6.1516773577735e-09,-0.0011873040242692,0.0011873039045086,-5.0158728929379e-10,3.9425585969529e-10,-0.0013258219283887,0.0013258255520481,-0.0013258216020869,0.0013258258422711,-0.0013258259938953,0.0013258215230255,-0.0013258256778294,0.0013258218039554,-0.0011908176405094,0.0011908058818664,-0.0011908057141938,0.0011908178117925,0.61487579695574,131329,3014,0.0049350964331243,0.0049350964332724,0.0049350964334779,27.074318669943,-2.3405450640456e-05,-2.3405450640456e-05,-2.3405450640456e-05,2471239.2789545,0.014916292898099
15619200,0.97462109359698,0.015109037343416,0.0050363457811779,0.0050363457811288,0.0050363457811096,-0.0011862114142041,0.0011862136552099,-5.0558210947831e-09,7.3268313686252e-09,-4.4618001693616e-09,6.981992054406e-09,-0.0013248903129905,0.0013248846053249,-0.0013248861576114,0.0013248887656405,-0.0013248867267256,0.0013248884019377,-0.0013248826091169,0.00132489252207,-0.0011897524884839,0.0011897464741338,-0.0011897404282869,0.0011897585515949,3.818397195961e-09,-6.1754680448079e-09,-6.4050881183664e-10,-1.4790070408793e-09,-0.0011862135779646,0.0011862114914913,-0.0013248868323881,0.001324888300694,-0.001324887074591,0.0013248880471818,-0.0013248899011072,0.0013248850284022,-0.0013248901811759,0.0013248847349047,-0.0011897517367614,0.0011897471893949,-0.0011897526066166,0.0011897463020644,-0.0011897458893049,0.0011897532518805,-0.0011897556470721,0.0011897430957783,6.3096365899333e-09,-6.4411639064523e-09,-0.0011862125953163,0.0011862124741958,-4.7649904128137e-10,3.6730616684285e-10,-0.0013248856054496,0.0013248894185567,-0.0013248852804019,0.0013248897065031,-0.0013248898452419,0.0013248852154898,-0.0013248895614364,0.0013248854667036,-0.0011897556647478,0.0011897432752404,-0.001189743113431,0.0011897558065386,0.62694796377358,131329,3014,0.0049305720205495,0.0049305720206201,0.0049305720207212,25.965184532249,-3.227852374201e-05,-3.227852374201e-05,-3.227852374201e-05,2455566.9465501,0.01490252028758
15819200,0.97553464922209,0.015122096047903,0.0050406986826875,0.0050406986826244,0.0050406986825911,-0.0011864014696473,0.0011864036895545,-5.2525347649625e-09,7.5032978572833e-09,-4.1168213621686e-09,6.6136491940275e-09,-0.0013252465750521,0.0013252409636762,-0.0013252423062896,0.0013252452370172,-0.0013252432262941,0.0013252445211084,-0.0013252389809925,0.0013252487686673,-0.0011900171980029,0.0011900105386278,-0.0011900047489978,0.0011900230038026,3.7576803357136e-09,-6.1102024634869e-09,-6.022186871449e-10,-1.5135829946115e-09,-0.0011864036209225,0.0011864015382586,-0.0013252431486789,0.0013252446045325,-0.0013252434228847,0.0013252443184796,-0.0013252461758189,0.0013252413728905,-0.0013252464735671,0.0013252410612383,-0.0011900160751103,0.0011900116266568,-0.001190016992185,0.0011900106888366,-0.0011900103604874,0.0011900175566002,-0.0011900199690378,0.0011900075439505,6.3173455829583e-09,-6.4447191032552e-09,-0.0011864026381543,0.0011864025210194,-5.4648886664025e-10,4.4221101466881e-10,-0.0013252419299927,0.0013252457141824,-0.0013252415646278,0.0013252460425319,-0.0013252461841723,0.0013252414954474,-0.0013252458453565,0.0013252418010818,-0.0011900200182544,0.0011900076915697,-0.0011900074824443,0.0011900202146487,0.66919699264923,131329,3014,0.0049313609423005,0.0049313609422402,0.0049313609422086,25.548471834992,-3.5612225320061e-05,-3.5612225320061e-05,-3.5612225320061e-05,2443261.1452064,0.014904925737311
16019200,0.97639542198511,0.015134365949606,0.0050447886499554,0.0050447886498587,0.0050447886497919,-0.0011865691747008,0.0011865713753686,-5.4439112466012e-09,7.6754852536648e-09,-3.7976161435513e-09,6.2723321116183e-09,-0.00132562093381,0.001325615409768,-0.0013256165546936,0.0013256197934903,-0.0013256178093599,0.0013256187412963,-0.0013256134366383,0.0013256231163888,-0.0011902742158584,0.0011902669341398,-0.0011902613846715,0.0011902797826004,3.6974702694071e-09,-6.0459111689021e-09,-5.6228702553572e-10,-1.5502176480451e-09,-0.0011865713146294,0.0011865692353608,-0.0013256175542842,0.0013256190029251,-0.0013256178628466,0.0013256186824374,-0.0013256205453037,0.0013256158077029,-0.0013256208602233,0.0013256154786489,-0.0011902727350539,0.001190268379294,-0.0011902737021099,0.0011902673946574,-0.0011902671515527,0.001190274177179,-0.001190276613486,0.0011902643152567,6.3298543308246e-09,-6.4530817106657e-09,-0.0011865703313793,0.0011865702185423,-6.1804491403447e-10,5.187212185699e-10,-0.001325616345639,0.0013256201028297,-0.0013256159397372,0.0013256204716896,-0.001325620617576,0.0013256158661162,-0.0013256202208964,0.0013256162291527,-0.0011902766932332,0.0011902644264653,-0.0011902641677958,0.0011902769473456,0.66742792066829,131329,3014,0.0049320574454362,0.0049320574452538,0.0049320574450943,25.148663236764,-3.8810694105889e-05,-3.8810694105889e-05,-3.8810694105889e-05,2429710.5802404,0.014907051392782
16219200,0.97720708625558,0.015145880925246,0.0050486269751985,0.0050486269750722,0.0050486269749757,-0.0011866796410275,0.0011866818377427,-5.4934429710881e-09,7.7211399145933e-09,-3.7248613293374e-09,6.1948855206173e-09,-0.0013259239564226,0.0013259184395701,-0.0013259195373116,0.001325922863365,-0.0013259208751442,0.0013259217276415,-0.0013259164780238,0.0013259261271079,-0.0011904639952553,0.0011904565895277,-0.0011904510948444,0.0011904695072927,3.435108725396e-09,-5.7650564373508e-09,-4.8450736646434e-10,-1.6120351001507e-09,-0.0011866817709902,0.0011866797076783,-0.001325920643033,0.0013259219659007,-0.0013259209899777,0.0013259216070164,-0.0013259234472251,0.001325918958938,-0.0013259238159064,0.0013259185755847,-0.0011904622747358,0.0011904582750967,-0.0011904634014839,0.0011904571300937,-0.0011904571391918,0.0011904636233355,-0.001190466090373,0.0011904542745006,6.4754505881942e-09,-6.5966941171111e-09,-0.001186680794631,0.0011866806839477,-6.5644083830064e-10,5.5953757242301e-10,-0.0013259193400355,0.0013259231608427,-0.0013259188994698,0.0013259235640616,-0.0013259236998834,0.0013259188356728,-0.0013259232847966,0.0013259192180344,-0.0011904665502513,0.0011904540049338,-0.0011904537168621,0.0011904668321891,0.66425604523836,131329,3014,0.0049325165513089,0.0049325165510788,0.004932516550874,24.749497069651,-4.2004023442791e-05,-4.2004023442791e-05,-4.2004023442791e-05,2418584.1947194,0.014908453694239
16419200,0.97797579110595,0.015155615096284,0.0050518716988973,0.0050518716987514,0.0050518716986353,-0.0011868042797908,0.0011868064671596,-5.6112877794807e-09,7.8296378601143e-09,-3.5706379334621e-09,6.0298497549349e-09,-0.0013262425361767,0.0013262370425939,-0.0013262380436936,0.0013262415397183,-0.0013262395621046,0.0013262402227232,-0.0013262350880112,0.0013262446991762,-0.0011906310391864,0.001190623291187,-0.0011906179116239,0.0011906364360194,3.3374598277514e-09,-5.6609168027819e-09,-4.3353702543953e-10,-1.6575594641517e-09,-0.0011868064022861,0.0011868043445093,-0.0013262392484046,0.0013262405428774,-0.0013262396291153,0.00132624014988,-0.001326241986857,0.0013262376019627,-0.0013262423857764,0.0013262371882176,-0.0011906290668441,0.0011906252294613,-0.0011906302819614,0.0011906239946277,-0.001190624126537,0.0011906303814358,-0.0011906328747096,0.0011906212355564,6.5560910786237e-09,-6.6741778762708e-09,-0.0011868054270555,0.0011868053195975,-7.1060131067656e-10,6.1747034761649e-10,-0.0013262379209097,0.0013262417623043,-0.0013262374448881,0.0013262422012516,-0.001326242335662,0.0013262373822883,-0.0013262418812366,0.00132623780375,-0.001190633477745,0.0011906208235546,-0.0011906204943693,0.0011906337994725,0.59981697516511,131329,3014,0.0049330342460168,0.0049330342456751,0.0049330342453605,24.411998642147,-4.4704010862823e-05,-4.4704010862823e-05,-4.4704010862823e-05,2412041.7801173,0.014910034257995
16619200,0.97870786708245,0.015166675865516,0.0050555586220062,0.0050555586218287,0.005055558621681,-0.0011871293473265,0.0011871315276676,-5.7273634489192e-09,7.938564280487e-09,-3.464644140088e-09,5.9156904372473e-09,-0.0013266652326225,0.0013266597329032,-0.0013266606680333,0.0013266643021608,-0.001326662333775,0.0013266628371716,-0.0013266577821999,0.0013266673911801,-0.0011910052999546,0.001190997243194,-0.0011909919443854,0.0011910106166377,3.2827218623269e-09,-5.6017669601697e-09,-3.8806448906995e-10,-1.6992788658773e-09,-0.001187131464394,0.0011871294104015,-0.0013266619430727,0.0013266632345857,-0.0013266623554237,0.001326662809789,-0.0013266646460991,0.0013266603294438,-0.001326665071227,0.0013266598892671,-0.001191003114141,0.0011909993952583,-0.0011910044065792,0.0011909980834532,-0.0011909983054352,0.0011910044146727,-0.0011910069337631,0.0011909953903045,6.6373162495446e-09,-6.7524403918164e-09,-0.0011871304894571,0.0011871303851533,-7.6126781108504e-10,6.7171856690004e-10,-0.0013266606020691,0.0013266644676498,-0.0013266600937296,0.0013266649389051,-0.0013266650728934,0.0013266600314864,-0.0013266645807159,0.0013266604906196,-0.0011910076389132,0.0011909948747222,-0.0011909945080074,0.0011910079993545,0.70235631674487,131329,3014,0.0049343825064,0.0049343825059669,0.004934382505563,24.158111942369,-4.6735104461045e-05,-4.6735104461045e-05,-4.6735104461045e-05,2408428.6832247,0.014914140175577
16819200,0.97940545669021,0.015177262928145,0.0050590876429129,0.0050590876427049,0.0050590876425268,-0.001187424737949,0.0011874269167742,-5.8258697417373e-09,8.0355419241806e-09,-3.4296042036516e-09,5.878831341032e-09,-0.0013271552326412,0.0013271496899903,-0.0013271506028804,0.0013271543244055,-0.0013271523572825,0.0013271527706033,-0.0013271477408101,0.0013271573895097,-0.0011914016812878,0.0011913934077856,-0.0011913881346701,0.0011914069723896,3.2496563893357e-09,-5.5669180133583e-09,-3.4587708943269e-10,-1.7400198753673e-09,-0.0011874268535051,0.0011874248009596,-0.0013271519186285,0.001327153216082,-0.0013271523583334,0.0013271527637462,-0.0013271545987185,0.0013271503339766,-0.0013271550514686,0.001327149865999,-0.0011913993344903,0.0011913957209747,-0.0011914007082291,0.0011913943277074,-0.0011913946246961,0.0011914006410035,-0.0011914031863964,0.001191391683759,6.7327801094833e-09,-6.8460195949771e-09,-0.0011874258782839,0.001187425775936,-7.9864181918769e-10,7.1139599666415e-10,-0.0013271505609659,0.0013271544657875,-0.0013271500267528,0.0013271549629255,-0.001327155094832,0.0013271499665154,-0.0013271545770454,0.0013271504512607,-0.0011914039905246,0.0011913910684747,-0.0011913906746403,0.0011914043789247,0.7057157149673,131329,3014,0.0049356084148707,0.004935608414313,0.0049356084137845,23.906271635853,-4.8749826913179e-05,-4.8749826913179e-05,-4.8749826913179e-05,2397384.2761419,0.01491787764685
17019200,0.98007048106354,0.015187148903052,0.0050623829679089,0.005062382967674,0.0050623829674688,-0.0011876689161084,0.0011876710938019,-5.9319618282851e-09,8.1404425678321e-09,-3.405228125677e-09,5.8530754997377e-09,-0.0013275896272345,0.0013275840319208,-0.0013275849292288,0.0013275887346011,-0.0013275867705433,0.0013275870936401,-0.0013275820816436,0.0013275917850676,-0.001191737188306,0.001191728684009,-0.0011917234289898,0.0011917424614195,3.2544017799576e-09,-5.5725157246058e-09,-3.1540773931659e-10,-1.7713163209949e-09,-0.001187671031494,0.0011876689781121,-0.0013275862742818,0.0013275875969306,-0.0013275867365639,0.001327587121903,-0.0013275889598779,0.0013275847092521,-0.0013275894310053,0.0013275842228277,-0.0011917347014033,0.0011917311375456,-0.001191736129201,0.001191729689921,-0.0011917300250588,0.0011917360237101,-0.0011917385907247,0.0011917270627947,6.8205235312762e-09,-6.9317996745134e-09,-0.0011876700548114,0.0011876699544948,-8.3638029492081e-10,7.515156051553e-10,-0.0013275849112291,0.0013275888519787,-0.001327584353095,0.001327589373032,-0.0013275895050843,0.0013275842927293,-0.0013275889590737,0.0013275848055305,-0.0011917394499069,0.0011917263921254,-0.0011917259704137,0.00119173986646,0.69245975724446,131329,3014,0.004936621937647,0.004936621936994,0.0049366219363508,23.65450906066,-5.0763927514719e-05,-5.0763927514719e-05,-5.0763927514719e-05,2388344.9713319,0.014920968194103
17219200,0.98068947205567,0.015196092805805,0.0050653642688498,0.0050653642685918,0.0050653642683635,-0.001187085737414,0.0011870879346733,-5.886432183008e-09,8.1138523606153e-09,-3.7047152015524e-09,6.1743099462458e-09,-0.0013271629296888,0.0013271571938884,-0.0013271582769543,0.0013271618515321,-0.001327159890093,0.0013271604401032,-0.0013271552027399,0.0013271651301564,-0.0011912120060603,0.0011912037362438,-0.0011911982533356,0.0011912175079328,3.1919820417936e-09,-5.5050618863514e-09,-2.9845711397285e-10,-1.7837181181553e-09,-0.0011870878603326,0.0011870858113849,-0.0013271595095512,0.0013271608258515,-0.0013271600036308,0.0013271603198112,-0.0013271621759131,0.0013271579594884,-0.0013271626345757,0.0013271574851803,-0.0011912096299822,0.0011912060789762,-0.0011912110216049,0.0011912046663835,-0.0011912050580103,0.0011912108600233,-0.0011912134335055,0.0011912020913832,7.0482372614839e-09,-7.1605245571253e-09,-0.0011870868862057,0.0011870867851617,-8.2399547888609e-10,7.380595146708e-10,-0.0013271580529964,0.0013271621749996,-0.0013271575248309,0.0013271626655338,-0.0013271628204518,0.001327157442733,-0.0013271622617691,0.0013271579697561,-0.0011912145832322,0.0011912011336484,-0.0011912007162421,0.0011912149853853,0.67475986954896,131329,3014,0.0049342049011642,0.0049342049003741,0.0049342048996264,22.994940117536,-5.6040479059711e-05,-5.6040479059711e-05,-5.6040479059711e-05,2378989.1050832,0.014913612299987
17419200,0.98125439181426,0.01520389268572,0.0050679642288396,0.0050679642285636,0.0050679642283172,-0.0011857848551879,0.0011857870705232,-5.8393822597626e-09,8.0876512706876e-09,-4.0355047382768e-09,6.5274908999278e-09,-0.0013259783713181,0.0013259724789114,-0.0013259737708526,0.0013259770845383,-0.0013259751360202,0.0013259759232104,-0.0013259704421507,0.0013259806187744,-0.0011899350918576,0.0011899270487387,-0.0011899213192026,0.0011899408366929,3.2638499552251e-09,-5.5824574323567e-09,-3.1053874268472e-10,-1.7763194051089e-09,-0.0011857869892278,0.001185784935949,-0.0013259748385182,0.0013259762255632,-0.0013259753555947,0.0013259756963182,-0.0013259775848683,0.0013259732776367,-0.0013259780083086,0.0013259728381734,-0.0011899329094548,0.0011899291997257,-0.0011899341923826,0.0011899278896817,-0.0011899282275547,0.0011899340941434,-0.0011899366592226,0.0011899252570768,7.2770075795901e-09,-7.3902711377014e-09,-0.0011857860145492,0.0011857859101119,-7.8130777876014e-10,6.9239356964584e-10,-0.001325973313656,0.0013259776428327,-0.0013259728446472,0.0013259780739201,-0.0013259782603783,0.0013259727295517,-0.0013259777034276,0.0013259732560175,-0.0011899379785015,0.0011899241370328,-0.0011899237515666,0.0011899383476509,0.64747797847347,131329,3014,0.0049288118548948,0.0049288118537757,0.0049288118526964,21.99200408152,-6.406396734784e-05,-6.406396734784e-05,-6.406396734784e-05,2369433.4610977,0.014897194063592
17619200,0.98177037361312,0.01521073237254,0.0050702441244508,0.00507024412417,0.0050702441239189,-0.0011844054784408,0.001184407701221,-5.9428543789369e-09,8.1983293551364e-09,-4.1696660213299e-09,6.6701910503597e-09,-0.0013246760788767,0.0013246700415558,-0.0013246714184987,0.0013246747073636,-0.0013246727625854,0.0013246735674374,-0.0013246679860676,0.0013246783457952,-0.0011885547222876,0.0011885465358079,-0.0011885407054238,0.0011885605678715,3.5022491007121e-09,-5.837821729763e-09,-3.5093289076911e-10,-1.7505660634519e-09,-0.0011844076236194,0.0011844055555349,-0.001324672404376,0.001324673930212,-0.001324672911007,0.0013246734120309,-0.0013246753259764,0.0013246708068889,-0.0013246757160284,0.0013246704008818,-0.0011885526078358,0.0011885486198613,-0.0011885537899209,0.0011885474074386,-0.0011885475581242,0.0011885538830398,-0.0011885564397365,0.0011885445918682,7.3614915233695e-09,-7.4763909292127e-09,-0.0011844066423936,0.0011844065362721,-7.5139559961551e-10,6.6052935286991e-10,-0.0013246709052607,0.0013246753217012,-0.0013246704679619,0.0013246757207015,-0.0013246759203998,0.0013246703405158,-0.0013246753726195,0.0013246708577039,-0.001188557615887,0.0011885436199267,-0.0011885432535919,0.0011885579601441,0.62390233428818,131329,3014,0.0049230930293866,0.004923093028325,0.004923093027304,20.980623830367,-7.2155009357062e-05,-7.2155009357062e-05,-7.2155009357062e-05,2362286.6255782,0.014879782890659
17819200,0.98224286156538,0.01521676931179,0.0050722564375371,0.0050722564372533,0.0050722564369991,-0.0011830156685457,0.0011830178868025,-6.2646477370766e-09,8.5155135757879e-09,-4.1043205345897e-09,6.5997505248576e-09,-0.0013233334372052,0.001323327166038,-0.0013233285058627,0.0013233321027225,-0.0013233301007697,0.0013233307114649,-0.0013233251762961,0.0013233356378957,-0.0011871436595629,0.0011871349812376,-0.0011871292004126,0.0011871494561714,3.8595141986217e-09,-6.2203702503153e-09,-4.2118341432009e-10,-1.7022578520065e-09,-0.0011830178224454,0.0011830157324227,-0.001323329585708,0.0013233312323099,-0.0013233299918812,0.0013233308145046,-0.0013233326875679,0.0013233279266281,-0.0013233331003916,0.0013233274984385,-0.0011871413974394,0.0011871372106038,-0.0011871426512158,0.0011871359317035,-0.001187135783927,0.0011871430393939,-0.0011871455804355,0.0011871328345498,7.2342440067526e-09,-7.3493084872587e-09,-0.0011830168303937,0.0011830167240108,-7.4433465823418e-10,6.5311299534631e-10,-0.0013233282155267,0.0013233324942436,-0.0013233277220605,0.0013233329493166,-0.0013233330879591,0.0013233276558721,-0.0013233326063003,0.0013233281056093,-0.0011871462751685,0.001187132340042,-0.0011871319826669,0.0011871466183281,0.60341628240222,131329,3014,0.0049173306671741,0.0049173306661695,0.0049173306652001,19.990908878382,-8.0072728972941e-05,-8.0072728972941e-05,-8.0072728972941e-05,2357323.9194459,0.01486223848337
18019200,0.98267649772783,0.01522230558156,0.0050741018607966,0.0050741018605101,0.0050741018602531,-0.001181625437866,0.0011816276581184,-6.4363422356334e-09,8.6892003707755e-09,-4.1338925110096e-09,6.6316804351855e-09,-0.0013219625175713,0.0013219560810343,-0.0013219574406559,0.0013219611632716,-0.0013219591275816,0.0013219596800739,-0.001321954121237,0.0013219646884168,-0.0011857207194111,0.0011857118217169,-0.0011857060183994,0.0011857265388452,4.0231416672842e-09,-6.3952655708061e-09,-4.6726145450399e-10,-1.6658980198252e-09,-0.0011816275976468,0.0011816254978662,-0.0013219585622309,0.0013219602516202,-0.0013219589092755,0.0013219598928213,-0.0013219617431496,0.0013219568658097,-0.0013219621608274,0.0013219564332623,-0.0011857183998192,0.0011857141063759,-0.0011857196714436,0.0011857128139883,-0.0011857125103176,0.0011857202120933,-0.001185722737348,0.0011857095792765,7.2532424674215e-09,-7.369581429699e-09,-0.0011816266014083,0.0011816264936445,-7.2115494203507e-10,6.2835518288637e-10,-0.0013219572144673,0.0013219614906693,-0.0013219567054343,0.001321961961454,-0.0013219620697028,0.001321956669806,-0.0013219616357525,0.0013219570711875,-0.0011857233003118,0.0011857092131887,-0.0011857088754609,0.0011857236283953,0.602657032504,131329,3014,0.004911566367267,0.0049115663662808,0.0049115663653189,19.019506940734,-8.7843944474129e-05,-8.7843944474129e-05,-8.7843944474129e-05,2353647.8601164,0.014844687635027
18219200,0.98307489649981,0.015227496111666,0.0050758320375013,0.0050758320372122,0.0050758320369527,-0.0011802102342928,0.0011802124599223,-6.4989647173831e-09,8.7572467000069e-09,-4.2231253634778e-09,6.7271639278774e-09,-0.0013205583288526,0.0013205517996196,-0.0013205532139869,0.0013205569197417,-0.0013205548861772,0.0013205554517544,-0.0013205498275717,0.0013205605123386,-0.0011842756826819,0.0011842667002222,-0.0011842608305795,0.0011842815681511,4.0609167640385e-09,-6.4358417681319e-09,-4.9661683419753e-10,-1.6389016106872e-09,-0.001180212397949,0.0011802102958041,-0.0013205543205516,0.0013205560234666,-0.0013205546558332,0.0013205556763543,-0.0013205575359807,0.0013205526027945,-0.0013205579277473,0.0013205521964513,-0.0011842733742279,0.0011842689734232,-0.0011842745675535,0.0011842677594364,-0.0011842673962812,0.0011842751680464,-0.0011842776767706,0.001184264481304,7.3792768585691e-09,-7.4975271513979e-09,-0.0011802114015481,0.001180211291751,-6.872739497526e-10,5.9217897145656e-10,-0.0013205529236692,0.0013205573113903,-0.0013205524451128,0.00132055775184,-0.0013205578693133,0.0013205524003546,-0.0013205574513837,0.0013205527856126,-0.001184278346716,0.0011842640085611,-0.0011842636960387,0.0011842786493539,0.61338751085949,131329,3014,0.0049056984895732,0.0049056984886067,0.004905698487658,18.048554243973,-9.5611566048215e-05,-9.5611566048215e-05,-9.5611566048215e-05,2349378.3434424,0.014826821743841
18419200,0.98345054503056,0.015232427867304,0.0050774759560494,0.005077475955758,0.0050774759554962,-0.001179522229337,0.0011795244516862,-6.5604778666692e-09,8.8156103936244e-09,-4.1718428384179e-09,6.6721478236404e-09,-0.0013198988373209,0.001319892330475,-0.0013198937115702,0.0013198974614998,-0.0013198954615085,0.001319895915558,-0.0013198903310965,0.0013199010479439,-0.0011835769091153,0.001183567677026,-0.0011835618465105,0.0011835827551252,3.9681458497402e-09,-6.3366197395284e-09,-4.9710099676377e-10,-1.6328387828364e-09,-0.001179524388533,0.0011795222920331,-0.0013198948546195,0.0013198965284413,-0.001319895218031,0.0013198961531684,-0.0013198980378955,0.0013198931403009,-0.0013198983969265,0.001319892766751,-0.001183574491106,0.0011835700600905,-0.0011835755847011,0.0011835689450225,-0.0011835686345761,0.0011835761330227,-0.00118357863347,0.0011835657276775,7.5114750475934e-09,-7.6303314588469e-09,-0.0011795233953018,0.0011795232848182,-6.765819556798e-10,5.8073670392174e-10,-0.0013198933812551,0.0013198978929576,-0.0013198929404984,0.0013198982957737,-0.0013198984443224,0.0013198928645472,-0.0013198980032428,0.0013198932730419,-0.0011835795356423,0.0011835650229101,-0.0011835647183607,0.0011835798301929,0.61738402985927,131329,3014,0.0049028458811208,0.004902845880165,0.0049028458792331,17.475791548389,-0.00010019366761289,-0.00010019366761289,-0.00010019366761289,2346710.4614079,0.014818136790451
18619200,0.98381235224464,0.01523713109069,0.0050790436971801,0.0050790436968866,0.0050790436966228,-0.0011794347597984,0.0011794369761947,-6.6012040625119e-09,8.8504673832967e-09,-4.0733501784187e-09,6.5666658033378e-09,-0.001319855180024,0.0013198487368856,-0.0013198500543959,0.0013198538678536,-0.001319851899927,0.0013198522258987,-0.0013198467165869,0.0013198574111637,-0.0011834870779137,0.0011834776182458,-0.0011834718619006,0.0011834928501495,3.7393086655492e-09,-6.0917270166749e-09,-4.7313302410445e-10,-1.64296844658e-09,-0.0011794369090488,0.0011794348264918,-0.0013198512811967,0.0013198528502296,-0.0013198516823959,0.0013198524372592,-0.0013198543353672,0.0013198495924144,-0.0013198546790564,0.0013198492340218,-0.0011834844843836,0.0011834801780988,-0.0011834855310146,0.0011834791088331,-0.0011834789606633,0.0011834859168727,-0.001183488414496,0.0011834760578811,7.6662330901944e-09,-7.7846147774798e-09,-0.0011794359225495,0.0011794358125516,-6.836903943454e-10,5.8835600112803e-10,-0.0013198496938179,0.0013198543293206,-0.0013198492745516,0.0013198547106368,-0.0013198548850665,0.0013198491725089,-0.001319854412773,0.0013198496127857,-0.0011834897002812,0.0011834749702059,-0.0011834746584164,0.0011834899989511,0.61178639966853,131329,3014,0.0049024833306338,0.0049024833296878,0.0049024833287699,17.230793287084,-0.00010215365370333,-0.00010215365370333,-0.00010215365370333,2346305.4070581,0.014817033296051
18819200,0.98416110977645,0.015241976475791,0.0050806588255492,0.0050806588252537,0.0050806588249879,-0.0011793656203827,0.0011793678239538,-6.7484650640835e-09,8.9851090383806e-09,-3.865041216938e-09,6.3436585564679e-09,-0.0013198218431064,0.0013198154160328,-0.0013198166034651,0.0013198206610606,-0.0013198186843551,0.0013198187827267,-0.0013198134287045,0.0013198240403245,-0.0011834191791423,0.0011834093499127,-0.0011834037496187,0.0011834247950447,3.6296925904159e-09,-5.9742707397805e-09,-4.6139693837095e-10,-1.6480447329277e-09,-0.0011793677598419,0.0011793656840473,-0.0013198179945436,0.0013198194785197,-0.0013198183804482,0.0013198190806385,-0.0013198209515376,0.0013198163181694,-0.0013198213218312,0.001319815933331,-0.0011834163193037,0.0011834121758045,-0.00118341744614,0.0011834110267388,-0.0011834109553774,0.0011834177544434,-0.001183420251042,0.0011834080546107,7.7180810857443e-09,-7.8354904098524e-09,-0.0011793667762622,0.0011793666671945,-6.9951501909045e-10,6.0527255736826e-10,-0.0013198163625672,0.0013198210023267,-0.0013198159117435,0.0013198214154869,-0.0013198215680113,0.0013198158313698,-0.0013198211055751,0.0013198162614757,-0.0011834216919746,0.0011834068102819,-0.0011834064880914,0.0011834220035431,0.64922936775812,131329,3014,0.0049021967395478,0.0049021967386127,0.0049021967377096,16.993834009662,-0.0001040493279227,-0.0001040493279227,-0.0001040493279227,2345849.9887653,0.014816160816299
19019200,0.98449739139883,0.015246951309409,0.0050823171034241,0.0050823171031266,0.0050823171028588,-0.0011792984715085,0.0011793006662358,-6.8531039277321e-09,9.0810549311818e-09,-3.7176728962332e-09,6.186084366663e-09,-0.001319822662658,0.0013198162592095,-0.0013198173538121,0.0013198215734548,-0.0013198196026807,0.00131981952645,-0.001319814282604,0.0013198248484758,-0.0011833817383297,0.0011833716098424,-0.0011833661198577,0.0011833872438756,3.4912128142455e-09,-5.8261435939852e-09,-4.4595841714964e-10,-1.6552440476302e-09,-0.0011793006023692,0.0011792985349378,-0.0013198188666213,0.0013198202685531,-0.0013198192576351,0.0013198198654971,-0.0013198217261303,0.0013198172062989,-0.0013198221063326,0.0013198168115185,-0.0011833786621534,0.0011833746521478,-0.0011833798188124,0.0011833734735131,-0.0011833735010585,0.0011833800271892,-0.0011833825232417,0.0011833706024071,7.8104735860992e-09,-7.9271346714184e-09,-0.0011792996226232,0.0011792995142578,-7.1114112377387e-10,6.1772534306185e-10,-0.0013198171679369,0.001319821859357,-0.0013198167067513,0.0013198222829846,-0.0013198224323289,0.0013198166293594,-0.0013198219642922,0.0013198170651258,-0.0011833841909068,0.0011833691302722,-0.0011833687997212,0.0011833845116428,0.68719100891453,131329,3014,0.0049019186959525,0.0049019186950386,0.004901918694149,16.757179162105,-0.00010594256670316,-0.00010594256670316,-0.00010594256670316,2341752.6940837,0.014815315805229
19219200,0.98483216026445,0.015252059285447,0.005084019762105,0.0050840197618056,0.0050840197615359,-0.0011801719215059,0.0011801741072905,-6.9284042375946e-09,9.1475281131188e-09,-3.5575605820839e-09,6.0154885425425e-09,-0.0013208111655715,0.0013208048208884,-0.0013208058138391,0.0013208101781017,-0.0013208082201537,0.0013208079729614,-0.0013208028481561,0.0013208133469126,-0.0011843220520102,0.0011843116525979,-0.0011843062815674,0.0011843274386316,3.2680518620091e-09,-5.5878555676312e-09,-4.0246914849589e-10,-1.6857972966316e-09,-0.0011801740413548,0.0011801719870089,-0.0013208074542223,0.001320808744755,-0.0013208078742885,0.0013208083125398,-0.0013208101654491,0.0013208058319337,-0.0013208105656823,0.0013208054169615,-0.0011843187273777,0.0011843149436889,-0.0011843199435661,0.0011843137053146,-0.0011843139172966,0.0011843199664585,-0.0011843224744487,0.0011843110089496,7.9329187990114e-09,-8.0476354256148e-09,-0.0011801730671868,0.0011801729607571,-7.4429327082207e-10,6.5311956302802e-10,-0.0013208056678711,0.001320810423632,-0.0013208051883674,0.0013208108657179,-0.0013208110175554,0.0013208051083033,-0.0013208105223121,0.0013208055716318,-0.0011843244693339,0.0011843092087937,-0.0011843088531149,0.0011843248146229,0.70677987751083,131329,3014,0.0049055409728924,0.0049055409719882,0.0049055409711119,17.022325442688,-0.00010382139645849,-0.00010382139645849,-0.00010382139645849,2338711.1109051,0.014826346891837
19419200,0.98517057777716,0.015257108382328,0.0050857027944009,0.0050857027940996,0.005085702793828,-0.0011815085925946,0.0011815107549971,-7.215234770354e-09,9.4113078830044e-09,-3.1769726280787e-09,5.6082427833267e-09,-0.0013222931513946,0.0013222868195359,-0.0013222875740129,0.0013222924023891,-0.0013222904242021,0.0013222897514763,-0.001322284911579,0.001322295265992,-0.001185735600206,0.0011857245003472,-0.0011857194164365,0.0011857406995612,3.3027943421086e-09,-5.6268061878415e-09,-3.7034284820897e-10,-1.7219626607787e-09,-0.001181510702735,0.0011815086444394,-0.0013222894462308,0.0013222907369832,-0.0013222898462127,0.0013222903241875,-0.0013222921382726,0.0013222878421097,-0.0013222926038937,0.0013222873619251,-0.0011857318441041,0.0011857282228933,-0.0011857332528817,0.0011857267929987,-0.0011857270303398,0.0011857332493167,-0.001185735783667,0.0011857240952511,7.8514552209031e-09,-7.9633056690663e-09,-0.0011815097252012,0.0011815096215667,-7.9477104467249e-10,7.0693702770612e-10,-0.0013222877245363,0.0013222923508558,-0.0013222871679547,0.0013222928703931,-0.0013222929767339,0.0013222871327687,-0.001322292488554,0.0013222875875917,-0.0011857376287097,0.0011857224421954,-0.0011857220524171,0.001185738015095,0.69264757878244,131329,3014,0.0049110839702287,0.0049110839693569,0.0049110839685087,17.538768713552,-9.9689850291584e-05,-9.9689850291584e-05,-9.9689850291584e-05,2337872.7533942,0.014843226670099
19619200,0.98551251786672,0.015262077363883,0.0050873591215874,0.0050873591212844,0.0050873591210111,-0.0011828500135658,0.0011828521765327,-7.2450055164076e-09,9.4416448990529e-09,-3.1579999948561e-09,5.5895365240842e-09,-0.0013237677148411,0.0013237613918217,-0.0013237621328743,0.0013237669793713,-0.0013237650158357,0.0013237642956641,-0.0013237594676386,0.0013237698458113,-0.001187138685157,0.0011871274712835,-0.001187122399639,0.0011871437725013,3.1163117807579e-09,-5.4271665385781e-09,-3.2555298705949e-10,-1.7553957463939e-09,-0.0011828521182677,0.0011828500714171,-0.0013237640516967,0.0013237652667754,-0.0013237644931276,0.0013237648124852,-0.0013237666314201,0.0013237624854338,-0.0013237671074986,0.0013237619946839,-0.0011871347856481,0.0011871313361187,-0.0011871362277971,0.0011871298750968,-0.0011871302769892,0.0011871360562922,-0.0011871386071928,0.001187127330422,8.0147069809091e-09,-8.1247556841144e-09,-0.0011828511455523,0.0011828510437309,-8.2669148831897e-10,7.4094372697186e-10,-0.0013237622405867,0.0013237669703541,-0.0013237616775027,0.0013237674964744,-0.0013237676165099,0.0013237616287306,-0.001323767091158,0.0013237621213898,-0.0011871407821351,0.001187125344555,-0.0011871249311641,0.0011871411926496,0.67638953691633,131329,3014,0.0049166465396377,0.0049166465387737,0.0049166465379359,18.061440104008,-9.5508479167934e-05,-9.5508479167934e-05,-9.5508479167934e-05,2339242.4840972,0.014860165548192
19819200,0.98585770848286,0.015266940614014,0.0050889802049661,0.0050889802046615,0.0050889802043867,-0.0011841846127835,0.0011841867766596,-7.2798676708045e-09,9.4774622342108e-09,-3.1619282544976e-09,5.5943359193484e-09,-0.0013252206300878,0.0013252142966597,-0.0013252150389768,0.0013252198934605,-0.0013252179439421,0.0013252171877237,-0.0013252123565966,0.0013252227770619,-0.0011885200794242,0.0011885087558495,-0.0011885036804321,0.001188525170467,2.9851349871059e-09,-5.28695256539e-09,-2.8764292217217e-10,-1.7855248803763e-09,-0.0011841867140244,0.0011841846750258,-0.001325216983694,0.0013252181545486,-0.0013252174627311,0.0013252176627077,-0.0013252194892945,0.0013252154481986,-0.0013252199728466,0.0013252149497234,-0.0011885160646002,0.0011885127359123,-0.0011885175297682,0.0011885112522895,-0.0011885117782537,0.0011885172329461,-0.0011885197994378,0.001188508818395,8.1725595637976e-09,-8.2810404789565e-09,-0.0011841857444673,0.0011841856441934,-8.5437946929368e-10,7.7044958714691e-10,-0.0013252150999142,0.0013252199311349,-0.0013252145326557,0.0013252204613323,-0.0013252205948372,0.0013252144703779,-0.0013252200356653,0.0013252149974126,-0.0011885222429915,0.0011885065627815,-0.0011885061285142,0.001188522674165,0.65786894703217,131329,3014,0.004922180646412,0.0049221806455912,0.0049221806447791,18.584347802576,-9.1325217579388e-05,-9.1325217579388e-05,-9.1325217579388e-05,2342345.4874753,0.014877017286159
20019200,0.98619658930477,0.015271896847535,0.0050906322828079,0.0050906322825018,0.0050906322822255,-0.0011847046626764,0.001184706832168,-7.3746707346359e-09,9.5778862503261e-09,-3.257440247907e-09,5.6963672647726e-09,-0.0013258244991318,0.0013258180429755,-0.0013258188454351,0.0013258237023215,-0.0013258217502439,0.0013258209972047,-0.0013258160948999,0.0013258266544768,-0.0011890675487754,0.0011890560964966,-0.0011890509496136,0.0011890727113889,3.1072110262125e-09,-5.4173807431965e-09,-2.9529581152733e-10,-1.7850755914624e-09,-0.001184706770372,0.0011847047240765,-0.0013258207531284,0.0013258220010119,-0.0013258212321134,0.0013258215091207,-0.0013258233453446,0.0013258192073967,-0.0013258238235256,0.0013258187143495,-0.001189063523338,0.0011890600871719,-0.0011890649719515,0.0011890586196955,-0.0011890590657621,0.0011890647562346,-0.0011890673265924,0.0011890561000902,8.2671738074562e-09,-8.3759302486686e-09,-0.0011847057973177,0.0011847056967496,-8.5032237752917e-10,7.6606350428579e-10,-0.0013258188735683,0.0013258237730258,-0.0013258183118628,0.0013258242977307,-0.0013258244342292,0.00132581824665,-0.0013258238750673,0.0013258187734508,-0.0011890697378472,0.0011890538778771,-0.0011890534467809,0.0011890701656972,0.68048383834445,131329,3014,0.0049243372519642,0.0049243372511374,0.0049243372503426,18.671582666441,-9.0627338668472e-05,-9.0627338668472e-05,-9.0627338668472e-05,2343211.0746185,0.014883584680698
20219200,0.98652675086711,0.015276870406962,0.0050922901359514,0.0050922901356439,0.0050922901353663,-0.0011849942478057,0.0011849964287178,-7.463336872064e-09,9.677852099438e-09,-3.4457077796984e-09,5.8977555546162e-09,-0.0013262070368935,0.0013262003963293,-0.0013262013170891,0.0013262061217786,-0.001326204155714,0.0013262034836825,-0.0013261984405718,0.0013262092007617,-0.0011893970263272,0.0011893855398269,-0.0011893802518599,0.0011894023301569,3.2658612276483e-09,-5.5869579440309e-09,-3.196829900392e-10,-1.7700358407372e-09,-0.0011849963659423,0.0011849943101927,-0.001326203157054,0.0013262044888893,-0.0013262036198178,0.0013262040133058,-0.0013262058552831,0.0013262015886262,-0.0013262063235613,0.0013262011055981,-0.001189393057539,0.0011893894733332,-0.0011893944772925,0.0011893880353656,-0.0011893883587272,0.0011893943844999,-0.0011893969513733,0.0011893853958497,8.3646844839837e-09,-8.4745035477338e-09,-0.0011849953887093,0.0011849952870525,-8.3300616290999e-10,7.4749004883917e-10,-0.0013262012827836,0.0013262062553066,-0.0013262007298492,0.0013262067711156,-0.0013262069056544,0.0013262006668709,-0.001326206361626,0.0013262011785322,-0.0011893993055137,0.00118938323119,-0.0011893828129135,0.0011893997201797,0.69908659694875,131329,3014,0.004925538438565,0.0049255384377537,0.0049255384369756,18.638392309614,-9.0892861523087e-05,-9.0892861523087e-05,-9.0892861523087e-05,2341101.8653295,0.014887243764931
20419200,0.98684836869346,0.015281721369389,0.0050939071234285,0.0050939071231198,0.0050939071228408,-0.0011852662570232,0.0011852684468545,-7.5637601367904e-09,9.7871275330897e-09,-3.5991373070611e-09,6.0615501250986e-09,-0.0013265844364066,0.0013265776327219,-0.0013265786503811,0.0013265834243736,-0.0013265814536007,0.0013265808223291,-0.0013265756648523,0.001326586613005,-0.0011897170647641,0.0011897054765876,-0.0011897000742348,0.0011897224829317,3.4740288096666e-09,-5.80950894353e-09,-3.4853386147785e-10,-1.7535338675122e-09,-0.0011852683858523,0.0011852663176412,-0.0013265804154924,0.0013265818671159,-0.0013265808668996,0.0013265814029345,-0.0013265832603169,0.001326578819262,-0.0013265837098998,0.0013265783550757,-0.0011897131504296,0.0011897093551579,-0.0011897145152735,0.0011897079724829,-0.0011897081392647,0.001189714579879,-0.0011897171439044,0.0011897051774728,8.4514834559818e-09,-8.5627214464434e-09,-0.0011852674031266,0.0011852672999985,-8.0993857522661e-10,7.2274678937582e-10,-0.0013265785626159,0.001326583611697,-0.0013265780293301,0.0013265841078225,-0.0013265842476121,0.0013265779613252,-0.0013265837156785,0.0013265784605289,-0.0011897193819654,0.0011897031295414,-0.0011897027289288,0.0011897197794841,0.69998400915477,131329,3014,0.004926666848442,0.0049266668476399,0.004926666846872,18.60215318016,-9.1182774558716e-05,-9.1182774558716e-05,-9.1182774558716e-05,2338007.7345206,0.014890681823657
20619200,0.98716167494917,0.015285931731517,0.0050953105774723,0.0050953105771624,0.0050953105768824,-0.0011855032218518,0.0011855054229047,-7.6494982226095e-09,9.883998368458e-09,-3.7904892873895e-09,6.2658876264929e-09,-0.0013269299761032,0.0013269229873677,-0.0013269241256951,0.0013269288433778,-0.0013269268585607,0.0013269263125479,-0.0013269210123627,0.001326932160675,-0.0011899867370698,0.0011899751231324,-0.0011899695779223,0.0011899922980556,3.6279046336349e-09,-5.9735452275952e-09,-3.7900885600744e-10,-1.7316826018911e-09,-0.001185505360655,0.0011855032837245,-0.001326925824737,0.001326927352881,-0.0013269262553452,0.001326926909619,-0.0013269287716961,0.0013269242022721,-0.0013269292073903,0.0013269237520746,-0.0011899828874931,0.0011899789364511,-0.0011899842114494,0.0011899775951221,-0.0011899776336168,0.0011899844048044,-0.0011899869601567,0.0011899746794775,8.5518379361036e-09,-8.6644669993631e-09,-0.0011855043742936,0.0011855042697252,-7.863989492872e-10,6.975612945401e-10,-0.0013269239706286,0.0013269290984343,-0.00132692345007,0.0013269295816673,-0.0013269297195264,0.0013269233842201,-0.0013269292073579,0.0013269238637293,-0.0011899891542255,0.001189972676019,-0.0011899722930235,0.0011899895340372,0.63099124834878,131329,3014,0.0049276499121001,0.004927649911313,0.0049276499105611,18.56579792015,-9.1473616638799e-05,-9.1473616638799e-05,-9.1473616638799e-05,2336228.0825783,0.014893677367304
20819200,0.98745229821957,0.015290153934432,0.0050967179784451,0.0050967179781342,0.0050967179778532,-0.0011842624983461,0.0011842647141579,-7.7582701829361e-09,1.0007470401766e-08,-4.042181633714e-09,6.5348359868934e-09,-0.001325700136707,0.0013256929115596,-0.0013256942090531,0.0013256988447213,-0.0013256968461363,0.0013256964108007,-0.0013256909226172,0.0013257023362499,-0.0011887260922331,0.0011887144386786,-0.0011887087053874,0.001188731840945,3.9483701167696e-09,-6.3160456526114e-09,-4.5826422908685e-10,-1.6712852397017e-09,-0.0011842646540619,0.0011842625580711,-0.0013256957900303,0.0013256974735481,-0.0013256961743644,0.0013256970767372,-0.0013256989566866,0.0013256941016262,-0.0013256993460964,0.001325693698114,-0.0011887224104343,0.0011887180831522,-0.0011887235979498,0.0011887168788209,-0.0011887166302612,0.0011887240800181,-0.0011887266073152,0.0011887137008303,8.6258677445438e-09,-8.7423927024922e-09,-0.0011842636601715,0.0011842635516084,-7.1974263050375e-10,6.2633215662961e-10,-0.0013256939667816,0.0013256991875859,-0.0013256934922971,0.0013256996246845,-0.0013256997666996,0.0013256934226454,-0.0013256993002391,0.0013256938559,-0.0011887285885061,0.0011887119114312,-0.0011887115792014,0.0011887289187267,0.67642718112655,131329,3014,0.0049225055879526,0.0049225055871782,0.0049225055864425,17.742694043762,-9.8058447649902e-05,-9.8058447649902e-05,-9.8058447649902e-05,2332535.8790293,0.014878013457357
21019200,0.98772062659669,0.015293921555072,0.0050979738519924,0.0050979738516807,0.0050979738513988,-0.0011828284453836,0.0011828306771313,-7.818163533706e-09,1.0083066726821e-08,-4.3185790153167e-09,6.8295989330289e-09,-0.0013243065293555,0.0013242990864815,-0.001324300557832,0.0013243050634711,-0.0013243030514901,0.0013243027742459,-0.0013242970808047,0.0013243087468835,-0.0011872925775032,0.0011872809927335,-0.0011872750535684,0.0011872985327642,4.1365341535669e-09,-6.5162447414865e-09,-5.3238152357359e-10,-1.6072968635044e-09,-0.0011828306142218,0.0011828285079189,-0.0013243020364476,0.00132430379546,-0.0013243023767255,0.0013243034431308,-0.0013243053343612,0.0013243002917066,-0.0013243056762864,0.0013242999359056,-0.0011872890698931,0.0011872844625432,-0.0011872901178048,0.0011872833989834,-0.0011872829443838,0.001187290805943,-0.0011872932978161,0.0011872800496244,8.7482365030858e-09,-8.868693975428e-09,-0.0011828296171248,0.0011828295046695,-6.5281361249225e-10,5.5479022995106e-10,-0.0013243001875114,0.0013243055350068,-0.0013242997607692,0.0013243059240919,-0.0013243060717103,0.0013242996859264,-0.0013243056499095,0.0013243000747409,-0.0011872952530333,0.001187278287302,-0.0011872780039159,0.0011872955322806,0.65601665530308,131329,3014,0.0049165599223076,0.0049165599215266,0.004916559920805,16.832093131965,-0.00010534325494428,-0.00010534325494428,-0.00010534325494428,2324578.2296626,0.014859911665069
21219200,0.98796854049579,0.015297426162258,0.0050991420543886,0.0050991420540761,0.0050991420537935,-0.0011813725971947,0.0011813748320724,-7.981807114154e-09,1.024978394896e-08,-4.3882766868065e-09,6.9031734567306e-09,-0.0013228638217283,0.0013228562192526,-0.0013228577359245,0.0013228623103523,-0.00132286029118,0.0013228599600238,-0.0013228542152215,0.0013228660378308,-0.0011858254803557,0.0011858136354708,-0.0011858076455478,0.0011858314861773,4.4030091770313e-09,-6.8008899195475e-09,-6.0403521641542e-10,-1.5512238190109e-09,-0.0011813747754421,0.0011813726534608,-0.0013228591892377,0.0013228610687586,-0.0013228594825436,0.0013228607633398,-0.0013228626645384,0.0013228573857164,-0.0013228629686998,0.0013228570680951,-0.0011858219975799,0.0011858170791751,-0.0011858229344355,0.0011858161281943,-0.0011858154263918,0.0011858238698265,-0.0011858263348426,0.0011858125567053,8.7734530283265e-09,-8.8972699917444e-09,-0.0011813737722494,0.0011813736563182,-5.9261443030065e-10,4.9060121258737e-10,-0.0013228573742125,0.0013228627736651,-0.0013228569846452,0.0013228631258253,-0.0013228632722808,0.0013228569107004,-0.0013228628961013,0.0013228572530966,-0.0011858280801982,0.0011858110041354,-0.0011858107671884,0.0011858283160352,0.65967102543033,131329,3014,0.0049105236663546,0.0049105236655945,0.0049105236648962,15.919122403805,-0.00011264702076956,-0.00011264702076956,-0.00011264702076956,2317965.714849,0.014841533422577
21419200,0.98820107966573,0.015300737203724,0.0051002457348777,0.0051002457345646,0.0051002457342812,-0.0011803241690701,0.0011803264120402,-7.9986131361533e-09,1.0274993501472e-08,-4.4998108491615e-09,7.0241537821588e-09,-0.0013218339385078,0.0013218262600009,-0.0013218278451832,0.001321832358715,-0.0013218303381953,0.0013218300703742,-0.0013218242409659,0.0013218361695123,-0.0011847735297782,0.0011847617142362,-0.0011847556362778,0.0011847796164782,4.3263624461103e-09,-6.7183648167356e-09,-6.3886044967275e-10,-1.5108145199973e-09,-0.0011803263486666,0.0011803242321433,-0.0013218292992136,0.0013218311140423,-0.0013218295750951,0.0013218308281912,-0.0013218327314347,0.0013218274784794,-0.001321833002481,0.0013218271919886,-0.0011847700711678,0.0011847651258148,-0.0011847709193197,0.0011847642589174,-0.0011847635562996,0.0011847718576555,-0.0011847742946037,0.0011847607155724,8.9425820470804e-09,-9.0704011688234e-09,-0.0011803253498538,0.0011803252305106,-5.5632008265629e-10,4.4961988409764e-10,-0.0013218273809846,0.0013218329238704,-0.0013218270232105,0.0013218332429731,-0.0013218334002133,0.0013218269409146,-0.0013218330430435,0.0013218272650227,-0.0011847763202014,0.0011847588919788,-0.0011847586831827,0.0011847765219637,0.66373454585414,131329,3014,0.004906176705102,0.0049061767044746,0.0049061767035471,15.230570928433,-0.00011815543257254,-0.00011815543257254,-0.00011815543257254,2312678.0103397,0.0148282988323
21619200,0.98841967305868,0.015303879048026,0.0051012930163122,0.0051012930159981,0.0051012930157153,-0.0011793107868438,0.0011793130142168,-8.2622430899686e-09,1.052283409923e-08,-4.2804955727397e-09,6.7869835391352e-09,-0.0013208416929639,0.0013208339649214,-0.0013208354143333,0.0013208402484431,-0.0013208382278532,0.0013208376390779,-0.001320831976158,0.0013208438927072,-0.0011837580570563,0.0011837456124491,-0.0011837397049643,0.0011837639796638,4.4420974079001e-09,-6.8422983373502e-09,-6.7045830496176e-10,-1.4867118001789e-09,-0.0011793129622501,0.0011793108384745,-0.0013208370105916,0.0013208388631751,-0.0013208372520322,0.0013208386100014,-0.0013208405044923,0.0013208351622683,-0.0013208407734172,0.0013208348798236,-0.0011837543394764,0.0011837492898357,-0.0011837551743451,0.0011837484417449,-0.0011837476290122,0.0011837562194175,-0.0011837586432993,0.0011837448015193,8.8791790295873e-09,-9.0065872992933e-09,-0.0011793119599597,0.0011793118404406,-5.3049531005595e-10,4.241731765065e-10,-0.001320835130864,0.0013208406332523,-0.0013208347754551,0.00132084095077,-0.0013208410927388,0.0013208347069915,-0.0013208407675195,0.0013208349978663,-0.0011837604975728,0.0011837431394446,-0.0011837429498186,0.0011837606878126,0.66920855981058,131329,3014,0.0049019750045911,0.0049019750038901,0.004901975003214,14.566228439741,-0.00012347017248207,-0.00012347017248207,-0.00012347017248207,2307420.8620851,0.014815506827178
21819200,0.98862528457025,0.015306789431432,0.005102263144115,0.0051022631438002,0.005102263143517,-0.0011782844083885,0.0011782866414148,-8.180498108104e-09,1.0446749490386e-08,-4.3726164158641e-09,6.885465625575e-09,-0.0013198388484134,0.0013198311315172,-0.0013198326374703,0.0013198373476976,-0.0013198353379049,0.0013198348520396,-0.0013198291213987,0.0013198410704264,-0.0011827295607395,0.0011827172936437,-0.0011827113169073,0.0011827355525659,4.172759865034e-09,-6.5524751421102e-09,-6.7963418875878e-10,-1.4596426842295e-09,-0.0011782865776548,0.0011782844718192,-0.0013198342530366,0.0013198359426408,-0.0013198344987736,0.0013198356854411,-0.0013198375789371,0.0013198324108785,-0.00131983781984,0.0013198321566688,-0.0011827258720323,0.0011827209426252,-0.00118272662317,0.0011827201778335,-0.0011827195058013,0.0011827275273967,-0.0011827299216343,0.0011827167098066,9.1498391668706e-09,-9.2780025556259e-09,-0.0011782855847547,0.0011782854643956,-5.1105079616074e-10,4.0381085335562e-10,-0.0013198321879829,0.0013198378984568,-0.0013198318622445,0.0013198381866465,-0.0013198383453503,0.0013198317764784,-0.0013198380179428,0.0013198320707545,-0.0011827323401637,0.0011827144833391,-0.0011827143062295,0.0011827325146631,0.65988855491815,131329,3014,0.0048977194641774,0.00489771946349,0.0048977194628161,13.902543808716,-0.00012877964953027,-0.00012877964953027,-0.00012877964953027,2301943.5815867,0.014802551251783
22019200,0.98883056807144,0.015309647126319,0.0051032157090779,0.0051032157087626,0.0051032157084788,-0.0011789659520236,0.001178968162649,-8.3490493897428e-09,1.0593144426474e-08,-4.0080187223087e-09,6.495097295589e-09,-0.0013205605133603,0.001320552914355,-0.0013205541911409,0.001320559241873,-0.0013205572467836,0.0013205563892573,-0.0013205509318566,0.0013205627060717,-0.0011834288262063,0.0011834159948146,-0.0011834102917224,0.0011834345444065,3.9269861572381e-09,-6.2898049039652e-09,-6.3066984555001e-10,-1.4942129541398e-09,-0.0011789681028011,0.0011789660115474,-0.0013205560432285,0.0013205575990451,-0.0013205563101364,0.001320557320348,-0.0013205591937494,0.0013205542435737,-0.001320559468857,0.0013205539551311,-0.0011834247132311,0.0011834200687275,-0.001183425565026,0.0011834192027732,-0.0011834187345154,0.0011834262644253,-0.0011834286718784,0.0011834159271251,9.1862550596254e-09,-9.3118633889066e-09,-0.0011789671159033,0.0011789669981241,-5.5232691758592e-10,4.4803855002396e-10,-0.0013205539159312,0.0013205596175175,-0.0013205535553541,0.0013205599408299,-0.0013205600903526,0.0013205534783783,-0.0013205597407205,0.0013205537946275,-0.0011834313510781,0.0011834134387801,-0.001183413231246,0.0011834315573128,0.64982379398433,131329,3014,0.0049005454914875,0.0049005454908112,0.0049005454901426,14.153357561169,-0.00012677313951065,-0.00012677313951065,-0.00012677313951065,2304004.9642193,0.01481115536448
22219200,0.98903671782149,0.015312492827974,0.0051041642762967,0.0051041642759809,0.0051041642756965,-0.001179829456065,0.0011798316531954,-8.3518726979044e-09,1.0582592066606e-08,-3.7873941734137e-09,6.2588040308331e-09,-0.0013214676016826,0.0013214601576123,-0.0013214612950231,0.0013214664694503,-0.0013214645010446,0.0013214634658025,-0.0013214581742869,0.0013214697944205,-0.0011843021089822,0.0011842890783421,-0.0011842835418468,0.0011843076621826,3.5506945961611e-09,-5.8873380482867e-09,-5.6632479515752e-10,-1.5360864032867e-09,-0.0011798315887179,0.0011798295202166,-0.0013214633022274,0.0013214646707493,-0.0013214636181125,0.0013214643429009,-0.0013214662083777,0.001321461560886,-0.0013214665048459,0.001321461250597,-0.0011842977260919,0.0011842934249262,-0.0011842986394951,0.0011842924970174,-0.0011842923277341,0.0011842990382474,-0.0011843014576156,0.0011842895106115,9.384377626117e-09,-9.5066935904482e-09,-0.0011798306116261,0.0011798304970273,-6.0043324555886e-10,4.9995591516056e-10,-0.0013214610248084,0.001321466840038,-0.0013214606446409,0.0013214671830636,-0.0013214673427223,0.0013214605562753,-0.0013214669465368,0.0013214609201539,-0.001184304688152,0.0011842864692017,-0.0011842862244049,0.0011843049313924,0.6449743585412,131329,3014,0.004904125932222,0.004904125931542,0.0049041259309567,14.499734473705,-0.00012400212421036,-0.00012400212421036,-0.00012400212421036,2308184.0692824,0.014822056272112
22419200,0.98924367253473,0.015315479561089,0.0051051598540024,0.0051051598536861,0.005105159853401,-0.0011807044592953,0.0011807066369597,-8.5676633040024e-09,1.0779162344813e-08,-3.4602325585058e-09,5.9091823740053e-09,-0.0013223825223297,0.0013223751307387,-0.0013223760626283,0.0013223815958642,-0.0013223796289294,0.0013223782301099,-0.0013223731822532,0.0013223846786558,-0.0011851880570546,0.0011851744273241,-0.0011851691346028,0.0011851933651217,3.3776982621284e-09,-5.7024104628261e-09,-5.1102562639473e-10,-1.5812875941852e-09,-0.0011807065771178,0.0011807045188257,-0.001322378295038,0.0013223795704947,-0.0013223786275402,0.0013223792257155,-0.0013223810653255,0.0013223765976089,-0.0013223814118531,0.0013223762373092,-0.0011851832343742,0.001185179212335,-0.001185184296995,0.0011851781349871,-0.0011851781364426,0.0011851845239969,-0.0011851869677461,0.0011851752976855,9.3722340090962e-09,-9.4917101686521e-09,-0.0011807056036346,0.0011807054920048,-6.5228854065048e-10,5.5512270532358e-10,-0.0013223759999584,0.0013223817577415,-0.0013223755675759,0.001322382153263,-0.0013223822934026,0.001322375499034,-0.0013223818778166,0.001322375881736,-0.0011851903283388,0.0011851721249745,-0.0011851718427712,0.0011851906104945,0.67139354536948,131329,3014,0.0049077540093678,0.0049077540087179,0.004907754008085,14.8487177483,-0.0001212102580136,-0.0001212102580136,-0.0001212102580136,2312295.0926865,0.014833102174723
22619200,0.98945118973919,0.015318509853478,0.0051061699514657,0.0051061699511488,0.0051061699508632,-0.0011815598121071,0.0011815619799611,-8.669911147401e-09,1.087173099461e-08,-3.2869493010728e-09,5.7244742263007e-09,-0.0013233038213876,0.0013232964740716,-0.0013232972964938,0.0013233030045453,-0.0013233010463709,0.0013232994542633,-0.0013232945351644,0.0013233059673584,-0.0011860696535464,0.001186055706129,-0.0011860505426258,0.0011860748325193,3.2020847094863e-09,-5.5150068736639e-09,-4.5742923978086e-10,-1.6248738300942e-09,-0.0011815619199785,0.0011815598717802,-0.0013232996553936,0.001323300851792,-0.0013233000198026,0.0013233004750096,-0.0013233023049179,0.0013232980006128,-0.0013233026840346,0.0013232976075159,-0.0011860645586797,0.0011860607637149,-0.0011860657177102,0.0011860595900328,-0.0011860597628229,0.0011860657722389,-0.0011860682385708,0.0011860569034045,9.4688191995437e-09,-9.5855406244902e-09,-0.0011815609501432,0.0011815608413167,-6.9926654497528e-10,6.0532364277822e-10,-0.0013232973042497,0.0013233030955185,-0.0013232968390729,0.0013233035238287,-0.0013233036607955,0.001323296773631,-0.0013233032132023,0.0013232971884399,-0.0011860718427053,0.0011860534858337,-0.0011860531687103,0.001186072160314,0.67880268286912,131329,3014,0.0049113008153352,0.0049113008146892,0.0049113008140672,15.186896931238,-0.0001185048245501,-0.0001185048245501,-0.0001185048245501,2314295.7267649,0.014843901856459
22819200,0.98965625519485,0.015321494480585,0.0051071648271686,0.0051071648268513,0.0051071648265652,-0.0011819953362966,0.0011819975036216,-8.7400474270799e-09,1.0941339228773e-08,-3.2683758064214e-09,5.7051435186052e-09,-0.0013238053893888,0.0013237980123897,-0.001323798822504,0.0013238045849363,-0.0013238026320249,0.0013238009750897,-0.0013237960691946,0.00132380753979,-0.0011865283656967,0.0011865142541558,-0.0011865091037472,0.0011865335317179,3.1525546899396e-09,-5.4623755563417e-09,-4.2491509513644e-10,-1.6548082190989e-09,-0.0011819974425965,0.001181995397015,-0.0013238012115003,0.0013238024021698,-0.0013238016013494,0.0013238019996648,-0.0013238038319709,0.0013237995799835,-0.0013238042271211,0.0013237991709518,-0.0011865231474522,0.0011865194356621,-0.0011865243530121,0.0011865182152308,-0.0011865184596603,0.0011865243361071,-0.0011865268205477,0.0011865155825079,9.5925287524194e-09,-9.7073424610571e-09,-0.0011819964731507,0.0011819963661756,-7.2869018263276e-10,6.3696066702414e-10,-0.0013237988235101,0.0013238046825775,-0.0013237983428989,0.001323805126609,-0.0013238052664363,0.0013237982742935,-0.0013238047937626,0.0013237987143334,-0.0011865305748341,0.0011865120140192,-0.0011865116746557,0.00118653091465,0.67691803444231,131329,3014,0.0049131069320206,0.0049131069313805,0.004913106930787,15.303474675634,-0.00011757220259493,-0.00011757220259493,-0.00011757220259493,2314276.0872003,0.01484940207716
23019200,0.98985879634174,0.015324228331815,0.0051080761109124,0.0051080761105947,0.005108076110308,-0.0011824056745031,0.0011824078434433,-8.8468334322525e-09,1.1049774275451e-08,-3.2873073667812e-09,5.7259071041743e-09,-0.001324279073425,0.0013242716109076,-0.0013242724326947,0.0013242782572778,-0.0013242763007879,0.0013242745888887,-0.0013242696682338,0.0013242812232969,-0.0011869559378513,0.0011869416361497,-0.0011869364709871,0.0011869611184523,3.1802929218535e-09,-5.4925908034006e-09,-4.0048195999312e-10,-1.6814250164988e-09,-0.0011824077827197,0.0011824057349277,-0.0013242748367886,0.0013242760595327,-0.0013242752415073,0.0013242756421219,-0.0013242774745062,0.0013242732200823,-0.0013242778885173,0.0013242727918765,-0.0011869506068726,0.0011869469299639,-0.0011869518686923,0.0011869456530167,-0.001186945914295,0.0011869518349684,-0.0011869543386059,0.0011869430176904,9.6781854589011e-09,-9.7917174684585e-09,-0.0011824068115,0.0011824067058598,-7.5383624229084e-10,6.6361432447909e-10,-0.0013242724455042,0.0013242783432066,-0.0013242719454617,0.0013242788065252,-0.0013242789429922,0.001324271880272,-0.0013242784550661,0.0013242723355571,-0.0011869581287555,0.0011869394141298,-0.0011869390561989,0.0011869584872017,0.63260003522395,131329,3014,0.0049148085897908,0.004914808589167,0.0049148085885687,15.414702297178,-0.00011668238162258,-0.00011668238162258,-0.00011668238162258,2314696.5952769,0.014854584164023
23219200,0.99005881103248,0.015327054812289,0.0051090182710707,0.0051090182707525,0.0051090182704654,-0.0011828194400442,0.0011828216125054,-8.9309120920601e-09,1.1137328618315e-08,-3.3473059775707e-09,5.7899280279084e-09,-0.0013247111551139,0.0013247035995598,-0.0013247044591706,0.0013247103011733,-0.0013247083432993,0.0013247066169425,-0.0013247016515031,0.0013247133105985,-0.001187366368323,0.0011873519375386,-0.0011873467276322,0.0011873715937492,3.2300912987814e-09,-5.5456752820482e-09,-3.7988438359983e-10,-1.7048498151923e-09,-0.0011828215514475,0.0011828195008073,-0.0013247068479925,0.0013247081188753,-0.0013247072693184,0.0013247076847857,-0.0013247095219723,0.0013247052430772,-0.001324709948551,0.0013247048021913,-0.00118736097283,0.001187357296003,-0.0011873622718273,0.0011873559818126,-0.0011873562415441,0.0011873622397955,-0.0011873647609,0.001187353327254,9.7856578262823e-09,-9.8978732367668e-09,-0.0011828205781521,0.0011828204738225,-7.7476611989745e-10,6.8607513137568e-10,-0.0013247044507353,0.0013247104084233,-0.001324703938178,0.0013247108841772,-0.0013247110214536,0.0013247038723296,-0.0013247105170412,0.0013247043441064,-0.0011873685885142,0.0011873496863076,-0.0011873493124972,0.0011873689626818,0.659000105174,131329,3014,0.004916524146702,0.0049165241460869,0.0049165241455038,15.525727891468,-0.00011579417686826,-0.00011579417686826,-0.00011579417686826,2317816.3593552,0.014859806758981
23419200,0.9902571508631,0.015329826353542,0.0051099421181555,0.005109942117837,0.0051099421175494,-0.0011833569512919,0.0011833591315812,-8.9816310308667e-09,1.1195761209768e-08,-3.4698864205282e-09,5.9214009264428e-09,-0.0013252957997081,0.0013252881375394,-0.001325289073814,0.0013252948690883,-0.0013252929103994,0.0013252912328276,-0.0013252861753301,0.0013252979697476,-0.0011879163000616,0.001187901835525,-0.0011878965331412,0.0011879216179956,3.2690496593316e-09,-5.5876145804674e-09,-3.6157626972413e-10,-1.7256386087644e-09,-0.0011833590678824,0.0011833570147132,-0.0013252914170628,0.0013252927323699,-0.0013252918581723,0.0013252922788432,-0.0013252941251651,0.001325289823003,-0.0013252945577276,0.0013252893755032,-0.0011879108927791,0.0011879072056008,-0.0011879122106702,0.0011879058720006,-0.0011879061335823,0.0011879121765221,-0.0011879147135611,0.0011879032037004,9.9241050881665e-09,-1.0035586957707e-08,-0.0011833580929066,0.0011833579894023,-7.9135202550353e-10,7.0351689207127e-10,-0.0013252889981621,0.0013252950438274,-0.0013252884806282,0.0013252955240526,-0.0013252956673503,0.0013252884091767,-0.0013252951450708,0.0013252888992026,-0.0011879186232839,0.0011878994824893,-0.0011878990950081,0.0011879190086807,0.65256368942943,131329,3014,0.0049187529898829,0.0049187529893036,0.0049187529887071,15.704371925115,-0.00011436502459908,-0.00011436502459908,-0.00011436502459908,2319414.5536339,0.014866593361077
23619200,0.99045800857243,0.01533270068935,0.0051109002300921,0.0051109002297731,0.0051109002294853,-0.0011845276189988,0.0011845298065783,-9.0149104044988e-09,1.1235999870858e-08,-3.5869200807596e-09,6.0464349468569e-09,-0.0013265177490543,0.0013265099979006,-0.0013265110066115,0.0013265167462274,-0.0013265147888075,0.0013265131649438,-0.0013265080201931,0.0013265199354974,-0.0011891076340747,0.001189093160562,-0.0011890877697203,0.0011891130411036,3.2382506178901e-09,-5.5545280332681e-09,-3.3041042658855e-10,-1.7547977820149e-09,-0.0011845297382236,0.0011845276870751,-0.0013265133170624,0.0013265146423747,-0.001326513786615,0.0013265141603037,-0.0013265160133339,0.0013265117451857,-0.0013265164575243,0.0013265112862025,-0.001189102194644,0.0011890985639584,-0.001189103545512,0.0011890971966497,-0.0011890975167599,0.0011891034535069,-0.0011891060090614,0.0011890945691296,1.0080927844927e-08,-1.0190844111414e-08,-0.0011845287634655,0.0011845286615641,-8.1588410788879e-10,7.2989075145621e-10,-0.0013265108548975,0.0013265169969805,-0.0013265103288592,0.0013265174858399,-0.0013265176361026,0.001326510250602,-0.0013265170886098,0.0013265107663897,-0.0011891100844728,0.0011890906826736,-0.0011890902742666,0.0011891104866466,0.66669034572149,131329,3014,0.0049236070465207,0.0049236070459396,0.0049236070453799,16.218844894753,-0.00011024924084197,-0.00011024924084197,-0.00011024924084197,2323854.3781269,0.014881372868916
23819200,0.99066135423541,0.015335774758824,0.0051119249199171,0.0051119249195976,0.0051119249193093,-0.0011857232742207,0.0011857254582159,-9.2132777679237e-09,1.1431042023454e-08,-3.5373715275515e-09,5.9931799569368e-09,-0.0013277813885684,0.001327773521277,-0.0013277745004613,0.0013277804151728,-0.0013277784462393,0.0013277766700407,-0.0013277715623827,0.0013277835557667,-0.001190334929208,0.0011903200760898,-0.0011903147230649,0.0011903402977889,3.414738160087e-09,-5.7436964915406e-09,-3.2022929554296e-10,-1.7760393142718e-09,-0.001185725397223,0.0011857233349364,-0.0013277768462858,0.0013277782766997,-0.0013277773109009,0.0013277777990744,-0.0013277796473832,0.0013277752730955,-0.0013277801173873,0.0013277747884909,-0.0011903293282033,0.0011903256408845,-0.0011903307542367,0.0011903241976318,-0.0011903244310676,0.00119033075104,-0.0011903333265689,0.0011903214595668,1.0077655688183e-08,-1.0186315065185e-08,-0.0011857244163145,0.0011857243155787,-8.3808147115693e-10,7.5356591399036e-10,-0.0013277744519671,0.0013277805628185,-0.0013277738955824,0.0013277810822243,-0.0013277812160677,0.0013277738334871,-0.0013277806680428,0.0013277743488155,-0.0011903371986884,0.0011903177767837,-0.0011903173543578,0.0011903376188757,0.70079155046607,131329,3014,0.0049285647765484,0.0049285647759699,0.004928564775416,16.74144274117,-0.00010606845807064,-0.00010606845807064,-0.00010606845807064,2327297.3307676,0.014896468876692
24019200,0.99086704715905,0.015338921279835,0.0051129737602547,0.0051129737599347,0.005112973759646,-0.0011869192742487,0.0011869214574599,-9.3868160979763e-09,1.1603779320213e-08,-3.5289333769195e-09,5.9839315164703e-09,-0.0013290782327849,0.0013290702433,-0.0013290712178412,0.0013290772640485,-0.0013290752841065,0.0013290733983005,-0.0013290682968892,0.0013290803873827,-0.0011915816724962,0.0011915665091821,-0.0011915611637802,0.0011915870333841,3.5653300681103e-09,-5.9052100245159e-09,-3.1380354311918e-10,-1.7919458825631e-09,-0.001186921401617,0.0011869193298233,-0.0013290735846661,0.0013290751049112,-0.0013290740449501,0.0013290746315566,-0.0013290764771045,0.0013290720091864,-0.0013290769662724,0.0013290715053752,-0.0011915759446656,0.0011915721999317,-0.0011915774284298,0.0011915707005048,-0.0011915708577765,0.0011915775003823,-0.0011915800934614,0.0011915678689771,1.0097706386531e-08,-1.0205591194312e-08,-0.0011869204155919,0.0011869203155873,-8.541054218127e-10,7.705065441128e-10,-0.0013290712394448,0.0013290773416952,-0.0013290706602503,0.0013290778837487,-0.0013290780052058,0.0013290706106289,-0.001329077457735,0.0013290711249949,-0.0011915838177205,0.001191564332564,-0.0011915638999161,0.0011915842512927,0.70866200762272,131329,3014,0.0049335241560096,0.0049335241554497,0.0049335241549066,17.264347453686,-0.00010188522037051,-0.00010188522037051,-0.00010188522037051,2328631.2663627,0.014911571437685
24219200,0.99107370238949,0.015341941059666,0.005113980353532,0.0051139803532116,0.0051139803529224,-0.0011879269738226,0.0011879291614115,-9.5097038154879e-09,1.1731052344109e-08,-3.6025630631713e-09,6.0626903680297e-09,-0.0013301918975568,0.0013301837732861,-0.0013301847943164,0.0013301908823421,-0.0013301888934116,0.0013301869840409,-0.0013301818276543,0.0013301940516623,-0.0011926368689565,0.0011926215308015,-0.0011926161310418,0.0011926422843894,3.6789067555129e-09,-6.0264685133472e-09,-3.1901853335215e-10,-1.7933168686312e-09,-0.0011879291067218,0.0011879270282402,-0.0013301871495483,0.0013301887352261,-0.0013301876037056,0.0013301882680506,-0.001330190115008,0.0013301855659055,-0.0013301906077827,0.00133018505848,-0.0011926310906224,0.0011926272712835,-0.0011926325859247,0.0011926257617053,-0.0011926258475071,0.0011926327287114,-0.0011926353274327,0.0011926228530123,1.0165275820213e-08,-1.0273440741731e-08,-0.0011879281174794,0.0011879280172238,-8.5383588616448e-10,7.699502552541e-10,-0.0013301848168149,0.0013301909593668,-0.0013301842329454,0.0013301915059402,-0.0013301916227648,0.0013301841880153,-0.0013301910803982,0.0013301846971566,-0.0011926390007383,0.0011926193667057,-0.0011926189355117,0.0011926394345788,0.68010063506172,131329,3014,0.0049377028150882,0.0049377028145206,0.0049377028139821,17.692233488612,-9.8462132091104e-05,-9.8462132091104e-05,-9.8462132091104e-05,2329486.7040348,0.014924297212452
24419200,0.9912781555365,0.015344925068879,0.0051149750232701,0.0051149750229493,0.0051149750226597,-0.001188490253187,0.0011884924532315,-9.5215162903308e-09,1.1755220805544e-08,-3.8042220489218e-09,6.2786460683783e-09,-0.0013308242270898,0.0013308159764465,-0.0013308171242369,0.0013308230851008,-0.0013308210967245,0.0013308193143996,-0.0013308140067023,0.0013308264062831,-0.0011932245381432,0.0011932092806677,-0.0011932037289187,0.0011932301055412,3.7335947835773e-09,-6.0841850705394e-09,-3.4055957342603e-10,-1.7741927550786e-09,-0.0011884923935593,0.0011884903125914,-0.0013308193991852,0.0013308210187086,-0.0013308198522569,0.0013308205528365,-0.0013308224144109,0.0013308177996443,-0.001330822881318,0.001330817318056,-0.0011932188575293,0.0011932149229524,-0.0011932202772925,0.0011932134894465,-0.0011932135142408,0.0011932204810012,-0.0011932230690289,0.0011932105306139,1.0339309391842e-08,-1.0449007591755e-08,-0.0011884914038535,0.0011884913020422,-8.2939799551938e-10,7.4373630580756e-10,-0.0013308170111836,0.0013308232980476,-0.0013308164565004,0.0013308238153324,-0.0013308239461197,0.0013308163978161,-0.0013308234085351,0.0013308169025805,-0.001193226872837,0.0011932069140891,-0.0011932065007281,0.0011932272876266,0.67934589801745,131329,3014,0.0049400385928767,0.0049400385923176,0.0049400385917872,17.884763261625,-9.6921893906996e-05,-9.6921893906996e-05,-9.6921893906996e-05,2330596.4969214,0.014931410425844
24619200,0.9914802961704,0.015348019916654,0.0051160066391955,0.0051160066388743,0.0051160066385843,-0.0011890461468765,0.0011890483510088,-9.6530198674574e-09,1.1890734667747e-08,-3.8791460761619e-09,6.3583588713246e-09,-0.0013314423273019,0.0013314339350055,-0.0013314351300933,0.0013314411379895,-0.0013314391406126,0.0013314373295449,-0.001331431966567,0.0013314445054778,-0.001193807689787,0.001193792240397,-0.0011937866328748,0.0011938133130079,3.8695918630432e-09,-6.2293420651664e-09,-3.7353064258277e-10,-1.7490707423374e-09,-0.0011890482932531,0.0011890462043668,-0.0013314373980638,0.0013314390791064,-0.0013314378265947,0.0013314386376435,-0.0013314405014707,0.0013314357709837,-0.0013314409544093,0.0013314353037637,-0.0011938019849924,0.0011937979068981,-0.0011938033623949,0.0011937965154513,-0.0011937964188162,0.0011938036886237,-0.001193806264784,0.0011937934452772,1.039782756874e-08,-1.0509050798712e-08,-0.0011890473003593,0.0011890471970093,-8.0432219509728e-10,7.1688289124917e-10,-0.0013314350155908,0.0013314413524763,-0.0013314344731555,0.001331441857652,-0.0013314419848747,0.0013314344182022,-0.0013314414695397,0.0013314349002469,-0.0011938100029478,0.0011937898954947,-0.0011937895007925,0.0011938103986968,0.70944458459111,131329,3014,0.004942343709915,0.0049423437093611,0.0049423437088383,18.071583315242,-9.5427333478062e-05,-9.5427333478062e-05,-9.5427333478062e-05,2331341.7407234,0.014938430133175
24819200,0.99168008801452,0.015350847675937,0.0051169492256235,0.0051169492253019,0.0051169492250116,-0.001189586032447,0.0011895882452338,-9.6708546493818e-09,1.1917186943825e-08,-4.0265672596636e-09,6.5157909140014e-09,-0.0013320739057946,0.0013320654170119,-0.0013320667049559,0.0013320726235653,-0.0013320706293227,0.0013320689020543,-0.0013320634291676,0.0013320761040507,-0.0011943833510729,0.0011943679361261,-0.0011943622183848,0.0011943890845538,3.8952159551275e-09,-6.255828182791e-09,-4.0032917060788e-10,-1.7228452336606e-09,-0.0011895881834603,0.0011895860939535,-0.0013320689231831,0.0013320706147187,-0.0013320693454538,0.0013320701797644,-0.0013320720553496,0.0013320672779555,-0.0013320724793807,0.0013320668395718,-0.001194377714673,0.0011943735338704,-0.0011943790074365,0.0011943722275465,-0.0011943720799483,0.0011943793845449,-0.0011943819437648,0.001194369123358,1.056753970021e-08,-1.0680623168823e-08,-0.0011895871911995,0.0011895870859646,-7.7391689763472e-10,6.84311416903e-10,-0.0013320664739218,0.0013320729549205,-0.0013320659637013,0.001332073427778,-0.0013320735681279,0.0013320658957004,-0.0013320730627723,0.0013320663681678,-0.0011943858439136,0.001194365411761,-0.0011943650396051,0.0011943862163604,0.66112227527365,131329,3014,0.0049445826413112,0.0049445826407542,0.0049445826402348,18.258187564334,-9.3934499485325e-05,-9.3934499485325e-05,-9.3934499485325e-05,2330807.3879102,0.014945249551299
25019200,0.99187977551221,0.015353639064255,0.0051178796883966,0.0051178796880747,0.0051178796877839,-0.0011904706327889,0.0011904728493911,-9.7062633646698e-09,1.1956217610406e-08,-4.0912484424625e-09,6.5846756091506e-09,-0.0013330088785397,0.0013330003339476,-0.0013330016618652,0.0013330075563894,-0.0013330055679763,0.0013330038534268,-0.0013329983328168,0.001333011090479,-0.0011952821708444,0.001195266702501,-0.0011952609360534,0.0011952879531978,3.8488447384012e-09,-6.2061095916341e-09,-4.1716779685612e-10,-1.7030271608586e-09,-0.001190472784208,0.001190470697717,-0.0013330038834361,0.0013330055439911,-0.0013330043031699,0.0013330051117935,-0.0013330069940809,0.0013330022292981,-0.0013330073963206,0.0013330018127507,-0.0011952765230094,0.0011952723125241,-0.001195277750519,0.0011952710702292,-0.0011952709268395,0.0011952781241758,-0.0011952806683015,0.0011952679854602,1.072255758852e-08,-1.083681172237e-08,-0.0011904717940352,0.0011904716876452,-7.5306700870216e-10,6.6208080468001e-10,-0.0013330013558196,0.0013330079627245,-0.0013330008695005,0.0013330084116361,-0.001333008562808,0.0013330007908881,-0.0013330080623907,0.0013330012587794,-0.0011952847832969,0.0011952640604919,-0.001195263701749,0.0011952851387322,0.65362537432148,131329,3014,0.0049482504659467,0.0049482504654145,0.0049482504649058,18.629625677908,-9.0962994576734e-05,-9.0962994576734e-05,-9.0962994576734e-05,2334845.6031502,0.014956417951331
25219200,0.99208257550341,0.015356574621721,0.0051188582075522,0.0051188582072299,0.0051188582069388,-0.0011918686526029,0.0011918708650524,-9.8030618016028e-09,1.2048943119058e-08,-4.0265024388791e-09,6.5152027983208e-09,-0.0013344596226692,0.0013344510564618,-0.0013344523436572,0.0013344583412346,-0.0013344563577562,0.0013344545299947,-0.001334449058351,0.0013344618312873,-0.0011966998998078,0.0011966841933674,-0.0011966784756214,0.0011967056334517,3.7675890091742e-09,-6.1191480124051e-09,-4.2084722696906e-10,-1.6944379049516e-09,-0.0011918707994734,0.0011918687179294,-0.0013344546436703,0.0013344562501024,-0.0013344550602829,0.0013344558210206,-0.0013344576995627,0.0013344529904421,-0.0013344580967983,0.0013344525789448,-0.0011966941102136,0.0011966899457658,-0.001196695322134,0.0011966887181466,-0.0011966886161525,0.001196695655004,-0.0011966981895555,0.001196685683876,1.0820500772541e-08,-1.093503417533e-08,-0.0011918698119213,0.0011918697052405,-7.4764571046616e-10,6.563278382233e-10,-0.0013344520542352,0.0013344587308223,-0.0013344515726368,0.0013344591750712,-0.0013344593274155,0.0013344514926987,-0.0013344588298157,0.0013344519578413,-0.0011967024895771,0.0011966815744501,-0.0011966812194062,0.0011967028406354,0.67454673531169,131329,3014,0.0049540469335386,0.0049540469330117,0.0049540469325106,19.270428816088,-8.5836569471297e-05,-8.5836569471297e-05,-8.5836569471297e-05,2341167.7230481,0.014974068025529
25419200,0.99228836990253,0.015359813273445,0.0051199377581272,0.0051199377578045,0.005119937757513,-0.0011932941692541,0.0011932963752152,-9.9276287575796e-09,1.216724520954e-08,-3.9223278816933e-09,6.4037584117527e-09,-0.0013359595358135,0.0013359509508425,-0.0013359521732405,0.0013359583190903,-0.0013359563388302,0.0013359543559285,-0.0013359489620297,0.0013359617345849,-0.0011981623778413,0.0011981463644451,-0.0011981407248941,0.0011981680331041,3.712516005231e-09,-6.0601124242988e-09,-4.2629862947703e-10,-1.685602284874e-09,-0.0011932963111813,0.0011932942330303,-0.001335954568802,0.0013359561322058,-0.0013359549776038,0.0013359557109125,-0.001335957583152,0.0013359529141562,-0.001335957978712,0.0013359525043053,-0.0011981564160452,0.0011981522887822,-0.001198157623351,0.0011981510658396,-0.0011981509877084,0.0011981579322926,-0.0011981604582129,0.0011981480637092,1.0891750045571e-08,-1.100660667131e-08,-0.0011932953254958,0.001193295218477,-7.426181406432e-10,6.5091536754115e-10,-0.0013359519337933,0.0013359586586269,-0.0013359514526651,0.0013359591024702,-0.0013359592519261,0.0013359513753327,-0.0013359587608579,0.0013359518338601,-0.001198164890273,0.0011981438220627,-0.0011981434718559,0.001198165238002,0.72789189873476,131329,3014,0.004959957540706,0.004959957540168,0.0049599575396717,19.917791751149,-8.0657665990805e-05,-8.0657665990805e-05,-8.0657665990805e-05,2345806.6046715,0.014992066877103
25619200,0.99249694232377,0.015363115638708,0.0051210385465489,0.0051210385462257,0.0051210385459338,-0.0011947174362468,0.0011947196354711,-1.0059027294092e-08,1.2291924486203e-08,-3.8134274154689e-09,6.2870815382099e-09,-0.0013375085469254,0.0013374999397044,-0.0013375010938621,0.0013375073984655,-0.0013375054190905,0.0013375032751586,-0.0013374979626166,0.0013375107334822,-0.0011996512988603,0.0011996349691657,-0.0011996294114356,0.0011996568720647,3.6669843268958e-09,-6.0116725083881e-09,-4.3248049875384e-10,-1.6770081801098e-09,-0.0011947195735518,0.0011947174979223,-0.0013375035883036,0.0013375051123167,-0.0013375039867915,0.0013375047013355,-0.0013375065657414,0.0013375019313321,-0.0013375069618695,0.0013375015210127,-0.0011996451612973,0.0011996410692762,-0.0011996463704345,0.0011996398448002,-0.0011996397849347,0.00119964666055,-0.0011996491794248,0.0011996368689064,1.0956449515518e-08,-1.1071512610478e-08,-0.0011947185892659,0.0011947184819736,-7.3700398524003e-10,6.4503955736665e-10,-0.0013375009128638,0.0013375076793021,-0.0013375004301965,0.0013375081247345,-0.0013375082690504,0.0013375003579339,-0.0013375077871939,0.0013375008071323,-0.0011996537265613,0.0011996325110349,-0.0011996321653801,0.0011996540708668,0.73243473688279,131329,3014,0.0049658591551532,0.0049658591546443,0.0049658591541565,20.565393664637,-7.5476850682906e-05,-7.5476850682906e-05,-7.5476850682906e-05,2347408.8038606,0.015010040749989
25819200,0.99270288557115,0.015366284135445,0.0051220947121282,0.0051220947118047,0.0051220947115123,-0.0011953662556172,0.0011953684539625,-1.0169191351126e-08,1.2401258109371e-08,-3.8011412899193e-09,6.2738338857402e-09,-0.0013382732747288,0.0013382645959943,-0.0013382657424729,0.0013382721339129,-0.0013382701494186,0.0013382679287896,-0.0013382626257175,0.0013382754543478,-0.001200352836827,0.0012003363004005,-0.0012003307524697,0.0012003584004004,3.6907992544759e-09,-6.0372081307556e-09,-4.6327380368657e-10,-1.6477420851668e-09,-0.0011953683932544,0.0011953663160783,-0.001338268285835,0.0013382697988518,-0.0013382686584235,0.0013382694138598,-0.001338271273716,0.0013382666072389,-0.0013382716559203,0.0013382662109944,-0.0012003466255541,0.0012003424738973,-0.0012003477937285,0.0012003412911598,-0.0012003411775765,0.001200348137125,-0.0012003506375326,0.0012003382800125,1.103878073312e-08,-1.1155536984885e-08,-0.0011953674090358,0.0011953673000649,-7.079304223586e-10,6.1399401234556e-10,-0.0013382655709549,0.0013382724053017,-0.0013382651023852,0.0013382728366352,-0.001338272976572,0.0013382650344534,-0.0013382725207034,0.0013382654575547,-0.0012003552622929,0.0012003338441362,-0.0012003335206894,0.0012003555851974,0.71386317958016,131329,3014,0.0049685498230854,0.0049685498225699,0.0049685498220875,20.804830918338,-7.3561352653295e-05,-7.3561352653295e-05,-7.3561352653295e-05,2346267.4311602,0.01501823699096
26019200,0.99290163810875,0.015369214304185,0.0051230714350417,0.0051230714347178,0.0051230714344251,-0.0011953084740143,0.0011953106758832,-1.0265693560167e-08,1.2501254533961e-08,-3.8626067518975e-09,6.3394140285471e-09,-0.0013382970566855,0.0013382882711054,-0.0013382894564366,0.0013382958769531,-0.0013382938866839,0.0013382916488149,-0.0013382862999722,0.0013382992373815,-0.0012003228834758,0.001200306207873,-0.001200300614254,0.0012003284927029,3.769077712496e-09,-6.1207441282808e-09,-5.1303257733652e-10,-1.6024756438247e-09,-0.0011953106156823,0.0011953085339702,-0.0013382920067961,0.0013382935351443,-0.0013382923454052,0.0013382931843138,-0.0013382950458672,0.0013382902919652,-0.0013382953990574,0.0013382899249443,-0.0012003166744995,0.001200312378661,-0.0012003177573066,0.0012003112818765,-0.0012003110582029,0.0012003182108629,-0.0012003206841604,0.0012003081871779,1.1132143376014e-08,-1.1251508488668e-08,-0.0011953096305192,0.0011953095189036,-6.6152244329639e-10,5.6451512739153e-10,-0.0013382892545041,0.001338296178929,-0.001338288815451,0.0013382965807104,-0.0013382967208041,0.001338288747442,-0.0013382962993704,0.0013382891360063,-0.0012003253530151,0.0012003037072579,-0.0012003034186449,0.0012003256414886,0.6868829053441,131329,3014,0.0049683106865364,0.0049683106860248,0.0049683106855473,20.675827207095,-7.4593382343237e-05,-7.4593382343237e-05,-7.4593382343237e-05,2343809.6212782,0.015017510518304
26219200,0.99309338411995,0.015372216992154,0.0051240723310319,0.0051240723307077,0.0051240723304146,-0.0011952360616889,0.001195238265631,-1.0368404443714e-08,1.2606029657212e-08,-3.9013857685193e-09,6.3806672199375e-09,-0.0013382702741531,0.001338261387301,-0.0013382625973426,0.0013382690696547,-0.0013382670700778,0.0013382647991966,-0.0013382594216096,0.0013382724495084,-0.0012002676547123,0.0012002508263786,-0.0012002452041298,0.0012002732925304,3.8493510646192e-09,-6.2064186396929e-09,-5.5712345602187e-10,-1.5630041223878e-09,-0.0011952382067301,0.0011952361203467,-0.0013382651660233,0.0013382667097527,-0.001338265469525,0.001338266394171,-0.001338268252643,0.0013382634185871,-0.0013382685855413,0.0013382630720645,-0.0012002614291997,0.0012002570133666,-0.0012002624521926,0.0012002559768466,-0.0012002556492934,0.0012002630097996,-0.0012002654598384,0.0012002528007644,1.122015382165e-08,-1.1341846344674e-08,-0.0011952372204136,0.0011952371064356,-6.1989235494936e-10,5.2013806131573e-10,-0.0013382623821345,0.0013382693850425,-0.0013382619643853,0.0013382697654985,-0.0013382699005395,0.0013382619014844,-0.0013382695151019,0.0013382622538498,-0.0012002701614532,0.0012002482881692,-0.0012002480309421,0.0012002704192095,0.72524660022833,131329,3014,0.004968010680482,0.0049680106799745,0.0049680106795014,20.537792701556,-7.5697658387549e-05,-7.5697658387549e-05,-7.5697658387549e-05,2342425.9339279,0.015016597332958
26419200,0.99327840674989,0.01537520047964,0.005125066826861,0.0051250668265364,0.005125066826243,-0.0011951584938417,0.001195160702243,-1.0451205343968e-08,1.2693226988158e-08,-3.9776821022481e-09,6.4620785074668e-09,-0.0013382697234557,0.0013382607419713,-0.0013382620000316,0.0013382684708959,-0.0013382664771939,0.0013382641964033,-0.0013382587619404,0.0013382719135111,-0.0012002268280205,0.0012002098608648,-0.0012002041816199,0.0012002325228525,3.8667279487726e-09,-6.2245325362817e-09,-5.9513218034605e-10,-1.5255388867561e-09,-0.0011951606413885,0.0011951585544559,-0.0013382645698563,0.0013382661099568,-0.0013382648584493,0.0013382658094581,-0.0013382676784619,0.0013382627968479,-0.0013382679762371,0.0013382624855903,-0.0012002205909045,0.0012002160592161,-0.0012002215106383,0.0012002151263375,-0.0012002147384561,0.0012002221284272,-0.0012002245541037,0.0012002119144973,1.1327176129662e-08,-1.1450653227875e-08,-0.001195159655703,0.0011951595399157,-5.849422621213e-10,4.8305818922743e-10,-0.0013382617320185,0.0013382688392267,-0.0013382613483948,0.0013382691855197,-0.0013382693324807,0.0013382612736684,-0.0013382689610891,0.0013382616121876,-0.00120022936937,0.0012002072882995,-0.0012002070565789,0.0012002296010353,0.74502754400027,131329,3014,0.0049676895413252,0.0049676895408233,0.0049676895403543,20.399416053862,-7.6804671569102e-05,-7.6804671569102e-05,-7.6804671569102e-05,2338851.9581954,0.015015621216854
26619200,0.99346104351984,0.015378116817989,0.0051260389396444,0.0051260389393194,0.0051260389390257,-0.0011957627874033,0.0011957649920025,-1.0544740606766e-08,1.2783018378151e-08,-3.9206115415969e-09,6.4006984532323e-09,-0.0013389765442677,0.0013389675290622,-0.0013389687512435,0.0013389753275548,-0.0013389733290601,0.0013389709521708,-0.0013389655610781,0.001338978721976,-0.0012008856840981,0.0012008685178556,-0.00120086288187,0.0012008913355579,3.8347132339303e-09,-6.1902791225492e-09,-6.0157135001987e-10,-1.517182421392e-09,-0.0011957649320692,0.0011957628471053,-0.0013389713903682,0.001338972897184,-0.0013389716655992,0.0013389726100168,-0.0013389744686777,0.0013389696143917,-0.0013389747700043,0.0013389692996312,-0.0012008793307645,0.0012008748325552,-0.0012008802599024,0.0012008738901504,-0.0012008735120174,0.0012008808679518,-0.0012008832866217,0.0012008706950268,1.1428325435914e-08,-1.155202165308e-08,-0.0011957639474941,0.0011957638314557,-5.7582277306837e-10,4.7362562147414e-10,-0.0013389685034157,0.001338975675606,-0.0013389681176068,0.0013389760241819,-0.0013389761629047,0.0013389680509832,-0.0013389758060888,0.0013389683748089,-0.0012008882401582,0.0012008659306096,-0.001200865705318,0.0012008884654245,0.73848438958109,131329,3014,0.0049701955557039,0.0049701955552206,0.0049701955547538,20.629717343778,-7.4962261249774e-05,-7.4962261249774e-05,-7.4962261249774e-05,2337500.5029268,0.015023254846114
26819200,0.99364349907128,0.015380954968034,0.0051269849896595,0.0051269849893343,0.0051269849890402,-0.0011967487586981,0.0011967509599484,-1.0644436574358e-08,1.287941499083e-08,-3.8797513924934e-09,6.3560955299975e-09,-0.0013400657459891,0.0013400567119317,-0.0013400579092324,0.0013400645541867,-0.0013400625805445,0.001340060085138,-0.0013400547254807,0.0013400679420506,-0.001201924030286,0.0012019065779222,-0.0012019009733796,0.0012019296503173,3.7154903605756e-09,-6.0613202781828e-09,-5.9036839083565e-10,-1.5198144843252e-09,-0.0011967508973681,0.0011967488210448,-0.001340060606558,0.0013400620652267,-0.0013400609080157,0.0013400617517946,-0.0013400636239403,0.0013400588439838,-0.0013400639081528,0.0013400585463168,-0.0012019175126879,0.0012019130570449,-0.0012019183927641,0.001201912163601,-0.0012019118659182,0.0012019189198625,-0.0012019213347,0.001201909053928,1.1523241638995e-08,-1.1646958418121e-08,-0.001196749917119,0.0011967498010718,-5.8777800963821e-10,4.8568570734091e-10,-0.0013400576572112,0.0013400649062498,-0.0013400572850727,0.0013400652412283,-0.0013400654016081,0.0013400571967162,-0.0013400650152295,0.0013400575504007,-0.0012019265009701,0.0012019040761917,-0.0012019038428095,0.0012019267341715,0.72121904097169,131329,3014,0.0049742839708374,0.0049742839703493,0.0049742839698878,21.064242874952,-7.1486057000386e-05,-7.1486057000386e-05,-7.1486057000386e-05,2338355.1026775,0.015035706920932
27019200,0.99382567414919,0.015383706154774,0.0051279020519066,0.005127902051581,0.0051279020512866,-0.0011977423600643,0.001197744555158,-1.0745369182289e-08,1.2974191293303e-08,-3.8191738308611e-09,6.2887340809024e-09,-0.0013411480667126,0.0013411390098278,-0.0013411401704512,0.0013411469116184,-0.0013411449496213,0.0013411423343625,-0.0013411370235633,0.0013411502622741,-0.0012029571031494,0.0012029393931184,-0.0012029338372396,0.0012029626745948,3.63528090964e-09,-5.9732212233903e-09,-5.7343846602404e-10,-1.5296483575233e-09,-0.0011977444921004,0.0011977424228898,-0.0013411429327707,0.0013411443572753,-0.0013411432488471,0.0013411440291686,-0.0013411459002781,0.0013411411863753,-0.0013411461876357,0.0013411408855127,-0.0012029504207661,0.0012029460372353,-0.001202951309686,0.0012029451348998,-0.0012029449015728,0.0012029517718995,-0.0012029541887218,0.0012029420885888,1.1619069601752e-08,-1.1741374029789e-08,-0.0011977435146967,0.0011977434000729,-6.0171715971851e-10,5.0117804441359e-10,-0.0013411399360585,0.0013411472458287,-0.0013411395598501,0.0013411475848922,-0.0013411477496311,0.0013411394671957,-0.0013411473477007,0.0013411398364363,-0.0012029595240595,0.0012029369416425,-0.0012029366966318,0.0012029597681463,0.70228504701247,131329,3014,0.004978403864417,0.0049784038639322,0.0049784038634738,21.503819810669,-6.7969441514647e-05,-6.7969441514647e-05,-6.7969441514647e-05,2340438.8759086,0.015048254286344
27219200,0.99400741106756,0.015386362064265,0.0051287873550706,0.0051287873547447,0.0051287873544499,-0.0011987336430447,0.0011987358315446,-1.0845387866904e-08,1.3067627511832e-08,-3.7434313956816e-09,6.2056597677656e-09,-0.0013422107162352,0.0013422016343044,-0.0013422027484676,0.0013422096076667,-0.001342207644912,0.0013422049126374,-0.0013421996614094,0.0013422128980437,-0.0012039750518619,0.001203957113076,-0.0012039516167603,0.0012039805636115,3.5875266789465e-09,-5.9199129508663e-09,-5.543418310487e-10,-1.5436816950855e-09,-0.0011987357692415,0.0011987337051262,-0.0013422055818348,0.0013422069819078,-0.0013422059018783,0.001342206649792,-0.0013422085089502,0.0013422038516514,-0.0013422088143516,0.001342203532718,-0.001203968209565,0.0012039639173417,-0.0012039691511261,0.0012039629621266,-0.0012039627781815,0.0012039695637506,-0.0012039719866744,0.0012039599596602,1.1716035308752e-08,-1.1836910181049e-08,-0.0011987347936687,0.0011987346804801,-6.1567860391186e-10,5.1670826882884e-10,-0.0013422025486279,0.0013422099070994,-0.0013422021555287,0.0013422102630177,-0.0013422104193328,0.001342202071334,-0.0013422100145497,0.0013422024433301,-0.0012039774571644,0.0012039546772775,-0.0012039544209514,0.0012039777126151,0.68191771511863,131329,3014,0.0049825139892524,0.0049825139887893,0.0049825139883345,21.943588513863,-6.4451291889098e-05,-6.4451291889098e-05,-6.4451291889098e-05,2343687.1245234,0.015060771304628
27419200,0.99418712404863,0.01538907475002,0.0051296915836557,0.0051296915833295,0.0051296915830345,-0.0011994837832578,0.0011994859680623,-1.0945584545905e-08,1.3164400490837e-08,-3.6945601981338e-09,6.1529037306616e-09,-0.0013430067003195,0.0013429975759236,-0.0013429986601666,0.001343005621563,-0.0013430036558793,0.0013430008271292,-0.0013429956133676,0.0013430088714268,-0.0012047387817374,0.0012047206317539,-0.0012047151733651,0.0012047442549847,3.6030080218733e-09,-5.9351006939169e-09,-5.4220642873647e-10,-1.555430019101e-09,-0.0011994859074197,0.0011994838436692,-0.0013430015388997,0.0013430029506668,-0.0013430018601161,0.0013430026171588,-0.0013430044692095,0.0013429998168043,-0.0013430047892306,0.0013429994831614,-0.0012047318170775,0.0012047275583361,-0.0012047328013113,0.0012047265595516,-0.00120472638178,0.0012047332091402,-0.0012047356383212,0.0012047235547991,1.1811038483705e-08,-1.1930920156344e-08,-0.0011994849315745,0.0011994848192977,-6.2533896097105e-10,5.2746364699471e-10,-0.0013429984862617,0.0013430058951591,-0.0013429980797208,0.001343006264587,-0.0013430064131865,0.0013429980029419,-0.0013430060082029,0.0013429983749251,-0.0012047411795315,0.0012047182018954,-0.0012047179395461,0.0012047414434191,0.70214877323713,131329,3014,0.0049856241675166,0.0049856241670338,0.0049856241665833,22.25194626145,-6.1984429908397e-05,-6.1984429908397e-05,-6.1984429908397e-05,2346471.2984126,0.015070242507462
27619200,0.99436428542215,0.01539179177095,0.0051305972572994,0.0051305972569729,0.0051305972566775,-0.0012001557239244,0.001200157908198,-1.1043547584614e-08,1.326167396414e-08,-3.6802187923127e-09,6.1377466918752e-09,-0.0013437399467486,0.0013437307607055,-0.0013437318355596,0.0013437388774598,-0.0013437369061147,0.0013437340080113,-0.0013437288044555,0.0013437421114955,-0.001205435220939,0.0012054168871808,-0.0012054114392325,0.0012054406843368,3.6343330690425e-09,-5.9684264734218e-09,-5.3183741272568e-10,-1.5675096654898e-09,-0.0012001578486812,0.0012001557832123,-0.0013437347438098,0.0013437361769045,-0.0013437350665305,0.0013437358419368,-0.0013437376897312,0.0013437330275163,-0.0013437380231218,0.0013437326804618,-0.0012054281564887,0.001205423913662,-0.0012054291807131,0.0012054228756112,-0.0012054226931959,0.0012054295921598,-0.0012054320313544,0.0012054198574672,1.1906896204259e-08,-1.202580342649e-08,-0.0012001568714512,0.0012001567602272,-6.346239451741e-10,5.3781450469488e-10,-0.0013437316758008,0.0013437391367969,-0.0013437312566672,0.0013437395187062,-0.0013437396603818,0.001343731187044,-0.0013437392547348,0.001343731559621,-0.0012054376253675,0.0012054144513143,-0.0012054141807479,0.001205437896862,0.71252806051903,131329,3014,0.0049884102672918,0.0049884102668137,0.0049884102663667,22.518980559853,-5.9848155521173e-05,-5.9848155521173e-05,-5.9848155521173e-05,2347522.1096432,0.015078727708401
27819200,0.9945388256691,0.015394515007377,0.0051315050027753,0.0051315050024485,0.0051315050021528,-0.0012008246370503,0.0012008268178106,-1.1148912094624e-08,1.3363482895535e-08,-3.6035390877074e-09,6.056835113786e-09,-0.0013444777643968,0.0013444685380665,-0.0013444695637338,0.0013444767443195,-0.0013444747558037,0.0013444717528831,-0.0013444666054395,0.0013444799050669,-0.0012061351246771,0.0012061165912098,-0.0012061111998309,0.0012061405315776,3.7469994635028e-09,-6.0885121027155e-09,-5.2163070129519e-10,-1.584101636045e-09,-0.001200826763261,0.0012008246913712,-0.0013444725114253,0.0013444740043893,-0.0013444728226378,0.0013444736808785,-0.0013444755143534,0.0013444707974247,-0.0013444758770241,0.0013444704210471,-0.0012061279596926,0.0012061237182421,-0.0012061290698278,0.0012061225943078,-0.0012061223612362,0.0012061295322457,-0.0012061319866173,0.0012061195093674,1.1996767520281e-08,-1.2114733787081e-08,-0.0012008257823358,0.0012008256720821,-6.427982280436e-10,5.4701321838637e-10,-0.0013444694560986,0.0013444769514484,-0.001344469010734,0.0013444773595131,-0.0013444774798648,0.0013444689625168,-0.0013444770885296,0.0013444693202232,-0.0012061375429532,0.001206114140887,-0.001206113864236,0.0012061378219001,0.72383355359424,131329,3014,0.0049911838779143,0.0049911838774365,0.0049911838769912,22.784972351873,-5.7720221185012e-05,-5.7720221185012e-05,-5.7720221185012e-05,2347901.4236194,0.015087175328897
28019200,0.99471068893235,0.015397246204515,0.0051324154018219,0.0051324154014947,0.0051324154011987,-0.0012014927534446,0.0012014949396529,-1.123765409944e-08,1.3457629488716e-08,-3.6924027695711e-09,6.151937214188e-09,-0.0013452224703142,0.0013452131388854,-0.0013452142208604,0.0013452213939545,-0.0013452194124625,0.0013452164034698,-0.0013452111889956,0.0013452246287518,-0.0012068408607781,0.0012068221801089,-0.0012068167219984,0.001206846334596,3.7011903873455e-09,-6.040414716201e-09,-5.1102120138148e-10,-1.5928154940847e-09,-0.001201494881451,0.001201492811417,-0.0013452171705298,0.0013452186521727,-0.0013452175002775,0.0013452183100794,-0.0013452201540869,0.0013452154648988,-0.0013452205109894,0.0013452150942203,-0.001206833613575,0.0012068293892742,-0.0012068347076963,0.0012068282815767,-0.0012068280902757,0.0012068351279718,-0.001206837587091,0.0012068252343296,1.2098836874956e-08,-1.2215748180984e-08,-0.0012014939009034,0.0012014937917568,-6.5467629285335e-10,5.6006699710239e-10,-0.0013452140732219,0.0013452216412366,-0.0013452136316469,0.0013452220454628,-0.0013452221768561,0.0013452135724358,-0.0013452217652776,0.0013452139508671,-0.0012068432826889,0.0012068197260661,-0.0012068194400813,0.0012068435710424,0.73612508654031,131329,3014,0.0049939542586663,0.0049939542581868,0.004993954257755,23.05092437075,-5.5592605033997e-05,-5.5592605033997e-05,-5.5592605033997e-05,2347382.8650707,0.015095613574333
28219200,0.99487915819484,0.015399976465227,0.005133325488726,0.0051333254883985,0.0051333254881023,-0.0012020335783993,0.0012020357710533,-1.1323519567426e-08,1.3549907270693e-08,-3.7931838537782e-09,6.2600699647479e-09,-0.0013458463602038,0.0013458369168279,-0.0013458380620679,0.0013458452205953,-0.0013458432436878,0.0013458402405819,-0.0013458349501651,0.0013458485359237,-0.0012074233289553,0.001207404518674,-0.0012073989839126,0.0012074288792605,3.6747265572261e-09,-6.0136982454922e-09,-5.0524694910215e-10,-1.5985317498551e-09,-0.0012020357095984,0.0012020336396317,-0.0013458410061114,0.0013458424846036,-0.0013458413503479,0.0013458421279871,-0.0013458439826758,0.0013458393044672,-0.0013458443327134,0.0013458389406461,-0.0012074160179443,0.0012074117916841,-0.001207417091587,0.0012074107041828,-0.0012074105367819,0.0012074174881376,-0.0012074199511236,0.001207407677217,1.2203153246516e-08,-1.2319220717557e-08,-0.001202034728676,0.0012020346203481,-6.6273241645018e-10,5.6905077918343e-10,-0.001345837869655,0.0013458455127188,-0.0013458374331442,0.0013458459120163,-0.0013458460533424,0.0013458373640439,-0.0013458456254689,0.0013458377589208,-0.0012074257690051,0.0012074020471844,-0.0012074017538608,0.0012074260631023,0.74948916129032,131329,3014,0.0049961969516415,0.0049961969511766,0.0049961969507486,23.250791394312,-5.3993668845503e-05,-5.3993668845503e-05,-5.3993668845503e-05,2345985.1296898,0.015102445219048
28419200,0.99504414093747,0.015402706715997,0.0051342355723162,0.0051342355719885,0.0051342355716919,-0.0012025525223295,0.0012025547219074,-1.1406161834585e-08,1.363944027305e-08,-3.9006648177203e-09,6.3754466963621e-09,-0.0013464561448844,0.0013464465876473,-0.0013464478005018,0.0013464549376818,-0.0013464529653104,0.0013464499750127,-0.0013464446033359,0.0013464583388177,-0.0012079900898732,0.0012079711602919,-0.0012079655436293,0.0012079957221211,3.6417424004652e-09,-5.979892229331e-09,-5.0057474253798e-10,-1.6026486282942e-09,-0.0012025546567231,0.0012025525872926,-0.0013464507379169,0.0013464522084718,-0.0013464510961593,0.0013464518378303,-0.0013464537032244,0.0013464490398275,-0.0013464540450733,0.0013464486841873,-0.0012079827192877,0.0012079784928577,-0.0012079837691954,0.0012079774290824,-0.0012079772872454,0.001207984140087,-0.0012079866056179,0.001207974425592,1.2310380374506e-08,-1.2425743968286e-08,-0.0012025536757151,0.0012025535680961,-6.7008976318829e-10,5.7718374028587e-10,-0.0013464475585087,0.0013464552794929,-0.0013464471279553,0.0013464556729025,-0.0013464558246634,0.0013464470484911,-0.0013464553806518,0.0013464474597859,-0.0012079925559608,0.0012079686633557,-0.0012079683634757,0.0012079928553125,0.76402415679025,131329,3014,0.0049983489873443,0.0049983489868821,0.0049983489864572,23.441419862266,-5.2468641101872e-05,-5.2468641101872e-05,-5.2468641101872e-05,2344070.5149672,0.015109001153673
28619200,0.99520564217302,0.015405397722985,0.005135132574646,0.005135132574318,0.0051351325740212,-0.0012030639352511,0.0012030661407781,-1.1489091345087e-08,1.3728288552738e-08,-3.9934721948716e-09,6.4750442232554e-09,-0.001347067732023,0.0013470580674403,-0.0013470593387048,0.0013470664664214,-0.0013470644966919,0.0013470615110482,-0.001347056069223,0.0013470699403502,-0.0012085544846068,0.001208535433127,-0.0012085297457465,0.0012085601875853,3.6156562932583e-09,-5.953277796777e-09,-4.9648520851272e-10,-1.6064152522586e-09,-0.0012030660724695,0.0012030640033404,-0.0013470622747537,0.0013470637387214,-0.0013470626438658,0.0013470633571871,-0.0013470652306721,0.0013470605796613,-0.0013470655668465,0.0013470602296921,-0.0012085470519156,0.0012085428277517,-0.001208548085532,0.0012085417802608,-0.0012085416588419,0.0012085484359417,-0.0012085509039251,0.0012085387951208,1.2417774355517e-08,-1.2532493486515e-08,-0.001203065091289,0.0012030649843173,-6.7680327244813e-10,5.8460499895387e-10,-0.001347059054209,0.0013470668508188,-0.0013470586272518,0.0013470672407225,-0.0013470674001533,0.0013470585401849,-0.0013470669432387,0.0013470589645838,-0.001208556979923,0.001208532907414,-0.0012085326016364,0.0012085572841443,0.76896078554084,131329,3014,0.0050004698535904,0.0050004698531321,0.0050004698527091,23.631802875608,-5.0945576995134e-05,-5.0945576995134e-05,-5.0945576995134e-05,2341818.4186609,0.015115462555648
28819200,0.99536369218161,0.01540795869391,0.0051359862316211,0.0051359862312929,0.0051359862309958,-0.0012035691133414,0.001203571314326,-1.1608160000445e-08,1.3842799484037e-08,-3.8999314786527e-09,6.3760986056232e-09,-0.0013476742721497,0.0013476645739476,-0.0013476657839626,0.0013476730678021,-0.0013476710855379,0.0013476679682847,-0.001347662596637,0.0013476764590068,-0.0012091104272969,0.0012090911250017,-0.0012090855075965,0.0012091160602794,3.759003213051e-09,-6.106581576268e-09,-4.9321515102792e-10,-1.6183003948914e-09,-0.0012035712526074,0.0012035691748429,-0.0013476687580026,0.0013476703022299,-0.0013476691154434,0.0013476699323125,-0.0013476717972136,0.001347667059104,-0.0013476721551807,0.0013476666873249,-0.001209102892267,0.0012090986221216,-0.0012091039884674,0.0012090975116598,-0.0012090973137335,0.0012091044162994,-0.0012091068975422,0.0012090944350068,1.2494109636939e-08,-1.2608498361383e-08,-0.0012035702669467,0.0012035701603013,-6.7842287947025e-10,5.865721004485e-10,-0.0013476655610261,0.0013476733905734,-0.0013476651161354,0.0013476737983071,-0.001347673940725,0.0013476650461301,-0.0013476734990425,0.001347665454634,-0.0012091128950443,0.001209088626969,-0.0012090883196399,0.0012091132007402,0.74978433958482,131329,3014,0.0050025648330309,0.0050025648325771,0.0050025648321568,23.824397489741,-4.9404820082074e-05,-4.9404820082074e-05,-4.9404820082074e-05,2339881.2382412,0.015121845136661
29019200,0.99551943062106,0.015410339374507,0.0051367797918203,0.0051367797914919,0.0051367797911946,-0.0012042996603549,0.0012043018582823,-1.1720175641444e-08,1.3951750215373e-08,-3.8451036449583e-09,6.3177125772762e-09,-0.0013484885626751,0.0013484788198825,-0.0013484799952699,0.0013484873929655,-0.0013484854080246,0.001348482181951,-0.0013484768509395,0.0013484907408524,-0.0012098797935947,0.0012098602502935,-0.0012098546743199,0.001209885385069,3.8035516907707e-09,-6.153457064776e-09,-4.832330755084e-10,-1.630216597063e-09,-0.0012043017990549,0.0012042997193685,-0.0013484830110885,0.0013484845855855,-0.0013484833702691,0.0013484842138902,-0.0013484860750517,0.0013484813174821,-0.0013484864457893,0.001348480932872,-0.0012098721356936,0.0012098678702615,-0.0012098732697197,0.0012098667219991,-0.0012098665122647,0.0012098737093774,-0.0012098761998753,0.0012098636240553,1.2577065818625e-08,-1.2690590694518e-08,-0.0012043008120035,0.0012043007062188,-6.8654956899958e-10,5.9564284610815e-10,-0.0013484798069637,0.0013484876810712,-0.0013484793507419,0.0013484881000009,-0.0013484882360619,0.0013484792871046,-0.0013484877940863,0.0013484796957593,-0.0012098822263532,0.0012098577864201,-0.0012098574733433,0.0012098825395125,0.71130252829172,131329,3014,0.0050055940050752,0.0050055940046279,0.0050055940042102,24.140150841911,-4.6878793264711e-05,-4.6878793264711e-05,-4.6878793264711e-05,2339685.1720519,0.015131071957727
29219200,0.99567281076587,0.015412625156552,0.0051375417191691,0.0051375417188404,0.0051375417185429,-0.0012050364934103,0.0012050386907215,-1.1817639406993e-08,1.4048599976443e-08,-3.8389148960204e-09,6.3108519919212e-09,-0.0013492732181763,0.0013492634139242,-0.0013492645861921,0.0013492720516071,-0.0013492700672999,0.0013492667721941,-0.0013492614455406,0.0013492753957799,-0.0012106323591903,0.001210612621159,-0.0012106070499764,0.0012106379458566,3.7911781926695e-09,-6.1397768332014e-09,-4.7415426357678e-10,-1.6381100260191e-09,-0.0012050386312086,0.0012050365527096,-0.0013492676370517,0.0013492692091242,-0.0013492680018917,0.0013492688317459,-0.0013492706918495,0.0013492659503032,-0.0013492710681445,0.001349265560086,-0.0012106245904749,0.0012106203518531,-0.0012106257413243,0.0012106191868694,-0.0012106189957003,0.0012106261621828,-0.0012106286572835,0.001210616103236,1.2673318025598e-08,-1.2786051613194e-08,-0.0012050376443476,0.0012050375393702,-6.9454740572998e-10,6.0451417435987e-10,-0.0013492644020949,0.0013492723354596,-0.0013492639402708,0.0013492727599906,-0.0013492728953046,0.0013492638774033,-0.0013492724476591,0.0013492642917728,-0.0012106347852657,0.0012106101636833,-0.001210609844454,0.0012106351051202,0.69516966580064,131329,3014,0.0050086489551311,0.0050086489546843,0.0050086489542682,24.458887199783,-4.4328902401738e-05,-4.4328902401738e-05,-4.4328902401738e-05,2341490.0656217,0.015140375827382
29419200,0.99582376072872,0.01541471505333,0.0051382383514286,0.0051382383510997,0.005138238350802,-0.0012057684362464,0.0012057706353577,-1.1894164463852e-08,1.412691002289e-08,-3.8833942108549e-09,6.3575087343545e-09,-0.0013500389549283,0.0013500290774701,-0.0013500302783936,0.0013500377597576,-0.001350035780773,0.0013500324592225,-0.0013500271004055,0.0013500411414525,-0.0012113672270621,0.0012113473491829,-0.0012113417456013,0.0012113728459843,3.7258491821206e-09,-6.0700612846804e-09,-4.6623432601946e-10,-1.6422379429518e-09,-0.0012057705730369,0.0012057684983638,-0.001350033352265,0.0013500348941471,-0.0013500337281349,0.0013500345057467,-0.0013500363692415,0.0013500316734841,-0.0013500367425181,0.0013500312862929,-0.0012113593684222,0.0012113551699436,-0.0012113605103935,0.0012113540136619,-0.0012113538702347,0.0012113608833223,-0.0012113633788654,0.0012113509781117,1.2789357196975e-08,-1.2901204883223e-08,-0.0012057695876536,0.0012057694835473,-7.0298126305202e-10,6.1392765960789e-10,-0.0013500300627682,0.0013500380751152,-0.0013500296020214,0.0013500384985974,-0.0013500386401061,0.0013500295329627,-0.0013500381795899,0.0013500299604302,-0.0012113696828806,0.001211344862367,-0.0012113445358386,0.0012113700092293,0.65089857198682,131329,3014,0.005011683505239,0.0050116835048134,0.0050116835043984,24.777736624767,-4.1778107001863e-05,-4.1778107001863e-05,-4.1778107001863e-05,2344119.6191304,0.015149617131142
29619200,0.99597213033532,0.015416737719101,0.0051389125733524,0.0051389125730233,0.0051389125727254,-0.0012064864807885,0.0012064886771877,-1.2006287066877e-08,1.4236339632126e-08,-3.8390174275352e-09,6.3100233334715e-09,-0.0013507485531734,0.0013507386238868,-0.0013507397968708,0.0013507473859202,-0.0013507454036403,0.0013507419808149,-0.0013507366552691,0.0013507507310002,-0.0012120646485322,0.0012120445374471,-0.0012120389669838,0.0012120702346034,3.7512034988434e-09,-6.0963995917655e-09,-4.6086165854553e-10,-1.6483835876566e-09,-0.0012064886166218,0.0012064865411421,-0.0013507429174229,0.0013507444736637,-0.0013507432911808,0.0013507440872688,-0.0013507459456724,0.0013507412415522,-0.0013507463286659,0.0013507408446411,-0.0012120566680023,0.0012120524801978,-0.0012120578383827,0.0012120512955504,-0.001212051143066,0.0012120582204359,-0.0012120607203492,0.00121204824613,1.2871824808823e-08,-1.2983222697106e-08,-0.0012064876305945,0.0012064875269717,-7.0637898154817e-10,6.1781128890685e-10,-0.0013507396115302,0.0013507476708943,-0.001350739142533,0.0013507481027627,-0.0013507482378614,0.0013507390798726,-0.0013507477806522,0.0013507395037294,-0.0012120670752456,0.0012120420797935,-0.0012120417504233,0.0012120674044473,0.64191385893674,131329,3014,0.005014660116224,0.00501466011578,0.0050146601153692,25.087363798965,-3.9301089608277e-05,-3.9301089608277e-05,-3.9301089608277e-05,2348710.6676277,0.015158680390214
29819200,0.99611737132847,0.015418843699026,0.005139614566661,0.0051396145663317,0.0051396145660336,-0.0012071038230335,0.0012071060188158,-1.2107875950407e-08,1.4337401181824e-08,-3.8279957459458e-09,6.2983857999313e-09,-0.0013513477486362,0.0013513377566976,-0.0013513389229916,0.0013513465880621,-0.0013513446045439,0.0013513411081085,-0.0013513357905346,0.0013513499239283,-0.0012126602951375,0.0012126399829414,-0.0012126344205309,0.0012126658727091,3.7632554446746e-09,-6.1090218347602e-09,-4.6202565285992e-10,-1.6476861878048e-09,-0.001207105958789,0.0012071038828493,-0.001351342079015,0.0013513436403482,-0.001351342450299,0.0013513432564119,-0.0013513451133843,0.0013513404020323,-0.0013513454976155,0.0013513400038904,-0.00121265221629,0.0012126480237794,-0.0012126533901348,0.0012126468352204,-0.0012126466742713,0.0012126537812935,-0.0012126562806221,0.0012126437771392,1.2963564183719e-08,-1.3074839650565e-08,-0.0012071049724998,0.0012071048689419,-7.0560841085328e-10,6.171608502479e-10,-0.0013513387457236,0.0013513468649619,-0.0013513382753519,0.0013513472981992,-0.0013513474313893,0.0013513382145872,-0.0013513469764726,0.0013513386360796,-0.0012126627138821,0.0012126375326472,-0.0012126372043121,0.0012126630428364,0.67837703362081,131329,3014,0.0050172191967882,0.0050172191963468,0.0050172191959386,25.339647176545,-3.728282258764e-05,-3.728282258764e-05,-3.728282258764e-05,2352913.073116,0.015166471941965
30019200,0.99625945458626,0.01542093810133,0.0051403127007625,0.005140312700433,0.0051403127001347,-0.0012077170138776,0.0012077192106156,-1.2195703934793e-08,1.4426097993903e-08,-3.848796407147e-09,6.3202326551719e-09,-0.0013519808249597,0.0013519707645825,-0.0013519719437462,0.0013519796515227,-0.0013519776704969,0.0013519741264636,-0.0013519687940693,0.0013519830046977,-0.0012132759623795,0.0012132554822441,-0.0012132499049299,0.0012132815552206,3.7428995855153e-09,-6.0874434774642e-09,-4.6417682522121e-10,-1.6444871557361e-09,-0.0012077191495909,0.0012077170746933,-0.0013519751265619,0.001351976676973,-0.0013519754995025,0.0013519762914095,-0.0013519781508328,0.0013519734489109,-0.0013519785298616,0.0013519730559707,-0.001213267800077,0.0012132636067194,-0.0012132689586934,0.0012132624338197,-0.0012132622818342,0.0012132693402343,-0.0012132718371785,0.0012132593879588,1.3068244864619e-08,-1.3179631820471e-08,-0.001207718163858,0.0012077180602311,-7.0366508983805e-10,6.1508569473071e-10,-0.0013519717506382,0.0013519799442621,-0.0013519712850286,0.0013519803727364,-0.0013519805094276,0.0013519712208,-0.0013519800524779,0.0013519716444223,-0.001213278395537,0.0012132530181372,-0.001213252690602,0.0012132787228583,0.68873089993569,131329,3014,0.0050197613778964,0.0050197613774593,0.005019761377054,25.590537230755,-3.5275702153956e-05,-3.5275702153956e-05,-3.5275702153956e-05,2354559.4061243,0.015174213905663
30219200,0.99639836617968,0.015422890856879,0.0051409636192789,0.0051409636189492,0.0051409636186507,-0.0012083235690584,0.0012083257662375,-1.2290779999755e-08,1.4521608644177e-08,-3.850916492321e-09,6.3228024117265e-09,-0.0013526191338759,0.00135260900949,-0.0013526101897157,0.001352617959352,-0.0013526159785305,0.0013526123722872,-0.0013526070379136,0.0013526213146881,-0.0012138892538889,0.0012138685872725,-0.0012138630080125,0.0012138948487976,3.7403279397972e-09,-6.0849933161936e-09,-4.6724483375301e-10,-1.6415622123208e-09,-0.0012083257050745,0.0012083236300087,-0.0013526134050812,0.0013526149522931,-0.0013526137766415,0.0013526145680958,-0.0013526164283452,0.0013526117252388,-0.0013526168047591,0.0013526113349127,-0.0012138810014068,0.0012138768018885,-0.0012138821523928,0.0012138756367841,-0.001213875482525,0.0012138825360771,-0.0012138850311412,0.0012138725905506,1.3165871377961e-08,-1.3277412721685e-08,-0.0012083247193297,0.0012083246155599,-7.0074769384485e-10,6.1198240515172e-10,-0.0013526099937326,0.0013526182549858,-0.0013526095307736,0.0013526186808488,-0.0013526188182637,0.0013526094657893,-0.0013526183627174,0.0013526098880344,-0.0012138916896579,0.0012138661205861,-0.0012138657952295,0.0012138920147785,0.66008312592614,131329,3014,0.0050222761280294,0.0050222761275846,0.0050222761271826,25.841374394754,-3.3269004841969e-05,-3.3269004841969e-05,-3.3269004841969e-05,2355588.9567609,0.015181872950775
30419200,0.99653438822265,0.015424690758002,0.0051415635863203,0.0051415635859904,0.0051415635856917,-0.0012089968064115,0.0012089990032228,-1.2385931058308e-08,1.4616350066303e-08,-3.8491538844028e-09,6.3206075869533e-09,-0.0013532976801183,0.0013532874936885,-0.0013532886729294,0.0013532965066081,-0.001353294526377,0.0013532908548478,-0.0013532855221663,0.0013532998608644,-0.0012145525689408,0.0012145317138652,-0.0012145261362528,0.0012145581621637,3.7292123203723e-09,-6.0729160533883e-09,-4.6902352707461e-10,-1.6389256090865e-09,-0.0012089989418083,0.0012089968676198,-0.0013532919242564,0.0013532934634797,-0.0013532922946421,0.0013532930804901,-0.0013532949401634,0.0013532902438818,-0.001353295314837,0.0013532898553239,-0.0012145442205911,0.0012145400244231,-0.0012145453664351,0.0012145388644596,-0.0012145387139142,0.0012145457462334,-0.0012145482391952,0.0012145358244616,1.3263879195184e-08,-1.3375518008812e-08,-0.0012089979565547,0.0012089978526813,-6.9826435585618e-10,6.0937984474639e-10,-0.0013532884753299,0.0013532968037948,-0.0013532880143423,0.0013532972276828,-0.0013532973655234,0.0013532879489774,-0.0013532969113871,0.0013532883698149,-0.0012145550070272,0.0012145292450732,-0.001214528921242,0.0012145553302847,0.62526527385189,131329,3014,0.0050250671187449,0.0050250671183135,0.0050250671179146,26.129302841923,-3.0965577264619e-05,-3.0965577264619e-05,-3.0965577264619e-05,2358314.5373721,0.015190372293242
30619200,0.99666830831359,0.015426584150981,0.0051421947173135,0.0051421947169834,0.0051421947166846,-0.0012098813005979,0.0012098834956079,-1.2481470973747e-08,1.471000252605e-08,-3.8328552797257e-09,6.3022440238888e-09,-0.0013541538359237,0.0013541435952521,-0.0013541447646099,0.0013541526723149,-0.0013541506927511,0.0013541469457581,-0.0013541416264473,0.0013541560138652,-0.0012154157219727,0.0012153946713863,-0.0012153891071442,0.0012154213021838,3.7010685622577e-09,-6.0420530701136e-09,-4.6556010157382e-10,-1.6399467028243e-09,-0.0012098834338706,0.0012098813621321,-0.0013541480611972,0.0013541495837667,-0.0013541484320421,0.0013541492003291,-0.0013541510566496,0.0013541463848301,-0.0013541514338047,0.0013541459937618,-0.0012154072613855,0.0012154030944537,-0.001215408414788,0.0012154019273171,-0.0012154017961101,0.0012154087745061,-0.0012154112669757,0.0012153989081406,1.3362432965139e-08,-1.3473871672822e-08,-0.0012098824497196,0.0012098823460927,-6.9942991310215e-10,6.1075969785753e-10,-0.0013541445720058,0.0013541529644297,-0.0013541441091255,0.0013541533901989,-0.0013541535267804,0.0013541440450369,-0.0013541530728317,0.0013541444657519,-0.0012154181597877,0.001215392203411,-0.0012153918779346,0.0012154184840522,0.66318230237172,131329,3014,0.0050287336933006,0.0050287336928755,0.0050287336924802,26.523476650333,-2.7812186797335e-05,-2.7812186797335e-05,-2.7812186797335e-05,2362769.3344611,0.01520153713972
30819200,0.99680004766638,0.015428537476763,0.0051428458259076,0.0051428458255773,0.0051428458252783,-0.0012107732230597,0.0012107754158948,-1.2582188422722e-08,1.4808671273022e-08,-3.8051679115558e-09,6.2722428466394e-09,-0.0013550601078579,0.0013550498196729,-0.00135505097219,0.0013550589610696,-0.0013550569857137,0.0013550531490059,-0.0013550478509147,0.0013550622855953,-0.0012163130124439,0.0012162917390296,-0.001216286196085,0.0012163185709167,3.6934060509146e-09,-6.033060633911e-09,-4.6513502754483e-10,-1.6391377152642e-09,-0.0012107753546174,0.0012107732841346,-0.0013550543106005,0.0013550558306588,-0.0013550546833984,0.00135505544524,-0.0013550573023953,0.0013550526353515,-0.0013550576773768,0.0013550522464645,-0.0012163044400419,0.0012163002737184,-0.0012163055867187,0.0012162991128121,-0.0012162989857004,0.0012163059429702,-0.001216308433577,0.0012162960988556,1.3455897922849e-08,-1.3567113990333e-08,-0.0012107743710144,0.0012107742675481,-7.0104598929095e-10,6.1261360533958e-10,-0.0013550507884723,0.0013550592442698,-0.0013550503265419,0.0013550596691158,-0.0013550598075905,0.0013550502604923,-0.0013550593504013,0.001355050684383,-0.0012163154263891,0.0012162892943125,-0.0012162889681875,0.0012163157521206,0.69236328170881,131329,3014,0.0050324313869457,0.0050324313865219,0.0050324313861284,26.920241191513,-2.4638070467897e-05,-2.4638070467897e-05,-2.4638070467897e-05,2364412.9239671,0.015212798839729
31019200,0.99692951044464,0.015430517589487,0.0051435058634823,0.0051435058631518,0.0051435058628526,-0.0012116638585201,0.0012116660503551,-1.2677161404656e-08,1.4902643267478e-08,-3.7970138431864e-09,6.2629987222175e-09,-0.0013559953902382,0.0013559850426065,-0.0013559861902889,0.0013559942483012,-0.0013559922726099,0.0013559883673717,-0.0013559830760999,0.0013559975656879,-0.0012172283352509,0.0012172068738191,-0.0012172013376344,0.0012172338868961,3.6734756110544e-09,-6.0113562464467e-09,-4.6366952237016e-10,-1.6390249062953e-09,-0.0012116659887799,0.0012116639198976,-0.0013559895697518,0.0013559910767405,-0.0013559899417136,0.0013559906921653,-0.0013559925464897,0.0013559878965945,-0.0013559929232093,0.0013559875059839,-0.0012172196585928,0.0012172155128126,-0.0012172208103586,0.0012172143467498,-0.0012172142324471,0.0012172211537349,-0.0012172236432887,0.0012172113469078,1.3554492176627e-08,-1.3665661022966e-08,-0.0012116650059559,0.0012116649025325,-7.0066269182395e-10,6.1227507962248e-10,-0.0013559860087685,0.0013559945292536,-0.0013559855457924,0.001355994955151,-0.0013559950923103,0.0013559854810625,-0.0013559946366535,0.0013559859034415,-0.0012172307537337,0.0012172044246566,-0.0012172040986114,0.0012172310792301,0.71215832111177,131329,3014,0.0050361239710223,0.0050361239706086,0.0050361239702159,27.317104257799,-2.1463165937605e-05,-2.1463165937605e-05,-2.1463165937605e-05,2364177.02176,0.015224046454287
31219200,0.99705771703814,0.015432579677153,0.0051441932260378,0.0051441932257072,0.0051441932254078,-0.0012128437684405,0.0012128459596854,-1.2768678224174e-08,1.4993333750358e-08,-3.8014377789206e-09,6.2665961867292e-09,-0.00135724026611,0.0013572298533238,-0.001357231004025,0.0013572391212754,-0.0013572371444471,0.0013572331821614,-0.0013572278886447,0.0013572424398828,-0.0012184511932579,0.0012184295605988,-0.0012184240217425,0.0012184567479605,3.609159837929e-09,-5.9420359138669e-09,-4.5013555280893e-10,-1.6481593793104e-09,-0.0012128458962004,0.0012128438317251,-0.0013572344298867,0.0013572359028307,-0.0013572348079675,0.0013572355122562,-0.0013572373611612,0.0013572327689714,-0.0013572377467954,0.0013572323694614,-0.0012184423930502,0.0012184383228839,-0.0012184435718177,0.0012184371304389,-0.0012184370690983,0.0012184438609681,-0.0012184463548801,0.0012184341815781,1.3656609161847e-08,-1.3767505155462e-08,-0.0012128449153877,0.0012128448123501,-7.016258822815e-10,6.1352295211848e-10,-0.001357230818861,0.0013572394055716,-0.001357230353662,0.001357239833682,-0.0013572399691484,0.001357230291046,-0.0013572395142349,0.0013572307129087,-0.0012184536281882,0.0012184270963094,-0.0012184267678692,0.0012184539538079,0.74546029625836,131329,3014,0.0050410159463753,0.0050410159459559,0.0050410159455662,27.86651364494,-1.7067890840482e-05,-1.7067890840482e-05,-1.7067890840482e-05,2363286.3132656,0.015238948108867
31419200,0.99718462246078,0.01543452088104,0.0051448402940006,0.0051448402936697,0.0051448402933701,-0.0012140480399207,0.0012140502320733,-1.2855213937274e-08,1.5080976554401e-08,-3.8356094398233e-09,6.3021774186294e-09,-0.0013585425633126,0.0013585320674082,-0.0013585332410146,0.0013585413954465,-0.0013585394159303,0.0013585354222188,-0.0013585301042608,0.0013585447356658,-0.0012197136295314,0.0012196918568131,-0.0012196862933549,0.0012197192083454,3.5318939104871e-09,-5.8593559967625e-09,-4.3311258341836e-10,-1.6604876982347e-09,-0.0012140501657693,0.0012140481060321,-0.0013585367062525,0.0013585381378701,-0.001358537091915,0.0013585377394886,-0.0013585395816722,0.0013585350599171,-0.0013585399792951,0.0013585346482966,-0.001219704712587,0.0012197007360458,-0.0012197059258405,0.001219699508431,-0.0012196995130884,0.0012197061496012,-0.0012197086480059,0.00121969662051,1.3762616597863e-08,-1.3873486161697e-08,-0.001214049187356,0.0012140490842629,-6.9795022851138e-10,6.0984223826765e-10,-0.0013585330390181,0.001358541696743,-0.0013585325742991,0.0013585421245566,-0.0013585422578035,0.0013585325135535,-0.0013585418077386,0.0013585329307809,-0.0012197161023893,0.0012196893540035,-0.0012196890286733,0.00121971642559,0.7124263014483,131329,3014,0.005046009107925,0.0050460091075215,0.0050460091071426,28.434592676709,-1.2523258586329e-05,-1.2523258586329e-05,-1.2523258586329e-05,2361156.3504442,0.015254159482252
31619200,0.99731004153141,0.015436344991279,0.0051454483307469,0.0051454483304159,0.0051454483301162,-0.0012152483369534,0.0012152505247251,-1.2962827428991e-08,1.5184255208603e-08,-3.7667701149939e-09,6.2283612718973e-09,-0.0013598060865067,0.0013597955665784,-0.0013597966963908,0.0013598049624173,-0.0013598029896614,0.0013597988704519,-0.0013597936050312,0.0013598082568891,-0.0012209494280973,0.0012209273889911,-0.0012209218778559,0.0012209549543785,3.5728721833204e-09,-5.9024394211449e-09,-4.3808396794579e-10,-1.6572482040533e-09,-0.0012152504614771,0.0012152484000153,-0.0013598002040745,0.0013598016624038,-0.0013598005894782,0.0013598012642615,-0.0013598031105389,0.0013597985530157,-0.0013598035027595,0.0013597981468312,-0.0012209404009078,0.0012209363786044,-0.0012209415984865,0.0012209351664304,-0.0012209351404541,0.0012209418532728,-0.0012209443502785,0.0012209322483977,1.385069014163e-08,-1.3960693532572e-08,-0.0012152494817782,0.0012152493795333,-7.1029429587918e-10,6.2316623575808e-10,-0.0013597965236256,0.0013598052344232,-0.0013597960528476,0.0013598056683497,-0.0013598058033014,0.001359795990273,-0.0013598053417831,0.0013597964185531,-0.0012209518451128,0.0012209249420342,-0.0012209246071944,0.0012209521778114,0.68057766982893,131329,3014,0.0050509854676026,0.0050509854672126,0.0050509854668371,29.003176441153,-7.9745884707742e-06,-7.9745884707742e-06,-7.9745884707742e-06,2361280.9810079,0.015269318312356
31819200,0.99743167199611,0.015438049252971,0.0051460164179778,0.0051460164176466,0.0051460164173468,-0.0012158639697559,0.0012158661597716,-1.306523136215e-08,1.5288936811593e-08,-3.7741254767044e-09,6.2381107978207e-09,-0.0013604487544948,0.0013604381642489,-0.0013604392977557,0.0013604476267231,-0.0013604456541662,0.001360441471602,-0.0013604361981278,0.0013604509294488,-0.0012215712855777,0.0012215490442885,-0.0012215435256982,0.001221576819593,3.6638801128211e-09,-6.0005614183242e-09,-4.6015426769582e-10,-1.6414494326258e-09,-0.0012158660985685,0.0012158640307618,-0.0013604428138487,0.001360444318486,-0.001360443189125,0.0013604439305801,-0.0013604457852706,0.0013604411436988,-0.0013604461625629,0.0013604407525009,-0.0012215622139633,0.0012215580781247,-0.0012215633675866,0.0012215569102164,-0.0012215568048794,0.0012215637021108,-0.0012215661923593,0.0012215539183805,1.3939799059943e-08,-1.4050579659613e-08,-0.0012158651160764,0.0012158650130726,-7.0453576253371e-10,6.1657568091854e-10,-0.0013604391238047,0.0013604479001051,-0.0013604386594297,0.0013604483273641,-0.0013604484654509,0.0013604385937727,-0.001360448005666,0.001360439020273,-0.0012215736877603,0.001221546611384,-0.0012215462823311,0.0012215740162121,0.65805653270413,131329,3014,0.0050535377237414,0.0050535377233282,0.0050535377229521,29.265626619868,-5.8749870410539e-06,-5.8749870410539e-06,-5.8749870410539e-06,2362620.2319565,0.015277092291753
32019200,0.99754791206219,0.015439842980202,0.0051466143270549,0.0051466143267236,0.0051466143264236,-0.0012160163505835,0.0012160185506032,-1.3149227320778e-08,1.5382768337457e-08,-3.9018647203582e-09,6.3769301675725e-09,-0.0013605954633001,0.0013605847312716,-0.0013605859434539,0.0013605942568616,-0.0013605922708927,0.0013605881313155,-0.0013605827593224,0.0013605976446869,-0.001221714630043,0.0012216923244219,-0.0012216867073682,0.0012217202628552,3.7110680405932e-09,-6.0540943999615e-09,-4.8237958756579e-10,-1.62503679773e-09,-0.0012160184873415,0.0012160164136497,-0.0013605894463053,0.0013605909621498,-0.0013605898049936,0.0013605905909796,-0.0013605924475777,0.001360587757429,-0.0013605928158241,0.0013605873753417,-0.0012217055594516,0.0012217013571223,-0.0012217066867457,0.0012217002161746,-0.0012217000590018,0.0012217070726348,-0.0012217095563669,0.0012216971795456,1.404267355555e-08,-1.4155788824721e-08,-0.0012160175030659,0.0012160173977454,-6.761752498985e-10,5.856008421786e-10,-0.0013605857203295,0.0013605945796712,-0.0013605852718629,0.0013605949908604,-0.0013605951275333,0.0013605852078197,-0.0013605946914463,0.001360585610874,-0.0012217171187248,0.0012216898055535,-0.0012216894978914,0.0012217174248333,0.71766339025287,131329,3014,0.0050541693363614,0.0050541693359519,0.0050541693355785,29.280974489015,-5.7522040878768e-06,-5.7522040878768e-06,-5.7522040878768e-06,2364002.6372142,0.01527901504181
32219200,0.99765895685764,0.015441597289199,0.0051471990967206,0.0051471990963891,0.005147199096089,-0.0012161474358138,0.0012161496437679,-1.3235962963888e-08,1.5477430411419e-08,-4.0006557731241e-09,6.4846184365933e-09,-0.001360777718846,0.0013607668623334,-0.0013607681357939,0.0013607764510752,-0.0013607744547803,0.0013607703345151,-0.0013607648855901,0.0013607799054757,-0.0012218718939817,0.0012218494956218,-0.0012218438015739,0.0012218776035872,3.7623699244597e-09,-6.1111659664974e-09,-5.046708090351e-10,-1.607981537031e-09,-0.0012161495791796,0.001216147500207,-0.00136077163243,0.0013607731629532,-0.0013607719753292,0.001360772807629,-0.0013607746664901,0.0013607699251706,-0.0013607750245328,0.0013607695533669,-0.0012218628126134,0.0012218585388052,-0.0012218639093374,0.0012218574284091,-0.0012218572155278,0.0012218643514985,-0.0012218668271985,0.0012218543432763,1.4143886189045e-08,-1.4259078368003e-08,-0.0012161485933245,0.0012161484858834,-6.5083253951267e-10,5.5792974815858e-10,-0.001360767873179,0.0013607768136296,-0.0013607674396557,0.0013607772098414,-0.0013607773458528,0.0013607673763145,-0.0013607769303455,0.0013607677588789,-0.0012218744503,0.0012218469089456,-0.0012218466211863,0.0012218747364558,0.73340852232175,131329,3014,0.0050547131149471,0.0050547131145384,0.0050547131141675,29.290204890057,-5.6783608795455e-06,-5.6783608795455e-06,-5.6783608795455e-06,2361829.9111076,0.01528067284118
32419200,0.99776503386691,0.015443317566729,0.0051477725225641,0.0051477725222325,0.0051477725219322,-0.0012162702956307,0.0012162725069673,-1.3338071288901e-08,1.5582880063887e-08,-4.0269181941781e-09,6.514515208091e-09,-0.0013609640394054,0.0013609531023497,-0.0013609543909154,0.0013609627564916,-0.0013609607607166,0.0013609565892002,-0.0013609511184844,0.001360966233237,-0.0012220294739098,0.0012220068834509,-0.0012220011671605,0.0012220352056331,3.8560081162204e-09,-6.2126937086997e-09,-5.3378909174293e-10,-1.5858414751992e-09,-0.0012162724441991,0.001216270358205,-0.0013609578902995,0.0013609594658488,-0.0013609582199871,0.0013609591238223,-0.0013609609931591,0.0013609561588213,-0.0013609613303746,0.0013609558079784,-0.0012220203629339,0.001222015956072,-0.0012220213984599,0.0012220149068769,-0.0012220146039602,0.0012220219312019,-0.0012220243966743,0.0012220117408697,1.4232321850102e-08,-1.4348980497731e-08,-0.0012162714555753,0.0012162713466502,-6.3539553286733e-10,5.4086428982015e-10,-0.001360954117187,0.0013609631302136,-0.0013609536983261,0.0013609635118082,-0.0013609636531593,0.0013609536297514,-0.0013609632444888,0.0013609540051531,-0.0012220320222454,0.0012220043049475,-0.0012220040292423,0.0012220322957774,0.75109425892396,131329,3014,0.0050552228736863,0.0050552228732801,0.0050552228729094,29.299201514834,-5.6063878813292e-06,-5.6063878813292e-06,-5.6063878813292e-06,2359150.9168125,0.015282227521702
32619200,0.99786610396483,0.015444825543738,0.0051482751815673,0.0051482751812355,0.0051482751809352,-0.0012162904093454,0.0012162926207676,-1.3440319189416e-08,1.5685227150724e-08,-4.0331561589655e-09,6.5209380765238e-09,-0.0013610619326592,0.0013610509264388,-0.0013610522190412,0.0013610606456784,-0.0013610586529783,0.0013610544142279,-0.0013610489394199,0.0013610641295828,-0.0012220866727452,0.0012220638766819,-0.0012220581566252,0.0012220924083077,3.9340736852912e-09,-6.2958577698337e-09,-5.6073349408236e-10,-1.5632656695673e-09,-0.0012162925601563,0.0012162904697624,-0.0013610557309932,0.001361057342659,-0.0013610560473453,0.0013610570140517,-0.0013610588905441,0.0013610539784629,-0.0013610592082173,0.0013610536472513,-0.0012220775169889,0.0012220729940123,-0.0012220784950044,0.0012220720025667,-0.0012220716199728,0.0012220791076736,-0.001222081560751,0.0012220687683547,1.4322598307747e-08,-1.4439966886924e-08,-0.0012162915696967,0.0012162914600437,-6.2210452475145e-10,5.2672885408919e-10,-0.001361051939948,0.0013610610249126,-0.0013610515332699,0.0013610613941991,-0.0013610615393607,0.0013610514608528,-0.0013610611366431,0.0013610518301354,-0.0012220892071737,0.0012220613116027,-0.0012220610462269,0.0012220894713712,0.69653886742206,131329,3014,0.0050553067483449,0.005055306747938,0.0050553067475677,29.262926167826,-5.89659065739e-06,-5.89659065739e-06,-5.89659065739e-06,2355937.7720953,0.015282485534731
32819200,0.99796229171629,0.015446142202384,0.0051487140677826,0.0051487140674508,0.0051487140671503,-0.0012162627493545,0.0012162649622762,-1.3536404136969e-08,1.578278335192e-08,-4.0543094829812e-09,6.5437877981276e-09,-0.0013610561590123,0.0013610450749415,-0.0013610463810388,0.0013610548585392,-0.001361052864534,0.0013610485776226,-0.0013610430863156,0.0013610583576505,-0.0012220613307463,0.0012220383608166,-0.0012220326245439,0.0012220670825985,3.9505812369676e-09,-6.3132891606292e-09,-5.7641481304583e-10,-1.548341106501e-09,-0.0012162649013003,0.0012162628101365,-0.0013610499183101,0.0013610515301976,-0.0013610502247356,0.0013610512116144,-0.0013610530889679,0.0013610481549127,-0.0013610533963929,0.0013610478340222,-0.0012220521092089,0.0012220475437582,-0.0012220530568517,0.001222046582913,-0.0012220461701225,0.0012220536996393,-0.0012220561434431,0.001222043327865,1.4418259727592e-08,-1.453652488532e-08,-0.0012162639109069,0.0012162638003521,-6.0694241923748e-10,5.1051458310051e-10,-0.0013610460904276,0.0013610552493142,-0.0013610456943968,0.0013610556079044,-0.0013610557541435,0.0013610456210049,-0.0013610553618117,0.0013610459799488,-0.0012220638777289,0.001222035783055,-0.0012220355292021,0.001222064130689,0.64446135784034,131329,3014,0.0050551921547863,0.0050551921543801,0.005055192154011,29.204469769586,-6.3642418433091e-06,-6.3642418433091e-06,-6.3642418433091e-06,2355896.9510805,0.015282136568446
33019200,0.9980538436668,0.015447506548351,0.0051491688497719,0.00514916884944,0.0051491688491394,-0.0012162429249404,0.0012162451393067,-1.3629597469918e-08,1.5877398537903e-08,-4.0730885621756e-09,6.5641820803903e-09,-0.0013610031808706,0.0013609920211893,-0.0013609933388695,0.0013610018687948,-0.0013609998720206,0.0013609955383506,-0.0013609900325884,0.0013610053795824,-0.0012220169010041,0.0012219937658637,-0.0012219880150453,0.0012220226674099,3.9361167170192e-09,-6.2978671516985e-09,-5.853455390317e-10,-1.5385566274895e-09,-0.0012162450771841,0.0012162429868688,-0.0013609969107117,0.0013609985058736,-0.0013609972095373,0.0013609981949456,-0.0013610000700754,0.0013609951419884,-0.0013610003726997,0.0013609948259342,-0.0012220075984943,0.0012220030297178,-0.0012220085320082,0.0012220020831357,-0.0012220016668005,0.0012220091782006,-0.0012220116150138,0.0012219988317506,1.4516836388143e-08,-1.4636014518568e-08,-0.0012162440876736,0.0012162439762023,-5.9290895700894e-10,4.9542238186278e-10,-0.0013609930377634,0.0013610022700869,-0.0013609926500484,0.0013610026203715,-0.0013610027661193,0.00136099257718,-0.0013610023849488,0.0013609929250466,-0.0012220194698303,0.0012219911664383,-0.0012219909230175,0.0012220197119631,0.69524135586981,131329,3014,0.0050551096671163,0.0050551096667095,0.005055109666342,29.1454582662,-6.8363338703962e-06,-6.8363338703962e-06,-6.8363338703962e-06,2358400.5704009,0.015281883129914
33219200,0.99814099617138,0.015448875157547,0.0051496250528374,0.0051496250525053,0.0051496250522046,-0.0012162200002969,0.0012162222141863,-1.3726320154047e-08,1.5973656747928e-08,-4.0656755513439e-09,6.5562312155191e-09,-0.001360998083035,0.0013609868636548,-0.0013609881766879,0.0013609967755923,-0.0013609947792782,0.0013609903756834,-0.0013609848755128,0.0013610002812444,-0.0012220005172119,0.0012219771875213,-0.0012219714423522,0.0012220062780579,3.9296363777224e-09,-6.290829122665e-09,-5.9482423308773e-10,-1.5285822541821e-09,-0.0012162221520606,0.0012162200622247,-0.0013609917882628,0.0013609933729036,-0.0013609920806377,0.0013609930684677,-0.0013609949431365,0.0013609900135382,-0.0013609952393176,0.0013609897039681,-0.0012219911244275,0.0012219865416009,-0.0012219920389945,0.001221985614143,-0.0012219851888931,0.0012219926939844,-0.0012219951238022,0.0012219823608601,1.4613012231448e-08,-1.4732719900814e-08,-0.0012162211630484,0.0012162210510607,-5.836743722074e-10,4.8556236769709e-10,-0.0013609878749821,0.0013609971774897,-0.0013609874936332,0.0013609975214024,-0.0013609976676257,0.0013609874202818,-0.0013609972928366,0.0013609877617759,-0.001222003086656,0.0012219745874619,-0.0012219743509786,0.0012220033219135,0.72922790913608,131329,3014,0.0050550147242317,0.0050550147238171,0.0050550147234515,29.086425514875,-7.3085958809968e-06,-7.3085958809968e-06,-7.3085958809968e-06,2357611.5966153,0.015281594120225
33419200,0.99822531525278,0.015450226197404,0.0051500753994563,0.0051500753991241,0.0051500753988233,-0.001216726488403,0.0012167286969455,-1.3830437308575e-08,1.6072433279666e-08,-3.9932480469544e-09,6.4777249733015e-09,-0.0013615607946103,0.0013615495543308,-0.0013615508223683,0.0013615595321918,-0.0013615575426683,0.0013615530142267,-0.0013615475694984,0.0013615629892053,-0.0012225409229357,0.0012225173340284,-0.0012225116442725,0.0012225466282451,3.8410429046356e-09,-6.1954793423956e-09,-5.799626584217e-10,-1.5375678678515e-09,-0.0012167286345135,0.001216726550645,-0.0013615545120322,0.0013615560509962,-0.0013615548140721,0.0013615557368677,-0.0013615576076358,0.0013615527513845,-0.001361557909974,0.0013615524356171,-0.0012225313578972,0.0012225268605352,-0.0012225322906727,0.0012225259146911,-0.0012225255585679,0.0012225328760676,-0.001222535308211,0.0012225227293297,1.4704296539305e-08,-1.4824480781523e-08,-0.0012167276487331,0.0012167275362497,-5.9254415935914e-10,4.9404318881971e-10,-0.001361550547793,0.0013615599067204,-0.0013615501624306,0.0013615602547026,-0.0013615604031897,0.0013615500867697,-0.0013615600209104,0.0013615504358602,-0.0012225434472961,0.0012225147792917,-0.001222514537285,0.0012225436877858,0.74278652725887,131329,3014,0.0050571148025011,0.005057114802103,0.0050571148017382,29.31172651957,-5.5061878434392e-06,-5.5061878434392e-06,-5.5061878434392e-06,2356484.0740451,0.015287992495631
33619200,0.99830719261926,0.01545153846005,0.0051505128203384,0.0051505128200061,0.0051505128197052,-0.0012173748451059,0.0012173770429867,-1.3893863321542e-08,1.6125360199315e-08,-3.8548374950665e-09,6.3274661450762e-09,-0.0013622783328223,0.0013622671280094,-0.0013622683102537,0.0013622771561981,-0.0013622751651764,0.0013622705029275,-0.0013622651652402,0.0013622805046747,-0.0012232296691211,0.0012232058928961,-0.0012232003103807,0.0012232352670514,3.7989563330004e-09,-6.1475541234561e-09,-5.7143825762352e-10,-1.5407312618765e-09,-0.0012173769831735,0.0012173749047288,-0.0013622720839643,0.001362273590673,-0.0013622723780036,0.0013622732844529,-0.00136227513811,0.0013622703324713,-0.0013622754560333,0.0013622700010781,-0.0012232199701688,0.0012232155534994,-0.0012232209484775,0.0012232145620385,-0.0012232142375177,0.0012232215022009,-0.0012232239323726,0.0012232114099697,1.484012174135e-08,-1.4958302350072e-08,-0.0012173759991078,0.0012173758886192,-6.2019135843266e-10,5.2396782049569e-10,-0.0013622680731457,0.0013622774930911,-0.0013622676567475,0.0013622778721467,-0.0013622780067624,0.0013622675946566,-0.0013622776168918,0.0013622679511461,-0.0012232322379093,0.0012232032930893,-0.0012232030306178,0.0012232325002646,0.74303042332525,131329,3014,0.0050598030625435,0.0050598030621448,0.0050598030617809,29.613431922103,-3.0925446231775e-06,-3.0925446231775e-06,-3.0925446231775e-06,2354936.0121179,0.015296182965542
33819200,0.99838663887227,0.015452815812848,0.0051509386046046,0.0051509386042721,0.0051509386039711,-0.0012180213469517,0.0012180235475041,-1.4152240246187e-08,1.6386426048815e-08,-3.9599031548533e-09,6.4360958878062e-09,-0.0013629928570383,0.0013629814539535,-0.0013629827059209,0.0013629916106524,-0.0013629896630826,0.0013629848558881,-0.0013629794430703,0.0013629950775507,-0.001223915430854,0.001223891089259,-0.0012238854314433,0.0012239211040709,3.53290814631e-09,-5.8622398155094e-09,-4.9776222768632e-10,-1.5976404561761e-09,-0.0012180234779314,0.0012180214163369,-0.0013629865482878,0.0013629879762562,-0.0013629869316238,0.0013629875804062,-0.0013629894640572,0.0013629848578461,-0.0013629897798356,0.0013629845283134,-0.0012239053512886,0.0012239011314921,-0.001223906323902,0.001223900143955,-0.0012239000662468,0.0012239066310384,-0.0012239090882616,0.001223897213488,1.4773028220246e-08,-1.4891951736744e-08,-0.0012180225026611,0.0012180223914324,-5.9273244978347e-10,4.9553264867067e-10,-0.00136298248899,0.0013629919273178,-0.0013629821373913,0.0013629922417953,-0.0013629924228505,0.0013629820288296,-0.0013629920066772,0.0013629824125717,-0.0012239175957572,0.0012238888940572,-0.0012238886503849,0.0012239178377987,0.74517769006279,131329,3014,0.0050624836302986,0.0050624836299056,0.005062483629543,29.917092351249,-6.6326119001026e-07,-6.6326119001026e-07,-6.6326119001026e-07,2353692.4386829,0.015304349926413
34019200,0.99846365836734,0.015454015800865,0.0051513386006104,0.0051513386002779,0.0051513385999768,-0.0012186608483787,0.0012186630341759,-1.4112454619022e-08,1.6331933368646e-08,-3.7303554008502e-09,6.1896765716883e-09,-0.0013636999959074,0.0013636887326728,-0.0013636898390847,0.001363698895178,-0.0013636969227766,0.0013636920125144,-0.0013636867744755,0.0013637021626984,-0.0012245921553381,0.0012245678445276,-0.0012245623605116,0.0012245976543119,3.6203757467652e-09,-5.9528364315692e-09,-5.207299012267e-10,-1.5770630470516e-09,-0.0012186629731577,0.0012186609092123,-0.0013636937543087,0.00136369518736,-0.001363694084216,0.0013636948452527,-0.0013636966921842,0.0013636920464975,-0.0013636970317435,0.0013636916932055,-0.0012245820876616,0.0012245778732783,-0.0012245831296814,0.0012245768192521,-0.0012245766555393,0.0012245835202563,-0.001224585966258,0.0012245738156758,1.5015017726221e-08,-1.5130236634363e-08,-0.0012186619948443,0.0012186618873505,-6.4960638176506e-10,5.5665195748833e-10,-0.0013636896542328,0.0013636991793615,-0.0013636892241458,0.001363699572312,-0.0013636997109842,0.0013636891579267,-0.0013636992932541,0.0013636895423542,-0.0012245946056094,0.001224565364345,-0.0012245650770404,0.0012245948905002,0.72426545048402,131329,3014,0.0050651351160664,0.0050651351156792,0.0050651351153159,30.220827982109,1.7666238568688e-06,1.7666238568688e-06,1.7666238568688e-06,2352688.2558561,0.015312428292187
34219200,0.99853954607854,0.015455165222246,0.0051517217410707,0.0051517217407381,0.0051517217404369,-0.0012198833107037,0.0012198854918649,-1.427862113322e-08,1.6493489904558e-08,-3.7015616736553e-09,6.1559320167378e-09,-0.0013649723300005,0.0013649609886824,-0.0013649620795447,0.0013649712448467,-0.001364969293254,0.0013649642321286,-0.001364959018714,0.0013649745084435,-0.0012258479759696,0.0012258232708686,-0.0012258178125318,0.001225853449869,3.4664050692179e-09,-5.785760870113e-09,-4.6497034063197e-10,-1.6212162882083e-09,-0.0012198854273245,0.0012198833750556,-0.0013649660724256,0.0013649674590926,-0.0013649664518325,0.0013649670671398,-0.0013649689193525,0.00136496440989,-0.001364969275968,0.0013649640393965,-0.0012258376266847,0.001225833582885,-0.0012258387195619,0.0012258324755831,-0.0012258324717933,0.0012258389516142,-0.001225841418471,0.0012258296106553,1.5045171603864e-08,-1.5158628942232e-08,-0.0012198844539512,0.0012198843482548,-6.6349827925948e-10,5.7245704174209e-10,-0.0013649619356307,0.0013649714879376,-0.0013649615120845,0.0013649718743652,-0.0013649720274841,0.0013649614313514,-0.0013649715839956,0.0013649618420495,-0.0012258502276982,0.0012258209888332,-0.0012258206905239,0.0012258505250298,0.70594348594936,131329,3014,0.0050702031910346,0.0050702031906392,0.005070203190278,30.832179009332,6.6574320746582e-06,6.6574320746582e-06,6.6574320746582e-06,2353596.2898904,0.015327866876486
34419200,0.99861430772705,0.01545630247711,0.0051521008260257,0.005152100825693,0.0051521008253917,-0.0012211709472401,0.0012211731259343,-1.4457299632891e-08,1.6669684483287e-08,-3.7046985631784e-09,6.1565189259846e-09,-0.0013662944487765,0.001366283004505,-0.0013662840986933,0.0013662933602818,-0.0013662914295495,0.0013662862305219,-0.0013662810185282,0.0013662966432393,-0.0012271580233628,0.0012271329163009,-0.0012271274586185,0.0012271634961455,3.3384680231092e-09,-5.6477423367749e-09,-4.1028366793313e-10,-1.6670399352065e-09,-0.0012211730581584,0.0012211710148335,-0.0013662881534109,0.0013662895124582,-0.001366288584472,0.0013662890686636,-0.0013662909309018,0.0013662865334418,-0.0013662913023013,0.0013662861478789,-0.0012271474022438,0.0012271434998153,-0.0012271485391493,0.0012271423489796,-0.0012271424871245,0.0012271486278636,-0.0012271511202098,0.0012271396030599,1.506175482467e-08,-1.517346671189e-08,-0.0012211720883786,0.0012211719844391,-6.7374812766306e-10,5.8457718965636e-10,-0.0013662839911911,0.001366293566822,-0.0013662835785717,0.0013662939424618,-0.0013662941122498,0.0013662834811301,-0.00136629364295,0.0013662839179463,-0.0012271600585226,0.001227130851717,-0.0012271305431198,0.001227160364077,0.70867958395213,131329,3014,0.005075541291884,0.0050755412915011,0.0050755412911396,31.47597984826,1.1807838786081e-05,1.1807838786081e-05,1.1807838786081e-05,2355581.9312374,0.015344127505612
34619200,0.99868780833759,0.015457468398321,0.0051524894664294,0.0051524894660966,0.0051524894657952,-0.0012224620889528,0.0012224642656055,-1.4606636276876e-08,1.6817035818511e-08,-3.6974726287492e-09,6.1471967833579e-09,-0.0013676224469531,0.0013676109192364,-0.0013676120097052,0.001367621362165,-0.0013676194449307,0.0013676141280588,-0.0013676089238454,0.0013676246508045,-0.0012284746493142,0.001228449211854,-0.0012284437611897,0.0012284801144388,3.2671391732166e-09,-5.5705346940183e-09,-3.6891602687505e-10,-1.7032054263566e-09,-0.0012224641962283,0.0012224621581572,-0.001367616113222,0.0013676174654478,-0.0013676165813689,0.0013676169844248,-0.0013676188531579,0.0013676145243662,-0.0013676192387042,0.0013676141244123,-0.0012284638144379,0.0012284600086261,-0.00122846499311,0.0012284588163754,-0.0012284590471176,0.0012284649884662,-0.0012284675019987,0.0012284561432996,1.5107478552724e-08,-1.5217349995639e-08,-0.0012224632281615,0.0012224631260493,-6.8946941544734e-10,6.0230499643697e-10,-0.001367611931518,0.0013676215393124,-0.001367611519168,0.0013676219147997,-0.0013676220942129,0.00136761141202,-0.0013676216022965,0.0013676118715747,-0.0012284765405883,0.0012284472914638,-0.0012284469694409,0.0012284768585036,0.7361373859319,131329,3014,0.0050808939198941,0.0050808939195311,0.0050808939191688,32.120674979301,1.6965399834411e-05,1.6965399834411e-05,1.6965399834411e-05,2357241.6275244,0.015360432807681
34819200,0.99876104334778,0.015458640602727,0.0051528802012314,0.0051528802008985,0.005152880200597,-0.0012242921869566,0.0012242943485579,-1.4426218202642e-08,1.6621675509635e-08,-3.4475977640195e-09,5.8800911492517e-09,-0.0013695197373657,0.0013695084315041,-0.001369509364607,0.0013695188100962,-0.0013695168455844,0.0013695115289008,-0.0013695065124792,0.0013695218637619,-0.0012303540788702,0.0012303289994685,-0.0012303237379682,0.0012303593571875,3.4214601804442e-09,-5.7324929446137e-09,-4.0120504457296e-10,-1.6772870554343e-09,-0.0012242942898484,0.0012242922454751,-0.0013695135056451,0.001369514876207,-0.0013695138924725,0.0013695144761427,-0.0013695162884862,0.0013695118899974,-0.0013695167167061,0.0013695114480013,-0.0012303434200267,0.0012303396219982,-0.0012303447207758,0.0012303383109759,-0.0012303384058555,0.0012303448491333,-0.0012303473486347,0.0012303355153412,1.5491940297799e-08,-1.559510848867e-08,-0.0012242933153999,0.0012242932197843,-7.850403038223e-10,7.0555313651246e-10,-0.0013695092664988,0.0013695190072663,-0.0013695087259393,0.0013695195108601,-0.0013695196218952,0.0013695086862142,-0.0013695191249069,0.0013695091499507,-0.0012303565743795,0.0012303264743708,-0.0012303260805275,0.0012303569676999,0.74236047188156,131329,3014,0.0050884809607884,0.0050884809603878,0.0050884809600988,33.051191067842,2.440952854274e-05,2.440952854274e-05,2.440952854274e-05,2358186.8122174,0.015383546150625
35019200,0.99883416549826,0.015459774268105,0.005153258089691,0.0051532580893579,0.0051532580890563,-0.0012263110481992,0.0012263132183503,-1.4825028372501e-08,1.7029018131421e-08,-3.6086565196086e-09,6.0511441478764e-09,-0.0013716164162814,0.0013716047932931,-0.0013716058299737,0.0013716153853933,-0.0013716134705437,0.0013716079455073,-0.0013716028080432,0.0013716186095935,-0.0012324269609192,0.0012324010449218,-0.001232395663011,0.0012324323584996,3.2138968554347e-09,-5.5113984816368e-09,-2.9938126097379e-10,-1.7674292026451e-09,-0.0012263131495246,0.0012263111168442,-0.001371610031123,0.0013716113910126,-0.001371610540004,0.0013716108687043,-0.0013716127284636,0.0013716084923638,-0.0013716131627238,0.0013716080436346,-0.0012324157944675,0.0012324121762932,-0.0012324171161108,0.0012324108371365,-0.0012324111895441,0.001232416992966,-0.0012324195436675,0.0012324082452939,1.5281528466442e-08,-1.5385856924985e-08,-0.0012263121813912,0.0012263120848062,-7.5411374181342e-10,6.7314069757258e-10,-0.0013716058186431,0.001371615495589,-0.001371605357534,0.0013716159197039,-0.0013716160897247,0.001371605259571,-0.0013716155569213,0.0013716057601478,-0.0012324287603046,0.0012323992154809,-0.0012323988442578,0.0012324291305504,0.72136488046205,131329,3014,0.0050968505455494,0.0050968505451701,0.0050968505448147,34.083173969721,3.2665391757771e-05,3.2665391757771e-05,3.2665391757771e-05,2359432.2302275,0.015409044197048
35219200,0.99890689556785,0.015460868567084,0.0051536228560175,0.0051536228556843,0.0051536228553826,-0.0012283344661796,0.0012283366260167,-1.4568373453544e-08,1.6761995969764e-08,-3.4146988334122e-09,5.8450401767407e-09,-0.0013736981765597,0.0013736867927897,-0.001373687704898,0.0013736972704462,-0.0013736953023888,0.0013736898724171,-0.0013736848800273,0.0013737002966399,-0.0012344914474504,0.0012344660841312,-0.0012344608461679,0.001234496700706,3.4176665568801e-09,-5.7279519447095e-09,-3.5110962817919e-10,-1.7266423622408e-09,-0.0012283365678362,0.001228334524175,-0.0013736918926863,0.0013736932892454,-0.0013736923077258,0.0013736928611598,-0.0013736946683014,0.0013736903112057,-0.0013736951340787,0.0013736898311521,-0.0012344805870602,0.0012344769064588,-0.0012344820009372,0.0012344754809883,-0.0012344756437911,0.0012344820625614,-0.0012344845953408,0.0012344727204498,1.5739543928384e-08,-1.583801870393e-08,-0.0012283355912649,0.0012283355005804,-8.4739543003364e-10,7.7317362522354e-10,-0.0013736876064268,0.001373697467523,-0.001373687017551,0.0013736980194317,-0.0013736981208319,0.001373686988046,-0.0013736975851609,0.0013736874903927,-0.0012344940255737,0.0012344634759077,-0.0012344630342201,0.001234494466285,0.70214229057194,131329,3014,0.0051052387533867,0.005105238752998,0.0051052387526541,35.117731743693,4.0941853949543e-05,4.0941853949543e-05,4.0941853949543e-05,2361861.889243,0.01543459872696
35419200,0.99897809496006,0.015461904997188,0.0051539683327187,0.0051539683323855,0.0051539683320837,-0.0012299357312149,0.0012299379032143,-1.4864297841551e-08,1.7070110082737e-08,-3.5920949093192e-09,6.036307889761e-09,-0.0013753364168854,0.0013753247529294,-0.0013753257768047,0.001375335398902,-0.0013753334542045,0.0013753279219367,-0.0013753227937636,0.0013753385840479,-0.0012361165465289,0.0012360906215615,-0.0012360852493735,0.0012361219350629,3.3884209052847e-09,-5.6993560180417e-09,-3.0794327593768e-10,-1.7706872782674e-09,-0.0012299378394349,0.0012299357947947,-0.0013753299717533,0.0013753314111532,-0.0013753304507243,0.0013753309186781,-0.0013753327619077,0.0013753284185836,-0.0013753332222264,0.0013753279439873,-0.0012361054041428,0.0012361017286883,-0.0012361068024392,0.0012361003138539,-0.0012361005580325,0.001236106787643,-0.0012361093478308,0.0012360976028186,1.5629832445583e-08,-1.5729976394783e-08,-0.0012299368631688,0.0012299367708904,-8.1396904742198e-10,7.3777430223679e-10,-0.0013753257157079,0.0013753355590414,-0.0013753251848407,0.0013753360527095,-0.0013753361904943,0.001375325119144,-0.0013753356436301,0.0013753256332853,-0.0012361186968675,0.0012360884407609,-0.0012360880241856,0.0012361191134955,0.68162297299078,131329,3014,0.005111876782579,0.0051118767821603,0.005111876781807,35.929940401955,4.7439523215638e-05,4.7439523215638e-05,4.7439523215638e-05,2364637.8797608,0.015454821212033
35619200,0.9990469578197,0.015462867551855,0.0051542891842745,0.0051542891839412,0.0051542891836393,-0.0012312177320951,0.0012312199112321,-1.479956517856e-08,1.7012385143606e-08,-3.6462809847953e-09,6.0981153947606e-09,-0.0013766309976629,0.0013766193132854,-0.001376620368654,0.0013766299482245,-0.00137662796662,0.0013766225507707,-0.0013766173770745,0.0013766331421763,-0.0012374063608454,0.0012373806921894,-0.0012373752736939,0.0012374117952978,3.5663211087063e-09,-5.8924824003913e-09,-3.5421423930742e-10,-1.7378813496895e-09,-0.0012312198506662,0.0012312177924668,-0.001376624515402,0.0013766260088384,-0.001376624938434,0.0013766255728627,-0.0013766273990968,0.0013766229223407,-0.0013766278628661,0.0013766224441267,-0.0012373954095136,0.0012373916061822,-0.0012373968182084,0.0012373901840453,-0.0012373902671613,0.0012373969621174,-0.0012373995111401,0.0012373873245659,1.5884352060713e-08,-1.5984080561017e-08,-0.001231218867404,0.0012312187755549,-8.2823137739406e-10,7.5257152683879e-10,-0.001376620221095,0.0013766301949018,-0.0013766196506083,0.0013766307281618,-0.0013766308357859,0.0013766196153173,-0.0013766303088261,0.0013766201090826,-0.0012374089286881,0.0012373780942531,-0.0012373776670909,0.0012374093547454,0.65729899036476,131329,3014,0.0051171911311748,0.0051171911307674,0.0051171911304066,36.574347164983,5.2594777319863e-05,5.2594777319863e-05,5.2594777319863e-05,2367765.3833385,0.015471010616795
35819200,0.9991133708712,0.015463857374848,0.0051546191252722,0.0051546191249388,0.0051546191246368,-0.0012324975566601,0.0012324997457667,-1.4870437141647e-08,1.7093169206767e-08,-3.7526406078759e-09,6.2154862663375e-09,-0.0013778969021685,0.0013778850929173,-0.0013778862133105,0.001377895787764,-0.001377893788198,0.0013778884138793,-0.0013778831554548,0.0013778990484304,-0.001238683778058,0.0012386580707858,-0.0012386525682371,0.0012386892969065,3.6836050332339e-09,-6.0210862086111e-09,-3.7963490612239e-10,-1.7226078786439e-09,-0.0012324996853386,0.0012324976168911,-0.0013778903330074,0.0013778918760722,-0.0013778907341432,0.0013778914616701,-0.0013778932893777,0.0013778887159728,-0.00137789374837,0.0013778882430373,-0.0012386728607896,0.0012386689518478,-0.0012386742546435,0.0012386675418759,-0.0012386675308132,0.0012386744962953,-0.0012386770403542,0.0012386645891373,1.6000962951389e-08,-1.610198412632e-08,-0.0012324986975971,0.001232498604458,-8.1392457989808e-10,7.368268664156e-10,-0.0013778860244472,0.001377896076043,-0.0013778854556714,0.0013778966073492,-0.0013778967079662,0.0013778854275692,-0.0013778961995833,0.0013778859028341,-0.0012386864596793,0.0012386553585533,-0.0012386549433299,0.001238686874889,0.69619235007085,131329,3014,0.0051224962827687,0.0051224962823553,0.0051224962819932,37.214568114252,5.7716544914014e-05,5.7716544914014e-05,5.7716544914014e-05,2371635.6501774,0.015487171262989
36019200,0.99917724859846,0.015464869213198,0.0051549564047224,0.0051549564043889,0.0051549564040868,-0.0012337746746728,0.0012337768755106,-1.511045499509e-08,1.7344861323804e-08,-3.904633759413e-09,6.3806225844775e-09,-0.0013792011331891,0.0013791891028837,-0.0013791903167645,0.0013791999251511,-0.0013791979496934,0.0013791924941994,-0.001379187119013,0.0013792033265038,-0.0012399842361544,0.0012399580599029,-0.0012399524404583,0.0012399898720483,3.7390156494377e-09,-6.0840032595936e-09,-3.7943432354371e-10,-1.7296753758288e-09,-0.0012337768127027,0.0012337747372646,-0.0013791944186698,0.0013791960320068,-0.0013791948571047,0.0013791955801042,-0.0013791974498677,0.0013791927966966,-0.0013791978759046,0.0013791923567099,-0.0012399731557263,0.0012399691038646,-0.0012399744533999,0.001239967790392,-0.0012399677529253,0.0012399747215618,-0.0012399772746696,0.0012399648016872,1.5946782200397e-08,-1.605061435322e-08,-0.0012337758228707,0.0012337757269264,-7.7269460782778e-10,6.9239349791274e-10,-0.0013791901316359,0.0013792002101363,-0.0013791896264182,0.0013792006778703,-0.0013792008164032,0.001379189560448,-0.0013792003013419,0.0013791900426088,-0.0012399865951015,0.0012399556704962,-0.0012399552861738,0.0012399869786237,0.73586309743758,131329,3014,0.0051277905074988,0.0051277905070458,0.005127790506693,37.854627894953,6.2837023159624e-05,6.2837023159624e-05,6.2837023159624e-05,2373108.0804587,0.015503300809728
36219200,0.99923644217986,0.015465775214392,0.0051552584051204,0.0051552584047869,0.0051552584044847,-0.001233772030446,0.001233774244679,-1.5173597459484e-08,1.7421250436052e-08,-4.0544130817575e-09,6.5451585299585e-09,-0.0013792564035078,0.0013792442283101,-0.0013792455334778,0.0013792551041126,-0.0013792531083893,0.0013792477317581,-0.0013792422388364,0.0013792586030843,-0.0012400054146808,0.0012399792408904,-0.0012399735028886,0.00124001116837,3.9061369938005e-09,-6.2671846677148e-09,-4.4867630681345e-10,-1.6748298446507e-09,-0.0012337741824053,0.0012337720925256,-0.0013792495897057,0.0013792512569494,-0.0013792499798946,0.0013792508540363,-0.0013792527301334,0.0013792479120829,-0.0013792531221291,0.0013792475060438,-0.0012399944509374,0.0012399901664763,-0.001239995648082,0.0012399889558114,-0.0012399887370012,0.0012399960963102,-0.0012399986238327,0.0012399858121886,1.6067627706709e-08,-1.6176035227933e-08,-0.0012337731876865,0.001233773087071,-7.2156057105515e-10,6.3616780936305e-10,-0.0013792452765256,0.0013792554611813,-0.0013792447997877,0.0013792559004261,-0.0013792560364684,0.0013792447365696,-0.0013792555643587,0.0013792451754657,-0.0012400079262085,0.0012399766991041,-0.001239976354665,0.0012400082687624,0.71361055033323,131329,3014,0.0051277798897406,0.0051277798893333,0.0051277798889739,37.827185237308,6.2617481898461e-05,6.2617481898461e-05,6.2617481898461e-05,2371006.5150942,0.015503270372973
36419200,0.99929044372893,0.015466590080773,0.0051555300272476,0.005155530026914,0.0051555300266117,-0.0012331948808622,0.0012331971049645,-1.5275935332367e-08,1.7533345916965e-08,-4.2224089141296e-09,6.724591045183e-09,-0.0013786971248886,0.0013786847744247,-0.0013786861855716,0.0013786957194318,-0.0013786937167132,0.0013786883916172,-0.001378682773342,0.0013786993367616,-0.0012394332180682,0.001239406953074,-0.0012394010895866,0.0012394390974496,4.0579675613705e-09,-6.4291573780082e-09,-5.2196791816119e-10,-1.6101520337118e-09,-0.0012331970421211,0.0012331949435087,-0.0013786901975601,0.0013786919171023,-0.0013786905443108,0.0013786915579077,-0.0013786934443809,0.0013786884651746,-0.0013786937883887,0.0013786881074489,-0.0012394223359486,0.001239417796741,-0.001239423391663,0.00123941672786,-0.0012394163258966,0.0012394240237993,-0.0012394265138528,0.0012394134369895,1.6151257222296e-08,-1.6263783706278e-08,-0.0012331960451072,0.0012331959403488,-6.5117269438588e-10,5.6095814705484e-10,-0.0013786858584662,0.001378696147056,-0.0013786854325623,0.0013786965353458,-0.0013786966778367,0.0013786853631293,-0.0013786962520161,0.0013786857556704,-0.0012394357908667,0.0012394043500787,-0.0012394040581574,0.00123943608057,0.70434019896749,131329,3014,0.0051253875088171,0.005125387508404,0.0051253875080437,37.496488891132,5.9971911129059e-05,5.9971911129059e-05,5.9971911129059e-05,2367582.3636984,0.015495982387666
36619200,0.99933975068371,0.015467290299116,0.005155763433362,0.0051557634330284,0.0051557634327261,-0.0012325986662233,0.001232600895127,-1.5356655112375e-08,1.7618776033133e-08,-4.3077645213391e-09,6.81553184371e-09,-0.0013781032617209,0.0013780907990253,-0.0013780922640549,0.0013781018022836,-0.0013780997921404,0.0013780944779546,-0.0013780887962769,0.0013781054756008,-0.0012388346748083,0.001238808319162,-0.001238802392121,0.0012388406176088,4.1665354108282e-09,-6.5450468527746e-09,-5.9132591473101e-10,-1.5470233778563e-09,-0.0012326008330213,0.0012325987281339,-0.001378096267544,0.0013780980087468,-0.001378096567492,0.0013780976966583,-0.0013780995859984,0.0013780944847957,-0.0013780998889815,0.0013780941683479,-0.0012388238481813,0.0012388191067382,-0.0012388247829714,0.0012388181594214,-0.0012388176041313,0.001238825568677,-0.0012388280210207,0.0012388147522414,1.6259440073502e-08,-1.6375258899022e-08,-0.0012325998345382,0.0012325997264424,-5.9274001508177e-10,4.9863573760873e-10,-0.001378091885563,0.0013781022815032,-0.001378091497036,0.0013781026323648,-0.0013781027753171,0.0013780914273322,-0.0013781023926457,0.0013780917766117,-0.0012388373359205,0.0012388056278724,-0.0012388053794114,0.0012388375818622,0.6667528079199,131329,3014,0.0051229159981328,0.0051229159977236,0.0051229159973616,37.158122278813,5.7264978230505e-05,5.7264978230505e-05,5.7264978230505e-05,2364538.5314743,0.015488452806266
36819200,0.99938482734792,0.015467912366039,0.005155970789003,0.0051559707886693,0.005155970788367,-0.0012320041347683,0.0012320063670776,-1.5458130243261e-08,1.7723652453231e-08,-4.3634525164032e-09,6.8752149958424e-09,-0.0013774716379602,0.0013774590728595,-0.0013774605729745,0.0013774701433637,-0.0013774681315921,0.0013774627887957,-0.0013774570654206,0.001377473856741,-0.0012382155591328,0.0012381890386442,-0.0012381830699366,0.0012382215436209,4.2137319015514e-09,-6.5955091570608e-09,-6.4733935729224e-10,-1.4937634320058e-09,-0.0012320063046729,0.0012320041969765,-0.0013774645951978,0.0013774663312946,-0.0013774648604457,0.0013774660541314,-0.0013774679474796,0.0013774627732006,-0.0013774682127606,0.0013774624947175,-0.0012382047233179,0.0012381998351826,-0.0012382055468926,0.0012381989994251,-0.0012381983437581,0.0012382064332082,-0.0012382088517504,0.0012381955248608,1.6347571500677e-08,-1.6466593833744e-08,-0.0012320053064049,0.0012320051950701,-5.3782373164829e-10,4.3995495164881e-10,-0.0013774601626223,0.0013774706546489,-0.001377459813491,0.0013774709660476,-0.0013774711136972,0.001377459739127,-0.0013774707674189,0.0013774600519826,-0.0012382182439395,0.0012381863234817,-0.0012381861162712,0.0012382184488551,0.64957833637292,131329,3014,0.0051204511825027,0.0051204511820902,0.0051204511817286,36.819459516146,5.4555676129172e-05,5.4555676129172e-05,5.4555676129172e-05,2363519.3003597,0.015480942012522
37019200,0.99942726178728,0.015468538521215,0.005156179507395,0.0051561795070613,0.0051561795067589,-0.0012324141808871,0.001232416403917,-1.5556331861328e-08,1.7812668986248e-08,-4.2056898195335e-09,6.7067155447967e-09,-0.0013778438723239,0.0013778313435938,-0.0013778327442179,0.0013778424772103,-0.0013778404735326,0.0013778349512539,-0.0013778293455605,0.0013778460809979,-0.0012386096099813,0.0012385827902508,-0.0012385769394059,0.0012386154765497,4.062489052234e-09,-6.4339601769588e-09,-6.4760769535803e-10,-1.4846821927439e-09,-0.0012324163416917,0.0012324142429184,-0.0013778368969803,0.0013778385339017,-0.0013778371584922,0.0013778382605088,-0.0013778401447536,0.0013778350809885,-0.0013778404076121,0.0013778348049555,-0.0012385985717003,0.0012385937894513,-0.0012385993881194,0.001238592960861,-0.0012385923912057,0.0012386001876495,-0.00123860259435,0.0012385895854814,1.6446963265327e-08,-1.6566115781417e-08,-0.0012324153479571,0.0012324152364788,-5.3471738478035e-10,4.3667125402234e-10,-0.0013778323811967,0.0013778429408198,-0.0013778320335924,0.0013778432507861,-0.0013778433978237,0.0013778319596409,-0.0013778430543901,0.001377832269749,-0.0012386122446728,0.0012385801252008,-0.0012385799204105,0.0012386124474785,0.68961815525704,131329,3014,0.0051221506824925,0.0051221506820857,0.0051221506817244,37.016116532187,5.6128932257499e-05,5.6128932257499e-05,5.6128932257499e-05,2367351.7957926,0.015486117520002
37219200,0.99946744916515,0.015469173251042,0.0051563910840039,0.0051563910836701,0.0051563910833677,-0.0012330662257693,0.0012330684421018,-1.5613887634568e-08,1.7863533646192e-08,-4.1178956342915e-09,6.6112968723599e-09,-0.0013785109393566,0.0013784984126617,-0.0013784997601065,0.0013785095974609,-0.0013785075862901,0.00137850197453,-0.0013784964372009,0.001378513125024,-0.0012392724006144,0.0012392454457123,-0.0012392396669022,0.0012392782053449,3.7569407572799e-09,-6.1068315323232e-09,-6.1333434559122e-10,-1.5004550913967e-09,-0.001233068373926,0.0012330662937276,-0.0013785040610454,0.0013785055070274,-0.0013785043241021,0.0013785052310968,-0.0013785070818259,0.0013785022788218,-0.0013785073772288,0.0013785019708786,-0.0012392611433221,0.0012392566742668,-0.0012392620488595,0.0012392557636738,-0.0012392554069046,0.0012392626241128,-0.0012392650277095,0.0012392526100298,1.6586881020935e-08,-1.6703967020862e-08,-0.0012330673888222,0.0012330672787517,-5.3549342686692e-10,4.3974922699238e-10,-0.0013784994112472,0.0013785100481508,-0.0013784990476844,0.0013785103740284,-0.0013785105038672,0.0013784989878582,-0.0013785101751018,0.0013784992840024,-0.0012392751213313,0.0012392426985374,-0.0012392424882454,0.0012392753319746,0.73362543100277,131329,3014,0.0051248537057296,0.0051248537052734,0.0051248537051088,37.342800368825,5.8742402950601e-05,5.8742402950601e-05,5.8742402950601e-05,2369910.7639096,0.015494352513061
37419200,0.99950546436114,0.015469731045063,0.0051565770153444,0.0051565770150106,0.005156577014708,-0.0012337139344916,0.0012337161268646,-1.5772461956114e-08,1.7998388824517e-08,-3.8072012124987e-09,6.2738370601138e-09,-0.0013792200045774,0.0013792075903901,-0.0013792087446191,0.0013792188559394,-0.0013792168837094,0.0013792109183218,-0.0013792056196572,0.0013792221841325,-0.001239953713353,0.0012399261860261,-0.001239920643001,0.0012399592727534,3.7003227831798e-09,-6.0397696559623e-09,-6.0353884406914e-10,-1.5003708311411e-09,-0.0012337160656394,0.0012337139955287,-0.0013792131865577,0.0013792146218757,-0.0013792134699846,0.0013792143263931,-0.0013792161852525,0.001379211419369,-0.0013792164658886,0.0013792111254766,-0.0012399421560692,0.0012399377057901,-0.0012399430244126,0.0012399368254072,-0.0012399365105451,0.0012399435666837,-0.0012399459648358,0.0012399337166886,1.6631470656164e-08,-1.6752132079805e-08,-0.0012337150870249,0.0012337149739738,-5.6933613531893e-10,4.701454749667e-10,-0.0013792085197885,0.0013792191805946,-0.0013792081516539,0.0013792195112247,-0.0013792196617068,0.0013792080735296,-0.0013792192935984,0.0013792084085153,-0.0012399561617151,0.0012399237075332,-0.0012399234817792,0.0012399563866089,0.68665558985942,131329,3014,0.0051275390200735,0.0051275390196782,0.0051275390193274,37.672854735001,6.1382837880005e-05,6.1382837880005e-05,6.1382837880005e-05,2370217.5876224,0.015502535595777
37619200,0.99954137582938,0.015470238946199,0.0051567463157233,0.0051567463153894,0.0051567463150868,-0.0012343715048778,0.0012343736843594,-1.5857394868295e-08,1.8070568587828e-08,-3.6841603271368e-09,6.1367185220498e-09,-0.0013798853161919,0.001379872917725,-0.0013798739981715,0.0013798842413393,-0.0013798822758399,0.0013798761645791,-0.001379870965126,0.0013798874770425,-0.0012406175753024,0.0012405898113884,-0.0012405843676611,0.0012406230353172,3.4946028882541e-09,-5.8149055294144e-09,-5.6922276599231e-10,-1.5176141002102e-09,-0.0012343736209665,0.0012343715680847,-0.001379878563125,0.0013798798834675,-0.0013798788579774,0.0013798795765163,-0.0013798814132313,0.0013798768306529,-0.0013798817166463,0.0013798765138325,-0.0012406057859662,0.0012406015634299,-0.0012406067214375,0.0012406006158445,-0.0012406004567202,0.0012406071068791,-0.0012406095054047,0.0012405976646918,1.6746648140748e-08,-1.6866039297724e-08,-0.0012343726503301,0.0012343725385507,-5.8501451391405e-10,4.8724274983316e-10,-0.0013798738085813,0.0013798845303812,-0.0013798734238764,0.0013798848777205,-0.0013798850211404,0.0013798733525973,-0.0013798846479745,0.0013798736929926,-0.0012406200198232,0.0012405873368979,-0.0012405870989228,0.0012406202568666,0.66415285830065,131329,3014,0.0051302648480552,0.0051302648476645,0.0051302648473115,38.003039821091,6.4024318568725e-05,6.4024318568725e-05,6.4024318568725e-05,2371680.7431046,0.015510839960396
37819200,0.9995743392422,0.01547068645625,0.00515689548574,0.0051568954854061,0.0051568954851034,-0.0012340316815734,0.0012340338604201,-1.5961602305653e-08,1.8174158207354e-08,-3.669962940916e-09,6.1217636189118e-09,-0.0013795203912966,0.0013795079350583,-0.0013795090064203,0.0013795193255153,-0.0013795173630297,0.001379511169708,-0.0013795059805799,0.0013795225539225,-0.0012402553875221,0.0012402274030312,-0.0012402219694181,0.0012402608374886,3.5156888728332e-09,-5.8367290374234e-09,-5.7457213767929e-10,-1.5128391789559e-09,-0.0012340337976423,0.0012340317441577,-0.0013795136029423,0.0013795149360718,-0.0013795138968756,0.0013795146300418,-0.0013795164697804,0.0013795118664395,-0.0013795167674063,0.0013795115554577,-0.0012402435036141,0.0012402392495957,-0.001240244422245,0.0012402383188556,-0.0012402381396037,0.0012402448279806,-0.0012402472235652,0.0012402353501047,1.6835443966978e-08,-1.6955105182705e-08,-0.0012340328268257,0.0012340327148057,-5.8411037312317e-10,4.8605156375248e-10,-0.0013795088236701,0.0013795196076787,-0.0013795084421299,0.0013795199518934,-0.0013795200979732,0.0013795083682058,-0.0013795197229904,0.0013795087102837,-0.0012402578059015,0.0012402249547903,-0.0012402247177327,0.0012402580417673,0.64016141277095,131329,3014,0.0051288559413036,0.0051288559408975,0.005128855940548,37.804285054863,6.2434280438906e-05,6.2434280438906e-05,6.2434280438906e-05,2371834.8933986,0.015506546337553
38019200,0.99960454858182,0.015471115029622,0.0051570383435309,0.0051570383431969,0.0051570383428942,-0.0012336080650577,0.0012336102457413,-1.6061847792693e-08,1.8276228247772e-08,-3.7056898147787e-09,6.1596679709599e-09,-0.0013790414574963,0.0013790289131522,-0.0013790300073705,0.0013790403688558,-0.0013790384067971,0.0013790321703468,-0.001379026954774,0.0013790436241429,-0.0012397988879982,0.0012397707254008,-0.0012397652653421,0.0012398043643065,3.5731991619663e-09,-5.8978244809664e-09,-5.7720663910931e-10,-1.513249456889e-09,-0.0012336101835847,0.001233608127021,-0.0013790346062802,0.0013790359771954,-0.001379034901654,0.0013790356697332,-0.0013790375145408,0.0013790328659099,-0.0013790378092822,0.0013790325578291,-0.0012397869404244,0.0012397826354477,-0.0012397878505214,0.0012397817131958,-0.0012397814972031,0.0012397882933648,-0.0012397906911922,0.0012397787048804,1.6927058910087e-08,-1.7046795220813e-08,-0.0012336092112671,0.0012336090991695,-5.8525620658933e-10,4.8712498187206e-10,-0.0013790298145996,0.0013790406611081,-0.0013790294344783,0.0013790410038769,-0.0013790411522323,0.0013790293583573,-0.0013790407743008,0.0013790297032809,-0.0012398013034806,0.0012397682798612,-0.0012397680423228,0.001239801540039,0.66569813557928,131329,3014,0.0051270995264269,0.005127099526021,0.0051270995256707,37.560043421779,6.0480347374233e-05,6.0480347374233e-05,6.0480347374233e-05,2372434.9442327,0.01550119297504
38219200,0.99963225810763,0.01547151145285,0.0051571704846068,0.0051571704842728,0.0051571704839701,-0.0012331794412648,0.0012331816260483,-1.6150244343945e-08,1.836867239055e-08,-3.7760562858372e-09,6.2347641048834e-09,-0.0013785862842239,0.0013785736323219,-0.0013785747707542,0.0013785851513692,-0.0013785831824696,0.0013785769408919,-0.0013785716730313,0.001378588452096,-0.0012393549396987,0.0012393266613609,-0.0012393211488434,0.0012393604684707,3.6188665903451e-09,-5.9463879931418e-09,-5.7396623587208e-10,-1.5189199442999e-09,-0.001233181563076,0.0012331795040442,-0.0013785793647882,0.0013785807648303,-0.0013785796601378,0.0013785804573855,-0.0013785823015604,0.0013785776248765,-0.0013785826021991,0.0013785773108698,-0.0012393429423736,0.0012393386210767,-0.001239343870092,0.0012393376811927,-0.0012393374431608,0.0012393443351838,-0.0012393467384746,0.0012393346451126,1.7029457652111e-08,-1.7149167729109e-08,-0.0012331805895052,0.0012331804774455,-5.8722246990369e-10,4.8913455912792e-10,-0.0013785745556638,0.0013785854660733,-0.0013785741712109,0.0013785858131351,-0.0013785859585302,0.0013785740981471,-0.001378585582232,0.0013785744414645,-0.0012393574014142,0.0012393241697888,-0.0012393239306007,0.0012393576390926,0.67076171440377,131329,3014,0.0051253225804132,0.0051253225800082,0.0051253225796571,37.314505331038,5.8516042648306e-05,5.8516042648306e-05,5.8516042648306e-05,2371193.7309439,0.015495778487522
38419200,0.99965786861207,0.015471903287575,0.0051573010961819,0.0051573010958479,0.0051573010955451,-0.0012329895946833,0.0012329917814273,-1.6247851581405e-08,1.8468212395788e-08,-3.8119198889934e-09,6.2729203475305e-09,-0.0013783794724781,0.0013783667332015,-0.0013783678944068,0.0013783783168756,-0.0013783763472238,0.0013783700654271,-0.0013783647709656,0.00137838164346,-0.0012391580272472,0.0012391295792073,-0.0012391240400558,0.0012391635826019,3.6641273199886e-09,-5.9945766985798e-09,-5.5987080295996e-10,-1.535496838468e-09,-0.0012329917187281,0.00123298965719,-0.0013783724894946,0.0013783739294643,-0.0013783727961179,0.0013783736106837,-0.0013783754583566,0.0013783707572426,-0.0013783757680578,0.0013783704341084,-0.0012391459484284,0.0012391416203703,-0.0012391469029013,0.0012391406535766,-0.0012391404080188,0.0012391473758202,-0.0012391497918075,0.0012391375968919,1.7124154456542e-08,-1.7243004695866e-08,-0.0012329907434683,0.00123299063228,-6.0301465625735e-10,5.0594333701364e-10,-0.0013783676733067,0.0013783786376485,-0.0013783672790611,0.001378378994469,-0.0013783791401535,0.0013783672057857,-0.0013783787518447,0.0013783675610645,-0.0012391604889068,0.001239127087653,-0.0012391268367218,0.0012391607382903,0.7125373205995,131329,3014,0.0051245355180469,0.0051245355176427,0.0051245355172909,37.196702895495,5.7573623163959e-05,5.7573623163959e-05,5.7573623163959e-05,2370497.4649723,0.015493380121576
38619200,0.99968169215191,0.015472269830009,0.0051574232769934,0.0051574232766593,0.0051574232763565,-0.0012330081013623,0.0012330102891658,-1.6343872712202e-08,1.8565283563507e-08,-3.8316697751185e-09,6.2939164275264e-09,-0.0013784288373286,0.0013784160211654,-0.0013784171949029,0.0013784276692254,-0.0013784256985813,0.0013784193669865,-0.0013784140579325,0.0013784310094143,-0.0012391962699803,0.0012391676474794,-0.0012391620936821,0.0012392018399398,3.6850716369246e-09,-6.0168096429485e-09,-5.3602269602531e-10,-1.5604251024677e-09,-0.0012330102264819,0.0012330081638537,-0.0013784218012074,0.0013784232707212,-0.0013784221240029,0.0013784229356595,-0.0013784247844186,0.0013784200840672,-0.0013784251102717,0.0013784197446765,-0.0012391840877629,0.001239179792066,-0.0012391850899348,0.0012391787773417,-0.0012391785510035,0.0012391855438673,-0.001239187977166,0.0012391757223662,1.7221119310744e-08,-1.7338640519257e-08,-0.001233009250003,0.0012330091401622,-6.2668261992319e-10,5.3117769076852e-10,-0.001378416975138,0.0013784279886848,-0.0013784165645733,0.0013784283618129,-0.0013784285062059,0.0013784164926298,-0.0013784281015518,0.0013784168642356,-0.0012391987298866,0.0012391651576704,-0.0012391648890719,0.0012391989968719,0.71625965826001,131329,3014,0.0051246124816579,0.0051246124812535,0.0051246124809005,37.193728156491,5.7549825251924e-05,5.7549825251924e-05,5.7549825251924e-05,2368390.3572475,0.015493616026395
38819200,0.99970385694493,0.015472612045782,0.0051575373489178,0.0051575373485837,0.0051575373482809,-0.0012330285153351,0.0012330307041767,-1.6439955847928e-08,1.8662395344515e-08,-3.8514731728442e-09,6.3149448469462e-09,-0.0013784822314082,0.0013784693383062,-0.0013784705246286,0.0013784810507509,-0.0013784790791696,0.0013784726977198,-0.0013784673740637,0.0013784844046089,-0.0012392358731601,0.0012392070760025,-0.0012392015075536,0.0012392414577335,3.7062274532207e-09,-6.0392513502116e-09,-5.1278690293591e-10,-1.5847362353781e-09,-0.0012330306415163,0.0012330285778028,-0.0013784751422373,0.0013784766410643,-0.0013784754808327,0.0013784762900983,-0.0013784781399703,0.001378473439805,-0.0013784784815353,0.0013784730846014,-0.0012392235881692,0.001239219323388,-0.0012392246367348,0.0012392182620462,-0.0012392180539767,0.0012392250726273,-0.0012392275228223,0.0012392152082428,1.731799874085e-08,-1.7434259410048e-08,-0.0012330296638553,0.0012330295552928,-6.4979736193075e-10,5.5578398162204e-10,-0.0013784703060088,0.0013784813690879,-0.0013784698795527,0.0013784817580951,-0.0013784819012983,0.0013784698088381,-0.0013784814806598,0.0013784701964102,-0.0012392383313441,0.0012392045879067,-0.0012392043021047,0.0012392386154718,0.71844599439904,131329,3014,0.0051246973482872,0.0051246973478826,0.0051246973475283,37.19361334671,5.7548906773679e-05,5.7548906773679e-05,5.7548906773679e-05,2366485.2543768,0.015493876009004
38880000,0.99971044516664,0.015472713890751,0.0051575712972408,0.0051575712969067,0.0051575712966039,-0.0012330337821545,0.0012330359712887,-1.6469176783425e-08,1.8691906391208e-08,-3.8570597010031e-09,6.3208790955413e-09,-0.0013784980744623,0.0013784851582459,-0.0013784863481152,0.0013784968902655,-0.0013784949184198,0.0013784885214877,-0.0013784831937164,0.0013785002479756,-0.0012392472415642,0.0012392183909988,-0.0012392128184126,0.001239252830264,3.7122138421411e-09,-6.0455984989282e-09,-5.0686843744685e-10,-1.5909535121044e-09,-0.0012330359086327,0.0012330338446179,-0.0013784909698186,0.0013784924765152,-0.0013784913124484,0.0013784921214881,-0.0013784939716683,0.0013784892711165,-0.0013784943172423,0.00137848891188,-0.0012392349261362,0.0012392306688232,-0.0012392359865435,0.0012392295955841,-0.0012392293918148,0.0012392364181972,-0.0012392388727319,0.0012392265416853,1.7347415045672e-08,-1.7463360944722e-08,-0.0012330349306612,0.0012330348224181,-6.5570671410998e-10,5.6206776950958e-10,-0.0013784861296324,0.0013784972084693,-0.0013784856991184,0.0013784976015338,-0.0013784977444425,0.0013784856287088,-0.0013784973197161,0.001378486020362,-0.0012392496994891,0.0012392159031552,-0.0012392156129681,0.0012392499879908,0.71909629737782,131329,3014,0.0051247192556072,0.0051247192552026,0.0051247192548479,37.193609044758,5.754887235806e-05,5.754887235806e-05,5.754887235806e-05,2365913.6508809,0.01549394319294
