time,ASR_ext,ASR_strain,ASR_strain_xx,ASR_strain_yy,ASR_strain_zz,disp_x_101,disp_x_102,disp_x_103,disp_x_104,disp_x_105,disp_x_106,disp_x_p1_neg,disp_x_p1_pos,disp_x_p2_neg,disp_x_p2_pos,disp_x_p3_neg,disp_x_p3_pos,disp_x_p4_neg,disp_x_p4_pos,disp_x_p5_neg,disp_x_p5_pos,disp_x_p6_neg,disp_x_p6_pos,disp_y_101,disp_y_102,disp_y_103,disp_y_104,disp_y_105,disp_y_106,disp_y_p1_neg,disp_y_p1_pos,disp_y_p2_neg,disp_y_p2_pos,disp_y_p3_neg,disp_y_p3_pos,disp_y_p4_neg,disp_y_p4_pos,disp_y_p5_neg,disp_y_p5_pos,disp_y_p6_neg,disp_y_p6_pos,disp_y_p7_neg,disp_y_p7_pos,disp_y_p8_neg,disp_y_p8_pos,disp_z_101,disp_z_102,disp_z_103,disp_z_104,disp_z_105,disp_z_106,disp_z_p1_neg,disp_z_p1_pos,disp_z_p2_neg,disp_z_p2_pos,disp_z_p3_neg,disp_z_p3_pos,disp_z_p4_neg,disp_z_p4_pos,disp_z_p5_neg,disp_z_p5_pos,disp_z_p6_neg,disp_z_p6_pos,humidity,humidity_bc,ndof,nelem,strain_xx,strain_yy,strain_zz,temp,temp_bc,thermal_strain_xx,thermal_strain_yy,thermal_strain_zz,vonmises,vstrain
2419200,0,0,0,0,0,0,0,0,0,0,0,0,0,0,0,0,0,0,0,0,0,0,0,0,0,0,0,0,0,0,0,0,0,0,0,0,0,0,0,0,0,0,0,0,0,0,0,0,0,0,0,0,0,0,0,0,0,0,0,0,0,0,0,0,0,0,0,0,0,0,0,0,0,0,0,0,0
2619200,0.019470334879653,0.00039944519671292,0.00013314839890431,0.00013314839890431,0.00013314839890431,-3.4800288047579e-05,3.4800288046144e-05,-1.2784581004624e-15,3.5045457921047e-17,1.4145451870636e-15,-2.9424590529104e-15,-3.40374191759e-05,3.4037419175367e-05,-3.4037419175439e-05,3.4037419175859e-05,-3.4037419177329e-05,3.4037419173907e-05,-3.4037419176844e-05,3.4037419174401e-05,-3.5429974768343e-05,3.5429974764751e-05,-3.542997476751e-05,3.5429974766108e-05,-1.4073485505855e-15,2.9491470379353e-15,-1.7680636339285e-15,3.2130378733103e-15,-3.4800288046132e-05,3.48002880476e-05,-3.4037419176804e-05,3.4037419175197e-05,-3.4037419175178e-05,3.4037419176799e-05,-3.4037419175451e-05,3.4037419176707e-05,-3.4037419173876e-05,3.4037419178304e-05,-3.5429974766966e-05,3.5429974765176e-05,-3.542997476213e-05,3.5429974769991e-05,-3.5429974766327e-05,3.5429974765279e-05,-3.5429974762088e-05,3.5429974769406e-05,-2.2531434841897e-16,-1.540141368856e-15,-3.4800288047693e-05,3.4800288046038e-05,1.6585596262595e-15,-3.2768190130755e-15,-3.4037419175813e-05,3.403741917625e-05,-3.4037419177441e-05,3.4037419174613e-05,-3.4037419176286e-05,3.4037419175853e-05,-3.4037419177874e-05,3.4037419174164e-05,-3.5429974767743e-05,3.5429974763096e-05,-3.5429974767036e-05,3.5429974764619e-05,0.81992963321665,0.89147349669472,114808,2744,0.00014499063670942,0.00014499063670944,0.00014499063670943,31.480269625869,32.065354619266,1.1842157006954e-05,1.1842157006954e-05,1.1842157006954e-05,408496.75526697,0.00043506674500179
2819200,0.041066555192042,0.00083774663601675,0.00027924887867256,0.0002792488786721,0.00027924887867209,-7.2272415818534e-05,7.2272415773974e-05,1.798766567758e-15,-4.4455717882743e-14,4.3541405561312e-14,-9.2457341392421e-14,-7.1520977240015e-05,7.1520977256777e-05,-7.1520977255469e-05,7.1520977242221e-05,-7.1520977285447e-05,7.1520977210985e-05,-7.1520977300326e-05,7.1520977197189e-05,-7.3038234310378e-05,7.3038234259986e-05,-7.3038234333744e-05,7.3038234203251e-05,-4.5712864532779e-14,9.0225144419065e-14,-7.9660231875774e-14,1.3301010942658e-13,-7.2272415772724e-05,7.2272415819762e-05,-7.1520977266213e-05,7.1520977195867e-05,-7.1520977198511e-05,7.1520977268383e-05,-7.1520977221914e-05,7.1520977242778e-05,-7.1520977154492e-05,7.1520977314883e-05,-7.3038234340856e-05,7.3038234244749e-05,-7.303823413785e-05,7.3038234456519e-05,-7.3038234321956e-05,7.3038234294749e-05,-7.3038234199469e-05,7.3038234433748e-05,-5.3289675345821e-14,-7.0462920935545e-15,-7.2272415829471e-05,7.2272415763051e-05,7.0024132869631e-14,-1.4067712888087e-13,-7.1520977237247e-05,7.1520977223739e-05,-7.1520977306833e-05,7.1520977154207e-05,-7.152097722169e-05,7.1520977238039e-05,-7.1520977291401e-05,7.1520977167979e-05,-7.3038234366691e-05,7.3038234286502e-05,-7.3038234407878e-05,7.3038234246528e-05,0.82138486856175,0.8908132454491,114808,2744,0.00030108965973456,0.00030108965973451,0.00030108965973459,32.731670840042,32.775735335572,2.185336672034e-05,2.185336672034e-05,2.185336672034e-05,250735.69083603,0.00090367734372748
3019200,0.062567339440059,0.0012752255844928,0.00042507519481573,0.00042507519483675,0.0004250751948403,-0.0001068209787347,0.00010682097867886,1.9894971668504e-14,-7.3897225206775e-14,8.6326912124401e-14,-1.4691977181212e-13,-0.00010594473807696,0.00010594473813001,-0.00010594473810748,0.00010594473809823,-0.00010594473815232,0.00010594473805157,-0.00010594473818298,0.000105944738021,-0.00010779971907615,0.00010779971903128,-0.00010779971915214,0.0001077997189303,-8.8518001718162e-14,1.4463029487906e-13,-1.6407640301969e-13,2.2404302328649e-13,-0.00010682097868369,0.0001068209787401,-0.00010594473816996,0.00010594473802084,-0.0001059447380456,0.00010594473815122,-0.000105944738095,0.00010594473809948,-0.00010594473797083,0.00010594473822958,-0.00010779971917974,0.0001077997189471,-0.00010779971880551,0.00010779971933252,-0.00010779971909955,0.0001077997190469,-0.00010779971887936,0.00010779971928232,-9.1077326106088e-14,2.668365174452e-15,-0.00010682097875889,0.00010682097866661,1.4314877396204e-13,-2.4175093820419e-13,-0.00010594473809538,0.00010594473809928,-0.00010594473822284,0.00010594473797169,-0.00010594473806384,0.00010594473812997,-0.00010594473819148,0.00010594473800197,-0.00010779971914801,0.00010779971902801,-0.00010779971923732,0.00010779971893971,0.8201332137925,0.87828479112878,114808,2744,0.00044498827468278,0.00044498827470408,0.00044498827470764,32.492162183983,32.486188633319,1.9937297471866e-05,1.9937297471866e-05,1.9937297471866e-05,258834.86429319,0.0013358567411602
3219200,0.083858238548196,0.0017014356544923,0.00056714521814779,0.00056714521817043,0.00056714521817406,-0.00014038245012882,0.00014038245007367,4.3977929712156e-14,-9.7338220684208e-14,1.1827744466711e-13,-1.7843326957433e-13,-0.00013953646062149,0.00013953646071188,-0.0001395364606676,0.00013953646066396,-0.00013953646071712,0.00013953646061223,-0.00013953646076368,0.00013953646056561,-0.00014137225676503,0.00014137225674696,-0.00014137225688932,0.00014137225660022,-1.2019610750319e-13,1.7640800791527e-13,-2.3692165191205e-13,2.948692566525e-13,-0.00014038245007906,0.00014038245013437,-0.00013953646076894,0.00013953646055085,-0.00013953646059807,0.00013953646072898,-0.00013953646067349,0.00013953646065034,-0.00013953646050277,0.00013953646082835,-0.00014137225694246,0.0001413722565868,-0.00014137225642847,0.00014137225711437,-0.0001413722568065,0.00014137225673919,-0.00014137225652281,0.00014137225703753,-1.2016305520409e-13,2.1097697391591e-14,-0.00014038245015891,0.00014038245005628,2.0863344256801e-13,-3.1901075444043e-13,-0.00013953646064961,0.00013953646067522,-0.00013953646082478,0.00013953646050028,-0.00013953646060216,0.0001395364607218,-0.00013953646077752,0.00013953646054648,-0.00014137225685202,0.00014137225671987,-0.00014137225698836,0.00014137225658481,0.80675910503422,0.81135500028467,114808,2744,0.00058475574789979,0.00058475574792256,0.00058475574792624,32.204785063341,32.196641931066,1.7638280506727e-05,1.7638280506727e-05,1.7638280506727e-05,184615.24471171,0.0017558073522297
3419200,0.10491469748433,0.002113141806554,0.00070438060216823,0.00070438060219107,0.00070438060219473,-0.00017278480391219,0.00017278480386311,7.0791022355287e-14,-1.1804660697812e-13,1.3956757034835e-13,-1.9385696567041e-13,-0.00017219613067488,0.00017219613079937,-0.0001721961307366,0.00017219613073535,-0.00017219613078244,0.00017219613068739,-0.00017219613084486,0.00017219613062484,-0.00017349288244426,0.00017349288246694,-0.00017349288261568,0.00017349288227385,-1.4129620555673e-13,1.92027986618e-13,-2.9714108430855e-13,3.4858239516475e-13,-0.00017278480386855,0.00017278480391781,-0.00017219613086746,0.00017219613059363,-0.00017219613065944,0.0001721961308097,-0.00017219613075989,0.00017219613070532,-0.00017219613055199,0.00017219613092125,-0.00017349288269462,0.0001734928822323,-0.00017349288206965,0.0001734928828727,-0.00017349288250725,0.00017349288243577,-0.00017349288218691,0.00017349288277073,-1.4488862154619e-13,4.3887865138199e-14,-0.00017278480394636,0.00017278480384178,2.6358741082083e-13,-3.7716744102887e-13,-0.00017219613071042,0.00017219613075628,-0.00017219613092338,0.00017219613054367,-0.00017219613064711,0.00017219613081868,-0.00017219613086024,0.00017219613060575,-0.00017349288254663,0.00017349288242116,-0.00017349288272977,0.0001734928822395,0.78589833578696,0.71413774128887,114808,2744,0.00071967756544259,0.00071967756546562,0.0007196775654693,31.915333890811,31.907095228813,1.5322671126489e-05,1.5322671126489e-05,1.5322671126489e-05,126798.11371553,0.0021613653834951
3619200,0.12624696309526,0.0025213651309529,0.0008404550436333,0.00084045504365784,0.00084045504366179,-0.00020561399491239,0.00020561399486641,9.6182246670813e-14,-1.4017710259497e-13,1.4249196910453e-13,-1.941966703662e-13,-0.00020547774997814,0.0002054777501227,-0.00020547775005536,0.00020547775004247,-0.00020547775008644,0.00020547775000943,-0.00020547775016463,0.00020547774993097,-0.00020584296013133,0.00020584296020271,-0.000205842960349,0.00020584295996285,-1.4423210116126e-13,1.9235127821225e-13,-3.32602853917e-13,3.8082709393487e-13,-0.00020561399487225,0.00020561399491842,-0.00020547775019365,0.00020547774989364,-0.00020547774996441,0.00020547775013249,-0.00020547775008524,0.00020547775000648,-0.00020547774985612,0.00020547775024519,-0.00020584296043971,0.00020584295990903,-0.0002058429597502,0.00020584296061753,-0.00020584296021078,0.00020584296015548,-0.00020584295988762,0.00020584296049422,-1.7485142679129e-13,6.1440656118365e-14,-0.00020561399495499,0.0002056139948376,2.8930692657786e-13,-4.1776215677052e-13,-0.00020547775002716,0.00020547775006689,-0.00020547775026217,0.00020547774983225,-0.00020547774994795,0.00020547775014509,-0.00020547775018316,0.00020547774991014,-0.00020584296025241,0.00020584296013898,-0.00020584296048219,0.00020584295991094,0.77011572307067,0.64656198526755,114808,2744,0.0008563581539864,0.00085635815401112,0.0008563581540151,31.993664713803,31.995733577634,1.5949317710426e-05,1.5949317710426e-05,1.5949317710426e-05,301899.1277457,0.0025723774419558
3819200,0.14818877039814,0.002938559660238,0.000979519886728,0.00097951988675298,0.000979519886757,-0.0002396434002349,0.00023964340018013,1.1554594717269e-13,-1.6833384394527e-13,1.3251193043892e-13,-1.9321051115445e-13,-0.0002400432118457,0.00024004321199376,-0.00024004321193867,0.00024004321189758,-0.00024004321195017,0.00024004321188395,-0.00024004321204429,0.00024004321178975,-0.00023940491839242,0.00023940491850512,-0.00023940491865656,0.00023940491821877,-1.3432094070511e-13,1.9129490607193e-13,-3.4713144684317e-13,4.0416783677355e-13,-0.00023964340018611,0.00023964340024101,-0.00024004321206251,0.00024004321176246,-0.00024004321182169,0.00024004321201435,-0.00024004321195784,0.00024004321187174,-0.00024004321171715,0.00024004321212351,-0.00023940491873689,0.00023940491817447,-0.00023940491801173,0.0002394049189213,-0.00023940491847667,0.00023940491845376,-0.00023940491816475,0.00023940491878175,-2.2310691953087e-13,6.0705178586699e-14,-0.00023964340029779,0.00023964340013127,2.8243657028606e-13,-4.6142888160558e-13,-0.00024004321192257,0.00024004321191001,-0.00024004321216969,0.00024004321166319,-0.00024004321182753,0.00024004321200408,-0.00024004321207486,0.00024004321175693,-0.00023940491854195,0.00023940491841387,-0.00023940491881821,0.00023940491813933,0.77140158091993,0.66302364648837,114808,2744,0.00099801593133516,0.00099801593136031,0.00099801593136436,32.324185265087,32.333484921876,1.8593482120696e-05,1.8593482120696e-05,1.8593482120696e-05,434473.81056158,0.0029985344883984
4019200,0.17072955069957,0.0033657311326916,0.0011219103775457,0.0011219103775709,0.001121910377575,-0.00027449058912751,0.0002744905890696,1.377040724171e-13,-1.9369628075271e-13,1.2422716683067e-13,-1.8801057074435e-13,-0.00027548190772377,0.00027548190788021,-0.00027548190783253,0.00027548190776813,-0.00027548190782382,0.0002754819077747,-0.00027548190793389,0.00027548190766482,-0.00027378553968845,0.00027378553984896,-0.00027378553999924,0.00027378553951614,-1.2600009196015e-13,1.8612990209455e-13,-3.5842919729288e-13,4.1885291021346e-13,-0.00027449058907558,0.00027449058913372,-0.00027548190794515,0.00027548190764419,-0.00027548190769623,0.000275481907905,-0.00027548190784498,0.00027548190774902,-0.00027548190759609,0.00027548190800978,-0.0002737855400697,0.00027378553948104,-0.00027378553932002,0.00027378554025395,-0.00027378553978428,0.00027378553978663,-0.00027378553948583,0.00027378554010113,-2.6651581400718e-13,6.4816137558548e-14,-0.00027449058920856,0.00027449058900271,2.7490211663492e-13,-4.9412659594815e-13,-0.00027548190782818,0.00027548190776916,-0.00027548190808362,0.00027548190751399,-0.00027548190771729,0.00027548190787913,-0.00027548190797294,0.00027548190762357,-0.00027378553986279,0.00027378553973367,-0.00027378554018546,0.00027378553941245,0.77299482351428,0.6794853077092,114808,2744,0.0011430571420352,0.0011430571420606,0.0011430571420647,32.661626991332,32.671236266119,2.1293015930658e-05,2.1293015930658e-05,2.1293015930658e-05,512266.30081373,0.0034350579815444
4219200,0.193843077112,0.003803630120329,0.0012678767067581,0.0012678767067834,0.0012678767067875,-0.00031020459733084,0.00031020459727363,1.6179774652814e-13,-2.171238562156e-13,1.1755483503565e-13,-1.8047269256548e-13,-0.00031180743888386,0.0003118074390522,-0.0003118074390085,0.00031180743892431,-0.00031180743897939,0.00031180743895142,-0.00031180743910533,0.00031180743882574,-0.0003090422409823,0.00030904224119465,-0.00030904224133966,0.00030904224081548,-1.1938282352492e-13,1.7853157539469e-13,-3.6647665733086e-13,4.2616190751684e-13,-0.00031020459727967,0.00031020459733703,-0.00031180743911174,0.00031180743880949,-0.00031180743885789,0.00031180743907565,-0.00031180743901602,0.00031180743890961,-0.00031180743876227,0.00031180743917569,-0.00030904224139958,0.00030904224079038,-0.00030904224063518,0.00030904224157864,-0.000309042241095,0.00030904224111573,-0.00030904224081045,0.00030904224141596,-3.0573180716198e-13,7.3122016172599e-14,-0.0003102045974277,0.00031020459719098,2.666076200261e-13,-5.1722539029584e-13,-0.00031180743901494,0.00031180743891442,-0.00031180743927523,0.00031180743865432,-0.00031180743888824,0.00031180743904022,-0.00031180743914876,0.00031180743877977,-0.00030904224117725,0.00030904224105876,-0.0003090422415464,0.00030904224069105,0.77488670438756,0.69594696893002,114808,2744,0.0012916843752231,0.0012916843752485,0.0012916843752526,32.999360855637,33.008987610361,2.3994886845092e-05,2.3994886845092e-05,2.3994886845092e-05,551163.95487696,0.0038825713759087
4419200,0.2178970520642,0.0042596319471937,0.001419877315713,0.0014198773157383,0.0014198773157424,-0.00034786796805446,0.00034786796800002,1.8691921437866e-13,-2.3952705461141e-13,1.1262136288966e-13,-1.7256332389714e-13,-0.00035009235953959,0.00035009235972233,-0.00035009235968013,0.00035009235957866,-0.00035009235963108,0.00035009235962584,-0.00035009235977293,0.00035009235948439,-0.00034625154901788,0.00034625154928374,-0.00034625154942195,0.00034625154885821,-1.1446748839092e-13,1.7060199410854e-13,-3.6880115984831e-13,4.2574989069191e-13,-0.00034786796800608,0.00034786796806064,-0.00035009235977448,0.00035009235947288,-0.0003500923595199,0.00035009235973982,-0.00035009235968277,0.00035009235956873,-0.00035009235942832,0.00035009235983557,-0.00034625154946636,0.00034625154884831,-0.00034625154870011,0.00034625154963837,-0.0003462515491522,0.00034625154918343,-0.00034625154888013,0.00034625154947072,-3.4057918377501e-13,8.5799680349249e-14,-0.00034786796816374,0.00034786796790496,2.5628762647129e-13,-5.291319971454e-13,-0.00035009235969657,0.00035009235955886,-0.00035009235995734,0.0003500923592982,-0.00035009235955404,0.00035009235970052,-0.00035009235981506,0.00035009235943952,-0.00034625154922766,0.00034625154913302,-0.00034625154964329,0.00034625154871872,0.77612065565287,0.70796919803802,114808,2744,0.0014484001173757,0.0014484001174012,0.0014484001174053,33.592658963792,33.609469705379,2.8741271710333e-05,2.8741271710333e-05,2.8741271710333e-05,567704.54911225,0.0043546553491102
4619200,0.24302876423845,0.0047365552573174,0.0015788517524209,0.0015788517524462,0.0015788517524503,-0.00038742231544488,0.00038742231539557,2.1320611491645e-13,-2.6076860630837e-13,1.101554487915e-13,-1.6471701947871e-13,-0.00039027825520565,0.00039027825540597,-0.00039027825536225,0.00039027825524664,-0.00039027825529399,0.000390278255313,-0.00039027825545176,0.00039027825515579,-0.00038534843766561,0.00038534843798645,-0.00038534843811657,0.00038534843751476,-1.1201725442036e-13,1.62738675504e-13,-3.7055616505764e-13,4.2243972710925e-13,-0.00038742231540163,0.00038742231545104,-0.00039027825545026,0.00039027825514735,-0.00039027825519601,0.00039027825541378,-0.00039027825536178,0.00039027825523974,-0.00039027825510766,0.00039027825550605,-0.00038534843814537,0.00038534843752037,-0.00038534843738014,0.00038534843830838,-0.00038534843782535,0.00038534843786103,-0.00038534843756318,0.00038534843813788,-3.6747575916192e-13,1.0643196181192e-13,-0.00038742231555968,0.00038742231529497,2.5277293972491e-13,-5.3119068425393e-13,-0.00039027825538269,0.00039027825522279,-0.00039027825564296,0.00039027825496256,-0.00039027825522435,0.00039027825538033,-0.00039027825548487,0.00039027825511976,-0.00038534843788259,0.00038534843782872,-0.00038534843834464,0.00038534843736777,0.77693644222184,0.71700962800632,114808,2744,0.0016129576874138,0.0016129576874392,0.0016129576874433,34.290133708262,34.309995823094,3.4321069666099e-05,3.4321069666099e-05,3.4321069666099e-05,571987.29788588,0.0048506007163672
4819200,0.26920601206116,0.0052342061386436,0.0017447353795296,0.0017447353795549,0.001744735379559,-0.0004286780311247,0.00042867803107934,2.3892521064956e-13,-2.8258159564079e-13,1.0864763085499e-13,-1.5909054430484e-13,-0.00043217918867031,0.00043217918888805,-0.00043217918884295,0.00043217918871309,-0.00043217918875642,0.00043217918879754,-0.00043217918893015,0.0004321791886246,-0.0004261546010643,0.00042615460143798,-0.00042615460156222,0.00042615460092014,-1.1051087396866e-13,1.5710990628256e-13,-3.7003029876955e-13,4.1800356851321e-13,-0.0004286780310854,0.00042867803113085,-0.00043217918892377,0.00043217918862096,-0.00043217918867121,0.00043217918888571,-0.00043217918883756,0.00043217918871094,-0.00043217918858513,0.00043217918897557,-0.00042615460157152,0.000426154600945,-0.0004261546008107,0.00042615460172786,-0.00042615460124991,0.00042615460128694,-0.00042615460099456,0.00042615460155662,-3.9335325538688e-13,1.2808718261273e-13,-0.00042867803124342,0.00042867803097481,2.4850433483374e-13,-5.3058384985112e-13,-0.00043217918886685,0.0004321791886857,-0.00043217918912546,0.00043217918842709,-0.00043217918869269,0.0004321791888591,-0.00043217918895155,0.00043217918860015,-0.00042615460128577,0.00042615460127588,-0.0004261546017943,0.00042615460076832,0.77792177195601,0.72605005797462,114808,2744,0.0017845645960592,0.0017845645960845,0.0017845645960886,34.990514703047,35.01052194081,3.9924117624373e-05,3.9924117624373e-05,3.9924117624373e-05,556589.63900968,0.0053680523426721
5019200,0.29637826192245,0.0057506549416767,0.0019168849805407,0.0019168849805659,0.00191688498057,-0.00047145391623737,0.00047145391619528,2.6431143006283e-13,-3.0473152688575e-13,1.0747611181298e-13,-1.5453240414113e-13,-0.00047562530774883,0.0004756253079838,-0.00047562530793748,0.00047562530779315,-0.00047562530783316,0.00047562530789525,-0.00047562530802283,0.00047562530770655,-0.00046846047543552,0.0004684604758609,-0.0004684604759804,0.0004684604752969,-1.0933863036813e-13,1.5255210434381e-13,-3.6840124559483e-13,4.1313414374138e-13,-0.00047145391620132,0.00047145391624351,-0.00047562530801069,0.00047562530770866,-0.00047562530776025,0.00047562530797121,-0.00047562530792628,0.00047562530779671,-0.00047562530767598,0.00047562530805915,-0.00046846047596828,0.00046846047534285,-0.00046846047521346,0.00046846047611919,-0.00046846047564704,0.00046846047568422,-0.00046846047539716,0.00046846047594815,-4.1846298830178e-13,1.5051411513239e-13,-0.00047145391635891,0.00047145391608789,2.4418534912873e-13,-5.2848872267935e-13,-0.00047562530796429,0.00047562530776282,-0.00047562530822073,0.00047562530750633,-0.00047562530777428,0.00047562530795207,-0.00047562530803099,0.00047562530769525,-0.00046846047565989,0.00046846047569605,-0.00046846047621494,0.0004684604751419,0.77677323986199,0.72436448347241,114808,2744,0.0019624636812274,0.0019624636812527,0.0019624636812568,35.691018939008,35.711048058525,4.5528151512067e-05,4.5528151512067e-05,4.5528151512067e-05,551292.19052301,0.0059047583489998
5219200,0.32384696214329,0.0062743096517113,0.0020914365505522,0.0020914365505775,0.0020914365505816,-0.00051411169933723,0.00051411169929753,2.8927000491168e-13,-3.2730958174186e-13,1.0672946283376e-13,-1.5132771895383e-13,-0.00051891877363621,0.0005189187738881,-0.00051891877384083,0.00051891877368172,-0.00051891877371931,0.00051891877380091,-0.00051891877392488,0.00051891877359642,-0.00051069602094984,0.00051069602142546,-0.00051069602154157,0.00051069602081524,-1.0859181494754e-13,1.4934720225137e-13,-3.6541670441757e-13,4.0775435220796e-13,-0.00051411169930357,0.00051411169934336,-0.00051891877390584,0.00051891877360549,-0.0005189187736581,0.00051891877386524,-0.0005189187738227,0.00051891877369222,-0.0005189187735751,0.00051891877395184,-0.00051069602150572,0.00051069602088469,-0.00051069602075886,0.0005106960216527,-0.0005106960211872,0.0005106960212231,-0.00051069602094117,0.00051069602148311,-4.4296706324852e-13,1.7354686737998e-13,-0.00051411169946059,0.00051411169918832,2.3949413950079e-13,-5.2490693504168e-13,-0.00051891877387014,0.00051891877364887,-0.00051891877412383,0.00051891877339512,-0.00051891877366429,0.00051891877385398,-0.00051891877391824,0.0005189187735999,-0.00051069602117546,0.0005106960212595,-0.00051069602177702,0.00051069602065878,0.7785555062507,0.73634261842785,114808,2744,0.0021398400874176,0.0021398400874429,0.002139840087447,36.021706827716,36.031329417267,4.8173654621731e-05,4.8173654621731e-05,4.8173654621731e-05,525620.64725743,0.0064401727389977
5419200,0.35140387894603,0.006794253690354,0.0022647512300998,0.002264751230125,0.0022647512301291,-0.00055633726123498,0.00055633726119735,3.1407019213592e-13,-3.5004424147602e-13,1.0607691423696e-13,-1.4857557876511e-13,-0.00056190214268624,0.00056190214295497,-0.00056190214290675,0.00056190214273281,-0.00056190214276816,0.00056190214286883,-0.00056190214298968,0.00056190214264862,-0.0005523512504617,0.00055235125098707,-0.00055235125110025,0.00055235125033054,-1.0793802609681e-13,1.4658584543245e-13,-3.6198220639795e-13,4.0228459283477e-13,-0.00055633726120335,0.00055633726124111,-0.00056190214296337,0.00056190214266511,-0.00056190214271853,0.00056190214292193,-0.00056190214288131,0.00056190214275068,-0.00056190214263664,0.00056190214300736,-0.00055235125103989,0.0005523512504242,-0.00055235125030145,0.00055235125118353,-0.00055235125072444,0.00055235125075868,-0.00055235125048177,0.00055235125101535,-4.6673622682277e-13,1.9731222224705e-13,-0.00055633726135926,0.00055633726108716,2.3524851920157e-13,-5.2034610378371e-13,-0.00056190214293801,0.00056190214269814,-0.00056190214318878,0.00056190214244726,-0.00056190214271628,0.00056190214291911,-0.00056190214296727,0.00056190214266785,-0.00055235125068706,0.00055235125082072,-0.00055235125133528,0.00055235125017339,0.76958001698354,0.69714498381277,114808,2744,0.0023153881852833,0.0023153881853086,0.0023153881853126,36.274883949959,36.282165972326,5.0199071599674e-05,5.0199071599674e-05,5.0199071599674e-05,584248.7260641,0.006970349388131
5619200,0.37896213039307,0.0072903081131465,0.0024301027043639,0.0024301027043893,0.0024301027043933,-0.000596830663209,0.00059683066317283,3.3855348692704e-13,-3.7308884179341e-13,1.0565719423513e-13,-1.4666130636247e-13,-0.00060374851764375,0.00060374851792896,-0.00060374851788026,0.00060374851769112,-0.000603748517725,0.0006037485178437,-0.0006037485179624,0.00060374851760768,-0.00059168037388864,0.00059168037446279,-0.00059168037457414,0.00059168037376014,-1.0751256850601e-13,1.4468146243358e-13,-3.5821823314946e-13,3.9705704665036e-13,-0.00059683066317884,0.00059683066321515,-0.00060374851792816,0.00060374851763224,-0.00060374851768634,0.00060374851788602,-0.00060374851784685,0.00060374851771703,-0.00060374851760518,0.00060374851797067,-0.00059168037448814,0.00059168037387902,-0.00059168037375846,0.00059168037462945,-0.00059168037417714,0.00059168037420923,-0.00059168037393667,0.00059168037446356,-4.8944556247992e-13,2.2213393454901e-13,-0.00059683066333284,0.00059683066306311,2.3206835164763e-13,-5.1469462937355e-13,-0.00060374851791211,0.0006037485176559,-0.00060374851815992,0.000603748517408,-0.00060374851767456,0.00060374851789272,-0.0006037485179226,0.00060374851764445,-0.00059168037411281,0.00059168037429809,-0.0005916803748075,0.00059168037360421,0.73637047139469,0.54647744867083,114808,2744,0.0024837056311079,0.0024837056311332,0.0024837056311373,36.525818858942,36.533002527384,5.2206550871536e-05,5.2206550871536e-05,5.2206550871536e-05,860869.62419909,0.0074789530349909
5819200,0.40643290396511,0.0077634392354878,0.0025878130784777,0.002587813078503,0.0025878130785071,-0.00063620100070503,0.00063620100066955,3.6266050369114e-13,-3.9650790766446e-13,1.0491106839021e-13,-1.4521058229874e-13,-0.00064488715615216,0.00064488715645317,-0.0006448871564046,0.00064488715619956,-0.00064488715623273,0.00064488715636867,-0.000644887156486,0.00064488715611683,-0.00062957817123935,0.00062957817186145,-0.00062957817197178,0.00062957817111268,-1.0676379726281e-13,1.4323468310228e-13,-3.5398327428925e-13,3.9210490381728e-13,-0.00063620100067555,0.00063620100071116,-0.00064488715644303,0.00064488715615022,-0.00064488715620431,0.00064488715640094,-0.00064488715636242,0.00064488715623428,-0.00064488715612385,0.00064488715648486,-0.00062957817185916,0.00062957817125751,-0.00062957817113855,0.00062957817199913,-0.00062957817155271,0.00062957817158322,-0.00062957817131439,0.00062957817183538,-5.1249338779644e-13,2.4661318672466e-13,-0.00063620100082839,0.00063620100056028,2.2831390751979e-13,-5.0936323342051e-13,-0.00064488715643714,0.00064488715616374,-0.00064488715668192,0.00064488715591888,-0.00064488715618375,0.00064488715641641,-0.00064488715642876,0.00064488715617118,-0.000629578171462,0.00062957817169831,-0.00062957817220322,0.00062957817095789,0.71317582473888,0.45191892595528,114808,2744,0.0026473271990266,0.0026473271990518,0.0026473271990559,36.776657896583,36.783839082443,5.4213263172664e-05,5.4213263172664e-05,5.4213263172664e-05,991046.43217076,0.0079736163016113
6019200,0.43334152400723,0.0082178007765282,0.0027392669254912,0.0027392669255165,0.0027392669255205,-0.00067415410040114,0.00067415410036585,3.8652067000003e-13,-4.2016984338509e-13,1.0371611316733e-13,-1.4382233059123e-13,-0.00068461749586331,0.0006846174961795,-0.00068461749613159,0.00068461749591004,-0.00068461749594306,0.00068461749609586,-0.00068461749621216,0.00068461749582817,-0.00066600718214219,0.0006660071828119,-0.0006660071829213,0.00066600718201674,-1.0556248102102e-13,1.4185260767668e-13,-3.4893960484048e-13,3.8684127050002e-13,-0.00067415410037184,0.00067415410040726,-0.00068461749615982,0.00068461749587106,-0.00068461749592446,0.00068461749611836,-0.00068461749608004,0.00068461749595426,-0.00068461749584482,0.00068461749620142,-0.00066600718278127,0.00066600718218861,-0.00066600718207088,0.00066600718292021,-0.00066600718247982,0.00066600718250928,-0.00066600718224405,0.00066600718275888,-5.3636102630353e-13,2.7026794938202e-13,-0.00067415410052467,0.00067415410025638,2.2304906835701e-13,-5.0432779901428e-13,-0.00068461749616566,0.00068461749587282,-0.00068461749640701,0.00068461749563138,-0.00068461749589642,0.00068461749614133,-0.00068461749613801,0.00068461749589952,-0.00066600718236363,0.00066600718264972,-0.00066600718315142,0.00066600718186278,0.70261521838015,0.42208439038852,114808,2744,0.0028050330221195,0.0028050330221446,0.0028050330221487,36.775450594736,36.775527870775,5.4203604757888e-05,5.4203604757888e-05,5.4203604757888e-05,952416.720988,0.0084506273382567
6219200,0.45962107431249,0.0086661518671992,0.0028887172890482,0.0028887172890735,0.0028887172890775,-0.00071147708710622,0.00071147708707109,4.1036292187457e-13,-4.4384646762183e-13,1.0233478878151e-13,-1.4225463215981e-13,-0.00072349904160643,0.00072349904193767,-0.00072349904189053,0.00072349904165233,-0.00072349904168526,0.00072349904185501,-0.00072349904197017,0.00072349904157145,-0.00070203519588557,0.00070203519660297,-0.00070203519671117,0.00070203519576126,-1.0418084675841e-13,1.4028633199591e-13,-3.4299184536398e-13,3.807020462844e-13,-0.00071147708707707,0.00071147708711233,-0.00072349904190822,0.00072349904162419,-0.0007234990416767,0.00072349904186747,-0.00072349904182938,0.00072349904170642,-0.000723499041598,0.00072349904194956,-0.00070203519654308,0.00070203519596119,-0.00070203519584467,0.00070203519668085,-0.0007020351962475,0.00070203519627571,-0.00070203519601459,0.00070203519652235,-5.602695606201e-13,2.9387733107279e-13,-0.00071147708722998,0.00071147708696136,2.1683746399961e-13,-4.9844186117858e-13,-0.00072349904192648,0.00072349904161344,-0.00072349904216383,0.000723499041376,-0.0007234990416414,0.00072349904189779,-0.00072349904187899,0.00072349904165998,-0.00070203519610557,0.00070203519644189,-0.00070203519693991,0.00070203519560846,0.70745490408354,0.46557179585039,114808,2744,0.0029600961624585,0.0029600961624836,0.0029600961624877,36.758816902852,36.758350165794,5.4070535222818e-05,5.4070535222818e-05,5.4070535222818e-05,869466.97110989,0.0089198659576648
6419200,0.48522839985543,0.0091016881669968,0.0030338960556474,0.0030338960556727,0.0030338960556767,-0.00074760721186611,0.00074760721183132,4.3428633395355e-13,-4.6743532472132e-13,1.0095272536151e-13,-1.4051573675246e-13,-0.00076116607724832,0.0007611660775947,-0.00076116607754824,0.00076116607729351,-0.00076116607732616,0.00076116607751309,-0.00076116607762689,0.00076116607721366,-0.00073689379016616,0.00073689379093145,-0.00073689379103823,0.00073689379004317,-1.0278862458396e-13,1.3855670836414e-13,-3.3679756400678e-13,3.7415618743236e-13,-0.0007476072118373,0.00074760721187222,-0.00076116607755537,0.00076116607727618,-0.00076116607732789,0.00076116607751521,-0.00076116607747753,0.00076116607735737,-0.00076116607725018,0.00076116607759626,-0.00073689379084201,0.00073689379027121,-0.00073689379015603,0.00073689379097826,-0.0007368937905526,0.00073689379057933,-0.00073689379032272,0.00073689379082286,-5.8379584190835e-13,3.1786433358045e-13,-0.00074760721198983,0.00074760721172164,2.1073585628189e-13,-4.9182050463295e-13,-0.00076116607758582,0.00076116607725313,-0.00076116607781896,0.00076116607701989,-0.00076116607728489,0.00076116607755332,-0.00076116607751828,0.00076116607731973,-0.00073689379038426,0.00073689379077178,-0.00073689379126514,0.00073689378989184,0.70210891384157,0.45785087119184,114808,2744,0.0031101801650468,0.0031101801650719,0.003110180165076,36.741663071818,36.741172460813,5.3933304574546e-05,5.3933304574546e-05,5.3933304574546e-05,877808.03343486,0.0093742468586502
6619200,0.51053456210966,0.0095567100235738,0.0031855700078397,0.003185570007865,0.0031855700078691,-0.00078494778369632,0.00078494778366217,4.5841090257115e-13,-4.9082340963396e-13,9.9730836276244e-14,-1.3858083997988e-13,-0.00079958248513112,0.00079958248549349,-0.00079958248544715,0.00079958248517599,-0.00079958248520822,0.00079958248541219,-0.00079958248552406,0.00079958248509722,-0.00077368418644097,0.00077368418725502,-0.00077368418735909,0.00077368418631977,-1.0198167864737e-13,1.3620783894402e-13,-3.3105123955305e-13,3.6699634733704e-13,-0.0007849477836687,0.0007849477837023,-0.0007995824854442,0.00079958248517016,-0.00079958248522168,0.00079958248540347,-0.00079958248536752,0.0007995824852501,-0.00079958248514428,0.00079958248548394,-0.00077368418713701,0.00077368418657647,-0.00077368418646349,0.00077368418727047,-0.00077368418685263,0.00077368418687694,-0.00077368418662585,0.0007736841871174,-6.0659342486961e-13,3.4257628452966e-13,-0.00078494778381967,0.00078494778355317,2.0534134460993e-13,-4.8436573237112e-13,-0.00079958248548612,0.00079958248513543,-0.00079958248571529,0.00079958248490614,-0.00079958248516988,0.00079958248545106,-0.00079958248539908,0.00079958248522126,-0.00077368418665708,0.00077368418709724,-0.0007736841875844,0.00077368418617108,0.74070664812664,0.65548884337107,114808,2744,0.0032652694408812,0.0032652694409072,0.003265269440911,37.008081850448,37.015585147567,5.606465480358e-05,5.606465480358e-05,5.606465480358e-05,752441.34319969,0.0098439921588767
6819200,0.53663020665816,0.010061241470707,0.0033537471568834,0.0033537471569096,0.0033537471569135,-0.00082665712081284,0.00082665712077982,4.8264506388857e-13,-5.1413294260347e-13,9.8803537685922e-14,-1.3657576152776e-13,-0.0008416912080669,0.0008416912084451,-0.00084169120839907,0.00084169120811193,-0.00084169120814336,0.00084169120836475,-0.00084169120847521,0.00084169120803402,-0.00081576399436455,0.00081576399522611,-0.00081576399532907,0.0008157639942453,-1.0074039303838e-13,1.3449495009513e-13,-3.2500039499043e-13,3.6043819474292e-13,-0.00082665712078619,0.00082665712081923,-0.00084169120838527,0.00084169120811553,-0.00084169120816637,0.0008416912083446,-0.00084169120831007,0.00084169120819479,-0.0008416912080906,0.00084169120842444,-0.0008157639950797,0.00081576399452972,-0.00081576399441839,0.00081576399521102,-0.00081576399480145,0.00081576399482418,-0.00081576399457825,0.00081576399506181,-6.2952245969745e-13,3.6718222401157e-13,-0.000826657120936,0.00082665712067128,1.9999394914566e-13,-4.7718733401921e-13,-0.00084169120843858,0.00084169120806938,-0.00084169120866375,0.00084169120784393,-0.0008416912081059,0.00084169120840125,-0.00084169120833074,0.00084169120817526,-0.00081576399457886,0.00081576399507175,-0.00081576399555304,0.00081576399409822,0.79221449039174,0.89576281890611,114808,2744,0.00343847665688,0.0034384766569065,0.0034384766569103,38.070449834041,38.100551755545,6.4563598672329e-05,6.4563598672329e-05,6.4563598672329e-05,540586.13503353,0.010368865825338
7019200,0.56342013927058,0.010542828916456,0.0035142763054667,0.0035142763054926,0.0035142763054965,-0.00086792368920858,0.00086792368917609,5.0671498344037e-13,-5.3759594026663e-13,9.7768131242429e-14,-1.3495142144436e-13,-0.00088387338293243,0.0008838733833261,-0.00088387338328031,0.00088387338297714,-0.00088387338300782,0.00088387338324675,-0.00088387338335564,0.00088387338290014,-0.0008563672833558,0.00085636728426564,-0.00085636728436699,0.00085636728323788,-9.9717747808901e-14,1.3286735275828e-13,-3.1921698343439e-13,3.5405156632062e-13,-0.00086792368918239,0.00086792368921484,-0.00088387338325678,0.00088387338299108,-0.00088387338304162,0.0008838733832164,-0.00088387338318218,0.00088387338306939,-0.00088387338296672,0.00088387338329516,-0.000856367284089,0.00085636728354983,-0.00085636728343961,0.0008563672842192,-0.00085636728381753,0.00085636728383807,-0.00085636728359652,0.00085636728407294,-6.5222736901923e-13,3.9202074462358e-13,-0.00086792368933085,0.00086792368906824,1.9505410005466e-13,-4.7001778833802e-13,-0.00088387338332101,0.00088387338293391,-0.00088387338354197,0.00088387338271268,-0.00088387338297252,0.00088387338328162,-0.00088387338319344,0.0008838733830599,-0.00085636728356726,0.00085636728411252,-0.00085636728458793,0.00085636728309292,0.73335805687276,0.60915714949679,114808,2744,0.0036098142838025,0.0036098142838286,0.0036098142838325,39.154419739432,39.185518363522,7.3235357915456e-05,7.3235357915456e-05,7.3235357915456e-05,610883.48489387,0.01088834963134
7219200,0.59075082610597,0.011015876216605,0.00367195873885,0.0036719587388758,0.0036719587388797,-0.00090896686171015,0.0009089668616782,5.3075937665802e-13,-5.6108339254807e-13,9.6793413432073e-14,-1.3340231435675e-13,-0.00092623205282135,0.00092623205323057,-0.00092623205318503,0.00092623205286577,-0.00092623205289589,0.00092623205315214,-0.00092623205325963,0.00092623205278962,-0.00089625426356954,0.00089625426452732,-0.00089625426462726,0.00089625426345297,-9.8723542887061e-14,1.3133960531227e-13,-3.1353959805109e-13,3.4783228572714e-13,-0.00090896686168449,0.0009089668617164,-0.00092623205315157,0.0009262320528899,-0.00092623205294008,0.00092623205311143,-0.00092623205307766,0.00092623205296734,-0.00092623205286603,0.00092623205318923,-0.00089625426432147,0.00089625426379259,-0.00089625426368365,0.00089625426445021,-0.00089625426405612,0.00089625426407462,-0.00089625426383746,0.00089625426430694,-6.7493917518914e-13,4.16843015732e-13,-0.00090896686183162,0.00090896686157112,1.9023442376305e-13,-4.6299529698796e-13,-0.00092623205322662,0.00092623205282179,-0.00092623205344359,0.00092623205260455,-0.00092623205286228,0.00092623205318537,-0.00092623205307929,0.00092623205296764,-0.00089625426377847,0.00089625426437627,-0.00089625426484567,0.00089625426331017,0.7071884721172,0.49455785239988,114808,2744,0.0037801944082345,0.0037801944082606,0.0037801944082644,40.23930423059,40.2704849715,8.1914433844723e-05,8.1914433844723e-05,8.1914433844723e-05,757252.16079903,0.011405199833737
7419200,0.61763171283648,0.011464414135817,0.003821471378587,0.0038214713786128,0.0038214713786167,-0.00094725359139073,0.00094725359135926,5.5475899367002e-13,-5.845980055347e-13,9.580253348908e-14,-1.319103011132e-13,-0.00096622954570266,0.00096622954612736,-0.00096622954608215,0.00096622954574672,-0.00096622954577638,0.00096622954604982,-0.00096622954615601,0.00096622954567142,-0.0009330143600827,0.00093301436108833,-0.00093301436118694,0.00093301435996742,-9.7724543994027e-14,1.2985738588718e-13,-3.0817070324361e-13,3.4199137592763e-13,-0.00094725359136552,0.00094725359139696,-0.00096622954603878,0.00096622954578099,-0.00096622954583078,0.00096622954599891,-0.00096622954596558,0.0009662295458576,-0.00096622954575753,0.00096622954607581,-0.00093301436085363,0.00093301436033445,-0.00093301436022675,0.00093301436098102,-0.00093301436059404,0.00093301436061073,-0.00093301436037772,0.00093301436084058,-6.9766462800098e-13,4.416316996312e-13,-0.00094725359151138,0.00094725359125295,1.8572935550744e-13,-4.563382650616e-13,-0.00096622954612445,0.00096622954570213,-0.00096622954633771,0.00096622954548863,-0.00096622954574427,0.00096622954608157,-0.00096622954595762,0.00096622954586758,-0.00093301436028927,0.00093301436093933,-0.00093301436140301,0.00093301435982675,0.68501443115595,0.40602158184497,114808,2744,0.0039391046446239,0.0039391046446499,0.0039391046446537,40.76902939135,40.784512406056,8.6152235130801e-05,8.6152235130801e-05,8.6152235130801e-05,938412.7708367,0.011887499951794
7619200,0.64332591661296,0.01188249008985,0.0039608300299317,0.0039608300299574,0.0039608300299613,-0.00098223320571811,0.00098223320568737,5.7887285167732e-13,-6.0798036647238e-13,9.5232001286095e-14,-1.3056809946948e-13,-0.0010031251639407,0.0010031251643814,-0.0010031251643361,0.0010031251639849,-0.0010031251640139,0.0010031251643045,-0.0010031251644094,0.0010031251639103,-0.00096634742440725,0.00096634742546076,-0.00096634742555805,0.00096634742429336,-9.7149855668008e-14,1.2852119141288e-13,-3.0355425603761e-13,3.3660027591615e-13,-0.00098223320569361,0.0009822332057243,-0.0010031251642834,0.0010031251640287,-0.0010031251640786,0.0010031251642434,-0.0010031251642108,0.0010031251641047,-0.0010031251640059,0.0010031251643196,-0.00096634742519791,0.00096634742468714,-0.00096634742458073,0.00096634742532374,-0.00096634742494346,0.000966347424958,-0.00096634742472897,0.00096634742518591,-7.1981205435349e-13,4.6698079288086e-13,-0.00098223320583747,0.00098223320558228,1.8245951422238e-13,-4.4968852703006e-13,-0.0010031251643785,0.0010031251639403,-0.0010031251645885,0.0010031251637301,-0.0010031251639825,0.0010031251643356,-0.0010031251641926,0.0010031251641249,-0.0009663474246111,0.00096634742531414,-0.00096634742577133,0.00096634742415505,0.67223240363044,0.36683891635165,114808,2744,0.0040842655970066,0.0040842655970324,0.0040842655970362,40.851386650694,40.853961573413,8.6811093205553e-05,8.6811093205553e-05,8.6811093205553e-05,1101505.9700897,0.012328276423068
7819200,0.6677992852492,0.012275011088874,0.0040916703629395,0.0040916703629652,0.004091670362969,-0.0010153656731146,0.0010153656730845,6.0300621736075e-13,-6.3132602850821e-13,9.4879819030315e-14,-1.2943870014833e-13,-0.0010382141458822,0.0010382141463388,-0.0010382141462934,0.0010382141459265,-0.0010382141459548,0.0010382141462625,-0.0010382141463662,0.0010382141458524,-0.00099785446055211,0.00099785446165341,-0.00099785446174922,0.00099785446043946,-9.672860383108e-14,1.2746219435275e-13,-2.9931365029109e-13,3.3170539603961e-13,-0.0010153656730907,0.0010153656731208,-0.0010382141462317,0.0010382141459798,-0.0010382141460298,0.0010382141461914,-0.0010382141461595,0.0010382141460553,-0.0010382141459576,0.0010382141462671,-0.00099785446136203,0.00099785446085945,-0.00099785446075409,0.00099785446148719,-0.00099785446111287,0.00099785446112532,-0.00099785446089947,0.0009978544613515,-7.4204503691584e-13,4.9222805100622e-13,-0.0010153656732328,0.0010153656729805,1.7943322432052e-13,-4.4365312317221e-13,-0.0010382141463361,0.0010382141458821,-0.0010382141465431,0.0010382141456749,-0.0010382141459243,0.0010382141462932,-0.0010382141461314,0.0010382141460855,-0.00099785446075287,0.00099785446150832,-0.00099785446195958,0.00099785446030294,0.66655082918655,0.36272845484214,114808,2744,0.0042217413286127,0.0042217413286384,0.0042217413286422,40.921386840381,40.92341074077,8.737109472305e-05,8.737109472305e-05,8.737109472305e-05,1137753.3211333,0.012745896603599
8019200,0.69104742954078,0.012644498203194,0.0042148327343796,0.0042148327344054,0.0042148327344093,-0.0010466462383606,0.0010466462383311,6.2696551942787e-13,-6.5484841239714e-13,9.4510243463977e-14,-1.2860807111171e-13,-0.0010713951592069,0.0010713951596795,-0.001071395159634,0.0010713951592514,-0.0010713951592792,0.0010713951596036,-0.0010713951597064,0.0010713951591776,-0.001027541108805,0.0010275411099536,-0.0010275411100487,0.0010275411086932,-9.6395437538493e-14,1.2659589728812e-13,-2.9551226642076e-13,3.2740285100882e-13,-0.0010466462383373,0.0010466462383668,-0.0010713951595631,0.0010713951593138,-0.0010713951593638,0.0010713951595227,-0.0010713951594913,0.0010713951593889,-0.0010713951592921,0.001071395159598,-0.0010275411096356,0.0010275411091397,-0.0010275411090352,0.0010275411097593,-0.0010275411093906,0.0010275411094009,-0.0010275411091786,0.0010275411096261,-7.6443877927297e-13,5.173137993597e-13,-0.0010466462384777,0.0010466462382282,1.7683945061735e-13,-4.3820837774074e-13,-0.0010713951596767,0.0010713951592068,-0.001071395159881,0.0010713951590023,-0.001071395159249,0.0010713951596338,-0.0010713951594535,0.0010713951594289,-0.0010275411090038,0.0010275411098111,-0.001027541110257,0.0010275411085592,0.66097248604505,0.35861799333263,114808,2744,0.004351515272912,0.0043515152729377,0.0043515152729415,40.990860863803,40.992859908126,8.7926886910427e-05,8.7926886910427e-05,8.7926886910427e-05,1155737.4567268,0.013140281064248
8219200,0.71321493004425,0.012993825978059,0.0043312753260011,0.0043312753260269,0.0043312753260308,-0.001076475183292,0.0010764751832628,6.5091791637505e-13,-6.7836478486586e-13,9.4243217843853e-14,-1.2788840927335e-13,-0.0011030826827286,0.0011030826832172,-0.0011030826831715,0.0011030826827732,-0.0011030826828006,0.0011030826831416,-0.0011030826832436,0.0011030826826998,-0.0010558381386295,0.0010558381398254,-0.0010558381399197,0.0010558381385185,-9.613094561854e-14,1.2587621339162e-13,-2.92102311769e-13,3.235362338372e-13,-0.0010764751832691,0.0010764751832981,-0.0011030826830917,0.0011030826828446,-0.0011030826828948,0.0011030826830511,-0.0011030826830202,0.0011030826829194,-0.0011030826828233,0.0011030826831261,-0.0010558381394806,0.0010558381389911,-0.0010558381388873,0.0010558381396035,-0.0010558381392397,0.0010558381392481,-0.0010558381390286,0.0010558381394723,-7.8689716671406e-13,5.4232466764779e-13,-0.001076475183408,0.0010764751831611,1.7455202049677e-13,-4.3327617547496e-13,-0.0011030826832142,0.0011030826827287,-0.0011030826834161,0.0011030826825266,-0.0011030826827707,0.0011030826831715,-0.0011030826829728,0.0011030826829689,-0.0010558381388262,0.001055838139685,-0.0010558381401259,0.0010558381383866,0.65549139083927,0.35450753182313,114808,2744,0.0044752508214191,0.0044752508214448,0.0044752508214486,41.180884860942,41.186298454293,8.9447078887534e-05,8.9447078887534e-05,8.9447078887534e-05,1177911.8333508,0.013516460150048
8419200,0.7343546550017,0.01332598434544,0.0044419947817949,0.0044419947818206,0.0044419947818245,-0.0011049117476451,0.0011049117476164,6.7492563332343e-13,-7.0182521137596e-13,9.4054329083025e-14,-1.2722529717803e-13,-0.0011333057942507,0.0011333057947552,-0.0011333057947094,0.0011333057942956,-0.0011333057943223,0.0011333057946799,-0.0011333057947812,0.0011333057942223,-0.0010828542440661,0.0010828542453094,-0.0010828542454027,0.001082854243956,-9.5822072701454e-14,1.2532699487575e-13,-2.8894187890629e-13,3.2006804567032e-13,-0.0011049117476225,0.0011049117476513,-0.0011333057946208,0.0011333057943759,-0.0011333057944261,0.0011333057945801,-0.0011333057945496,0.0011333057944503,-0.0011333057943547,0.0011333057946548,-0.0010828542449381,0.0010828542444543,-0.0010828542443511,0.0010828542450599,-0.0010828542447003,0.0010828542447072,-0.0010828542444901,0.0010828542449306,-8.0948343260149e-13,5.6720802512536e-13,-0.0011049117477601,0.0011049117475155,1.7246937823771e-13,-4.2877931285102e-13,-0.0011333057947522,0.001133305794251,-0.0011333057949521,0.0011333057940512,-0.001133305794293,0.0011333057947096,-0.0011333057944928,0.0011333057945093,-0.0010828542442603,0.0010828542451704,-0.0010828542456066,0.0010828542438256,0.6538093467151,0.36755567020317,114808,2744,0.0045931960716845,0.0045931960717099,0.0045931960717137,41.429993080607,41.437135009675,9.1439944644855e-05,9.1439944644855e-05,9.1439944644855e-05,1194576.0041418,0.013875167217549
8619200,0.75445290008248,0.013641098726721,0.0045470329088884,0.0045470329089143,0.0045470329089182,-0.001131851580841,0.0011318515808126,6.9876050720645e-13,-7.2544073752516e-13,9.3835544463896e-14,-1.2673075346247e-13,-0.0011619541150608,0.0011619541155811,-0.0011619541155353,0.0011619541151056,-0.0011619541151322,0.0011619541155061,-0.0011619541156069,0.0011619541150327,-0.0011084955368922,0.0011084955381823,-0.0011084955382753,0.0011084955367825,-9.5653666081455e-14,1.2478948188463e-13,-2.8614825836713e-13,3.1692531814908e-13,-0.0011318515808187,0.0011318515808472,-0.0011619541154379,0.0011619541151949,-0.0011619541152451,0.0011619541153972,-0.0011619541153669,0.0011619541152691,-0.0011619541151741,0.0011619541154716,-0.0011084955377848,0.0011084955373064,-0.0011084955372037,0.0011084955379062,-0.0011084955375507,0.0011084955375559,-0.0011084955373411,0.0011084955377786,-8.3226778067295e-13,5.9187159519963e-13,-0.0011318515809552,0.0011318515807125,1.7048138014615e-13,-4.2486625592164e-13,-0.0011619541155782,0.0011619541150611,-0.0011619541157761,0.0011619541148632,-0.0011619541151031,0.0011619541155356,-0.001161954115301,0.0011619541153372,-0.0011084955370849,0.001108495538045,-0.0011084955384776,0.0011084955366536,0.65260875082647,0.38114806429055,114808,2744,0.0047049203652516,0.0047049203652771,0.004704920365281,41.680753646032,41.687971565057,9.3446029168259e-05,9.3446029168259e-05,9.3446029168259e-05,1206801.5130513,0.014215072986922
8819200,0.77350229685095,0.013928714026561,0.0046429046755018,0.0046429046755277,0.0046429046755316,-0.0011568288233301,0.001156828823302,7.226080057038e-13,-7.4903296394957e-13,9.3659547542687e-14,-1.2627745113408e-13,-0.0011886786894025,0.0011886786899388,-0.0011886786898929,0.0011886786894473,-0.0011886786894737,0.0011886786898639,-0.0011886786899643,0.0011886786893747,-0.001132006064984,0.001132006066321,-0.0011320060664136,0.0011320060648748,-9.5484200670271e-14,1.2433320170603e-13,-2.8354645549748e-13,3.1407140533415e-13,-0.0011568288233082,0.0011568288233363,-0.0011886786897867,0.0011886786895455,-0.0011886786895957,0.0011886786897459,-0.0011886786897159,0.0011886786896194,-0.0011886786895249,0.0011886786898201,-0.0011320060658978,0.0011320060654242,-0.001132006065322,0.0011320060660188,-0.001132006065667,0.0011320060656707,-0.001132006065458,0.0011320060658927,-8.5518972748203e-13,6.1638955207523e-13,-0.0011568288234437,0.0011568288232026,1.6858896736983e-13,-4.2133548143144e-13,-0.0011886786899359,0.0011886786894028,-0.0011886786901319,0.0011886786892066,-0.001188678689445,0.0011886786898931,-0.0011886786896411,0.0011886786896965,-0.0011320060651755,0.0011320060661854,-0.0011320060666147,0.0011320060647477,0.6294199248113,0.2915797403408,114808,2744,0.0048084932437483,0.004808493243774,0.0048084932437779,41.931584764838,41.938808120439,9.5452678118706e-05,9.5452678118706e-05,9.5452678118706e-05,1255536.0986038,0.014530287177422
9019200,0.79110704173123,0.014194301048179,0.0047314336827078,0.0047314336827337,0.0047314336827376,-0.0011790620197716,0.0011790620197437,7.4642991858571e-13,-7.726334264505e-13,9.3495270047465e-14,-1.2589102911548e-13,-0.0012124651951187,0.0012124651956708,-0.0012124651956248,0.0012124651951636,-0.0012124651951897,0.0012124651955961,-0.001212465195696,0.001212465195091,-0.0011529556742144,0.0011529556755982,-0.0011529556756904,0.0011529556741056,-9.5330617126849e-14,1.2394039017674e-13,-2.8122840866516e-13,3.1150283674334e-13,-0.0011790620197498,0.0011790620197778,-0.00121246519551,0.0012124651952703,-0.0012124651953206,0.0012124651954691,-0.0012124651954393,0.0012124651953441,-0.00121246519525,0.0012124651955432,-0.0011529556751493,0.0011529556746801,-0.0011529556745783,0.0011529556752699,-0.0011529556749213,0.0011529556749237,-0.0011529556747128,0.0011529556751452,-8.7826240498051e-13,6.4074283751084e-13,-0.0011790620198846,0.0011790620196448,1.6679902205143e-13,-4.1826586932363e-13,-0.001212465195668,0.0012124651951188,-0.0012124651958625,0.0012124651949242,-0.0012124651951613,0.0012124651956248,-0.0012124651953558,0.0012124651954299,-0.0011529556744045,0.0011529556754637,-0.0011529556758901,0.0011529556739796,0.62977529858331,0.31692151856187,114808,2744,0.0049006780447201,0.0049006780447457,0.0049006780447496,41.750578936623,41.745561220521,9.4004631492986e-05,9.4004631492986e-05,9.4004631492986e-05,1262761.3783673,0.014810927639784
9219200,0.80726135036242,0.014435263396157,0.004811754465367,0.0048117544653928,0.0048117544653968,-0.0011990480202272,0.0011990480201997,7.7035069333717e-13,-7.9612302555285e-13,9.3567816774227e-14,-1.2550996722724e-13,-0.001233903426466,0.0012339034270342,-0.001233903426988,0.0012339034265112,-0.0012339034265369,0.0012339034269597,-0.0012339034270591,0.0012339034264388,-0.0011717889927838,0.0011717889942146,-0.0011717889943063,0.0011717889926755,-9.5392438767652e-14,1.2357098969697e-13,-2.7945034533671e-13,3.0929537476802e-13,-0.0011990480202058,0.0011990480202334,-0.001233903426865,0.0012339034266263,-0.0012339034266768,0.0012339034268238,-0.0012339034267945,0.0012339034267,-0.0012339034266063,0.0012339034268977,-0.0011717889937405,0.0011717889932746,-0.0011717889931733,0.0011717889938604,-0.0011717889935147,0.0011717889935157,-0.0011717889933065,0.0011717889937368,-9.0077707011412e-13,6.6563851814136e-13,-0.0011990480203393,0.0011990480201018,1.6608139691556e-13,-4.1507179042995e-13,-0.0012339034270309,0.0012339034264669,-0.001233903427224,0.0012339034262736,-0.0012339034265083,0.0012339034269888,-0.0012339034267016,0.0012339034267951,-0.0011717889929722,0.0011717889940815,-0.0011717889945042,0.0011717889925509,0.6230057995082,0.30664989516131,114808,2744,0.0049835376812817,0.0049835376813072,0.0049835376813111,41.453180866088,41.444677807066,9.1625446928708e-05,9.1625446928708e-05,9.1625446928708e-05,1259782.4995696,0.01506324816996
9419200,0.8220747328437,0.014653744315443,0.0048845814384624,0.0048845814384882,0.0048845814384922,-0.0012170970172338,0.0012170970172066,7.941788698145e-13,-8.1969189492426e-13,9.370172008247e-14,-1.2534289880166e-13,-0.0012532177566254,0.0012532177572098,-0.0012532177571632,0.0012532177566709,-0.0012532177566964,0.0012532177571352,-0.0012532177572343,0.0012532177565985,-0.0011887967446739,0.0011887967461513,-0.0011887967462428,0.0011887967445659,-9.5513140962636e-14,1.2341811201434e-13,-2.7814756160645e-13,3.077131289869e-13,-0.0012170970172127,0.00121709701724,-0.0012532177570322,0.0012532177567941,-0.0012532177568448,0.0012532177569907,-0.0012532177569616,0.0012532177568678,-0.0012532177567743,0.0012532177570646,-0.0011887967456527,0.0011887967451893,-0.0011887967450882,0.0011887967457722,-0.0011887967454285,0.0011887967454284,-0.0011887967452204,0.0011887967456495,-9.2366325330988e-13,6.901474752919e-13,-0.0012170970173452,0.0012170970171094,1.654939442736e-13,-4.1280991835212e-13,-0.001253217757206,0.0012532177566268,-0.0012532177573981,0.0012532177564344,-0.0012532177566676,0.0012532177571645,-0.0012532177568599,0.0012532177569717,-0.0011887967448609,0.0011887967460192,-0.0011887967464393,0.0011887967444422,0.61620823691147,0.29637827176075,114808,2744,0.0050583603134834,0.0050583603135088,0.0050583603135127,41.152444470809,41.14379439361,8.9219555766474e-05,8.9219555766474e-05,8.9219555766474e-05,1266579.7796335,0.015291151078753
9619200,0.83565387435121,0.014851644180748,0.0049505480602308,0.0049505480602566,0.0049505480602606,-0.0012333940423392,0.0012333940423122,8.1797530185719e-13,-8.4327852552927e-13,9.3882424120909e-14,-1.2532510522759e-13,-0.0012706724649382,0.0012706724655386,-0.0012706724654918,0.0012706724649839,-0.0012706724650092,0.001270672465464,-0.001270672465563,0.0012706724649115,-0.0012041585271716,0.0012041585286955,-0.0012041585287869,0.0012041585270637,-9.5703546910571e-14,1.2339199516513e-13,-2.7730346974582e-13,3.0666110230206e-13,-0.0012333940423183,0.0012333940423453,-0.0012706724653529,0.0012706724651151,-0.0012706724651661,0.001270672465311,-0.0012706724652822,0.0012706724651888,-0.0012706724650955,0.001270672465385,-0.0012041585281727,0.0012041585277111,-0.0012041585276102,0.0012041585282921,-0.0012041585279501,0.0012041585279489,-0.0012041585277418,0.0012041585281702,-9.4664987461379e-13,7.1454405352259e-13,-0.0012333940424499,0.0012333940422155,1.6528336247144e-13,-4.1115467480103e-13,-0.0012706724655343,0.00127067246494,-0.0012706724657258,0.0012706724647484,-0.0012706724649801,0.0012706724654936,-0.0012706724651718,0.0012706724653014,-0.0012041585273577,0.0012041585285644,-0.0012041585289825,0.0012041585269411,0.60938040152141,0.28610664836019,114808,2744,0.0051259148418588,0.0051259148418843,0.0051259148418881,40.8515648916,40.842910980155,8.6812519132798e-05,8.6812519132798e-05,8.6812519132798e-05,1279397.7350992,0.015496962102613
9819200,0.84786651948271,0.015030374770349,0.0050101249234311,0.0050101249234569,0.0050101249234609,-0.0012472500327258,0.001247250032699,8.4174157121838e-13,-8.6687738554009e-13,9.4126166904513e-14,-1.2539746331122e-13,-0.0012855492704789,0.0012855492710953,-0.0012855492710482,0.0012855492705249,-0.00128554927055,0.0012855492710207,-0.0012855492711196,0.0012855492704523,-0.0012172021398258,0.0012172021413962,-0.0012172021414875,0.001217202139718,-9.594259843124e-14,1.234668164088e-13,-2.7690536426061e-13,3.0609135500157e-13,-0.0012472500327051,0.001247250032732,-0.0012855492709016,0.0012855492706639,-0.0012855492707151,0.0012855492708595,-0.0012855492708308,0.0012855492707377,-0.0012855492706444,0.0012855492709335,-0.0012172021408497,0.001217202140389,-0.0012172021402881,0.001217202140969,-0.0012172021406279,0.0012172021406259,-0.0012172021404192,0.0012172021408475,-9.6974340441642e-13,7.3881845901499e-13,-0.0012472500328361,0.0012472500326028,1.6541512315212e-13,-4.1007641362352e-13,-0.0012855492710905,0.0012855492704813,-0.0012855492712817,0.0012855492702899,-0.0012855492705205,0.0012855492710506,-0.0012855492707119,0.0012855492708588,-0.0012172021400112,0.0012172021412657,-0.0012172021416824,0.001217202139596,0.61213710596319,0.31993467860817,114808,2744,0.0051833468956851,0.0051833468957106,0.0051833468957144,40.186456383913,40.167503712494,8.1491651071302e-05,8.1491651071302e-05,8.1491651071302e-05,1284815.8156277,0.015671968399338
10019200,0.85884135518094,0.015191922952253,0.005063974317399,0.0050639743174249,0.0050639743174288,-0.001259484243718,0.0012594842436912,8.6529211555218e-13,-8.9066963480615e-13,9.4387349068041e-14,-1.2531612020796e-13,-0.0012986867264367,0.001298686727069,-0.0012986867270219,0.001298686726483,-0.0012986867265079,0.0012986867269944,-0.0012986867270933,0.0012986867264102,-0.0012287479820531,0.0012287479836687,-0.0012287479837609,0.0012287479819442,-9.6115475502906e-14,1.2346452236124e-13,-2.7674566325701e-13,3.0582206911042e-13,-0.0012594842436973,0.001259484243724,-0.0012986867268677,0.0012986867266299,-0.0012986867266815,0.0012986867268255,-0.0012986867267968,0.0012986867267039,-0.0012986867266106,0.0012986867268994,-0.0012287479830991,0.0012287479826388,-0.0012287479825378,0.0012287479832187,-0.0012287479828781,0.0012287479828751,-0.0012287479826685,0.0012287479830959,-9.9296831255848e-13,7.6293645752081e-13,-0.0012594842438277,0.0012594842435954,1.6567999741334e-13,-4.0939466974445e-13,-0.001298686727064,0.0012986867264398,-0.0012986867272552,0.0012986867262486,-0.0012986867264783,0.001298686727025,-0.0012986867266696,0.0012986867268332,-0.001228747982237,0.0012287479835389,-0.0012287479839536,0.0012287479818218,0.61574676323867,0.35423133859393,114808,2744,0.0052340540778279,0.0052340540778529,0.0052340540778568,39.482473054026,39.462277582679,7.5859784432206e-05,7.5859784432206e-05,7.5859784432206e-05,1285033.3454341,0.015826507782377
10219200,0.86871748414151,0.015338342786476,0.0051127809288067,0.0051127809288327,0.0051127809288366,-0.001270352616843,0.0012703526168164,8.8912617236458e-13,-9.1417478524867e-13,9.4499479259268e-14,-1.2542694035189e-13,-0.0013103750232143,0.0013103750238627,-0.0013103750238153,0.0013103750232607,-0.0013103750232856,0.0013103750237879,-0.0013103750238867,0.001310375023188,-0.0012390422386454,0.0012390422403082,-0.0012390422403996,0.0012390422385372,-9.6269000224596e-14,1.2354128472208e-13,-2.7685230705794e-13,3.0579059948356e-13,-0.0012703526168225,0.0012703526168492,-0.0013103750236532,0.0013103750234152,-0.0013103750234668,0.0013103750236106,-0.0013103750235823,0.0013103750234891,-0.0013103750233959,0.0013103750236848,-0.0012390422397154,0.0012390422392549,-0.0012390422391539,0.0012390422398345,-0.0012390422394942,0.0012390422394913,-0.0012390422392847,0.001239042239713,-1.0161796328803e-12,7.870717202051e-13,-0.0012703526169525,0.0012703526167211,1.6618109975206e-13,-4.0898327054771e-13,-0.0013103750238569,0.0013103750232178,-0.001310375024048,0.0013103750230265,-0.0013103750232553,0.0013103750238187,-0.0013103750234466,0.001310375023627,-0.0012390422388297,0.0012390422401788,-0.0012390422405931,0.001239042238416,0.62007022084252,0.3885279985797,114808,2744,0.0052790982003095,0.0052790982003349,0.0052790982003388,38.777285292194,38.757051452865,7.0218282337556e-05,7.0218282337556e-05,7.0218282337556e-05,1285290.5152551,0.015963807385881
10419200,0.87763253202166,0.015471615208645,0.0051572050695297,0.0051572050695557,0.0051572050695596,-0.0012801072641984,0.0012801072641719,9.1286634233927e-13,-9.3776484945743e-13,9.462705268276e-14,-1.255635097092e-13,-0.0013208652325199,0.0013208652331844,-0.0013208652331367,0.0013208652325665,-0.0013208652325913,0.0013208652331094,-0.0013208652332082,0.0013208652324937,-0.0012483218347079,0.001248321836417,-0.0012483218365086,0.0012483218346,-9.647093523209e-14,1.236112825837e-13,-2.7720647270901e-13,3.0597482914959e-13,-0.001280107264178,0.0012801072642044,-0.0013208652329671,0.0013208652327286,-0.0013208652327804,0.0013208652329243,-0.001320865232896,0.0013208652328026,-0.0013208652327094,0.0013208652329985,-0.0012483218358011,0.00124832183534,-0.0012483218352394,0.00124832183592,-0.0012483218355796,0.0012483218355766,-0.0012483218353702,0.0012483218357986,-1.0395929764423e-12,8.1097925455222e-13,-0.0012801072643075,0.0012801072640767,1.667964338952e-13,-4.0891856664201e-13,-0.0013208652331779,0.001320865232524,-0.0013208652333693,0.0013208652323325,-0.0013208652325606,0.0013208652331407,-0.0013208652327521,0.0013208652329487,-0.0012483218348918,0.0012483218362873,-0.0012483218367016,0.0012483218344783,0.62506141799131,0.42282465856547,114808,2744,0.005319524894955,0.0053195248949802,0.0053195248949841,38.102135074923,38.08276373752,6.4817080599383e-05,6.4817080599383e-05,6.4817080599383e-05,1284047.7855516,0.016087047697666
10619200,0.88595321739231,0.015593702316843,0.0051979007722623,0.0051979007722883,0.0051979007722922,-0.0012901712375417,0.0012901712375153,9.3658456721231e-13,-9.6138061726975e-13,9.4829354866538e-14,-1.2564176467151e-13,-0.0013316424663981,0.0013316424670785,-0.0013316424670306,0.0013316424664449,-0.0013316424664696,0.0013316424670035,-0.0013316424671023,0.001331642466372,-0.0012579006608664,0.0012579006626222,-0.0012579006627136,0.0012579006607587,-9.6635636082945e-14,1.2372110275818e-13,-2.7774869143872e-13,3.0645146164762e-13,-0.0012901712375214,0.0012901712375478,-0.0013316424668536,0.0013316424666146,-0.0013316424666666,0.0013316424668107,-0.0013316424667825,0.0013316424666887,-0.0013316424665955,0.001331642466885,-0.0012579006619835,0.0012579006615215,-0.0012579006614208,0.0012579006621026,-0.0012579006617616,0.0012579006617585,-0.0012579006615517,0.0012579006619809,-1.0629125875736e-12,8.34993050359e-13,-0.0012901712376506,0.0012901712374204,1.6760829144645e-13,-4.0913614823034e-13,-0.0013316424670716,0.0013316424664028,-0.0013316424672633,0.001331642466211,-0.0013316424664385,0.0013316424670352,-0.0013316424666304,0.001331642466843,-0.0012579006610503,0.0012579006624926,-0.0012579006629066,0.0012579006606373,0.61395111517921,0.38035252949607,114808,2744,0.0053612319754219,0.0053612319754471,0.005361231975451,38.029850059261,38.027509077453,6.4238800474088e-05,6.4238800474088e-05,6.4238800474088e-05,1289106.8462302,0.016214206162276
10819200,0.89372226165196,0.015705741331165,0.0052352471103698,0.0052352471103958,0.0052352471103997,-0.001299473597457,0.0012994735974307,9.6029931149315e-13,-9.8499273175847e-13,9.5008801590446e-14,-1.2576772405883e-13,-0.0013416369161318,0.001341636916828,-0.00134163691678,0.0013416369161787,-0.0013416369162034,0.001341636916753,-0.0013416369168518,0.0013416369161057,-0.0012667171423773,0.0012667171441795,-0.0012667171442708,0.0012667171422694,-9.6809748410992e-14,1.238502164609e-13,-2.7843602338238e-13,3.0715326373746e-13,-0.0012994735974368,0.0012994735974632,-0.0013416369165954,0.0013416369163559,-0.001341636916408,0.0013416369165524,-0.0013416369165242,0.0013416369164301,-0.0013416369163368,0.0013416369166268,-0.0012667171435184,0.001266717143055,-0.0012667171429542,0.0012667171436376,-0.0012667171432954,0.0012667171432927,-0.0012667171430855,0.0012667171435153,-1.0863187548842e-12,8.5891820181499e-13,-0.0012994735975658,0.0012994735973361,1.6850761691385e-13,-4.0962466271832e-13,-0.0013416369168206,0.001341636916137,-0.0013416369170128,0.0013416369159447,-0.0013416369161717,0.0013416369167851,-0.001341636916364,0.0013416369165925,-0.0012667171425612,0.0012667171440501,-0.001266717144464,0.0012667171421484,0.60386752894351,0.34605845394565,114808,2744,0.005399780977112,0.0053997809771373,0.0053997809771412,37.97387268001,37.972254417386,6.3790981440077e-05,6.3790981440077e-05,6.3790981440077e-05,1301882.2906521,0.016331751709035
11019200,0.90097308754746,0.015808355888518,0.0052694519628209,0.0052694519628468,0.0052694519628508,-0.0013080297417513,0.001308029741725,9.83976192041e-13,-1.0086218768046e-12,9.5189691916852e-14,-1.2588469842652e-13,-0.0013508559246181,0.0013508559253303,-0.0013508559252821,0.0013508559246651,-0.0013508559246897,0.0013508559252551,-0.001350855925354,0.001350855924592,-0.0012747881564211,0.0012747881582694,-0.0012747881583607,0.0012747881563131,-9.6995978015923e-14,1.2396615409556e-13,-2.7935011310462e-13,3.0796506246697e-13,-0.0013080297417311,0.0013080297417574,-0.0013508559250901,0.0013508559248498,-0.001350855924902,0.0013508559250469,-0.0013508559250188,0.0013508559249241,-0.0013508559248308,0.0013508559251214,-0.0012747881575859,0.0012747881571209,-0.0012747881570201,0.0012747881577051,-0.0012747881573621,0.0012747881573595,-0.0012747881571518,0.0012747881575825,-1.1097907731243e-12,8.8275200312049e-13,-0.0013080297418599,0.0013080297416305,1.6956911389761e-13,-4.1029099530349e-13,-0.0013508559253223,0.0013508559246238,-0.0013508559255151,0.001350855924431,-0.0013508559246577,0.0013508559252878,-0.0013508559248505,0.0013508559250945,-0.0012747881566049,0.0012747881581398,-0.0012747881585539,0.0012747881561919,0.59320718808991,0.31176437839522,114808,2744,0.0054352360886502,0.0054352360886756,0.0054352360886794,37.918585254825,37.916999757318,6.33486820386e-05,6.33486820386e-05,6.33486820386e-05,1317582.8490419,0.016439876618299
11219200,0.90772834013198,0.01590382462432,0.0053012748747548,0.0053012748747807,0.0053012748747847,-0.0013159065029115,0.0013159065028853,1.0076467170845e-12,-1.0322689249687e-12,9.5324366685902e-14,-1.2598203368829e-13,-0.001359336879214,0.0013593368799421,-0.0013593368798939,0.0013593368792612,-0.0013593368792858,0.0013593368798669,-0.0013593368799658,0.001359336879188,-0.0012822276837035,0.0012822276855982,-0.0012822276856895,0.0012822276835954,-9.7098916047707e-14,1.2409985589341e-13,-2.8037908167034e-13,3.0892556253612e-13,-0.0013159065028913,0.0013159065029176,-0.0013593368796944,0.0013593368794532,-0.0013593368795056,0.001359336879651,-0.001359336879623,0.0013593368795277,-0.0013593368794343,0.0013593368797256,-0.0012822276848926,0.0012822276844257,-0.0012822276843249,0.0012822276850118,-0.0012822276846674,0.0012822276846653,-0.0012822276844568,0.0012822276848884,-1.1333025548555e-12,9.0655483478385e-13,-0.0013159065030199,0.0013159065027909,1.7070807910301e-13,-4.1114238105895e-13,-0.0013593368799336,0.0013593368792203,-0.001359336880127,0.0013593368790268,-0.0013593368792532,0.0013593368799,-0.0013593368794467,0.0013593368797061,-0.0012822276838874,0.0012822276854684,-0.0012822276858828,0.001282227683474,0.59263235322454,0.32603854019991,114808,2744,0.0054678748009101,0.0054678748009352,0.0054678748009391,37.837871686882,37.835569469459,6.2702973495059e-05,6.2702973495059e-05,6.2702973495059e-05,1329930.2205829,0.016539422955585
11419200,0.91397850616452,0.015992695872841,0.0053308986242616,0.0053308986242876,0.0053308986242916,-0.001322944783912,0.0013229447838858,1.031343090603e-12,-1.0558779654475e-12,9.5468421166111e-14,-1.2603579675175e-13,-0.0013669230231618,0.0013669230239059,-0.0013669230238574,0.0013669230232091,-0.0013669230232336,0.0013669230238305,-0.0013669230239294,0.0013669230231359,-0.0012888850918199,0.0012888850937608,-0.0012888850938522,0.0012888850917119,-9.7260087594616e-14,1.2413667829792e-13,-2.814982239519e-13,3.0995306055853e-13,-0.0013229447838919,0.0013229447839181,-0.0013669230236506,0.0013669230234087,-0.0013669230234612,0.0013669230236071,-0.0013669230235792,0.0013669230234831,-0.0013669230233897,0.0013669230236817,-0.0012888850930331,0.001288885092564,-0.0012888850924631,0.0012888850931522,-0.0012888850928067,0.0012888850928049,-0.0012888850925958,0.0012888850930282,-1.1568439239181e-12,9.3032128520569e-13,-0.0013229447840203,0.0013229447837915,1.718981603939e-13,-4.1209370493783e-13,-0.0013669230238968,0.0013669230231686,-0.001366923024091,0.0013669230229745,-0.0013669230232007,0.0013669230238642,-0.0013669230233949,0.0013669230236696,-0.001288885092004,0.0012888850936306,-0.0012888850940456,0.00128888509159,0.59626237141021,0.3577874152333,114808,2744,0.0054970382228596,0.0054970382228849,0.0054970382228888,37.631244699999,37.625379748611,6.1049957599992e-05,6.1049957599992e-05,6.1049957599992e-05,1336980.0392628,0.016628378147973
11619200,0.91976153404601,0.016075269801681,0.0053584232672084,0.0053584232672344,0.0053584232672383,-0.0013294226719105,0.0013294226718843,1.0550008752269e-12,-1.079525019873e-12,9.5555053802172e-14,-1.2611572813343e-13,-0.0013739011340667,0.0013739011348266,-0.001373901134778,0.0013739011341141,-0.0013739011341385,0.0013739011347512,-0.0013739011348501,0.0013739011340407,-0.0012950263528511,0.0012950263548383,-0.0012950263549297,0.001295026352743,-9.7351908318967e-14,1.2421155836333e-13,-2.8264548302157e-13,3.1109884908488e-13,-0.0013294226718904,0.0013294226719166,-0.0013739011345639,0.0013739011343211,-0.0013739011343737,0.0013739011345203,-0.0013739011344924,0.0013739011343956,-0.0013739011343022,0.001373901134595,-0.0012950263540884,0.0012950263536171,-0.0012950263535162,0.0012950263542075,-0.0012950263538606,0.0012950263538594,-0.0012950263536496,0.001295026354083,-1.1804324091884e-12,9.5403829596141e-13,-0.0013294226720188,0.0013294226717901,1.7308994751503e-13,-4.131923772565e-13,-0.0013739011348172,0.0013739011340741,-0.001373901135012,0.0013739011338791,-0.0013739011341052,0.0013739011347854,-0.0013739011343002,0.00137390113459,-0.0012950263530353,0.0012950263547076,-0.0012950263551233,0.0012950263526207,0.59873358061053,0.38116675113467,114808,2744,0.005523878956456,0.0055238789564812,0.005523878956485,37.421204760217,37.415190027762,5.9369638081736e-05,5.9369638081736e-05,5.9369638081736e-05,1340361.5442872,0.016710255134186
11819200,0.92511371540362,0.016152151222881,0.0053840504076085,0.0053840504076345,0.0053840504076384,-0.0013353977748937,0.0013353977748676,1.0786654859289e-12,-1.1031562991025e-12,9.5630622840097e-14,-1.2615782978843e-13,-0.0013803313660793,0.001380331366855,-0.0013803313668064,0.0013803313661267,-0.0013803313661512,0.0013803313667796,-0.0013803313668785,0.0013803313660534,-0.0013007097649412,0.0013007097669747,-0.0013007097670661,0.0013007097648332,-9.7433376418408e-14,1.2424714551146e-13,-2.8385032856731e-13,3.1227104856911e-13,-0.0013353977748737,0.0013353977748998,-0.0013803313665848,0.0013803313663411,-0.0013803313663938,0.0013803313665411,-0.0013803313665133,0.0013803313664157,-0.0013803313663223,0.0013803313666159,-0.0013007097662029,0.0013007097657292,-0.0013007097656284,0.001300709766322,-0.0013007097659737,0.0013007097659732,-0.0013007097657626,0.0013007097661968,-1.2040409232586e-12,9.7772348415987e-13,-0.001335397775002,0.0013353977747733,1.7431508655847e-13,-4.1434087158255e-13,-0.0013803313668451,0.0013803313660871,-0.0013803313670407,0.0013803313658913,-0.0013803313661173,0.0013803313668142,-0.0013803313663131,0.001380331366618,-0.0013007097651259,0.0013007097668438,-0.0013007097672602,0.0013007097647106,0.60218091158779,0.40683270730493,114808,2744,0.0055486358816931,0.0055486358817184,0.0055486358817223,37.211020422464,37.205000306914,5.7688163379709e-05,5.7688163379709e-05,5.7688163379709e-05,1341252.5404714,0.016785780948683
12019200,0.9300759206567,0.016225550053591,0.0054085166845117,0.0054085166845377,0.0054085166845417,-0.0013410490660134,0.0013410490659873,1.1023336553459e-12,-1.1267822479572e-12,9.5676277523044e-14,-1.2616299139545e-13,-0.0013863729418141,0.0013863729426056,-0.0013863729425569,0.0013863729418615,-0.001386372941886,0.0013863729425302,-0.0013863729426291,0.0013863729417882,-0.0013061523807636,0.0013061523828435,-0.0013061523829348,0.0013061523806556,-9.747978676531e-14,1.2425208653699e-13,-2.850821144665e-13,3.1346260040332e-13,-0.0013410490659934,0.0013410490660195,-0.0013863729423279,0.0013863729420833,-0.0013863729421361,0.0013863729422842,-0.0013863729422563,0.0013863729421579,-0.0013863729420645,0.001386372942359,-0.0013061523820496,0.0013061523815736,-0.0013061523814727,0.0013061523821688,-0.001306152381819,0.0013061523818191,-0.0013061523816078,0.0013061523820428,-1.2276639368859e-12,1.0013939963361e-12,-0.0013410490661217,0.0013410490658931,1.7554151968001e-13,-4.1553230577329e-13,-0.0013863729425952,0.0013863729418223,-0.0013863729427917,0.0013863729416257,-0.0013863729418517,0.0013863729425652,-0.0013863729420483,0.0013863729423682,-0.0013061523809488,0.0013061523827122,-0.0013061523831294,0.0013061523805327,0.61929849146216,0.49287376631672,114808,2744,0.0055720509015376,0.0055720509015629,0.0055720509015668,37.028569318387,37.023332206433,5.6228554547095e-05,5.6228554547095e-05,5.6228554547095e-05,1335101.2320291,0.016857216468306
12219200,0.93469439551714,0.016296022807975,0.0054320076026397,0.0054320076026657,0.0054320076026697,-0.0013465343041655,0.0013465343041395,1.1260030848346e-12,-1.1504061956093e-12,9.5694157261756e-14,-1.2613340406403e-13,-0.0013921808627909,0.0013921808635982,-0.0013921808635495,0.0013921808628384,-0.0013921808628628,0.0013921808635228,-0.0013921808636217,0.0013921808627651,-0.0013115068039566,0.0013115068060829,-0.0013115068061742,0.0013115068038487,-9.7494021624562e-14,1.2422620497471e-13,-2.8630842994458e-13,3.1464521133419e-13,-0.0013465343041456,0.0013465343041717,-0.0013921808633131,0.0013921808630676,-0.0013921808631204,0.0013921808632693,-0.0013921808632415,0.0013921808631422,-0.0013921808630489,0.0013921808633441,-0.0013115068052671,0.0013115068047887,-0.0013115068046879,0.0013115068053862,-0.0013115068050348,0.0013115068050357,-0.0013115068048237,0.0013115068052594,-1.2513099792214e-12,1.0250414503932e-12,-0.0013465343042738,0.0013465343040452,1.7673930661785e-13,-4.1673697485383e-13,-0.0013921808635874,0.0013921808627995,-0.0013921808637847,0.0013921808626022,-0.0013921808628281,0.0013921808635582,-0.0013921808630255,0.0013921808633604,-0.0013115068041423,0.0013115068059512,-0.0013115068063692,0.0013115068037254,0.63789979846926,0.5789148253285,114808,2744,0.0055947777635536,0.005594777763579,0.0055947777635828,36.914685542619,36.911393988486,5.5317484340953e-05,5.5317484340953e-05,5.5317484340953e-05,1319263.6976887,0.016926555343862
12419200,0.93899349758888,0.01635956401917,0.0054531880063713,0.0054531880063973,0.0054531880064012,-0.0013515746395443,0.0013515746395183,1.1496641873718e-12,-1.1740340065394e-12,9.5688144692679e-14,-1.260931994099e-13,-0.0013975357223223,0.0013975357231454,-0.0013975357230967,0.0013975357223698,-0.0013975357223942,0.00139753572307,-0.0013975357231688,0.0013975357222965,-0.0013163718976246,0.0013163718997972,-0.0013163718998884,0.0013163718975167,-9.7494727485351e-14,1.2417879465836e-13,-2.8751874591144e-13,3.1580311713743e-13,-0.0013515746395244,0.0013515746395504,-0.0013975357228528,0.0013975357226066,-0.0013975357226594,0.001397535722809,-0.0013975357227813,0.0013975357226812,-0.0013975357225879,0.0013975357228838,-0.0013163718989594,0.0013163718984786,-0.0013163718983779,0.0013163718990785,-0.0013163718987255,0.0013163718987273,-0.0013163718985144,0.0013163718989509,-1.2749693152685e-12,1.0486705520698e-12,-0.0013515746396527,0.001351574639424,1.7789815356882e-13,-4.1793899695641e-13,-0.0013975357231343,0.0013975357223314,-0.0013975357233323,0.0013975357221332,-0.0013975357223592,0.0013975357231058,-0.0013975357225574,0.0013975357229072,-0.0013163718978106,0.001316371899665,-0.0013163719000838,0.001316371897393,0.61826605194021,0.48324283831952,114808,2744,0.0056156605986086,0.0056156605986339,0.0056156605986378,36.802664397943,36.79945577054,5.4421315183541e-05,5.4421315183541e-05,5.4421315183541e-05,1305393.5917373,0.016990273521025
12619200,0.94299552310978,0.016415668811963,0.0054718896039692,0.0054718896039952,0.0054718896039991,-0.0013560949614165,0.0013560949613905,1.1733353824315e-12,-1.1976467154493e-12,9.5677852153249e-14,-1.2602409857971e-13,-0.0014023898113003,0.0014023898121392,-0.0014023898120904,0.0014023898113478,-0.0014023898113722,0.0014023898120638,-0.0014023898121626,0.0014023898112745,-0.0013206518852447,0.0013206518874637,-0.0013206518875548,0.0013206518851369,-9.7468081240552e-14,1.2412679624687e-13,-2.8868153391847e-13,3.1693972947353e-13,-0.0013560949613966,0.0013560949614226,-0.001402389811839,0.001402389811592,-0.0014023898116448,0.0014023898117952,-0.0014023898117674,0.0014023898116665,-0.0014023898115733,0.0014023898118699,-0.0013206518866039,0.0013206518861208,-0.0013206518860201,0.0013206518867229,-0.0013206518863685,0.001320651886371,-0.0013206518861575,0.0013206518865946,-1.2986237985226e-12,1.0722998890333e-12,-0.0013560949615249,0.0013560949612962,1.7902411917134e-13,-4.1910613777165e-13,-0.0014023898121276,0.0014023898113096,-0.0014023898123264,0.0014023898111107,-0.0014023898113367,0.0014023898120998,-0.0014023898115357,0.0014023898119005,-0.0013206518854313,0.0013206518873311,-0.0013206518877507,0.0013206518850127,0.58731200892532,0.3445775654962,114808,2744,0.005634388160193,0.0056343881602183,0.0056343881602222,36.690722043051,36.687517552594,5.3525776344405e-05,5.3525776344405e-05,5.3525776344405e-05,1306405.5172897,0.017047421090474
12819200,0.94668765469331,0.016467809385135,0.0054892697950264,0.0054892697950524,0.0054892697950564,-0.0013598849931798,0.0013598849931538,1.1969912406437e-12,-1.2212656638285e-12,9.5632765180441e-14,-1.2594029966912e-13,-0.0014064908615772,0.0014064908624319,-0.0014064908623831,0.0014064908616247,-0.001406490861649,0.0014064908623566,-0.0014064908624552,0.0014064908615515,-0.0013242351927004,0.0013242351949657,-0.0013242351950568,0.0013242351925927,-9.7426847206106e-14,1.2403879893513e-13,-2.8976673606041e-13,3.1797781540777e-13,-0.0013598849931599,0.0013598849931859,-0.0014064908621242,0.0014064908618765,-0.0014064908619293,0.0014064908620804,-0.0014064908620527,0.001406490861951,-0.0014064908618579,0.0014064908621551,-0.0013242351940838,0.0013242351935985,-0.001324235193498,0.0013242351942027,-0.0013242351938468,0.0013242351938502,-0.001324235193636,0.0013242351940736,-1.3222961047617e-12,1.095903020915e-12,-0.0013598849932882,0.0013598849930595,1.800415586775e-13,-4.2020598652496e-13,-0.00140649086242,0.0014064908615869,-0.0014064908626195,0.0014064908613873,-0.0014064908616134,0.0014064908623929,-0.0014064908618131,0.0014064908621929,-0.0013242351928873,0.0013242351948326,-0.0013242351952531,0.001324235192468,0.5913455219507,0.37751487549077,114808,2744,0.0056500897690557,0.0056500897690809,0.0056500897690848,36.40782295554,36.399803221622,5.1262583644319e-05,5.1262583644319e-05,5.1262583644319e-05,1314469.349222,0.01709533800225
13019200,0.95005131923249,0.016515449803508,0.005505149934484,0.00550514993451,0.0055051499345139,-0.0013628139078745,0.0013628139078486,1.2206385154783e-12,-1.24488475122e-12,9.5557764254756e-14,-1.2585463316852e-13,-0.0014096988742226,0.001409698875093,-0.0014096988750443,0.0014096988742701,-0.0014096988742944,0.0014096988750177,-0.0014096988751163,0.0014096988741969,-0.0013269855687646,0.0013269855710763,-0.0013269855711672,0.0013269855686569,-9.7382083867713e-14,1.2392368480473e-13,-2.9076988188558e-13,3.1892272771782e-13,-0.0013628139078547,0.0013628139078806,-0.0014096988747778,0.0014096988745294,-0.0014096988745822,0.001409698874734,-0.0014096988747063,0.0014096988746039,-0.0014096988745108,0.0014096988748086,-0.0013269855701721,0.0013269855696848,-0.0013269855695844,0.0013269855702909,-0.0013269855699338,0.0013269855699379,-0.0013269855697231,0.0013269855701612,-1.3459609994624e-12,1.1195039763926e-12,-0.001362813907983,0.0013628139077542,1.8096835389395e-13,-4.2121860264906e-13,-0.0014096988750808,0.0014096988742326,-0.001409698875281,0.0014096988740323,-0.0014096988742585,0.0014096988750543,-0.0014096988744588,0.0014096988748536,-0.0013269855689518,0.0013269855709428,-0.0013269855713639,0.0013269855685319,0.59302695207653,0.39641182537046,114808,2744,0.0056622235644138,0.0056622235644391,0.0056622235644429,35.875947898871,35.860848862496,4.7007583190969e-05,4.7007583190969e-05,4.7007583190969e-05,1318854.7291952,0.017132369416036
13219200,0.95311915511726,0.016559060848619,0.0055196869495211,0.0055196869495471,0.005519686949551,-0.0013653852661236,0.0013653852660977,1.2442955436914e-12,-1.2684870576444e-12,9.5507434105727e-14,-1.2569254253205e-13,-0.0014125166479298,0.001412516648816,-0.0014125166487673,0.0014125166479773,-0.0014125166480015,0.0014125166487408,-0.0014125166488392,0.0014125166479042,-0.0013294050840411,0.0013294050863992,-0.0013294050864902,0.0013294050839337,-9.7291027825883e-14,1.2380074738391e-13,-2.9166061938005e-13,3.1976640782633e-13,-0.0013653852661039,0.0013653852661297,-0.0014125166484931,0.0014125166482442,-0.001412516648297,0.0014125166484494,-0.0014125166484217,0.0014125166483186,-0.0014125166482257,0.0014125166485239,-0.0013294050854727,0.0013294050849837,-0.0013294050848834,0.0013294050855915,-0.0013294050852334,0.0013294050852383,-0.0013294050850229,0.0013294050854613,-1.369637599688e-12,1.1430885206068e-12,-0.0013653852662321,0.0013653852660033,1.8179991672557e-13,-4.221174575426e-13,-0.0014125166488035,0.00141251664794,-0.0014125166490043,0.0014125166477392,-0.0014125166479654,0.0014125166487775,-0.0014125166481663,0.0014125166485762,-0.001329405084229,0.0013294050862655,-0.0013294050866873,0.0013294050838083,0.59512402038024,0.41530877525015,114808,2744,0.0056728759811273,0.0056728759811527,0.0056728759811566,35.33728464866,35.32189450337,4.269827718928e-05,4.269827718928e-05,4.269827718928e-05,1320036.882452,0.017164880840593
13419200,0.95592129748873,0.016598269267155,0.0055327564223663,0.0055327564223923,0.0055327564223963,-0.0013676165934689,0.0013676165934431,1.2679432495791e-12,-1.2920998256058e-12,9.5399433269049e-14,-1.2557381821782e-13,-0.0014149772925223,0.0014149772934242,-0.0014149772933755,0.0014149772925697,-0.0014149772925939,0.001414977293349,-0.0014149772934474,0.0014149772924967,-0.0013314850286153,0.0013314850310197,-0.0013314850311105,0.0013314850285079,-9.7197265984361e-14,1.2366869259457e-13,-2.9243706624836e-13,3.2050691461612e-13,-0.0013676165934492,0.001367616593475,-0.0014149772930937,0.0014149772928443,-0.0014149772928971,0.00141497729305,-0.0014149772930224,0.0014149772929186,-0.0014149772928258,0.0014149772931245,-0.0013314850300709,0.0013314850295802,-0.00133148502948,0.0013314850301895,-0.0013314850298302,0.0013314850298358,-0.0013314850296199,0.0013314850300586,-1.393281759728e-12,1.1667033286024e-12,-0.0013676165935775,0.0013676165933486,1.8252901209927e-13,-4.2290196298826e-13,-0.0014149772934115,0.0014149772925327,-0.0014149772936128,0.0014149772923314,-0.0014149772925576,0.001414977293386,-0.001414977292759,0.0014149772931842,-0.0013314850288033,0.0013314850308855,-0.0013314850313078,0.0013314850283821,0.58608285885732,0.38161430657092,114808,2744,0.0056821195549836,0.0056821195550089,0.0056821195550127,34.798334343643,34.782940144243,3.8386674749141e-05,3.8386674749141e-05,3.8386674749141e-05,1321201.6156996,0.0171930938632
13619200,0.95849813661334,0.0166338681201,0.0055446227066813,0.0055446227067073,0.0055446227067113,-0.00136973772953,0.0013697377295042,1.2915994405016e-12,-1.315701800124e-12,9.5304737517637e-14,-1.2543474893687e-13,-0.001417314312766,0.0014173143136836,-0.0014173143136349,0.0014173143128134,-0.0014173143128375,0.0014173143136085,-0.0014173143137067,0.0014173143127404,-0.0013334600340481,0.0013334600364989,-0.0013334600365896,0.0013334600339408,-9.710497468615e-14,1.2352816747575e-13,-2.9310528112898e-13,3.211236016591e-13,-0.0013697377295103,0.0013697377295361,-0.0014173143133455,0.0014173143130957,-0.0014173143131484,0.0014173143133018,-0.0014173143132742,0.0014173143131699,-0.0014173143130772,0.0014173143133762,-0.0013334600355276,0.0013334600350355,-0.0013334600349354,0.0013334600356461,-0.0013334600352859,0.0013334600352921,-0.0013334600350758,0.0013334600355146,-1.4169333018955e-12,1.1903093133381e-12,-0.0013697377296386,0.0013697377294097,1.8314187572965e-13,-4.2357029551234e-13,-0.0014173143136708,0.0014173143127766,-0.0014173143138725,0.0014173143125748,-0.0014173143128011,0.0014173143136456,-0.001417314313003,0.0014173143134434,-0.0013334600342364,0.0013334600363644,-0.0013334600367872,0.0013334600338147,0.57889841393085,0.35919722196563,114808,2744,0.0056909065545363,0.0056909065545615,0.0056909065545654,34.357324380487,34.34469059981,3.4858595043893e-05,3.4858595043893e-05,3.4858595043893e-05,1324873.6956508,0.017219914106004
13819200,0.96088199462481,0.016666773055041,0.0055555910183282,0.0055555910183542,0.0055555910183581,-0.0013717921471779,0.0013717921471521,1.31524664089e-12,-1.3393094383018e-12,9.5212378206798e-14,-1.2529795899807e-13,-0.0014195685821414,0.0014195685830747,-0.0014195685830261,0.0014195685821888,-0.0014195685822129,0.0014195685829998,-0.0014195685830979,0.0014195685821159,-0.0013353829917947,0.0013353829942919,-0.0013353829943824,0.0013353829916876,-9.7016036226688e-14,1.2338746589173e-13,-2.9365226441901e-13,3.2162999795375e-13,-0.0013717921471582,0.001371792147184,-0.0014195685827289,0.0014195685824788,-0.0014195685825315,0.0014195685826853,-0.0014195685826578,0.001419568582553,-0.0014195685824604,0.0014195685827596,-0.001335382993298,0.0013353829928047,-0.0013353829927048,0.0013353829934163,-0.0013353829930554,0.0013353829930621,-0.0013353829928456,0.0013353829932845,-1.4405801383245e-12,1.2139181509279e-12,-0.0013717921472865,0.0013717921470575,1.8364133105986e-13,-4.241203963542e-13,-0.0014195685830618,0.0014195685821522,-0.0014195685832638,0.00141956858195,-0.0014195685821764,0.0014195685830369,-0.0014195685823786,0.0014195685828344,-0.0013353829919832,0.0013353829941571,-0.0013353829945803,0.0013353829915612,0.57842145945309,0.36899707157555,114808,2744,0.0056994171412454,0.0056994171412707,0.0056994171412745,34.004782243235,33.994681438771,3.2038257945882e-05,3.2038257945882e-05,3.2038257945882e-05,1329429.4133531,0.017245891054908
14019200,0.96308964006226,0.016697234017096,0.0055657446723465,0.0055657446723725,0.0055657446723765,-0.0013736456136765,0.0013736456136509,1.3388878157272e-12,-1.3629224128286e-12,9.5116569208146e-14,-1.2517355838666e-13,-0.0014216060003221,0.0014216060012712,-0.0014216060012226,0.0014216060003694,-0.0014216060003935,0.0014216060011963,-0.0014216060012943,0.0014216060002966,-0.0013371179702292,0.0013371179727728,-0.0013371179728632,0.0013371179701221,-9.6923215532885e-14,1.2326011684098e-13,-2.9409407445143e-13,3.220102216323e-13,-0.0013736456136569,0.0013736456136826,-0.0014216060009177,0.0014216060006673,-0.0014216060007199,0.001421606000874,-0.0014216060008465,0.0014216060007414,-0.0014216060006489,0.0014216060009483,-0.0013371179717561,0.0013371179712619,-0.0013371179711621,0.0013371179718743,-0.0013371179715128,0.0013371179715199,-0.0013371179713032,0.0013371179717421,-1.4642148574765e-12,1.2375363117622e-12,-0.0013736456137852,0.0013736456135562,1.8404373053154e-13,-4.245389718023e-13,-0.0014216060012582,0.001421606000333,-0.0014216060014605,0.0014216060001306,-0.001421606000357,0.0014216060012335,-0.0014216060005594,0.0014216060010307,-0.0013371179704179,0.0013371179726378,-0.0013371179730613,0.0013371179699955,0.57820994911984,0.37879692118548,114808,2744,0.0057070952012525,0.0057070952012777,0.0057070952012815,33.654661933907,33.644672277732,2.9237295471259e-05,2.9237295471259e-05,2.9237295471259e-05,1333012.845615,0.017269327515571
14219200,0.9651359694679,0.016724470149661,0.0055748233832017,0.0055748233832277,0.0055748233832316,-0.0013752688257382,0.0013752688257126,1.3625357137045e-12,-1.3865261785375e-12,9.503569897647e-14,-1.2504862837965e-13,-0.0014234115581181,0.0014234115590829,-0.0014234115590344,0.0014234115581654,-0.0014234115581895,0.0014234115590081,-0.001423411559106,0.0014234115580927,-0.0013386091378201,0.0013386091404101,-0.0013386091405004,0.0013386091377132,-9.6838394594694e-14,1.23139414646e-13,-2.9444829892423e-13,3.223379763255e-13,-0.0013752688257187,0.0013752688257443,-0.0014234115587216,0.001423411558471,-0.0014234115585237,0.001423411558678,-0.0014234115586506,0.001423411558545,-0.0014234115584527,0.0014234115587522,-0.0013386091393706,0.0013386091388756,-0.0013386091387759,0.0013386091394887,-0.0013386091391267,0.0013386091391343,-0.0013386091389173,0.0013386091393562,-1.487853194165e-12,1.2611496786254e-12,-0.0013752688258469,0.0013752688256179,1.8436701477308e-13,-4.2489484328361e-13,-0.0014234115590698,0.0014234115581291,-0.0014234115592723,0.0014234115579264,-0.0014234115581529,0.0014234115590454,-0.0014234115583555,0.0014234115588423,-0.001338609138009,0.0013386091402749,-0.0013386091406986,0.0013386091375864,0.5585630390638,0.29910998723276,114808,2744,0.0057138192290977,0.005713819229123,0.0057138192291268,33.304643950137,33.294663116693,2.6437151601096e-05,2.6437151601096e-05,2.6437151601096e-05,1338141.8613352,0.017289853163676
14419200,0.96700305300974,0.016749566825875,0.0055831889419398,0.0055831889419658,0.0055831889419698,-0.0013760847111119,0.0013760847110863,1.3861975855197e-12,-1.4101065143555e-12,9.4993622366661e-14,-1.2499572558403e-13,-0.0014243978443516,0.0014243978453321,-0.0014243978452835,0.0014243978443989,-0.0014243978444229,0.0014243978452573,-0.0014243978453551,0.0014243978443261,-0.0013393131633876,0.0013393131660239,-0.0013393131661141,0.0013393131632807,-9.6799631073011e-14,1.2308918088649e-13,-2.9470540871676e-13,3.2251532384883e-13,-0.0013760847110925,0.0013760847111181,-0.0014243978449628,0.0014243978447121,-0.0014243978447648,0.0014243978449192,-0.0014243978448918,0.0014243978447861,-0.0014243978446939,0.0014243978449934,-0.0013393131649618,0.0013393131644663,-0.0013393131643666,0.0013393131650799,-0.001339313164718,0.0013393131647261,-0.0013393131645088,0.0013393131649477,-1.5114286504216e-12,1.2848163379781e-12,-0.0013760847112207,0.0013760847109917,1.8460577218508e-13,-4.2509107258306e-13,-0.0014243978453187,0.0014243978443624,-0.0014243978455214,0.0014243978441597,-0.001424397844386,0.0014243978452944,-0.0014243978445888,0.0014243978450913,-0.0013393131635773,0.0013393131658894,-0.0013393131663132,0.0013393131631546,0.56383116253467,0.33941432783108,114808,2744,0.0057171986059464,0.0057171986059722,0.0057171986059761,32.650009584822,32.631490651328,2.1200076678577e-05,2.1200076678577e-05,2.1200076678577e-05,1347200.4360163,0.017300171170959
14619200,0.96869358308295,0.016772397983003,0.005590799327649,0.0055907993276749,0.0055907993276789,-0.0013763874968836,0.001376387496858,1.4097999352562e-12,-1.4337282524013e-12,9.4972438386059e-14,-1.2494147724128e-13,-0.0014248469256896,0.0014248469266859,-0.0014248469266373,0.0014248469257369,-0.0014248469257609,0.0014248469266111,-0.0014248469267089,0.0014248469256642,-0.0013395231098891,0.0013395231125716,-0.0013395231126618,0.0013395231097822,-9.6783631561785e-14,1.2302800628474e-13,-2.9481599357377e-13,3.2260873275996e-13,-0.0013763874968641,0.0013763874968897,-0.0014248469263089,0.0014248469260581,-0.0014248469261107,0.0014248469262653,-0.0014248469262379,0.0014248469261321,-0.0014248469260399,0.0014248469263394,-0.0013395231114862,0.0013395231109905,-0.0013395231108909,0.0013395231116042,-0.001339523111242,0.0013395231112499,-0.0013395231110327,0.0013395231114716,-1.5350550168876e-12,1.3084135582757e-12,-0.0013763874969924,0.0013763874967634,1.8471053369057e-13,-4.2518942251971e-13,-0.0014248469266726,0.0014248469257006,-0.0014248469268753,0.0014248469254978,-0.0014248469257242,0.0014248469266484,-0.0014248469259271,0.0014248469264451,-0.0013395231100782,0.0013395231124364,-0.0013395231128603,0.0013395231096554,0.56645231541209,0.36350021667759,114808,2744,0.0057184523635332,0.0057184523635586,0.0057184523635625,31.826252724065,31.802880306047,1.4610021792522e-05,1.4610021792522e-05,1.4610021792522e-05,1351550.4295722,0.017304001414328
14819200,0.97022693147688,0.016793226905278,0.0055977423017406,0.0055977423017666,0.0055977423017705,-0.0013765137721744,0.0013765137721488,1.4334228229682e-12,-1.4573330948236e-12,9.4961048338797e-14,-1.2489311842449e-13,-0.0014250972494961,0.0014250972505081,-0.0014250972504595,0.0014250972495434,-0.0014250972495673,0.0014250972504333,-0.0014250972505311,0.0014250972494707,-0.0013395722444064,0.0013395722471353,-0.0013395722472254,0.0013395722442996,-9.6768102624419e-14,1.2298036068146e-13,-2.9482422861631e-13,3.2262208529322e-13,-0.0013765137721549,0.0013765137721805,-0.0014250972501233,0.0014250972498725,-0.0014250972499251,0.0014250972500797,-0.0014250972500523,0.0014250972499464,-0.0014250972498543,0.0014250972501538,-0.0013395722460267,0.0013395722455309,-0.0013395722454314,0.0013395722461447,-0.0013395722457823,0.0013395722457903,-0.0013395722455732,0.001339572246012,-1.5586702954571e-12,1.3320267486736e-12,-0.0013765137722832,0.0013765137720542,1.8472441561943e-13,-4.2519771638399e-13,-0.0014250972504948,0.0014250972495071,-0.0014250972506976,0.0014250972493043,-0.0014250972495307,0.0014250972504707,-0.0014250972497335,0.0014250972502674,-0.0013395722445955,0.0013395722469999,-0.0013395722474239,0.0013395722441727,0.56961683073392,0.38758610552409,114808,2744,0.0057189749576332,0.0057189749576585,0.0057189749576624,30.997826507683,30.974269960767,7.9826120614643e-06,7.9826120614643e-06,7.9826120614643e-06,1352723.7202937,0.017305599625389
15019200,0.97159912691966,0.016811793154973,0.0056039310516389,0.0056039310516649,0.0056039310516688,-0.0013759334976044,0.0013759334975789,1.4570457538774e-12,-1.4809259512839e-12,9.4948498745156e-14,-1.2485055354835e-13,-0.0014246288261006,0.0014246288271284,-0.0014246288270798,0.0014246288261479,-0.0014246288261718,0.0014246288270536,-0.0014246288271513,0.0014246288260752,-0.0013389205892224,0.0013389205919975,-0.0013389205920877,0.0013389205891157,-9.6740691697098e-14,1.2295171449775e-13,-2.9474164290395e-13,3.225083828844e-13,-0.001375933497585,0.0013759334976105,-0.0014246288267356,0.0014246288264849,-0.0014246288265376,0.001424628826692,-0.0014246288266647,0.0014246288265588,-0.0014246288264667,0.0014246288267661,-0.0013389205908657,0.0013389205903701,-0.0013389205902706,0.0013389205909836,-0.0013389205906214,0.0013389205906294,-0.0013389205904123,0.001338920590851,-1.5822491633742e-12,1.3556619089887e-12,-0.0013759334977131,0.0013759334974842,1.8465341778837e-13,-4.25072837846e-13,-0.0014246288271151,0.0014246288261117,-0.0014246288273178,0.0014246288259089,-0.0014246288261352,0.0014246288270909,-0.001424628826338,0.0014246288268878,-0.0013389205894114,0.0013389205918621,-0.001338920592286,0.0013389205889887,0.56737757575024,0.38481805944613,114808,2744,0.0057165704325874,0.0057165704326127,0.0057165704326165,29.89572263387,29.864538057626,-8.3421892904067e-07,-8.3421892904067e-07,-8.3421892904067e-07,1353031.8942079,0.017298264247412
15219200,0.97280892821143,0.016827460073277,0.0056091533577404,0.0056091533577664,0.0056091533577704,-0.0013745526374983,0.0013745526374728,1.480660069241e-12,-1.5045225700374e-12,9.4941078360631e-14,-1.2482676015757e-13,-0.0014233559625629,0.0014233559636065,-0.0014233559635579,0.0014233559626102,-0.0014233559626342,0.0014233559635317,-0.0014233559636294,0.0014233559625376,-0.0013374603802943,0.0013374603831157,-0.0013374603832057,0.0013374603801876,-9.6743044566396e-14,1.2291906843625e-13,-2.9452876705422e-13,3.2228997779182e-13,-0.0013745526374789,0.0013745526375044,-0.0014233559632058,0.0014233559629552,-0.0014233559630078,0.0014233559631622,-0.0014233559631348,0.0014233559630291,-0.001423355962937,0.0014233559632362,-0.0013374603819606,0.0013374603814653,-0.0013374603813659,0.0013374603820785,-0.0013374603817165,0.0013374603817244,-0.0013374603815075,0.0013374603819459,-1.605827207787e-12,1.3792952752408e-12,-0.001374552637607,0.0013745526373781,1.8446801168769e-13,-4.2482890412154e-13,-0.0014233559635932,0.001423355962574,-0.0014233559637958,0.0014233559623713,-0.0014233559625976,0.001423355963569,-0.0014233559628003,0.0014233559633659,-0.0013374603804832,0.0013374603829804,-0.0013374603834041,0.0013374603800608,0.54391178317195,0.28598329886612,114808,2744,0.0057108491053672,0.0057108491053925,0.0057108491053963,28.491037613289,28.451337282903,-1.2071699093691e-05,-1.2071699093691e-05,-1.2071699093691e-05,1355135.1352531,0.017280806620372
15419200,0.97387776308176,0.016843186700333,0.0056143955667589,0.0056143955667849,0.0056143955667889,-0.0013730492910401,0.001373049291015,1.5045242253177e-12,-1.5278854860268e-12,9.5132341129817e-14,-1.2463418515825e-13,-0.0014219220148807,0.0014219220159401,-0.0014219220158914,0.0014219220149283,-0.0014219220149515,0.0014219220158654,-0.0014219220159623,0.0014219220148555,-0.0013359400623318,0.0013359400652002,-0.0013359400652892,0.001335940062226,-9.6758632325494e-14,1.2290259835116e-13,-2.9424695213406e-13,3.2200804522819e-13,-0.001373049291021,0.0013730492910465,-0.0014219220155316,0.0014219220152806,-0.0014219220153335,0.0014219220154874,-0.0014219220154606,0.0014219220153546,-0.001421922015263,0.0014219220155616,-0.0013359400640216,0.0013359400635267,-0.0013359400634276,0.00133594006414,-0.0013359400637775,0.0013359400637854,-0.001335940063569,0.0013359400640072,-1.6297707116235e-12,1.402563476178e-12,-0.0013730492911494,0.0013730492909198,1.8386097140883e-13,-4.2487372628166e-13,-0.0014219220159271,0.0014219220148912,-0.0014219220161291,0.0014219220146885,-0.0014219220149154,0.0014219220159022,-0.001421922015118,0.0014219220156991,-0.0013359400625219,0.0013359400650642,-0.0013359400654887,0.0013359400620989,0.61487577658278,0.62516636785944,114808,2744,0.0057046205727661,0.0057046205727919,0.0057046205727953,27.078133361247,27.03813650818,-2.3374933110027e-05,-2.3374933110027e-05,-2.3374933110027e-05,1356645.2470217,0.017261799766284
15619200,0.97484115506811,0.016857650820158,0.0056192169400339,0.0056192169400599,0.0056192169400638,-0.0013721209939286,0.0013721209939031,1.5279161384681e-12,-1.5516924265949e-12,9.4934668974632e-14,-1.2478060715575e-13,-0.0014210278145708,0.0014210278156459,-0.0014210278155972,0.0014210278146182,-0.001421027814642,0.0014210278155712,-0.0014210278156687,0.0014210278145455,-0.0013350071000227,0.0013350071029366,-0.0013350071030266,0.0013350070999161,-9.6730868467779e-14,1.2287924612338e-13,-2.9391307998069e-13,3.2162952737989e-13,-0.0013721209939092,0.0013721209939347,-0.0014210278152292,0.001421027814979,-0.0014210278150317,0.0014210278151856,-0.0014210278151584,0.0014210278150529,-0.0014210278149609,0.0014210278152597,-0.0013350071017348,0.0013350071012407,-0.0013350071011411,0.0013350071018525,-0.0013350071014913,0.0013350071014988,-0.0013350071012823,0.0013350071017204,-1.6529919434073e-12,1.426555243246e-12,-0.0013721209940372,0.0013721209938085,1.8390749939919e-13,-4.2411904345435e-13,-0.0014210278156328,0.0014210278145817,-0.0014210278158348,0.0014210278143795,-0.0014210278146056,0.0014210278156082,-0.0014210278148079,0.0014210278154057,-0.0013350071002113,0.0013350071028014,-0.0013350071032246,0.0013350070997893,0.62694794096739,0.66664863809497,114808,2744,0.0057007746109344,0.0057007746109597,0.0057007746109634,25.968218758211,25.936702474097,-3.2254249934312e-05,-3.2254249934312e-05,-3.2254249934312e-05,1336198.6293561,0.017250063360859
15819200,0.97574715665969,0.016872213716278,0.0056240712387408,0.0056240712387668,0.0056240712387707,-0.0013725084213161,0.0013725084212907,1.5515349316361e-12,-1.5753071162578e-12,9.4943926274548e-14,-1.2474713758999e-13,-0.0014214271328606,0.0014214271339514,-0.0014214271339028,0.001421427132908,-0.0014214271329318,0.0014214271338767,-0.0014214271339742,0.0014214271328353,-0.0013354172204799,0.0013354172234401,-0.00133541722353,0.0013354172203733,-9.6728103846354e-14,1.2285824676489e-13,-2.9349079876344e-13,3.2120559915414e-13,-0.0013725084212968,0.0013725084213222,-0.0014214271335267,0.0014214271332768,-0.0014214271333295,0.0014214271334831,-0.0014214271334558,0.0014214271333507,-0.0014214271332587,0.0014214271335571,-0.0013354172222146,0.0013354172217214,-0.001335417221622,0.0013354172223325,-0.0013354172219719,0.001335417221979,-0.0013354172217629,0.0013354172222006,-1.6765584293496e-12,1.4502240201811e-12,-0.0013725084214248,0.0013725084211961,1.835239228819e-13,-4.2365758696329e-13,-0.0014214271339384,0.0014214271328714,-0.0014214271341402,0.0014214271326694,-0.0014214271328955,0.0014214271339136,-0.0014214271330975,0.0014214271337113,-0.0013354172206684,0.0013354172233052,-0.001335417223728,0.0013354172202469,0.6691969693494,0.8411119242785,114808,2744,0.0057023798042529,0.0057023798042782,0.005702379804282,25.549698584818,25.537567560318,-3.5602411321454e-05,-3.5602411321454e-05,-3.5602411321454e-05,1311984.1536638,0.017254961785922
16019200,0.97660078455636,0.016885906712537,0.0056286355708269,0.0056286355708529,0.0056286355708568,-0.0013729175851535,0.001372917585129,1.5755562740873e-12,-1.5985246867334e-12,9.5369351237666e-14,-1.2431967270757e-13,-0.0014218423801475,0.0014218423812546,-0.0014218423812052,0.0014218423801952,-0.0014218423802192,0.0014218423811808,-0.0014218423812764,0.0014218423801231,-0.0013358422230017,0.0013358422260094,-0.0013358422260981,0.0013358422228967,-9.6695634250042e-14,1.2288677530513e-13,-2.9294993293358e-13,3.208291988882e-13,-0.0013729175851344,0.00137291758516,-0.0014218423808215,0.001421842380572,-0.0014218423806246,0.0014218423807785,-0.0014218423807505,0.0014218423806456,-0.0014218423805538,0.0014218423808518,-0.0013358422247564,0.0013358422242648,-0.0013358422241652,0.0013358422248749,-0.0013358422245161,0.0013358422245231,-0.0013358422243075,0.0013358422247443,-1.7004162593328e-12,1.4735877182008e-12,-0.0013729175852628,0.0013729175850336,1.828104152673e-13,-4.2345776953817e-13,-0.0014218423812417,0.0014218423801583,-0.0014218423814432,0.0014218423799564,-0.0014218423801834,0.0014218423812166,-0.0014218423803846,0.0014218423810141,-0.0013358422231901,0.0013358422258719,-0.0013358422262952,0.0013358422227677,0.66742789712312,0.80327694214316,114808,2744,0.0057040750263316,0.0057040750263562,0.0057040750263602,25.149746426088,25.138432646539,-3.8802028591293e-05,-3.8802028591293e-05,-3.8802028591293e-05,1281890.2890574,0.017260135124359
16219200,0.97740569318353,0.016898765995803,0.0056329219985823,0.0056329219986083,0.0056329219986122,-0.0013732535016707,0.0013732535016454,1.5988303590359e-12,-1.6224832303218e-12,9.5014226401744e-14,-1.2467482362266e-13,-0.0014221851927685,0.001422185193891,-0.0014221851938422,0.001422185192816,-0.0014221851928397,0.0014221851938163,-0.0014221851939136,0.0014221851927434,-0.0013361884747393,0.0013361884777922,-0.0013361884778819,0.0013361884746329,-9.6745220970496e-14,1.2283907088012e-13,-2.9257229741126e-13,3.2028750955408e-13,-0.0013732535016514,0.0013732535016769,-0.0014221851934502,0.0014221851932008,-0.0014221851932535,0.0014221851934065,-0.0014221851933793,0.0014221851932748,-0.0014221851931827,0.0014221851934806,-0.0013361884765191,0.0013361884760277,-0.0013361884759283,0.001336188476637,-0.0013361884762777,0.0013361884762842,-0.0013361884760688,0.0013361884765057,-1.7237064301871e-12,1.4975432510816e-12,-0.0013732535017793,0.0013732535015508,1.8269594817596e-13,-4.2265561757277e-13,-0.0014221851938782,0.0014221851927792,-0.0014221851940793,0.0014221851925778,-0.0014221851928037,0.001422185193853,-0.001422185193005,0.0014221851936512,-0.0013361884749274,0.0013361884776572,-0.0013361884780793,0.0013361884745065,0.66425602152157,0.76544196000782,114808,2744,0.0057054667381258,0.0057054667381509,0.0057054667381547,24.750570164117,24.739297732759,-4.1995438687067e-05,-4.1995438687067e-05,-4.1995438687067e-05,1256952.1066762,0.017264382405108
16419200,0.97816797640305,0.016909730783248,0.0056365769277306,0.0056365769277566,0.0056365769277605,-0.0013735903330187,0.0013735903329927,1.6219991337825e-12,-1.6464539834408e-12,9.4595774686075e-14,-1.2494276396668e-13,-0.0014225448606242,0.001422544861761,-0.0014225448617142,0.0014225448606712,-0.0014225448606966,0.0014225448616869,-0.0014225448617846,0.0014225448605979,-0.0013365023029494,0.0013365023060465,-0.0013365023061374,0.0013365023028414,-9.6988507655902e-14,1.2246296472284e-13,-2.9248294719967e-13,3.1947294620314e-13,-0.0013735903329999,0.0013735903330245,-0.0014225448613154,0.0014225448610655,-0.0014225448611179,0.0014225448612703,-0.0014225448612425,0.0014225448611387,-0.0014225448610474,0.0014225448613435,-0.0013365023047532,0.0013365023042613,-0.0013365023041611,0.0013365023048709,-0.0013365023045119,0.0013365023045183,-0.0013365023043033,0.0013365023047398,-1.7470694811678e-12,1.5213524060812e-12,-0.0013735903331271,0.001373590332899,1.8237366390387e-13,-4.2202110754485e-13,-0.0014225448617504,0.0014225448606357,-0.001422544861951,0.0014225448604339,-0.0014225448606597,0.0014225448617257,-0.0014225448608612,0.0014225448615228,-0.0013365023031386,0.0013365023059151,-0.0013365023063347,0.0013365023027184,0.59981695134887,0.45292604257112,114808,2744,0.0057068620630508,0.0057068620630778,0.0057068620630813,24.412913939401,24.403356481781,-4.4696688484793e-05,-4.4696688484793e-05,-4.4696688484793e-05,1239393.2144469,0.017268641610067
16619200,0.97889391204684,0.016922032092359,0.0056406773641009,0.0056406773641269,0.0056406773641309,-0.0013740443796699,0.0013740443796408,1.6429478669748e-12,-1.6727321654949e-12,9.2214403731279e-14,-1.2735235947284e-13,-0.001423010911646,0.001423010912807,-0.0014230109127639,0.0014230109117128,-0.0014230109117301,0.0014230109127266,-0.0014230109128282,0.0014230109116293,-0.0013369772376851,0.0013369772408193,-0.0013369772409253,0.0013369772375764,-9.422253333099e-14,1.2507906127348e-13,-2.8888711587338e-13,3.2196075255531e-13,-0.0013740443796454,0.0013740443796756,-0.0014230109123582,0.0014230109121276,-0.001423010912172,0.0014230109123261,-0.001423010912301,0.0014230109122065,-0.0014230109121057,0.0014230109123953,-0.0013369772395276,0.0013369772390352,-0.0013369772389367,0.0013369772396537,-0.0013369772392528,0.0013369772392678,-0.0013369772390492,0.0013369772394862,-1.7743704706707e-12,1.5414374983778e-12,-0.0013740443797791,0.0013740443795461,1.7921123110226e-13,-4.2407992700227e-13,-0.0014230109128163,0.0014230109116751,-0.0014230109130065,0.0014230109114807,-0.0014230109117058,0.0014230109127924,-0.0014230109119144,0.0014230109125897,-0.0013369772378726,0.0013369772406869,-0.0013369772411167,0.0013369772374385,0.70235629359212,0.92426636263102,114808,2744,0.0057087431606499,0.0057087431606713,0.0057087431606801,24.15880597285,24.151598818487,-4.6729552217197e-05,-4.6729552217197e-05,-4.6729552217197e-05,1234918.3593441,0.017274382326166
16819200,0.97958563630514,0.016933812774127,0.0056446042580236,0.0056446042580496,0.0056446042580535,-0.0013745797179272,0.0013745797179013,1.669238644692e-12,-1.6937958132603e-12,9.4420568641441e-14,-1.2515891912799e-13,-0.0014235337044653,0.0014235337056354,-0.0014235337055872,0.0014235337045141,-0.0014235337045376,0.0014235337055603,-0.0014235337056582,0.0014235337044408,-0.0013375372961655,0.0013375372993565,-0.0013375372994474,0.001337537296059,-9.6469170580117e-14,1.2303094737136e-13,-2.906625910456e-13,3.1900196059143e-13,-0.0013745797179072,0.001374579717933,-0.0014235337051718,0.0014235337049247,-0.0014235337049767,0.0014235337051289,-0.0014235337051018,0.0014235337049989,-0.0014235337049063,0.0014235337052024,-0.0013375372980134,0.0013375372975251,-0.0013375372974252,0.0013375372981317,-0.0013375372977718,0.0013375372977776,-0.0013375372975637,0.0013375372979996,-1.7947748767419e-12,1.568228591693e-12,-0.0013745797180355,0.0013745797178069,1.8107664470339e-13,-4.2106737197494e-13,-0.0014235337056252,0.0014235337044774,-0.0014235337058245,0.0014235337042775,-0.001423533704503,0.0014235337055993,-0.0014235337047041,0.0014235337053983,-0.001337537296352,0.0013375372992214,-0.0013375372996426,0.0013375372959316,0.70571569220146,0.90497517292461,114808,2744,0.0057109611436743,0.0057109611436987,0.005710961143703,23.906947949585,23.899841155194,-4.8744416403323e-05,-4.8744416403323e-05,-4.8744416403323e-05,1206824.48916,0.017281150803717
17019200,0.98024505655942,0.0169448341685,0.0056482780561482,0.0056482780561742,0.0056482780561781,-0.0013750562954706,0.0013750562954449,1.6930508740462e-12,-1.7172398420062e-12,9.4731440808113e-14,-1.2487773654146e-13,-0.0014240013212552,0.001424001322441,-0.0014240013223928,0.0014240013213038,-0.0014240013213273,0.0014240013223659,-0.0014240013224636,0.0014240013212305,-0.0013380292849934,0.0013380292882304,-0.0013380292883213,0.0013380292848867,-9.6568461664489e-14,1.2294565585931e-13,-2.9032295436244e-13,3.1828374723824e-13,-0.001375056295451,0.0013750562954767,-0.0014240013219687,0.0014240013217219,-0.0014240013217739,0.0014240013219257,-0.0014240013218985,0.0014240013217961,-0.0014240013217035,0.0014240013219992,-0.0013380292868649,0.0013380292863772,-0.0013380292862777,0.0013380292869829,-0.0013380292866239,0.0013380292866296,-0.0013380292864154,0.001338029286851,-1.8182463655863e-12,1.5919901305002e-12,-0.0013750562955791,0.0013750562953506,1.8060454147876e-13,-4.2051180071196e-13,-0.0014240013224303,0.0014240013212664,-0.0014240013226293,0.0014240013210669,-0.0014240013212925,0.0014240013224042,-0.001424001321493,0.0014240013222036,-0.0013380292851805,0.0013380292880967,-0.0013380292885173,0.0013380292847606,0.69245973466897,0.81742358755057,114808,2744,0.005712935619062,0.005712935619087,0.0057129356190912,23.65518386669,23.648083491901,-5.0758529066481e-05,-5.0758529066481e-05,-5.0758529066481e-05,1182895.4930687,0.017287176440898
17219200,0.98085885937067,0.016954829452221,0.0056516098173883,0.0056516098174143,0.0056516098174182,-0.0013746559786931,0.0013746559786675,1.716651236711e-12,-1.7408708328714e-12,9.474672538254e-14,-1.2486438400819e-13,-0.0014236033263374,0.0014236033275388,-0.0014236033274907,0.0014236033263858,-0.0014236033264094,0.0014236033274638,-0.0014236033275616,0.0014236033263127,-0.0013376310066784,0.0013376310099616,-0.0013376310100525,0.0013376310065716,-9.6568049912362e-14,1.229440088508e-13,-2.8979138236631e-13,3.1779646800664e-13,-0.0013746559786735,0.0013746559786992,-0.0014236033270587,0.0014236033268121,-0.0014236033268641,0.0014236033270157,-0.0014236033269885,0.0014236033268862,-0.0014236033267937,0.0014236033270892,-0.0013376310085721,0.0013376310080855,-0.0013376310079862,0.0013376310086903,-0.0013376310083322,0.0013376310083376,-0.0013376310081236,0.0013376310085589,-1.8417646765298e-12,1.6157114940641e-12,-0.0013746559788015,0.0013746559785732,1.8019737744675e-13,-4.1990340753325e-13,-0.0014236033275283,0.0014236033263486,-0.001423603327727,0.0014236033261494,-0.0014236033263748,0.0014236033275019,-0.0014236033265749,0.0014236033273017,-0.0013376310068652,0.0013376310098283,-0.0013376310102482,0.0013376310064457,0.67475984690736,0.71970379112545,114808,2744,0.0057112770837342,0.0057112770837592,0.0057112770837633,22.996645200686,22.978261950595,-5.6026838394515e-05,-5.6026838394515e-05,-5.6026838394515e-05,1167256.6436848,0.017282115120244
17419200,0.98141906726595,0.016963576052073,0.0056545253506724,0.0056545253506984,0.0056545253507024,-0.0013734816280736,0.0013734816280479,1.7402954197283e-12,-1.7644601907024e-12,9.4744988303253e-14,-1.2487785418492e-13,-0.0014224393907352,0.0014224393919525,-0.0014224393919042,0.0014224393907837,-0.0014224393908073,0.0014224393918775,-0.0014224393919752,0.0014224393907105,-0.0013364472755148,0.0013364472788445,-0.0013364472789353,0.0013364472754082,-9.6577049637427e-14,1.2295200860642e-13,-2.8934339605198e-13,3.1733642323716e-13,-0.0013734816280539,0.0013734816280797,-0.0014224393914643,0.001422439391218,-0.00142243939127,0.0014224393914212,-0.001422439391394,0.0014224393912921,-0.0014224393911996,0.0014224393914948,-0.0013364472774312,0.0013364472769456,-0.0013364472768461,0.0013364472775493,-0.0013364472771921,0.001336447277197,-0.0013364472769834,0.0013364472774184,-1.8653490442789e-12,1.6393573893453e-12,-0.0013734816281819,0.0013734816279537,1.7979544854893e-13,-4.1939848178192e-13,-0.001422439391942,0.0014224393907464,-0.0014224393921405,0.0014224393905474,-0.0014224393907727,0.0014224393919154,-0.0014224393909726,0.0014224393917155,-0.0013364472757015,0.0013364472787112,-0.0013364472791308,0.0013364472752825,0.64747795535223,0.5868439824505,114808,2744,0.0057064116898509,0.0057064116898759,0.00570641168988,21.99462830976,21.966574121097,-6.404297352192e-05,-6.404297352192e-05,-6.404297352192e-05,1158725.5062858,0.017267267411606
17619200,0.98193074032663,0.016971267117472,0.0056570890391387,0.0056570890391647,0.0056570890391687,-0.0013721799353128,0.0013721799352872,1.7639268568115e-12,-1.7880541547805e-12,9.4766107258268e-14,-1.248768689209e-13,-0.0014211537796958,0.0014211537809288,-0.0014211537808805,0.0014211537797442,-0.0014211537797678,0.0014211537808538,-0.0014211537809515,0.0014211537796711,-0.0013351301137795,0.0013351301171555,-0.0013351301172462,0.0013351301136729,-9.6599872469617e-14,1.2294965573712e-13,-2.8894170244109e-13,3.1691343615912e-13,-0.0013721799352932,0.0013721799353189,-0.0014211537804325,0.0014211537801864,-0.0014211537802385,0.0014211537803894,-0.0014211537803622,0.0014211537802605,-0.001421153780168,0.001421153780463,-0.0013351301157186,0.0013351301152338,-0.0013351301151343,0.0013351301158367,-0.0013351301154801,0.0013351301154847,-0.0013351301152714,0.0013351301157062,-1.888889207496e-12,1.6630421363808e-12,-0.0013721799354211,0.001372179935193,1.7945375310514e-13,-4.1891926112766e-13,-0.0014211537809183,0.0014211537797068,-0.0014211537811165,0.0014211537795081,-0.0014211537797333,0.0014211537808915,-0.0014211537799328,0.0014211537806919,-0.001335130113966,0.0013351301170223,-0.0013351301174415,0.0013351301135475,0.62390231068743,0.48184511056939,114808,2744,0.0057010186555359,0.0057010186555609,0.005701018655565,20.983313510797,20.9548862916,-7.2133491913623e-05,-7.2133491913623e-05,-7.2133491913623e-05,1157344.3812509,0.017250809849742
17819200,0.98239927502316,0.016978071609416,0.0056593572031199,0.005659357203146,0.0056593572031499,-0.0013708293006194,0.0013708293005939,1.7875724294923e-12,-1.8116327128495e-12,9.4830477649333e-14,-1.2483779658512e-13,-0.0014198257832827,0.0014198257845313,-0.0014198257844827,0.0014198257833309,-0.0014198257833543,0.0014198257844562,-0.0014198257845538,0.0014198257832576,-0.0013337588024332,0.0013337588058555,-0.0013337588059461,0.0013337588023265,-9.6695281319648e-14,1.2288224603173e-13,-2.8863924109284e-13,3.1645692069359e-13,-0.0013708293005999,0.0013708293006255,-0.001419825784027,0.001419825783781,-0.0014198257838329,0.0014198257839838,-0.0014198257839567,0.0014198257838551,-0.0014198257837629,0.0014198257840575,-0.0013337588043946,0.0013337588039107,-0.0013337588038116,0.0013337588045129,-0.0013337588041571,0.0013337588041613,-0.0013337588039485,0.0013337588043829,-1.9125436319284e-12,1.6866047106779e-12,-0.0013708293007278,0.0013708293004997,1.7902141337165e-13,-4.1859862386408e-13,-0.0014198257845206,0.0014198257832932,-0.0014198257847191,0.001419825783095,-0.00141982578332,0.0014198257844938,-0.0014198257835194,0.0014198257842942,-0.0013337588026199,0.0013337588057225,-0.0013337588061416,0.0013337588022011,0.60341625857308,0.39934230906127,114808,2744,0.0056954227904009,0.0056954227904259,0.0056954227904302,19.99354159984,19.9657345228,-8.0051667201281e-05,-8.0051667201281e-05,-8.0051667201281e-05,1161853.6164857,0.01723373373737
18019200,0.98282927648648,0.016984307849651,0.0056614359498651,0.0056614359498911,0.005661435949895,-0.0013694453409219,0.0013694453408963,1.8111656793229e-12,-1.8352656410406e-12,9.4814925734727e-14,-1.2488842003861e-13,-0.001418467283752,0.0014184672850165,-0.0014184672849681,0.0014184672838002,-0.0014184672838239,0.0014184672849416,-0.0014184672850391,0.0014184672837271,-0.0013323555266548,0.0013323555301232,-0.0013323555302138,0.0013323555265481,-9.6648459220619e-14,1.2296242005306e-13,-2.8823195941737e-13,3.1617734099927e-13,-0.0013694453409023,0.001369445340928,-0.001418467284504,0.0014184672842584,-0.0014184672843105,0.0014184672844609,-0.0014184672844337,0.0014184672843324,-0.00141846728424,0.0014184672845346,-0.0013323555286391,0.0013323555281559,-0.0013323555280564,0.0013323555287574,-0.0013323555284018,0.0013323555284058,-0.0013323555281931,0.0013323555286275,-1.9360423846459e-12,1.7103378091775e-12,-0.0013694453410301,0.0013694453408022,1.7879489087999e-13,-4.1813946142059e-13,-0.0014184672850059,0.0014184672837627,-0.0014184672852037,0.0014184672835644,-0.0014184672837894,0.0014184672849788,-0.0014184672839885,0.0014184672847797,-0.0013323555268409,0.0013323555299903,-0.0013323555304089,0.0013323555264229,0.6026570085501,0.41341936417556,114808,2744,0.005689688829595,0.00568968882962,0.0056896888296241,19.022090554394,18.994799579319,-8.782327556485e-05,-8.782327556485e-05,-8.782327556485e-05,1170370.9851699,0.017216236472235
18219200,0.98322433136623,0.016990141527102,0.0056633805090152,0.0056633805090412,0.0056633805090452,-0.0013680267423216,0.0013680267422961,1.8347988286699e-12,-1.8588543274766e-12,9.4848046620885e-14,-1.2488542013026e-13,-0.001417070939846,0.0014170709411262,-0.0014170709410778,0.0014170709398943,-0.0014170709399179,0.0014170709410512,-0.0014170709411489,0.0014170709398212,-0.0013309227145491,0.0013309227180638,-0.0013309227181544,0.0013309227144425,-9.6677105404321e-14,1.2296306709212e-13,-2.8795167386226e-13,3.1585770370514e-13,-0.0013680267423021,0.0013680267423277,-0.0014170709406058,0.0014170709403602,-0.0014170709404124,0.0014170709405626,-0.0014170709405354,0.0014170709404343,-0.0014170709403419,0.0014170709406363,-0.0013309227165563,0.0013309227160736,-0.0013309227159741,0.0013309227166744,-0.0013309227163195,0.0013309227163233,-0.0013309227161107,0.0013309227165449,-1.9595688423993e-12,1.7340322029771e-12,-0.0013680267424298,0.001368026742202,1.7858436789956e-13,-4.1775312028187e-13,-0.0014170709411156,0.0014170709398566,-0.0014170709413133,0.0014170709396585,-0.0014170709398834,0.0014170709410884,-0.0014170709400822,0.0014170709408895,-0.0013309227147351,0.0013309227179311,-0.0013309227183493,0.0013309227143176,0.61338748654822,0.4780761505855,114808,2744,0.0056838113638659,0.0056838113638909,0.005683811363895,18.051134070367,18.023864635838,-9.5590927437065e-05,-9.5590927437065e-05,-9.5590927437065e-05,1177625.2060638,0.017198301411759
18419200,0.98359679900881,0.016995677497393,0.0056652258324455,0.0056652258324716,0.0056652258324755,-0.0013673614326945,0.001367361432669,1.8584468488862e-12,-1.8824436257966e-12,9.4881866130002e-14,-1.248707367553e-13,-0.0014164195470882,0.0014164195483841,-0.0014164195483357,0.0014164195471364,-0.00141641954716,0.0014164195483092,-0.0014164195484068,0.0014164195470633,-0.00133024913394,0.001330249137501,-0.0013302491375915,0.0013302491338333,-9.6696810684691e-14,1.2296030247069e-13,-2.8772126913626e-13,3.1559818222158e-13,-0.001367361432675,0.0013673614327006,-0.0014164195478558,0.0014164195476103,-0.0014164195476625,0.0014164195478124,-0.0014164195477853,0.0014164195476844,-0.0014164195475919,0.0014164195478863,-0.00133024913597,0.0013302491354877,-0.0013302491353883,0.0013302491360881,-0.0013302491357337,0.0013302491357372,-0.0013302491355249,0.0013302491359588,-1.9831321225573e-12,1.7577026563316e-12,-0.0013673614328026,0.0013673614325749,1.783777859752e-13,-4.1747383469621e-13,-0.0014164195483735,0.0014164195470987,-0.0014164195485711,0.0014164195469008,-0.0014164195471256,0.0014164195483462,-0.0014164195473242,0.0014164195481475,-0.0013302491341258,0.0013302491373684,-0.0013302491377864,0.0013302491337086,0.61738400527668,0.50580856140999,114808,2744,0.005681054851161,0.0056810548511861,0.0056810548511901,17.477371095873,17.461087427832,-0.00010018103123302,-0.00010018103123302,-0.00010018103123302,1180223.7170962,0.017189890139883
18619200,0.9839555183284,0.017000958755804,0.0056669862519161,0.0056669862519421,0.005666986251946,-0.0013673167856428,0.0013673167856173,1.8820676272877e-12,-1.9060633091028e-12,9.4891131586838e-14,-1.2487358960932e-13,-0.0014163883999178,0.0014163884012294,-0.001416388401181,0.0014163883999659,-0.0014163883999895,0.0014163884011545,-0.0014163884012521,0.0014163883998929,-0.0013301955518191,0.0013301955554264,-0.0013301955555169,0.0013301955517125,-9.6714398382693e-14,1.2295730256234e-13,-2.8756015641108e-13,3.1541536427713e-13,-0.0013673167856233,0.0013673167856489,-0.0014163884006931,0.0014163884004477,-0.0014163884005,0.0014163884006498,-0.0014163884006226,0.0014163884005217,-0.0014163884004294,0.0014163884007236,-0.0013301955538721,0.0013301955533902,-0.0013301955532907,0.0013301955539901,-0.0013301955536361,0.0013301955536394,-0.0013301955534272,0.001330195553861,-2.0067199019668e-12,1.7813583454312e-12,-0.0013673167857509,0.0013673167855233,1.7825520148478e-13,-4.1725413552552e-13,-0.0014163884012188,0.0014163883999282,-0.0014163884014163,0.0014163883997303,-0.0014163883999551,0.0014163884011914,-0.0014163884001536,0.0014163884009928,-0.0013301955520049,0.0013301955552939,-0.0013301955557117,0.0013301955515879,0.61178637495741,0.48684635879891,114808,2744,0.00568086978565,0.0056808697856751,0.0056808697856791,17.231494708491,17.224445382551,-0.00010214804233207,-0.00010214804233207,-0.00010214804233207,1181613.1048279,0.017189325838805
18819200,0.98430129392569,0.017006371843776,0.0056687906145733,0.0056687906145994,0.0056687906146033,-0.0013672842683592,0.0013672842683337,1.9057078481098e-12,-1.9296676293673e-12,9.4907725059698e-14,-1.2486697216442e-13,-0.0014163687625921,0.0014163687639197,-0.001416368763871,0.0014163687626402,-0.0014163687626639,0.0014163687638445,-0.0014163687639423,0.0014163687625671,-0.0013301604915109,0.0013301604951645,-0.0013301604952549,0.0013301604914043,-9.6754867734618e-14,1.229242447487e-13,-2.8746233587002e-13,3.1528466238763e-13,-0.0013672842683398,0.0013672842683653,-0.0014163687633754,0.0014163687631299,-0.0014163687631823,0.0014163687633321,-0.0014163687633049,0.001416368763204,-0.0014163687631117,0.0014163687634058,-0.0013301604935867,0.0013301604931053,-0.0013301604930056,0.0013301604937049,-0.0013301604933515,0.0013301604933546,-0.0013301604931424,0.0013301604935761,-2.0304275600671e-12,1.8048968616398e-12,-0.0013672842684674,0.0013672842682396,1.7807308940112e-13,-4.1721178387815e-13,-0.001416368763909,0.0014163687626025,-0.0014163687641065,0.0014163687624047,-0.0014163687626297,0.0014163687638815,-0.001416368762828,0.0014163687636831,-0.0013301604916969,0.0013301604950321,-0.0013301604954498,0.0013301604912797,0.64922934296752,0.666501159985,114808,2744,0.0056807350003243,0.0056807350003495,0.0056807350003535,16.994467264428,16.98780333727,-0.00010404426188458,-0.00010404426188458,-0.00010404426188458,1183893.6594454,0.017188914843139
19019200,0.98463469653558,0.017011906107378,0.0056706353691073,0.0056706353691333,0.0056706353691373,-0.0013672942036022,0.0013672942035767,1.9293449734384e-12,-1.9532753673813e-12,9.4930408764705e-14,-1.2485966356416e-13,-0.0014163784040441,0.0014163784053874,-0.0014163784053388,0.0014163784040923,-0.0014163784041159,0.0014163784053124,-0.00141637840541,0.0014163784040193,-0.0013301779114535,0.0013301779151534,-0.0013301779152437,0.0013301779113469,-9.6737927075673e-14,1.2295847899699e-13,-2.8740451410702e-13,3.1524042844483e-13,-0.0013672942035827,0.0013672942036083,-0.0014163784048351,0.0014163784045897,-0.0014163784046421,0.0014163784047917,-0.0014163784047646,0.0014163784046638,-0.0014163784045714,0.0014163784048656,-0.0013301779135526,0.0013301779130711,-0.0013301779129716,0.0013301779136706,-0.001330177913317,0.0013301779133201,-0.001330177913108,0.0013301779135418,-2.0538944902273e-12,1.8286722235541e-12,-0.0013672942037102,0.0013672942034827,1.7815567511348e-13,-4.1702414255164e-13,-0.0014163784053765,0.0014163784040544,-0.001416378405574,0.0014163784038567,-0.0014163784040814,0.0014163784053492,-0.0014163784042797,0.0014163784051508,-0.0013301779116393,0.001330177915021,-0.0013301779154386,0.0013301779112226,0.68719098427791,0.83152155733643,114808,2744,0.0056807761831401,0.0056807761831651,0.0056807761831692,16.757808122825,16.75116129199,-0.0001059375350174,-0.0001059375350174,-0.0001059375350174,1176259.5848255,0.017189040443204
19219200,0.98496656905773,0.017017578189519,0.0056725260631543,0.0056725260631803,0.0056725260631843,-0.001368309833774,0.0013683098337485,1.9529767119829e-12,-1.9769049168842e-12,9.4936005101093e-14,-1.2485956062613e-13,-0.0014173790065059,0.0014173790078649,-0.0014173790078163,0.001417379006554,-0.0014173790065776,0.0014173790077899,-0.0014173790078875,0.001417379006481,-0.0013312097522817,0.0013312097560278,-0.0013312097561181,0.001331209752175,-9.6752926617447e-14,1.2294971455885e-13,-2.8741663138391e-13,3.1522466422053e-13,-0.0013683098337545,0.0013683098337801,-0.0014173790073047,0.0014173790070593,-0.0014173790071116,0.0014173790072613,-0.0014173790072342,0.0014173790071333,-0.001417379007041,0.0014173790073352,-0.0013312097544039,0.0013312097539223,-0.0013312097538228,0.0013312097545218,-0.0013312097541683,0.0013312097541714,-0.0013312097539593,0.0013312097543931,-2.0775333563115e-12,1.8522947077858e-12,-0.001368309833882,0.0013683098336545,1.7814308726273e-13,-4.1703402460269e-13,-0.001417379007854,0.0014173790065162,-0.0014173790080515,0.0014173790063184,-0.0014173790065432,0.0014173790078266,-0.0014173790067414,0.0014173790076282,-0.0013312097524674,0.0013312097558954,-0.001331209756313,0.0013312097520507,0.70677985285988,0.897136206051,114808,2744,0.0056849840916211,0.0056849840916462,0.0056849840916502,17.021693891059,17.028891199838,-0.00010382644887153,-0.00010382644887153,-0.00010382644887153,1159492.992327,0.017201880780929
19419200,0.98530204017898,0.017023196185207,0.0056743987283838,0.0056743987284098,0.0056743987284138,-0.0013698248872552,0.0013698248872297,1.9766172039365e-12,-2.0005335816486e-12,9.494238404225e-14,-1.2485717099325e-13,-0.0014188805629138,0.0014188805642885,-0.0014188805642399,0.0014188805629618,-0.0014188805629854,0.0014188805642135,-0.0014188805643111,0.0014188805628888,-0.0013327359252055,0.001332735928998,-0.0013327359290882,0.0013327359250989,-9.6761044016525e-14,1.2294594996798e-13,-2.8750321697407e-13,3.1529989721634e-13,-0.0013698248872357,0.0013698248872613,-0.0014188805637205,0.0014188805634749,-0.0014188805635273,0.001418880563677,-0.0014188805636499,0.001418880563549,-0.0014188805634567,0.0014188805637509,-0.0013327359273509,0.0013327359268692,-0.0013327359267697,0.0013327359274688,-0.0013327359271153,0.0013327359271184,-0.0013327359269063,0.0013327359273401,-2.1011432526924e-12,1.8759539850111e-12,-0.0013698248873632,0.0013698248871357,1.7824284892096e-13,-4.1709590506523e-13,-0.0014188805642775,0.001418880562924,-0.0014188805644751,0.0014188805627262,-0.0014188805629509,0.0014188805642502,-0.0014188805631492,0.0014188805640517,-0.0013327359253913,0.0013327359288655,-0.0013327359292831,0.0013327359249746,0.69264755414578,0.80799828530288,114808,2744,0.0056912610727406,0.0056912610727657,0.0056912610727697,17.537436823123,17.551808832717,-9.9700505415017e-05,-9.9700505415017e-05,-9.9700505415017e-05,1141798.137695,0.017221035544987
19619200,0.9856409984943,0.017028737932913,0.005676245977619,0.005676245977645,0.005676245977649,-0.0013713300254016,0.0013713300253761,2.0002705613059e-12,-2.0241513013199e-12,9.4969718225592e-14,-1.2483867155839e-13,-0.0014203812971865,0.001420381298577,-0.0014203812985283,0.0014203812972346,-0.0014203812972581,0.0014203812985021,-0.0014203812985997,0.0014203812971616,-0.001334244772709,0.0013342447765477,-0.0013342447766379,0.0013342447726025,-9.6744750396637e-14,1.2297036098694e-13,-2.8760921373594e-13,3.1545183375125e-13,-0.0013713300253821,0.0013713300254077,-0.0014203812980011,0.0014203812977553,-0.0014203812978077,0.0014203812979576,-0.0014203812979303,0.0014203812978295,-0.0014203812977371,0.0014203812980315,-0.0013342447748777,0.0013342447743959,-0.0013342447742962,0.0013342447749956,-0.0013342447746418,0.0013342447746452,-0.0013342447744328,0.0013342447748668,-2.1247477374739e-12,1.8996164974317e-12,-0.0013713300255096,0.0013713300252822,1.7840666744583e-13,-4.1718678464186e-13,-0.0014203812985658,0.0014203812971967,-0.0014203812987635,0.0014203812969988,-0.0014203812972235,0.0014203812985386,-0.0014203812974219,0.00142038129834,-0.0013342447728949,0.0013342447764153,-0.001334244776833,0.0013342447724781,0.6763895124626,0.71886036455476,114808,2744,0.0056974968697099,0.0056974968697352,0.0056974968697392,18.06005441546,18.074726465596,-9.5519564676317e-05,-9.5519564676317e-05,-9.5519564676317e-05,1130669.2462983,0.017240065288644
19819200,0.98598317534754,0.017034176107067,0.0056780587023369,0.0056780587023629,0.0056780587023669,-0.001372810836686,0.0013728108366605,2.0238997539724e-12,-2.0477895687321e-12,9.4958181238885e-14,-1.2483917889584e-13,-0.0014218645648731,0.0014218645662793,-0.0014218645662306,0.001421864564921,-0.0014218645649447,0.0014218645662043,-0.0014218645663019,0.0014218645648481,-0.0013357234845003,0.0013357234883853,-0.0013357234884755,0.0013357234843937,-9.6769514345997e-14,1.2293518559094e-13,-2.8780479599633e-13,3.1557871222814e-13,-0.0013728108366666,0.0013728108366921,-0.0014218645656956,0.0014218645654497,-0.0014218645655022,0.0014218645656521,-0.0014218645656249,0.0014218645655238,-0.0014218645654315,0.001421864565726,-0.0013357234866921,0.0013357234862099,-0.0013357234861104,0.0013357234868101,-0.0013357234864562,0.0013357234864596,-0.0013357234862472,0.0013357234866812,-2.1483970444156e-12,1.9232378640505e-12,-0.001372810836794,0.0013728108365666,1.7854725138638e-13,-4.1736983787324e-13,-0.0014218645662681,0.0014218645648834,-0.0014218645664659,0.0014218645646853,-0.00142186456491,0.001421864566241,-0.0014218645651085,0.0014218645660423,-0.0013357234846861,0.0013357234882528,-0.0013357234886705,0.0013357234842693,0.65786892285922,0.6273053068253,114808,2744,0.005703631796537,0.005703631796562,0.005703631796566,18.582958731999,18.597644098475,-9.1336330144009e-05,-9.1336330144009e-05,-9.1336330144009e-05,1124954.5801285,0.017258787759344
20019200,0.98631911703362,0.017039705504993,0.0056799018349792,0.0056799018350052,0.0056799018350091,-0.001373433551539,0.0013734335515136,2.0475477631596e-12,-2.071392100793e-12,9.496506131363e-14,-1.2482549549033e-13,-0.0014224959285422,0.0014224959299642,-0.0014224959299155,0.0014224959285902,-0.0014224959286138,0.0014224959298893,-0.0014224959299868,0.0014224959285173,-0.0013363445472229,0.0013363445511543,-0.0013363445512444,0.0013363445471164,-9.6769749632927e-14,1.2292647997453e-13,-2.8800043707846e-13,3.157675299893e-13,-0.0013734335515196,0.0013734335515451,-0.0014224959293726,0.0014224959291267,-0.0014224959291791,0.0014224959293291,-0.001422495929302,0.0014224959292007,-0.0014224959291085,0.001422495929403,-0.0013363445494382,0.0013363445489555,-0.001336344548856,0.001336344549556,-0.001336344549202,0.0013363445492054,-0.001336344548993,0.0013363445494271,-2.1720329694131e-12,1.9468541425894e-12,-0.001373433551647,0.0013734335514196,1.7872759881807e-13,-4.175744198587e-13,-0.0014224959299529,0.0014224959285525,-0.0014224959301509,0.0014224959283544,-0.0014224959285791,0.001422495929926,-0.0014224959287777,0.0014224959297271,-0.0013363445474089,0.0013363445510217,-0.0013363445514396,0.001336344546992,0.68048381432762,0.73220119930258,114808,2744,0.0057062116133201,0.0057062116133452,0.0057062116133492,18.671287644638,18.673953988654,-9.0629698842895e-05,-9.0629698842895e-05,-9.0629698842895e-05,1124508.5170825,0.017266661126965
20219200,0.98664641910974,0.017045244444407,0.0056817481481169,0.0056817481481429,0.0056817481481469,-0.0013738378741583,0.0013738378741329,2.0711680939644e-12,-2.0950252758745e-12,9.4961715597824e-14,-1.2481973831326e-13,-0.0014228993457285,0.0014228993471662,-0.0014228993471175,0.0014228993457764,-0.0014228993458,0.0014228993470913,-0.0014228993471888,0.0014228993457035,-0.0013367542031119,0.0013367542070895,-0.0013367542071797,0.0013367542030053,-9.6770337850252e-14,1.2291836257546e-13,-2.8823719455156e-13,3.1598634683401e-13,-0.0013738378741389,0.0013738378741644,-0.0014228993465668,0.0014228993463206,-0.0014228993463731,0.0014228993465233,-0.0014228993464961,0.0014228993463947,-0.0014228993463024,0.0014228993465972,-0.0013367542053504,0.0013367542048674,-0.0013367542047679,0.0013367542054683,-0.001336754205114,0.0013367542051176,-0.001336754204905,0.0013367542053393,-2.195653865458e-12,1.9704848324527e-12,-0.0013738378742663,0.0013738378740389,1.789557094965e-13,-4.1779911887665e-13,-0.0014228993471548,0.0014228993457388,-0.0014228993473529,0.0014228993455405,-0.0014228993457652,0.001422899347128,-0.0014228993459639,0.001422899346929,-0.0013367542032979,0.0013367542069568,-0.0013367542073748,0.0013367542028808,0.69908657314422,0.80928248288768,114808,2744,0.0057078866960808,0.0057078866961059,0.0057078866961098,18.638459805161,18.63759384788,-9.089232155871e-05,-9.089232155871e-05,-9.089232155871e-05,1118225.141575,0.017271773176414
20419200,0.98696524871035,0.01705064801007,0.0056835493366712,0.0056835493366973,0.0056835493367012,-0.001374239221564,0.0013742392215385,2.0947732790922e-12,-2.1186715158143e-12,9.4939650669871e-14,-1.2483197323361e-13,-0.0014232953670496,0.001423295368503,-0.0014232953684544,0.0014232953670975,-0.0014232953671211,0.0014232953684281,-0.0014232953685257,0.0014232953670246,-0.0013371621265926,0.0013371621306165,-0.0013371621307067,0.001337162126486,-9.6764338033542e-14,1.2291471562805e-13,-2.8848089298909e-13,3.1622528071121e-13,-0.0013742392215446,0.0013742392215701,-0.0014232953678958,0.0014232953676495,-0.0014232953677019,0.0014232953678523,-0.0014232953678251,0.0014232953677235,-0.0014232953676313,0.0014232953679262,-0.0013371621288546,0.001337162128371,-0.0013371621282715,0.0013371621289724,-0.0013371621286178,0.0013371621286216,-0.0013371621284088,0.0013371621288433,-2.2192940256203e-12,1.9940959935009e-12,-0.001374239221672,0.0013742392214445,1.7917829093209e-13,-4.1805646395611e-13,-0.0014232953684916,0.0014232953670599,-0.0014232953686898,0.0014232953668614,-0.0014232953670862,0.0014232953684648,-0.0014232953672851,0.0014232953682657,-0.0013371621267787,0.0013371621304837,-0.0013371621309019,0.0013371621263614,0.69998398555855,0.79964910914345,114808,2744,0.0057095494691151,0.0057095494691403,0.0057095494691442,18.602247972264,18.601233707106,-9.1182016221891e-05,-9.1182016221891e-05,-9.1182016221891e-05,1108666.9454618,0.01727684759603
20619200,0.98727583570236,0.017055379425791,0.0056851264752452,0.0056851264752712,0.0056851264752751,-0.0013746022183674,0.0013746022183421,2.1184585564423e-12,-2.1422361181975e-12,9.496929877609e-14,-1.2480531228338e-13,-0.0014236608670897,0.0014236608685585,-0.0014236608685098,0.0014236608671374,-0.0014236608671608,0.001423660868484,-0.0014236608685811,0.0014236608670642,-0.0013375172633487,0.0013375172674189,-0.0013375172675091,0.0013375172632425,-9.6679399451887e-14,1.2300612460027e-13,-2.8865629939525e-13,3.1655397655213e-13,-0.0013746022183481,0.0013746022183737,-0.0014236608679428,0.0014236608676964,-0.0014236608677487,0.0014236608678991,-0.0014236608678721,0.0014236608677704,-0.0014236608676781,0.0014236608679732,-0.0013375172656338,0.0013375172651503,-0.0013375172650503,0.0013375172657519,-0.0013375172653971,0.0013375172654014,-0.0013375172651877,0.001337517265623,-2.243020712551e-12,2.0176163926159e-12,-0.0013746022184757,0.001374602218248,1.7932446293722e-13,-4.1841415891113e-13,-0.0014236608685465,0.0014236608670988,-0.0014236608687449,0.0014236608669003,-0.0014236608671252,0.0014236608685195,-0.0014236608673243,0.00142366086832,-0.0013375172635353,0.0013375172672862,-0.0013375172677049,0.0013375172631176,0.63099122477191,0.47044782337618,114808,2744,0.0057110532798529,0.0057110532798783,0.0057110532798823,18.565894419986,18.564873566331,-9.1472844640112e-05,-9.1472844640112e-05,-9.1472844640112e-05,1101632.1321565,0.017281437303322
20819200,0.98756396975987,0.017060095968261,0.0056866986560684,0.0056866986560944,0.0056866986560984,-0.0013733672283055,0.0013733672282801,2.14206884987e-12,-2.1658455182701e-12,9.4938443675494e-14,-1.2475144628189e-13,-0.0014224458184078,0.0014224458198926,-0.001422445819844,0.0014224458184556,-0.0014224458184792,0.0014224458198178,-0.0014224458199153,0.0014224458183827,-0.0013362740630586,0.001336274067175,-0.0013362740672651,0.0013362740629521,-9.6733338980542e-14,1.2286254075136e-13,-2.8897411321567e-13,3.167047366524e-13,-0.0013733672282861,0.0013733672283116,-0.0014224458192698,0.0014224458190231,-0.0014224458190756,0.0014224458192262,-0.0014224458191991,0.0014224458190971,-0.0014224458190049,0.0014224458193001,-0.0013362740653672,0.0013362740648826,-0.0013362740647832,0.001336274065485,-0.0013362740651298,0.001336274065134,-0.0013362740649209,0.0013362740653556,-2.266541552829e-12,2.0413171685735e-12,-0.0013733672284136,0.0013733672281861,1.7964515902253e-13,-4.1856127206398e-13,-0.001422445819881,0.0014224458184182,-0.0014224458200796,0.0014224458182193,-0.0014224458184441,0.0014224458198545,-0.0014224458186433,0.001422445819655,-0.0013362740632448,0.0013362740670419,-0.0013362740674605,0.0013362740628272,0.67642715762346,0.69457494878341,114808,2744,0.0057059366451093,0.0057059366451345,0.0057059366451384,17.744766617638,17.722040746063,-9.8041867058895e-05,-9.8041867058895e-05,-9.8041867058895e-05,1111003.6567833,0.017265822860266
21019200,0.98783000313977,0.017064314532,0.0056881048439812,0.0056881048440072,0.0056881048440112,-0.0013719704166853,0.0013719704166599,2.1656655508819e-12,-2.1894646585092e-12,9.4904037557459e-14,-1.2471127103863e-13,-0.0014210537857927,0.0014210537872933,-0.0014210537872447,0.0014210537858405,-0.0014210537858641,0.0014210537872185,-0.001421053787316,0.0014210537857677,-0.0013348734464391,0.0013348734506018,-0.0013348734506918,0.0013348734463326,-9.6700516453836e-14,1.2282283608196e-13,-2.8921639993163e-13,3.1693725896076e-13,-0.001371970416666,0.0013719704166914,-0.0014210537866627,0.0014210537864158,-0.0014210537864683,0.0014210537866191,-0.001421053786592,0.0014210537864898,-0.0014210537863977,0.001421053786693,-0.001334873448771,0.001334873448286,-0.0013348734481866,0.0013348734488888,-0.0013348734485334,0.0013348734485378,-0.0013348734483245,0.0013348734487593,-2.2901562431812e-12,2.0649189181445e-12,-0.0013719704167934,0.0013719704165659,1.798731520575e-13,-4.1880597047096e-13,-0.0014210537872816,0.0014210537858031,-0.0014210537874804,0.0014210537856042,-0.001421053785829,0.0014210537872552,-0.0014210537860283,0.0014210537870556,-0.0013348734466255,0.0013348734504687,-0.0013348734508874,0.0013348734462077,0.65601663154927,0.59726576361696,114808,2744,0.0057001496410398,0.005700149641065,0.0057001496410689,16.834493905447,16.808974900258,-0.00010532404875643,-0.00010532404875643,-0.00010532404875643,1108297.521093,0.017248162503596
21219200,0.98807579500571,0.01706823484459,0.0056894116148447,0.0056894116148707,0.0056894116148747,-0.0013705203696643,0.001370520369639,2.1892789205024e-12,-2.2130673889786e-12,9.4879780600882e-14,-1.2466868410434e-13,-0.001419611178074,0.0014196111795903,-0.0014196111795417,0.0014196111781218,-0.0014196111781454,0.0014196111795156,-0.001419611179613,0.001419611178049,-0.0013334200336526,0.0013334200378616,-0.0013334200379515,0.0013334200335462,-9.6675340752348e-14,1.2278107265192e-13,-2.8945892193451e-13,3.1716325205683e-13,-0.001370520369645,0.0013705203696704,-0.0014196111789519,0.0014196111787049,-0.0014196111787574,0.0014196111789083,-0.0014196111788812,0.0014196111787788,-0.0014196111786867,0.0014196111789822,-0.0013334200360079,0.0013334200355224,-0.0013334200354231,0.0013334200361257,-0.00133342003577,0.0013334200357746,-0.0013334200355611,0.001333420035996,-2.3137690806487e-12,2.0885219323827e-12,-0.0013705203697725,0.0013705203695449,1.8009996865782e-13,-4.1904596313935e-13,-0.0014196111795785,0.0014196111780845,-0.0014196111797775,0.0014196111778853,-0.0014196111781102,0.0014196111795523,-0.0014196111783096,0.0014196111793525,-0.0013334200338391,0.0013334200377283,-0.0013334200381473,0.0013334200334212,0.65967100152194,0.6185149949554,114808,2744,0.0056941420398668,0.005694142039892,0.0056941420398959,15.921546715423,15.895909054454,-0.00011262762627662,-0.00011262762627662,-0.00011262762627662,1109921.6376618,0.01722982927114
21419200,0.98830633358041,0.017071935041263,0.0056906450137356,0.0056906450137616,0.0056906450137655,-0.0013694867255833,0.0013694867255579,2.2128960556327e-12,-2.2366742962505e-12,9.4858761481973e-14,-1.2463711889216e-13,-0.0014185812734996,0.0014185812750317,-0.001418581274983,0.0014185812735473,-0.001418581273571,0.0014185812749569,-0.0014185812750543,0.0014185812734746,-0.0013323857705451,0.0013323857748003,-0.0013323857748903,0.0013323857704387,-9.6656106045837e-14,1.2274736779923e-13,-2.8969032662996e-13,3.1738006896263e-13,-0.0013694867255639,0.0013694867255894,-0.0014185812743854,0.0014185812741383,-0.0014185812741907,0.0014185812743419,-0.0014185812743148,0.0014185812742122,-0.0014185812741201,0.0014185812744157,-0.0013323857729238,0.0013323857724378,-0.0013323857723385,0.0013323857730415,-0.0013323857726856,0.0013323857726903,-0.0013323857724768,0.0013323857729117,-2.3373910943065e-12,2.1121235643102e-12,-0.0013694867256914,0.0013694867254638,1.8031107985558e-13,-4.1928054420836e-13,-0.0014185812750198,0.0014185812735101,-0.0014185812752189,0.0014185812733108,-0.0014185812735357,0.0014185812749937,-0.0014185812737353,0.0014185812747937,-0.0013323857707318,0.0013323857746671,-0.0013323857750862,0.0013323857703136,0.66373452188453,0.63976422629384,114808,2744,0.005689859599133,0.0056898595991582,0.0056898595991621,15.232432831104,15.212983689483,-0.00011814053735116,-0.00011814053735116,-0.00011814053735116,1109863.1628699,0.017216760806284
21619200,0.98852304341008,0.01707544283847,0.0056918142794712,0.0056918142794972,0.0056918142795012,-0.0013684898277372,0.0013684898277118,2.236515437018e-12,-2.2602796833482e-12,9.4843335137979e-14,-1.2461499456804e-13,-0.0014175885835496,0.0014175885850974,-0.0014175885850488,0.0014175885835973,-0.001417588583621,0.0014175885850227,-0.0014175885851201,0.0014175885835246,-0.0013313879725178,0.0013313879768192,-0.0013313879769092,0.0013313879724114,-9.6642047651782e-14,1.2272425085838e-13,-2.899028495493e-13,3.1758247454399e-13,-0.0013684898277179,0.0013684898277433,-0.0014175885844434,0.0014175885841961,-0.0014175885842485,0.0014175885843998,-0.0014175885843727,0.00141758858427,-0.0014175885841779,0.0014175885844737,-0.0013313879749198,0.0013313879744334,-0.0013313879743341,0.0013313879750374,-0.0013313879746812,0.0013313879746862,-0.0013313879744725,0.0013313879749075,-2.3610100786451e-12,2.1357296078677e-12,-0.0013684898278453,0.0013684898276177,1.8050895616353e-13,-4.194972434707e-13,-0.0014175885850855,0.0014175885835602,-0.0014175885852847,0.0014175885833607,-0.0014175885835856,0.0014175885850595,-0.0014175885837854,0.0014175885848594,-0.0013313879727045,0.0013313879766858,-0.0013313879771051,0.0013313879722862,0.66920853585559,0.66571266625382,114808,2744,0.0056857293825119,0.005685729382537,0.0056857293825409,14.56799867625,14.549325502629,-0.00012345601059,-0.00012345601059,-0.00012345601059,1109258.672548,0.01720415705137
21819200,0.98872688162614,0.017078695084721,0.005692898361555,0.005692898361581,0.005692898361585,-0.0013674810878302,0.0013674810878048,2.2601314765936e-12,-2.283888134231e-12,9.4833734443223e-14,-1.2459769362599e-13,-0.0014165836839466,0.0014165836855101,-0.0014165836854615,0.0014165836839943,-0.0014165836840179,0.0014165836854354,-0.0014165836855328,0.0014165836839216,-0.0013303772646929,0.0013303772690406,-0.0013303772691305,0.0013303772645865,-9.6628577475051e-14,1.2271089832511e-13,-2.9009813770102e-13,3.1777658626107e-13,-0.0013674810878108,0.0013674810878363,-0.0014165836848483,0.0014165836846008,-0.0014165836846533,0.0014165836848047,-0.0014165836847776,0.0014165836846747,-0.0014165836845827,0.0014165836848786,-0.0013303772671182,0.0013303772666315,-0.0013303772665322,0.0013303772672359,-0.0013303772668794,0.0013303772668845,-0.0013303772666707,0.0013303772671058,-2.384628562999e-12,2.1593354455491e-12,-0.0013674810879383,0.0013674810877107,1.8069453872941e-13,-4.1970029609111e-13,-0.0014165836854981,0.0014165836839572,-0.0014165836856975,0.0014165836837576,-0.0014165836839825,0.0014165836854722,-0.0014165836841824,0.0014165836852721,-0.0013303772648797,0.0013303772689071,-0.0013303772693266,0.0013303772644613,0.6598885308785,0.62146898374426,114808,2744,0.005681550086896,0.0056815500869211,0.005681550086925,13.904307507568,13.885667315775,-0.00012876553993946,-0.00012876553993946,-0.00012876553993946,1107718.6279013,0.017191403695577
22019200,0.98893036295193,0.017081890735225,0.0056939635783896,0.0056939635784156,0.0056939635784195,-0.0013682144209757,0.0013682144209504,2.2837621581852e-12,-2.3075151776065e-12,9.483245150907e-14,-1.2458751746627e-13,-0.0014173146703733,0.0014173146719526,-0.001417314671904,0.001417314670421,-0.0014173146704446,0.0014173146718779,-0.0014173146719753,0.0014173146703483,-0.0013311132705341,0.0013311132749281,-0.001331113275018,0.0013311132704277,-9.6629577444503e-14,1.2269895751342e-13,-2.9028036742815e-13,3.1794999272833e-13,-0.0013682144209564,0.0013682144209818,-0.0014173146712829,0.0014173146710353,-0.0014173146710878,0.0014173146712393,-0.0014173146712122,0.0014173146711092,-0.0014173146710172,0.0014173146713132,-0.0013311132729827,0.0013311132724956,-0.0013311132723963,0.0013311132731004,-0.0013311132727437,0.0013311132727489,-0.001331113272535,0.0013311132729702,-2.4082639586009e-12,2.1829574003852e-12,-0.0013682144210839,0.0013682144208562,1.8086341592326e-13,-4.1988540808312e-13,-0.0014173146719405,0.001417314670384,-0.00141731467214,0.0014173146701842,-0.0014173146704092,0.0014173146719147,-0.0014173146706092,0.0014173146717144,-0.001331113270721,0.0013311132747946,-0.0013311132752141,0.0013311132703025,0.64982377010724,0.57722530123469,114808,2744,0.0056845883301249,0.00568458833015,0.0056845883301539,14.152823994322,14.159413785498,-0.00012677740804542,-0.00012677740804542,-0.00012677740804542,1106144.160747,0.0172006750669
22219200,0.98913469678873,0.017085075242348,0.005695025080764,0.00569502508079,0.005695025080794,-0.001369131361448,0.0013691313614226,2.3073931283708e-12,-2.331144266186e-12,9.4840244354643e-14,-1.2458439991445e-13,-0.001418239759344,0.0014182397609391,-0.0014182397608904,0.0014182397593917,-0.0014182397594153,0.0014182397608643,-0.0014182397609617,0.001418239759319,-0.0013320259604372,0.0013320259648775,-0.0013320259649674,0.0013320259603308,-9.6631989135533e-14,1.227005457002e-13,-2.9044348009223e-13,3.1810375273694e-13,-0.0013691313614287,0.0013691313614541,-0.0014182397602615,0.0014182397600138,-0.0014182397600663,0.0014182397602179,-0.0014182397601908,0.0014182397600877,-0.0014182397599957,0.0014182397602918,-0.0013320259629092,0.0013320259624217,-0.0013320259623225,0.0013320259630268,-0.0013320259626701,0.0013320259626753,-0.0013320259624613,0.0013320259628966,-2.4318992071485e-12,2.2065822963079e-12,-0.0013691313615561,0.0013691313613285,1.8101541127991e-13,-4.2005210887288e-13,-0.0014182397609269,0.0014182397593547,-0.0014182397611265,0.0014182397591549,-0.0014182397593798,0.0014182397609012,-0.0014182397595799,0.0014182397607008,-0.0013320259606243,0.001332025964744,-0.0013320259651636,0.0013320259602056,0.6449743348754,0.56029673343211,114808,2744,0.0056883872001273,0.0056883872001525,0.0056883872001564,14.498834784166,14.508501840881,-0.00012400932172667,-0.00012400932172667,-0.00012400932172667,1108656.5485175,0.017212267989652
22419200,0.9893398268679,0.017088407073063,0.0056961356910024,0.0056961356910284,0.0056961356910324,-0.0013700577167145,0.0013700577166891,2.3310298879017e-12,-2.3547702595017e-12,9.4847631766831e-14,-1.2459011297522e-13,-0.001419174444802,0.0014191744464128,-0.0014191744463642,0.0014191744448497,-0.0014191744448733,0.0014191744463381,-0.0014191744464355,0.001419174444777,-0.0013329506825994,0.0013329506870859,-0.0013329506871758,0.0013329506824929,-9.6633871430972e-14,1.2271054539472e-13,-2.9057518195118e-13,3.1824574839907e-13,-0.0013700577166952,0.0013700577167206,-0.0014191744457275,0.0014191744454797,-0.0014191744455322,0.0014191744456839,-0.0014191744456568,0.0014191744455536,-0.0014191744454616,0.0014191744457578,-0.0013329506850945,0.0013329506846068,-0.0013329506845075,0.0013329506852121,-0.0013329506848551,0.0013329506848605,-0.0013329506846463,0.0013329506850818,-2.4555341909984e-12,2.2302109274106e-12,-0.0013700577168226,0.001370057716595,1.8114470144783e-13,-4.2019222223957e-13,-0.0014191744464007,0.0014191744448128,-0.0014191744466004,0.0014191744446129,-0.0014191744448378,0.001419174446375,-0.001419174445038,0.0014191744461746,-0.0013329506827863,0.0013329506869522,-0.0013329506873719,0.0013329506823676,0.67139352187623,0.68841566057336,114808,2744,0.0056922250731977,0.0056922250732228,0.0056922250732267,14.847791964056,14.857589896264,-0.00012121766428755,-0.00012121766428755,-0.00012121766428755,1111639.7426961,0.017223980012492
22619200,0.98954551352939,0.017091785659117,0.0056972618863536,0.0056972618863796,0.0056972618863836,-0.0013709945820394,0.001370994582014,2.3546522259981e-12,-2.3784087694386e-12,9.4845160794523e-14,-1.2461055352724e-13,-0.0014201136050869,0.0014201136067135,-0.0014201136066648,0.0014201136051345,-0.0014201136051582,0.0014201136066387,-0.0014201136067362,0.0014201136050618,-0.0013338883209864,0.0013338883255192,-0.001333888325609,0.00133388832088,-9.6649988585663e-14,1.2271272179882e-13,-2.9070453094083e-13,3.1836250953798e-13,-0.00137099458202,0.0013709945820455,-0.0014201136060203,0.0014201136057724,-0.0014201136058249,0.0014201136059767,-0.0014201136059496,0.0014201136058463,-0.0014201136057543,0.0014201136060506,-0.0013338883235047,0.0013338883230167,-0.0013338883229175,0.0013338883236223,-0.0013338883232653,0.0013338883232707,-0.0013338883230565,0.0013338883234921,-2.4791827920792e-12,2.2538221766914e-12,-0.0013709945821475,0.0013709945819199,1.8124987470545e-13,-4.203342179017e-13,-0.0014201136067012,0.0014201136050976,-0.001420113606901,0.0014201136048976,-0.0014201136051226,0.0014201136066756,-0.0014201136053229,0.0014201136064751,-0.0013338883211734,0.0013338883253854,-0.0013338883258053,0.0013338883207545,0.67880265950222,0.71862480832647,114808,2744,0.0056961065101879,0.0056961065102131,0.005696106510217,15.185996927374,15.195499854149,-0.00011851202458101,-0.00011851202458101,-0.00011851202458101,1108376.9852858,0.017235824978327
22819200,0.98974877600892,0.017095115182835,0.0056983717275932,0.0056983717276192,0.0056983717276231,-0.0013715083145965,0.0013715083145711,2.3782856409621e-12,-2.4020276768035e-12,9.4866482293901e-14,-1.2461278140036e-13,-0.0014206305538622,0.0014206305555046,-0.0014206305554559,0.0014206305539099,-0.0014206305539335,0.0014206305554299,-0.0014206305555272,0.0014206305538372,-0.0013344012585344,0.0013344012631135,-0.0013344012632034,0.001334401258428,-9.6663282297196e-14,1.2272330971066e-13,-2.9081276292854e-13,3.1846356527433e-13,-0.0013715083145772,0.0013715083146026,-0.0014206305548035,0.0014206305545555,-0.001420630554608,0.0014206305547599,-0.0014206305547328,0.0014206305546294,-0.0014206305545374,0.0014206305548338,-0.001334401261076,0.0013344012605879,-0.0013344012604886,0.0013344012611937,-0.0013344012608365,0.0013344012608419,-0.0013344012606276,0.0013344012610633,-2.5028073350716e-12,2.2774498960572e-12,-0.0013715083147047,0.001371508314477,1.8136093013631e-13,-4.2043027379079e-13,-0.0014206305554923,0.001420630553873,-0.0014206305556921,0.0014206305536729,-0.0014206305538979,0.0014206305554668,-0.0014206305540982,0.0014206305552661,-0.0013344012587215,0.0013344012629797,-0.0013344012633997,0.0013344012583026,0.67691801123571,0.70403727244203,114808,2744,0.0056982348888143,0.0056982348888395,0.0056982348888434,15.303132691162,15.306516963861,-0.00011757493847071,-0.00011757493847071,-0.00011757493847071,1104491.2732391,0.017242320276716
23019200,0.98994953561651,0.0170981824165,0.0056993941388145,0.0056993941388405,0.0056993941388445,-0.0013719923096592,0.0013719923096338,2.4019071436061e-12,-2.425664295369e-12,9.4877298254841e-14,-1.2462978088104e-13,-0.0014211192736469,0.001421119275305,-0.0014211192752563,0.0014211192736945,-0.0014211192737181,0.0014211192752302,-0.0014211192753278,0.0014211192736217,-0.0013348799997446,0.0013348800043701,-0.0013348800044596,0.0013348799996382,-9.6720398199403e-14,1.2269084011435e-13,-2.909528174735e-13,3.1849997592672e-13,-0.00137199230964,0.0013719923096653,-0.0014211192745963,0.001421119274348,-0.0014211192744006,0.0014211192745525,-0.0014211192745254,0.0014211192744221,-0.00142111927433,0.0014211192746266,-0.0013348800023098,0.0013348800018216,-0.0013348800017224,0.0013348800024276,-0.0013348800020706,0.0013348800020757,-0.0013348800018616,0.0013348800022973,-2.5266304014109e-12,2.3008794155956e-12,-0.0013719923097676,0.0013719923095395,1.8124475721473e-13,-4.2072644121367e-13,-0.0014211192752929,0.0014211192736575,-0.001421119275493,0.0014211192734574,-0.001421119273683,0.0014211192752673,-0.0014211192738834,0.0014211192750665,-0.0013348799999325,0.0013348800042362,-0.0013348800046565,0.0013348799995132,0.63260001212936,0.4953449837253,114808,2744,0.0057002400393014,0.005700240039327,0.0057002400393308,15.414404373379,15.417534073573,-0.00011668476501297,-0.00011668476501297,-0.00011668476501297,1101565.0901928,0.017248439654669
23219200,0.99014778973476,0.01710134215941,0.0057004473864513,0.0057004473864773,0.0057004473864812,-0.0013724312198608,0.0013724312198355,2.4255371910258e-12,-2.4492803539008e-12,9.4898365281295e-14,-1.2463914824193e-13,-0.0014215702740627,0.0014215702757365,-0.0014215702756878,0.0014215702741103,-0.001421570274134,0.0014215702756618,-0.0014215702757592,0.0014215702740376,-0.0013353147976807,0.0013353148023523,-0.0013353148024421,0.0013353147975743,-9.6698869445327e-14,1.2274642665151e-13,-2.9096581707637e-13,3.1860297278023e-13,-0.0013724312198415,0.0013724312198669,-0.0014215702750197,0.0014215702747716,-0.0014215702748242,0.0014215702749761,-0.001421570274949,0.0014215702748455,-0.0014215702747535,0.00142157027505,-0.0013353148002687,0.0013353147997803,-0.001335314799681,0.0013353148003864,-0.0013353148000291,0.0013353148000345,-0.0013353147998202,0.001335314800256,-2.5500745675606e-12,2.324685982439e-12,-0.001372431219969,0.0013724312197413,1.8148245583555e-13,-4.2060056270623e-13,-0.0014215702757242,0.0014215702740734,-0.0014215702759241,0.0014215702738733,-0.0014215702740983,0.0014215702756987,-0.0014215702742987,0.001421570275498,-0.0013353147978679,0.0013353148022185,-0.0013353148026385,0.0013353147974489,0.65900008222923,0.62897888469023,114808,2744,0.0057020583730565,0.0057020583730817,0.0057020583730856,15.525432767351,15.528551183285,-0.00011579653786119,-0.00011579653786119,-0.00011579653786119,1107965.0239286,0.017253989019596
23419200,0.99034438036401,0.017104443315667,0.0057014811052036,0.0057014811052296,0.0057014811052336,-0.001373026999716,0.0013730269996906,2.4491710425573e-12,-2.4729003399322e-12,9.4915967225185e-14,-1.2465516981131e-13,-0.0014221718719042,0.0014221718735938,-0.0014221718735451,0.0014221718719518,-0.0014221718719755,0.001422171873519,-0.0014221718736165,0.0014221718718791,-0.0013359079603979,0.0013359079651158,-0.0013359079652056,0.0013359079602915,-9.6718221795303e-14,1.2276095561943e-13,-2.9100546292404e-13,3.1864344213216e-13,-0.0013730269996967,0.0013730269997221,-0.0014221718728692,0.001422171872621,-0.0014221718726736,0.0014221718728255,-0.0014221718727984,0.0014221718726949,-0.0014221718726029,0.0014221718728995,-0.001335907963009,0.0013359079625206,-0.0013359079624213,0.0013359079631267,-0.0013359079627694,0.0013359079627748,-0.0013359079625604,0.0013359079629963,-2.5737031692525e-12,2.3483113489355e-12,-0.0013730269998242,0.0013730269995964,1.8152068996164e-13,-4.20642384958e-13,-0.0014221718735814,0.001422171871915,-0.0014221718737814,0.0014221718717148,-0.0014221718719398,0.001422171873556,-0.0014221718721402,0.0014221718733552,-0.001335907960585,0.0013359079649819,-0.001335907965402,0.001335907960166,0.65256366664722,0.60037666582796,114808,2744,0.0057045266460135,0.0057045266460386,0.0057045266460425,15.70390712582,15.708890718984,-0.00011436874299344,-0.00011436874299344,-0.00011436874299344,1107602.0260716,0.01726152175058
23619200,0.99054345468746,0.017107653825602,0.0057025512751821,0.0057025512752081,0.0057025512752121,-0.0013742677092964,0.001374267709271,2.4728382983992e-12,-2.4965055274726e-12,9.4852313149553e-14,-1.2469167604901e-13,-0.001423416161135,0.0014234161628403,-0.0014234161627917,0.0014234161611826,-0.0014234161612063,0.0014234161627655,-0.001423416162863,0.0014234161611099,-0.0013371494385549,0.0013371494433193,-0.0013371494434088,0.0013371494384488,-9.6701398779822e-14,1.2275754395894e-13,-2.9105346145772e-13,3.1867279417665e-13,-0.0013742677092772,0.0013742677093026,-0.0014234161621077,0.0014234161618595,-0.0014234161619121,0.001423416162064,-0.0014234161620369,0.0014234161619334,-0.0014234161618414,0.001423416162138,-0.0013371494411899,0.001337149440701,-0.0013371494406016,0.0013371494413071,-0.00133714944095,0.0013371494409553,-0.0013371494407414,0.0013371494411773,-2.5973715050246e-12,2.3719335390585e-12,-0.0013742677094047,0.001374267709177,1.8155615946631e-13,-4.2068750122679e-13,-0.0014234161628278,0.0014234161611456,-0.0014234161630278,0.0014234161609454,-0.0014234161611705,0.0014234161628023,-0.0014234161613708,0.0014234161626016,-0.0013371494387425,0.0013371494431857,-0.0013371494436061,0.0013371494383239,0.66669032314647,0.66866881224485,114808,2744,0.0057096668436279,0.0057096668436534,0.0057096668436573,16.217527314419,16.231808354441,-0.00011025978148465,-0.00011025978148465,-0.00011025978148465,1107676.7637987,0.017277208646559
23819200,0.99074499289871,0.017111075397411,0.0057036917991185,0.0057036917991445,0.0057036917991485,-0.0013755537167229,0.0013755537166977,2.4965250527263e-12,-2.5200861985285e-12,9.4988996359085e-14,-1.2454870247557e-13,-0.0014247037212223,0.0014247037229439,-0.0014247037228948,0.0014247037212703,-0.0014247037212939,0.0014247037228689,-0.0014247037229661,0.0014247037211974,-0.0013384389823748,0.0013384389871856,-0.0013384389872748,0.0013384389822687,-9.6731221398174e-14,1.2271589817237e-13,-2.9107610782471e-13,3.1865926517819e-13,-0.0013755537167038,0.0013755537167291,-0.0014247037222038,0.0014247037219555,-0.0014247037220081,0.00142470372216,-0.0014247037221328,0.0014247037220294,-0.0014247037219373,0.0014247037222341,-0.0013384389850328,0.0013384389845442,-0.0013384389844445,0.0013384389851502,-0.0013384389847929,0.0013384389847985,-0.0013384389845844,0.0013384389850199,-2.6209583432864e-12,2.3955979337746e-12,-0.0013755537168313,0.0013755537166035,1.815766294292e-13,-4.2067579570203e-13,-0.0014247037229316,0.0014247037212333,-0.0014247037231316,0.0014247037210332,-0.0014247037212585,0.0014247037229062,-0.0014247037214588,0.0014247037227053,-0.0013384389825624,0.001338438987052,-0.0013384389874719,0.0013384389821433,0.70079152777151,0.82178848379094,114808,2744,0.0057149946995137,0.0057149946995392,0.005714994699543,16.7400579597,16.754725989899,-0.0001060795363224,-0.0001060795363224,-0.0001060795363224,1104889.5002218,0.017293468429408
24019200,0.99094885632511,0.01711457664898,0.0057048588829748,0.0057048588830008,0.0057048588830048,-0.0013768784164372,0.0013768784164118,2.5200792357357e-12,-2.5437971184776e-12,9.491330198032e-14,-1.2461947237243e-13,-0.001426022970336,0.0014260229720729,-0.0014260229720242,0.0014260229703836,-0.0014260229704073,0.0014260229719982,-0.0014260229720956,0.0014260229703109,-0.001339769652239,0.0013397696570958,-0.0013397696571855,0.0013397696521326,-9.6704692796839e-14,1.2273636813526e-13,-2.9105299088386e-13,3.1866985309003e-13,-0.0013768784164179,0.0013768784164433,-0.0014260229713247,0.0014260229710765,-0.001426022971129,0.001426022971281,-0.0014260229712539,0.0014260229711503,-0.0014260229710584,0.0014260229713549,-0.0013397696549197,0.0013397696544312,-0.0013397696543318,0.0013397696550373,-0.00133976965468,0.0013397696546855,-0.0013397696544711,0.0013397696549069,-2.6445858273654e-12,2.4192322999962e-12,-0.0013768784165454,0.0013768784163177,1.8157292366005e-13,-4.2066356078168e-13,-0.0014260229720605,0.0014260229703468,-0.0014260229722606,0.0014260229701466,-0.0014260229703716,0.0014260229720351,-0.0014260229705721,0.0014260229718344,-0.0013397696524263,0.001339769656962,-0.001339769657382,0.0013397696520072,0.70866198471809,0.84208196311467,114808,2744,0.0057204828578298,0.005720482857855,0.0057204828578589,17.262958439441,17.277643625356,-0.00010189633248447,-0.00010189633248447,-0.00010189633248447,1095236.2175203,0.017310217576835
24219200,0.99115367540673,0.017117949350063,0.0057059831166689,0.0057059831166949,0.0057059831166989,-0.001378018058574,0.0013780180585486,2.5436791076067e-12,-2.5674562802423e-12,9.4820578020694e-14,-1.2470518298932e-13,-0.0014271593811756,0.0014271593829283,-0.0014271593828796,0.001427159381223,-0.0014271593812471,0.0014271593828532,-0.0014271593829511,0.0014271593811506,-0.0013409106504795,0.0013409106553823,-0.0013409106554723,0.0013409106503733,-9.6725868620521e-14,1.2271201593803e-13,-2.9104657931502e-13,3.1865014780966e-13,-0.0013780180585547,0.0013780180585801,-0.0014271593821719,0.0014271593819239,-0.0014271593819761,0.0014271593821283,-0.001427159382101,0.0014271593819975,-0.0014271593819057,0.0014271593822024,-0.0013409106531833,0.001340910652695,-0.0013409106525956,0.0013409106533015,-0.0013409106529437,0.0013409106529495,-0.0013409106527352,0.001340910653171,-2.6682532514006e-12,2.4428454021616e-12,-0.0013780180586822,0.0013780180584545,1.8153951291602e-13,-4.2067932500598e-13,-0.0014271593829157,0.0014271593811863,-0.0014271593831154,0.001427159380986,-0.0014271593812111,0.0014271593828903,-0.0014271593814115,0.0014271593826896,-0.001340910650667,0.0013409106552487,-0.0013409106556695,0.0013409106502478,0.68010061235986,0.69606439508427,114808,2744,0.0057252042848359,0.0057252042848614,0.0057252042848652,17.691082875791,17.703147111565,-9.8471336993674e-05,-9.8471336993674e-05,-9.8471336993674e-05,1086016.9069106,0.017324627106389
24419200,0.99135631843628,0.017121283280846,0.00570709442693,0.005707094426956,0.00570709442696,-0.001378668792833,0.0013786687928076,2.5673422790145e-12,-2.5910529435716e-12,9.4891679938652e-14,-1.2463061173801e-13,-0.0014278147529657,0.0014278147547341,-0.0014278147546854,0.0014278147530133,-0.001427814753037,0.0014278147546593,-0.0014278147547568,0.0014278147529406,-0.0013415596211532,0.0013415596261025,-0.0013415596261922,0.0013415596210469,-9.6704575153375e-14,1.2272695665807e-13,-2.910012277593e-13,3.1861573709617e-13,-0.0013786687928137,0.0013786687928391,-0.0014278147539701,0.0014278147537219,-0.0014278147537744,0.0014278147539264,-0.0014278147538993,0.0014278147537957,-0.0014278147537038,0.0014278147540003,-0.0013415596238801,0.0013415596233916,-0.0013415596232923,0.0013415596239977,-0.0013415596236404,0.0013415596236459,-0.0013415596234316,0.0013415596238674,-2.691846560053e-12,2.466494326762e-12,-0.0013786687929411,0.0013786687927135,1.815253368785e-13,-4.2060673898813e-13,-0.0014278147547217,0.0014278147529765,-0.0014278147549217,0.0014278147527762,-0.0014278147530013,0.0014278147546963,-0.0014278147532017,0.0014278147544955,-0.0013415596213404,0.0013415596259687,-0.0013415596263888,0.0013415596209215,0.67934587551689,0.69019622287929,114808,2744,0.00572790016476,0.0057279001647852,0.0057279001647891,17.884216867882,17.889742298449,-9.6926265056941e-05,-9.6926265056941e-05,-9.6926265056941e-05,1084302.4217443,0.017332855041575
24619200,0.99155666879409,0.017124729919837,0.0057082433065936,0.0057082433066196,0.0057082433066236,-0.0013793075259034,0.001379307525878,2.5909644967102e-12,-2.6146875864392e-12,9.4890874356645e-14,-1.2463466308483e-13,-0.0014284542356691,0.0014284542374533,-0.0014284542374046,0.0014284542357167,-0.0014284542357405,0.0014284542373786,-0.001428454237476,0.001428454235644,-0.0013422018482797,0.0013422018532752,-0.0013422018533651,0.0013422018481734,-9.6682693468904e-14,1.2275724985028e-13,-2.9095175868231e-13,3.1857044436219e-13,-0.001379307525884,0.0013793075259094,-0.0014284542366816,0.0014284542364334,-0.0014284542364858,0.0014284542366377,-0.0014284542366106,0.0014284542365072,-0.0014284542364151,0.0014284542367117,-0.00134220185103,0.0013422018505415,-0.0013422018504423,0.0013422018511477,-0.0013422018507901,0.0013422018507956,-0.0013422018505815,0.0013422018510171,-2.7154845144003e-12,2.4901083994859e-12,-0.0013793075260115,0.0013793075257838,1.8147704423616e-13,-4.2055932867178e-13,-0.0014284542374409,0.0014284542356799,-0.001428454237641,0.0014284542354797,-0.0014284542357048,0.0014284542374155,-0.0014284542359052,0.0014284542372148,-0.001342201848467,0.0013422018531416,-0.0013422018535616,0.0013422018480482,0.70944456219994,0.82550026359664,114808,2744,0.0057305463489554,0.0057305463489804,0.0057305463489843,18.071084369623,18.076337485333,-9.5431325043013e-05,-9.5431325043013e-05,-9.5431325043013e-05,1082016.0658015,0.017340931196577
24819200,0.99175469000327,0.017127898212575,0.005709299404173,0.005709299404199,0.0057092994042029,-0.001379960428316,0.0013799604282907,2.6146281258246e-12,-2.638273795814e-12,9.4931940887017e-14,-1.2460168615108e-13,-0.0014291053417751,0.001429105343575,-0.0014291053435262,0.0014291053418226,-0.0014291053418464,0.0014291053435002,-0.0014291053435976,0.0014291053417499,-0.0013428535409561,0.0013428535459979,-0.0013428535460876,0.0013428535408498,-9.6708045635589e-14,1.227382504307e-13,-2.9089605450168e-13,3.1850409344799e-13,-0.0013799604282967,0.0013799604283221,-0.0014291053427951,0.001429105342547,-0.0014291053425995,0.0014291053427514,-0.0014291053427243,0.0014291053426208,-0.0014291053425289,0.0014291053428254,-0.0013428535437291,0.0013428535432409,-0.0013428535431416,0.0013428535438467,-0.0013428535434897,0.0013428535434951,-0.0013428535432809,0.0013428535437165,-2.7390871757081e-12,2.5137605004599e-12,-0.0013799604284242,0.0013799604281965,1.8143369261935e-13,-4.2048003697644e-13,-0.0014291053435625,0.0014291053417857,-0.0014291053437624,0.0014291053415856,-0.0014291053418106,0.001429105343537,-0.0014291053420109,0.0014291053433364,-0.0013428535411432,0.0013428535458642,-0.0013428535462842,0.0013428535407245,0.66112225310636,0.59054061146344,114808,2744,0.0057332512238273,0.0057332512238525,0.0057332512238564,18.257691630082,18.262932672217,-9.3938466959343e-05,-9.3938466959343e-05,-9.3938466959343e-05,1074511.5281608,0.017349186606197
25019200,0.99195260091275,0.017131028493523,0.0057103428311556,0.0057103428311816,0.0057103428311856,-0.0013809150448953,0.00138091504487,2.6382339864833e-12,-2.6619305439346e-12,9.4911384874364e-14,-1.2463975116469e-13,-0.0014300669888296,0.0014300669906454,-0.0014300669905966,0.0014300669888772,-0.0014300669889009,0.0014300669905706,-0.001430066990668,0.0014300669888046,-0.00134380446337,0.0013438044684581,-0.0013438044685478,0.0013438044632637,-9.6712045513395e-14,1.2274907362947e-13,-2.9082570370968e-13,3.1844315413317e-13,-0.0013809150448761,0.0013809150449014,-0.0014300669898576,0.0014300669896095,-0.0014300669896621,0.0014300669898139,-0.0014300669897868,0.0014300669896834,-0.0014300669895914,0.0014300669898879,-0.0013438044661661,0.0013438044656781,-0.0013438044655787,0.0013438044662838,-0.0013438044659267,0.0013438044659321,-0.0013438044657179,0.0013438044661535,-2.762704777736e-12,2.537405748702e-12,-0.0013809150450035,0.0013809150447759,1.8137716493447e-13,-4.2040845092805e-13,-0.0014300669906329,0.0014300669888404,-0.0014300669908328,0.0014300669886403,-0.0014300669888653,0.0014300669906074,-0.0014300669890655,0.0014300669904068,-0.0013438044635571,0.0013438044683244,-0.0013438044687444,0.0013438044631384,0.6536253524529,0.56235667199017,114808,2744,0.0057372059968288,0.005737205996854,0.0057372059968578,18.628665681876,18.63900562452,-9.0970674544993e-05,-9.0970674544993e-05,-9.0970674544993e-05,1077406.7513342,0.017361257020136
25219200,0.99215358684235,0.017134311997785,0.0057114373325763,0.0057114373326023,0.0057114373326062,-0.0013823912484977,0.0013823912484723,2.6618796529111e-12,-2.6855609948346e-12,9.4928982797238e-14,-1.2463569981787e-13,-0.0014315494025583,0.0014315494043899,-0.0014315494043411,0.001431549402606,-0.0014315494026297,0.0014315494043152,-0.0014315494044126,0.0014315494025334,-0.0013452800804874,0.0013452800856219,-0.0013452800857116,0.0013452800803812,-9.6733633089204e-14,1.2274119151732e-13,-2.9075952926067e-13,3.1838921460452e-13,-0.0013823912484784,0.0013823912485038,-0.0014315494035942,0.0014315494033462,-0.0014315494033988,0.0014315494035506,-0.0014315494035234,0.0014315494034201,-0.0014315494033281,0.0014315494036245,-0.0013452800833066,0.0013452800828187,-0.0013452800827193,0.0013452800834242,-0.0013452800830677,0.0013452800830729,-0.0013452800828588,0.0013452800832944,-2.7863500259782e-12,2.5610376738217e-12,-0.0013823912486058,0.0013823912483782,1.8132540180991e-13,-4.2033868835337e-13,-0.0014315494043775,0.0014315494025691,-0.0014315494045774,0.001431549402369,-0.0014315494025941,0.0014315494043519,-0.0014315494027942,0.0014315494041514,-0.0013452800806749,0.0013452800854884,-0.0013452800859084,0.0013452800802562,0.67454671368422,0.66718788177615,114808,2744,0.0057433216080097,0.005743321608035,0.0057433216080388,19.268766803369,19.286627087311,-8.5849865573046e-05,-8.5849865573046e-05,-8.5849865573046e-05,1080792.4388892,0.017379922635494
25419200,0.9923575387721,0.017137914847962,0.0057126382826355,0.0057126382826615,0.0057126382826654,-0.0013839220447514,0.0013839220447266,2.6858572908152e-12,-2.7088919541946e-12,9.5285797723992e-14,-1.242634611895e-13,-0.0014330810632348,0.0014330810650821,-0.0014330810650326,0.0014330810632822,-0.0014330810633059,0.0014330810650077,-0.0014330810651042,0.00143308106321,-0.0013468164545818,0.0013468164597633,-0.0013468164598523,0.0013468164544768,-9.6805101494129e-14,1.2268489911937e-13,-2.9077505819804e-13,3.1825433637201e-13,-0.0013839220447327,0.0013839220447579,-0.0014330810642787,0.0014330810640307,-0.0014330810640836,0.0014330810642351,-0.0014330810642078,0.0014330810641045,-0.0014330810640128,0.0014330810643093,-0.0013468164574246,0.0013468164569366,-0.0013468164568378,0.0013468164575419,-0.0013468164571854,0.0013468164571904,-0.0013468164569765,0.001346816457411,-2.8100599487151e-12,2.5846349529411e-12,-0.0013839220448601,0.0013839220446323,1.8120240556736e-13,-4.2034674693071e-13,-0.0014330810650696,0.0014330810632456,-0.0014330810652701,0.0014330810630455,-0.0014330810632709,0.0014330810650442,-0.0014330810634712,0.0014330810648442,-0.0013468164547689,0.0013468164596288,-0.0013468164600492,0.0013468164543503,0.72789187628351,0.90804191976655,114808,2744,0.0057496633935682,0.0057496633935943,0.0057496633935979,19.916074838188,19.934248550103,-8.0671401294497e-05,-8.0671401294497e-05,-8.0671401294497e-05,1079139.2423687,0.017399278728982
25619200,0.99256424285964,0.017141589746749,0.0057138632488975,0.0057138632489235,0.0057138632489275,-0.0013855092410848,0.0013855092410596,2.7091801628763e-12,-2.7328148404395e-12,9.4955328155089e-14,-1.2458990709915e-13,-0.0014346588250283,0.0014346588268913,-0.0014346588268425,0.0014346588250758,-0.0014346588250995,0.0014346588268165,-0.0014346588269139,0.0014346588250032,-0.001348412179386,0.001348412184613,-0.0013484121847027,0.0013484121792798,-9.6731339041638e-14,1.2272813309272e-13,-2.9065376778573e-13,3.1825139528539e-13,-0.0013855092410656,0.001385509241091,-0.0014346588260798,0.0014346588258318,-0.0014346588258844,0.0014346588260361,-0.001434658826009,0.0014346588259057,-0.0014346588258138,0.0014346588261101,-0.0013484121822514,0.0013484121817637,-0.0013484121816644,0.001348412182369,-0.0013484121820123,0.0013484121820175,-0.0013484121818034,0.0013484121822388,-2.8336134350546e-12,2.6083231704587e-12,-0.001385509241193,0.0013855092409654,1.8120934653179e-13,-4.202149274283e-13,-0.0014346588268789,0.0014346588250389,-0.0014346588270787,0.001434658824839,-0.001434658825064,0.0014346588268533,-0.0014346588252641,0.0014346588266529,-0.0013484121795731,0.0013484121844793,-0.0013484121848992,0.0013484121791545,0.73243471361752,0.90617883153439,114808,2744,0.0057562388380628,0.005756238838088,0.0057562388380919,20.563671117594,20.581870012895,-7.5490631059248e-05,-7.5490631059248e-05,-7.5490631059248e-05,1066869.5402019,0.017419348199708
25819200,0.99276835311736,0.017145124997803,0.0057150416659157,0.0057150416659417,0.0057150416659456,-0.0013863024214533,0.001386302421428,2.732806485226e-12,-2.7564453408555e-12,9.4953642315046e-14,-1.2460006855343e-13,-0.0014354482437667,0.0014354482456455,-0.0014354482455967,0.0014354482438143,-0.001435448243838,0.0014354482455708,-0.0014354482456681,0.0014354482437417,-0.0013492078620577,0.001349207867331,-0.0013492078674207,0.0013492078619515,-9.6735750671572e-14,1.2273054478375e-13,-2.9059582837927e-13,3.1818575023198e-13,-0.0013863024214341,0.0013863024214595,-0.0014354482448261,0.0014354482445782,-0.0014354482446308,0.0014354482447824,-0.0014354482447553,0.001435448244652,-0.0014354482445601,0.0014354482448564,-0.0013492078649462,0.0013492078644585,-0.0013492078643593,0.0013492078650638,-0.0013492078647072,0.0013492078647123,-0.0013492078644983,0.0013492078649337,-2.8572315076564e-12,2.6319647717535e-12,-0.0013863024215615,0.0013863024213339,1.8114811310831e-13,-4.2015151760072e-13,-0.0014354482456331,0.0014354482437774,-0.0014354482458329,0.0014354482435774,-0.0014354482438024,0.0014354482456075,-0.0014354482440025,0.0014354482454071,-0.0013492078622448,0.0013492078671974,-0.0013492078676172,0.0013492078618263,0.71386315647027,0.80271734254426,114808,2744,0.0057595247951212,0.0057595247951465,0.0057595247951503,20.804134180275,20.811067887113,-7.3566926557798e-05,-7.3566926557798e-05,-7.3566926557798e-05,1056898.5058997,0.017429377810508
26019200,0.99296534736799,0.0171484054257,0.0057161351418815,0.0057161351419075,0.0057161351419115,-0.0013863449492301,0.0013863449492048,2.7564259925265e-12,-2.7800659199294e-12,9.4958325535947e-14,-1.2461153879126e-13,-0.0014354929431775,0.001435492945072,-0.0014354929450232,0.001435492943225,-0.0014354929432488,0.0014354929449973,-0.0014354929450946,0.0014354929431524,-0.0013492480581856,0.0013492480635051,-0.0013492480635948,0.0013492480580794,-9.6734338949993e-14,1.2274813248175e-13,-2.9052665402191e-13,3.1811839934832e-13,-0.0013863449492109,0.0013863449492362,-0.0014354929442447,0.0014354929439968,-0.0014354929440494,0.001435492944201,-0.0014354929441739,0.0014354929440707,-0.0014354929439787,0.001435492944275,-0.0013492480610971,0.0013492480606096,-0.0013492480605104,0.0013492480612147,-0.0013492480608582,0.0013492480608632,-0.0013492480606493,0.0013492480610847,-2.8808427569372e-12,2.6555937851974e-12,-0.0013863449493383,0.0013863449491107,1.8108787965429e-13,-4.200753434572e-13,-0.0014354929450596,0.0014354929431881,-0.0014354929452594,0.0014354929429882,-0.0014354929432132,0.001435492945034,-0.0014354929434132,0.0014354929448336,-0.0013492480583726,0.0013492480633715,-0.0013492480637912,0.0013492480579541,0.68688288247234,0.67001528985024,114808,2744,0.0057597009458536,0.0057597009458789,0.0057597009458827,20.676113866339,20.672677342156,-7.4591089069288e-05,-7.4591089069288e-05,-7.4591089069288e-05,1052418.8009372,0.017429915634048
26219200,0.9931553967784,0.017151752194731,0.0057172507315584,0.0057172507315845,0.0057172507315884,-0.0013863359731373,0.0013863359731121,2.7801090171882e-12,-2.8036307567953e-12,9.5000904083547e-14,-1.2456627546814e-13,-0.0014354857493695,0.0014354857512798,-0.0014354857512309,0.0014354857494174,-0.0014354857494406,0.0014354857512051,-0.0014354857513023,0.0014354857493444,-0.0013492422982915,0.0013492423036572,-0.001349242303747,0.0013492422981849,-9.6615930802575e-14,1.2285977612994e-13,-2.9032036620621e-13,3.1816869192957e-13,-0.001386335973118,0.0013863359731436,-0.0014354857504446,0.0014354857501968,-0.0014354857502492,0.001435485750401,-0.0014354857503735,0.0014354857502707,-0.0014354857501786,0.0014354857504753,-0.0013492423012255,0.0013492423007384,-0.001349242300639,0.0013492423013431,-0.0013492423009864,0.0013492423009922,-0.0013492423007778,0.0013492423012136,-2.9042624826571e-12,2.6794183514909e-12,-0.0013863359732453,0.0013863359730181,1.812218755608e-13,-4.1978558760316e-13,-0.0014354857512672,0.0014354857493806,-0.0014354857514669,0.0014354857491804,-0.001435485749405,0.0014354857512418,-0.001435485749605,0.0014354857510412,-0.0013492422984776,0.0013492423035235,-0.0013492423039426,0.0013492422980595,0.7252465778839,0.84741947957003,114808,2744,0.0057596637455583,0.0057596637455834,0.0057596637455872,20.538155740276,20.5342867972,-7.5694754077795e-05,-7.5694754077795e-05,-7.5694754077795e-05,1052562.2189251,0.017429802104153
26419200,0.99333878123165,0.01715507182025,0.0057183572733981,0.0057183572734241,0.0057183572734281,-0.0013863571681283,0.001386357168103,2.8036691650889e-12,-2.827307718223e-12,9.4963681300641e-14,-1.2462496485169e-13,-0.0014355003620347,0.0014355003639608,-0.0014355003639119,0.0014355003620823,-0.001435500362106,0.001435500363886,-0.0014355003639834,0.0014355003620096,-0.0013492706941148,0.0013492706995268,-0.0013492706996165,0.0013492706940085,-9.6738221184335e-14,1.2276183794541e-13,-2.9037648213897e-13,3.1799005032812e-13,-0.001386357168109,0.0013863571681344,-0.0014355003631177,0.0014355003628699,-0.0014355003629225,0.001435500363074,-0.0014355003630468,0.0014355003629438,-0.0014355003628518,0.001435500363148,-0.0013492706970723,0.0013492706965851,-0.0013492706964858,0.0013492706971899,-0.0013492706968336,0.0013492706968386,-0.0013492706966247,0.00134927069706,-2.9280486383593e-12,2.7028707820941e-12,-0.0013863571682364,0.0013863571680089,1.8098917678724e-13,-4.1989523131244e-13,-0.0014355003639484,0.0014355003620454,-0.0014355003641481,0.0014355003618455,-0.0014355003620705,0.0014355003639227,-0.0014355003622704,0.0014355003637224,-0.0013492706943016,0.0013492706993932,-0.0013492706998127,0.0013492706938833,0.74502752235989,0.92249642828204,114808,2744,0.0057597515839666,0.0057597515839919,0.0057597515839957,20.399783801045,20.395896252243,-7.6801729591637e-05,-7.6801729591637e-05,-7.6801729591637e-05,1044943.7830153,0.017430070035213
26619200,0.99351978963351,0.01715831961631,0.0057194398720847,0.0057194398721107,0.0057194398721146,-0.0013870948291399,0.0013870948291146,2.8272958164727e-12,-2.8509384090055e-12,9.4966676383776e-14,-1.2461757537155e-13,-0.0014362255492657,0.0014362255512075,-0.0014362255511587,0.0014362255493133,-0.001436225549337,0.0014362255511328,-0.0014362255512301,0.0014362255492407,-0.0013500176994853,0.0013500177049435,-0.0013500177050333,0.001350017699379,-9.6732633119752e-14,1.2276195558888e-13,-2.9032548369694e-13,3.1792622874842e-13,-0.0013870948291207,0.001387094829146,-0.0014362255503565,0.0014362255501088,-0.0014362255501614,0.0014362255503128,-0.0014362255502857,0.0014362255501826,-0.0014362255500906,0.0014362255503868,-0.0013500177024659,0.0013500177019788,-0.0013500177018795,0.0013500177025835,-0.0013500177022272,0.0013500177022322,-0.0013500177020183,0.0013500177024536,-2.9516767106555e-12,2.7265014425466e-12,-0.001387094829248,0.0013870948290205,1.8094041357104e-13,-4.1983040976328e-13,-0.0014362255511951,0.0014362255492764,-0.0014362255513947,0.0014362255490765,-0.0014362255493014,0.0014362255511694,-0.0014362255495013,0.0014362255509692,-0.001350017699672,0.0013500177048099,-0.0013500177052294,0.0013500176992537,0.73848436793213,0.87359585130831,114808,2744,0.0057628075713885,0.0057628075714137,0.0057628075714176,20.629158183601,20.635447425936,-7.4966734531191e-05,-7.4966734531191e-05,-7.4966734531191e-05,1033937.4792197,0.017439397532055
26819200,0.99370061133321,0.01716148715731,0.0057204957190845,0.0057204957191105,0.0057204957191145,-0.0013882130726703,0.001388213072645,2.8509300705654e-12,-2.8745708113625e-12,9.4965574854927e-14,-1.2461850181384e-13,-0.0014373363585168,0.0014373363604744,-0.0014373363604256,0.0014373363585644,-0.0014373363585881,0.0014373363603996,-0.001437336360497,0.0014373363584918,-0.0013511410520288,0.0013511410575333,-0.001351141057623,0.0013511410519225,-9.6729044994073e-14,1.2276589664495e-13,-2.9026336794747e-13,3.1788140658829e-13,-0.0013882130726511,0.0013882130726765,-0.0014373363596155,0.0014373363593678,-0.0014373363594204,0.0014373363595718,-0.0014373363595446,0.0014373363594416,-0.0014373363593496,0.0014373363596458,-0.0013511410550325,0.0013511410545455,-0.0013511410544462,0.0013511410551501,-0.0013511410547939,0.0013511410547988,-0.001351141054585,0.0013511410550203,-2.9753024594934e-12,2.7501422791588e-12,-0.0013882130727784,0.0013882130725509,1.8088917984208e-13,-4.1977535262171e-13,-0.001437336360462,0.0014373363585274,-0.0014373363606616,0.0014373363583277,-0.0014373363585525,0.0014373363604363,-0.0014373363587524,0.0014373363602361,-0.0013511410522156,0.0013511410573998,-0.0013511410578192,0.0013511410517973,0.72121901935837,0.78180423854544,114808,2744,0.0057674401554869,0.0057674401555122,0.005767440155516,21.063117976543,21.075229176504,-7.1495056187659e-05,-7.1495056187659e-05,-7.1495056187659e-05,1026361.3866764,0.017453537613017
27019200,0.99388115383044,0.01716456517689,0.0057215217256114,0.0057215217256374,0.0057215217256414,-0.0013893196620841,0.0013893196620588,2.8745618835562e-12,-2.898205934799e-12,9.4965644590848e-14,-1.2461946501971e-13,-0.0014384427247501,0.0014384427267234,-0.0014384427266746,0.0014384427247977,-0.0014384427248213,0.0014384427266486,-0.001438442726746,0.001438442724725,-0.0013522477264446,0.0013522477319954,-0.0013522477320852,0.0013522477263383,-9.6737574145278e-14,1.2275919096745e-13,-2.9021795757002e-13,3.1783164340264e-13,-0.0013893196620648,0.0013893196620902,-0.0014384427258566,0.0014384427256089,-0.0014384427256615,0.0014384427258129,-0.0014384427257858,0.0014384427256828,-0.0014384427255908,0.001438442725887,-0.0013522477294714,0.0013522477289845,-0.0013522477288852,0.0013522477295891,-0.0013522477292328,0.0013522477292377,-0.0013522477290239,0.0013522477294592,-2.9989378256845e-12,2.7737735572395e-12,-0.0013893196621922,0.0013893196619647,1.8084076955627e-13,-4.1972858934442e-13,-0.0014384427267111,0.0014384427247607,-0.0014384427269106,0.001438442724561,-0.0014384427247858,0.0014384427266853,-0.0014384427249857,0.0014384427264851,-0.0013522477266313,0.0013522477318618,-0.0013522477322812,0.0013522477262131,0.7022850256968,0.69001262578256,114808,2744,0.005772024395789,0.0057720243958143,0.0057720243958181,21.502650157349,21.515010927072,-6.7978798741206e-05,-6.7978798741206e-05,-6.7978798741206e-05,1023785.3520945,0.017467530528102
27219200,0.9940612613363,0.017167544527808,0.0057225148425841,0.0057225148426101,0.0057225148426141,-0.0013904032083579,0.0013904032083326,2.8981932489504e-12,-2.9218412900759e-12,9.4962659158154e-14,-1.2462388400236e-13,-0.0014395313068851,0.0014395313088741,-0.0014395313088253,0.0014395313069327,-0.0014395313069563,0.0014395313087994,-0.0014395313088968,0.00143953130686,-0.0013533278248907,0.0013533278304877,-0.0013533278305775,0.0013533278247843,-9.6734809523853e-14,1.2276224969754e-13,-2.901731354099e-13,3.1778993879433e-13,-0.0013904032083386,0.001390403208364,-0.0014395313079995,0.0014395313077518,-0.0014395313078044,0.0014395313079558,-0.0014395313079286,0.0014395313078256,-0.0014395313077337,0.0014395313080298,-0.0013533278279406,0.0013533278274538,-0.0013533278273545,0.0013533278280582,-0.0013533278277021,0.001353327827707,-0.0013533278274932,0.0013533278279284,-3.0225610451878e-12,2.7974166290775e-12,-0.001390403208466,0.0013904032082385,1.8080630002106e-13,-4.1967735561545e-13,-0.0014395313088618,0.0014395313068957,-0.0014395313090613,0.0014395313066959,-0.0014395313069208,0.001439531308836,-0.0014395313071206,0.0014395313086359,-0.0013533278250774,0.0013533278303542,-0.0013533278307736,0.0013533278246593,0.68191769427847,0.59822101301969,114808,2744,0.0057765131271016,0.0057765131271268,0.0057765131271306,21.942414882143,21.95479267764,-6.4460680942855e-05,-6.4460680942855e-05,-6.4460680942855e-05,1025326.5790829,0.017481232223829
27419200,0.99423936589119,0.017170580402877,0.0057235268009404,0.0057235268009664,0.0057235268009703,-0.0013912169982002,0.0013912169981749,2.9218211291569e-12,-2.9454731599354e-12,9.4960657610844e-14,-1.2462636922056e-13,-0.0014403541230065,0.0014403541250113,-0.0014403541249625,0.0014403541230541,-0.0014403541230777,0.0014403541249366,-0.0014403541250339,0.0014403541229814,-0.0013541386592235,0.0013541386648668,-0.0013541386649565,0.0013541386591171,-9.6736221245432e-14,1.2276113208462e-13,-2.9014001877453e-13,3.1775317521155e-13,-0.0013912169981809,0.0013912169982063,-0.0014403541241287,0.0014403541238811,-0.0014403541239337,0.001440354124085,-0.0014403541240579,0.0014403541239549,-0.001440354123863,0.0014403541241591,-0.0013541386622964,0.0013541386618097,-0.0013541386617104,0.001354138662414,-0.001354138662058,0.0013541386620629,-0.0013541386618491,0.0013541386622843,-3.0461889704297e-12,2.8210488777168e-12,-0.0013912169983083,0.0013912169980808,1.8077388924648e-13,-4.1964029792401e-13,-0.001440354124999,0.0014403541230171,-0.0014403541251985,0.0014403541228174,-0.0014403541230422,0.0014403541249732,-0.001440354123242,0.001440354124773,-0.0013541386594102,0.0013541386647333,-0.0013541386651526,0.0013541386589921,0.70214875260574,0.7011034432833,114808,2744,0.0057798843227534,0.0057798843227786,0.0057798843227825,22.251103392303,22.259851338914,-6.1991172861572e-05,-6.1991172861572e-05,-6.1991172861572e-05,1030564.4242271,0.017491522881124
27619200,0.99441494222435,0.017173618105242,0.0057245393683955,0.0057245393684215,0.0057245393684254,-0.0013919700145213,0.001391970014496,2.9454684848714e-12,-2.9690829490126e-12,9.4978557224868e-14,-1.2460619336633e-13,-0.0014411106538224,0.001441110655843,-0.0014411106557942,0.00144111065387,-0.0014411106538936,0.0014411106557683,-0.0014411106558656,0.0014411106537974,-0.0013548917694547,0.0013548917751444,-0.0013548917752341,0.0013548917693484,-9.6779102288386e-14,1.2271701578529e-13,-2.901488420344e-13,3.1768011861985e-13,-0.0013919700145021,0.0013919700145274,-0.0014411106549525,0.0014411106547047,-0.0014411106547574,0.0014411106549088,-0.0014411106548816,0.0014411106547786,-0.0014411106546868,0.0014411106549827,-0.0013548917725508,0.0013548917720642,-0.0013548917719649,0.0013548917726684,-0.0013548917723124,0.0013548917723171,-0.0013548917721035,0.0013548917725386,-3.0697853378122e-12,2.8447103313462e-12,-0.0013919700146294,0.001391970014402,1.8077459510727e-13,-4.1957365290115e-13,-0.0014411106558306,0.0014411106538329,-0.00144111065603,0.0014411106536332,-0.0014411106538581,0.0014411106558048,-0.0014411106540578,0.0014411106556047,-0.0013548917696414,0.0013548917750108,-0.0013548917754301,0.0013548917692234,0.71252803993659,0.75007558494512,114808,2744,0.0057830037830316,0.0057830037830568,0.0057830037830607,22.518259806636,22.525803506829,-5.9853921546909e-05,-5.9853921546909e-05,-5.9853921546909e-05,1030730.7115377,0.017501045058826
27819200,0.99458792024291,0.017176659512005,0.0057255531706498,0.0057255531706758,0.0057255531706798,-0.0013927289215303,0.001392728921505,2.9690782709616e-12,-2.9927328211944e-12,9.4960060087737e-14,-1.2462701625961e-13,-0.0014418701467826,0.001441870148819,-0.0014418701487702,0.0014418701468302,-0.0014418701468539,0.0014418701487442,-0.0014418701488416,0.0014418701467576,-0.0013556527930984,0.0013556527988343,-0.001355652798924,0.0013556527929921,-9.6740574053633e-14,1.2275683809815e-13,-2.9008402048524e-13,3.176900006709e-13,-0.0013927289215111,0.0013927289215364,-0.0014418701479206,0.001441870147673,-0.0014418701477256,0.0014418701478769,-0.0014418701478498,0.0014418701477469,-0.0014418701476549,0.0014418701479509,-0.0013556527962176,0.001355652795731,-0.0013556527956317,0.0013556527963352,-0.0013556527959792,0.001355652795984,-0.0013556527957703,0.0013556527962055,-3.0934391152055e-12,2.8683153161125e-12,-0.0013927289216384,0.001392728921411,1.8072294962618e-13,-4.1957241764477e-13,-0.0014418701488067,0.0014418701467932,-0.0014418701490061,0.0014418701465935,-0.0014418701468184,0.0014418701487808,-0.0014418701470181,0.0014418701485807,-0.0013556527932851,0.0013556527987008,-0.0013556527991201,0.0013556527928671,0.72383353305082,0.79904772660694,114808,2744,0.0057861476570411,0.0057861476570663,0.0057861476570701,22.78426044081,22.791755674744,-5.7725916473522e-05,-5.7725916473522e-05,-5.7725916473522e-05,1028573.9403871,0.017510641759591
28019200,0.99475824454065,0.017179706526625,0.0057265688421896,0.0057265688422156,0.0057265688422195,-0.0013934957810002,0.0013934957809749,2.9927066860783e-12,-3.0163632568146e-12,9.495973381094e-14,-1.2462917060556e-13,-0.0014426350790342,0.0014426350810863,-0.0014426350810375,0.0014426350790818,-0.0014426350791055,0.0014426350810116,-0.0014426350811089,0.0014426350790091,-0.0013564234155512,0.0013564234213333,-0.0013564234214231,0.0013564234154449,-9.6741985775212e-14,1.2275689691989e-13,-2.900640210962e-13,3.1766764841257e-13,-0.001393495780981,0.0013934957810064,-0.00144263508018,0.0014426350799324,-0.0014426350799851,0.0014426350801363,-0.0014426350801092,0.0014426350800063,-0.0014426350799143,0.0014426350802104,-0.0013564234186935,0.0013564234182069,-0.0013564234181076,0.0013564234188111,-0.0013564234184552,0.00135642341846,-0.0013564234182463,0.0013564234186814,-3.1170635111435e-12,2.891949711745e-12,-0.0013934957811083,0.0013934957808809,1.8070695011495e-13,-4.1954577139997e-13,-0.001442635081074,0.0014426350790447,-0.0014426350812734,0.0014426350788451,-0.0014426350790699,0.0014426350810481,-0.0014426350792697,0.0014426350808481,-0.0013564234157379,0.0013564234211999,-0.0013564234216191,0.0013564234153199,0.73612506592636,0.84801986826876,114808,2744,0.005789324480851,0.0057893244808763,0.0057893244808801,23.050212594611,23.057707842659,-5.5598299243114e-05,-5.5598299243114e-05,-5.5598299243114e-05,1024387.5999811,0.017520339064553
28219200,0.99492520621812,0.017182749201567,0.0057275830671705,0.0057275830671965,0.0057275830672004,-0.0013941425118731,0.0013941425118477,3.016324800039e-12,-3.0400010083877e-12,9.4950931575247e-14,-1.2464087613032e-13,-0.0014432780699046,0.0014432780719725,-0.0014432780719237,0.0014432780699522,-0.0014432780699759,0.0014432780718978,-0.0014432780719951,0.0014432780698796,-0.0013570749911031,0.0013570749969315,-0.0013570749970212,0.0013570749909968,-9.6729633211397e-14,1.2277289643111e-13,-2.9002861041327e-13,3.1766470732595e-13,-0.0013941425118538,0.0013941425118792,-0.0014432780710584,0.0014432780708108,-0.0014432780708634,0.0014432780710147,-0.0014432780709875,0.0014432780708847,-0.0014432780707927,0.0014432780710887,-0.0013570749942685,0.001357074993782,-0.0013570749936826,0.0013570749943861,-0.00135707499403,0.0013570749940347,-0.001357074993821,0.0013570749942562,-3.1406740839743e-12,2.9155932835677e-12,-0.0013941425119811,0.0013941425117537,1.8070447960219e-13,-4.1951094893436e-13,-0.0014432780719602,0.0014432780699152,-0.0014432780721596,0.0014432780697156,-0.0014432780699404,0.0014432780719344,-0.0014432780701402,0.0014432780717343,-0.0013570749912895,0.0013570749967978,-0.001357074997217,0.0013570749908715,0.7494891405346,0.89699200993058,114808,2744,0.0057920036587248,0.00579200365875,0.0057920036587538,23.250246536158,23.255913651918,-5.3998027710735e-05,-5.3998027710735e-05,-5.3998027710735e-05,1018516.0152692,0.017528517319277
28419200,0.99508871222157,0.017185788459932,0.005728596153292,0.005728596153318,0.0057285961533219,-0.0013947769658248,0.0013947769657995,3.0399608546282e-12,-3.0636204583601e-12,9.4961316368293e-14,-1.2463300872361e-13,-0.0014439057822264,0.00144390578431,-0.0014439057842612,0.001443905782274,-0.0014439057822977,0.0014439057842353,-0.0014439057843327,0.0014439057822014,-0.0013577162261623,0.0013577162320369,-0.0013577162321267,0.0013577162260559,-9.6748220878851e-14,1.2275642634603e-13,-2.9003449258652e-13,3.1763112011672e-13,-0.0013947769658056,0.0013947769658309,-0.001443905783388,0.0014439057831405,-0.0014439057831931,0.0014439057833443,-0.0014439057833172,0.0014439057832143,-0.0014439057831224,0.0014439057834183,-0.0013577162293508,0.0013577162288643,-0.001357716228765,0.0013577162294684,-0.0013577162291125,0.0013577162291172,-0.0013577162289036,0.0013577162293387,-3.1643134500432e-12,2.9392110914717e-12,-0.0013947769659329,0.0013947769657055,1.8067918625724e-13,-4.1950806666947e-13,-0.0014439057842978,0.001443905782237,-0.0014439057844972,0.0014439057820374,-0.0014439057822622,0.0014439057842719,-0.0014439057824619,0.0014439057840718,-0.0013577162263489,0.0013577162319035,-0.0013577162323227,0.0013577162259309,0.76402413586349,0.9459641515924,114808,2744,0.0057946319846429,0.0057946319846681,0.005794631984672,23.440907356806,23.446287747694,-5.247274114555e-05,-5.247274114555e-05,-5.247274114555e-05,1010798.6147115,0.017536540340884
28619200,0.99524876726183,0.017188783726988,0.005729594575644,0.00572959457567,0.0057295945756739,-0.0013954146758816,0.0013954146758563,3.0635886530358e-12,-3.0872484096812e-12,9.4962716486366e-14,-1.2463523659672e-13,-0.0014445348469062,0.0014445348490056,-0.0014445348489568,0.0014445348469538,-0.0014445348469775,0.0014445348489309,-0.0014445348490283,0.0014445348468812,-0.0013583611904391,0.00135836119636,-0.0013583611964497,0.0013583611903327,-9.6745456257426e-14,1.2276283791486e-13,-2.9002184591404e-13,3.1762576733907e-13,-0.0013954146758623,0.0013954146758877,-0.0014445348480757,0.0014445348478281,-0.0014445348478807,0.001444534848032,-0.0014445348480049,0.001444534847902,-0.00144453484781,0.001444534848106,-0.0013583611936507,0.0013583611931642,-0.0013583611930649,0.0013583611937683,-0.0013583611934125,0.0013583611934172,-0.0013583611932035,0.0013583611936387,-3.187936140151e-12,2.9628440165608e-12,-0.0013954146759897,0.0013954146757622,1.8067459816211e-13,-4.194950670666e-13,-0.0014445348489933,0.0014445348469168,-0.0014445348491927,0.0014445348467172,-0.001444534846942,0.0014445348489674,-0.0014445348471417,0.0014445348487674,-0.0013583611906257,0.0013583611962266,-0.0013583611966457,0.0013583611902077,0.76896076444832,0.94790806088517,114808,2744,0.0057972737955003,0.0057972737955254,0.0057972737955293,23.631292516099,23.636661843469,-5.0949659871208e-05,-5.0949659871208e-05,-5.0949659871208e-05,1001604.9437854,0.017544604575207
28819200,0.99540540132312,0.01719164072305,0.0057305469076647,0.0057305469076907,0.0057305469076947,-0.0013960467627768,0.0013960467627515,3.0872414837668e-12,-3.110849720272e-12,9.4983306505333e-14,-1.2461654599124e-13,-0.0014451595876277,0.0014451595897429,-0.0014451595896941,0.0014451595876754,-0.001445159587699,0.0014451595896681,-0.0014451595897655,0.0014451595876027,-0.0013589980952275,0.0013589981011948,-0.0013589981012845,0.0013589980951212,-9.6702928144866e-14,1.2281154230933e-13,-2.8997072982854e-13,3.1766888366896e-13,-0.0013960467627575,0.001396046762783,-0.0014451595888051,0.0014451595885576,-0.0014451595886101,0.0014451595887615,-0.0014451595887341,0.0014451595886314,-0.0014451595885394,0.0014451595888354,-0.0013589980984625,0.0013589980979762,-0.0013589980978767,0.0013589980985802,-0.0013589980982242,0.0013589980982289,-0.0013589980980152,0.0013589980984504,-3.2115885940553e-12,2.986446824923e-12,-0.0013960467628849,0.0013960467626574,1.8064536376108e-13,-4.1951289005153e-13,-0.0014451595897305,0.0014451595876382,-0.0014451595899299,0.0014451595874386,-0.0014451595876635,0.0014451595897046,-0.0014451595878631,0.0014451595895046,-0.0013589980954143,0.0013589981010613,-0.0013589981014805,0.0013589980949964,0.74978431857704,0.8433479552569,114808,2744,0.0057998922865614,0.0057998922865866,0.0057998922865904,23.823881418408,23.829312916587,-4.9408948652735e-05,-4.9408948652735e-05,-4.9408948652735e-05,993217.48587372,0.017552597770645
29019200,0.99555974111351,0.017194308447493,0.0057314361491458,0.0057314361491718,0.0057314361491758,-0.0013968838653672,0.001396883865343,3.1114162976326e-12,-3.1339256002232e-12,9.5470471999599e-14,-1.2414733973693e-13,-0.001445994484503,0.0014459944866352,-0.0014459944865843,0.0014459944845521,-0.0014459944845731,0.0014459944865607,-0.001445994486656,0.001445994484478,-0.0013598355465971,0.0013598355526114,-0.001359835552701,0.0013598355464913,-9.6886275484907e-14,1.2263248895576e-13,-2.9012272518519e-13,3.175262997895e-13,-0.001396883865349,0.0013968838653743,-0.001445994485687,0.0014459944854399,-0.0014459944854906,0.001445994485643,-0.0014459944856171,0.0014459944855131,-0.0014459944854225,0.0014459944857174,-0.0013598355498591,0.0013598355493723,-0.0013598355492742,0.0013598355499758,-0.0013598355496219,0.0013598355496245,-0.0013598355494122,0.0013598355498468,-3.2354209836392e-12,3.0098765209266e-12,-0.0013968838654765,0.0013968838652485,1.8036031364563e-13,-4.1976817637035e-13,-0.0014459944866213,0.0014459944845114,-0.0014459944868189,0.0014459944843132,-0.0014459944845376,0.0014459944865939,-0.0014459944847376,0.0014459944863942,-0.0013598355467878,0.0013598355524808,-0.0013598355529005,0.0013598355463711,0.71130250769905,0.65856960657981,114808,2744,0.0058033600242352,0.0058033600242625,0.0058033600242661,24.139321758863,24.148169741101,-4.6885425929092e-05,-4.6885425929092e-05,-4.6885425929092e-05,989640.25110842,0.017563183658613
29219200,0.99571174309962,0.017196874874007,0.0057322916246504,0.0057322916246764,0.0057322916246803,-0.0013976858820983,0.0013976858820731,3.1345251091375e-12,-3.1580894320026e-12,9.4975311804712e-14,-1.2454385703536e-13,-0.0014468036271231,0.0014468036292699,-0.0014468036292209,0.0014468036271709,-0.0014468036271943,0.0014468036291952,-0.0014468036292923,0.0014468036270981,-0.001360633417267,0.0013606334233267,-0.0013606334234164,0.0013606334171606,-9.6728103846354e-14,1.2269578113987e-13,-2.9002461053546e-13,3.176191204833e-13,-0.0013976858820792,0.0013976858821045,-0.001446803628316,0.0014468036280685,-0.0014468036281209,0.0014468036282723,-0.0014468036282453,0.0014468036281423,-0.0014468036280504,0.0014468036283463,-0.0013606334205484,0.0013606334200619,-0.0013606334199629,0.001360633420666,-0.0013606334203106,0.0013606334203151,-0.0013606334201015,0.0013606334205365,-3.2588149454404e-12,3.0337428506501e-12,-0.0013976858822065,0.001397685881979,1.8065195179511e-13,-4.1951224301247e-13,-0.0014468036292573,0.0014468036271334,-0.0014468036294565,0.0014468036269339,-0.0014468036271587,0.0014468036292313,-0.0014468036273584,0.0014468036290313,-0.0013606334174543,0.0013606334231939,-0.001360633423613,0.0013606334170364,0.69516964571381,0.59061242969231,114808,2744,0.0058066823575737,0.0058066823575993,0.0058066823576032,24.458032672762,24.467026565615,-4.4335738617908e-05,-4.4335738617908e-05,-4.4335738617908e-05,993952.05172399,0.01757332598088
29419200,0.99586133629653,0.017199235262243,0.0057330784207291,0.0057330784207551,0.005733078420759,-0.0013984648437191,0.0013984648436938,3.1581161696968e-12,-3.1817582361657e-12,9.4903236341127e-14,-1.2457526784049e-13,-0.0014475947646936,0.001447594766856,-0.0014475947668072,0.0014475947647413,-0.0014475947647648,0.0014475947667813,-0.0014475947668787,0.0014475947646685,-0.0013614034488716,0.0013614034549778,-0.0013614034550675,0.0013614034487652,-9.6691634372236e-14,1.2269742814838e-13,-2.9003619841676e-13,3.1762641437813e-13,-0.0013984648436999,0.0013984648437253,-0.0014475947658943,0.0014475947656468,-0.0014475947656993,0.0014475947658506,-0.0014475947658236,0.0014475947657206,-0.0014475947656287,0.0014475947659246,-0.001361403452176,0.0013614034516894,-0.0013614034515902,0.0013614034522935,-0.0013614034519381,0.0013614034519428,-0.0013614034517292,0.0013614034521641,-3.2824861634774e-12,3.0573307182923e-12,-0.0013984648438273,0.0013984648435998,1.8063642285775e-13,-4.1954053626578e-13,-0.0014475947668436,0.0014475947647038,-0.0014475947670428,0.0014475947645043,-0.0014475947647291,0.0014475947668175,-0.0014475947649288,0.0014475947666175,-0.0013614034490587,0.0013614034548445,-0.0013614034552638,0.0013614034486409,0.65089855260322,0.39580697924075,114808,2744,0.005809909147122,0.0058099091471474,0.0058099091471512,24.776879867161,24.785883390129,-4.1784961062708e-05,-4.1784961062708e-05,-4.1784961062708e-05,1000974.1482765,0.01758317686765
29619200,0.99600837213015,0.017201521918233,0.0057338406393924,0.0057338406394184,0.0057338406394223,-0.001399182174549,0.0013991821745238,3.1817810092522e-12,-3.2053514114352e-12,9.4922537911404e-14,-1.2452635756996e-13,-0.0014483326665125,0.0014483326686907,-0.0014483326686418,0.0014483326665602,-0.0014483326665836,0.001448332668616,-0.0014483326687132,0.0014483326664874,-0.0013621094225907,0.0013621094287431,-0.0013621094288327,0.0013621094224844,-9.6684105190483e-14,1.2267519353352e-13,-2.9005208028452e-13,3.1762664966506e-13,-0.0013991821745299,0.0013991821745552,-0.0014483326677212,0.0014483326674737,-0.0014483326675261,0.0014483326676775,-0.0014483326676505,0.0014483326675475,-0.0014483326674556,0.0014483326677515,-0.0013621094259184,0.0013621094254318,-0.0013621094253326,0.0013621094260359,-0.0013621094256801,0.0013621094256848,-0.0013621094254712,0.0013621094259062,-3.3061136181454e-12,3.0809624375359e-12,-0.0013991821746572,0.0013991821744297,1.8065436348614e-13,-4.1954124212657e-13,-0.0014483326686783,0.0014483326665228,-0.0014483326688776,0.0014483326663233,-0.0014483326665481,0.0014483326686523,-0.0014483326667478,0.0014483326684523,-0.0013621094227777,0.0013621094286098,-0.0013621094290291,0.0013621094223598,0.64191384014517,0.3784741508565,114808,2744,0.0058128805861078,0.0058128805861331,0.005812880586137,25.086529764914,25.095280758206,-3.9307761880688e-05,-3.9307761880688e-05,-3.9307761880688e-05,1015570.5434156,0.017592248454114
29819200,0.99615230832977,0.017203890160735,0.0057346300535596,0.0057346300535856,0.0057346300535896,-0.001399788394631,0.0013997883946036,3.2042154194846e-12,-3.2300878239533e-12,9.3746450218752e-14,-1.2568045466603e-13,-0.0014489588863738,0.0014489588885662,-0.0014489588885187,0.0014489588864186,-0.0014489588864445,0.0014489588884902,-0.0014489588885908,0.001448958886346,-0.001362707936955,0.0013627079431516,-0.0013627079432439,0.0013627079368474,-9.6413407577756e-14,1.2290871581134e-13,-2.900375513166e-13,3.1770788247757e-13,-0.0013997883946107,0.0013997883946365,-0.0014489588875912,0.0014489588873456,-0.0014489588873976,0.0014489588875486,-0.0014489588875223,0.0014489588874193,-0.0014489588873262,0.0014489588876228,-0.0013627079403052,0.0013627079398182,-0.0013627079397179,0.0013627079404213,-0.001362707940063,0.0013627079400683,-0.0013627079398553,0.0013627079402903,-3.3292838220763e-12,3.1050133498559e-12,-0.001399788394738,0.0013997883945112,1.8111876106382e-13,-4.1910519662393e-13,-0.0014489588885585,0.0014489588863856,-0.0014489588887556,0.0014489588861877,-0.0014489588864119,0.0014489588885311,-0.0014489588866111,0.001448958888332,-0.0013627079371392,0.0013627079430172,-0.0013627079434367,0.0013627079367215,0.67837701512664,0.57263376256839,114808,2744,0.0058153917654565,0.0058153917654825,0.0058153917654867,25.338959758688,25.346117313265,-3.7288321930495e-05,-3.7288321930495e-05,-3.7288321930495e-05,1029696.6299296,0.017599914925536
30019200,0.99629311487327,0.017206242267462,0.0057354140891354,0.0057354140891614,0.0057354140891653,-0.0014004322671172,0.0014004322670917,3.2289078940067e-12,-3.2527230325092e-12,9.4815578058549e-14,-1.2462318549429e-13,-0.0014496133468344,0.001449613349044,-0.0014496133489953,0.0014496133468818,-0.0014496133469055,0.0014496133489692,-0.0014496133490667,0.0014496133468091,-0.0013633481062221,0.0013633481124667,-0.0013633481125566,0.0013633481061156,-9.6656517797964e-14,1.2269413413136e-13,-2.9008913797596e-13,3.176104148669e-13,-0.0014004322670978,0.0014004322671232,-0.0014496133480591,0.0014496133478117,-0.0014496133478641,0.0014496133480154,-0.0014496133479885,0.0014496133478855,-0.0014496133477935,0.0014496133480894,-0.0013633481095958,0.0013633481091091,-0.0013633481090098,0.0013633481097131,-0.0013633481093569,0.0013633481093616,-0.0013633481091481,0.0013633481095831,-3.3533277051992e-12,3.1282501693988e-12,-0.0014004322672252,0.0014004322669977,1.8071118527969e-13,-4.1950300800048e-13,-0.0014496133490321,0.001449613346845,-0.0014496133492312,0.0014496133466456,-0.0014496133468703,0.001449613349006,-0.00144961334707,0.001449613348806,-0.0013633481064084,0.0013633481123329,-0.0013633481127522,0.0013633481059905,0.68873088166556,0.63068324939852,114808,2744,0.0058180589773435,0.0058180589773686,0.0058180589773725,25.58986106958,25.596953868324,-3.5281111443357e-05,-3.5281111443357e-05,-3.5281111443357e-05,1034059.0815188,0.017608057548219
30219200,0.99643077789597,0.017208443341566,0.0057361477805034,0.0057361477805294,0.0057361477805333,-0.001401081137642,0.0014010811376166,3.2525619452888e-12,-3.2763259710374e-12,9.4832831322834e-14,-1.2462203111779e-13,-0.0014502713600858,0.0014502713623112,-0.0014502713622624,0.0014502713601332,-0.0014502713601569,0.0014502713622364,-0.0014502713623339,0.0014502713600606,-0.0013639916557942,0.0013639916620852,-0.0013639916621751,0.0013639916556878,-9.6663399940661e-14,1.2269907515689e-13,-2.9005225674972e-13,3.1765600170955e-13,-0.0014010811376227,0.0014010811376481,-0.0014502713613182,0.0014502713610708,-0.0014502713611232,0.0014502713612746,-0.0014502713612476,0.0014502713611446,-0.0014502713610527,0.0014502713613486,-0.0013639916591912,0.0013639916587046,-0.0013639916586053,0.0013639916593087,-0.0013639916589526,0.0013639916589574,-0.0013639916587438,0.0013639916591788,-3.3769486012441e-12,3.1518858296985e-12,-0.00140108113775,0.0014010811375226,1.8070853830173e-13,-4.1951712521626e-13,-0.0014502713622991,0.0014502713600962,-0.0014502713624983,0.0014502713598969,-0.0014502713601216,0.001450271362273,-0.0014502713603213,0.0014502713620731,-0.0013639916559809,0.0013639916619519,-0.0013639916623711,0.0013639916555631,0.6600831079788,0.50299150922935,114808,2744,0.0058207468924619,0.0058207468924873,0.0058207468924912,25.840698572022,25.847790423383,-3.3274411423826e-05,-3.3274411423826e-05,-3.3274411423826e-05,1035771.1065653,0.017616263439179
30419200,0.99656557627077,0.017210481634218,0.0057368272113873,0.0057368272114133,0.0057368272114173,-0.001401765697833,0.0014017656978072,3.2760535649521e-12,-3.3000508663179e-12,9.4679314068747e-14,-1.2479774633804e-13,-0.0014509713396612,0.0014509713419011,-0.0014509713418537,0.0014509713397088,-0.0014509713397314,0.0014509713418263,-0.0014509713419244,0.0014509713396339,-0.0013646670936066,0.0013646670999428,-0.0013646671000331,0.0013646670934992,-9.6568991060081e-14,1.2279742509354e-13,-2.9006684453936e-13,3.1770217676952e-13,-0.0014017656978134,0.0014017656978388,-0.0014509713409026,0.0014509713406553,-0.0014509713407077,0.001450971340859,-0.0014509713408316,0.0014509713407295,-0.0014509713406368,0.0014509713409338,-0.001364667097024,0.0013646670965383,-0.0013646670964406,0.0013646670971421,-0.0013646670967854,0.0013646670967919,-0.001364667096577,0.0013646670970119,-3.400717022194e-12,3.1753737298063e-12,-0.0014017656979409,0.0014017656977133,1.8049572127373e-13,-4.1978164654708e-13,-0.0014509713418912,0.0014509713396722,-0.0014509713420909,0.0014509713394736,-0.0014509713396976,0.0014509713418654,-0.0014509713398981,0.0014509713416654,-0.0013646670937911,0.0013646670998082,-0.0013646671002273,0.0013646670933742,0.62526525628919,0.35586293906454,114808,2744,0.0058235826078781,0.0058235826079028,0.0058235826079071,26.128532104826,26.136656521769,-3.0971743161391e-05,-3.0971743161391e-05,-3.0971743161391e-05,1043144.5810701,0.017624920763456
30619200,0.99669828921445,0.017212613348163,0.0057375377827024,0.0057375377827284,0.0057375377827324,-0.0014026260917836,0.0014026260917578,3.2995106369576e-12,-3.3238197455488e-12,9.4627479599865e-14,-1.249533886421e-13,-0.0014518508230333,0.0014518508252888,-0.0014518508252422,0.0014518508230803,-0.0014518508231037,0.0014518508252162,-0.0014518508253129,0.0014518508230079,-0.0013655210904139,0.0013655210967963,-0.0013655210968874,0.0013655210903071,-9.6999624963335e-14,1.2246667049199e-13,-2.9032571898387e-13,3.1744330232502e-13,-0.0014026260917639,0.0014026260917887,-0.0014518508242829,0.0014518508240336,-0.0014518508240882,0.0014518508242384,-0.0014518508242136,0.001451850824108,-0.0014518508240172,0.0014518508243124,-0.0013655210938547,0.0013655210933672,-0.0013655210932689,0.0013655210939714,-0.0013655210936155,0.0013655210936211,-0.0013655210934075,0.0013655210938433,-3.4239711353262e-12,3.1993479974089e-12,-0.0014026260918908,0.0014026260916639,1.8097229495003e-13,-4.1932442522076e-13,-0.0014518508252778,0.0014518508230437,-0.0014518508254782,0.0014518508228457,-0.0014518508230708,0.0014518508252521,-0.0014518508232689,0.0014518508250531,-0.0013655210905984,0.0013655210966622,-0.0013655210970805,0.0013655210901806,0.6631822851497,0.55583487502488,114808,2744,0.0058271466959502,0.0058271466959734,0.0058271466959777,26.522429058395,26.533527822329,-2.7820567532839e-05,-2.7820567532839e-05,-2.7820567532839e-05,1056168.8777393,0.017635801789282
30819200,0.99682884072756,0.017214804461353,0.0057382681537657,0.0057382681537917,0.0057382681537956,-0.00140354121177,0.0014035412117445,3.3234147283952e-12,-3.347244404482e-12,9.4877307905282e-14,-1.2474343917356e-13,-0.0014527755681218,0.0014527755703942,-0.0014527755703457,0.0014527755681692,-0.0014527755681929,0.0014527755703196,-0.0014527755704171,0.0014527755680964,-0.0013664342437684,0.0013664342501979,-0.001366434250288,0.0013664342436618,-9.6763632172753e-14,1.2276342613219e-13,-2.9011607832942e-13,3.1770282380858e-13,-0.0014035412117506,0.001403541211776,-0.0014527755693781,0.0014527755691304,-0.0014527755691831,0.0014527755693344,-0.0014527755693075,0.0014527755692043,-0.0014527755691124,0.0014527755694084,-0.0013664342472343,0.0013664342467477,-0.0013664342466485,0.0013664342473518,-0.0013664342469958,0.0013664342470005,-0.0013664342467869,0.0013664342472221,-3.4478388179496e-12,3.2227708406807e-12,-0.0014035412118779,0.0014035412116505,1.8076147786093e-13,-4.1957471169233e-13,-0.0014527755703824,0.0014527755681323,-0.0014527755705817,0.001452775567933,-0.0014527755681577,0.0014527755703564,-0.0014527755683574,0.0014527755701565,-0.0013664342439547,0.0013664342500644,-0.0013664342504836,0.0013664342435369,0.69236326459233,0.69953054327955,114808,2744,0.0058309375343412,0.0058309375343663,0.0058309375343702,26.919170751165,26.930399122888,-2.4646633990683e-05,-2.4646633990683e-05,-2.4646633990683e-05,1059047.4359282,0.017647374947929
31019200,0.99695713602577,0.017217020793044,0.0057390069309961,0.0057390069310221,0.0057390069310261,-0.0014044892358565,0.001404489235831,3.3470421269988e-12,-3.3708819477665e-12,9.4906145489387e-14,-1.2476949720104e-13,-0.001453725756512,0.0014537257588002,-0.0014537257587517,0.0014537257565594,-0.0014537257565831,0.0014537257587256,-0.0014537257588231,0.0014537257564866,-0.0013673836139365,0.0013673836204123,-0.0013673836205023,0.0013673836138299,-9.6788925517705e-14,1.2279283699841e-13,-2.9015019493424e-13,3.1771311761176e-13,-0.0014044892358371,0.0014044892358625,-0.0014537257577762,0.0014537257575285,-0.0014537257575812,0.0014537257577324,-0.0014537257577055,0.0014537257576024,-0.0014537257575105,0.0014537257578065,-0.0013673836174256,0.001367383616939,-0.0013673836168398,0.0013673836175432,-0.0013673836171871,0.0013673836171919,-0.0013673836169781,0.0013673836174134,-3.4714703313172e-12,3.2464036481264e-12,-0.0014044892359644,0.001404489235737,1.8078494773218e-13,-4.1959588751601e-13,-0.0014537257587883,0.0014537257565225,-0.0014537257589877,0.0014537257563232,-0.0014537257565479,0.0014537257587624,-0.0014537257567476,0.0014537257585624,-0.0013673836141229,0.0013673836202788,-0.001367383620698,0.001367383613705,0.7121583038787,0.7880274466112,114808,2744,0.005834864702634,0.0058348647026592,0.0058348647026631,27.316031394949,27.327270423448,-2.1471748840408e-05,-2.1471748840408e-05,-2.1471748840408e-05,1055044.2559544,0.017659364284706
31219200,0.9970841835288,0.017219321207487,0.0057397737358104,0.0057397737358364,0.0057397737358403,-0.0014057518081325,0.0014057518081072,3.3706176494298e-12,-3.3945052052972e-12,9.5026412725232e-14,-1.2467598535188e-13,-0.0014549835765196,0.0014549835788262,-0.0014549835787785,0.0014549835765695,-0.0014549835765931,0.0014549835787512,-0.0014549835788489,0.001454983576497,-0.0013686520943654,0.0013686521008856,-0.0013686521009756,0.0013686520942578,-9.6319822201431e-14,1.232964098499e-13,-2.897277372518e-13,3.1823610163495e-13,-0.0014057518081127,0.0014057518081388,-0.0014549835777999,0.0014549835775537,-0.0014549835776053,0.0014549835777565,-0.0014549835777278,0.0014549835776268,-0.001454983577532,0.0014549835778303,-0.0013686520978718,0.0013686520973838,-0.0013686520972861,0.0013686520979878,-0.0013686520976331,0.0013686520976378,-0.0013686520974243,0.001368652097861,-3.4949020566706e-12,3.2701799805993e-12,-0.0014057518082403,0.001405751808013,1.8097011854593e-13,-4.1948547912421e-13,-0.00145498357882,0.0014549835765382,-0.001454983579019,0.0014549835763391,-0.001454983576563,0.0014549835787938,-0.0014549835767628,0.0014549835785938,-0.0013686520945465,0.0013686521007486,-0.0013686521011673,0.0013686520941281,0.74546027795497,0.92755087613906,114808,2744,0.0058400948772759,0.0058400948773004,0.0058400948773042,27.865049107554,27.880540950448,-1.7079607139568e-05,-1.7079607139568e-05,-1.7079607139568e-05,1046848.7544615,0.017675331693174
31419200,0.997209941141,0.017221495204895,0.0057404984016129,0.0057404984016389,0.0057404984016429,-0.0014070735331962,0.0014070735331707,3.3943068053379e-12,-3.4181550013094e-12,9.4964522842028e-14,-1.2475336534091e-13,-0.0014562973225235,0.0014562973248435,-0.0014562973247948,0.0014562973225713,-0.0014562973225945,0.0014562973247685,-0.0014562973248665,0.0014562973224983,-0.0013699774244234,0.0013699774309917,-0.0013699774310817,0.0013699774243172,-9.6768808485208e-14,1.2284595302281e-13,-2.9019101721656e-13,3.1778858589449e-13,-0.0014070735331769,0.0014070735332023,-0.0014562973238053,0.0014562973235574,-0.0014562973236102,0.001456297323761,-0.0014562973237345,0.0014562973236315,-0.0014562973235395,0.0014562973238357,-0.0013699774279597,0.001369977427473,-0.0013699774273736,0.0013699774280771,-0.0013699774277197,0.0013699774277243,-0.0013699774275103,0.0013699774279459,-3.5187396519778e-12,3.293668115994e-12,-0.0014070735333042,0.0014070735330768,1.8085882782813e-13,-4.1963959206322e-13,-0.0014562973248331,0.0014562973225358,-0.0014562973250322,0.0014562973223365,-0.001456297322561,0.0014562973248072,-0.0014562973227607,0.0014562973246073,-0.0013699774246094,0.0013699774308574,-0.0013699774312771,0.0013699774241911,0.71242628312218,0.75656123134634,114808,2744,0.005845570053614,0.0058455700536393,0.0058455700536431,28.433056729799,28.449153491725,-1.2535546161604e-05,-1.2535546161604e-05,-1.2535546161604e-05,1033862.6289086,0.017692047414134
31619200,0.99733422586626,0.017223545889569,0.005741181963171,0.005741181963197,0.005741181963201,-0.0014083520039719,0.0014083520039465,3.417960487146e-12,-3.4417782817024e-12,9.4958857688808e-14,-1.2477791606149e-13,-0.0014575765154227,0.0014575765177585,-0.00145757651771,0.0014575765154704,-0.001457576515494,0.0014575765176838,-0.0014575765177814,0.0014575765153976,-0.0013712545622443,0.0013712545688588,-0.0013712545689488,0.0013712545621377,-9.6778161140667e-14,1.2286530537279e-13,-2.9018948785152e-13,3.178477017356e-13,-0.0014083520039526,0.001408352003978,-0.0014575765167114,0.0014575765164637,-0.0014575765165164,0.0014575765166676,-0.0014575765166405,0.0014575765165376,-0.0014575765164454,0.0014575765167417,-0.0013712545658026,0.0013712545653157,-0.0013712545652165,0.00137125456592,-0.0013712545655639,0.0013712545655686,-0.0013712545653548,0.0013712545657903,-3.5423784886511e-12,3.3173090702497e-12,-0.0014083520040799,0.0014083520038525,1.8087806253464e-13,-4.1967423806363e-13,-0.0014575765177471,0.0014575765154341,-0.0014575765179465,0.0014575765152347,-0.0014575765154593,0.0014575765177212,-0.0014575765156591,0.0014575765175211,-0.0013712545624303,0.0013712545687249,-0.0013712545691443,0.0013712545620122,0.68057765200658,0.60478169580822,114808,2744,0.0058508659643089,0.005850865964334,0.0058508659643379,29.001633344116,29.017766033003,-7.9869332470744e-06,-7.9869332470744e-06,-7.9869332470744e-06,1029722.3049139,0.017708216333321
31819200,0.99745476161033,0.017225467373664,0.0057418224578694,0.0057418224578954,0.0057418224578994,-0.0014090026666357,0.0014090026666103,3.4415932109545e-12,-3.4654009575642e-12,9.4968864850927e-14,-1.2478118802036e-13,-0.0014582380318871,0.0014582380342387,-0.0014582380341901,0.0014582380319348,-0.0014582380319584,0.0014582380341639,-0.0014582380342615,0.001458238031862,-0.0013718982942146,0.0013718983008754,-0.0013718983009654,0.001371898294108,-9.6787043222267e-14,1.2286954053752e-13,-2.9021542823553e-13,3.1786287774257e-13,-0.0014090026666164,0.0014090026666418,-0.0014582380331836,0.0014582380329359,-0.0014582380329885,0.0014582380331398,-0.0014582380331128,0.0014582380330098,-0.0014582380329176,0.0014582380332139,-0.001371898297796,0.0013718982973091,-0.0013718982972099,0.0013718982979135,-0.0013718982975573,0.0013718982975621,-0.0013718982973483,0.0013718982977838,-3.5660057962648e-12,3.340936701383e-12,-0.0014090026667437,0.0014090026665163,1.8089035627673e-13,-4.1970411950372e-13,-0.0014582380342272,0.0014582380318984,-0.0014582380344266,0.0014582380316989,-0.0014582380319236,0.0014582380342013,-0.0014582380321234,0.0014582380340012,-0.0013718982944007,0.0013718983007416,-0.0013718983011609,0.0013718982939826,0.65805651526539,0.50727485925725,114808,2744,0.0058535611911251,0.0058535611911502,0.0058535611911541,29.264867883309,29.272472494998,-5.8810569335257e-06,-5.8810569335257e-06,-5.8810569335257e-06,1033375.4259466,0.017716445475156
32019200,0.99756995969873,0.017227474593484,0.0057424915311426,0.0057424915311686,0.0057424915311726,-0.0014091557655018,0.0014091557654786,3.4662538436185e-12,-3.4877623815153e-12,9.6368249145734e-14,-1.2337224576846e-13,-0.0014584029612123,0.0014584029635804,-0.0014584029635288,0.0014584029612596,-0.0014584029612825,0.0014584029635067,-0.0014584029636003,0.0014584029611903,-0.0013720485411475,0.0013720485478541,-0.0013720485479421,0.0013720485410466,-9.6015007983884e-14,1.235955183594e-13,-2.8932392605854e-13,3.1866850019018e-13,-0.0014091557654828,0.00140915576551,-0.0014584029625149,0.0014584029622717,-0.0014584029623213,0.0014584029624731,-0.0014584029624443,0.0014584029623435,-0.0014584029622516,0.0014584029625476,-0.0013720485447435,0.0013720485442615,-0.0013720485441682,0.0013720485448665,-0.0013720485445106,0.00137204854452,-0.0013720485443022,0.0013720485447353,-3.5903364941552e-12,3.363670036307e-12,-0.0014091557656118,0.001409155765383,1.7998467806222e-13,-4.2045280251432e-13,-0.0014584029635673,0.0014584029612247,-0.0014584029637696,0.0014584029610281,-0.0014584029612496,0.0014584029635423,-0.0014584029614494,0.0014584029633413,-0.0013720485413344,0.001372048547715,-0.0013720485481388,0.0013720485409156,0.71766337299438,0.79603683395703,114808,2744,0.0058541953410319,0.0058541953410575,0.0058541953410616,29.280893414237,29.281459200527,-5.7528526861017e-06,-5.7528526861017e-06,-5.7528526861017e-06,1040450.9596569,0.017718381798747
32219200,0.99768000912247,0.01722943483594,0.0057431449452947,0.0057431449453207,0.0057431449453246,-0.0014093516041353,0.0014093516041101,3.4888967879215e-12,-3.512558124367e-12,9.5127400334064e-14,-1.2465966232112e-13,-0.0014585952694009,0.0014585952717841,-0.0014585952717352,0.0014585952694486,-0.0014585952694722,0.0014585952717094,-0.0014585952718066,0.001458595269376,-0.0013722477222036,0.0013722477289568,-0.0013722477290466,0.0013722477220972,-9.673810354087e-14,1.2295277328894e-13,-2.9008760861092e-13,3.1787228921976e-13,-0.001409351604116,0.0014093516041416,-0.0014585952707128,0.0014585952704655,-0.0014585952705179,0.0014585952706692,-0.001458595270642,0.0014585952705393,-0.0014585952704471,0.0014585952707434,-0.0013722477258306,0.0013722477253444,-0.0013722477252458,0.0013722477259488,-0.0013722477255926,0.0013722477255975,-0.0013722477253833,0.0013722477258187,-3.6133102629106e-12,3.3880999370491e-12,-0.0014093516042435,0.0014093516040159,1.8071194996221e-13,-4.1976147069285e-13,-0.0014585952717723,0.0014585952694122,-0.0014585952719719,0.0014585952692129,-0.0014585952694374,0.0014585952717465,-0.0014585952696371,0.0014585952715463,-0.00137224772239,0.001372247728823,-0.0013722477292425,0.0013722477219719,0.73340850527315,0.85840252638019,114808,2744,0.0058550066185608,0.005855006618586,0.0058550066185899,29.290176893135,29.290445906056,-5.6785848549193e-06,-5.6785848549193e-06,-5.6785848549193e-06,1033697.2473,0.01772085857369
32419200,0.99778513502863,0.017231353969576,0.0057437846565067,0.0057437846565327,0.0057437846565366,-0.0014095534552231,0.0014095534551978,3.5125537398502e-12,-3.5361539655707e-12,9.5115700208958e-14,-1.2468508801497e-13,-0.001458790370088,0.001458790372487,-0.0014587903724381,0.0014587903701357,-0.0014587903701593,0.0014587903724123,-0.0014587903725095,0.0014587903700632,-0.0013724544963457,0.0013724545031453,-0.0013724545032351,0.0013724544962395,-9.6750279639487e-14,1.229550673365e-13,-2.9006113883132e-13,3.1784793702253e-13,-0.0014095534552038,0.0014095534552293,-0.0014587903714079,0.0014587903711605,-0.0014587903712129,0.0014587903713642,-0.001458790371337,0.0014587903712343,-0.0014587903711421,0.0014587903714384,-0.0013724544999961,0.0013724544995097,-0.0013724544994108,0.0013724545001139,-0.0013724544997579,0.0013724544997629,-0.0013724544995488,0.0013724544999843,-3.6369239238824e-12,3.4117330974252e-12,-0.0014095534553312,0.0014095534551037,1.8074277255001e-13,-4.1967876733703e-13,-0.0014587903724752,0.0014587903700993,-0.0014587903726748,0.0014587903699,-0.0014587903701245,0.0014587903724493,-0.0014587903703242,0.0014587903722492,-0.001372454496532,0.0013724545030113,-0.0013724545034309,0.0013724544961139,0.75109424210985,0.92292026124148,114808,2744,0.0058558428112707,0.0058558428112959,0.0058558428112998,29.299176895143,29.299432611585,-5.6065848388541e-06,-5.6065848388541e-06,-5.6065848388541e-06,1024794.1059865,0.017723411375835
32619200,0.99788529931128,0.017233046865456,0.0057443489551335,0.0057443489551595,0.0057443489551634,-0.0014096663695691,0.0014096663695441,3.5362598354982e-12,-3.5596886479121e-12,9.5136075275852e-14,-1.2466356661361e-13,-0.001458896361943,0.0014588963643577,-0.0014588963643083,0.0014588963619905,-0.0014588963620138,0.0014588963642837,-0.00145889636438,0.0014588963619179,-0.0013725688692003,0.0013725688760457,-0.0013725688761356,0.0013725688690935,-9.6733574267472e-14,1.2298418409407e-13,-2.8996302418159e-13,3.178649365032e-13,-0.00140966636955,0.0014096663695757,-0.0014588963632706,0.0014588963630234,-0.0014588963630754,0.0014588963632268,-0.0014588963631993,0.0014588963630966,-0.0014588963630052,0.0014588963633015,-0.0013725688728733,0.0013725688723876,-0.0013725688722882,0.0013725688729915,-0.0013725688726351,0.00137256887264,-0.0013725688724263,0.0013725688728621,-3.6605324967743e-12,3.4353761104415e-12,-0.0014096663696774,0.0014096663694499,1.807015973373e-13,-4.1965506217885e-13,-0.0014588963643455,0.0014588963619543,-0.0014588963645454,0.0014588963617552,-0.0014588963619792,0.0014588963643199,-0.0014588963621789,0.0014588963641201,-0.0013725688693862,0.0013725688759122,-0.0013725688763317,0.001372568868968,0.69653885072897,0.65456196929493,114808,2744,0.0058563105781134,0.005856310578139,0.0058563105781426,29.263017903199,29.262011297924,-5.8958567744055e-06,-5.8958567744055e-06,-5.8958567744055e-06,1014458.1708992,0.017724839421213
32819200,0.99798062508368,0.017234534874381,0.0057448449581083,0.0057448449581343,0.0057448449581382,-0.0014096679713069,0.0014096679712816,3.5597698397102e-12,-3.583424147648e-12,9.5052002591457e-14,-1.2475038749071e-13,-0.0014589033833177,0.0014589033857481,-0.0014589033856991,0.0014589033833655,-0.0014589033833894,0.0014589033856732,-0.0014589033857709,0.001458903383293,-0.0013725657196765,0.0013725657265684,-0.0013725657266587,0.0013725657195702,-9.6854099997258e-14,1.2284812942691e-13,-2.9013948937894e-13,3.1764994307111e-13,-0.0014096679712876,0.001409667971313,-0.0014589033846527,0.0014589033844053,-0.0014589033844582,0.0014589033846095,-0.001458903384582,0.0014589033844793,-0.0014589033843875,0.0014589033846833,-0.0013725657233731,0.0013725657228858,-0.0013725657227879,0.0013725657234906,-0.0013725657231346,0.0013725657231397,-0.001372565722926,0.0013725657233609,-3.6841320699412e-12,3.4590011828294e-12,-0.001409667971415,0.0014096679711875,1.8070195026769e-13,-4.1960482841934e-13,-0.001458903385736,0.0014589033833287,-0.0014589033859356,0.0014589033831292,-0.0014589033833535,0.0014589033857103,-0.0014589033835536,0.0014589033855102,-0.0013725657198625,0.0013725657264345,-0.0013725657268543,0.0013725657194446,0.64446134112217,0.41730343038392,114808,2744,0.0058563171755972,0.0058563171756221,0.0058563171756261,29.204624859281,29.202977733998,-6.3630011257491e-06,-6.3630011257491e-06,-6.3630011257491e-06,1016422.5243135,0.017724859733068
33019200,0.99807135637528,0.017236065822882,0.0057453552742753,0.0057453552743013,0.0057453552743053,-0.0014096180593904,0.0014096180593651,3.5834086387008e-12,-3.6070163224885e-12,9.5098976914696e-14,-1.2469215397558e-13,-0.0014588667696955,0.0014588667721416,-0.0014588667720927,0.0014588667697432,-0.0014588667697667,0.0014588667720669,-0.0014588667721642,0.0014588667696706,-0.0013725118928008,0.0013725118997391,-0.001372511899829,0.0013725118926945,-9.6731986080695e-14,1.2296489056582e-13,-2.8997437677595e-13,3.1778364486896e-13,-0.001409618059371,0.0014096180593966,-0.0014588667710387,0.0014588667707914,-0.0014588667708438,0.0014588667709951,-0.0014588667709678,0.0014588667708651,-0.001458866770773,0.0014588667710692,-0.0013725118965205,0.0013725118960343,-0.0013725118959353,0.0013725118966385,-0.0013725118962824,0.0013725118962873,-0.0013725118960732,0.0013725118965087,-3.7078017586132e-12,3.4825718157039e-12,-0.0014096180594986,0.001409618059271,1.8064565786974e-13,-4.1962853357752e-13,-0.0014588667721296,0.0014588667697065,-0.0014588667723293,0.0014588667695072,-0.0014588667697317,0.0014588667721038,-0.0014588667699315,0.0014588667719037,-0.0013725118929871,0.0013725118996053,-0.0013725119000249,0.0013725118925689,0.69524133928264,0.67416763273613,114808,2744,0.0058561103585999,0.0058561103586251,0.005856110358629,29.145618246845,29.143944170073,-6.8350540252397e-06,-6.8350540252397e-06,-6.8350540252397e-06,1027991.8117733,0.017724228525467
33219200,0.99815772743131,0.017237595782028,0.0057458652606572,0.0057458652606832,0.0057458652606872,-0.00140962134984,0.0014096213498148,3.6070157042859e-12,-3.6306472660206e-12,9.5079145948827e-14,-1.2470053607246e-13,-0.0014588715606378,0.0014588715630996,-0.0014588715630507,0.0014588715606854,-0.001458871560709,0.001458871563025,-0.0014588715631223,0.0014588715606128,-0.0013725163015406,0.0013725163085252,-0.0013725163086151,0.0013725163014343,-9.6769984919857e-14,1.2291589206269e-13,-2.8999302326514e-13,3.177255289973e-13,-0.0014096213498207,0.0014096213498462,-0.0014588715619888,0.0014588715617415,-0.0014588715617939,0.0014588715619452,-0.001458871561918,0.0014588715618152,-0.0014588715617232,0.0014588715620193,-0.0013725163052836,0.0013725163047973,-0.0013725163046983,0.0013725163054014,-0.0013725163050455,0.0013725163050503,-0.0013725163048364,0.0013725163052718,-3.731387714549e-12,3.5062235637475e-12,-0.0014096213499482,0.0014096213497207,1.8066218677656e-13,-4.1957359407941e-13,-0.0014588715630876,0.0014588715606488,-0.0014588715632872,0.0014588715604495,-0.0014588715606739,0.0014588715630618,-0.0014588715608736,0.0014588715628618,-0.001372516301727,0.0013725163083914,-0.0013725163088109,0.0013725163013089,0.72922789282199,0.83165816985166,114808,2744,0.0058561239983793,0.0058561239984045,0.0058561239984084,29.086585783123,29.084910606147,-7.3073137350192e-06,-7.3073137350192e-06,-7.3073137350192e-06,1027423.9874737,0.017724270124272
33419200,0.99824128685262,0.017239104177144,0.0057463680590292,0.0057463680590552,0.0057463680590592,-0.0014102001155399,0.0014102001155147,3.6306448675415e-12,-3.6542736991206e-12,9.5072851219252e-14,-1.24692117212e-13,-0.0014594421993807,0.0014594422018583,-0.0014594422018095,0.0014594421994284,-0.001459442199452,0.0014594422017837,-0.001459442201881,0.0014594421993558,-0.0013731005765195,0.0013731005835503,-0.0013731005836402,0.0013731005764131,-9.6764161568345e-14,1.2290724526802e-13,-2.8997731786258e-13,3.1770747072544e-13,-0.0014102001155206,0.0014102001155461,-0.0014594422007396,0.0014594422004923,-0.0014594422005448,0.001459442200696,-0.0014594422006688,0.0014594422005661,-0.001459442200474,0.0014594422007701,-0.0013731005802855,0.0013731005797993,-0.0013731005797003,0.0013731005804034,-0.0013731005800475,0.0013731005800523,-0.0013731005798384,0.0013731005802737,-3.755011228161e-12,3.5298550771151e-12,-0.0014102001156481,0.0014102001154206,1.8064789309557e-13,-4.1955441819464e-13,-0.0014594422018464,0.0014594421993917,-0.0014594422020459,0.0014594421991924,-0.0014594421994169,0.0014594422018205,-0.0014594421996166,0.0014594422016205,-0.0013731005767058,0.0013731005834166,-0.001373100583836,0.0013731005762878,0.74278651077102,0.88146625124173,114808,2744,0.0058585214983705,0.0058585214983958,0.0058585214983996,29.311157089206,29.317407801684,-5.510743286354e-06,-5.510743286354e-06,-5.510743286354e-06,1019475.4488656,0.017731589858037
33619200,0.99832242543562,0.017240569649286,0.0057468565497435,0.0057468565497695,0.0057468565497734,-0.0014109336210781,0.0014109336210529,3.6542724931602e-12,-3.6779066831464e-12,9.5061879472629e-14,-1.2468832321026e-13,-0.0014601678297512,0.0014601678322445,-0.0014601678321957,0.0014601678297988,-0.0014601678298224,0.0014601678321699,-0.0014601678322672,0.0014601678297262,-0.0013738383661222,0.0013738383731994,-0.0013738383732892,0.0013738383660159,-9.6763102777161e-14,1.2289377509129e-13,-2.8997425913249e-13,3.1768876541452e-13,-0.0014109336210588,0.0014109336210843,-0.0014601678311179,0.0014601678308706,-0.0014601678309231,0.0014601678310743,-0.0014601678310471,0.0014601678309444,-0.0014601678308523,0.0014601678311484,-0.0013738383699115,0.0013738383694252,-0.0013738383693262,0.0013738383700293,-0.0013738383696734,0.0013738383696782,-0.0013738383694643,0.0013738383698997,-3.7786369769988e-12,3.5534895609802e-12,-0.0014109336211863,0.0014109336209588,1.806419521006e-13,-4.1953788928782e-13,-0.0014601678322326,0.0014601678297621,-0.0014601678324321,0.0014601678295628,-0.0014601678297873,0.0014601678322067,-0.001460167829987,0.0014601678320067,-0.0013738383663086,0.0013738383730657,-0.0013738383734851,0.0013738383658906,0.74303040657055,0.86738557344358,114808,2744,0.0058615599629263,0.0058615599629515,0.0058615599629554,29.612625367576,29.621149010763,-3.0989970593892e-06,-3.0989970593892e-06,-3.0989970593892e-06,1010666.3108339,0.017740866716084
33819200,0.99840115476901,0.017241996122142,0.0057473320406955,0.0057473320407215,0.0057473320407255,-0.0014116635691569,0.0014116635691316,3.6778994083227e-12,-3.7015396004233e-12,9.5049966348516e-14,-1.2468386746402e-13,-0.0014608915097394,0.0014608915122485,-0.0014608915121996,0.001460891509787,-0.0014608915098107,0.0014608915121738,-0.0014608915122712,0.0014608915097144,-0.0013745716355332,0.0013745716426566,-0.0013745716427465,0.0013745716354268,-9.6757749999508e-14,1.2288318717945e-13,-2.8996908282003e-13,3.1767800103748e-13,-0.0014116635691376,0.0014116635691631,-0.001460891511114,0.0014608915108667,-0.0014608915109192,0.0014608915110704,-0.0014608915110432,0.0014608915109404,-0.0014608915108484,0.0014608915111445,-0.0013745716393456,0.0013745716388593,-0.0013745716387603,0.0013745716394634,-0.0013745716391075,0.0013745716391123,-0.0013745716388985,0.0013745716393338,-3.8022587259588e-12,3.5771272212188e-12,-0.001411663569265,0.0014116635690376,1.8064224620926e-13,-4.1952212506352e-13,-0.0014608915122365,0.0014608915097503,-0.001460891512436,0.001460891509551,-0.0014608915097755,0.0014608915122107,-0.0014608915099752,0.0014608915120106,-0.0013745716357195,0.001374571642523,-0.0013745716429423,0.0013745716353016,0.74517767305818,0.86413168163844,114808,2744,0.0058645836658891,0.0058645836659143,0.0058645836659181,29.916267243684,29.924890219843,-6.6986205052529e-07,-6.6986205052529e-07,-6.6986205052529e-07,1003435.8428677,0.017750098656457
34019200,0.99847747925797,0.017243339506353,0.0057477798354324,0.0057477798354584,0.0057477798354623,-0.0014123859687462,0.001412385968721,3.701522042366e-12,-3.7251767613666e-12,9.503428759955e-14,-1.2468344100646e-13,-0.0014616086403315,0.0014616086428563,-0.0014616086428075,0.0014616086403791,-0.0014616086404027,0.0014616086427816,-0.001461608642879,0.0014616086403065,-0.001375295996764,0.0013752960039337,-0.0013752960040236,0.0013752959966576,-9.6754867734618e-14,1.2286971700272e-13,-2.8996890635484e-13,3.1766847191683e-13,-0.0014123859687269,0.0014123859687524,-0.0014616086417139,0.0014616086414665,-0.001461608641519,0.0014616086416703,-0.0014616086416431,0.0014616086415403,-0.0014616086414483,0.0014616086417444,-0.0013752960005995,0.0013752960001132,-0.0013752960000142,0.0013752960007173,-0.0013752960003615,0.0013752960003663,-0.0013752960001524,0.0013752960005877,-3.8258961214997e-12,3.6007499407374e-12,-0.0014123859688544,0.0014123859686269,1.806305406845e-13,-4.1952447793282e-13,-0.0014616086428443,0.0014616086403423,-0.0014616086430438,0.001461608640143,-0.0014616086403675,0.0014616086428184,-0.0014616086405672,0.0014616086426184,-0.0013752959969504,0.0013752960038001,-0.0013752960042194,0.0013752959965324,0.72426543357353,0.7570419323305,114808,2744,0.0058675760784578,0.005867576078483,0.0058675760784869,30.22000112963,30.228631428922,1.7600090370373e-06,1.7600090370373e-06,1.7600090370373e-06,997103.2162342,0.017759235199554
34219200,0.99855267893688,0.017244629003054,0.0057482096676661,0.0057482096676922,0.0057482096676961,-0.0014136731198528,0.0014136731198276,3.7251667547789e-12,-3.7488089989768e-12,9.5026821260546e-14,-1.2467161783824e-13,-0.0014628924046837,0.0014628924072243,-0.0014628924071755,0.0014628924047313,-0.001462892404755,0.0014628924071496,-0.001462892407247,0.0014628924046587,-0.0013765850336818,0.0013765850408977,-0.0013765850409876,0.0013765850335754,-9.6746691513807e-14,1.2285854087356e-13,-2.8997325916304e-13,3.1766070744814e-13,-0.0014136731198335,0.001413673119859,-0.0014628924060741,0.0014628924058267,-0.0014628924058792,0.0014628924060304,-0.0014628924060032,0.0014628924059005,-0.0014628924058084,0.0014628924061045,-0.0013765850375405,0.0013765850370542,-0.0013765850369551,0.0013765850376582,-0.0013765850373024,0.0013765850373072,-0.0013765850370933,0.0013765850375286,-3.8495337817383e-12,3.6243886597673e-12,-0.001413673119961,0.0014136731197335,1.8063454056231e-13,-4.1951824282918e-13,-0.0014628924072123,0.0014628924046946,-0.0014628924074118,0.0014628924044952,-0.0014628924047198,0.0014628924071865,-0.0014628924049195,0.0014628924069864,-0.0013765850338681,0.0013765850407641,-0.0013765850411834,0.0013765850334501,0.7059434694295,0.67034958677107,114808,2744,0.0058729078256613,0.0058729078256865,0.0058729078256904,30.830558554287,30.847784937193,6.644468434296e-06,6.644468434296e-06,6.644468434296e-06,994964.02878243,0.017775514557958
34419200,0.99862676246204,0.017245904475463,0.0057486348251357,0.0057486348251617,0.0057486348251656,-0.0014150071650566,0.0014150071650313,3.748805681523e-12,-3.7724488735319e-12,9.5019403058858e-14,-1.2466450776133e-13,-0.0014642293105137,0.0014642293130701,-0.0014642293130213,0.0014642293105614,-0.001464229310585,0.0014642293129955,-0.0014642293130928,0.0014642293104887,-0.001377918095015,0.0013779181022773,-0.0013779181023671,0.0013779180949086,-9.6747867948456e-14,1.2284336486659e-13,-2.8997455324115e-13,3.1766164859586e-13,-0.0014150071650373,0.0014150071650627,-0.0014642293119119,0.0014642293116645,-0.0014642293117171,0.0014642293118683,-0.0014642293118411,0.0014642293117383,-0.0014642293116463,0.0014642293119424,-0.0013779180988969,0.0013779180984106,-0.0013779180983115,0.0013779180990147,-0.0013779180986588,0.0013779180986635,-0.0013779180984497,0.001377918098885,-3.8731679420839e-12,3.6480329962725e-12,-0.0014150071651647,0.0014150071649372,1.8063795222279e-13,-4.1951641935547e-13,-0.0014642293130581,0.0014642293105246,-0.0014642293132575,0.0014642293103252,-0.0014642293105498,0.0014642293130322,-0.0014642293107495,0.0014642293128322,-0.0013779180952014,0.0013779181021436,-0.001377918102563,0.0013779180947834,0.70867956773109,0.68757176325041,114808,2744,0.005878433760477,0.0058784337605022,0.0058784337605061,31.474229222596,31.492527235391,1.179383378077e-05,1.179383378077e-05,1.179383378077e-05,997123.18722309,0.017792387251654
34619200,0.99869959661012,0.017247208173977,0.005749069391307,0.005749069391333,0.005749069391337,-0.0014163475468764,0.0014163475468511,3.7724451588017e-12,-3.7960884622503e-12,9.5013261357696e-14,-1.2465547127268e-13,-0.0014655717042413,0.0014655717068134,-0.0014655717067646,0.0014655717042889,-0.0014655717043126,0.0014655717067388,-0.0014655717068361,0.0014655717042163,-0.0013792587020631,0.0013792587093717,-0.0013792587094615,0.0013792587019568,-9.6729103815805e-14,1.2284754120959e-13,-2.8996908282003e-13,3.1767453055527e-13,-0.0014163475468571,0.0014163475468826,-0.0014655717056474,0.0014655717054,-0.0014655717054525,0.0014655717056037,-0.0014655717055765,0.0014655717054738,-0.0014655717053817,0.0014655717056778,-0.0013792587059682,0.0013792587054819,-0.0013792587053828,0.001379258706086,-0.0013792587057301,0.0013792587057349,-0.0013792587055211,0.0013792587059563,-3.8968142785281e-12,3.6716651272683e-12,-0.0014163475469845,0.001416347546757,1.8063395234498e-13,-4.1952753666291e-13,-0.0014655717068014,0.0014655717042521,-0.0014655717070009,0.0014655717040527,-0.0014655717042774,0.0014655717067755,-0.0014655717044771,0.0014655717065755,-0.0013792587022495,0.0013792587092381,-0.0013792587096574,0.0013792587018316,0.7361373692354,0.81674655408875,114808,2744,0.0058839859238858,0.005883985923911,0.0058839859239148,32.118912421328,32.137269533589,1.6951299370626e-05,1.6951299370626e-05,1.6951299370626e-05,998336.87492686,0.01780934026573
34819200,0.99877216497115,0.017248518321116,0.0057495061070201,0.0057495061070461,0.00574950610705,-0.0014182623506659,0.0014182623506406,3.7960786528073e-12,-3.8197501248577e-12,9.4991967201232e-14,-1.2468797763258e-13,-0.0014674805787632,0.0014674805813511,-0.0014674805813023,0.0014674805788108,-0.0014674805788344,0.0014674805812764,-0.0014674805813737,0.0014674805787382,-0.0013811774434386,0.0013811774507935,-0.0013811774508833,0.0013811774433321,-9.6733397802274e-14,1.2285189401779e-13,-2.9000984628062e-13,3.1765888397444e-13,-0.0014182623506466,0.001418262350672,-0.0014674805801772,0.0014674805799297,-0.0014674805799823,0.0014674805801335,-0.0014674805801063,0.0014674805800035,-0.0014674805799115,0.0014674805802076,-0.0013811774473668,0.0013811774468804,-0.0013811774467815,0.0013811774474847,-0.0013811774471285,0.0013811774471333,-0.0013811774469195,0.0013811774473549,-3.9204417920179e-12,3.6953332277535e-12,-0.001418262350774,0.0014182623505465,1.8064130506154e-13,-4.195480066258e-13,-0.0014674805813391,0.001467480578774,-0.0014674805815385,0.0014674805785746,-0.0014674805787992,0.0014674805813132,-0.0014674805789989,0.0014674805811132,-0.0013811774436248,0.0013811774506598,-0.001381177451079,0.0013811774432069,0.74236045421338,0.83758763975058,114808,2744,0.0058919174684906,0.0058919174685157,0.0058919174685196,33.048684149604,33.075063064154,2.4389473196829e-05,2.4389473196829e-05,2.4389473196829e-05,993424.73691901,0.0178335587747
35019200,0.9988446208302,0.017249788668217,0.0057499295560536,0.0057499295560796,0.0057499295560835,-0.0014203763157756,0.0014203763157503,3.8197354420572e-12,-3.8433973178934e-12,9.5005221047255e-14,-1.2467898526023e-13,-0.0014695903405913,0.001469590343195,-0.0014695903431461,0.0014695903406389,-0.0014695903406626,0.0014695903431203,-0.0014695903432176,0.0014695903405663,-0.00138329312799,0.0013832931353912,-0.001383293135481,0.0013832931278836,-9.6723809859885e-14,1.2286765824209e-13,-2.9000137595115e-13,3.1770235323472e-13,-0.0014203763157562,0.0014203763157817,-0.001469590342013,0.0014695903417656,-0.0014695903418181,0.0014695903419694,-0.0014695903419422,0.0014695903418394,-0.0014695903417473,0.0014695903420434,-0.0013832931319415,0.001383293131455,-0.001383293131356,0.0013832931320592,-0.0013832931317032,0.0013832931317081,-0.0013832931314942,0.0013832931319296,-3.9441075102229e-12,3.7189704468292e-12,-0.0014203763158837,0.0014203763156562,1.8066071623325e-13,-4.1956306498931e-13,-0.0014695903431828,0.001469590340602,-0.0014695903433823,0.0014695903404025,-0.0014695903406272,0.0014695903431569,-0.0014695903408269,0.0014695903429569,-0.0013832931281764,0.0013832931352576,-0.0013832931356769,0.0013832931277584,0.72136486290522,0.73255525447328,114808,2744,0.005900673892077,0.0059006738921022,0.005900673892106,34.080356318205,34.109752256169,3.2642850545644e-05,3.2642850545644e-05,3.2642850545644e-05,988592.43317639,0.017860296777734
35219200,0.99891668871037,0.017251017839901,0.0057503392799484,0.0057503392799744,0.0057503392799784,-0.001422472796577,0.0014224727965517,3.8433894528993e-12,-3.8670459146086e-12,9.5015620201076e-14,-1.2467600741003e-13,-0.001471688433117,0.0014716884357365,-0.0014716884356877,0.0014716884331646,-0.0014716884331883,0.0014716884356618,-0.0014716884357592,0.001471688433092,-0.0013853883876471,0.0013853883950946,-0.0013853883951845,0.0013853883875407,-9.6751397252403e-14,1.2284777649652e-13,-2.9003249264761e-13,3.1770752954717e-13,-0.0014224727965577,0.0014224727965832,-0.0014716884345467,0.0014716884342992,-0.0014716884343518,0.0014716884345031,-0.0014716884344759,0.0014716884343731,-0.0014716884342811,0.0014716884345771,-0.0013853883916218,0.0013853883911353,-0.0013853883910362,0.0013853883917395,-0.0013853883913835,0.0013853883913883,-0.0013853883911745,0.0013853883916098,-3.9677573171493e-12,3.7426230771987e-12,-0.0014224727966851,0.0014224727964577,1.8068936241695e-13,-4.1956977066681e-13,-0.0014716884357244,0.0014716884331278,-0.0014716884359239,0.0014716884329283,-0.001471688433153,0.0014716884356985,-0.0014716884333527,0.0014716884354985,-0.0013853883878335,0.001385388394961,-0.0013853883953803,0.0013853883874155,0.70214227382692,0.6436174661868,114808,2744,0.0059093577836984,0.0059093577837236,0.0059093577837275,35.114883624424,35.144441448185,4.0919068995395e-05,4.0919068995395e-05,4.0919068995395e-05,988691.26843393,0.017886814137429
35419200,0.99898724261562,0.017252185109898,0.0057507283699473,0.0057507283699734,0.0057507283699773,-0.0014241213060604,0.0014241213060351,3.8670303630386e-12,-3.8906921191634e-12,9.5015469700159e-14,-1.2468250721146e-13,-0.0014733448515569,0.0014733448541921,-0.0014733448541433,0.0014733448516045,-0.0014733448516282,0.0014733448541174,-0.0014733448542148,0.0014733448515319,-0.0013870321686435,0.0013870321761373,-0.0013870321762271,0.001387032168537,-9.6758985255889e-14,1.2284677652707e-13,-2.9005472726248e-13,3.1772305848454e-13,-0.0014241213060411,0.0014241213060666,-0.0014733448529945,0.001473344852747,-0.0014733448527995,0.0014733448529508,-0.0014733448529236,0.0014733448528208,-0.0014733448527288,0.0014733448530249,-0.0013870321726413,0.0013870321721548,-0.0013870321720557,0.0013870321727591,-0.0013870321724031,0.0013870321724079,-0.001387032172194,0.0013870321726294,-3.9914010948481e-12,3.766266531378e-12,-0.0014241213061685,0.001424121305941,1.8070742068881e-13,-4.1958924066025e-13,-0.00147334485418,0.0014733448515677,-0.0014733448543795,0.0014733448513682,-0.0014733448515929,0.0014733448541542,-0.0014733448517926,0.0014733448539541,-0.0013870321688299,0.0013870321760037,-0.001387032176423,0.0013870321684119,0.68162295733143,0.55467967790032,114808,2744,0.0059161860316763,0.0059161860317014,0.0059161860317053,35.927664941549,35.951008785197,4.7421319532394e-05,4.7421319532394e-05,4.7421319532394e-05,992967.88436263,0.017907665710576
35619200,0.99905548332515,0.017253272643504,0.0057510908811492,0.0057510908811752,0.0057510908811792,-0.0014254230241197,0.0014254230240944,3.8906671216504e-12,-3.9143319205361e-12,9.5012274255498e-14,-1.2468725706636e-13,-0.0014746579684838,0.0014746579711348,-0.0014746579710859,0.0014746579685314,-0.001474657968555,0.00147465797106,-0.0014746579711574,0.0014746579684587,-0.0013883277169461,0.0013883277244862,-0.001388327724576,0.0013883277168396,-9.6762926311963e-14,1.228444824795e-13,-2.9007731480774e-13,3.1773899917403e-13,-0.0014254230241004,0.0014254230241258,-0.0014746579699292,0.0014746579696817,-0.0014746579697343,0.0014746579698856,-0.0014746579698584,0.0014746579697555,-0.0014746579696635,0.0014746579699596,-0.0013883277209671,0.0013883277204806,-0.0013883277203814,0.0013883277210849,-0.0013883277207289,0.0013883277207336,-0.0013883277205198,0.0013883277209552,-4.0150409903126e-12,3.7899031034146e-12,-0.0014254230242278,0.0014254230240003,1.8072524367374e-13,-4.1960947533621e-13,-0.0014746579711226,0.0014746579684945,-0.0014746579713221,0.001474657968295,-0.0014746579685197,0.0014746579710968,-0.0014746579687195,0.0014746579708967,-0.0013883277171326,0.0013883277243526,-0.001388327724772,0.0013883277167145,0.65729897582232,0.45391059687915,114808,2744,0.0059215777865832,0.0059215777866084,0.0059215777866122,36.57253850488,36.591072440272,5.2580308039043e-05,5.2580308039043e-05,5.2580308039043e-05,1000474.0856664,0.017924131034959
35819200,0.99912129685981,0.017254385030088,0.0057514616766774,0.0057514616767034,0.0057514616767074,-0.001426694579672,0.0014266945796467,3.9142960863826e-12,-3.937976382612e-12,9.5001192103241e-14,-1.2469806555969e-13,-0.0014759423249768,0.0014759423276435,-0.0014759423275947,0.0014759423250244,-0.0014759423250481,0.0014759423275688,-0.0014759423276662,0.0014759423249517,-0.0013895952142013,0.0013895952217876,-0.0013895952218775,0.0013895952140948,-9.6774749480185e-14,1.2283212991569e-13,-2.9010578452624e-13,3.1774905769028e-13,-0.0014266945796527,0.0014266945796781,-0.0014759423264301,0.0014759423261825,-0.0014759423262351,0.0014759423263864,-0.0014759423263593,0.0014759423262564,-0.0014759423261644,0.0014759423264604,-0.0013895952182455,0.0013895952177589,-0.0013895952176597,0.0013895952183632,-0.0013895952180071,0.0013895952180119,-0.0013895952177981,0.0013895952182334,-4.0386475044439e-12,3.8135695568913e-12,-0.0014266945797801,0.0014266945795527,1.8077688915483e-13,-4.1959847567224e-13,-0.0014759423276313,0.0014759423249875,-0.0014759423278308,0.001475942324788,-0.0014759423250126,0.0014759423276055,-0.0014759423252124,0.0014759423274054,-0.0013895952143877,0.0013895952216541,-0.0013895952220734,0.0013895952139697,0.69619233584121,0.65351450719629,114808,2744,0.0059268445836077,0.0059268445836329,0.0059268445836368,37.212793751715,37.231136095346,5.7702350013719e-05,5.7702350013719e-05,5.7702350013719e-05,1011042.4915163,0.01794021497089
36019200,0.99918459833375,0.017255517156289,0.0057518390520778,0.0057518390521038,0.0057518390521078,-0.0014280086830518,0.0014280086830265,3.9379406673657e-12,-3.9616095180578e-12,9.5012206127984e-14,-1.246866100273e-13,-0.0014772599000073,0.0014772599026898,-0.001477259902641,0.0014772599000548,-0.0014772599000786,0.0014772599026151,-0.0014772599027125,0.0014772598999822,-0.0013909093839969,0.0013909093916295,-0.0013909093917194,0.0013909093838904,-9.6787454974394e-14,1.2281913031282e-13,-2.901374306183e-13,3.1775523397219e-13,-0.0014280086830326,0.0014280086830579,-0.0014772599014685,0.0014772599012208,-0.0014772599012735,0.0014772599014247,-0.0014772599013976,0.0014772599012947,-0.0014772599012027,0.0014772599014988,-0.0013909093880642,0.0013909093875776,-0.0013909093874784,0.0013909093881819,-0.0013909093878259,0.0013909093878307,-0.0013909093876169,0.0013909093880522,-4.062316722542e-12,3.8371778944963e-12,-0.0014280086831599,0.0014280086829324,1.8076077200014e-13,-4.1964965057947e-13,-0.0014772599026776,0.001477259900018,-0.0014772599028771,0.0014772598998184,-0.0014772599000431,0.0014772599026518,-0.0014772599002429,0.0014772599024516,-0.0013909093841833,0.0013909093914959,-0.0013909093919153,0.0013909093837652,0.73586308242568,0.83938617781199,114808,2744,0.0059322876472074,0.0059322876472326,0.0059322876472364,37.852853227871,37.871199750421,6.2822825822971e-05,6.2822825822971e-05,6.2822825822971e-05,1012050.5204019,0.017956837223381
36219200,0.99924326350001,0.017256533782175,0.0057521779273731,0.0057521779273991,0.0057521779274031,-0.0014280721137226,0.0014280721136974,3.9614893156177e-12,-3.9852878596134e-12,9.5348812917488e-14,-1.2457657662404e-13,-0.0014773262317722,0.0014773262344706,-0.0014773262344218,0.00147732623182,-0.0014773262318436,0.0014773262343957,-0.0014773262344933,0.0014773262317472,-0.0013909692687376,0.0013909692764156,-0.0013909692765074,0.0013909692686321,-9.67272803421e-14,1.2308582804774e-13,-2.9030730778161e-13,3.1772258791068e-13,-0.001428072113704,0.0014280721137295,-0.0014773262332409,0.0014773262329933,-0.0014773262330459,0.0014773262331969,-0.0014773262331699,0.0014773262330672,-0.0014773262329749,0.001477326233271,-0.0013909692728325,0.0013909692723453,-0.0013909692722441,0.0013909692729482,-0.001390969272596,0.0013909692725993,-0.0013909692723847,0.0013909692728207,-4.086409839455e-12,3.8602935706812e-12,-0.0014280721138314,0.0014280721136038,1.8115793633763e-13,-4.1941442247141e-13,-0.0014773262344579,0.0014773262317824,-0.0014773262346573,0.001477326231583,-0.0014773262318077,0.001477326234432,-0.0014773262320075,0.0014773262342321,-0.0013909692689296,0.0013909692762868,-0.0013909692767069,0.0013909692685097,0.71361053542063,0.7265910158679,114808,2744,0.0059325503760074,0.0059325503760351,0.0059325503760387,37.827158273694,37.826717901739,6.2617266189556e-05,6.2617266189556e-05,6.2617266189556e-05,1006887.2469605,0.017957639662823
36419200,0.99929678538165,0.01725744907121,0.0057524830237182,0.0057524830237442,0.0057524830237481,-0.0014275138098989,0.0014275138098736,3.9851229585159e-12,-4.0089286722144e-12,9.5265988931159e-14,-1.2481728250593e-13,-0.0014767718443059,0.00147677184702,-0.0014767718469712,0.0014767718443537,-0.0014767718443773,0.0014767718469452,-0.0014767718470428,0.0014767718442808,-0.0013904084135992,0.0013904084213239,-0.0013904084214149,0.0013904084134929,-9.6905451369685e-14,1.2308259285245e-13,-2.903014844301e-13,3.1787575970198e-13,-0.0014275138098797,0.0014275138099052,-0.0014767718457829,0.0014767718455351,-0.0014767718455878,0.001476771845739,-0.0014767718457119,0.0014767718456091,-0.0014767718455168,0.0014767718458132,-0.0013904084177144,0.0013904084172274,-0.0013904084171272,0.0013904084178314,-0.0013904084174761,0.0013904084174804,-0.0013904084172662,0.0013904084177021,-4.1097698611165e-12,3.8842176045243e-12,-0.0014275138100071,0.0014275138097796,1.8104758676756e-13,-4.1965282695302e-13,-0.0014767718470076,0.0014767718443165,-0.0014767718472072,0.0014767718441169,-0.0014767718443417,0.0014767718469818,-0.0014767718445415,0.0014767718467817,-0.0013904084137873,0.0013904084211918,-0.0013904084216114,0.0013904084133682,0.7043401840665,0.68271718381266,114808,2744,0.0059302378553329,0.0059302378553588,0.0059302378553626,37.497352964344,37.488045449697,5.9978823714756e-05,5.9978823714756e-05,5.9978823714756e-05,1006117.6470325,0.017950577633225
36619200,0.99934565433694,0.017258239126621,0.0057527463755217,0.0057527463755477,0.0057527463755516,-0.0014269196212974,0.0014269196212721,4.0088078259521e-12,-4.0324846974239e-12,9.5290931298783e-14,-1.2494216104392e-13,-0.001476180701742,0.0014761807044719,-0.001476180704423,0.0014761807017897,-0.0014761807018133,0.001476180704397,-0.0014761807044946,0.0014761807017168,-0.0013898122967086,0.0013898123044799,-0.0013898123045701,0.0013898122966022,-9.7079916628127e-14,1.2306053470278e-13,-2.9039271693713e-13,3.1791158213704e-13,-0.0014269196212782,0.0014269196213035,-0.0014761807032271,0.0014761807029791,-0.0014761807030319,0.0014761807031831,-0.001476180703156,0.0014761807030531,-0.0014761807029609,0.0014761807032574,-0.0013898123008459,0.001389812300359,-0.0013898123002595,0.0013898123009637,-0.0013898123006078,0.001389812300612,-0.0013898123003981,0.001389812300834,-4.1333029657257e-12,3.9079338505975e-12,-0.0014269196214056,0.001426919621178,1.8091088506135e-13,-4.1991152493233e-13,-0.0014761807044596,0.0014761807017527,-0.0014761807046593,0.0014761807015531,-0.001476180701778,0.0014761807044338,-0.0014761807019779,0.0014761807042336,-0.0013898122968957,0.0013898123043465,-0.0013898123047664,0.0013898122964772,0.66675279261139,0.51038724866459,114808,2744,0.005927776696061,0.0059277766960864,0.0059277766960903,37.159055103634,37.149372997656,5.727244082907e-05,5.727244082907e-05,5.727244082907e-05,1006623.2439065,0.017943061693583
36819200,0.9993903303944,0.017258942312781,0.0057529807709084,0.0057529807709344,0.0057529807709383,-0.0014262831223534,0.0014262831223281,4.0324112923824e-12,-4.0561166358705e-12,9.5327970378661e-14,-1.2503943013124e-13,-0.0014755541450761,0.0014755541478218,-0.0014755541477728,0.0014755541451239,-0.0014755541451476,0.0014755541477468,-0.0014755541478445,0.001475554145051,-0.0013891717693471,0.0013891717771646,-0.0013891717772547,0.0013891717692405,-9.7076504967645e-14,1.2319829520018e-13,-2.9037083525265e-13,3.1805216607759e-13,-0.0014262831223341,0.0014262831223596,-0.001475554146569,0.001475554146321,-0.0014755541463738,0.0014755541465251,-0.0014755541464979,0.0014755541463951,-0.0014755541463028,0.0014755541465994,-0.0013891717735073,0.0013891717730204,-0.0013891717729209,0.0013891717736252,-0.0013891717732693,0.0013891717732735,-0.0013891717730594,0.0013891717734957,-4.1568470111772e-12,3.9316239209998e-12,-0.0014262831224616,0.001426283122234,1.8100658802004e-13,-4.199355830209e-13,-0.0014755541478094,0.0014755541450869,-0.001475554148009,0.0014755541448871,-0.0014755541451119,0.0014755541477837,-0.0014755541453119,0.0014755541475834,-0.001389171769534,0.0013891717770313,-0.0013891717774509,0.0013891717691156,0.64957832058361,0.44500878042861,114808,2744,0.0059251402448361,0.0059251402448615,0.0059251402448653,36.820396001417,36.810700545614,5.4563168011336e-05,5.4563168011336e-05,5.4563168011336e-05,1014356.8978012,0.017935010628191
37019200,0.99943238448268,0.017259645970643,0.0057532153235289,0.005753215323555,0.0057532153235589,-0.0014266602783342,0.0014266602783088,4.0560343280678e-12,-4.0797637928319e-12,9.5353949134661e-14,-1.2506509111202e-13,-0.0014759377871483,0.0014759377899098,-0.0014759377898608,0.0014759377871961,-0.0014759377872198,0.0014759377898348,-0.0014759377899325,0.0014759377871232,-0.001389549441692,0.0013895494495557,-0.001389549449646,0.0013895494415854,-9.710185713433e-14,1.2322341207993e-13,-2.9043830377977e-13,3.180980470289e-13,-0.0014266602783149,0.0014266602783404,-0.0014759377886491,0.0014759377884011,-0.0014759377884539,0.0014759377886052,-0.0014759377885781,0.0014759377884752,-0.0014759377883829,0.0014759377886795,-0.0013895494458755,0.0013895494453885,-0.0013895494452889,0.0013895494459934,-0.0013895494456375,0.0013895494456416,-0.0013895494454275,0.0013895494458639,-4.1805100529934e-12,3.9552313174571e-12,-0.0014266602784423,0.0014266602782148,1.8107211542999e-13,-4.1998458152403e-13,-0.0014759377898973,0.0014759377871591,-0.0014759377900971,0.0014759377869593,-0.0014759377871841,0.0014759377898717,-0.0014759377873841,0.0014759377896714,-0.0013895494418791,0.0013895494494226,-0.0013895494498422,0.0013895494414606,0.68961813966623,0.64920450727309,114808,2744,0.0059267024314073,0.0059267024314328,0.0059267024314366,37.015654734661,37.021009217455,5.6125237877289e-05,5.6125237877289e-05,5.6125237877289e-05,1022897.6696459,0.017939781229532
37219200,0.9994722108298,0.01726035580709,0.0057534519356779,0.0057534519357039,0.0057534519357078,-0.0014273377496059,0.0014273377495821,4.0803861475556e-12,-4.102630294184e-12,9.616409844306e-14,-1.2440928026424e-13,-0.001476616370156,0.001476616372936,-0.0014766163728852,0.001476616370203,-0.0014766163702276,0.0014766163728599,-0.0014766163729553,0.0014766163701306,-0.0013902281096866,0.0013902281175976,-0.0013902281176872,0.0013902281095838,-9.7507550623025e-14,1.229313033566e-13,-2.908284683311e-13,3.1784370185779e-13,-0.0014273377495878,0.0014273377496127,-0.0014766163716655,0.0014766163714179,-0.0014766163714698,0.0014766163716214,-0.0014766163715938,0.001476616371493,-0.0014766163713999,0.0014766163716965,-0.0013902281138955,0.0013902281134074,-0.0013902281133088,0.001390228114014,-0.0013902281136591,0.0013902281136614,-0.001390228113448,0.0013902281138855,-4.2033622960495e-12,3.9796054846077e-12,-0.0014273377497139,0.001427337749488,1.8196008830303e-13,-4.1925036865961e-13,-0.0014766163729203,0.0014766163701687,-0.0014766163731223,0.0014766163699684,-0.001476616370192,0.0014766163728959,-0.0014766163703904,0.0014766163726967,-0.001390228109876,0.001390228117467,-0.0013902281178856,0.0013902281094585,0.73362541514275,0.85340023411758,114808,2744,0.0059295085670827,0.0059295085671086,0.0059295085671114,37.341919993347,37.351202753545,5.8735359946776e-05,5.8735359946776e-05,5.8735359946776e-05,1022697.3126201,0.017948350590755
37419200,0.99950988454873,0.017260983226411,0.0057536610754518,0.0057536610754778,0.0057536610754817,-0.0014280611554439,0.0014280611554187,4.1033739793004e-12,-4.1269745329061e-12,9.5487544547898e-14,-1.2508667868783e-13,-0.0014773343243472,0.0014773343271405,-0.0014773343270913,0.001477334324395,-0.0014773343244187,0.0014773343270654,-0.001477334327163,0.0014773343243221,-0.0013909528708932,0.0013909528788494,-0.0013909528789397,0.0013909528707869,-9.7173796113114e-14,1.233056448619e-13,-2.9052000716614e-13,3.1820416143423e-13,-0.0014280611554248,0.0014280611554502,-0.001477334325864,0.001477334325616,-0.0014773343256687,0.0014773343258201,-0.0014773343257929,0.0014773343256902,-0.0014773343255977,0.0014773343258945,-0.0013909528751232,0.001390952874636,-0.0013909528745363,0.0013909528752412,-0.0013909528748855,0.0013909528748896,-0.0013909528746754,0.0013909528751122,-4.2277171990828e-12,4.0025771063698e-12,-0.0014280611555521,0.0014280611553247,1.8125663920468e-13,-4.1998793436278e-13,-0.0014773343271278,0.0014773343243583,-0.0014773343273279,0.0014773343241585,-0.0014773343243832,0.0014773343271024,-0.0014773343245832,0.001477334326902,-0.0013909528710808,0.0013909528787168,-0.0013909528791366,0.0013909528706623,0.68665557432995,0.62399919259961,114808,2744,0.0059325049826958,0.0059325049827213,0.0059325049827251,37.671941803208,37.681396289635,6.1375534425663e-05,6.1375534425663e-05,6.1375534425663e-05,1014208.5229035,0.017957501048135
37619200,0.99954547353758,0.017261556148688,0.0057538520495439,0.0057538520495699,0.0057538520495739,-0.001428732258573,0.0014287322585478,4.1270082793476e-12,-4.1506268127579e-12,9.5493134680432e-14,-1.2510118559759e-13,-0.0014780096652584,0.0014780096680674,-0.0014780096680183,0.0014780096653062,-0.00147800966533,0.0014780096679923,-0.0014780096680899,0.0014780096652333,-0.0013916220898354,0.0013916220978379,-0.0013916220979282,0.0013916220897289,-9.7206795105017e-14,1.2329111589398e-13,-2.9058376992412e-13,3.1820951421189e-13,-0.0014287322585538,0.0014287322585792,-0.0014780096667831,0.0014780096665349,-0.0014780096665877,0.0014780096667391,-0.0014780096667119,0.0014780096666092,-0.0014780096665167,0.0014780096668135,-0.0013916220940884,0.0013916220936012,-0.0013916220935016,0.0013916220942064,-0.0013916220938504,0.0013916220938544,-0.0013916220936403,0.001391622094077,-4.2513691824133e-12,4.0262082962179e-12,-0.0014287322586812,0.0014287322584537,1.8125787446106e-13,-4.2005604992895e-13,-0.0014780096680547,0.0014780096652694,-0.0014780096682547,0.0014780096650695,-0.0014780096652942,0.0014780096680292,-0.0014780096654942,0.0014780096678289,-0.0013916220900225,0.0013916220977049,-0.0013916220981246,0.001391622089604,0.66415284323313,0.52502085390236,114808,2744,0.005935284693546,0.0059352846935713,0.0059352846935751,38.002124141723,38.011589825725,6.4016993133783e-05,6.4016993133783e-05,6.4016993133783e-05,1016303.9802258,0.017965990006346
37819200,0.99957814335348,0.017262062571493,0.0057540208571457,0.0057540208571718,0.0057540208571757,-0.0014283633824959,0.0014283633824706,4.1506238400776e-12,-4.1742532246039e-12,9.5485525193227e-14,-1.2510080325633e-13,-0.0014776544207642,0.001477654423589,-0.0014776544235398,0.001477654420812,-0.0014776544208358,0.0014776544235139,-0.0014776544236115,0.0014776544207391,-0.0013912460776452,0.001391246085694,-0.0013912460857842,0.0013912460775387,-9.7201501149097e-14,1.2328935124201e-13,-2.9060212230464e-13,3.1823974858236e-13,-0.0014283633824767,0.0014283633825021,-0.0014776544222967,0.0014776544220486,-0.0014776544221014,0.0014776544222528,-0.0014776544222256,0.0014776544221228,-0.0014776544220304,0.0014776544223271,-0.0013912460819214,0.0013912460814341,-0.0013912460813344,0.0013912460820394,-0.0013912460816833,0.0013912460816873,-0.0013912460814731,0.0013912460819099,-4.2749908431407e-12,4.0498291334411e-12,-0.001428363382604,0.0014283633823766,1.8127893264128e-13,-4.2008181384777e-13,-0.0014776544235762,0.0014776544207752,-0.0014776544237762,0.0014776544205753,-0.0014776544208,0.0014776544235508,-0.001477654421,0.0014776544233504,-0.0013912460778323,0.0013912460855609,-0.0013912460859806,0.0013912460774138,0.64016139749728,0.42608418239384,114808,2744,0.0059337567447537,0.0059337567447791,0.0059337567447829,37.804754412214,37.799332042642,6.2438035297714e-05,6.2438035297714e-05,6.2438035297714e-05,1023846.3436745,0.017961324119883
38019200,0.99960808385652,0.017262545616422,0.005754181872122,0.005754181872148,0.005754181872152,-0.0014278785824108,0.0014278785823855,4.1742559848597e-12,-4.1978460725627e-12,9.5492276710319e-14,-1.2507003949026e-13,-0.0014771819818271,0.0014771819846673,-0.0014771819846182,0.0014771819818746,-0.0014771819818985,0.0014771819845924,-0.0014771819846901,0.0014771819818015,-0.0013907573568771,0.0013907573649718,-0.0013907573650628,0.0013907573567713,-9.7169972700505e-14,1.2331087999608e-13,-2.9058824037578e-13,3.1829674684111e-13,-0.0014278785823915,0.0014278785824169,-0.0014771819833679,0.0014771819831194,-0.0014771819831722,0.0014771819833237,-0.0014771819832966,0.0014771819831935,-0.001477181983101,0.0014771819833975,-0.0013907573611772,0.0013907573606899,-0.0013907573605897,0.0013907573612948,-0.0013907573609387,0.0013907573609429,-0.0013907573607281,0.0013907573611648,-4.2984866841824e-12,4.0735604966995e-12,-0.0014278785825187,0.0014278785822916,1.8145092738696e-13,-4.1993687709901e-13,-0.0014771819846548,0.0014771819818384,-0.0014771819848551,0.0014771819816383,-0.0014771819818625,0.00147718198463,-0.001477181982063,0.0014771819844288,-0.0013907573570648,0.0013907573648391,-0.0013907573652587,0.0013907573566464,0.66569812021042,0.56333907264343,114808,2744,0.005931748649992,0.0059317486500172,0.0059317486500212,37.560708951391,37.553742248966,6.0485671611127e-05,6.0485671611127e-05,6.0485671611127e-05,1033969.3326409,0.017955191825932
38219200,0.99963554672653,0.017262992022296,0.0057543306740801,0.0057543306741061,0.00575433067411,-0.0014274195791621,0.0014274195791369,4.197861195722e-12,-4.2214901597649e-12,9.5436813446044e-14,-1.2507328939098e-13,-0.0014767284377419,0.0014767284405981,-0.001476728440549,0.0014767284377896,-0.0014767284378134,0.001476728440523,-0.0014767284406206,0.0014767284377167,-0.0013902967899586,0.0013902967980999,-0.0013902967981902,0.0013902967898523,-9.7170207987435e-14,1.2324611726866e-13,-2.9062206287194e-13,3.1827127703096e-13,-0.0014274195791429,0.0014274195791683,-0.0014767284392902,0.001476728439042,-0.0014767284390948,0.0014767284392462,-0.001476728439219,0.0014767284391162,-0.0014767284390238,0.0014767284393205,-0.0013902967942812,0.0013902967937939,-0.0013902967936941,0.0013902967943991,-0.0013902967940428,0.001390296794047,-0.0013902967938328,0.0013902967942695,-4.3222286941744e-12,4.0970654845206e-12,-0.0014274195792702,0.0014274195790428,1.8131146105932e-13,-4.2009834275458e-13,-0.0014767284405854,0.0014767284377529,-0.0014767284407854,0.0014767284375529,-0.0014767284377777,0.00147672844056,-0.0014767284379777,0.0014767284403596,-0.0013902967901458,0.0013902967979667,-0.0013902967983865,0.0013902967897272,0.67076169900742,0.59491377284373,114808,2744,0.0059298474455045,0.0059298474455298,0.0059298474455336,37.315184502906,37.308152455291,5.8521476023248e-05,5.8521476023248e-05,5.8521476023248e-05,1037027.939401,0.017949385830862
38419200,0.99966092874441,0.017263430948985,0.0057544769829765,0.0057544769830025,0.0057544769830064,-0.0014272121395582,0.0014272121395324,4.2210902939934e-12,-4.245489729214e-12,9.509935190324e-14,-1.2534731043159e-13,-0.0014765231134936,0.0014765231163651,-0.0014765231163173,0.0014765231135408,-0.0014765231135648,0.0014765231162908,-0.0014765231163881,0.0014765231134684,-0.0013900898904357,0.0013900898986211,-0.0013900898987125,0.0013900898903273,-9.7272322514965e-14,1.2308312224804e-13,-2.9082335084038e-13,3.1814286918902e-13,-0.0014272121395389,0.001427212139564,-0.0014765231150502,0.0014765231148021,-0.0014765231148551,0.0014765231150072,-0.0014765231149798,0.0014765231148759,-0.0014765231147837,0.0014765231150793,-0.0013900898947821,0.0013900898942929,-0.0013900898941942,0.0013900898948989,-0.0013900898945429,0.0013900898945469,-0.0013900898943333,0.0013900898947693,-4.3460869359097e-12,4.1204433585779e-12,-0.0014272121396663,0.0014272121394383,1.8108405624168e-13,-4.2039986295511e-13,-0.0014765231163555,0.0014765231135044,-0.001476523116554,0.0014765231133053,-0.001476523113531,0.0014765231163282,-0.0014765231137299,0.0014765231161273,-0.0013900898906241,0.0013900898984903,-0.0013900898989096,0.0013900898902036,0.7125373054848,0.7925535283193,114808,2744,0.0059289882439711,0.0059289882439968,0.0059289882440004,37.197048658543,37.19360843,5.7576389268341e-05,5.7576389268341e-05,5.7576389268341e-05,1038055.0138664,0.017946761875686
38619200,0.99968453930893,0.017263841416929,0.0057546138056244,0.0057546138056504,0.0057546138056543,-0.0014272670355374,0.0014272670355121,4.2450613512161e-12,-4.2687997291959e-12,9.5321121438076e-14,-1.2502775401735e-13,-0.0014765716648375,0.0014765716677251,-0.0014765716676761,0.0014765716648851,-0.0014765716649089,0.0014765716676501,-0.0014765716677477,0.0014765716648123,-0.0013901475836891,0.0013901475919228,-0.0013901475920131,0.0013901475835825,-9.7103798251501e-14,1.2315117899249e-13,-2.9065382660746e-13,3.1827257110907e-13,-0.0014272670355182,0.0014272670355436,-0.0014765716664015,0.0014765716661533,-0.0014765716662061,0.0014765716663576,-0.0014765716663304,0.0014765716662274,-0.0014765716661351,0.0014765716664317,-0.0013901475880581,0.0013901475875705,-0.001390147587471,0.0013901475881759,-0.0013901475878196,0.0013901475878239,-0.0013901475876098,0.0013901475880462,-4.3694973677959e-12,4.1443066589822e-12,-0.0014272670356456,0.0014272670354181,1.8129440275691e-13,-4.2014945884008e-13,-0.0014765716677126,0.0014765716648484,-0.0014765716679125,0.0014765716646485,-0.0014765716648733,0.0014765716676871,-0.0014765716650733,0.0014765716674866,-0.0013901475838765,0.00139014759179,-0.0013901475922097,0.0013901475834578,0.71625964333515,0.79944244,114808,2744,0.0059292156857585,0.0059292156857839,0.0059292156857877,37.193755088591,37.19360843,5.7550040708727e-05,5.7550040708727e-05,5.7550040708727e-05,1030327.6488542,0.017947456211742
38819200,0.99970650591393,0.017264224579857,0.0057547415266004,0.0057547415266264,0.0057547415266304,-0.001427326201304,0.0014273262012787,4.2687147765982e-12,-4.2924067394058e-12,9.5282313800093e-14,-1.2497170425904e-13,-0.0014766253867706,0.0014766253896739,-0.001476625389625,0.0014766253868182,-0.001476625386842,0.001476625389599,-0.0014766253896965,0.0014766253867454,-0.0013902086945019,0.001390208702782,-0.0013902087028721,0.0013902086943953,-9.7058564339248e-14,1.2310147462857e-13,-2.9066164989788e-13,3.1826004208006e-13,-0.0014273262012848,0.0014273262013102,-0.0014766253883424,0.0014766253880943,-0.001476625388147,0.0014766253882986,-0.0014766253882714,0.0014766253881684,-0.0014766253880761,0.0014766253883727,-0.0013902086988939,0.0013902086984062,-0.0013902086983068,0.0013902086990116,-0.0013902086986554,0.0013902086986598,-0.0013902086984456,0.0013902086988819,-4.3931304693503e-12,4.1679350253871e-12,-0.0014273262014122,0.0014273262011847,1.8128628535783e-13,-4.2015134113552e-13,-0.0014766253896615,0.0014766253867815,-0.0014766253898614,0.0014766253865816,-0.0014766253868064,0.0014766253896359,-0.0014766253870064,0.0014766253894355,-0.001390208694689,0.0013902087026488,-0.0013902087030685,0.0013902086942704,0.71844597965343,0.79944244,114808,2744,0.005929460798289,0.0059294607983143,0.0059294607983181,37.19361506283,37.19360843,5.7548920502638e-05,5.7548920502638e-05,5.7548920502638e-05,1023344.3733587,0.017948204579177
38880000,0.99971303522514,0.017264338598247,0.0057547795327303,0.0057547795327563,0.0057547795327603,-0.0014273439877174,0.0014273439876921,4.2758936850448e-12,-4.2995946509092e-12,9.5264585711159e-14,-1.2495423420451e-13,-0.0014766414803495,0.0014766414832576,-0.0014766414832087,0.0014766414803971,-0.0014766414804209,0.0014766414831827,-0.0014766414832802,0.0014766414803244,-0.0013902270549555,0.0013902270632497,-0.0013902270633399,0.001390227054849,-9.7041506036838e-14,1.2308400457403e-13,-2.9065447364652e-13,3.1825663041958e-13,-0.0014273439876982,0.0014273439877235,-0.0014766414819237,0.0014766414816756,-0.0014766414817283,0.0014766414818799,-0.0014766414818527,0.0014766414817497,-0.0014766414816574,0.001476641481954,-0.0013902270593546,0.001390227058867,-0.0013902270587675,0.0013902270594723,-0.001390227059116,0.0013902270591205,-0.0013902270589063,0.0013902270593426,-4.4003116323237e-12,4.17512024706e-12,-0.0014273439878255,0.001427343987598,1.81284050132e-13,-4.2014381195377e-13,-0.0014766414832452,0.0014766414803604,-0.0014766414834451,0.0014766414801605,-0.0014766414803853,0.0014766414832196,-0.0014766414805853,0.0014766414830192,-0.0013902270551427,0.0013902270631166,-0.0013902270635362,0.001390227054724,0.71909628268591,0.79944244,114808,2744,0.0059295344821552,0.0059295344821805,0.0059295344821843,37.193609335238,37.19360843,5.7548874681902e-05,5.7548874681902e-05,5.7548874681902e-05,1021202.1431204,0.017948429554385
