time,ASR_ext,ASR_strain,ASR_strain_xx,ASR_strain_yy,ASR_strain_zz,disp_x_101,disp_x_102,disp_x_103,disp_x_104,disp_x_105,disp_x_106,disp_x_p1_neg,disp_x_p1_pos,disp_x_p2_neg,disp_x_p2_pos,disp_x_p3_neg,disp_x_p3_pos,disp_x_p4_neg,disp_x_p4_pos,disp_x_p5_neg,disp_x_p5_pos,disp_x_p6_neg,disp_x_p6_pos,disp_y_101,disp_y_102,disp_y_103,disp_y_104,disp_y_105,disp_y_106,disp_y_p1_neg,disp_y_p1_pos,disp_y_p2_neg,disp_y_p2_pos,disp_y_p3_neg,disp_y_p3_pos,disp_y_p4_neg,disp_y_p4_pos,disp_y_p5_neg,disp_y_p5_pos,disp_y_p6_neg,disp_y_p6_pos,disp_y_p7_neg,disp_y_p7_pos,disp_y_p8_neg,disp_y_p8_pos,disp_z_101,disp_z_102,disp_z_103,disp_z_104,disp_z_105,disp_z_106,disp_z_p1_neg,disp_z_p1_pos,disp_z_p2_neg,disp_z_p2_pos,disp_z_p3_neg,disp_z_p3_pos,disp_z_p4_neg,disp_z_p4_pos,disp_z_p5_neg,disp_z_p5_pos,disp_z_p6_neg,disp_z_p6_pos,humidity,humidity_bc,ndof,nelem,strain_xx,strain_yy,strain_zz,temp,temp_bc,thermal_strain_xx,thermal_strain_yy,thermal_strain_zz,vonmises,vstrain
2419200,0,0,0,0,0,0,0,0,0,0,0,0,0,0,0,0,0,0,0,0,0,0,0,0,0,0,0,0,0,0,0,0,0,0,0,0,0,0,0,0,0,0,0,0,0,0,0,0,0,0,0,0,0,0,0,0,0,0,0,0,0,0,0,0,0,0,0,0,0,0,0,0,0,0,0,0,0
2619200,0.019470334879653,0.00039944519671292,0.00013314839890431,0.00013314839890431,0.00013314839890431,-3.4800288045689e-05,3.4800288048046e-05,-6.6650459853063e-16,3.1576573073504e-15,-2.157530554987e-15,4.676831850262e-15,-3.4037419176233e-05,3.4037419174948e-05,-3.4037419174981e-05,3.4037419176237e-05,-3.4037419174113e-05,3.4037419177225e-05,-3.4037419172858e-05,3.4037419178529e-05,-3.5429974765856e-05,3.5429974767065e-05,-3.5429974762589e-05,3.5429974770975e-05,2.2537987950527e-15,-4.5800788317356e-15,-2.7963594260802e-15,7.6885151211407e-16,-3.4800288047962e-05,3.4800288045764e-05,-3.4037419176548e-05,3.4037419175413e-05,-3.4037419175444e-05,3.4037419176563e-05,-3.4037419178775e-05,3.4037419173207e-05,-3.4037419177655e-05,3.4037419174367e-05,-3.5429974770181e-05,3.5429974762585e-05,-3.5429974766381e-05,3.5429974765964e-05,-3.542997476309e-05,3.5429974768837e-05,-3.5429974769666e-05,3.5429974761575e-05,1.2261096020168e-15,-2.6017486433649e-15,-3.4800288047465e-05,3.4800288046258e-05,1.2295433206485e-15,-2.3015087346056e-15,-3.4037419175406e-05,3.4037419176689e-05,-3.4037419176614e-05,3.4037419175524e-05,-3.4037419176729e-05,3.40374191754e-05,-3.4037419177846e-05,3.4037419174252e-05,-3.5429974768721e-05,3.5429974762429e-05,-3.5429974765449e-05,3.5429974766263e-05,0.81992963321665,0.89147349669472,114808,2744,0.00014499063670944,0.00014499063670943,0.00014499063670942,31.480269625869,32.065354619266,1.1842157006954e-05,1.1842157006954e-05,1.1842157006954e-05,408496.75526661,0.00043506674500179
2819200,0.041066555192042,0.00084094374630264,0.0002803145821012,0.00028031458210077,0.00028031458210067,-7.252713204228e-05,7.2527132168375e-05,3.4978871102403e-14,9.0503977744447e-14,-1.2099246690657e-13,2.5806442788975e-13,-7.1766991014156e-05,7.1766990992511e-05,-7.1766990994925e-05,7.1766991010588e-05,-7.1766990893393e-05,7.1766991120769e-05,-7.176699087419e-05,7.1766991137888e-05,-7.334515051125e-05,7.3345150718432e-05,-7.3345150450546e-05,7.3345150752883e-05,1.247787616239e-13,-2.5426632057374e-13,1.1257395432532e-13,-2.3343460770356e-13,-7.2527132167134e-05,7.2527132043336e-05,-7.1766990947497e-05,7.1766991062937e-05,-7.1766991060185e-05,7.1766990947625e-05,-7.1766991070486e-05,7.1766990936e-05,-7.1766991182744e-05,7.176699082081e-05,-7.3345150574591e-05,7.3345150664874e-05,-7.3345150918415e-05,7.3345150341407e-05,-7.3345150561677e-05,7.3345150686487e-05,-7.3345150909722e-05,7.3345150292312e-05,8.6789983735866e-14,3.1268434476673e-14,-7.2527132047523e-05,7.2527132162914e-05,-1.1275563259871e-13,2.300096829209e-13,-7.1766990992793e-05,7.1766991011391e-05,-7.1766990878331e-05,7.1766991124221e-05,-7.1766991012454e-05,7.1766990994037e-05,-7.1766990898244e-05,7.1766991107685e-05,-7.3345150532383e-05,7.3345150725522e-05,-7.3345150488368e-05,7.3345150777055e-05,0.82138486856175,0.8908132454491,114808,2744,0.00030215064304561,0.00030215064304522,0.00030215064304515,32.731670840042,32.775735335572,2.185336672034e-05,2.185336672034e-05,2.185336672034e-05,293174.4984492,0.00090686321880804
3019200,0.062560349445949,0.0012798728111142,0.00042662427036987,0.0004266242703714,0.00042662427037289,-0.00010719050526595,0.00010719050542471,2.4444519838261e-14,1.3162561662308e-13,-2.3220694198238e-13,4.019930419988e-13,-0.00010628746165978,0.00010628746157102,-0.00010628746162462,0.00010628746160778,-0.00010628746145655,0.00010628746178398,-0.0001062874614205,0.0001062874618191,-0.00010827539235424,0.00010827539262331,-0.00010827539224658,0.00010827539271544,2.3446406522493e-13,-3.994576387551e-13,2.4269041318035e-13,-3.9570510265721e-13,-0.00010719050542369,0.00010719050526771,-0.00010628746148945,0.00010628746175291,-0.00010628746169613,0.0001062874615392,-0.00010628746169328,0.00010628746154078,-0.00010628746189963,0.0001062874613273,-0.0001082753923658,0.00010827539262694,-0.00010827539298991,0.00010827539200721,-0.00010827539237407,0.00010827539262151,-0.00010827539297814,0.00010827539197696,1.352697885567e-13,2.80656058503e-14,-0.00010719050526464,0.00010719050542749,-2.3189757010018e-13,4.0102684081705e-13,-0.00010628746162396,0.00010628746161029,-0.00010628746141277,0.00010628746181975,-0.00010628746166096,0.00010628746157555,-0.00010628746144959,0.00010628746178507,-0.00010827539236211,0.00010827539264268,-0.00010827539226155,0.00010827539274265,0.8201332137925,0.87828479112878,114808,2744,0.00044652725598574,0.0004465272559873,0.00044652725598881,32.492162183985,32.486188633319,1.993729747188e-05,1.993729747188e-05,1.993729747188e-05,317565.32264484,0.0013404799473654
3219200,0.083842958684501,0.0017073605714034,0.00056912019046595,0.00056912019046806,0.00056912019046939,-0.00014085315540917,0.00014085315557314,9.4627164352143e-16,1.5980049194088e-13,-3.1550706782474e-13,4.9142984285416e-13,-0.00013996315654455,0.00013996315638683,-0.00013996315649295,0.0001399631564415,-0.00013996315628467,0.00013996315665746,-0.00013996315623163,0.0001399631567102,-0.00014200672653804,0.00014200672681743,-0.00014200672638141,0.00014200672696343,3.1731876201199e-13,-4.8937865275926e-13,3.6252997642866e-13,-5.2073884913855e-13,-0.00014085315557243,0.00014085315541091,-0.00013996315627506,0.00013996315667127,-0.00013996315656163,0.00013996315637572,-0.0001399631565357,0.00013996315640156,-0.000139963156822,0.00013996315610615,-0.00014200672646634,0.00014200672690551,-0.00014200672732693,0.00014200672604057,-0.00014200672652064,0.00014200672685209,-0.00014200672729623,0.00014200672603676,1.732912244544e-13,1.4422868214806e-14,-0.00014085315539775,0.00014085315558623,-3.3921174025536e-13,5.3700341844359e-13,-0.00013996315649457,0.00013996315644247,-0.00013996315620219,0.00013996315673264,-0.00013996315654897,0.00013996315639069,-0.00013996315625634,0.00013996315668084,-0.00014200672652263,0.00014200672685659,-0.00014200672636926,0.00014200672700642,0.80675910504681,0.81135500028467,114808,2744,0.00058671583785762,0.00058671583785975,0.00058671583786108,32.204785063782,32.196641931066,1.7638280510258e-05,1.7638280510258e-05,1.7638280510258e-05,252217.21621942,0.0017616980732384
3419200,0.10489297193666,0.0021198320318025,0.00070661067726575,0.00070661067726777,0.000706610677269,-0.00017331695480529,0.00017331695496061,-2.9342784779133e-14,1.8118064898678e-13,-3.7102963841504e-13,5.3885470747622e-13,-0.00017267625115644,0.00017267625093868,-0.00017267625108813,0.00017267625101106,-0.00017267625086248,0.00017267625124379,-0.00017267625079237,0.00017267625131391,-0.00017421843344274,0.00017421843369633,-0.00017421843323645,0.00017421843389461,3.7261615359699e-13,-5.370492552786e-13,4.6584991566367e-13,-6.1544906610055e-13,-0.00017331695496001,0.00017331695480688,-0.00017267625080352,0.00017267625130793,-0.00017267625115485,0.00017267625094622,-0.00017267625109837,0.00017267625100389,-0.00017267625144948,0.00017267625064232,-0.00017421843327437,0.00017421843388243,-0.00017421843432678,0.00017421843282009,-0.00017421843339014,0.00017421843376646,-0.00017421843426795,0.00017421843284905,2.0539650836589e-13,-5.1378393660635e-15,-0.00017331695478282,0.00017331695498466,-4.2974376868168e-13,6.4319312295042e-13,-0.0001726762510944,0.00017267625100701,-0.00017267625073633,0.00017267625136263,-0.00017267625116612,0.00017267625093814,-0.00017267625080782,0.00017267625129372,-0.00017421843340044,0.00017421843376134,-0.00017421843319542,0.00017421843396137,0.7858983358014,0.71413774128887,114808,2744,0.00072189323702682,0.00072189323702887,0.0007218932370301,31.915333890839,31.907095228813,1.5322671126709e-05,1.5322671126709e-05,1.5322671126709e-05,167448.89401646,0.0021680268737333
3619200,0.12622896347047,0.002529964928722,0.00084332164290543,0.00084332164290763,0.00084332164290896,-0.00020630013267032,0.00020630013281227,-6.2127891098073e-14,2.0006331701446e-13,-3.7530988422184e-13,5.3085151263009e-13,-0.00020611157523749,0.0002061115749899,-0.00020611157515256,0.00020611157508014,-0.0002061115749447,0.00020611157529431,-0.0002061115748575,0.00020611157538181,-0.00020669993267638,0.00020669993286427,-0.00020669993242008,0.00020669993311364,3.769118679541e-13,-5.2901988292336e-13,5.2760933777925e-13,-6.6326662001298e-13,-0.00020630013281166,0.000206300132672,-0.00020611157484616,0.00020611157539926,-0.00020611157523257,0.00020611157500061,-0.00020611157513998,0.00020611157509611,-0.00020611157552618,0.00020611157469762,-0.00020669993241543,0.00020669993314598,-0.00020669993357233,0.00020669993197366,-0.00020669993260489,0.00020669993295421,-0.0002066999334781,0.00020669993203919,2.4072034101176e-13,-2.1482527547059e-14,-0.0002063001326313,0.00020630013285301,-4.7193934728278e-13,7.0838220499813e-13,-0.00020611157516067,0.00020611157507378,-0.00020611157476649,0.00020611157546512,-0.00020611157524981,0.00020611157498788,-0.00020611157485537,0.00020611157537914,-0.00020669993259951,0.00020669993296496,-0.00020669993234322,0.00020669993321482,0.77011572308456,0.64656198526755,114808,2744,0.00085921459571134,0.00085921459571356,0.0008592145957149,31.993664713805,31.995733577634,1.5949317710436e-05,1.5949317710436e-05,1.5949317710436e-05,256281.50734082,0.0025809688960433
3819200,0.14817483875555,0.0029512922478762,0.00098376408262339,0.00098376408262572,0.00098376408262712,-0.00024066119747436,0.00024066119759221,-1.0015148019287e-13,2.1370931006521e-13,-3.5620558460174e-13,4.8856793487907e-13,-0.00024096238391767,0.00024096238364874,-0.00024096238381603,0.00024096238375673,-0.00024096238364565,0.00024096238393325,-0.00024096238354121,0.00024096238403793,-0.00024059112631018,0.00024059112640278,-0.00024059112600353,0.0002405911267028,3.5785835443762e-13,-4.8667322805518e-13,5.598395296396e-13,-6.7104268393016e-13,-0.00024066119759159,0.00024066119747612,-0.00024096238350829,0.00024096238407837,-0.00024096238390622,0.00024096238366557,-0.00024096238378155,0.00024096238379539,-0.00024096238417926,0.00024096238338276,-0.00024059112596131,0.00024059112677578,-0.00024059112715423,0.00024059112556148,-0.00024059112621659,0.00024059112651533,-0.00024059112702805,0.00024059112565986,2.6892596464344e-13,-4.4947193070575e-14,-0.00024066119742066,0.00024066119764772,-4.861903972171e-13,7.3142713334433e-13,-0.00024096238382592,0.0002409623837483,-0.00024096238341947,0.00024096238415172,-0.0002409623839324,0.00024096238364528,-0.00024096238352567,0.00024096238404859,-0.00024059112620268,0.00024059112653495,-0.00024059112589553,0.00024059112683496,0.77140158093328,0.66302364648837,114808,2744,0.0010022525192496,0.001002252519252,0.0010022525192534,32.324185265087,32.333484921876,1.8593482120695e-05,1.8593482120695e-05,1.8593482120695e-05,403116.4421859,0.0030112824306512
4019200,0.17071648713646,0.0033838262872729,0.0011279420957556,0.001127942095758,0.0011279420957594,-0.00027593776405252,0.00027593776417316,-1.2455841449506e-13,2.4097586910859e-13,-3.198642705737e-13,4.5469952100646e-13,-0.00027681387823334,0.00027681387797301,-0.00027681387811455,0.00027681387809838,-0.00027681387798415,0.00027681387823442,-0.00027681387786245,0.00027681387835629,-0.00027538258679029,0.00027538258681196,-0.00027538258643282,0.00027538258716236,3.2169111373376e-13,-4.5265387761711e-13,5.660353697727e-13,-6.798351726786e-13,-0.00027593776417242,0.00027593776405443,-0.0002768138778389,0.00027681387838844,-0.0002768138782413,0.00027681387797016,-0.00027681387808941,0.00027681387812874,-0.00027681387849168,0.00027681387771051,-0.00027538258638864,0.00027538258723825,-0.00027538258759455,0.00027538258600821,-0.00027538258669916,0.0002753825869207,-0.00027538258744124,0.00027538258613532,3.2863306710303e-13,-3.6909945955899e-14,-0.00027593776396632,0.0002759377642612,-4.5819879645894e-13,7.7285388984417e-13,-0.00027681387810624,0.00027681387810857,-0.00027681387769546,0.00027681387851629,-0.0002768138782298,0.00027681387798818,-0.0002768138778188,0.00027681387839588,-0.00027538258663612,0.00027538258699022,-0.00027538258627837,0.00027538258734103,0.77299482352756,0.6794853077092,114808,2744,0.0011490801546232,0.0011490801546256,0.001149080154627,32.66162699136,32.671236266119,2.1293015930884e-05,2.1293015930884e-05,2.1293015930884e-05,499034.64183471,0.0034531891776944
4219200,0.19382804622324,0.0038276730676591,0.0012758910225509,0.0012758910225534,0.0012758910225548,-0.0003121276316723,0.00031212763178105,-1.5623639712208e-13,2.6096909413753e-13,-2.923008934782e-13,4.1441871663091e-13,-0.00031362435211142,0.00031362435184417,-0.0003136243519754,0.00031362435198673,-0.00031362435188406,0.00031362435208305,-0.0003136243517449,0.00031362435222192,-0.00031108441196706,0.00031108441190401,-0.00031108441155875,0.0003110844123046,2.9409933899648e-13,-4.1238296080715e-13,5.6728737564243e-13,-6.6942863764993e-13,-0.00031212763178036,0.00031212763167423,-0.0003136243517197,0.00031362435225598,-0.00031362435211892,0.00031362435184026,-0.00031362435194846,0.00031362435201886,-0.00031362435234752,0.00031362435160327,-0.00031108441151113,0.00031108441238571,-0.00031108441270782,0.00031108441116457,-0.00031108441185919,0.00031108441202885,-0.00031108441253485,0.00031108441131123,3.7605505589382e-13,-4.1163264549347e-14,-0.00031212763155868,0.0003121276318966,-4.3132992610801e-13,7.8967527302129e-13,-0.00031362435194885,0.00031362435201431,-0.00031362435154161,0.00031362435241882,-0.00031362435208959,0.00031362435187667,-0.00031362435168208,0.00031362435228105,-0.00031108441177594,0.00031108441211919,-0.00031108441136815,0.00031108441252085,0.7748867044205,0.69594696893002,114808,2744,0.0012996866776364,0.0012996866776389,0.0012996866776404,32.999360855667,33.008987610361,2.3994886845335e-05,2.3994886845335e-05,2.3994886845335e-05,555609.70668156,0.0039066716739059
4419200,0.21787782064722,0.0042898721628818,0.0014299573876251,0.0014299573876277,0.0014299573876291,-0.00035028678965028,0.00035028678974152,-1.9070286418598e-13,2.7817922826314e-13,-2.7370513187558e-13,3.7741322028519e-13,-0.00035244018382606,0.00035244018354239,-0.00035244018367261,0.00035244018370196,-0.00035244018361637,0.00035244018376266,-0.00035244018345981,0.00035244018391858,-0.00034874770245072,0.00034874770230141,-0.00034874770199139,0.00034874770275216,2.7551099509292e-13,-3.7536548872433e-13,5.6157068263642e-13,-6.4643976641475e-13,-0.00035028678974083,0.00035028678965223,-0.00035244018343056,0.00035244018395675,-0.00035244018382057,0.0003524401835504,-0.00035244018364162,0.00035244018373821,-0.00035244018403146,0.000352440183332,-0.00034874770194779,0.00034874770282985,-0.00034874770311673,0.00034874770163734,-0.0003487477023129,0.00034874770245526,-0.00034874770293463,0.00034874770179345,4.1421385340405e-13,-5.4681939798392e-14,-0.00035028678951576,0.000350286789878,-4.0464752064895e-13,7.872734346311e-13,-0.00035244018362946,0.00035244018374586,-0.00035244018323202,0.00035244018414078,-0.00035244018378732,0.00035244018359088,-0.00035244018338962,0.00035244018398567,-0.00034874770223421,0.00034874770254171,-0.00034874770177624,0.00034874770299437,0.77612065568427,0.70796919803802,114808,2744,0.0014584639372236,0.0014584639372263,0.0014584639372277,33.592658963792,33.609469705379,2.8741271710339e-05,2.8741271710339e-05,2.8741271710339e-05,590215.89883836,0.0043849786409617
4619200,0.24300375084386,0.0047730564985497,0.0015910188328477,0.0015910188328503,0.0015910188328518,-0.00039035337575309,0.00039035337581623,-2.304210658038e-13,2.9014210074218e-13,-2.6873486751142e-13,3.4316697236691e-13,-0.00039320474607638,0.00039320474576045,-0.0003932047459051,0.00039320474593665,-0.00039320474587888,0.00039320474596734,-0.0003932047457048,0.0003932047461402,-0.00038830414361166,0.00038830414337106,-0.00038830414310071,0.0003883041438714,2.7052294159218e-13,-3.4113529913901e-13,5.6079366225621e-13,-6.1794043116753e-13,-0.00039035337581556,0.00039035337575503,-0.00039320474566133,0.00039320474619278,-0.00039320474604171,0.00039320474579633,-0.00039320474586004,0.00039320474598746,-0.00039320474624024,0.00039320474559116,-0.00038830414305606,0.0003883041439502,-0.00038830414419801,0.00038830414278784,-0.00038830414342746,0.00038830414356958,-0.00038830414401177,0.00038830414294767,4.3297709637633e-13,-8.759989005996e-14,-0.00039035337561208,0.0003903533759592,-3.9855108924368e-13,7.6480507690636e-13,-0.0003932047458574,0.0003932047459853,-0.00039320474546961,0.00039320474637084,-0.00039320474603235,0.00039320474581296,-0.00039320474564431,0.00039320474619837,-0.00038830414338614,0.00038830414361922,-0.00038830414287811,0.00038830414412303,0.77693644225204,0.71700962800632,114808,2744,0.001625150704633,0.0016251507046356,0.0016251507046371,34.290133708257,34.309995823094,3.4321069666055e-05,3.4321069666055e-05,3.4321069666055e-05,609027.40963567,0.0048873578304702
4819200,0.26917454050481,0.0052769404302787,0.001758980143424,0.0017589801434266,0.0017589801434281,-0.00043215972639731,0.00043215972644274,-2.6504629272358e-13,3.072022458693e-13,-2.6806508753616e-13,3.2412148801691e-13,-0.00043574732869386,0.00043574732834962,-0.00043574732850495,0.00043574732854265,-0.00043574732850239,0.00043574732854971,-0.00043574732831089,0.0004357473287396,-0.00042960950304392,0.00042960950272859,-0.00042960950248138,0.00042960950327857,2.6984180063586e-13,-3.2210114532523e-13,5.5588176819355e-13,-5.9548514657282e-13,-0.00043215972644207,0.00043215972639925,-0.00043574732826302,0.00043574732879652,-0.00043574732863464,0.00043574732840937,-0.00043574732845558,0.0004357473285979,-0.00043574732882701,0.00043574732821089,-0.00042960950245129,0.00042960950334302,-0.00042960950356782,0.00042960950220818,-0.0004296095028177,0.00042960950296774,-0.00042960950338345,0.0004296095023658,4.5341736899885e-13,-1.1884463408389e-13,-0.00043215972625321,0.0004321597265888,-3.9132313358218e-13,7.4520839615974e-13,-0.00043574732845305,0.00043574732859562,-0.00043574732807427,0.00043574732897226,-0.00043574732864518,0.000435747328406,-0.00043574732826615,0.0004357473287825,-0.00042960950281581,0.00042960950297833,-0.0004296095022574,0.00042960950353299,0.77792177198485,0.72605005797462,114808,2744,0.0017990456938409,0.0017990456938435,0.0017990456938449,34.990514703047,35.01052194081,3.9924117624374e-05,3.9924117624374e-05,3.9924117624374e-05,594290.48653512,0.0054117298637323
5019200,0.29634104104944,0.0057994922881446,0.001933164096046,0.0019331640960486,0.00193316409605,-0.00047548582821658,0.00047548582824955,-2.9710049271771e-13,3.2683693562251e-13,-2.6848620044696e-13,3.1165772171759e-13,-0.00047982263763662,0.00047982263726676,-0.00047982263743021,0.00047982263747674,-0.0004798226374488,0.00047982263746267,-0.00047982263723996,0.00047982263766968,-0.00047242529730755,0.00047242529692519,-0.00047242529669377,0.00047242529752516,2.7025265573158e-13,-3.096493639539e-13,5.4908409350491e-13,-5.7628277730967e-13,-0.00047548582824887,0.00047548582821851,-0.00047982263719257,0.00047982263772592,-0.00047982263755589,0.00047982263734759,-0.0004798226373814,0.0004798226375314,-0.00047982263774453,0.0004798226371532,-0.00047242529668531,0.0004724252975681,-0.00047242529777729,0.00047242529645935,-0.00047242529704271,0.0004724252972023,-0.00047242529759711,0.00047242529661261,4.7441988179827e-13,-1.4953093193267e-13,-0.00047548582807132,0.00047548582839676,-3.8395602040713e-13,7.2701587839925e-13,-0.00047982263737495,0.00047982263753312,-0.00047982263700466,0.00047982263790128,-0.0004798226375843,0.00047982263732627,-0.00047982263721375,0.00047982263769429,-0.00047242529708024,0.00047242529717377,-0.00047242529647125,0.00047242529777911,0.77677323988972,0.72436448347241,114808,2744,0.0019792302154712,0.0019792302154738,0.0019792302154752,35.691018939015,35.711048058525,4.5528151512117e-05,4.5528151512117e-05,4.5528151512117e-05,588694.23965996,0.0059553564699381
5219200,0.32380501057923,0.006329188704814,0.0021097295682691,0.0021097295682717,0.0021097295682732,-0.00051868594817355,0.00051868594819908,-3.2667570134774e-13,3.4895334342008e-13,-2.702590395554e-13,3.0579282368032e-13,-0.00052372986584913,0.00052372986545602,-0.00052372986562532,0.00052372986568306,-0.00052372986566249,0.00052372986565047,-0.00052372986543636,0.00052372986587466,-0.00051517022439593,0.00051517022395412,-0.00051517022373109,0.00051517022460428,2.7201069026013e-13,-3.0379933678586e-13,5.4072327539275e-13,-5.6048900979843e-13,-0.00051868594819841,0.00051868594817546,-0.00052372986539417,0.00052372986592557,-0.00052372986574974,0.0005237298655554,-0.00052372986558175,0.00052372986573245,-0.00052372986593714,0.00052372986536242,-0.00051517022375089,0.00051517022461894,-0.00051517022481979,0.00051517022353414,-0.00051517022409515,0.00051517022426638,-0.00051517022464581,0.00051517022368088,4.9633055067767e-13,-1.7931130157459e-13,-0.00051868594802865,0.00051868594834592,-3.7635582611727e-13,7.1080156491187e-13,-0.0005237298655672,0.00052372986574241,-0.00052372986520482,0.00052372986610266,-0.0005237298657938,0.00052372986551834,-0.00052372986543115,0.00052372986587844,-0.00051517022417186,0.00051517022419886,-0.0005151702235122,0.00051517022485475,0.7785555062772,0.73634261842785,114808,2744,0.0021588584787999,0.0021588584788025,0.0021588584788039,36.021706827717,36.031329417267,4.8173654621734e-05,4.8173654621734e-05,4.8173654621734e-05,564105.45814133,0.0064975974449112
5419200,0.35135807508617,0.0068547764439301,0.0022849254813078,0.0022849254813104,0.0022849254813119,-0.00056143492505712,0.00056143492507724,-3.5524345592024e-13,3.7207466812843e-13,-2.720421608348e-13,3.0204661459502e-13,-0.00056730614635765,0.00056730614594256,-0.00056730614611646,0.00056730614618672,-0.00056730614617151,0.00056730614613628,-0.0005673061459281,0.0005673061463777,-0.00055732167795966,0.00055732167746105,-0.00055732167724379,0.00055732167816151,2.7383136993373e-13,-3.0001742290896e-13,5.318726928308e-13,-5.4615440359316e-13,-0.00056143492507653,0.00056143492505906,-0.00056730614589313,0.00056730614642168,-0.00056730614624118,0.00056730614605924,-0.00056730614608005,0.00056730614622919,-0.00056730614642796,0.00056730614586693,-0.00055732167729422,0.00055732167814565,-0.00055732167834065,0.00055732167708374,-0.00055732167762431,0.0005573216778069,-0.00055732167817318,0.00055732167722343,5.1797331597663e-13,-2.0935736898197e-13,-0.00056143492491382,0.00056143492522247,-3.6940162679858e-13,6.9489521260472e-13,-0.00056730614605671,0.0005673061462481,-0.00056730614570176,0.00056730614660077,-0.00056730614630045,0.00056730614600681,-0.00056730614594546,0.00056730614635932,-0.0005573216777403,0.00055732167770038,-0.00055732167702985,0.00055732167840679,0.7695800170081,0.69714498381277,114808,2744,0.0023365790013163,0.0023365790013188,0.0023365790013203,36.274883949934,36.282165972326,5.0199071599471e-05,5.0199071599471e-05,5.0199071599471e-05,620576.7602985,0.007034367726417
5619200,0.37891357707727,0.0073572518523106,0.0024524172841012,0.002452417284104,0.0024524172841054,-0.00060262665237706,0.00060262665239301,-3.8320534113399e-13,3.9579487849343e-13,-2.7512720204387e-13,3.0080652747883e-13,-0.00060987864262183,0.0006098786421848,-0.00060987864236325,0.00060987864244602,-0.00060987864243496,0.00060987864237907,-0.00060987864217425,0.00060987864263764,-0.00059733573424931,0.00059733573369654,-0.00059733573348245,0.00059733573444715,2.7687701218557e-13,-2.9881728310182e-13,5.2415028168633e-13,-5.3424653207634e-13,-0.00060262665239235,0.00060262665237901,-0.00060987864214703,0.00060987864267377,-0.00060987864248871,0.00060987864231799,-0.0006098786423347,0.00060987864248071,-0.0006098786426762,0.0006098786421251,-0.00059733573356427,0.0005973357344002,-0.00059733573459187,0.00059733573335764,-0.00059733573388041,0.00059733573407555,-0.00059733573443127,0.00059733573349045,5.3893327125262e-13,-2.4008220977094e-13,-0.00060262665223672,0.00060262665253534,-3.6492370477249e-13,6.8009116485822e-13,-0.00060987864230298,0.00060987864250802,-0.0006098786419545,0.00060987864285426,-0.00060987864256404,0.00060987864224954,-0.00060987864221538,0.00060987864259561,-0.00059733573403618,0.00059733573392952,-0.00059733573327501,0.0005973357346864,0.7363704714185,0.54647744867083,114808,2744,0.0025077952087042,0.0025077952087068,0.0025077952087083,36.525818858941,36.533002527384,5.2206550871529e-05,5.2206550871529e-05,5.2206550871529e-05,863336.22342215,0.0075517661215712
5819200,0.40638395628804,0.0078405103054286,0.0026135034351405,0.0026135034351433,0.0026135034351448,-0.000643060767442,0.00064306076745723,-4.0944636945182e-13,4.2123374545392e-13,-2.7636257256472e-13,3.0128748705055e-13,-0.00065200622949648,0.00065200622904095,-0.00065200622922064,0.00065200622931937,-0.00065200622930898,0.00065200622923576,-0.00065200622903103,0.0006520062295116,-0.00063625682004782,0.00063625681944426,-0.00063625681923015,0.00063625682024524,2.780798577924e-13,-2.9932985567838e-13,5.1496979743794e-13,-5.2432257054067e-13,-0.00064306076745658,0.00064306076744393,-0.00065200622901487,0.00065200622953655,-0.00065200622935034,0.00065200622918719,-0.00065200622920314,0.0006520062293429,-0.00065200622953844,0.00065200622899373,-0.00063625681934639,0.00063625682016386,-0.00063625682035539,0.00063625681914,-0.00063625681964879,0.0006362568198527,-0.00063625682020145,0.00063625681926602,5.6253715311141e-13,-2.6815842559123e-13,-0.00064306076730356,0.00064306076759765,-3.5775871777557e-13,6.6828923128154e-13,-0.00065200622915883,0.00065200622938289,-0.00065200622881662,0.00065200622972282,-0.00065200622943716,0.00065200622910721,-0.00065200622909476,0.00065200622944696,-0.00063625681983975,0.0006362568196717,-0.0006362568190278,0.000636256820479,0.71317582478803,0.45191892595528,114808,2744,0.002675833277936,0.0026758332779386,0.0026758332779401,36.776657896563,36.783839082443,5.4213263172508e-05,5.4213263172508e-05,5.4213263172508e-05,961661.61050615,0.0080598219920876
6019200,0.43329368499202,0.0083062783834121,0.002768759461135,0.0027687594611378,0.0027687594611393,-0.00068212095292116,0.00068212095293844,-4.3428348155907e-13,4.4807390996649e-13,-2.7426133988094e-13,3.0134234199242e-13,-0.00069269437708794,0.00069269437661792,-0.00069269437679494,0.00069269437691363,-0.00069269437690117,0.00069269437681209,-0.00069269437660607,0.0006926943771052,-0.00067375456134378,0.00067375456069088,-0.00067375456047572,0.00067375456154271,2.759619813156e-13,-2.9940070645511e-13,5.033606226785e-13,-5.147401279836e-13,-0.00068212095293781,0.00068212095292309,-0.00069269437660398,0.00069269437711596,-0.00069269437693258,0.00069269437677366,-0.00069269437679152,0.00069269437692296,-0.00069269437711994,0.00069269437658083,-0.00067375456062891,0.00067375456142416,-0.00067375456161696,0.00067375456042107,-0.00067375456091881,0.00067375456112568,-0.00067375456146939,0.00067375456054093,5.8877493980033e-13,-2.9359695728508e-13,-0.00068212095278329,0.00068212095307831,-3.4663976333435e-13,6.5814133541044e-13,-0.00069269437673049,0.0006926943769798,-0.0006926943763953,0.00069269437731269,-0.00069269437702607,0.00069269437668691,-0.00069269437669067,0.00069269437701962,-0.00067375456113968,0.00067375456091469,-0.00067375456027697,0.00067375456177245,0.702615218426,0.42208439038852,114808,2744,0.002838134210866,0.0028381342108687,0.0028381342108702,36.775450594735,36.775527870775,5.4203604757881e-05,5.4203604757881e-05,5.4203604757881e-05,930589.8504999,0.0085507775923604
6219200,0.45957412134406,0.00876481534288,0.002921605114291,0.0029216051142938,0.0029216051142952,-0.00072038571494975,0.00072038571496891,-4.5919242005662e-13,4.7484124254731e-13,-2.6991239245911e-13,2.989584111434e-13,-0.00073237970696036,0.0007323797064772,-0.00073237970665017,0.00073237970679019,-0.00073237970677585,0.00073237970666916,-0.00073237970646356,0.00073237970697955,-0.00071068368173926,0.00071068368103533,-0.00071068368082087,0.00071068368193807,2.716092907579e-13,-2.9701863216702e-13,4.9043448815127e-13,-5.0370352396781e-13,-0.00072038571496829,0.00072038571495168,-0.00073237970647581,0.00073237970697582,-0.00073237970679664,0.00073237970664149,-0.00073237970666108,0.00073237970678502,-0.00073237970698172,0.00073237970645088,-0.00071068368101064,0.0007106836817826,-0.00071068368197509,0.00071068368080313,-0.00071068368128922,0.00071068368149553,-0.00071068368183311,0.00071068368091735,6.1503781395814e-13,-3.1901088678933e-13,-0.00072038571481234,0.00072038571510832,-3.3414896844897e-13,6.4659845274347e-13,-0.00073237970658326,0.00073237970685879,-0.00073237970625604,0.00073237970718372,-0.0007323797068961,0.00073237970654868,-0.00073237970656864,0.00073237970687342,-0.00071068368153868,0.00071068368125588,-0.00071068368062529,0.0007106836821642,0.70745490412617,0.46557179585039,114808,2744,0.0029971042999439,0.0029971042999466,0.0029971042999481,36.758816902851,36.758350165794,5.4070535222805e-05,5.4070535222805e-05,5.4070535222805e-05,873731.57603564,0.0090318901463627
6419200,0.48518152221701,0.0092087778692295,0.0030695926230741,0.0030695926230769,0.0030695926230784,-0.00075730216722639,0.00075730216724614,-4.8473254745194e-13,5.0097354400515e-13,-2.6504984764714e-13,2.9468271088076e-13,-0.00077074347023006,0.00077074346973329,-0.00077074346990264,0.00077074347006351,-0.00077074347004855,0.00077074346992222,-0.00077074346971905,0.00077074347024984,-0.00074626900631342,0.00074626900555641,-0.00074626900534462,0.00074626900650995,2.6673520436378e-13,-2.9275526241004e-13,4.7746253149447e-13,-4.913296960974e-13,-0.00075730216724553,0.00075730216722832,-0.0007707434697446,0.00077074347023268,-0.00077074347005724,0.00077074346990679,-0.00077074346992685,0.00077074347004491,-0.0007707434702393,0.0007707434697192,-0.00074626900556946,0.00074626900631894,-0.0007462690065091,0.00074626900536449,-0.00074626900583754,0.00074626900604264,-0.00074626900637246,0.00074626900547353,6.402317795939e-13,-3.454890926042e-13,-0.0007573021670899,0.00075730216738464,-3.2216527571903e-13,6.3325712501775e-13,-0.00077074346983393,0.0007707434701339,-0.00077074346951511,0.00077074347045043,-0.000770743470164,0.00077074346980656,-0.00077074346984493,0.0007707434701229,-0.0007462690061165,0.00074626900577335,-0.00074626900515246,0.00074626900673222,0.70210891388105,0.45785087119184,114808,2744,0.003150448507456,0.0031504485074588,0.0031504485074602,36.741663071807,36.741172460813,5.3933304574455e-05,5.3933304574455e-05,5.3933304574455e-05,901374.14942025,0.009496195813119
6619200,0.51048735463072,0.0096718180244924,0.0032239393414951,0.0032239393414979,0.0032239393414994,-0.00079534984585742,0.000795349845876,-5.1103423843863e-13,5.2635241753759e-13,-2.6067645545853e-13,2.8923064949631e-13,-0.00080982746320961,0.00080982746269784,-0.00080982746286503,0.00080982746304555,-0.00080982746303136,0.00080982746288363,-0.0008098274626848,0.0008098274632282,-0.00078369210258105,0.00078369210176905,-0.00078369210156273,0.00078369210277443,2.6259186035186e-13,-2.8707717116595e-13,4.6561751099877e-13,-4.7794336974636e-13,-0.00079534984587529,0.0007953498458597,-0.00080982746272257,0.00080982746320037,-0.00080982746302661,0.00080982746288315,-0.00080982746290118,0.00080982746301582,-0.00080982746320584,0.00080982746269859,-0.00078369210181993,0.00078369210254837,-0.0007836921027344,0.00078369210161931,-0.0007836921020788,0.0007836921022836,-0.00078369210260398,0.0007836921017243,6.639942154325e-13,-3.7340687208814e-13,-0.0007953498457224,0.00079534984601314,-3.1180850387601e-13,6.1849745826838e-13,-0.00080982746279565,0.00080982746311749,-0.00080982746248533,0.00080982746342553,-0.0008098274631435,0.00080982746277257,-0.00080982746283234,0.00080982746308109,-0.00078369210238919,0.00078369210198197,-0.00078369210137463,0.00078369210299307,0.74070664816277,0.65548884337107,114808,2744,0.0033084677780001,0.0033084677780034,0.0033084677780045,37.008081850428,37.015585147567,5.6064654803428e-05,5.6064654803428e-05,5.6064654803428e-05,803022.50009988,0.0099748764390186
6819200,0.53658224000988,0.010183328986359,0.0033944429954508,0.0033944429954536,0.003394442995455,-0.0008376422768303,0.00083764227684762,-5.3757545427711e-13,5.515113867126e-13,-2.5639453502746e-13,2.8344779674673e-13,-0.00085254864327613,0.00085254864274932,-0.00085254864291419,0.0008525486431139,-0.00085254864310083,0.00085254864293147,-0.00085254864273716,0.00085254864329345,-0.00082629768420523,0.00082629768333807,-0.00082629768313585,0.00082629768439319,2.5810787968733e-13,-2.8149398878716e-13,4.5367737576171e-13,-4.6500361798807e-13,-0.00083764227684696,0.00083764227683226,-0.00085254864278649,0.00085254864325358,-0.00085254864308256,0.00085254864294423,-0.00085254864296175,0.00085254864307267,-0.00085254864325826,0.00085254864276366,-0.00082629768342563,0.00082629768413462,-0.00082629768431644,0.0008262976832306,-0.00082629768367439,0.00082629768387892,-0.00082629768419003,0.00082629768332997,6.8739758871081e-13,-4.0168539055175e-13,-0.00083764227669704,0.00083764227698273,-3.0198248052486e-13,6.0358459031685e-13,-0.00085254864284403,0.00085254864318645,-0.00085254864254186,0.00085254864348641,-0.00085254864320905,0.00085254864282432,-0.00085254864290618,0.00085254864312437,-0.00082629768401646,0.00082629768354709,-0.00082629768295196,0.00082629768460651,0.79221449042441,0.89576281890611,114808,2744,0.0034840884009219,0.0034840884009246,0.0034840884009257,38.070449834024,38.100551755545,6.4563598672191e-05,6.4563598672191e-05,6.4563598672191e-05,610585.7600589,0.010507135229443
7019200,0.56337130514653,0.010670006586551,0.0035566688621815,0.0035566688621843,0.0035566688621856,-0.00087939406269033,0.00087939406270622,-5.6415685271158e-13,5.7664527646075e-13,-2.5223589368874e-13,2.7780840284987e-13,-0.00089522691494146,0.00089522691439908,-0.00089522691456237,0.00089522691478105,-0.00089522691476939,0.00089522691457809,-0.00089522691438845,0.00089522691495736,-0.00086733340766403,0.00086733340674144,-0.00086733340654381,0.00086733340784717,2.5396035933241e-13,-2.7585057295435e-13,4.4274885667929e-13,-4.5266664193305e-13,-0.00087939406270556,0.00087939406269229,-0.00089522691444843,0.00089522691490635,-0.00089522691473722,0.00089522691460491,-0.0008952269146207,0.00089522691472859,-0.00089522691490977,0.0008952269144273,-0.00086733340686629,0.00086733340755729,-0.0008673334077344,0.00086733340667573,-0.00086733340710591,0.00086733340731001,-0.00086733340761194,0.00086733340677077,7.108151233212e-13,-4.2995443871644e-13,-0.00087939406255878,0.00087939406283964,-2.9293599218299e-13,5.89503491073e-13,-0.00089522691449151,0.00089522691485401,-0.0008952269141971,0.00089522691514613,-0.00089522691487368,0.0008952269144747,-0.00089522691457856,0.00089522691476705,-0.0008673334074794,0.00086733340694628,-0.00086733340636364,0.00086733340805715,0.73335805690316,0.60915714949679,114808,2744,0.0036574323483703,0.003657432348373,0.0036574323483741,39.154419739431,39.185518363522,7.3235357915452e-05,7.3235357915452e-05,7.3235357915452e-05,674693.47374407,0.011032776424916
7219200,0.59070161187473,0.011148470088996,0.0037161566963296,0.0037161566963324,0.0037161566963337,-0.00092095074710056,0.00092095074711492,-5.9078176452262e-13,6.0172136506798e-13,-2.4832047826063e-13,2.7229682122491e-13,-0.00093811321264991,0.00093811321209187,-0.00093811321225362,0.00093811321249108,-0.00093811321248089,0.00093811321226775,-0.00093811321208272,0.00093811321266429,-0.00090769464282269,0.00090769464184478,-0.0009076946416519,0.00090769464300122,2.5004374368821e-13,-2.7034385882774e-13,4.3237599709244e-13,-4.4077035829752e-13,-0.00092095074711425,0.00092095074710251,-0.0009381132121533,0.00093811321260238,-0.000938113212435,0.0009381132123084,-0.00093811321232256,0.00093811321242774,-0.00093811321260449,0.00093811321213389,-0.00090769464200587,0.00090769464267964,-0.00090769464285225,0.00090769464182005,-0.00090769464223707,0.00090769464244086,-0.00090769464273385,0.00090769464191097,7.3425770128418e-13,-4.5820342867037e-13,-0.00092095074697063,0.00092095074724671,-2.8433451965795e-13,5.759483757607e-13,-0.00093811321218215,0.0009381132125645,-0.00093811321189509,0.00093811321284928,-0.00093811321258156,0.00093811321216798,-0.00093811321229379,0.00093811321245296,-0.00090769464264179,0.00090769464204582,-0.00090769464147537,0.0009076946432073,0.70718847214798,0.49455785239988,114808,2744,0.0038299354244136,0.0038299354244163,0.0038299354244175,40.23930423059,40.2704849715,8.1914433844723e-05,8.1914433844723e-05,8.1914433844723e-05,822539.90820271,0.011556144413731
7419200,0.61758265161803,0.01160349952137,0.0038678331737878,0.0038678331737906,0.0038678331737919,-0.00095985076512257,0.00095985076513545,-6.1736749830259e-13,6.2682063075899e-13,-2.4472544849533e-13,2.6715680177838e-13,-0.00097871269096238,0.00097871269038849,-0.00097871269054884,0.00097871269080492,-0.00097871269079615,0.00097871269056146,-0.00097871269038076,0.00097871269097527,-0.00094502606428975,0.00094502606325683,-0.00094502606306841,0.00094502606446399,2.4643670682189e-13,-2.6521913303166e-13,4.229286680548e-13,-4.2984298623889e-13,-0.00095985076513478,0.0009598507651245,-0.00097871269046172,0.00097871269090276,-0.00097871269073692,0.00097871269061558,-0.00097871269062821,0.00097871269073101,-0.00097871269090359,0.00097871269044395,-0.00094502606345321,0.0009450260641114,-0.00094502606427969,0.00094502606327188,-0.00094502606367674,0.00094502606388021,-0.000945026064165,0.000945026063359,7.5789250866881e-13,-4.8624936600388e-13,-0.00095985076499409,0.00095985076526577,-2.7645781910928e-13,5.6354457821762e-13,-0.00097871269047686,0.00097871269087881,-0.00097871269019651,0.00097871269115685,-0.00097871269089346,0.00097871269046508,-0.00097871269061243,0.00097871269074331,-0.00094502606411222,0.00094502606345448,-0.00094502606289515,0.00094502606466653,0.68501443118496,0.40602158184497,114808,2744,0.0039913823880076,0.0039913823880102,0.0039913823880114,40.76902939135,40.784512406056,8.6152235130801e-05,8.6152235130801e-05,8.6152235130801e-05,1011067.9882201,0.012046220325927
7619200,0.64327744714663,0.012029314942744,0.0040097716475789,0.0040097716475817,0.0040097716475831,-0.00099557404621685,0.00099557404622663,-6.4474508013479e-13,6.5110828291702e-13,-2.4339917898208e-13,2.6257487557661e-13,-0.0010163673963528,0.0010163673957605,-0.001016367395922,0.0010163673961941,-0.0010163673961884,0.0010163673959315,-0.0010163673957557,0.0010163673963625,-0.0009790365562863,0.00097903655519778,-0.00097903655501439,0.00097903655645551,2.4510380636461e-13,-2.6064697859019e-13,4.1598782126937e-13,-4.198272628006e-13,-0.00099557404622596,0.00099557404621879,-0.001016367395845,0.0010163673962816,-0.0010163673961147,0.0010163673960001,-0.0010163673960096,0.0010163673961118,-0.0010163673962796,0.0010163673958305,-0.00097903655542765,0.0009790365560742,-0.00097903655623773,0.00097903655525155,-0.00097903655564397,0.00097903655585041,-0.00097903655612652,0.00097903655533519,7.7987154310674e-13,-5.1593153276347e-13,-0.00099557404609071,0.00099557404635463,-2.7211042250749e-13,5.5114116301579e-13,-0.0010163673958505,0.0010163673962675,-0.0010163673955757,0.00101636739654,-0.0010163673962843,0.0010163673958365,-0.0010163673960088,0.0010163673961092,-0.00097903655611285,0.00097903655539125,-0.00097903655484522,0.00097903655665387,0.67223240365785,0.36683891635165,114808,2744,0.0041396209036923,0.0041396209036949,0.0041396209036961,40.851386650694,40.853961573413,8.6811093205553e-05,8.6811093205553e-05,8.6811093205553e-05,1182997.8048792,0.012496416352228
7819200,0.66775176114877,0.012430557397509,0.0041435191325006,0.0041435191325034,0.0041435191325047,-0.0010295385792975,0.0010295385793048,-6.7185140095235e-13,6.756649142775e-13,-2.4273258997092e-13,2.5932035735285e-13,-0.0010522900797067,0.0010522900790961,-0.0010522900792587,0.0010522900795469,-0.0010522900795434,0.0010522900792656,-0.0010522900790936,0.0010522900797139,-0.0010112859367907,0.0010112859356476,-0.001011285935468,0.0010112859369557,2.4439885731208e-13,-2.5743451790513e-13,4.0984677358004e-13,-4.1136940353533e-13,-0.0010295385793042,0.0010295385792994,-0.0010522900791914,0.0010522900796244,-0.0010522900794565,0.0010522900793478,-0.0010522900793548,0.0010522900794559,-0.0010522900796201,0.0010522900791794,-0.0010112859359101,0.0010112859365459,-0.0010112859367061,0.0010112859357377,-0.0010112859361194,0.0010112859363294,-0.001011285936598,0.0010112859358179,8.0236909111621e-13,-5.4508973023585e-13,-0.0010295385791735,0.0010295385794307,-2.6835430196028e-13,5.4045343069515e-13,-0.0010522900791876,0.0010522900796198,-0.0010522900789174,0.0010522900798876,-0.0010522900796385,0.0010522900791717,-0.0010522900793679,0.0010522900794396,-0.0010112859366211,0.0010112859358375,-0.0010112859353027,0.0010112859371506,0.6665508292119,0.36272845484214,114808,2744,0.0042805404471989,0.0042805404472015,0.0042805404472027,40.921386840776,40.92341074077,8.7371094726211e-05,8.7371094726211e-05,8.7371094726211e-05,1236122.7860921,0.012924573392769
8019200,0.69100089253084,0.012808282704261,0.0042694275680847,0.0042694275680875,0.0042694275680888,-0.0010616100635009,0.0010616100635063,-6.9857664517625e-13,7.0058674076599e-13,-2.4250912103947e-13,2.5721940682957e-13,-0.0010862590828096,0.0010862590821806,-0.0010862590823443,0.0010862590826486,-0.001086259082647,0.0010862590823494,-0.00108625908218,0.001086259082815,-0.0010416833416351,0.001041683340439,-0.0010416833402619,0.0010416833417977,2.4417959930438e-13,-2.5532896458128e-13,4.0464122672358e-13,-4.0428247297737e-13,-0.0010616100635057,0.0010616100635028,-0.0010862590822865,0.0010862590827165,-0.0010862590825476,0.001086259082444,-0.0010862590824492,0.0010862590825488,-0.0010862590827105,0.0010862590822764,-0.0010416833407326,0.001041683341359,-0.0010416833415166,0.0010416833405629,-0.0010416833409354,0.001041683341149,-0.0010416833414118,0.00104168334064,8.2565923255955e-13,-5.7345170203237e-13,-0.0010616100633785,0.0010616100636306,-2.6481896878581e-13,5.3179401876365e-13,-0.0010862590822731,0.0010862590827216,-0.0010862590820071,0.0010862590829853,-0.0010862590827413,0.0010862590822563,-0.0010862590824747,0.0010862590825201,-0.0010416833414687,0.0010416833406254,-0.0010416833400999,0.0010416833419891,0.66097248606903,0.35861799333263,114808,2744,0.0044135869632055,0.0044135869632082,0.0044135869632095,40.990860863821,40.992859908126,8.7926886910566e-05,8.7926886910566e-05,8.7926886910566e-05,1267126.3699194,0.013328978686824
8219200,0.7131694736096,0.013165306565287,0.0043884355217599,0.0043884355217626,0.004388435521764,-0.0010921905628244,0.0010921905628284,-7.2515113849078e-13,7.2565191139334e-13,-2.4267809393353e-13,2.5583514029443e-13,-0.0011186985348471,0.0011186985341998,-0.0011186985343646,0.0011186985346851,-0.001118698534685,0.0011186985343683,-0.0011186985342007,0.001118698534851,-0.0010706297916632,0.0010706297904147,-0.0010706297902396,0.0010706297918241,2.4434341782925e-13,-2.5394935966844e-13,4.000696016777e-13,-3.9819124729543e-13,-0.0010921905628278,0.0010921905628263,-0.001118698534316,0.0011186985347436,-0.0011186985345737,0.0011186985344747,-0.0011186985344784,0.0011186985345763,-0.0011186985347362,0.0011186985343075,-0.0010706297907388,0.0010706297913567,-0.0010706297915124,0.0010706297905711,-0.0010706297909354,0.0010706297911529,-0.0010706297914107,0.0010706297906452,8.49367508288e-13,-6.0138303992564e-13,-0.0010921905627034,0.0010921905629513,-2.6167382957354e-13,5.2436198110141e-13,-0.0011186985342932,0.0011186985347583,-0.0011186985340306,0.0011186985350184,-0.0011186985347786,0.0011186985342757,-0.0011186985345155,0.001118698534536,-0.0010706297914999,0.0010706297905983,-0.0010706297900804,0.0010706297920125,0.65549139086077,0.35450753182313,114808,2744,0.0045404312498387,0.0045404312498415,0.0045404312498427,41.180884860942,41.186298454293,8.9447078887539e-05,8.9447078887539e-05,8.9447078887539e-05,1293171.1064946,0.013714685023462
8419200,0.73431047134943,0.013504789647471,0.0045015965491549,0.0045015965491576,0.004501596549159,-0.0011213593207107,0.0011213593207132,-7.5168611738745e-13,7.507345327169e-13,-2.4327451269634e-13,2.5486418466234e-13,-0.0011495578279652,0.0011495578272996,-0.0011495578274656,0.001149557827802,-0.0011495578278034,0.0011495578274678,-0.0011495578273017,0.0011495578279677,-0.0010982943642741,0.0010982943629738,-0.0010982943628001,0.0010982943644336,2.4469817169765e-13,-2.5321302922165e-13,3.958831413359e-13,-3.9303440483343e-13,-0.0011213593207129,0.0011213593207125,-0.0011495578274255,0.0011495578278509,-0.0011495578276803,0.0011495578275855,-0.0011495578275881,0.0011495578276838,-0.001149557827843,0.0011495578274182,-0.0010982943633276,0.0010982943639376,-0.0010982943640922,0.0010982943631615,-0.0010982943635186,0.00109829436374,-0.0010982943639934,0.0010982943632328,8.7344666974497e-13,-6.289233750579e-13,-0.0011213593205907,0.0011213593208352,-2.588545039373e-13,5.1790000203985e-13,-0.0011495578273932,0.0011495578278752,-0.0011495578271338,0.0011495578281323,-0.0011495578278959,0.0011495578273755,-0.0011495578276359,0.0011495578276327,-0.0010982943641133,0.0010982943631547,-0.0010982943626439,0.0010982943646194,0.65380934672983,0.36755567020317,114808,2744,0.0046614044705178,0.0046614044705209,0.004661404470522,41.429993081152,41.437135009675,9.143994464922e-05,9.143994464922e-05,9.143994464922e-05,1304462.8295063,0.014082677602501
8619200,0.75441024095249,0.013826915430373,0.0046089718101221,0.0046089718101248,0.0046089718101262,-0.0011490121572562,0.0011490121572576,-7.78044469327e-13,7.7599815816164e-13,-2.4405112034789e-13,2.5458383293278e-13,-0.0011787961947691,0.0011787961940848,-0.0011787961942522,0.0011787961946045,-0.0011787961946069,0.0011787961942533,-0.0011787961940881,0.0011787961947705,-0.0011245756810416,0.0011245756796896,-0.0011245756795169,0.0011245756812,2.4557938007145e-13,-2.5282827626971e-13,3.9252047935703e-13,-3.8836819444178e-13,-0.0011490121572571,0.001149012157258,-0.0011787961942209,0.0011787961946451,-0.001178796194473,0.0011787961943821,-0.0011787961943835,0.0011787961944778,-0.0011787961946357,0.0011787961942148,-0.0011245756800728,0.001124575680676,-0.0011245756808294,0.0011245756799074,-0.0011245756802581,0.0011245756804837,-0.0011245756807335,0.001124575679976,8.9759490262127e-13,-6.5639709457815e-13,-0.0011490121571373,0.0011490121573784,-2.5653651592671e-13,5.122610566587e-13,-0.0011787961941798,0.0011787961946783,-0.001178796193923,0.0011787961949327,-0.0011787961946997,0.0011787961941613,-0.0011787961944423,0.0011787961944158,-0.0011245756808833,0.0011245756798682,-0.0011245756793629,0.0011245756813834,0.65260875083983,0.38114806429055,114808,2744,0.0047760768034253,0.0047760768034281,0.0047760768034293,41.680753646028,41.687971565057,9.3446029168224e-05,9.3446029168224e-05,9.3446029168224e-05,1307701.2010593,0.014431628564316
8819200,0.77346139122655,0.014121219262763,0.0047070730875854,0.0047070730875882,0.0047070730875895,-0.0011746853489394,0.0011746853489397,-8.0440161634014e-13,8.0124654033354e-13,-2.4519569251665e-13,2.5457804634485e-13,-0.0012061492955123,0.0012061492948094,-0.0012061492949782,0.0012061492953463,-0.0012061492953496,0.0012061492949782,-0.0012061492948137,0.0012061492955126,-0.0011487119389476,0.0011487119375443,-0.0011487119373724,0.0011487119391053,2.4671763941606e-13,-2.5283074678247e-13,3.8955127594651e-13,-3.8428543681428e-13,-0.0011746853489392,0.0011746853489412,-0.0012061492949551,0.0012061492953786,-0.001206149295205,0.0012061492951179,-0.0012061492951182,0.0012061492952108,-0.0012061492953681,0.0012061492949502,-0.0011487119379563,0.0011487119385533,-0.001148711938706,0.0011487119377916,-0.0011487119381361,0.0011487119383663,-0.0011487119386127,0.0011487119378576,9.2187174921557e-13,-6.8372681849738e-13,-0.0011746853488214,0.0011746853490595,-2.5456957601537e-13,5.0724062179425e-13,-0.0012061492949054,0.0012061492954204,-0.0012061492946509,0.0012061492956725,-0.0012061492954425,0.0012061492948863,-0.0012061492951874,0.0012061492951384,-0.0011487119387917,0.0011487119377206,-0.0011487119372207,0.0011487119392863,0.62941992484602,0.2915797403408,114808,2744,0.0048825268746658,0.0048825268746686,0.0048825268746698,41.931584764831,41.938808120439,9.5452678118651e-05,9.5452678118651e-05,9.5452678118651e-05,1348813.4193343,0.014755673188714
9019200,0.79106799866903,0.014393248791519,0.0047977495971707,0.0047977495971734,0.0047977495971748,-0.0011975499353637,0.0011975499353645,-8.2997321198368e-13,8.2725775076406e-13,-2.4537706076963e-13,2.5526819437894e-13,-0.0012305266775921,0.0012305266768722,-0.0012305266770409,0.0012305266774263,-0.0012305266774293,0.0012305266770413,-0.0012305266768761,0.001230526677593,-0.0011702426444618,0.0011702426430088,-0.0011702426428363,0.0011702426446202,2.4690822182919e-13,-2.5351596114376e-13,3.863553147574e-13,-3.8150011013939e-13,-0.001197549935364,0.0011975499353655,-0.0012305266770274,0.0012305266774488,-0.0012305266772754,0.0012305266771901,-0.0012305266771907,0.0012305266772807,-0.0012305266774387,0.0012305266770221,-0.0011702426434489,0.0011702426440393,-0.0011702426441929,0.0011702426432835,-0.0011702426436242,0.0011702426438568,-0.0011702426441017,0.0011702426433472,9.4625621016938e-13,-7.1092681108569e-13,-0.0011975499352474,0.0011975499354827,-2.5304779897521e-13,5.0284881478447e-13,-0.0012305266769684,0.0012305266774999,-0.0012305266767159,0.0012305266777501,-0.0012305266775227,0.0012305266769485,-0.0012305266772696,0.0012305266771988,-0.0011702426443085,0.0011702426431821,-0.0011702426426869,0.0011702426447983,0.62977529864282,0.31692151856187,114808,2744,0.0049773213627502,0.0049773213627529,0.0049773213627542,41.75057893696,41.745561220521,9.4004631495684e-05,9.4004631495684e-05,9.4004631495684e-05,1358963.6526566,0.015044327032727
9219200,0.80722416292027,0.014640102877288,0.004880034292427,0.0048800342924297,0.0048800342924311,-0.00121805829968,0.0012180582996807,-8.5583239810624e-13,8.5296769184807e-13,-2.4560215315792e-13,2.5536431644248e-13,-0.0012523219698327,0.0012523219690952,-0.0012523219692642,0.0012523219696665,-0.0012523219696696,0.0012523219692645,-0.0012523219690993,0.0012523219698333,-0.0011895686605098,0.0011895686590062,-0.0011895686588337,0.0011895686606683,2.471310385517e-13,-2.5361407579348e-13,3.8438896306339e-13,-3.7940082133005e-13,-0.0012180582996802,0.0012180582996818,-0.0012523219692598,0.0012523219696801,-0.0012523219695065,0.0012523219694228,-0.0012523219694232,0.0012523219695119,-0.00125232196967,0.0012523219692546,-0.0011895686594735,0.00118956866006,-0.0011895686602135,0.0011895686593082,-0.001189568659646,0.0011895686598804,-0.0011895686601238,0.0011895686593705,9.7076749077834e-13,-7.3798177869264e-13,-0.0012180582995649,0.0012180582997977,-2.5233535015179e-13,4.9954468042939e-13,-0.0012523219691922,0.0012523219697398,-0.0012523219689411,0.0012523219699886,-0.0012523219697638,0.0012523219691712,-0.0012523219695119,0.0012523219694201,-0.0011895686603585,0.0011895686591777,-0.0011895686586863,0.0011895686608444,0.62300579956426,0.30664989516131,114808,2744,0.00506233882588,0.0050623388258827,0.0050623388258839,41.453180866084,41.444677807066,9.1625446928676e-05,9.1625446928676e-05,9.1625446928676e-05,1368683.8973231,0.015303282134591
9419200,0.82203934589744,0.014863901764866,0.0049546339216197,0.0049546339216225,0.0049546339216239,-0.001236592156024,0.0012365921560245,-8.8168211025351e-13,8.7866949376206e-13,-2.4560824287308e-13,2.5522090905877e-13,-0.0012721115201636,0.0012721115194088,-0.0012721115195779,0.0012721115199974,-0.0012721115200005,0.001272111519578,-0.001272111519413,0.0012721115201641,-0.0012070333844537,0.0012070333828995,-0.0012070333827272,0.001207033384612,2.4713315613407e-13,-2.5347637411782e-13,3.8310935509571e-13,-3.7796486519752e-13,-0.001236592156024,0.0012365921560258,-0.0012721115195824,0.0012721115200019,-0.0012721115198283,0.0012721115197456,-0.0012721115197458,0.0012721115198338,-0.0012721115199918,0.0012721115195775,-0.0012070333833933,0.0012070333839772,-0.0012070333841307,0.0012070333832282,-0.0012070333835641,0.0012070333837994,-0.0012070333840418,0.0012070333832896,9.9544856031802e-13,-7.6485051669467e-13,-0.0012365921559098,0.0012365921561405,-2.5210482778233e-13,4.9709693167702e-13,-0.0012721115195065,0.00127211152007,-0.0012721115192562,0.001272111520318,-0.0012721115200953,0.0012721115194843,-0.0012721115198443,0.0012721115197323,-0.0012070333843037,0.0012070333830694,-0.0012070333825811,0.0012070333847865,0.61620823696423,0.29637827176075,114808,2744,0.0051391641705336,0.0051391641705362,0.0051391641705374,41.152444470812,41.14379439361,8.9219555766499e-05,8.9219555766499e-05,8.9219555766499e-05,1385215.6278989,0.015537344376784
9619200,0.83562025021043,0.015066678048691,0.005022226016228,0.0050222260162308,0.0050222260162321,-0.0012533719198926,0.0012533719198929,-9.0754298014816e-13,9.0434949303328e-13,-2.4539659216974e-13,2.5482822252566e-13,-0.0012900717447197,0.0012900717439478,-0.0012900717441168,0.0012900717445535,-0.0012900717445568,0.0012900717441168,-0.0012900717439521,0.00129007174472,-0.0012227879114317,0.0012227879098267,-0.0012227879096549,0.0012227879115898,2.4692139789726e-13,-2.5308362141027e-13,3.8249890315636e-13,-3.7718088914745e-13,-0.0012533719198924,0.0012533719198943,-0.00129007174413,0.0012900717445492,-0.0012900717443756,0.0012900717442933,-0.0012900717442933,0.0012900717443812,-0.0012900717445389,0.0012900717441254,-0.0012227879103465,0.0012227879109294,-0.0012227879110825,0.0012227879101818,-0.0012227879105168,0.0012227879107521,-0.0012227879109939,0.0012227879102429,1.0202789782364e-12,-7.9155914194097e-13,-0.0012533719197792,0.0012533719200081,-2.5236923146968e-13,4.9546839319246e-13,-0.0012900717440461,0.0012900717446254,-0.0012900717437962,0.0012900717448729,-0.001290071744652,0.0012900717440225,-0.0012900717444015,0.0012900717442701,-0.0012227879112829,0.0012227879099958,-0.0012227879095098,0.0012227879117633,0.60938040157162,0.28610664836019,114808,2744,0.0052087130104807,0.0052087130104833,0.0052087130104846,40.851564891601,40.842910980155,8.6812519132805e-05,8.6812519132805e-05,8.6812519132805e-05,1401792.137264,0.015749286352427
9819200,0.84783458825147,0.015249852846603,0.0050832842821988,0.0050832842822016,0.005083284282203,-0.0012676708158103,0.0012676708158105,-9.3340250541476e-13,9.3001042952519e-13,-2.4497650263646e-13,2.5420532243719e-13,-0.0013054611372728,0.0013054611364838,-0.0013054611366528,0.0013054611371068,-0.0013054611371103,0.0013054611366525,-0.0013054611364884,0.001305461137273,-0.0012362046061357,0.0012362046044796,-0.0012362046043085,0.0012362046062932,2.4649858728442e-13,-2.5246311095467e-13,3.8249025636169e-13,-3.7698083643539e-13,-0.00126767081581,0.0012676708158121,-0.0013054611366747,0.0013054611370936,-0.0013054611369203,0.0013054611368378,-0.0013054611368376,0.001305461136926,-0.0013054611370832,0.0013054611366703,-0.0012362046050247,0.001236204605608,-0.0012362046057606,0.0012362046048607,-0.0012362046051956,0.0012362046054302,-0.0012362046056718,0.0012362046049221,1.0452524800189e-12,-8.181043015928e-13,-0.0012676708156977,0.001267670815925,-2.5306750425558e-13,4.945816555758e-13,-0.0013054611365829,0.0013054611371779,-0.001305461136333,0.0013054611374253,-0.0013054611372059,0.0013054611365578,-0.0013054611369555,0.0013054611368053,-0.0012362046059873,0.0012362046046482,-0.0012362046041638,0.0012362046064662,0.61213710601002,0.31993467860817,114808,2744,0.0052679749350683,0.005267974935071,0.0052679749350723,40.18645638391,40.167503712494,8.149165107128e-05,8.149165107128e-05,8.149165107128e-05,1410618.090818,0.015929916948792
10019200,0.85881104069012,0.01541543017895,0.0051384767263143,0.0051384767263171,0.0051384767263185,-0.0012803054655261,0.001280305465526,-9.5938123016491e-13,9.5552194376658e-13,-2.4438729487808e-13,2.5359542195158e-13,-0.0013190914707334,0.0013190914699275,-0.0013190914700962,0.0013190914705676,-0.0013190914705712,0.0013190914700957,-0.0013190914699322,0.0013190914707334,-0.0012480857974253,0.001248085795718,-0.0012480857955483,0.0012480857975823,2.4597966196076e-13,-2.5179554311312e-13,3.8291924325644e-13,-3.7706724556036e-13,-0.0012803054655252,0.0012803054655275,-0.0013190914701274,0.0013190914705463,-0.0013190914703732,0.0013190914702903,-0.0013190914702898,0.001319091470379,-0.0013190914705356,0.0013190914701232,-0.0012480857962865,0.0012480857968716,-0.0012480857970228,0.0012480857961233,-0.0012480857964584,0.0012480857966921,-0.0012480857969325,0.0012480857961845,1.070351183859e-12,-8.44505377411e-13,-0.0012803054654136,0.0012803054656397,-2.5392883088381e-13,4.9429331144334e-13,-0.0013190914700277,0.0013190914706384,-0.0013190914697777,0.001319091470886,-0.001319091470668,0.0013190914700012,-0.0013190914704174,0.0013190914702489,-0.0012480857972743,0.0012480857958839,-0.0012480857954003,0.0012480857977514,0.61574676328657,0.35423133859393,114808,2744,0.0053203364407165,0.0053203364407176,0.0053203364407188,39.482473054412,39.462277582679,7.5859784435295e-05,7.5859784435295e-05,7.5859784435295e-05,1413211.2759979,0.01608954207148
10219200,0.86868870688042,0.015565494667875,0.0051884982226224,0.0051884982226254,0.0051884982226268,-0.0012915492174961,0.0012915492174959,-9.8515955662532e-13,9.812185953324e-13,-2.4385184087738e-13,2.5271069897926e-13,-0.0013312354979954,0.0013312354971726,-0.0013312354973411,0.0013312354978299,-0.0013312354978338,0.0013312354973404,-0.0013312354971776,0.0013312354979952,-0.0012586878385916,0.0012586878368333,-0.0012586878366638,0.0012586878387478,2.4540967937334e-13,-2.5094362796207e-13,3.8355357681916e-13,-3.775540542181e-13,-0.0012915492174952,0.0012915492174978,-0.0013312354973805,0.0013312354977996,-0.0013312354976267,0.0013312354975432,-0.0013312354975425,0.0013312354976328,-0.0013312354977888,0.0013312354973765,-0.0012586878374276,0.0012586878380138,-0.0012586878381649,0.0012586878372649,-0.0012586878376011,0.0012586878378331,-0.0012586878380744,0.0012586878373272,1.0955336204352e-12,-8.707892509273e-13,-0.0012915492173843,0.0012915492176092,-2.5506514911125e-13,4.9425548906937e-13,-0.001331235497273,0.0013312354978994,-0.0013312354970226,0.0013312354981475,-0.0013312354979304,0.001331235497245,-0.0013312354976794,0.0013312354974931,-0.0012586878384425,0.0012586878370008,-0.001258687836518,0.0012586878389192,0.62007022089154,0.3885279985797,114808,2744,0.0053669314669445,0.0053669314669464,0.0053669314669477,38.777285292223,38.757051452865,7.0218282337785e-05,7.0218282337785e-05,7.0218282337785e-05,1412918.0498721,0.016231608851827
10419200,0.87760521377428,0.01570207174783,0.005234023915941,0.005234023915944,0.0052340239159454,-0.0013016516942994,0.0013016516942989,-1.0110285678154e-12,1.0068102156974e-12,-2.4325078795007e-13,2.5174839014184e-13,-0.0013421453309744,0.0013421453301347,-0.0013421453303029,0.0013421453308092,-0.0013421453308133,0.0013421453303019,-0.0013421453301399,0.001342145330974,-0.0012682462508932,0.0012682462490837,-0.0012682462489151,0.0012682462510487,2.4479769806895e-13,-2.4997706925448e-13,3.8444637307426e-13,-3.7819362291501e-13,-0.0013016516942985,0.0013016516943013,-0.0013421453303507,0.00134214533077,-0.0013421453305973,0.0013421453305132,-0.0013421453305121,0.0013421453306037,-0.0013421453307589,0.0013421453303469,-0.0012682462497034,0.0012682462502919,-0.0012682462504423,0.0012682462495415,-0.0012682462498793,0.0012682462501094,-0.0012682462503514,0.0012682462496054,1.1208214067342e-12,-8.9696101022154e-13,-0.0013016516941882,0.0013016516944122,-2.5629164105453e-13,4.9454548021034e-13,-0.0013421453302354,0.0013421453308776,-0.0013421453299845,0.0013421453311263,-0.00134214533091,0.0013421453302061,-0.0013421453306584,0.0013421453304546,-0.0012682462507455,0.0012682462492529,-0.0012682462487707,0.0012682462512219,0.6250614180399,0.42282465856547,114808,2744,0.0054087952642986,0.0054087952643016,0.0054087952643029,38.102135074957,38.08276373752,6.4817080599656e-05,6.4817080599656e-05,6.4817080599656e-05,1409736.7146751,0.016359266610524
10619200,0.8859273314793,0.01582724073469,0.0052757469115608,0.0052757469115638,0.0052757469115652,-0.0013120435883426,0.0013120435883418,-1.0368366507197e-12,1.0324757927874e-12,-2.4249987270068e-13,2.5079783094548e-13,-0.0013533135412016,0.001353313540345,-0.001353313540513,0.0013533135410367,-0.001353313541041,0.0013533135405117,-0.0013533135403505,0.0013533135412009,-0.0012780877400081,0.0012780877381474,-0.0012780877379794,0.0012780877401628,2.4405136792765e-13,-2.4902239253684e-13,3.8551169347063e-13,-3.7908330161829e-13,-0.0013120435883413,0.0013120435883444,-0.0013533135405695,0.0013533135409892,-0.0013533135408169,0.0013533135407317,-0.0013533135407304,0.0013533135408235,-0.0013533135409779,0.0013533135405661,-0.0012780877387906,0.0012780877393817,-0.0012780877395315,0.0012780877386294,-0.0012780877389686,0.0012780877391968,-0.0012780877394389,0.0012780877386942,1.1461833084161e-12,-9.2307674181563e-13,-0.0013120435882315,0.0013120435884548,-2.5764218803154e-13,4.9515987320577e-13,-0.0013533135404466,0.0013533135411045,-0.001353313540195,0.0013533135413538,-0.0013533135411383,0.0013533135404158,-0.0013533135408861,0.0013533135406651,-0.0012780877398588,0.0012780877383158,-0.0012780877378336,0.0012780877403354,0.61395111522434,0.38035252949607,114808,2744,0.0054518567452837,0.0054518567452864,0.0054518567452877,38.029850059317,38.027509077453,6.4238800474537e-05,6.4238800474537e-05,6.4238800474537e-05,1412299.7087179,0.016490592376515
10819200,0.89369777360483,0.015942166985405,0.0053140556617993,0.0053140556618023,0.0053140556618036,-0.0013216514291152,0.0013216514291142,-1.0626537958471e-12,1.0581045776305e-12,-2.4175946540233e-13,2.4979350868566e-13,-0.0013636729557924,0.001363672954919,-0.0013636729550866,0.0013636729556278,-0.0013636729556324,0.0013636729550851,-0.0013636729549247,0.0013636729557915,-0.0012871492977833,0.0012871492958717,-0.0012871492957045,0.0012871492979375,2.4331144935518e-13,-2.4801677619891e-13,3.8682847677321e-13,-3.8007550660123e-13,-0.0013216514291137,0.0013216514291171,-0.0013636729551515,0.0013636729555717,-0.0013636729553998,0.0013636729553134,-0.001363672955312,0.0013636729554066,-0.0013636729555602,0.0013636729551484,-0.0012871492965388,0.0012871492971333,-0.0012871492972821,0.0012871492963786,-0.0012871492967197,0.0012871492969457,-0.0012871492971885,0.001287149296445,1.171596649703e-12,-9.4911671101833e-13,-0.0013216514290043,0.0013216514292271,-2.5908643802834e-13,4.9602708200725e-13,-0.001363672955021,0.0013636729556948,-0.0013636729547686,0.0013636729559448,-0.0013636729557299,0.0013636729549889,-0.0013636729554769,0.0013636729552389,-0.0012871492976339,0.0012871492960407,-0.0012871492955586,0.0012871492981106,0.60386752898654,0.34605845394565,114808,2744,0.0054916673413308,0.0054916673413337,0.0054916673413349,37.973872679991,37.972254417386,6.379098143993e-05,6.379098143993e-05,6.379098143993e-05,1422888.374549,0.01661202056122
11019200,0.90094995557325,0.016047498059143,0.0053491660197119,0.0053491660197149,0.0053491660197163,-0.0013304953616088,0.0013304953616076,-1.0885357275984e-12,1.0836816179033e-12,-2.4099736322447e-13,2.4875176845128e-13,-0.001373236922966,0.0013732369220758,-0.0013732369222431,0.0013732369228018,-0.0013732369228066,0.0013732369222413,-0.0013732369220818,0.0013732369229648,-0.0012954552100539,0.0012954552080909,-0.0012954552079247,0.0012954552102071,2.4253229668717e-13,-2.4699257219352e-13,3.8823166920076e-13,-3.8124647082907e-13,-0.0013304953616071,0.0013304953616107,-0.0013732369223165,0.0013732369227372,-0.0013732369225656,0.001373236922478,-0.0013732369224763,0.0013732369225727,-0.0013732369227255,0.0013732369223136,-0.0012954552087822,0.0012954552093799,-0.0012954552095279,0.0012954552086228,-0.0012954552089658,0.0012954552091894,-0.0012954552094328,0.0012954552086905,1.1970902826548e-12,-9.7507724147136e-13,-0.001330495361498,0.0013304953617203,-2.6061968530633e-13,4.9706510911976e-13,-0.0013732369221783,0.0013732369228679,-0.0013732369219251,0.0013732369231188,-0.0013732369229043,0.0013732369221449,-0.0013732369226505,0.0013732369223958,-0.0012954552099039,0.0012954552082607,-0.001295455207778,0.0012954552103809,0.59320718813067,0.31176437839522,114808,2744,0.0055283109299751,0.0055283109299778,0.0055283109299791,37.918585254816,37.916999757318,6.3348682038528e-05,6.3348682038528e-05,6.3348682038528e-05,1436489.9752867,0.016723803317473
11219200,0.90770651550124,0.016145526122394,0.0053818420407956,0.0053818420407986,0.0053818420408,-0.0013386364478272,0.0013386364478256,-1.1143784399595e-12,1.109275046577e-12,-2.402138961777e-13,2.4770943999958e-13,-0.0013820455980858,0.0013820455971787,-0.0013820455973457,0.0013820455979219,-0.0013820455979269,0.0013820455973436,-0.001382045597185,0.0013820455980843,-0.0013031101471891,0.0013031101451752,-0.0013031101450096,0.0013031101473415,2.4176455543526e-13,-2.4593325161386e-13,3.8974609352438e-13,-3.8251207922443e-13,-0.0013386364478252,0.001338636447829,-0.0013820455974274,0.0013820455978487,-0.0013820455976775,0.0013820455975887,-0.0013820455975867,0.0013820455976848,-0.0013820455978367,0.0013820455974248,-0.0013031101458902,0.0013031101464916,-0.0013031101466388,0.0013031101457317,-0.001303110146077,0.0013031101462981,-0.0013031101465419,0.001303110145801,1.2226510900249e-12,-1.0009525098232e-12,-0.0013386364477164,0.0013386364479384,-2.6219581362728e-13,4.9826601360943e-13,-0.0013820455972816,0.0013820455979871,-0.0013820455970274,0.0013820455982389,-0.0013820455980248,0.0013820455972469,-0.00138204559777,0.0013820455974987,-0.0013031101470386,0.0013031101453458,-0.0013031101448626,0.0013031101475163,0.59263235326398,0.32603854019991,114808,2744,0.0055620411018375,0.0055620411018404,0.0055620411018416,37.837871686917,37.835569469459,6.2702973495333e-05,6.2702973495333e-05,6.2702973495333e-05,1448349.1402295,0.016826709849709
11419200,0.91395792671591,0.016236786489074,0.0054122621630221,0.0054122621630251,0.0054122621630264,-0.0013459203321432,0.0013459203321414,-1.140214650681e-12,1.1348821487185e-12,-2.3943229338922e-13,2.4668294194663e-13,-0.0013899380184719,0.001389938017548,-0.0013899380177146,0.0013899380183084,-0.0013899380183136,0.0013899380177124,-0.0013899380175545,0.0013899380184702,-0.0013099698945641,0.0013099698924988,-0.0013099698923343,0.0013099698947157,2.4099475542271e-13,-2.4489704797505e-13,3.9130410475173e-13,-3.8380856902932e-13,-0.0013459203321409,0.001345920332145,-0.0013899380178048,0.0013899380182267,-0.0013899380180559,0.0013899380179657,-0.0013899380179635,0.0013899380180635,-0.0013899380182145,0.0013899380178025,-0.0013099698932378,0.0013099698938427,-0.001309969893989,0.0013099698930801,-0.0013099698934275,0.0013099698936461,-0.0013099698938908,0.0013099698931509,1.2481980448771e-12,-1.0268443953145e-12,-0.0013459203320325,0.0013459203322541,-2.6376564802286e-13,4.9954232756009e-13,-0.0013899380176513,0.0013899380183728,-0.0013899380173962,0.0013899380186255,-0.0013899380184117,0.0013899380176154,-0.001389938018156,0.0013899380178682,-0.0013099698944129,0.0013099698926703,-0.0013099698921864,0.0013099698948912,0.59626237144287,0.3577874152333,114808,2744,0.0055922187189494,0.0055922187189522,0.0055922187189535,37.631244699817,37.625379748611,6.1049957598536e-05,6.1049957598536e-05,6.1049957598536e-05,1455481.4986547,0.016918787014612
11619200,0.9197421368837,0.016321581096619,0.0054405270322039,0.0054405270322069,0.0054405270322083,-0.001352629077008,0.0013526290770059,-1.166079331121e-12,1.1604488714066e-12,-2.3870572470764e-13,2.4566663475882e-13,-0.0013972024278648,0.0013972024269242,-0.0013972024270905,0.0013972024277016,-0.0013972024277071,0.0013972024270879,-0.0013972024269309,0.0013972024278629,-0.0013163013772079,0.0013163013750913,-0.0013163013749275,0.0013163013773586,2.4023460217428e-13,-2.4391654851687e-13,3.9287299799959e-13,-3.851344108787e-13,-0.0013526290770055,0.0013526290770098,-0.0013972024271891,0.0013972024276117,-0.0013972024274411,0.0013972024273497,-0.0013972024273472,0.0013972024274489,-0.0013972024275992,0.001397202427187,-0.0013163013758541,0.0013163013764627,-0.0013163013766081,0.0013163013756972,-0.001316301376047,0.0013163013762631,-0.0013163013765086,0.0013163013757696,1.2737866455159e-12,-1.0526855470615e-12,-0.0013526290768972,0.0013526290771186,-2.6531160079507e-13,5.0087811028225e-13,-0.001397202427028,0.0013972024277654,-0.0013972024267719,0.0013972024280191,-0.0013972024278055,0.0013972024269909,-0.0013972024275488,0.0013972024272446,-0.0013163013770559,0.0013163013752636,-0.001316301374779,0.001316301377535,0.59873358064517,0.38116675113467,114808,2744,0.0056200127715944,0.0056200127715973,0.0056200127715986,37.421204760238,37.415190027762,5.9369638081907e-05,5.9369638081907e-05,5.9369638081907e-05,1458710.7794792,0.017003598556014
11819200,0.92509543819529,0.016400520912439,0.0054668403041438,0.0054668403041467,0.0054668403041481,-0.0013588190519576,0.0013588190519554,-1.1919051451013e-12,1.1860435601521e-12,-2.3800906009872e-13,2.4471911958711e-13,-0.0014038992831366,0.0014038992821791,-0.001403899282345,0.0014038992829737,-0.0014038992829794,0.0014038992823423,-0.001403899282186,0.0014038992831344,-0.0013221611288592,0.0013221611266914,-0.0013221611265286,0.0013221611290091,2.395372705361e-13,-2.429666951813e-13,3.9442106835416e-13,-3.8644937070758e-13,-0.0013588190519549,0.0013588190519595,-0.0014038992824521,0.0014038992828753,-0.0014038992827051,0.0014038992826124,-0.0014038992826097,0.0014038992827131,-0.0014038992828626,0.0014038992824503,-0.0013221611274779,0.0013221611280901,-0.0013221611282347,0.0013221611273218,-0.0013221611276737,0.0013221611278874,-0.0013221611281337,0.0013221611273956,1.2994139508546e-12,-1.0784797002443e-12,-0.0013588190518469,0.0013588190520681,-2.6681602542416e-13,5.0222553970745e-13,-0.0014038992822833,0.0014038992830367,-0.0014038992820262,0.0014038992832914,-0.0014038992830779,0.0014038992822451,-0.0014038992828203,0.0014038992824997,-0.0013221611287062,0.0013221611268644,-0.0013221611263789,0.001322161129186,0.60218091162407,0.40683270730493,114808,2744,0.0056456569951932,0.005645656995196,0.0056456569951973,37.211020422464,37.205000306914,5.7688163379716e-05,5.7688163379716e-05,5.7688163379716e-05,1459561.7379336,0.0170818559243
12019200,0.9300587038567,0.016475829005835,0.0054919430019426,0.0054919430019455,0.0054919430019469,-0.0013646706139547,0.0013646706139522,-1.2177140009599e-12,1.2116541588551e-12,-2.3736710016053e-13,2.4385987377766e-13,-0.0014101889026813,0.0014101889017069,-0.0014101889018726,0.0014101889025187,-0.0014101889025246,0.0014101889018696,-0.0014101889017141,0.001410188902679,-0.0013277708330876,0.0013277708308688,-0.0013277708307067,0.0013277708332369,2.3890176053873e-13,-2.421008981014e-13,3.9590667002887e-13,-3.8772980217952e-13,-0.0013646706139517,0.0013646706139565,-0.0014101889019881,0.001410188902412,-0.001410188902242,0.0014101889021481,-0.0014101889021452,0.0014101889022503,-0.0014101889023991,0.0014101889019865,-0.0013277708316792,0.0013277708322948,-0.0013277708324387,0.0013277708315238,-0.0013277708318778,0.0013277708320894,-0.0013277708323363,0.001327770831599,1.3250657554449e-12,-1.1042475895235e-12,-0.0013646706138438,0.001364670614065,-2.6824851107447e-13,5.0355044040911e-13,-0.0014101889018115,0.0014101889025811,-0.0014101889015536,0.0014101889028367,-0.0014101889026234,0.0014101889017723,-0.0014101889023648,0.0014101889020279,-0.001327770832934,0.0013277708310426,-0.0013277708305564,0.0013277708334145,0.61929849149662,0.49287376631672,114808,2744,0.0056698989874539,0.0056698989874566,0.0056698989874579,37.028569318386,37.023332206433,5.6228554547088e-05,5.6228554547088e-05,5.6228554547088e-05,1453818.772873,0.017155837844667
12219200,0.93467818465879,0.016548069508123,0.005516023169372,0.005516023169375,0.0055160231693764,-0.0013703436138364,0.0013703436138336,-1.2435374032492e-12,1.2372485777903e-12,-2.3682562922507e-13,2.4307664035196e-13,-0.0014162307691737,0.0014162307681824,-0.0014162307683479,0.0014162307690114,-0.0014162307690175,0.0014162307683447,-0.0014162307681898,0.0014162307691711,-0.0013332750528256,0.0013332750505558,-0.0013332750503943,0.0013332750529742,2.3835571839642e-13,-2.4132133368126e-13,3.9732439142434e-13,-3.8892429510034e-13,-0.0013703436138332,0.0013703436138382,-0.0014162307684717,0.0014162307688962,-0.0014162307687264,0.0014162307686314,-0.0014162307686283,0.001416230768735,-0.0014162307688831,0.0014162307684703,-0.00133327505139,0.0013332750520088,-0.0013332750521521,0.0013332750512353,-0.0013332750515911,0.0013332750518008,-0.0013332750520484,0.0013332750513118,1.3507240598366e-12,-1.1300069790625e-12,-0.0013703436137255,0.0013703436139465,-2.6959494053021e-13,5.0480787258365e-13,-0.0014162307682873,0.0014162307690731,-0.0014162307680285,0.0014162307693296,-0.0014162307691163,0.0014162307682471,-0.0014162307688569,0.0014162307685036,-0.0013332750526712,0.0013332750507302,-0.0013332750502432,0.0013332750531525,0.63789979850128,0.5789148253285,114808,2744,0.0056934011067202,0.005693401106723,0.0056934011067242,36.914685542624,36.911393988486,5.5317484340989e-05,5.5317484340989e-05,5.5317484340989e-05,1438660.1034245,0.017227564755208
12419200,0.93897823926266,0.01661322890572,0.005537742968571,0.0055377429685739,0.0055377429685753,-0.0013755590845636,0.0013755590845606,-1.2693431746432e-12,1.2628556849869e-12,-2.3632752196948e-13,2.4236722084777e-13,-0.0014218008444731,0.0014218008434648,-0.0014218008436301,0.0014218008443109,-0.0014218008443172,0.0014218008436267,-0.0014218008434723,0.0014218008444703,-0.0013382816856803,0.0013382816833595,-0.0013382816831986,0.0013382816858282,2.3786502750433e-13,-2.4060429676272e-13,3.9867664423159e-13,-3.9005961335832e-13,-0.0013755590845602,0.0013755590845654,-0.0014218008437622,0.0014218008441873,-0.0014218008440178,0.0014218008439218,-0.0014218008439184,0.0014218008440265,-0.0014218008441741,0.001421800843761,-0.0013382816842177,0.0013382816848396,-0.0013382816849822,0.0013382816840635,-0.0013382816844212,0.0013382816846291,-0.0013382816848773,0.0013382816841412,1.3763931286053e-12,-1.1557503102684e-12,-0.0013755590844526,0.0013755590846736,-2.7086431351645e-13,5.0601748268972e-13,-0.0014218008435701,0.001421800844372,-0.0014218008433104,0.0014218008446293,-0.0014218008444162,0.001421800843529,-0.0014218008441559,0.0014218008437862,-0.0013382816855252,0.0013382816835346,-0.0013382816830469,0.0013382816860073,0.61826605197626,0.48324283831952,114808,2744,0.0057150070446836,0.0057150070446864,0.0057150070446877,36.802664397953,36.79945577054,5.4421315183623e-05,5.4421315183623e-05,5.4421315183623e-05,1424594.2849055,0.017293510386702
12619200,0.94298116587207,0.016670815469088,0.0055569384896934,0.0055569384896964,0.0055569384896978,-0.0013802371455467,0.0013802371455436,-1.2951455683831e-12,1.2884607906361e-12,-2.3588957268768e-13,2.4172332875353e-13,-0.0014268472057763,0.0014268472047511,-0.0014268472049162,0.0014268472056143,-0.0014268472056208,0.0014268472049126,-0.0014268472047589,0.0014268472057733,-0.0013426897500619,0.0013426897476903,-0.00134268974753,0.0013426897502094,2.3741004140385e-13,-2.3997784531214e-13,3.9992884127195e-13,-3.9114840362594e-13,-0.0013802371455431,0.0013802371455485,-0.0014268472050567,0.0014268472054824,-0.0014268472053131,0.0014268472052161,-0.0014268472052126,0.001426847205322,-0.001426847205469,0.0014268472050557,-0.0013426897485726,0.0013426897491972,-0.0013426897493394,0.0013426897484189,-0.0013426897487783,0.0013426897489845,-0.0013426897492334,0.0013426897484978,1.4020634620413e-12,-1.1814869652077e-12,-0.0013802371454356,0.0013802371456565,-2.7205651238971e-13,5.0715868312095e-13,-0.0014268472048567,0.001426847205675,-0.0014268472045963,0.0014268472059331,-0.0014268472057199,0.0014268472048147,-0.0014268472054589,0.0014268472050728,-0.0013426897499063,0.0013426897478661,-0.0013426897473776,0.001342689750389,0.58731200895688,0.3445775654962,114808,2744,0.0057343857997015,0.0057343857997043,0.0057343857997055,36.690722043051,36.687517552594,5.3525776344408e-05,5.3525776344408e-05,5.3525776344408e-05,1425173.7801132,0.017352664277471
12819200,0.94667414071344,0.016724320097145,0.0055747733657124,0.0055747733657154,0.0055747733657168,-0.0013841664190152,0.001384166419012,-1.3209222092332e-12,1.3140820297539e-12,-2.3554077968958e-13,2.4120497694176e-13,-0.0014311198829888,0.0014311198819465,-0.0014311198821116,0.0014311198828269,-0.0014311198828336,0.0014311198821078,-0.0014311198819545,0.0014311198829857,-0.0013463844133263,0.0013463844109039,-0.0013463844107441,0.0013463844134733,2.3706399315185e-13,-2.3945680240612e-13,4.0104116023255e-13,-3.9209525705316e-13,-0.0013841664190115,0.0013841664190171,-0.0014311198822604,0.0014311198826867,-0.0014311198825174,0.0014311198824197,-0.001431119882416,0.0014311198825265,-0.0014311198826731,0.0014311198822596,-0.0013463844118103,0.0013463844124374,-0.0013463844125791,0.0013463844116571,-0.001346384412018,0.0013463844122228,-0.0013463844124722,0.0013463844117369,1.4277451774825e-12,-1.2072041795645e-12,-0.0013841664189041,0.001384166419125,-2.7309195134599e-13,5.0817459326206e-13,-0.0014311198820525,0.0014311198828872,-0.0014311198817914,0.001431119883146,-0.0014311198829329,0.0014311198820098,-0.0014311198826711,0.0014311198822686,-0.0013463844131701,0.0013463844110802,-0.0013463844105911,0.0013463844136535,0.59134552198197,0.37751487549077,114808,2744,0.0057506622765974,0.0057506622766001,0.0057506622766014,36.407822955535,36.399803221622,5.1262583644283e-05,5.1262583644283e-05,5.1262583644283e-05,1433747.0006828,0.017402351874492
13019200,0.95003858265202,0.016773206382834,0.0055910687942755,0.0055910687942784,0.0055910687942798,-0.0013872234572339,0.0013872234572305,-1.3466934559467e-12,1.3396990987325e-12,-2.3526000253643e-13,2.4078417362054e-13,-0.0014344855305512,0.0014344855294919,-0.0014344855296568,0.0014344855303894,-0.0014344855303962,0.0014344855296529,-0.0014344855295,0.0014344855305479,-0.001349236120184,0.001349236117711,-0.0013492361175515,0.0013492361203307,2.3680129529474e-13,-2.3901469826503e-13,4.0198707251205e-13,-3.9292076124634e-13,-0.00138722345723,0.0013872234572357,-0.001434485529814,0.0014344855302408,-0.0014344855300716,0.0014344855299731,-0.0014344855299694,0.0014344855300809,-0.001434485530227,0.0014344855298133,-0.0013492361186416,0.0013492361192708,-0.001349236119412,0.0013492361184886,-0.0013492361188507,0.0013492361190546,-0.0013492361193044,0.0013492361185693,1.4534038348046e-12,-1.2329342464698e-12,-0.0013872234571227,0.0013872234573436,-2.7399851188648e-13,5.0903750807708e-13,-0.0014344855295981,0.0014344855304493,-0.0014344855293364,0.0014344855307087,-0.0014344855304956,0.0014344855295548,-0.0014344855302333,0.0014344855298141,-0.0013492361200271,0.0013492361178875,-0.0013492361173979,0.0013492361205111,0.59302695210974,0.39641182537046,114808,2744,0.0057633252665817,0.0057633252665845,0.0057633252665858,35.87594789893,35.860848862496,4.7007583191436e-05,4.7007583191436e-05,4.7007583191436e-05,1438698.836648,0.017441011267614
13219200,0.95310713529242,0.016817953428764,0.0056059844762521,0.0056059844762551,0.0056059844762565,-0.0013899121479618,0.0013899121479583,-1.3724487380743e-12,1.3653188338751e-12,-2.3507917878657e-13,2.4044755890389e-13,-0.0014374485331662,0.0014374485320898,-0.0014374485322546,0.0014374485330044,-0.0014374485330113,0.0014374485322506,-0.0014374485320979,0.0014374485331627,-0.0013517485999847,0.0013517485974611,-0.0013517485973019,0.001351748600131,2.3658377252815e-13,-2.3871623679459e-13,4.0279775362865e-13,-3.9358721147498e-13,-0.0013899121479578,0.0013899121479636,-0.0014374485324202,0.0014374485328475,-0.0014374485326784,0.0014374485325794,-0.0014374485325754,0.0014374485326877,-0.0014374485328336,0.0014374485324197,-0.0013517485984161,0.0013517485990471,-0.0013517485991881,0.0013517485982637,-0.0013517485986266,0.0013517485988295,-0.0013517485990797,0.0013517485983448,1.4790800798247e-12,-1.2586361671761e-12,-0.0013899121478506,0.0013899121480714,-2.7476207679539e-13,5.0974572173575e-13,-0.0014374485321962,0.0014374485330641,-0.001437448531934,0.0014374485333239,-0.0014374485331109,0.0014374485321524,-0.0014374485328481,0.0014374485324123,-0.0013517485998276,0.0013517485976382,-0.0013517485971481,0.001351748600312,0.59512402041202,0.41530877525015,114808,2744,0.0057744623495233,0.005774462349526,0.0057744623495273,35.337284648765,35.32189450337,4.2698277190121e-05,4.2698277190121e-05,4.2698277190121e-05,1440331.5231886,0.017475013350191
13419200,0.95590993888593,0.016858195952538,0.0056193986508436,0.0056193986508465,0.0056193986508479,-0.0013922511574736,0.00139225115747,-1.3981902044475e-12,1.3909603197319e-12,-2.3496018150274e-13,2.4022060995467e-13,-0.0014400420133121,0.0014400420122186,-0.0014400420123835,0.0014400420131504,-0.0014400420131574,0.0014400420123793,-0.0014400420122269,0.0014400420133086,-0.0013539149467022,0.001353914944128,-0.0013539149439691,0.0013539149468483,2.3647430528406e-13,-2.3848147926039e-13,4.0344108691643e-13,-3.9411578356276e-13,-0.0013922511574695,0.0013922511574754,-0.0014400420125574,0.0014400420129851,-0.0014400420128159,0.0014400420127165,-0.0014400420127125,0.0014400420128254,-0.0014400420129711,0.001440042012557,-0.0013539149451076,0.00135391494574,-0.0013539149458807,0.0013539149449553,-0.0013539149453192,0.0013539149455214,-0.0013539149457719,0.0013539149450371,1.5047566189535e-12,-1.2843389407976e-12,-0.0013922511573624,0.0013922511575831,-2.7534264729466e-13,5.1032888039124e-13,-0.0014400420123252,0.0014400420132098,-0.0014400420120627,0.00144004201347,-0.001440042013257,0.001440042012281,-0.0014400420129938,0.0014400420125413,-0.0013539149465448,0.0013539149443054,-0.0013539149438149,0.0013539149470295,0.58608285888815,0.38161430657092,114808,2744,0.0057841507666279,0.0057841507666307,0.0057841507666319,34.798334343647,34.782940144243,3.8386674749178e-05,3.8386674749178e-05,3.8386674749178e-05,1441659.2749551,0.017504594155133
13619200,0.95848739186314,0.016894742656653,0.0056315808855486,0.0056315808855515,0.0056315808855529,-0.0013944698089372,0.0013944698089335,-1.4239232041677e-12,1.4166034740809e-12,-2.3490827373646e-13,2.4008095980912e-13,-0.0014424993803876,0.0014424993792769,-0.0014424993794418,0.0014424993802258,-0.0014424993802329,0.0014424993794375,-0.0014424993792853,0.001442499380384,-0.0013559682558074,0.0013559682531827,-0.001355968253024,0.0013559682559534,2.3642665968078e-13,-2.3833760130282e-13,4.0391183724122e-13,-3.9449771307154e-13,-0.001394469808933,0.001394469808939,-0.0014424993796241,0.0014424993800521,-0.0014424993798829,0.0014424993797833,-0.0014424993797792,0.0014424993798925,-0.001442499380038,0.0014424993796237,-0.0013559682541871,0.0013559682548205,-0.0013559682549611,0.001355968254035,-0.0013559682543994,0.0013559682546012,-0.0013559682548519,0.0013559682541171,1.5304168938732e-12,-1.3100547140219e-12,-0.001394469808826,0.0013944698090467,-2.7578551611826e-13,5.1073527974073e-13,-0.0014424993793837,0.0014424993802851,-0.0014424993791208,0.0014424993805456,-0.0014424993803326,0.0014424993793391,-0.0014424993800692,0.0014424993795997,-0.0013559682556498,0.0013559682533603,-0.0013559682528696,0.0013559682561348,0.57889841396138,0.35919722196563,114808,2744,0.0057933405465966,0.0057933405465993,0.0057933405466006,34.357324380486,34.34469059981,3.4858595043891e-05,3.4858595043891e-05,3.4858595043891e-05,1445523.4715977,0.017532653352939
13819200,0.9608718228617,0.016928523716077,0.0056428412386898,0.0056428412386928,0.0056428412386942,-0.0013966133502348,0.001396613350231,-1.449649341965e-12,1.4422528163154e-12,-2.3492045523473e-13,2.4001146193224e-13,-0.0014448636201353,0.0014448636190074,-0.0014448636191724,0.0014448636199735,-0.0014448636199806,0.001444863619168,-0.0014448636190159,0.0014448636201316,-0.0013579629169561,0.001357962914281,-0.0013579629141224,0.001357962917102,2.3643760052301e-13,-2.3826930927145e-13,4.0422029840618e-13,-3.9473194121015e-13,-0.0013966133502306,0.0013966133502367,-0.0014448636193631,0.0014448636197913,-0.0014448636196221,0.0014448636195223,-0.0014448636195181,0.0014448636196317,-0.0014448636197772,0.0014448636193628,-0.0013579629153104,0.0013579629159443,-0.0013579629160848,0.0013579629151583,-0.0013579629155231,0.0013579629157247,-0.0013579629159755,0.0013579629152407,1.5560769040952e-12,-1.3357701931375e-12,-0.0013966133501236,0.0013966133503442,-2.7608356583658e-13,5.1097750763495e-13,-0.0014448636191144,0.0014448636200326,-0.0014448636188513,0.0014448636202933,-0.0014448636200804,0.0014448636190696,-0.0014448636198168,0.0014448636193303,-0.0013579629167985,0.0013579629144588,-0.001357962913968,0.0013579629172836,0.57842145948294,0.36899707157555,114808,2744,0.0058022191903149,0.0058022191903178,0.005802219190319,34.004782243236,33.994681438771,3.2038257945891e-05,3.2038257945891e-05,3.2038257945891e-05,1450331.0041081,0.017559762983407
14019200,0.96308000331803,0.016959796000482,0.0056532653334917,0.0056532653334947,0.0056532653334961,-0.0013985499108779,0.001398549910874,-1.4753704275271e-12,1.4679069950289e-12,-2.3497433525234e-13,2.4000646943769e-13,-0.0014470016342068,0.0014470016330617,-0.0014470016332268,0.0014470016340449,-0.0014470016340521,0.0014470016332223,-0.0014470016330702,0.0014470016342031,-0.0013597653935002,0.0013597653907747,-0.0013597653906162,0.0013597653936461,2.3648583434362e-13,-2.3826966220185e-13,4.0438011705324e-13,-3.9483117347279e-13,-0.0013985499108735,0.0013985499108797,-0.0014470016334259,0.0014470016338543,-0.001447001633685,0.0014470016335852,-0.001447001633581,0.0014470016336947,-0.0014470016338401,0.0014470016334257,-0.0013597653918291,0.0013597653924634,-0.0013597653926038,0.001359765391677,-0.0013597653920419,0.0013597653922436,-0.0013597653924944,0.0013597653917594,1.581740031869e-12,-1.361481319445e-12,-0.0013985499107666,0.0013985499109872,-2.7623709055827e-13,5.1108156327965e-13,-0.0014470016331688,0.001447001634104,-0.0014470016329056,0.0014470016343648,-0.001447001634152,0.0014470016331239,-0.0014470016338882,0.0014470016333846,-0.0013597653933424,0.0013597653909525,-0.0013597653904616,0.0013597653938275,0.57820994915052,0.37879692118548,114808,2744,0.0058102404283873,0.0058102404283901,0.0058102404283914,33.654661933922,33.644672277732,2.9237295471375e-05,2.9237295471375e-05,2.9237295471375e-05,1453975.3677713,0.017584255373741
14219200,0.96512683246568,0.016987782352092,0.0056625941173614,0.0056625941173644,0.0056625941173658,-0.0014002511696265,0.0014002511696226,-1.5010776725193e-12,1.4935672206624e-12,-2.3505249141251e-13,2.4002986578178e-13,-0.0014488998072028,0.0014488998060405,-0.0014488998062056,0.0014488998070408,-0.0014488998070481,0.0014488998062011,-0.001448899806049,0.001448899807199,-0.0013613204771877,0.001361320474412,-0.0013613204742534,0.0013613204773335,2.3656124380462e-13,-2.3829583787278e-13,4.0444470331547e-13,-3.9485434923538e-13,-0.0014002511696221,0.0014002511696284,-0.0014488998064133,0.0014488998068417,-0.0014488998066724,0.0014488998065726,-0.0014488998065684,0.0014488998066821,-0.0014488998068275,0.0014488998064131,-0.0013613204754914,0.0013613204761258,-0.0013613204762662,0.0013613204753393,-0.0013613204757042,0.001361320475906,-0.0013613204761568,0.0013613204754218,1.6073801015236e-12,-1.3872090628918e-12,-0.0014002511695153,0.0014002511697358,-2.7632285264417e-13,5.1108356321855e-13,-0.0014488998061477,0.0014488998070999,-0.0014488998058845,0.0014488998073608,-0.001448899807148,0.0014488998061026,-0.0014488998068842,0.0014488998063634,-0.00136132047703,0.0013613204745897,-0.0013613204740989,0.001361320477515,0.55856303910153,0.29910998723276,114808,2744,0.0058172868228613,0.0058172868228641,0.0058172868228653,33.304643950141,33.294663116693,2.6437151601126e-05,2.6437151601126e-05,2.6437151601126e-05,1458823.4708667,0.017605772534049
14419200,0.96699437492769,0.017013564379661,0.0056711881265513,0.0056711881265542,0.0056711881265556,-0.0014011354081754,0.0014011354081715,-1.5266982023297e-12,1.5192990638232e-12,-2.3513264509898e-13,2.401423696978e-13,-0.0014499659552986,0.001449965954119,-0.0014499659542843,0.0014499659551365,-0.0014499659551438,0.0014499659542798,-0.0014499659541276,0.0014499659552948,-0.0013620816457863,0.0013620816429605,-0.0013620816428017,0.0013620816459323,2.3668176953441e-13,-2.3836895328622e-13,4.0436594101572e-13,-3.9477941034824e-13,-0.0014011354081709,0.0014011354081771,-0.0014499659545005,0.0014499659549291,-0.0014499659547596,0.0014499659546601,-0.0014499659546557,0.0014499659547694,-0.0014499659549148,0.0014499659545004,-0.0013620816440646,0.0013620816446986,-0.0013620816448394,0.0013620816439126,-0.001362081644277,0.0013620816444789,-0.0013620816447297,0.0013620816439947,1.6330443469103e-12,-1.4128986604452e-12,-0.0014011354080641,0.0014011354082845,-2.7631285294966e-13,5.1093962643925e-13,-0.0014499659542265,0.0014499659551958,-0.0014499659539633,0.0014499659554566,-0.0014499659552439,0.0014499659541814,-0.0014499659549802,0.0014499659544421,-0.0013620816456279,0.0013620816431373,-0.0013620816426467,0.0013620816461131,0.56383116257152,0.33941432783108,114808,2744,0.0058209487635794,0.0058209487635816,0.0058209487635829,32.650009584828,32.631490651328,2.1200076678621e-05,2.1200076678621e-05,2.1200076678621e-05,1467739.7134591,0.017616957353934
14619200,0.96868532284292,0.017037018393582,0.0056790061311916,0.0056790061311946,0.005679006131196,-0.0014015014179556,0.0014015014179516,-1.552437771702e-12,1.5449141274633e-12,-2.352917075651e-13,2.4023034495139e-13,-0.0014504888064194,0.0014504888052226,-0.001450488805388,0.0014504888062572,-0.0014504888062646,0.0014504888053834,-0.0014504888052312,0.0014504888064155,-0.0013623469742056,0.0013623469713295,-0.0013623469711707,0.0013623469743516,2.3681388314548e-13,-2.3848242040811e-13,4.0420288717337e-13,-3.9453335904141e-13,-0.001401501417951,0.0014015014179573,-0.0014504888056126,0.0014504888060411,-0.0014504888058716,0.0014504888057722,-0.0014504888057679,0.0014504888058814,-0.0014504888060268,0.0014504888056126,-0.0013623469724591,0.0013623469730929,-0.0013623469732335,0.0013623469723071,-0.0013623469726713,0.0013623469728738,-0.0013623469731244,0.0013623469723892,1.658660446709e-12,-1.4386372859126e-12,-0.0014015014178443,0.0014015014180647,-2.7614679919896e-13,5.1069822204929e-13,-0.0014504888053299,0.0014504888063165,-0.0014504888050669,0.0014504888065771,-0.0014504888063645,0.0014504888052849,-0.0014504888061009,0.0014504888055455,-0.0013623469740478,0.0013623469715067,-0.0013623469710162,0.0013623469745327,0.56645231544842,0.36350021667759,114808,2744,0.0058224640815312,0.0058224640815338,0.0058224640815351,31.82625272407,31.802880306047,1.461002179256e-05,1.461002179256e-05,1.461002179256e-05,1471782.2373612,0.017621588191673
14819200,0.97021905218084,0.017058412511441,0.0056861375038111,0.005686137503814,0.0056861375038154,-0.0014016850998821,0.0014016850998781,-1.578133604359e-12,1.5705611863346e-12,-2.354373771729e-13,2.4034278269297e-13,-0.0014508092487618,0.0014508092475478,-0.0014508092477133,0.0014508092485995,-0.0014508092486069,0.0014508092477087,-0.0014508092475564,0.0014508092487579,-0.0013624457344863,0.0013624457315599,-0.0013624457314012,0.0013624457346323,2.3696323152417e-13,-2.3859124061314e-13,4.0387677948868e-13,-3.9417636994718e-13,-0.0014016850998776,0.0014016850998839,-0.0014508092479464,0.0014508092483749,-0.0014508092482052,0.0014508092481062,-0.0014508092481018,0.001450809248215,-0.0014508092483605,0.0014508092479464,-0.0013624457327153,0.0013624457333483,-0.0013624457334889,0.0013624457325632,-0.0013624457329268,0.0013624457331298,-0.0013624457333801,0.0013624457326449,1.6842549001101e-12,-1.4643847052289e-12,-0.001401685099771,0.0014016850999912,-2.7586192554871e-13,5.1030311647243e-13,-0.0014508092476551,0.0014508092486589,-0.0014508092473923,0.0014508092489193,-0.0014508092487068,0.0014508092476102,-0.0014508092484434,0.0014508092478706,-0.0013624457343289,0.0013624457317371,-0.001362445731247,0.0013624457348133,0.5696168307724,0.38758610552409,114808,2744,0.0058232242425901,0.0058232242425929,0.0058232242425941,30.997826507603,30.974269960767,7.9826120608257e-06,7.9826120608257e-06,7.9826120608257e-06,1472998.6980301,0.017623912957196
15019200,0.97159158990995,0.017077483572448,0.005692494524147,0.00569249452415,0.0056924945241514,-0.0014011575778365,0.0014011575778325,-1.6038155265954e-12,1.5962160802147e-12,-2.3558370312554e-13,2.4045947765743e-13,-0.0014504054849024,0.0014504054836712,-0.0014504054838368,0.00145040548474,-0.0014504054847474,0.0014504054838322,-0.0014504054836799,0.0014504054848985,-0.0013618395980195,0.0013618395950429,-0.0013618395948841,0.0013618395981655,2.3710063909117e-13,-2.3871835437696e-13,4.0341620532361e-13,-3.9371603106904e-13,-0.001401157577832,0.0014011575778383,-0.0014504054840786,0.0014504054845068,-0.001450405484337,0.0014504054842384,-0.001450405484234,0.0014504054843469,-0.0014504054844924,0.0014504054840785,-0.0013618395962238,0.0013618395968559,-0.0013618395969965,0.0013618395960716,-0.0013618395964345,0.0013618395966381,-0.0013618395968882,0.001361839596153,1.7098549415758e-12,-1.4901206837183e-12,-0.0014011575777254,0.0014011575779455,-2.7547576087519e-13,5.0977272091095e-13,-0.0014504054837785,0.0014504054847995,-0.001450405483516,0.0014504054850596,-0.0014504054848473,0.0014504054837337,-0.0014504054845842,0.0014504054839938,-0.0013618395978623,0.0013618395952198,-0.0013618395947301,0.0013618395983463,0.56737757578786,0.38481805944613,114808,2744,0.0058210383316611,0.0058210383316638,0.0058210383316651,29.895722633881,29.864538057626,-8.3421892894908e-07,-8.3421892894908e-07,-8.3421892894908e-07,1473206.1343022,0.017617243391764
15219200,0.97280169390519,0.017093593530676,0.0056978645102229,0.0056978645102259,0.0056978645102273,-0.0013998244256985,0.0013998244256944,-1.6294846174223e-12,1.6218704156329e-12,-2.3571120715777e-13,2.4057256243806e-13,-0.0014491897834169,0.0014491897821685,-0.0014491897823342,0.0014491897832544,-0.0014491897832618,0.0014491897823295,-0.0014491897821772,0.001449189783413,-0.0013604200467682,0.0013604200437415,-0.0013604200435826,0.0013604200469143,2.3722716463767e-13,-2.3883093917287e-13,4.0284463454941e-13,-3.9312869607054e-13,-0.0013998244256939,0.0013998244257003,-0.0014491897825846,0.0014491897830125,-0.0014491897828427,0.0014491897827445,-0.0014491897827401,0.0014491897828525,-0.0014491897829982,0.0014491897825846,-0.0013604200449482,0.001360420045579,-0.0013604200457197,0.0013604200447959,-0.0013604200451579,0.0013604200453621,-0.0013604200456118,0.0013604200448768,1.7354484244184e-12,-1.5158512800192e-12,-0.0013998244255874,0.0013998244258074,-2.7496736464164e-13,5.0912668182347e-13,-0.0014491897822757,0.0014491897833141,-0.0014491897820136,0.0014491897835738,-0.0014491897833616,0.0014491897822312,-0.0014491897830989,0.0014491897824909,-0.0013604200466114,0.0013604200439181,-0.001360420043429,0.0013604200470948,0.54391178320886,0.28598329886612,114808,2744,0.0058155150790332,0.0058155150790359,0.0058155150790372,28.491037613289,28.451337282903,-1.207169909369e-05,-1.207169909369e-05,-1.207169909369e-05,1474919.7486913,0.017600385627803
15419200,0.97387079695341,0.017109713515487,0.0057032378384931,0.0057032378384961,0.0057032378384975,-0.0013983573586586,0.0013983573586545,-1.6551738896179e-12,1.6474982141781e-12,-2.3584001331014e-13,2.4064493522712e-13,-0.0014478033569343,0.0014478033556686,-0.0014478033558342,0.0014478033567718,-0.0014478033567793,0.0014478033558296,-0.0014478033556777,0.0014478033569304,-0.0013589298283732,0.0013589298252971,-0.0013589298251373,0.0013589298285199,2.3688188106819e-13,-2.3939762774327e-13,4.0174237410506e-13,-3.929389959834e-13,-0.0013983573586545,0.0013983573586599,-0.0014478033560936,0.0014478033565204,-0.0014478033563515,0.001447803356253,-0.0014478033562494,0.0014478033563603,-0.0014478033565072,0.0014478033560927,-0.001358929826529,0.0013589298271578,-0.0013589298272999,0.0013589298263761,-0.0013589298267385,0.0013589298269418,-0.0013589298271922,0.0013589298264569,1.7614308953776e-12,-1.5412084171408e-12,-0.0013983573585472,0.0013983573587678,-2.7403768716029e-13,5.0876681046435e-13,-0.0014478033557752,0.0014478033568317,-0.0014478033555134,0.0014478033570908,-0.0014478033568782,0.001447803355732,-0.0014478033566161,0.0014478033559911,-0.0013589298282168,0.0013589298254732,-0.0013589298249841,0.0013589298287002,0.6148757766093,0.62516636785944,114808,2744,0.0058094373716466,0.0058094373716493,0.0058094373716507,27.078133361142,27.03813650818,-2.3374933110865e-05,-2.3374933110865e-05,-2.3374933110865e-05,1477172.90197,0.017581833744491
15619200,0.97483443133235,0.017124532085413,0.0057081773618019,0.0057081773618048,0.0057081773618062,-0.001397474266995,0.0013974742669909,-1.6808274450739e-12,1.6731984367515e-12,-2.3587497616668e-13,2.4073761621931e-13,-0.0014469646131417,0.001446964611859,-0.0014469646120248,0.0014469646129791,-0.0014469646129866,0.0014469646120201,-0.0014469646118678,0.0014469646131378,-0.0013580369717717,0.0013580369686445,-0.0013580369684854,0.0013580369719178,2.3732580868298e-13,-2.390704612674e-13,4.0144138330012e-13,-3.9187479319994e-13,-0.0013974742669906,0.0013974742669968,-0.0014469646122926,0.0014469646127198,-0.0014469646125499,0.0014469646124527,-0.0014469646124483,0.0014469646125596,-0.0014469646127056,0.0014469646122926,-0.0013580369699028,0.0013580369705307,-0.0013580369706721,0.0013580369697503,-0.0013580369701108,0.0013580369703159,-0.0013580369705648,0.0013580369698301,1.7866956235575e-12,-1.5672625329701e-12,-0.0013974742668841,0.0013974742671039,-2.7377569516397e-13,5.0767702022728e-13,-0.0014469646119659,0.0014469646130393,-0.0014469646117046,0.0014469646132981,-0.001446964613086,0.0014469646119221,-0.0014469646128242,0.0014469646121809,-0.0013580369716156,0.0013580369688207,-0.0013580369683326,0.001358036972098,0.62694794099585,0.66664863809497,114808,2744,0.0058057790237099,0.0058057790237129,0.0058057790237142,25.9682187579,25.936702474097,-3.2254249936802e-05,-3.2254249936802e-05,-3.2254249936802e-05,1456397.2484709,0.017570666720442
15819200,0.97574066180019,0.01713942415655,0.0057131413855144,0.0057131413855174,0.0057131413855187,-0.0013979064579935,0.0013979064579894,-1.7065187732729e-12,1.6988431327584e-12,-2.3593953037566e-13,2.4073919705337e-13,-0.0014474176115887,0.0014474176102887,-0.0014474176104546,0.001447417611426,-0.0014474176114335,0.0014474176104499,-0.0014474176102975,0.0014474176115848,-0.0013584858241179,0.0013584858209404,-0.0013584858207815,0.001358485824264,2.3740551213045e-13,-2.390521677086e-13,4.0075840416467e-13,-3.9108805252845e-13,-0.001397906457989,0.0013979064579953,-0.0014474176107312,0.0014474176111579,-0.001447417610988,0.0014474176108913,-0.0014474176108869,0.0014474176109977,-0.0014474176111436,0.0014474176107312,-0.0013584858222246,0.0013584858228512,-0.0013584858229922,0.0013584858220722,-0.0013584858224314,0.0013584858226373,-0.0013584858228856,0.0013584858221516,1.812240960812e-12,-1.5930621859849e-12,-0.0013979064578827,0.0013979064581022,-2.7313712643651e-13,5.0684704558244e-13,-0.0014474176103955,0.0014474176114863,-0.0014474176101348,0.0014474176117446,-0.0014474176115328,0.001447417610352,-0.0014474176112715,0.0014474176106103,-0.0013584858239621,0.0013584858211162,-0.0013584858206288,0.0013584858244437,0.66919696937636,0.8411119242785,114808,2744,0.0058075694545666,0.0058075694545695,0.0058075694545708,25.549698584808,25.537567560318,-3.5602411321538e-05,-3.5602411321538e-05,-3.5602411321538e-05,1431757.4464878,0.017576132407581
16019200,0.9765945061343,0.017153421695176,0.0057178072317229,0.0057178072317259,0.0057178072317273,-0.0013983643822109,0.0013983643822062,-1.7325154827677e-12,1.7241785398453e-12,-2.3636956618138e-13,2.4035064274697e-13,-0.0014478880950771,0.0014478880937593,-0.001447888093926,0.001447888094914,-0.0014478880949219,0.0014478880939211,-0.0014478880937685,0.0014478880950729,-0.0013589537973038,0.0013589537940765,-0.0013589537939176,0.0013589537974499,2.3731704424485e-13,-2.3916704655208e-13,3.9996501663741e-13,-3.9035648664199e-13,-0.001398364382206,0.0013983643822122,-0.0014478880942087,0.0014478880946347,-0.0014478880944652,0.0014478880943683,-0.0014478880943642,0.0014478880944745,-0.0014478880946206,0.0014478880942086,-0.0013589537953852,0.0013589537960103,-0.001358953796151,0.0013589537952326,-0.0013589537955906,0.0013589537957973,-0.0013589537960451,0.0013589537953114,1.8369703524049e-12,-1.6196653144541e-12,-0.0013983643821006,0.0013983643823182,-2.7334182606543e-13,5.0513227443811e-13,-0.001447888093865,0.0014478880949709,-0.0014478880936044,0.0014478880952287,-0.0014478880950194,0.0014478880938202,-0.0014478880947587,0.0014478880940773,-0.001358953797148,0.0013589537942495,-0.0013589537937648,0.0013589537976272,0.6674278971476,0.80327694214316,114808,2744,0.0058094664697482,0.0058094664697501,0.0058094664697515,25.149746426101,25.138432646539,-3.8802028591192e-05,-3.8802028591192e-05,-3.8802028591192e-05,1400461.9458844,0.017581923612116
16219200,0.97739961959175,0.01716656157803,0.0057221871926742,0.0057221871926772,0.0057221871926785,-0.0013987440862663,0.0013987440862621,-1.7579248728886e-12,1.7501366005898e-12,-2.3602991594165e-13,2.406709491383e-13,-0.0014482805018961,0.0014482805005617,-0.0014482805007277,0.0014482805017332,-0.0014482805017409,0.001448280500723,-0.0014482805005706,0.0014482805018921,-0.0013593387161547,0.0013593387128767,-0.0013593387127178,0.0013593387163009,2.3743451124455e-13,-2.3904387384433e-13,3.9926656738632e-13,-3.8950915958607e-13,-0.0013987440862617,0.0013987440862681,-0.0014482805010217,0.0014482805014475,-0.0014482805012775,0.0014482805011819,-0.0014482805011774,0.0014482805012873,-0.0014482805014331,0.0014482805010218,-0.0013593387142126,0.0013593387148363,-0.0013593387149772,0.0013593387140602,-0.0013593387144173,0.0013593387146244,-0.0013593387148716,0.0013593387141387,1.8633393997898e-12,-1.6446643742794e-12,-0.0013987440861557,0.0013987440863747,-2.7188163537914e-13,5.0505533561206e-13,-0.0014482805006682,0.0014482805017937,-0.0014482805004085,0.001448280502051,-0.0014482805018397,0.0014482805006252,-0.0014482805015795,0.0014482805008825,-0.0013593387159996,0.0013593387130516,-0.0013593387125659,0.0013593387164797,0.66425602154487,0.76544196000782,114808,2744,0.0058110393957344,0.0058110393957372,0.0058110393957385,24.750570164117,24.739297732759,-4.1995438687061e-05,-4.1995438687061e-05,-4.1995438687061e-05,1374486.2655069,0.017586725663501
16419200,0.97816209748499,0.017177785534825,0.0057259285116059,0.0057259285116089,0.0057259285116102,-0.0013991205166036,0.0013991205165982,-1.7842407463464e-12,1.7751345274074e-12,-2.3659829379869e-13,2.4002438800794e-13,-0.001448683866254,0.0014486838649014,-0.0014486838650679,0.0014486838660903,-0.0014486838660986,0.0014486838650634,-0.0014486838649113,0.00144868386625,-0.0013596874420813,0.0013596874387491,-0.0013596874385933,0.0013596874422254,2.3698081922217e-13,-2.3941468604568e-13,3.9799325334401e-13,-3.8928716636781e-13,-0.0013991205165988,0.0013991205166045,-0.0014486838653731,0.0014486838657975,-0.0014486838656283,0.0014486838655315,-0.0014486838655283,0.0014486838656374,-0.0014486838657845,0.0014486838653717,-0.0013596874401124,0.0013596874407327,-0.001359687440876,0.0013596874399597,-0.0013596874403178,0.0013596874405248,-0.0013596874407726,0.0013596874400405,1.8893943391234e-12,-1.669946748979e-12,-0.0013991205164921,0.0013991205167121,-2.7069767154842e-13,5.0479563766331e-13,-0.00144868386501,0.0014486838661538,-0.0014486838647501,0.0014486838664095,-0.0014486838661984,0.0014486838649681,-0.001448683865939,0.0014486838652254,-0.0013596874419273,0.0013596874389295,-0.0013596874384416,0.0013596874424069,0.59981695137162,0.45292604257112,114808,2744,0.0058125985574156,0.0058125985574186,0.0058125985574206,24.412913939401,24.403356481781,-4.469668848479e-05,-4.469668848479e-05,-4.469668848479e-05,1355839.6671735,0.017591486657922
16619200,0.9788882191768,0.01719033201503,0.0057301106716743,0.0057301106716772,0.0057301106716786,-0.0013995988506684,0.0013995988506742,-1.8045272672321e-12,1.8063596059016e-12,-2.2999172425537e-13,2.4657707018094e-13,-0.0014491808899091,0.0014491808885609,-0.0014491808887166,0.0014491808897552,-0.0014491808897679,0.0014491808887162,-0.0014491808885474,0.0014491808899259,-0.0013601830335789,0.0013601830302016,-0.0013601830300557,0.0013601830337386,2.3995990468374e-13,-2.3590238157947e-13,4.0120015537535e-13,-3.8437743400383e-13,-0.0013995988506647,0.001399598850677,-0.0014491808890213,0.0014491808894415,-0.0014491808892714,0.0014491808891847,-0.00144918088917,0.001449180889282,-0.0014491808894209,0.0014491808890119,-0.0013601830315788,0.0013601830322118,-0.001360183032326,0.001360183031439,-0.0013601830317542,0.0013601830319734,-0.0013601830322031,0.001360183031487,1.9188715268508e-12,-1.6919179895374e-12,-0.0013995988505595,0.0013995988507849,-2.6555676977591e-13,5.0817035809732e-13,-0.0014491808886405,0.0014491808898196,-0.0014491808883985,0.0014491808900683,-0.0014491808898533,0.0014491808886001,-0.0014491808895919,0.0014491808888704,-0.0013601830333977,0.0013601830303475,-0.0013601830298484,0.0013601830338623,0.70235629358377,0.92426636263102,114808,2744,0.0058145800115782,0.0058145800115765,0.0058145800115821,24.158805974186,24.151598818487,-4.6729552206514e-05,-4.6729552206514e-05,-4.6729552206514e-05,1352032.7759456,0.017597535816498
16819200,0.9795801212486,0.017202345567514,0.0057341151891689,0.005734115189172,0.0057341151891734,-0.0014001750395794,0.001400175039576,-1.8347577720198e-12,1.827339226018e-12,-2.3526359433846e-13,2.4104395244918e-13,-0.0014497485463997,0.0014497485450156,-0.0014497485451807,0.0014497485462377,-0.0014497485462456,0.0014497485451764,-0.0014497485450228,0.0014497485463977,-0.0013607797395359,0.0013607797361054,-0.0013607797359495,0.0013607797396825,2.3753809631539e-13,-2.3851718405199e-13,3.9759208912871e-13,-3.8704529367902e-13,-0.0014001750395742,0.0014001750395812,-0.0014497485455014,0.0014497485459255,-0.0014497485457555,0.0014497485456617,-0.0014497485456564,0.0014497485457654,-0.0014497485459106,0.0014497485455008,-0.001360779737517,0.0013607797381381,-0.0013607797382761,0.0013607797373659,-0.0013607797377176,0.0013607797379263,-0.0013607797381699,0.0013607797374408,1.9406059217035e-12,-1.7214757042166e-12,-0.0014001750394684,0.0014001750396878,-2.6942865149258e-13,5.0337309288578e-13,-0.0014497485451203,0.0014497485462997,-0.0014497485448632,0.001449748546555,-0.0014497485463437,0.0014497485450786,-0.0014497485460848,0.0014497485453355,-0.001360779739377,0.0013607797362756,-0.0013607797357896,0.0013607797398525,0.70571569219181,0.90497517292461,114808,2744,0.00581696697511,0.0058169669751102,0.0058169669751118,23.906947949631,23.899841155194,-4.874441640295e-05,-4.874441640295e-05,-4.874441640295e-05,1322745.3945071,0.017604822449184
17019200,0.98023971155986,0.017213583878453,0.0057378612928151,0.0057378612928182,0.0057378612928196,-0.0014006890852341,0.0014006890852308,-1.8601730305276e-12,1.8532965681493e-12,-2.3526020634454e-13,2.4091114033003e-13,-0.0014502569991914,0.0014502569977902,-0.0014502569979553,0.0014502569990296,-0.0014502569990372,0.001450256997951,-0.0014502569977974,0.0014502569991891,-0.0013613054386437,0.0013613054351648,-0.0013613054350065,0.0013613054387907,2.3747003957094e-13,-2.3845359775921e-13,3.9692287427865e-13,-3.8651389814808e-13,-0.0014006890852297,0.0014006890852367,-0.0014502569982841,0.0014502569987078,-0.0014502569985378,0.0014502569984444,-0.0014502569984391,0.0014502569985479,-0.0014502569986929,0.0014502569982837,-0.0013613054366031,0.0013613054372226,-0.0013613054373618,0.0013613054364519,-0.0013613054368031,0.0013613054370123,-0.0013613054372567,0.0013613054365272,1.9661707289515e-12,-1.7472557401836e-12,-0.001400689085124,0.0014006890853432,-2.6910672015089e-13,5.0253300090295e-13,-0.0014502569978942,0.0014502569990907,-0.0014502569976373,0.0014502569993457,-0.0014502569991346,0.0014502569978528,-0.001450256998876,0.0014502569981092,-0.0013613054384884,0.0013613054353376,-0.0013613054348526,0.0013613054389658,0.69245973465976,0.81742358755057,114808,2744,0.0058190964324929,0.0058190964324958,0.0058190964324975,23.655183866692,23.648083491901,-5.0758529066465e-05,-5.0758529066465e-05,-5.0758529066465e-05,1297691.4394113,0.017611323298607
17219200,0.98085367305335,0.017223777023811,0.0057412590079343,0.0057412590079374,0.0057412590079388,-0.0014003207391444,0.001400320739141,-1.8859123609366e-12,1.8788884918713e-12,-2.3520714902698e-13,2.4076779912077e-13,-0.0014498939116516,0.0014498939102333,-0.0014498939103983,0.0014498939114897,-0.0014498939114975,0.001449893910394,-0.0014498939102406,0.0014498939116492,-0.0013609358969993,0.0013609358934697,-0.0013609358933117,0.0013609358971461,2.3737904235085e-13,-2.3834883625372e-13,3.9642724236104e-13,-3.859744440398e-13,-0.0014003207391398,0.0014003207391468,-0.0014498939107361,0.0014498939111595,-0.0014498939109894,0.0014498939108964,-0.001449893910891,0.0014498939109996,-0.0014498939111445,0.0014498939107358,-0.0013609358949335,0.0013609358955522,-0.0013609358956912,0.0013609358947824,-0.0013609358951332,0.0013609358953425,-0.0013609358955864,0.0013609358948576,1.9917692116413e-12,-1.7729933950923e-12,-0.0014003207390342,0.0014003207392532,-2.6864967528977e-13,5.0195572442071e-13,-0.0014498939103373,0.0014498939115512,-0.0014498939100808,0.0014498939118058,-0.0014498939115948,0.0014498939102961,-0.0014498939113366,0.0014498939105521,-0.0013609358968439,0.001360935893642,-0.0013609358931577,0.0013609358973206,0.67475984689835,0.71970379112545,114808,2744,0.0058175704731652,0.0058175704731677,0.0058175704731694,22.996645200703,22.978261950595,-5.6026838394376e-05,-5.6026838394376e-05,-5.6026838394376e-05,1281124.56562,0.017606665299102
17419200,0.9814140260478,0.017232701553078,0.0057442338510236,0.0057442338510267,0.0057442338510281,-0.0013991723422078,0.0013991723422043,-1.9116167310166e-12,1.9045036826904e-12,-2.3515269078715e-13,2.4063582521131e-13,-0.0014487585374392,0.0014487585360037,-0.0014487585361688,0.0014487585372773,-0.0014487585372851,0.0014487585361644,-0.0014487585360112,0.0014487585374367,-0.001359775316371,0.0013597753127911,-0.0013597753126332,0.0013597753165177,2.3729110386084e-13,-2.3825260389944e-13,3.9598913809777e-13,-3.8553651624172e-13,-0.0013991723422031,0.0013991723422101,-0.0014487585365154,0.0014487585369384,-0.0014487585367684,0.0014487585366756,-0.0014487585366702,0.0014487585367785,-0.0014487585369234,0.0014487585365151,-0.0013597753142805,0.0013597753148983,-0.0013597753150373,0.0013597753141294,-0.0013597753144798,0.0013597753146892,-0.0013597753149329,0.0013597753142045,2.0173469890813e-12,-1.7987359322049e-12,-0.0013991723420976,0.0013991723423165,-2.6829621549949e-13,5.0143685791878e-13,-0.0014487585361078,0.0014487585373389,-0.0014487585358514,0.0014487585375932,-0.0014487585373824,0.0014487585360667,-0.0014487585371245,0.0014487585363224,-0.0013597753162159,0.0013597753129634,-0.0013597753124795,0.0013597753166922,0.64747795534361,0.5868439824505,114808,2744,0.0058128130581297,0.0058128130581322,0.0058128130581339,21.994628309761,21.966574121097,-6.4042973521915e-05,-6.4042973521915e-05,-6.4042973521915e-05,1271959.419692,0.017592142716608
17619200,0.9819258318715,0.017240553585189,0.0057468511950606,0.0057468511950637,0.0057468511950651,-0.0013978895566376,0.001397889556634,-1.9373150461346e-12,1.9301240259256e-12,-2.3510968968812e-13,2.4050209400259e-13,-0.0014474945289696,0.0014474945275169,-0.001447494527682,0.0014474945288077,-0.0014474945288155,0.0014474945276775,-0.0014474945275245,0.0014474945289669,-0.0013584746389771,0.0013584746353468,-0.001358474635189,0.0013584746391236,2.3720387123162e-13,-2.3816495951809e-13,3.9559732653793e-13,-3.8515717488916e-13,-0.0013978895566329,0.0013978895566399,-0.0014474945280373,0.00144749452846,-0.0014474945282901,0.0014474945281974,-0.0014474945281921,0.0014474945283003,-0.0014474945284451,0.0014474945280371,-0.0013584746368618,0.0013584746374789,-0.0013584746376179,0.0013584746367107,-0.0013584746370608,0.0013584746372703,-0.0013584746375137,0.0013584746367857,2.0429345603397e-12,-1.8244684108012e-12,-0.0013978895565274,0.0013978895567461,-2.6799093070808e-13,5.0097687197103e-13,-0.001447494527621,0.0014474945288692,-0.0014474945273648,0.0014474945291234,-0.0014474945289127,0.0014474945275801,-0.001447494528655,0.0014474945278354,-0.0013584746388222,0.001358474635519,-0.0013584746350356,0.0013584746392982,0.62390231067911,0.48184511056939,114808,2744,0.0058074988593981,0.0058074988594006,0.0058074988594022,20.983313510797,20.9548862916,-7.2133491913622e-05,-7.2133491913622e-05,-7.2133491913622e-05,1270446.1849819,0.017575920803221
17819200,0.98239448833027,0.01724750489764,0.0057491682992109,0.005749168299214,0.0057491682992154,-0.0013965524324251,0.0013965524324212,-1.9631061369109e-12,1.9556593491249e-12,-2.3518739469021e-13,2.4024968994865e-13,-0.0014461828419096,0.0014461828404395,-0.001446182840605,0.0014461828417475,-0.0014461828417553,0.0014461828406,-0.0014461828404477,0.0014461828419068,-0.0013571147102619,0.001357114706581,-0.0013571147064235,0.0013571147104083,2.3713322633095e-13,-2.3806519785986e-13,3.9523257297502e-13,-3.8482647910934e-13,-0.0013965524324203,0.0013965524324273,-0.0014461828409686,0.0014461828413912,-0.0014461828412217,0.0014461828411291,-0.0014461828411236,0.0014461828412317,-0.0014461828413764,0.0014461828409688,-0.001357114708122,0.0013571147087382,-0.0013571147088772,0.0013571147079708,-0.0013571147083207,0.0013571147085302,-0.0013571147087736,0.0013571147080459,2.0685807768654e-12,-1.8501498909555e-12,-0.0013965524323149,0.0013965524325336,-2.6765711737644e-13,5.0061553006861e-13,-0.0014461828405437,0.0014461828418093,-0.0014461828402878,0.001446182842063,-0.0014461828418526,0.0014461828405029,-0.001446182841595,0.0014461828407581,-0.0013571147101075,0.0013571147067536,-0.0013571147062707,0.0013571147105831,0.6034162585635,0.39934230906127,114808,2744,0.0058019594887141,0.0058019594887168,0.0058019594887183,19.993541599867,19.9657345228,-8.0051667201067e-05,-8.0051667201067e-05,-8.0051667201067e-05,1275175.253551,0.017559011943869
18019200,0.9828246016996,0.017253876159663,0.0057512920532184,0.0057512920532215,0.0057512920532229,-0.0013951775806776,0.001395177580674,-1.988657451924e-12,1.9814214693938e-12,-2.3498368112951e-13,2.4027596855762e-13,-0.0014448365437227,0.0014448365422358,-0.0014448365424008,0.0014448365435609,-0.0014448365435687,0.0014448365423963,-0.0014448365422436,0.0014448365437199,-0.0013557186587334,0.0013557186550025,-0.0013557186548447,0.0013557186588798,2.3702646488655e-13,-2.3799461178092e-13,3.9492511177951e-13,-3.8453025286473e-13,-0.001395177580673,0.0013951775806799,-0.0014448365427737,0.0014448365431959,-0.0014448365430261,0.0014448365429337,-0.0014448365429285,0.0014448365430363,-0.0014448365431811,0.0014448365427736,-0.0013557186565686,0.0013557186571843,-0.0013557186573235,0.0013557186564175,-0.0013557186567672,0.0013557186569767,-0.0013557186572198,0.0013557186564925,2.0941339374104e-12,-1.8759082511141e-12,-0.0013951775805676,0.0013951775807861,-2.6747518175798e-13,5.0020077803311e-13,-0.00144483654234,0.0014448365436225,-0.0014448365420841,0.0014448365438763,-0.0014448365436658,0.0014448365422992,-0.0014448365434086,0.0014448365425541,-0.0013557186585791,0.0013557186551748,-0.0013557186546921,0.0013557186590546,0.60265700853203,0.41341936417556,114808,2744,0.0057962637989894,0.0057962637989921,0.0057962637989937,19.022090554668,18.994799579319,-8.7823275562655e-05,-8.7823275562655e-05,-8.7823275562655e-05,1284235.5131372,0.017541626156207
18219200,0.98321975951863,0.017259834662289,0.0057532782207605,0.0057532782207636,0.005753278220765,-0.0013937674658744,0.0013937674658707,-2.0143706121767e-12,2.007022043357e-12,-2.3495703672289e-13,2.4014757542112e-13,-0.0014434517627704,0.0014434517612662,-0.0014434517614313,0.0014434517626085,-0.0014434517626163,0.0014434517614267,-0.0014434517612742,0.0014434517627674,-0.0013542925229565,0.0013542925191752,-0.0013542925190175,0.0013542925231026,2.3694940841705e-13,-2.3791773177661e-13,3.946734724081e-13,-3.8426620210777e-13,-0.0013937674658697,0.0013937674658767,-0.0014434517618128,0.0014434517622349,-0.0014434517620651,0.0014434517619728,-0.0014434517619676,0.0014434517620752,-0.00144345176222,0.0014434517618128,-0.0013542925207666,0.001354292521382,-0.0013542925215211,0.0013542925206157,-0.0013542925209651,0.0013542925211746,-0.0013542925214176,0.0013542925206905,2.1197221851188e-12,-1.901635994561e-12,-0.0013937674657644,0.0013937674659827,-2.6729159913101e-13,4.9987184690526e-13,-0.0014434517613704,0.0014434517626701,-0.0014434517611147,0.0014434517629238,-0.0014434517627133,0.0014434517613298,-0.0014434517624563,0.0014434517615844,-0.0013542925228022,0.0013542925193475,-0.001354292518865,0.0013542925232774,0.61338748653102,0.4780761505855,114808,2744,0.0057904220448238,0.0057904220448265,0.005790422044828,18.051134070376,18.023864635838,-9.5590927436991e-05,-9.5590927436991e-05,-9.5590927436991e-05,1292013.0465959,0.017523794583999
18419200,0.98359232437276,0.01726548882942,0.0057551629431375,0.0057551629431405,0.005755162943142,-0.0013931120124783,0.0013931120124745,-2.0400531823712e-12,2.0326682109412e-12,-2.3492803542596e-13,2.4002969666929e-13,-0.0014428131031203,0.001442813101599,-0.0014428131017641,0.0014428131029584,-0.0014428131029662,0.0014428131017595,-0.001442813101607,0.0014428131031173,-0.0013536269028687,0.0013536268990373,-0.0013536268988796,0.0013536269030149,2.3688741031104e-13,-2.3782967564313e-13,3.9447983126488e-13,-3.8404550296762e-13,-0.0013931120124736,0.0013931120124806,-0.0014428131021542,0.0014428131025762,-0.0014428131024064,0.0014428131023143,-0.001442813102309,0.0014428131024166,-0.0014428131025613,0.0014428131021543,-0.0013536269006539,0.0013536269012689,-0.0013536269014081,0.0013536269005032,-0.0013536269008521,0.0013536269010617,-0.0013536269013047,0.0013536269005778,2.1453428141908e-12,-1.9273526501113e-12,-0.0013931120123683,0.0013931120125866,-2.6714754470824e-13,4.9960497270514e-13,-0.0014428131017032,0.0014428131030201,-0.0014428131014476,0.0014428131032736,-0.0014428131030633,0.0014428131016626,-0.0014428131028064,0.0014428131019171,-0.0013536269027145,0.0013536268992094,-0.0013536268987274,0.0013536269031896,0.61738400526156,0.50580856140999,114808,2744,0.005787706612807,0.0057877066128096,0.0057877066128111,17.477371095863,17.461087427832,-0.00010018103123309,-0.00010018103123309,-0.00010018103123309,1295000.0304149,0.01751550618687
18619200,0.98395113748681,0.017270883902361,0.0057569613007844,0.0057569613007874,0.0057569613007889,-0.0013930779165697,0.0013930779165658,-2.0657521546382e-12,2.0583118433317e-12,-2.3488451228405e-13,2.3994794916662e-13,-0.0014427951620096,0.0014427951604712,-0.0014427951606363,0.0014427951618477,-0.0014427951618555,0.0014427951606316,-0.0014427951604793,0.0014427951620065,-0.0013535819642396,0.0013535819603578,-0.0013535819602001,0.0013535819643856,2.3682005942739e-13,-2.377766772622e-13,3.9431707153119e-13,-3.8390321319683e-13,-0.0013930779165649,0.0013930779165719,-0.001442795161035,0.0014427951614568,-0.0014427951612871,0.001442795161195,-0.0014427951611897,0.0014427951612973,-0.0014427951614419,0.0014427951610351,-0.0013535819619998,0.0013535819626146,-0.0013535819627537,0.001353581961849,-0.0013535819621981,0.0013535819624076,-0.0013535819626504,0.0013535819619237,2.1709649726279e-12,-1.9530680998161e-12,-0.0013930779164597,0.0013930779166779,-2.670419596985e-13,4.9940709639719e-13,-0.0014427951605754,0.0014427951619094,-0.0014427951603198,0.0014427951621628,-0.0014427951619525,0.0014427951605348,-0.0014427951616958,0.0014427951607891,-0.0013535819640857,0.00135358196053,-0.0013535819600481,0.0013535819645606,0.6117863749389,0.48684635879891,114808,2744,0.0057875652374077,0.0057875652374104,0.0057875652374119,17.231494708482,17.224445382551,-0.00010214804233214,-0.00010214804233214,-0.00010214804233214,1296654.8470487,0.017515075223576
18819200,0.98429700364742,0.017276407023993,0.0057588023413285,0.0057588023413316,0.005758802341333,-0.0013930549271285,0.0013930549271245,-2.0914830248278e-12,2.0839162780455e-12,-2.3491233645702e-13,2.3981475470621e-13,-0.0014427879580549,0.0014427879564992,-0.0014427879566644,0.0014427879578927,-0.0014427879579007,0.0014427879566596,-0.0014427879565075,0.0014427879580514,-0.0013535546651147,0.0013535546611825,-0.001353554661025,0.0013535546652605,2.366824753952e-13,-2.3780761749346e-13,3.9410754852021e-13,-3.8391480107812e-13,-0.0013930549271238,0.0013930549271306,-0.0014427879570717,0.0014427879574934,-0.0014427879573237,0.0014427879572315,-0.0014427879572264,0.001442787957334,-0.0014427879574787,0.0014427879570718,-0.0013535546628496,0.0013535546634642,-0.0013535546636035,0.0013535546626986,-0.0013535546630483,0.0013535546632573,-0.0013535546635003,0.0013535546627738,2.196481399001e-12,-1.9788818994575e-12,-0.0013930549270186,0.0013930549272365,-2.6710272254811e-13,4.9914251624464e-13,-0.0014427879566035,0.0014427879579544,-0.001442787956348,0.0014427879582079,-0.0014427879579977,0.0014427879565627,-0.001442787957741,0.0014427879568168,-0.0013535546649607,0.0013535546613546,-0.0013535546608733,0.0013535546654356,0.64922934294961,0.666501159985,114808,2744,0.0057874699009524,0.0057874699009553,0.0057874699009568,16.994467264437,16.98780333727,-0.0001040442618845,-0.0001040442618845,-0.0001040442618845,1299290.3386685,0.017514784658058
19019200,0.98463049372076,0.017282047873038,0.0057606826243435,0.0057606826243466,0.005760682624348,-0.0013930806561446,0.0013930806561406,-2.1171422777199e-12,2.1096028431777e-12,-2.3485201821698e-13,2.3979967428456e-13,-0.0014428156777159,0.0014428156761431,-0.0014428156763082,0.0014428156775538,-0.0014428156775617,0.0014428156763034,-0.0014428156761513,0.0014428156777125,-0.001353585912542,0.0013535859085596,-0.001353585908402,0.0013535859126879,2.3672612112067e-13,-2.3769450330197e-13,3.9414854726773e-13,-3.8377474653316e-13,-0.0013930806561398,0.0013930806561468,-0.001442815676724,0.0014428156771457,-0.0014428156769761,0.001442815676884,-0.0014428156768788,0.0014428156769863,-0.0014428156771309,0.0014428156767242,-0.0013535859102522,0.0013535859108667,-0.0013535859110058,0.0013535859101013,-0.0013535859104504,0.0013535859106597,-0.0013535859109026,0.0013535859101762,2.2222017014987e-12,-2.0045103224091e-12,-0.0013930806560347,0.0013930806562526,-2.6699866690341e-13,4.9915463352152e-13,-0.0014428156762473,0.0014428156776154,-0.0014428156759917,0.0014428156778688,-0.0014428156776586,0.0014428156762067,-0.001442815677402,0.0014428156764608,-0.0013535859123883,0.0013535859087318,-0.0013535859082503,0.001353585912863,0.68719098426106,0.83152155733643,114808,2744,0.0057875764956334,0.005787576495636,0.0057875764956376,16.757808122826,16.75116129199,-0.00010593753501739,-0.00010593753501739,-0.00010593753501739,1291406.5604852,0.01751511005178
19219200,0.98496245349489,0.017287825525526,0.0057626085085061,0.0057626085085092,0.0057626085085106,-0.0013941171984844,0.0013941171984804,-2.1428290784837e-12,2.1352766285993e-12,-2.3483024774235e-13,2.3976902080923e-13,-0.001443838880506,0.0014438388789161,-0.0014438388790812,0.0014438388803441,-0.0014438388803519,0.0014438388790765,-0.0014438388789244,0.0014438388805027,-0.0013546365286846,0.0013546365246518,-0.0013546365244942,0.0013546365288304,2.3669759258043e-13,-2.3767050403513e-13,3.9415460590617e-13,-3.8378209924972e-13,-0.0013941171984796,0.0013941171984866,-0.0014438388795058,0.0014438388799275,-0.0014438388797578,0.0014438388796657,-0.0014438388796605,0.0014438388797681,-0.0014438388799126,0.001443838879506,-0.0013546365263696,0.0013546365269841,-0.0013546365271232,0.0013546365262187,-0.001354636526568,0.0013546365267773,-0.0013546365270201,0.0013546365262937,2.2478662998158e-12,-2.0302075961986e-12,-0.0013941171983745,0.0013941171985924,-2.6702266617025e-13,4.9914592790512e-13,-0.0014438388790205,0.0014438388804056,-0.0014438388787649,0.0014438388806591,-0.001443838880449,0.0014438388789799,-0.0014438388801923,0.001443838879234,-0.001354636528531,0.0013546365248242,-0.0013546365243427,0.0013546365290057,0.70677985284497,0.897136206051,114808,2744,0.0057918705940837,0.0057918705940864,0.0057918705940879,17.021693891057,17.028891199838,-0.00010382644887155,-0.00010382644887155,-0.00010382644887155,1273955.4154538,0.01752821763411
19419200,0.98529801302197,0.01729354864252,0.0057645162141708,0.0057645162141738,0.0057645162141753,-0.0013956552111367,0.0013956552111327,-2.1685322151455e-12,2.1609424096697e-12,-2.3484902784418e-13,2.3973966876474e-13,-0.0014453645352413,0.0014453645336342,-0.0014453645337994,0.0014453645350793,-0.0014453645350872,0.0014453645337946,-0.0014453645336426,0.0014453645352379,-0.0013561835773438,0.0013561835732607,-0.0013561835731031,0.0013561835774896,2.3669782786736e-13,-2.376615631318e-13,3.942460148784e-13,-3.8386039097561e-13,-0.0013956552111319,0.0013956552111389,-0.0014453645342325,0.0014453645346543,-0.0014453645344846,0.0014453645343924,-0.0014453645343872,0.0014453645344948,-0.0014453645346394,0.0014453645342327,-0.0013561835750035,0.0013561835756182,-0.0013561835757574,0.0013561835748527,-0.0013561835752021,0.0013561835754113,-0.0013561835756542,0.0013561835749277,2.2735348097781e-12,-2.0559077228421e-12,-0.0013956552110268,0.0013956552112447,-2.6712495716298e-13,4.9921345525397e-13,-0.0014453645337387,0.0014453645351409,-0.001445364533483,0.0014453645353944,-0.0014453645351843,0.001445364533698,-0.0014453645349276,0.0014453645339521,-0.0013561835771901,0.0013561835734332,-0.0013561835729516,0.001356183577665,0.6926475541317,0.80799828530288,114808,2744,0.0057982420187724,0.0057982420187751,0.0057982420187766,17.537436823123,17.551808832717,-9.9700505415017e-05,-9.9700505415017e-05,-9.9700505415017e-05,1255292.9455701,0.017547666887481
19619200,0.98563706087138,0.017299194907019,0.005766398302337,0.0057663983023401,0.0057663983023415,-0.0013971796732818,0.0013971796732779,-2.194152017037e-12,2.1866895509615e-12,-2.3479001218383e-13,2.3981404149271e-13,-0.0014468858712395,0.0014468858696154,-0.0014468858697805,0.0014468858710776,-0.0014468858710854,0.001446885869776,-0.0014468858696236,0.0014468858712361,-0.0013577099093683,0.0013577099052351,-0.0013577099050772,0.0013577099095142,2.3671641553482e-13,-2.3765626917588e-13,3.9439318685298e-13,-3.8397579921467e-13,-0.001397179673277,0.001397179673284,-0.0014468858702222,0.0014468858706441,-0.0014468858704744,0.0014468858703822,-0.0014468858703769,0.0014468858704847,-0.0014468858706293,0.0014468858702226,-0.0013577099070028,0.0013577099076177,-0.0013577099077569,0.0013577099068519,-0.0013577099072015,0.0013577099074106,-0.0013577099076536,0.001357709906927,2.2992195545385e-12,-2.0815872912901e-12,-0.0013971796731719,0.0013971796733898,-2.6725218857027e-13,4.9934686294316e-13,-0.00144688586972,0.0014468858711393,-0.0014468858694642,0.0014468858713929,-0.0014468858711826,0.0014468858696791,-0.0014468858709259,0.0014468858699334,-0.0013577099092145,0.0013577099054074,-0.0013577099049257,0.0013577099096895,0.67638951244922,0.71886036455476,114808,2744,0.0058045571861248,0.0058045571861275,0.005804557186129,18.06005441546,18.074726465596,-9.5519564676318e-05,-9.5519564676318e-05,-9.5519564676318e-05,1243498.3286661,0.017566945122442
19819200,0.98597932831606,0.017304737430409,0.0057682458101337,0.0057682458101368,0.0057682458101382,-0.0013986761702978,0.0013986761702937,-2.2199194486097e-12,2.2122906254839e-12,-2.348977517693e-13,2.3974358040995e-13,-0.001448386329276,0.0014483863276346,-0.0014483863277998,0.001448386329114,-0.0014483863291218,0.001448386327795,-0.001448386327643,0.0014483863292725,-0.0013592026200438,0.0013592026158601,-0.0013592026157025,0.0013592026201895,2.3671835665199e-13,-2.3769467976716e-13,3.9453330021967e-13,-3.8416832274497e-13,-0.0013986761702929,0.0013986761702999,-0.0014483863282499,0.001448386328672,-0.0014483863285022,0.0014483863284099,-0.0014483863284047,0.0014483863285125,-0.0014483863286571,0.0014483863282502,-0.001359202617653,0.0013592026182682,-0.0013592026184075,0.001359202617502,-0.001359202617852,0.001359202618061,-0.0013592026183042,0.0013592026175774,2.3248754178283e-12,-2.1073030645144e-12,-0.0013986761701878,0.0013986761704057,-2.6744718261333e-13,4.9948568223174e-13,-0.0014483863277393,0.0014483863291754,-0.0014483863274834,0.0014483863294292,-0.0014483863292191,0.0014483863276983,-0.0014483863289622,0.0014483863279526,-0.0013592026198901,0.0013592026160327,-0.001359202615551,0.0013592026203652,0.65786892284641,0.6273053068253,114808,2744,0.0058107564087049,0.0058107564087077,0.0058107564087092,18.582958731999,18.597644098475,-9.133633014401e-05,-9.133633014401e-05,-9.133633014401e-05,1237460.7774366,0.017585870006378
20019200,0.98631535909986,0.017310368981352,0.0057701229937814,0.0057701229937845,0.0057701229937859,-0.0013993110227041,0.0013993110227,-2.2455989223914e-12,2.2379589420927e-12,-2.3493281951694e-13,2.3975332275939e-13,-0.0014490317804637,0.001449031778805,-0.0014490317789703,0.0014490317803016,-0.0014490317803094,0.0014490317789655,-0.0014490317788134,0.0014490317804601,-0.0013598343574708,0.001359834353237,-0.0013598343530792,0.0013598343576165,2.3674135594938e-13,-2.3771750259935e-13,3.9472264737642e-13,-3.8436996364381e-13,-0.0013993110226992,0.0013993110227062,-0.0014490317794288,0.0014490317798511,-0.0014490317796813,0.0014490317795888,-0.0014490317795836,0.0014490317796916,-0.0014490317798362,0.0014490317794292,-0.0013598343550548,0.0013598343556702,-0.0013598343558096,0.0013598343549037,-0.001359834355254,0.0013598343554629,-0.0013598343557062,0.0013598343549793,2.3505502511268e-12,-2.1329762213935e-12,-0.0013993110225941,0.001399311022812,-2.6764129433041e-13,4.9968114684867e-13,-0.0014490317789098,0.0014490317803629,-0.0014490317786537,0.0014490317806168,-0.0014490317804067,0.0014490317788687,-0.0014490317801497,0.0014490317791231,-0.0013598343573171,0.0013598343534096,-0.0013598343529279,0.0013598343577924,0.68048381431589,0.73220119930258,114808,2744,0.0058133861943098,0.0058133861943126,0.0058133861943141,18.671287644627,18.673953988654,-9.0629698842987e-05,-9.0629698842987e-05,-9.0629698842987e-05,1237003.0472354,0.01759389858927
20219200,0.98664274812728,0.017316007576209,0.0057720025254005,0.0057720025254036,0.005772002525405,-0.0013997302137279,0.0013997302137238,-2.2712862451981e-12,2.2636217433599e-12,-2.3497166116123e-13,2.3977162367089e-13,-0.0014494517615126,0.0014494517598368,-0.0014494517600021,0.0014494517613505,-0.0014494517613583,0.0014494517599973,-0.0014494517598453,0.001449451761509,-0.0013602572944036,0.0013602572901195,-0.0013602572899617,0.0013602572945493,2.367644140685e-13,-2.3775214859977e-13,3.9495669904984e-13,-3.8460589761266e-13,-0.0013997302137231,0.00139973021373,-0.0014494517604692,0.0014494517608916,-0.0014494517607218,0.0014494517606292,-0.001449451760624,0.0014494517607321,-0.0014494517608767,0.0014494517604695,-0.0013602572919622,0.0013602572925782,-0.0013602572927176,0.0013602572918112,-0.0013602572921618,0.0013602572923706,-0.0013602572926141,0.0013602572918869,2.3762166435068e-12,-2.1586608485105e-12,-0.001399730213618,0.0013997302138359,-2.6788440455062e-13,4.9990684583607e-13,-0.0014494517599417,0.0014494517614118,-0.0014494517596855,0.0014494517616659,-0.0014494517614558,0.0014494517599005,-0.0014494517611986,0.0014494517601551,-0.0013602572942499,0.0013602572902923,-0.0013602572898104,0.0013602572947253,0.69908657313306,0.80928248288768,114808,2744,0.0058151226709743,0.0058151226709771,0.0058151226709785,18.638459805161,18.63759384788,-9.0892321558713e-05,-9.0892321558713e-05,-9.0892321558713e-05,1230470.8413203,0.017599199802733
20419200,0.98696166257119,0.017321507728537,0.00577383590951,0.005773835909513,0.0057738359095145,-0.0014001482804265,0.0014001482804223,-2.2969792534929e-12,2.2892758318878e-12,-2.3502616225362e-13,2.3978120426057e-13,-0.001449865846683,0.00144986584499,-0.0014498658451554,0.0014498658465208,-0.0014498658465287,0.0014498658451505,-0.0014498658449986,0.0014498658466794,-0.0013606803098158,0.0013606803054814,-0.0013606803053236,0.0013606803099615,2.3680147175994e-13,-2.3778026538788e-13,3.9520851488645e-13,-3.8485224302815e-13,-0.0014001482804216,0.0014001482804286,-0.0014498658456309,0.0014498658460535,-0.0014498658458837,0.0014498658457909,-0.0014498658457857,0.001449865845894,-0.0014498658460386,0.0014498658456312,-0.001360680307349,0.0013606803079654,-0.0013606803081048,0.0013606803071979,-0.0013606803075489,0.0013606803077576,-0.0013606803080013,0.0013606803072738,2.4018984177697e-12,-2.1843257409362e-12,-0.0014001482803165,0.0014001482805344,-2.6812498543633e-13,5.0016336741128e-13,-0.0014498658450951,0.0014498658465821,-0.0014498658448386,0.0014498658468363,-0.0014498658466262,0.0014498658450537,-0.0014498658463689,0.0014498658453084,-0.001360680309662,0.0013606803056543,-0.0013606803051722,0.0013606803101376,0.69998398554766,0.79964910914345,114808,2744,0.0058168545134146,0.0058168545134174,0.0058168545134188,18.60224797228,18.601233707106,-9.118201622176e-05,-9.118201622176e-05,-9.118201622176e-05,1220445.4416397,0.017604486788847
20619200,0.98727233235123,0.017326331957445,0.0057754439858124,0.0057754439858155,0.0057754439858169,-0.0014005271030917,0.0014005271030874,-2.3227347571211e-12,2.3148737240625e-12,-2.3514105361968e-13,2.39740492269e-13,-0.0014502480051806,0.0014502480034704,-0.0014502480036358,0.0014502480050183,-0.0014502480050263,0.0014502480036311,-0.0014502480034789,0.0014502480051768,-0.001361049687297,0.001361049682912,-0.0013610496827545,0.0013610496874421,2.3695605527281e-13,-2.3769626795394e-13,3.9558962089098e-13,-3.8500017968526e-13,-0.0014005271030865,0.0014005271030937,-0.0014502480041195,0.0014502480045424,-0.0014502480043726,0.0014502480042799,-0.0014502480042745,0.0014502480043832,-0.0014502480045275,0.0014502480041203,-0.0013610496848053,0.0013610496854224,-0.0013610496855619,0.0013610496846544,-0.0013610496850049,0.001361049685214,-0.0013610496854578,0.0013610496847302,2.4276204849194e-12,-2.2099549873921e-12,-0.0014005271029815,0.0014005271031994,-2.6836291934408e-13,5.0044888810058e-13,-0.0014502480035754,0.0014502480050796,-0.0014502480033189,0.0014502480053338,-0.0014502480051237,0.0014502480035342,-0.0014502480048664,0.001450248003789,-0.0013610496871431,0.0013610496830855,-0.0013610496826029,0.0013610496876188,0.63099122472849,0.47044782337618,114808,2744,0.0058184236982256,0.0058184236982281,0.0058184236982293,18.565894419974,18.564873566331,-9.1472844640206e-05,-9.1472844640206e-05,-9.1472844640206e-05,1212876.7776317,0.017609277657411
20819200,0.98756054328052,0.017331134405947,0.0057770448019799,0.0057770448019829,0.0057770448019844,-0.0013992960755786,0.0013992960755745,-2.3483142698022e-12,2.3406016863676e-12,-2.3510436367895e-13,2.3983995246585e-13,-0.001449039137593,0.0014490391358657,-0.0014490391360312,0.0014490391374308,-0.0014490391374387,0.0014490391360263,-0.0014490391358743,0.0014490391375893,-0.0013598095381325,0.0013598095336976,-0.0013598095335398,0.0013598095382782,2.3686964614785e-13,-2.3784985149736e-13,3.9568926490575e-13,-3.853564629187e-13,-0.0013992960755737,0.0013992960755807,-0.0014490391365236,0.0014490391369465,-0.0014490391367767,0.0014490391366836,-0.0014490391366785,0.001449039136787,-0.0014490391369317,0.001449039136524,-0.0013598095356152,0.0013598095362325,-0.001359809536372,0.001359809535464,-0.0013598095358157,0.0013598095360242,-0.0013598095362683,0.0013598095355403,2.4532114678383e-12,-2.235675025192e-12,-0.0013992960754686,0.0013992960756865,-2.6861244113313e-13,5.0065911697235e-13,-0.001449039135971,0.0014490391374919,-0.0014490391357142,0.0014490391377465,-0.0014490391375363,0.0014490391359293,-0.0014490391372787,0.0014490391361843,-0.0013598095379787,0.0013598095338709,-0.0013598095333885,0.0013598095384547,0.67642715758181,0.69457494878341,114808,2744,0.0058133239752609,0.0058133239752637,0.0058133239752652,17.744766617637,17.722040746063,-9.8041867058903e-05,-9.8041867058903e-05,-9.8041867058903e-05,1222771.9034996,0.017593709987108
21019200,0.98782664769477,0.01733543280433,0.0057784776014407,0.0057784776014437,0.0057784776014452,-0.0013979098146938,0.0013979098146898,-2.3738919415469e-12,2.3663376549768e-12,-2.3508013946494e-13,2.3994205964066e-13,-0.0014476589504204,0.0014476589486762,-0.0014476589488415,0.0014476589502583,-0.0014476589502661,0.0014476589488368,-0.0014476589486846,0.001447658950417,-0.0013584182068005,0.0013584182023156,-0.0013584182021576,0.0013584182069463,2.3686082288798e-13,-2.3793579004847e-13,3.9588067082313e-13,-3.856376307998e-13,-0.001397909814689,0.0013979098146959,-0.0014476589493425,0.0014476589497657,-0.0014476589495958,0.0014476589495026,-0.0014476589494975,0.001447658949606,-0.0014476589497509,0.001447658949343,-0.001358418204258,0.0013584182048756,-0.0013584182050153,0.0013584182041067,-0.0013584182044587,0.001358418204667,-0.0013584182049115,0.001358418204183,2.478900124244e-12,-2.2612962130706e-12,-0.0013979098145838,0.0013979098148018,-2.6881502317968e-13,5.0092281479891e-13,-0.0014476589487816,0.0014476589503195,-0.0014476589485247,0.0014476589505742,-0.001447658950364,0.0014476589487398,-0.0014476589501062,0.0014476589489949,-0.0013584182066467,0.0013584182024888,-0.0013584182020062,0.001358418207123,0.6560166315291,0.59726576361696,114808,2744,0.0058075812755175,0.0058075812755204,0.0058075812755218,16.834493904797,16.808974900258,-0.00010532404876162,-0.00010532404876162,-0.00010532404876162,1219912.0484456,0.017576179288133
21219200,0.9880725052496,0.017339426688742,0.0057798088962449,0.0057798088962479,0.0057798088962494,-0.0013964660057743,0.0013964660057702,-2.3996310725135e-12,2.3919129877534e-12,-2.3518609544222e-13,2.3990050943941e-13,-0.0014462242140272,0.0014462242122656,-0.0014462242124311,0.0014462242138649,-0.0014462242138727,0.0014462242124262,-0.0014462242122742,0.0014462242140235,-0.0013569699927847,0.0013569699882494,-0.0013569699880914,0.0013569699929304,2.3692152691586e-13,-2.3794155457825e-13,3.9614625094514e-13,-3.8584162456793e-13,-0.0013964660057695,0.0013964660057764,-0.0014462242129404,0.0014462242133638,-0.0014462242131939,0.0014462242131005,-0.0014462242130954,0.0014462242132042,-0.0014462242133489,0.0014462242129408,-0.0013569699902167,0.0013569699908349,-0.0013569699909745,0.0013569699900655,-0.0013569699904177,0.001356969990626,-0.0013569699908705,0.001356969990142,2.5045496641975e-12,-2.2869646642111e-12,-0.0013964660056643,0.0013964660058822,-2.6907260354607e-13,5.011365141529e-13,-0.0014462242123711,0.0014462242139259,-0.0014462242121139,0.0014462242141808,-0.0014462242139706,0.0014462242123291,-0.0014462242137127,0.0014462242125844,-0.0013569699926307,0.0013569699884228,-0.00135696998794,0.0013569699931071,0.65967100149881,0.6185149949554,114808,2744,0.00580160013178,0.0058016001317828,0.0058016001317842,15.921546715418,15.895909054454,-0.00011262762627666,-0.00011262762627666,-0.00011262762627666,1221749.5078543,0.017557921018651
21419200,0.98830310549776,0.017343195964476,0.0057810653214896,0.0057810653214927,0.0057810653214941,-0.0013954386206831,0.0013954386206789,-2.4252996900093e-12,2.4175635030908e-12,-2.3521231729741e-13,2.3992810418464e-13,-0.0014452021488199,0.0014452021470411,-0.0014452021472066,0.0014452021486576,-0.0014452021486654,0.0014452021472018,-0.0014452021470498,0.0014452021488161,-0.0013559409433121,0.0013559409387265,-0.0013559409385686,0.0013559409434577,2.3695205539501e-13,-2.3796673027974e-13,3.963724205064e-13,-3.8606791177266e-13,-0.0013954386206782,0.0013954386206852,-0.0014452021477245,0.001445202148148,-0.0014452021479781,0.0014452021478846,-0.0014452021478795,0.0014452021479884,-0.0014452021481331,0.0014452021477249,-0.0013559409407187,0.0013559409413373,-0.001355940941477,0.0013559409405675,-0.0013559409409201,0.0013559409411282,-0.0013559409413728,0.0013559409406441,2.5302143213364e-12,-2.3126193804771e-12,-0.0013954386205731,0.001395438620791,-2.6930253769821e-13,5.0135827208423e-13,-0.0014452021471467,0.0014452021487185,-0.0014452021468894,0.0014452021489736,-0.0014452021487634,0.0014452021471046,-0.0014452021485053,0.00144520214736,-0.0013559409431581,0.0013559409389,-0.0013559409384171,0.0013559409436346,0.66373452186174,0.63976422629384,114808,2744,0.0057973440568577,0.0057973440568606,0.005797344056862,15.232432831104,15.212983689483,-0.00011814053735117,-0.00011814053735117,-0.00011814053735117,1221878.4013448,0.017544928910451
21619200,0.98851987335433,0.017346768700933,0.0057822562336418,0.0057822562336448,0.0057822562336463,-0.0013944484595162,0.0013944484595119,-2.4510227764293e-12,2.443163082714e-12,-2.3529988907068e-13,2.3988440699015e-13,-0.001444217606883,0.0014442176050871,-0.0014442176052527,0.0014442176067206,-0.0014442176067286,0.0014442176052476,-0.0014442176050958,0.0014442176068792,-0.0013549488899707,0.0013549488853349,-0.001354948885177,0.0013549488901163,2.3694676143909e-13,-2.3801925808681e-13,3.9656541461056e-13,-3.8631502187067e-13,-0.0013944484595113,0.0013944484595182,-0.0014442176057791,0.0014442176062027,-0.0014442176060327,0.0014442176059391,-0.0014442176059341,0.0014442176060431,-0.001444217606188,0.0014442176057794,-0.0013549488873522,0.0013549488879712,-0.001354948888111,0.001354948887201,-0.0013549488875538,0.0013549488877617,-0.0013549488880066,0.0013549488872776,2.5558517146022e-12,-2.3383065957503e-12,-0.0013944484594061,0.001394448459624,-2.6954182450581e-13,5.0156126588291e-13,-0.0014442176051928,0.0014442176067815,-0.0014442176049355,0.0014442176070367,-0.0014442176068266,0.0014442176051507,-0.0014442176065685,0.0014442176054062,-0.0013549488898167,0.0013549488855087,-0.0013549488850255,0.0013549488902934,0.66920853573919,0.66571266625382,114808,2744,0.0057932421712867,0.0057932421712896,0.005793242171291,14.567998673725,14.549325502629,-0.0001234560106102,-0.0001234560106102,-0.0001234560106102,1221335.9426537,0.017532407653114
21819200,0.98872376619932,0.017350081933078,0.0057833606443567,0.0057833606443598,0.0057833606443612,-0.0013934469231397,0.0013934469231355,-2.4766332909206e-12,2.4688742986327e-12,-2.3527097129601e-13,2.3995164023034e-13,-0.0014432211376945,0.0014432211358814,-0.001443221136047,0.0014432211375321,-0.00144322113754,0.0014432211360421,-0.0014432211358901,0.0014432211376907,-0.0013539443685086,0.0013539443638226,-0.0013539443636646,0.0013539443686543,2.3698293680454e-13,-2.3801825811736e-13,3.9679464290191e-13,-3.8651025120067e-13,-0.0013934469231349,0.0013934469231418,-0.0014432211365818,0.0014432211370056,-0.0014432211368357,0.0014432211367419,-0.0014432211367368,0.001443221136846,-0.0014432211369908,0.0014432211365822,-0.0013539443658647,0.0013539443664841,-0.0013539443666238,0.0013539443657134,-0.0013539443660666,0.0013539443662745,-0.0013539443665194,0.0013539443657903,2.5815385181233e-12,-2.3639397244406e-12,-0.0013934469230297,0.0013934469232476,-2.697245248068e-13,5.0179914096893e-13,-0.0014432211359872,0.0014432211375929,-0.0014432211357296,0.0014432211378483,-0.0014432211376381,0.0014432211359449,-0.0014432211373797,0.0014432211362005,-0.0013539443683545,0.0013539443639963,-0.0013539443635131,0.0013539443688314,0.65988853076692,0.62146898374426,114808,2744,0.0057890931487612,0.0057890931487641,0.0057890931487655,13.904307507483,13.885667315775,-0.00012876553994014,-0.00012876553994014,-0.00012876553994014,1219749.0065832,0.017519742666171
22019200,0.98892730213868,0.017353338226242,0.0057844460754115,0.0057844460754146,0.005784446075416,-0.0013941849772707,0.0013941849772665,-2.5023164098116e-12,2.4945486876663e-12,-2.3528874981998e-13,2.3996018408697e-13,-0.0014439583922335,0.0014439583904033,-0.0014439583905689,0.0014439583920711,-0.001443958392079,0.001443958390564,-0.001443958390412,0.0014439583922297,-0.0013546840816332,0.001354684076897,-0.001354684076739,0.0013546840817789,2.3698887779952e-13,-2.3803919865411e-13,3.9699069573616e-13,-3.8671377439494e-13,-0.0013941849772659,0.0013941849772727,-0.0014439583911122,0.0014439583915362,-0.0014439583913662,0.0014439583912723,-0.0014439583912672,0.0014439583913765,-0.0014439583915213,0.0014439583911126,-0.001354684078964,0.0013546840795838,-0.0013546840797236,0.0013546840788127,-0.0013546840791662,0.001354684079374,-0.0013546840796191,0.0013546840788898,2.6072249098922e-12,-2.3896108813808e-12,-0.0013941849771607,0.0013941849773786,-2.6991693069363e-13,5.0200519349769e-13,-0.0014439583905092,0.0014439583921319,-0.0014439583902514,0.0014439583923874,-0.0014439583921772,0.0014439583904667,-0.0014439583919187,0.0014439583907225,-0.0013546840814791,0.0013546840770708,-0.0013546840765874,0.0013546840819562,0.64982376998722,0.57722530123469,114808,2744,0.0057921506087998,0.0057921506088027,0.0057921506088041,14.152823994318,14.159413785498,-0.00012677740804546,-0.00012677740804546,-0.00012677740804546,1218489.6918618,0.017529075742429
22219200,0.98913169088505,0.017356583479921,0.0057855278266379,0.005785527826641,0.0057855278266424,-0.0013951058598664,0.0013951058598621,-2.5280023769612e-12,2.5202239996956e-12,-2.3530062985687e-13,2.3995826502795e-13,-0.0014448889841938,0.0014448889823464,-0.001444888982512,0.0014448889840314,-0.0014448889840392,0.0014448889825071,-0.0014448889823551,0.00144488898419,-0.0013555997953585,0.0013555997905719,-0.0013555997904139,0.0013555997955041,2.3699458350757e-13,-2.3804308088845e-13,3.9717327839368e-13,-3.8689312185717e-13,-0.0013951058598615,0.0013951058598684,-0.0014448889830638,0.0014448889834879,-0.001444888983318,0.001444888983224,-0.0014448889832189,0.0014448889833283,-0.0014448889834731,0.0014448889830643,-0.0013555997926639,0.0013555997932841,-0.0013555997934238,0.0013555997925126,-0.0013555997928663,0.001355599793074,-0.0013555997933192,0.0013555997925898,2.6329048018597e-12,-2.4152920968373e-12,-0.0013951058597563,0.0013951058599743,-2.7009345471271e-13,5.0218948198545e-13,-0.0014448889824524,0.0014448889840921,-0.0014448889821945,0.0014448889843478,-0.0014448889841375,0.0014448889824098,-0.0014448889838789,0.0014448889826657,-0.0013555997952044,0.0013555997907458,-0.0013555997902624,0.0013555997956815,0.64497433476028,0.56029673343211,114808,2744,0.0057959653764437,0.0057959653764466,0.0057959653764479,14.498834784172,14.508501840881,-0.00012400932172663,-0.00012400932172663,-0.00012400932172663,1221285.3515858,0.017540721023469
22419200,0.98933687615399,0.017359976525851,0.0057866588419478,0.0057866588419509,0.0057866588419523,-0.001396035623453,0.0013960356234488,-2.5536892484949e-12,2.5459012663986e-12,-2.3530294757099e-13,2.3994964029143e-13,-0.0014458288387673,0.0014458288369028,-0.0014458288370684,0.0014458288386049,-0.0014458288386127,0.0014458288370635,-0.0014458288369116,0.0014458288387634,-0.0013565270243293,0.0013565270194924,-0.0013565270193344,0.0013565270244749,2.3699281885559e-13,-2.3803872808025e-13,3.9732697958057e-13,-3.8705570512566e-13,-0.0013960356234481,0.001396035623455,-0.0014458288376286,0.0014458288380529,-0.0014458288378828,0.0014458288377888,-0.0014458288377837,0.0014458288378932,-0.001445828838038,0.0014458288376291,-0.0013565270216095,0.0013565270222299,-0.0013565270223697,0.0013565270214582,-0.0013565270218122,0.0013565270220198,-0.0013565270222651,0.0013565270215356,2.6585871937509e-12,-2.4409739593329e-12,-0.0013960356233429,0.0013960356235609,-2.7024650886054e-13,5.0235153585835e-13,-0.0014458288370088,0.0014458288386654,-0.0014458288367507,0.0014458288389213,-0.001445828838711,0.0014458288369661,-0.0014458288384522,0.0014458288372221,-0.0013565270241752,0.0013565270196665,-0.0013565270191829,0.0013565270246525,0.67139352176652,0.68841566057336,114808,2744,0.0057998169327374,0.0057998169327403,0.0057998169327417,14.847791964057,14.857589896264,-0.00012121766428755,-0.00012121766428755,-0.00012121766428755,1224625.5454366,0.017552478680831
22619200,0.9895426182205,0.017363416680251,0.005787805560081,0.0057878055600841,0.0057878055600855,-0.0013969804883803,0.0013969804883761,-2.5793743333185e-12,2.5715773634453e-12,-2.3530221356308e-13,2.3993557454466e-13,-0.0014467772725088,0.0014467772706271,-0.0014467772707927,0.0014467772723463,-0.0014467772723542,0.0014467772707878,-0.0014467772706359,0.0014467772725049,-0.0013574715632984,0.0013574715584113,-0.0013574715582533,0.0013574715634441,2.3698552496077e-13,-2.3803219886795e-13,3.9746985756869e-13,-3.8720028894402e-13,-0.0013969804883754,0.0013969804883823,-0.0014467772713615,0.0014467772717859,-0.0014467772716159,0.0014467772715217,-0.0014467772715166,0.0014467772716262,-0.0014467772717711,0.001446777271362,-0.0013574715605534,0.001357471561174,-0.0013574715613139,0.001357471560402,-0.0013574715607562,0.0013574715609637,-0.0013574715612091,0.0013574715604795,2.6842654975316e-12,-2.4666568806196e-12,-0.0013969804882702,0.0013969804884882,-2.7039415140899e-13,5.0249111982945e-13,-0.0014467772707332,0.001446777272407,-0.0014467772704751,0.0014467772726628,-0.0014467772724526,0.0014467772706904,-0.0014467772721937,0.0014467772709465,-0.0013574715631442,0.0013574715585854,-0.0013574715581017,0.0013574715636217,0.67880265939236,0.71862480832647,114808,2744,0.0058037310811213,0.0058037310811242,0.0058037310811256,15.185996927307,15.195499854149,-0.00011851202458154,-0.00011851202458154,-0.00011851202458154,1221267.8045648,0.017564427381661
22819200,0.98974593551106,0.017366806866439,0.0057889356221437,0.0057889356221468,0.0057889356221482,-0.0013975032653337,0.0013975032653294,-2.6050522538389e-12,2.5972491767304e-12,-2.3527479378953e-13,2.3992789095586e-13,-0.0014473043207716,0.0014473043188728,-0.0014473043190384,0.0014473043206091,-0.001447304320617,0.0014473043190334,-0.0014473043188815,0.0014473043207677,-0.0013579924605346,0.0013579924555971,-0.0013579924554392,0.0013579924606802,2.3697970160926e-13,-2.3800425854504e-13,3.9759020683328e-13,-3.8733363781148e-13,-0.0013975032653288,0.0013975032653357,-0.0014473043196157,0.0014473043200401,-0.0014473043198701,0.0014473043197758,-0.0014473043197708,0.0014473043198805,-0.0014473043200253,0.0014473043196162,-0.0013579924577642,0.0013579924583851,-0.001357992458525,0.0013579924576128,-0.0013579924579672,0.0013579924581747,-0.0013579924584201,0.0013579924576904,2.7099485952835e-12,-2.4923243906124e-12,-0.0013975032652236,0.0013975032654416,-2.7051773586886e-13,5.0261893945406e-13,-0.0014473043189789,0.0014473043206697,-0.0014473043187207,0.0014473043209256,-0.0014473043207154,0.001447304318936,-0.0014473043204565,0.0014473043191922,-0.0013579924603803,0.0013579924557713,-0.0013579924552875,0.0013579924608578,0.67691801112914,0.70403727244203,114808,2744,0.0058058966876121,0.0058058966876151,0.0058058966876164,15.303132691178,15.306516963861,-0.00011757493847058,-0.00011757493847058,-0.00011757493847058,1217139.3941898,0.017571038479458
23019200,0.98994674931633,0.017369933564408,0.0057899778548,0.0057899778548031,0.0057899778548045,-0.0013979954045296,0.0013979954045253,-2.6307794393984e-12,2.6228925895734e-12,-2.3527128171851e-13,2.3987104710417e-13,-0.001447802103213,0.0014478021012972,-0.0014478021014626,0.0014478021030509,-0.0014478021030586,0.0014478021014577,-0.0014478021013058,0.001447802103209,-0.0013584782891845,0.0013584782841964,-0.0013584782840387,0.0013584782893298,2.3701817102228e-13,-2.3789837942663e-13,3.9778955368454e-13,-3.8733410838534e-13,-0.0013979954045246,0.0013979954045316,-0.0014478021020482,0.001447802102473,-0.0014478021023028,0.0014478021022086,-0.0014478021022033,0.0014478021023133,-0.0014478021024579,0.0014478021020489,-0.0013584782863885,0.0013584782870096,-0.0013584782871491,0.0013584782862372,-0.0013584782865912,0.0013584782867982,-0.0013584782870437,0.0013584782863147,2.7356534276656e-12,-2.5179879595492e-12,-0.0013979954044194,0.0013979954046374,-2.7059402765585e-13,5.0275287653884e-13,-0.0014478021014029,0.0014478021031107,-0.0014478021011445,0.001447802103367,-0.0014478021031567,0.0014478021013601,-0.0014478021028978,0.0014478021016162,-0.001358478289029,0.0013584782843701,-0.001358478283886,0.0013584782895069,0.63260001202619,0.4953449837253,114808,2744,0.0058079353458469,0.0058079353458494,0.005807935345851,15.414404373379,15.417534073573,-0.00011668476501297,-0.00011668476501297,-0.00011668476501297,1214031.181309,0.017577262188378
23219200,0.99014505701578,0.017373151950743,0.0057910506502453,0.0057910506502483,0.0057910506502498,-0.0013984347934762,0.0013984347934719,-2.6564198904752e-12,2.6485846703919e-12,-2.3524309232232e-13,2.3985265796006e-13,-0.0014482554623094,0.0014482554603763,-0.0014482554605419,0.001448255462147,-0.0014482554621548,0.001448255460537,-0.0014482554603851,0.0014482554623054,-0.0013589128395475,0.0013589128345095,-0.0013589128343515,0.0013589128396931,2.3692599736753e-13,-2.3794937786866e-13,3.9779961220079e-13,-3.8750369143998e-13,-0.0013984347934713,0.0013984347934782,-0.0014482554611364,0.0014482554615609,-0.0014482554613909,0.0014482554612965,-0.0014482554612914,0.0014482554614013,-0.001448255461546,0.0014482554611369,-0.0013589128367266,0.001358912837348,-0.0013589128374877,0.0013589128365753,-0.00135891283693,0.0013589128371371,-0.0013589128373827,0.001358912836653,2.7613084380403e-12,-2.543667792695e-12,-0.0013984347933661,0.0013984347935841,-2.7069561278778e-13,5.0282169796581e-13,-0.0014482554604825,0.0014482554622074,-0.0014482554602241,0.0014482554624636,-0.0014482554622532,0.0014482554604396,-0.0014482554619942,0.0014482554606958,-0.0013589128393931,0.0013589128346837,-0.0013589128341998,0.0013589128398708,0.65900008213013,0.62897888469023,114808,2744,0.005809755436934,0.0058097554369368,0.0058097554369382,15.525432767351,15.528551183285,-0.0001157965378612,-0.0001157965378612,-0.0001157965378612,1221034.9773344,0.017582818809178
23419200,0.99034170083328,0.017376311523398,0.0057921038411301,0.0057921038411332,0.0057921038411346,-0.0013990358359014,0.0013990358358971,-2.6820970205786e-12,2.6742619416904e-12,-2.3522899061617e-13,2.398114606892e-13,-0.0014488636655726,0.0014488636636225,-0.001448863663788,0.0014488636654102,-0.0014488636654181,0.0014488636637831,-0.0014488636636313,0.0014488636655687,-0.001359510298155,0.0013595102930666,-0.0013595102929087,0.0013595102983005,2.3689888054887e-13,-2.3792308455426e-13,3.9785449287716e-13,-3.8756474839827e-13,-0.0013990358358965,0.0013990358359034,-0.001448863664391,0.0014488636648156,-0.0014488636646456,0.0014488636645511,-0.001448863664546,0.001448863664656,-0.0014488636648007,0.0014488636643915,-0.0013595102953089,0.0013595102959304,-0.0013595102960701,0.0013595102951576,-0.0013595102955124,0.0013595102957195,-0.0013595102959651,0.0013595102952355,2.7869791832284e-12,-2.5693503610513e-12,-0.0013990358357913,0.0013990358360093,-2.7075937554576e-13,5.0287375519902e-13,-0.0014488636637286,0.0014488636654706,-0.0014488636634702,0.0014488636657268,-0.0014488636655165,0.0014488636636857,-0.0014488636652574,0.001448863663942,-0.0013595102980006,0.001359510293241,-0.0013595102927571,0.0013595102984784,0.65256366655182,0.60037666582796,114808,2744,0.0058122452291333,0.0058122452291363,0.0058122452291377,15.70390712582,15.708890718984,-0.00011436874299344,-0.00011436874299344,-0.00011436874299344,1220794.6536756,0.017590419730881
23619200,0.99054082908784,0.01737958117533,0.0057931937251075,0.0057931937251105,0.005793193725112,-0.001400280561866,0.0014002805618618,-2.7077449309863e-12,2.6999693701558e-12,-2.3506571366483e-13,2.3983774665088e-13,-0.0014501135614016,0.0014501135594343,-0.0014501135595998,0.0014501135612392,-0.001450113561247,0.0014501135595949,-0.0014501135594431,0.0014501135613976,-0.0013607548398516,0.0013607548347133,-0.0013607548345548,0.0013607548399968,2.3687805765559e-13,-2.3780920568024e-13,3.9786261027624e-13,-3.8757298344081e-13,-0.0014002805618611,0.0014002805618681,-0.0014501135602113,0.0014501135606359,-0.001450113560466,0.0014501135603715,-0.0014501135603664,0.0014501135604763,-0.0014501135606211,0.0014501135602119,-0.0013607548369804,0.0013607548376016,-0.0013607548377416,0.0013607548368291,-0.0013607548371838,0.0013607548373907,-0.001360754837636,0.0013607548369069,2.8127848360599e-12,-2.5949048744961e-12,-0.0014002805617559,0.001400280561974,-2.707851982863e-13,5.0286969649949e-13,-0.0014501135595404,0.0014501135612995,-0.001450113559282,0.0014501135615557,-0.0014501135613454,0.0014501135594975,-0.0014501135610864,0.0014501135597537,-0.0013607548396969,0.0013607548348875,-0.0013607548344033,0.0013607548401752,0.66669032305497,0.66866881224485,114808,2744,0.0058174014970652,0.0058174014970682,0.0058174014970696,16.217527314425,16.231808354441,-0.0001102597814846,-0.0001102597814846,-0.0001102597814846,1221176.8482849,0.017606160812878
23819200,0.99074242196428,0.017383062788996,0.005794354262996,0.0057943542629991,0.0057943542630005,-0.0014015733413649,0.0014015733413608,-2.7333655076703e-12,2.7257194814855e-12,-2.3501606559515e-13,2.3979860814066e-13,-0.001451409292651,0.0014514092906669,-0.0014514092908323,0.0014514092924889,-0.0014514092924965,0.0014514092908272,-0.0014514092906757,0.0014514092926474,-0.001362050129569,0.0013620501243801,-0.0013620501242225,0.0013620501297148,2.3676029654722e-13,-2.37838498903e-13,3.9782214092432e-13,-3.8759286518638e-13,-0.0014015733413602,0.0014015733413671,-0.001451409291452,0.0014514092918765,-0.0014514092917067,0.001451409291612,-0.001451409291607,0.001451409291717,-0.0014514092918617,0.0014514092914524,-0.0013620501266731,0.0013620501272946,-0.0013620501274347,0.0013620501265219,-0.0013620501268771,0.001362050127084,-0.0013620501273297,0.0013620501266002,2.8384771100021e-12,-2.6205826488813e-12,-0.0014015733412548,0.0014015733414731,-2.7066720189101e-13,5.0296134075864e-13,-0.0014514092907725,0.0014514092925489,-0.001451409290514,0.0014514092928052,-0.0014514092925944,0.0014514092907297,-0.0014514092923354,0.0014514092909861,-0.0013620501294154,0.0013620501245555,-0.0013620501240713,0.0013620501298934,0.70079152768418,0.82178848379094,114808,2744,0.0058227568247067,0.00582275682471,0.0058227568247113,16.740057959702,16.754725989899,-0.00010607953632239,-0.00010607953632239,-0.00010607953632239,1218419.9693734,0.017622509763473
24019200,0.99094634075562,0.017386624685664,0.0057955415618855,0.0057955415618885,0.00579554156189,-0.0014029101550233,0.001402910155019,-2.7591531160163e-12,2.7513083970273e-12,-2.3508223946972e-13,2.3964414962396e-13,-0.0014527414135916,0.0014527414115901,-0.0014527414117556,0.0014527414134293,-0.0014527414134371,0.0014527414117506,-0.001452741411599,0.0014527414135876,-0.0013633917202771,0.0013633917150379,-0.0013633917148801,0.0013633917204226,2.367486498442e-13,-2.3775803077301e-13,3.9783908158326e-13,-3.8753274937581e-13,-0.0014029101550184,0.0014029101550253,-0.0014527414123843,0.0014527414128088,-0.0014527414126389,0.0014527414125443,-0.0014527414125393,0.0014527414126493,-0.0014527414127939,0.0014527414123849,-0.0013633917173557,0.0013633917179772,-0.0013633917181169,0.0013633917172045,-0.0013633917175595,0.0013633917177662,-0.0013633917180118,0.0013633917172825,2.8640213002329e-12,-2.6464130656621e-12,-0.0014029101549132,0.0014029101551312,-2.7075055228589e-13,5.0283510932081e-13,-0.0014527414116962,0.0014527414134896,-0.0014527414114378,0.0014527414137458,-0.0014527414135354,0.0014527414116533,-0.0014527414132764,0.0014527414119095,-0.0013633917201229,0.0013633917152124,-0.0013633917147286,0.0013633917206007,0.70866198463588,0.84208196311467,114808,2744,0.0058282945783927,0.0058282945783957,0.0058282945783971,17.262958439539,17.277643625356,-0.00010189633248369,-0.00010189633248369,-0.00010189633248369,1208262.4629321,0.017639415752969
24219200,0.99115121553043,0.017390057665463,0.0057966858884851,0.0057966858884881,0.0057966858884896,-0.0014040624341203,0.0014040624341165,-2.7846394973513e-12,2.7771990007333e-12,-2.3483335644793e-13,2.3979877725314e-13,-0.00145389095887,0.001453890956852,-0.0014538909570167,0.0014538909587082,-0.0014538909587156,0.0014538909570126,-0.0014538909568605,0.0014538909588663,-0.0013645441914811,0.0013645441861919,-0.0013645441860334,0.0013645441916267,2.3671535674363e-13,-2.3769009167203e-13,3.9782037627234e-13,-3.8749063301538e-13,-0.0014040624341156,0.0014040624341226,-0.0014538909576536,0.0014538909580779,-0.0014538909579081,0.0014538909578133,-0.0014538909578083,0.0014538909579186,-0.0014538909580632,0.001453890957654,-0.0013645441885333,0.001364544189155,-0.0013645441892948,0.0013645441883824,-0.0013645441887377,0.001364544188944,-0.0013645441891897,0.0013645441884607,2.8897828073542e-12,-2.6720224303724e-12,-0.0014040624340104,0.0014040624342285,-2.7065279056656e-13,5.0287157879492e-13,-0.0014538909569567,0.0014538909587673,-0.0014538909566988,0.0014538909590237,-0.0014538909588131,0.0014538909569141,-0.0014538909585539,0.0014538909571702,-0.0013645441913259,0.001364544186365,-0.0013645441858812,0.0013645441918043,0.68010061228086,0.69606439508427,114808,2744,0.0058330678443292,0.0058330678443321,0.0058330678443336,17.691082875768,17.703147111565,-9.8471336993853e-05,-9.8471336993853e-05,-9.8471336993853e-05,1198435.0802096,0.017653988237796
24419200,0.99135391372224,0.017393450745135,0.0057978169150424,0.0057978169150454,0.0057978169150469,-0.0014047204855998,0.0014047204855955,-2.8105064654052e-12,2.80267496729e-12,-2.3499497651055e-13,2.3958534259695e-13,-0.0014545546415933,0.0014545546395576,-0.0014545546397231,0.0014545546414311,-0.0014545546414389,0.0014545546397181,-0.0014545546395665,0.0014545546415893,-0.0013651995905594,0.0013651995852195,-0.0013651995850616,0.0013651995907047,2.3668300479079e-13,-2.3767873907767e-13,3.9775726055343e-13,-3.874515165633e-13,-0.0014047204855949,0.0014047204856018,-0.0014545546403689,0.0014545546407933,-0.0014545546406235,0.0014545546405289,-0.0014545546405238,0.0014545546406339,-0.0014545546407785,0.0014545546403695,-0.0013651995875874,0.0013651995882089,-0.0013651995883485,0.0013651995874363,-0.0013651995877912,0.0013651995879978,-0.0013651995882434,0.0013651995875143,2.9153812312222e-12,-2.6977716731625e-12,-0.0014047204854897,0.0014047204857077,-2.7067473107276e-13,5.027489943045e-13,-0.0014545546396636,0.0014545546414913,-0.0014545546394053,0.0014545546417474,-0.0014545546415371,0.0014545546396207,-0.0014545546412781,0.0014545546398769,-0.0013651995904049,0.0013651995853938,-0.00136519958491,0.0013651995908827,0.67934587544103,0.69019622287929,114808,2744,0.0058357937284766,0.0058357937284795,0.0058357937284809,17.884216867882,17.889742298449,-9.6926265056946e-05,-9.6926265056946e-05,-9.6926265056946e-05,1196615.3149352,0.01766231050771
24619200,0.9915543186781,0.017396955923804,0.0057989853079323,0.0057989853079353,0.0057989853079368,-0.0014053658023728,0.0014053658023686,-2.8361620970845e-12,2.8283639868509e-12,-2.3495655569439e-13,2.3958589405069e-13,-0.0014552019059111,0.0014552019038584,-0.0014552019040239,0.0014552019057489,-0.0014552019057568,0.0014552019040189,-0.0014552019038672,0.001455201905907,-0.0013658475308223,0.0013658475254322,-0.0013658475252743,0.0013658475309676,2.3666641706224e-13,-2.3765262222846e-13,3.9771596769725e-13,-3.873739306982e-13,-0.0014053658023679,0.0014053658023748,-0.0014552019046786,0.001455201905103,-0.0014552019049332,0.0014552019048387,-0.0014552019048335,0.0014552019049436,-0.0014552019050882,0.0014552019046791,-0.0013658475278249,0.0013658475284465,-0.0013658475285862,0.0013658475276739,-0.0013658475280285,0.0013658475282349,-0.0013658475284807,0.0013658475277515,2.9410315946801e-12,-2.7234745938383e-12,-0.0014053658022628,0.0014053658024807,-2.7063390879045e-13,5.0266734973986e-13,-0.0014552019039648,0.0014552019058095,-0.0014552019037066,0.0014552019060656,-0.0014552019058554,0.0014552019039219,-0.0014552019055964,0.0014552019041779,-0.0013658475306674,0.0013658475256059,-0.0013658475251222,0.0013658475311452,0.70944456212751,0.82550026359664,114808,2744,0.0058384668877676,0.0058384668877704,0.0058384668877719,18.071084369625,18.076337485333,-9.5431325042997e-05,-9.5431325042997e-05,-9.5431325042997e-05,1194348.8670471,0.017670471686714
24819200,0.99175239390834,0.017400181746853,0.0058000605822818,0.0058000605822849,0.0058000605822863,-0.0014060297942792,0.001406029794275,-2.8618507819819e-12,2.8540373617841e-12,-2.349538881518e-13,2.395596522053e-13,-0.0014558645298893,0.0014558645278195,-0.0014558645279849,0.0014558645297272,-0.001455864529735,0.00145586452798,-0.0014558645278284,0.0014558645298854,-0.0013665092624789,0.0013665092570386,-0.0013665092568805,0.0013665092626242,2.3661271282051e-13,-2.3768026844271e-13,3.9758773632051e-13,-3.8734857853152e-13,-0.0014060297942744,0.0014060297942812,-0.001455864528648,0.0014558645290722,-0.0014558645289024,0.0014558645288078,-0.0014558645288029,0.0014558645289129,-0.0014558645290574,0.0014558645286484,-0.0013665092594569,0.0013665092600779,-0.0013665092602177,0.0013665092593056,-0.0013665092596606,0.0013665092598671,-0.0013665092601126,0.0013665092593837,2.9667283978957e-12,-2.74913289823e-12,-0.0014060297941692,0.0014060297943871,-2.7053708821884e-13,5.0261588072397e-13,-0.0014558645279254,0.0014558645297874,-0.0014558645276673,0.0014558645300434,-0.0014558645298332,0.0014558645278826,-0.0014558645295742,0.0014558645281387,-0.0013665092623246,0.0013665092572127,-0.0013665092567292,0.0013665092628024,0.66112225303654,0.59054061146344,114808,2744,0.0058412174033197,0.0058412174033227,0.0058412174033241,18.257691630084,18.262932672217,-9.393846695933e-05,-9.393846695933e-05,-9.393846695933e-05,1186345.7063542,0.01767886915287
25019200,0.99195035887493,0.017403369060852,0.0058011230202815,0.0058011230202846,0.005801123020286,-0.0014069870446219,0.0014069870446176,-2.8875531043304e-12,2.8796935225142e-12,-2.3497243400068e-13,2.3953590293083e-13,-0.0014568301719497,0.0014568301698627,-0.0014568301700281,0.0014568301717875,-0.0014568301717953,0.0014568301700232,-0.0014568301698716,0.0014568301719457,-0.0013674620825487,0.001367462077058,-0.0013674620769001,0.001367462082694,2.3664047667823e-13,-2.3764897528105e-13,3.9754391412984e-13,-3.8723540551829e-13,-0.001406987044617,0.0014069870446239,-0.0014568301706998,0.001456830171124,-0.0014568301709542,0.0014568301708598,-0.0014568301708547,0.0014568301709646,-0.0014568301711092,0.0014568301707004,-0.0013674620795016,0.0013674620801227,-0.0013674620802623,0.0013674620793505,-0.0013674620797052,0.0013674620799119,-0.0013674620801574,0.0013674620794284,2.9923970549123e-12,-2.7748224663725e-12,-0.0014069870445118,0.0014069870447297,-2.7048379572924e-13,5.0251070746635e-13,-0.0014568301699687,0.0014568301718478,-0.0014568301697105,0.0014568301721038,-0.0014568301718936,0.0014568301699259,-0.0014568301716347,0.0014568301701819,-0.0013674620823945,0.0013674620772323,-0.0013674620767487,0.0013674620828721,0.65362535238517,0.56235667199017,114808,2744,0.0058451826345506,0.0058451826345536,0.0058451826345549,18.628665681874,18.63900562452,-9.0970674545005e-05,-9.0970674545005e-05,-9.0970674545005e-05,1189608.3779613,0.017690975490758
25219200,0.99215139977154,0.017406710697154,0.0058022368990489,0.005802236899052,0.0058022368990534,-0.0014084648641547,0.0014084648641503,-2.9132388398693e-12,2.9053819579937e-12,-2.3499559344942e-13,2.39541086596e-13,-0.0014583158603632,0.001458315858259,-0.0014583158584245,0.001458315860201,-0.0014583158602088,0.0014583158584195,-0.0014583158582679,0.0014583158603592,-0.0013689385600633,0.0013689385545223,-0.0013689385543644,0.0013689385602086,2.3665859377182e-13,-2.3765873968864e-13,3.9745303455321e-13,-3.8714993754104e-13,-0.0014084648641498,0.0014084648641567,-0.0014583158591048,0.0014583158595289,-0.0014583158593591,0.0014583158592647,-0.0014583158592596,0.0014583158593695,-0.0014583158595141,0.0014583158591053,-0.0013689385569911,0.001368938557612,-0.0013689385577516,0.00136893855684,-0.0013689385571946,0.0013689385574013,-0.0013689385576468,0.0013689385569179,3.018067006007e-12,-2.8005274458089e-12,-0.0014084648640446,0.0014084648642625,-2.7040397463831e-13,5.0241565154672e-13,-0.001458315858365,0.0014583158602613,-0.0014583158581069,0.0014583158605173,-0.001458315860307,0.0014583158583223,-0.0014583158600482,0.0014583158585782,-0.0013689385599091,0.0013689385546965,-0.001368938554213,0.0013689385603866,0.67454671361896,0.66718788177615,114808,2744,0.0058513042562435,0.0058513042562465,0.0058513042562479,19.268766803395,19.286627087311,-8.5849865572842e-05,-8.5849865572842e-05,-8.5849865572842e-05,1193510.5218007,0.017709665581418
25419200,0.99235540754617,0.017410373008587,0.0058034576695264,0.0058034576695294,0.0058034576695309,-0.0014100011567153,0.0014100011567113,-2.9387662328191e-12,2.9312228057519e-12,-2.3485878960938e-13,2.3972436040887e-13,-0.0014598544887825,0.0014598544866618,-0.0014598544868271,0.0014598544886206,-0.0014598544886279,0.001459854486822,-0.0014598544866699,0.0014598544887789,-0.001370479524427,0.0013704795188357,-0.0013704795186775,0.0013704795245716,2.3616872638399e-13,-2.3820542887001e-13,3.9683175941509e-13,-3.8756627776331e-13,-0.0014100011567114,0.0014100011567172,-0.0014598544875154,0.0014598544879382,-0.0014598544877693,0.0014598544876742,-0.0014598544876701,0.001459854487779,-0.0014598544879248,0.0014598544875149,-0.0013704795213293,0.0013704795219493,-0.0013704795220895,0.0013704795211775,-0.0013704795215343,0.0013704795217402,-0.0013704795219872,0.0013704795212574,3.0440283305534e-12,-2.8259487280297e-12,-0.0014100011566055,0.0014100011568239,-2.7004933841338e-13,5.0256882333801e-13,-0.0014598544867668,0.0014598544886802,-0.0014598544865079,0.0014598544889359,-0.0014598544887254,0.0014598544867239,-0.0014598544884668,0.0014598544869803,-0.0013704795242741,0.0013704795190114,-0.0013704795185275,0.0013704795247516,0.72789187622143,0.90804191976655,114808,2744,0.0058576681146438,0.0058576681146478,0.0058576681146495,19.916074838173,19.934248550103,-8.0671401294619e-05,-8.0671401294619e-05,-8.0671401294619e-05,1192015.3484657,0.017729095386575
25619200,0.99256216830098,0.017414108164763,0.005804702721585,0.0058047027215881,0.0058047027215896,-0.0014116021010312,0.0014116021010269,-2.9646067384462e-12,2.9567632487396e-12,-2.3504295976436e-13,2.396186283448e-13,-0.0014614464955654,0.0014614464934269,-0.0014614464935924,0.0014614464954031,-0.0014614464954109,0.0014614464935874,-0.0014614464934357,0.0014614464955614,-0.0013720878080604,0.0013720878024188,-0.0013720878022609,0.0013720878082057,2.3667676968715e-13,-2.3776738342847e-13,3.9722362979666e-13,-3.8701164764806e-13,-0.0014116021010264,0.0014116021010332,-0.0014614464942898,0.0014614464947138,-0.001461446494544,0.0014614464944497,-0.0014614464944447,0.0014614464945543,-0.001461446494699,0.0014614464942902,-0.0013720878049381,0.0013720878055585,-0.0013720878056982,0.0013720878047869,-0.0013720878051414,0.0013720878053483,-0.0013720878055938,0.0013720878048648,3.0694505833328e-12,-2.8518944059953e-12,-0.0014116021009212,0.0014116021011391,-2.702225095937e-13,5.0223253949361e-13,-0.0014614464935328,0.0014614464954635,-0.0014614464932747,0.0014614464957193,-0.001461446495509,0.0014614464934901,-0.0014614464952504,0.001461446493746,-0.0013720878079064,0.0013720878025931,-0.0013720878021097,0.0013720878083838,0.73243471355361,0.90617883153439,114808,2744,0.0058642998069731,0.0058642998069762,0.0058642998069776,20.563671117508,20.581870012895,-7.5490631059938e-05,-7.5490631059938e-05,-7.5490631059938e-05,1179062.941556,0.017749343104539
25819200,0.99276633457079,0.017417702225724,0.0058059007419053,0.0058059007419084,0.0058059007419098,-0.0014124088518836,0.0014124088518794,-2.9902873905008e-12,2.9824419020041e-12,-2.3507576494325e-13,2.3964781127681e-13,-0.0014622497397954,0.0014622497376398,-0.0014622497378053,0.0014622497396331,-0.0014622497396409,0.0014622497378003,-0.0014622497376486,0.0014622497397914,-0.001372896006613,0.0013728960009212,-0.0013728960007633,0.0013728960067584,2.3670123952785e-13,-2.3780361761566e-13,3.9713004442033e-13,-3.8692382680151e-13,-0.0014124088518788,0.0014124088518856,-0.0014622497385113,0.0014622497389352,-0.0014622497387654,0.0014622497386712,-0.0014622497386662,0.0014622497387757,-0.0014622497389205,0.0014622497385117,-0.0013728960034657,0.001372896004086,-0.0013728960042257,0.0013728960033145,-0.0013728960036688,0.0013728960038759,-0.0013728960041212,0.0013728960033923,3.0951092700658e-12,-2.8775939738323e-12,-0.0014124088517736,0.0014124088519915,-2.7015204115823e-13,5.0212148406274e-13,-0.0014622497377457,0.0014622497396935,-0.0014622497374877,0.0014622497399492,-0.001462249739739,0.001462249737703,-0.0014622497394804,0.0014622497379588,-0.001372896006459,0.0013728960010954,-0.0013728960006121,0.0013728960069363,0.71386315640842,0.80271734254426,114808,2744,0.0058676416216065,0.0058676416216096,0.005867641621611,20.804134180272,20.811067887113,-7.3566926557826e-05,-7.3566926557826e-05,-7.3566926557826e-05,1168317.7620624,0.017759546550244
26019200,0.99296338292664,0.017421038810686,0.0058070129368928,0.0058070129368959,0.0058070129368974,-0.0014124608644114,0.0014124608644072,-3.0159626098169e-12,3.0081054368197e-12,-2.351131105395e-13,2.3967477368842e-13,-0.0014623044090816,0.0014623044069088,-0.0014623044070743,0.0014623044089192,-0.001462304408927,0.0014623044070693,-0.0014623044069177,0.0014623044090775,-0.0013729448366521,0.00137294483091,-0.001372944830752,0.0013729448367974,2.3672859163343e-13,-2.3784202820695e-13,3.970393413089e-13,-3.8683859411119e-13,-0.0014124608644066,0.0014124608644134,-0.0014623044077889,0.0014623044082128,-0.001462304408043,0.0014623044079488,-0.0014623044079439,0.0014623044080533,-0.0014623044081981,0.0014623044077894,-0.0013729448334797,0.0013729448340997,-0.0013729448342395,0.0013729448333285,-0.0013729448336827,0.0013729448338898,-0.0013729448341352,0.0013729448334062,3.1207652509991e-12,-2.9032764245452e-12,-0.0014124608643015,0.0014124608645193,-2.7007904338826e-13,5.0201907542655e-13,-0.0014623044070147,0.0014623044089797,-0.0014623044067568,0.0014623044092354,-0.0014623044090252,0.0014623044069721,-0.0014623044087666,0.0014623044072279,-0.0013729448364981,0.0013729448310841,-0.0013729448306009,0.0013729448369753,0.68688288241197,0.67001528985024,114808,2744,0.0058678570286319,0.0058678570286349,0.0058678570286364,20.676113866339,20.672677342156,-7.4591089069289e-05,-7.4591089069289e-05,-7.4591089069289e-05,1163421.7486452,0.017760204472148
26219200,0.99315348458094,0.017424439714869,0.0058081465716206,0.0058081465716237,0.0058081465716251,-0.0014124560520111,0.001412456052007,-3.0414727395073e-12,3.0339225506981e-12,-2.3499206403059e-13,2.3985030509076e-13,-0.0014623026069946,0.0014623026048046,-0.0014623026049702,0.0014623026068324,-0.00146230260684,0.0014623026049653,-0.0014623026048133,0.0014623026069906,-0.0013729425820728,0.0013729425762802,-0.0013729425761223,0.0013729425822182,2.3699299532079e-13,-2.3763209344384e-13,3.9716945498107e-13,-3.8653925031476e-13,-0.0014124560520061,0.0014124560520134,-0.0014623026056933,0.0014623026061172,-0.001462302605947,0.0014623026058537,-0.0014623026058482,0.0014623026059579,-0.0014623026061022,0.0014623026056938,-0.0013729425788757,0.0013729425794958,-0.0013729425796349,0.0013729425787247,-0.0013729425790788,0.0013729425792862,-0.0013729425795313,0.0013729425788023,3.1461896507717e-12,-2.9291831625239e-12,-0.0014124560519014,0.0014124560521187,-2.7026315541082e-13,5.0165055727276e-13,-0.0014623026049105,0.0014623026068925,-0.0014623026046529,0.0014623026071482,-0.0014623026069381,0.0014623026048679,-0.0014623026066795,0.0014623026051235,-0.0013729425819199,0.0013729425764549,-0.0013729425759727,0.0013729425823961,0.72524657782555,0.84741947957003,114808,2744,0.0058678370615237,0.0058678370615266,0.0058678370615279,20.538155740274,20.5342867972,-7.5694754077809e-05,-7.5694754077809e-05,-7.5694754077809e-05,1163744.412196,0.017760143588652
26419200,0.99333691948702,0.017427811734521,0.005809270578171,0.0058092705781741,0.0058092705781755,-0.0014124869516612,0.0014124869516569,-3.0672839050381e-12,3.0594571834313e-12,-2.3515052127622e-13,2.3974315395239e-13,-0.0014623275303579,0.0014623275281508,-0.0014623275283164,0.0014623275301955,-0.0014623275302033,0.0014623275283114,-0.0014623275281597,0.0014623275303539,-0.0013729798267604,0.0013729798209179,-0.0013729798207598,0.0013729798269058,2.3681123616752e-13,-2.3786561572166e-13,3.9689393398629e-13,-3.8664695290688e-13,-0.0014124869516564,0.0014124869516632,-0.0014623275290481,0.001462327529472,-0.0014623275293021,0.0014623275292082,-0.0014623275292031,0.0014623275293124,-0.0014623275294572,0.0014623275290486,-0.0013729798235381,0.0013729798241578,-0.0013729798242975,0.0013729798233868,-0.0013729798237407,0.0013729798239481,-0.0013729798241933,0.0013729798234643,3.1720611839435e-12,-2.9546550020237e-12,-0.0014124869515513,0.001412486951769,-2.6995751768902e-13,5.0180255262941e-13,-0.0014623275282568,0.001462327530256,-0.0014623275279989,0.0014623275305116,-0.0014623275303015,0.0014623275282142,-0.001462327530043,0.0014623275284699,-0.0013729798266067,0.001372979821092,-0.001372979820609,0.0013729798270836,0.7450275223037,0.92249642828204,114808,2744,0.0058679650889661,0.0058679650889692,0.0058679650889706,20.399783801045,20.395896252243,-7.6801729591638e-05,-7.6801729591638e-05,-7.6801729591638e-05,1155732.3883256,0.017760534340152
26619200,0.99351797774031,0.017431110887878,0.0058103702959569,0.00581037029596,0.0058103702959614,-0.0014132360886959,0.0014132360886916,-3.0929689916998e-12,3.0851284197579e-12,-2.3518015352815e-13,2.397436024681e-13,-0.0014630645264398,0.0014630645242157,-0.0014630645243813,0.0014630645262775,-0.0014630645262853,0.0014630645243762,-0.0014630645242245,0.0014630645264358,-0.0013737373936859,0.0013737373877931,-0.001373737387635,0.0013737373938313,2.3682117704031e-13,-2.3788573275416e-13,3.9681928920781e-13,-3.8658160196213e-13,-0.001413236088691,0.0014132360886979,-0.0014630645251215,0.0014630645255454,-0.0014630645253754,0.0014630645252816,-0.0014630645252766,0.0014630645253858,-0.0014630645255306,0.001463064525122,-0.0013737373904385,0.0013737373910581,-0.0013737373911978,0.0013737373902872,-0.001373737390641,0.0013737373908485,-0.0013737373910937,0.0013737373903647,3.1977209000568e-12,-2.9803509523242e-12,-0.0014132360885859,0.0014132360888037,-2.698884021534e-13,5.0173214301567e-13,-0.0014630645243216,0.001463064526338,-0.0014630645240638,0.0014630645265935,-0.0014630645263834,0.0014630645242791,-0.001463064526125,0.0014630645245347,-0.0013737373935322,0.0013737373879671,-0.0013737373874842,0.0013737373940091,0.73848436787781,0.87359585130831,114808,2744,0.0058710682880674,0.0058710682880704,0.0058710682880718,20.629158183601,20.635447425936,-7.4966734531193e-05,-7.4966734531193e-05,-7.4966734531193e-05,1144167.5852746,0.017770009024454
26819200,0.99369884929348,0.017434329171542,0.005811443057178,0.0058114430571811,0.0058114430571825,-0.0014143640200764,0.0014143640200721,-3.118653610545e-12,3.1108095388249e-12,-2.3519072156468e-13,2.3976371214788e-13,-0.0014641854346604,0.0014641854324191,-0.0014641854325847,0.001464185434498,-0.0014641854345058,0.0014641854325797,-0.0014641854324279,0.0014641854346564,-0.0013748696222122,0.001374869616269,-0.001374869616111,0.0013748696223576,2.3683535307783e-13,-2.3790202637404e-13,3.9676558496608e-13,-3.8652242729928e-13,-0.0014143640200716,0.0014143640200784,-0.0014641854333335,0.0014641854337573,-0.0014641854335874,0.0014641854334936,-0.0014641854334886,0.0014641854335978,-0.0014641854337426,0.001464185433334,-0.0013748696189397,0.0013748696195591,-0.0013748696196989,0.0013748696187884,-0.0013748696191421,0.0013748696193496,-0.0013748696195947,0.0013748696188658,3.2233983215116e-12,-3.0060387264039e-12,-0.0014143640199665,0.0014143640201842,-2.6984557993217e-13,5.0166361569737e-13,-0.001464185432525,0.0014641854345586,-0.0014641854322673,0.001464185434814,-0.001464185434604,0.0014641854324825,-0.0014641854343456,0.0014641854327381,-0.0013748696220585,0.0013748696164431,-0.0013748696159602,0.0013748696225353,0.72121901930547,0.78180423854544,114808,2744,0.0058757404964049,0.0058757404964079,0.0058757404964093,21.063117976543,21.075229176504,-7.1495056187658e-05,-7.1495056187658e-05,-7.1495056187658e-05,1136168.9576264,0.017784274717158
27019200,0.9938794416169,0.017437457455178,0.0058124858183902,0.0058124858183933,0.0058124858183947,-0.0014154772199589,0.0014154772199546,-3.1443597287334e-12,3.1364683658339e-12,-2.3522915329503e-13,2.3974874201697e-13,-0.0014652990748573,0.0014652990725987,-0.0014652990727643,0.0014652990746948,-0.0014652990747027,0.0014652990727594,-0.0014652990726076,0.0014652990748531,-0.0013759822143023,0.0013759822083089,-0.0013759822081509,0.0013759822144476,2.3684405869423e-13,-2.3791732002448e-13,3.9671182190263e-13,-3.86478958039e-13,-0.0014154772199541,0.0014154772199609,-0.0014652990735218,0.0014652990739456,-0.0014652990737757,0.0014652990736818,-0.0014652990736768,0.001465299073786,-0.0014652990739308,0.0014652990735223,-0.0013759822110047,0.0013759822116239,-0.0013759822117637,0.0013759822108533,-0.001375982211207,0.0013759822114146,-0.0013759822116597,0.0013759822109308,3.2490858897152e-12,-3.031714971424e-12,-0.0014154772198489,0.0014154772200667,-2.6979334623376e-13,5.016192641111e-13,-0.0014652990727047,0.0014652990747554,-0.001465299072447,0.0014652990750109,-0.0014652990748008,0.0014652990726622,-0.0014652990745424,0.0014652990729177,-0.0013759822141486,0.0013759822084829,-0.001375982208,0.0013759822146254,0.70228502564497,0.69001262578256,114808,2744,0.0058803516069461,0.0058803516069491,0.0058803516069505,21.502650157349,21.515010927072,-6.797879874121e-05,-6.797879874121e-05,-6.797879874121e-05,1133438.3939939,0.017798354286062
27219200,0.99405959887665,0.017440486770321,0.0058134955901044,0.0058134955901075,0.0058134955901089,-0.0014165642110411,0.0014165642110368,-3.1700229815033e-12,3.1621695056587e-12,-2.352184421103e-13,2.3977843228643e-13,-0.0014663920737914,0.0014663920715157,-0.0014663920716814,0.001466392073629,-0.0014663920736368,0.0014663920716764,-0.0014663920715246,0.0014663920737873,-0.0013770651407831,0.0013770651347394,-0.0013770651345814,0.0013770651409285,2.3685794062309e-13,-2.3792226105001e-13,3.9667729354568e-13,-3.8643648874818e-13,-0.0014165642110363,0.0014165642110431,-0.0014663920724474,0.0014663920728712,-0.0014663920727012,0.0014663920726075,-0.0014663920726024,0.0014663920727116,-0.0014663920728564,0.0014663920724479,-0.0013770651374605,0.0013770651380797,-0.0013770651382195,0.0013770651373091,-0.0013770651376627,0.0013770651378704,-0.0013770651381154,0.0013770651373865,3.2747571054771e-12,-3.0574089511964e-12,-0.0014165642109312,0.0014165642111489,-2.6976634705857e-13,5.0156879506466e-13,-0.0014663920716217,0.0014663920736896,-0.001466392071364,0.001466392073945,-0.0014663920737349,0.0014663920715792,-0.0014663920734766,0.0014663920718347,-0.0013770651406294,0.0013770651349134,-0.0013770651344306,0.0013770651411062,0.68191769422754,0.59822101301969,114808,2744,0.0058848540973847,0.0058848540973877,0.0058848540973891,21.942414882143,21.95479267764,-6.4460680942855e-05,-6.4460680942855e-05,-6.4460680942855e-05,1135127.1709117,0.017812102528295
27419200,0.99423775267397,0.017443572231987,0.0058145240773264,0.0058145240773294,0.0058145240773309,-0.001417378366492,0.0014173783664877,-3.1957016271854e-12,3.1878459944674e-12,-2.3522347630853e-13,2.3978917460531e-13,-0.0014672166761536,0.0014672166738609,-0.0014672166740265,0.0014672166759911,-0.0014672166759989,0.0014672166740215,-0.0014672166738697,0.0014672166761495,-0.0013778758060769,0.0013778757999829,-0.0013778757998249,0.0013778758062223,2.3686964614785e-13,-2.3792643739301e-13,3.9664652977961e-13,-3.8639549000066e-13,-0.0014173783664871,0.001417378366494,-0.0014672166748011,0.0014672166752249,-0.0014672166750549,0.0014672166749611,-0.001467216674956,0.0014672166750652,-0.0014672166752101,0.0014672166748015,-0.0013778758027292,0.0013778758033483,-0.0013778758034882,0.0013778758025779,-0.0013778758029315,0.0013778758031392,-0.0013778758033842,0.0013778758026552,3.3004667906521e-12,-3.0830531971941e-12,-0.001417378366382,0.0014173783665998,-2.6969587862309e-13,5.0156861859946e-13,-0.0014672166739668,0.0014672166760518,-0.001467216673709,0.0014672166763071,-0.0014672166760971,0.0014672166739244,-0.0014672166758388,0.0014672166741798,-0.0013778758059233,0.001377875800157,-0.0013778757996742,0.0013778758064,0.7021487524212,0.7011034432833,114808,2744,0.005888226413092,0.005888226413095,0.0058882264130964,22.251103393975,22.259851338914,-6.1991172848202e-05,-6.1991172848202e-05,-6.1991172848202e-05,1140815.2693176,0.01782240004228
27619200,0.99441337759052,0.017446659141215,0.005815553047069,0.0058155530470721,0.0058155530470735,-0.0014181349537116,0.0014181349537074,-3.2213560741582e-12,3.2135492953016e-12,-2.3520680632146e-13,2.3981626201311e-13,-0.0014679779304062,0.0014679779280965,-0.001467977928262,0.0014679779302439,-0.0014679779302516,0.0014679779282571,-0.0014679779281053,0.0014679779304023,-0.0013786318091849,0.0013786318030407,-0.0013786318028826,0.0013786318093304,2.3686299929208e-13,-2.3794231926077e-13,3.9660358991492e-13,-3.8637554943336e-13,-0.0014181349537068,0.0014181349537136,-0.0014679779290454,0.0014679779294691,-0.0014679779292992,0.0014679779292055,-0.0014679779292004,0.0014679779293095,-0.0014679779294543,0.0014679779290459,-0.0013786318058121,0.0013786318064311,-0.0013786318065709,0.0013786318056606,-0.001378631806014,0.0013786318062218,-0.0013786318064668,0.0013786318057379,3.3261087131914e-12,-3.1087709115355e-12,-0.0014181349536017,0.0014181349538194,-2.6970540774375e-13,5.0149797369879e-13,-0.0014679779282026,0.0014679779303047,-0.0014679779279449,0.00146797793056,-0.00146797793035,0.0014679779281601,-0.0014679779300917,0.0014679779284155,-0.0013786318090312,0.0013786318032145,-0.0013786318027318,0.0013786318095079,0.7125280397715,0.75007558494512,114808,2744,0.0058913603104366,0.0058913603104396,0.005891360310441,22.518259806231,22.525803506829,-5.9853921550151e-05,-5.9853921550151e-05,-5.9853921550151e-05,1141122.6328808,0.017831969458915
27819200,0.9945864035132,0.017449749112944,0.0058165830376456,0.0058165830376487,0.0058165830376501,-0.0014188988505726,0.0014188988505683,-3.2470595444495e-12,3.2392017099375e-12,-2.3523477812319e-13,2.3979179217241e-13,-0.00146874343614,0.001468743433813,-0.0014687434339786,0.0014687434359776,-0.0014687434359854,0.0014687434339736,-0.0014687434338219,0.001468743436136,-0.0013793970598293,0.0013793970536348,-0.0013793970534767,0.0013793970599747,2.3687105786942e-13,-2.3793896642202e-13,3.965875904037e-13,-3.8634737382352e-13,-0.0014188988505677,0.0014188988505746,-0.0014687434347704,0.0014687434351941,-0.0014687434350242,0.0014687434349305,-0.0014687434349255,0.0014687434350345,-0.0014687434351794,0.0014687434347709,-0.0013793970564313,0.0013793970570503,-0.0013793970571902,0.00137939705628,-0.0013793970566334,0.0013793970568412,-0.0013793970570861,0.0013793970563572,3.3517812524423e-12,-3.134453009318e-12,-0.0014188988504626,0.0014188988506803,-2.6968658478937e-13,5.014711509888e-13,-0.001468743433919,0.0014687434360383,-0.0014687434336613,0.0014687434362936,-0.0014687434360836,0.0014687434338766,-0.0014687434358253,0.001468743434132,-0.0013793970596756,0.0013793970538087,-0.001379397053326,0.0013793970601523,0.72383353289182,0.79904772660694,114808,2744,0.0058945245025429,0.0058945245025459,0.0058945245025473,22.784260440797,22.791755674744,-5.7725916473626e-05,-5.7725916473626e-05,-5.7725916473626e-05,1138967.9930233,0.017841631365578
28019200,0.99475677501866,0.017452843936967,0.005817614645653,0.0058176146456561,0.0058176146456575,-0.0014196720900584,0.0014196720900541,-3.2727373647891e-12,3.2648801382549e-12,-2.3523340075259e-13,2.3979067455949e-13,-0.0014695156191449,0.0014695156168007,-0.0014695156169664,0.0014695156189824,-0.0014695156189902,0.0014695156169614,-0.0014695156168096,0.0014695156191408,-0.0013801732640338,0.001380173257789,-0.001380173257631,0.0013801732641792,2.3687311663006e-13,-2.3793437832689e-13,3.9657470844429e-13,-3.8632908026473e-13,-0.0014196720900535,0.0014196720900604,-0.0014695156177667,0.0014695156181904,-0.0014695156180205,0.0014695156179268,-0.0014695156179217,0.0014695156180308,-0.0014695156181756,0.0014695156177672,-0.0013801732606107,0.0013801732612297,-0.0013801732613695,0.0013801732604594,-0.0013801732608128,0.0013801732610206,-0.0013801732612655,0.0013801732605366,3.3774546446084e-12,-3.1601356953178e-12,-0.0014196720899484,0.0014196720901661,-2.696754086602e-13,5.0145138688669e-13,-0.0014695156169067,0.0014695156190431,-0.0014695156166491,0.0014695156192985,-0.0014695156190884,0.0014695156168643,-0.0014695156188302,0.0014695156171197,-0.0013801732638801,0.0013801732579629,-0.0013801732574802,0.0013801732643568,0.73612506577357,0.84801986826876,114808,2744,0.005897727403978,0.005897727403981,0.0058977274039824,23.05021259461,23.057707842659,-5.5598299243118e-05,-5.5598299243118e-05,-5.5598299243118e-05,1134637.7864059,0.017851411485239
28219200,0.99492378300735,0.017455933393099,0.0058186444643639,0.005818644464367,0.0058186444643684,-0.0014203265614061,0.0014203265614019,-3.2984121456995e-12,3.2905572647968e-12,-2.3522708327554e-13,2.3979160100178e-13,-0.0014701670398242,0.0014701670374629,-0.0014701670376286,0.0014701670396618,-0.0014701670396695,0.0014701670376236,-0.0014701670374718,0.0014701670398201,-0.0013808317711751,0.0013808317648801,-0.0013808317647221,0.0013808317713205,2.3686711681335e-13,-2.3793508418768e-13,3.965609441589e-13,-3.8632243340896e-13,-0.0014203265614013,0.0014203265614082,-0.0014701670384375,0.0014701670388611,-0.0014701670386912,0.0014701670385975,-0.0014701670385925,0.0014701670387016,-0.0014701670388464,0.001470167038438,-0.0013808317677269,0.0013808317683458,-0.0013808317684857,0.0013808317675755,-0.001380831767929,0.0013808317681368,-0.0013808317683817,0.0013808317676527,3.4031654179855e-12,-3.1857779707874e-12,-0.0014203265612962,0.0014203265615139,-2.6962946888716e-13,5.0147591554913e-13,-0.0014701670375689,0.0014701670397224,-0.0014701670373112,0.0014701670399778,-0.0014701670397677,0.0014701670375265,-0.0014701670395095,0.0014701670377819,-0.0013808317710215,0.001380831765054,-0.0013808317645712,0.0013808317714982,0.74948914039873,0.89699200993058,114808,2744,0.0059004383518865,0.0059004383518895,0.0059004383518909,23.250246536036,23.255913651918,-5.3998027711708e-05,-5.3998027711708e-05,-5.3998027711708e-05,1128464.1380815,0.017859689436635
28419200,0.99508733439819,0.017459018319763,0.0058196727732518,0.0058196727732549,0.0058196727732563,-0.0014209699392944,0.0014209699392901,-3.3240969024082e-12,3.3162262032846e-12,-2.3523367268821e-13,2.3977729261536e-13,-0.0014708041990429,0.0014708041966645,-0.0014708041968302,0.0014708041988805,-0.0014708041988883,0.0014708041968252,-0.0014708041966734,0.0014708041990388,-0.0013814811270389,0.0013814811206936,-0.0013814811205355,0.0013814811271843,2.3686546980484e-13,-2.3792861379711e-13,3.9655865011133e-13,-3.8631513951414e-13,-0.0014209699392896,0.0014209699392964,-0.0014708041976477,0.0014708041980713,-0.0014708041979014,0.0014708041978077,-0.0014708041978027,0.0014708041979117,-0.0014708041980566,0.0014708041976482,-0.0013814811235655,0.0013814811241845,-0.0013814811243243,0.0013814811234142,-0.0013814811237676,0.0013814811239754,-0.0013814811242203,0.0013814811234914,3.4288071052377e-12,-3.2114885971102e-12,-0.0014209699391845,0.0014209699394022,-2.6965929150551e-13,5.0143679909705e-13,-0.0014708041967705,0.0014708041989412,-0.0014708041965129,0.0014708041991965,-0.0014708041989865,0.0014708041967281,-0.0014708041987283,0.0014708041969835,-0.0013814811268852,0.0013814811208674,-0.0013814811203848,0.0013814811273619,0.76402413573347,0.9459641515924,114808,2744,0.0059031033588876,0.0059031033588906,0.005903103358892,23.440907356802,23.446287747694,-5.2472741145581e-05,-5.2472741145581e-05,-5.2472741145581e-05,1120317.4691931,0.017867827092905
28619200,0.9952474339013,0.01746205804284,0.0058206860142774,0.0058206860142805,0.0058206860142819,-0.0014216177429406,0.0014216177429363,-3.3497769202909e-12,3.341898810778e-12,-2.3523205221841e-13,2.3976753556049e-13,-0.0014714436628467,0.0014714436604512,-0.0014714436606168,0.0014714436626843,-0.0014714436626921,0.0014714436606118,-0.0014714436604601,0.0014714436628426,-0.0013821354005628,0.0013821353941672,-0.0013821353940092,0.0013821354007083,2.3686305811381e-13,-2.3792020228937e-13,3.9656400288898e-13,-3.8631396307949e-13,-0.0014216177429357,0.0014216177429426,-0.0014714436614429,0.0014714436618666,-0.0014714436616966,0.0014714436616029,-0.0014714436615979,0.001471443661707,-0.0014714436618518,0.0014714436614434,-0.0013821353970643,0.0013821353976833,-0.0013821353978231,0.001382135396913,-0.0013821353972664,0.0013821353974742,-0.0013821353977191,0.0013821353969902,3.4544776151389e-12,-3.2371709595904e-12,-0.0014216177428307,0.0014216177430483,-2.6966723243939e-13,5.014330933279e-13,-0.0014714436605572,0.0014714436627449,-0.0014714436602995,0.0014714436630003,-0.0014714436627903,0.0014714436605148,-0.001471443662532,0.0014714436607701,-0.0013821354004092,0.0013821353943411,-0.0013821353938584,0.0013821354008858,0.76896076432363,0.94790806088517,114808,2744,0.0059057866956205,0.0059057866956235,0.0059057866956249,23.631292516099,23.636661843469,-5.0949659871207e-05,-5.0949659871207e-05,-5.0949659871207e-05,1110546.6639892,0.017876020767965
28819200,0.99540411150725,0.017464958146481,0.0058216527154911,0.0058216527154942,0.0058216527154956,-0.0014222595949216,0.0014222595949173,-3.3754293167749e-12,3.3675992792079e-12,-2.3520475698149e-13,2.3978563794865e-13,-0.0014720783617604,0.0014720783593479,-0.0014720783595134,0.0014720783615981,-0.0014720783616059,0.0014720783595084,-0.0014720783593567,0.0014720783617564,-0.0013827813477833,0.0013827813413375,-0.0013827813411794,0.0013827813479288,2.3686570509177e-13,-2.3790837912115e-13,3.965825317347e-13,-3.8630772797585e-13,-0.0014222595949167,0.0014222595949236,-0.0014720783603481,0.0014720783607718,-0.0014720783606019,0.0014720783605082,-0.0014720783605032,0.0014720783606123,-0.001472078360757,0.0014720783603487,-0.0013827813442597,0.0013827813448786,-0.0013827813450185,0.0013827813441084,-0.0013827813444615,0.0013827813446694,-0.0013827813449142,0.0013827813441854,3.4801577718042e-12,-3.2628470281454e-12,-0.0014222595948116,0.0014222595950293,-2.6967470279941e-13,5.0143697556224e-13,-0.0014720783594539,0.0014720783616588,-0.0014720783591963,0.0014720783619142,-0.0014720783617041,0.0014720783594115,-0.0014720783614458,0.0014720783596669,-0.0013827813476295,0.0013827813415112,-0.0013827813410285,0.0013827813481062,0.74978431845631,0.8433479552569,114808,2744,0.0059084453502175,0.0059084453502203,0.0059084453502217,23.823881418408,23.829312916587,-4.9408948652735e-05,-4.9408948652735e-05,-4.9408948652735e-05,1101571.6235617,0.017884139233262
29019200,0.99555849423786,0.01746766790671,0.0058225559689008,0.0058225559689038,0.0058225559689053,-0.0014231027315055,0.0014231027314995,-3.4020242699423e-12,3.3923357884601e-12,-2.3610509379208e-13,2.3887348934358e-13,-0.0014729197655293,0.0014729197630975,-0.0014729197632652,0.0014729197653653,-0.0014729197653747,0.0014729197632566,-0.0014729197631083,0.0014729197655242,-0.0013836242270157,0.0013836242205165,-0.0013836242203602,0.0013836242271582,2.3698711314754e-13,-2.3777408910597e-13,3.9678076097306e-13,-3.8614896811997e-13,-0.0014231027314989,0.0014231027315061,-0.0014729197641064,0.0014729197645303,-0.0014729197643606,0.0014729197642667,-0.0014729197642621,0.0014729197643707,-0.0014729197645155,0.001472919764106,-0.0013836242234663,0.0013836242240865,-0.0013836242242274,0.001383624223318,-0.0013836242236682,0.001383624223876,-0.0013836242241209,0.0013836242233919,3.5056189057488e-12,-3.2887362666587e-12,-0.0014231027313944,0.0014231027316114,-2.699411652474e-13,5.0121680581769e-13,-0.0014729197632032,0.0014729197654246,-0.0014729197629457,0.0014729197656804,-0.0014729197654705,0.0014729197631615,-0.0014729197652137,0.0014729197634151,-0.0013836242268612,0.001383624220692,-0.0013836242202095,0.0013836242273373,0.71130250758048,0.65856960657981,114808,2744,0.0059119376935132,0.0059119376935131,0.0059119376935147,24.139321758859,24.148169741101,-4.6885425929126e-05,-4.6885425929126e-05,-4.6885425929126e-05,1097765.2661936,0.017894803753177
29219200,0.995710538544,0.017470275562007,0.0058234251873332,0.0058234251873363,0.0058234251873377,-0.0014239048463712,0.0014239048463667,-3.4269190645705e-12,3.4188275786486e-12,-2.3530695445686e-13,2.3965917122389e-13,-0.0014737301119517,0.0014737301095046,-0.0014737301096705,0.0014737301117891,-0.0014737301117971,0.0014737301096651,-0.0014737301095138,0.0014737301119475,-0.0013844217839172,0.0013844217773705,-0.0013844217772128,0.0013844217840623,2.3686876382186e-13,-2.3787843885933e-13,3.9667670532835e-13,-3.8632537449558e-13,-0.0014239048463661,0.0014239048463731,-0.001473730110522,0.0014737301109458,-0.0014737301107758,0.0014737301106821,-0.0014737301106771,0.0014737301107862,-0.001473730110931,0.0014737301105225,-0.0013844217803431,0.0013844217809624,-0.0013844217811022,0.0013844217801923,-0.0013844217805455,0.0013844217807532,-0.0013844217809981,0.0013844217802692,3.531496291683e-12,-3.3142233409872e-12,-0.0014239048462611,0.0014239048464788,-2.6975234748624e-13,5.0147238624518e-13,-0.0014737301096106,0.0014737301118497,-0.001473730109353,0.0014737301121051,-0.0014737301118951,0.0014737301095682,-0.0014737301116369,0.0014737301098235,-0.0013844217837635,0.0013844217775447,-0.0013844217770619,0.0013844217842401,0.6951696455971,0.59061242969231,114808,2744,0.0059152600452543,0.005915260045257,0.0059152600452585,24.45803267275,24.467026565615,-4.4335738617997e-05,-4.4335738617997e-05,-4.4335738617997e-05,1102414.12284,0.01790494951898
29419200,0.99586017341826,0.01747267657775,0.0058242255259141,0.0058242255259172,0.0058242255259186,-0.0014246817003559,0.0014246817003516,-3.4524894350676e-12,3.4446114924843e-12,-2.3520250199523e-13,2.3975413891092e-13,-0.0014745204087418,0.0014745204062778,-0.0014745204064434,0.0014745204085794,-0.0014745204085872,0.0014745204064383,-0.0014745204062867,0.0014745204087377,-0.0013851893071818,0.001385189300585,-0.001385189300427,0.0013851893073272,2.3687993995102e-13,-2.3785749832258e-13,3.9669535181754e-13,-3.8637590236376e-13,-0.001424681700351,0.0014246817003579,-0.0014745204073036,0.0014745204077273,-0.0014745204075574,0.0014745204074636,-0.0014745204074586,0.0014745204075677,-0.0014745204077124,0.0014745204073041,-0.0013851893035827,0.0013851893042021,-0.001385189304342,0.0013851893034316,-0.001385189303785,0.0013851893039927,-0.0013851893042376,0.0013851893035087,3.5572034769344e-12,-3.3398753808644e-12,-0.001424681700246,0.0014246817004636,-2.69750641656e-13,5.0154138413734e-13,-0.0014745204063836,0.0014745204086398,-0.001474520406126,0.0014745204088953,-0.0014745204086852,0.0014745204063413,-0.001474520408427,0.0014745204065965,-0.0013851893070282,0.0013851893007591,-0.0013851893002764,0.001385189307505,0.6508985524863,0.39580697924075,114808,2744,0.0059184777216257,0.0059184777216285,0.0059184777216299,24.776879867161,24.785883390129,-4.1784961062714e-05,-4.1784961062714e-05,-4.1784961062714e-05,1109954.3577777,0.01791477588157
29619200,0.99600725024312,0.017475003410226,0.0058250011367396,0.0058250011367427,0.0058250011367441,-0.0014253904687526,0.0014253904687482,-3.4782303260908e-12,3.470226953286e-12,-2.3526545974563e-13,2.3967561189811e-13,-0.0014752518007903,0.001475251798309,-0.0014752517984748,0.0014752518006277,-0.0014752518006357,0.0014752517984695,-0.001475251798318,0.0014752518007861,-0.0013858865045013,0.0013858864978541,-0.0013858864976962,0.0013858865046465,2.3684829385897e-13,-2.3787696831602e-13,3.9670588090765e-13,-3.8643078304013e-13,-0.0014253904687476,0.0014253904687545,-0.0014752517993435,0.0014752517997673,-0.0014752517995973,0.0014752517995035,-0.0014752517994985,0.0014752517996077,-0.0014752517997525,0.0014752517993439,-0.001385886500877,0.0013858865014963,-0.0013858865016362,0.0013858865007259,-0.0013858865010792,0.0013858865012868,-0.0013858865015319,0.001385886500803,3.5828629283499e-12,-3.365569537102e-12,-0.0014253904686426,0.0014253904688602,-2.6980046366339e-13,5.0155797186589e-13,-0.001475251798415,0.0014752518006883,-0.0014752517981573,0.0014752518009438,-0.0014752518007337,0.0014752517983726,-0.0014752518004755,0.0014752517986279,-0.0013858865043476,0.0013858864980281,-0.0013858864975454,0.0013858865048243,0.64191384002924,0.3784741508565,114808,2744,0.0059214133254997,0.0059214133255025,0.0059214133255039,25.086529764906,25.095280758206,-3.9307761880756e-05,-3.9307761880756e-05,-3.9307761880756e-05,1125693.6098771,0.017923741115773
29819200,0.99615122659324,0.017477411672223,0.0058258038907386,0.0058258038907416,0.0058258038907431,-0.0014259875872925,0.0014259875872875,-3.5044047498257e-12,3.4954534937538e-12,-2.3565203938809e-13,2.3920654534541e-13,-0.0014758712517061,0.001475871249207,-0.0014758712493736,0.0014758712515441,-0.0014758712515515,0.0014758712493673,-0.0014758712492162,0.0014758712517004,-0.0013864756653535,0.0013864756586554,-0.0013864756584956,0.0013864756654967,2.3634895617221e-13,-2.3834913036238e-13,3.9628330558174e-13,-3.868623580911e-13,-0.0014259875872881,0.0014259875872943,-0.0014758712502527,0.001475871250674,-0.0014758712505057,0.0014758712504106,-0.0014758712504067,0.0014758712505148,-0.0014758712506597,0.0014758712502519,-0.0013864756617075,0.0013864756623266,-0.0013864756624687,0.0013864756615554,-0.001386475661909,0.0013864756621143,-0.0013864756623607,0.0013864756616329,3.6084315295996e-12,-3.3914126299662e-12,-0.0014259875871829,0.0014259875873999,-2.6987852010235e-13,5.014667981806e-13,-0.0014758712493151,0.0014758712516036,-0.0014758712490562,0.00147587125186,-0.0014758712516493,0.0014758712492706,-0.0014758712513918,0.0014758712495276,-0.0013864756652025,0.0013864756588315,-0.0013864756583499,0.0013864756656777,0.67837701501301,0.57263376256839,114808,2744,0.0059238864923557,0.0059238864923605,0.0059238864923613,25.338959758656,25.346117313265,-3.7288321930754e-05,-3.7288321930754e-05,-3.7288321930754e-05,1141019.9833647,0.017931294110763
30019200,0.99629207243683,0.017479803507308,0.0058266011691003,0.0058266011691033,0.0058266011691048,-0.0014266292190416,0.0014266292190371,-3.5296610389252e-12,3.5215085527988e-12,-2.3527505561517e-13,2.3958845279605e-13,-0.0014765251294503,0.0014765251269347,-0.0014765251271005,0.0014765251292878,-0.0014765251292957,0.0014765251270952,-0.0014765251269438,0.001476525129446,-0.0013871129988831,0.0013871129921353,-0.0013871129919773,0.0013871129990282,2.3675406144358e-13,-2.3790620271705e-13,3.9670741027269e-13,-3.8652266258621e-13,-0.0014266292190367,0.0014266292190435,-0.0014765251279865,0.0014765251284101,-0.0014765251282404,0.0014765251281464,-0.0014765251281415,0.0014765251282506,-0.0014765251283954,0.0014765251279869,-0.0013871129952087,0.0013871129958279,-0.001387112995968,0.0013871129950572,-0.0013871129954109,0.0013871129956182,-0.0013871129958633,0.0013871129951347,3.6342240945956e-12,-3.4169232918095e-12,-0.0014266292189316,0.0014266292191492,-2.698169925702e-13,5.0163496951367e-13,-0.0014765251270409,0.0014765251293483,-0.0014765251267831,0.0014765251296038,-0.0014765251293937,0.0014765251269983,-0.0014765251291355,0.0014765251272538,-0.0013871129987294,0.0013871129923094,-0.0013871129918266,0.0013871129992061,0.68873088155436,0.63068324939852,114808,2744,0.0059265441161107,0.0059265441161136,0.005926544116115,25.589861069581,25.596953868324,-3.5281111443349e-05,-3.5281111443349e-05,-3.5281111443349e-05,1145898.510429,0.017939410157521
30219200,0.99642977390449,0.017482043473747,0.0058273478245798,0.0058273478245829,0.0058273478245843,-0.0014272780100616,0.0014272780100571,-3.5552903276592e-12,3.5472330611653e-12,-2.3523212700933e-13,2.3959643784623e-13,-0.0014771843837973,0.0014771843812646,-0.0014771843814304,0.0014771843836348,-0.0014771843836427,0.0014771843814251,-0.0014771843812736,0.001477184383793,-0.0013877557708929,0.0013877557640948,-0.0013877557639368,0.0013877557710379,2.367508262483e-13,-2.3786443928701e-13,3.967422327383e-13,-3.8653389753711e-13,-0.0014272780100566,0.0014272780100635,-0.0014771843823249,0.0014771843827486,-0.0014771843825788,0.0014771843824848,-0.0014771843824799,0.0014771843825891,-0.0014771843827338,0.0014771843823253,-0.0013877557671932,0.0013877557678127,-0.0013877557679527,0.0013877557670421,-0.0013877557673955,0.0013877557676028,-0.001387755767848,0.0013877557671192,3.6598817519483e-12,-3.4426162422016e-12,-0.0014272780099516,0.0014272780101692,-2.6988363759307e-13,5.0161226432494e-13,-0.0014771843813708,0.0014771843836953,-0.0014771843811129,0.0014771843839509,-0.0014771843837408,0.0014771843813282,-0.0014771843834825,0.0014771843815837,-0.0013877557707392,0.0013877557642689,-0.0013877557637862,0.0013877557712158,0.66008310786913,0.50299150922935,114808,2744,0.0059292313984604,0.0059292313984634,0.0059292313984647,25.840698572022,25.847790423383,-3.3274411423825e-05,-3.3274411423825e-05,-3.3274411423825e-05,1147882.5980219,0.017947616828474
30419200,0.99656460994626,0.017484119753196,0.0058280399177295,0.0058280399177325,0.005828039917734,-0.0014279581369128,0.0014279581369071,-3.5816377589765e-12,3.572237636562e-12,-2.3581222544121e-13,2.3893664182608e-13,-0.00147788164376,0.0014778816412092,-0.0014778816413765,0.0014778816435958,-0.0014778816436061,0.0014778816413692,-0.0014778816412197,0.001477881643755,-0.0013884262383223,0.0013884262314714,-0.0013884262313155,0.0013884262384661,2.3646365855049e-13,-2.3809149117426e-13,3.9642883054782e-13,-3.8691459178952e-13,-0.0014279581369074,0.0014279581369137,-0.0014778816422776,0.0014778816427009,-0.0014778816425308,0.0014778816424365,-0.0014778816424336,0.0014778816425402,-0.0014778816426864,0.001477881642278,-0.0013884262346006,0.0013884262352207,-0.0013884262353595,0.001388426234449,-0.0013884262348008,0.0013884262350087,-0.0013884262352543,0.0013884262345245,3.6862135651765e-12,-3.4676145961661e-12,-0.0014279581368014,0.0014279581370206,-2.6921906965987e-13,5.023505358889e-13,-0.0014778816413141,0.0014778816436573,-0.0014778816410567,0.0014778816439126,-0.0014778816437019,0.0014778816412728,-0.0014778816434431,0.0014778816415283,-0.0013884262381701,0.0013884262316516,-0.0013884262311667,0.0013884262386486,0.62526525617991,0.35586293906454,114808,2744,0.0059320484198402,0.0059320484198428,0.0059320484198446,26.128532104763,26.136656521769,-3.0971743161898e-05,-3.0971743161898e-05,-3.0971743161898e-05,1155938.3630386,0.017956219949067
30619200,0.99669735999618,0.017486289204395,0.005828763068129,0.0058287630681321,0.0058287630681335,-0.0014288089066486,0.0014288089066432,-3.6070192565671e-12,3.5981710682335e-12,-2.3556793832681e-13,2.3923635325833e-13,-0.0014787539749221,0.0014787539723541,-0.0014787539725202,0.0014787539747583,-0.001478753974767,0.0014787539725143,-0.0014787539723634,0.0014787539749174,-0.0013892702564674,0.0013892702495695,-0.0013892702494123,0.001389270256612,2.3636166166642e-13,-2.3824119248334e-13,3.9636430310732e-13,-3.8696870778337e-13,-0.0014288089066439,0.00142880890665,-0.0014787539734313,0.0014787539738551,-0.0014787539736852,0.0014787539735908,-0.0014787539735874,0.0014787539736947,-0.0014787539738408,0.0014787539734317,-0.0013892702527205,0.00138927025334,-0.0013892702534809,0.0013892702525686,-0.0013892702529205,0.0013892702531286,-0.0013892702533721,0.0013892702526446,3.7114427062083e-12,-3.4937105048364e-12,-0.0014288089065384,0.0014288089067563,-2.6968887883693e-13,5.0185078645002e-13,-0.0014787539724609,0.0014787539748188,-0.0014787539722021,0.001478753975076,-0.0014787539748647,0.0014787539724184,-0.0014787539746075,0.0014787539726738,-0.001389270256315,0.0013892702497444,-0.0013892702492619,0.0013892702567921,0.66318228504182,0.55583487502488,114808,2744,0.0059355722266514,0.0059355722266556,0.0059355722266573,26.522429058421,26.533527822329,-2.7820567532632e-05,-2.7820567532632e-05,-2.7820567532632e-05,1170192.3929968,0.0179669815823
30819200,0.99682794803093,0.017488517976478,0.0058295059921569,0.00582950599216,0.0058295059921615,-0.0014297220596616,0.001429722059657,-3.6324043505552e-12,3.6241934800681e-12,-2.3524029783049e-13,2.3947942671496e-13,-0.0014796784658655,0.0014796784632813,-0.0014796784634471,0.0014796784657028,-0.0014796784657109,0.0014796784634417,-0.0014796784632905,0.0014796784658611,-0.0013901807528319,0.0013901807458828,-0.0013901807457251,0.0013901807529769,2.3665594679386e-13,-2.3785438077076e-13,3.9671452770232e-13,-3.866188949405e-13,-0.0014297220596567,0.0014297220596634,-0.0014796784643672,0.0014796784647908,-0.0014796784646211,0.001479678464527,-0.0014796784645223,0.0014796784646312,-0.0014796784647761,0.0014796784643676,-0.0013901807490572,0.0013901807496767,-0.0013901807498166,0.001390180748906,-0.0013901807492592,0.0013901807494666,-0.0013901807497116,0.0013901807489829,3.7370020136243e-12,-3.5195700089639e-12,-0.0014297220595515,0.0014297220597693,-2.698347567334e-13,5.0171784933468e-13,-0.0014796784633874,0.0014796784657634,-0.0014796784631295,0.001479678466019,-0.0014796784658088,0.0014796784633449,-0.0014796784655506,0.0014796784636004,-0.0013901807526782,0.0013901807460574,-0.0013901807455745,0.0013901807531551,0.69236326448698,0.69953054327955,114808,2744,0.0059393544992633,0.0059393544992662,0.0059393544992676,26.919170751166,26.930399122888,-2.4646633990675e-05,-2.4646633990675e-05,-2.4646633990675e-05,1173534.3468066,0.017978532373604
31019200,0.9969562792391,0.017490771472051,0.0058302571573479,0.005830257157351,0.0058302571573524,-0.0014306734417214,0.0014306734417168,-3.6580845108969e-12,3.6498800176276e-12,-2.3523229692601e-13,2.3946067728774e-13,-0.0014806331171381,0.0014806331145368,-0.0014806331147026,0.0014806331169754,-0.0014806331169835,0.0014806331146972,-0.001480633114546,0.0014806331171337,-0.0013911326088588,0.0013911326018594,-0.0013911326017017,0.0013911326090038,2.3664412362564e-13,-2.3783714600315e-13,3.9672846845291e-13,-3.8660507183337e-13,-0.0014306734417164,0.0014306734417232,-0.0014806331156313,0.0014806331160549,-0.0014806331158851,0.0014806331157911,-0.0014806331157864,0.0014806331158953,-0.0014806331160402,0.0014806331156317,-0.0013911326050589,0.0013911326056784,-0.0013911326058183,0.0013911326049076,-0.001391132605261,0.0013911326054683,-0.0013911326057134,0.0013911326049847,3.7626789645052e-12,-3.5452579889197e-12,-0.0014306734416113,0.001430673441829,-2.698325803293e-13,5.0172073159957e-13,-0.0014806331146429,0.001480633117036,-0.001480633114385,0.0014806331172916,-0.0014806331170814,0.0014806331146004,-0.0014806331168232,0.0014806331148559,-0.0013911326087052,0.0013911326020341,-0.0013911326015511,0.0013911326091821,0.71215830377627,0.7880274466112,114808,2744,0.0059432951579061,0.0059432951579091,0.0059432951579105,27.316031394949,27.327270423448,-2.1471748840407e-05,-2.1471748840407e-05,-2.1471748840407e-05,1169471.0710491,0.017990566801792
31219200,0.99708336232416,0.017493108666619,0.0058310362222037,0.0058310362222068,0.0058310362222082,-0.0014319423180286,0.0014319423180266,-3.6825381158781e-12,3.6768639346708e-12,-2.3395185879068e-13,2.4083276772426e-13,-0.0014818980123539,0.0014818980097389,-0.0014818980099025,0.0014818980121947,-0.0014818980121994,0.0014818980098978,-0.0014818980097454,0.0014818980123526,-0.0013924064638177,0.0013924064567719,-0.0013924064566105,0.001392406463964,2.3621772488712e-13,-2.3837848240687e-13,3.9624854193786e-13,-3.8703935268404e-13,-0.0014319423180253,0.001431942318031,-0.0014818980108348,0.0014818980112565,-0.0014818980110868,0.0014818980109923,-0.0014818980109881,0.001481898011096,-0.0014818980112444,0.0014818980108338,-0.0013924064599921,0.0013924064606105,-0.001392406460752,0.0013924064598398,-0.0013924064601959,0.001392406460403,-0.0013924064606483,0.0013924064599177,3.7881619213124e-12,-3.5711701384977e-12,-0.0014319423179198,0.0014319423181373,-2.7013498285582e-13,5.0141121164343e-13,-0.0014818980098368,0.0014818980122479,-0.0014818980095794,0.0014818980125014,-0.0014818980122923,0.0014818980097946,-0.0014818980120339,0.0014818980100491,-0.0013924064636645,0.0013924064569425,-0.0013924064564588,0.0013924064641402,0.74546027785521,0.92755087613906,114808,2744,0.0059485508932524,0.0059485508932546,0.0059485508932563,27.865049107546,27.880540950448,-1.7079607139633e-05,-1.7079607139633e-05,-1.7079607139633e-05,1160961.9562789,0.018006617436693
31419200,0.99720915517689,0.017495318694961,0.0058317728983179,0.005831772898321,0.0058317728983224,-0.0014332752454452,0.0014332752454411,-3.709218139057e-12,3.7015079492763e-12,-2.3502753939445e-13,2.3975441096144e-13,-0.0014832229249739,0.0014832229223386,-0.0014832229225042,0.0014832229248117,-0.0014832229248193,0.001483222922499,-0.0014832229223473,0.00148322292497,-0.0013937420011383,0.0013937419940385,-0.0013937419938797,0.0013937420012836,2.368130008195e-13,-2.377650893809e-13,3.9689340459069e-13,-3.8646542904054e-13,-0.0014332752454402,0.0014332752454473,-0.0014832229234499,0.0014832229238737,-0.0014832229237037,0.0014832229236099,-0.001483222923605,0.0014832229237142,-0.001483222923859,0.0014832229234503,-0.0013937419972876,0.0013937419979077,-0.0013937419980477,0.0013937419971369,-0.0013937419974895,0.0013937419976973,-0.0013937419979422,0.0013937419972137,3.8141159813749e-12,-3.5965786269917e-12,-0.0014332752453351,0.001433275245553,-2.6981122804042e-13,5.0176908306365e-13,-0.0014832229224445,0.0014832229248718,-0.0014832229221866,0.0014832229251276,-0.0014832229249172,0.0014832229224021,-0.001483222924659,0.0014832229226574,-0.0013937420009842,0.0013937419942128,-0.0013937419937299,0.0013937420014618,0.71242628302479,0.75656123134634,114808,2744,0.0059540718969273,0.0059540718969299,0.0059540718969312,28.433056729798,28.449153491725,-1.2535546161618e-05,-1.2535546161618e-05,-1.2535546161618e-05,1147114.5855142,0.018023478519945
31619200,0.99733347474911,0.017497404442178,0.0058324681473902,0.0058324681473933,0.0058324681473947,-0.0014345588252008,0.0014345588251964,-3.7350074596668e-12,3.7270886296607e-12,-2.3513422914986e-13,2.3967331049782e-13,-0.0014845077026095,0.0014845076999571,-0.0014845077001227,0.0014845077024472,-0.0014845077024549,0.0014845077001174,-0.001484507699966,0.0014845077026054,-0.0013950235549351,0.0013950235477852,-0.001395023547627,0.0013950235550802,2.3668224010827e-13,-2.3791467304652e-13,3.9672023341037e-13,-3.86643188316e-13,-0.0014345588251959,0.0014345588252026,-0.0014845077010767,0.0014845077015003,-0.0014845077013304,0.0014845077012364,-0.0014845077012316,0.0014845077013406,-0.0014845077014857,0.001484507701077,-0.0013950235510596,0.0013950235516791,-0.0013950235518191,0.0013950235509082,-0.0013950235512618,0.0013950235514692,-0.0013950235517143,0.0013950235509854,3.8397243167049e-12,-3.6223416340672e-12,-0.0014345588250908,0.0014345588253085,-2.6988175529763e-13,5.0170414387102e-13,-0.0014845077000626,0.0014845077025071,-0.0014845076998047,0.0014845077027626,-0.0014845077025525,0.0014845077000201,-0.0014845077022942,0.0014845077002755,-0.0013950235547815,0.0013950235479594,-0.0013950235474764,0.0013950235552584,0.68057765191073,0.60478169580822,114808,2744,0.0059593883951782,0.0059593883951811,0.0059593883951825,29.001633344116,29.017766033003,-7.9869332470712e-06,-7.9869332470712e-06,-7.9869332470712e-06,1142714.8225599,0.018039715591299
31819200,0.99745404430283,0.017499359724997,0.0058331199083298,0.0058331199083329,0.0058331199083343,-0.0014352095576957,0.0014352095576914,-3.7606820622738e-12,3.7527705441997e-12,-2.351555617932e-13,2.3968629539526e-13,-0.0014851702067557,0.0014851702040862,-0.0014851702042518,0.0014851702065933,-0.0014851702066011,0.0014851702042465,-0.001485170204095,0.0014851702067516,-0.0013956669055231,0.001395666898323,-0.0013956668981648,0.0013956669056683,2.3671106275717e-13,-2.379206140415e-13,3.9673858579089e-13,-3.8663142396951e-13,-0.0014352095576909,0.0014352095576976,-0.0014851702052144,0.001485170205638,-0.0014851702054681,0.0014851702053741,-0.0014851702053693,0.0014851702054783,-0.0014851702056234,0.0014851702052147,-0.0013956669016224,0.0013956669022419,-0.0013956669023819,0.0013956669014711,-0.0013956669018247,0.0013956669020321,-0.0013956669022772,0.0013956669015482,3.8653935619388e-12,-3.6480287905187e-12,-0.0014352095575857,0.0014352095578034,-2.6988710807528e-13,5.0170484973181e-13,-0.0014851702041917,0.0014851702066534,-0.0014851702039339,0.0014851702069089,-0.0014851702066988,0.0014851702041492,-0.0014851702064405,0.0014851702044046,-0.0013956669053694,0.0013956668984971,-0.0013956668980141,0.0013956669058463,0.65805651517073,0.50727485925725,114808,2744,0.0059620836023764,0.0059620836023793,0.0059620836023807,29.264867883309,29.272472494998,-5.881056933526e-06,-5.881056933526e-06,-5.881056933526e-06,1146560.4994098,0.018047947407851
32019200,0.99756927471546,0.017501399522611,0.0058337998408679,0.005833799840871,0.0058337998408724,-0.0014353591231359,0.0014353591231317,-3.7865599638173e-12,3.7782897027962e-12,-2.3527978306726e-13,2.3954868930492e-13,-0.0014853330746403,0.001485333071953,-0.0014853330721198,0.0014853330744776,-0.001485333074488,0.0014853330721154,-0.0014853330719623,0.0014853330746377,-0.0013958133097561,0.0013958133025021,-0.0013958133023441,0.0013958133099015,2.3734857269344e-13,-2.3717051930932e-13,3.9773861406424e-13,-3.8548145910015e-13,-0.0014353591231293,0.0014353591231382,-0.001485333073086,0.001485333073512,-0.0014853330733409,0.0014853330732493,-0.0014853330732417,0.0014853330733536,-0.0014853330734977,0.0014853330730901,-0.0013958133058295,0.001395813306456,-0.00139581330659,0.0013958133056825,-0.0013958133060304,0.0013958133062346,-0.0013958133064833,0.0013958133057531,3.8916307309996e-12,-3.673161287444e-12,-0.0014353591230246,0.0014353591232435,-2.6933277206869e-13,5.0210571983845e-13,-0.0014853330720575,0.0014853330745371,-0.001485333071799,0.0014853330747913,-0.0014853330745807,0.0014853330720154,-0.0014853330743223,0.0014853330722701,-0.0013958133095969,0.0013958133026804,-0.0013958133021889,0.0013958133100776,0.71766337290197,0.79603683395703,114808,2744,0.0059627030286474,0.0059627030286473,0.0059627030286485,29.280893414284,29.281459200527,-5.7528526857246e-06,-5.7528526857246e-06,-5.7528526857246e-06,1154220.7662633,0.018049839451656
32219200,0.99767935503088,0.0175033911609,0.0058344637202975,0.0058344637203005,0.005834463720302,-0.0014355611975643,0.0014355611975599,-3.8120588438514e-12,3.8040814268253e-12,-2.3515992517093e-13,2.3960076124357e-13,-0.0014855319889914,0.0014855319862876,-0.0014855319864533,0.001485531988829,-0.001485531988837,0.0014855319864481,-0.0014855319862965,0.0014855319889875,-0.0013960180171031,0.0013960180098018,-0.0013960180096437,0.0013960180172483,2.3673529731093e-13,-2.3781379377537e-13,3.9680493670509e-13,-3.8644884131199e-13,-0.0014355611975593,0.0014355611975662,-0.0014855319874326,0.0014855319878565,-0.0014855319876865,0.0014855319875927,-0.0014855319875876,0.0014855319876969,-0.0014855319878419,0.0014855319874333,-0.0013960180131517,0.0013960180137719,-0.0013960180139111,0.0013960180130005,-0.0013960180133541,0.0013960180135611,-0.0013960180138068,0.0013960180130778,3.9167752275583e-12,-3.6993388112681e-12,-0.0014355611974542,0.001435561197672,-2.6978705230839e-13,5.0169343831572e-13,-0.0014855319863931,0.0014855319888891,-0.0014855319861352,0.0014855319891445,-0.0014855319889344,0.0014855319863506,-0.001485531988676,0.001485531986606,-0.0013960180169489,0.0013960180099761,-0.0013960180094925,0.001396018017426,0.73340850518534,0.85840252638019,114808,2744,0.0059635400567416,0.0059635400567444,0.0059635400567456,29.290176893117,29.290445906056,-5.6785848550598e-06,-5.6785848550598e-06,-5.6785848550598e-06,1147094.5926167,0.018052395664245
32419200,0.99778451045828,0.017505340159516,0.0058351133865029,0.005835113386506,0.0058351133865074,-0.0014357711036755,0.0014357711036712,-3.8377246875348e-12,3.8297664802849e-12,-2.3512040328546e-13,2.3960554786204e-13,-0.0014857352225578,0.0014857352198369,-0.0014857352200026,0.0014857352223955,-0.0014857352224035,0.0014857352199974,-0.0014857352198459,0.0014857352225539,-0.0013962321531267,0.0013962321457754,-0.0013962321456174,0.0013962321532719,2.3672735637705e-13,-2.3778050067481e-13,3.9677005541775e-13,-3.8645331176366e-13,-0.0014357711036705,0.0014357711036775,-0.0014857352209906,0.0014857352214144,-0.0014857352212445,0.0014857352211507,-0.0014857352211456,0.0014857352212549,-0.0014857352213998,0.0014857352209913,-0.0013962321491504,0.0013962321497703,-0.0013962321499098,0.0013962321489994,-0.0013962321493526,0.0013962321495599,-0.0013962321498051,0.0013962321490763,3.9424391494255e-12,-3.7250204972984e-12,-0.0014357711035654,0.0014357711037832,-2.6978734641705e-13,5.0165761588066e-13,-0.0014857352199425,0.0014857352224556,-0.0014857352196846,0.0014857352227109,-0.0014857352225008,0.0014857352199,-0.0014857352222426,0.0014857352201554,-0.0013962321529726,0.0013962321459498,-0.0013962321454664,0.0013962321534497,0.75109424202476,0.92292026124148,114808,2744,0.0059644095358074,0.0059644095358101,0.0059644095358115,29.299176895142,29.299432611585,-5.6065848388601e-06,-5.6065848388601e-06,-5.6065848388601e-06,1137628.0097608,0.01805505093686
32619200,0.99788470287909,0.017507061151647,0.0058356870505464,0.0058356870505495,0.0058356870505509,-0.0014358939961545,0.0014358939961502,-3.8634176866387e-12,3.8554166831319e-12,-2.3514345566027e-13,2.3956718873977e-13,-0.0014858507975897,0.0014858507948518,-0.0014858507950173,0.0014858507974273,-0.0014858507974352,0.0014858507950124,-0.0014858507948604,0.0014858507975857,-0.0013963558293464,0.0013963558219453,-0.0013963558217876,0.0013963558294923,2.3632630980522e-13,-2.3816966525668e-13,3.9634848006129e-13,-3.8683265311622e-13,-0.0014358939961501,0.0014358939961561,-0.0014858507960143,0.0014858507964373,-0.0014858507962676,0.001485850796173,-0.0014858507961688,0.0014858507962775,-0.0014858507964235,0.0014858507960138,-0.001396355825347,0.0013963558259658,-0.0013963558261062,0.0013963558251945,-0.0013963558255478,0.001396355825754,-0.0013963558260004,0.0013963558252709,3.9681785983971e-12,-3.7506098626197e-12,-0.0014358939960445,0.0014358939962624,-2.6968311430715e-13,5.0170414387102e-13,-0.0014858507949573,0.001485850797487,-0.001485850794699,0.0014858507977427,-0.0014858507975325,0.0014858507949144,-0.0014858507972743,0.0014858507951703,-0.0013963558291923,0.0013963558221194,-0.001396355821636,0.0013963558296691,0.69653885064533,0.65456196929493,114808,2744,0.0059649185930678,0.0059649185930709,0.0059649185930725,29.263017903196,29.262011297924,-5.8958567744353e-06,-5.8958567744353e-06,-5.8958567744353e-06,1126475.3272886,0.018056605538852
32819200,0.99798005543989,0.017508575506595,0.0058361918355293,0.0058361918355323,0.0058361918355338,-0.0014358963117221,0.0014358963117181,-3.8888736580571e-12,3.8812878892227e-12,-2.3497343477433e-13,2.3972970583381e-13,-0.0014858590300807,0.001485859027326,-0.001485859027491,0.0014858590299185,-0.0014858590299264,0.0014858590274866,-0.0014858590273342,0.0014858590300768,-0.0013963530876822,0.001396353080231,-0.0013963530800727,0.0013963530878283,2.3666747585342e-13,-2.378230876091e-13,3.9668252867987e-13,-3.8647066417473e-13,-0.0014358963117173,0.0014358963117242,-0.0014858590284955,0.0014858590289194,-0.0014858590287494,0.0014858590286555,-0.0014858590286504,0.0014858590287598,-0.0014858590289044,0.001485859028496,-0.0013963530836566,0.0013963530842759,-0.0013963530844159,0.001396353083505,-0.0013963530838581,0.001396353084065,-0.0013963530843107,0.0013963530835816,3.9938155799108e-12,-3.7763216359662e-12,-0.0014358963116122,0.00143589631183,-2.6972046610726e-13,5.0163855763934e-13,-0.0014858590274302,0.0014858590299773,-0.0014858590271728,0.0014858590302333,-0.0014858590300227,0.0014858590273876,-0.0014858590297643,0.0014858590276428,-0.0013963530875277,0.0013963530804045,-0.0013963530799215,0.0013963530880055,0.64446134103616,0.41730343038392,114808,2744,0.0059649281328621,0.0059649281328647,0.0059649281328661,29.204624859203,29.202977733998,-6.3630011263774e-06,-6.3630011263774e-06,-6.3630011263774e-06,1128532.3587959,0.018056634887295
33019200,0.99807081223713,0.017510131672458,0.0058367105574835,0.0058367105574866,0.005836710557488,-0.0014358388415693,0.001435838841565,-3.914724607299e-12,3.9067851997964e-12,-2.3509428459808e-13,2.3960373909377e-13,-0.0014858164313203,0.0014858164285481,-0.0014858164287137,0.001485816431158,-0.0014858164311659,0.0014858164287086,-0.001485816428557,0.0014858164313163,-0.0013962916930724,0.0013962916855704,-0.0013962916854124,0.0013962916932177,2.3667688733061e-13,-2.3780367643739e-13,3.9667488185465e-13,-3.8644854720333e-13,-0.0014358388415644,0.0014358388415712,-0.0014858164297275,0.0014858164301512,-0.0014858164299813,0.0014858164298874,-0.0014858164298824,0.0014858164299916,-0.0014858164301366,0.0014858164297281,-0.0013962916890209,0.0013962916896405,-0.0013962916897802,0.0013962916888697,-0.0013962916892231,0.0013962916894301,-0.0013962916896755,0.0013962916889466,4.0194549731155e-12,-3.8020239096029e-12,-0.0014358388414593,0.001435838841677,-2.6973546564903e-13,5.0160644097343e-13,-0.0014858164286536,0.001485816431218,-0.0014858164283958,0.0014858164314734,-0.0014858164312633,0.0014858164286111,-0.0014858164310051,0.0014858164288665,-0.0013962916929183,0.0013962916857446,-0.0013962916852613,0.0013962916933953,0.69524133919815,0.67416763273613,114808,2744,0.0059646900029952,0.005964690002998,0.0059646900029994,29.145618246842,29.143944170073,-6.8350540252605e-06,-6.8350540252605e-06,-6.8350540252605e-06,1141040.0708748,0.01805590791625
33219200,0.99815720758041,0.017511685993402,0.0058372286644649,0.005837228664468,0.0058372286644694,-0.0014358434350864,0.0014358434350821,-3.9403792095979e-12,3.9324680161921e-12,-2.3508829822305e-13,2.3960833454162e-13,-0.0014858231763341,0.0014858231735448,-0.0014858231737103,0.0014858231761718,-0.0014858231761797,0.0014858231737053,-0.0014858231735537,0.0014858231763301,-0.0013962970094858,0.0013962970019336,-0.0013962970017756,0.0013962970096311,2.3668024016936e-13,-2.3780014713344e-13,3.9667070551164e-13,-3.8642843017083e-13,-0.0014358434350815,0.0014358434350883,-0.0014858231747328,0.0014858231751565,-0.0014858231749866,0.0014858231748928,-0.0014858231748877,0.001485823174997,-0.0014858231751419,0.0014858231747334,-0.0013962970054092,0.0013962970060288,-0.0013962970061685,0.0013962970052581,-0.0013962970056113,0.0013962970058184,-0.0013962970060637,0.0013962970053349,4.0451081011948e-12,-3.8277093602241e-12,-0.0014358434349764,0.0014358434351941,-2.6973640679675e-13,5.015817358458e-13,-0.0014858231736503,0.0014858231762319,-0.0014858231733925,0.0014858231764873,-0.0014858231762772,0.0014858231736079,-0.0014858231760189,0.0014858231738632,-0.0013962970093318,0.0013962970021077,-0.0013962970016246,0.0013962970098087,0.72922789273962,0.83165816985166,114808,2744,0.0059647090362136,0.0059647090362164,0.0059647090362178,29.086585783122,29.084910606147,-7.3073137350202e-06,-7.3073137350202e-06,-7.3073137350202e-06,1140525.5721639,0.018055966013282
33419200,0.9982407905075,0.017513217982022,0.0058377393273381,0.0058377393273412,0.0058377393273426,-0.0014364285082806,0.0014364285082763,-3.9660637098805e-12,3.9581421447787e-12,-2.3509921344567e-13,2.3960190826735e-13,-0.0014864002037355,0.001486400200929,-0.0014864002010946,0.0014864002035731,-0.001486400203581,0.0014864002010895,-0.0014864002009379,0.0014864002037315,-0.0013968870056021,0.0013968869979997,-0.0013968869978417,0.0013968870057475,2.3667835787392e-13,-2.3780638223708e-13,3.9665635300893e-13,-3.8642478322342e-13,-0.0014364285082757,0.0014364285082825,-0.0014864002021257,0.0014864002025493,-0.0014864002023794,0.0014864002022856,-0.0014864002022806,0.0014864002023898,-0.0014864002025347,0.0014864002021262,-0.0013968870015005,0.00139688700212,-0.0013968870022596,0.0013968870013493,-0.0013968870017025,0.0013968870019097,-0.001396887002155,0.0013968870014262,4.0707814051283e-12,-3.8533940755737e-12,-0.0014364285081706,0.0014364285083883,-2.6973193634508e-13,5.0156938328199e-13,-0.0014864002010346,0.0014864002036333,-0.0014864002007768,0.0014864002038887,-0.0014864002036786,0.0014864002009921,-0.0014864002034203,0.0014864002012475,-0.0013968870054482,0.0013968869981738,-0.0013968869976907,0.0013968870059251,0.74278651069139,0.88146625124173,114808,2744,0.0059671324146638,0.0059671324146666,0.005967132414668,29.311157089202,29.317407801684,-5.5107432863802e-06,-5.5107432863802e-06,-5.5107432863802e-06,1132162.0374853,0.018063367141949
33619200,0.99832195192308,0.017514706204864,0.0058382354016189,0.005838235401622,0.0058382354016234,-0.0014371699675834,0.0014371699675791,-3.991748968412e-12,3.9838205545994e-12,-2.3510362599469e-13,2.3960411408232e-13,-0.0014871335793029,0.0014871335764793,-0.0014871335766448,0.0014871335791405,-0.0014871335791484,0.0014871335766398,-0.0014871335764882,0.0014871335792988,-0.0013976321882149,0.0013976321805622,-0.0013976321804042,0.0013976321883603,2.3669171040719e-13,-2.3780014713344e-13,3.9665982349114e-13,-3.8641472470717e-13,-0.0014371699675785,0.0014371699675853,-0.0014871335776845,0.0014871335781082,-0.0014871335779383,0.0014871335778445,-0.0014871335778395,0.0014871335779486,-0.0014871335780936,0.0014871335776851,-0.0013976321840881,0.0013976321847076,-0.0013976321848473,0.0013976321839369,-0.0013976321842902,0.0013976321844974,-0.0013976321847426,0.0013976321840138,4.0964540620227e-12,-3.8790852024921e-12,-0.0014371699674734,0.0014371699676911,-2.697377596966e-13,5.0155714836164e-13,-0.0014871335765849,0.0014871335792007,-0.0014871335763271,0.0014871335794561,-0.001487133579246,0.0014871335765424,-0.0014871335789878,0.0014871335767978,-0.001397632188061,0.0013976321807363,-0.0013976321802532,0.0013976321885379,0.74303040649293,0.86738557344358,114808,2744,0.005970203505807,0.0059702035058098,0.0059702035058112,29.612625367576,29.621149010763,-3.0989970593902e-06,-3.0989970593902e-06,-3.0989970593902e-06,1122736.6921624,0.018072746650118
33819200,0.998400703418,0.017516154584505,0.0058387181948325,0.0058387181948356,0.005838718194837,-0.0014379071706041,0.0014379071705997,-4.0174324282852e-12,4.0095014033391e-12,-2.3511202314165e-13,2.3960638607173e-13,-0.0014878643093162,0.0014878643064755,-0.0014878643066411,0.0014878643091539,-0.0014878643091618,0.001487864306636,-0.0014878643064844,0.0014878643093122,-0.001398372243795,0.001398372236092,-0.001398372235934,0.0013983722439404,2.3669865137162e-13,-2.3780373525912e-13,3.9665947056075e-13,-3.8641519528103e-13,-0.0014379071705992,0.001437907170606,-0.0014878643076893,0.001487864308113,-0.0014878643079431,0.0014878643078493,-0.0014878643078443,0.0014878643079535,-0.0014878643080984,0.0014878643076899,-0.0013983722396431,0.0013983722402625,-0.0013983722404022,0.0013983722394918,-0.0013983722398451,0.0013983722400523,-0.0013983722402976,0.0013983722395688,4.1221336892924e-12,-3.9047698884308e-12,-0.0014379071704941,0.0014379071707118,-2.697377596966e-13,5.0155638367911e-13,-0.0014878643065812,0.0014878643092141,-0.0014878643063234,0.0014878643094695,-0.0014878643092594,0.0014878643065386,-0.0014878643090012,0.001487864306794,-0.0013983722436411,0.0013983722362661,-0.001398372235783,0.001398372244118,0.74517767298255,0.86413168163844,114808,2744,0.0059732569374125,0.0059732569374153,0.0059732569374167,29.916267243677,29.924890219843,-6.6986205058018e-07,-6.6986205058018e-07,-6.6986205058018e-07,1114947.0686221,0.018082072389834
34019200,0.99847704939796,0.017517519034063,0.005839173011352,0.005839173011355,0.0058391730113565,-0.0014386364317641,0.0014386364317598,-4.04309733174e-12,4.0351992768345e-12,-2.3510356384126e-13,2.3962888538439e-13,-0.0014885880536375,0.0014885880507797,-0.0014885880509452,0.0014885880534752,-0.0014885880534831,0.0014885880509402,-0.0014885880507885,0.0014885880536335,-0.0013991030495183,0.0013991030417651,-0.0013991030416071,0.0013991030496637,2.3670900399653e-13,-2.3780779395866e-13,3.966628233995e-13,-3.8641825401112e-13,-0.0014386364317592,0.0014386364317661,-0.0014885880520021,0.0014885880524258,-0.0014885880522559,0.001488588052162,-0.001488588052157,0.0014885880522662,-0.0014885880524111,0.0014885880520027,-0.0013991030453412,0.0013991030459606,-0.0013991030461003,0.0013991030451899,-0.0013991030455433,0.0013991030457505,-0.0013991030459958,0.0013991030452669,4.1478023168982e-12,-3.9304649269945e-12,-0.0014386364316542,0.0014386364318719,-2.6975470035554e-13,5.015463839846e-13,-0.0014885880508854,0.0014885880535354,-0.0014885880506276,0.0014885880537908,-0.0014885880535807,0.0014885880508428,-0.0014885880533225,0.0014885880510982,-0.0013991030493644,0.0013991030419391,-0.0013991030414561,0.0013991030498413,0.72426543349929,0.7570419323305,114808,2744,0.0059762774492025,0.0059762774492053,0.0059762774492067,30.220001129629,30.228631428922,1.760009037035e-06,1.760009037035e-06,1.760009037035e-06,1108083.5933836,0.018091297734863
34219200,0.99855227025911,0.017518829125936,0.0058396097086427,0.0058396097086458,0.0058396097086472,-0.0014399264476514,0.0014399264476471,-4.0688033111459e-12,4.0608744457156e-12,-2.351306849107e-13,2.3962716484872e-13,-0.0014898748859721,0.0014898748830971,-0.0014898748832627,0.0014898748858097,-0.0014898748858177,0.0014898748832576,-0.001489874883106,0.0014898748859681,-0.0014003946472926,0.001400394639489,-0.001400394639331,0.0014003946474379,2.3671035689638e-13,-2.3783155793857e-13,3.966537648527e-13,-3.8643466527447e-13,-0.0014399264476465,0.0014399264476533,-0.0014898748843281,0.0014898748847518,-0.0014898748845819,0.0014898748844881,-0.0014898748844831,0.0014898748845923,-0.0014898748847372,0.0014898748843287,-0.0014003946430902,0.0014003946437097,-0.0014003946438494,0.001400394642939,-0.0014003946432923,0.0014003946434996,-0.0014003946437448,0.0014003946430159,4.1734938261578e-12,-3.9561539069196e-12,-0.0014399264475414,0.0014399264477591,-2.6975346509916e-13,5.0155420727501e-13,-0.0014898748832028,0.00148987488587,-0.001489874882945,0.0014898748861254,-0.0014898748859153,0.0014898748831603,-0.0014898748856571,0.0014898748834157,-0.0014003946471386,0.001400394639663,-0.00140039463918,0.0014003946476155,0.70594346935661,0.67034958677107,114808,2744,0.005981620479428,0.0059816204794309,0.0059816204794322,30.830558554279,30.847784937193,6.6444684342316e-06,6.6444684342316e-06,6.6444684342316e-06,1105858.6207331,0.018107616878706
34419200,0.99862637465835,0.017520124858057,0.0058400416193499,0.005840041619353,0.0058400416193544,-0.0014412606668774,0.001441260666873,-4.0944898904091e-12,4.0865722297147e-12,-2.3514038992213e-13,2.3964655396228e-13,-0.0014912124756213,0.0014912124727291,-0.0014912124728947,0.0014912124754589,-0.0014912124754668,0.0014912124728897,-0.001491212472738,0.0014912124756172,-0.001401727682841,0.0014017276749872,-0.0014017276748292,0.0014017276829864,2.3673876779315e-13,-2.3783185204723e-13,3.9667264662882e-13,-3.8642995953588e-13,-0.0014412606668725,0.0014412606668793,-0.0014912124739687,0.0014912124743925,-0.0014912124742226,0.0014912124741287,-0.0014912124741237,0.0014912124742329,-0.0014912124743778,0.0014912124739693,-0.0014017276786136,0.001401727679233,-0.0014017276793727,0.0014017276784623,-0.0014017276788157,0.001401727679023,-0.0014017276792682,0.0014017276785394,4.1991866000848e-12,-3.9818451220707e-12,-0.0014412606667674,0.0014412606669851,-2.6976599412817e-13,5.0155756011376e-13,-0.0014912124728349,0.0014912124755192,-0.0014912124725771,0.0014912124757746,-0.0014912124755645,0.0014912124727923,-0.0014912124753063,0.0014912124730477,-0.0014017276826872,0.0014017276751613,-0.0014017276746782,0.001401727683164,0.7086795676593,0.68757176325041,114808,2744,0.0059871465223427,0.0059871465223456,0.005987146522347,31.474229222596,31.492527235391,1.1793833780767e-05,1.1793833780767e-05,1.1793833780767e-05,1108172.658906,0.018124495443751
34619200,0.99869922933414,0.017521448577334,0.0058404828591087,0.0058404828591118,0.0058404828591132,-0.0014426017264777,0.0014426017264734,-4.1201832231425e-12,4.1122631307669e-12,-2.3515575675507e-13,2.3965723745943e-13,-0.0014925560635605,0.0014925560606512,-0.0014925560608168,0.0014925560633981,-0.001492556063406,0.0014925560608118,-0.0014925560606601,0.0014925560635565,-0.00140306872732,0.0014030687194159,-0.0014030687192579,0.0014030687274654,2.3675353204799e-13,-2.3784391050239e-13,3.9668558740995e-13,-3.8643825340015e-13,-0.0014426017264728,0.0014426017264797,-0.0014925560618995,0.0014925560623232,-0.0014925560621533,0.0014925560620595,-0.0014925560620545,0.0014925560621636,-0.0014925560623085,0.0014925560619,-0.0014030687230674,0.0014030687236868,-0.0014030687238265,0.0014030687229161,-0.0014030687232695,0.0014030687234768,-0.001403068723722,0.0014030687229932,4.2248764329251e-12,-4.0075403370995e-12,-0.0014426017263678,0.0014426017265855,-2.6977752318773e-13,5.0156679512576e-13,-0.001492556060757,0.0014925560634585,-0.0014925560604993,0.0014925560637139,-0.0014925560635039,0.0014925560607145,-0.0014925560632456,0.00149255606097,-0.0014030687271661,0.0014030687195899,-0.0014030687191069,0.001403068727643,0.73613736916504,0.81674655408875,114808,2744,0.0059927008807374,0.0059927008807402,0.0059927008807416,32.118912421329,32.137269533589,1.6951299370629e-05,1.6951299370629e-05,1.6951299370629e-05,1109496.3791954,0.018141460721412
34819200,0.99877181815497,0.017522778720958,0.0058409262403169,0.00584092624032,0.0058409262403214,-0.0014445211214327,0.0014445211214283,-4.1458717986683e-12,4.1379777319222e-12,-2.3517715258582e-13,2.3965007591351e-13,-0.0014944696442394,0.0014944696413129,-0.0014944696414786,0.001494469644077,-0.0014944696440849,0.0014944696414735,-0.0014944696413219,0.0014944696442353,-0.0014049916354328,0.0014049916274783,-0.0014049916273203,0.0014049916355781,2.3680111882954e-13,-2.3781091151048e-13,3.9672329214045e-13,-3.8641660700261e-13,-0.0014445211214278,0.0014445211214347,-0.0014944696425697,0.0014944696429935,-0.0014944696428236,0.0014944696427298,-0.0014944696427247,0.0014944696428339,-0.0014944696429788,0.0014944696425703,-0.001404991631155,0.0014049916317745,-0.0014049916319142,0.0014049916310039,-0.0014049916313571,0.0014049916315646,-0.0014049916318097,0.0014049916310809,4.2505809123767e-12,-4.0332429636666e-12,-0.0014445211213227,0.0014445211215404,-2.6978511119122e-13,5.0157697128547e-13,-0.0014944696414188,0.0014944696441373,-0.001494469641161,0.0014944696443928,-0.0014944696441827,0.0014944696413762,-0.0014944696439244,0.0014944696416316,-0.001404991635279,0.0014049916276526,-0.0014049916271695,0.001404991635756,0.74236045414451,0.83758763975058,114808,2744,0.0060006505838,0.0060006505838028,0.0060006505838042,33.048684149603,33.075063064154,2.4389473196822e-05,2.4389473196822e-05,2.4389473196822e-05,1104340.512409,0.018165742589657
35019200,0.99884429444813,0.017524068914758,0.0058413563049169,0.0058413563049199,0.0058413563049214,-0.0014466404132735,0.0014466404132692,-4.1715883402515e-12,4.163671340842e-12,-2.3518072726981e-13,2.3966687687084e-13,-0.0014965846985679,0.0014965846956242,-0.0014965846957899,0.0014965846984054,-0.0014965846984133,0.0014965846957848,-0.0014965846956332,0.0014965846985638,-0.0014071122265082,0.0014071122185034,-0.0014071122183454,0.0014071122266536,2.3677376672395e-13,-2.3785791007471e-13,3.9671276305035e-13,-3.8646113505407e-13,-0.0014466404132686,0.0014466404132755,-0.0014965846968896,0.0014965846973134,-0.0014965846971435,0.0014965846970496,-0.0014965846970446,0.0014965846971537,-0.0014965846972987,0.0014965846968901,-0.0014071122222053,0.0014071122228247,-0.0014071122229644,0.001407112222054,-0.0014071122224074,0.0014071122226149,-0.0014071122228601,0.0014071122221311,4.2762868623717e-12,-4.0589443255664e-12,-0.0014466404131635,0.0014466404133812,-2.6980081659378e-13,5.015949707356e-13,-0.00149658469573,0.0014965846984657,-0.0014965846954722,0.0014965846987212,-0.0014965846985111,0.0014965846956875,-0.0014965846982528,0.0014965846959429,-0.0014071122263544,0.0014071122186776,-0.0014071122181946,0.0014071122268313,0.72136486283303,0.73255525447328,114808,2744,0.0060094281203468,0.0060094281203496,0.006009428120351,34.080356318213,34.109752256169,3.2642850545706e-05,3.2642850545706e-05,3.2642850545706e-05,1099161.1311686,0.018192553809721
35219200,0.99891638265829,0.017525317707773,0.0058417725692552,0.0058417725692583,0.0058417725692597,-0.0014487387685263,0.0014487387685219,-4.1972992349483e-12,4.1893706030817e-12,-2.3518781747141e-13,2.3967617805728e-13,-0.0014986849840348,0.001498684981074,-0.0014986849812396,0.0014986849838723,-0.0014986849838802,0.0014986849812346,-0.0014986849810829,0.0014986849840307,-0.0014092090767129,0.0014092090686578,-0.0014092090684998,0.0014092090768583,2.3678229587516e-13,-2.3786608629552e-13,3.967291743137e-13,-3.8647889921727e-13,-0.0014487387685213,0.0014487387685282,-0.001498684982348,0.0014986849827718,-0.0014986849826019,0.001498684982508,-0.001498684982503,0.0014986849826122,-0.0014986849827571,0.0014986849823486,-0.0014092090723848,0.0014092090730042,-0.001409209073144,0.0014092090722335,-0.0014092090725869,0.0014092090727943,-0.0014092090730395,0.0014092090723106,4.3019814303615e-12,-4.0846594517517e-12,-0.0014487387684163,0.001448738768634,-2.6982352178251e-13,5.0160479396492e-13,-0.0014986849811799,0.0014986849839327,-0.0014986849809221,0.0014986849841882,-0.0014986849839782,0.0014986849811373,-0.0014986849837198,0.0014986849813928,-0.0014092090765591,0.0014092090688319,-0.0014092090683489,0.001409209077036,0.70214227375569,0.6436174661868,114808,2744,0.0060181188233191,0.006018118823322,0.0060181188233233,35.114883624424,35.144441448185,4.0919068995393e-05,4.0919068995393e-05,4.0919068995393e-05,1099244.6560643,0.018219100657604
35419200,0.99898695647016,0.017526504164555,0.0058421680548491,0.0058421680548522,0.0058421680548536,-0.001450386367866,0.0014503863678616,-4.2229929509421e-12,4.2150712392455e-12,-2.3519049213694e-13,2.3968507484431e-13,-0.0015003410880609,0.001500341085083,-0.0015003410852487,0.0015003410878985,-0.0015003410879064,0.0015003410852436,-0.001500341085092,0.0015003410880568,-0.0014108517691482,0.0014108517610428,-0.0014108517608848,0.0014108517692936,2.3678882508746e-13,-2.3787138025144e-13,3.9674552675532e-13,-3.8649701631087e-13,-0.0014503863678611,0.001450386367868,-0.0015003410863656,0.0015003410867894,-0.0015003410866195,0.0015003410865256,-0.0015003410865206,0.0015003410866298,-0.0015003410867747,0.0015003410863662,-0.0014108517647948,0.0014108517654143,-0.0014108517655541,0.0014108517646436,-0.001410851764997,0.0014108517652044,-0.0014108517654496,0.0014108517647207,4.3276797041204e-12,-4.110355431463e-12,-0.001450386367756,0.0014503863679737,-2.6983858014601e-13,5.0162273459332e-13,-0.0015003410851889,0.0015003410879589,-0.0015003410849311,0.0015003410882144,-0.0015003410880043,0.0015003410851464,-0.001500341087746,0.0015003410854018,-0.0014108517689943,0.0014108517612169,-0.0014108517607339,0.0014108517694713,0.68162295726092,0.55467967790032,114808,2744,0.006024942542341,0.0060249425423439,0.0060249425423453,35.927664941549,35.951008785197,4.7421319532394e-05,4.7421319532394e-05,4.7421319532394e-05,1103745.2283983,0.018239945252677
35619200,0.99905521643707,0.017527610296828,0.0058425367656068,0.0058425367656098,0.0058425367656113,-0.0014516841251633,0.0014516841251589,-4.2486843067138e-12,4.2407614771745e-12,-2.3519501371297e-13,2.3969027321492e-13,-0.0015016511825181,0.001501651179523,-0.0015016511796887,0.0015016511823557,-0.0015016511823636,0.0015016511796836,-0.001501651179532,0.001501651182514,-0.0014121432542241,0.0014121432460684,-0.0014121432459104,0.0014121432543695,2.3679264850007e-13,-2.3787738006815e-13,3.9676193801867e-13,-3.8651078059626e-13,-0.0014516841251584,0.0014516841251652,-0.0015016511808142,0.001501651181238,-0.0015016511810681,0.0015016511809742,-0.0015016511809692,0.0015016511810784,-0.0015016511812233,0.0015016511808148,-0.0014121432498456,0.0014121432504651,-0.0014121432506048,0.0014121432496943,-0.0014121432500478,0.0014121432502552,-0.0014121432505004,0.0014121432497714,4.3533723604038e-12,-4.1360444407991e-12,-0.0014516841250533,0.001451684125271,-2.6985428554858e-13,5.0163808706548e-13,-0.001501651179629,0.0015016511824161,-0.0015016511793711,0.0015016511826715,-0.0015016511824615,0.0015016511795864,-0.0015016511822032,0.0015016511798419,-0.0014121432540703,0.0014121432462425,-0.0014121432457595,0.0014121432545472,0.65729897575226,0.45391059687915,114808,2744,0.0060303172844339,0.0060303172844368,0.0060303172844382,36.572538504881,36.591072440272,5.2580308039044e-05,5.2580308039044e-05,5.2580308039044e-05,1111768.5733534,0.01825636404268
35819200,0.99912104854788,0.017528740807448,0.0058429136024801,0.0058429136024831,0.0058429136024846,-0.0014529481242142,0.0014529481242098,-4.2744031542927e-12,4.2664206735426e-12,-2.3523083580337e-13,2.3966078146881e-13,-0.0015029294504698,0.0015029294474576,-0.0015029294476233,0.0015029294503073,-0.0015029294503153,0.0015029294476182,-0.0015029294474666,0.0015029294504657,-0.0014134031762355,0.0014134031680295,-0.0014134031678716,0.0014134031763809,2.3678211940996e-13,-2.3789308547071e-13,3.967598204363e-13,-3.8654125025367e-13,-0.0014529481242093,0.0014529481242161,-0.0015029294487574,0.0015029294491812,-0.0015029294490113,0.0015029294489174,-0.0015029294489124,0.0015029294490216,-0.0015029294491665,0.0015029294487579,-0.0014134031718319,0.0014134031724514,-0.0014134031725912,0.0014134031716806,-0.001413403172034,0.0014134031722415,-0.0014134031724867,0.0014134031717577,4.3790842219829e-12,-4.1617102743725e-12,-0.0014529481241042,0.0014529481243219,-2.6984452114099e-13,5.0167596826118e-13,-0.0015029294475636,0.0015029294503678,-0.0015029294473057,0.0015029294506233,-0.0015029294504132,0.001502929447521,-0.0015029294501549,0.0015029294477765,-0.0014134031760816,0.0014134031682036,-0.0014134031677206,0.0014134031765586,0.69619233577212,0.65351450719629,114808,2744,0.0060355521872774,0.0060355521872802,0.0060355521872816,37.212793751715,37.231136095346,5.7702350013719e-05,5.7702350013719e-05,5.7702350013719e-05,1123232.6975939,0.018272355860285
36019200,0.9991843678923,0.017529890617666,0.0058432968725528,0.0058432968725559,0.0058432968725573,-0.0014542615943653,0.001454261594361,-4.3000548651358e-12,4.2921533331996e-12,-2.3518888912985e-13,2.3970098612294e-13,-0.0015042471521818,0.0015042471491525,-0.0015042471493181,0.0015042471520194,-0.0015042471520272,0.0015042471493131,-0.0015042471491614,0.0015042471521777,-0.0014147163919359,0.0014147163836796,-0.0014147163835216,0.0014147163920813,2.3680235408592e-13,-2.3787196846876e-13,3.9679270178474e-13,-3.8653372107191e-13,-0.0014542615943604,0.0014542615943673,-0.0015042471504607,0.0015042471508846,-0.0015042471507147,0.0015042471506208,-0.0015042471506158,0.001504247150725,-0.0015042471508699,0.0015042471504613,-0.0014147163875071,0.0014147163881266,-0.0014147163882664,0.0014147163873558,-0.0014147163877093,0.0014147163879167,-0.0014147163881619,0.001414716387433,4.404755643621e-12,-4.1874231359211e-12,-0.0014542615942553,0.001454261594473,-2.6987946125006e-13,5.0166738028824e-13,-0.0015042471492584,0.0015042471520797,-0.0015042471490005,0.0015042471523353,-0.0015042471521252,0.0015042471492158,-0.0015042471518668,0.0015042471494713,-0.0014147163917821,0.0014147163838537,-0.0014147163833707,0.001414716392259,0.73586308235808,0.83938617781199,114808,2744,0.0060409920331543,0.0060409920331572,0.0060409920331585,37.852853227871,37.871199750421,6.282282582297e-05,6.282282582297e-05,6.282282582297e-05,1124441.278868,0.018288973717909
36219200,0.99924304962052,0.017530923635728,0.0058436412119068,0.0058436412119098,0.0058436412119113,-0.0014543312414243,0.00145433124142,-4.3258143456646e-12,4.3177800436576e-12,-2.3523128902941e-13,2.3986881923105e-13,-0.0015043195017274,0.001504319498681,-0.0015043194988467,0.0015043195015648,-0.0015043195015727,0.0015043194988417,-0.0015043194986898,0.0015043195017233,-0.001414782029839,0.0014147820215328,-0.0014147820213736,0.0014147820299841,2.3703405289004e-13,-2.3782255821351e-13,3.9707463434837e-13,-3.8633378600332e-13,-0.0014543312414193,0.0014543312414264,-0.0015043194999978,0.0015043195004217,-0.0015043195002517,0.0015043195001579,-0.0015043195001529,0.0015043195002618,-0.001504319500407,0.0015043194999983,-0.0014147820253845,0.0014147820260033,-0.0014147820261422,0.0014147820252335,-0.0014147820255863,0.0014147820257948,-0.0014147820260402,0.0014147820253109,4.4304164773472e-12,-4.2131439972253e-12,-0.0014543312413144,0.001454331241532,-2.7003604470184e-13,5.0165520418963e-13,-0.0015043194987868,0.0015043195016252,-0.0015043194985291,0.0015043195018808,-0.0015043195016707,0.0015043194987443,-0.0015043195014125,0.0015043194989997,-0.001414782029684,0.0014147820217058,-0.0014147820212224,0.0014147820301619,0.71361053535414,0.7265910158679,114808,2744,0.0060412804844352,0.006041280484438,0.0060412804844396,37.827158273704,37.826717901739,6.2617266189636e-05,6.2617266189636e-05,6.2617266189636e-05,1118672.0498449,0.018289854999945
36419200,0.99929658661338,0.01753185379181,0.0058439512639343,0.0058439512639373,0.0058439512639388,-0.0014537747201384,0.0014537747201341,-4.3514193106932e-12,4.3434678292259e-12,-2.3538310838041e-13,2.3995947087347e-13,-0.0015037671413979,0.0015037671383342,-0.0015037671385,0.0015037671412353,-0.0015037671412432,0.001503767138495,-0.0015037671383431,0.0015037671413938,-0.0014142226799947,0.0014142226716382,-0.0014142226714798,0.0014142226801401,2.3703717044186e-13,-2.3808060915376e-13,3.9694352070674e-13,-3.8655201463071e-13,-0.0014537747201335,0.0014537747201404,-0.0015037671396596,0.0015037671400837,-0.0015037671399136,0.0015037671398198,-0.0015037671398148,0.0015037671399239,-0.0015037671400689,0.0015037671396602,-0.0014142226755157,0.0014142226761349,-0.0014142226762747,0.0014142226753643,-0.0014142226757176,0.0014142226759257,-0.001414222676171,0.0014142226754412,4.4560746346846e-12,-4.2387813316693e-12,-0.0014537747200285,0.0014537747202462,-2.7000398685766e-13,5.0172596673376e-13,-0.0015037671384402,0.0015037671412958,-0.0015037671381824,0.0015037671415513,-0.0015037671413413,0.0015037671383976,-0.0015037671410829,0.0015037671386531,-0.0014142226798407,0.0014142226718121,-0.0014142226713289,0.0014142226803179,0.70434018400125,0.68271718381266,114808,2744,0.0060389755950275,0.0060389755950304,0.0060389755950318,37.497352964345,37.488045449697,5.9978823714759e-05,5.9978823714759e-05,5.9978823714759e-05,1117772.943897,0.01828281399349
36619200,0.99934546936807,0.017532657363415,0.0058442191211357,0.0058442191211388,0.0058442191211402,-0.0014531804186595,0.001453180418655,-4.377101134587e-12,4.3690967394099e-12,-2.355430732776e-13,2.3998388189243e-13,-0.0015031762934871,0.0015031762904061,-0.001503176290572,0.0015031762933243,-0.0015031762933323,0.0015031762905669,-0.0015031762904152,0.0015031762934829,-0.0014136262275732,0.0014136262191664,-0.0014136262190083,0.0014136262277188,2.37067698921e-13,-2.382463687958e-13,3.9686934650212e-13,-3.867095392302e-13,-0.0014531804186546,0.0014531804186614,-0.0015031762917401,0.0015031762921642,-0.001503176291994,0.0015031762919002,-0.0015031762918954,0.0015031762920043,-0.0015031762921495,0.0015031762917405,-0.001413626223069,0.0014136262236883,-0.0014136262238285,0.0014136262229177,-0.0014136262232713,0.0014136262234792,-0.0014136262237245,0.0014136262229947,4.481775643654e-12,-4.2643922257447e-12,-0.0014531804185494,0.0014531804187672,-2.7000022226678e-13,5.0179543519978e-13,-0.0015031762905122,0.0015031762933847,-0.0015031762902542,0.0015031762936404,-0.0015031762934302,0.0015031762904695,-0.0015031762931718,0.001503176290725,-0.0014136262274196,0.0014136262193405,-0.0014136262188573,0.0014136262278966,0.66675279254666,0.51038724866459,114808,2744,0.0060365142317228,0.0060365142317259,0.0060365142317272,37.159055103634,37.149372997656,5.7272440829075e-05,5.7272440829075e-05,5.7272440829075e-05,1118355.6901716,0.018275294991888
36819200,0.99939015804257,0.017533372883696,0.005844457627896,0.0058444576278991,0.0058444576279005,-0.0014525379035684,0.0014525379035641,-4.4027002891312e-12,4.3948269583096e-12,-2.3556626351584e-13,2.4011799544242e-13,-0.0015025447774625,0.0015025447743645,-0.0015025447745303,0.0015025447772998,-0.0015025447773076,0.0015025447745253,-0.0015025447743734,0.0015025447774584,-0.0014129796809362,0.0014129796724793,-0.0014129796723209,0.0014129796810819,2.3717522504791e-13,-2.3829160270805e-13,3.9692716826512e-13,-3.8671559786864e-13,-0.0014525379035635,0.0014525379035703,-0.001502544775707,0.0015025447761312,-0.001502544775961,0.0015025447758672,-0.0015025447758623,0.0015025447759713,-0.0015025447761165,0.0015025447757075,-0.0014129796764069,0.0014129796770264,-0.0014129796771664,0.0014129796762554,-0.0014129796766089,0.0014129796768171,-0.0014129796770624,0.0014129796763325,4.507420036706e-12,-4.2900782939941e-12,-0.0014525379034584,0.0014525379036761,-2.700363388105e-13,5.0182814008303e-13,-0.0015025447744706,0.0015025447773603,-0.0015025447742126,0.0015025447776159,-0.0015025447774059,0.0015025447744279,-0.0015025447771474,0.0015025447746835,-0.0014129796807824,0.0014129796726531,-0.0014129796721701,0.0014129796812595,0.649578320519,0.44500878042861,114808,2744,0.0060338531326095,0.0060338531326125,0.0060338531326138,36.820396001418,36.810700545614,5.4563168011346e-05,5.4563168011346e-05,5.4563168011346e-05,1126739.317119,0.018267166048923
37019200,0.99943222401029,0.01753408826478,0.0058446960882575,0.0058446960882606,0.005844696088262,-0.001452906362812,0.0014529063628077,-4.4283879575156e-12,4.4204983985592e-12,-2.3562030104242e-13,2.4017355992143e-13,-0.0015029212213682,0.001502921218253,-0.0015029212184189,0.0015029212212055,-0.0015029212212133,0.0015029212184139,-0.0015029212182619,0.0015029212213642,-0.0014133486619619,0.0014133486534548,-0.0014133486532963,0.0014133486621076,2.3722475294664e-13,-2.3835195380554e-13,3.9695240278834e-13,-3.8672853864978e-13,-0.0014529063628071,0.001452906362814,-0.0015029212196042,0.0015029212200284,-0.0015029212198582,0.0015029212197645,-0.0015029212197595,0.0015029212198684,-0.0015029212200137,0.0015029212196047,-0.0014133486574075,0.001413348658027,-0.0014133486581671,0.001413348657256,-0.0014133486576094,0.0014133486578177,-0.001413348658063,0.001413348657333,4.5330939876786e-12,-4.315762509359e-12,-0.001452906362702,0.0014529063629197,-2.7006445559861e-13,5.0183972796432e-13,-0.0015029212183592,0.0015029212212661,-0.0015029212181013,0.0015029212215217,-0.0015029212213116,0.0015029212183165,-0.0015029212210531,0.0015029212185721,-0.0014133486618082,0.0014133486536286,-0.0014133486531455,0.0014133486622853,0.68961813960249,0.64920450727309,114808,2744,0.0060353791159778,0.0060353791159807,0.0060353791159821,37.015654734662,37.021009217455,5.6125237877293e-05,5.6125237877293e-05,5.6125237877293e-05,1136261.1731775,0.018271827640231
37219200,0.9994720616092,0.017534809341461,0.0058449364471512,0.0058449364471542,0.0058449364471557,-0.0014535828766533,0.0014535828766493,-4.4538240039913e-12,4.4463588207423e-12,-2.355199042933e-13,2.402954532565e-13,-0.0015035994777589,0.0015035994746269,-0.0015035994747921,0.0015035994775975,-0.0015035994776036,0.0015035994747876,-0.0015035994746358,0.0015035994777544,-0.0014140260924939,0.001414026083934,-0.0014140260837777,0.0014140260926401,2.3731145618026e-13,-2.3831436671851e-13,3.9709492784606e-13,-3.8659854262107e-13,-0.0014535828766486,0.0014535828766558,-0.0015035994759848,0.0015035994764105,-0.0015035994762405,0.0015035994761456,-0.0015035994761415,0.0015035994762514,-0.0015035994763953,0.0015035994759868,-0.0014140260879146,0.0014140260885367,-0.001414026088674,0.0014140260877647,-0.0014140260881159,0.0014140260883248,-0.0014140260885687,0.0014140260878402,4.558248013358e-12,-4.3419657382801e-12,-0.0014535828765445,0.001453582876761,-2.7056773434144e-13,5.0136421307921e-13,-0.0015035994747333,0.0015035994776565,-0.0015035994744746,0.0015035994779114,-0.0015035994777039,0.0015035994746916,-0.0015035994774456,0.0015035994749432,-0.0014140260923395,0.0014140260841091,-0.001414026083628,0.0014140260928166,0.73362541508016,0.85340023411758,114808,2744,0.0060381809846351,0.0060381809846389,0.0060381809846411,37.341919993311,37.351202753545,5.873535994649e-05,5.873535994649e-05,5.873535994649e-05,1136211.0463245,0.018280386752021
37419200,0.99950974597296,0.017535447349114,0.0058451491163688,0.0058451491163719,0.0058451491163733,-0.0014543125620434,0.0014543125620391,-4.479763649972e-12,4.4718556537342e-12,-2.3565383310628e-13,2.4019385341912e-13,-0.0015043233959113,0.0015043233927619,-0.0015043233929278,0.0015043233957487,-0.0015043233957564,0.0015043233929228,-0.0015043233927708,0.0015043233959072,-0.0014147566423984,0.0014147566337904,-0.0014147566336321,0.0014147566425441,2.372362820062e-13,-2.38396481857e-13,3.9691769796619e-13,-3.8669389264937e-13,-0.0014543125620386,0.0014543125620454,-0.00150432339413,0.0015043233945543,-0.0015043233943842,0.0015043233942903,-0.0015043233942855,0.0015043233943944,-0.0015043233945396,0.0015043233941306,-0.001414756637794,0.0014147566384136,-0.0014147566385536,0.0014147566376427,-0.0014147566379958,0.0014147566382041,-0.0014147566384494,0.0014147566377194,4.58442818416e-12,-4.3671704977038e-12,-0.0014543125619335,0.0014543125621511,-2.7008010217945e-13,5.0175984805165e-13,-0.0015043233928681,0.0015043233958091,-0.00150432339261,0.0015043233960647,-0.0015043233958548,0.0015043233928256,-0.0015043233955964,0.0015043233930808,-0.0014147566422448,0.0014147566339647,-0.0014147566334816,0.0014147566427219,0.68665557426812,0.62399919259961,114808,2744,0.0060412030998112,0.0060412030998143,0.0060412030998158,37.671941803206,37.681396289635,6.1375534425646e-05,6.1375534425646e-05,6.1375534425646e-05,1127107.1229437,0.018289618663499
37619200,0.99954534501863,0.017536030164185,0.0058453433880592,0.0058453433880622,0.0058453433880637,-0.001454982000442,0.0014549820004378,-4.5054174048703e-12,4.4975730050353e-12,-2.356196653771e-13,2.4020393399352e-13,-0.0015049975916386,0.0015049975884721,-0.0015049975886379,0.001504997591476,-0.0015049975914837,0.001504997588633,-0.001504997588481,0.0015049975916345,-0.0014154240514904,0.0014154240428322,-0.001415424042674,0.0014154240516362,2.3724057599266e-13,-2.3836824742543e-13,3.9689652214251e-13,-3.8667265800396e-13,-0.0014549820004372,0.001454982000444,-0.0015049975898488,0.0015049975902731,-0.0015049975901029,0.0015049975900091,-0.0015049975900042,0.0015049975901132,-0.0015049975902583,0.0015049975898494,-0.0014154240468608,0.0014154240474803,-0.0014154240476201,0.0014154240467092,-0.0014154240470625,0.0014154240472709,-0.001415424047516,0.0014154240467861,4.6101070467472e-12,-4.3928567424184e-12,-0.0014549820003322,0.0014549820005498,-2.700385152146e-13,5.0175243651336e-13,-0.0015049975885783,0.0015049975915365,-0.0015049975883203,0.001504997591792,-0.0015049975915821,0.0015049975885357,-0.0015049975913237,0.001504997588791,-0.0014154240513367,0.0014154240430062,-0.0014154240425233,0.0014154240518138,0.66415284317179,0.52502085390236,114808,2744,0.0060439756093968,0.0060439756093998,0.0060439756094012,38.002124141723,38.011589825725,6.4016993133782e-05,6.4016993133782e-05,6.4016993133782e-05,1129386.1090403,0.018298088404091
37819200,0.99957802406625,0.01753654566429,0.0058455152214275,0.0058455152214305,0.005845515221432,-0.0014546085318641,0.0014546085318598,-4.5310871124063e-12,4.5232312053401e-12,-2.3559186383671e-13,2.4015936917848e-13,-0.0015046385242264,0.0015046385210427,-0.0015046385212086,0.0015046385240638,-0.0015046385240715,0.0015046385212036,-0.0015046385210517,0.0015046385242223,-0.0014150434674452,0.0014150434587367,-0.0014150434585785,0.0014150434675909,2.372072828921e-13,-2.3832866039949e-13,3.9687305227127e-13,-3.8664265892041e-13,-0.0014546085318593,0.0014546085318661,-0.001504638522428,0.0015046385228523,-0.0015046385226822,0.0015046385225883,-0.0015046385225835,0.0015046385226924,-0.0015046385228376,0.0015046385224286,-0.0014150434627903,0.0014150434634098,-0.0014150434635497,0.0014150434626389,-0.0014150434629921,0.0014150434632004,-0.0014150434634456,0.0014150434627158,4.6357709686143e-12,-4.4185222230614e-12,-0.0014546085317542,0.0014546085319719,-2.7001469241296e-13,5.017236726862e-13,-0.0015046385211489,0.0015046385241243,-0.001504638520891,0.0015046385243798,-0.0015046385241699,0.0015046385211064,-0.0015046385239115,0.0015046385213616,-0.0014150434672915,0.0014150434589107,-0.0014150434584278,0.0014150434677685,0.64016139743618,0.42608418239384,114808,2744,0.0060424287892074,0.0060424287892104,0.0060424287892118,37.804754412204,37.799332042642,6.2438035297631e-05,6.2438035297631e-05,6.2438035297631e-05,1137324.7123852,0.01829336339357
38019200,0.99960797303039,0.017537037097506,0.0058456790324996,0.0058456790325027,0.0058456790325041,-0.0014541151981745,0.0014541151981707,-4.5564691779943e-12,4.5491714200075e-12,-2.3527567404756e-13,2.403894724431e-13,-0.0015041588512666,0.001504158848066,-0.0015041588482318,0.0015041588511044,-0.0015041588511113,0.001504158848227,-0.0015041588480746,0.001504158851263,-0.0014145463145609,0.0014145463058026,-0.0014145463056441,0.001414546314707,2.3721728258661e-13,-2.3824201598759e-13,3.969506969581e-13,-3.8650066325828e-13,-0.0014541151981697,0.0014541151981767,-0.0015041588494592,0.0015041588498831,-0.0015041588497129,0.0015041588496195,-0.0015041588496144,0.001504158849724,-0.0015041588498687,0.0015041588494601,-0.0014145463098814,0.0014145463105006,-0.0014145463106402,0.0014145463097296,-0.0014145463100827,0.0014145463102911,-0.0014145463105361,0.0014145463098067,4.6612855715137e-12,-4.4443268465126e-12,-0.0014541151980649,0.0014541151982822,-2.7012204207468e-13,5.0156673630403e-13,-0.0015041588481716,0.0015041588511636,-0.0015041588479136,0.0015041588514194,-0.0015041588512097,0.001504158848129,-0.0015041588509512,0.0015041588483839,-0.0014145463144074,0.0014145463059764,-0.0014145463054936,0.0014145463148845,0.6656981201499,0.56333907264343,114808,2744,0.0060403855513248,0.0060403855513273,0.0060403855513288,37.560708951349,37.553742248966,6.0485671610792e-05,6.0485671610792e-05,6.0485671610792e-05,1148293.3381172,0.018287121784775
38219200,0.99963544366193,0.017537491269856,0.0058458304232827,0.0058458304232858,0.0058458304232872,-0.00145365266999,0.0014536526699858,-4.5823757946532e-12,4.5745896059304e-12,-2.3547539657669e-13,2.4011520876284e-13,-0.0015037025295578,0.00150370252634,-0.0015037025265058,0.0015037025293953,-0.0015037025294029,0.0015037025265008,-0.0015037025263489,0.0015037025295537,-0.0014140820912364,0.0014140820824274,-0.0014140820822692,0.0014140820913821,2.3712687358384e-13,-2.382527215429e-13,3.9683164177162e-13,-3.8655754387356e-13,-0.0014536526699852,0.0014536526699921,-0.0015037025277424,0.0015037025281665,-0.0015037025279965,0.0015037025279027,-0.0015037025278978,0.0015037025280068,-0.0015037025281518,0.001503702527743,-0.0014140820865313,0.0014140820871507,-0.0014140820872904,0.0014140820863798,-0.0014140820867331,0.0014140820869412,-0.0014140820871864,0.0014140820864567,4.6870860186218e-12,-4.4698557725038e-12,-0.0014536526698802,0.0014536526700978,-2.6996234107108e-13,5.0165349835939e-13,-0.0015037025264461,0.0015037025294557,-0.0015037025261882,0.0015037025297112,-0.0015037025295013,0.0015037025264036,-0.0015037025292429,0.0015037025266588,-0.0014140820910826,0.0014140820826013,-0.0014140820821184,0.0014140820915596,0.67076169894651,0.59491377284373,114808,2744,0.0060384699521038,0.0060384699521067,0.0060384699521082,37.315184502865,37.308152455291,5.8521476022917e-05,5.8521476022917e-05,5.8521476022917e-05,1151691.5518074,0.018281269926654
38419200,0.99966083285399,0.017537937417268,0.005845979139087,0.00584597913909,0.0058459791390915,-0.0014534428424555,0.0014534428424513,-4.6080279291966e-12,4.6002396703395e-12,-2.354125228081e-13,2.4006223979277e-13,-0.001503495448905,0.0015034954456693,-0.001503495445836,0.0015034954487428,-0.0015034954487496,0.0015034954458303,-0.0015034954456797,0.0015034954489018,-0.001413872621493,0.0014138726126355,-0.0014138726124767,0.0014138726216403,2.3710363899952e-13,-2.3817219459118e-13,3.9678176094251e-13,-3.8653883856264e-13,-0.0014534428424508,0.0014534428424573,-0.001503495447081,0.0015034954475042,-0.0015034954473363,0.0015034954472415,-0.0015034954472356,0.001503495447345,-0.0015034954474912,0.0015034954470812,-0.0014138726167632,0.0014138726173838,-0.0014138726175245,0.0014138726166124,-0.0014138726169651,0.0014138726171744,-0.0014138726174191,0.0014138726166896,4.7124630080781e-12,-4.4957819216542e-12,-0.0014534428423458,0.001453442842563,-2.7013445346023e-13,5.0141444683872e-13,-0.0015034954457756,0.0015034954488023,-0.0015034954455179,0.0015034954490582,-0.0015034954488486,0.0015034954457339,-0.0015034954485903,0.0015034954459877,-0.0014138726213408,0.0014138726128095,-0.0014138726123273,0.0014138726218164,0.71253730542516,0.7925535283193,114808,2744,0.0060376009571807,0.0060376009571833,0.0060376009571848,37.197048658513,37.19360843,5.7576389268101e-05,5.7576389268101e-05,5.7576389268101e-05,1152962.2290473,0.018278615187315
38619200,0.99968445009264,0.017538354610517,0.0058461182035032,0.0058461182035063,0.0058461182035077,-0.0014535024495713,0.0014535024495671,-4.6337449643309e-12,4.6259038813752e-12,-2.3538191712544e-13,2.3998761707244e-13,-0.0015035484749638,0.0015035484717117,-0.0015035484718775,0.0015035484748013,-0.0015035484748089,0.0015035484718725,-0.0015035484717207,0.0015035484749598,-0.0014139346112775,0.0014139346023682,-0.00141393460221,0.0014139346114234,2.3704393494109e-13,-2.3811143174156e-13,3.9679946628397e-13,-3.8649966328883e-13,-0.0014535024495665,0.0014535024495733,-0.0015035484731314,0.0015035484735554,-0.0015035484733855,0.0015035484732916,-0.0015035484732866,0.0015035484733957,-0.0015035484735408,0.001503548473132,-0.0014139346065222,0.0014139346071417,-0.0014139346072816,0.0014139346063709,-0.0014139346067241,0.0014139346069323,-0.0014139346071773,0.0014139346064479,4.7383880396156e-12,-4.521237055782e-12,-0.0014535024494615,0.001453502449679,-2.699438710471e-13,5.0157891240264e-13,-0.0015035484718179,0.0015035484748617,-0.00150354847156,0.0015035484751172,-0.0015035484749074,0.0015035484717754,-0.001503548474649,0.0015035484720305,-0.001413934611124,0.0014139346025421,-0.0014139346020594,0.0014139346116008,0.71625964327671,0.79944244,114808,2744,0.0060378479060877,0.0060378479060906,0.0060378479060921,37.193755088589,37.19360843,5.7550040708714e-05,5.7550040708714e-05,5.7550040708714e-05,1144759.0491409,0.018279369291389
38819200,0.99970642290747,0.017538743985548,0.0058462479951801,0.0058462479951831,0.0058462479951846,-0.0014535665664412,0.0014535665664369,-4.6594348633456e-12,4.6515650589558e-12,-2.3534638351427e-13,2.3990396521619e-13,-0.0015036067904449,0.0015036067871757,-0.0015036067873415,0.0015036067902825,-0.0015036067902901,0.0015036067873365,-0.0015036067871848,0.0015036067904409,-0.0014140003361464,0.0014140003271866,-0.0014140003270285,0.001414000336292,2.3696970191474e-13,-2.3806737426396e-13,3.967554676281e-13,-3.8650183969293e-13,-0.0014535665664364,0.0014535665664432,-0.001503606788604,0.0015036067890279,-0.0015036067888581,0.0015036067887642,-0.0015036067887591,0.0015036067888683,-0.0015036067890133,0.0015036067886046,-0.0014140003313658,0.0014140003319852,-0.001414000332125,0.0014140003312145,-0.0014140003315678,0.0014140003317757,-0.0014140003320208,0.0014140003312915,4.7640932837498e-12,-4.5468815370666e-12,-0.0014535665663313,0.0014535665665489,-2.6990404873423e-13,5.0157679482027e-13,-0.0015036067872819,0.0015036067903428,-0.001503606787024,0.0015036067905983,-0.0015036067903885,0.0015036067872394,-0.0015036067901301,0.0015036067874945,-0.0014140003359927,0.0014140003273605,-0.0014140003268778,0.0014140003364695,0.71844597959622,0.79944244,114808,2744,0.0060381135139347,0.0060381135139376,0.006038113513939,37.19361506284,37.19360843,5.7548920502717e-05,5.7548920502717e-05,5.7548920502717e-05,1137264.4638275,0.01828018047471
38880000,0.99971295406452,0.017538859837873,0.005846286612622,0.005846286612625,0.0058462866126265,-0.0014535858951807,0.0014535858951764,-4.6672340671809e-12,4.6593744523924e-12,-2.353239933435e-13,2.3988809805386e-13,-0.0015036242935523,0.001503624290278,-0.0015036242904437,0.0015036242933899,-0.0015036242933975,0.0015036242904387,-0.001503624290287,0.0015036242935483,-0.0014140201531577,0.0014140201441827,-0.0014140201440246,0.0014140201533034,2.3695764345959e-13,-2.3804102212782e-13,3.9675382061959e-13,-3.8648989888124e-13,-0.0014535858951758,0.0014535858951827,-0.0015036242917088,0.0015036242921327,-0.0015036242919629,0.001503624291869,-0.0015036242918639,0.0015036242919731,-0.0015036242921181,0.0015036242917094,-0.0014140201483695,0.001414020148989,-0.0014140201491288,0.0014140201482183,-0.0014140201485715,0.0014140201487795,-0.0014140201490245,0.0014140201482953,4.771886986834e-12,-4.5546961512767e-12,-0.0014535858950708,0.0014535858952884,-2.6990434284289e-13,5.0156355993047e-13,-0.0015036242903841,0.0015036242934503,-0.0015036242901262,0.0015036242937057,-0.0015036242934959,0.0015036242903416,-0.0015036242932375,0.0015036242905967,-0.0014140201530041,0.0014140201443566,-0.0014140201438739,0.0014140201534809,0.71909628262905,0.79944244,114808,2744,0.0060381935818542,0.0060381935818571,0.0060381935818586,37.193609335239,37.19360843,5.7548874681912e-05,5.7548874681912e-05,5.7548874681912e-05,1134954.9405644,0.018280425015792
