time,ASR_ext,ASR_strain,ASR_strain_xx,ASR_strain_yy,ASR_strain_zz,disp_x_101,disp_x_102,disp_x_103,disp_x_104,disp_x_105,disp_x_106,disp_x_p1_neg,disp_x_p1_pos,disp_x_p2_neg,disp_x_p2_pos,disp_x_p3_neg,disp_x_p3_pos,disp_x_p4_neg,disp_x_p4_pos,disp_x_p5_neg,disp_x_p5_pos,disp_x_p6_neg,disp_x_p6_pos,disp_y_101,disp_y_102,disp_y_103,disp_y_104,disp_y_105,disp_y_106,disp_y_p1_neg,disp_y_p1_pos,disp_y_p2_neg,disp_y_p2_pos,disp_y_p3_neg,disp_y_p3_pos,disp_y_p4_neg,disp_y_p4_pos,disp_y_p5_neg,disp_y_p5_pos,disp_y_p6_neg,disp_y_p6_pos,disp_y_p7_neg,disp_y_p7_pos,disp_y_p8_neg,disp_y_p8_pos,disp_z_101,disp_z_102,disp_z_103,disp_z_104,disp_z_105,disp_z_106,disp_z_p1_neg,disp_z_p1_pos,disp_z_p2_neg,disp_z_p2_pos,disp_z_p3_neg,disp_z_p3_pos,disp_z_p4_neg,disp_z_p4_pos,disp_z_p5_neg,disp_z_p5_pos,disp_z_p6_neg,disp_z_p6_pos,humidity,humidity_bc,ndof,nelem,strain_xx,strain_yy,strain_zz,temp,temp_bc,thermal_strain_xx,thermal_strain_yy,thermal_strain_zz,vonmises,vstrain
2419200,0,0,0,0,0,0,0,0,0,0,0,0,0,0,0,0,0,0,0,0,0,0,0,0,0,0,0,0,0,0,0,0,0,0,0,0,0,0,0,0,0,0,0,0,0,0,0,0,0,0,0,0,0,0,0,0,0,0,0,0,0,0,0,0,0,0,0,0,0,0,0,0,0,0,0,0,0
2619200,0.019470334879653,0.00039944519671292,0.00013314839890431,0.00013314839890431,0.00013314839890431,-3.4800288047279e-05,3.4800288046454e-05,-1.0345914982598e-15,2.7963613935063e-16,9.3626661397749e-16,-1.7322809494914e-15,-3.4037419175908e-05,3.4037419175354e-05,-3.4037419175433e-05,3.4037419175888e-05,-3.403741917679e-05,3.403741917451e-05,-3.403741917629e-05,3.4037419175031e-05,-3.5429974767682e-05,3.5429974764995e-05,-3.5429974766884e-05,3.5429974766592e-05,-8.4456427267061e-16,1.8241446412804e-15,-1.3479790407538e-15,2.1997471374702e-15,-3.4800288046419e-05,3.4800288047308e-05,-3.4037419176573e-05,3.4037419175396e-05,-3.4037419175391e-05,3.4037419176578e-05,-3.4037419175791e-05,3.4037419176338e-05,-3.4037419174589e-05,3.4037419177461e-05,-3.5429974767128e-05,3.5429974765556e-05,-3.5429974763729e-05,3.5429974768944e-05,-3.5429974765952e-05,3.5429974765661e-05,-3.5429974763019e-05,3.5429974767904e-05,-6.7441413975803e-17,-1.3829871624562e-15,-3.4800288047532e-05,3.4800288046198e-05,1.1179198924323e-15,-2.3968734683373e-15,-3.4037419175869e-05,3.4037419176229e-05,-3.4037419177016e-05,3.4037419175033e-05,-3.4037419176388e-05,3.4037419175771e-05,-3.403741917756e-05,3.4037419174577e-05,-3.542997476763e-05,3.5429974763679e-05,-3.5429974766721e-05,3.5429974765049e-05,0.81992963321665,0.89147349669472,114808,2744,0.00014499063670944,0.00014499063670943,0.00014499063670943,31.480269625869,32.065354619266,1.1842157006954e-05,1.1842157006954e-05,1.1842157006954e-05,408496.75526679,0.0004350667450018
2819200,0.041066555192042,0.00083774663601675,0.00027924887867255,0.00027924887867213,0.00027924887867208,-7.227241571925e-05,7.2272415873198e-05,8.3423599731458e-14,7.1213038131566e-14,-1.5243731727646e-13,3.1103657709019e-13,-7.152097724645e-05,7.1520977251547e-05,-7.1520977251722e-05,7.1520977248352e-05,-7.1520977098591e-05,7.1520977406595e-05,-7.1520977102685e-05,7.1520977402512e-05,-7.303823412779e-05,7.303823444127e-05,-7.3038234133623e-05,7.3038234427168e-05,1.5177008411634e-13,-3.1168669877354e-13,1.8218078009046e-13,-3.3760702457244e-13,-7.2272415873417e-05,7.2272415719086e-05,-7.1520977148826e-05,7.1520977319423e-05,-7.1520977316159e-05,7.1520977145084e-05,-7.1520977297131e-05,7.1520977164061e-05,-7.1520977464145e-05,7.1520976990473e-05,-7.3038234197607e-05,7.3038234395394e-05,-7.3038234691292e-05,7.3038233882486e-05,-7.3038234265446e-05,7.3038234391461e-05,-7.3038234722681e-05,7.3038233928523e-05,7.9562023478914e-14,9.1793272984402e-14,-7.2272415710286e-05,7.2272415882197e-05,-1.6733008303376e-13,3.476133218281e-13,-7.1520977233095e-05,7.152097722712e-05,-7.1520977061281e-05,7.1520977397566e-05,-7.1520977228931e-05,7.1520977231554e-05,-7.1520977057942e-05,7.152097740147e-05,-7.3038234146583e-05,7.3038234502298e-05,-7.3038234151362e-05,7.3038234488776e-05,0.82138486856175,0.8908132454491,114808,2744,0.00030108965973444,0.00030108965973455,0.00030108965973451,32.731670840042,32.775735335572,2.185336672034e-05,2.185336672034e-05,2.185336672034e-05,250735.69083529,0.00090367734372731
3019200,0.062567339440059,0.0012752255844927,0.00042507519481268,0.00042507519483944,0.00042507519484059,-0.00010682097861214,0.00010682097879995,1.0637299325491e-13,8.0683745106366e-14,-2.9585904791954e-13,4.9312096674296e-13,-0.00010594473813132,0.00010594473806737,-0.00010594473814169,0.00010594473806063,-0.00010594473787989,0.00010594473833134,-0.0001059447378883,0.00010594473832288,-0.00010779971881941,0.00010779971928809,-0.00010779971884094,0.00010779971926167,2.9529440175284e-13,-4.9359403133528e-13,3.8600296155096e-13,-5.7348030409977e-13,-0.00010682097880666,0.00010682097861843,-0.00010594473790959,0.00010594473829727,-0.00010594473821803,0.00010594473797575,-0.000105944738162,0.00010594473803389,-0.00010594473847004,0.00010594473771277,-0.00010779971882499,0.00010779971931554,-0.00010779971974835,0.00010779971836512,-0.00010779971895782,0.00010779971922305,-0.00010779971973153,0.0001077997184339,1.036224943304e-13,1.2941040689502e-13,-0.00010682097859538,0.00010682097883026,-3.5153755488665e-13,5.9955973533223e-13,-0.00010594473814388,0.00010594473805041,-0.00010594473782694,0.00010594473836573,-0.00010594473813584,0.00010594473805981,-0.00010594473781942,0.00010594473837459,-0.00010779971879804,0.00010779971937477,-0.00010779971881649,0.00010779971934607,0.8201332137925,0.87828479112878,114808,2744,0.00044498827467972,0.00044498827470679,0.00044498827470794,32.492162183983,32.486188633319,1.9937297471866e-05,1.9937297471866e-05,1.9937297471866e-05,258834.86429338,0.0013358567411602
3219200,0.083858238548196,0.0017014356544923,0.00056714521814509,0.0005671452181729,0.00056714521817427,-0.0001403824500086,0.00014038245019258,1.1086517840225e-13,7.1654471391114e-14,-4.0242645484835e-13,5.9799082737894e-13,-0.00013953646072782,0.00013953646059493,-0.00013953646074341,0.00013953646058434,-0.00013953646040833,0.00013953646092958,-0.00013953646042134,0.00013953646091668,-0.00014137225648149,0.00014137225702949,-0.00014137225651765,0.0001413722569909,4.019635144082e-13,-5.9840352065379e-13,5.682626326137e-13,-7.5118343421466e-13,-0.00014038245019955,0.00014038245001508,-0.00013953646038018,0.00013953646095935,-0.00013953646080497,0.00013953646051776,-0.00013953646070098,0.00013953646062569,-0.00013953646112553,0.00013953646018437,-0.00014137225638442,0.00014137225716325,-0.00014137225765881,0.00014137225585574,-0.00014137225660991,0.00014137225696833,-0.00014137225759116,0.00014137225596771,1.092392124494e-13,1.4854069012506e-13,-0.00014038244997735,0.00014038245023796,-5.1571881867351e-13,7.9305879465703e-13,-0.00013953646075821,0.00013953646056637,-0.00013953646032201,0.00013953646100044,-0.0001395364607459,0.00013953646058055,-0.00013953646031017,0.0001395364610142,-0.00014137225641842,0.00014137225715261,-0.00014137225644952,0.00014137225710965,0.80675910503422,0.81135500028467,114808,2744,0.00058475574789704,0.00058475574792507,0.0005847557479265,32.204785063341,32.196641931066,1.7638280506727e-05,1.7638280506727e-05,1.7638280506727e-05,184615.2447112,0.0017558073522297
3419200,0.10491469748433,0.002113141806554,0.00070438060216554,0.00070438060219354,0.00070438060219494,-0.00017278480380536,0.00017278480396864,1.0704772149353e-13,5.4319796801697e-14,-4.7307618766797e-13,6.4915026816961e-13,-0.00017219613082605,0.00017219613063646,-0.00017219613084667,0.00017219613062189,-0.00017219613046649,0.00017219613101189,-0.00017219613048412,0.00017219613099456,-0.00017349288216437,0.00017349288274506,-0.00017349288221456,0.00017349288269386,4.7265076672587e-13,-6.495332013242e-13,7.2161049205951e-13,-8.8337214594025e-13,-0.00017278480397567,0.00017278480381189,-0.00017219613037411,0.00017219613110852,-0.00017219613089186,0.00017219613057176,-0.00017219613073521,0.00017219613073432,-0.00017219613125272,0.0001721961301978,-0.00017349288195441,0.0001734928829946,-0.00017349288350697,0.00017349288140379,-0.00017349288228474,0.00017349288268991,-0.00017349288338599,0.0001734928815674,1.043657933143e-13,1.5718460620641e-13,-0.00017278480376154,0.00017278480402671,-6.5358663631808e-13,9.3866453767799e-13,-0.00017219613087662,0.00017219613058983,-0.00017219613034581,0.00017219613111826,-0.00017219613085999,0.00017219613060865,-0.00017219613032959,0.00017219613113669,-0.00017349288206103,0.00017349288290695,-0.00017349288210493,0.00017349288285007,0.78589833578696,0.71413774128887,114808,2744,0.00071967756543988,0.00071967756546811,0.00071967756546952,31.915333890811,31.907095228813,1.5322671126489e-05,1.5322671126489e-05,1.5322671126489e-05,126798.11371534,0.0021613653834951
3619200,0.12624696309526,0.0025213651309529,0.00084045504363041,0.00084045504366052,0.00084045504366202,-0.00020561399481248,0.00020561399496491,1.0815792712255e-13,4.1915561807876e-14,-4.825142532162e-13,6.4946369793278e-13,-0.00020547775014326,0.00020547774994399,-0.00020547775016913,0.00020547774992566,-0.00020547774978152,0.00020547775032322,-0.0002054777498037,0.00020547775030146,-0.00020584295987327,0.00020584296045896,-0.00020584295993701,0.00020584296039485,4.8209486792094e-13,-6.4983979489916e-13,8.1207538283096e-13,-9.625206838891e-13,-0.00020561399497245,0.00020561399481952,-0.00020547774965431,0.00020547775045807,-0.00020547775022521,0.00020547774986414,-0.00020547775001796,0.00020547775008042,-0.00020547775058861,0.00020547774948672,-0.00020584295958101,0.00020584296079561,-0.00020584296129525,0.00020584295903418,-0.000205842960015,0.00020584296038368,-0.00020584296112473,0.00020584295924973,1.1318703486084e-13,1.795267692569e-13,-0.00020561399474765,0.00020561399504505,-7.1799234523847e-13,1.0403577692549e-12,-0.00020547775020462,0.00020547774988914,-0.00020547774961844,0.00020547775047265,-0.00020547775018364,0.00020547774991264,-0.00020547774959787,0.00020547775049575,-0.00020584295972297,0.00020584296066883,-0.00020584295977957,0.00020584296059816,0.77011572307067,0.64656198526755,114808,2744,0.00085635815398348,0.00085635815401382,0.00085635815401533,31.993664713803,31.995733577634,1.5949317710426e-05,1.5949317710426e-05,1.5949317710426e-05,301899.1277457,0.0025723774419558
3819200,0.14818877039814,0.002938559660238,0.00097951988672504,0.00097951988675571,0.00097951988675723,-0.00023964340011607,0.00023964340029753,1.2946165418055e-13,4.9702102340888e-14,-4.4916353921927e-13,6.4568009476926e-13,-0.00024004321198943,0.00024004321183571,-0.00024004321202002,0.00024004321181309,-0.00024004321164063,0.00024004321220312,-0.00024004321166705,0.0002400432121766,-0.0002394049181404,0.00023940491875604,-0.00023940491821702,0.00023940491867837,4.4872890193418e-13,-6.4607035122955e-13,8.4506980134471e-13,-1.0246250734073e-12,-0.0002396434003052,0.00023964340012324,-0.00024004321152971,0.00024004321232333,-0.0002400432121297,0.00024004321169664,-0.00024004321188068,0.00024004321195774,-0.0002400432124804,0.00024004321133128,-0.00023940491782644,0.0002394049191171,-0.00023940491963021,0.00023940491725959,-0.00023940491834634,0.00023940491861656,-0.00023940491941837,0.00023940491751912,1.6790128249578e-13,2.4776004507128e-13,-0.00023964340000432,0.00023964340042486,-7.0086668459212e-13,1.1498838424262e-12,-0.00024004321203052,0.00024004321180176,-0.00024004321141386,0.00024004321241587,-0.00024004321200495,0.00024004321182971,-0.00024004321138874,0.0002400432124434,-0.0002394049179216,0.0002394049190343,-0.0002394049179915,0.00023940491895051,0.77140158091993,0.66302364648837,114808,2744,0.00099801593133218,0.00099801593136306,0.00099801593136459,32.324185265087,32.333484921876,1.8593482120696e-05,1.8593482120696e-05,1.8593482120696e-05,434473.81056154,0.0029985344883984
4019200,0.17072955069957,0.0033657311326916,0.0011219103775427,0.0011219103775737,0.0011219103775752,-0.0002744905890023,0.00027449058919334,1.4108793319688e-13,4.7810347589613e-14,-4.2115235836361e-13,6.2706946662e-13,-0.00027548190785714,0.00027548190773254,-0.00027548190789224,0.00027548190770552,-0.00027548190752351,0.00027548190808476,-0.00027548190755418,0.00027548190805349,-0.00027378553945678,0.00027378554007984,-0.00027378553954651,0.00027378553998891,4.2073274984447e-13,-6.2744880245802e-13,8.7283085032254e-13,-1.0621561547997e-12,-0.0002744905892011,0.00027449058900953,-0.00027548190741422,0.00027548190820466,-0.00027548190803462,0.00027548190755536,-0.00027548190775014,0.00027548190785441,-0.00027548190837015,0.00027548190720531,-0.00027378553911276,0.00027378554047258,-0.00027378554097833,0.00027378553854944,-0.00027378553970506,0.00027378553989747,-0.00027378554073088,0.00027378553884669,2.1056560045368e-13,3.0394232506472e-13,-0.00027449058884595,0.00027449058936541,-6.8188506593812e-13,1.2321234624152e-12,-0.00027548190787669,0.00027548190772038,-0.00027548190723913,0.0002754819083555,-0.00027548190784651,0.00027548190775279,-0.00027548190720944,0.00027548190838746,-0.00027378553917528,0.00027378554042083,-0.00027378553925853,0.00027378554032394,0.77299482351428,0.6794853077092,114808,2744,0.0011430571420322,0.0011430571420634,0.0011430571420649,32.661626991332,32.671236266119,2.1293015930658e-05,2.1293015930658e-05,2.1293015930658e-05,512266.30081371,0.0034350579815443
4219200,0.193843077112,0.003803630120329,0.0012678767067551,0.0012678767067862,0.0012678767067877,-0.0003102045972075,0.00031020459739551,1.4642846214298e-13,3.9635271045825e-14,-3.9863986997876e-13,6.0091481158264e-13,-0.00031180743901476,0.00031180743890754,-0.00031180743905435,0.00031180743887593,-0.00031180743869668,0.00031180743924368,-0.00031180743873165,0.0003118074392077,-0.00030904224077959,0.00030904224139703,-0.0003090422408821,0.00030904224129235,3.9821204077785e-13,-6.0129539554429e-13,8.9360605388963e-13,-1.0800784308159e-12,-0.00031020459740329,0.00031020459721476,-0.00031180743858026,0.00031180743937078,-0.000311807439213,0.00031180743870805,-0.00031180743890075,0.00031180743903666,-0.00031180743953313,0.00031180743837417,-0.0003090422404047,0.00030904224182129,-0.00030904224230713,0.00030904223985962,-0.00030904224105342,0.00030904224118792,-0.00030904224203162,0.00030904224018603,2.4255778855547e-13,3.4945568466283e-13,-0.00031020459701098,0.0003102045976078,-6.6122056487151e-13,1.2900917944636e-12,-0.00031180743901279,0.00031180743891624,-0.00031180743836299,0.00031180743956382,-0.00031180743897804,0.00031180743895305,-0.00031180743832873,0.00031180743960019,-0.00030904224044331,0.00030904224179202,-0.00030904224054011,0.00030904224168224,0.77488670438756,0.69594696893002,114808,2744,0.00129168437522,0.0012916843752513,0.0012916843752529,32.999360855637,33.008987610361,2.3994886845092e-05,2.3994886845092e-05,2.3994886845092e-05,551163.95487693,0.0038825713759087
4419200,0.2178970520642,0.0042596319471937,0.0014198773157099,0.0014198773157411,0.0014198773157426,-0.00034786796793739,0.00034786796811562,1.4839603760475e-13,2.8084332630577e-14,-3.8214219762999e-13,5.7389976922658e-13,-0.00035009235967361,0.00035009235957533,-0.00035009235971754,0.00035009235953904,-0.0003500923593692,0.00035009235989697,-0.00035009235940849,0.0003500923598563,-0.00034625154884746,0.00034625154945419,-0.0003462515489628,0.00034625154933586,3.8170626560619e-13,-5.7428535303549e-13,9.0097887277272e-13,-1.0778698659331e-12,-0.00034786796812342,0.00034786796794467,-0.00035009235924433,0.00035009236003239,-0.000350092359879,0.00035009235936761,-0.00035009235955116,0.00035009235971277,-0.00035009236018547,0.00035009235904825,-0.00034625154845264,0.00034625154989813,-0.0003462515503601,0.00034625154793166,-0.00034625154913268,0.00034625154923252,-0.0003462515500686,0.00034625154827449,2.636326079695e-13,3.8405075280724e-13,-0.00034786796770829,0.00034786796836051,-6.3549652719379e-13,1.320157420097e-12,-0.00035009235965132,0.00035009235960375,-0.00035009235900017,0.00035009236025285,-0.00035009235961198,0.00035009235964498,-0.00035009235896133,0.00035009236029364,-0.00034625154847038,0.00034625154988937,-0.00034625154858071,0.00034625154976665,0.77612065565287,0.70796919803802,114808,2744,0.0014484001173726,0.001448400117404,0.0014484001174055,33.592658963792,33.609469705379,2.8741271710333e-05,2.8741271710333e-05,2.8741271710333e-05,567704.54911227,0.0043546553491102
4619200,0.24302876423845,0.0047365552573174,0.0015788517524178,0.001578851752449,0.0015788517524505,-0.00038742231533909,0.00038742231549988,1.4657053914454e-13,1.273870275314e-14,-3.7390553240588e-13,5.4734845167463e-13,-0.0003902782553498,0.00039027825525007,-0.00039027825539772,0.00039027825520875,-0.00039027825505614,0.00039027825555989,-0.00039027825509969,0.00039027825551448,-0.00038534843753085,0.0003853484381222,-0.00038534843765856,0.00038534843798976,3.7346228216011e-13,-5.477403845543e-13,9.0776894475244e-13,-1.0674840361543e-12,-0.00038742231550768,0.00038742231534636,-0.00039027825491654,0.00039027825570959,-0.00039027825555047,0.00039027825504603,-0.0003902782552125,0.00039027825540164,-0.00039027825584607,0.00039027825473835,-0.00038534843711485,0.00038534843858544,-0.00038534843902008,0.00038534843662386,-0.00038534843781535,0.00038534843789981,-0.00038534843871785,0.00038534843697708,2.6479224901385e-13,3.9873110580312e-13,-0.00038742231509377,0.00038742231576098,-6.2677499951282e-13,1.3255258443306e-12,-0.00039027825532064,0.00039027825528448,-0.00039027825467065,0.00039027825593263,-0.00039027825527669,0.00039027825533012,-0.0003902782546272,0.00039027825597783,-0.0003853484371316,0.00038534843857842,-0.00038534843725558,0.00038534843844291,0.77693644222184,0.71700962800632,114808,2744,0.0016129576874107,0.0016129576874421,0.0016129576874435,34.290133708262,34.309995823094,3.4321069666099e-05,3.4321069666099e-05,3.4321069666099e-05,571987.29788619,0.0048506007163672
4819200,0.26920601206116,0.0052342061386436,0.0017447353795266,0.0017447353795578,0.0017447353795592,-0.0004286780310276,0.00042867803117496,1.4670041362365e-13,-6.531726873371e-16,-3.6891106343017e-13,5.2836976307819e-13,-0.00043217918882416,0.00043217918872345,-0.00043217918887609,0.00043217918867713,-0.000432179188538,0.00043217918902509,-0.00043217918858577,0.00043217918897488,-0.00042615460096054,0.00042615460154394,-0.00042615460110051,0.00042615460139729,3.6846686123737e-13,-5.2876134670382e-13,9.0829204641911e-13,-1.0547446459221e-12,-0.00042867803118275,0.00042867803103487,-0.0004321791883893,0.00043217918918367,-0.00043217918901906,0.00043217918852425,-0.00043217918867764,0.00043217918888381,-0.00043217918930705,0.00043217918822465,-0.00042615460053493,0.00042615460201495,-0.00042615460242934,0.0004261546000661,-0.0004261546012432,0.00042615460132189,-0.00042615460212275,0.00042615460042324,2.6338771103917e-13,4.10847823881e-13,-0.00042867803077061,0.00042867803144772,-6.1612686892355e-13,1.3241698710488e-12,-0.00043217918878961,0.00043217918876258,-0.00043217918814374,0.00043217918940676,-0.00043217918874109,0.00043217918881265,-0.00043217918809571,0.00043217918945639,-0.00042615460054673,0.0004261546020134,-0.00042615460068425,0.00042615460186494,0.77792177195601,0.72605005797462,114808,2744,0.0017845645960561,0.0017845645960874,0.0017845645960889,34.990514703047,35.01052194081,3.9924117624373e-05,3.9924117624373e-05,3.9924117624373e-05,556589.6390098,0.0053680523426721
5019200,0.29637826192245,0.0057506549416767,0.0019168849805376,0.0019168849805688,0.0019168849805703,-0.00047145391614739,0.00047145391628377,1.4802927422273e-13,-1.2846680899794e-14,-3.6515497036948e-13,5.1325584979787e-13,-0.00047562530791179,0.00047562530781088,-0.00047562530796782,0.00047562530775964,-0.00047562530763153,0.00047562530810606,-0.00047562530768359,0.00047562530805113,-0.00046846047536017,0.00046846047593972,-0.00046846047551245,0.00046846047577886,3.647035644388e-13,-5.1365344059292e-13,9.05620760378e-13,-1.0412195591043e-12,-0.00047145391629156,0.00047145391615464,-0.00047562530747679,0.00047562530827045,-0.00047562530810124,0.0004756253076165,-0.00047562530775913,0.00047562530797695,-0.00047562530838323,0.00047562530732326,-0.00046846047493109,0.00046846047641259,-0.00046846047681055,0.00046846047448004,-0.0004684604756412,0.00046846047571794,-0.00046846047650262,0.00046846047483815,2.60039350094e-13,4.2102175572142e-13,-0.00047145391588185,0.00047145391656507,-6.0529746446031e-13,1.3190202930708e-12,-0.0004756253078735,0.00047562530785324,-0.00047562530723301,0.00047562530849212,-0.00047562530782043,0.00047562530790778,-0.00047562530718044,0.00047562530854621,-0.00046846047493649,0.00046846047641774,-0.0004684604750875,0.00046846047625625,0.77677323986199,0.72436448347241,114808,2744,0.0019624636812243,0.0019624636812556,0.001962463681257,35.691018939008,35.711048058525,4.5528151512067e-05,4.5528151512067e-05,4.5528151512067e-05,551292.19052291,0.0059047583489998
5219200,0.32384696214329,0.0062743096517113,0.0020914365505492,0.0020914365505803,0.0020914365505818,-0.00051411169925241,0.00051411169938086,1.5085352663861e-13,-2.3545767222156e-14,-3.6284299173988e-13,5.0278876882471e-13,-0.00051891877380749,0.00051891877370743,-0.00051891877386772,0.00051891877365136,-0.00051891877353122,0.00051891877399823,-0.00051891877358763,0.00051891877393863,-0.00051069602089956,0.00051069602148019,-0.00051069602106433,0.00051069602130537,3.6239345854036e-13,-5.0318370161273e-13,8.9891049478378e-13,-1.0266210050801e-12,-0.00051411169938865,0.00051411169925966,-0.00051891877337426,0.0005189187741646,-0.00051891877399188,0.00051891877351781,-0.00051891877365255,0.0005189187738754,-0.0005189187742698,0.00051891877322888,-0.00051069602047469,0.00051069602194763,-0.00051069602233391,0.00051069602003629,-0.00051069602117932,0.00051069602125867,-0.00051069602202844,0.00051069602039164,2.5507497969328e-13,4.2958064866488e-13,-0.00051411169898137,0.00051411169966765,-5.9341428336569e-13,1.3098246328154e-12,-0.00051891877376672,0.00051891877375192,-0.00051891877313326,0.00051891877438381,-0.00051891877370913,0.00051891877381095,-0.00051891877307616,0.00051891877444239,-0.00051069602047116,0.00051069602196203,-0.00051069602063547,0.00051069602178738,0.7785555062507,0.73634261842785,114808,2744,0.0021398400874145,0.0021398400874458,0.0021398400874473,36.021706827716,36.031329417267,4.8173654621731e-05,4.8173654621731e-05,4.8173654621731e-05,525620.64725748,0.0064401727389977
5419200,0.35140387894603,0.006794253690354,0.0022647512300968,0.0022647512301279,0.0022647512301294,-0.00055633726115443,0.0005563372612764,1.5438789522857e-13,-3.3534633197374e-14,-3.6072219471236e-13,4.9402060653899e-13,-0.00056190214286531,0.00056190214276687,-0.00056190214292976,0.00056190214270609,-0.00056190214259245,0.00056190214305396,-0.0005619021426532,0.00056190214298971,-0.00055235125043516,0.00055235125101901,-0.00055235125061261,0.00055235125083026,3.6026993517725e-13,-4.9444621853684e-13,8.9082602117066e-13,-1.0120781699419e-12,-0.00055633726128418,0.00055633726116165,-0.000561902142435,0.00056190214322074,-0.00056190214304535,0.00056190214258149,-0.00056190214270978,0.00056190214293518,-0.0005619021433197,0.00056190214229625,-0.00055235125001731,0.00055235125147815,-0.00055235125185483,0.00055235124958943,-0.000552351250714,0.00055235125079669,-0.00055235125155261,0.00055235124994061,2.4832350212276e-13,4.3635049332136e-13,-0.00055633726088037,0.00055633726156617,-5.8264870048215e-13,1.2982346633516e-12,-0.00056190214282413,0.00056190214281167,-0.00056190214219804,0.00056190214343606,-0.0005619021427619,0.00056190214287522,-0.00056190214213646,0.0005619021434992,-0.00055235125000475,0.0005523512515012,-0.00055235125018235,0.00055235125131336,0.76958001698354,0.69714498381277,114808,2744,0.0023153881852802,0.0023153881853114,0.0023153881853129,36.274883949959,36.282165972326,5.0199071599674e-05,5.0199071599674e-05,5.0199071599674e-05,584248.72606288,0.0069703493881309
5619200,0.37896213039307,0.0072903081131465,0.0024301027043609,0.0024301027043921,0.0024301027043935,-0.00059683066313155,0.00059683066324878,1.587857824754e-13,-4.2659059817753e-14,-3.5947160050677e-13,4.8791956865681e-13,-0.00060374851783026,0.00060374851773405,-0.00060374851789886,0.00060374851766839,-0.00060374851755967,0.00060374851801857,-0.00060374851762476,0.00060374851794963,-0.00059168037388412,0.00059168037447402,-0.00059168037407381,0.00059168037427107,3.590171205087e-13,-4.8834072858478e-13,8.8185108946631e-13,-9.9839405857037e-13,-0.00059683066325657,0.00059683066313878,-0.00060374851740359,0.00060374851818399,-0.00060374851800629,0.00060374851755238,-0.00060374851767601,0.0006037485179009,-0.0006037485182783,0.00060374851726958,-0.00059168037347615,0.00059168037492221,-0.00059168037529181,0.00059168037305555,-0.00059168037416296,0.00059168037425072,-0.00059168037499438,0.00059168037340187,2.3886095296185e-13,4.4040760467351e-13,-0.00059683066285814,0.00059683066353793,-5.7464944485392e-13,1.2839643934162e-12,-0.00060374851779168,0.00060374851777597,-0.00060374851717306,0.00060374851839298,-0.00060374851772499,0.000603748517844,-0.00060374851710695,0.00060374851846059,-0.00059168037345617,0.00059168037495284,-0.00059168037364706,0.00059168037475182,0.73637047139469,0.54647744867083,114808,2744,0.0024837056311048,0.0024837056311361,0.0024837056311375,36.525818858942,36.533002527384,5.2206550871536e-05,5.2206550871536e-05,5.2206550871536e-05,860869.62419911,0.0074789530349909
5819200,0.40643290396511,0.0077634392354877,0.0025878130784746,0.0025878130785058,0.0025878130785073,-0.00063620100062903,0.00063620100074406,1.6443408097155e-13,-5.053168164797e-14,-3.5709680675799e-13,4.8331680853267e-13,-0.00064488715634442,0.00064488715625283,-0.00064488715641733,0.00064488715618246,-0.00064488715607603,0.00064488715653497,-0.00064488715614552,0.00064488715646143,-0.00062957817125513,0.0006295781718537,-0.00062957817145713,0.00062957817163661,3.5664513414773e-13,-4.8373301640604e-13,8.7138214457951e-13,-9.8570132867749e-13,-0.00063620100075183,0.00063620100063624,-0.00064488715592397,0.00064488715669651,-0.00064488715651884,0.00064488715607259,-0.00064488715619415,0.00064488715641574,-0.00064488715678861,0.00064488715579211,-0.00062957817086011,0.00062957817228821,-0.00062957817265293,0.00062957817044373,-0.00062957817153601,0.00062957817162683,-0.00062957817236053,0.00062957817078487,2.3024724551646e-13,4.4531364597379e-13,-0.00063620100035657,0.00063620100103221,-5.6521267431725e-13,1.2704935696465e-12,-0.00064488715630869,0.00064488715629183,-0.00064488715569772,0.0006448871569012,-0.00064488715623751,0.00064488715636437,-0.0006448871556271,0.00064488715697331,-0.00062957817082999,0.00062957817232841,-0.00062957817103409,0.00062957817211414,0.71317582473888,0.45191892595528,114808,2744,0.0026473271990235,0.0026473271990547,0.0026473271990561,36.776657896583,36.783839082443,5.4213263172664e-05,5.4213263172664e-05,5.4213263172664e-05,991046.43217072,0.0079736163016113
6019200,0.43334152400723,0.0082178007765282,0.0027392669254881,0.0027392669255193,0.0027392669255208,-0.00067415410032552,0.00067415410043998,1.7089020818983e-13,-5.7594096209702e-14,-3.5315127710164e-13,4.7880408609913e-13,-0.00068461749605983,0.00068461749597495,-0.00068461749613725,0.00068461749590007,-0.00068461749579412,0.00068461749625428,-0.00068461749586815,0.00068461749617625,-0.00066600718217704,0.00066600718278543,-0.00066600718239207,0.00066600718255489,3.5270125463054e-13,-4.7921712495166e-13,8.5866068027033e-13,-9.7237479461749e-13,-0.00067415410044774,0.00067415410033272,-0.00068461749564808,0.00068461749640985,-0.00068461749623448,0.00068461749579459,-0.00068461749591556,0.00068461749613188,-0.00068461749650156,0.0006846174955169,-0.00066600718179793,0.00066600718320395,-0.000666007183565,0.00066600718138477,-0.00066600718246202,0.00066600718255378,-0.00066600718327813,0.00066600718172019,2.2368309310564e-13,4.5226719825342e-13,-0.00067415410005259,0.00067415410072857,-5.5195752042957e-13,1.2577199598715e-12,-0.00068461749602524,0.00068461749601287,-0.0006846174954229,0.00068461749661359,-0.00068461749594958,0.00068461749608993,-0.0006846174953478,0.00068461749669022,-0.00066600718175413,0.00066600718325738,-0.0006660071819714,0.00066600718302981,0.70261521838015,0.42208439038852,114808,2744,0.0028050330221164,0.0028050330221474,0.0028050330221489,36.775450594736,36.775527870775,5.4203604757888e-05,5.4203604757888e-05,5.4203604757888e-05,952416.72098796,0.0084506273382567
6219200,0.45962107431249,0.0086661518671992,0.0028887172890451,0.0028887172890763,0.0028887172890778,-0.00071147708703093,0.00071147708714489,1.7739081612645e-13,-6.4608397121788e-14,-3.4856377716734e-13,4.7365882784206e-13,-0.00072349904180689,0.0007234990417292,-0.00072349904188886,0.00072349904164985,-0.00072349904154428,0.0007234990420053,-0.00072349904162286,0.00072349904192282,-0.00070203519593944,0.00070203519655733,-0.00070203519616789,0.00070203519631377,3.4810665969814e-13,-4.7407875251365e-13,8.4403865637489e-13,-9.5720949320116e-13,-0.00071147708715263,0.00071147708703812,-0.00072349904140483,0.00072349904215424,-0.00072349904198177,0.0007234990415489,-0.00072349904166923,0.00072349904187949,-0.00072349904224576,0.00072349904127443,-0.00070203519557778,0.00070203519695828,-0.00070203519731562,0.00070203519516849,-0.00070203519622864,0.00070203519632124,-0.00070203519703519,0.00070203519549741,2.172926706816e-13,4.5939126002999e-13,-0.00071147708675731,0.00071147708743414,-5.3665995834783e-13,1.2432003152014e-12,-0.0007234990417728,0.00072349904176674,-0.00072349904118033,0.00072349904235759,-0.00072349904169263,0.00072349904184832,-0.00072349904110072,0.00072349904243873,-0.00070203519551918,0.00070203519702638,-0.00070203519574964,0.00070203519678559,0.70745490408354,0.46557179585039,114808,2744,0.0029600961624554,0.0029600961624865,0.0029600961624879,36.758816902852,36.758350165794,5.4070535222818e-05,5.4070535222818e-05,5.4070535222818e-05,869466.97110982,0.0089198659576648
6419200,0.48522839985543,0.0091016881669968,0.0030338960556443,0.0030338960556755,0.003033896055677,-0.00074760721179153,0.00074760721190443,1.8360390848986e-13,-7.1909022495727e-14,-3.4395315888483e-13,4.6793414243315e-13,-0.00076116607745296,0.00076116607738209,-0.00076116607753947,0.00076116607729826,-0.00076116607719362,0.00076116607765476,-0.00076116607727675,0.00076116607756782,-0.00073689379023941,0.00073689379086604,-0.00073689379048138,0.0007368937906095,3.4350562378604e-13,-4.6834328066955e-13,8.2885279676307e-13,-9.4093713736928e-13,-0.00074760721191216,0.00074760721179871,-0.00076116607706044,0.00076116607779732,-0.00076116607762743,0.00076116607720246,-0.00076116607732155,0.00076116607752599,-0.00076116607788814,0.0007611660769314,-0.00073689378989537,0.00073689379124943,-0.00073689379160248,0.00073689378949079,-0.00073689379053229,0.00073689379062626,-0.00073689379132862,0.00073689378981266,2.0995955646791e-13,4.6557113006273e-13,-0.0007476072115179,0.00074760721219368,-5.2157041932289e-13,1.2268716963824e-12,-0.00076116607741983,0.00076116607741874,-0.00076116607683775,0.00076116607799919,-0.00076116607733516,0.00076116607750482,-0.00076116607675364,0.00076116607808483,-0.00073689378982272,0.00073689379133153,-0.00073689379006637,0.00073689379107742,0.70210891384157,0.45785087119184,114808,2744,0.0031101801650438,0.0031101801650748,0.0031101801650762,36.741663071818,36.741172460813,5.3933304574546e-05,5.3933304574546e-05,5.3933304574546e-05,877808.03343482,0.0093742468586502
6619200,0.51053456210966,0.0095567100235737,0.0031855700078366,0.0031855700078678,0.0031855700078693,-0.00078494778362296,0.00078494778373391,1.8941363955436e-13,-7.9615441366795e-14,-3.3985017226824e-13,4.6186950785063e-13,-0.00079958248534044,0.00079958248527612,-0.00079958248543114,0.00079958248518706,-0.00079958248508471,0.00079958248554484,-0.00079958248517315,0.00079958248545326,-0.00077368418653463,0.00077368418716906,-0.00077368418678934,0.00077368418689927,3.3921463722568e-13,-4.6246787192396e-13,8.1369634801747e-13,-9.2424038273779e-13,-0.00078494778374204,0.00078494778363009,-0.00079958248495735,0.00079958248568277,-0.00079958248551474,0.00079958248509797,-0.00079958248521546,0.00079958248541368,-0.00079958248577166,0.00079958248483056,-0.00077368418620853,0.00077368418753587,-0.0007736841878839,0.00077368418580826,-0.00077368418683074,0.0007736841869263,-0.00077368418761682,0.00077368418612298,2.0103290270046e-13,4.7016490149088e-13,-0.00078494778335082,0.0007849477840221,-5.0806827298066e-13,1.2086546940758e-12,-0.00079958248531024,0.00079958248531074,-0.00079958248473916,0.0007995824858807,-0.00079958248522068,0.00079958248540162,-0.00079958248464943,0.00079958248597088,-0.00077368418612227,0.00077368418762931,-0.00077368418637997,0.00077368418736281,0.74070664812664,0.65548884337107,114808,2744,0.0032652694408779,0.0032652694409096,0.0032652694409112,37.008081850448,37.015585147567,5.606465480358e-05,5.606465480358e-05,5.606465480358e-05,752441.34319287,0.0098439921588758
6819200,0.53663020665816,0.010061241470706,0.0033537471568802,0.0033537471569121,0.0033537471569137,-0.00082665712074109,0.00082665712084999,1.9515102126658e-13,-8.7390507382468e-14,-3.3609205936461e-13,4.5600662813406e-13,-0.0008416912082817,0.00084169120822275,-0.0008416912083771,0.00084169120812913,-0.00084169120802873,0.00084169120848831,-0.00084169120812136,0.00084169120839261,-0.00081576399447758,0.00081576399512018,-0.00081576399474691,0.00081576399483831,3.3537475453146e-13,-4.5667616650365e-13,7.9911870511916e-13,-9.078494422933e-13,-0.00082665712085827,0.00082665712074827,-0.000841691207906,0.00084169120862025,-0.00084169120845372,0.00084169120804583,-0.00084169120816121,0.0008416912083544,-0.00084169120870765,0.00084169120778153,-0.0008157639941686,0.00081576399547125,-0.00081576399581439,0.00081576399377358,-0.00081576399477751,0.0008157639948761,-0.00081576399555354,0.00081576399408236,1.9162855764381e-13,4.7426746733678e-13,-0.00082665712047062,0.00082665712113676,-4.9541968879799e-13,1.1904961311604e-12,-0.00084169120825317,0.0008416912082543,-0.00084169120769252,0.0008416912088142,-0.00084169120815927,0.00084169120834933,-0.00084169120759807,0.00084169120890851,-0.00081576399407138,0.00081576399557585,-0.00081576399434119,0.00081576399529586,0.79221449039174,0.89576281890611,114808,2744,0.0034384766568767,0.0034384766569088,0.0034384766569105,38.070449834041,38.100551755545,6.4563598672329e-05,6.4563598672329e-05,6.4563598672329e-05,540586.13503551,0.010368865825337
7019200,0.56342013927057,0.010542828916455,0.0035142763054634,0.0035142763054952,0.0035142763054968,-0.00086792368913805,0.00086792368924501,2.0092766648521e-13,-9.5157870106358e-14,-3.3275302028541e-13,4.5060291086097e-13,-0.00088387338315225,0.00088387338309863,-0.00088387338325215,0.00088387338300073,-0.000883873382902,0.00088387338336143,-0.00088387338299914,0.00088387338326115,-0.00085636728348889,0.00085636728413988,-0.00085636728377135,0.00085636728384426,3.3206982608299e-13,-4.5123180341344e-13,7.8508857490647e-13,-8.917512576112e-13,-0.0008679236892532,0.0008679236891452,-0.00088387338278472,0.00088387338348813,-0.00088387338332276,0.00088387338292386,-0.00088387338303709,0.00088387338322542,-0.00088387338357409,0.00088387338266248,-0.00085636728319569,0.00085636728447309,-0.00085636728481209,0.00085636728280634,-0.00085636728379026,0.00085636728389228,-0.00085636728455806,0.00085636728310716,1.8235054696302e-13,4.7850174974706e-13,-0.00086792368886903,0.00086792368953017,-4.8310621202508e-13,1.1728648462546e-12,-0.00088387338312641,0.00088387338312806,-0.00088387338257543,0.00088387338367804,-0.00088387338302801,0.00088387338322771,-0.00088387338247685,0.00088387338377693,-0.00085636728308725,0.00085636728459036,-0.00085636728337038,0.00085636728429669,0.73335805687276,0.60915714949679,114808,2744,0.0036098142837992,0.0036098142838311,0.0036098142838327,39.154419739432,39.185518363522,7.3235357915456e-05,7.3235357915456e-05,7.3235357915456e-05,610883.48489329,0.01088834963134
7219200,0.59075082610597,0.011015876216605,0.0036719587388466,0.0036719587388784,0.00367195873888,-0.00090896686164077,0.00090896686174599,2.0680913984333e-13,-1.028043722072e-13,-3.2949866996782e-13,4.455302864144e-13,-0.00092623205304625,0.00092623205299803,-0.00092623205315065,0.00092623205289576,-0.00092623205279859,0.00092623205325816,-0.0009262320529002,0.00092623205315337,-0.00089625426372212,0.00089625426438184,-0.00089625426401793,0.00089625426407309,3.2883092502919e-13,-4.4614928221038e-13,7.7123740981476e-13,-8.7612114686506e-13,-0.00090896686175415,0.00090896686164791,-0.00092623205268663,0.00092623205337936,-0.00092623205321524,0.00092623205282501,-0.00092623205293632,0.00092623205311957,-0.00092623205346401,0.00092623205256635,-0.00089625426344535,0.00089625426469835,-0.00089625426503308,0.00089625426306087,-0.00089625426402603,0.00089625426413147,-0.0008962542647857,0.00089625426335461,1.7302511126044e-13,4.8269348933935e-13,-0.0009089668613734,0.00090896686202946,-4.7111572538504e-13,1.1555224642878e-12,-0.00092623205302304,0.00092623205302491,-0.00092623205248169,0.0009262320535652,-0.00092623205292016,0.00092623205312909,-0.00092623205237878,0.00092623205366861,-0.00089625426332564,0.00089625426482714,-0.000896254263622,0.00089625426452014,0.7071884721172,0.49455785239988,114808,2744,0.0037801944082312,0.003780194408263,0.0037801944082647,40.23930423059,40.2704849715,8.1914433844723e-05,8.1914433844723e-05,8.1914433844723e-05,757252.16079839,0.011405199833736
7419200,0.61763171283648,0.011464414135816,0.0038214713785837,0.0038214713786154,0.003821471378617,-0.00094725359132233,0.00094725359142607,2.1282223280188e-13,-1.1031828150664e-13,-3.2642358594537e-13,4.4091253777757e-13,-0.00096622954593257,0.00096622954588983,-0.00096622954604149,0.00096622954578313,-0.00096622954568731,0.00096622954614746,-0.0009662295457934,0.00096622954603817,-0.00093301436025449,0.00093301436092344,-0.00093301436056367,0.00093301436060159,3.2577893003025e-13,-4.4151639433016e-13,7.578085259403e-13,-8.6115830985182e-13,-0.0009472535914342,0.00094725359132947,-0.00096622954558072,0.00096622954626314,-0.00096622954610027,0.00096622954571831,-0.00096622954582796,0.00096622954600598,-0.00096622954634667,0.00096622954546216,-0.00093301435999413,0.00093301436122334,-0.00093301436155419,0.00093301435961398,-0.0009330143605613,0.00093301436067016,-0.00093301436131343,0.00093301435990093,1.6370389601717e-13,4.8689269929167e-13,-0.00094725359105674,0.00094725359170772,-4.5964275234707e-13,1.1387362123904e-12,-0.00096622954591221,0.00096622954591392,-0.00096622954538016,0.00096622954644487,-0.00096622954580484,0.00096622954602261,-0.00096622954527285,0.00096622954655282,-0.00093301435986328,0.00093301436136348,-0.00093301436017285,0.00093301436104321,0.68501443115595,0.40602158184497,114808,2744,0.0039391046446206,0.0039391046446523,0.003939104644654,40.76902939135,40.784512406056,8.6152235130801e-05,8.6152235130801e-05,8.6152235130801e-05,938412.77083625,0.011887499951794
7619200,0.64332591661296,0.01188249008985,0.0039608300299283,0.00396083002996,0.0039608300299617,-0.00098223320565127,0.00098223320575262,2.1838922817516e-13,-1.1827137275931e-13,-3.2462774639068e-13,4.3662335998548e-13,-0.0010031251641767,0.001003125164138,-0.00100312516429,0.0010031251640268,-0.0010031251639333,0.0010031251643936,-0.0010031251640438,0.0010031251642798,-0.00096634742459854,0.00096634742527636,-0.00096634742492096,0.00096634742494126,3.2399421984604e-13,-4.372252313046e-13,7.4635466996539e-13,-8.4729661567e-13,-0.00098223320576071,0.00098223320565838,-0.0010031251638307,0.0010031251645052,-0.0010031251643421,0.0010031251639689,-0.001003125164076,0.0010031251642501,-0.0010031251645866,0.0010031251637147,-0.00096634742435261,0.00096634742556137,-0.00096634742588815,0.00096634742397722,-0.0009663474249072,0.00096634742502088,-0.0009663474256534,0.00096634742425778,1.529319015648e-13,4.8963824776999e-13,-0.0009822332053885,0.00098223320603139,-4.5131691846029e-13,1.121976106753e-12,-0.0010031251641605,0.0010031251641579,-0.0010031251636367,0.0010031251646806,-0.0010031251640486,0.0010031251642711,-0.0010031251635249,0.0010031251647931,-0.00096634742421317,0.00096634742571028,-0.00096634742453597,0.00096634742537674,0.67223240363044,0.36683891635165,114808,2744,0.0040842655970033,0.0040842655970349,0.0040842655970365,40.851386650694,40.853961573413,8.6811093205554e-05,8.6811093205554e-05,8.6811093205554e-05,1101505.9700897,0.012328276423067
7819200,0.6677992852492,0.012275011088873,0.0040916703629361,0.0040916703629677,0.0040916703629694,-0.0010153656730491,0.0010153656731484,2.2409025162311e-13,-1.2607771820775e-13,-3.2312401377859e-13,4.3301851422869e-13,-0.001038214146124,0.0010382141460895,-0.0010382141462419,0.0010382141459738,-0.0010382141458822,0.0010382141463434,-0.0010382141459973,0.0010382141462251,-0.00099785446076253,0.00099785446144955,-0.00099785446109822,0.00099785446110155,3.2252408828696e-13,-4.3359822446011e-13,7.3594037046803e-13,-8.3478355675889e-13,-0.0010153656731564,0.0010153656730562,-0.0010382141457839,0.0010382141464513,-0.0010382141462878,0.0010382141459226,-0.0010382141460276,0.0010382141461979,-0.0010382141465307,0.0010382141456701,-0.0009978544605301,0.00099785446172025,-0.00099785446204354,0.00099785446015871,-0.00099785446107292,0.00099785446119128,-0.00099785446181416,0.00099785446043315,1.4243666336359e-13,4.9265072927015e-13,-0.001015365672789,0.0010153656734244,-4.4380364798555e-13,1.1067474543309e-12,-0.0010382141461124,0.0010382141461054,-0.0010382141455961,0.0010382141466205,-0.001038214145996,0.0010382141462231,-0.0010382141454798,0.0010382141467375,-0.00099785446038236,0.00099785446187733,-0.00099785446071806,0.00099785446153053,0.66655082918655,0.36272845484214,114808,2744,0.0042217413286094,0.0042217413286408,0.0042217413286424,40.921386840381,40.92341074077,8.737109472305e-05,8.737109472305e-05,8.737109472305e-05,1137753.3211329,0.012745896603599
8019200,0.69104742954078,0.012644498203194,0.0042148327343762,0.004214832734408,0.0042148327344097,-0.0010466462382962,0.0010466462383938,2.3001141724291e-13,-1.3366499090247e-13,-3.2194699177394e-13,4.3010056660528e-13,-0.0010713951594547,0.0010713951594243,-0.001071395159577,0.0010713951593041,-0.0010713951592142,0.0010713951596768,-0.0010713951593338,0.001071395159554,-0.001027541109034,0.0010275411097313,-0.0010275411093829,0.0010275411093699,3.2134435962098e-13,-4.3068575461054e-13,7.265897737694e-13,-8.2375601128989e-13,-0.0010466462384019,0.0010466462383033,-0.0010713951591197,0.0010713951597807,-0.001071395159617,0.0010713951592588,-0.0010713951593621,0.0010713951595287,-0.0010713951598586,0.0010713951590077,-0.0010275411088152,0.0010275411099884,-0.0010275411103088,0.0010275411084471,-0.0010275411093475,0.0010275411094703,-0.0010275411100847,0.0010275411087163,1.3229200268777e-13,4.9601583235092e-13,-0.0010466462380387,0.0010466462386673,-4.3721496691229e-13,1.0931275762911e-12,-0.0010713951594473,0.0010713951594358,-0.0010713951589378,0.0010713951599443,-0.0010713951593264,0.001071395159558,-0.001071395158817,0.0010713951600657,-0.0010275411086592,0.0010275411101541,-0.0010275411090083,0.0010275411097941,0.66097248604505,0.35861799333263,114808,2744,0.0043515152729086,0.0043515152729401,0.0043515152729418,40.990860863803,40.992859908126,8.7926886910427e-05,8.7926886910427e-05,8.7926886910427e-05,1155737.4567269,0.013140281064248
8219200,0.71321493004425,0.012993825978058,0.0043312753259977,0.0043312753260295,0.0043312753260311,-0.0010764751832285,0.0010764751833247,2.360210617774e-13,-1.4116149907909e-13,-3.2101940217689e-13,4.2764360489906e-13,-0.0011030826829824,0.0011030826829561,-0.0011030826831091,0.0011030826828313,-0.0011030826827429,0.0011030826832075,-0.001103082682867,0.0011030826830802,-0.0010558381388768,0.0010558381395847,-0.0010558381392389,0.0010558381392101,3.2042891699889e-13,-4.2822262397513e-13,7.1818647166098e-13,-8.1385278441491e-13,-0.0010764751833327,0.0010764751832357,-0.0011030826826521,0.0011030826833075,-0.0011030826831435,0.0011030826827918,-0.0011030826828935,0.0011030826830566,-0.0011030826833841,0.0011030826825418,-0.001055838138671,0.0010558381398288,-0.0010558381401468,0.0010558381383056,-0.0010558381391935,0.0010558381393206,-0.0010558381399274,0.00105583813857,1.2233967437163e-13,4.9956920909182e-13,-0.0010764751829735,0.0010764751835957,-4.3143964334446e-13,1.0807417487873e-12,-0.0011030826829795,0.0011030826829631,-0.0011030826824759,0.0011030826834655,-0.001103082682854,0.0011030826830898,-0.0011030826823506,0.0011030826835915,-0.0010558381385069,0.0010558381400026,-0.0010558381388693,0.0010558381396294,0.65549139083927,0.35450753182313,114808,2744,0.0044752508214158,0.0044752508214473,0.0044752508214489,41.180884860942,41.186298454293,8.9447078887534e-05,8.9447078887534e-05,8.9447078887534e-05,1177911.8333508,0.013516460150048
8419200,0.7343546550017,0.01332598434544,0.0044419947817915,0.0044419947818233,0.0044419947818249,-0.0011049117475825,0.0011049117476774,2.4208320746536e-13,-1.4860040044479e-13,-3.2018540456211e-13,4.2553627221781e-13,-0.0011333057945104,0.0011333057944884,-0.0011333057946416,0.0011333057943591,-0.0011333057942718,0.0011333057947386,-0.0011333057944004,0.0011333057946069,-0.0010828542443316,0.0010828542450502,-0.0010828542447068,0.0010828542446625,3.1966111692524e-13,-4.2605504313442e-13,7.1065946631171e-13,-8.0486917650503e-13,-0.0011049117476853,0.0011049117475896,-0.0011333057941848,0.0011333057948351,-0.0011333057946709,0.001133305794325,-0.0011333057944252,0.0011333057945852,-0.0011333057949105,0.0011333057940758,-0.0010828542441378,0.0010828542452822,-0.0010828542455976,0.0010828542437751,-0.0010828542446514,0.0010828542447822,-0.0010828542453822,0.0010828542440346,1.1257606087862e-13,5.0331174181883e-13,-0.0011049117473298,0.001104911747946,-4.2636321019071e-13,1.0694382117497e-12,-0.0011333057945121,0.0011333057944907,-0.001133305794014,0.0011333057949878,-0.0011333057943822,0.0011333057946219,-0.0011333057938843,0.0011333057951183,-0.0010828542439664,0.0010828542454637,-0.0010828542443413,0.001082854245077,0.6538093467151,0.36755567020317,114808,2744,0.0045931960716812,0.0045931960717124,0.0045931960717141,41.429993080607,41.437135009675,9.1439944644855e-05,9.1439944644855e-05,9.1439944644855e-05,1194576.0041404,0.013875167217549
8619200,0.75445290008248,0.01364109872672,0.004547032908885,0.0045470329089169,0.0045470329089185,-0.0011318515807791,0.0011318515808729,2.483247144019e-13,-1.5586863210475e-13,-3.1949257370556e-13,4.2374054031148e-13,-0.0011619541153262,0.0011619541153085,-0.001161954115462,0.0011619541151747,-0.0011619541150884,0.001161954115558,-0.0011619541152215,0.0011619541154217,-0.0011084955371754,0.0011084955379055,-0.0011084955375639,0.0011084955375045,3.1894331532418e-13,-4.2428968530018e-13,7.0376291229082e-13,-7.9698518206153e-13,-0.0011318515808809,0.0011318515807862,-0.0011619541150052,0.0011619541156507,-0.0011619541154864,0.0011619541151455,-0.0011619541152448,0.0011619541154017,-0.0011619541157252,0.0011619541148973,-0.0011084955369938,0.0011084955381252,-0.0011084955384391,0.0011084955366329,-0.0011084955374991,0.0011084955376336,-0.0011084955382277,0.0011084955368884,1.0352482268185e-13,5.0776716453226e-13,-0.0011318515805282,0.0011318515811397,-4.213580689767e-13,1.0597552722627e-12,-0.0011619541153323,0.0011619541153067,-0.001161954114839,0.0011619541157988,-0.0011619541151979,0.0011619541154424,-0.0011619541147048,0.0011619541159338,-0.0011084955368137,0.0011084955383149,-0.0011084955372024,0.0011084955379151,0.65260875082647,0.38114806429055,114808,2744,0.0047049203652483,0.0047049203652796,0.0047049203652813,41.680753646032,41.687971565057,9.3446029168259e-05,9.3446029168259e-05,9.3446029168259e-05,1206801.5130518,0.014215072986921
8819200,0.77350229685095,0.013928714026561,0.0046429046754984,0.0046429046755304,0.004642904675532,-0.0011568288232688,0.0011568288233617,2.5464867194463e-13,-1.6304873571248e-13,-3.1882808762877e-13,4.2219298464707e-13,-0.0011886786896737,0.0011886786896603,-0.001188678689814,0.001188678689522,-0.0011886786894367,0.0011886786899091,-0.0011886786895743,0.0011886786897683,-0.0011320060652849,0.0011320060660267,-0.0011320060656866,0.0011320060656124,3.1829021762881e-13,-4.2273155642936e-13,6.9740340068718e-13,-7.8977304944605e-13,-0.0011568288233698,0.0011568288232759,-0.001188678689357,0.0011886786899982,-0.0011886786898337,0.0011886786894975,-0.0011886786895959,0.0011886786897498,-0.0011886786900718,0.00118867868925,-0.001132006065115,0.0011320060662347,-0.0011320060665472,0.0011320060647557,-0.001132006065613,0.0011320060657508,-0.0011320060663394,0.0011320060650078,9.478583965178e-14,5.1252863671961e-13,-0.0011568288230195,0.001156828823627,-4.1664244832979e-13,1.0509818344029e-12,-0.001188678689684,0.0011886786896543,-0.0011886786891952,0.001188678690142,-0.0011886786895451,0.0011886786897946,-0.0011886786890564,0.0011886786902815,-0.0011320060649268,0.0011320060664328,-0.0011320060653287,0.0011320060660198,0.6294199248113,0.2915797403408,114808,2744,0.0048084932437451,0.0048084932437765,0.0048084932437782,41.931584764838,41.938808120439,9.5452678118706e-05,9.5452678118706e-05,9.5452678118706e-05,1255536.0986039,0.014530287177421
9019200,0.79110704173123,0.014194301048179,0.0047314336827045,0.0047314336827364,0.004731433682738,-0.0011790620197108,0.0011790620198029,2.6100200359001e-13,-1.7019206826982e-13,-3.1825648658206e-13,4.2080774755334e-13,-0.0012124651953956,0.0012124651953866,-0.0012124651955404,0.0012124651952438,-0.0012124651951592,0.0012124651956347,-0.0012124651953013,0.0012124651954895,-0.0011529556745328,0.0011529556752864,-0.0011529556749477,0.0011529556748589,3.1770252969992e-13,-4.2136371586301e-13,6.9170733940382e-13,-7.8330724697188e-13,-0.0011790620198109,0.0011790620197179,-0.001212465195083,0.0012124651957203,-0.0012124651955557,0.0012124651952237,-0.0012124651953213,0.0012124651954726,-0.0012124651957932,0.0012124651949768,-0.001152955674374,0.0011529556754832,-0.0011529556757943,0.0011529556740162,-0.0011529556748653,0.0011529556750059,-0.0011529556755898,0.0011529556742648,8.6333686094563e-14,5.1757227675752e-13,-0.0011790620194627,0.0011790620200669,-4.1232905068936e-13,1.0432028367518e-12,-0.00121246519541,0.0012124651953765,-0.0012124651949252,0.0012124651958601,-0.0012124651952666,0.0012124651955212,-0.001212465194782,0.0012124651960041,-0.0011529556741776,0.0011529556756894,-0.0011529556745927,0.0011529556752632,0.62977529858331,0.31692151856187,114808,2744,0.0049006780447168,0.0049006780447483,0.0049006780447499,41.750578936623,41.745561220521,9.4004631492985e-05,9.4004631492985e-05,9.4004631492985e-05,1262761.3783674,0.014810927639784
9219200,0.80726135036242,0.014435263396156,0.0048117544653636,0.0048117544653955,0.0048117544653971,-0.0011990480201673,0.001199048020258,2.6704161228264e-13,-1.7764453068723e-13,-3.1842608629521e-13,4.1948799375327e-13,-0.0012339034267493,0.0012339034267438,-0.0012339034268986,0.0012339034265964,-0.0012339034265132,0.0012339034269915,-0.0012339034266598,0.0012339034268417,-0.0011717889931199,0.001171788993885,-0.0011717889935481,0.0011717889934443,3.1787670084969e-13,-4.200396386656e-13,6.8746805714628e-13,-7.7762794988227e-13,-0.001199048020266,0.0011990480201744,-0.0012339034264395,0.0012339034270746,-0.0012339034269091,0.0012339034265813,-0.0012339034266774,0.0012339034268273,-0.0012339034271463,0.0012339034263349,-0.0011717889929707,0.0011717889940719,-0.0011717889943814,0.0011717889926148,-0.0011717889934562,0.0011717889936003,-0.0011717889941795,0.0011717889928605,7.6690363044404e-14,5.2142083565727e-13,-0.0011990480199214,0.0011990480205198,-4.1048451880325e-13,1.0353141953914e-12,-0.001233903426769,0.0012339034267285,-0.0012339034262874,0.0012339034272089,-0.0012339034266211,0.0012339034268777,-0.0012339034261397,0.0012339034273574,-0.0011717889927682,0.0011717889942841,-0.0011717889931965,0.0011717889938447,0.6230057995082,0.30664989516131,114808,2744,0.0049835376812785,0.0049835376813097,0.0049835376813114,41.453180866088,41.444677807066,9.1625446928708e-05,9.1625446928708e-05,9.1625446928708e-05,1259782.4995698,0.01506324816996
9419200,0.8220747328437,0.014653744315442,0.004884581438459,0.0048845814384909,0.0048845814384925,-0.0012170970171745,0.0012170970172644,2.7332396447874e-13,-1.8485055486109e-13,-3.1873357311034e-13,4.188515940772e-13,-0.0012532177569149,0.001253217756913,-0.0012532177570688,0.0012532177567612,-0.0012532177566789,0.0012532177571607,-0.00125321775683,0.0012532177570065,-0.0011887967450272,0.0011887967458045,-0.0011887967454687,0.0011887967453506,3.181776328329e-13,-4.1941118727612e-13,6.8430562434467e-13,-7.7354801569793e-13,-0.0012170970172723,0.0012170970171816,-0.0012532177566075,0.0012532177572413,-0.0012532177570751,0.0012532177567504,-0.0012532177568454,0.0012532177569941,-0.0012532177573122,0.001253217756504,-0.0011887967448871,0.0011887967459822,-0.0011887967462907,0.0011887967445323,-0.0011887967453679,0.0011887967455152,-0.0011887967460911,0.0011887967447757,6.7909719522331e-14,5.2612895653329e-13,-0.0012170970169302,0.0012170970175246,-4.0897656487021e-13,1.0296703678065e-12,-0.0012532177569395,0.0012532177568929,-0.0012532177564603,0.0012532177573709,-0.0012532177567871,0.0012532177570466,-0.001253217756308,0.0012532177575239,-0.0011887967446781,0.0011887967462008,-0.0011887967451196,0.0011887967457481,0.61620823691147,0.29637827176075,114808,2744,0.0050583603134801,0.0050583603135113,0.005058360313513,41.152444470809,41.14379439361,8.9219555766474e-05,8.9219555766474e-05,8.9219555766474e-05,1266579.7796335,0.015291151078752
9619200,0.83565387435121,0.014851644180748,0.0049505480602274,0.0049505480602593,0.0049505480602609,-0.0012333940422803,0.0012333940423694,2.7970144428346e-13,-1.9196002993943e-13,-3.1928977687926e-13,4.1866275425789e-13,-0.0012706724652339,0.0012706724652357,-0.0012706724653922,0.0012706724650794,-0.0012706724649977,0.0012706724654834,-0.0012706724651534,0.0012706724653247,-0.0012041585275418,0.0012041585283317,-0.0012041585279965,0.0012041585278647,3.1874296850346e-13,-4.1921272275084e-13,6.822831567179e-13,-7.7079162931541e-13,-0.0012333940423774,0.0012333940422874,-0.0012706724649286,0.0012706724655617,-0.0012706724653947,0.0012706724650724,-0.0012706724651667,0.0012706724653144,-0.001270672465632,0.0012706724648259,-0.00120415852741,0.001204158528501,-0.0012041585288091,0.001204158527056,-0.0012041585278876,0.0012041585280375,-0.0012041585286111,0.0012041585272977,5.9401273567161e-14,5.3110662799826e-13,-0.0012333940420374,0.0012333940426282,-4.0843805190964e-13,1.0255017892713e-12,-0.0012706724652635,0.0012706724652105,-0.0012706724647858,0.001270672465687,-0.0012706724651066,0.0012706724653687,-0.0012706724646291,0.0012706724658445,-0.001204158527195,0.0012041585287259,-0.0012041585276497,0.00120415852826,0.60938040152141,0.28610664836019,114808,2744,0.0051259148418556,0.0051259148418868,0.0051259148418885,40.8515648916,40.842910980155,8.6812519132798e-05,8.6812519132798e-05,8.6812519132798e-05,1279397.7350994,0.015496962102613
9819200,0.84786651948271,0.015030374770349,0.0050101249234277,0.0050101249234596,0.0050101249234612,-0.0012472500326673,0.0012472500327558,2.8615040260309e-13,-1.9899106491636e-13,-3.2003855955364e-13,4.1882085236927e-13,-0.0012855492707809,0.0012855492707862,-0.0012855492709437,0.0012855492706254,-0.0012855492705443,0.0012855492710342,-0.0012855492707045,0.0012855492708711,-0.0012172021402128,0.0012172021410155,-0.0012172021406808,0.0012172021405354,3.1949312205737e-13,-4.1936965913302e-13,6.8133530332123e-13,-7.692616172327e-13,-0.0012472500327638,0.0012472500326744,-0.0012855492704773,0.0012855492711104,-0.0012855492709427,0.001285549270622,-0.0012855492707156,0.0012855492708628,-0.0012855492711803,0.0012855492703752,-0.0012172021400885,0.0012172021411773,-0.0012172021414852,0.0012172021397348,-0.0012172021405638,0.001217202140716,-0.0012172021412882,0.0012172021399754,5.1180112953269e-14,5.3636455560747e-13,-0.0012472500324256,0.0012472500330135,-4.0874057207962e-13,1.0227759901897e-12,-0.0012855492708155,0.0012855492707559,-0.0012855492703386,0.0012855492712316,-0.0012855492706541,0.0012855492709186,-0.0012855492701774,0.0012855492713936,-0.0012172021398677,0.001217202141408,-0.0012172021403356,0.0012172021409289,0.61213710596319,0.31993467860817,114808,2744,0.0051833468956818,0.0051833468957131,0.0051833468957147,40.186456383913,40.167503712494,8.1491651071302e-05,8.1491651071302e-05,8.1491651071302e-05,1284815.8156277,0.015671968399337
10019200,0.85884135518094,0.015191922952252,0.0050639743173957,0.0050639743174276,0.0050639743174292,-0.0012594842436596,0.0012594842437478,2.926319132371e-13,-2.0598130139241e-13,-3.2072081932918e-13,4.1929302176835e-13,-0.0012986867267449,0.0012986867267539,-0.0012986867269122,0.0012986867265887,-0.0012986867265079,0.0012986867270024,-0.0012986867266726,0.0012986867268348,-0.0012287479824554,0.0012287479832709,-0.0012287479829369,0.0012287479827785,3.202929799752e-13,-4.1971911904549e-13,6.8116383797114e-13,-7.684038199084e-13,-0.0012594842437557,0.0012594842436669,-0.0012986867264428,0.0012986867270766,-0.001298686726908,0.0012986867265886,-0.0012986867266817,0.0012986867268288,-0.001298686727146,0.0012986867263414,-0.001228747982338,0.0012287479834268,-0.0012287479837338,0.0012287479819853,-0.0012287479828128,0.0012287479829666,-0.0012287479835381,0.0012287479822251,4.3187857111199e-14,5.4181597730558e-13,-0.0012594842434189,0.0012594842440044,-4.0948325527351e-13,1.0210356315917e-12,-0.0012986867267846,0.0012986867267189,-0.0012986867263082,0.0012986867271941,-0.0012986867266189,0.0012986867268861,-0.0012986867261424,0.0012986867273607,-0.0012287479821121,0.0012287479836623,-0.0012287479825928,0.0012287479831702,0.61574676323867,0.35423133859393,114808,2744,0.0052340540778241,0.0052340540778557,0.0052340540778572,39.482473054026,39.462277582679,7.5859784432206e-05,7.5859784432206e-05,7.5859784432206e-05,1285033.34544,0.015826507782377
10219200,0.86871748414151,0.015338342786476,0.0051127809288034,0.0051127809288353,0.005112780928837,-0.001270352616785,0.0012703526168727,2.991942522842e-13,-2.1287227303559e-13,-3.2162614019017e-13,4.1968578182863e-13,-0.0013103750235287,0.0013103750235414,-0.0013103750237005,0.0013103750233717,-0.0013103750232913,0.0013103750237903,-0.0013103750234605,0.0013103750236181,-0.0012390422390651,0.0012390422398942,-0.0012390422395596,0.001239042239388,3.2113613068812e-13,-4.2018304604931e-13,6.8142471235455e-13,-7.6842470162342e-13,-0.0012703526168808,0.0012703526167922,-0.0013103750232279,0.0013103750238625,-0.0013103750236932,0.0013103750233744,-0.0013103750234671,0.0013103750236141,-0.0013103750239316,0.0013103750231267,-0.0012390422389543,0.0012390422400427,-0.0012390422403505,0.001239042238601,-0.0012390422394282,0.0012390422395837,-0.0012390422401548,0.0012390422388406,3.5401153813169e-14,5.4750206830528e-13,-0.0012703526165452,0.0012703526171285,-4.1074645197784e-13,1.0200928956858e-12,-0.0013103750235736,0.0013103750235007,-0.0013103750230969,0.0013103750239762,-0.0013103750234032,0.0013103750236725,-0.0013103750229267,0.0013103750241472,-0.0012390422387227,0.0012390422402845,-0.0012390422392169,0.001239042239779,0.62007022084252,0.3885279985797,114808,2744,0.005279098200306,0.0052790982003377,0.0052790982003392,38.777285292194,38.757051452865,7.0218282337556e-05,7.0218282337556e-05,7.0218282337556e-05,1285290.5152554,0.015963807385881
10419200,0.87763253202166,0.015471615208645,0.0051572050695264,0.0051572050695583,0.00515720506956,-0.0012801072641406,0.001280107264228,3.0574730944575e-13,-2.1978697867338e-13,-3.2247316268278e-13,4.2015953941448e-13,-0.0013208652328404,0.0013208652328568,-0.0013208652330166,0.0013208652326826,-0.0013208652326025,0.0013208652331061,-0.0013208652327762,0.0013208652329295,-0.0012483218351443,0.0012483218359868,-0.0012483218356521,0.0012483218354671,3.2197169339754e-13,-4.2066920766799e-13,6.8229909740739e-13,-7.6899897819731e-13,-0.0012801072642359,0.0012801072641477,-0.0013208652325409,0.0013208652331767,-0.0013208652330067,0.0013208652326881,-0.0013208652327805,0.001320865232928,-0.0013208652332456,0.0013208652324401,-0.0012483218350393,0.0012483218361286,-0.0012483218364368,0.0012483218346858,-0.001248321835513,0.0012483218356697,-0.001248321836241,0.0012483218349252,2.7869089794907e-14,5.5344173979357e-13,-0.0012801072639014,0.0012801072644831,-4.1233857981002e-13,1.0199686641869e-12,-0.0013208652328905,0.0013208652328111,-0.0013208652324133,0.001320865233287,-0.0013208652327157,0.0013208652329872,-0.0013208652322387,0.0013208652334625,-0.001248321834802,0.0012483218363761,-0.0012483218353093,0.0012483218358571,0.62506141799131,0.42282465856547,114808,2744,0.0053195248949516,0.0053195248949828,0.0053195248949844,38.102135074923,38.08276373752,6.4817080599383e-05,6.4817080599383e-05,6.4817080599383e-05,1284047.7855525,0.016087047697666
10619200,0.88595321739231,0.015593702316843,0.005197900772259,0.0051979007722909,0.0051979007722926,-0.0012901712374841,0.0012901712375713,3.1238935102123e-13,-2.2659163298565e-13,-3.2323872477332e-13,4.2070098610895e-13,-0.0013316424667247,0.0013316424667449,-0.0013316424669055,0.0013316424665663,-0.0013316424664864,0.0013316424669947,-0.0013316424666645,0.0013316424668136,-0.0012579006613194,0.0012579006621753,-0.0012579006618405,0.0012579006616427,3.2271767060845e-13,-4.2122813176972e-13,6.8366046758318e-13,-7.7018229498897e-13,-0.0012901712375792,0.0012901712374912,-0.0013316424664264,0.0013316424670638,-0.0013316424668931,0.0013316424665743,-0.0013316424666665,0.0013316424668145,-0.0013316424671324,0.0013316424663258,-0.0012579006612201,0.0012579006623118,-0.0012579006626203,0.0012579006608665,-0.0012579006616944,0.0012579006618518,-0.0012579006624237,0.0012579006611061,2.0386436031902e-14,5.5940826340272e-13,-0.0012901712372455,0.0012901712378257,-4.1436363559301e-13,1.0205049419216e-12,-0.0013316424667801,0.001331642466694,-0.0013316424663021,0.0013316424671708,-0.0013316424666008,0.0013316424668746,-0.001331642466123,0.0013316424673508,-0.0012579006609777,0.0012579006625641,-0.0012579006614983,0.0012579006620322,0.61395111517921,0.38035252949607,114808,2744,0.0053612319754186,0.0053612319754497,0.0053612319754514,38.029850059261,38.027509077453,6.4238800474088e-05,6.4238800474088e-05,6.4238800474088e-05,1289106.8462309,0.016214206162275
10819200,0.89372226165196,0.015705741331165,0.0052352471103665,0.0052352471103984,0.0052352471104001,-0.0012994735973995,0.0012994735974866,3.1904142354027e-13,-2.3338938970304e-13,-3.2389248162825e-13,4.2123098462374e-13,-0.0013416369164643,0.0013416369164884,-0.0013416369166496,0.0013416369163053,-0.0013416369162256,0.0013416369167386,-0.0013416369164082,0.0013416369165531,-0.0012667171428468,0.001266717143716,-0.0012667171433809,0.0012667171431702,3.2338529727174e-13,-4.2173788090311e-13,6.8553470444417e-13,-7.71851185182e-13,-0.0012994735974945,0.0012994735974067,-0.001341636916167,0.0013416369168061,-0.0013416369166349,0.0013416369163156,-0.0013416369164075,0.0013416369165565,-0.0013416369168747,0.0013416369160666,-0.0012667171427526,0.0012667171438478,-0.0012667171441562,0.0012667171423988,-0.0012667171432284,0.0012667171433859,-0.001266717143959,0.0012667171426391,1.3074747634258e-14,5.6555445799364e-13,-0.0012994735971615,0.0012994735977405,-4.1671032860903e-13,1.0217154343536e-12,-0.0013416369165251,0.0013416369164321,-0.0013416369160459,0.0013416369169101,-0.0013416369163413,0.0013416369166173,-0.0013416369158623,0.0013416369170946,-0.0012667171425053,0.0012667171441049,-0.001266717143039,0.0012667171435598,0.60386752894351,0.34605845394565,114808,2744,0.0053997809771086,0.00539978097714,0.0053997809771415,37.97387268001,37.972254417386,6.3790981440077e-05,6.3790981440077e-05,6.3790981440077e-05,1301882.2906518,0.016331751709034
11019200,0.90097308754746,0.015808355888518,0.0052694519628176,0.0052694519628494,0.0052694519628511,-0.0013080297416939,0.0013080297417808,3.2567655631946e-13,-2.402087268733e-13,-3.2450782714512e-13,4.2166739776221e-13,-0.0013508559249566,0.0013508559249847,-0.0013508559251463,0.0013508559247971,-0.0013508559247175,0.0013508559252352,-0.0013508559249046,0.0013508559250452,-0.0012747881569069,0.0012747881577895,-0.0012747881574542,0.0012747881572306,3.2400751355757e-13,-4.2216957359755e-13,6.8780487038628e-13,-7.7396794404588e-13,-0.0013080297417887,0.001308029741701,-0.0013508559246603,0.0013508559253014,-0.0013508559251297,0.0013508559248094,-0.0013508559249011,0.0013508559250514,-0.0013508559253698,0.0013508559245601,-0.0012747881568173,0.0012747881579164,-0.0012747881582252,0.0012747881564633,-0.0012747881572953,0.0012747881574525,-0.0012747881580268,0.0012747881567047,5.8964963366727e-15,5.7182464879655e-13,-0.0013080297414562,0.0013080297420344,-4.1934918917012e-13,1.0234646750332e-12,-0.0013508559250228,0.001350855924923,-0.0013508559245421,0.0013508559254025,-0.0013508559248346,0.0013508559251126,-0.001350855924354,0.0013508559255914,-0.0012747881565651,0.0012747881581785,-0.001274788157112,0.0012747881576203,0.59320718808991,0.31176437839522,114808,2744,0.0054352360886469,0.0054352360886782,0.0054352360886798,37.918585254825,37.916999757318,6.33486820386e-05,6.33486820386e-05,6.33486820386e-05,1317582.8490421,0.016439876618298
11219200,0.90772834013198,0.01590382462432,0.0053012748747515,0.0053012748747833,0.005301274874785,-0.0013159065028543,0.0013159065029409,3.3231917416411e-13,-2.4701584807943e-13,-3.2502723481847e-13,4.2199229960139e-13,-0.0013593368795584,0.0013593368795906,-0.0013593368797527,0.0013593368793986,-0.001359336879319,0.0013593368798414,-0.0013593368795107,0.0013593368796468,-0.0012822276842057,0.0012822276851016,-0.0012822276847664,0.0012822276845296,3.2451290988277e-13,-4.2251315133678e-13,6.903955559485e-13,-7.764253983841e-13,-0.0013159065029488,0.0013159065028613,-0.0013593368792631,0.0013593368799064,-0.0013593368797342,0.0013593368794126,-0.0013593368795042,0.0013593368796561,-0.0013593368799746,0.0013593368791631,-0.0012822276841207,0.0012822276852245,-0.0012822276855333,0.0012822276837663,-0.0012822276846009,0.0012822276847576,-0.0012822276853335,0.0012822276840089,-1.2109335950452e-15,5.7816721974125e-13,-0.0013159065026167,0.0013159065031942,-4.2219933739417e-13,1.025657078645e-12,-0.0013593368796301,0.0013593368795234,-0.0013593368791477,0.0013593368800046,-0.0013593368794374,0.0013593368797176,-0.0013593368789551,0.001359336880198,-0.0012822276838636,0.001282227685491,-0.0012822276844237,0.0012822276849196,0.59263235322454,0.32603854019991,114808,2744,0.0054678748009068,0.0054678748009378,0.0054678748009394,37.837871686882,37.835569469459,6.2702973495059e-05,6.2702973495059e-05,6.2702973495059e-05,1329930.2205836,0.016539422955585
11419200,0.91397850616452,0.01599269587284,0.0053308986242583,0.0053308986242902,0.0053308986242919,-0.0013229447838548,0.0013229447839413,3.3896408881358e-13,-2.538186547919e-13,-3.2545081867286e-13,4.2226169578328e-13,-0.0013669230235121,0.0013669230235484,-0.0013669230237109,0.0013669230233518,-0.0013669230232725,0.0013669230237995,-0.0013669230234686,0.0013669230236004,-0.0012888850923387,0.0012888850932478,-0.0012888850929125,0.0012888850926626,3.2492366204046e-13,-4.2279214281378e-13,6.9317400048069e-13,-7.7905490628973e-13,-0.0013229447839493,0.0013229447838619,-0.0013669230232178,0.0013669230238633,-0.0013669230236907,0.0013669230233677,-0.0013669230234592,0.0013669230236128,-0.0013669230239314,0.001366923023118,-0.0012888850922574,0.0012888850933665,-0.0012888850936754,0.0012888850919031,-0.001288885092741,0.0012888850928965,-0.001288885093474,0.0012888850921473,-8.182926487801e-15,5.8463940437339e-13,-0.0013229447836175,0.0013229447841945,-4.2515948225789e-13,1.0281001804805e-12,-0.0013669230235893,0.0013669230234758,-0.0013669230231051,0.0013669230239588,-0.0013669230233921,0.0013669230236744,-0.0013669230229081,0.0013669230241567,-0.0012888850919957,0.0012888850936378,-0.001288885092569,0.0012888850930532,0.59626237141021,0.3577874152333,114808,2744,0.0054970382228563,0.0054970382228874,0.0054970382228891,37.631244699999,37.625379748611,6.1049957599992e-05,6.1049957599992e-05,6.1049957599992e-05,1336980.0392628,0.016628378147972
11619200,0.91976153404601,0.016075269801681,0.0053584232672051,0.005358423267237,0.0053584232672387,-0.0013294226718534,0.0013294226719398,3.4564607861721e-13,-2.6058564866231e-13,-3.2574872920654e-13,4.2244573427868e-13,-0.0013739011344228,0.0013739011344633,-0.0013739011346261,0.0013739011342623,-0.001373901134183,0.0013739011347145,-0.0013739011343836,0.001373901134511,-0.0012950263533864,0.0012950263543088,-0.0012950263539733,0.0012950263537104,3.2521982946333e-13,-4.2297590190595e-13,6.9611226365994e-13,-7.8184723275078e-13,-0.0013294226719477,0.0013294226718604,-0.0013739011341296,0.0013739011347772,-0.0013739011346044,0.0013739011342798,-0.0013739011343711,0.0013739011345266,-0.0013739011348453,0.0013739011340298,-0.0012950263533087,0.0012950263544235,-0.0012950263547325,0.0012950263529545,-0.0012950263537959,0.0012950263539501,-0.0012950263545294,0.0012950263532004,-1.5063422175734e-14,5.9120290974516e-13,-0.0013294226716162,0.0013294226721928,-4.2819056613095e-13,1.0307907453444e-12,-0.0013739011345055,0.0013739011343853,-0.0013739011340194,0.0013739011348702,-0.0013739011343038,0.0013739011345884,-0.0013739011338179,0.0013739011350726,-0.0012950263530425,0.0012950263546993,-0.001295026353629,0.0012950263541016,0.59873358061053,0.38116675113467,114808,2744,0.0055238789564528,0.0055238789564837,0.0055238789564853,37.421204760217,37.415190027762,5.9369638081736e-05,5.9369638081736e-05,5.9369638081736e-05,1340361.5442879,0.016710255134185
11819200,0.92511371540362,0.016152151222881,0.0053840504076052,0.0053840504076371,0.0053840504076388,-0.0013353977748367,0.001335397774923,3.5230431730817e-13,-2.6737042593935e-13,-3.2593633095476e-13,4.2252662886623e-13,-0.0013803313664412,0.0013803313664859,-0.0013803313666489,0.0013803313662805,-0.0013803313662013,0.0013803313667373,-0.0013803313664064,0.0013803313665293,-0.0013007097654931,0.0013007097664286,-0.0013007097660932,0.0013007097658171,3.2541676462357e-13,-4.2304672327182e-13,6.9913087732572e-13,-7.8476043787201e-13,-0.0013353977749309,0.0013353977748438,-0.0013803313661489,0.0013803313667988,-0.0013803313666258,0.0013803313662993,-0.0013803313663906,0.001380331366548,-0.0013803313668667,0.0013803313660493,-0.0013007097654192,0.0013007097665397,-0.0013007097668487,0.0013007097650649,-0.0013007097659101,0.0013007097660627,-0.0013007097666438,0.0013007097653128,-2.1898125144955e-14,5.978127666421e-13,-0.0013353977745995,0.001335397775176,-4.3124106117571e-13,1.0336609517792e-12,-0.0013803313665293,0.0013803313664024,-0.0013803313660412,0.0013803313668893,-0.0013803313663231,0.00138033136661,-0.0013803313658352,0.0013803313670962,-0.0013007097651485,0.0013007097668202,-0.0013007097657481,0.0013007097662093,0.60218091158779,0.40683270730493,114808,2744,0.0055486358816899,0.0055486358817209,0.0055486358817226,37.211020422464,37.205000306914,5.7688163379709e-05,5.7688163379709e-05,5.7688163379709e-05,1341252.540472,0.016785780948682
12019200,0.9300759206567,0.016225550053591,0.0054085166845084,0.0054085166845403,0.005408516684542,-0.0013410490659565,0.0013410490660427,3.5897015135534e-13,-2.7414668905784e-13,-3.2599599721564e-13,4.2247765242125e-13,-0.0013863729421817,0.0013863729422308,-0.0013863729423939,0.0013863729420208,-0.0013863729419418,0.0013863729424821,-0.0013863729421514,0.0013863729422697,-0.0013061523813321,0.0013061523822807,-0.0013061523819454,0.0013061523816561,3.2549393873654e-13,-4.22981607614e-13,7.0220819508048e-13,-7.8770970071523e-13,-0.0013410490660506,0.0013410490659636,-0.0013863729418905,0.0013863729425425,-0.0013863729423694,0.0013863729420411,-0.0013863729421322,0.0013863729422918,-0.0013863729426103,0.001386372941791,-0.0013061523812618,0.0013061523823883,-0.0013061523826972,0.0013061523809075,-0.0013061523817566,0.0013061523819074,-0.0013061523824904,0.0013061523811574,-2.8675153405512e-14,6.044805629455e-13,-0.0013410490657193,0.0013410490662956,-4.342816153477e-13,1.0366336844937e-12,-0.0013863729422753,0.0013863729421418,-0.0013863729417852,0.0013863729426307,-0.0013863729420646,0.0013863729423539,-0.0013863729415747,0.0013863729428421,-0.0013061523809865,0.0013061523826733,-0.0013061523815994,0.0013061523820493,0.61929849146215,0.49287376631672,114808,2744,0.0055720509015344,0.0055720509015655,0.0055720509015671,37.028569318387,37.023332206433,5.6228554547095e-05,5.6228554547095e-05,5.6228554547095e-05,1335101.2320296,0.016857216468306
12219200,0.93469439551714,0.016296022807975,0.0054320076026364,0.0054320076026683,0.00543200760267,-0.0013465343041087,0.0013465343041947,3.6561748780584e-13,-2.8094205424673e-13,-3.2595756944886e-13,4.222912831147e-13,-0.0013921808631642,0.0013921808632177,-0.001392180863381,0.0013921808630033,-0.0013921808629244,0.001392180863469,-0.0013921808631385,0.0013921808632521,-0.0013115068045418,0.0013115068055034,-0.0013115068051683,0.0013115068048656,3.2544652842019e-13,-4.228044953776e-13,7.0525886659044e-13,-7.9063719951745e-13,-0.0013465343042027,0.0013465343041158,-0.0013921808628743,0.0013921808635283,-0.0013921808633551,0.0013921808630248,-0.0013921808631158,0.0013921808632776,-0.001392180863596,0.0013921808627749,-0.001311506804475,0.0013115068056076,-0.0013115068059163,0.001311506804121,-0.0013115068049738,0.0013115068051226,-0.0013115068057074,0.0013115068043728,-3.5402477302149e-14,6.1119612249565e-13,-0.0013465343038715,0.0013465343044478,-4.3725040700609e-13,1.0396283577144e-12,-0.0013921808632633,0.0013921808631233,-0.0013921808627712,0.0013921808636142,-0.0013921808630481,0.0013921808633399,-0.0013921808625562,0.0013921808638301,-0.0013115068041952,0.0013115068058971,-0.0013115068048212,0.0013115068052599,0.63789979846926,0.5789148253285,114808,2744,0.0055947777635504,0.0055947777635815,0.0055947777635832,36.914685542619,36.911393988486,5.5317484340953e-05,5.5317484340953e-05,5.5317484340953e-05,1319263.6976891,0.016926555343861
12419200,0.93899349758888,0.016359564019169,0.005453188006368,0.0054531880063999,0.0054531880064015,-0.0013515746394876,0.0013515746395735,3.7226792526454e-13,-2.8773420336888e-13,-3.2585650245367e-13,4.2203939375093e-13,-0.0013975357227013,0.0013975357227593,-0.0013975357229225,0.0013975357225404,-0.0013975357224616,0.0013975357230104,-0.0013975357226801,0.001397535722789,-0.0013163718982265,0.001316371899201,-0.0013163718988662,0.0013163718985501,3.2535329597426e-13,-4.2254520918097e-13,7.0827483327826e-13,-7.9348987707599e-13,-0.0013515746395814,0.0013515746394947,-0.0013975357224126,0.0013975357230686,-0.0013975357228954,0.0013975357225632,-0.0013975357226541,0.001397535722818,-0.0013975357231361,0.0013975357223134,-0.0013163718981632,0.0013163718993018,-0.0013163718996101,0.0013163718978094,-0.001316371898666,0.0013163718988126,-0.0013163718993992,0.0013163718980632,-4.210189028674e-14,6.1793894591878e-13,-0.0013515746392502,0.0013515746398266,-4.4013696588252e-13,1.0425932671384e-12,-0.0013975357228058,0.0013975357226595,-0.0013975357223117,0.0013975357231523,-0.0013975357225861,0.0013975357228805,-0.0013975357220923,0.0013975357233726,-0.0013163718978787,0.0013163718995958,-0.0013163718985179,0.0013163718989455,0.61826605194021,0.48324283831952,114808,2744,0.0056156605986054,0.0056156605986364,0.0056156605986381,36.802664397943,36.79945577054,5.4421315183541e-05,5.4421315183541e-05,5.4421315183541e-05,1305393.5917376,0.016990273521025
12619200,0.94299552310978,0.016415668811963,0.0054718896039659,0.0054718896039978,0.0054718896039994,-0.0013560949613598,0.0013560949614456,3.7892583584053e-13,-2.9451561522714e-13,-3.256905583044e-13,4.2174310133187e-13,-0.0014023898116849,0.0014023898117474,-0.0014023898119106,0.001402389811524,-0.0014023898114454,0.0014023898119984,-0.0014023898116684,0.0014023898117725,-0.0013206518858634,0.0013206518868507,-0.0013206518865162,0.0013206518861867,3.2518935980592e-13,-4.2224674771052e-13,7.1118627374752e-13,-7.9626626284754e-13,-0.0013560949614535,0.0013560949613669,-0.0014023898113974,0.0014023898120554,-0.0014023898118821,0.0014023898115481,-0.0014023898116388,0.0014023898118049,-0.0014023898121227,0.0014023898112984,-0.0013206518858036,0.001320651886948,-0.0013206518872561,0.0013206518854501,-0.0013206518863105,0.0013206518864548,-0.0013206518870432,0.0013206518857059,-4.8758422228376e-14,6.2472126813526e-13,-0.0013560949611223,0.0013560949616989,-4.4289346990851e-13,1.045507707516e-12,-0.0014023898117947,0.0014023898116421,-0.0014023898112987,0.0014023898121369,-0.0014023898115706,0.0014023898118677,-0.0014023898110749,0.0014023898123617,-0.0013206518855145,0.0013206518872468,-0.0013206518861668,0.0013206518865832,0.58731200892532,0.3445775654962,114808,2744,0.0056343881601898,0.0056343881602208,0.0056343881602225,36.690722043051,36.687517552594,5.3525776344405e-05,5.3525776344405e-05,5.3525776344405e-05,1306405.5172901,0.017047421090474
12819200,0.94668765469331,0.016467809385135,0.0054892697950232,0.005489269795055,0.0054892697950567,-0.0013598849931232,0.0013598849932088,3.8556244651574e-13,-3.0131736757155e-13,-3.2546576542442e-13,4.2134344442347e-13,-0.0014064908619674,0.0014064908620344,-0.0014064908621977,0.0014064908618066,-0.0014064908617281,0.0014064908622853,-0.0014064908619556,0.0014064908620549,-0.0013242351933359,0.001324235194336,-0.0013242351940019,0.0013242351936588,3.2495136707644e-13,-4.2185981835448e-13,7.1387572099851e-13,-7.9881536144492e-13,-0.0013598849932167,0.0013598849931303,-0.0014064908616815,0.0014064908623411,-0.0014064908621679,0.001406490861832,-0.0014064908619226,0.0014064908620909,-0.0014064908624083,0.0014064908615825,-0.0013242351932797,0.0013242351944296,-0.0013242351947373,0.0013242351929265,-0.0013242351937904,0.0013242351939325,-0.0013242351945225,0.0013242351931842,-5.5410483718346e-14,6.315082372686e-13,-0.0013598849928856,0.0013598849934623,-4.4542180443433e-13,1.0482034486924e-12,-0.0014064908620826,0.001406490861924,-0.0014064908615849,0.0014064908624205,-0.001406490861854,0.001406490862154,-0.0014064908613565,0.0014064908626497,-0.0013242351929857,0.001324235194733,-0.0013242351936512,0.0013242351940564,0.5913455219507,0.37751487549077,114808,2744,0.0056500897690524,0.0056500897690834,0.0056500897690851,36.40782295554,36.399803221622,5.1262583644319e-05,5.1262583644319e-05,5.1262583644319e-05,1314469.3492223,0.01709533800225
13019200,0.95005131923248,0.016515449803507,0.0055051499344807,0.0055051499345126,0.0055051499345142,-0.001362813907818,0.0013628139079035,3.9218525798016e-13,-3.0813041495233e-13,-3.2520613548829e-13,4.2089299494909e-13,-0.0014096988746184,0.00140969887469,-0.0014096988748531,0.0014096988744576,-0.0014096988743793,0.0014096988749405,-0.0014096988746113,0.0014096988747057,-0.0013269855694169,0.0013269855704297,-0.001326985570096,0.0013269855697393,3.2468014006812e-13,-4.2141924357844e-13,7.1635399823002e-13,-8.0112317329579e-13,-0.0013628139079114,0.0013628139078251,-0.001409698874334,0.0014096988749951,-0.001409698874822,0.0014096988744844,-0.0014096988745748,0.0014096988747451,-0.0014096988750621,0.0014096988742352,-0.0013269855693644,0.0013269855705195,-0.0013269855708268,0.0013269855690116,-0.0013269855698787,0.0013269855700188,-0.0013269855706102,0.0013269855692711,-6.2043751664799e-14,6.3830802953962e-13,-0.0013628139075802,0.0013628139081571,-4.4771096979602e-13,1.050686314019e-12,-0.0014096988747388,0.0014096988745743,-0.0014096988742395,0.0014096988750723,-0.0014096988745057,0.0014096988748088,-0.0014096988740066,0.0014096988753061,-0.0013269855690656,0.0013269855708279,-0.0013269855697442,0.001326985570138,0.59302695207653,0.39641182537046,114808,2744,0.0056622235644106,0.0056622235644416,0.0056622235644432,35.875947898871,35.860848862496,4.7007583190969e-05,4.7007583190969e-05,4.7007583190969e-05,1318854.7291955,0.017132369416036
13219200,0.95311915511726,0.016559060848619,0.0055196869495178,0.0055196869495497,0.0055196869495514,-0.0013653852660672,0.0013653852661525,3.9885540255741e-13,-3.1489522920183e-13,-3.2490637293168e-13,4.2046290514687e-13,-0.0014125166483312,0.0014125166484074,-0.0014125166485704,0.0014125166481706,-0.0014125166480924,0.0014125166486577,-0.0014125166483288,0.0014125166484183,-0.0013294050847102,0.001329405085736,-0.0013294050854025,0.0013294050850323,3.2439738400024e-13,-4.2097290427262e-13,7.1857981258586e-13,-8.0319769815578e-13,-0.0013653852661605,0.0013653852660743,-0.0014125166480483,0.0014125166487108,-0.0014125166485378,0.0014125166481987,-0.001412516648289,0.0014125166484611,-0.0014125166487777,0.0014125166479497,-0.001329405084662,0.0013294050858216,-0.0013294050861285,0.0013294050843096,-0.0013294050851796,0.0013294050853177,-0.0013294050859104,0.0013294050845708,-6.8696224906896e-14,6.4509258698192e-13,-0.0013653852658293,0.0013653852664063,-4.4978137713473e-13,1.052906834419e-12,-0.0014125166484568,0.0014125166482864,-0.001412516647956,0.0014125166487859,-0.0014125166482192,0.0014125166485254,-0.0014125166477187,0.0014125166490242,-0.0013294050843581,0.0013294050861352,-0.00132940508505,0.0013294050854322,0.59512402038024,0.41530877525015,114808,2744,0.0056728759811241,0.0056728759811552,0.0056728759811568,35.33728464866,35.32189450337,4.269827718928e-05,4.269827718928e-05,4.269827718928e-05,1320036.8824525,0.017164880840592
13419200,0.95592129748873,0.016598269267155,0.005532756422363,0.0055327564223949,0.0055327564223966,-0.0013676165934127,0.0013676165934978,4.054831872155e-13,-3.2170306281726e-13,-3.24601692097e-13,4.1999563265701e-13,-0.0014149772929292,0.0014149772930099,-0.0014149772931729,0.0014149772927687,-0.0014149772926906,0.00141497729326,-0.0014149772929316,0.0014149772930162,-0.0013314850293011,0.0013314850303395,-0.0013314850300066,0.0013314850296229,3.2409404032601e-13,-4.2050533032139e-13,7.2052516492139e-13,-8.0498981987828e-13,-0.0013676165935057,0.0013676165934197,-0.0014149772926481,0.0014149772933117,-0.0014149772931388,0.0014149772927984,-0.0014149772928885,0.0014149772930623,-0.0014149772933785,0.0014149772925496,-0.0013314850292572,0.0013314850304209,-0.0013314850307274,0.0013314850289052,-0.0013314850297777,0.001331485029914,-0.0013314850305077,0.0013314850291678,-7.5347374660013e-14,6.5187670326124e-13,-0.0013676165931746,0.0013676165937517,-4.5155938164144e-13,1.0548525396849e-12,-0.0014149772930599,0.001414977292884,-0.0014149772925579,0.0014149772933847,-0.0014149772928178,0.0014149772931275,-0.0014149772923161,0.0014149772936275,-0.0013314850289481,0.0013314850307395,-0.001331485029653,0.0013314850300234,0.58608285885732,0.38161430657092,114808,2744,0.0056821195549803,0.0056821195550114,0.005682119555013,34.798334343643,34.782940144243,3.8386674749141e-05,3.8386674749141e-05,3.8386674749141e-05,1321201.6157,0.017193093863199
13619200,0.95849813661334,0.0166338681201,0.0055446227066781,0.0055446227067099,0.0055446227067116,-0.0013697377294738,0.0013697377295588,4.1212434370772e-13,-3.284966727174e-13,-3.2429794126609e-13,4.1953473497242e-13,-0.0014173143131785,0.0014173143132638,-0.0014173143134267,0.0014173143130181,-0.0014173143129402,0.0014173143135136,-0.0014173143131856,0.0014173143132653,-0.0013334600347507,0.0013334600358019,-0.0013334600354694,0.0013334600350721,3.2378881435633e-13,-4.2004587376924e-13,7.2218123197674e-13,-8.0649095049036e-13,-0.0013697377295667,0.0013697377294809,-0.0014173143128992,0.0014173143135638,-0.0014173143133909,0.0014173143130494,-0.0014173143131394,0.0014173143133146,-0.0014173143136304,0.0014173143128009,-0.0013334600347115,0.0013334600358787,-0.0013334600361847,0.0013334600343599,-0.0013334600352346,0.0013334600353691,-0.0013334600359638,0.0013334600346237,-8.2006994742603e-14,6.5865149629596e-13,-0.0013697377292356,0.0013697377298129,-4.5306668853543e-13,1.0564930189811e-12,-0.0014173143133142,0.0014173143131329,-0.0014173143128111,0.0014173143136347,-0.0014173143130676,0.0014173143133808,-0.0014173143125648,0.0014173143138819,-0.0013334600343969,0.0013334600362027,-0.001333460035115,0.0013334600354735,0.57889841393085,0.35919722196563,114808,2744,0.005690906554533,0.005690906554564,0.0056909065545657,34.357324380487,34.34469059981,3.4858595043893e-05,3.4858595043893e-05,3.4858595043893e-05,1324873.6956511,0.017219914106004
13819200,0.96088199462481,0.01666677305504,0.0055555910183249,0.0055555910183568,0.0055555910183585,-0.0013717921471218,0.0013717921472066,4.1876863153811e-13,-3.352859566927e-13,-3.2400408776609e-13,4.1908523399848e-13,-0.0014195685825595,0.0014195685826494,-0.0014195685828122,0.0014195685823992,-0.0014195685823214,0.001419568582899,-0.0014195685825713,0.0014195685826462,-0.0013353829925142,0.0013353829935781,-0.001335382993246,0.0013353829928352,3.2349594095047e-13,-4.1959482872483e-13,7.2353483768383e-13,-8.0769538428396e-13,-0.0013717921472145,0.0013717921471289,-0.0014195685822821,0.0014195685829474,-0.0014195685827747,0.0014195685824322,-0.0014195685825221,0.0014195685826985,-0.0014195685830139,0.0014195685821839,-0.0013353829924798,0.0013353829936499,-0.0013353829939556,0.0013353829921286,-0.0013353829930051,0.0013353829931382,-0.0013353829937336,0.0013353829923936,-8.8673732254818e-14,6.6541893661413e-13,-0.0013717921468834,0.0013717921474608,-4.5428112202355e-13,1.057829095812e-12,-0.0014195685827001,0.0014195685825135,-0.0014195685821962,0.0014195685830162,-0.0014195685824491,0.001419568582766,-0.0014195685819454,0.0014195685832679,-0.0013353829921597,0.0013353829939796,-0.0013353829928909,0.0013353829932372,0.57842145945309,0.36899707157555,114808,2744,0.0056994171412422,0.0056994171412732,0.0056994171412748,34.004782243235,33.994681438771,3.2038257945882e-05,3.2038257945882e-05,3.2038257945882e-05,1329429.4133534,0.017245891054907
14019200,0.96308964006226,0.016697234017095,0.0055657446723433,0.0055657446723751,0.0055657446723768,-0.0013736456136206,0.0013736456137053,4.2541396896879e-13,-3.4207397427747e-13,-3.2372313093093e-13,4.1865337954428e-13,-0.0014216060007458,0.0014216060008402,-0.0014216060010029,0.0014216060005856,-0.0014216060005079,0.0014216060010896,-0.0014216060007623,0.0014216060008323,-0.0013371179709655,0.0013371179720422,-0.0013371179717104,0.0013371179712861,3.2321589068229e-13,-4.1916466539543e-13,7.2460151098005e-13,-8.0863529674675e-13,-0.0013736456137132,0.0013736456136276,-0.0014216060004704,0.0014216060011363,-0.0014216060009637,0.0014216060006204,-0.0014216060007101,0.0014216060008876,-0.0014216060012026,0.0014216060003724,-0.0013371179709363,0.0013371179721087,-0.0013371179724141,0.0013371179705855,-0.0013371179714633,0.0013371179715952,-0.0013371179721911,0.0013371179708513,-9.535514578928e-14,6.721707009406e-13,-0.0013736456133821,0.0013736456139595,-4.5525915096897e-13,1.0588529468869e-12,-0.0014216060008912,0.0014216060006996,-0.0014216060003866,0.0014216060012029,-0.0014216060006357,0.0014216060009565,-0.0014216060001314,0.0014216060014591,-0.0013371179706103,0.0013371179724441,-0.0013371179713547,0.0013371179716886,0.57820994911984,0.37879692118548,114808,2744,0.0057070952012492,0.0057070952012802,0.0057070952012818,33.654661933907,33.644672277732,2.9237295471259e-05,2.9237295471259e-05,2.9237295471259e-05,1333012.8456153,0.017269327515571
14219200,0.9651359694679,0.016724470149661,0.0055748233831984,0.0055748233832303,0.005574823383232,-0.0013752688256823,0.0013752688257669,4.3206970957431e-13,-3.4885216886269e-13,-3.2345305887354e-13,4.1825557552045e-13,-0.0014234115585474,0.0014234115586464,-0.001423411558809,0.0014234115583873,-0.0014234115583097,0.0014234115588955,-0.0014234115585686,0.0014234115586338,-0.0013386091385732,0.0013386091396627,-0.0013386091393313,0.0013386091388935,3.2295478101195e-13,-4.1875703078957e-13,7.2549818946949e-13,-8.0938821492209e-13,-0.0013752688257748,0.0013752688256894,-0.001423411558274,0.0014234115589404,-0.0014234115587678,0.0014234115584239,-0.0014234115585135,0.0014234115586919,-0.0014234115590066,0.0014234115581761,-0.0013386091385495,0.0013386091397238,-0.0013386091400288,0.001338609138199,-0.001338609139078,0.0013386091392088,-0.0013386091398051,0.0013386091384655,-1.0205491170427e-13,6.78905112856e-13,-0.0013752688254438,0.0013752688260212,-4.5605059737906e-13,1.0597069207986e-12,-0.0014234115586975,0.0014234115585009,-0.0014234115581924,0.0014234115590048,-0.0014234115584376,0.0014234115587623,-0.0014234115579327,0.0014234115592655,-0.0013386091382176,0.0013386091400651,-0.0013386091389752,0.0013386091392964,0.5585630390638,0.29910998723276,114808,2744,0.0057138192290945,0.0057138192291254,0.0057138192291271,33.304643950137,33.294663116693,2.6437151601096e-05,2.6437151601096e-05,2.6437151601096e-05,1338141.8613356,0.017289853163676
14419200,0.96700305300974,0.016749566825875,0.0055831889419366,0.0055831889419684,0.0055831889419701,-0.0013760847110561,0.0013760847111406,4.3870071104588e-13,-3.5564760671709e-13,-3.2319895818026e-13,4.1787684444336e-13,-0.0014243978447864,0.00142439784489,-0.0014243978450525,0.0014243978446263,-0.001424397844549,0.0014243978451389,-0.0014243978448123,0.0014243978448727,-0.0013393131641576,0.0013393131652599,-0.0013393131649286,0.0013393131644773,3.2274684618774e-13,-4.1832645570805e-13,7.2609875935779e-13,-8.098174959255e-13,-0.0013760847111485,0.0013760847110633,-0.0014243978445151,0.0014243978451816,-0.0014243978450092,0.0014243978446649,-0.0014243978447543,0.0014243978449334,-0.0014243978452478,0.0014243978444173,-0.0013393131641396,0.0013393131653155,-0.0013393131656202,0.0013393131637896,-0.0013393131646698,0.0013393131647999,-0.0013393131653963,0.0013393131640573,-1.0870703201597e-13,6.8568078821671e-13,-0.0013760847108175,0.0013760847113951,-4.5655887596915e-13,1.0602274343091e-12,-0.0014243978449411,0.0014243978447397,-0.0014243978444357,0.0014243978452439,-0.0014243978446766,0.0014243978450056,-0.0014243978441714,0.0014243978455091,-0.001339313163802,0.0013393131656633,-0.0013393131645727,0.0013393131648816,0.56383116253467,0.33941432783108,114808,2744,0.0057171986059433,0.0057171986059747,0.0057171986059763,32.650009584822,32.631490651328,2.1200076678577e-05,2.1200076678577e-05,2.1200076678577e-05,1347200.4360166,0.017300171170958
14619200,0.96869358308295,0.016772397983002,0.0055907993276457,0.0055907993276775,0.0055907993276792,-0.0013763874968278,0.0013763874969122,4.4536819577792e-13,-3.6241226242364e-13,-3.2298011950718e-13,4.1753445784421e-13,-0.00142484692613,0.0014248469262382,-0.0014248469264006,0.0014248469259701,-0.0014248469258928,0.0014248469264869,-0.0014248469261606,0.0014248469262162,-0.0013395231106756,0.0013395231117907,-0.00133952311146,0.0013395231109952,3.2247761911833e-13,-4.1804017033622e-13,7.2635369274622e-13,-8.1000543136067e-13,-0.0013763874969201,0.0013763874968349,-0.0014248469258611,0.0014248469265277,-0.0014248469263553,0.0014248469260108,-0.0014248469261001,0.0014248469262796,-0.0014248469265937,0.0014248469257634,-0.0013395231106637,0.0013395231118402,-0.0013395231121445,0.0013395231103139,-0.001339523111194,0.0013395231113234,-0.00133952311192,0.0013395231105814,-1.1551623576417e-13,6.9230370353825e-13,-0.0013763874965892,0.0013763874971666,-4.5682286790437e-13,1.0604034877543e-12,-0.0014248469262895,0.0014248469260834,-0.0014248469257839,0.0014248469265877,-0.0014248469260206,0.0014248469263537,-0.0014248469255152,0.0014248469268574,-0.0013395231103196,0.0013395231121939,-0.0013395231111034,0.0013395231113989,0.56645231541209,0.36350021667759,114808,2744,0.0057184523635299,0.0057184523635611,0.0057184523635627,31.826252724065,31.802880306047,1.4610021792522e-05,1.4610021792522e-05,1.4610021792522e-05,1351550.4295725,0.017304001414327
14819200,0.97022693147688,0.016793226905277,0.0055977423017373,0.0055977423017692,0.0055977423017708,-0.0013765137721187,0.001376513772203,4.5204532819317e-13,-3.6916476822562e-13,-3.2279409325081e-13,4.1725230469909e-13,-0.0014250972499421,0.0014250972500548,-0.0014250972502172,0.0014250972497822,-0.001425097249705,0.0014250972503033,-0.0014250972499773,0.0014250972500282,-0.0013395722452096,0.0013395722463377,-0.0013395722460072,0.001339572245529,3.2229109540474e-13,-4.1775817895086e-13,7.2638080956488e-13,-8.0994119802884e-13,-0.0013765137722109,0.0013765137721258,-0.0014250972496755,0.0014250972503421,-0.0014250972501697,0.0014250972498251,-0.0014250972499144,0.0014250972500941,-0.001425097250408,0.0014250972495779,-0.0013395722452041,0.0013395722463807,-0.0013395722466848,0.0013395722448544,-0.0013395722457346,0.0013395722458637,-0.0013395722464601,0.001339572245122,-1.2227432342688e-13,6.989745879826e-13,-0.0013765137718801,0.0013765137724574,-4.5683539693339e-13,1.0603567832987e-12,-0.0014250972501061,0.0014250972498955,-0.0014250972496005,0.0014250972503998,-0.0014250972498327,0.0014250972501703,-0.0014250972493274,0.0014250972506739,-0.0013395722448535,0.0013395722467408,-0.0013395722456505,0.0013395722459326,0.56961683073392,0.38758610552409,114808,2744,0.00571897495763,0.005718974957661,0.0057189749576627,30.997826507683,30.974269960767,7.9826120614643e-06,7.9826120614643e-06,7.9826120614643e-06,1352723.7202941,0.017305599625389
15019200,0.97159912691966,0.016811793154972,0.0056039310516356,0.0056039310516674,0.0056039310516691,-0.0013759334975488,0.001375933497633,4.5871882836644e-13,-3.7591757617829e-13,-3.2265932312622e-13,4.1704270816095e-13,-0.0014246288265523,0.0014246288266694,-0.0014246288268318,0.0014246288263924,-0.0014246288263152,0.0014246288269179,-0.001424628826592,0.0014246288266383,-0.0013389205900423,0.0013389205911833,-0.001338920590853,0.0013389205903615,3.2215927590232e-13,-4.1754512663594e-13,7.2614622849587e-13,-8.0961603149186e-13,-0.0013759334976408,0.0013759334975558,-0.001424628826288,0.0014246288269544,-0.0014246288267821,0.0014246288264376,-0.0014246288265268,0.0014246288267065,-0.0014246288270202,0.0014246288261905,-0.0013389205900433,0.0013389205912197,-0.0013389205915235,0.0013389205896939,-0.0013389205905737,0.0013389205907027,-0.0013389205912989,0.0013389205899614,-1.2903223462439e-13,7.0564438422491e-13,-0.0013759334973101,0.0013759334978873,-4.5660605099857e-13,1.0600299109315e-12,-0.0014246288267207,0.0014246288265057,-0.0014246288262153,0.0014246288270098,-0.0014246288264429,0.001424628826785,-0.0014246288259377,0.0014246288272884,-0.0013389205896861,0.0013389205915863,-0.0013389205904963,0.001338920590765,0.56737757575024,0.38481805944613,114808,2744,0.0057165704325842,0.0057165704326151,0.0057165704326168,29.89572263387,29.864538057626,-8.3421892904067e-07,-8.3421892904067e-07,-8.3421892904067e-07,1353031.8942083,0.017298264247412
15219200,0.97280892821143,0.016827460073277,0.0056091533577372,0.005609153357769,0.0056091533577707,-0.0013745526374427,0.0013745526375268,4.6538593075721e-13,-3.8267263509621e-13,-3.2259711466359e-13,4.1688766142693e-13,-0.0014233559630202,0.0014233559631419,-0.0014233559633042,0.0014233559628603,-0.0014233559627833,0.0014233559633903,-0.0014233559630646,0.0014233559631062,-0.0013374603811308,0.0013374603822848,-0.0013374603819547,0.0013374603814499,3.2209874833963e-13,-4.1738854318416e-13,7.2561789169502e-13,-8.0900622659157e-13,-0.0013745526375347,0.0013745526374498,-0.0014233559627584,0.0014233559634244,-0.0014233559632521,0.001423355962908,-0.0014233559629971,0.0014233559631766,-0.0014233559634901,0.001423355962661,-0.0013374603811389,0.0013374603823142,-0.0013374603826179,0.0013374603807896,-0.0013374603816687,0.0013374603817979,-0.0013374603823936,0.0013374603810568,-1.3583887962724e-13,7.1225921155824e-13,-0.0013745526372041,0.0013745526377812,-4.5613612417804e-13,1.0593685781936e-12,-0.0014233559631931,0.0014233559629738,-0.001423355962688,0.0014233559634775,-0.0014233559629107,0.0014233559632575,-0.0014233559624059,0.0014233559637606,-0.0013374603807749,0.0013374603826877,-0.0013374603815982,0.0013374603818532,0.54391178317195,0.28598329886612,114808,2744,0.005710849105364,0.0057108491053949,0.0057108491053966,28.491037613289,28.451337282903,-1.2071699093691e-05,-1.2071699093691e-05,-1.2071699093691e-05,1355135.1352535,0.017280806620372
15419200,0.97387776308176,0.016843186700332,0.0056143955667557,0.0056143955667875,0.0056143955667892,-0.0013730492909851,0.0013730492910684,4.7175638044582e-13,-3.897406560756e-13,-3.2287444316291e-13,4.1646785807516e-13,-0.0014219220153441,0.0014219220154692,-0.0014219220156325,0.0014219220151833,-0.0014219220151073,0.0014219220157178,-0.0014219220153931,0.0014219220154293,-0.0013359400631851,0.0013359400643519,-0.0013359400640228,0.0013359400635042,3.2182410967083e-13,-4.1753512694142e-13,7.2465239177862e-13,-8.0843453817391e-13,-0.0013730492910769,0.0013730492909916,-0.0014219220150844,0.0014219220157489,-0.0014219220155774,0.0014219220152334,-0.0014219220153233,0.0014219220155017,-0.0014219220158156,0.0014219220149865,-0.001335940063201,0.0013359400643747,-0.0013359400646787,0.0013359400628512,-0.00133594006373,0.0013359400638592,-0.0013359400644548,0.0013359400631177,-1.4279849054531e-13,7.1875098382729e-13,-0.0013730492907463,0.001373049291323,-4.5557272962465e-13,1.0583972549257e-12,-0.0014219220155207,0.001421922015297,-0.001421922015016,0.0014219220157999,-0.0014219220152341,0.0014219220155855,-0.0014219220147294,0.001421922016088,-0.0013359400628302,0.0013359400647548,-0.0013359400636666,0.0013359400639069,0.61487577658278,0.62516636785944,114808,2744,0.0057046205727627,0.0057046205727938,0.0057046205727955,27.078133361247,27.03813650818,-2.3374933110027e-05,-2.3374933110027e-05,-2.3374933110027e-05,1356645.2470268,0.017261799766282
15619200,0.97484115506811,0.016857650820157,0.0056192169400306,0.0056192169400625,0.0056192169400642,-0.0013721209938731,0.0013721209939571,4.7874009081149e-13,-3.9616807622048e-13,-3.2252745238456e-13,4.1671868129504e-13,-0.0014210278150394,0.0014210278151699,-0.0014210278153324,0.0014210278148795,-0.0014210278148026,0.0014210278154182,-0.0014210278150928,0.0014210278151252,-0.0013350071008923,0.0013350071020725,-0.0013350071017425,0.0013350071012111,3.2205986717448e-13,-4.1718637288974e-13,7.2398417689801e-13,-8.0723616301874e-13,-0.0013721209939649,0.0013721209938801,-0.0014210278147826,0.0014210278154475,-0.0014210278152752,0.0014210278149323,-0.0014210278150212,0.0014210278151998,-0.0014210278155131,0.0014210278146853,-0.0013350071009151,0.0013350071020874,-0.0013350071023907,0.0013350071005659,-0.0013350071014428,0.0013350071015732,-0.0013350071021674,0.0013350071008323,-1.4950381511401e-13,7.2545077915314e-13,-0.0013721209936346,0.0013721209942112,-4.5467975690436e-13,1.0574403429822e-12,-0.0014210278152209,0.0014210278149932,-0.001421027814717,0.0014210278154959,-0.0014210278149296,0.001421027815286,-0.0014210278144259,0.0014210278157879,-0.0013350071005371,0.0013350071024747,-0.0013350071013867,0.0013350071016139,0.62694794096739,0.66664863809497,114808,2744,0.0057007746109311,0.0057007746109621,0.0057007746109638,25.968218758211,25.936702474097,-3.2254249934312e-05,-3.2254249934312e-05,-3.2254249934312e-05,1336198.6293571,0.017250063360858
15819200,0.97574715665969,0.016872213716278,0.0056240712387376,0.0056240712387694,0.0056240712387711,-0.0013725084212607,0.0013725084213446,4.8541187044909e-13,-4.0292817588515e-13,-3.2261574219656e-13,4.1667671198894e-13,-0.0014214271333349,0.0014214271334698,-0.0014214271336323,0.0014214271331748,-0.001421427133098,0.0014214271337181,-0.0014214271333927,0.0014214271334206,-0.0013354172213662,0.0013354172225594,-0.0013354172222295,0.001335417221685,3.220743961424e-13,-4.1722072478149e-13,7.2288315171004e-13,-8.0613972592591e-13,-0.0013725084213525,0.0013725084212677,-0.0014214271330805,0.0014214271337447,-0.0014214271335724,0.0014214271332302,-0.0014214271333192,0.0014214271334971,-0.0014214271338104,0.0014214271329833,-0.0013354172213965,0.0013354172225666,-0.0013354172228701,0.0013354172210475,-0.0013354172219228,0.0013354172220538,-0.0013354172226475,0.0013354172213129,-1.5635063536012e-13,7.3203057814479e-13,-0.0013725084210223,0.0013725084215987,-4.5373484459431e-13,1.0561953221932e-12,-0.0014214271335205,0.0014214271332889,-0.0014214271330173,0.0014214271337908,-0.0014214271332247,0.0014214271335861,-0.0014214271327218,0.0014214271340873,-0.0013354172210115,0.0013354172229611,-0.0013354172218742,0.0013354172220872,0.6691969693494,0.8411119242785,114808,2744,0.0057023798042497,0.0057023798042806,0.0057023798042823,25.549698584818,25.537567560318,-3.5602411321454e-05,-3.5602411321454e-05,-3.5602411321454e-05,1311984.1536642,0.017254961785921
16019200,0.97660078455636,0.016885906712536,0.0056286355708236,0.0056286355708555,0.0056286355708571,-0.0013729175850986,0.0013729175851822,4.9197342735097e-13,-4.0980566546087e-13,-3.2282454360734e-13,4.165707740488e-13,-0.001421842380628,0.0014218423807667,-0.0014218423809304,0.0014218423804678,-0.0014218423803911,0.0014218423810153,-0.0014218423806906,0.0014218423807132,-0.0013358422239053,0.0013358422251114,-0.0013358422247815,0.0013358422242239,3.2228609555748e-13,-4.1709749325201e-13,7.218599476741e-13,-8.048551769327e-13,-0.00137291758519,0.0013729175851055,-0.001421842380376,0.0014218423810394,-0.0014218423808668,0.0014218423805259,-0.0014218423806148,0.0014218423807918,-0.0014218423811048,0.0014218423802785,-0.0013358422239401,0.0013358422251092,-0.001335842225412,0.0013358422235913,-0.001335842224466,0.0013358422245983,-0.0013358422251911,0.0013358422238576,-1.6278090950789e-13,7.3903121722125e-13,-0.0013729175848597,0.0013729175854365,-4.5234906339956e-13,1.05530123186e-12,-0.0014218423808171,0.0014218423805823,-0.0014218423803148,0.0014218423810833,-0.001421842380516,0.0014218423808843,-0.0014218423800146,0.0014218423813845,-0.0013358422235493,0.0013358422255117,-0.0013358422244246,0.0013358422246247,0.66742789712312,0.80327694214316,114808,2744,0.0057040750263281,0.0057040750263584,0.0057040750263601,25.149746426088,25.138432646539,-3.8802028591293e-05,-3.8802028591293e-05,-3.8802028591293e-05,1281890.2890472,0.017260135124357
16219200,0.97740569318353,0.016898765995802,0.005632921998579,0.0056329219986109,0.0056329219986125,-0.0013732535016154,0.0013732535016992,4.9882658563875e-13,-4.1637831048909e-13,-3.227501565186e-13,4.1675883448015e-13,-0.0014221851932543,0.0014221851933979,-0.0014221851935607,0.0014221851930941,-0.0014221851930173,0.0014221851936464,-0.001422185193321,0.0014221851933399,-0.0013361884756588,0.0013361884768783,-0.0013361884765484,0.0013361884759776,3.2223080312898e-13,-4.1727825243582e-13,7.20546576032e-13,-8.0374409322849e-13,-0.0013732535017071,0.0013732535016224,-0.001422185193005,0.0014221851936678,-0.0014221851934953,0.0014221851931549,-0.0014221851932438,0.00142218519342,-0.0014221851937334,0.0014221851929078,-0.0013361884757042,0.0013361884768697,-0.0013361884771732,0.0013361884753551,-0.0013361884762272,0.0013361884763602,-0.0013361884769522,0.0013361884756192,-1.7000951220845e-13,7.4523567473816e-13,-0.0013732535013772,0.001373253501953,-4.5163426170685e-13,1.0535883430111e-12,-0.0014221851934482,0.0014221851932087,-0.0014221851929466,0.001422185193709,-0.0014221851931434,0.0014221851935149,-0.0014221851926421,0.0014221851940145,-0.0013361884753048,0.0013361884772787,-0.0013361884761937,0.0013361884763785,0.66425602152157,0.76544196000782,114808,2744,0.0057054667381226,0.0057054667381533,0.005705466738155,24.750570164117,24.739297732759,-4.1995438687067e-05,-4.1995438687067e-05,-4.1995438687067e-05,1256952.1066762,0.017264382405107
16419200,0.97816797640305,0.016909730783247,0.0056365769277273,0.0056365769277592,0.0056365769277609,-0.0013735903329634,0.0013735903330469,5.0554378208742e-13,-4.2320235064067e-13,-3.230572207823e-13,4.1666490352615e-13,-0.0014225448611158,0.0014225448612645,-0.0014225448614278,0.0014225448609547,-0.0014225448608787,0.0014225448615128,-0.0014225448611882,0.0014225448612005,-0.0013365023038856,0.0013365023051179,-0.001336502304787,0.0013365023042037,3.2230091863405e-13,-4.1742383622363e-13,7.1936625914869e-13,-8.0243966248972e-13,-0.0013735903330553,0.0013735903329704,-0.0014225448608692,0.0014225448615313,-0.0014225448613588,0.0014225448610195,-0.0014225448611084,0.0014225448612838,-0.0014225448615972,0.0014225448607718,-0.0013365023039393,0.0013365023051022,-0.0013365023054053,0.0013365023035904,-0.0013365023044608,0.0013365023045938,-0.0013365023051853,0.0013365023038531,-1.7693830053873e-13,7.5189038320609e-13,-0.0013735903327253,0.0013735903333007,-4.5061382229234e-13,1.0521327404199e-12,-0.0014225448613133,0.0014225448610703,-0.0014225448608131,0.0014225448615714,-0.0014225448610047,0.0014225448613813,-0.0014225448605042,0.0014225448618791,-0.0013365023035314,0.001336502305518,-0.0013365023044348,0.0013365023046046,0.59981695134887,0.45292604257112,114808,2744,0.0057068620630486,0.0057068620630805,0.0057068620630811,24.412913939401,24.403356481781,-4.4696688484793e-05,-4.4696688484793e-05,-4.4696688484793e-05,1239393.2144536,0.017268641610067
16619200,0.97889391204684,0.016922032092358,0.0056406773640977,0.0056406773641295,0.0056406773641312,-0.0013740443796131,0.0013740443796982,5.1186912561722e-13,-4.2987354665639e-13,-3.225604676903e-13,4.1754437665885e-13,-0.0014230109121563,0.001423010912303,-0.0014230109124853,0.0014230109119993,-0.001423010911901,0.0014230109125486,-0.0014230109122355,0.0014230109122364,-0.0013369772386463,0.0013369772398715,-0.0013369772395568,0.0013369772389499,3.2292289963296e-13,-4.1730572218487e-13,7.1804682886815e-13,-8.0167939159782e-13,-0.0013740443797058,0.0013740443796171,-0.001423010911932,0.0014230109125856,-0.0014230109124171,0.0014230109120777,-0.0014230109121641,0.0014230109123403,-0.0014230109126512,0.0014230109118195,-0.0013369772387174,0.0013369772398894,-0.0013369772401785,0.001336977238367,-0.0013369772392076,0.0013369772393461,-0.0013369772399254,0.0013369772385883,-1.794767818134e-13,7.6247888326409e-13,-0.001374044379367,0.0013740443799516,-4.4544362729707e-13,1.0554853438826e-12,-0.001423010912363,0.0014230109121172,-0.0014230109118629,0.0014230109126221,-0.0014230109120602,0.0014230109124434,-0.0014230109115465,0.0014230109129411,-0.0013369772382828,0.0013369772402712,-0.0013369772391765,0.0013369772393372,0.70235629359216,0.92426636263102,114808,2744,0.0057087431606512,0.0057087431606755,0.0057087431606663,24.158805972851,24.151598818487,-4.6729552217195e-05,-4.6729552217195e-05,-4.6729552217195e-05,1234918.3594096,0.017274382326158
16819200,0.97958563630514,0.016933812774126,0.0056446042580203,0.0056446042580522,0.0056446042580538,-0.0013745797178716,0.0013745797179556,5.1887902084473e-13,-4.3658870732166e-13,-3.2289413189966e-13,4.1735734560781e-13,-0.001423533704969,0.0014235337051256,-0.00142353370529,0.0014235337048088,-0.0014235337047303,0.001423533705374,-0.0014235337050493,0.0014235337050541,-0.0013375372971355,0.0013375372983918,-0.0013375372980649,0.0013375372974527,3.2276843376355e-13,-4.1753277407212e-13,7.1719609015175e-13,-8.0038243121907e-13,-0.0013745797179633,0.0013745797178783,-0.0014235337047292,0.0014235337053894,-0.0014235337052171,0.001423533704879,-0.001423533704968,0.0014235337051416,-0.0014235337054552,0.0014235337046308,-0.0013375372972052,0.0013375372983645,-0.0013375372986664,0.0013375372968554,-0.0013375372977186,0.0013375372978568,-0.001337537298444,0.0013375372971118,-1.9022186532318e-13,7.6532076703473e-13,-0.001374579717633,0.0013745797182088,-4.4833277432973e-13,1.0502351513312e-12,-0.0014235337051762,0.0014235337049249,-0.0014235337046769,0.0014235337054238,-0.0014235337048587,0.0014235337052456,-0.0014235337043588,0.001423533705743,-0.0013375372967821,0.0013375372987916,-0.0013375372977077,0.0013375372978496,0.70571569220149,0.90497517292461,114808,2744,0.0057109611436718,0.0057109611437013,0.0057109611437018,23.906947949585,23.899841155194,-4.8744416403322e-05,-4.8744416403322e-05,-4.8744416403322e-05,1206824.4891593,0.017281150803716
17019200,0.98024505655942,0.0169448341685,0.0056482780561449,0.0056482780561768,0.0056482780561784,-0.0013750562954151,0.001375056295499,5.2569522070274e-13,-4.4325812846054e-13,-3.232622809241e-13,4.1728751685868e-13,-0.0014240013217645,0.0014240013219255,-0.0014240013220898,0.0014240013216042,-0.0014240013215259,0.001424001322174,-0.0014240013218492,0.0014240013218497,-0.0013380292859792,0.0013380292872506,-0.0013380292869209,0.0013380292862975,3.2276190455125e-13,-4.1779458960325e-13,7.1616123941279e-13,-7.9940751982548e-13,-0.001375056295507,0.0013750562954219,-0.0014240013215265,0.0014240013221862,-0.0014240013220138,0.0014240013216765,-0.0014240013217654,0.0014240013219384,-0.001424001322252,0.0014240013214282,-0.0013380292860564,0.0013380292872134,-0.0013380292875166,0.0013380292857069,-0.0013380292865712,0.001338029286708,-0.0013380292872968,0.0013380292859653,-1.9696407111812e-13,7.7204412046443e-13,-0.0013750562951768,0.0013750562957525,-4.4738186220297e-13,1.049181654103e-12,-0.0014240013219753,0.0014240013217201,-0.0014240013214765,0.0014240013222181,-0.0014240013216533,0.0014240013220451,-0.001424001321154,0.0014240013225417,-0.0013380292856266,0.0013380292876492,-0.0013380292865671,0.0013380292866959,0.69245973466901,0.81742358755057,114808,2744,0.0057129356190591,0.0057129356190896,0.0057129356190904,23.65518386669,23.648083491901,-5.0758529066481e-05,-5.0758529066481e-05,-5.0758529066481e-05,1182895.4930674,0.017287176440897
17219200,0.98085885937067,0.01695482945222,0.005651609817385,0.0056516098174169,0.0056516098174185,-0.0013746559786377,0.0013746559787215,5.3236095824551e-13,-4.500263944658e-13,-3.2340943084054e-13,4.173691981869e-13,-0.0014236033268524,0.0014236033270176,-0.0014236033271821,0.0014236033266918,-0.0014236033266138,0.0014236033272662,-0.0014236033269413,0.0014236033269374,-0.0013376310076809,0.0013376310089653,-0.0013376310086359,0.0013376310079992,3.2295731034644e-13,-4.1783276490761e-13,7.1530861840095e-13,-7.9835931655325e-13,-0.0013746559787294,0.0013746559786445,-0.0014236033266168,0.0014236033272761,-0.0014236033271034,0.001423603326767,-0.0014236033268557,0.0014236033270281,-0.0014236033273417,0.0014236033265188,-0.0013376310077652,0.0013376310089206,-0.0013376310092234,0.0013376310074158,-0.0013376310082789,0.0013376310084168,-0.0013376310090047,0.0013376310076737,-2.0390518260134e-13,7.7853156933614e-13,-0.0013746559783995,0.0013746559789748,-4.4664794344721e-13,1.0480186896308e-12,-0.0014236033270675,0.0014236033268081,-0.0014236033265694,0.0014236033273055,-0.0014236033267409,0.0014236033271375,-0.0014236033262424,0.0014236033276335,-0.0013376310073285,0.0013376310093631,-0.0013376310082821,0.0013376310083966,0.67475984690739,0.71970379112545,114808,2744,0.0057112770837313,0.0057112770837617,0.0057112770837626,22.996645200686,22.978261950595,-5.6026838394515e-05,-5.6026838394515e-05,-5.6026838394515e-05,1167256.6436845,0.017282115120243
17419200,0.98141906726595,0.016963576052073,0.0056545253506691,0.005654525350701,0.0056545253507026,-0.0013734816280181,0.001373481628102,5.3910833851473e-13,-4.5671401553121e-13,-3.2344511748012e-13,4.1748445937163e-13,-0.0014224393912558,0.0014224393914256,-0.00142243939159,0.0014224393910953,-0.0014224393910173,0.0014224393916743,-0.0014224393913492,0.001422439391341,-0.0013364472765338,0.0013364472778315,-0.001336447277502,0.0013364472768523,3.229844271651e-13,-4.1795905516718e-13,7.143881759316e-13,-7.9757204648616e-13,-0.0013734816281099,0.0013734816280249,-0.0014224393910228,0.0014224393916815,-0.0014224393915089,0.0014224393911729,-0.0014224393912618,0.0014224393914335,-0.0014224393917472,0.0014224393909247,-0.0013364472766258,0.0013364472777792,-0.0013364472780824,0.0013364472762762,-0.0013364472771381,0.0013364472772768,-0.0013364472778641,0.0013364472765334,-2.1071265110844e-13,7.8516307263062e-13,-0.0013734816277801,0.0013734816283552,-4.4591061303098e-13,1.0470580719182e-12,-0.0014224393914753,0.0014224393912118,-0.0014224393909778,0.0014224393917086,-0.0014224393911442,0.0014224393915456,-0.0014224393906463,0.0014224393920411,-0.001336447276182,0.0013364472782292,-0.0013364472771488,0.0013364472772494,0.64747795535226,0.5868439824505,114808,2744,0.005706411689848,0.0057064116898784,0.0057064116898793,21.99462830976,21.966574121097,-6.404297352192e-05,-6.404297352192e-05,-6.404297352192e-05,1158725.5062853,0.017267267411605
17619200,0.98193074032663,0.016971267117472,0.0056570890391355,0.0056570890391673,0.0056570890391689,-0.0013721799352574,0.0013721799353412,5.4582623255238e-13,-4.6343108077984e-13,-3.2350250003319e-13,4.175388915323e-13,-0.001421153780222,0.0014211537803962,-0.0014211537805606,0.0014211537800614,-0.0014211537799835,0.001421153780645,-0.0014211537803198,0.0014211537803072,-0.001335130114815,0.0013351301161259,-0.0013351301157964,0.0013351301151335,3.2304771934922e-13,-4.1800664194873e-13,7.1361196435022e-13,-7.9678448231041e-13,-0.0013721799353491,0.0013721799352642,-0.0014211537799913,0.0014211537806496,-0.0014211537804769,0.0014211537801416,-0.0014211537802304,0.0014211537804015,-0.0014211537807153,0.0014211537798933,-0.0013351301149143,0.0013351301160661,-0.0013351301163694,0.0013351301145647,-0.0013351301154255,0.0013351301155649,-0.0013351301161517,0.0013351301148215,-2.1755273626618e-13,7.9175825350531e-13,-0.0013721799350194,0.0013721799355943,-4.4526298575672e-13,1.0461480408955e-12,-0.0014211537804458,0.0014211537801781,-0.0014211537799488,0.0014211537806743,-0.0014211537801102,0.0014211537805163,-0.0014211537796128,0.0014211537810113,-0.0013351301144637,0.0013351301165233,-0.0013351301154437,0.0013351301155304,0.62390231068746,0.48184511056939,114808,2744,0.005701018655533,0.0057010186555634,0.0057010186555644,20.983313510797,20.9548862916,-7.2133491913623e-05,-7.2133491913623e-05,-7.2133491913623e-05,1157344.3812504,0.017250809849741
17819200,0.98239927502316,0.016978071609415,0.0056593572031167,0.0056593572031486,0.0056593572031502,-0.0013708293005639,0.0013708293006479,5.5260324151206e-13,-4.7008479571195e-13,-3.2350261664267e-13,4.1762456538561e-13,-0.0014198257838143,0.0014198257839932,-0.0014198257841574,0.0014198257836535,-0.0014198257835757,0.001419825784242,-0.0014198257839163,0.0014198257838995,-0.0013337588034849,0.0013337588048094,-0.0013337588044797,0.0013337588038038,3.2300354422815e-13,-4.1812393248323e-13,7.127979892166e-13,-7.9616767762396e-13,-0.0013708293006559,0.0013708293005708,-0.0014198257835858,0.0014198257842438,-0.0014198257840712,0.0014198257837361,-0.0014198257838254,0.0014198257839958,-0.0014198257843095,0.001419825783488,-0.0013337588035919,0.0013337588047423,-0.0013337588050453,0.0013337588032419,-0.0013337588041023,0.001333758804242,-0.0013337588048285,0.0013337588034988,-2.2430744167927e-13,7.9843910823331e-13,-0.0013708293003262,0.001370829300901,-4.4458335946001e-13,1.0454091222924e-12,-0.0014198257840425,0.0014198257837707,-0.0014198257835456,0.0014198257842662,-0.0014198257837023,0.0014198257841134,-0.0014198257832053,0.0014198257846078,-0.0013337588031342,0.0013337588052063,-0.0013337588041275,0.0013337588042004,0.60341625857311,0.39934230906127,114808,2744,0.0056954227903979,0.0056954227904285,0.0056954227904295,19.99354159984,19.9657345228,-8.0051667201281e-05,-8.0051667201281e-05,-8.0051667201281e-05,1161853.6164843,0.017233733737369
18019200,0.98282927648648,0.016984307849651,0.0056614359498618,0.0056614359498937,0.0056614359498953,-0.0013694453408665,0.0013694453409503,5.592504502091e-13,-4.7687840078687e-13,-3.2358273276136e-13,4.1758458131298e-13,-0.0014184672842893,0.0014184672844726,-0.0014184672846368,0.0014184672841287,-0.0014184672840509,0.0014184672847214,-0.0014184672843961,0.0014184672843746,-0.0013323555277232,0.0013323555290607,-0.0013323555287311,0.0013323555280419,3.2312571696644e-13,-4.1805146410885e-13,7.1225059417443e-13,-7.9539446595093e-13,-0.0013694453409582,0.0013694453408733,-0.0014184672840634,0.0014184672847209,-0.0014184672845482,0.0014184672842138,-0.0014184672843027,0.0014184672844728,-0.0014184672847866,0.0014184672839657,-0.001332355527837,0.001332355528986,-0.0013323555292894,0.0013323555274874,-0.0013323555283465,0.0013323555284869,-0.0013323555290728,0.0013323555277436,-2.312147600772e-13,8.0496635000703e-13,-0.0013694453406288,0.0013694453412032,-4.4411884423887e-13,1.044552677868e-12,-0.0014184672845218,0.0014184672842456,-0.0014184672840257,0.001418467284741,-0.0014184672841772,0.0014184672845928,-0.0014184672836808,0.0014184672850869,-0.0013323555273725,0.0013323555294572,-0.001332355528379,0.001332355528438,0.60265700855013,0.41341936417556,114808,2744,0.0056896888295921,0.0056896888296226,0.0056896888296236,19.022090554394,18.994799579319,-8.782327556485e-05,-8.782327556485e-05,-8.782327556485e-05,1170370.9851701,0.017216236472234
18219200,0.98322433136623,0.016990141527101,0.005663380509012,0.0056633805090438,0.0056633805090454,-0.0013680267422662,0.0013680267423501,5.6595973973021e-13,-4.8360200087723e-13,-3.2359667914137e-13,4.175787726669e-13,-0.001417070940389,0.0014170709405767,-0.0014170709407409,0.0014170709402283,-0.0014170709401506,0.0014170709408255,-0.0014170709405001,0.0014170709404743,-0.0013309227156341,0.0013309227169847,-0.001330922716655,0.0013309227159528,3.2312336409715e-13,-4.1806422842479e-13,7.1167131775328e-13,-7.9481571892537e-13,-0.0013680267423579,0.0013680267422731,-0.0014170709401654,0.0014170709408226,-0.0014170709406498,0.0014170709403158,-0.0014170709404046,0.0014170709405744,-0.0014170709408882,0.0014170709400676,-0.001330922715755,0.0013309227169028,-0.0013309227172063,0.0013309227154054,-0.0013309227162639,0.0013309227164047,-0.0013309227169903,0.0013309227156613,-2.3801602289153e-13,8.1159697097552e-13,-0.0013680267420286,0.0013680267426029,-4.4363927065422e-13,1.0438808748617e-12,-0.0014170709406258,0.0014170709403454,-0.00141707094013,0.0014170709408402,-0.0014170709402766,0.001417070940697,-0.0014170709397806,0.0014170709411907,-0.0013309227152838,0.0013309227173811,-0.0013309227163035,0.0013309227163488,0.61338748654825,0.4780761505855,114808,2744,0.0056838113638629,0.0056838113638934,0.0056838113638945,18.051134070367,18.023864635838,-9.5590927437065e-05,-9.5590927437065e-05,-9.5590927437065e-05,1177625.2060633,0.017198301411758
18419200,0.9835967990088,0.016995677497392,0.0056652258324423,0.0056652258324741,0.0056652258324758,-0.0013673614326392,0.0013673614327229,5.7264128653266e-13,-4.9035285944093e-13,-3.2362886772605e-13,4.1754433989527e-13,-0.0014164195476368,0.001416419547829,-0.0014164195479931,0.0014164195474761,-0.0014164195473984,0.0014164195480778,-0.0014164195477524,0.001416419547722,-0.0013302491350415,0.0013302491364052,-0.0013302491360755,0.0013302491353602,3.2314018711263e-13,-4.1804752305278e-13,7.1119474407699e-13,-7.9430126405338e-13,-0.0013673614327308,0.001367361432646,-0.0014164195474155,0.0014164195480724,-0.0014164195478996,0.0014164195475659,-0.0014164195476547,0.0014164195478243,-0.0014164195481381,0.0014164195473178,-0.0013302491351695,0.0013302491363163,-0.0013302491366198,0.00133024913482,-0.0013302491356776,0.0013302491358187,-0.0013302491364041,0.0013302491350756,-2.4481122706741e-13,8.1823423879978e-13,-0.0013673614324016,0.0013673614329757,-4.4324269453405e-13,1.0432920693199e-12,-0.0014164195478779,0.0014164195475933,-0.0014164195473825,0.0014164195480878,-0.0014164195475243,0.0014164195479493,-0.0014164195470287,0.0014164195484427,-0.0013302491346916,0.0013302491368014,-0.0013302491357243,0.0013302491357561,0.61738400527671,0.50580856140999,114808,2744,0.0056810548511581,0.0056810548511886,0.0056810548511897,17.477371095873,17.461087427832,-0.00010018103123302,-0.00010018103123302,-0.00010018103123302,1180223.7170959,0.017189890139882
18619200,0.9839555183284,0.017000958755804,0.0056669862519128,0.0056669862519447,0.0056669862519463,-0.0013673167855875,0.0013673167856712,5.7938394819603e-13,-4.9705411244284e-13,-3.235947113706e-13,4.1753404609209e-13,-0.001416388400472,0.0014163884006686,-0.0014163884008327,0.0014163884003112,-0.0014163884002337,0.0014163884009174,-0.001416388400592,0.0014163884005572,-0.0013301955529371,0.0013301955543141,-0.0013301955539844,0.0013301955532559,3.2311795249776e-13,-4.1802264145995e-13,7.1083404921362e-13,-7.9393886335977e-13,-0.0013673167856791,0.0013673167855943,-0.001416388400253,0.0014163884009097,-0.0014163884007368,0.0014163884004034,-0.0014163884004922,0.0014163884006615,-0.0014163884009753,0.0014163884001554,-0.001330195553072,0.0013301955542181,-0.0013301955545216,0.0013301955527224,-0.0013301955535799,0.0013301955537212,-0.0013301955543063,0.001330195552978,-2.5161610741828e-13,8.2487244777176e-13,-0.00136731678535,0.001367316785924,-4.4295693855782e-13,1.0428568473215e-12,-0.0014163884007175,0.0014163884004285,-0.0014163884002223,0.0014163884009227,-0.0014163884003593,0.0014163884007889,-0.001416388399864,0.0014163884012821,-0.0013301955525874,0.0013301955547101,-0.0013301955536334,0.0013301955536517,0.61178637495744,0.48684635879891,114808,2744,0.005680869785647,0.0056808697856776,0.0056808697856787,17.231494708491,17.224445382551,-0.00010214804233207,-0.00010214804233207,-0.00010214804233207,1181613.1048277,0.017189325838804
18819200,0.98430129392569,0.017006371843776,0.0056687906145701,0.0056687906146019,0.0056687906146036,-0.0013672842683038,0.0013672842683877,5.8616533937477e-13,-5.0371248819304e-13,-3.2348436237496e-13,4.1755376607789e-13,-0.0014163687631519,0.0014163687633531,-0.001416368763517,0.0014163687629913,-0.0014163687629136,0.0014163687636021,-0.0014163687632765,0.0014163687632373,-0.0013301604926455,0.0013301604940356,-0.0013301604937059,0.0013301604929642,3.2308777694901e-13,-4.1795687876307e-13,7.1058205691181e-13,-7.9366740106452e-13,-0.0013672842683955,0.0013672842683108,-0.0014163687629353,0.0014163687635918,-0.0014163687634189,0.0014163687630857,-0.0014163687631744,0.0014163687633439,-0.0014163687636576,0.0014163687628376,-0.0013301604927869,0.0013301604939326,-0.0013301604942366,0.0013301604924375,-0.0013301604932952,0.0013301604934364,-0.0013301604940213,0.0013301604926933,-2.5841222333102e-13,8.3151953882534e-13,-0.0013672842680666,0.0013672842686403,-4.4279659051517e-13,1.0424986229709e-12,-0.0014163687634019,0.0014163687631086,-0.001416368762907,0.0014163687636026,-0.0014163687630394,0.0014163687634734,-0.0014163687625443,0.0014163687639664,-0.0013301604922958,0.0013301604944316,-0.0013301604933551,0.0013301604933599,0.64922934296755,0.666501159985,114808,2744,0.0056807350003212,0.005680735000352,0.0056807350003532,16.994467264428,16.98780333727,-0.00010404426188458,-0.00010404426188458,-0.00010404426188458,1183893.6594458,0.017188914843138
19019200,0.98463469653558,0.017011906107378,0.0056706353691041,0.0056706353691359,0.0056706353691375,-0.0013672942035469,0.0013672942036306,5.9279196322273e-13,-5.1052508671345e-13,-3.2352115973428e-13,4.1739349891512e-13,-0.0014163784046096,0.0014163784048152,-0.0014163784049793,0.0014163784044488,-0.0014163784043714,0.001416378405064,-0.0014163784047387,0.0014163784046949,-0.0013301779126046,0.0013301779140079,-0.0013301779136782,0.0013301779129233,3.2304136660211e-13,-4.1788546917988e-13,7.1045888420406e-13,-7.9349005354119e-13,-0.0013672942036385,0.0013672942035538,-0.0014163784043951,0.0014163784050515,-0.0014163784048787,0.0014163784045456,-0.0014163784046343,0.0014163784048035,-0.0014163784051172,0.0014163784042976,-0.0013301779127529,0.0013301779138984,-0.0013301779142019,0.0013301779124036,-0.0013301779132607,0.0013301779134021,-0.0013301779139869,0.0013301779126592,-2.6517739901249e-13,8.3818951153284e-13,-0.0013672942033096,0.0013672942038832,-4.4268006466319e-13,1.0423143344831e-12,-0.001416378404864,0.0014163784045661,-0.0014163784043692,0.00141637840506,-0.0014163784044968,0.0014163784049355,-0.0014163784040019,0.0014163784054283,-0.0013301779122552,0.0013301779144039,-0.0013301779133277,0.0013301779133191,0.68719098427794,0.83152155733643,114808,2744,0.0056807761831371,0.0056807761831677,0.0056807761831689,16.757808122825,16.75116129199,-0.0001059375350174,-0.0001059375350174,-0.0001059375350174,1176259.5848261,0.017189040443204
19219200,0.98496656905773,0.017017578189519,0.0056725260631511,0.0056725260631829,0.0056725260631845,-0.0013683098337187,0.0013683098338024,5.9953206889801e-13,-5.1722942601814e-13,-3.2343638302728e-13,4.1733551539236e-13,-0.0014173790070769,0.0014173790072871,-0.001417379007451,0.0014173790069163,-0.0014173790068389,0.0014173790075358,-0.0014173790072105,0.0014173790071622,-0.0013312097534494,0.0013312097548658,-0.0013312097545361,0.001331209753768,3.2296272194583e-13,-4.1782035352206e-13,7.1040053304547e-13,-7.9344164325538e-13,-0.0013683098338103,0.0013683098337256,-0.0014173790068647,0.0014173790075211,-0.0014173790073483,0.0014173790070151,-0.0014173790071039,0.0014173790072731,-0.0014173790075867,0.0014173790067673,-0.0013312097536042,0.0013312097547496,-0.001331209755053,0.0013312097532549,-0.001331209754112,0.0013312097542533,-0.0013312097548381,0.0013312097535106,-2.7193098681266e-13,8.448798953815e-13,-0.0013683098334814,0.001368309834055,-4.4265230080547e-13,1.0422338663532e-12,-0.0014173790073359,0.0014173790070335,-0.001417379006841,0.0014173790075273,-0.0014173790069642,0.0014173790074073,-0.0014173790064693,0.0014173790079001,-0.0013312097530999,0.0013312097552617,-0.0013312097541856,0.0013312097541638,0.70677985285991,0.897136206051,114808,2744,0.0056849840916181,0.0056849840916487,0.0056849840916499,17.021693891059,17.028891199838,-0.00010382644887153,-0.00010382644887153,-0.00010382644887153,1159492.9923269,0.017201880780929
19419200,0.98530204017898,0.017023196185207,0.0056743987283806,0.0056743987284124,0.005674398728414,-0.0013698248871999,0.0013698248872836,6.0623911492147e-13,-5.2396914866284e-13,-3.2337702810799e-13,4.1723854776642e-13,-0.0014188805634904,0.0014188805637051,-0.0014188805638689,0.0014188805633297,-0.0014188805632524,0.0014188805639538,-0.0014188805636285,0.0014188805635756,-0.0013327359263898,0.0013327359278194,-0.0013327359274898,0.0013327359267084,3.229006650181e-13,-4.1772565053282e-13,7.1051176494153e-13,-7.9351840561623e-13,-0.0013698248872914,0.0013698248872068,-0.0014188805632804,0.0014188805639368,-0.001418880563764,0.0014188805634308,-0.0014188805635195,0.0014188805636888,-0.0014188805640024,0.001418880563183,-0.001332735926551,0.0013327359276966,-0.001332735928,0.0013327359262018,-0.0013327359270591,0.0013327359272002,-0.001332735927785,0.0013327359264576,-2.7868351582165e-13,8.5157333796025e-13,-0.0013698248869626,0.0013698248875362,-4.4277441472203e-13,1.0422990408327e-12,-0.0014188805637538,0.0014188805634469,-0.001418880563259,0.0014188805639408,-0.0014188805633777,0.0014188805638251,-0.0014188805628827,0.001418880564318,-0.0013327359260403,0.0013327359282152,-0.0013327359271392,0.0013327359271042,0.69264755414581,0.80799828530288,114808,2744,0.0056912610727376,0.0056912610727682,0.0056912610727695,17.537436823123,17.551808832717,-9.9700505415017e-05,-9.9700505415017e-05,-9.9700505415017e-05,1141798.137695,0.017221035544986
19619200,0.9856409984943,0.017028737932913,0.0056762459776158,0.0056762459776476,0.0056762459776492,-0.0013713300253463,0.00137133002543,6.1295040805784e-13,-5.3070530592933e-13,-3.2331540131418e-13,4.1713612442479e-13,-0.0014203812977688,0.001420381297988,-0.0014203812981516,0.001420381297608,-0.0014203812975309,0.0014203812982366,-0.0014203812979114,0.001420381297854,-0.0013342447739099,0.0013342447753526,-0.0013342447750229,0.0013342447742284,3.2283937277289e-13,-4.1762418304435e-13,7.1071352348383e-13,-7.9366575405601e-13,-0.0013713300254379,0.0013713300253532,-0.0014203812975609,0.0014203812982173,-0.0014203812980446,0.0014203812977112,-0.0014203812977998,0.0014203812979695,-0.0014203812982828,0.0014203812974635,-0.0013342447740775,0.0013342447752236,-0.0013342447755268,0.0013342447737284,-0.0013342447745858,0.0013342447747268,-0.0013342447753116,0.0013342447739844,-2.8545319136565e-13,8.5825157512116e-13,-0.0013713300251091,0.0013713300256826,-4.429938786058e-13,1.0424249781619e-12,-0.0014203812980368,0.0014203812977251,-0.0014203812975418,0.0014203812982191,-0.0014203812976561,0.0014203812981078,-0.001420381297161,0.0014203812986007,-0.0013342447735603,0.0013342447757484,-0.0013342447746724,0.0013342447746243,0.67638951246263,0.71886036455476,114808,2744,0.0056974968697069,0.0056974968697377,0.005697496869739,18.06005441546,18.074726465596,-9.5519564676317e-05,-9.5519564676317e-05,-9.5519564676317e-05,1130669.2462971,0.017240065288643
19819200,0.98598317534754,0.017034176107066,0.0056780587023337,0.0056780587023655,0.0056780587023671,-0.0013728108366307,0.0013728108367144,6.196651643237e-13,-5.3743655973808e-13,-3.2323327032139e-13,4.1704639922466e-13,-0.0014218645654609,0.0014218645656846,-0.0014218645658483,0.0014218645653003,-0.0014218645652231,0.0014218645659332,-0.0014218645656081,0.0014218645655461,-0.0013357234857177,0.0013357234871735,-0.001335723486844,0.0013357234860362,3.2275266953926e-13,-4.1753759745418e-13,7.1095410436954e-13,-7.9391774635782e-13,-0.0013728108367222,0.0013728108366376,-0.0014218645652552,0.0014218645659119,-0.0014218645657391,0.0014218645654056,-0.0014218645654942,0.001421864565664,-0.0014218645659774,0.0014218645651579,-0.0013357234858915,0.001335723487038,-0.0013357234873413,0.0013357234855424,-0.0013357234864004,0.001335723486541,-0.001335723487126,0.0013357234857988,-2.9215701598018e-13,8.6499254565972e-13,-0.0013728108363935,0.001372810836967,-4.4322004816706e-13,1.0426917347185e-12,-0.0014218645657335,0.0014218645654172,-0.0014218645652383,0.0014218645659114,-0.0014218645653483,0.0014218645658044,-0.0014218645648531,0.0014218645662976,-0.001335723485368,0.0013357234875696,-0.0013357234864933,0.0013357234864323,0.65786892285924,0.6273053068253,114808,2744,0.0057036317965339,0.0057036317965645,0.0057036317965658,18.582958731999,18.597644098475,-9.1336330144009e-05,-9.1336330144009e-05,-9.1336330144009e-05,1124954.5801286,0.017258787759343
20019200,0.98631911703362,0.017039705504993,0.0056799018349759,0.0056799018350078,0.0056799018350094,-0.0013734335514837,0.0013734335515674,6.2638729995972e-13,-5.4415299609968e-13,-3.2314750249117e-13,4.1695182858432e-13,-0.0014224959291356,0.0014224959293639,-0.0014224959295275,0.0014224959289751,-0.0014224959288979,0.0014224959296125,-0.0014224959292873,0.0014224959292209,-0.001336344548457,0.001336344549926,-0.0013363445495964,0.0013363445487755,3.2269108318538e-13,-4.1741748347652e-13,7.1127962383691e-13,-7.9418862043574e-13,-0.0013734335515752,0.0013734335514907,-0.0014224959289321,0.001422495929589,-0.0014224959294162,0.0014224959290824,-0.001422495929171,0.0014224959293411,-0.0014224959296544,0.0014224959288349,-0.0013363445486369,0.0013363445497842,-0.0013363445500873,0.0013363445482879,-0.0013363445491465,0.0013363445492867,-0.0013363445498719,0.0013363445485447,-2.9888416341162e-13,8.7170722288388e-13,-0.0013734335512465,0.00137343355182,-4.4351698027246e-13,1.0429916667323e-12,-0.0014224959294128,0.0014224959290919,-0.0014224959289175,0.0014224959295862,-0.0014224959290231,0.0014224959294835,-0.0014224959285278,0.0014224959299769,-0.0013363445481072,0.0013363445503221,-0.0013363445492457,0.0013363445491716,0.68048381432765,0.73220119930258,114808,2744,0.005706211613317,0.0057062116133477,0.005706211613349,18.671287644638,18.673953988654,-9.0629698842895e-05,-9.0629698842895e-05,-9.0629698842895e-05,1124508.5170825,0.017266661126964
20219200,0.98664641910974,0.017045244444406,0.0056817481481136,0.0056817481481455,0.0056817481481471,-0.001373837874103,0.0013738378741867,6.3308950146207e-13,-5.5089529265472e-13,-3.2308156723522e-13,4.1685399333782e-13,-0.0014228993463274,0.0014228993465603,-0.0014228993467238,0.0014228993461669,-0.0014228993460898,0.0014228993468088,-0.0014228993464837,0.0014228993464127,-0.0013367542043625,0.0013367542058446,-0.0013367542055151,0.0013367542046809,3.2260332116057e-13,-4.1734277987632e-13,7.1163978930469e-13,-7.945590797067e-13,-0.0013738378741945,0.00137383787411,-0.0014228993461261,0.0014228993467831,-0.0014228993466104,0.0014228993462764,-0.001422899346365,0.0014228993465354,-0.0014228993468486,0.0014228993460289,-0.0013367542045486,0.0013367542056966,-0.0013367542059998,0.0013367542041997,-0.0013367542050587,0.0013367542051985,-0.001336754205784,0.0013367542044567,-3.0560331108744e-13,8.7842919400287e-13,-0.0013738378738658,0.0013738378744393,-4.4387932214434e-13,1.043354714465e-12,-0.0014228993466093,0.0014228993462836,-0.0014228993461137,0.0014228993467782,-0.0014228993462151,0.0014228993466797,-0.0014228993457195,0.0014228993471734,-0.0013367542040125,0.0013367542062409,-0.0013367542051642,0.0013367542050773,0.69908657314424,0.80928248288768,114808,2744,0.0057078866960777,0.0057078866961084,0.0057078866961097,18.638459805161,18.63759384788,-9.089232155871e-05,-9.089232155871e-05,-9.089232155871e-05,1118225.1415751,0.017271773176414
20419200,0.98696524871036,0.017050648010069,0.005683549336668,0.0056835493366998,0.0056835493367015,-0.0013742392215087,0.0013742392215923,6.3980342411369e-13,-5.5762375335027e-13,-3.2301696523359e-13,4.16768981229e-13,-0.0014232953676542,0.0014232953678915,-0.001423295368055,0.0014232953674937,-0.0014232953674166,0.00142329536814,-0.0014232953678149,0.0014232953677394,-0.0013371621278598,0.001337162129355,-0.0013371621290256,0.0013371621281781,3.2254438178466e-13,-4.1725095915196e-13,7.1205271786648e-13,-7.9493606818996e-13,-0.0013742392216002,0.0013742392215157,-0.0014232953674548,0.0014232953681122,-0.0014232953679395,0.0014232953676051,-0.0014232953676937,0.0014232953678645,-0.0014232953681776,0.0014232953673577,-0.0013371621280521,0.0013371621292009,-0.001337162129504,0.0013371621277032,-0.0013371621285628,0.0013371621287022,-0.001337162129288,0.0013371621279606,-3.1233254669039e-13,8.851413713034e-13,-0.0013742392212715,0.001374239221845,-4.4427889817286e-13,1.0437428790774e-12,-0.0014232953679406,0.0014232953676102,-0.0014232953674447,0.001423295368105,-0.0014232953675419,0.0014232953680108,-0.0014232953670461,0.0014232953685047,-0.0013371621275097,0.0013371621297515,-0.0013371621286746,0.0013371621285747,0.69998398555858,0.79964910914345,114808,2744,0.0057095494691121,0.0057095494691428,0.0057095494691441,18.602247972264,18.601233707106,-9.1182016221891e-05,-9.1182016221891e-05,-9.1182016221891e-05,1108666.9454621,0.017276847596029
20619200,0.98727583570236,0.017055379425791,0.0056851264752419,0.0056851264752738,0.0056851264752754,-0.0013746022183122,0.0013746022183958,6.4647083256129e-13,-5.6439844459582e-13,-3.2298557361445e-13,4.1665553616526e-13,-0.0014236608676998,0.0014236608679414,-0.0014236608681047,0.001423660867539,-0.0014236608674619,0.0014236608681898,-0.0014236608678649,0.0014236608677848,-0.0013375172646325,0.0013375172661408,-0.0013375172658115,0.001337517264951,3.2233868218629e-13,-4.1732436867406e-13,7.1232023910565e-13,-7.9548375734079e-13,-0.0013746022184039,0.0013746022183191,-0.0014236608675019,0.0014236608681593,-0.0014236608679868,0.0014236608676518,-0.0014236608677407,0.0014236608679113,-0.0014236608682247,0.0014236608674045,-0.001337517264831,0.00133751726598,-0.0013375172662834,0.0013375172644817,-0.0013375172653426,0.0013375172654815,-0.0013375172660673,0.0013375172647399,-3.1907760533936e-13,8.9184040194673e-13,-0.0013746022180751,0.0013746022186486,-4.4467188616735e-13,1.0441593369431e-12,-0.00142366086799,0.0014236608676546,-0.0014236608674936,0.0014236608681499,-0.0014236608675865,0.0014236608680595,-0.0014236608670906,0.0014236608685543,-0.0013375172642824,0.0013375172665375,-0.0013375172654606,0.0013375172653481,0.63099122477193,0.47044782337618,114808,2744,0.0057110532798498,0.0057110532798809,0.0057110532798822,18.565894419986,18.564873566331,-9.1472844640112e-05,-9.1472844640112e-05,-9.1472844640112e-05,1101632.1321549,0.017281437303321
20819200,0.98756396975987,0.017060095968261,0.0056866986560652,0.005686698656097,0.0056866986560986,-0.0013733672282503,0.0013733672283339,6.5322975659551e-13,-5.7107066516663e-13,-3.2292481237324e-13,4.1663661762556e-13,-0.0014224458190236,0.0014224458192699,-0.0014224458194333,0.0014224458188631,-0.0014224458187861,0.0014224458195183,-0.0014224458191934,0.0014224458191087,-0.0013362740643589,0.0013362740658803,-0.001336274065551,0.0013362740646772,3.2242415016353e-13,-4.1715219746318e-13,7.1291633854228e-13,-7.9578904213219e-13,-0.0013733672283417,0.0013733672282572,-0.0014224458188284,0.0014224458194863,-0.0014224458193136,0.0014224458189786,-0.0014224458190672,0.0014224458192386,-0.0014224458195517,0.0014224458187313,-0.0013362740645633,0.0013362740657138,-0.0013362740660169,0.0013362740642145,-0.0013362740650754,0.001336274065214,-0.0013362740658003,0.0013362740644727,-3.2573646073943e-13,8.9861375384901e-13,-0.001373367228013,0.0013733672285866,-4.4510040248823e-13,1.0446316754547e-12,-0.0014224458193191,0.0014224458189793,-0.0014224458188227,0.0014224458194747,-0.0014224458189115,0.0014224458193888,-0.0014224458184151,0.0014224458198833,-0.0013362740640084,0.0013362740662771,-0.0013362740651997,0.0013362740650742,0.67642715762348,0.69457494878341,114808,2744,0.0057059366451062,0.005705936645137,0.0057059366451383,17.744766617638,17.722040746063,-9.8041867058895e-05,-9.8041867058895e-05,-9.8041867058895e-05,1111003.6567834,0.017265822860265
21019200,0.98783000313976,0.017064314531999,0.005688104843978,0.0056881048440098,0.0056881048440114,-0.0013719704166301,0.0013719704167137,6.5993385785599e-13,-5.7780495886414e-13,-3.2290592680588e-13,4.1659969228301e-13,-0.0014210537864141,0.001421053786665,-0.0014210537868283,0.0014210537862536,-0.0014210537861767,0.0014210537869133,-0.0014210537865884,0.0014210537864993,-0.0013348734477559,0.0013348734492905,-0.0013348734489612,0.0013348734480742,3.2240568013954e-13,-4.1711102225047e-13,7.1336308960023e-13,-7.9623885192022e-13,-0.0013719704167215,0.0013719704166371,-0.001421053786221,0.0014210537868792,-0.0014210537867066,0.0014210537863713,-0.0014210537864598,0.0014210537866315,-0.0014210537869446,0.001421053786124,-0.0013348734479665,0.0013348734491179,-0.001334873449421,0.0013348734476177,-0.0013348734484793,0.0013348734486175,-0.0013348734492041,0.0013348734478762,-3.3243775601945e-13,9.0534787165574e-13,-0.0013719704163928,0.0013719704169664,-4.4552480128785e-13,1.0451011905231e-12,-0.0014210537867143,0.0014210537863697,-0.0014210537862176,0.0014210537868654,-0.0014210537863022,0.0014210537867837,-0.0014210537858055,0.0014210537872785,-0.0013348734474053,0.0013348734496876,-0.0013348734486098,0.0013348734484715,0.65601663154929,0.59726576361696,114808,2744,0.0057001496410367,0.0057001496410675,0.0057001496410689,16.834493905447,16.808974900258,-0.00010532404875643,-0.00010532404875643,-0.00010532404875643,1108297.5210931,0.017248162503596
21219200,0.98807579500571,0.01706823484459,0.0056894116148415,0.0056894116148733,0.005689411614875,-0.0013705203696091,0.0013705203696927,6.6664389183965e-13,-5.8453013255073e-13,-3.2289058812006e-13,4.165719284253e-13,-0.001419611178701,0.0014196111789563,-0.0014196111791197,0.0014196111785405,-0.0014196111784636,0.0014196111792047,-0.0014196111788798,0.0014196111787862,-0.001333420034986,0.0013334200365338,-0.0013334200362045,0.0013334200353043,3.2239315111053e-13,-4.1707949380188e-13,7.138126052796e-13,-7.9667742675736e-13,-0.0013705203697006,0.0013705203696161,-0.00141961117851,0.0014196111791685,-0.0014196111789958,0.0014196111786602,-0.0014196111787488,0.0014196111789208,-0.0014196111792339,0.001419611178413,-0.0013334200352027,0.001333420036355,-0.001333420036658,0.0013334200348539,-0.0013334200357161,0.001333420035854,-0.0013334200364409,0.0013334200351128,-3.3913616903459e-13,9.1208387175792e-13,-0.0013705203693719,0.0013705203699455,-4.4594355320115e-13,1.045567293931e-12,-0.0014196111790058,0.0014196111786565,-0.0014196111785088,0.0014196111791525,-0.0014196111785892,0.0014196111790749,-0.0014196111780922,0.00141961117957,-0.0013334200346352,0.001333420036931,-0.0013334200358529,0.0013334200357017,0.65967100152196,0.6185149949554,114808,2744,0.0056941420398637,0.0056941420398945,0.0056941420398959,15.921546715423,15.895909054454,-0.00011262762627662,-0.00011262762627662,-0.00011262762627662,1109921.6376619,0.017229829271139
21419200,0.98830633358041,0.017071935041262,0.0056906450137323,0.0056906450137642,0.0056906450137658,-0.0013694867255281,0.0013694867256116,6.7335794500199e-13,-5.9125315614215e-13,-3.2288928255332e-13,4.1655642154608e-13,-0.0014185812741322,0.001418581274392,-0.0014185812745554,0.0014185812739718,-0.0014185812738949,0.0014185812746404,-0.0014185812743155,0.0014185812742174,-0.0013323857718951,0.001332385773456,-0.0013323857731267,0.0013323857722133,3.2238662189823e-13,-4.1706949410736e-13,7.142398863441e-13,-7.9709876682688e-13,-0.0013694867256195,0.001369486725535,-0.0014185812739433,0.0014185812746021,-0.0014185812744294,0.0014185812740935,-0.0014185812741821,0.0014185812743544,-0.0014185812746674,0.0014185812738463,-0.0013323857721179,0.001332385773271,-0.0013323857735741,0.0013323857717692,-0.0013323857726319,0.0013323857727695,-0.0013323857733568,0.0013323857720283,-3.4583796429935e-13,9.1881910717757e-13,-0.0013694867252908,0.0013694867258644,-4.4634871729425e-13,1.046008751033e-12,-0.0014185812744416,0.0014185812740876,-0.0014185812739443,0.0014185812745838,-0.0014185812740205,0.0014185812745105,-0.0014185812735233,0.0014185812750059,-0.0013323857715442,0.0013323857738534,-0.001332385772775,0.001332385772611,0.66373452188455,0.63976422629384,114808,2744,0.0056898595991299,0.0056898595991607,0.0056898595991621,15.232432831104,15.212983689483,-0.00011814053735116,-0.00011814053735116,-0.00011814053735116,1109863.1628699,0.017216760806283
21619200,0.98852304341008,0.017075442838469,0.005691814279468,0.0056918142794998,0.0056918142795014,-0.001368489827682,0.0013684898277655,6.8007627836446e-13,-5.9797228497664e-13,-3.22894259768e-13,4.165585170703e-13,-0.0014175885841879,0.0014175885844522,-0.0014175885846155,0.0014175885840274,-0.0014175885839505,0.0014175885847005,-0.0014175885843756,0.0014175885842731,-0.0013313879738843,0.0013313879754583,-0.001331387975129,0.0013313879742026,3.223977980274e-13,-4.1706537658609e-13,7.1464381518082e-13,-7.9748416681788e-13,-0.0013684898277734,0.001368489827689,-0.0014175885840011,0.0014175885846601,-0.0014175885844874,0.0014175885841513,-0.0014175885842398,0.0014175885844124,-0.0014175885847254,0.0014175885839041,-0.0013313879741132,0.0013313879752672,-0.0013313879755702,0.0013313879737646,-0.0013313879746278,0.0013313879747652,-0.0013313879753526,0.001331387974024,-3.5254149480521e-13,9.2555272499958e-13,-0.0013684898274447,0.0013684898280184,-4.4672570577751e-13,1.0464181502909e-12,-0.0014175885845019,0.0014175885841431,-0.0014175885840043,0.0014175885846396,-0.0014175885840763,0.0014175885845705,-0.0014175885835788,0.0014175885850662,-0.0013313879735332,0.0013313879758559,-0.0013313879747772,0.0013313879746003,0.66920853585561,0.66571266625382,114808,2744,0.0056857293825088,0.0056857293825395,0.0056857293825409,14.56799867625,14.549325502629,-0.00012345601059,-0.00012345601059,-0.00012345601059,1109258.6725481,0.017204157051369
21819200,0.98872688162614,0.017078695084721,0.0056928983615517,0.0056928983615836,0.0056928983615852,-0.001367481087775,0.0013674810878585,6.8679441044631e-13,-6.0469153788823e-13,-3.2290478001187e-13,4.1656727415572e-13,-0.0014165836845905,0.0014165836848593,-0.0014165836850226,0.00141658368443,-0.0014165836843532,0.0014165836851076,-0.0014165836847827,0.0014165836846757,-0.001330377266076,0.0013303772676632,-0.0013303772673339,0.0013303772663943,3.2240591542647e-13,-4.1707643507179e-13,7.1501339212579e-13,-7.9785362611939e-13,-0.0013674810878664,0.0013674810877819,-0.0014165836844058,0.0014165836850651,-0.0014165836848924,0.001416583684556,-0.0014165836846446,0.0014165836848174,-0.0014165836851304,0.0014165836843088,-0.0013303772663111,0.0013303772674658,-0.0013303772677688,0.0013303772659624,-0.0013303772668262,0.0013303772669633,-0.001330377267551,0.0013303772662221,-3.5924284890697e-13,9.3228863686915e-13,-0.0013674810875377,0.0013674810881114,-4.4707487158132e-13,1.0468060207946e-12,-0.0014165836849091,0.0014165836845456,-0.0014165836844112,0.0014165836850424,-0.001416583684479,0.0014165836849775,-0.0014165836839812,0.0014165836854734,-0.0013303772657247,0.0013303772680609,-0.0013303772669819,0.0013303772667922,0.65988853087851,0.62146898374426,114808,2744,0.0056815500868929,0.0056815500869236,0.005681550086925,13.904307507568,13.885667315775,-0.00012876553993946,-0.00012876553993946,-0.00012876553993946,1107718.6279014,0.017191403695577
22019200,0.98893036295193,0.017081890735224,0.0056939635783863,0.0056939635784182,0.0056939635784198,-0.0013682144209205,0.001368214421004,6.9351473915224e-13,-6.1141773452151e-13,-3.22925803956e-13,4.1658331778324e-13,-0.0014173146710228,0.0014173146712961,-0.0014173146714594,0.0014173146708623,-0.0014173146707855,0.0014173146715444,-0.0014173146712195,0.001417314671108,-0.0013311132719337,0.0013311132735341,-0.0013311132732048,0.001331113272252,3.2242720889362e-13,-4.1709225811782e-13,7.1535367584801e-13,-7.9818720416411e-13,-0.0013682144210119,0.0013682144209275,-0.0014173146708402,0.0014173146714998,-0.001417314671327,0.0014173146709905,-0.001417314671079,0.0014173146712521,-0.0014173146715651,0.0014173146707432,-0.0013311132721751,0.0013311132733304,-0.0013311132736335,0.0013311132718264,-0.0013311132726906,0.0013311132728276,-0.0013311132734155,0.0013311132720864,-3.659507616319e-13,9.3902713689495e-13,-0.0013682144206832,0.0013682144212569,-4.4739303833214e-13,1.0471587747241e-12,-0.001417314671346,0.0014173146709779,-0.0014173146708479,0.0014173146714748,-0.0014173146709114,0.0014173146714142,-0.0014173146704135,0.0014173146719103,-0.0013311132715824,0.001331113273932,-0.0013311132728527,0.0013311132726501,0.64982377010726,0.57722530123469,114808,2744,0.0056845883301217,0.0056845883301525,0.005684588330154,14.152823994322,14.159413785498,-0.00012677740804542,-0.00012677740804542,-0.00012677740804542,1106144.1607471,0.017200675066899
22219200,0.98913469678873,0.017085075242348,0.0056950250807607,0.0056950250807926,0.0056950250807942,-0.0013691313613928,0.0013691313614763,7.0023468919326e-13,-6.1814612869795e-13,-3.2295444761221e-13,4.1659930258904e-13,-0.0014182397599992,0.0014182397602769,-0.0014182397604402,0.0014182397598386,-0.0014182397597618,0.0014182397605253,-0.0014182397602003,0.0014182397600843,-0.0013320259618533,0.001332025963467,-0.0013320259631376,0.0013320259621717,3.2244244372233e-13,-4.171219630927e-13,7.156663721777e-13,-7.9848607738667e-13,-0.0013691313614842,0.0013691313613998,-0.0014182397598186,0.0014182397604784,-0.0014182397603057,0.0014182397599689,-0.0014182397600575,0.0014182397602307,-0.0014182397605437,0.0014182397597217,-0.0013320259621011,0.001332025963257,-0.0013320259635601,0.0013320259617524,-0.0013320259626171,0.0013320259627538,-0.001332025963342,0.0013320259620126,-3.7266205660645e-13,9.4576425461004e-13,-0.0013691313611554,0.0013691313617292,-4.4768044131688e-13,1.0474811766397e-12,-0.0014182397603268,0.0014182397599541,-0.0014182397598286,0.0014182397604512,-0.0014182397598878,0.0014182397603949,-0.0014182397593896,0.0014182397608912,-0.001332025961502,0.001332025963865,-0.0013320259627855,0.00133202596257,0.64497433487542,0.56029673343211,114808,2744,0.0056883872001241,0.005688387200155,0.0056883872001564,14.498834784166,14.508501840881,-0.00012400932172667,-0.00012400932172667,-0.00012400932172667,1108656.5485176,0.017212267989652
22419200,0.9893398268679,0.017088407073063,0.0056961356909991,0.005696135691031,0.0056961356910326,-0.0013700577166593,0.0013700577167428,7.0696226124408e-13,-6.2486720255574e-13,-3.2297731272252e-13,4.1662508121328e-13,-0.0014191744454628,0.001419174445745,-0.0014191744459083,0.0014191744453023,-0.0014191744452255,0.0014191744459934,-0.0014191744456684,0.001419174445548,-0.001332950684032,0.0013329506856588,-0.0013329506853294,0.0013329506843504,3.2248508947835e-13,-4.1712778644422e-13,7.1593065822159e-13,-7.9874277542708e-13,-0.0013700577167507,0.0013700577166663,-0.0014191744452845,0.0014191744459444,-0.0014191744457717,0.0014191744454348,-0.0014191744455233,0.0014191744456967,-0.0014191744460098,0.0014191744451875,-0.0013329506842861,0.0013329506854424,-0.0013329506857456,0.0013329506839374,-0.0013329506848022,0.0013329506849389,-0.0013329506855272,0.0013329506841976,-3.7937120458776e-13,9.5250316638797e-13,-0.0013700577164219,0.0013700577169957,-4.4792590440638e-13,1.0477544035869e-12,-0.0014191744457951,0.0014191744454177,-0.0014191744452967,0.001419174445915,-0.0014191744453515,0.001419174445863,-0.0014191744448532,0.0014191744463595,-0.0013329506836804,0.0013329506860568,-0.0013329506849772,0.0013329506847486,0.67139352187625,0.68841566057336,114808,2744,0.0056922250731946,0.0056922250732253,0.0056922250732268,14.847791964056,14.857589896264,-0.00012121766428755,-0.00012121766428755,-0.00012121766428755,1111639.7426963,0.017223980012491
22619200,0.98954551352939,0.017091785659116,0.0056972618863504,0.0056972618863822,0.0056972618863838,-0.0013709945819842,0.0013709945820677,7.1369455098166e-13,-6.3158236402522e-13,-3.2299458988313e-13,4.1665752875144e-13,-0.0014201136057533,0.00142011360604,-0.0014201136062033,0.0014201136055928,-0.001420113605516,0.0014201136062884,-0.0014201136059634,0.0014201136058385,-0.0013338883224356,0.0013338883240756,-0.0013338883237462,0.001333888322754,3.2250779466708e-13,-4.1715484444114e-13,7.1616482753847e-13,-7.9898023876097e-13,-0.0013709945820756,0.0013709945819912,-0.0014201136055771,0.0014201136062373,-0.0014201136060645,0.0014201136057274,-0.001420113605816,0.0014201136059895,-0.0014201136063026,0.0014201136054802,-0.0013338883226959,0.0013338883238527,-0.0013338883241559,0.0013338883223472,-0.0013338883232124,0.001333888323349,-0.0013338883239375,0.0013338883226077,-3.8608129371679e-13,9.5924001940527e-13,-0.0013709945817468,0.0013709945823206,-4.4814642708133e-13,1.0480031018717e-12,-0.0014201136060901,0.0014201136057081,-0.0014201136055915,0.0014201136062056,-0.0014201136056421,0.0014201136061579,-0.0014201136051436,0.0014201136066545,-0.0013338883220839,0.0013338883244737,-0.0013338883233938,0.0013338883231523,0.67880265950224,0.71862480832647,114808,2744,0.0056961065101848,0.0056961065102156,0.0056961065102171,15.185996927374,15.195499854149,-0.00011851202458101,-0.00011851202458101,-0.00011851202458101,1108376.985286,0.017235824978326
22819200,0.98974877600892,0.017095115182835,0.0056983717275899,0.0056983717276218,0.0056983717276234,-0.0013715083145413,0.0013715083146248,7.2041503501372e-13,-6.3830786674588e-13,-3.2301858398009e-13,4.1668322649581e-13,-0.0014206305545343,0.0014206305548254,-0.0014206305549888,0.0014206305543737,-0.001420630554297,0.0014206305550739,-0.0014206305547489,0.0014206305546195,-0.0013344012600001,0.0013344012616534,-0.0013344012613239,0.0013344012603186,3.2252620586933e-13,-4.1718537292028e-13,7.163577628209e-13,-7.9918617364627e-13,-0.0013715083146327,0.0013715083145483,-0.0014206305543602,0.0014206305550205,-0.0014206305548477,0.0014206305545106,-0.0014206305545991,0.0014206305547727,-0.0014206305550858,0.0014206305542633,-0.001334401260267,0.0013344012614242,-0.0013344012617273,0.0013344012599182,-0.0013344012607837,0.0013344012609202,-0.0013344012615088,0.0013344012601788,-3.927990590819e-13,9.6596860796915e-13,-0.0013715083143039,0.0013715083148777,-4.4833477426863e-13,1.0482116249132e-12,-0.0014206305548756,0.001420630554489,-0.0014206305543769,0.0014206305549866,-0.0014206305544231,0.0014206305549433,-0.0014206305539245,0.00142063055544,-0.0013344012596485,0.0013344012620515,-0.0013344012609715,0.001334401260717,0.67691801123573,0.70403727244203,114808,2744,0.0056982348888112,0.005698234888842,0.0056982348888434,15.303132691162,15.306516963861,-0.00011757493847071,-0.00011757493847071,-0.00011757493847071,1104491.2732392,0.017242320276715
23019200,0.98994953561651,0.017098182416499,0.0056993941388113,0.0056993941388431,0.0056993941388447,-0.0013719923096037,0.0013719923096877,7.2737605765338e-13,-6.4480090333751e-13,-3.2279393068685e-13,4.1696138711584e-13,-0.0014211192743243,0.0014211192746203,-0.0014211192747834,0.0014211192741642,-0.001421119274087,0.0014211192748688,-0.0014211192745434,0.0014211192744102,-0.0013348800012265,0.0013348800028934,-0.0013348800025634,0.0013348800015455,3.2244914939982e-13,-4.173084868063e-13,7.1641634926642e-13,-7.9942598984946e-13,-0.0013719923096956,0.001371992309611,-0.0014211192741528,0.0014211192748132,-0.0014211192746405,0.0014211192743028,-0.0014211192743917,0.0014211192745654,-0.001421119274879,0.0014211192740557,-0.0013348800015008,0.0013348800026578,-0.0013348800029612,0.0013348800011516,-0.0013348800020177,0.0013348800021537,-0.0013348800027427,0.0013348800014126,-3.9954211779197e-13,9.7267710891141e-13,-0.0013719923093668,0.0013719923099405,-4.4850012215854e-13,1.0483450326024e-12,-0.0014211192746707,0.0014211192742793,-0.0014211192741717,0.001421119274777,-0.0014211192742135,0.001421119274738,-0.001421119273715,0.001421119275235,-0.0013348800008756,0.0013348800032922,-0.0013348800022119,0.0013348800019445,0.63260001212937,0.4953449837253,114808,2744,0.0057002400392982,0.0057002400393295,0.005700240039331,15.414404373379,15.417534073573,-0.00011668476501297,-0.00011668476501297,-0.00011668476501297,1101565.0901949,0.017248439654668
23219200,0.99014778973476,0.017101342159409,0.005700447386448,0.0057004473864799,0.0057004473864815,-0.0013724312198056,0.0013724312198892,7.3388099771869e-13,-6.517330115342e-13,-3.2304091038903e-13,4.1675211409722e-13,-0.001421570274746,0.0014215702750461,-0.0014215702752094,0.0014215702745854,-0.0014215702745086,0.0014215702752946,-0.0014215702749695,0.0014215702748312,-0.0013353147991794,0.0013353148008591,-0.0013353148005295,0.001335314799498,3.2256391059983e-13,-4.1723837130122e-13,7.1661669608713e-13,-7.9945351842025e-13,-0.001372431219897,0.0013724312198126,-0.0014215702745763,0.0014215702752368,-0.001421570275064,0.0014215702747266,-0.0014215702748152,0.001421570274989,-0.0014215702753021,0.0014215702744793,-0.0013353147994593,0.0013353148006169,-0.0013353148009202,0.0013353147991105,-0.0013353147999764,0.0013353148001127,-0.0013353148007016,0.0013353147993713,-4.0623908967466e-13,9.7941872648903e-13,-0.0013724312195683,0.0013724312201421,-4.4859253110022e-13,1.0484796167262e-12,-0.0014215702750964,0.0014215702747006,-0.0014215702745975,0.0014215702751984,-0.0014215702746348,0.0014215702751638,-0.0014215702741361,0.0014215702756608,-0.0013353147988278,0.0013353148012574,-0.0013353148001772,0.0013353147998966,0.65900008222925,0.62897888469023,114808,2744,0.0057020583730534,0.0057020583730842,0.0057020583730857,15.525432767351,15.528551183285,-0.00011579653786119,-0.00011579653786119,-0.00011579653786119,1107965.0239288,0.017253989019595
23419200,0.99034438036401,0.017104443315666,0.0057014811052004,0.0057014811052322,0.0057014811052338,-0.0013730269996608,0.0013730269997443,7.4059959577895e-13,-6.584592828435e-13,-3.2306048929458e-13,4.1676100353154e-13,-0.0014221718725931,0.0014221718728977,-0.001422171873061,0.0014221718724326,-0.0014221718723558,0.0014221718731462,-0.0014221718728211,0.0014221718726784,-0.0013359079619132,0.001335907963606,-0.0013359079632765,0.0013359079622317,3.22583439415e-13,-4.1724807688707e-13,7.1668734098781e-13,-7.9951839879114e-13,-0.0013730269997522,0.0013730269996678,-0.0014221718724256,0.0014221718730862,-0.0014221718729134,0.001422171872576,-0.0014221718726646,0.0014221718728384,-0.0014221718731516,0.0014221718723287,-0.0013359079621995,0.0013359079633573,-0.0013359079636605,0.0013359079618507,-0.0013359079627166,0.001335907962853,-0.0013359079634419,0.0013359079621115,-4.1296117843711e-13,9.8614255049259e-13,-0.0013730269994234,0.0013730269999972,-4.4866617590924e-13,1.0485410854366e-12,-0.001422171872948,0.0014221718725478,-0.0014221718724491,0.0014221718730456,-0.001422171872482,0.0014221718730154,-0.0014221718719833,0.0014221718735124,-0.0013359079615615,0.0013359079640043,-0.001335907962924,0.0013359079626303,0.65256366664723,0.60037666582796,114808,2744,0.0057045266460103,0.0057045266460411,0.0057045266460426,15.70390712582,15.708890718984,-0.00011436874299344,-0.00011436874299344,-0.00011436874299344,1107602.0260717,0.017261521750579
23619200,0.99054345468746,0.017107653825602,0.0057025512751789,0.0057025512752107,0.0057025512752123,-0.0013742677092412,0.0013742677093247,7.4729121947944e-13,-6.6523006761373e-13,-3.2308162444855e-13,4.1679037763418e-13,-0.0014234161618295,0.0014234161621386,-0.0014234161623019,0.0014234161616689,-0.0014234161615922,0.0014234161623871,-0.001423416162062,0.0014234161619148,-0.001337149440087,0.0013371494417927,-0.0013371494414637,0.0013371494404054,3.2256879280362e-13,-4.1730619275873e-13,7.1671963411892e-13,-7.9941493136376e-13,-0.0013742677093327,0.0013742677092483,-0.0014234161616642,0.0014234161623247,-0.0014234161621519,0.0014234161618145,-0.0014234161619031,0.0014234161620769,-0.0014234161623901,0.0014234161615672,-0.0013371494403799,0.0013371494415381,-0.0013371494418407,0.0013371494400314,-0.0013371494408973,0.0013371494410337,-0.0013371494416228,0.0013371494402923,-4.1981464553899e-13,9.9275443673929e-13,-0.001374267709004,0.0013742677095777,-4.4862558891386e-13,1.0485156744482e-12,-0.0014234161621888,0.001423416161784,-0.0014234161616898,0.0014234161622818,-0.0014234161617183,0.0014234161622562,-0.0014234161612195,0.0014234161627532,-0.001337149439736,0.0013371494421918,-0.0013371494411114,0.0013371494408042,0.66669032314648,0.66866881224485,114808,2744,0.0057096668436247,0.0057096668436558,0.0057096668436574,16.217527314419,16.231808354441,-0.00011025978148465,-0.00011025978148465,-0.00011025978148465,1107676.7637989,0.017277208646559
23819200,0.99074499289871,0.017111075397411,0.0057036917991152,0.0057036917991471,0.0057036917991487,-0.0013755537166678,0.0013755537167513,7.5401585136273e-13,-6.7195124934966e-13,-3.2312903798172e-13,4.1676859153502e-13,-0.0014247037219228,0.0014247037222364,-0.0014247037223997,0.0014247037217621,-0.0014247037216857,0.0014247037224847,-0.0014247037221598,0.001424703722008,-0.0013384389839232,0.0013384389856425,-0.001338438985313,0.0013384389842419,3.2247008993658e-13,-4.1744148274336e-13,7.164886411756e-13,-7.9953263365039e-13,-0.0013755537167594,0.0013755537166747,-0.00142470372176,0.0014247037224205,-0.001424703722248,0.0014247037219105,-0.0014247037219993,0.0014247037221725,-0.0014247037224862,0.0014247037216632,-0.001338438984223,0.0013384389853807,-0.0013384389856839,0.0013384389838743,-0.0013384389847404,0.0013384389848765,-0.0013384389854658,0.0013384389841348,-4.2635797505653e-13,9.996566376465e-13,-0.0013755537164304,0.0013755537170044,-4.4847706403942e-13,1.0485412030801e-12,-0.0014247037222869,0.0014247037218778,-0.0014247037217882,0.0014247037223757,-0.001424703721812,0.0014247037223545,-0.0014247037213133,0.0014247037228515,-0.0013384389835719,0.0013384389860413,-0.0013384389849609,0.0013384389846409,0.70079152777153,0.82178848379094,114808,2744,0.0057149946995107,0.0057149946995417,0.0057149946995432,16.7400579597,16.754725989899,-0.0001060795363224,-0.0001060795363224,-0.0001060795363224,1104889.5002219,0.017293468429408
24019200,0.99094885632511,0.01711457664898,0.0057048588829716,0.0057048588830034,0.005704858883005,-0.001376878416382,0.0013768784164655,7.6078325859367e-13,-6.7863400590375e-13,-3.231158240012e-13,4.1681310488105e-13,-0.0014260229710419,0.0014260229713599,-0.0014260229715233,0.0014260229708813,-0.0014260229708046,0.0014260229716084,-0.0014260229712833,0.0014260229711272,-0.0013397696538039,0.0013397696555363,-0.0013397696552067,0.0013397696541225,3.2261996771085e-13,-4.1731836885735e-13,7.1649799383105e-13,-7.9934258063285e-13,-0.0013768784164734,0.001376878416389,-0.0014260229708811,0.0014260229715416,-0.0014260229713688,0.0014260229710316,-0.0014260229711201,0.0014260229712938,-0.001426022971607,0.0014260229707843,-0.0013397696541103,0.0013397696552677,-0.0013397696555709,0.0013397696537615,-0.0013397696546272,0.0013397696547637,-0.0013397696553526,0.0013397696540222,-4.3316314951606e-13,1.0062996700005e-12,-0.0013768784161446,0.0013768784167184,-4.4850476907541e-13,1.048337856351e-12,-0.0014260229714102,0.0014260229709966,-0.0014260229709114,0.0014260229714943,-0.0014260229709307,0.0014260229714777,-0.0014260229704321,0.0014260229719746,-0.0013397696534524,0.0013397696559347,-0.0013397696548546,0.0013397696545212,0.7086619847181,0.84208196311467,114808,2744,0.0057204828578266,0.0057204828578575,0.005720482857859,17.262958439441,17.277643625356,-0.00010189633248447,-0.00010189633248447,-0.00010189633248447,1095236.2175205,0.017310217576835
24219200,0.99115367540673,0.017117949350062,0.0057059831166657,0.0057059831166975,0.0057059831166991,-0.0013780180585188,0.0013780180586023,7.6753812025199e-13,-6.8532771582268e-13,-3.2310748946721e-13,4.1682464864605e-13,-0.0014271593818871,0.0014271593822095,-0.0014271593823731,0.0014271593817265,-0.0014271593816499,0.0014271593824579,-0.0014271593821329,0.0014271593819725,-0.0013409106520612,0.0013409106538068,-0.0013409106534774,0.0013409106523801,3.2246838410633e-13,-4.1747365823101e-13,7.1625905995385e-13,-7.9939010859267e-13,-0.0013780180586104,0.0013780180585257,-0.0014271593817283,0.0014271593823886,-0.0014271593822162,0.0014271593818788,-0.0014271593819676,0.0014271593821405,-0.0014271593824545,0.0014271593816318,-0.0013409106523745,0.0013409106535315,-0.0013409106538353,0.0013409106520256,-0.0013409106528912,0.0013409106530274,-0.0013409106536164,0.001340910652286,-4.3965065720951e-13,1.0132681335893e-12,-0.0013780180582812,0.0013780180588555,-4.4817636734315e-13,1.048479440261e-12,-0.0014271593822597,0.0014271593818419,-0.0014271593817608,0.0014271593823394,-0.0014271593817752,0.0014271593823275,-0.0014271593812767,0.0014271593828244,-0.0013409106517093,0.0013409106542049,-0.0013409106531249,0.0013409106527783,0.68010061235988,0.69606439508427,114808,2744,0.005725204284833,0.005725204284864,0.0057252042848653,17.691082875791,17.703147111565,-9.8471336993674e-05,-9.8471336993674e-05,-9.8471336993674e-05,1086016.9069115,0.017324627106389
24419200,0.99135631843628,0.017121283280846,0.0057070944269268,0.0057070944269586,0.0057070944269603,-0.0013786687927778,0.0013786687928613,7.7422686812122e-13,-6.920924990529e-13,-3.2312963148381e-13,4.168165900687e-13,-0.0014278147536828,0.0014278147540098,-0.0014278147541732,0.0014278147535222,-0.0014278147534455,0.0014278147542583,-0.0014278147539332,0.0014278147537681,-0.0013415596227513,0.00134155962451,-0.0013415596241804,0.0013415596230699,3.2261602665478e-13,-4.173394858593e-13,7.1627194191326e-13,-7.9913017535698e-13,-0.0013786687928692,0.0013786687927847,-0.0014278147535266,0.0014278147541869,-0.0014278147540141,0.001427814753677,-0.0014278147537656,0.0014278147539391,-0.0014278147542524,0.0014278147534297,-0.001341559623071,0.0013415596242279,-0.0013415596245312,0.0013415596227222,-0.0013415596235876,0.0013415596237242,-0.001341559624313,0.0013415596229827,-4.4662353242825e-13,1.0197402593998e-12,-0.0013786687925404,0.0013786687931142,-4.4828648162629e-13,1.0481188042194e-12,-0.00142781475406,0.0014278147536376,-0.0014278147535614,0.0014278147541351,-0.0014278147535715,0.0014278147541277,-0.0014278147530731,0.0014278147546244,-0.0013415596223998,0.0013415596249082,-0.0013415596238283,0.0013415596234683,0.67934587551691,0.69019622287929,114808,2744,0.0057279001647569,0.0057279001647877,0.0057279001647892,17.884216867882,17.889742298449,-9.6926265056941e-05,-9.6926265056941e-05,-9.6926265056941e-05,1084302.4217445,0.017332855041574
24619200,0.99155666879409,0.017124729919836,0.0057082433065904,0.0057082433066222,0.0057082433066238,-0.0013793075258482,0.0013793075259317,7.8093026535909e-13,-6.9884132596911e-13,-3.2314943717471e-13,4.1679740683121e-13,-0.001428454236392,0.0014284542367233,-0.0014284542368866,0.0014284542362313,-0.0014284542361548,0.0014284542369719,-0.0014284542366467,0.0014284542364771,-0.0013422018498944,0.0013422018516662,-0.0013422018513368,0.001342201850213,3.2260720339491e-13,-4.1734642682373e-13,7.1611459377896e-13,-7.9900270866277e-13,-0.0013793075259396,0.0013793075258551,-0.001428454236238,0.0014284542368983,-0.0014284542367255,0.0014284542363884,-0.0014284542364771,0.0014284542366504,-0.0014284542369637,0.0014284542361412,-0.001342201850221,0.0013422018513776,-0.0013422018516808,0.0013422018498722,-0.0013422018507373,0.001342201850874,-0.0013422018514627,0.0013422018501323,-4.5338317886687e-13,1.0264322608461e-12,-0.0013793075256108,0.0013793075261845,-4.4817107338723e-13,1.0479490446996e-12,-0.0014284542367738,0.0014284542363467,-0.0014284542362752,0.0014284542368441,-0.0014284542362806,0.0014284542368412,-0.0014284542357823,0.0014284542373379,-0.0013422018495431,0.0013422018520643,-0.0013422018509848,0.0013422018506113,0.70944456219996,0.82550026359664,114808,2744,0.0057305463489523,0.0057305463489829,0.0057305463489844,18.071084369623,18.076337485333,-9.5431325043013e-05,-9.5431325043013e-05,-9.5431325043013e-05,1082016.0658028,0.017340931196576
24819200,0.99175469000327,0.017127898212574,0.0057092994041697,0.0057092994042016,0.0057092994042032,-0.0013799604282608,0.0013799604283443,7.8766182533956e-13,-7.0555780242599e-13,-3.2313358035214e-13,4.1679165700686e-13,-0.0014291053425034,0.0014291053428394,-0.0014291053430028,0.0014291053423428,-0.0014291053422661,0.001429105343088,-0.0014291053427629,0.0014291053425887,-0.0013428535425872,0.0013428535443722,-0.0013428535440429,0.0013428535429059,3.2258390998886e-13,-4.1734919144515e-13,7.1594818709786e-13,-7.9886171297009e-13,-0.0013799604283522,0.0013799604282677,-0.0014291053423518,0.0014291053430119,-0.0014291053428391,0.0014291053425021,-0.0014291053425907,0.001429105342764,-0.0014291053430773,0.0014291053422549,-0.0013428535429204,0.0013428535440766,-0.0013428535443801,0.0013428535425716,-0.0013428535434366,0.0013428535435734,-0.0013428535441621,0.001342853542832,-4.6009244449164e-13,1.0331734078498e-12,-0.0013799604280235,0.0013799604285972,-4.4801737220034e-13,1.0477968728777e-12,-0.0014291053428894,0.0014291053424582,-0.001429105342391,0.0014291053429555,-0.0014291053423919,0.0014291053429573,-0.0014291053418937,0.0014291053434538,-0.0013428535422359,0.0013428535447704,-0.0013428535436908,0.0013428535433042,0.66112225310638,0.59054061146344,114808,2744,0.0057332512238241,0.0057332512238549,0.0057332512238564,18.257691630082,18.262932672217,-9.3938466959343e-05,-9.3938466959343e-05,-9.3938466959343e-05,1074511.5281607,0.017349186606196
25019200,0.99195260091275,0.017131028493522,0.0057103428311524,0.0057103428311842,0.0057103428311859,-0.0013809150448402,0.0013809150449237,7.9438601514076e-13,-7.1228199693753e-13,-3.2312329746315e-13,4.1679847297511e-13,-0.0014300669895637,0.0014300669899041,-0.0014300669900675,0.0014300669894031,-0.0014300669893264,0.0014300669901526,-0.0014300669898275,0.001430066989649,-0.0013438044650177,0.0013438044668159,-0.0013438044664864,0.0013438044653363,3.2260761514704e-13,-4.1732313341768e-13,7.1581883810821e-13,-7.9867495396957e-13,-0.0013809150449316,0.0013809150448471,-0.0014300669894143,0.0014300669900744,-0.0014300669899016,0.0014300669895648,-0.0014300669896534,0.0014300669898265,-0.0014300669901398,0.0014300669893175,-0.0013438044653576,0.0013438044665136,-0.001343804466817,0.0013438044650088,-0.0013438044658737,0.0013438044660106,-0.001343804466599,0.0013438044652691,-4.6684656168741e-13,1.0398674974676e-12,-0.0013809150446029,0.0013809150451766,-4.4789225837542e-13,1.0476082904035e-12,-0.0014300669899543,0.0014300669895185,-0.0014300669894559,0.0014300669900158,-0.0014300669894523,0.0014300669900221,-0.0014300669889542,0.0014300669905185,-0.0013438044646665,0.001343804467214,-0.0013438044661344,0.0013438044657346,0.65362535245291,0.56235667199017,114808,2744,0.0057372059968257,0.0057372059968564,0.005737205996858,18.628665681876,18.63900562452,-9.0970674544993e-05,-9.0970674544993e-05,-9.0970674544993e-05,1077406.7513345,0.017361257020136
25219200,0.99215358684235,0.017134311997784,0.005711437332573,0.0057114373326049,0.0057114373326065,-0.0013823912484425,0.001382391248526,8.0110505804038e-13,-7.1901921517804e-13,-3.2313689424447e-13,4.1675817273566e-13,-0.0014315494032981,0.001431549403643,-0.0014315494038064,0.0014315494031374,-0.0014315494030609,0.0014315494038915,-0.0014315494035663,0.0014315494033833,-0.0013452800821519,0.0013452800839633,-0.0013452800836336,0.0013452800824705,3.2260637989066e-13,-4.1729336962106e-13,7.1566049000446e-13,-7.9850507680626e-13,-0.0013823912485339,0.0013823912484495,-0.001431549403151,0.001431549403811,-0.0014315494036382,0.0014315494033016,-0.00143154940339,0.0014315494035631,-0.0014315494038764,0.0014315494030543,-0.0013452800824983,0.0013452800836541,-0.0013452800839573,0.0013452800821495,-0.0013452800830144,0.0013452800831515,-0.0013452800837398,0.0013452800824101,-4.7358870866062e-13,1.0465819982266e-12,-0.0013823912482052,0.0013823912487789,-4.4773514552805e-13,1.0474385897054e-12,-0.0014315494036932,0.001431549403253,-0.0014315494031949,0.0014315494037501,-0.0014315494031867,0.001431549403761,-0.0014315494026887,0.0014315494042574,-0.0013452800818008,0.0013452800843613,-0.0013452800832819,0.0013452800828689,0.67454671368423,0.66718788177615,114808,2744,0.0057433216080066,0.0057433216080374,0.005743321608039,19.268766803369,19.286627087311,-8.5849865573046e-05,-8.5849865573046e-05,-8.5849865573046e-05,1080792.4388891,0.017379922635493
25419200,0.9923575387721,0.017137914847962,0.0057126382826322,0.0057126382826641,0.0057126382826657,-0.0013839220446964,0.0013839220447801,8.0790264725369e-13,-7.2569816291007e-13,-3.2300007891581e-13,4.1685960346055e-13,-0.0014330810639793,0.0014330810643292,-0.0014330810644924,0.0014330810638194,-0.0014330810637423,0.0014330810645776,-0.0014330810642528,0.0014330810640655,-0.001346816456263,0.0013468164580881,-0.0013468164577589,0.001346816456581,3.2273178782424e-13,-4.1712708058343e-13,7.1564013768503e-13,-7.9820373307092e-13,-0.0013839220447879,0.0013839220447039,-0.0014330810638352,0.0014330810644957,-0.0014330810643225,0.0014330810639861,-0.001433081064074,0.0014330810642478,-0.0014330810645604,0.0014330810637395,-0.0013468164566166,0.0013468164577729,-0.0013468164580747,0.0013468164562675,-0.0013468164571316,0.0013468164572684,-0.0013468164578564,0.001346816456528,-4.8026259301333e-13,1.0533777906198e-12,-0.0013839220444595,0.0013839220450332,-4.4746827132794e-13,1.0473524158673e-12,-0.0014330810643798,0.0014330810639354,-0.0014330810638814,0.0014330810644322,-0.0014330810638694,0.0014330810644477,-0.0014330810633716,0.0014330810649438,-0.0013468164559117,0.0013468164584855,-0.0013468164574064,0.0013468164569789,0.72789187628352,0.90804191976655,114808,2744,0.005749663393565,0.0057496633935968,0.0057496633935986,19.916074838188,19.934248550103,-8.0671401294497e-05,-8.0671401294497e-05,-8.0671401294497e-05,1079139.2423716,0.017399278728982
25619200,0.99256424285964,0.017141589746748,0.0057138632488943,0.0057138632489261,0.0057138632489278,-0.0013855092410297,0.0013855092411132,8.145520534939e-13,-7.324817372712e-13,-3.2307165715194e-13,4.1675247438033e-13,-0.0014346588257792,0.0014346588261331,-0.0014346588262964,0.0014346588256186,-0.0014346588255419,0.0014346588263816,-0.0014346588260565,0.0014346588258645,-0.0013484121810835,0.0013484121829212,-0.0013484121825918,0.0013484121814019,3.2257820428082e-13,-4.1725325319953e-13,7.1535226412643e-13,-7.9816702830988e-13,-0.0013855092411211,0.0013855092410367,-0.0014346588256367,0.0014346588262965,-0.0014346588261237,0.0014346588257872,-0.0014346588258757,0.0014346588260487,-0.0014346588263618,0.00143465882554,-0.0013484121814436,0.0013484121825988,-0.0013484121829019,0.0013484121810947,-0.001348412181959,0.0013484121820962,-0.0013484121826842,0.0013484121813548,-4.8706667927081e-13,1.0600110291554e-12,-0.0013855092407925,0.0013855092413661,-4.4742286095049e-13,1.0470994824178e-12,-0.0014346588261831,0.0014346588257342,-0.0014346588256851,0.0014346588262311,-0.0014346588256678,0.0014346588262512,-0.00143465882517,0.0014346588267473,-0.0013484121807324,0.001348412183319,-0.0013484121822399,0.0013484121818,0.73243471361754,0.90617883153439,114808,2744,0.0057562388380596,0.0057562388380905,0.0057562388380921,20.563671117594,20.581870012895,-7.5490631059248e-05,-7.5490631059248e-05,-7.5490631059248e-05,1066869.5402021,0.017419348199708
25819200,0.99276835311736,0.017145124997803,0.0057150416659124,0.0057150416659443,0.0057150416659459,-0.0013863024213982,0.0013863024214817,8.2129204060662e-13,-7.3918870023195e-13,-3.2305111216836e-13,4.1671933568681e-13,-0.0014354482445233,0.0014354482448817,-0.001435448245045,0.0014354482443627,-0.0014354482442861,0.0014354482451301,-0.0014354482448051,0.0014354482446086,-0.0013492078637717,0.0013492078656226,-0.0013492078652932,0.0013492078640902,3.2255908721777e-13,-4.1721860719912e-13,7.1520797441673e-13,-7.9800550383257e-13,-0.0013863024214896,0.0013863024214052,-0.0014354482443831,0.0014354482450428,-0.00143544824487,0.0014354482445336,-0.0014354482446221,0.001435448244795,-0.0014354482451081,0.0014354482442864,-0.0013492078641385,0.0013492078652934,-0.0013492078655965,0.0013492078637898,-0.0013492078646538,0.001349207864791,-0.001349207865379,0.0013492078640498,-4.938192965124e-13,1.0667052070058e-12,-0.001386302421161,0.0013863024217345,-4.4731421721065e-13,1.0469067824223e-12,-0.0014354482449317,0.0014354482444783,-0.0014354482444337,0.0014354482449751,-0.0014354482444118,0.0014354482449998,-0.0014354482439141,0.0014354482454958,-0.0013492078634207,0.0013492078660204,-0.0013492078649414,0.0013492078644883,0.71386315647029,0.80271734254426,114808,2744,0.005759524795118,0.0057595247951489,0.0057595247951505,20.804134180275,20.811067887113,-7.3566926557798e-05,-7.3566926557798e-05,-7.3566926557798e-05,1056898.5059001,0.017429377810508
26019200,0.99296534736799,0.0171484054257,0.0057161351418782,0.0057161351419101,0.0057161351419117,-0.0013863449491749,0.0013863449492584,8.2801153386013e-13,-7.4591164960689e-13,-3.2302216119158e-13,4.1668374853868e-13,-0.0014354929439396,0.0014354929443026,-0.0014354929444658,0.0014354929437791,-0.0014354929437025,0.001435492944551,-0.001435492944226,0.0014354929440249,-0.0013492480599162,0.0013492480617802,-0.0013492480614507,0.0013492480602346,3.2253002928194e-13,-4.1718337298138e-13,7.1506686108059e-13,-7.9786921387849e-13,-0.0013863449492663,0.0013863449491819,-0.0014354929438018,0.0014354929444614,-0.0014354929442885,0.0014354929439522,-0.0014354929440407,0.0014354929442135,-0.0014354929445267,0.0014354929437051,-0.0013492480602896,0.0013492480614443,-0.0013492480617474,0.0013492480599409,-0.0013492480608048,0.001349248060942,-0.0013492480615299,0.0013492480602008,-5.0055712008828e-13,1.0734092669072e-12,-0.0013863449489378,0.0013863449495113,-4.4719422087646e-13,1.0467514342269e-12,-0.0014354929443525,0.0014354929438948,-0.0014354929438546,0.0014354929443914,-0.0014354929438282,0.0014354929444207,-0.0014354929433306,0.0014354929449166,-0.0013492480595652,0.0013492480621778,-0.001349248061099,0.0013492480606326,0.68688288247235,0.67001528985024,114808,2744,0.0057597009458505,0.0057597009458814,0.0057597009458829,20.676113866339,20.672677342156,-7.4591089069288e-05,-7.4591089069288e-05,-7.4591089069288e-05,1052418.8009373,0.017429915634048
26219200,0.9931553967784,0.017151752194731,0.0057172507315552,0.0057172507315871,0.0057172507315887,-0.0013863359730821,0.0013863359731658,8.3476706185839e-13,-7.5259370673382e-13,-3.2293755003559e-13,4.1668663815629e-13,-0.0014354857501373,0.0014354857505046,-0.0014354857506679,0.0014354857499771,-0.0014354857499001,0.0014354857507532,-0.001435485750428,0.0014354857502228,-0.0013492423000382,0.0013492423019152,-0.0013492423015855,0.0013492423003564,3.2238815126328e-13,-4.1724301821808e-13,7.1485280879621e-13,-7.9781939187111e-13,-0.0013863359731737,0.0013863359730892,-0.0014354857500017,0.0014354857506613,-0.0014354857504884,0.0014354857501522,-0.001435485750241,0.0014354857504136,-0.0014354857507264,0.001435485749905,-0.0013492423004183,0.0013492423015725,-0.0013492423018759,0.0013492423000689,-0.0013492423009331,0.0013492423010703,-0.0013492423016589,0.0013492423003292,-5.0749793746284e-13,1.0799030685261e-12,-0.0013863359728452,0.0013863359734183,-4.4728310051419e-13,1.0463960333195e-12,-0.001435485750555,0.0014354857500922,-0.0014354857500573,0.0014354857505888,-0.0014354857500261,0.0014354857506227,-0.0014354857495286,0.0014354857511183,-0.0013492422996871,0.0013492423023124,-0.0013492423012344,0.0013492423007547,0.72524657788391,0.84741947957003,114808,2744,0.005759663745555,0.005759663745586,0.0057596637455873,20.538155740276,20.5342867972,-7.5694754077795e-05,-7.5694754077795e-05,-7.5694754077795e-05,1052562.2189241,0.017429802104152
26419200,0.99333878123165,0.01715507182025,0.0057183572733949,0.0057183572734267,0.0057183572734283,-0.0013863571680731,0.0013863571681566,8.4145099461736e-13,-7.5935539136845e-13,-3.2296082448541e-13,4.1661579473227e-13,-0.0014355003628081,0.0014355003631801,-0.0014355003633433,0.0014355003626476,-0.001435500362571,0.0014355003634285,-0.0014355003631034,0.0014355003628934,-0.0013492706958784,0.0013492706977687,-0.0013492706974392,0.0013492706961968,3.2246291368522e-13,-4.1712078665806e-13,7.1482010391297e-13,-7.9762133909795e-13,-0.0013863571681645,0.0013863571680801,-0.0014355003626749,0.0014355003633343,-0.0014355003631615,0.0014355003628253,-0.0014355003629138,0.0014355003630865,-0.0014355003633996,0.0014355003625782,-0.0013492706962652,0.0013492706974194,-0.0013492706977225,0.0013492706959165,-0.0013492706967801,0.0013492706969174,-0.0013492706975052,0.0013492706961763,-5.1404870792954e-13,1.0868001813534e-12,-0.001386357167836,0.0013863571684094,-4.4700434432412e-13,1.0464473846919e-12,-0.00143550036323,0.0014355003627633,-0.0014355003627323,0.0014355003632598,-0.0014355003626967,0.0014355003632982,-0.0014355003621992,0.0014355003637939,-0.0013492706955275,0.0013492706981662,-0.0013492706970877,0.0013492706965947,0.74502752235991,0.92249642828204,114808,2744,0.0057597515839635,0.0057597515839943,0.0057597515839959,20.399783801045,20.395896252243,-7.6801729591637e-05,-7.6801729591637e-05,-7.6801729591637e-05,1044943.7830155,0.017430070035213
26619200,0.99351978963351,0.01715831961631,0.0057194398720814,0.0057194398721133,0.0057194398721149,-0.0013870948290848,0.0013870948291683,8.4817688932971e-13,-7.6607871538728e-13,-3.2292438488171e-13,4.165676197334e-13,-0.0014362255500448,0.0014362255504212,-0.0014362255505844,0.0014362255498843,-0.0014362255498077,0.0014362255506696,-0.0014362255503446,0.0014362255501301,-0.0013500177012654,0.0013500177031689,-0.0013500177028394,0.0013500177015838,3.2241750330777e-13,-4.1708137609732e-13,7.1472810672342e-13,-7.9752345973516e-13,-0.0013870948291761,0.0013870948290918,-0.0014362255499138,0.0014362255505731,-0.0014362255504003,0.0014362255500642,-0.0014362255501527,0.0014362255503253,-0.0014362255506384,0.0014362255498171,-0.0013500177016589,0.0013500177028129,-0.001350017703116,0.0013500177013102,-0.0013500177021737,0.0013500177023109,-0.0013500177028987,0.00135001770157,-5.2077079669199e-13,1.0935265641023e-12,-0.0013870948288476,0.001387094829421,-4.4690728846558e-13,1.0463563874718e-12,-0.0014362255504711,0.0014362255499999,-0.0014362255499734,0.0014362255504964,-0.0014362255499332,0.0014362255505393,-0.0014362255494359,0.001436225551035,-0.0013500177009145,0.0013500177035663,-0.0013500177024879,0.0013500177019817,0.73848436793215,0.87359585130831,114808,2744,0.0057628075713854,0.0057628075714162,0.0057628075714177,20.629158183601,20.635447425936,-7.4966734531191e-05,-7.4966734531191e-05,-7.4966734531191e-05,1033937.4792199,0.017439397532055
26819200,0.99370061133321,0.017161487157309,0.0057204957190813,0.0057204957191131,0.0057204957191147,-0.0013882130726152,0.0013882130726987,8.5489277791393e-13,-7.7281186160145e-13,-3.2289402494062e-13,4.1653658391681e-13,-0.0014373363593015,0.0014373363596824,-0.0014373363598456,0.001437336359141,-0.0014373363590644,0.0014373363599308,-0.0014373363596058,0.0014373363593868,-0.0013511410538255,0.0013511410557421,-0.0013511410554127,0.0013511410541439,3.2240056264882e-13,-4.1703761272837e-13,7.1467040260389e-13,-7.9745022667826e-13,-0.0013882130727065,0.0013882130726222,-0.0014373363591728,0.001437336359832,-0.0014373363596593,0.0014373363593232,-0.0014373363594117,0.0014373363595843,-0.0014373363598973,0.0014373363590761,-0.0013511410542256,0.0013511410553795,-0.0013511410556826,0.0013511410538769,-0.0013511410547404,0.0013511410548777,-0.0013511410554653,0.0013511410541367,-5.2750997316771e-13,1.1002369767509e-12,-0.001388213072378,0.0013882130729514,-4.4685352540212e-13,1.0462786251415e-12,-0.0014373363597323,0.0014373363592567,-0.0014373363592347,0.0014373363597531,-0.00143733635919,0.0014373363598006,-0.0014373363586926,0.0014373363602962,-0.0013511410534747,0.0013511410561396,-0.0013511410550612,0.0013511410545417,0.72121901935838,0.78180423854544,114808,2744,0.0057674401554838,0.0057674401555146,0.0057674401555162,21.063117976543,21.075229176504,-7.1495056187659e-05,-7.1495056187659e-05,-7.1495056187659e-05,1026361.3866765,0.017453537613017
27019200,0.99388115383044,0.01716456517689,0.0057215217256082,0.00572152172564,0.0057215217256416,-0.0013893196620289,0.0013893196621124,8.6162574134416e-13,-7.7952901221053e-13,-3.2286514059783e-13,4.1651614336479e-13,-0.0014384427255404,0.0014384427259258,-0.001438442726089,0.00143844272538,-0.0014384427253033,0.0014384427261742,-0.0014384427258492,0.0014384427256257,-0.0013522477282579,0.0013522477301876,-0.0013522477298583,0.0013522477285763,3.2237691631238e-13,-4.1701167234436e-13,7.1461816890547e-13,-7.9740252225325e-13,-0.0013893196621203,0.0013893196620359,-0.001438442725414,0.0014384427260732,-0.0014384427259004,0.0014384427255644,-0.0014384427256528,0.0014384427258255,-0.0014384427261384,0.0014384427253173,-0.0013522477286646,0.0013522477298185,-0.0013522477301215,0.001352247728316,-0.0013522477291793,0.0013522477293166,-0.0013522477299042,0.0013522477285757,-5.342539730255e-13,1.1069438600955e-12,-0.0013893196617918,0.0013893196623651,-4.4682346749684e-13,1.0462089213885e-12,-0.0014384427259756,0.0014384427254956,-0.0014384427254781,0.001438442725992,-0.0014384427254289,0.001438442726044,-0.0014384427249316,0.0014384427265395,-0.001352247727907,0.001352247730585,-0.0013522477295067,0.001352247728974,0.70228502569682,0.69001262578256,114808,2744,0.0057720243957859,0.0057720243958167,0.0057720243958183,21.502650157349,21.515010927072,-6.7978798741206e-05,-6.7978798741206e-05,-6.7978798741206e-05,1023785.3520946,0.017467530528101
27219200,0.9940612613363,0.017167544527808,0.0057225148425809,0.0057225148426127,0.0057225148426143,-0.0013904032083027,0.0013904032083862,8.6833975682384e-13,-7.8626426141653e-13,-3.2285823180153e-13,4.1648782070061e-13,-0.001439531307681,0.001439531308071,-0.0014395313082341,0.0014395313075206,-0.001439531307444,0.0014395313083193,-0.0014395313079944,0.0014395313077663,-0.0013533278267205,0.0013533278286634,-0.0013533278283341,0.0013533278270389,3.223642696399e-13,-4.1698937890777e-13,7.145877580698e-13,-7.9736011178415e-13,-0.0013904032083941,0.0013904032083097,-0.0014395313075568,0.001439531308216,-0.0014395313080432,0.0014395313077072,-0.0014395313077957,0.0014395313079683,-0.0014395313082812,0.0014395313074601,-0.0013533278271338,0.0013533278282876,-0.0013533278285907,0.0013533278267852,-0.0013533278276486,0.0013533278277858,-0.0013533278283734,0.001353327827045,-5.4097147369282e-13,1.1136751544591e-12,-0.0013904032080656,0.001390403208639,-4.4678135113641e-13,1.0461793340571e-12,-0.0014395313081207,0.0014395313076362,-0.0014395313076232,0.0014395313081326,-0.0014395313075695,0.0014395313081891,-0.0014395313070722,0.0014395313086846,-0.0013533278263697,0.0013533278290609,-0.0013533278279826,0.0013533278274367,0.68191769427848,0.59822101301969,114808,2744,0.0057765131270984,0.0057765131271293,0.0057765131271308,21.942414882143,21.95479267764,-6.4460680942855e-05,-6.4460680942855e-05,-6.4460680942855e-05,1025326.579083,0.017481232223829
27419200,0.99423936589119,0.017170580402877,0.0057235268009371,0.005723526800969,0.0057235268009706,-0.001391216998145,0.0013912169982285,8.7506127758893e-13,-7.9299049768555e-13,-3.2285452361978e-13,4.1647896067716e-13,-0.0014403541238081,0.0014403541242025,-0.0014403541243656,0.0014403541236476,-0.001440354123571,0.0014403541244508,-0.0014403541241259,0.0014403541238933,-0.0013541386610699,0.0013541386630259,-0.0013541386626966,0.0013541386613882,3.2235874039705e-13,-4.1698232029987e-13,7.1457275852802e-13,-7.9734434755985e-13,-0.0013912169982364,0.001391216998152,-0.0014403541236861,0.0014403541243453,-0.0014403541241725,0.0014403541238365,-0.001440354123925,0.0014403541240976,-0.0014403541244105,0.0014403541235894,-0.0013541386614897,0.0013541386626435,-0.0013541386629465,0.0013541386611411,-0.0013541386620045,0.0013541386621417,-0.0013541386627293,0.0013541386614009,-5.4769456242472e-13,1.1203998607886e-12,-0.0013912169979079,0.0013912169984813,-4.4676717509889e-13,1.0461627463286e-12,-0.0014403541242523,0.0014403541237633,-0.0014403541237547,0.0014403541242596,-0.0014403541236965,0.0014403541243206,-0.0014403541231992,0.0014403541248162,-0.001354138660719,0.0013541386634234,-0.0013541386623451,0.0013541386617861,0.70214875260575,0.7011034432833,114808,2744,0.0057798843227503,0.0057798843227811,0.0057798843227827,22.251103392303,22.259851338914,-6.1991172861572e-05,-6.1991172861572e-05,-6.1991172861572e-05,1030564.4242273,0.017491522881123
27619200,0.99441494222435,0.017173618105242,0.0057245393683922,0.0057245393684241,0.0057245393684257,-0.0013919700144662,0.0013919700145496,8.8177315894262e-13,-7.9972879826891e-13,-3.2286391234951e-13,4.1646390231366e-13,-0.0014411106546297,0.0014411106550285,-0.0014411106551917,0.0014411106544692,-0.0014411106543926,0.0014411106552769,-0.0014411106549519,0.0014411106547149,-0.0013548917713177,0.001354891773287,-0.0013548917729577,0.0013548917716361,3.223156828889e-13,-4.1701996620864e-13,7.1452299534237e-13,-7.973766995127e-13,-0.0013919700145576,0.0013919700144731,-0.00144111065451,0.001441110655169,-0.0014411106549963,0.0014411106546602,-0.0014411106547488,0.0014411106549213,-0.0014411106552343,0.0014411106544131,-0.0013548917717442,0.0013548917728979,-0.001354891773201,0.0013548917713956,-0.0013548917722589,0.0013548917723961,-0.0013548917729837,0.0013548917716553,-5.5443626823494e-13,1.1271058618072e-12,-0.0013919700142291,0.0013919700148024,-4.4677729243687e-13,1.046135394223e-12,-0.0014411106550783,0.0014411106545848,-0.0014411106545808,0.0014411106550811,-0.001441110654518,0.0014411106551465,-0.0014411106540208,0.0014411106556421,-0.0013548917709668,0.0013548917736843,-0.0013548917726061,0.0013548917720338,0.71252803993661,0.75007558494512,114808,2744,0.0057830037830285,0.0057830037830595,0.005783003783061,22.518259806636,22.525803506829,-5.9853921546909e-05,-5.9853921546909e-05,-5.9853921546909e-05,1030730.7115374,0.017501045058826
27819200,0.99458792024291,0.017176659512005,0.0057255531706465,0.0057255531706784,0.00572555317068,-0.0013927289214752,0.0013927289215587,8.885080046683e-13,-8.0643922608245e-13,-3.2285630849172e-13,4.1647821805279e-13,-0.0014418701475955,0.0014418701479989,-0.001441870148162,0.001441870147435,-0.0014418701473584,0.0014418701482472,-0.0014418701479223,0.0014418701476808,-0.0013556527949779,0.0013556527969603,-0.001355652796631,0.0013556527952963,3.2235591695389e-13,-4.1698632017768e-13,7.14561111825e-13,-7.9734128882977e-13,-0.0013927289215665,0.0013927289214822,-0.001441870147478,0.0014418701481372,-0.0014418701479644,0.0014418701476284,-0.0014418701477169,0.0014418701478895,-0.0014418701482024,0.0014418701473813,-0.001355652795411,0.0013556527965647,-0.0013556527968678,0.0013556527950624,-0.0013556527959257,0.001355652796063,-0.0013556527966505,0.0013556527953221,-5.6114976902445e-13,1.1338397149162e-12,-0.0013927289212381,0.0013927289218114,-4.4676711627715e-13,1.0461484526476e-12,-0.0014418701480486,0.0014418701475507,-0.0014418701475511,0.001441870148047,-0.0014418701474839,0.001441870148117,-0.0014418701469867,0.0014418701486125,-0.0013556527946271,0.0013556527973577,-0.0013556527962795,0.0013556527956941,0.72383353305084,0.79904772660694,114808,2744,0.0057861476570379,0.0057861476570688,0.0057861476570703,22.78426044081,22.791755674744,-5.7725916473522e-05,-5.7725916473522e-05,-5.7725916473522e-05,1028573.9403872,0.01751064175959
28019200,0.99475824454065,0.017179706526624,0.0057265688421863,0.0057265688422182,0.0057265688422198,-0.0013934957809451,0.0013934957810286,8.952304325748e-13,-8.1316420204989e-13,-3.2286584703305e-13,4.1648485755584e-13,-0.0014426350798527,0.0014426350802606,-0.0014426350804237,0.0014426350796922,-0.0014426350796157,0.0014426350805089,-0.001442635080184,0.001442635079938,-0.0013564234174473,0.0013564234194428,-0.0013564234191134,0.0013564234177656,3.2236974006102e-13,-4.1698837893831e-13,7.145788759882e-13,-7.9734722982474e-13,-0.0013934957810364,0.0013934957809521,-0.0014426350797375,0.0014426350803966,-0.0014426350802239,0.0014426350798878,-0.0014426350799763,0.0014426350801489,-0.0014426350804619,0.0014426350796408,-0.0013564234178869,0.0013564234190406,-0.0013564234193437,0.0013564234175383,-0.0013564234184016,0.0013564234185389,-0.0013564234191264,0.001356423417798,-5.6787282834549e-13,1.140564362424e-12,-0.001393495780708,0.0013934957812813,-4.4677882180191e-13,1.0461602169941e-12,-0.0014426350803103,0.0014426350798079,-0.0014426350798128,0.0014426350803042,-0.0014426350797411,0.0014426350803787,-0.0014426350792439,0.0014426350808742,-0.0013564234170964,0.0013564234198403,-0.001356423418762,0.0013564234181635,0.73612506592638,0.84801986826876,114808,2744,0.0057893244808479,0.0057893244808788,0.0057893244808803,23.050212594611,23.057707842659,-5.5598299243114e-05,-5.5598299243114e-05,-5.5598299243114e-05,1024387.5999812,0.017520339064553
28219200,0.99492520621812,0.017182749201567,0.0057275830671672,0.0057275830671991,0.0057275830672007,-0.0013941425118178,0.0013941425119014,9.0198855240564e-13,-8.1985217030139e-13,-3.2284169094655e-13,4.1652945913447e-13,-0.0014432780707287,0.0014432780711411,-0.0014432780713043,0.0014432780705683,-0.0014432780704916,0.0014432780713895,-0.0014432780710644,0.0014432780708141,-0.0013570749930156,0.0013570749950244,-0.0013570749946949,0.001357074993334,3.223419762033e-13,-4.1703720097625e-13,7.1455787662971e-13,-7.9739958116662e-13,-0.0013941425119093,0.0013941425118249,-0.0014432780706159,0.001443278071275,-0.0014432780711023,0.0014432780707662,-0.0014432780708548,0.0014432780710273,-0.0014432780713403,0.0014432780705191,-0.0013570749934619,0.0013570749946156,-0.0013570749949188,0.0013570749931132,-0.0013570749939765,0.0013570749941136,-0.0013570749947013,0.0013570749933728,-5.7461126954956e-13,1.1472719810403e-12,-0.0013941425115808,0.0013941425121541,-4.4680770327254e-13,1.0461627463286e-12,-0.0014432780711909,0.001443278070684,-0.0014432780706935,0.0014432780711804,-0.0014432780706173,0.0014432780712592,-0.00144327807012,0.0014432780717548,-0.0013570749926647,0.0013570749954216,-0.0013570749943433,0.0013570749937317,0.74948914053461,0.89699200993058,114808,2744,0.0057920036587216,0.0057920036587524,0.005792003658754,23.250246536158,23.255913651918,-5.3998027710735e-05,-5.3998027710735e-05,-5.3998027710735e-05,1018516.0152697,0.017528517319277
28419200,0.99508871222157,0.017185788459931,0.0057285961532887,0.0057285961533206,0.0057285961533222,-0.0013947769657697,0.0013947769658531,9.0868383775897e-13,-8.2660445540699e-13,-3.2288154703596e-13,4.1651551838388e-13,-0.0014439057830562,0.001443905783473,-0.0014439057836362,0.0014439057828958,-0.0014439057828191,0.0014439057837214,-0.0014439057833964,0.0014439057831415,-0.0013577162280914,0.0013577162301133,-0.0013577162297839,0.0013577162284098,3.2238315141602e-13,-4.1702184850408e-13,7.1460875742828e-13,-7.9739640479307e-13,-0.001394776965861,0.0013947769657767,-0.0014439057829455,0.0014439057836046,-0.0014439057834319,0.0014439057830958,-0.0014439057831843,0.0014439057833569,-0.0014439057836699,0.0014439057828487,-0.0013577162285442,0.001357716229698,-0.0013577162300011,0.0013577162281956,-0.0013577162290589,0.0013577162291962,-0.0013577162297838,0.0013577162284553,-5.8132529973466e-13,1.1540050694667e-12,-0.0013947769655325,0.0013947769661059,-4.4682205577526e-13,1.0461954512118e-12,-0.0014439057835228,0.0014439057830114,-0.0014439057830253,0.0014439057835078,-0.0014439057829447,0.0014439057835911,-0.0014439057824474,0.0014439057840867,-0.0013577162277406,0.0013577162305107,-0.0013577162294324,0.0013577162288076,0.7640241358635,0.9459641515924,114808,2744,0.0057946319846397,0.0057946319846706,0.0057946319846721,23.440907356806,23.446287747694,-5.247274114555e-05,-5.247274114555e-05,-5.247274114555e-05,1010798.6147115,0.017536540340883
28619200,0.99524876726183,0.017188783726987,0.0057295945756407,0.0057295945756726,0.0057295945756742,-0.0013954146758264,0.0013954146759099,9.1540378963817e-13,-8.3333110227927e-13,-3.2289893046631e-13,4.1652567248544e-13,-0.0014445348477417,0.0014445348481629,-0.0014445348483261,0.0014445348475812,-0.0014445348475046,0.0014445348484113,-0.0014445348480863,0.0014445348478269,-0.0013583611923848,0.0013583611944198,-0.0013583611940904,0.0013583611927032,3.2240356255718e-13,-4.170291423989e-13,7.1464581511973e-13,-7.9741969819912e-13,-0.0013954146759178,0.0013954146758334,-0.0014445348476331,0.0014445348482923,-0.0014445348481195,0.0014445348477835,-0.001444534847872,0.0014445348480446,-0.0014445348483576,0.0014445348475364,-0.0013583611928441,0.0013583611939979,-0.0013583611943011,0.0013583611924955,-0.0013583611933589,0.0013583611934962,-0.0013583611940838,0.0013583611927552,-5.8804677086892e-13,1.1607303934244e-12,-0.0013954146755893,0.0013954146761627,-4.468507607807e-13,1.0462262149779e-12,-0.0014445348482127,0.0014445348476968,-0.0014445348477152,0.0014445348481932,-0.0014445348476301,0.001444534848281,-0.0014445348471328,0.0014445348487766,-0.0013583611920339,0.0013583611948173,-0.0013583611937389,0.001358361193101,0.76896076444833,0.94790806088517,114808,2744,0.0057972737954971,0.0057972737955279,0.0057972737955295,23.631292516099,23.636661843469,-5.0949659871208e-05,-5.0949659871208e-05,-5.0949659871208e-05,1001604.9437855,0.017544604575206
28819200,0.99540540132312,0.01719164072305,0.0057305469076615,0.0057305469076933,0.0057305469076949,-0.0013960467627217,0.0013960467628051,9.2210147013893e-13,-8.400766722867e-13,-3.2293821982211e-13,4.1651049647847e-13,-0.0014451595884689,0.0014451595888946,-0.0014451595890578,0.0014451595883084,-0.0014451595882317,0.0014451595891429,-0.001445159588818,0.0014451595885541,-0.0013589980971899,0.0013589980992379,-0.0013589980989087,0.0013589980975081,3.2236121090981e-13,-4.1709796382587e-13,7.1462405107872e-13,-7.9751434236663e-13,-0.0013960467628131,0.0013960467627286,-0.0014451595883624,0.0014451595890217,-0.0014451595888489,0.0014451595885128,-0.0014451595886013,0.0014451595887739,-0.001445159589087,0.0014451595882657,-0.0013589980976559,0.0013589980988097,-0.0013589980991131,0.0013589980973071,-0.0013589980981707,0.0013589980983078,-0.0013589980988957,0.001358998097567,-5.9477524178934e-13,1.1674419236859e-12,-0.0013960467624846,0.0013960467630579,-4.4689599469295e-13,1.0462525082923e-12,-0.0014451595889444,0.0014451595884238,-0.0014451595884468,0.0014451595889204,-0.0014451595883572,0.0014451595890126,-0.0014451595878599,0.0014451595895081,-0.0013589980968391,0.0013589980996356,-0.0013589980985572,0.0013589980979062,0.74978431857705,0.8433479552569,114808,2744,0.0057998922865583,0.0057998922865891,0.0057998922865907,23.823881418408,23.829312916587,-4.9408948652735e-05,-4.9408948652735e-05,-4.9408948652735e-05,993217.48587371,0.017552597770645
29019200,0.99555974111351,0.017194308447493,0.0057314361491425,0.0057314361491744,0.005731436149176,-0.0013968838653127,0.001396883865396,9.2883658975329e-13,-8.468416953993e-13,-3.2293683268618e-13,4.1657111227376e-13,-0.00144599448535,0.0014459944857801,-0.001445994485943,0.0014459944851891,-0.0014459944851126,0.0014459944860293,-0.0014459944857029,0.001445994485434,-0.0013598355485769,0.0013598355506389,-0.0013598355503086,0.0013598355488959,3.2226897843334e-13,-4.172352537494e-13,7.1463628599907e-13,-7.9759134001441e-13,-0.0013968838654044,0.0013968838653197,-0.001445994485245,0.0014459944859031,-0.0014459944857314,0.0014459944853954,-0.0014459944854841,0.0014459944856556,-0.0014459944859701,0.0014459944851476,-0.0013598355490527,0.0013598355502046,-0.0013598355505095,0.0013598355487022,-0.0013598355495667,0.0013598355497035,-0.0013598355502924,0.0013598355489623,-6.0144456745778e-13,1.1742930379185e-12,-0.001396883865076,0.001396883865649,-4.4691652347757e-13,1.0463697988268e-12,-0.0014459944858276,0.0014459944853033,-0.0014459944853311,0.0014459944857999,-0.0014459944852377,0.0014459944858968,-0.0014459944847414,0.001445994486391,-0.0013598355482276,0.0013598355510387,-0.0013598355499598,0.0013598355492966,0.71130250769907,0.65856960657981,114808,2744,0.0058033600242323,0.0058033600242643,0.0058033600242659,24.139321758863,24.148169741101,-4.6885425929092e-05,-4.6885425929092e-05,-4.6885425929092e-05,989640.25110731,0.017563183658611
29219200,0.99571174309962,0.017196874874007,0.0057322916246471,0.0057322916246789,0.0057322916246806,-0.0013976858820432,0.0013976858821266,9.3557804832842e-13,-8.5350601375289e-13,-3.229284248548e-13,4.1653836327422e-13,-0.0014468036279755,0.0014468036284102,-0.0014468036285734,0.0014468036278149,-0.0014468036277384,0.0014468036286587,-0.0014468036283335,0.0014468036280606,-0.0013606334192623,0.001360633421337,-0.0013606334210075,0.0013606334195808,3.2238550428532e-13,-4.1708608183591e-13,7.1473416536186e-13,-7.9754381205459e-13,-0.0013976858821346,0.0013976858820502,-0.0014468036278735,0.0014468036285326,-0.0014468036283599,0.0014468036280239,-0.0014468036281124,0.0014468036282849,-0.0014468036285981,0.0014468036277767,-0.0013606334197417,0.0013606334208956,-0.001360633421199,0.0013606334193929,-0.0013606334202568,0.0013606334203939,-0.0013606334209818,0.001360633419653,-6.0823709524484e-13,1.1808908069494e-12,-0.0013976858818062,0.0013976858823795,-4.469675219196e-13,1.0463310353051e-12,-0.0014468036284597,0.0014468036279304,-0.0014468036279622,0.0014468036284269,-0.0014468036278638,0.001446803628528,-0.0014468036273665,0.0014468036290236,-0.0013606334189118,0.0013606334217349,-0.0013606334206566,0.0013606334199792,0.69516964571383,0.59061242969231,114808,2744,0.0058066823575706,0.0058066823576017,0.0058066823576033,24.458032672762,24.467026565615,-4.4335738617908e-05,-4.4335738617908e-05,-4.4335738617908e-05,993952.0517242,0.017573325980879
29419200,0.99586133629653,0.017199235262243,0.0057330784207258,0.0057330784207577,0.0057330784207593,-0.001398464843664,0.0013984648437475,9.4231608237581e-13,-8.6020890457241e-13,-3.2289262344391e-13,4.1658053110367e-13,-0.0014475947655515,0.0014475947659908,-0.001447594766154,0.001447594765391,-0.0014475947653144,0.0014475947662392,-0.001447594765914,0.0014475947656367,-0.0013614034508837,0.0013614034529714,-0.0013614034526418,0.0013614034512021,3.2247556035769e-13,-4.1700608427978e-13,7.148382798283e-13,-7.9750451913731e-13,-0.0013984648437553,0.0013984648436711,-0.0014475947654517,0.001447594766111,-0.0014475947659382,0.0014475947656022,-0.0014475947656906,0.0014475947658633,-0.0014475947661763,0.001447594765355,-0.0013614034513692,0.0013614034525232,-0.0013614034528263,0.0013614034510205,-0.0013614034518844,0.0013614034520218,-0.0013614034526094,0.0013614034512807,-6.1499088892108e-13,1.1875792790917e-12,-0.001398464843427,0.0013984648440002,-4.470452842499e-13,1.0463119770638e-12,-0.0014475947660404,0.0014475947655064,-0.0014475947655428,0.0014475947660029,-0.0014475947654399,0.0014475947661085,-0.0014475947649427,0.0014475947666041,-0.0013614034505331,0.0013614034533691,-0.0013614034522907,0.0013614034516002,0.65089855260323,0.39580697924075,114808,2744,0.0058099091471189,0.0058099091471498,0.0058099091471514,24.776879867161,24.785883390129,-4.1784961062708e-05,-4.1784961062708e-05,-4.1784961062708e-05,1000974.1482758,0.017583176867649
29619200,0.99600837213015,0.017201521918233,0.0057338406393891,0.005733840639421,0.0057338406394226,-0.0013991821744939,0.0013991821745774,9.4901889415363e-13,-8.669572821687e-13,-3.2292392039682e-13,4.1655596567766e-13,-0.0014483326673761,0.0014483326678198,-0.001448332667983,0.0014483326672156,-0.001448332667139,0.0014483326680682,-0.0014483326677431,0.0014483326674613,-0.0013621094246193,0.0013621094267202,-0.0013621094263907,0.0013621094249377,3.224222678681e-13,-4.170648471905e-13,7.1481663343075e-13,-7.9759769276151e-13,-0.0013991821745853,0.0013991821745009,-0.0014483326672786,0.0014483326679379,-0.0014483326677651,0.001448332667429,-0.0014483326675175,0.0014483326676902,-0.0014483326680033,0.0014483326671818,-0.0013621094251116,0.0013621094262656,-0.0013621094265688,0.0013621094247628,-0.0013621094256265,0.0013621094257637,-0.0013621094263515,0.0013621094250227,-6.2164962667768e-13,1.1943695128312e-12,-0.0013991821742568,0.0013991821748302,-4.470188144703e-13,1.0464110328612e-12,-0.0014483326678694,0.0014483326673311,-0.0014483326673719,0.0014483326678276,-0.0014483326672645,0.0014483326679377,-0.0014483326667672,0.0014483326684333,-0.0013621094242685,0.0013621094271179,-0.0013621094260393,0.0013621094253358,0.64191384014518,0.3784741508565,114808,2744,0.0058128805861047,0.0058128805861356,0.0058128805861372,25.086529764914,25.095280758206,-3.9307761880688e-05,-3.9307761880688e-05,-3.9307761880688e-05,1015570.5434158,0.017592248454113
29819200,0.99615230832977,0.017203890160734,0.0057346300535564,0.0057346300535882,0.0057346300535898,-0.0013997883945746,0.0013997883946587,9.5595270898476e-13,-8.7342722962195e-13,-3.2261778131165e-13,4.168474126565e-13,-0.0014489588872419,0.0014489588876909,-0.0014489588878527,0.0014489588870835,-0.0014489588870059,0.0014489588879392,-0.0014489588876137,0.001448958887328,-0.0013627079390002,0.001362707941114,-0.0013627079407841,0.0013627079393196,3.227629045207e-13,-4.1671556374322e-13,7.1521109196855e-13,-7.9723199805088e-13,-0.0013997883946658,0.0013997883945824,-0.0014489588871497,0.0014489588878093,-0.0014489588876365,0.0014489588872994,-0.001448958887388,0.0014489588875608,-0.0014489588878745,0.0014489588870542,-0.0013627079394981,0.0013627079406528,-0.0013627079409532,0.0013627079391474,-0.0013627079400106,0.0013627079401486,-0.0013627079407364,0.0013627079394063,-6.288807881236e-13,1.2006009107016e-12,-0.0013997883943382,0.0013997883949108,-4.4745415411215e-13,1.0460049864421e-12,-0.0014489588877426,0.0014489588871985,-0.0014489588872459,0.0014489588876965,-0.001448958887132,0.0014489588878118,-0.0014489588866371,0.0014489588883068,-0.0013627079386466,0.0013627079415081,-0.0013627079404287,0.0013627079397125,0.67837701512665,0.57263376256839,114808,2744,0.0058153917654537,0.0058153917654846,0.0058153917654862,25.338959758688,25.346117313265,-3.7288321930495e-05,-3.7288321930495e-05,-3.7288321930495e-05,1029696.629928,0.017599914925535
30019200,0.99629311487327,0.017206242267462,0.0057354140891321,0.005735414089164,0.0057354140891656,-0.0014004322670619,0.0014004322671454,9.6248170070501e-13,-8.8038648393327e-13,-3.229279195853e-13,4.1657455334511e-13,-0.0014496133477093,0.001449613348162,-0.001449613348325,0.0014496133475489,-0.0014496133474722,0.0014496133484104,-0.0014496133480852,0.0014496133477945,-0.0013633481082837,0.0013633481104108,-0.0013633481100814,0.0013633481086022,3.2245009054754e-13,-4.1706349429065e-13,7.1485869096946e-13,-7.9761710393322e-13,-0.0014004322671532,0.0014004322670689,-0.0014496133476165,0.0014496133482758,-0.0014496133481031,0.0014496133477669,-0.0014496133478554,0.0014496133480281,-0.0014496133483412,0.0014496133475199,-0.0013633481087887,0.0013633481099429,-0.001363348110246,0.0013633481084396,-0.0013633481093034,0.0013633481094407,-0.0013633481100285,0.0013633481086997,-6.3513374415891e-13,1.2077830148227e-12,-0.0014004322668248,0.0014004322673981,-4.4706146022632e-13,1.0464303852112e-12,-0.0014496133482119,0.0014496133476644,-0.0014496133477143,0.001449613348161,-0.0014496133475978,0.0014496133482802,-0.0014496133471007,0.0014496133487758,-0.0013633481079323,0.0013633481108078,-0.0013633481097292,0.0013633481089994,0.68873088166557,0.63068324939852,114808,2744,0.0058180589773404,0.005818058977371,0.0058180589773726,25.58986106958,25.596953868324,-3.5281111443357e-05,-3.5281111443357e-05,-3.5281111443357e-05,1034059.0815188,0.017608057548218
30219200,0.99643077789597,0.017208443341566,0.0057361477805001,0.005736147780532,0.0057361477805336,-0.0014010811375867,0.0014010811376703,9.6922144150173e-13,-8.8709588592796e-13,-3.2291836599389e-13,4.1660589062307e-13,-0.0014502713609663,0.0014502713614235,-0.0014502713615865,0.0014502713608059,-0.0014502713607292,0.0014502713616719,-0.0014502713613467,0.0014502713610515,-0.0013639916578724,0.0013639916600128,-0.0013639916596833,0.001363991658191,3.2247903083991e-13,-4.1705296520054e-13,7.1489410165239e-13,-7.9760363375649e-13,-0.0014010811376781,0.0014010811375938,-0.0014502713608757,0.001450271361535,-0.0014502713613622,0.0014502713610261,-0.0014502713611145,0.0014502713612872,-0.0014502713616004,0.001450271360779,-0.0013639916583843,0.0013639916595385,-0.0013639916598416,0.0013639916580355,-0.0013639916588991,0.0013639916590364,-0.0013639916596242,0.0013639916582953,-6.4186530322029e-13,1.214498309675e-12,-0.0014010811373497,0.001401081137923,-4.4709281220972e-13,1.0464191502603e-12,-0.0014502713614733,0.0014502713609213,-0.0014502713609757,0.001450271361418,-0.0014502713608548,0.0014502713615416,-0.0014502713603576,0.0014502713620372,-0.0013639916575214,0.0013639916604102,-0.0013639916593317,0.0013639916585886,0.66008310797882,0.50299150922935,114808,2744,0.0058207468924588,0.0058207468924898,0.0058207468924913,25.840698572022,25.847790423383,-3.3274411423826e-05,-3.3274411423826e-05,-3.3274411423826e-05,1035771.1065652,0.017616263439178
30419200,0.99656557627077,0.017210481634217,0.005736827211384,0.0057368272114159,0.0057368272114175,-0.0014017656977774,0.001401765697861,9.7604167248659e-13,-8.9372603942452e-13,-3.228434524966e-13,4.1666433736697e-13,-0.0014509713405467,0.0014509713410081,-0.0014509713411717,0.0014509713403876,-0.00145097134031,0.0014509713412583,-0.0014509713409319,0.0014509713406318,-0.0013646670957007,0.0013646670978544,-0.0013646670975252,0.0013646670960196,3.2257402793781e-13,-4.1697408525733e-13,7.1507139035399e-13,-7.9748134337473e-13,-0.0014017656978689,0.0014017656977847,-0.0014509713404605,0.0014509713411198,-0.0014509713409455,0.0014509713406118,-0.0014509713406981,0.0014509713408713,-0.0014509713411853,0.0014509713403629,-0.0013646670962172,0.0013646670973719,-0.0013646670976761,0.0013646670958685,-0.0013646670967325,0.0013646670968683,-0.0013646670974586,0.0013646670961295,-6.4866700719761e-13,1.2211400479509e-12,-0.0014017656975408,0.0014017656981136,-4.4726568928138e-13,1.0462826250193e-12,-0.0014509713410607,0.0014509713405035,-0.0014509713405629,0.0014509713410001,-0.0014509713404377,0.0014509713411279,-0.0014509713399411,0.0014509713416241,-0.0013646670953485,0.0013646670982504,-0.0013646670971717,0.001364667096416,0.6252652562892,0.35586293906454,114808,2744,0.0058235826078742,0.0058235826079056,0.0058235826079073,26.128532104826,26.136656521769,-3.0971743161391e-05,-3.0971743161391e-05,-3.0971743161391e-05,1043144.5810721,0.017624920763455
30619200,0.99669828921445,0.017212613348163,0.0057375377826992,0.005737537782731,0.0057375377827326,-0.0014026260917279,0.0014026260918116,9.8283736653722e-13,-9.0037088950795e-13,-3.227219805641e-13,4.1676896652357e-13,-0.0014518508239241,0.0014518508243904,-0.0014518508245536,0.0014518508237648,-0.0014518508236871,0.001451850824639,-0.0014518508243143,0.0014518508240104,-0.0013655210925243,0.0013655210946911,-0.0013655210943614,0.0013655210928435,3.2208768985393e-13,-4.173989546308e-13,7.1450758404847e-13,-7.9795197605604e-13,-0.0014026260918193,0.0014026260917344,-0.0014518508238399,0.0014518508244987,-0.0014518508243249,0.0014518508239907,-0.0014518508240793,0.001451850824251,-0.0014518508245639,0.0014518508237418,-0.0013655210930484,0.0013655210942015,-0.0013655210945044,0.0013655210926984,-0.0013655210935618,0.0013655210936998,-0.001365521094288,0.0013655210929589,-6.5537315527056e-13,1.2278701658799e-12,-0.0014026260914907,0.0014026260920637,-4.471076352863e-13,1.0463869159509e-12,-0.0014518508244416,0.0014518508238811,-0.001451850823944,0.001451850824376,-0.0014518508238144,0.0014518508245101,-0.001451850823317,0.0014518508250059,-0.0013655210921722,0.0013655210950862,-0.001365521094009,0.0013655210932403,0.66318228514971,0.55583487502488,114808,2744,0.0058271466959464,0.0058271466959756,0.0058271466959772,26.522429058395,26.533527822329,-2.7820567532839e-05,-2.7820567532839e-05,-2.7820567532839e-05,1056168.8777425,0.01763580178928
30819200,0.99682884072756,0.017214804461353,0.0057382681537624,0.0057382681537943,0.0057382681537959,-0.0014035412117147,0.0014035412117982,9.8941041297781e-13,-9.0724927783839e-13,-3.2290867488369e-13,4.1661921374547e-13,-0.0014527755690191,0.0014527755694897,-0.0014527755696528,0.0014527755688588,-0.001452775568782,0.0014527755697382,-0.0014527755694131,0.0014527755691044,-0.001366434245896,0.001366434248076,-0.0013664342477464,0.0013664342462146,3.2243450278844e-13,-4.1710296367312e-13,7.1483586813727e-13,-7.9764457368227e-13,-0.0014035412118061,0.0014035412117217,-0.0014527755689355,0.0014527755695948,-0.0014527755694218,0.0014527755690859,-0.0014527755691743,0.001452775569347,-0.0014527755696601,0.0014527755688386,-0.0013664342464275,0.0013664342475815,-0.0013664342478847,0.0013664342460785,-0.0013664342469422,0.0013664342470795,-0.0013664342476675,0.0013664342463384,-6.6202398150415e-13,1.2346798402019e-12,-0.0014035412114776,0.0014035412120509,-4.4707251871202e-13,1.046423385425e-12,-0.0014527755695398,0.0014527755689744,-0.0014527755690422,0.0014527755694709,-0.0014527755689079,0.001452775569608,-0.0014527755684107,0.0014527755701037,-0.0013664342455448,0.0013664342484731,-0.0013664342473946,0.0013664342466121,0.69236326459234,0.69953054327955,114808,2744,0.0058309375343379,0.0058309375343687,0.0058309375343703,26.919170751165,26.930399122888,-2.4646633990683e-05,-2.4646633990683e-05,-2.4646633990683e-05,1059047.4359282,0.017647374947929
31019200,0.99695713602577,0.017217020793044,0.0057390069309929,0.0057390069310247,0.0057390069310263,-0.0014044892358012,0.0014044892358847,9.9611695350201e-13,-9.1399180784218e-13,-3.2292592941173e-13,4.1661162574198e-13,-0.0014537257574149,0.00145372575789,-0.0014537257580532,0.0014537257572546,-0.0014537257571779,0.0014537257581386,-0.0014537257578134,0.0014537257575002,-0.0013673836160807,0.0013673836182737,-0.0013673836179443,0.0013673836163992,3.2245620800772e-13,-4.1709043464411e-13,7.1484798541415e-13,-7.9761551574644e-13,-0.0014044892358925,0.0014044892358082,-0.0014537257573336,0.0014537257579928,-0.0014537257578199,0.001453725757484,-0.0014537257575724,0.001453725757745,-0.0014537257580582,0.0014537257572367,-0.0013673836166188,0.0013673836177729,-0.0013673836180761,0.0013673836162699,-0.0013673836171335,0.0013673836172708,-0.0013673836178587,0.0013673836165298,-6.6875868752821e-13,1.2413944880152e-12,-0.0014044892355641,0.0014044892361374,-4.4707145992084e-13,1.0464069741617e-12,-0.0014537257579401,0.0014537257573702,-0.0014537257574425,0.0014537257578667,-0.0014537257573037,0.0014537257580083,-0.0014537257568065,0.001453725758504,-0.0013673836157296,0.001367383618671,-0.0013673836175925,0.0013673836167968,0.71215830387872,0.7880274466112,114808,2744,0.0058348647026308,0.0058348647026616,0.0058348647026632,27.316031394949,27.327270423448,-2.1471748840408e-05,-2.1471748840408e-05,-2.1471748840408e-05,1055044.2559545,0.017659364284705
31219200,0.9970841835288,0.017219321207487,0.0057397737358071,0.005739773735839,0.0057397737358406,-0.0014057518080775,0.0014057518081605,1.0025526769318e-12,-9.2095470749251e-13,-3.231377287778e-13,4.1641184508044e-13,-0.0014549835774299,0.0014549835779109,-0.0014549835780732,0.0014549835772695,-0.0014549835771935,0.001454983578159,-0.001454983577834,0.0014549835775144,-0.0013686520965256,0.0013686520987298,-0.001368652098401,0.0013686520968441,3.2324741913088e-13,-4.1631104668917e-13,7.1568419516263e-13,-7.9675695373963e-13,-0.0014057518081679,0.0014057518080852,-0.0014549835773566,0.0014549835780186,-0.0014549835778426,0.0014549835775096,-0.0014549835775953,0.0014549835777697,-0.0014549835780817,0.0014549835772609,-0.0013686520970645,0.0013686520982213,-0.0013686520985221,0.0013686520967161,-0.0013686520975768,0.0013686520977185,-0.0013686520983046,0.0013686520969784,-6.7596011458838e-13,1.2476045924184e-12,-0.0014057518078409,0.0014057518084132,-4.4746303619375e-13,1.0460236329313e-12,-0.001454983577967,0.0014549835773914,-0.0014549835774694,0.0014549835778881,-0.0014549835773264,0.0014549835780346,-0.0014549835768281,0.0014549835785285,-0.0013686520961684,0.0013686520991229,-0.0013686520980457,0.0013686520972362,0.74546027795498,0.92755087613906,114808,2744,0.0058400948772723,0.0058400948773037,0.0058400948773055,27.865049107554,27.880540950448,-1.7079607139568e-05,-1.7079607139568e-05,-1.7079607139568e-05,1046848.7544585,0.017675331693175
31419200,0.997209941141,0.017221495204894,0.0057404984016097,0.0057404984016415,0.0057404984016431,-0.001407073533141,0.0014070735332244,1.00946358897e-12,-9.275228950512e-13,-3.2298095105346e-13,4.1655709064329e-13,-0.001456297323438,0.0014562973239225,-0.0014562973240851,0.0014562973232773,-0.0014562973232012,0.0014562973241703,-0.0014562973238454,0.0014562973235234,-0.0013699774266012,0.0013699774288206,-0.0013699774284908,0.0013699774269196,3.224839130437e-13,-4.1704961236179e-13,7.1489727802594e-13,-7.9760481019114e-13,-0.0014070735332323,0.001407073533148,-0.0014562973233626,0.0014562973240222,-0.0014562973238489,0.0014562973235128,-0.0014562973236012,0.0014562973237743,-0.0014562973240873,0.0014562973232654,-0.0013699774271525,0.0013699774283072,-0.0013699774286102,0.0013699774268038,-0.0013699774276663,0.0013699774278034,-0.0013699774283911,0.0013699774270621,-6.822231585508e-13,1.2548037548419e-12,-0.001407073532904,0.0014070735334771,-4.4709292985318e-13,1.0464094446745e-12,-0.0014562973239733,0.0014562973233945,-0.0014562973234759,0.0014562973238911,-0.0014562973233284,0.0014562973240417,-0.0014562973228311,0.0014562973245369,-0.0013699774262485,0.0013699774292165,-0.0013699774281383,0.0013699774273166,0.7124262831222,0.75656123134634,114808,2744,0.0058455700536109,0.0058455700536418,0.0058455700536434,28.433056729799,28.449153491725,-1.2535546161604e-05,-1.2535546161604e-05,-1.2535546161604e-05,1033862.6289089,0.017692047414133
31619200,0.99733422586626,0.017223545889569,0.0057411819631678,0.0057411819631996,0.0057411819632012,-0.0014083520039167,0.0014083520040002,1.0162566204181e-12,-9.3419445560082e-13,-3.2294698908546e-13,4.1658804557999e-13,-0.0014575765163428,0.0014575765168314,-0.0014575765169945,0.0014575765161824,-0.0014575765161058,0.0014575765170799,-0.0014575765167547,0.001457576516428,-0.0013712545644382,0.0013712545666706,-0.0013712545663411,0.0013712545647567,3.2251208865354e-13,-4.1703155408993e-13,7.1492327723168e-13,-7.9757722279862e-13,-0.001408352004008,0.0014083520039238,-0.0014575765162687,0.0014575765169282,-0.001457576516755,0.0014575765164193,-0.0014575765165074,0.0014575765166803,-0.0014575765169934,0.0014575765161719,-0.0013712545649956,0.0013712545661499,-0.001371254566453,0.0013712545646468,-0.0013712545655101,0.0013712545656476,-0.0013712545662354,0.0013712545649067,-6.8895436468178e-13,1.2615414901852e-12,-0.0014083520036797,0.0014083520042529,-4.4711116459024e-13,1.0464032095708e-12,-0.001457576516882,0.0014575765162986,-0.0014575765163844,0.0014575765167952,-0.0014575765162322,0.0014575765169502,-0.0014575765157349,0.0014575765174458,-0.0013712545640864,0.0013712545670674,-0.001371254565989,0.0013712545651539,0.6805776520066,0.60478169580822,114808,2744,0.0058508659643057,0.0058508659643366,0.0058508659643382,29.001633344116,29.017766033003,-7.9869332470744e-06,-7.9869332470744e-06,-7.9869332470744e-06,1029722.3049139,0.017708216333321
31819200,0.99745476161033,0.017225467373664,0.0057418224578661,0.005741822457898,0.0057418224578996,-0.0014090026665805,0.001409002666664,1.0229804416644e-12,-9.4091600795962e-13,-3.2295077343677e-13,4.1658375894624e-13,-0.0014582380328128,0.001458238033306,-0.001458238033469,0.0014582380326524,-0.0014582380325758,0.0014582380335544,-0.0014582380332293,0.001458238032898,-0.001371898296425,0.0013718982986706,-0.0013718982983411,0.0013718982967435,3.2251267687087e-13,-4.1702990708142e-13,7.1493198284809e-13,-7.9757786983767e-13,-0.0014090026666718,0.0014090026665876,-0.0014582380327408,0.0014582380334004,-0.0014582380332272,0.0014582380328914,-0.0014582380329796,0.0014582380331525,-0.0014582380334655,0.0014582380326441,-0.001371898296989,0.0013718982981434,-0.0013718982984464,0.0013718982966402,-0.0013718982975036,0.0013718982976411,-0.0013718982982289,0.0013718982969002,-6.9567854161573e-13,1.2682624613347e-12,-0.0014090026663435,0.0014090026669167,-4.4711451742899e-13,1.0464095623179e-12,-0.0014582380333565,0.0014582380327686,-0.0014582380328589,0.0014582380332651,-0.0014582380327022,0.0014582380334247,-0.0014582380322048,0.0014582380339202,-0.0013718982960734,0.0013718982990675,-0.0013718982979891,0.0013718982971408,0.6580565152654,0.50727485925725,114808,2744,0.0058535611911218,0.0058535611911527,0.0058535611911543,29.264867883309,29.272472494998,-5.8810569335257e-06,-5.8810569335257e-06,-5.8810569335257e-06,1033375.4259467,0.017716445475155
32019200,0.99756995969873,0.017227474593483,0.0057424915311394,0.0057424915311712,0.0057424915311728,-0.0014091557654483,0.0014091557655323,1.0298004906695e-12,-9.4738274273528e-13,-3.2255542430118e-13,4.1698932008603e-13,-0.0014584029621436,0.0014584029626421,-0.0014584029628059,0.0014584029619848,-0.0014584029619093,0.0014584029628919,-0.0014584029625639,0.0014584029622279,-0.0013720485433771,0.0013720485456336,-0.0013720485452986,0.0013720485436949,3.234408838089e-13,-4.1608246543688e-13,7.1566960737299e-13,-7.9688753798566e-13,-0.0014091557655385,0.0014091557654559,-0.0014584029620746,0.001458402962733,-0.0014584029625588,0.0014584029622224,-0.0014584029623119,0.0014584029624864,-0.0014584029627979,0.001458402961979,-0.0013720485439419,0.0013720485450986,-0.0013720485453985,0.0013720485435948,-0.0013720485444565,0.0013720485445959,-0.0013720485451806,0.0013720485438573,-7.0048736529771e-13,1.2768206704756e-12,-0.0014091557652091,0.0014091557657857,-4.4525716240521e-13,1.0482407416708e-12,-0.0014584029626926,0.0014584029621022,-0.0014584029621928,0.0014584029625957,-0.0014584029620331,0.0014584029627638,-0.0014584029615349,0.0014584029632554,-0.0013720485430211,0.0013720485460323,-0.0013720485449486,0.0013720485440975,0.71766337299437,0.79603683395703,114808,2744,0.0058541953410322,0.0058541953410609,0.0058541953410617,29.280893414237,29.281459200527,-5.7528526861014e-06,-5.7528526861014e-06,-5.7528526861014e-06,1040450.9596771,0.017718381798751
32219200,0.99768000912247,0.01722943483594,0.0057431449452914,0.0057431449453233,0.0057431449453249,-0.0014093516040802,0.0014093516041637,1.0364481147951e-12,-9.5431851246992e-13,-3.2288721862281e-13,4.1658588388132e-13,-0.0014585952703379,0.0014585952708401,-0.0014585952710032,0.0014585952701776,-0.0014585952701011,0.0014585952710886,-0.0014585952707633,0.001458595270423,-0.0013722477244474,0.001372247726719,-0.0013722477263889,0.0013722477247657,3.2260426230829e-13,-4.1687644118147e-13,7.1496286425762e-13,-7.9752251858744e-13,-0.0014093516041714,0.0014093516040874,-0.0014585952702703,0.0014585952709297,-0.0014585952707565,0.0014585952704207,-0.001458595270509,0.0014585952706819,-0.0014585952709949,0.0014585952701736,-0.0013722477250242,0.0013722477261787,-0.0013722477264814,0.0013722477246754,-0.0013722477255387,0.0013722477256765,-0.0013722477262639,0.0013722477249359,-7.0891943123329e-13,1.2818973389162e-12,-0.001409351603843,0.0014093516044166,-4.4688705378962e-13,1.0466064974782e-12,-0.0014585952708904,0.0014585952702938,-0.0014585952703926,0.00145859527079,-0.001458595270227,0.0014585952709589,-0.0014585952697296,0.0014585952714541,-0.0013722477240956,0.0013722477271163,-0.0013722477260374,0.0013722477251639,0.73340850527314,0.85840252638019,114808,2744,0.0058550066185578,0.0058550066185886,0.0058550066185902,29.290176893135,29.290445906056,-5.6785848549193e-06,-5.6785848549193e-06,-5.6785848549193e-06,1033697.2473002,0.017720858573689
32419200,0.99778513502863,0.017231353969576,0.0057437846565034,0.0057437846565353,0.0057437846565369,-0.001409553455168,0.0014095534552515,1.0431473917544e-12,-9.6106525672916e-13,-3.2288834220981e-13,4.1656414925118e-13,-0.0014587903710306,0.0014587903715373,-0.0014587903717004,0.0014587903708704,-0.0014587903707939,0.0014587903717858,-0.0014587903714605,0.0014587903711158,-0.001372454498606,0.0013724545008909,-0.0013724545005612,0.0013724544989244,3.2253620556385e-13,-4.1692155745025e-13,7.149666288485e-13,-7.9750469560251e-13,-0.0014095534552592,0.0014095534551751,-0.0014587903709653,0.0014587903716247,-0.0014587903714516,0.0014587903711157,-0.001458790371204,0.001458790371377,-0.0014587903716899,0.0014587903708687,-0.0013724544991894,0.001372454500344,-0.0013724545006468,0.0013724544988409,-0.0013724544997042,0.0013724544998417,-0.0013724545004292,0.0013724544991009,-7.1568578334941e-13,1.2885771936748e-12,-0.0014095534549308,0.0014095534555043,-4.4694228739638e-13,1.0465380878033e-12,-0.0014587903715877,0.0014587903709865,-0.0014587903710899,0.0014587903714828,-0.0014587903709198,0.0014587903716561,-0.0014587903704224,0.0014587903721514,-0.0013724544982542,0.0013724545012881,-0.0013724545002093,0.0013724544993222,0.75109424210984,0.92292026124148,114808,2744,0.0058558428112678,0.0058558428112984,0.0058558428113,29.299176895143,29.299432611585,-5.6065848388541e-06,-5.6065848388541e-06,-5.6065848388541e-06,1024794.1059868,0.017723411375835
32619200,0.99788529931128,0.017233046865456,0.0057443489551302,0.0057443489551621,0.0057443489551637,-0.0014096663695139,0.0014096663695978,1.0501298172329e-12,-9.6752477251579e-13,-3.2260486706923e-13,4.1685467714046e-13,-0.0014588963628905,0.0014588963634017,-0.0014588963635655,0.0014588963627309,-0.0014588963626545,0.0014588963636508,-0.0014588963633246,0.0014588963629765,-0.0013725688714762,0.001372568873775,-0.0013725688734456,0.0013725688717957,3.2272178812972e-13,-4.1675144500001e-13,7.1513297670786e-13,-7.9734922976365e-13,-0.0014096663696052,0.0014096663695214,-0.0014588963628278,0.0014588963634877,-0.0014588963633141,0.0014588963629784,-0.0014588963630662,0.0014588963632403,-0.0014588963635528,0.0014588963627313,-0.0013725688720671,0.001372568873222,-0.0013725688735241,0.0013725688717179,-0.0013725688725815,0.0013725688727199,-0.0013725688733066,0.0013725688719789,-7.2251786875154e-13,1.2951795508008e-12,-0.0014096663692769,0.0014096663698503,-4.4701357933611e-13,1.046472854502e-12,-0.0014588963634532,0.0014588963628471,-0.0014588963629549,0.0014588963633431,-0.0014588963627798,0.0014588963635208,-0.0014588963622829,0.0014588963640161,-0.0013725688711248,0.0013725688741721,-0.0013725688730937,0.0013725688721925,0.69653885072896,0.65456196929493,114808,2744,0.0058563105781102,0.0058563105781412,0.0058563105781423,29.263017903199,29.262011297924,-5.8958567744054e-06,-5.8958567744054e-06,-5.8958567744054e-06,1014458.1709041,0.017724839421212
32819200,0.99798062508368,0.01723453487438,0.005744844958105,0.0057448449581369,0.0057448449581385,-0.0014096679712519,0.0014096679713353,1.0565831219271e-12,-9.7452375849477e-13,-3.228997061779e-13,4.1653873826276e-13,-0.001458903384272,0.0014589033847873,-0.0014589033849503,0.0014589033841113,-0.0014589033840352,0.0014589033850359,-0.0014589033847102,0.0014589033843566,-0.0013725657219697,0.0013725657242808,-0.0013725657239518,0.0013725657222882,3.2269590656744e-13,-4.1674438639212e-13,7.1511797716609e-13,-7.9737158202198e-13,-0.0014096679713429,0.001409667971259,-0.0014589033842101,0.0014589033848698,-0.0014589033846964,0.001458903384361,-0.0014589033844488,0.0014589033846222,-0.001458903384935,0.001458903384114,-0.0013725657225663,0.0013725657237207,-0.0013725657240236,0.0013725657222174,-0.0013725657230811,0.0013725657232191,-0.0013725657238059,0.001372565722478,-7.2913446073684e-13,1.3020282827532e-12,-0.0014096679710146,0.0014096679715881,-4.4692375855066e-13,1.0465773807206e-12,-0.001458903384837,0.0014589033842275,-0.0014589033843396,0.0014589033847233,-0.0014589033841604,0.0014589033849058,-0.0014589033836628,0.0014589033854008,-0.0013725657216178,0.0013725657246782,-0.0013725657235997,0.0013725657226861,0.64446134112216,0.41730343038392,114808,2744,0.0058563171755943,0.0058563171756248,0.0058563171756264,29.204624859281,29.202977733998,-6.3630011257491e-06,-6.3630011257491e-06,-6.3630011257491e-06,1016422.5243117,0.017724859733068
33019200,0.99807135637528,0.017236065822882,0.0057453552742721,0.0057453552743039,0.0057453552743055,-0.0014096180593353,0.0014096180594188,1.0633091085484e-12,-9.8122775945961e-13,-3.2288535172212e-13,4.1655362751379e-13,-0.0014588667706549,0.001458866771175,-0.0014588667713381,0.0014588667704946,-0.0014588667704181,0.0014588667714235,-0.0014588667710983,0.0014588667707401,-0.0013725118951106,0.001372511897435,-0.0013725118971054,0.0013725118954291,3.2255167567948e-13,-4.1689285244482e-13,7.1499798083189e-13,-7.9750404856345e-13,-0.0014096180594265,0.0014096180593424,-0.0014588667705961,0.0014588667712556,-0.0014588667710824,0.0014588667707465,-0.0014588667708348,0.0014588667710079,-0.0014588667713207,0.0014588667704996,-0.0013725118957139,0.0013725118968685,-0.0013725118971712,0.0013725118953653,-0.0013725118962287,0.0013725118963663,-0.0013725118969538,0.0013725118956255,-7.3587001967602e-13,1.3087142255611e-12,-0.0014096180590981,0.0014096180596715,-4.469724041234e-13,1.0465384995554e-12,-0.0014588667712253,0.0014588667706107,-0.0014588667707275,0.0014588667711069,-0.0014588667705439,0.0014588667712936,-0.0014588667700465,0.001458866771789,-0.0013725118947589,0.0013725118978322,-0.0013725118967536,0.0013725118958268,0.69524133928264,0.67416763273613,114808,2744,0.0058561103585969,0.0058561103586276,0.0058561103586292,29.145618246845,29.143944170073,-6.8350540252397e-06,-6.8350540252397e-06,-6.8350540252397e-06,1027991.8117737,0.017724228525466
33219200,0.99815772743131,0.017237595782027,0.005745865260654,0.0057458652606858,0.0057458652606874,-0.0014096213497849,0.0014096213498684,1.0700410517892e-12,-9.8793763731292e-13,-3.2287723064668e-13,4.1656417866205e-13,-0.0014588715616029,0.0014588715621274,-0.0014588715622906,0.0014588715614425,-0.0014588715613661,0.0014588715623759,-0.0014588715620506,0.001458871561688,-0.001372516303867,0.0013725163062046,-0.001372516305875,0.0013725163041854,3.2253914665047e-13,-4.1690808727352e-13,7.1498633412887e-13,-7.9752440088288e-13,-0.0014096213498761,0.001409621349792,-0.0014588715615462,0.0014588715622057,-0.0014588715620325,0.0014588715616966,-0.0014588715617849,0.001458871561958,-0.0014588715622709,0.0014588715614496,-0.001372516304477,0.0013725163056315,-0.0013725163059343,0.0013725163041283,-0.0013725163049917,0.0013725163051294,-0.0013725163057168,0.0013725163043885,-7.4259449071863e-13,1.3154316968176e-12,-0.0014096213495477,0.0014096213501212,-4.4698893303022e-13,1.0465312056606e-12,-0.0014588715621776,0.0014588715615585,-0.0014588715616798,0.0014588715620548,-0.0014588715614918,0.001458871562246,-0.0014588715609944,0.0014588715627413,-0.0013725163035154,0.0013725163066019,-0.0013725163055233,0.0013725163045833,0.72922789282198,0.83165816985166,114808,2744,0.0058561239983763,0.005856123998407,0.0058561239984086,29.086585783123,29.084910606147,-7.3073137350192e-06,-7.3073137350192e-06,-7.3073137350192e-06,1027423.987474,0.017724270124272
33419200,0.99824128685262,0.017239104177143,0.005746368059026,0.0057463680590578,0.0057463680590594,-0.0014102001154848,0.0014102001155683,1.0767656588571e-12,-9.9465867911747e-13,-3.2288239259837e-13,4.1657045052927e-13,-0.0014594422003515,0.0014594422008804,-0.0014594422010436,0.0014594422001911,-0.0014594422001146,0.001459442201129,-0.0014594422008037,0.0014594422004366,-0.0013731005788624,0.0013731005812132,-0.0013731005808835,0.0013731005791808,3.2253944075913e-13,-4.1691985162001e-13,7.1498980461108e-13,-7.9753828281174e-13,-0.001410200115576,0.0014102001154919,-0.001459442200297,0.0014594422009565,-0.0014594422007834,0.0014594422004475,-0.0014594422005358,0.0014594422007088,-0.0014594422010217,0.0014594422002004,-0.0013731005794789,0.0013731005806334,-0.0013731005809363,0.0013731005791303,-0.0013731005799937,0.0013731005801313,-0.0013731005807188,0.0013731005793905,-7.4932034407196e-13,1.3221514327107e-12,-0.0014102001152476,0.0014102001158211,-4.4699981505072e-13,1.0465370290121e-12,-0.0014594422009307,0.0014594422003071,-0.0014594422004329,0.0014594422008034,-0.0014594422002404,0.001459442200999,-0.001459442199743,0.0014594422014944,-0.0013731005785108,0.0013731005816105,-0.0013731005805318,0.0013731005795786,0.74278651077102,0.88146625124173,114808,2744,0.0058585214983675,0.0058585214983983,0.0058585214983998,29.311157089206,29.317407801684,-5.510743286354e-06,-5.510743286354e-06,-5.510743286354e-06,1019475.4488659,0.017731589858036
33619200,0.99832242543562,0.017240569649286,0.0057468565497402,0.0057468565497721,0.0057468565497737,-0.001410933621023,0.0014109336211065,1.0834895297342e-12,-1.0013829548535e-12,-3.2289438143248e-13,4.1657567831074e-13,-0.0014601678307276,0.001460167831261,-0.0014601678314242,0.0014601678305672,-0.0014601678304907,0.0014601678315095,-0.0014601678311843,0.0014601678308128,-0.0013738383684816,0.0013738383708456,-0.001373838370516,0.0013738383688001,3.2253885254181e-13,-4.1693826282227e-13,7.1499239276731e-13,-7.9756139975259e-13,-0.0014109336211142,0.0014109336210301,-0.0014601678306754,0.0014601678313348,-0.0014601678311617,0.0014601678308258,-0.0014601678309141,0.0014601678310871,-0.0014601678314,0.0014601678305787,-0.0013738383691048,0.0013738383702594,-0.0013738383705622,0.0013738383687562,-0.0013738383696197,0.0013738383697573,-0.0013738383703447,0.0013738383690164,-7.5605137373774e-13,1.328868051052e-12,-0.0014109336207858,0.0014109336213593,-4.4701775567912e-13,1.0465447346591e-12,-0.0014601678313112,0.0014601678306832,-0.0014601678308134,0.0014601678311795,-0.0014601678306164,0.0014601678313795,-0.001460167830119,0.001460167831875,-0.0013738383681302,0.001373838371243,-0.0013738383701643,0.001373838369198,0.74303040657055,0.86738557344358,114808,2744,0.0058615599629233,0.0058615599629541,0.0058615599629556,29.612625367576,29.621149010763,-3.0989970593892e-06,-3.0989970593892e-06,-3.0989970593892e-06,1010666.3108341,0.017740866716084
33819200,0.99840115476901,0.017241996122142,0.0057473320406922,0.0057473320407241,0.0057473320407257,-0.0014116635691018,0.0014116635691853,1.0902137075872e-12,-1.0081057799216e-12,-3.2290185064364e-13,4.1658690590892e-13,-0.0014608915107214,0.0014608915112593,-0.0014608915114225,0.001460891510561,-0.0014608915104845,0.0014608915115078,-0.0014608915111826,0.0014608915108066,-0.0013745716379092,0.0013745716402863,-0.0013745716399568,0.0013745716382277,3.2253873489834e-13,-4.1695685048972e-13,7.1499751025803e-13,-7.9758375201092e-13,-0.001411663569193,0.0014116635691089,-0.0014608915106714,0.0014608915113309,-0.0014608915111578,0.0014608915108218,-0.0014608915109102,0.0014608915110832,-0.0014608915113961,0.0014608915105748,-0.001374571638539,0.0013745716396935,-0.0013745716399964,0.0013745716381903,-0.0013745716390538,0.0013745716391914,-0.0013745716397789,0.0013745716384504,-7.6277910938651e-13,1.3355868752083e-12,-0.0014116635688646,0.0014116635694381,-4.4703587277271e-13,1.0465541461363e-12,-0.0014608915113096,0.001460891510677,-0.0014608915108118,0.0014608915111733,-0.0014608915106103,0.0014608915113778,-0.0014608915101128,0.0014608915118733,-0.0013745716375577,0.0013745716406837,-0.001374571639605,0.0013745716386255,0.74517767305818,0.86413168163844,114808,2744,0.005864583665886,0.0058645836659168,0.0058645836659183,29.916267243684,29.924890219843,-6.6986205052529e-07,-6.6986205052529e-07,-6.6986205052529e-07,1003435.8428679,0.017750098656457
34019200,0.99847747925797,0.017243339506353,0.0057477798354291,0.005747779835461,0.0057477798354626,-0.0014123859686911,0.0014123859687746,1.0969403440049e-12,-1.0148271062993e-12,-3.2290802049192e-13,4.1660105253558e-13,-0.0014616086413191,0.0014616086418615,-0.0014616086420247,0.0014616086411587,-0.0014616086410822,0.00146160864211,-0.0014616086417848,0.0014616086414043,-0.0013752959991565,0.0013752960015469,-0.0013752960012173,0.001375295999475,3.2253585263345e-13,-4.1697932039152e-13,7.149998043056e-13,-7.9761375109447e-13,-0.0014123859687824,0.0014123859686982,-0.0014616086412713,0.0014616086419308,-0.0014616086417577,0.0014616086414217,-0.0014616086415101,0.0014616086416831,-0.001461608641996,0.0014616086411747,-0.0013752959997929,0.0013752960009474,-0.0013752960012503,0.0013752959994442,-0.0013752960003078,0.0013752960004453,-0.0013752960010329,0.0013752959997044,-7.6949678651902e-13,1.3423170813699e-12,-0.0014123859684539,0.0014123859690274,-4.470476371192e-13,1.0465732631993e-12,-0.0014616086419117,0.0014616086412746,-0.0014616086414139,0.001461608641771,-0.0014616086412079,0.0014616086419799,-0.0014616086407104,0.0014616086424754,-0.0013752959988051,0.0013752960019442,-0.0013752960008656,0.0013752959998729,0.72426543357353,0.7570419323305,114808,2744,0.0058675760784548,0.0058675760784855,0.0058675760784871,30.22000112963,30.228631428922,1.7600090370373e-06,1.7600090370373e-06,1.7600090370373e-06,997103.21623448,0.017759235199554
34219200,0.99855267893688,0.017244629003054,0.0057482096676629,0.0057482096676948,0.0057482096676964,-0.0014136731197977,0.0014136731198812,1.1036560322276e-12,-1.0215626153779e-12,-3.2292378391201e-13,4.1660988314816e-13,-0.001462892405677,0.0014628924062239,-0.0014628924063871,0.0014628924055166,-0.0014628924054401,0.0014628924064724,-0.0014628924061472,0.0014628924057622,-0.0013765850360908,0.0013765850384943,-0.0013765850381647,0.0013765850364093,3.2255038160137e-13,-4.1698984948163e-13,7.1502821520237e-13,-7.97622868463e-13,-0.001413673119889,0.0014136731198048,-0.0014628924056314,0.0014628924062909,-0.0014628924061179,0.0014628924057819,-0.0014628924058702,0.0014628924060432,-0.0014628924063562,0.0014628924055348,-0.0013765850367337,0.0013765850378883,-0.0013765850381913,0.0013765850363851,-0.0013765850372487,0.0013765850373862,-0.0013765850379737,0.0013765850366453,-7.762306102171e-13,1.3490343173394e-12,-0.0014136731195605,0.001413673120134,-4.4707298928588e-13,1.046584321685e-12,-0.0014628924062741,0.0014628924056325,-0.0014628924057762,0.0014628924061289,-0.0014628924055658,0.0014628924063423,-0.0014628924050684,0.0014628924068379,-0.0013765850357394,0.0013765850388917,-0.001376585037813,0.0013765850368071,0.7059434694295,0.67034958677107,114808,2744,0.0058729078256582,0.005872907825689,0.0058729078256906,30.830558554287,30.847784937193,6.644468434296e-06,6.644468434296e-06,6.644468434296e-06,994964.02878273,0.017775514557957
34419200,0.99862676246204,0.017245904475463,0.0057486348251324,0.0057486348251643,0.0057486348251659,-0.0014150071650014,0.0014150071650849,1.1103822789512e-12,-1.0282871992387e-12,-3.229407342214e-13,4.1661883875693e-13,-0.0014642293115127,0.001464229312064,-0.0014642293122272,0.0014642293113523,-0.0014642293112757,0.0014642293123125,-0.0014642293119873,0.0014642293115979,-0.0013779180974406,0.0013779180998573,-0.0013779180995277,0.0013779180977591,3.2255673434847e-13,-4.1700961358373e-13,7.1503803843169e-13,-7.9765316165521e-13,-0.0014150071650927,0.0014150071650085,-0.0014642293114693,0.0014642293121288,-0.0014642293119558,0.0014642293116197,-0.0014642293117081,0.0014642293118811,-0.001464229312194,0.0014642293113727,-0.0013779180980902,0.0013779180992448,-0.0013779180995477,0.0013779180977415,-0.0013779180986051,0.0013779180987426,-0.0013779180993302,0.0013779180980016,-7.829624045654e-13,1.3557535532478e-12,-0.0014150071647643,0.0014150071653377,-4.4709428275303e-13,1.0466047328262e-12,-0.0014642293121142,0.0014642293114681,-0.0014642293116164,0.0014642293119646,-0.0014642293114015,0.0014642293121824,-0.001464229310904,0.001464229312678,-0.0013779180970892,0.0013779181002547,-0.001377918099176,0.0013779180981569,0.70867956773109,0.68757176325041,114808,2744,0.005878433760474,0.0058784337605047,0.0058784337605063,31.474229222596,31.492527235391,1.179383378077e-05,1.179383378077e-05,1.179383378077e-05,997123.18722326,0.017792387251654
34619200,0.99869959661012,0.017247208173977,0.0057490693913038,0.0057490693913356,0.0057490693913372,-0.0014163475468213,0.0014163475469048,1.1171150052564e-12,-1.0350072339509e-12,-3.2295229246205e-13,4.1663256627874e-13,-0.0014655717052459,0.0014655717058017,-0.0014655717059649,0.0014655717050855,-0.0014655717050089,0.0014655717060502,-0.001465571705725,0.0014655717053311,-0.0013792587045053,0.0013792587069352,-0.0013792587066056,0.0013792587048238,3.225634988477e-13,-4.1702902475544e-13,7.1505150860842e-13,-7.9767886675229e-13,-0.0014163475469125,0.0014163475468284,-0.0014655717052047,0.0014655717058643,-0.0014655717056912,0.0014655717053552,-0.0014655717054435,0.0014655717056165,-0.0014655717059295,0.0014655717051081,-0.0013792587051615,0.0013792587063161,-0.001379258706619,0.0013792587048128,-0.0013792587056764,0.0013792587058139,-0.0013792587064015,0.0013792587050729,-7.8968772852313e-13,1.3624800536402e-12,-0.0014163475465841,0.0014163475471576,-4.4711887023719e-13,1.0466195559028e-12,-0.0014655717058519,0.0014655717052013,-0.001465571705354,0.0014655717056978,-0.0014655717051347,0.0014655717059201,-0.0014655717046372,0.0014655717064157,-0.001379258704154,0.0013792587073326,-0.0013792587062539,0.0013792587052216,0.73613736923539,0.81674655408875,114808,2744,0.0058839859238827,0.0058839859239135,0.005883985923915,32.118912421328,32.137269533589,1.6951299370626e-05,1.6951299370626e-05,1.6951299370626e-05,998336.87492692,0.01780934026573
34819200,0.99877216497115,0.017248518321116,0.0057495061070168,0.0057495061070487,0.0057495061070503,-0.0014182623506107,0.0014182623506942,1.1237995629962e-12,-1.0417801340057e-12,-3.2297249175307e-13,4.1663363242264e-13,-0.0014674805797734,0.0014674805803337,-0.0014674805804969,0.001467480579613,-0.0014674805795364,0.0014674805805822,-0.001467480580257,0.0014674805798586,-0.0013811774458974,0.0013811774483404,-0.0013811774480109,0.0013811774462158,3.2258132183264e-13,-4.1702961297276e-13,7.1506474349822e-13,-7.9769710148935e-13,-0.001418262350702,0.0014182623506178,-0.0014674805797345,0.001467480580394,-0.001467480580221,0.001467480579885,-0.0014674805799733,0.0014674805801463,-0.0014674805804593,0.0014674805796378,-0.00138117744656,0.0013811774477146,-0.0013811774480176,0.0013811774462113,-0.001381177447075,0.0013811774472125,-0.0013811774478001,0.0013811774464714,-7.9641458184591e-13,1.3692116421124e-12,-0.0014182623503735,0.001418262350947,-4.4714410476041e-13,1.0466257321847e-12,-0.0014674805803839,0.0014674805797288,-0.001467480579886,0.0014674805802253,-0.0014674805796622,0.0014674805804521,-0.0014674805791647,0.0014674805809477,-0.0013811774455459,0.0013811774487377,-0.0013811774476589,0.0013811774466134,0.74236045421338,0.83758763975058,114808,2744,0.0058919174684875,0.0058919174685182,0.0058919174685197,33.048684149604,33.075063064154,2.4389473196829e-05,2.4389473196829e-05,2.4389473196829e-05,993424.7369195,0.0178335587747
35019200,0.9988446208302,0.017249788668216,0.0057499295560503,0.0057499295560822,0.0057499295560838,-0.0014203763157204,0.0014203763158039,1.130548015843e-12,-1.0484929823565e-12,-3.2298675866557e-13,4.1664403651656e-13,-0.0014695903416071,0.0014695903421719,-0.0014695903423351,0.0014695903414466,-0.0014695903413701,0.0014695903424204,-0.0014695903420952,0.0014695903416923,-0.0013832931304653,0.0013832931329216,-0.001383293132592,0.0013832931307837,3.2257791017215e-13,-4.1705967087804e-13,7.1507415497541e-13,-7.9772510063399e-13,-0.0014203763158117,0.0014203763157275,-0.0014695903415703,0.0014695903422299,-0.0014695903420568,0.0014695903417208,-0.0014695903418091,0.0014695903419821,-0.0014695903422951,0.0014695903414737,-0.0013832931311346,0.0013832931322892,-0.0013832931325922,0.0013832931307859,-0.0013832931316496,0.0013832931317871,-0.0013832931323748,0.001383293131046,-8.0314367039452e-13,1.3759431129412e-12,-0.0014203763154832,0.0014203763160567,-4.4715863372833e-13,1.0466479079778e-12,-0.001469590342222,0.0014695903415624,-0.0014695903417241,0.0014695903420589,-0.0014695903414958,0.0014695903422902,-0.0014695903409983,0.0014695903427858,-0.0013832931301139,0.001383293133319,-0.0013832931322402,0.0013832931311816,0.72136486290522,0.73255525447328,114808,2744,0.005900673892074,0.0059006738921047,0.0059006738921062,34.080356318205,34.109752256169,3.2642850545644e-05,3.2642850545644e-05,3.2642850545644e-05,988592.43317707,0.017860296777734
35219200,0.99891668871037,0.017251017839901,0.0057503392799452,0.005750339279977,0.0057503392799786,-0.0014224727965219,0.0014224727966054,1.1372995071998e-12,-1.0552010544286e-12,-3.2298612874455e-13,4.1666380061867e-13,-0.0014716884341386,0.0014716884347078,-0.001471688434871,0.0014716884339781,-0.0014716884339015,0.0014716884349563,-0.0014716884346311,0.0014716884342238,-0.0013853883901389,0.0013853883926084,-0.0013853883922788,0.0013853883904574,3.2257214564237e-13,-4.1708455247087e-13,7.1507986068346e-13,-7.9775404092636e-13,-0.0014224727966132,0.0014224727965289,-0.001471688434104,0.0014716884347636,-0.0014716884345906,0.0014716884342545,-0.0014716884343429,0.0014716884345158,-0.0014716884348288,0.0014716884340073,-0.0013853883908149,0.0013853883919695,-0.0013853883922726,0.0013853883904662,-0.0013853883913299,0.0013853883914674,-0.0013853883920551,0.0013853883907262,-8.0987678823181e-13,1.382668642775e-12,-0.0014224727962847,0.0014224727968582,-4.4717422148743e-13,1.0466676132582e-12,-0.0014716884347579,0.0014716884340939,-0.0014716884342601,0.0014716884345904,-0.0014716884340273,0.0014716884348261,-0.0014716884335297,0.0014716884353218,-0.0013853883897876,0.0013853883930058,-0.0013853883919271,0.0013853883908553,0.70214227382692,0.6436174661868,114808,2744,0.0059093577836953,0.0059093577837261,0.0059093577837277,35.114883624424,35.144441448185,4.0919068995395e-05,4.0919068995395e-05,4.0919068995395e-05,988691.26843408,0.017886814137429
35419200,0.99898724261562,0.017252185109898,0.0057507283699441,0.005750728369976,0.0057507283699776,-0.0014241213060053,0.0014241213060888,1.1440237015965e-12,-1.0619320660573e-12,-3.2299727684149e-13,4.1666397708386e-13,-0.0014733448525841,0.0014733448531578,-0.001473344853321,0.0014733448524236,-0.001473344852347,0.0014733448534063,-0.0014733448530811,0.0014733448526693,-0.0013870321711518,0.0013870321736345,-0.0013870321733049,0.0013870321714704,3.2258043950665e-13,-4.1708796413135e-13,7.1509738955973e-13,-7.9776633466844e-13,-0.0014241213060966,0.0014241213060123,-0.0014733448525518,0.0014733448532113,-0.0014733448530383,0.0014733448527022,-0.0014733448527906,0.0014733448529636,-0.0014733448532766,0.0014733448524551,-0.0013870321718344,0.001387032172989,-0.0013870321732921,0.0013870321714857,-0.0013870321723494,0.0013870321724869,-0.0013870321730746,0.0013870321717458,-8.1660211218954e-13,1.3893984077735e-12,-0.0014241213057681,0.0014241213063416,-4.4718598583392e-13,1.0466846127388e-12,-0.0014733448532079,0.0014733448525394,-0.00147334485271,0.0014733448530359,-0.0014733448524728,0.0014733448532761,-0.0014733448519752,0.0014733448537718,-0.0013870321708005,0.0013870321740319,-0.0013870321729532,0.0013870321718682,0.68162295733143,0.55467967790032,114808,2744,0.0059161860316732,0.0059161860317039,0.0059161860317055,35.927664941549,35.951008785197,4.7421319532394e-05,4.7421319532394e-05,4.7421319532394e-05,992967.88436276,0.017907665710576
35619200,0.99905548332515,0.017253272643503,0.0057510908811459,0.0057510908811778,0.0057510908811794,-0.0014254230240645,0.001425423024148,1.1507476744926e-12,-1.068660533646e-12,-3.2300401112565e-13,4.1666520498753e-13,-0.0014746579695166,0.0014746579700948,-0.001474657970258,0.0014746579693561,-0.0014746579692795,0.0014746579703433,-0.0014746579700181,0.0014746579696018,-0.001388327719471,0.0013883277219669,-0.0013883277216373,0.0013883277197895,3.2258120418917e-13,-4.1709519920444e-13,7.1510568342401e-13,-7.9777939309304e-13,-0.0014254230241558,0.0014254230240716,-0.0014746579694865,0.0014746579701461,-0.0014746579699731,0.001474657969637,-0.0014746579697254,0.0014746579698983,-0.0014746579702113,0.0014746579693898,-0.0013883277201602,0.0013883277213148,-0.0013883277216179,0.0013883277198115,-0.0013883277206752,0.0013883277208127,-0.0013883277214004,0.0013883277200715,-8.2332808318633e-13,1.3961244670029e-12,-0.0014254230238274,0.0014254230244008,-4.4719775018041e-13,1.046694906542e-12,-0.0014746579701449,0.0014746579694719,-0.001474657969647,0.0014746579699684,-0.0014746579694053,0.001474657970213,-0.0014746579689077,0.0014746579707088,-0.0013883277191197,0.0013883277223643,-0.0013883277212856,0.0013883277201874,0.65729897582232,0.45391059687915,114808,2744,0.0059215777865801,0.0059215777866108,0.0059215777866124,36.57253850488,36.591072440272,5.2580308039043e-05,5.2580308039043e-05,5.2580308039043e-05,1000474.0856666,0.017924131034959
35819200,0.99912129685981,0.017254385030088,0.0057514616766742,0.005751461676706,0.0057514616767076,-0.0014266945796169,0.0014266945797003,1.1574687035447e-12,-1.0753908828408e-12,-3.2300941686584e-13,4.1666563144509e-13,-0.0014759423260152,0.0014759423265979,-0.0014759423267611,0.0014759423258547,-0.0014759423257782,0.0014759423268464,-0.0014759423265212,0.0014759423261004,-0.0013895952167428,0.0013895952192517,-0.0013895952189222,0.0013895952170613,3.2257385147261e-13,-4.1710849291597e-13,7.1510003653769e-13,-7.9779880426475e-13,-0.0014266945797081,0.0014266945796239,-0.0014759423259873,0.0014759423266469,-0.0014759423264739,0.0014759423261378,-0.0014759423262262,0.0014759423263991,-0.0014759423267122,0.0014759423258907,-0.0013895952174385,0.0013895952185931,-0.0013895952188962,0.0013895952170898,-0.0013895952179535,0.001389595218091,-0.0013895952186787,0.0013895952173498,-8.3004334862782e-13,1.4028615258963e-12,-0.0014266945793797,0.0014266945799531,-4.4719104450291e-13,1.0467146706441e-12,-0.0014759423266479,0.0014759423259704,-0.0014759423261501,0.001475942326467,-0.0014759423259039,0.0014759423267161,-0.0014759423254063,0.0014759423272119,-0.0013895952163914,0.0013895952196492,-0.0013895952185704,0.0013895952174591,0.69619233584121,0.65351450719629,114808,2744,0.0059268445836046,0.0059268445836354,0.0059268445836369,37.212793751715,37.231136095346,5.7702350013719e-05,5.7702350013719e-05,5.7702350013719e-05,1011042.491516,0.017940214970889
36019200,0.99918459833375,0.017255517156289,0.0057518390520746,0.0057518390521064,0.005751839052108,-0.0014280086829967,0.0014280086830802,1.1641944355782e-12,-1.0821185449624e-12,-3.2301432147244e-13,4.1666662406182e-13,-0.0014772599010514,0.0014772599016385,-0.0014772599018018,0.0014772599008909,-0.0014772599008143,0.001477259901887,-0.0014772599015618,0.0014772599011366,-0.0013909093865549,0.0013909093890771,-0.0013909093887476,0.0013909093868734,3.2257320443356e-13,-4.1711513977174e-13,7.1510544813708e-13,-7.9780427468587e-13,-0.001428008683088,0.0014280086830037,-0.0014772599010257,0.0014772599016853,-0.0014772599015123,0.0014772599011762,-0.0014772599012646,0.0014772599014375,-0.0014772599017505,0.001477259900929,-0.0013909093872572,0.0013909093884118,-0.001390909388715,0.0013909093869085,-0.0013909093877723,0.0013909093879098,-0.0013909093884975,0.0013909093871685,-8.3677970166039e-13,1.4095777030746e-12,-0.0014280086827595,0.001428008683333,-4.4721292618738e-13,1.0467054944539e-12,-0.0014772599016886,0.0014772599010066,-0.0014772599011907,0.0014772599015031,-0.00147725990094,0.0014772599017567,-0.0014772599004424,0.0014772599022524,-0.0013909093862036,0.0013909093894746,-0.0013909093883958,0.0013909093872712,0.73586308242568,0.83938617781199,114808,2744,0.0059322876472043,0.0059322876472351,0.0059322876472366,37.852853227871,37.871199750421,6.2822825822971e-05,6.2822825822971e-05,6.2822825822971e-05,1012050.5204022,0.01795683722338
36219200,0.99924326350001,0.017256533782175,0.0057521779273698,0.0057521779274017,0.0057521779274033,-0.0014280721136676,0.001428072113751,1.1709219607555e-12,-1.0888171818908e-12,-3.228544494033e-13,4.1623714453507e-13,-0.0014773262328219,0.0014773262334137,-0.0014773262335768,0.0014773262326616,-0.001477326232585,0.001477326233662,-0.0014773262333371,0.0014773262329071,-0.001390969271312,0.0013909692738471,-0.0013909692735176,0.0013909692716308,3.2229097776127e-13,-4.168032669463e-13,7.1521168018588e-13,-7.9782986213948e-13,-0.0014280721137594,0.0014280721136752,-0.001477326232798,0.0014773262334576,-0.0014773262332848,0.0014773262329483,-0.0014773262330368,0.00147732623321,-0.0014773262335228,0.0014773262327014,-0.0013909692720238,0.0013909692731782,-0.0013909692734811,0.0013909692716754,-0.0013909692725419,0.0013909692726764,-0.0013909692732658,0.0013909692719369,-8.4369366691408e-13,1.4160879159568e-12,-0.001428072113431,0.0014280721140043,-4.472539249349e-13,1.0467949034872e-12,-0.0014773262334634,0.0014773262327767,-0.0014773262329653,0.0014773262332734,-0.0014773262327102,0.0014773262335313,-0.0014773262322125,0.0014773262340272,-0.0013909692709659,0.0013909692742494,-0.0013909692731712,0.0013909692720339,0.71361053542063,0.7265910158679,114808,2744,0.0059325503760043,0.0059325503760375,0.0059325503760389,37.827158273694,37.826717901739,6.2617266189556e-05,6.2617266189556e-05,6.2617266189556e-05,1006887.2469605,0.017957639662822
36419200,0.99929678538165,0.01725744907121,0.0057524830237149,0.0057524830237468,0.0057524830237484,-0.0014275138098438,0.0014275138099272,1.1776231255248e-12,-1.0955751926946e-12,-3.2253709627653e-13,4.1601450427775e-13,-0.0014767718453612,0.0014767718459576,-0.0014767718461205,0.001476771845201,-0.0014767718451245,0.0014767718462057,-0.001476771845881,0.0014767718454463,-0.0013904084161905,0.0013904084187385,-0.0013904084184093,0.0013904084165087,3.2206933747341e-13,-4.164912764774e-13,7.1530655964032e-13,-7.9789338961053e-13,-0.0014275138099351,0.001427513809851,-0.0014767718453401,0.0014767718459995,-0.0014767718458268,0.0014767718454902,-0.0014767718455786,0.0014767718457521,-0.0014767718460646,0.0014767718452434,-0.0013904084169063,0.0013904084180616,-0.0013904084183641,0.0013904084165579,-0.0013904084174226,0.0013904084175584,-0.0013904084181466,0.0013904084168187,-8.5029411233383e-13,1.4229453829365e-12,-0.0014275138096067,0.0014275138101801,-4.4731733476247e-13,1.0468891359026e-12,-0.0014767718460074,0.0014767718453163,-0.0014767718455094,0.001476771845813,-0.0014767718452498,0.0014767718460754,-0.0014767718447521,0.0014767718465713,-0.0013904084158403,0.0013904084191374,-0.0013904084180588,0.0013904084169082,0.7043401840665,0.68271718381266,114808,2744,0.0059302378553298,0.0059302378553612,0.0059302378553628,37.497352964344,37.488045449697,5.9978823714756e-05,5.9978823714756e-05,5.9978823714756e-05,1006117.6470326,0.017950577633224
36619200,0.99934565433694,0.017258239126621,0.0057527463755184,0.0057527463755503,0.0057527463755519,-0.0014269196212422,0.0014269196213257,1.1843492867731e-12,-1.1022824236848e-12,-3.2223207537871e-13,4.158421198381e-13,-0.0014761807028027,0.0014761807034039,-0.0014761807035667,0.0014761807026428,-0.0014761807025663,0.0014761807036518,-0.0014761807033271,0.0014761807028881,-0.0013898122993165,0.0013898123018776,-0.0013898123015486,0.0013898122996345,3.2188469605525e-13,-4.161988736454e-13,7.15424908966e-13,-7.9790427163103e-13,-0.0014269196213335,0.0014269196212494,-0.0014761807027841,0.0014761807034437,-0.001476180703271,0.0014761807029344,-0.0014761807030225,0.0014761807031963,-0.0014761807035086,0.0014761807026878,-0.001389812300038,0.0013898123011939,-0.0013898123014964,0.0013898122996901,-0.0013898123005547,0.0013898123006904,-0.0013898123012782,0.0013898122999507,-8.569173511749e-13,1.4297625570294e-12,-0.0014269196210051,0.0014269196215786,-4.4737180368672e-13,1.0469658982634e-12,-0.0014761807034537,0.0014761807027582,-0.0014761807029558,0.0014761807032551,-0.0014761807026916,0.0014761807035218,-0.001476180702194,0.0014761807040177,-0.0013898122989653,0.0013898123022759,-0.0013898123011971,0.0013898123000333,0.66675279261139,0.51038724866459,114808,2744,0.0059277766960579,0.0059277766960888,0.0059277766960904,37.159055103634,37.149372997656,5.727244082907e-05,5.727244082907e-05,5.727244082907e-05,1006623.2439067,0.017943061693583
36819200,0.9993903303944,0.017258942312781,0.0057529807709051,0.005752980770937,0.0057529807709386,-0.0014262831222983,0.0014262831223817,1.1910016901644e-12,-1.1090742839831e-12,-3.220987577603e-13,4.1557784114692e-13,-0.0014755541461425,0.0014755541467481,-0.0014755541469109,0.0014755541459825,-0.0014755541459061,0.0014755541469959,-0.0014755541466716,0.0014755541462276,-0.0013891717719716,0.0013891717745456,-0.0013891717742169,0.0013891717722893,3.2164635039537e-13,-4.1603734916809e-13,7.1544314370306e-13,-7.979993863724e-13,-0.0014262831223895,0.0014262831223054,-0.0014755541461262,0.0014755541467854,-0.001475554146613,0.0014755541462762,-0.0014755541463644,0.0014755541465383,-0.0014755541468506,0.0014755541460297,-0.0013891717726994,0.0013891717738553,-0.0013891717741577,0.0013891717723516,-0.0013891717732164,0.0013891717733517,-0.0013891717739396,0.0013891717726125,-8.6365026313612e-13,1.4364699403588e-12,-0.0014262831220611,0.0014262831226346,-4.4745862456382e-13,1.0469897798868e-12,-0.0014755541467979,0.0014755541460979,-0.0014755541462999,0.0014755541465947,-0.0014755541460314,0.0014755541468659,-0.0014755541455337,0.0014755541473619,-0.0013891717716202,0.001389171774944,-0.001389171773865,0.0013891717726881,0.64957832058362,0.44500878042861,114808,2744,0.005925140244833,0.005925140244864,0.0059251402448655,36.820396001417,36.810700545614,5.4563168011336e-05,5.4563168011336e-05,5.4563168011336e-05,1014356.8978013,0.01793501062819
37019200,0.99943238448268,0.017259645970642,0.0057532153235257,0.0057532153235576,0.0057532153235592,-0.0014266602782791,0.0014266602783624,1.1977291987981e-12,-1.1157974512972e-12,-3.2197344265477e-13,4.1544587459018e-13,-0.0014759377882204,0.0014759377888305,-0.0014759377889932,0.0014759377880604,-0.001475937787984,0.0014759377890783,-0.001475937788754,0.0014759377883054,-0.0013895494443331,0.0013895494469202,-0.0013895494465916,0.0013895494446508,3.2152788342622e-13,-4.1589800048392e-13,7.1550384773095e-13,-7.9802238566979e-13,-0.0014266602783703,0.0014266602782862,-0.0014759377882063,0.0014759377888656,-0.0014759377886932,0.0014759377883562,-0.0014759377884445,0.0014759377886185,-0.0014759377889306,0.0014759377881098,-0.0013895494450674,0.0013895494462236,-0.0013895494465258,0.0013895494447197,-0.0013895494455847,0.0013895494457197,-0.0013895494463076,0.0013895494449807,-8.7038696909908e-13,1.4431836764352e-12,-0.0014266602780419,0.0014266602786154,-4.474995644896e-13,1.0470337785427e-12,-0.0014759377888803,0.0014759377881757,-0.0014759377883822,0.0014759377886725,-0.0014759377881093,0.0014759377889483,-0.0014759377876115,0.0014759377894443,-0.0013895494439818,0.0013895494473187,-0.0013895494462398,0.0013895494450497,0.68961813966623,0.64920450727309,114808,2744,0.0059267024314042,0.0059267024314352,0.0059267024314368,37.015654734661,37.021009217455,5.6125237877289e-05,5.6125237877289e-05,5.6125237877289e-05,1022897.6696462,0.017939781229532
37219200,0.9994722108298,0.017260355807089,0.0057534519356746,0.0057534519357065,0.0057534519357081,-0.0014273377495525,0.0014273377496339,1.2035780715896e-12,-1.1234674295305e-12,-3.2263573974741e-13,4.146255246513e-13,-0.0014766163712344,0.0014766163718472,-0.0014766163720136,0.0014766163710737,-0.0014766163709976,0.0014766163720942,-0.0014766163717727,0.0014766163713174,-0.0013902281123438,0.001390228114943,-0.0013902281146214,0.0013902281126606,3.207140847578e-13,-4.1662486063178e-13,7.1463587424694e-13,-7.9888847685835e-13,-0.0014273377496435,0.001427337749558,-0.0014766163712235,0.0014766163718824,-0.0014766163717128,0.0014766163713725,-0.0014766163714614,0.0014766163716348,-0.0014766163719479,0.0014766163711264,-0.0013902281130883,0.001390228114243,-0.0013902281145451,0.0013902281127379,-0.0013902281136058,0.0013902281137386,-0.0013902281143301,0.0013902281129996,-8.7771092182794e-13,1.4494051922545e-12,-0.0014273377493149,0.0014273377498873,-4.4808160553217e-13,1.0464673840809e-12,-0.001476616371899,0.0014766163711902,-0.0014766163714028,0.0014766163716876,-0.0014766163711248,0.0014766163719673,-0.0014766163706252,0.0014766163724611,-0.0013902281119961,0.0013902281153463,-0.0013902281142679,0.0013902281130603,0.73362541514275,0.85340023411758,114808,2744,0.0059295085670793,0.0059295085671107,0.005929508567112,37.341919993347,37.351202753545,5.8735359946775e-05,5.8735359946775e-05,5.8735359946775e-05,1022697.3126139,0.017948350590755
37419200,0.99950988454873,0.017260983226411,0.0057536610754485,0.0057536610754804,0.005753661075482,-0.001428061155389,0.0014280611554722,1.2111041330339e-12,-1.1293372920301e-12,-3.2190136856981e-13,4.1529362188845e-13,-0.0014773343254307,0.0014773343260498,-0.0014773343262126,0.0014773343252708,-0.0014773343251943,0.0014773343262973,-0.0014773343259734,0.0014773343255156,-0.0013909528735674,0.0013909528761807,-0.0013909528758528,0.0013909528738849,3.2136041795394e-13,-4.1584947255465e-13,7.1543473219532e-13,-7.9810573606466e-13,-0.0014280611554802,0.001428061155396,-0.0014773343254213,0.0014773343260805,-0.0014773343259083,0.001477334325571,-0.0014773343256594,0.0014773343258334,-0.0014773343261456,0.0014773343253247,-0.0013909528743152,0.0013909528754711,-0.0013909528757733,0.0013909528739672,-0.001390952874833,0.0013909528749674,-0.0013909528755556,0.0013909528742286,-8.8395308407535e-13,1.4565352097315e-12,-0.0014280611551518,0.0014280611557251,-4.4760491421241e-13,1.046942898966e-12,-0.0014773343260998,0.0014773343253861,-0.0014773343256018,0.001477334325883,-0.0014773343253199,0.0014773343261676,-0.0014773343248219,0.0014773343266635,-0.0013909528732167,0.0013909528765799,-0.0013909528755009,0.0013909528742841,0.68665557432995,0.62399919259961,114808,2744,0.0059325049826927,0.0059325049827238,0.0059325049827253,37.671941803208,37.681396289635,6.1375534425663e-05,6.1375534425663e-05,6.1375534425663e-05,1014208.5229039,0.017957501048135
37619200,0.99954547353758,0.017261556148687,0.0057538520495406,0.0057538520495725,0.0057538520495741,-0.0014287322585181,0.0014287322586012,1.217835750917e-12,-1.1360570011548e-12,-3.2194991373201e-13,4.1526138757907e-13,-0.0014780096663475,0.001478009666971,-0.0014780096671339,0.0014780096661875,-0.0014780096661111,0.0014780096672186,-0.0014780096668946,0.0014780096664323,-0.0013916220925261,0.0013916220951525,-0.0013916220948245,0.0013916220928436,3.2137265287429e-13,-4.1585235481954e-13,7.1543149700004e-13,-7.980943834703e-13,-0.0014287322586092,0.001428732258525,-0.0014780096663403,0.0014780096669994,-0.0014780096668273,0.00147800966649,-0.0014780096665783,0.0014780096667524,-0.0014780096670645,0.0014780096662437,-0.0013916220932803,0.0013916220944364,-0.0013916220947386,0.0013916220929325,-0.0013916220937977,0.0013916220939323,-0.0013916220945205,0.0013916220931936,-8.906148217403e-13,1.4633226494387e-12,-0.0014287322582808,0.0014287322588542,-4.4754950414045e-13,1.0469829565658e-12,-0.0014780096670209,0.0014780096663029,-0.001478009666523,0.0014780096667997,-0.0014780096662365,0.0014780096670889,-0.0014780096657386,0.0014780096675847,-0.001391622092175,0.0013916220955513,-0.0013916220944725,0.0013916220932426,0.66415284323314,0.52502085390236,114808,2744,0.0059352846935428,0.0059352846935738,0.0059352846935753,38.002124141723,38.011589825725,6.4016993133783e-05,6.4016993133783e-05,6.4016993133783e-05,1016303.980226,0.017965990006345
37819200,0.99957814335348,0.017262062571493,0.0057540208571425,0.0057540208571743,0.005754020857176,-0.0014283633824409,0.0014283633825241,1.224563386385e-12,-1.1427738368608e-12,-3.219905407078e-13,4.1531817996175e-13,-0.0014776544218589,0.0014776544224869,-0.0014776544226498,0.0014776544216989,-0.0014776544216226,0.0014776544227345,-0.0014776544224105,0.0014776544219438,-0.0013912460803524,0.0013912460829921,-0.001391246082664,0.0013912460806699,3.2141741621268e-13,-4.1590441205276e-13,7.1541308579778e-13,-7.9807526640726e-13,-0.0014283633825321,0.0014283633824479,-0.0014776544218539,0.0014776544225131,-0.0014776544223409,0.0014776544220037,-0.001477654422092,0.001477654422266,-0.0014776544225782,0.0014776544217574,-0.0013912460811132,0.0013912460822693,-0.0013912460825715,0.0013912460807654,-0.0013912460816305,0.0013912460817653,-0.0013912460823534,0.0013912460810265,-8.9733296944668e-13,1.4700488263116e-12,-0.0014283633822037,0.0014283633827771,-4.4753009296874e-13,1.0469663100155e-12,-0.0014776544225368,0.0014776544218143,-0.0014776544220389,0.0014776544223111,-0.0014776544217479,0.0014776544226048,-0.00147765442125,0.0014776544231006,-0.0013912460800013,0.0013912460833908,-0.001391246082312,0.0013912460810689,0.64016139749728,0.42608418239384,114808,2744,0.0059337567447506,0.0059337567447816,0.0059337567447831,37.804754412214,37.799332042642,6.2438035297714e-05,6.2438035297714e-05,6.2438035297714e-05,1023846.3436746,0.017961324119883
38019200,0.99960808385652,0.017262545616422,0.0057541818721188,0.0057541818721506,0.0057541818721523,-0.0014278785823562,0.0014278785824386,1.2308841804214e-12,-1.1498951345904e-12,-3.224595073095e-13,4.1500836589694e-13,-0.0014771819829278,0.0014771819835591,-0.0014771819837232,0.0014771819827671,-0.0014771819826912,0.0014771819838067,-0.001477181983484,0.0014771819830115,-0.0013907573596016,0.0013907573622537,-0.0013907573619262,0.0013907573599184,3.213563592544e-13,-4.1612234657148e-13,7.1525956107609e-13,-7.981784985477e-13,-0.001427878582447,0.0014278785823625,-0.0014771819829245,0.001477181983584,-0.0014771819834119,0.0014771819830743,-0.001477181983163,0.0014771819833371,-0.0014771819836494,0.0014771819828283,-0.0013907573603691,0.0013907573615248,-0.0013907573618269,0.0013907573600207,-0.0013907573608857,0.0013907573610199,-0.0013907573616086,0.0013907573602812,-9.0393906175274e-13,1.4768850880567e-12,-0.0014278785821184,0.001427878582692,-4.4740050869216e-13,1.0470301315953e-12,-0.0014771819836098,0.0014771819828832,-0.0014771819831118,0.0014771819833794,-0.0014771819828165,0.0014771819836782,-0.0014771819823183,0.0014771819841741,-0.00139075735925,0.0013907573626531,-0.0013907573615745,0.0013907573603176,0.66569812021042,0.56333907264343,114808,2744,0.0059317486499891,0.0059317486500196,0.0059317486500213,37.560708951391,37.553742248966,6.0485671611126e-05,6.0485671611126e-05,6.0485671611126e-05,1033969.3326418,0.017955191825931
38219200,0.99963554672653,0.017262992022296,0.0057543306740768,0.0057543306741087,0.0057543306741103,-0.0014274195791072,0.0014274195791903,1.2379926057272e-12,-1.1562311258877e-12,-3.221717777033e-13,4.1549793182339e-13,-0.0014767284388479,0.0014767284394847,-0.0014767284396477,0.0014767284386878,-0.0014767284386114,0.0014767284397324,-0.0014767284394084,0.0014767284389328,-0.0013902967926989,0.0013902967953651,-0.0013902967950369,0.0013902967930166,3.2157194090382e-13,-4.1610799406876e-13,7.1533326470685e-13,-7.9803503234226e-13,-0.0014274195791983,0.0014274195791141,-0.0014767284388473,0.0014767284395065,-0.0014767284393343,0.0014767284389972,-0.0014767284390855,0.0014767284392594,-0.0014767284395717,0.0014767284387507,-0.0013902967934732,0.0013902967946289,-0.0013902967949313,0.0013902967931251,-0.00139029679399,0.0013902967941251,-0.0013902967947132,0.0013902967933859,-9.1075744169121e-13,1.4835089445259e-12,-0.0014274195788699,0.0014274195794433,-4.4745774223783e-13,1.0469168997603e-12,-0.0014767284395347,0.0014767284388033,-0.0014767284390368,0.0014767284393,-0.0014767284387368,0.0014767284396027,-0.001476728438239,0.0014767284400986,-0.0013902967923478,0.0013902967957637,-0.0013902967946849,0.0013902967934153,0.67076169900742,0.59491377284373,114808,2744,0.0059298474455014,0.0059298474455323,0.0059298474455338,37.315184502906,37.308152455291,5.8521476023248e-05,5.8521476023248e-05,5.8521476023248e-05,1037027.9394012,0.017949385830862
38419200,0.99966092874441,0.017263430948985,0.0057544769829732,0.0057544769830051,0.0057544769830067,-0.0014272121395026,0.0014272121395868,1.2452304627406e-12,-1.1624025737283e-12,-3.2193631281479e-13,4.1599206378682e-13,-0.0014765231146057,0.0014765231152473,-0.0014765231154087,0.0014765231144459,-0.0014765231143692,0.0014765231154945,-0.001476523115171,0.00147652311469,-0.0013900898931902,0.0013900898958713,-0.0013900898955427,0.0013900898935112,3.2174558265801e-13,-4.1617963893888e-13,7.15451731676e-13,-7.9783150914799e-13,-0.001427212139594,0.0014272121395099,-0.0014765231146078,0.0014765231152668,-0.0014765231150945,0.001476523114758,-0.0014765231148453,0.001476523115019,-0.0014765231153317,0.0014765231145103,-0.0013900898939724,0.0013900898951282,-0.0013900898954306,0.0013900898936259,-0.0013900898944896,0.001390089894625,-0.0013900898952139,0.0013900898938854,-9.1796728025912e-13,1.4897310191517e-12,-0.001427212139266,0.0014272121398387,-4.4783178963447e-13,1.0464549138736e-12,-0.0014765231152974,0.0014765231145614,-0.0014765231147988,0.0014765231150566,-0.0014765231144949,0.001476523115365,-0.0014765231139973,0.0014765231158607,-0.0013900898928422,0.0013900898962681,-0.0013900898951922,0.0013900898939082,0.7125373054848,0.7925535283193,114808,2744,0.0059289882439688,0.0059289882439987,0.0059289882440006,37.197048658543,37.19360843,5.7576389268341e-05,5.7576389268341e-05,5.7576389268341e-05,1038055.0138607,0.017946761875686
38619200,0.99968453930893,0.017263841416929,0.0057546138056211,0.005754613805653,0.0057546138056546,-0.0014272670354824,0.0014272670355657,1.2515317610491e-12,-1.1695811463626e-12,-3.2239365477162e-13,4.1580250340129e-13,-0.0014765716659548,0.0014765716666005,-0.0014765716667635,0.0014765716657946,-0.0014765716657181,0.0014765716668484,-0.0014765716665241,0.0014765716660397,-0.0013901475864623,0.0013901475891551,-0.0013901475888266,0.0013901475867805,3.2182210973193e-13,-4.1638539735899e-13,7.1526709025784e-13,-7.9795538771653e-13,-0.0014272670355736,0.0014272670354894,-0.0014765716659586,0.0014765716666179,-0.0014765716664455,0.0014765716661086,-0.0014765716661969,0.0014765716663705,-0.001476571666683,0.0014765716658619,-0.00139014758725,0.0013901475884055,-0.001390147588708,0.0013901475869019,-0.0013901475877666,0.0013901475879022,-0.0013901475884905,0.0013901475871626,-9.2426032330509e-13,1.4968984178397e-12,-0.0014272670352452,0.0014272670358186,-4.4742280212875e-13,1.0468060207946e-12,-0.0014765716666505,0.0014765716659101,-0.0014765716661525,0.0014765716664067,-0.0014765716658437,0.0014765716667185,-0.0014765716653459,0.0014765716672143,-0.0013901475861116,0.0013901475895534,-0.001390147588475,0.0013901475871789,0.71625964333515,0.79944244,114808,2744,0.0059292156857554,0.0059292156857863,0.0059292156857879,37.193755088591,37.19360843,5.7550040708727e-05,5.7550040708727e-05,5.7550040708727e-05,1030327.6488544,0.017947456211742
38819200,0.99970650591393,0.017264224579857,0.0057547415265971,0.005754741526629,0.0057547415266306,-0.001427326201249,0.0014273262013323,1.258243840007e-12,-1.1763210829254e-12,-3.2250851890966e-13,4.1597738776458e-13,-0.0014766253878936,0.0014766253885437,-0.0014766253887068,0.0014766253877333,-0.0014766253876568,0.0014766253887917,-0.0014766253884673,0.0014766253879785,-0.0013902086972916,0.0013902086999977,-0.001390208699669,0.0013902086976097,3.2197010521077e-13,-4.165266283386e-13,7.1520932731658e-13,-7.9793191784528e-13,-0.0014273262013402,0.0014273262012559,-0.0014766253878995,0.0014766253885589,-0.0014766253883864,0.0014766253880497,-0.001476625388138,0.0014766253883114,-0.0014766253886241,0.0014766253878029,-0.001390208698086,0.0013902086992412,-0.0013902086995439,0.0013902086977377,-0.0013902086986022,0.0013902086987382,-0.0013902086993262,0.0013902086979981,-9.3097414761413e-13,1.503637241385e-12,-0.0014273262010118,0.0014273262015851,-4.4738327392455e-13,1.0467659631948e-12,-0.0014766253885937,0.0014766253878489,-0.0014766253880958,0.0014766253883454,-0.0014766253877824,0.0014766253886617,-0.0014766253872846,0.0014766253891575,-0.0013902086969408,0.0013902087003959,-0.0013902086993173,0.0013902086980081,0.71844597965343,0.79944244,114808,2744,0.0059294607982859,0.0059294607983167,0.0059294607983183,37.19361506283,37.19360843,5.7548920502638e-05,5.7548920502638e-05,5.7548920502638e-05,1023344.3733589,0.017948204579177
38880000,0.99971303522514,0.017264338598247,0.0057547795327271,0.0057547795327589,0.0057547795327605,-0.0014273439876623,0.0014273439877457,1.2602957773218e-12,-1.178357339653e-12,-3.2255351110135e-13,4.160281141561e-13,-0.0014766414814742,0.0014766414821257,-0.0014766414822888,0.0014766414813139,-0.0014766414812374,0.0014766414823737,-0.0014766414820493,0.0014766414815592,-0.0013902270577502,0.0013902270604604,-0.0013902270601316,0.0013902270580685,3.2201180981907e-13,-4.1657986200646e-13,7.1519773943529e-13,-7.9791685948177e-13,-0.0014273439877536,0.0014273439876693,-0.0014766414814808,0.0014766414821402,-0.0014766414819677,0.001476641481631,-0.0014766414817193,0.0014766414818927,-0.0014766414822054,0.0014766414813841,-0.0013902270585467,0.0013902270597018,-0.0013902270600046,0.0013902270581984,-0.0013902270590628,0.0013902270591989,-0.001390227059787,0.0013902270584588,-9.3302164388806e-13,1.5056772084772e-12,-0.0014273439874251,0.0014273439879985,-4.4737209779538e-13,1.0467497872184e-12,-0.0014766414821757,0.0014766414814295,-0.0014766414816778,0.0014766414819261,-0.001476641481363,0.0014766414822437,-0.0014766414808653,0.0014766414827395,-0.0013902270573995,0.0013902270608585,-0.00139022705978,0.0013902270584668,0.71909628268591,0.79944244,114808,2744,0.0059295344821521,0.005929534482183,0.0059295344821845,37.193609335238,37.19360843,5.7548874681902e-05,5.7548874681902e-05,5.7548874681902e-05,1021202.1431206,0.017948429554385
